     Program PWSCF v.5.0.2 (svn rev. 9656) starts on 30May2014 at  0:55:24

     Current dimensions of program PWSCF are:
     Max number of different atomic species (ntypx) = 10
     Max number of k-points (npk) =  40000
     Max angular momentum in pseudopotentials (lmaxx) =  3
     Reading input from pwscf.in
Warning: card &CELL ignored
Warning: card / ignored

     Subspace diagonalization in iterative solution of the eigenvalue problem:
     a serial algorithm will be used

     bravais-lattice index     =            0
     lattice parameter (alat)  =      12.0187  a.u.
     unit-cell volume          =    7280.5819 (a.u.)^3
     number of atoms/cell      =           33
     number of atomic types    =            3
     number of electrons       =       245.00
     number of Kohn-Sham states=          367
     kinetic-energy cutoff     =      40.0000  Ry
     charge density cutoff     =     500.0000  Ry
     convergence threshold     =      1.0E-06
     mixing beta               =       0.7000
     number of iterations used =            8  plain     mixing
     Exchange-correlation      = SLA  PW   PBE  PBE ( 1 4 3 4 0)
     EXX-fraction              =        0.00
     nstep                     =           50

     celldm(1)=  12.018658  celldm(2)=   0.000000  celldm(3)=   0.000000
     celldm(4)=   0.000000  celldm(5)=   0.000000  celldm(6)=   0.000000

     crystal axes: (cart. coord. in units of alat)
               a(1) = (   1.000000   0.000000   0.000000 )
               a(2) = (   0.000000   1.009517   0.000000 )
               a(3) = (   0.000000   0.000000   4.154171 )

     reciprocal axes: (cart. coord. in units 2 pi/alat)
               b(1) = (  1.000000  0.000000  0.000000 )
               b(2) = (  0.000000  0.990572  0.000000 )
               b(3) = (  0.000000  0.000000  0.240722 )

     PseudoPot. # 1 for O  read from file:
     /home/camp/zhonxu/pseudo/o_pbe_v1.01.uspp.F.UPF
     MD5 check sum: 2bcb18d16ea4b960afae9ec6d52f22d2
     Pseudo is Ultrasoft + core correction, Zval =  6.0
     Generated by new atomic code, or converted to UPF format
     Using radial grid of  737 points,  5 beta functions with:
                l(1) =   0
                l(2) =   0
                l(3) =   1
                l(4) =   1
                l(5) =   2
     Q(r) pseudized with  8 coefficients,  rinner =    0.900   0.900   0.900
                                                       0.900   0.900

     PseudoPot. # 2 for Ir read from file:
     /home/camp/zhonxu/pseudo/ir_pbe_v1.uspp.F.UPF
     MD5 check sum: abf987a9674477536ede83817f8f8b70
     Pseudo is Ultrasoft + core correction, Zval = 15.0
     Generated by new atomic code, or converted to UPF format
     Using radial grid of  983 points,  7 beta functions with:
                l(1) =   0
                l(2) =   0
                l(3) =   1
                l(4) =   1
                l(5) =   1
                l(6) =   2
                l(7) =   2
     Q(r) pseudized with  8 coefficients,  rinner =    1.350   1.350   1.350
                                                       1.350   1.350

     PseudoPot. # 3 for H  read from file:
     /home/camp/zhonxu/pseudo/h_pbe_v1.uspp.F.UPF
     MD5 check sum: 3408e3ff4ec8b0a4e358431e7e038a48
     Pseudo is Ultrasoft, Zval =  1.0
     Generated by new atomic code, or converted to UPF format
     Using radial grid of  615 points,  2 beta functions with:
                l(1) =   0
                l(2) =   0
     Q(r) pseudized with  8 coefficients,  rinner =    0.700

     atomic species   valence    mass     pseudopotential
        O0             6.00    15.99940     O ( 1.00)
        Ir1           15.00   192.22000     Ir( 1.00)
        H2             1.00     1.00794     H ( 1.00)

     Simplified LDA+U calculation (l_max = 2) with parameters (eV):
     atomic species    L          U    alpha       J0     beta
        Ir1            2     6.5000   0.0000   0.0000   0.0000

     No symmetry found

   Cartesian axes

     site n.     atom                  positions (alat units)
         1           O0  tau(   1) = (   0.0000000   0.0000000   1.5694875  )
         2           O0  tau(   2) = (   0.0000000   0.5047586   1.6702677  )
         3           Ir1 tau(   3) = (   0.2500000   0.5047586   1.8805934  )
         4           Ir1 tau(   4) = (   0.0000000   0.0000000   1.8807595  )
         5           O0  tau(   5) = (   0.2500000   0.8177090   1.8801779  )
         6           O0  tau(   6) = (   0.2500000   0.1918083   1.8787655  )
         7           O0  tau(   7) = (   0.0000000   0.5047586   2.0695666  )
         8           O0  tau(   8) = (   0.0000000   0.0000000   2.1948564  )
         9           Ir1 tau(   9) = (   0.2500000   0.0000000   2.3901025  )
        10           Ir1 tau(  10) = (   0.0000000   0.5047586   2.3742751  )
        11           O0  tau(  11) = (   0.2500000   0.6965669   2.3856575  )
        12           O0  tau(  12) = (   0.2500000   0.3129503   2.3949628  )
        13           O0  tau(  13) = (   0.0000000   0.0000000   2.5754200  )
        14           O0  tau(  14) = (   0.5000000   0.0000000   1.5694875  )
        15           O0  tau(  15) = (   0.5000000   0.5047586   1.6704338  )
        16           Ir1 tau(  16) = (   0.7500000   0.5047586   1.8805934  )
        17           Ir1 tau(  17) = (   0.5000000   0.0000000   1.8805518  )
        18           O0  tau(  18) = (   0.7500000   0.8177090   1.8801364  )
        19           O0  tau(  19) = (   0.7500000   0.1918083   1.8788486  )
        20           O0  tau(  20) = (   0.5000000   0.5047586   2.0759640  )
        21           O0  tau(  21) = (   0.5000000   0.0000000   2.1945241  )
        22           Ir1 tau(  22) = (   0.7500000   0.0000000   2.3900609  )
        23           Ir1 tau(  23) = (   0.5000000   0.5047586   2.3998648  )
        24           O0  tau(  24) = (   0.7500000   0.6965669   2.3856575  )
        25           O0  tau(  25) = (   0.7500000   0.3129503   2.3949628  )
        26           O0  tau(  26) = (   0.5000000   0.0000000   2.5728445  )
        27           H2  tau(  27) = (   0.0000400   0.6420328   1.5957418  )
        28           H2  tau(  28) = (   0.4999400   0.6424971   1.5965311  )
        29           H2  tau(  29) = (   0.1432100   0.0360095   1.5217560  )
        30           H2  tau(  30) = (   0.6436700   0.0339703   1.5215899  )
        31           O0  tau(  31) = (   0.4997900   0.5432313   2.6993805  )
        32           O0  tau(  32) = (   0.5001800   0.3480815   2.8224271  )
        33           H2  tau(  33) = (   0.4999800   0.4114489   2.9642920  )

     number of k points=    10  Methfessel-Paxton smearing, width (Ry)=  0.0100
                       cart. coord. in units 2pi/alat
        k(    1) = (   0.0000000   0.0000000   0.0000000), wk =   0.1250000
        k(    2) = (   0.0000000   0.2476431   0.0000000), wk =   0.2500000
        k(    3) = (   0.0000000  -0.4952862   0.0000000), wk =   0.1250000
        k(    4) = (   0.2500000   0.0000000   0.0000000), wk =   0.2500000
        k(    5) = (   0.2500000   0.2476431   0.0000000), wk =   0.2500000
        k(    6) = (   0.2500000  -0.4952862   0.0000000), wk =   0.2500000
        k(    7) = (  -0.5000000   0.0000000   0.0000000), wk =   0.1250000
        k(    8) = (  -0.5000000   0.2476431   0.0000000), wk =   0.2500000
        k(    9) = (  -0.5000000  -0.4952862   0.0000000), wk =   0.1250000
        k(   10) = (  -0.2500000   0.2476431   0.0000000), wk =   0.2500000

     Largest allocated arrays     est. size (Mb)     dimensions
     Largest temporary arrays     est. size (Mb)     dimensions

     Check: negative/imaginary core charge=   -0.000003    0.000000

     Initial potential from superposition of free atoms
     Check: negative starting charge=   -3.336869

     starting charge  240.99967, renormalised to  245.00000

     negative rho (up, down):  0.339E+01 0.000E+00
     Number of +U iterations with fixed ns =  0
     Starting occupations:
 --- enter write_ns ---
 LDA+U parameters:
U( 2)     =  6.50000000
alpha( 2) =  0.00000000
atom    3   Tr[ns(na)] =   7.00000
    eigenvalues:
  0.700  0.700  0.700  0.700  0.700
    eigenvectors:
  1.000  0.000  0.000  0.000  0.000
  0.000  1.000  0.000  0.000  0.000
  0.000  0.000  1.000  0.000  0.000
  0.000  0.000  0.000  1.000  0.000
  0.000  0.000  0.000  0.000  1.000
    occupations:
  0.700  0.000  0.000  0.000  0.000
  0.000  0.700  0.000  0.000  0.000
  0.000  0.000  0.700  0.000  0.000
  0.000  0.000  0.000  0.700  0.000
  0.000  0.000  0.000  0.000  0.700
atom    4   Tr[ns(na)] =   7.00000
    eigenvalues:
  0.700  0.700  0.700  0.700  0.700
    eigenvectors:
  1.000  0.000  0.000  0.000  0.000
  0.000  1.000  0.000  0.000  0.000
  0.000  0.000  1.000  0.000  0.000
  0.000  0.000  0.000  1.000  0.000
  0.000  0.000  0.000  0.000  1.000
    occupations:
  0.700  0.000  0.000  0.000  0.000
  0.000  0.700  0.000  0.000  0.000
  0.000  0.000  0.700  0.000  0.000
  0.000  0.000  0.000  0.700  0.000
  0.000  0.000  0.000  0.000  0.700
atom    9   Tr[ns(na)] =   7.00000
    eigenvalues:
  0.700  0.700  0.700  0.700  0.700
    eigenvectors:
  1.000  0.000  0.000  0.000  0.000
  0.000  1.000  0.000  0.000  0.000
  0.000  0.000  1.000  0.000  0.000
  0.000  0.000  0.000  1.000  0.000
  0.000  0.000  0.000  0.000  1.000
    occupations:
  0.700  0.000  0.000  0.000  0.000
  0.000  0.700  0.000  0.000  0.000
  0.000  0.000  0.700  0.000  0.000
  0.000  0.000  0.000  0.700  0.000
  0.000  0.000  0.000  0.000  0.700
atom   10   Tr[ns(na)] =   7.00000
    eigenvalues:
  0.700  0.700  0.700  0.700  0.700
    eigenvectors:
  1.000  0.000  0.000  0.000  0.000
  0.000  1.000  0.000  0.000  0.000
  0.000  0.000  1.000  0.000  0.000
  0.000  0.000  0.000  1.000  0.000
  0.000  0.000  0.000  0.000  1.000
    occupations:
  0.700  0.000  0.000  0.000  0.000
  0.000  0.700  0.000  0.000  0.000
  0.000  0.000  0.700  0.000  0.000
  0.000  0.000  0.000  0.700  0.000
  0.000  0.000  0.000  0.000  0.700
atom   16   Tr[ns(na)] =   7.00000
    eigenvalues:
  0.700  0.700  0.700  0.700  0.700
    eigenvectors:
  1.000  0.000  0.000  0.000  0.000
  0.000  1.000  0.000  0.000  0.000
  0.000  0.000  1.000  0.000  0.000
  0.000  0.000  0.000  1.000  0.000
  0.000  0.000  0.000  0.000  1.000
    occupations:
  0.700  0.000  0.000  0.000  0.000
  0.000  0.700  0.000  0.000  0.000
  0.000  0.000  0.700  0.000  0.000
  0.000  0.000  0.000  0.700  0.000
  0.000  0.000  0.000  0.000  0.700
atom   17   Tr[ns(na)] =   7.00000
    eigenvalues:
  0.700  0.700  0.700  0.700  0.700
    eigenvectors:
  1.000  0.000  0.000  0.000  0.000
  0.000  1.000  0.000  0.000  0.000
  0.000  0.000  1.000  0.000  0.000
  0.000  0.000  0.000  1.000  0.000
  0.000  0.000  0.000  0.000  1.000
    occupations:
  0.700  0.000  0.000  0.000  0.000
  0.000  0.700  0.000  0.000  0.000
  0.000  0.000  0.700  0.000  0.000
  0.000  0.000  0.000  0.700  0.000
  0.000  0.000  0.000  0.000  0.700
atom   22   Tr[ns(na)] =   7.00000
    eigenvalues:
  0.700  0.700  0.700  0.700  0.700
    eigenvectors:
  1.000  0.000  0.000  0.000  0.000
  0.000  1.000  0.000  0.000  0.000
[...]
  0.000  0.950 -0.000  0.000 -0.009
  0.007 -0.000  0.957 -0.000 -0.000
  0.039  0.000 -0.000  0.982  0.000
 -0.000 -0.009 -0.000  0.000  0.613
atom   16   Tr[ns(na)] =   8.21438
    eigenvalues:
  0.607  0.634  0.909  0.973  0.984
    eigenvectors:
  0.005  0.177  0.004  0.001  0.813
  0.976  0.024  0.000  0.000  0.000
  0.000  0.000  0.991  0.006  0.004
  0.018  0.799  0.000  0.000  0.182
  0.000  0.000  0.005  0.993  0.001
    occupations:
  0.920  0.005  0.003 -0.136  0.001
  0.005  0.607 -0.000  0.002 -0.005
  0.003 -0.000  0.910 -0.004 -0.005
 -0.136  0.002 -0.004  0.697 -0.000
  0.001 -0.005 -0.005 -0.000  0.973
atom   17   Tr[ns(na)] =   8.21676
    eigenvalues:
  0.619  0.671  0.895  0.937  0.987
    eigenvectors:
  0.000  0.989  0.000  0.000  0.011
  0.000  0.000  0.068  0.931  0.000
  0.000  0.000  0.932  0.068  0.000
  0.000  0.011  0.000  0.000  0.989
  0.999  0.000  0.000  0.000  0.000
    occupations:
  0.674 -0.003 -0.001  0.032  0.001
 -0.003  0.934  0.011  0.000 -0.002
 -0.001  0.011  0.897 -0.000  0.001
  0.032  0.000 -0.000  0.983  0.000
  0.001 -0.002  0.001  0.000  0.619
atom   22   Tr[ns(na)] =   8.20964
    eigenvalues:
  0.655  0.671  0.877  0.916  0.986
    eigenvectors:
  0.000  0.139  0.000  0.000  0.861
  1.000  0.000  0.000  0.000  0.000
  0.000  0.000  0.992  0.007  0.000
  0.000  0.861  0.000  0.000  0.139
  0.000  0.000  0.007  0.993  0.000
    occupations:
  0.942  0.001 -0.000 -0.109  0.000
  0.001  0.655  0.001 -0.001 -0.000
 -0.000  0.001  0.877 -0.004  0.003
 -0.109 -0.001 -0.004  0.715  0.001
  0.000 -0.000  0.003  0.001  0.915
atom   23   Tr[ns(na)] =   8.22340
    eigenvalues:
  0.621  0.663  0.881  0.961  0.986
    eigenvectors:
  0.000  0.992  0.000  0.003  0.005
  0.001  0.000  0.998  0.000  0.000
  0.000  0.002  0.000  0.996  0.002
  0.000  0.005  0.000  0.001  0.993
  0.999  0.000  0.001  0.000  0.000
    occupations:
  0.666 -0.000  0.014  0.024 -0.000
 -0.000  0.881 -0.001 -0.000 -0.010
  0.014 -0.001  0.960 -0.002  0.000
  0.024 -0.000 -0.002  0.984 -0.000
 -0.000 -0.010  0.000 -0.000  0.621
N of occupied +U levels =  65.6723510
 --- exit write_ns ---

     Threshold (ethr) on eigenvalues was too large:
     Diagonalizing with lowered threshold

     Davidson diagonalization with overlap
     ethr =  1.70E-08,  avg # of iterations =  1.9

[...]

     total energy              =   -2136.98198800 Ry
     Harris-Foulkes estimate   =   -2136.98198800 Ry
     estimated scf accuracy    <       0.00000001 Ry

     iteration # 16     ecut=    40.00 Ry     beta=0.70
     Davidson diagonalization with overlap
     ethr =  4.38E-12,  avg # of iterations =  1.0

     negative rho (up, down):  0.314E+01 0.000E+00

     End of self-consistent calculation
 --- enter write_ns ---
 LDA+U parameters:
U( 2)     =  6.50000000
alpha( 2) =  0.00000000
atom    3   Tr[ns(na)] =   8.21420
    eigenvalues:
  0.607  0.634  0.909  0.973  0.984
    eigenvectors:
  0.006  0.177  0.003  0.000  0.814
  0.975  0.025  0.000  0.000  0.000
  0.000  0.000  0.987  0.009  0.003
  0.019  0.799  0.000  0.000  0.182
  0.000  0.000  0.009  0.990  0.001
    occupations:
  0.920 -0.005  0.003 -0.136 -0.001
 -0.005  0.607 -0.001 -0.002 -0.005
  0.003 -0.001  0.910 -0.004  0.006
 -0.136 -0.002 -0.004  0.697 -0.000
 -0.001 -0.005  0.006 -0.000  0.973
atom    4   Tr[ns(na)] =   8.21761
    eigenvalues:
  0.619  0.671  0.894  0.938  0.986
    eigenvectors:
  0.000  0.989  0.000  0.000  0.011
  0.000  0.000  0.079  0.921  0.000
  0.000  0.000  0.921  0.079  0.000
  0.000  0.011  0.000  0.000  0.989
  1.000  0.000  0.000  0.000  0.000
    occupations:
  0.674 -0.003 -0.001  0.032  0.001
 -0.003  0.935  0.012  0.000 -0.002
 -0.001  0.012  0.897 -0.000  0.001
  0.032  0.000 -0.000  0.983  0.000
  0.001 -0.002  0.001  0.000  0.620
atom    9   Tr[ns(na)] =   8.20935
    eigenvalues:
  0.655  0.671  0.877  0.915  0.986
    eigenvectors:
  0.000  0.139  0.000  0.000  0.860
  0.998  0.002  0.000  0.000  0.000
  0.000  0.000  0.991  0.008  0.000
  0.002  0.859  0.000  0.000  0.139
  0.000  0.000  0.008  0.992  0.000
    occupations:
  0.942 -0.001  0.000 -0.109 -0.001
 -0.001  0.655  0.000  0.001 -0.000
  0.000  0.000  0.877 -0.004 -0.003
 -0.109  0.001 -0.004  0.715  0.001
 -0.001 -0.000 -0.003  0.001  0.915
atom   10   Tr[ns(na)] =   8.16613
    eigenvalues:
  0.576  0.613  0.951  0.957  0.986
    eigenvectors:
  0.991  0.000  0.000  0.000  0.009
  0.000  0.001  0.998  0.001  0.000
  0.000  0.000  0.001  0.998  0.000
  0.009  0.000  0.000  0.000  0.991
  0.000  0.999  0.001  0.000  0.000
    occupations:
  0.580  0.000  0.007  0.039 -0.000
  0.000  0.950 -0.000  0.000 -0.009
  0.007 -0.000  0.957 -0.000 -0.000
  0.039  0.000 -0.000  0.982  0.000
 -0.000 -0.009 -0.000  0.000  0.613
atom   16   Tr[ns(na)] =   8.21416
    eigenvalues:
  0.607  0.634  0.909  0.973  0.984
    eigenvectors:
  0.005  0.177  0.004  0.001  0.813
  0.976  0.024  0.000  0.000  0.000
  0.000  0.000  0.991  0.006  0.004
  0.018  0.799  0.000  0.000  0.182
  0.000  0.000  0.005  0.993  0.001
    occupations:
  0.920  0.005  0.003 -0.136  0.001
  0.005  0.607 -0.000  0.002 -0.005
  0.003 -0.000  0.910 -0.004 -0.005
 -0.136  0.002 -0.004  0.697 -0.000
  0.001 -0.005 -0.005 -0.000  0.973
atom   17   Tr[ns(na)] =   8.21654
    eigenvalues:
  0.619  0.671  0.895  0.937  0.987
    eigenvectors:
  0.000  0.989  0.000  0.000  0.011
  0.000  0.000  0.068  0.931  0.000
  0.000  0.000  0.932  0.068  0.000
  0.000  0.011  0.000  0.000  0.989
  0.999  0.000  0.000  0.000  0.000
    occupations:
  0.674 -0.003 -0.001  0.032  0.001
 -0.003  0.934  0.011  0.000 -0.002
 -0.001  0.011  0.897 -0.000  0.001
  0.032  0.000 -0.000  0.983  0.000
  0.001 -0.002  0.001  0.000  0.619
atom   22   Tr[ns(na)] =   8.20935
    eigenvalues:
  0.655  0.671  0.877  0.915  0.986
    eigenvectors:
  0.000  0.139  0.000  0.000  0.861
  1.000  0.000  0.000  0.000  0.000
  0.000  0.000  0.992  0.007  0.000
  0.000  0.861  0.000  0.000  0.139
  0.000  0.000  0.007  0.993  0.000
    occupations:
  0.942  0.001 -0.000 -0.109  0.000
  0.001  0.655  0.001 -0.001 -0.000
 -0.000  0.001  0.877 -0.004  0.003
 -0.109 -0.001 -0.004  0.715  0.001
  0.000 -0.000  0.003  0.001  0.915
atom   23   Tr[ns(na)] =   8.22404
    eigenvalues:
  0.621  0.663  0.882  0.961  0.986
    eigenvectors:
  0.000  0.992  0.000  0.003  0.005
  0.001  0.000  0.998  0.000  0.000
  0.000  0.002  0.000  0.996  0.002
  0.000  0.005  0.000  0.001  0.993
  0.999  0.000  0.001  0.000  0.000
    occupations:
  0.666 -0.000  0.014  0.024 -0.000
 -0.000  0.881 -0.001 -0.000 -0.010
  0.014 -0.001  0.960 -0.002  0.000
  0.024 -0.000 -0.002  0.984 -0.000
 -0.000 -0.010  0.000 -0.000  0.621
N of occupied +U levels =  65.6713930
 --- exit write_ns ---

[...]

          k = 0.2500-0.4953 0.0000 ( 31088 PWs)   bands (ev):

[...]

          k =-0.2500 0.2476 0.0000 ( 31099 PWs)   bands (ev):

   -49.9599 -49.8270 -49.8213 -49.8003 -49.7919 -49.7386 -49.7186 -49.7092
   -49.6996 -49.6880 -49.6826 -49.6604 -49.5439 -49.5339 -49.4496 -49.4467
   -49.4427 -49.4370 -49.3786 -49.3728 -49.3677 -49.3237 -49.3217 -49.3131
   -23.6285 -20.8884 -20.6622 -20.6157 -20.5159 -20.2066 -20.1728 -20.1645
   -19.9747 -19.8870 -19.6930 -19.6415 -19.4902 -19.4538 -19.3796 -19.2951
   -19.2071 -18.5078 -18.3285 -17.3534 -10.2703 -10.1227  -9.8273  -9.7990
    -9.4704  -9.3969  -9.2631  -9.2217  -9.1211  -8.7524  -8.5081  -8.4726
    -8.3822  -8.2798  -8.1135  -7.9883  -7.8869  -7.8077  -7.7286  -7.4217
    -7.2822  -7.1635  -7.0487  -6.9308  -6.8991  -6.8178  -6.7344  -6.6640
    -6.4774  -6.2984  -6.2032  -6.0880  -6.0189  -5.9532  -5.8761  -5.7883
    -5.7499  -5.6795  -5.5652  -5.4552  -5.3189  -5.2437  -5.1767  -5.0202
    -4.7813  -4.5972  -4.4325  -4.3303  -4.2281  -4.1781  -3.9948  -3.9567
    -3.8101  -3.6964  -3.4807  -3.3756  -3.3045  -3.2516  -3.1511  -3.0508
    -2.9598  -2.8443  -2.8130  -2.6646  -2.6225  -2.5667  -2.5441  -2.4809
    -2.2663  -2.2404  -2.1506  -2.0191  -1.7308  -1.4420  -1.2324  -1.2001
    -1.0139  -0.9796  -0.7439  -0.5894  -0.4020  -0.3284  -0.1234   0.5599
     1.5626   1.5833   1.8424   2.1574   2.3459   2.7567   2.9006   3.1115
     3.2722   3.4362   3.4841   3.6586   3.7352   3.9124   3.9348   4.0622
     4.2742   4.5057   4.7677   5.2762   5.4333   5.7868   6.0659   6.1126
     6.2348   6.4156   6.5821   6.6446   6.7502   7.0489   7.1644   7.3148
     7.5169   7.6903   7.8565   7.9181   7.9820   8.2136   8.2997   8.3680
     8.3775   8.4789   8.7498   8.8120   8.9071   9.0923   9.1367   9.2212
     9.2559   9.4365   9.5654   9.6259   9.7188   9.7920   9.8698   9.9873
    10.0548  10.1384  10.1555  10.2095  10.2222  10.2270  10.2371  10.2523
    10.2534  10.3318  10.4124  10.4380  10.4395  10.5002  10.5522  10.5836
    10.6876  10.7342  10.8462  10.9609  11.0132  11.0716  11.1930  11.2315
    11.3192  11.3921  11.4731  11.5790  11.7278  11.7656  11.8261  11.9033
    11.9263  12.0918  12.1292  12.2177  12.3549  12.5056  12.5295  12.5528
    12.6092  12.6946  12.8209  12.8895  13.0072  13.0358  13.0953  13.2152
    13.2698  13.3188  13.4008  13.5551  13.6509  13.7358  13.7911  13.8918
    13.9259  14.0081  14.0615  14.1790  14.2327  14.2918  14.3564  14.4488
    14.4682  14.5519  14.6584  14.7634  14.8387  14.8904  15.0973  15.1255
    15.1531  15.2421  15.3868  15.4167  15.5553  15.6119  15.6619  15.6887
    15.7303  15.7952  15.8515  15.9423  15.9748  16.0390  16.0803  16.1071
    16.2201  16.2780  16.3512  16.4096  16.4821  16.5394  16.5693  16.6480
    16.7159  16.7583  16.7946  16.8641  16.9587  17.0226  17.1874  17.2494
    17.2958  17.3384  17.3973  17.4443  17.5063  17.5995  17.6421  17.6948
    17.7366  17.8276  17.8570  17.8854  17.9256  18.0102  18.0646  18.1542
    18.2267  18.3140  18.3966  18.5126  18.6042  18.6929  18.7614  18.7890
    18.8164  18.8851  19.0395  19.0553  19.1331  19.2244  19.2820  19.3778
    19.3912  19.4752  19.5695  19.6385  19.7005  19.7640  19.8204  19.8673
    19.9571  20.0136  20.1464  20.2717  20.3128  20.3814  20.4465  20.5366
    20.6626  20.6881  20.7512  20.7969  20.8222  20.8843  20.9443  21.0473
    21.1183  21.1371  21.1901  21.2472  21.2889  21.3203  21.3609  21.4511
    21.5139  21.5815  21.6764  21.7014  21.7250  21.8479  21.8813  21.9356
    21.9928  22.0345  22.0853  22.1557  22.2306  22.3194  22.4064

     the Fermi energy is    -0.8049 ev

!    total energy              =   -2136.98198800 Ry
     Harris-Foulkes estimate   =   -2136.98198800 Ry
     estimated scf accuracy    <          1.2E-09 Ry

     The total energy is the sum of the following terms:

     one-electron contribution =  -23169.09022891 Ry
     hartree contribution      =   11637.22209099 Ry
     xc contribution           =    -584.26153592 Ry
     ewald contribution        =    9976.79443534 Ry
     Hubbard energy            =       2.35324549 Ry
     smearing contrib. (-TS)   =       0.00000501 Ry

     convergence has been achieved in  16 iterations

     Forces acting on atoms (Ry/au):

     negative rho (up, down):  0.314E+01 0.000E+00
     atom    1 type  1   force =    -0.00722549   -0.01232125    0.00001793
     atom    2 type  1   force =     0.00010373    0.00315217   -0.00056559
     atom    3 type  2   force =     0.03055217    0.00580422    0.00007115
     atom    4 type  2   force =     0.00841851    0.00713597    0.00015901
     atom    5 type  1   force =    -0.00512024   -0.01944336   -0.00027811
     atom    6 type  1   force =     0.00601019    0.01906217   -0.00008808
     atom    7 type  1   force =    -0.00044745   -0.00431752   -0.00015687
     atom    8 type  1   force =    -0.00307401    0.00078551   -0.00003291
     atom    9 type  2   force =     0.00624597    0.00053372    0.00012337
     atom   10 type  2   force =    -0.00013490    0.00059407   -0.00002482
     atom   11 type  1   force =    -0.00141931    0.02194935    0.00015421
     atom   12 type  1   force =     0.00509913   -0.01674549    0.00019324
     atom   13 type  1   force =    -0.00076779   -0.00277017   -0.00017129
     atom   14 type  1   force =    -0.00661643   -0.01241518    0.00016865
     atom   15 type  1   force =     0.00007032    0.00323459   -0.00023158
     atom   16 type  2   force =    -0.03020181    0.00567502    0.00005589
     atom   17 type  2   force =     0.00824612    0.00763052    0.00013194
     atom   18 type  1   force =    -0.00420579   -0.02015334   -0.00026843
     atom   19 type  1   force =     0.00665784    0.01847557   -0.00009198
     atom   20 type  1   force =    -0.00031638   -0.00732502    0.00054161
     atom   21 type  1   force =    -0.00315887    0.00148082   -0.00016775
     atom   22 type  2   force =    -0.00397452    0.00005401    0.00017474
     atom   23 type  2   force =    -0.00046953    0.00379217   -0.00026704
     atom   24 type  1   force =     0.00101362    0.02171237    0.00018246
     atom   25 type  1   force =    -0.00418276   -0.01689328    0.00024189
     atom   26 type  1   force =    -0.00092608   -0.00979416    0.00048736
     atom   27 type  3   force =     0.00001387    0.00041541    0.00026685
     atom   28 type  3   force =     0.00002260    0.00037891    0.00062601
     atom   29 type  3   force =    -0.00008987    0.00017759    0.00023547
     atom   30 type  3   force =    -0.00025797    0.00027665    0.00009182
     atom   31 type  1   force =    -0.00017745   -0.00044231   -0.00001810
     atom   32 type  1   force =     0.00030865    0.00082723   -0.00083485
     atom   33 type  3   force =     0.00000393   -0.00052693   -0.00072621

     Total force =     0.002245     Total SCF correction =     0.000097

     entering subroutine stress ...

     negative rho (up, down):  0.314E+01 0.000E+00
          total   stress  (Ry/bohr**3)                   (kbar)     P=  -16.00
  -0.00013359   0.00000841   0.00000373        -19.65      1.24      0.55
   0.00000841  -0.00014252   0.00000442          1.24    -20.97      0.65
   0.00000373   0.00000442  -0.00005010          0.55      0.65     -7.37

     bfgs converged in   9 scf cycles and   8 bfgs steps
     (criteria: energy < 0.10E-03, force < 0.10E-02)

     End of BFGS Geometry Optimization

     Final energy   =   -2136.9819880028 Ry
Begin final coordinates

ATOMIC_POSITIONS (crystal)
O0       0.000000000   0.000000000   0.378278775    0   0   1
O0       0.000000000   0.500000000   0.403000467    0   0   1
Ir1      0.250000000   0.500000000   0.453029715    0   0   1
Ir1      0.000000000   0.000000000   0.452849402    0   0   1
O0       0.250000000   0.810000000   0.452937696    0   0   1
O0       0.250000000   0.190000000   0.452412524    0   0   1
O0       0.000000000   0.500000000   0.499067292    0   0   1
O0       0.000000000   0.000000000   0.528197319    0   0   1
Ir1      0.250000000   0.000000000   0.574734882    0   0   1
Ir1      0.000000000   0.500000000   0.571741480    0   0   1
O0       0.250000000   0.690000000   0.573672867    0   0   1
O0       0.250000000   0.310000000   0.575881188    0   0   1
O0       0.000000000   0.000000000   0.619401385    0   0   1
O0       0.500000000   0.000000000   0.378088902    0   0   1
O0       0.500000000   0.500000000   0.402782661    0   0   1
Ir1      0.750000000   0.500000000   0.453026694    0   0   1
Ir1      0.500000000   0.000000000   0.452631701    0   0   1
O0       0.750000000   0.810000000   0.452931740    0   0   1
O0       0.750000000   0.190000000   0.452430546    0   0   1
O0       0.500000000   0.500000000   0.500009721    0   0   1
O0       0.500000000   0.000000000   0.528113375    0   0   1
Ir1      0.750000000   0.000000000   0.574736191    0   0   1
Ir1      0.500000000   0.500000000   0.576980576    0   0   1
O0       0.750000000   0.690000000   0.573681301    0   0   1
O0       0.750000000   0.310000000   0.575895294    0   0   1
O0       0.500000000   0.000000000   0.618966628    0   0   1
H2      -0.000127307   0.634129287   0.384509083
H2       0.499796971   0.635506938   0.384837609
H2       0.143063435   0.036204339   0.366750359
H2       0.643615868   0.034516147   0.366627856
O0       0.499375522   0.535671845   0.649513398
O0       0.500611162   0.345960175   0.678785102
H2       0.499997168   0.407927376   0.713066273
End final coordinates

     General routines

     Parallel routines
     Hubbard U routines

   This run was terminated on:  13: 8:51  30May2014

   JOB DONE.
Running PBS batch system epilogue script
Job id: 373286.audhumbla.fysik.dtu.dk
Username: zhonxu
Groupname: campgst
Jobname: IrO2/Eads-2-layers/OOH-U-6.5
Sessionid: 16084
Queuename: verylong
Accounting:
This job has allocated the following 16 nodes:
d102 d102 d102 d102 d102 d102 d102 d102 d095 d095 d095 d095 d095 d095 d095 d095
Finished epilogue job 373286.audhumbla.fysik.dtu.dk for zhonxu