     Program PWSCF v.5.0.2 (svn rev. 9656) starts on 29Apr2014 at  6:18:18

     Current dimensions of program PWSCF are:
     Max number of different atomic species (ntypx) = 10
     Max number of k-points (npk) =  40000
     Max angular momentum in pseudopotentials (lmaxx) =  3
     Reading input from pwscf.in
Warning: card &CELL ignored
Warning: card / ignored

     Subspace diagonalization in iterative solution of the eigenvalue problem:
     a serial algorithm will be used

     bravais-lattice index     =            0
     lattice parameter (alat)  =      12.0187  a.u.
     unit-cell volume          =    7280.5819 (a.u.)^3
     number of atoms/cell      =           32
     number of atomic types    =            3
     number of electrons       =       239.00
     number of Kohn-Sham states=          358
     kinetic-energy cutoff     =      40.0000  Ry
     charge density cutoff     =     500.0000  Ry
     convergence threshold     =      1.0E-06
     mixing beta               =       0.7000
     number of iterations used =            8  plain     mixing
     Exchange-correlation      = SLA  PW   PBE  PBE ( 1 4 3 4 0)
     EXX-fraction              =        0.00
     nstep                     =           50

     celldm(1)=  12.018658  celldm(2)=   0.000000  celldm(3)=   0.000000
     celldm(4)=   0.000000  celldm(5)=   0.000000  celldm(6)=   0.000000

     crystal axes: (cart. coord. in units of alat)
               a(1) = (   1.000000   0.000000   0.000000 )
               a(2) = (   0.000000   1.009517   0.000000 )
               a(3) = (   0.000000   0.000000   4.154171 )

     reciprocal axes: (cart. coord. in units 2 pi/alat)
               b(1) = (  1.000000  0.000000  0.000000 )
               b(2) = (  0.000000  0.990572  0.000000 )
               b(3) = (  0.000000  0.000000  0.240722 )

     PseudoPot. # 1 for O  read from file:
     /home/camp/zhonxu/pseudo/o_pbe_v1.01.uspp.F.UPF
     MD5 check sum: 2bcb18d16ea4b960afae9ec6d52f22d2
     Pseudo is Ultrasoft + core correction, Zval =  6.0
     Generated by new atomic code, or converted to UPF format
     Using radial grid of  737 points,  5 beta functions with:
                l(1) =   0
                l(2) =   0
                l(3) =   1
                l(4) =   1
                l(5) =   2
     Q(r) pseudized with  8 coefficients,  rinner =    0.900   0.900   0.900
                                                       0.900   0.900

     PseudoPot. # 2 for Ir read from file:
     /home/camp/zhonxu/pseudo/ir_pbe_v1.uspp.F.UPF
     MD5 check sum: abf987a9674477536ede83817f8f8b70
     Pseudo is Ultrasoft + core correction, Zval = 15.0
     Generated by new atomic code, or converted to UPF format
     Using radial grid of  983 points,  7 beta functions with:
                l(1) =   0
                l(2) =   0
                l(3) =   1
                l(4) =   1
                l(5) =   1
                l(6) =   2
                l(7) =   2
     Q(r) pseudized with  8 coefficients,  rinner =    1.350   1.350   1.350
                                                       1.350   1.350

     PseudoPot. # 3 for H  read from file:
     /home/camp/zhonxu/pseudo/h_pbe_v1.uspp.F.UPF
     MD5 check sum: 3408e3ff4ec8b0a4e358431e7e038a48
     Pseudo is Ultrasoft, Zval =  1.0
     Generated by new atomic code, or converted to UPF format
     Using radial grid of  615 points,  2 beta functions with:
                l(1) =   0
                l(2) =   0
     Q(r) pseudized with  8 coefficients,  rinner =    0.700

     atomic species   valence    mass     pseudopotential
        O0             6.00    15.99940     O ( 1.00)
        Ir1           15.00   192.22000     Ir( 1.00)
        H2             1.00     1.00794     H ( 1.00)

     Simplified LDA+U calculation (l_max = 2) with parameters (eV):
     atomic species    L          U    alpha       J0     beta
        Ir1            2     4.5000   0.0000   0.0000   0.0000

     No symmetry found

   Cartesian axes

     site n.     atom                  positions (alat units)
         1           O0  tau(   1) = (   0.0000000   0.0000000   1.5715230  )
         2           O0  tau(   2) = (   0.0000000   0.5047586   1.6723863  )
         3           Ir1 tau(   3) = (   0.2500000   0.5047586   1.8804272  )
         4           Ir1 tau(   4) = (   0.0000000   0.0000000   1.8823796  )
         5           O0  tau(   5) = (   0.2500000   0.8177090   1.8809672  )
         6           O0  tau(   6) = (   0.2500000   0.1918083   1.8797625  )
         7           O0  tau(   7) = (   0.0000000   0.5047586   2.0697743  )
         8           O0  tau(   8) = (   0.0000000   0.0000000   2.1967673  )
         9           Ir1 tau(   9) = (   0.2500000   0.0000000   2.3926365  )
        10           Ir1 tau(  10) = (   0.0000000   0.5047586   2.3747736  )
        11           O0  tau(  11) = (   0.2500000   0.6965669   2.3923873  )
        12           O0  tau(  12) = (   0.2500000   0.3129503   2.3927196  )
        13           O0  tau(  13) = (   0.0000000   0.0000000   2.5779541  )
        14           O0  tau(  14) = (   0.5000000   0.0000000   1.5704845  )
        15           O0  tau(  15) = (   0.5000000   0.5047586   1.6698107  )
        16           Ir1 tau(  16) = (   0.7500000   0.5047586   1.8805103  )
        17           Ir1 tau(  17) = (   0.5000000   0.0000000   1.8817565  )
        18           O0  tau(  18) = (   0.7500000   0.8177090   1.8810503  )
        19           O0  tau(  19) = (   0.7500000   0.1918083   1.8797625  )
        20           O0  tau(  20) = (   0.5000000   0.5047586   2.0748424  )
        21           O0  tau(  21) = (   0.5000000   0.0000000   2.1964350  )
        22           Ir1 tau(  22) = (   0.7500000   0.0000000   2.3925119  )
        23           Ir1 tau(  23) = (   0.5000000   0.5047586   2.3910995  )
        24           O0  tau(  24) = (   0.7500000   0.6965669   2.3896040  )
        25           O0  tau(  25) = (   0.7500000   0.3129503   2.3900194  )
        26           O0  tau(  26) = (   0.5000000   0.0000000   2.5760847  )
        27           H2  tau(  27) = (  -0.0000400   0.6399431   1.5942048  )
        28           H2  tau(  28) = (   0.5000100   0.6429817   1.5968219  )
        29           H2  tau(  29) = (   0.1437000   0.0339904   1.5235839  )
        30           H2  tau(  30) = (   0.6431700   0.0357369   1.5224622  )
        31           O0  tau(  31) = (   0.5156900   0.5047586   2.6944786  )
        32           H2  tau(  32) = (   0.3744100   0.5050918   2.7575805  )

     number of k points=    10  Methfessel-Paxton smearing, width (Ry)=  0.0100
                       cart. coord. in units 2pi/alat
        k(    1) = (   0.0000000   0.0000000   0.0000000), wk =   0.1250000
        k(    2) = (   0.0000000   0.2476431   0.0000000), wk =   0.2500000
        k(    3) = (   0.0000000  -0.4952862   0.0000000), wk =   0.1250000
        k(    4) = (   0.2500000   0.0000000   0.0000000), wk =   0.2500000
        k(    5) = (   0.2500000   0.2476431   0.0000000), wk =   0.2500000
        k(    6) = (   0.2500000  -0.4952862   0.0000000), wk =   0.2500000
        k(    7) = (  -0.5000000   0.0000000   0.0000000), wk =   0.1250000
        k(    8) = (  -0.5000000   0.2476431   0.0000000), wk =   0.2500000
        k(    9) = (  -0.5000000  -0.4952862   0.0000000), wk =   0.1250000
        k(   10) = (  -0.2500000   0.2476431   0.0000000), wk =   0.2500000

     Largest allocated arrays     est. size (Mb)     dimensions
     Largest temporary arrays     est. size (Mb)     dimensions

     Check: negative/imaginary core charge=   -0.000003    0.000000

     Initial potential from superposition of free atoms
     Check: negative starting charge=   -3.334647

     starting charge  234.99967, renormalised to  239.00000

     negative rho (up, down):  0.339E+01 0.000E+00
     Number of +U iterations with fixed ns =  0
     Starting occupations:
 --- enter write_ns ---
 LDA+U parameters:
U( 2)     =  4.50000000
alpha( 2) =  0.00000000
atom    3   Tr[ns(na)] =   7.00000
    eigenvalues:
  0.700  0.700  0.700  0.700  0.700
    eigenvectors:
  1.000  0.000  0.000  0.000  0.000
  0.000  1.000  0.000  0.000  0.000
  0.000  0.000  1.000  0.000  0.000
  0.000  0.000  0.000  1.000  0.000
  0.000  0.000  0.000  0.000  1.000
    occupations:
  0.700  0.000  0.000  0.000  0.000
  0.000  0.700  0.000  0.000  0.000
  0.000  0.000  0.700  0.000  0.000
  0.000  0.000  0.000  0.700  0.000
  0.000  0.000  0.000  0.000  0.700
atom    4   Tr[ns(na)] =   7.00000
    eigenvalues:
  0.700  0.700  0.700  0.700  0.700
    eigenvectors:
  1.000  0.000  0.000  0.000  0.000
  0.000  1.000  0.000  0.000  0.000
  0.000  0.000  1.000  0.000  0.000
  0.000  0.000  0.000  1.000  0.000
  0.000  0.000  0.000  0.000  1.000
    occupations:
  0.700  0.000  0.000  0.000  0.000
  0.000  0.700  0.000  0.000  0.000
  0.000  0.000  0.700  0.000  0.000
  0.000  0.000  0.000  0.700  0.000
  0.000  0.000  0.000  0.000  0.700
atom    9   Tr[ns(na)] =   7.00000
    eigenvalues:
  0.700  0.700  0.700  0.700  0.700
    eigenvectors:
  1.000  0.000  0.000  0.000  0.000
  0.000  1.000  0.000  0.000  0.000
  0.000  0.000  1.000  0.000  0.000
  0.000  0.000  0.000  1.000  0.000
  0.000  0.000  0.000  0.000  1.000
    occupations:
  0.700  0.000  0.000  0.000  0.000
  0.000  0.700  0.000  0.000  0.000
  0.000  0.000  0.700  0.000  0.000
  0.000  0.000  0.000  0.700  0.000
  0.000  0.000  0.000  0.000  0.700
atom   10   Tr[ns(na)] =   7.00000
    eigenvalues:
  0.700  0.700  0.700  0.700  0.700
    eigenvectors:
  1.000  0.000  0.000  0.000  0.000
  0.000  1.000  0.000  0.000  0.000
  0.000  0.000  1.000  0.000  0.000
  0.000  0.000  0.000  1.000  0.000
  0.000  0.000  0.000  0.000  1.000
    occupations:
  0.700  0.000  0.000  0.000  0.000
  0.000  0.700  0.000  0.000  0.000
  0.000  0.000  0.700  0.000  0.000
  0.000  0.000  0.000  0.700  0.000
  0.000  0.000  0.000  0.000  0.700
atom   16   Tr[ns(na)] =   7.00000
    eigenvalues:
  0.700  0.700  0.700  0.700  0.700
    eigenvectors:
  1.000  0.000  0.000  0.000  0.000
  0.000  1.000  0.000  0.000  0.000
  0.000  0.000  1.000  0.000  0.000
  0.000  0.000  0.000  1.000  0.000
  0.000  0.000  0.000  0.000  1.000
    occupations:
  0.700  0.000  0.000  0.000  0.000
  0.000  0.700  0.000  0.000  0.000
  0.000  0.000  0.700  0.000  0.000
  0.000  0.000  0.000  0.700  0.000
  0.000  0.000  0.000  0.000  0.700
atom   17   Tr[ns(na)] =   7.00000
    eigenvalues:
  0.700  0.700  0.700  0.700  0.700
    eigenvectors:
  1.000  0.000  0.000  0.000  0.000
  0.000  1.000  0.000  0.000  0.000
  0.000  0.000  1.000  0.000  0.000
  0.000  0.000  0.000  1.000  0.000
  0.000  0.000  0.000  0.000  1.000
    occupations:
  0.700  0.000  0.000  0.000  0.000
  0.000  0.700  0.000  0.000  0.000
  0.000  0.000  0.700  0.000  0.000
  0.000  0.000  0.000  0.700  0.000
  0.000  0.000  0.000  0.000  0.700
atom   22   Tr[ns(na)] =   7.00000
    eigenvalues:
  0.700  0.700  0.700  0.700  0.700
    eigenvectors:
  1.000  0.000  0.000  0.000  0.000
  0.000  1.000  0.000  0.000  0.000
  0.000  0.000  1.000  0.000  0.000
  0.000  0.000  0.000  1.000  0.000
[...]
  0.939 -0.000  0.000 -0.110 -0.000
 -0.000  0.653  0.000  0.000 -0.000
  0.000  0.000  0.864 -0.000 -0.001
 -0.110  0.000 -0.000  0.712  0.001
 -0.000 -0.000 -0.001  0.001  0.905
atom   10   Tr[ns(na)] =   8.12558
    eigenvalues:
  0.586  0.610  0.934  0.948  0.985
    eigenvectors:
  0.992  0.000  0.000  0.000  0.008
  0.000  0.000  1.000  0.000  0.000
  0.000  0.000  0.000  1.000  0.000
  0.008  0.000  0.000  0.000  0.992
  0.000  1.000  0.000  0.000  0.000
    occupations:
  0.589 -0.004  0.001  0.036 -0.000
 -0.004  0.934 -0.000  0.000 -0.000
  0.001 -0.000  0.948 -0.000  0.002
  0.036  0.000 -0.000  0.981 -0.000
 -0.000 -0.000  0.002 -0.000  0.610
atom   16   Tr[ns(na)] =   8.17093
    eigenvalues:
  0.604  0.632  0.900  0.968  0.982
    eigenvectors:
  0.002  0.182  0.003  0.001  0.812
  0.993  0.007  0.000  0.000  0.000
  0.000  0.000  0.977  0.020  0.003
  0.005  0.811  0.000  0.000  0.183
  0.000  0.000  0.019  0.979  0.002
    occupations:
  0.917  0.006  0.003 -0.136  0.001
  0.006  0.604  0.001 -0.000 -0.005
  0.003  0.001  0.901 -0.004 -0.009
 -0.136 -0.000 -0.004  0.696  0.000
  0.001 -0.005 -0.009  0.000  0.966
atom   17   Tr[ns(na)] =   8.15959
    eigenvalues:
  0.618  0.668  0.883  0.927  0.984
    eigenvectors:
  0.000  0.989  0.000  0.000  0.010
  0.000  0.000  0.091  0.909  0.000
  0.000  0.000  0.909  0.091  0.000
  0.000  0.010  0.000  0.000  0.990
  1.000  0.000  0.000  0.000  0.000
    occupations:
  0.671 -0.003 -0.001  0.032  0.001
 -0.003  0.923  0.013  0.000 -0.002
 -0.001  0.013  0.887 -0.000  0.000
  0.032  0.000 -0.000  0.981  0.000
  0.001 -0.002  0.000  0.000  0.618
atom   22   Tr[ns(na)] =   8.14084
    eigenvalues:
  0.653  0.668  0.858  0.908  0.983
    eigenvectors:
  0.000  0.139  0.000  0.000  0.860
  1.000  0.000  0.000  0.000  0.000
  0.000  0.000  1.000  0.000  0.000
  0.000  0.860  0.000  0.000  0.139
  0.000  0.000  0.000  1.000  0.000
    occupations:
  0.939  0.001 -0.000 -0.109 -0.000
  0.001  0.653  0.000 -0.000 -0.000
 -0.000  0.000  0.858 -0.000  0.001
 -0.109 -0.000 -0.000  0.712  0.001
 -0.000 -0.000  0.001  0.001  0.908
atom   23   Tr[ns(na)] =   8.14148
    eigenvalues:
  0.624  0.674  0.854  0.935  0.984
    eigenvectors:
  0.000  0.989  0.000  0.000  0.011
  0.000  0.000  0.000  0.999  0.000
  0.000  0.000  1.000  0.000  0.000
  0.000  0.011  0.000  0.000  0.989
  1.000  0.000  0.000  0.000  0.000
    occupations:
  0.677  0.006 -0.000  0.032 -0.000
  0.006  0.934 -0.001 -0.000 -0.000
 -0.000 -0.001  0.854  0.000 -0.001
  0.032 -0.000  0.000  0.981 -0.000
 -0.000 -0.000 -0.001 -0.000  0.624
N of occupied +U levels =  65.2147032
 --- exit write_ns ---

     Threshold (ethr) on eigenvalues was too large:
     Diagonalizing with lowered threshold

     Davidson diagonalization with overlap
     ethr =  6.52E-09,  avg # of iterations =  2.0

[...]

     total energy              =   -2105.69310589 Ry
     Harris-Foulkes estimate   =   -2105.69310589 Ry
     estimated scf accuracy    <       0.00000003 Ry

     iteration # 11     ecut=    40.00 Ry     beta=0.70
     Davidson diagonalization with overlap
     ethr =  1.25E-11,  avg # of iterations =  1.0

     negative rho (up, down):  0.314E+01 0.000E+00

     End of self-consistent calculation
 --- enter write_ns ---
 LDA+U parameters:
U( 2)     =  4.50000000
alpha( 2) =  0.00000000
atom    3   Tr[ns(na)] =   8.17096
    eigenvalues:
  0.604  0.632  0.900  0.968  0.982
    eigenvectors:
  0.002  0.182  0.003  0.000  0.813
  0.994  0.006  0.000  0.000  0.000
  0.000  0.000  0.973  0.024  0.003
  0.004  0.812  0.000  0.000  0.183
  0.000  0.000  0.024  0.975  0.001
    occupations:
  0.917 -0.006  0.003 -0.136 -0.001
 -0.006  0.604 -0.001  0.000 -0.005
  0.003 -0.001  0.902 -0.004  0.010
 -0.136  0.000 -0.004  0.696 -0.001
 -0.001 -0.005  0.010 -0.001  0.966
atom    4   Tr[ns(na)] =   8.15824
    eigenvalues:
  0.620  0.669  0.875  0.931  0.984
    eigenvectors:
  0.000  0.989  0.000  0.000  0.011
  0.000  0.000  0.043  0.957  0.000
  0.000  0.000  0.957  0.043  0.000
  0.000  0.011  0.000  0.000  0.989
  1.000  0.000  0.000  0.000  0.000
    occupations:
  0.672 -0.003 -0.000  0.033  0.001
 -0.003  0.928  0.011  0.000 -0.002
 -0.000  0.011  0.878 -0.000  0.001
  0.033  0.000 -0.000  0.981  0.000
  0.001 -0.002  0.001  0.000  0.620
atom    9   Tr[ns(na)] =   8.14611
    eigenvalues:
  0.653  0.667  0.864  0.905  0.983
    eigenvectors:
  0.000  0.140  0.000  0.000  0.859
  0.999  0.001  0.000  0.000  0.000
  0.000  0.000  0.999  0.001  0.000
  0.001  0.859  0.000  0.000  0.141
  0.000  0.000  0.001  0.999  0.000
    occupations:
  0.939 -0.000  0.000 -0.110 -0.000
 -0.000  0.653  0.000  0.000 -0.000
  0.000  0.000  0.864 -0.000 -0.001
 -0.110  0.000 -0.000  0.712  0.001
 -0.000 -0.000 -0.001  0.001  0.905
atom   10   Tr[ns(na)] =   8.12623
    eigenvalues:
  0.586  0.610  0.934  0.948  0.985
    eigenvectors:
  0.992  0.000  0.000  0.000  0.008
  0.000  0.000  1.000  0.000  0.000
  0.000  0.000  0.000  1.000  0.000
  0.008  0.000  0.000  0.000  0.992
  0.000  1.000  0.000  0.000  0.000
    occupations:
  0.589 -0.004  0.001  0.036 -0.000
 -0.004  0.934 -0.000  0.000 -0.000
  0.001 -0.000  0.948 -0.000  0.002
  0.036  0.000 -0.000  0.981 -0.000
 -0.000 -0.000  0.002 -0.000  0.610
atom   16   Tr[ns(na)] =   8.17073
    eigenvalues:
  0.604  0.632  0.900  0.968  0.982
    eigenvectors:
  0.002  0.182  0.003  0.001  0.812
  0.993  0.007  0.000  0.000  0.000
  0.000  0.000  0.977  0.020  0.003
  0.005  0.811  0.000  0.000  0.183
  0.000  0.000  0.020  0.979  0.002
    occupations:
  0.917  0.006  0.003 -0.136  0.001
  0.006  0.604  0.001 -0.000 -0.005
  0.003  0.001  0.901 -0.004 -0.009
 -0.136 -0.000 -0.004  0.696  0.000
  0.001 -0.005 -0.009  0.000  0.966
atom   17   Tr[ns(na)] =   8.15920
    eigenvalues:
  0.618  0.668  0.883  0.927  0.984
    eigenvectors:
  0.000  0.989  0.000  0.000  0.010
  0.000  0.000  0.091  0.909  0.000
  0.000  0.000  0.909  0.091  0.000
  0.000  0.010  0.000  0.000  0.990
  1.000  0.000  0.000  0.000  0.000
    occupations:
  0.671 -0.003 -0.001  0.032  0.001
 -0.003  0.923  0.013  0.000 -0.002
 -0.001  0.013  0.887 -0.000  0.000
  0.032  0.000 -0.000  0.981  0.000
  0.001 -0.002  0.000  0.000  0.618
atom   22   Tr[ns(na)] =   8.14102
    eigenvalues:
  0.653  0.668  0.858  0.908  0.983
    eigenvectors:
  0.000  0.139  0.000  0.000  0.860
  1.000  0.000  0.000  0.000  0.000
  0.000  0.000  1.000  0.000  0.000
  0.000  0.860  0.000  0.000  0.139
  0.000  0.000  0.000  1.000  0.000
    occupations:
  0.939  0.001 -0.000 -0.109 -0.000
  0.001  0.653  0.000 -0.000 -0.000
 -0.000  0.000  0.858 -0.000  0.001
 -0.109 -0.000 -0.000  0.712  0.001
 -0.000 -0.000  0.001  0.001  0.908
atom   23   Tr[ns(na)] =   8.14210
    eigenvalues:
  0.624  0.674  0.854  0.935  0.984
    eigenvectors:
  0.000  0.989  0.000  0.000  0.011
  0.000  0.000  0.000  0.999  0.000
  0.000  0.000  1.000  0.000  0.000
  0.000  0.011  0.000  0.000  0.989
  1.000  0.000  0.000  0.000  0.000
    occupations:
  0.677  0.006 -0.000  0.032 -0.000
  0.006  0.935 -0.001 -0.000 -0.000
 -0.000 -0.001  0.854  0.000 -0.001
  0.032 -0.000  0.000  0.981 -0.000
 -0.000 -0.000 -0.001 -0.000  0.624
N of occupied +U levels =  65.2145786
 --- exit write_ns ---

[...]

          k = 0.2500-0.4953 0.0000 ( 31088 PWs)   bands (ev):

[...]

          k =-0.2500 0.2476 0.0000 ( 31099 PWs)   bands (ev):

   -50.6747 -50.6151 -50.5986 -50.5782 -50.5175 -50.5124 -50.4644 -50.4549
   -50.4374 -50.4086 -50.4058 -50.3967 -50.3858 -50.3059 -50.2465 -50.2093
   -50.2029 -50.1998 -50.1387 -50.1354 -50.1033 -50.0798 -50.0653 -50.0194
   -21.4235 -21.1365 -21.0584 -21.0146 -20.6607 -20.5859 -20.5110 -20.4410
   -20.3688 -20.2534 -20.1558 -20.0978 -19.9400 -19.9270 -19.8700 -19.7990
   -19.6063 -18.8507 -18.7164 -10.3492 -10.2335 -10.0506  -9.8125  -9.4554
    -9.3947  -9.3269  -9.2565  -8.9124  -8.8618  -8.8163  -8.7805  -8.6636
    -8.6173  -8.4002  -8.2905  -8.1508  -8.0228  -7.7543  -7.6195  -7.5230
    -7.4181  -7.3325  -7.2336  -7.0674  -6.9953  -6.8897  -6.6916  -6.5602
    -6.4219  -6.3944  -6.3362  -6.2194  -6.1033  -6.0591  -5.9877  -5.9581
    -5.8209  -5.7038  -5.6081  -5.4514  -5.2761  -5.2444  -5.0081  -4.8964
    -4.7810  -4.6594  -4.5939  -4.3811  -4.3052  -4.2641  -3.9926  -3.8240
    -3.7390  -3.5716  -3.4461  -3.4192  -3.3484  -3.3122  -3.1793  -3.1156
    -3.0257  -2.9720  -2.8561  -2.8268  -2.7822  -2.7093  -2.5972  -2.4613
    -2.4167  -2.3071  -1.9166  -1.7142  -1.5427  -1.3319  -1.1136  -1.0971
    -1.0359  -0.8112  -0.6826  -0.4567   0.0214   1.0203   1.0593   1.3688
     1.6690   1.8196   2.2307   2.3936   2.7410   2.7838   2.9120   3.0017
     3.1969   3.3409   3.4096   3.7362   3.8594   4.3052   4.8242   5.2435
     5.4730   5.6351   5.7128   5.9988   6.2783   6.5387   6.6351   6.6565
     6.7292   6.9196   7.1178   7.2019   7.3792   7.4729   7.5965   7.7038
     7.9229   8.0357   8.1097   8.1639   8.2659   8.4707   8.5135   8.5829
     8.8150   8.8712   8.9156   8.9795   9.1045   9.1958   9.2827   9.2979
     9.4277   9.4613   9.4836   9.4983   9.5061   9.5351   9.5815   9.6150
     9.6742   9.6790   9.7453   9.7820   9.8401  10.0374  10.0966  10.1535
    10.2264  10.3441  10.3703  10.4586  10.5307  10.5712  10.6266  10.8114
    10.8339  10.9784  11.0023  11.1455  11.1772  11.2470  11.4057  11.5220
    11.5594  11.6648  11.7250  11.7892  11.8280  11.9632  12.1619  12.2026
    12.2481  12.3546  12.3863  12.4335  12.5556  12.6333  12.6596  12.7314
    12.7862  12.8468  12.9361  13.0060  13.0517  13.1817  13.2246  13.2699
    13.3199  13.4094  13.5291  13.6674  13.7289  13.8153  13.9104  13.9319
    14.0118  14.0732  14.1605  14.2374  14.3254  14.4028  14.4880  14.5295
    14.7048  14.7672  14.7843  14.9459  15.0649  15.1903  15.2464  15.3284
    15.4346  15.4799  15.5164  15.6005  15.6471  15.7543  15.7918  15.8689
    15.9181  15.9318  15.9925  16.0671  16.1426  16.1936  16.2398  16.3124
    16.3768  16.4048  16.4387  16.5304  16.5616  16.6664  16.7197  16.7568
    16.8102  16.8850  17.0838  17.1338  17.1645  17.2974  17.3399  17.4272
    17.4594  17.5343  17.5558  17.6097  17.6851  17.7077  17.7449  17.8410
    17.9198  17.9449  17.9841  18.1159  18.2131  18.2489  18.3037  18.3785
    18.4695  18.6031  18.6523  18.6962  18.7848  18.8578  18.8898  18.9752
    19.0327  19.0952  19.1581  19.2251  19.2954  19.3319  19.3970  19.5649
    19.6024  19.6405  19.7196  19.7699  19.8536  19.9641  20.0522  20.0846
    20.1296  20.2348  20.3886  20.3960  20.4900  20.6087  20.6510  20.7082
    20.7701  20.7910  20.9124  20.9363  20.9586  21.0214  21.0757  21.1627
    21.2017  21.3035  21.3190  21.3739  21.4357  21.4657  21.5112  21.6083
    21.7018  21.7458  21.8253  21.8512  21.8767  21.9775

     the Fermi energy is    -1.1110 ev

!    total energy              =   -2105.69310588 Ry
     Harris-Foulkes estimate   =   -2105.69310589 Ry
     estimated scf accuracy    <          8.4E-09 Ry

     The total energy is the sum of the following terms:

     one-electron contribution =  -22786.94845314 Ry
     hartree contribution      =   11438.81007027 Ry
     xc contribution           =    -577.21874181 Ry
     ewald contribution        =    9817.97402008 Ry
     Hubbard energy            =       1.69070736 Ry
     smearing contrib. (-TS)   =      -0.00070864 Ry

     convergence has been achieved in  11 iterations

     Forces acting on atoms (Ry/au):

     negative rho (up, down):  0.314E+01 0.000E+00
     atom    1 type  1   force =    -0.00691992   -0.01252615   -0.00002685
     atom    2 type  1   force =     0.00030404    0.00314956   -0.00028539
     atom    3 type  2   force =     0.03128174    0.00795315    0.00004970
     atom    4 type  2   force =     0.00896232    0.00792894   -0.00000850
     atom    5 type  1   force =    -0.00433773   -0.01541634   -0.00016333
     atom    6 type  1   force =     0.00599292    0.01294351   -0.00004806
     atom    7 type  1   force =     0.00169181   -0.00220507   -0.00031634
     atom    8 type  1   force =    -0.00251808   -0.00065561   -0.00010296
     atom    9 type  2   force =     0.00741001    0.00023718    0.00004782
     atom   10 type  2   force =    -0.00781961   -0.00120863   -0.00054377
     atom   11 type  1   force =    -0.00253087    0.01471779    0.00015104
     atom   12 type  1   force =    -0.00227948   -0.01464416    0.00012442
     atom   13 type  1   force =    -0.00125970   -0.00013922    0.00006469
     atom   14 type  1   force =    -0.00791541   -0.01365582   -0.00007393
     atom   15 type  1   force =     0.00031754    0.00402734   -0.00032153
     atom   16 type  2   force =    -0.03209259    0.00695844    0.00000237
     atom   17 type  2   force =     0.00930939    0.00829771   -0.00004361
     atom   18 type  1   force =    -0.00401223   -0.01493276   -0.00014473
     atom   19 type  1   force =     0.00514795    0.01401039   -0.00004215
     atom   20 type  1   force =    -0.00145670   -0.00547298    0.00092638
     atom   21 type  1   force =    -0.00400640   -0.00058871   -0.00003579
     atom   22 type  2   force =    -0.00474674    0.00055972   -0.00001041
     atom   23 type  2   force =     0.00289556   -0.00014728    0.00027847
     atom   24 type  1   force =     0.00390113    0.01860940   -0.00001753
     atom   25 type  1   force =     0.00476001   -0.01874172   -0.00002183
     atom   26 type  1   force =    -0.00080951   -0.00022363    0.00013559
     atom   27 type  3   force =    -0.00000830    0.00024836    0.00027429
     atom   28 type  3   force =     0.00002127    0.00044384    0.00053163
     atom   29 type  3   force =     0.00002911    0.00003643    0.00022746
     atom   30 type  3   force =    -0.00011352    0.00046092    0.00011978
     atom   31 type  1   force =     0.00049798   -0.00006145   -0.00030346
     atom   32 type  3   force =     0.00030403    0.00003684   -0.00042347

     Total force =     0.001784     Total SCF correction =     0.000231
     SCF correction compared to forces is large: reduce conv_thr to get better values

     bfgs converged in   9 scf cycles and   8 bfgs steps
     (criteria: energy < 0.10E-03, force < 0.10E-02)

     End of BFGS Geometry Optimization

     Final energy   =   -2105.6931058843 Ry
Begin final coordinates

ATOMIC_POSITIONS (crystal)
O0       0.000000000   0.000000000   0.378696777    0   0   1
O0       0.000000000   0.500000000   0.403264304    0   0   1
Ir1      0.250000000   0.500000000   0.452956979    0   0   1
Ir1      0.000000000   0.000000000   0.453215152    0   0   1
O0       0.250000000   0.810000000   0.453064056    0   0   1
O0       0.250000000   0.190000000   0.452650704    0   0   1
O0       0.000000000   0.500000000   0.499082544    0   0   1
O0       0.000000000   0.000000000   0.528599415    0   0   1
Ir1      0.250000000   0.000000000   0.575458868    0   0   1
Ir1      0.000000000   0.500000000   0.571864382    0   0   1
O0       0.250000000   0.690000000   0.575373793    0   0   1
O0       0.250000000   0.310000000   0.575433377    0   0   1
O0       0.000000000   0.000000000   0.620066434    0   0   1
O0       0.500000000   0.000000000   0.378341336    0   0   1
O0       0.500000000   0.500000000   0.402482389    0   0   1
Ir1      0.750000000   0.500000000   0.452963520    0   0   1
Ir1      0.500000000   0.000000000   0.452971403    0   0   1
O0       0.750000000   0.810000000   0.453081862    0   0   1
O0       0.750000000   0.190000000   0.452632285    0   0   1
O0       0.500000000   0.500000000   0.499819628    0   0   1
O0       0.500000000   0.000000000   0.528580937    0   0   1
Ir1      0.750000000   0.000000000   0.575405013    0   0   1
Ir1      0.500000000   0.500000000   0.574982268    0   0   1
O0       0.750000000   0.690000000   0.574662847    0   0   1
O0       0.750000000   0.310000000   0.574755085    0   0   1
O0       0.500000000   0.000000000   0.619738091    0   0   1
H2      -0.000180682   0.632651704   0.384075758
H2       0.499914617   0.636305569   0.384827476
H2       0.143614280   0.033842990   0.367089885
H2       0.642849761   0.036452310   0.366748648
O0       0.516302337   0.499824112   0.647883747
H2       0.375804219   0.500388145   0.663511036
End final coordinates

     General routines

     Parallel routines
     Hubbard U routines

   This run was terminated on:  15:11:30  29Apr2014

   JOB DONE.
Running PBS batch system epilogue script
Job id: 340425.audhumbla.fysik.dtu.dk
Username: zhonxu
Groupname: campgst
Jobname: IrO2/Eads-2-layers/OH-U-4.5
Sessionid: 9723
Queuename: verylong
Accounting:
This job has allocated the following 16 nodes:
c140 c140 c140 c140 c140 c140 c140 c140 c112 c112 c112 c112 c112 c112 c112 c112
Finished epilogue job 340425.audhumbla.fysik.dtu.dk for zhonxu