     Program PWSCF v.5.0.2 (svn rev. 9656) starts on 28Apr2014 at 12:12:30

     Current dimensions of program PWSCF are:
     Max number of different atomic species (ntypx) = 10
     Max number of k-points (npk) =  40000
     Max angular momentum in pseudopotentials (lmaxx) =  3
     Reading input from pwscf.in
Warning: card &CELL ignored
Warning: card / ignored

     Subspace diagonalization in iterative solution of the eigenvalue problem:
     a serial algorithm will be used

     bravais-lattice index     =            0
     lattice parameter (alat)  =      11.2250  a.u.
     unit-cell volume          =    7005.5484 (a.u.)^3
     number of atoms/cell      =           31
     number of atomic types    =            3
     number of electrons       =       214.00
     number of Kohn-Sham states=          309
     kinetic-energy cutoff     =      40.0000  Ry
     charge density cutoff     =     500.0000  Ry
     convergence threshold     =      1.0E-06
     mixing beta               =       0.7000
     number of iterations used =            8  plain     mixing
     Exchange-correlation      = SLA  PW   PBE  PBE ( 1 4 3 4 0)
     EXX-fraction              =        0.00
     nstep                     =           50

     celldm(1)=  11.224973  celldm(2)=   0.000000  celldm(3)=   0.000000
     celldm(4)=   0.000000  celldm(5)=   0.000000  celldm(6)=   0.000000

     crystal axes: (cart. coord. in units of alat)
               a(1) = (   1.000000   0.000000   0.000000 )
               a(2) = (   0.000000   1.107086   0.000000 )
               a(3) = (   0.000000   0.000000   4.474090 )

     reciprocal axes: (cart. coord. in units 2 pi/alat)
               b(1) = (  1.000000  0.000000  0.000000 )
               b(2) = (  0.000000  0.903272  0.000000 )
               b(3) = (  0.000000  0.000000  0.223509 )

     PseudoPot. # 1 for O  read from file:
     /home/camp/zhonxu/pseudo/o_pbe_v1.01.uspp.F.UPF
     MD5 check sum: 2bcb18d16ea4b960afae9ec6d52f22d2
     Pseudo is Ultrasoft + core correction, Zval =  6.0
     Generated by new atomic code, or converted to UPF format
     Using radial grid of  737 points,  5 beta functions with:
                l(1) =   0
                l(2) =   0
                l(3) =   1
                l(4) =   1
                l(5) =   2
     Q(r) pseudized with  8 coefficients,  rinner =    0.900   0.900   0.900
                                                       0.900   0.900

     PseudoPot. # 2 for Ti read from file:
     /home/camp/zhonxu/pseudo/ti_pbe_v1.uspp.F.UPF
     MD5 check sum: bcc8f6961b3b91f0cac3ca967d22d0fb
     Pseudo is Ultrasoft + core correction, Zval = 12.0
     Generated by new atomic code, or converted to UPF format
     Using radial grid of  851 points,  6 beta functions with:
                l(1) =   0
                l(2) =   0
                l(3) =   1
                l(4) =   1
                l(5) =   2
                l(6) =   2
     Q(r) pseudized with  6 coefficients,  rinner =    1.000   1.000   1.000
                                                       1.000   1.000

     PseudoPot. # 3 for H  read from file:
     /home/camp/zhonxu/pseudo/h_pbe_v1.uspp.F.UPF
     MD5 check sum: 3408e3ff4ec8b0a4e358431e7e038a48
     Pseudo is Ultrasoft, Zval =  1.0
     Generated by new atomic code, or converted to UPF format
     Using radial grid of  615 points,  2 beta functions with:
                l(1) =   0
                l(2) =   0
     Q(r) pseudized with  8 coefficients,  rinner =    0.700

     atomic species   valence    mass     pseudopotential
        O0             6.00    15.99940     O ( 1.00)
        Ti1           12.00    47.88000     Ti( 1.00)
        H2             1.00     1.00794     H ( 1.00)

     Simplified LDA+U calculation (l_max = 2) with parameters (eV):
     atomic species    L          U    alpha       J0     beta
        Ti1            2     3.0000   0.0000   0.0000   0.0000

     No symmetry found

   Cartesian axes

     site n.     atom                  positions (alat units)
         1           O0  tau(   1) = (   0.0000000   0.0000000   1.6912507  )
         2           O0  tau(   2) = (   0.0000000   0.5535432   1.7801061  )
         3           Ti1 tau(   3) = (   0.2500000   0.5535432   2.0136983  )
         4           Ti1 tau(   4) = (   0.0000000   0.0000000   2.0256889  )
         5           O0  tau(   5) = (   0.2500000   0.8967400   2.0101638  )
         6           O0  tau(   6) = (   0.2500000   0.2103464   2.0140115  )
         7           O0  tau(   7) = (   0.0000000   0.5535432   2.2264413  )
         8           O0  tau(   8) = (   0.0000000   0.0000000   2.3510894  )
         9           Ti1 tau(   9) = (   0.2500000   0.0000000   2.5997146  )
        10           Ti1 tau(  10) = (   0.0000000   0.5535432   2.5433858  )
        11           O0  tau(  11) = (   0.2500000   0.7638896   2.5969406  )
        12           O0  tau(  12) = (   0.2500000   0.3431968   2.5970301  )
        13           O0  tau(  13) = (   0.0000000   0.0000000   2.7842260  )
        14           O0  tau(  14) = (   0.5000000   0.0000000   1.6905348  )
        15           O0  tau(  15) = (   0.5000000   0.5535432   1.7767953  )
        16           Ti1 tau(  16) = (   0.7500000   0.5535432   2.0136983  )
        17           Ti1 tau(  17) = (   0.5000000   0.0000000   2.0204542  )
        18           O0  tau(  18) = (   0.7500000   0.8967400   2.0103875  )
        19           O0  tau(  19) = (   0.7500000   0.2103464   2.0134299  )
        20           O0  tau(  20) = (   0.5000000   0.5535432   2.2001336  )
        21           O0  tau(  21) = (   0.5000000   0.0000000   2.3501946  )
        22           Ti1 tau(  22) = (   0.7500000   0.0000000   2.5996698  )
        23           Ti1 tau(  23) = (   0.5000000   0.5535432   2.6765794  )
        24           O0  tau(  24) = (   0.7500000   0.7638896   2.5974328  )
        25           O0  tau(  25) = (   0.7500000   0.3431968   2.5965380  )
        26           O0  tau(  26) = (   0.5000000   0.0000000   2.7806915  )
        27           H2  tau(  27) = (  -0.0007400   0.6861389   1.6797970  )
        28           H2  tau(  28) = (   0.4994200   0.6816995   1.6713410  )
        29           H2  tau(  29) = (   0.1486600   0.0377184   1.6265106  )
        30           H2  tau(  30) = (   0.6489300   0.0363456   1.6257052  )
        31           O0  tau(  31) = (   0.4999900   0.5533882   2.9590287  )

     number of k points=    10  Methfessel-Paxton smearing, width (Ry)=  0.0100
                       cart. coord. in units 2pi/alat
        k(    1) = (   0.0000000   0.0000000   0.0000000), wk =   0.1250000
        k(    2) = (   0.0000000   0.2258180   0.0000000), wk =   0.2500000
        k(    3) = (   0.0000000  -0.4516359   0.0000000), wk =   0.1250000
        k(    4) = (   0.2500000   0.0000000   0.0000000), wk =   0.2500000
        k(    5) = (   0.2500000   0.2258180   0.0000000), wk =   0.2500000
        k(    6) = (   0.2500000  -0.4516359   0.0000000), wk =   0.2500000
        k(    7) = (  -0.5000000   0.0000000   0.0000000), wk =   0.1250000
        k(    8) = (  -0.5000000   0.2258180   0.0000000), wk =   0.2500000
        k(    9) = (  -0.5000000  -0.4516359   0.0000000), wk =   0.1250000
        k(   10) = (  -0.2500000   0.2258180   0.0000000), wk =   0.2500000

     Largest allocated arrays     est. size (Mb)     dimensions
     Largest temporary arrays     est. size (Mb)     dimensions

     Check: negative/imaginary core charge=   -0.000006    0.000000

     Initial potential from superposition of free atoms
     Check: negative starting charge=   -0.102438

     starting charge  205.99958, renormalised to  214.00000

     negative rho (up, down):  0.106E+00 0.000E+00
     Number of +U iterations with fixed ns =  0
     Starting occupations:
 --- enter write_ns ---
 LDA+U parameters:
U( 2)     =  3.00000000
alpha( 2) =  0.00000000
atom    3   Tr[ns(na)] =   2.00000
    eigenvalues:
  0.200  0.200  0.200  0.200  0.200
    eigenvectors:
  1.000  0.000  0.000  0.000  0.000
  0.000  1.000  0.000  0.000  0.000
  0.000  0.000  1.000  0.000  0.000
  0.000  0.000  0.000  1.000  0.000
  0.000  0.000  0.000  0.000  1.000
    occupations:
  0.200  0.000  0.000  0.000  0.000
  0.000  0.200  0.000  0.000  0.000
  0.000  0.000  0.200  0.000  0.000
  0.000  0.000  0.000  0.200  0.000
  0.000  0.000  0.000  0.000  0.200
atom    4   Tr[ns(na)] =   2.00000
    eigenvalues:
  0.200  0.200  0.200  0.200  0.200
    eigenvectors:
  1.000  0.000  0.000  0.000  0.000
  0.000  1.000  0.000  0.000  0.000
  0.000  0.000  1.000  0.000  0.000
  0.000  0.000  0.000  1.000  0.000
  0.000  0.000  0.000  0.000  1.000
    occupations:
  0.200  0.000  0.000  0.000  0.000
  0.000  0.200  0.000  0.000  0.000
  0.000  0.000  0.200  0.000  0.000
  0.000  0.000  0.000  0.200  0.000
  0.000  0.000  0.000  0.000  0.200
atom    9   Tr[ns(na)] =   2.00000
    eigenvalues:
  0.200  0.200  0.200  0.200  0.200
    eigenvectors:
  1.000  0.000  0.000  0.000  0.000
  0.000  1.000  0.000  0.000  0.000
  0.000  0.000  1.000  0.000  0.000
  0.000  0.000  0.000  1.000  0.000
  0.000  0.000  0.000  0.000  1.000
    occupations:
  0.200  0.000  0.000  0.000  0.000
  0.000  0.200  0.000  0.000  0.000
  0.000  0.000  0.200  0.000  0.000
  0.000  0.000  0.000  0.200  0.000
  0.000  0.000  0.000  0.000  0.200
atom   10   Tr[ns(na)] =   2.00000
    eigenvalues:
  0.200  0.200  0.200  0.200  0.200
    eigenvectors:
  1.000  0.000  0.000  0.000  0.000
  0.000  1.000  0.000  0.000  0.000
  0.000  0.000  1.000  0.000  0.000
  0.000  0.000  0.000  1.000  0.000
  0.000  0.000  0.000  0.000  1.000
    occupations:
  0.200  0.000  0.000  0.000  0.000
  0.000  0.200  0.000  0.000  0.000
  0.000  0.000  0.200  0.000  0.000
  0.000  0.000  0.000  0.200  0.000
  0.000  0.000  0.000  0.000  0.200
atom   16   Tr[ns(na)] =   2.00000
    eigenvalues:
  0.200  0.200  0.200  0.200  0.200
    eigenvectors:
  1.000  0.000  0.000  0.000  0.000
  0.000  1.000  0.000  0.000  0.000
  0.000  0.000  1.000  0.000  0.000
  0.000  0.000  0.000  1.000  0.000
  0.000  0.000  0.000  0.000  1.000
    occupations:
  0.200  0.000  0.000  0.000  0.000
  0.000  0.200  0.000  0.000  0.000
  0.000  0.000  0.200  0.000  0.000
  0.000  0.000  0.000  0.200  0.000
  0.000  0.000  0.000  0.000  0.200
atom   17   Tr[ns(na)] =   2.00000
    eigenvalues:
  0.200  0.200  0.200  0.200  0.200
    eigenvectors:
  1.000  0.000  0.000  0.000  0.000
  0.000  1.000  0.000  0.000  0.000
  0.000  0.000  1.000  0.000  0.000
  0.000  0.000  0.000  1.000  0.000
  0.000  0.000  0.000  0.000  1.000
    occupations:
  0.200  0.000  0.000  0.000  0.000
  0.000  0.200  0.000  0.000  0.000
  0.000  0.000  0.200  0.000  0.000
  0.000  0.000  0.000  0.200  0.000
  0.000  0.000  0.000  0.000  0.200
atom   22   Tr[ns(na)] =   2.00000
    eigenvalues:
  0.200  0.200  0.200  0.200  0.200
    eigenvectors:
  1.000  0.000  0.000  0.000  0.000
  0.000  1.000  0.000  0.000  0.000
  0.000  0.000  1.000  0.000  0.000
  0.000  0.000  0.000  1.000  0.000
  0.000  0.000  0.000  0.000  1.000
    occupations:
  0.200  0.000  0.000  0.000  0.000
  0.000  0.200  0.000  0.000  0.000
[...]
  0.008  0.150  0.012  0.643  0.187
  0.332  0.120  0.545  0.000  0.002
    occupations:
  0.224  0.013 -0.004  0.077  0.002
  0.013  0.423  0.003 -0.026  0.012
 -0.004  0.003  0.180  0.007 -0.018
  0.077 -0.026  0.007  0.363 -0.002
  0.002  0.012 -0.018 -0.002  0.190
atom    4   Tr[ns(na)] =   2.84115
    eigenvalues:
  0.162  0.195  0.210  0.424  0.430
    eigenvectors:
  0.006  0.003  0.000  0.001  0.990
  0.001  0.855  0.141  0.000  0.003
  0.000  0.140  0.859  0.000  0.000
  0.992  0.002  0.000  0.000  0.006
  0.000  0.000  0.000  0.999  0.001
    occupations:
  0.428  0.012  0.004 -0.021 -0.000
  0.012  0.198 -0.005  0.000 -0.002
  0.004 -0.005  0.208  0.001 -0.000
 -0.021  0.000  0.001  0.163 -0.000
 -0.000 -0.002 -0.000 -0.000  0.424
atom    9   Tr[ns(na)] =   2.82573
    eigenvalues:
  0.164  0.205  0.223  0.387  0.434
    eigenvectors:
  0.000  0.000  0.909  0.091  0.000
  0.000  0.000  0.000  0.007  0.993
  0.994  0.006  0.000  0.000  0.000
  0.000  0.000  0.091  0.902  0.007
  0.006  0.994  0.000  0.000  0.000
    occupations:
  0.238  0.002 -0.000  0.047  0.000
  0.002  0.433  0.000 -0.005 -0.000
 -0.000  0.000  0.164 -0.000 -0.003
  0.047 -0.005 -0.000  0.373 -0.000
  0.000 -0.000 -0.003 -0.000  0.205
atom   10   Tr[ns(na)] =   2.74331
    eigenvalues:
  0.166  0.214  0.229  0.325  0.438
    eigenvectors:
  0.018  0.000  0.000  0.982  0.000
  0.000  0.000  1.000  0.000  0.000
  0.000  1.000  0.000  0.000  0.000
  0.982  0.000  0.000  0.018  0.000
  0.000  0.000  0.000  0.000  1.000
    occupations:
  0.322 -0.000 -0.000 -0.021 -0.000
 -0.000  0.229 -0.000 -0.000 -0.000
 -0.000 -0.000  0.214 -0.000  0.000
 -0.021 -0.000 -0.000  0.169  0.000
 -0.000 -0.000  0.000  0.000  0.438
atom   16   Tr[ns(na)] =   2.76033
    eigenvalues:
  0.166  0.186  0.205  0.388  0.435
    eigenvectors:
  0.025  0.724  0.073  0.168  0.010
  0.003  0.005  0.004  0.188  0.800
  0.631  0.001  0.367  0.001  0.000
  0.008  0.149  0.012  0.643  0.187
  0.333  0.121  0.544  0.001  0.002
    occupations:
  0.224 -0.013 -0.004  0.077 -0.003
 -0.013  0.423 -0.003  0.026  0.012
 -0.004 -0.003  0.180  0.007  0.018
  0.077  0.026  0.007  0.363  0.001
 -0.003  0.012  0.018  0.001  0.190
atom   17   Tr[ns(na)] =   2.83668
    eigenvalues:
  0.161  0.195  0.210  0.421  0.431
    eigenvectors:
  0.006  0.003  0.000  0.000  0.991
  0.001  0.870  0.126  0.000  0.003
  0.000  0.126  0.874  0.000  0.000
  0.992  0.002  0.000  0.000  0.006
  0.000  0.000  0.000  1.000  0.000
    occupations:
  0.429  0.012  0.004 -0.021 -0.000
  0.012  0.197 -0.005  0.000 -0.002
  0.004 -0.005  0.208  0.000 -0.000
 -0.021  0.000  0.000  0.163 -0.000
 -0.000 -0.002 -0.000 -0.000  0.421
atom   22   Tr[ns(na)] =   2.82565
    eigenvalues:
  0.164  0.205  0.223  0.387  0.434
    eigenvectors:
  0.000  0.000  0.909  0.091  0.000
  0.000  0.000  0.000  0.007  0.993
  0.994  0.006  0.000  0.000  0.000
  0.000  0.000  0.091  0.902  0.007
  0.006  0.994  0.000  0.000  0.000
    occupations:
  0.238 -0.002  0.000  0.047  0.000
 -0.002  0.433  0.000  0.005 -0.000
  0.000  0.000  0.164 -0.000  0.003
  0.047  0.005 -0.000  0.373 -0.000
  0.000 -0.000  0.003 -0.000  0.205
atom   23   Tr[ns(na)] =   2.95832
    eigenvalues:
  0.108  0.292  0.305  0.335  0.439
    eigenvectors:
  0.003  0.000  0.000  0.000  0.997
  0.000  0.000  1.000  0.000  0.000
  0.000  1.000  0.000  0.000  0.000
  0.997  0.000  0.000  0.000  0.003
  0.000  0.000  0.000  1.000  0.000
    occupations:
  0.438 -0.000  0.000 -0.019 -0.000
 -0.000  0.305  0.000 -0.000  0.000
  0.000  0.000  0.292 -0.000 -0.000
 -0.019 -0.000 -0.000  0.109 -0.000
 -0.000  0.000 -0.000 -0.000  0.335
N of occupied +U levels =  22.5514955
 --- exit write_ns ---

     Threshold (ethr) on eigenvalues was too large:
     Diagonalizing with lowered threshold

     Davidson diagonalization with overlap
     ethr =  7.52E-08,  avg # of iterations =  1.0

[...]

     total energy              =   -1565.22494866 Ry
     Harris-Foulkes estimate   =   -1565.22494866 Ry
     estimated scf accuracy    <       0.00000002 Ry

     iteration # 12     ecut=    40.00 Ry     beta=0.70
     Davidson diagonalization with overlap
     ethr =  1.03E-11,  avg # of iterations =  1.0

     negative rho (up, down):  0.104E+00 0.000E+00

     End of self-consistent calculation
 --- enter write_ns ---
 LDA+U parameters:
U( 2)     =  3.00000000
alpha( 2) =  0.00000000
atom    3   Tr[ns(na)] =   2.76070
    eigenvalues:
  0.166  0.187  0.205  0.388  0.435
    eigenvectors:
  0.026  0.724  0.072  0.168  0.010
  0.003  0.005  0.004  0.188  0.800
  0.630  0.001  0.368  0.001  0.000
  0.008  0.150  0.012  0.643  0.188
  0.333  0.120  0.545  0.000  0.002
    occupations:
  0.224  0.013 -0.004  0.077  0.002
  0.013  0.423  0.003 -0.026  0.012
 -0.004  0.003  0.180  0.007 -0.018
  0.077 -0.026  0.007  0.363 -0.002
  0.002  0.012 -0.018 -0.002  0.190
atom    4   Tr[ns(na)] =   2.84064
    eigenvalues:
  0.161  0.195  0.210  0.424  0.430
    eigenvectors:
  0.006  0.003  0.000  0.001  0.990
  0.001  0.856  0.141  0.000  0.003
  0.000  0.140  0.859  0.000  0.000
  0.992  0.002  0.000  0.000  0.006
  0.000  0.000  0.000  0.999  0.001
    occupations:
  0.428  0.012  0.004 -0.021 -0.000
  0.012  0.198 -0.005  0.000 -0.002
  0.004 -0.005  0.208  0.001 -0.000
 -0.021  0.000  0.001  0.163 -0.000
 -0.000 -0.002 -0.000 -0.000  0.424
atom    9   Tr[ns(na)] =   2.82587
    eigenvalues:
  0.164  0.205  0.223  0.387  0.434
    eigenvectors:
  0.000  0.000  0.909  0.091  0.000
  0.000  0.000  0.000  0.007  0.993
  0.994  0.006  0.000  0.000  0.000
  0.000  0.000  0.091  0.902  0.007
  0.006  0.994  0.000  0.000  0.000
    occupations:
  0.238  0.002 -0.000  0.047  0.000
  0.002  0.433  0.000 -0.005 -0.000
 -0.000  0.000  0.165 -0.000 -0.003
  0.047 -0.005 -0.000  0.373 -0.000
  0.000 -0.000 -0.003 -0.000  0.205
atom   10   Tr[ns(na)] =   2.74246
    eigenvalues:
  0.166  0.214  0.229  0.324  0.438
    eigenvectors:
  0.018  0.000  0.000  0.982  0.000
  0.000  0.000  1.000  0.000  0.000
  0.000  1.000  0.000  0.000  0.000
  0.982  0.000  0.000  0.018  0.000
  0.000  0.000  0.000  0.000  1.000
    occupations:
  0.322 -0.000 -0.000 -0.021 -0.000
 -0.000  0.229 -0.000 -0.000 -0.000
 -0.000 -0.000  0.214 -0.000  0.000
 -0.021 -0.000 -0.000  0.169  0.000
 -0.000 -0.000  0.000  0.000  0.438
atom   16   Tr[ns(na)] =   2.76070
    eigenvalues:
  0.166  0.186  0.205  0.388  0.435
    eigenvectors:
  0.025  0.724  0.073  0.168  0.010
  0.003  0.005  0.004  0.188  0.800
  0.631  0.001  0.368  0.001  0.000
  0.008  0.149  0.012  0.642  0.188
  0.333  0.121  0.544  0.001  0.002
    occupations:
  0.224 -0.013 -0.004  0.077 -0.003
 -0.013  0.423 -0.003  0.026  0.012
 -0.004 -0.003  0.180  0.007  0.018
  0.077  0.026  0.007  0.363  0.001
 -0.003  0.012  0.018  0.001  0.190
atom   17   Tr[ns(na)] =   2.83615
    eigenvalues:
  0.161  0.195  0.210  0.421  0.431
    eigenvectors:
  0.006  0.003  0.000  0.000  0.991
  0.001  0.870  0.126  0.000  0.003
  0.000  0.126  0.874  0.000  0.000
  0.992  0.002  0.000  0.000  0.006
  0.000  0.000  0.000  1.000  0.000
    occupations:
  0.429  0.012  0.004 -0.021 -0.000
  0.012  0.197 -0.005  0.000 -0.002
  0.004 -0.005  0.208  0.000 -0.000
 -0.021  0.000  0.000  0.163 -0.000
 -0.000 -0.002 -0.000 -0.000  0.421
atom   22   Tr[ns(na)] =   2.82579
    eigenvalues:
  0.164  0.205  0.223  0.387  0.434
    eigenvectors:
  0.000  0.000  0.909  0.091  0.000
  0.000  0.000  0.000  0.007  0.993
  0.994  0.006  0.000  0.000  0.000
  0.000  0.000  0.091  0.902  0.007
  0.006  0.994  0.000  0.000  0.000
    occupations:
  0.238 -0.002  0.000  0.047  0.000
 -0.002  0.433  0.000  0.005 -0.000
  0.000  0.000  0.165 -0.000  0.003
  0.047  0.005 -0.000  0.373 -0.000
  0.000 -0.000  0.003 -0.000  0.205
atom   23   Tr[ns(na)] =   2.95923
    eigenvalues:
  0.108  0.292  0.305  0.335  0.440
    eigenvectors:
  0.003  0.000  0.000  0.000  0.997
  0.000  0.000  1.000  0.000  0.000
  0.000  1.000  0.000  0.000  0.000
  0.997  0.000  0.000  0.000  0.003
  0.000  0.000  0.000  1.000  0.000
    occupations:
  0.438 -0.000  0.000 -0.019 -0.000
 -0.000  0.305  0.000 -0.000  0.000
  0.000  0.000  0.292 -0.000 -0.000
 -0.019 -0.000 -0.000  0.109 -0.000
 -0.000  0.000 -0.000 -0.000  0.335
N of occupied +U levels =  22.5515367
 --- exit write_ns ---

[...]

          k = 0.2500-0.4516 0.0000 ( 29882 PWs)   bands (ev):

[...]

          k =-0.2500 0.2258 0.0000 ( 29912 PWs)   bands (ev):

   -61.2110 -61.1845 -60.9264 -60.3880 -60.3600 -59.9239 -59.8962 -59.2061
   -37.6418 -37.4345 -37.3899 -37.3743 -37.3521 -37.3168 -37.2512 -37.1048
   -37.0813 -36.9058 -36.6875 -36.6162 -36.5963 -36.4871 -36.4646 -36.3173
   -36.1932 -36.1701 -36.1591 -36.0887 -35.9983 -35.5491 -35.5306 -35.5244
   -21.9989 -21.7422 -21.0130 -20.8036 -20.3150 -20.2719 -20.2511 -20.1905
   -19.9683 -19.9022 -19.7942 -19.7674 -19.6477 -19.5750 -19.3295 -19.1870
   -18.8904 -18.7488 -17.9741  -9.7608  -9.4962  -8.4956  -8.2707  -7.9871
    -7.7366  -7.6219  -7.6057  -7.5489  -7.4178  -7.3472  -7.2133  -7.1248
    -7.0061  -6.9853  -6.9063  -6.8154  -6.7815  -6.6019  -6.5363  -6.4407
    -6.2836  -6.2037  -6.0450  -5.9029  -5.7903  -5.7362  -5.6488  -5.5346
    -5.4975  -5.4429  -5.4083  -5.3341  -5.2482  -5.1871  -5.1103  -5.0280
    -4.9450  -4.8856  -4.8348  -4.7038  -4.6389  -4.4509  -4.3735  -4.2053
    -4.1933  -4.1432  -4.1106  -3.9950  -3.9480  -3.8392  -3.6757  -3.6331
    -3.5903  -3.5417  -3.4708  -3.3305  -0.8929  -0.8203  -0.7327  -0.6196
    -0.3502  -0.2589  -0.1523  -0.1457  -0.0704   0.0720   0.2000   0.3080
     0.3547   0.3934   0.6140   0.6547   0.6922   0.8301   0.9164   1.0221
     1.1495   1.2238   1.3057   1.3376   1.5854   1.6605   1.7742   1.9746
     2.0106   2.1229   2.3241   2.6090   2.7386   2.8562   2.9088   3.0018
     3.0940   3.2491   3.3916   3.4999   3.6052   4.0876   4.4556   4.6047
     4.6952   4.8945   5.2266   5.8293   5.9250   6.0179   6.0733   6.3387
     6.4034   6.5903   6.7599   6.9246   7.0279   7.2122   7.2906   7.4216
     7.5776   7.6602   7.7405   7.8877   7.9224   8.0360   8.1860   8.3596
     8.5100   8.6471   8.6951   8.7507   9.0140   9.1592   9.1864   9.3022
     9.3304   9.4616   9.5509   9.5828   9.7026   9.7992   9.8913   9.9807
    10.0433  10.2967  10.3400  10.4359  10.5339  10.6441  10.7279  10.8051
    10.9165  10.9472  11.0331  11.1050  11.1375  11.2534  11.3296  11.3701
    11.4457  11.4815  11.5657  11.6909  11.7394  11.8425  11.9107  12.0004
    12.0118  12.0719  12.1362  12.2379  12.3714  12.4139  12.4744  12.4938
    12.6065  12.7081  12.7755  12.8607  12.8943  12.9645  13.0237  13.1388
    13.2571  13.2978  13.3574  13.4299  13.5329  13.5807  13.6467  13.6705
    13.7567  13.8184  13.9225  14.0203  14.0635  14.1436  14.2246  14.2711
    14.4149  14.4591  14.5275  14.5730  14.6844  14.7334  14.8432  14.9437
    15.0471  15.1458  15.2082  15.2667  15.3342  15.4117  15.4648  15.5539
    15.5925  15.6391  15.7772  15.7991  15.8288  15.9520  15.9763  16.0512
    16.1360  16.2067  16.2753  16.3489  16.5033  16.5642  16.6548  16.6925
    16.7856  16.8468  16.8843  16.9255  16.9720  17.0438  17.1093  17.2150
    17.2411  17.2720  17.3785  17.4620  17.5706  17.5958  17.6585  17.6983
    17.7607  17.8247  17.9150  18.0420  18.1023  18.1859  18.2195  18.2945
    18.3785  18.4985  18.6077  18.6361  18.6610

     the Fermi energy is    -3.4136 ev

!    total energy              =   -1565.22494866 Ry
     Harris-Foulkes estimate   =   -1565.22494866 Ry
     estimated scf accuracy    <          3.6E-09 Ry

     The total energy is the sum of the following terms:

     one-electron contribution =  -18398.39413318 Ry
     hartree contribution      =    9213.24009216 Ry
     xc contribution           =    -276.56632698 Ry
     ewald contribution        =    7894.81629203 Ry
     Hubbard energy            =       1.67860136 Ry
     smearing contrib. (-TS)   =       0.00052596 Ry

     convergence has been achieved in  12 iterations

     Forces acting on atoms (Ry/au):

     negative rho (up, down):  0.104E+00 0.000E+00
     atom    1 type  1   force =    -0.00162090   -0.01130078   -0.00020203
     atom    2 type  1   force =     0.00013958    0.01547494    0.00057230
     atom    3 type  2   force =     0.05815286   -0.00839535   -0.00017351
     atom    4 type  2   force =    -0.00130157    0.00620270   -0.00031973
     atom    5 type  1   force =    -0.00315048   -0.06747975    0.00033607
     atom    6 type  1   force =    -0.00555056    0.06808601    0.00047612
     atom    7 type  1   force =    -0.00000217    0.00049237   -0.00006482
     atom    8 type  1   force =     0.00126480   -0.00141658   -0.00039614
     atom    9 type  2   force =     0.01054731    0.00031575   -0.00072013
     atom   10 type  2   force =     0.00002147    0.00002766    0.00026606
     atom   11 type  1   force =    -0.03159399   -0.00348634    0.00009450
     atom   12 type  1   force =    -0.03186440    0.00381483    0.00014615
     atom   13 type  1   force =     0.00009438    0.00009209   -0.00003365
     atom   14 type  1   force =    -0.00243525   -0.01095989   -0.00044132
     atom   15 type  1   force =     0.00003281    0.01229968    0.00077309
     atom   16 type  2   force =    -0.05784865   -0.00826742   -0.00017104
     atom   17 type  2   force =    -0.00136564    0.00567198   -0.00065083
     atom   18 type  1   force =     0.00715124   -0.06728631    0.00041915
     atom   19 type  1   force =     0.00539310    0.06835286    0.00032729
     atom   20 type  1   force =    -0.00017341   -0.00030389   -0.00025849
     atom   21 type  1   force =     0.00135410   -0.00115272   -0.00075830
     atom   22 type  2   force =    -0.01087416    0.00000542   -0.00072080
     atom   23 type  2   force =     0.00002505   -0.00018940    0.00015923
     atom   24 type  1   force =     0.03194501   -0.00342048    0.00015159
     atom   25 type  1   force =     0.03143089    0.00370245    0.00008424
     atom   26 type  1   force =     0.00016840   -0.00016074    0.00036562
     atom   27 type  3   force =    -0.00004885   -0.00062594   -0.00006772
     atom   28 type  3   force =     0.00001170   -0.00053277    0.00031578
     atom   29 type  3   force =     0.00000295    0.00015281    0.00000462
     atom   30 type  3   force =     0.00009331    0.00028011    0.00012080
     atom   31 type  1   force =     0.00000106    0.00000665    0.00036591

     Total force =     0.002354     Total SCF correction =     0.000074

     bfgs converged in  15 scf cycles and  14 bfgs steps
     (criteria: energy < 0.10E-03, force < 0.10E-02)

     End of BFGS Geometry Optimization

     Final energy   =   -1565.2249486580 Ry
Begin final coordinates

ATOMIC_POSITIONS (crystal)
O0       0.000000000   0.000000000   0.376778513    0   0   1
O0       0.000000000   0.500000000   0.396652652    0   0   1
Ti1      0.250000000   0.500000000   0.449273907    0   0   1
Ti1      0.000000000   0.000000000   0.451309902    0   0   1
O0       0.250000000   0.810000000   0.448617257    0   0   1
O0       0.250000000   0.190000000   0.449445958    0   0   1
O0       0.000000000   0.500000000   0.497384230    0   0   1
O0       0.000000000   0.000000000   0.525760549    0   0   1
Ti1      0.250000000   0.000000000   0.580691099    0   0   1
Ti1      0.000000000   0.500000000   0.568950579    0   0   1
O0       0.250000000   0.690000000   0.581570261    0   0   1
O0       0.250000000   0.310000000   0.581523346    0   0   1
O0       0.000000000   0.000000000   0.623345723    0   0   1
O0       0.500000000   0.000000000   0.376851261    0   0   1
O0       0.500000000   0.500000000   0.395822462    0   0   1
Ti1      0.750000000   0.500000000   0.449270479    0   0   1
Ti1      0.500000000   0.000000000   0.451294841    0   0   1
O0       0.750000000   0.810000000   0.448592973    0   0   1
O0       0.750000000   0.190000000   0.449450359    0   0   1
O0       0.500000000   0.500000000   0.491589072    0   0   1
O0       0.500000000   0.000000000   0.525537855    0   0   1
Ti1      0.750000000   0.000000000   0.580682707    0   0   1
Ti1      0.500000000   0.500000000   0.601101304    0   0   1
O0       0.750000000   0.690000000   0.581587846    0   0   1
O0       0.750000000   0.310000000   0.581500155    0   0   1
O0       0.500000000   0.000000000   0.621952518    0   0   1
H2      -0.000431102   0.623824028   0.375533538
H2       0.499483951   0.621667634   0.374015587
H2       0.149473903   0.034598383   0.362814063
H2       0.649062828   0.034252228   0.362664930
O0       0.500042434   0.499909388   0.664474075
End final coordinates

     General routines

     Parallel routines
     Hubbard U routines

   This run was terminated on:   1: 1:11  29Apr2014

   JOB DONE.