     Program PWSCF v.5.0.2 (svn rev. 9656) starts on  1Apr2014 at 13:38:50

     Current dimensions of program PWSCF are:
     Max number of different atomic species (ntypx) = 10
     Max number of k-points (npk) =  40000
     Max angular momentum in pseudopotentials (lmaxx) =  3
     Reading input from pwscf.in
Warning: card &CELL ignored
Warning: card / ignored

     Subspace diagonalization in iterative solution of the eigenvalue problem:
     a serial algorithm will be used

     bravais-lattice index     =            0
     lattice parameter (alat)  =      10.1289  a.u.
     unit-cell volume          =    6836.7721 (a.u.)^3
     number of atoms/cell      =           31
     number of atomic types    =            3
     number of electrons       =       238.00
     number of Kohn-Sham states=          357
     kinetic-energy cutoff     =      40.0000  Ry
     charge density cutoff     =     500.0000  Ry
     convergence threshold     =      1.0E-06
     mixing beta               =       0.7000
     number of iterations used =            8  plain     mixing
     Exchange-correlation      = SLA  PW   PBE  PBE ( 1 4 3 4 0)
     EXX-fraction              =        0.00
     nstep                     =           50

     celldm(1)=  10.128932  celldm(2)=   0.000000  celldm(3)=   0.000000
     celldm(4)=   0.000000  celldm(5)=   0.000000  celldm(6)=   0.000000

     crystal axes: (cart. coord. in units of alat)
               a(1) = (   1.000000   0.000000   0.000000 )
               a(2) = (   0.000000   1.306037   0.000000 )
               a(3) = (   0.000000   0.000000   5.037380 )

     reciprocal axes: (cart. coord. in units 2 pi/alat)
               b(1) = (  1.000000  0.000000  0.000000 )
               b(2) = (  0.000000  0.765675  0.000000 )
               b(3) = (  0.000000  0.000000  0.198516 )

     PseudoPot. # 1 for O  read from file:
     /home/camp/zhonxu/pseudo/o_pbe_v1.01.uspp.F.UPF
     MD5 check sum: 2bcb18d16ea4b960afae9ec6d52f22d2
     Pseudo is Ultrasoft + core correction, Zval =  6.0
     Generated by new atomic code, or converted to UPF format
     Using radial grid of  737 points,  5 beta functions with:
                l(1) =   0
                l(2) =   0
                l(3) =   1
                l(4) =   1
                l(5) =   2
     Q(r) pseudized with  8 coefficients,  rinner =    0.900   0.900   0.900
                                                       0.900   0.900

     PseudoPot. # 2 for Re read from file:
     /home/camp/zhonxu/pseudo/re_pbe_v1.uspp.F.UPF
     MD5 check sum: 6f5a5dcaf9c96c20d0ffdde0de57afc6
     Pseudo is Ultrasoft + core correction, Zval = 15.0
     Generated by new atomic code, or converted to UPF format
     Using radial grid of  981 points,  8 beta functions with:
                l(1) =   0
                l(2) =   0
                l(3) =   1
                l(4) =   1
                l(5) =   2
                l(6) =   2
                l(7) =   3
                l(8) =   3
     Q(r) pseudized with  8 coefficients,  rinner =    1.000   1.000   1.000
                                                       1.000   1.000   1.000
                                                       1.000

     PseudoPot. # 3 for H  read from file:
     /home/camp/zhonxu/pseudo/h_pbe_v1.uspp.F.UPF
     MD5 check sum: 3408e3ff4ec8b0a4e358431e7e038a48
     Pseudo is Ultrasoft, Zval =  1.0
     Generated by new atomic code, or converted to UPF format
     Using radial grid of  615 points,  2 beta functions with:
                l(1) =   0
                l(2) =   0
     Q(r) pseudized with  8 coefficients,  rinner =    0.700

     atomic species   valence    mass     pseudopotential
        O0             6.00    15.99940     O ( 1.00)
        Re1           15.00   186.20700     Re( 1.00)
        H2             1.00     1.00794     H ( 1.00)

     Starting magnetic structure
     atomic species   magnetization
        O0           0.000
        Re1          0.000
        H2           0.000

     No symmetry found

   Cartesian axes

     site n.     atom                  positions (alat units)
         1           O0  tau(   1) = (   0.0000000   0.0000000   1.8688176  )
         2           O0  tau(   2) = (   0.0000000   0.6530184   1.9243296  )
         3           Re1 tau(   3) = (   0.2500000   0.6530184   2.2228951  )
         4           Re1 tau(   4) = (   0.0000000   0.0000000   2.2352367  )
         5           O0  tau(   5) = (   0.2500000   1.0187087   2.2249100  )
         6           O0  tau(   6) = (   0.2500000   0.2873281   2.2250611  )
         7           O0  tau(   7) = (   0.0000000   0.6530184   2.5071041  )
         8           O0  tau(   8) = (   0.0000000   0.0000000   2.5966183  )
         9           Re1 tau(   9) = (   0.2500000   0.0000000   2.8989619  )
        10           Re1 tau(  10) = (   0.0000000   0.6530184   2.8608793  )
        11           O0  tau(  11) = (   0.2500000   0.9403465   2.8908013  )
        12           O0  tau(  12) = (   0.2500000   0.3656903   2.8907005  )
        13           O0  tau(  13) = (   0.0000000   0.0000000   3.1620138  )
        14           O0  tau(  14) = (   0.5000000   0.0000000   1.8688176  )
        15           O0  tau(  15) = (   0.5000000   0.6530184   1.9243296  )
        16           Re1 tau(  16) = (   0.7500000   0.6530184   2.2228951  )
        17           Re1 tau(  17) = (   0.5000000   0.0000000   2.2352367  )
        18           O0  tau(  18) = (   0.7500000   1.0187087   2.2249604  )
        19           O0  tau(  19) = (   0.7500000   0.2873281   2.2250611  )
        20           O0  tau(  20) = (   0.5000000   0.6530184   2.5071041  )
        21           O0  tau(  21) = (   0.5000000   0.0000000   2.5966183  )
        22           Re1 tau(  22) = (   0.7500000   0.0000000   2.8989619  )
        23           Re1 tau(  23) = (   0.5000000   0.6530184   2.8609296  )
        24           O0  tau(  24) = (   0.7500000   0.9403465   2.8908013  )
        25           O0  tau(  25) = (   0.7500000   0.3656903   2.8907005  )
        26           O0  tau(  26) = (   0.5000000   0.0000000   3.1620138  )
        27           H2  tau(  27) = (  -0.0003800   0.8172395   1.8403061  )
        28           H2  tau(  28) = (   0.4996200   0.8172395   1.8403061  )
        29           H2  tau(  29) = (   0.1698700   0.0284977   1.7974380  )
        30           H2  tau(  30) = (   0.6698800   0.0284977   1.7974380  )
        31           O0  tau(  31) = (   0.4999900   0.6527049   3.1871504  )

     number of k points=    20  Methfessel-Paxton smearing, width (Ry)=  0.0100
                       cart. coord. in units 2pi/alat
        k(    1) = (   0.0000000   0.0000000   0.0000000), wk =   0.0625000
        k(    2) = (   0.0000000   0.1914188   0.0000000), wk =   0.1250000
        k(    3) = (   0.0000000  -0.3828376   0.0000000), wk =   0.0625000
        k(    4) = (   0.2500000   0.0000000   0.0000000), wk =   0.1250000
        k(    5) = (   0.2500000   0.1914188   0.0000000), wk =   0.1250000
        k(    6) = (   0.2500000  -0.3828376   0.0000000), wk =   0.1250000
        k(    7) = (  -0.5000000   0.0000000   0.0000000), wk =   0.0625000
        k(    8) = (  -0.5000000   0.1914188   0.0000000), wk =   0.1250000
        k(    9) = (  -0.5000000  -0.3828376   0.0000000), wk =   0.0625000
        k(   10) = (  -0.2500000   0.1914188   0.0000000), wk =   0.1250000
        k(   11) = (   0.0000000   0.0000000   0.0000000), wk =   0.0625000
        k(   12) = (   0.0000000   0.1914188   0.0000000), wk =   0.1250000
        k(   13) = (   0.0000000  -0.3828376   0.0000000), wk =   0.0625000
        k(   14) = (   0.2500000   0.0000000   0.0000000), wk =   0.1250000
        k(   15) = (   0.2500000   0.1914188   0.0000000), wk =   0.1250000
        k(   16) = (   0.2500000  -0.3828376   0.0000000), wk =   0.1250000
        k(   17) = (  -0.5000000   0.0000000   0.0000000), wk =   0.0625000
        k(   18) = (  -0.5000000   0.1914188   0.0000000), wk =   0.1250000
        k(   19) = (  -0.5000000  -0.3828376   0.0000000), wk =   0.0625000
        k(   20) = (  -0.2500000   0.1914188   0.0000000), wk =   0.1250000

     Largest allocated arrays     est. size (Mb)     dimensions
     Largest temporary arrays     est. size (Mb)     dimensions

     Check: negative/imaginary core charge=   -0.000003    0.000000

     Initial potential from superposition of free atoms
     Check: negative starting charge=(component1):   -0.118541
     Check: negative starting charge=(component2):   -0.118541

     starting charge  233.99958, renormalised to  238.00000

     negative rho (up, down):  0.121E+00 0.121E+00
     Starting wfc are  184 randomized atomic wfcs

     Self-consistent Calculation

     iteration #  1     ecut=    40.00 Ry     beta=0.70
     Davidson diagonalization with overlap
     ethr =  1.00E-02,  avg # of iterations =  5.8

     negative rho (up, down):  0.145E+00 0.145E+00

     total energy              =   -2167.27220739 Ry
     Harris-Foulkes estimate   =   -2177.04512136 Ry
     estimated scf accuracy    <      11.68925883 Ry

     total magnetization       =     0.00 Bohr mag/cell
     absolute magnetization    =     0.00 Bohr mag/cell

[...]

     End of self-consistent calculation

 ------ SPIN UP ------------

          k = 0.0000 0.0000 0.0000 ( 29221 PWs)   bands (ev):

   -82.2605 -81.8792 -81.8055 -81.6447 -81.5887 -81.4148 -81.4098 -81.3593
   -44.3658 -44.2524 -44.0886 -44.0271 -43.8989 -43.7757 -43.7701 -43.6679
   -43.6575 -43.6277 -43.6255 -43.5412 -43.4698 -43.4260 -43.3453 -43.3398
   -43.3233 -43.2965 -43.2842 -43.2190 -43.2122 -43.0338 -43.0091 -42.7805
   -21.4770 -20.9258 -20.8301 -20.8186 -20.5333 -20.1915 -20.1521 -19.9071
   -19.8325 -19.7802 -19.7305 -19.6597 -19.5848 -19.5699 -19.4888 -19.0917
   -18.5695 -18.2344 -17.9595  -9.8613  -9.7820  -9.5745  -9.0541  -9.0058
    -8.6458  -8.5296  -8.3097  -8.2713  -8.1118  -7.9323  -7.9301  -7.7375
    -7.6557  -7.6276  -7.5260  -7.3609  -7.3000  -7.1582  -7.0974  -6.8109
    -6.6083  -6.5517  -6.0161  -5.9444  -5.9006  -5.8221  -5.6970  -5.6244
    -5.4872  -5.4048  -5.3248  -5.2856  -5.2163  -5.0698  -4.9523  -4.8096
    -4.7191  -4.5566  -4.5162  -4.4435  -4.3886  -4.1444  -4.0589  -3.8589
    -3.8002  -3.7955  -3.6609  -3.6198  -3.5872  -3.5073  -3.4932  -3.3757
    -3.3081  -3.1187  -3.0162  -2.8589  -2.8088  -2.6617  -2.5628  -1.3661
    -0.9929  -0.8330  -0.5029  -0.2787  -0.2098   0.0070   0.1494   0.1782
     0.3225   0.4936   0.7520   0.8884   0.9455   1.2352   1.2996   1.5356
     2.3200   2.6115   2.6836   2.8573   3.0282   3.1071   3.1555   3.3542
     3.7316   3.8225   4.0256   4.1191   4.2182   4.3707   4.5000   4.5124
     4.5321   4.5685   4.7337   4.9768   5.0425   5.4769   5.7091   5.9512
     6.0070   6.2682   6.7313   6.9793   7.2178   7.2943   7.6715   7.8991
     7.9893   8.0602   8.1514   8.2396   8.3330   8.3976   8.4890   8.5557
     8.6448   8.7873   8.8204   8.9043   9.0134   9.0769   9.2710   9.3139
     9.5535   9.5748   9.6399   9.6408   9.7930  10.1018  10.1687  10.1960
    10.2148  10.3407  10.5100  10.5218  10.6291  10.7755  10.9052  10.9364
[...]
     atom    8 type  1   force =     0.00256868   -0.00161041    0.00468127
     atom    9 type  2   force =    -0.01007168    0.00128166    0.01540182
     atom   10 type  2   force =    -0.00002018   -0.00081802   -0.02872203
     atom   11 type  1   force =    -0.02427978   -0.01414377   -0.02949604
     atom   12 type  1   force =    -0.02488379    0.01376781   -0.02930990
     atom   13 type  1   force =    -0.00049146    0.00003248   -0.00841339
     atom   14 type  1   force =    -0.00426011   -0.00767682    0.00181419
     atom   15 type  1   force =    -0.00001852    0.00924175   -0.00105064
     atom   16 type  2   force =    -0.01089527   -0.00445286   -0.01556721
     atom   17 type  2   force =     0.00166362    0.00891421   -0.00502157
     atom   18 type  1   force =     0.00045813    0.01527802    0.00122913
     atom   19 type  1   force =    -0.00132008   -0.01686230    0.00099642
     atom   20 type  1   force =    -0.00001882   -0.00157989   -0.03005206
     atom   21 type  1   force =     0.00285548   -0.00179949    0.00377305
     atom   22 type  2   force =     0.00687301    0.00157670    0.01562653
     atom   23 type  2   force =     0.00000354    0.00068692    0.19967271
     atom   24 type  1   force =     0.02443452   -0.01423550   -0.02930271
     atom   25 type  1   force =     0.02469413    0.01370071   -0.02938712
     atom   26 type  1   force =    -0.00039689   -0.00044369   -0.01953206
     atom   27 type  3   force =     0.00001214   -0.00142501    0.00101248
     atom   28 type  3   force =    -0.00000075   -0.00220504   -0.00177879
     atom   29 type  3   force =    -0.00043896    0.00040144   -0.00009811
     atom   30 type  3   force =     0.00058450    0.00030956   -0.00020985
     atom   31 type  1   force =     0.00000408   -0.00028905    0.00016907

     Total force =     0.215858     Total SCF correction =     0.000891

     BFGS Geometry Optimization

     number of scf cycles    =   1
     number of bfgs steps    =   0

     energy   new            =   -2175.3285785059 Ry

     new trust radius        =       0.1996727133 bohr
     new conv_thr            =       0.0000010000 Ry

ATOMIC_POSITIONS (crystal)
O0       0.000000000   0.000000000   0.370981534    0   0   1
O0       0.000000000   0.500000000   0.382045688    0   0   1
Re1      0.250000000   0.500000000   0.440975510    0   0   1
Re1      0.000000000   0.000000000   0.443761366    0   0   1
O0       0.250000000   0.780000000   0.441712428    0   0   1
O0       0.250000000   0.220000000   0.441723897    0   0   1
O0       0.000000000   0.500000000   0.497577465    0   0   1
O0       0.000000000   0.000000000   0.515561748    0   0   1
Re1      0.250000000   0.000000000   0.575791859    0   0   1
Re1      0.000000000   0.500000000   0.567367080    0   0   1
O0       0.250000000   0.720000000   0.573291910    0   0   1
O0       0.250000000   0.280000000   0.573275558    0   0   1
O0       0.000000000   0.000000000   0.627545107    0   0   1
O0       0.500000000   0.000000000   0.371025556    0   0   1
O0       0.500000000   0.500000000   0.381989409    0   0   1
Re1      0.750000000   0.500000000   0.440974900    0   0   1
Re1      0.500000000   0.000000000   0.443631583    0   0   1
O0       0.750000000   0.780000000   0.441714090    0   0   1
O0       0.750000000   0.220000000   0.441729529    0   0   1
O0       0.500000000   0.500000000   0.497111013    0   0   1
O0       0.500000000   0.000000000   0.515543948    0   0   1
Re1      0.750000000   0.000000000   0.575796263    0   0   1
Re1      0.500000000   0.500000000   0.571853365    0   0   1
O0       0.750000000   0.720000000   0.573295699    0   0   1
O0       0.750000000   0.280000000   0.573274045    0   0   1
O0       0.500000000   0.000000000   0.627327193    0   0   1
H2      -0.000378801   0.625632279   0.365349843
H2       0.499619926   0.625573315   0.365295138
H2       0.169826663   0.021850346   0.356818077
H2       0.669937706   0.021843401   0.356815887
O0       0.499990403   0.499738150   0.632703314

     Check: negative starting charge=(component1):   -0.237081
     NEW-OLD atomic charge density approx. for the potential

     Check: negative/imaginary core charge=   -0.000003    0.000000
     Check: negative starting charge=(component1):   -0.237450

[...]

     energy   old            =   -2175.3285785059 Ry
     energy   new            =   -2175.3423200254 Ry

     CASE: energy  _new < energy  _old

[...]

     Threshold (ethr) on eigenvalues was too large:
     Diagonalizing with lowered threshold

     Davidson diagonalization with overlap
     ethr =  5.12E-08,  avg # of iterations =  1.0

[...]

     number of scf cycles    =  17
     number of bfgs steps    =  16

     energy   old            =   -2175.3740264867 Ry
     energy   new            =   -2175.3740427536 Ry

     CASE: energy  _new < energy  _old

     new trust radius        =       0.0039581115 bohr
     new conv_thr            =       0.0000000100 Ry

ATOMIC_POSITIONS (crystal)
O0       0.000000000   0.000000000   0.370174117    0   0   1
O0       0.000000000   0.500000000   0.382878222    0   0   1
Re1      0.250000000   0.500000000   0.442607659    0   0   1
Re1      0.000000000   0.000000000   0.442928421    0   0   1
O0       0.250000000   0.780000000   0.441583528    0   0   1
O0       0.250000000   0.220000000   0.441401855    0   0   1
O0       0.000000000   0.500000000   0.497616059    0   0   1
O0       0.000000000   0.000000000   0.514450921    0   0   1
Re1      0.250000000   0.000000000   0.573918770    0   0   1
Re1      0.000000000   0.500000000   0.567176443    0   0   1
O0       0.250000000   0.720000000   0.571793862    0   0   1
O0       0.250000000   0.280000000   0.571823221    0   0   1
O0       0.000000000   0.000000000   0.626121962    0   0   1
O0       0.500000000   0.000000000   0.370144337    0   0   1
O0       0.500000000   0.500000000   0.383154805    0   0   1
Re1      0.750000000   0.500000000   0.442603248    0   0   1
Re1      0.500000000   0.000000000   0.442610697    0   0   1
O0       0.750000000   0.780000000   0.441492118    0   0   1
O0       0.750000000   0.220000000   0.441467562    0   0   1
O0       0.500000000   0.500000000   0.499987134    0   0   1
O0       0.500000000   0.000000000   0.514396745    0   0   1
Re1      0.750000000   0.000000000   0.573957415    0   0   1
Re1      0.500000000   0.500000000   0.576859842    0   0   1
O0       0.750000000   0.720000000   0.571856791    0   0   1
O0       0.750000000   0.280000000   0.571811596    0   0   1
O0       0.500000000   0.000000000   0.625487344    0   0   1
H2      -0.000333081   0.625282129   0.366094093
H2       0.499599134   0.622393384   0.365020642
H2       0.168717321   0.023819060   0.355779118
H2       0.670112284   0.021876270   0.355977522
O0       0.499893199   0.499479343   0.640683952

     Check: negative starting charge=(component1):   -0.237506
     NEW-OLD atomic charge density approx. for the potential

     Check: negative/imaginary core charge=   -0.000003    0.000000
     Check: negative starting charge=(component1):   -0.237496

[...]

     Self-consistent Calculation

[...]

     Threshold (ethr) on eigenvalues was too large:
     Diagonalizing with lowered threshold

     Davidson diagonalization with overlap
     ethr =  3.94E-09,  avg # of iterations =  2.7

[...]

     total energy              =   -2175.37405190 Ry
     Harris-Foulkes estimate   =   -2175.37405190 Ry
     estimated scf accuracy    <       0.00000005 Ry

[...]

     iteration # 14     ecut=    40.00 Ry     beta=0.70
     Davidson diagonalization with overlap
     ethr =  9.16E-12,  avg # of iterations =  1.0

     negative rho (up, down):  0.125E+00 0.125E+00

     End of self-consistent calculation

 ------ SPIN UP ------------

[...]

 ------ SPIN DOWN ----------

[...]

          k = 0.2500-0.3828 0.0000 ( 29202 PWs)   bands (ev):

[...]

          k =-0.2500 0.1914 0.0000 ( 29229 PWs)   bands (ev):

   -82.3512 -81.7880 -81.7027 -81.5653 -81.5253 -81.3533 -81.3143 -81.2619
   -44.4766 -44.1935 -44.0751 -43.8745 -43.7346 -43.6740 -43.6669 -43.5730
   -43.5477 -43.5452 -43.4833 -43.4568 -43.3790 -43.3201 -43.2739 -43.2614
   -43.2469 -43.2297 -43.2134 -43.1939 -43.1913 -43.0982 -43.0249 -42.8321
   -21.1184 -20.6854 -20.6128 -20.4873 -20.4176 -20.0759 -20.0556 -20.0209
   -19.7734 -19.7476 -19.6742 -19.6059 -19.4990 -19.4043 -19.3520 -19.1321
   -18.6066 -18.4926 -18.3337  -9.2502  -9.0268  -8.9626  -8.8248  -8.6771
    -8.6628  -8.5330  -8.3761  -8.2470  -8.0192  -7.9571  -7.7170  -7.6500
    -7.5513  -7.3926  -7.2467  -7.1424  -6.9895  -6.8954  -6.7143  -6.6642
    -6.4205  -6.3198  -6.2068  -6.0453  -5.9448  -5.8567  -5.7643  -5.6802
    -5.4363  -5.3975  -5.3270  -5.2652  -5.1907  -5.0162  -4.9774  -4.8995
    -4.8492  -4.7186  -4.6089  -4.4237  -4.3882  -4.1926  -4.1400  -4.0510
    -4.0070  -3.9001  -3.8393  -3.6833  -3.6434  -3.5766  -3.4995  -3.3218
    -3.1726  -3.0180  -2.9230  -2.8120  -2.3232  -2.2940  -2.0442  -1.1520
    -1.1136  -1.0187  -0.8124  -0.2753  -0.2062   0.2738   0.3431   0.3961
     0.5587   0.5797   0.7201   0.8962   1.0782   1.1913   1.2763   1.3850
     1.4207   1.6862   1.7080   1.8928   2.1078   3.2008   3.3550   3.4020
     3.5429   3.6203   3.7826   4.0625   4.1775   4.3257   4.4134   4.6180
     4.7755   5.2123   5.4139   5.4984   5.7154   5.8640   6.0615   6.1352
     6.2195   6.4049   6.6261   6.9000   7.1065   7.2416   7.4176   7.6190
     7.6410   7.8180   8.0275   8.1480   8.2000   8.3415   8.5271   8.5918
     8.6501   8.7093   8.9127   9.0059   9.1593   9.3501   9.4535   9.5743
     9.6442   9.7511   9.8170   9.8783   9.9178  10.0193  10.0471  10.1578
    10.2460  10.3031  10.3912  10.4347  10.5305  10.6659  10.7880  10.9305
    10.9955  11.1041  11.1693  11.3453  11.3757  11.5418  11.6000  11.7895
    11.8404  11.9516  12.0726  12.2331  12.3408  12.5185  12.5490  12.6001
    12.6754  12.7294  12.8004  12.8591  12.9797  13.0725  13.1018  13.2555
    13.3373  13.4730  13.5478  13.5805  13.6735  13.7311  13.7676  13.8124
    13.8656  13.9164  14.0291  14.1231  14.1466  14.2137  14.2522  14.3915
    14.4226  14.4699  14.5261  14.6531  14.6747  14.7870  14.8526  14.9166
    14.9883  15.0285  15.0843  15.1639  15.2020  15.2377  15.3063  15.4750
    15.5277  15.5959  15.6696  15.7904  15.9062  16.0386  16.0932  16.1579
    16.2283  16.3043  16.3455  16.4367  16.5174  16.5610  16.6244  16.6648
    16.7783  16.8735  16.9113  17.0467  17.1312  17.1862  17.2457  17.3729
    17.4569  17.5020  17.6144  17.6960  17.7348  17.8168  17.9066  17.9426
    18.0039  18.0906  18.1293  18.1770  18.2940  18.3147  18.3521  18.4284
    18.5184  18.6006  18.6727  18.7353  18.7954  18.8960  18.9577  19.0192
    19.1221  19.1763  19.2635  19.4283  19.4812  19.5680  19.6404  19.6970
    19.7903  19.9044  19.9747  20.0464  20.1009  20.1894  20.2167  20.3201
    20.4259  20.4833  20.5828  20.6060  20.6534  20.7056  20.8049  20.8797
    20.9534  21.0382  21.1173  21.1738  21.2022  21.2702  21.3141  21.3720
    21.4368  21.4947  21.5609  21.6228  21.6431  21.7496  21.8305  21.9154
    21.9717  22.0524  22.0865  22.1767  22.2071  22.2490  22.3250  22.4134
    22.4405  22.4845  22.5296  22.5593  22.6388  22.6878  22.7352  22.7938
    22.8234  22.8758  22.9286  22.9966  23.0479

     the Fermi energy is     0.3064 ev

!    total energy              =   -2175.37405190 Ry
     Harris-Foulkes estimate   =   -2175.37405190 Ry
     estimated scf accuracy    <          5.1E-09 Ry

     The total energy is the sum of the following terms:

     one-electron contribution =  -24184.64658484 Ry
     hartree contribution      =   12106.20675827 Ry
     xc contribution           =    -594.17720277 Ry
     ewald contribution        =   10497.24428457 Ry
     smearing contrib. (-TS)   =      -0.00130713 Ry

     total magnetization       =     0.00 Bohr mag/cell
     absolute magnetization    =     0.00 Bohr mag/cell

     convergence has been achieved in  14 iterations

     Forces acting on atoms (Ry/au):

     negative rho (up, down):  0.125E+00 0.125E+00
     atom    1 type  1   force =    -0.00595728   -0.00712739    0.00008589
     atom    2 type  1   force =     0.00005266    0.00487425   -0.00004863
     atom    3 type  2   force =     0.03294601   -0.00290281   -0.00011872
     atom    4 type  2   force =     0.00188371    0.00800574    0.00019845
     atom    5 type  1   force =     0.00373951    0.01094859    0.00013595
     atom    6 type  1   force =     0.00220206   -0.01190020    0.00015410
     atom    7 type  1   force =    -0.00003141   -0.00028883   -0.00013708
     atom    8 type  1   force =     0.00258880   -0.00131248    0.00033844
     atom    9 type  2   force =    -0.01914366    0.00183531   -0.00037605
     atom   10 type  2   force =    -0.00012086   -0.00072773   -0.00021029
     atom   11 type  1   force =    -0.01239518   -0.02103795   -0.00001762
     atom   12 type  1   force =    -0.01311586    0.02086683    0.00000570
     atom   13 type  1   force =    -0.00042985   -0.00036048   -0.00002088
     atom   14 type  1   force =    -0.00251463   -0.00654994   -0.00005400
     atom   15 type  1   force =    -0.00006157    0.00276780   -0.00000275
     atom   16 type  2   force =    -0.03328434   -0.00276918   -0.00012322
     atom   17 type  2   force =     0.00156569    0.00877650    0.00005580
     atom   18 type  1   force =    -0.00017188    0.01080051    0.00009244
     atom   19 type  1   force =    -0.00181569   -0.01160073    0.00017730
     atom   20 type  1   force =    -0.00004451   -0.00147185   -0.00096499
     atom   21 type  1   force =     0.00306647   -0.00200419    0.00037660
     atom   22 type  2   force =     0.01579113    0.00202630   -0.00035536
     atom   23 type  2   force =     0.00008750   -0.00010176    0.00025955
     atom   24 type  1   force =     0.01275412   -0.02116675    0.00000152
     atom   25 type  1   force =     0.01274111    0.02066396    0.00001462
     atom   26 type  1   force =    -0.00050697   -0.00070852   -0.00095070
     atom   27 type  3   force =     0.00001020    0.00023299    0.00050089
     atom   28 type  3   force =    -0.00000354    0.00035421    0.00065045
     atom   29 type  3   force =     0.00004129   -0.00004288    0.00005350
     atom   30 type  3   force =     0.00011850   -0.00007468    0.00004474
     atom   31 type  1   force =     0.00000848   -0.00000464    0.00023436

     Total force =     0.001896     Total SCF correction =     0.000160

     bfgs converged in  18 scf cycles and  17 bfgs steps
     (criteria: energy < 0.10E-03, force < 0.10E-02)

     End of BFGS Geometry Optimization

     Final energy   =   -2175.3740518958 Ry
Begin final coordinates

ATOMIC_POSITIONS (crystal)
O0       0.000000000   0.000000000   0.370174117    0   0   1
O0       0.000000000   0.500000000   0.382878222    0   0   1
Re1      0.250000000   0.500000000   0.442607659    0   0   1
Re1      0.000000000   0.000000000   0.442928421    0   0   1
O0       0.250000000   0.780000000   0.441583528    0   0   1
O0       0.250000000   0.220000000   0.441401855    0   0   1
O0       0.000000000   0.500000000   0.497616059    0   0   1
O0       0.000000000   0.000000000   0.514450921    0   0   1
Re1      0.250000000   0.000000000   0.573918770    0   0   1
Re1      0.000000000   0.500000000   0.567176443    0   0   1
O0       0.250000000   0.720000000   0.571793862    0   0   1
O0       0.250000000   0.280000000   0.571823221    0   0   1
O0       0.000000000   0.000000000   0.626121962    0   0   1
O0       0.500000000   0.000000000   0.370144337    0   0   1
O0       0.500000000   0.500000000   0.383154805    0   0   1
Re1      0.750000000   0.500000000   0.442603248    0   0   1
Re1      0.500000000   0.000000000   0.442610697    0   0   1
O0       0.750000000   0.780000000   0.441492118    0   0   1
O0       0.750000000   0.220000000   0.441467562    0   0   1
O0       0.500000000   0.500000000   0.499987134    0   0   1
O0       0.500000000   0.000000000   0.514396745    0   0   1
Re1      0.750000000   0.000000000   0.573957415    0   0   1
Re1      0.500000000   0.500000000   0.576859842    0   0   1
O0       0.750000000   0.720000000   0.571856791    0   0   1
O0       0.750000000   0.280000000   0.571811596    0   0   1
O0       0.500000000   0.000000000   0.625487344    0   0   1
H2      -0.000333081   0.625282129   0.366094093
H2       0.499599134   0.622393384   0.365020642
H2       0.168717321   0.023819060   0.355779118
H2       0.670112284   0.021876270   0.355977522
O0       0.499893199   0.499479343   0.640683952
End final coordinates

     General routines

     Parallel routines

   This run was terminated on:   2:24:18   3Apr2014

   JOB DONE.