     Program PWSCF v.5.0.2 (svn rev. 9656) starts on 28Apr2014 at  2:42:40

     Current dimensions of program PWSCF are:
     Max number of different atomic species (ntypx) = 10
     Max number of k-points (npk) =  40000
     Max angular momentum in pseudopotentials (lmaxx) =  3
     Reading input from pwscf.in
Warning: card &CELL ignored
Warning: card / ignored

     Subspace diagonalization in iterative solution of the eigenvalue problem:
     a serial algorithm will be used

     bravais-lattice index     =            0
     lattice parameter (alat)  =      12.2076  a.u.
     unit-cell volume          =    7496.5096 (a.u.)^3
     number of atoms/cell      =           31
     number of atomic types    =            3
     number of electrons       =       246.00
     number of Kohn-Sham states=          369
     kinetic-energy cutoff     =      40.0000  Ry
     charge density cutoff     =     500.0000  Ry
     convergence threshold     =      1.0E-06
     mixing beta               =       0.7000
     number of iterations used =            8  plain     mixing
     Exchange-correlation      = SLA  PW   PBE  PBE ( 1 4 3 4 0)
     EXX-fraction              =        0.00
     nstep                     =           50

     celldm(1)=  12.207631  celldm(2)=   0.000000  celldm(3)=   0.000000
     celldm(4)=   0.000000  celldm(5)=   0.000000  celldm(6)=   0.000000

     crystal axes: (cart. coord. in units of alat)
               a(1) = (   1.000000   0.000000   0.000000 )
               a(2) = (   0.000000   1.004836   0.000000 )
               a(3) = (   0.000000   0.000000   4.100811 )

     reciprocal axes: (cart. coord. in units 2 pi/alat)
               b(1) = (  1.000000  0.000000  0.000000 )
               b(2) = (  0.000000  0.995187  0.000000 )
               b(3) = (  0.000000  0.000000  0.243854 )

     PseudoPot. # 1 for O  read from file:
     /home/camp/zhonxu/pseudo/o_pbe_v1.01.uspp.F.UPF
     MD5 check sum: 2bcb18d16ea4b960afae9ec6d52f22d2
     Pseudo is Ultrasoft + core correction, Zval =  6.0
     Generated by new atomic code, or converted to UPF format
     Using radial grid of  737 points,  5 beta functions with:
                l(1) =   0
                l(2) =   0
                l(3) =   1
                l(4) =   1
                l(5) =   2
     Q(r) pseudized with  8 coefficients,  rinner =    0.900   0.900   0.900
                                                       0.900   0.900

     PseudoPot. # 2 for Pt read from file:
     /home/camp/zhonxu/pseudo/pt_pbe_v1.uspp.F.UPF
     MD5 check sum: 4c71d6ad5ef119f1eb26a4d0b7884226
     Pseudo is Ultrasoft + core correction, Zval = 16.0
     Generated by new atomic code, or converted to UPF format
     Using radial grid of  985 points,  6 beta functions with:
                l(1) =   0
                l(2) =   0
                l(3) =   1
                l(4) =   1
                l(5) =   2
                l(6) =   2
     Q(r) pseudized with  8 coefficients,  rinner =    1.300   1.300   1.300
                                                       1.300   1.300

     PseudoPot. # 3 for H  read from file:
     /home/camp/zhonxu/pseudo/h_pbe_v1.uspp.F.UPF
     MD5 check sum: 3408e3ff4ec8b0a4e358431e7e038a48
     Pseudo is Ultrasoft, Zval =  1.0
     Generated by new atomic code, or converted to UPF format
     Using radial grid of  615 points,  2 beta functions with:
                l(1) =   0
                l(2) =   0
     Q(r) pseudized with  8 coefficients,  rinner =    0.700

     atomic species   valence    mass     pseudopotential
        O0             6.00    15.99940     O ( 1.00)
        Pt1           16.00   195.08000     Pt( 1.00)
        H2             1.00     1.00794     H ( 1.00)

     Simplified LDA+U calculation (l_max = 2) with parameters (eV):
     atomic species    L          U    alpha       J0     beta
        Pt1            2     5.0000   0.0000   0.0000   0.0000

     No symmetry found

   Cartesian axes

     site n.     atom                  positions (alat units)
         1           O0  tau(   1) = (   0.0000000   0.0000000   1.5489174  )
         2           O0  tau(   2) = (   0.0000000   0.5024180   1.6470088  )
         3           Pt1 tau(   3) = (   0.2500000   0.5024180   1.8504500  )
         4           Pt1 tau(   4) = (   0.0000000   0.0000000   1.8564782  )
         5           O0  tau(   5) = (   0.2500000   0.8139171   1.8182587  )
         6           O0  tau(   6) = (   0.2500000   0.1909188   1.8867012  )
         7           O0  tau(   7) = (   0.0000000   0.5024180   2.0373240  )
         8           O0  tau(   8) = (   0.0000000   0.0000000   2.1721997  )
         9           Pt1 tau(   9) = (   0.2500000   0.0000000   2.3623543  )
        10           Pt1 tau(  10) = (   0.0000000   0.5024180   2.3594017  )
        11           O0  tau(  11) = (   0.2500000   0.6933368   2.3215512  )
        12           O0  tau(  12) = (   0.2500000   0.3114991   2.4021322  )
        13           O0  tau(  13) = (   0.0000000   0.0000000   2.5481621  )
        14           O0  tau(  14) = (   0.5000000   0.0000000   1.5492455  )
        15           O0  tau(  15) = (   0.5000000   0.5024180   1.6439332  )
        16           Pt1 tau(  16) = (   0.7500000   0.5024180   1.8504910  )
        17           Pt1 tau(  17) = (   0.5000000   0.0000000   1.8565192  )
        18           O0  tau(  18) = (   0.7500000   0.8139171   1.8184227  )
        19           O0  tau(  19) = (   0.7500000   0.1909188   1.8866602  )
        20           O0  tau(  20) = (   0.5000000   0.5024180   2.0431061  )
        21           O0  tau(  21) = (   0.5000000   0.0000000   2.1716256  )
        22           Pt1 tau(  22) = (   0.7500000   0.0000000   2.3623953  )
        23           Pt1 tau(  23) = (   0.5000000   0.5024180   2.3697358  )
        24           O0  tau(  24) = (   0.7500000   0.6933368   2.3215102  )
        25           O0  tau(  25) = (   0.7500000   0.3114991   2.4021732  )
        26           O0  tau(  26) = (   0.5000000   0.0000000   2.5480390  )
        27           H2  tau(  27) = (   0.0001100   0.6425926   1.5814778  )
        28           H2  tau(  28) = (   0.5001800   0.6431151   1.5801656  )
        29           H2  tau(  29) = (   0.1426600   0.0364956   1.5073762  )
        30           H2  tau(  30) = (   0.6419200   0.0388771   1.5073762  )
        31           O0  tau(  31) = (   0.5000900   0.5753691   2.6428088  )

     number of k points=    10  Methfessel-Paxton smearing, width (Ry)=  0.0100
                       cart. coord. in units 2pi/alat
        k(    1) = (   0.0000000   0.0000000   0.0000000), wk =   0.1250000
        k(    2) = (   0.0000000   0.2487968   0.0000000), wk =   0.2500000
        k(    3) = (   0.0000000  -0.4975937   0.0000000), wk =   0.1250000
        k(    4) = (   0.2500000   0.0000000   0.0000000), wk =   0.2500000
        k(    5) = (   0.2500000   0.2487968   0.0000000), wk =   0.2500000
        k(    6) = (   0.2500000  -0.4975937   0.0000000), wk =   0.2500000
        k(    7) = (  -0.5000000   0.0000000   0.0000000), wk =   0.1250000
        k(    8) = (  -0.5000000   0.2487968   0.0000000), wk =   0.2500000
        k(    9) = (  -0.5000000  -0.4975937   0.0000000), wk =   0.1250000
        k(   10) = (  -0.2500000   0.2487968   0.0000000), wk =   0.2500000

     Largest allocated arrays     est. size (Mb)     dimensions
     Largest temporary arrays     est. size (Mb)     dimensions

     Check: negative/imaginary core charge=   -0.000003    0.000000

     Initial potential from superposition of free atoms
     Check: negative starting charge=   -1.533958

     starting charge  241.99985, renormalised to  246.00000

     negative rho (up, down):  0.156E+01 0.000E+00
     Number of +U iterations with fixed ns =  0
     Starting occupations:
 --- enter write_ns ---
 LDA+U parameters:
U( 2)     =  5.00000000
alpha( 2) =  0.00000000
atom    3   Tr[ns(na)] =   8.00000
    eigenvalues:
  0.800  0.800  0.800  0.800  0.800
    eigenvectors:
  1.000  0.000  0.000  0.000  0.000
  0.000  1.000  0.000  0.000  0.000
  0.000  0.000  1.000  0.000  0.000
  0.000  0.000  0.000  1.000  0.000
  0.000  0.000  0.000  0.000  1.000
    occupations:
  0.800  0.000  0.000  0.000  0.000
  0.000  0.800  0.000  0.000  0.000
  0.000  0.000  0.800  0.000  0.000
  0.000  0.000  0.000  0.800  0.000
  0.000  0.000  0.000  0.000  0.800
atom    4   Tr[ns(na)] =   8.00000
    eigenvalues:
  0.800  0.800  0.800  0.800  0.800
    eigenvectors:
  1.000  0.000  0.000  0.000  0.000
  0.000  1.000  0.000  0.000  0.000
  0.000  0.000  1.000  0.000  0.000
  0.000  0.000  0.000  1.000  0.000
  0.000  0.000  0.000  0.000  1.000
    occupations:
  0.800  0.000  0.000  0.000  0.000
  0.000  0.800  0.000  0.000  0.000
  0.000  0.000  0.800  0.000  0.000
  0.000  0.000  0.000  0.800  0.000
  0.000  0.000  0.000  0.000  0.800
atom    9   Tr[ns(na)] =   8.00000
    eigenvalues:
  0.800  0.800  0.800  0.800  0.800
    eigenvectors:
  1.000  0.000  0.000  0.000  0.000
  0.000  1.000  0.000  0.000  0.000
  0.000  0.000  1.000  0.000  0.000
  0.000  0.000  0.000  1.000  0.000
  0.000  0.000  0.000  0.000  1.000
    occupations:
  0.800  0.000  0.000  0.000  0.000
  0.000  0.800  0.000  0.000  0.000
  0.000  0.000  0.800  0.000  0.000
  0.000  0.000  0.000  0.800  0.000
  0.000  0.000  0.000  0.000  0.800
atom   10   Tr[ns(na)] =   8.00000
    eigenvalues:
  0.800  0.800  0.800  0.800  0.800
    eigenvectors:
  1.000  0.000  0.000  0.000  0.000
  0.000  1.000  0.000  0.000  0.000
  0.000  0.000  1.000  0.000  0.000
  0.000  0.000  0.000  1.000  0.000
  0.000  0.000  0.000  0.000  1.000
    occupations:
  0.800  0.000  0.000  0.000  0.000
  0.000  0.800  0.000  0.000  0.000
  0.000  0.000  0.800  0.000  0.000
  0.000  0.000  0.000  0.800  0.000
  0.000  0.000  0.000  0.000  0.800
atom   16   Tr[ns(na)] =   8.00000
    eigenvalues:
  0.800  0.800  0.800  0.800  0.800
    eigenvectors:
  1.000  0.000  0.000  0.000  0.000
  0.000  1.000  0.000  0.000  0.000
  0.000  0.000  1.000  0.000  0.000
  0.000  0.000  0.000  1.000  0.000
  0.000  0.000  0.000  0.000  1.000
    occupations:
  0.800  0.000  0.000  0.000  0.000
  0.000  0.800  0.000  0.000  0.000
  0.000  0.000  0.800  0.000  0.000
  0.000  0.000  0.000  0.800  0.000
  0.000  0.000  0.000  0.000  0.800
atom   17   Tr[ns(na)] =   8.00000
    eigenvalues:
  0.800  0.800  0.800  0.800  0.800
    eigenvectors:
  1.000  0.000  0.000  0.000  0.000
  0.000  1.000  0.000  0.000  0.000
  0.000  0.000  1.000  0.000  0.000
  0.000  0.000  0.000  1.000  0.000
  0.000  0.000  0.000  0.000  1.000
    occupations:
  0.800  0.000  0.000  0.000  0.000
  0.000  0.800  0.000  0.000  0.000
  0.000  0.000  0.800  0.000  0.000
  0.000  0.000  0.000  0.800  0.000
  0.000  0.000  0.000  0.000  0.800
atom   22   Tr[ns(na)] =   8.00000
    eigenvalues:
  0.800  0.800  0.800  0.800  0.800
    eigenvectors:
  1.000  0.000  0.000  0.000  0.000
  0.000  1.000  0.000  0.000  0.000
  0.000  0.000  1.000  0.000  0.000
  0.000  0.000  0.000  1.000  0.000
  0.000  0.000  0.000  0.000  1.000
    occupations:
  0.800  0.000  0.000  0.000  0.000
  0.000  0.800  0.000  0.000  0.000
[...]
    occupations:
  0.722 -0.005 -0.019  0.026 -0.001
 -0.005  0.983  0.000  0.000  0.032
 -0.019  0.000  0.985  0.003 -0.000
  0.026  0.000  0.003  0.985  0.000
 -0.001  0.032 -0.000  0.000  0.698
atom    9   Tr[ns(na)] =   8.73114
    eigenvalues:
  0.717  0.728  0.962  0.972  0.987
    eigenvectors:
  0.004  0.129  0.001  0.011  0.855
  0.969  0.031  0.000  0.000  0.000
  0.001  0.013  0.006  0.977  0.004
  0.026  0.827  0.000  0.007  0.140
  0.000  0.000  0.992  0.006  0.001
    occupations:
  0.952  0.001 -0.010 -0.088  0.001
  0.001  0.717  0.001  0.002 -0.004
 -0.010  0.001  0.969 -0.027  0.001
 -0.088  0.002 -0.027  0.765 -0.000
  0.001 -0.004  0.001 -0.000  0.962
atom   10   Tr[ns(na)] =   8.79593
    eigenvalues:
  0.671  0.766  0.983  0.986  0.991
    eigenvectors:
  0.000  0.978  0.000  0.014  0.007
  0.016  0.000  0.984  0.000  0.000
  0.000  0.001  0.000  0.196  0.803
  0.000  0.021  0.000  0.789  0.190
  0.984  0.000  0.016  0.000  0.000
    occupations:
  0.771  0.000 -0.005  0.032  0.000
  0.000  0.978  0.000 -0.000 -0.040
 -0.005  0.000  0.990 -0.001 -0.000
  0.032 -0.000 -0.001  0.983 -0.000
  0.000 -0.040 -0.000 -0.000  0.676
atom   16   Tr[ns(na)] =   8.75380
    eigenvalues:
  0.700  0.711  0.987  0.988  0.991
    eigenvectors:
  0.039  0.133  0.623  0.203  0.002
  0.781  0.219  0.000  0.000  0.000
  0.001  0.005  0.003  0.067  0.925
  0.179  0.644  0.133  0.034  0.010
  0.000  0.000  0.241  0.696  0.063
    occupations:
  0.939 -0.003  0.008 -0.104  0.000
 -0.003  0.703 -0.002 -0.004 -0.004
  0.008 -0.002  0.989  0.019 -0.001
 -0.104 -0.004  0.019  0.758 -0.000
  0.000 -0.004 -0.001 -0.000  0.988
atom   17   Tr[ns(na)] =   8.74497
    eigenvalues:
  0.696  0.719  0.983  0.987  0.988
    eigenvectors:
  0.000  0.985  0.008  0.003  0.004
  0.012  0.000  0.042  0.900  0.045
  0.000  0.005  0.887  0.018  0.089
  0.000  0.009  0.062  0.067  0.861
  0.988  0.000  0.001  0.011  0.001
    occupations:
  0.723 -0.005 -0.019  0.026 -0.001
 -0.005  0.983  0.000  0.000  0.032
 -0.019  0.000  0.982  0.003  0.000
  0.026  0.000  0.003  0.985  0.000
 -0.001  0.032  0.000  0.000  0.700
atom   22   Tr[ns(na)] =   8.73114
    eigenvalues:
  0.717  0.727  0.962  0.972  0.987
    eigenvectors:
  0.001  0.132  0.001  0.011  0.855
  0.991  0.009  0.000  0.000  0.000
  0.000  0.013  0.008  0.974  0.004
  0.008  0.845  0.000  0.007  0.140
  0.000  0.000  0.991  0.008  0.001
    occupations:
  0.952 -0.000 -0.010 -0.088 -0.001
 -0.000  0.717 -0.001 -0.001 -0.004
 -0.010 -0.001  0.969 -0.027 -0.001
 -0.088 -0.001 -0.027  0.765  0.000
 -0.001 -0.004 -0.001  0.000  0.962
atom   23   Tr[ns(na)] =   8.71506
    eigenvalues:
  0.721  0.746  0.935  0.967  0.989
    eigenvectors:
  0.000  0.883  0.111  0.000  0.007
  0.021  0.000  0.000  0.979  0.000
  0.000  0.101  0.875  0.000  0.023
  0.000  0.016  0.014  0.000  0.970
  0.979  0.000  0.000  0.021  0.000
    occupations:
  0.768  0.000  0.056  0.027 -0.000
  0.000  0.962 -0.000  0.000 -0.035
  0.056 -0.000  0.917 -0.016 -0.000
  0.027  0.000 -0.016  0.984 -0.000
 -0.000 -0.035 -0.000 -0.000  0.727
N of occupied +U levels =  69.9712271
 --- exit write_ns ---

     Threshold (ethr) on eigenvalues was too large:
     Diagonalizing with lowered threshold

     Davidson diagonalization with overlap
     ethr =  9.03E-09,  avg # of iterations =  2.0

[...]

     total energy              =   -2279.43044600 Ry
     Harris-Foulkes estimate   =   -2279.43044600 Ry
     estimated scf accuracy    <       0.00000002 Ry

     iteration # 15     ecut=    40.00 Ry     beta=0.70
     Davidson diagonalization with overlap
     ethr =  7.23E-12,  avg # of iterations =  1.0

     negative rho (up, down):  0.158E+01 0.000E+00

     End of self-consistent calculation
 --- enter write_ns ---
 LDA+U parameters:
U( 2)     =  5.00000000
alpha( 2) =  0.00000000
atom    3   Tr[ns(na)] =   8.75375
    eigenvalues:
  0.700  0.711  0.987  0.988  0.991
    eigenvectors:
  0.039  0.132  0.621  0.206  0.002
  0.779  0.221  0.000  0.000  0.000
  0.001  0.005  0.004  0.067  0.924
  0.181  0.642  0.133  0.035  0.009
  0.000  0.000  0.242  0.692  0.065
    occupations:
  0.939  0.003  0.008 -0.104 -0.000
  0.003  0.703  0.002  0.004 -0.004
  0.008  0.002  0.989  0.019  0.001
 -0.104  0.004  0.019  0.758  0.000
 -0.000 -0.004  0.001  0.000  0.988
atom    4   Tr[ns(na)] =   8.74533
    eigenvalues:
  0.695  0.718  0.985  0.987  0.988
    eigenvectors:
  0.000  0.985  0.010  0.004  0.001
  0.012  0.000  0.125  0.805  0.057
  0.000  0.005  0.630  0.024  0.341
  0.000  0.009  0.234  0.156  0.601
  0.988  0.000  0.002  0.010  0.001
    occupations:
  0.722 -0.005 -0.019  0.026 -0.001
 -0.005  0.983  0.000  0.000  0.032
 -0.019  0.000  0.985  0.003 -0.000
  0.026  0.000  0.003  0.985  0.000
 -0.001  0.032 -0.000  0.000  0.698
atom    9   Tr[ns(na)] =   8.73102
    eigenvalues:
  0.717  0.728  0.962  0.972  0.987
    eigenvectors:
  0.004  0.129  0.001  0.011  0.855
  0.968  0.032  0.000  0.000  0.000
  0.001  0.013  0.005  0.977  0.004
  0.027  0.826  0.000  0.007  0.140
  0.000  0.000  0.993  0.005  0.001
    occupations:
  0.952  0.001 -0.010 -0.088  0.001
  0.001  0.717  0.001  0.002 -0.004
 -0.010  0.001  0.969 -0.027  0.001
 -0.088  0.002 -0.027  0.765 -0.000
  0.001 -0.004  0.001 -0.000  0.962
atom   10   Tr[ns(na)] =   8.79602
    eigenvalues:
  0.671  0.766  0.983  0.986  0.991
    eigenvectors:
  0.000  0.978  0.000  0.014  0.007
  0.016  0.000  0.984  0.000  0.000
  0.000  0.001  0.000  0.197  0.803
  0.000  0.021  0.000  0.789  0.190
  0.984  0.000  0.016  0.000  0.000
    occupations:
  0.771  0.000 -0.005  0.032  0.000
  0.000  0.978  0.000 -0.000 -0.040
 -0.005  0.000  0.990 -0.001 -0.000
  0.032 -0.000 -0.001  0.983 -0.000
  0.000 -0.040 -0.000 -0.000  0.676
atom   16   Tr[ns(na)] =   8.75375
    eigenvalues:
  0.700  0.711  0.987  0.988  0.991
    eigenvectors:
  0.039  0.133  0.624  0.203  0.002
  0.782  0.217  0.000  0.000  0.000
  0.001  0.005  0.003  0.067  0.925
  0.178  0.645  0.133  0.034  0.010
  0.000  0.000  0.241  0.696  0.063
    occupations:
  0.939 -0.003  0.008 -0.104  0.000
 -0.003  0.703 -0.002 -0.004 -0.004
  0.008 -0.002  0.989  0.019 -0.001
 -0.104 -0.004  0.019  0.758 -0.000
  0.000 -0.004 -0.001 -0.000  0.988
atom   17   Tr[ns(na)] =   8.74498
    eigenvalues:
  0.696  0.719  0.983  0.987  0.988
    eigenvectors:
  0.000  0.985  0.008  0.003  0.004
  0.012  0.000  0.041  0.901  0.045
  0.000  0.005  0.889  0.018  0.088
  0.000  0.009  0.061  0.067  0.863
  0.988  0.000  0.001  0.011  0.001
    occupations:
  0.723 -0.005 -0.019  0.026 -0.001
 -0.005  0.983  0.000  0.000  0.032
 -0.019  0.000  0.982  0.003  0.000
  0.026  0.000  0.003  0.985  0.000
 -0.001  0.032  0.000  0.000  0.700
atom   22   Tr[ns(na)] =   8.73103
    eigenvalues:
  0.717  0.727  0.962  0.972  0.987
    eigenvectors:
  0.001  0.132  0.001  0.011  0.855
  0.990  0.010  0.000  0.000  0.000
  0.000  0.013  0.007  0.975  0.004
  0.008  0.845  0.000  0.007  0.140
  0.000  0.000  0.991  0.007  0.001
    occupations:
  0.952 -0.000 -0.010 -0.088 -0.001
 -0.000  0.717 -0.001 -0.001 -0.004
 -0.010 -0.001  0.969 -0.027 -0.001
 -0.088 -0.001 -0.027  0.765  0.000
 -0.001 -0.004 -0.001  0.000  0.962
atom   23   Tr[ns(na)] =   8.71516
    eigenvalues:
  0.721  0.746  0.935  0.967  0.989
    eigenvectors:
  0.000  0.882  0.111  0.000  0.007
  0.021  0.000  0.000  0.979  0.000
  0.000  0.102  0.875  0.000  0.023
  0.000  0.016  0.014  0.000  0.970
  0.979  0.000  0.000  0.021  0.000
    occupations:
  0.768  0.000  0.056  0.027 -0.000
  0.000  0.962 -0.000  0.000 -0.035
  0.056 -0.000  0.917 -0.016 -0.000
  0.027  0.000 -0.016  0.984 -0.000
 -0.000 -0.035 -0.000 -0.000  0.727
N of occupied +U levels =  69.9710399
 --- exit write_ns ---

[...]

          k = 0.2500-0.4976 0.0000 ( 32026 PWs)   bands (ev):

[...]

          k =-0.2500 0.2488 0.0000 ( 32025 PWs)   bands (ev):

   -55.6918 -55.6445 -55.5187 -55.4603 -55.4216 -55.4150 -55.3742 -55.3350
   -55.2912 -55.2887 -55.2858 -55.2450 -55.2422 -55.1365 -55.1018 -55.0976
   -55.0963 -55.0169 -54.9788 -54.9662 -54.9614 -54.7277 -54.4925 -54.1568
   -22.2555 -22.0195 -21.3731 -21.2649 -20.9567 -20.8789 -20.8616 -20.7062
   -20.6424 -20.5833 -20.4706 -20.3843 -20.3729 -20.2013 -20.1296 -20.1156
   -19.5331 -19.2411 -19.0754 -11.0745 -10.8881 -10.7548 -10.7363 -10.2614
   -10.2535 -10.1819  -9.9375  -9.7901  -9.7306  -9.6392  -9.6065  -9.4365
    -9.3071  -9.2640  -9.1384  -9.0499  -8.8829  -8.6500  -8.5640  -8.3949
    -8.3771  -8.2421  -8.1973  -8.0648  -7.9245  -7.8435  -7.6685  -7.6450
    -7.5910  -7.4820  -7.3886  -7.3043  -7.2349  -7.1423  -7.0929  -7.0352
    -6.9283  -6.8759  -6.7243  -6.5611  -6.4989  -6.3111  -6.1078  -5.9513
    -5.7655  -5.7051  -5.6443  -5.5120  -5.4209  -5.3500  -5.2263  -5.0668
    -4.9773  -4.8265  -4.6551  -4.5392  -4.4499  -4.3161  -4.2354  -4.1758
    -4.0355  -3.9997  -3.9190  -3.7925  -3.6795  -3.6539  -3.3888  -3.3389
    -3.2460  -3.0318  -2.8988  -2.7729  -2.7387  -2.6408  -2.6019  -2.4871
    -2.2778  -2.1531  -2.0280  -1.9274  -1.7758  -1.2719  -1.1310  -0.8188
    -0.4618  -0.3163   0.0027   0.2910   0.5269   0.6613   0.7062   0.8299
     1.0455   1.2250   1.3072   1.6609   3.0713   3.8429   4.5866   5.0122
     5.0373   5.1087   5.3004   5.6526   6.0871   6.1480   6.1782   6.3219
     6.4326   6.5205   6.6725   6.8506   6.9271   6.9783   7.1024   7.2238
     7.3574   7.4789   7.5615   7.5800   7.6925   7.8640   7.9305   8.0364
     8.1670   8.2628   8.3065   8.4541   8.5511   8.6414   8.6630   8.7837
     8.8672   9.0129   9.1316   9.2825   9.3438   9.4707   9.5342   9.6006
     9.6942   9.8724  10.0281  10.0972  10.1848  10.2477  10.3122  10.3856
    10.5224  10.5786  10.6508  10.7620  10.7910  10.9622  11.0497  11.0835
    11.1698  11.1988  11.3732  11.4583  11.4826  11.7143  11.7416  11.7788
    11.8674  11.9456  11.9992  12.0773  12.1400  12.2465  12.2732  12.3292
    12.4120  12.4519  12.5250  12.5771  12.6394  12.7388  12.8129  12.9282
    12.9669  13.0382  13.1708  13.2104  13.2374  13.4474  13.5192  13.5647
    13.6426  13.6934  13.7722  13.8651  13.9318  13.9696  14.0529  14.1250
    14.1862  14.3342  14.4147  14.5244  14.5624  14.6344  14.7661  14.8535
    14.8793  14.9469  15.1290  15.2203  15.2608  15.3299  15.4142  15.4556
    15.5315  15.5876  15.6453  15.6772  15.7569  15.7759  15.8269  15.8937
    15.9976  16.0561  16.0804  16.1588  16.1789  16.2576  16.3716  16.4420
    16.4984  16.5694  16.5910  16.7418  16.7965  16.8502  16.8824  16.9005
    16.9511  16.9694  16.9802  16.9878  17.0408  17.0693  17.1017  17.1239
    17.1653  17.2158  17.2264  17.2707  17.3118  17.3753  17.4686  17.5066
    17.5384  17.5847  17.6193  17.7324  17.7839  17.8545  17.9212  17.9601
    18.0365  18.0831  18.1392  18.2494  18.2652  18.3881  18.4921  18.5223
    18.5930  18.6262  18.6809  18.7253  18.8298  18.8686  18.8987  19.0244
    19.0512  19.1689  19.1896  19.2136  19.3122  19.3647  19.4451  19.4801
    19.6428  19.7745  19.8205  19.8799  19.9500  19.9685  19.9855  20.0726
    20.1249  20.2259  20.2457  20.3107  20.3700  20.3987  20.4975  20.5855
    20.6508  20.7039  20.7526  20.8527  20.9284  20.9606  21.0204  21.0559
    21.0731  21.2314  21.2662  21.3753  21.4037  21.4603  21.5085  21.5554
    21.6057  21.6581  21.7318  21.7855  21.8302  21.8943  22.0021  22.0923
    22.1392

     the Fermi energy is    -1.9779 ev

!    total energy              =   -2279.43044600 Ry
     Harris-Foulkes estimate   =   -2279.43044600 Ry
     estimated scf accuracy    <          3.0E-09 Ry

     The total energy is the sum of the following terms:

     one-electron contribution =  -23665.24360122 Ry
     hartree contribution      =   11874.67118932 Ry
     xc contribution           =    -572.08818953 Ry
     ewald contribution        =   10081.87167473 Ry
     Hubbard energy            =       1.35876022 Ry
     smearing contrib. (-TS)   =      -0.00027953 Ry

     convergence has been achieved in  15 iterations

     Forces acting on atoms (Ry/au):

     negative rho (up, down):  0.158E+01 0.000E+00
     atom    1 type  1   force =    -0.00872132   -0.00399221   -0.00063538
     atom    2 type  1   force =     0.00014070    0.00406886    0.00031943
     atom    3 type  2   force =     0.01627088    0.00533984   -0.00000508
     atom    4 type  2   force =     0.01053096    0.00474446   -0.00027758
     atom    5 type  1   force =     0.00123185   -0.00338130    0.00043607
     atom    6 type  1   force =    -0.00015294   -0.00304244   -0.00014097
     atom    7 type  1   force =     0.00007036    0.00103333   -0.00050185
     atom    8 type  1   force =    -0.00417364    0.00240029   -0.00016287
     atom    9 type  2   force =     0.00424403   -0.00474291    0.00027363
     atom   10 type  2   force =    -0.00000762   -0.02057409   -0.00079990
     atom   11 type  1   force =    -0.00211514    0.00203611    0.00004633
     atom   12 type  1   force =    -0.00883663    0.01497249    0.00019008
     atom   13 type  1   force =    -0.00110050   -0.00860228    0.00009137
     atom   14 type  1   force =    -0.00868926   -0.00280070   -0.00083516
     atom   15 type  1   force =     0.00016788    0.00184716    0.00045133
     atom   16 type  2   force =    -0.01706840    0.00520977   -0.00000337
     atom   17 type  2   force =     0.01039830    0.00495447   -0.00032906
     atom   18 type  1   force =     0.00129434   -0.00331745    0.00043893
     atom   19 type  1   force =     0.00028864   -0.00295664   -0.00013912
     atom   20 type  1   force =     0.00007597   -0.00490259   -0.00014867
     atom   21 type  1   force =    -0.00404016    0.00224017    0.00008639
     atom   22 type  2   force =    -0.00054018   -0.00462833    0.00027397
     atom   23 type  2   force =    -0.00018006    0.01616896    0.00048746
     atom   24 type  1   force =     0.00223332    0.00209395    0.00004407
     atom   25 type  1   force =     0.00896364    0.01492605    0.00019613
     atom   26 type  1   force =    -0.00106395   -0.01895755    0.00062816
     atom   27 type  3   force =    -0.00001037   -0.00026691   -0.00005751
     atom   28 type  3   force =    -0.00002268   -0.00033208   -0.00007886
     atom   29 type  3   force =     0.00034600   -0.00015469    0.00025504
     atom   30 type  3   force =     0.00047297   -0.00034388    0.00022783
     atom   31 type  1   force =    -0.00000699    0.00096014   -0.00033084

     Total force =     0.002378     Total SCF correction =     0.000071

     bfgs converged in  14 scf cycles and  13 bfgs steps
     (criteria: energy < 0.10E-03, force < 0.10E-02)

     End of BFGS Geometry Optimization

     Final energy   =   -2279.4304460021 Ry
Begin final coordinates

ATOMIC_POSITIONS (crystal)
O0       0.000000000   0.000000000   0.377697746    0   0   1
O0       0.000000000   0.500000000   0.401771548    0   0   1
Pt1      0.250000000   0.500000000   0.451222561    0   0   1
Pt1      0.000000000   0.000000000   0.452755945    0   0   1
O0       0.250000000   0.810000000   0.442512651    0   0   1
O0       0.250000000   0.190000000   0.461159737    0   0   1
O0       0.000000000   0.500000000   0.496761547    0   0   1
O0       0.000000000   0.000000000   0.529895431    0   0   1
Pt1      0.250000000   0.000000000   0.575991698    0   0   1
Pt1      0.000000000   0.500000000   0.574915842    0   0   1
O0       0.250000000   0.690000000   0.564721599    0   0   1
O0       0.250000000   0.310000000   0.586457690    0   0   1
O0       0.000000000   0.000000000   0.621453543    0   0   1
O0       0.500000000   0.000000000   0.377796458    0   0   1
O0       0.500000000   0.500000000   0.401117689    0   0   1
Pt1      0.750000000   0.500000000   0.451225086    0   0   1
Pt1      0.500000000   0.000000000   0.452768999    0   0   1
O0       0.750000000   0.810000000   0.442540194    0   0   1
O0       0.750000000   0.190000000   0.461161184    0   0   1
O0       0.500000000   0.500000000   0.498090976    0   0   1
O0       0.500000000   0.000000000   0.529739288    0   0   1
Pt1      0.750000000   0.000000000   0.575994253    0   0   1
Pt1      0.500000000   0.500000000   0.577124987    0   0   1
O0       0.750000000   0.690000000   0.564705719    0   0   1
O0       0.750000000   0.310000000   0.586460955    0   0   1
O0       0.500000000   0.000000000   0.621512101    0   0   1
H2       0.000100421   0.640689197   0.386414279
H2       0.500089736   0.641249859   0.386167013
H2       0.143217290   0.035103025   0.367796355
H2       0.642899488   0.036187733   0.367839283
O0       0.500120785   0.578869664   0.643897644
End final coordinates

     General routines

     Parallel routines
     Hubbard U routines

   This run was terminated on:  18:29:27  28Apr2014

   JOB DONE.