     Program PWSCF v.5.0.2 (svn rev. 9656) starts on 10May2014 at  2: 1:59

     Current dimensions of program PWSCF are:
     Max number of different atomic species (ntypx) = 10
     Max number of k-points (npk) =  40000
     Max angular momentum in pseudopotentials (lmaxx) =  3
     Reading input from pwscf.in
Warning: card &CELL ignored
Warning: card / ignored

     Subspace diagonalization in iterative solution of the eigenvalue problem:
     a serial algorithm will be used

     bravais-lattice index     =            0
     lattice parameter (alat)  =      11.7919  a.u.
     unit-cell volume          =    7123.6633 (a.u.)^3
     number of atoms/cell      =           32
     number of atomic types    =            3
     number of electrons       =       247.00
     number of Kohn-Sham states=          358
     kinetic-energy cutoff     =      40.0000  Ry
     charge density cutoff     =     500.0000  Ry
     convergence threshold     =      1.0E-06
     mixing beta               =       0.3000
     number of iterations used =            8  plain     mixing
     Exchange-correlation      = SLA  PW   PBE  PBE ( 1 4 3 4 0)
     EXX-fraction              =        0.00
     nstep                     =           50

     celldm(1)=  11.791891  celldm(2)=   0.000000  celldm(3)=   0.000000
     celldm(4)=   0.000000  celldm(5)=   0.000000  celldm(6)=   0.000000

     crystal axes: (cart. coord. in units of alat)
               a(1) = (   1.000000   0.000000   0.000000 )
               a(2) = (   0.000000   1.026665   0.000000 )
               a(3) = (   0.000000   0.000000   4.231793 )

     reciprocal axes: (cart. coord. in units 2 pi/alat)
               b(1) = (  1.000000  0.000000  0.000000 )
               b(2) = (  0.000000  0.974028  0.000000 )
               b(3) = (  0.000000  0.000000  0.236306 )

     PseudoPot. # 1 for O  read from file:
     /home/camp/zhonxu/pseudo/o_pbe_v1.01.uspp.F.UPF
     MD5 check sum: 2bcb18d16ea4b960afae9ec6d52f22d2
     Pseudo is Ultrasoft + core correction, Zval =  6.0
     Generated by new atomic code, or converted to UPF format
     Using radial grid of  737 points,  5 beta functions with:
                l(1) =   0
                l(2) =   0
                l(3) =   1
                l(4) =   1
                l(5) =   2
     Q(r) pseudized with  8 coefficients,  rinner =    0.900   0.900   0.900
                                                       0.900   0.900

     PseudoPot. # 2 for Ru read from file:
     /home/camp/zhonxu/pseudo/ru_pbe_v1.uspp.F.UPF
     MD5 check sum: df00be1c11b23341d9806d8f1dfa10cf
     Pseudo is Ultrasoft + core correction, Zval = 16.0
     Generated by new atomic code, or converted to UPF format
     Using radial grid of  967 points,  6 beta functions with:
                l(1) =   0
                l(2) =   0
                l(3) =   1
                l(4) =   1
                l(5) =   2
                l(6) =   2
     Q(r) pseudized with  8 coefficients,  rinner =    1.300   1.300   1.300
                                                       1.300   1.300

     PseudoPot. # 3 for H  read from file:
     /home/camp/zhonxu/pseudo/h_pbe_v1.uspp.F.UPF
     MD5 check sum: 3408e3ff4ec8b0a4e358431e7e038a48
     Pseudo is Ultrasoft, Zval =  1.0
     Generated by new atomic code, or converted to UPF format
     Using radial grid of  615 points,  2 beta functions with:
                l(1) =   0
                l(2) =   0
     Q(r) pseudized with  8 coefficients,  rinner =    0.700

     atomic species   valence    mass     pseudopotential
        O0             6.00    15.99940     O ( 1.00)
        Ru1           16.00   101.07000     Ru( 1.00)
        H2             1.00     1.00794     H ( 1.00)

     Simplified LDA+U calculation (l_max = 2) with parameters (eV):
     atomic species    L          U    alpha       J0     beta
        Ru1            2     8.0000   0.0000   0.0000   0.0000

     No symmetry found

   Cartesian axes

     site n.     atom                  positions (alat units)
         1           O0  tau(   1) = (   0.0000000   0.0000000   1.6035109  )
         2           O0  tau(   2) = (   0.0000000   0.5133323   1.7058780  )
         3           Ru1 tau(   3) = (   0.2500000   0.5133323   1.9200491  )
         4           Ru1 tau(   4) = (   0.0000000   0.0000000   1.9171714  )
         5           O0  tau(   5) = (   0.2500000   0.8315984   1.9169175  )
         6           O0  tau(   6) = (   0.2500000   0.1950663   1.9164520  )
         7           O0  tau(   7) = (   0.0000000   0.5133323   2.1053593  )
         8           O0  tau(   8) = (   0.0000000   0.0000000   2.2310435  )
         9           Ru1 tau(   9) = (   0.2500000   0.0000000   2.4441566  )
        10           Ru1 tau(  10) = (   0.0000000   0.5133323   2.4052664  )
        11           O0  tau(  11) = (   0.2500000   0.7083986   2.4364547  )
        12           O0  tau(  12) = (   0.2500000   0.3182660   2.4361585  )
        13           O0  tau(  13) = (   0.0000000   0.0000000   2.6233307  )
        14           O0  tau(  14) = (   0.5000000   0.0000000   1.6045689  )
        15           O0  tau(  15) = (   0.5000000   0.5133323   1.7057934  )
        16           Ru1 tau(  16) = (   0.7500000   0.5133323   1.9200914  )
        17           Ru1 tau(  17) = (   0.5000000   0.0000000   1.9176369  )
        18           O0  tau(  18) = (   0.7500000   0.8315984   1.9167059  )
        19           O0  tau(  19) = (   0.7500000   0.1950663   1.9164520  )
        20           O0  tau(  20) = (   0.5000000   0.5133323   2.1229635  )
        21           O0  tau(  21) = (   0.5000000   0.0000000   2.2303664  )
        22           Ru1 tau(  22) = (   0.7500000   0.0000000   2.4441143  )
        23           Ru1 tau(  23) = (   0.5000000   0.5133323   2.4370472  )
        24           O0  tau(  24) = (   0.7500000   0.7083986   2.4343812  )
        25           O0  tau(  25) = (   0.7500000   0.3182660   2.4338310  )
        26           O0  tau(  26) = (   0.5000000   0.0000000   2.6134283  )
        27           H2  tau(  27) = (  -0.0002400   0.6455975   1.6183222  )
        28           H2  tau(  28) = (   0.4995500   0.6408954   1.6119322  )
        29           H2  tau(  29) = (   0.1457200   0.0328533   1.5514599  )
        30           H2  tau(  30) = (   0.6465200   0.0301223   1.5527294  )
        31           O0  tau(  31) = (   0.5138700   0.5107965   2.7447408  )
        32           H2  tau(  32) = (   0.3716000   0.5093694   2.8125765  )

     number of k points=    10  Methfessel-Paxton smearing, width (Ry)=  0.0100
                       cart. coord. in units 2pi/alat
        k(    1) = (   0.0000000   0.0000000   0.0000000), wk =   0.1250000
        k(    2) = (   0.0000000   0.2435070   0.0000000), wk =   0.2500000
        k(    3) = (   0.0000000  -0.4870139   0.0000000), wk =   0.1250000
        k(    4) = (   0.2500000   0.0000000   0.0000000), wk =   0.2500000
        k(    5) = (   0.2500000   0.2435070   0.0000000), wk =   0.2500000
        k(    6) = (   0.2500000  -0.4870139   0.0000000), wk =   0.2500000
        k(    7) = (  -0.5000000   0.0000000   0.0000000), wk =   0.1250000
        k(    8) = (  -0.5000000   0.2435070   0.0000000), wk =   0.2500000
        k(    9) = (  -0.5000000  -0.4870139   0.0000000), wk =   0.1250000
        k(   10) = (  -0.2500000   0.2435070   0.0000000), wk =   0.2500000

     Largest allocated arrays     est. size (Mb)     dimensions
     Largest temporary arrays     est. size (Mb)     dimensions

     Check: negative/imaginary core charge=   -0.000003    0.000000

     Initial potential from superposition of free atoms
     Check: negative starting charge=   -0.522051

     starting charge  238.99980, renormalised to  247.00000

     negative rho (up, down):  0.540E+00 0.000E+00
     Number of +U iterations with fixed ns =  0
     Starting occupations:
 --- enter write_ns ---
 LDA+U parameters:
U( 2)     =  8.00000000
alpha( 2) =  0.00000000
atom    3   Tr[ns(na)] =   6.00000
    eigenvalues:
  0.600  0.600  0.600  0.600  0.600
    eigenvectors:
  1.000  0.000  0.000  0.000  0.000
  0.000  1.000  0.000  0.000  0.000
  0.000  0.000  1.000  0.000  0.000
  0.000  0.000  0.000  1.000  0.000
  0.000  0.000  0.000  0.000  1.000
    occupations:
  0.600  0.000  0.000  0.000  0.000
  0.000  0.600  0.000  0.000  0.000
  0.000  0.000  0.600  0.000  0.000
  0.000  0.000  0.000  0.600  0.000
  0.000  0.000  0.000  0.000  0.600
atom    4   Tr[ns(na)] =   6.00000
    eigenvalues:
  0.600  0.600  0.600  0.600  0.600
    eigenvectors:
  1.000  0.000  0.000  0.000  0.000
  0.000  1.000  0.000  0.000  0.000
  0.000  0.000  1.000  0.000  0.000
  0.000  0.000  0.000  1.000  0.000
  0.000  0.000  0.000  0.000  1.000
    occupations:
  0.600  0.000  0.000  0.000  0.000
  0.000  0.600  0.000  0.000  0.000
  0.000  0.000  0.600  0.000  0.000
  0.000  0.000  0.000  0.600  0.000
  0.000  0.000  0.000  0.000  0.600
atom    9   Tr[ns(na)] =   6.00000
    eigenvalues:
  0.600  0.600  0.600  0.600  0.600
    eigenvectors:
  1.000  0.000  0.000  0.000  0.000
  0.000  1.000  0.000  0.000  0.000
  0.000  0.000  1.000  0.000  0.000
  0.000  0.000  0.000  1.000  0.000
  0.000  0.000  0.000  0.000  1.000
    occupations:
  0.600  0.000  0.000  0.000  0.000
  0.000  0.600  0.000  0.000  0.000
  0.000  0.000  0.600  0.000  0.000
  0.000  0.000  0.000  0.600  0.000
  0.000  0.000  0.000  0.000  0.600
atom   10   Tr[ns(na)] =   6.00000
    eigenvalues:
  0.600  0.600  0.600  0.600  0.600
    eigenvectors:
  1.000  0.000  0.000  0.000  0.000
  0.000  1.000  0.000  0.000  0.000
  0.000  0.000  1.000  0.000  0.000
  0.000  0.000  0.000  1.000  0.000
  0.000  0.000  0.000  0.000  1.000
    occupations:
  0.600  0.000  0.000  0.000  0.000
  0.000  0.600  0.000  0.000  0.000
  0.000  0.000  0.600  0.000  0.000
  0.000  0.000  0.000  0.600  0.000
  0.000  0.000  0.000  0.000  0.600
atom   16   Tr[ns(na)] =   6.00000
    eigenvalues:
  0.600  0.600  0.600  0.600  0.600
    eigenvectors:
  1.000  0.000  0.000  0.000  0.000
  0.000  1.000  0.000  0.000  0.000
  0.000  0.000  1.000  0.000  0.000
  0.000  0.000  0.000  1.000  0.000
  0.000  0.000  0.000  0.000  1.000
    occupations:
  0.600  0.000  0.000  0.000  0.000
  0.000  0.600  0.000  0.000  0.000
  0.000  0.000  0.600  0.000  0.000
  0.000  0.000  0.000  0.600  0.000
  0.000  0.000  0.000  0.000  0.600
atom   17   Tr[ns(na)] =   6.00000
    eigenvalues:
  0.600  0.600  0.600  0.600  0.600
    eigenvectors:
  1.000  0.000  0.000  0.000  0.000
  0.000  1.000  0.000  0.000  0.000
  0.000  0.000  1.000  0.000  0.000
  0.000  0.000  0.000  1.000  0.000
  0.000  0.000  0.000  0.000  1.000
    occupations:
  0.600  0.000  0.000  0.000  0.000
  0.000  0.600  0.000  0.000  0.000
  0.000  0.000  0.600  0.000  0.000
  0.000  0.000  0.000  0.600  0.000
  0.000  0.000  0.000  0.000  0.600
atom   22   Tr[ns(na)] =   6.00000
    eigenvalues:
  0.600  0.600  0.600  0.600  0.600
    eigenvectors:
  1.000  0.000  0.000  0.000  0.000
  0.000  1.000  0.000  0.000  0.000
  0.000  0.000  1.000  0.000  0.000
  0.000  0.000  0.000  1.000  0.000
  0.000  0.000  0.000  0.000  1.000
[...]
  0.619 -0.003 -0.001  0.054  0.005
 -0.003  0.912  0.058 -0.000 -0.002
 -0.001  0.058  0.560  0.002  0.000
  0.054 -0.000  0.002  0.980  0.000
  0.005 -0.002  0.000  0.000  0.552
atom    9   Tr[ns(na)] =   7.23273
    eigenvalues:
  0.555  0.605  0.627  0.901  0.928
    eigenvectors:
  0.927  0.004  0.068  0.000  0.001
  0.003  0.996  0.001  0.000  0.000
  0.000  0.000  0.000  0.366  0.634
  0.069  0.000  0.931  0.000  0.000
  0.001  0.000  0.000  0.634  0.365
    occupations:
  0.560  0.003 -0.005 -0.018  0.010
  0.003  0.605  0.002  0.001  0.000
 -0.005  0.002  0.918  0.000 -0.013
 -0.018  0.001  0.000  0.622 -0.003
  0.010  0.000 -0.013 -0.003  0.911
atom   10   Tr[ns(na)] =   7.31958
    eigenvalues:
  0.475  0.511  0.831  0.859  0.985
    eigenvectors:
  0.989  0.000  0.000  0.002  0.009
  0.001  0.000  0.009  0.981  0.008
  0.000  0.001  0.990  0.010  0.000
  0.010  0.000  0.000  0.007  0.983
  0.000  0.999  0.001  0.000  0.000
    occupations:
  0.480 -0.012  0.004  0.050  0.000
 -0.012  0.859  0.003  0.013 -0.000
  0.004  0.003  0.831 -0.001  0.007
  0.050  0.013 -0.001  0.979 -0.000
  0.000 -0.000  0.007 -0.000  0.511
atom   16   Tr[ns(na)] =   7.22966
    eigenvalues:
  0.499  0.551  0.616  0.960  0.989
    eigenvectors:
  0.002  0.172  0.003  0.000  0.823
  0.994  0.003  0.001  0.001  0.001
  0.001  0.024  0.927  0.031  0.017
  0.002  0.801  0.038  0.000  0.160
  0.000  0.001  0.031  0.968  0.000
    occupations:
  0.912 -0.015  0.047 -0.159 -0.009
 -0.015  0.500 -0.007  0.003 -0.010
  0.047 -0.007  0.631 -0.010  0.059
 -0.159  0.003 -0.010  0.624  0.001
 -0.009 -0.010  0.059  0.001  0.949
atom   17   Tr[ns(na)] =   7.25474
    eigenvalues:
  0.550  0.559  0.612  0.918  0.988
    eigenvectors:
  0.002  0.000  0.977  0.000  0.020
  0.000  0.010  0.000  0.990  0.000
  0.001  0.989  0.000  0.010  0.000
  0.000  0.000  0.020  0.000  0.980
  0.997  0.001  0.002  0.000  0.000
    occupations:
  0.620 -0.005  0.001  0.053  0.003
 -0.005  0.915  0.035  0.001 -0.002
  0.001  0.035  0.563  0.001  0.000
  0.053  0.001  0.001  0.980 -0.000
  0.003 -0.002  0.000 -0.000  0.550
atom   22   Tr[ns(na)] =   7.32226
    eigenvalues:
  0.527  0.556  0.691  0.909  0.979
    eigenvectors:
  0.000  0.157  0.000  0.000  0.842
  0.998  0.002  0.000  0.000  0.000
  0.000  0.000  0.999  0.001  0.000
  0.001  0.841  0.000  0.000  0.157
  0.000  0.000  0.001  0.999  0.000
    occupations:
  0.912  0.001  0.000 -0.154  0.001
  0.001  0.527  0.001  0.001 -0.000
  0.000  0.001  0.691  0.000 -0.007
 -0.154  0.001  0.000  0.622 -0.001
  0.001 -0.000 -0.007 -0.001  0.909
atom   23   Tr[ns(na)] =   7.24751
    eigenvalues:
  0.549  0.554  0.620  0.918  0.984
    eigenvectors:
  0.000  0.000  0.975  0.007  0.018
  0.001  0.000  0.005  0.981  0.014
  0.904  0.096  0.000  0.001  0.000
  0.000  0.000  0.020  0.011  0.968
  0.096  0.904  0.000  0.000  0.000
    occupations:
  0.628  0.019  0.000  0.051  0.001
  0.019  0.917  0.010 -0.011  0.000
  0.000  0.010  0.549  0.002  0.001
  0.051 -0.011  0.002  0.976 -0.000
  0.001  0.000  0.001 -0.000  0.553
N of occupied +U levels =  58.0788440
 --- exit write_ns ---

     Threshold (ethr) on eigenvalues was too large:
     Diagonalizing with lowered threshold

     Davidson diagonalization with overlap
     ethr =  7.73E-09,  avg # of iterations =  3.0

[...]

     total energy              =   -2160.61362386 Ry
     Harris-Foulkes estimate   =   -2160.61362386 Ry
     estimated scf accuracy    <       0.00000001 Ry

     iteration # 17     ecut=    40.00 Ry     beta=0.30
     Davidson diagonalization with overlap
     ethr =  4.39E-12,  avg # of iterations =  1.0

     negative rho (up, down):  0.571E+00 0.000E+00

     End of self-consistent calculation
 --- enter write_ns ---
 LDA+U parameters:
U( 2)     =  8.00000000
alpha( 2) =  0.00000000
atom    3   Tr[ns(na)] =   7.22514
    eigenvalues:
  0.504  0.553  0.606  0.960  0.989
    eigenvectors:
  0.002  0.173  0.002  0.000  0.824
  0.995  0.001  0.002  0.001  0.001
  0.002  0.039  0.916  0.027  0.017
  0.001  0.787  0.055  0.000  0.158
  0.000  0.001  0.026  0.972  0.000
    occupations:
  0.912  0.015  0.049 -0.158  0.008
  0.015  0.505  0.008 -0.004 -0.011
  0.049  0.008  0.620 -0.010 -0.057
 -0.158 -0.004 -0.010  0.625 -0.002
  0.008 -0.011 -0.057 -0.002  0.950
atom    4   Tr[ns(na)] =   7.24793
    eigenvalues:
  0.551  0.552  0.612  0.921  0.988
    eigenvectors:
  0.002  0.004  0.973  0.000  0.021
  0.019  0.006  0.000  0.975  0.000
  0.728  0.247  0.000  0.025  0.000
  0.000  0.000  0.021  0.000  0.979
  0.250  0.744  0.006  0.000  0.000
    occupations:
  0.619 -0.003 -0.001  0.054  0.005
 -0.003  0.912  0.058 -0.000 -0.002
 -0.001  0.058  0.560  0.002  0.000
  0.054 -0.000  0.002  0.980  0.000
  0.005 -0.002  0.000  0.000  0.552
atom    9   Tr[ns(na)] =   7.23252
    eigenvalues:
  0.555  0.605  0.627  0.901  0.928
    eigenvectors:
  0.926  0.004  0.069  0.000  0.001
  0.003  0.996  0.001  0.000  0.000
  0.000  0.000  0.000  0.365  0.635
  0.070  0.000  0.930  0.000  0.000
  0.001  0.000  0.000  0.634  0.364
    occupations:
  0.560  0.003 -0.005 -0.018  0.010
  0.003  0.605  0.002  0.001  0.000
 -0.005  0.002  0.918  0.000 -0.013
 -0.018  0.001  0.000  0.622 -0.003
  0.010  0.000 -0.013 -0.003  0.911
atom   10   Tr[ns(na)] =   7.31963
    eigenvalues:
  0.475  0.511  0.831  0.858  0.985
    eigenvectors:
  0.989  0.000  0.000  0.002  0.009
  0.001  0.000  0.009  0.981  0.008
  0.000  0.001  0.990  0.010  0.000
  0.010  0.000  0.000  0.007  0.983
  0.000  0.999  0.001  0.000  0.000
    occupations:
  0.480 -0.012  0.004  0.050  0.000
 -0.012  0.859  0.003  0.013 -0.000
  0.004  0.003  0.831 -0.001  0.007
  0.050  0.013 -0.001  0.979 -0.000
  0.000 -0.000  0.007 -0.000  0.511
atom   16   Tr[ns(na)] =   7.23042
    eigenvalues:
  0.499  0.551  0.616  0.960  0.989
    eigenvectors:
  0.002  0.172  0.003  0.000  0.822
  0.994  0.003  0.001  0.001  0.001
  0.001  0.023  0.928  0.031  0.017
  0.002  0.801  0.037  0.000  0.160
  0.000  0.001  0.031  0.968  0.000
    occupations:
  0.912 -0.015  0.047 -0.160 -0.009
 -0.015  0.500 -0.007  0.003 -0.010
  0.047 -0.007  0.632 -0.010  0.059
 -0.160  0.003 -0.010  0.624  0.001
 -0.009 -0.010  0.059  0.001  0.949
atom   17   Tr[ns(na)] =   7.25505
    eigenvalues:
  0.550  0.559  0.612  0.918  0.988
    eigenvectors:
  0.002  0.000  0.977  0.000  0.020
  0.000  0.010  0.000  0.990  0.000
  0.001  0.989  0.000  0.010  0.000
  0.000  0.000  0.020  0.000  0.980
  0.997  0.001  0.002  0.000  0.000
    occupations:
  0.620 -0.005  0.001  0.053  0.003
 -0.005  0.915  0.035  0.001 -0.002
  0.001  0.035  0.563  0.001  0.000
  0.053  0.001  0.001  0.980 -0.000
  0.003 -0.002  0.000 -0.000  0.550
atom   22   Tr[ns(na)] =   7.32187
    eigenvalues:
  0.527  0.556  0.691  0.909  0.979
    eigenvectors:
  0.000  0.157  0.000  0.000  0.842
  0.998  0.002  0.000  0.000  0.000
  0.000  0.000  0.999  0.001  0.000
  0.001  0.841  0.000  0.000  0.157
  0.000  0.000  0.001  0.999  0.000
    occupations:
  0.912  0.001  0.000 -0.154  0.001
  0.001  0.527  0.001  0.001 -0.000
  0.000  0.001  0.691  0.000 -0.007
 -0.154  0.001  0.000  0.622 -0.001
  0.001 -0.000 -0.007 -0.001  0.909
atom   23   Tr[ns(na)] =   7.24723
    eigenvalues:
  0.549  0.554  0.620  0.918  0.984
    eigenvectors:
  0.000  0.000  0.975  0.007  0.018
  0.001  0.000  0.005  0.981  0.014
  0.906  0.094  0.000  0.001  0.000
  0.000  0.000  0.020  0.011  0.968
  0.094  0.906  0.000  0.000  0.000
    occupations:
  0.628  0.020  0.000  0.051  0.001
  0.020  0.917  0.010 -0.011  0.000
  0.000  0.010  0.549  0.002  0.001
  0.051 -0.011  0.002  0.976 -0.000
  0.001  0.000  0.001 -0.000  0.553
N of occupied +U levels =  58.0798062
 --- exit write_ns ---

[...]

          k = 0.2500-0.4870 0.0000 ( 30468 PWs)   bands (ev):

[...]

          k =-0.2500 0.2435 0.0000 ( 30434 PWs)   bands (ev):

   -74.1240 -73.5671 -73.5133 -73.4843 -73.2046 -73.1618 -73.0934 -72.9037
   -44.4413 -44.3606 -43.8911 -43.8443 -43.8172 -43.6758 -43.6206 -43.6033
   -43.5739 -43.4711 -43.4211 -43.3525 -43.3358 -43.3110 -43.2856 -43.2124
   -43.2060 -43.0834 -43.0786 -42.9686 -42.9329 -42.8648 -42.7533 -42.6426
   -20.6544 -20.2973 -20.1282 -20.0723 -19.9691 -19.8879 -19.8567 -19.7757
   -19.7275 -19.5476 -19.5184 -19.3287 -19.1996 -19.1711 -19.1530 -19.1052
   -18.9970 -18.9517 -18.9386  -9.7459  -9.3967  -9.3355  -9.2818  -9.1795
    -9.0536  -8.9506  -8.7526  -8.0497  -8.0220  -7.9157  -7.8255  -7.7084
    -7.6395  -7.6044  -7.5130  -7.4974  -7.2875  -7.2489  -6.9717  -6.7033
    -6.6319  -6.4447  -6.3376  -6.2895  -6.1860  -6.0497  -5.9503  -5.8836
    -5.8117  -5.7456  -5.6778  -5.5726  -5.4918  -5.3554  -5.2001  -5.1351
    -5.0499  -5.0166  -4.9527  -4.7982  -4.6556  -4.5657  -4.3896  -4.2537
    -4.2069  -4.1693  -4.0496  -3.9354  -3.8661  -3.7577  -3.6430  -3.5468
    -3.3876  -3.2100  -3.2013  -3.1100  -3.0487  -3.0099  -2.9178  -2.8047
    -2.6937  -2.5971  -2.5573  -2.4698  -2.3637  -2.3238  -2.2459  -2.2251
    -1.9916  -1.8355  -1.5537  -1.2105  -0.8358  -0.7471  -0.6522  -0.5398
    -0.3917  -0.1891  -0.0633   0.2829   1.3966   1.5749   1.9696   2.0996
     2.2044   2.6773   2.9786   3.0726   3.3779   3.5254   3.5888   3.7473
     3.7520   3.8774   3.9885   4.0379   4.1728   4.5604   4.6613   5.0994
     5.5555   5.6768   5.7858   6.0553   6.3309   6.4546   6.5529   6.6187
     6.8869   6.9392   6.9814   7.2327   7.4944   7.6883   7.8929   7.9394
     8.0534   8.2724   8.3296   8.4686   8.5847   8.6422   8.7501   8.8560
     8.9782   9.1165   9.2250   9.3910   9.4578   9.6052   9.6525   9.8641
     9.9628  10.0489  10.0876  10.1621  10.2157  10.2990  10.3530  10.4877
    10.5511  10.6644  10.7322  10.8911  10.9525  10.9858  11.1486  11.3177
    11.3829  11.4531  11.5690  11.5834  11.6450  11.8446  11.8669  11.9169
    12.0100  12.0511  12.0939  12.1942  12.2573  12.3898  12.4225  12.5152
    12.6046  12.6808  12.7385  12.7953  12.8199  12.9378  12.9851  13.0538
    13.1528  13.1845  13.2257  13.3321  13.4147  13.5093  13.6314  13.7043
    13.7624  13.8720  13.9723  14.0881  14.1263  14.2198  14.3194  14.3637
    14.4395  14.5811  14.6143  14.6628  14.7413  14.8730  14.9580  15.0055
    15.0618  15.1635  15.2420  15.2854  15.3746  15.4680  15.5331  15.5649
    15.6372  15.7587  15.7829  15.8478  15.8663  15.9088  15.9686  16.0200
    16.1125  16.1645  16.2025  16.2454  16.2942  16.3704  16.5019  16.5829
    16.6232  16.6931  16.7358  16.8473  16.8940  16.9220  16.9703  17.1074
    17.1845  17.2367  17.3356  17.4198  17.4427  17.4710  17.5214  17.5863
    17.6314  17.6889  17.7606  17.8201  17.8800  17.9575  17.9838  18.0619
    18.1426  18.1600  18.2379  18.2986  18.3397  18.4611  18.5591  18.6288
    18.7174  18.7800  18.8379  18.9004  18.9518  19.0298  19.1082  19.1837
    19.2400  19.2914  19.4184  19.4771  19.5240  19.7160  19.7305  19.7691
    19.7984  19.8918  19.9681  20.0756  20.1683  20.2469  20.3316  20.4049
    20.4732  20.5876  20.6411  20.7346  20.7873  20.8637  20.9271  20.9641
    21.0160  21.0519  21.1458  21.2325  21.2800  21.3161  21.3407  21.3865
    21.4329  21.5124  21.5784  21.6060  21.6848  21.7896  21.8617  21.9074
    21.9566  21.9870  22.0133  22.0700  22.1438  22.2363

     the Fermi energy is    -1.2132 ev

!    total energy              =   -2160.61362386 Ry
     Harris-Foulkes estimate   =   -2160.61362387 Ry
     estimated scf accuracy    <          5.9E-09 Ry

     The total energy is the sum of the following terms:

     one-electron contribution =  -25196.99065923 Ry
     hartree contribution      =   12625.93673383 Ry
     xc contribution           =    -338.80735517 Ry
     ewald contribution        =   10745.43240222 Ry
     Hubbard energy            =       3.81629997 Ry
     smearing contrib. (-TS)   =      -0.00104549 Ry

     convergence has been achieved in  17 iterations

     Forces acting on atoms (Ry/au):

     negative rho (up, down):  0.571E+00 0.000E+00
     atom    1 type  1   force =    -0.00659843   -0.00748723    0.00018216
     atom    2 type  1   force =     0.00054169    0.00032910    0.00018269
     atom    3 type  2   force =     0.00238113    0.00254287   -0.00029130
     atom    4 type  2   force =     0.00766908    0.00534993    0.00017349
     atom    5 type  1   force =    -0.00486160   -0.06168567   -0.00044553
     atom    6 type  1   force =     0.00630664    0.06483204   -0.00041026
     atom    7 type  1   force =     0.00673002   -0.00153647    0.00076653
     atom    8 type  1   force =     0.03432347   -0.00014932    0.00004437
     atom    9 type  2   force =    -0.01172043    0.00031401   -0.00018060
     atom   10 type  2   force =    -0.00474504   -0.00136084   -0.00005172
     atom   11 type  1   force =    -0.01090414    0.00637321   -0.00044338
     atom   12 type  1   force =    -0.01381387   -0.00658010   -0.00036744
     atom   13 type  1   force =     0.04445435   -0.00074146    0.00005069
     atom   14 type  1   force =    -0.00593186   -0.00593295   -0.00009576
     atom   15 type  1   force =    -0.00039440    0.00048945   -0.00018814
     atom   16 type  2   force =    -0.00296934    0.00956089   -0.00014114
     atom   17 type  2   force =     0.00633812    0.00472323    0.00001964
     atom   18 type  1   force =    -0.00554882   -0.06551242   -0.00018232
     atom   19 type  1   force =     0.00793326    0.05976356   -0.00014659
     atom   20 type  1   force =    -0.01004175   -0.00374392   -0.00015159
     atom   21 type  1   force =    -0.04374667   -0.00070920    0.00040252
     atom   22 type  2   force =    -0.00679670    0.00063482    0.00002762
     atom   23 type  2   force =     0.00439813    0.00072024    0.00035943
     atom   24 type  1   force =     0.01867569    0.04269235   -0.00007200
     atom   25 type  1   force =     0.01740537   -0.04369989   -0.00021015
     atom   26 type  1   force =    -0.02918765    0.00113602   -0.00022095
     atom   27 type  3   force =    -0.00002753    0.00027811    0.00078498
     atom   28 type  3   force =    -0.00001120   -0.00038420   -0.00021030
     atom   29 type  3   force =     0.00005867    0.00001788    0.00014229
     atom   30 type  3   force =     0.00016701    0.00012486    0.00030204
     atom   31 type  1   force =     0.00024846   -0.00004910    0.00033778
     atom   32 type  3   force =    -0.00033165   -0.00030979    0.00003296

     Total force =     0.001863     Total SCF correction =     0.000082

     bfgs converged in  25 scf cycles and  24 bfgs steps
     (criteria: energy < 0.10E-03, force < 0.10E-02)

     End of BFGS Geometry Optimization

     Final energy   =   -2160.6136238634 Ry
Begin final coordinates

ATOMIC_POSITIONS (crystal)
O0       0.000000000   0.000000000   0.380369459    0   0   1
O0       0.000000000   0.500000000   0.400839359    0   0   1
Ru1      0.250000000   0.500000000   0.452658972    0   0   1
Ru1      0.000000000   0.000000000   0.453321533    0   0   1
O0       0.250000000   0.810000000   0.453453457    0   0   1
O0       0.250000000   0.190000000   0.453159661    0   0   1
O0       0.000000000   0.500000000   0.498599491    0   0   1
O0       0.000000000   0.000000000   0.526209020    0   0   1
Ru1      0.250000000   0.000000000   0.582444470    0   0   1
Ru1      0.000000000   0.500000000   0.569167408    0   0   1
O0       0.250000000   0.690000000   0.577850321    0   0   1
O0       0.250000000   0.310000000   0.577976293    0   0   1
O0       0.000000000   0.000000000   0.619073830    0   0   1
O0       0.500000000   0.000000000   0.380930939    0   0   1
O0       0.500000000   0.500000000   0.403751801    0   0   1
Ru1      0.750000000   0.500000000   0.452645512    0   0   1
Ru1      0.500000000   0.000000000   0.454019243    0   0   1
O0       0.750000000   0.810000000   0.453371283    0   0   1
O0       0.750000000   0.190000000   0.453222456    0   0   1
O0       0.500000000   0.500000000   0.502815064    0   0   1
O0       0.500000000   0.000000000   0.526329705    0   0   1
Ru1      0.750000000   0.000000000   0.573588667    0   0   1
Ru1      0.500000000   0.500000000   0.575611375    0   0   1
O0       0.750000000   0.690000000   0.572889660    0   0   1
O0       0.750000000   0.310000000   0.572636731    0   0   1
O0       0.500000000   0.000000000   0.618849453    0   0   1
H2      -0.000627735   0.629345391   0.380659262
H2       0.499151316   0.606690397   0.376987285
H2       0.146980523   0.028009014   0.368098913
H2       0.647897818   0.021199604   0.368475728
O0       0.524887789   0.497468018   0.647286125
H2       0.385186170   0.492486584   0.664527528
End final coordinates

     General routines

     Parallel routines
     Hubbard U routines

   This run was terminated on:   8:14: 5  11May2014

   JOB DONE.