     Program PWSCF v.5.0.2 (svn rev. 9656) starts on 27Feb2014 at 18:59: 6

     Current dimensions of program PWSCF are:
     Max number of different atomic species (ntypx) = 10
     Max number of k-points (npk) =  40000
     Max angular momentum in pseudopotentials (lmaxx) =  3
     Reading input from bare.in
Warning: card &CELL ignored
Warning: card / ignored

     Subspace diagonalization in iterative solution of the eigenvalue problem:
     a serial algorithm will be used

     bravais-lattice index     =            0
     lattice parameter (alat)  =      11.1872  a.u.
     unit-cell volume          =    7531.8600 (a.u.)^3
     number of atoms/cell      =           30
     number of atomic types    =            3
     number of electrons       =       216.00
     number of Kohn-Sham states=          324
     kinetic-energy cutoff     =      40.0000  Ry
     charge density cutoff     =     500.0000  Ry
     convergence threshold     =      1.0E-06
     mixing beta               =       0.3000
     number of iterations used =            8  plain     mixing
     Exchange-correlation      = SLA  PW   PBE  PBE ( 1 4 3 4 0)
     EXX-fraction              =        0.00
     nstep                     =           50

     celldm(1)=  11.187179  celldm(2)=   0.000000  celldm(3)=   0.000000
     celldm(4)=   0.000000  celldm(5)=   0.000000  celldm(6)=   0.000000

     crystal axes: (cart. coord. in units of alat)
               a(1) = (   1.000000   0.000000   0.000000 )
               a(2) = (   0.000000   1.180104   0.000000 )
               a(3) = (   0.000000   0.000000   4.558482 )

     reciprocal axes: (cart. coord. in units 2 pi/alat)
               b(1) = (  1.000000  0.000000  0.000000 )
               b(2) = (  0.000000  0.847383  0.000000 )
               b(3) = (  0.000000  0.000000  0.219371 )

     PseudoPot. # 1 for O  read from file:
     /home/camp/zhonxu/pseudo/o_pbe_v1.01.uspp.F.UPF
     MD5 check sum: 2bcb18d16ea4b960afae9ec6d52f22d2
     Pseudo is Ultrasoft + core correction, Zval =  6.0
     Generated by new atomic code, or converted to UPF format
     Using radial grid of  737 points,  5 beta functions with:
                l(1) =   0
                l(2) =   0
                l(3) =   1
                l(4) =   1
                l(5) =   2
     Q(r) pseudized with  8 coefficients,  rinner =    0.900   0.900   0.900
                                                       0.900   0.900

     PseudoPot. # 2 for Nb read from file:
     /home/camp/zhonxu/pseudo/nb_pbe_v1.uspp.F.UPF
     MD5 check sum: 573aab8a2fa660278ed4a62cd769473f
     Pseudo is Ultrasoft + core correction, Zval = 13.0
     Generated by new atomic code, or converted to UPF format
     Using radial grid of  887 points,  6 beta functions with:
                l(1) =   0
                l(2) =   0
                l(3) =   1
                l(4) =   1
                l(5) =   2
                l(6) =   2
     Q(r) pseudized with  6 coefficients,  rinner =    1.000   1.000   1.000
                                                       1.000   1.000

     PseudoPot. # 3 for H  read from file:
     /home/camp/zhonxu/pseudo/h_pbe_v1.uspp.F.UPF
     MD5 check sum: 3408e3ff4ec8b0a4e358431e7e038a48
     Pseudo is Ultrasoft, Zval =  1.0
     Generated by new atomic code, or converted to UPF format
     Using radial grid of  615 points,  2 beta functions with:
                l(1) =   0
                l(2) =   0
     Q(r) pseudized with  8 coefficients,  rinner =    0.700

     atomic species   valence    mass     pseudopotential
        O0             6.00    15.99940     O ( 1.00)
        Nb1           13.00    92.90640     Nb( 1.00)
        H2             1.00     1.00794     H ( 1.00)

     No symmetry found

   Cartesian axes

     site n.     atom                  positions (alat units)
         1           O0  tau(   1) = (   0.0000000   0.0000000   1.7080633  )
         2           O0  tau(   2) = (   0.0000000   0.5900519   1.7583889  )
         3           Nb1 tau(   3) = (   0.2500000   0.5900519   2.0066439  )
         4           Nb1 tau(   4) = (   0.0000000   0.0000000   2.0401487  )
         5           O0  tau(   5) = (   0.2500000   0.9322821   2.0429294  )
         6           O0  tau(   6) = (   0.2500000   0.2478218   2.0431118  )
         7           O0  tau(   7) = (   0.0000000   0.5900519   2.2709903  )
         8           O0  tau(   8) = (   0.0000000   0.0000000   2.3999042  )
         9           Nb1 tau(   9) = (   0.2500000   0.0000000   2.6489340  )
        10           Nb1 tau(  10) = (   0.0000000   0.5900519   2.5868019  )
        11           O0  tau(  11) = (   0.2500000   0.8378738   2.6444667  )
        12           O0  tau(  12) = (   0.2500000   0.3422301   2.6445123  )
        13           O0  tau(  13) = (   0.0000000   0.0000000   2.8518777  )
        14           O0  tau(  14) = (   0.5000000   0.0000000   1.7080633  )
        15           O0  tau(  15) = (   0.5000000   0.5900519   1.7583889  )
        16           Nb1 tau(  16) = (   0.7500000   0.5900519   2.0066439  )
        17           Nb1 tau(  17) = (   0.5000000   0.0000000   2.0401487  )
        18           O0  tau(  18) = (   0.7500000   0.9322821   2.0429294  )
        19           O0  tau(  19) = (   0.7500000   0.2478218   2.0431118  )
        20           O0  tau(  20) = (   0.5000000   0.5900519   2.2709903  )
        21           O0  tau(  21) = (   0.5000000   0.0000000   2.3999497  )
        22           Nb1 tau(  22) = (   0.7500000   0.0000000   2.6489340  )
        23           Nb1 tau(  23) = (   0.5000000   0.5900519   2.5867563  )
        24           O0  tau(  24) = (   0.7500000   0.8378738   2.6444667  )
        25           O0  tau(  25) = (   0.7500000   0.3422301   2.6445123  )
        26           O0  tau(  26) = (   0.5000000   0.0000000   2.8518777  )
        27           H2  tau(  27) = (  -0.0004200   0.5934860   1.5928705  )
        28           H2  tau(  28) = (   0.4995800   0.5932146   1.5928249  )
        29           H2  tau(  29) = (   0.1513000  -0.0014397   1.6372701  )
        30           H2  tau(  30) = (   0.6512900  -0.0014397   1.6372701  )

     number of k points=    10  Methfessel-Paxton smearing, width (Ry)=  0.0100
                       cart. coord. in units 2pi/alat
        k(    1) = (   0.0000000   0.0000000   0.0000000), wk =   0.1250000
        k(    2) = (   0.0000000   0.2118458   0.0000000), wk =   0.2500000
        k(    3) = (   0.0000000  -0.4236915   0.0000000), wk =   0.1250000
        k(    4) = (   0.2500000   0.0000000   0.0000000), wk =   0.2500000
        k(    5) = (   0.2500000   0.2118458   0.0000000), wk =   0.2500000
        k(    6) = (   0.2500000  -0.4236915   0.0000000), wk =   0.2500000
        k(    7) = (  -0.5000000   0.0000000   0.0000000), wk =   0.1250000
        k(    8) = (  -0.5000000   0.2118458   0.0000000), wk =   0.2500000
        k(    9) = (  -0.5000000  -0.4236915   0.0000000), wk =   0.1250000
        k(   10) = (  -0.2500000   0.2118458   0.0000000), wk =   0.2500000

     Largest allocated arrays     est. size (Mb)     dimensions
     Largest temporary arrays     est. size (Mb)     dimensions

     Check: negative/imaginary core charge=   -0.000003    0.000000

     Initial potential from superposition of free atoms
     Check: negative starting charge=   -0.003843

     starting charge  215.97807, renormalised to  216.00000

     negative rho (up, down):  0.384E-02 0.000E+00
     Starting wfc are  180 randomized atomic wfcs

     Self-consistent Calculation

     iteration #  1     ecut=    40.00 Ry     beta=0.30
     Davidson diagonalization with overlap
     ethr =  1.00E-02,  avg # of iterations =  6.0

     negative rho (up, down):  0.348E-02 0.000E+00

     total energy              =   -1527.83885853 Ry
     Harris-Foulkes estimate   =   -1533.72383172 Ry
     estimated scf accuracy    <      13.29433101 Ry

[...]

     total energy              =   -1530.21359133 Ry
     Harris-Foulkes estimate   =   -1530.21359079 Ry
     estimated scf accuracy    <       0.00000154 Ry

     iteration # 16     ecut=    40.00 Ry     beta=0.30
     Davidson diagonalization with overlap
     ethr =  7.11E-10,  avg # of iterations =  1.2

     negative rho (up, down):  0.356E-02 0.000E+00

     End of self-consistent calculation

          k = 0.0000 0.0000 0.0000 ( 32167 PWs)   bands (ev):

   -56.1951 -56.1053 -55.7229 -55.6790 -55.6445 -55.6025 -55.5887 -55.5117
   -33.1393 -32.3878 -32.3143 -32.2622 -32.2105 -32.2057 -32.1729 -32.1198
   -32.1056 -32.1045 -32.0517 -32.0094 -32.0089 -31.9364 -31.8519 -31.7320
   -31.7226 -31.6480 -31.5940 -31.5658 -31.4542 -31.4083 -31.2828 -31.2690
   -20.4807 -20.3203 -19.3303 -19.1367 -18.9855 -18.8928 -18.8110 -18.6599
   -18.6360 -18.5752 -18.4448 -18.4167 -18.2650 -18.0829 -17.9136 -17.7688
   -17.6742 -17.5027  -8.9273  -8.6025  -7.6759  -7.2354  -7.1955  -6.8245
    -6.5599  -6.3012  -6.2228  -6.1799  -6.1454  -6.0262  -5.9020  -5.8491
    -5.8368  -5.7878  -5.7142  -5.4575  -5.3398  -5.2610  -5.1530  -5.1374
    -5.0543  -5.0390  -5.0300  -4.9622  -4.8799  -4.5543  -4.2897  -4.1799
    -4.1249  -4.0779  -3.9772  -3.8144  -3.8046  -3.7522  -3.6448  -3.5115
    -3.4874  -3.4455  -3.2532  -3.2456  -3.1839  -3.1176  -3.1124  -2.9236
    -2.8499  -2.7980  -2.7744  -2.7476  -2.6234  -2.5885  -2.5428  -2.0753
    -0.6395  -0.2490  -0.0436   1.2320   1.4539   1.5051   1.5625   1.5762
     1.5988   1.6760   1.7329   1.9342   2.0022   2.3919   2.4391   2.4614
     2.5081   2.6348   2.8734   2.9272   2.9581   3.1468   3.2740   3.6524
     3.7598   3.8075   3.8276   3.8811   4.1297   4.3303   4.6259   4.7912
     4.9951   5.1434   5.3628   5.4089   5.4682   5.6778   5.7379   5.7409
     5.8201   6.0596   6.1892   6.2768   6.2958   6.4092   6.5770   6.6653
     6.8284   6.8956   6.9020   7.0156   7.1852   7.2573   7.2859   7.2932
     7.5418   7.6660   7.8380   8.0182   8.0395   8.1347   8.1378   8.2580
     8.3475   8.5239   8.5431   8.6456   8.7989   8.8210   8.8491   8.9230
     8.9826   9.1868   9.2153   9.3185   9.3737   9.5395   9.5497   9.6591
     9.6918   9.7092   9.8847  10.0214  10.0362  10.1361  10.1993  10.3295
    10.3847  10.4837  10.7810  10.9013  10.9569  10.9876  11.1380  11.1571
    11.2109  11.2214  11.2377  11.2498  11.2714  11.3542  11.4226  11.5451
    11.5603  11.5751  11.5864  11.7519  11.7851  11.9104  11.9401  12.2678
    12.2792  12.2928  12.3104  12.3350  12.3671  12.4105  12.5127  12.5248
    12.5479  12.7473  12.9283  12.9925  13.0449  13.1302  13.2239  13.3779
    13.4841  13.5792  13.5901  13.6061  13.7887  13.8692  13.9285  13.9990
    14.0447  14.0495  14.1539  14.2682  14.3471  14.4799  14.7151  14.7357
    14.7623  14.8184  15.1069  15.1096  15.2054  15.2746  15.2760  15.3068
    15.3128  15.5565  15.5653  15.5906  15.7060  15.7473  15.8848  15.9678
    16.0096  16.0699  16.1026  16.1254  16.1885  16.2545  16.4466  16.4849
    16.5364  16.5435  16.7163  16.7632  16.8123  16.8267  17.0328  17.0777
    17.2726  17.3866  17.3891  17.4292  17.4661  17.5058  17.5527  17.5821
    17.7783  18.0608  18.0849  18.1910  18.2489  18.2903  18.2918  18.2997
    18.4543  18.4775  18.4824  18.7082  18.7555  18.8105  18.8795  19.0313
    19.0736  19.0835  19.1360  19.1452  19.1747  19.2081  19.2830  19.2896
    19.3302  19.3330  19.5383  19.5812  19.7702  19.8227  19.8635  19.8983
    20.0578  20.1346  20.1958  20.2518

[...]

          k = 0.2500-0.4237 0.0000 ( 32188 PWs)   bands (ev):

[...]

          k =-0.5000 0.0000 0.0000 ( 32166 PWs)   bands (ev):

[...]

          k =-0.2500 0.2118 0.0000 ( 32165 PWs)   bands (ev):

   -56.1820 -56.1186 -55.7115 -55.6679 -55.6561 -55.6138 -55.5776 -55.5231
   -33.0016 -32.3707 -32.2905 -32.2499 -32.2333 -32.1953 -32.1662 -32.1496
   -32.1469 -31.9972 -31.9775 -31.9750 -31.9580 -31.9461 -31.8553 -31.7378
   -31.7203 -31.6221 -31.6197 -31.5929 -31.5385 -31.4830 -31.4087 -31.3985
   -20.4307 -20.3189 -19.2145 -18.9287 -18.9133 -18.7839 -18.6776 -18.6566
   -18.6502 -18.5704 -18.5666 -18.5348 -18.1296 -18.0387 -18.0168 -17.9226
   -17.8243 -17.6956  -8.8289  -8.6206  -7.4592  -6.8551  -6.6645  -6.5760
    -6.5390  -6.3681  -6.3155  -6.1374  -6.1318  -6.0948  -6.0748  -5.9054
    -5.8479  -5.7804  -5.7685  -5.5102  -5.4997  -5.4413  -5.1312  -5.1180
    -5.0178  -4.9279  -4.8563  -4.6534  -4.5269  -4.3931  -4.3075  -4.3067
    -4.2505  -4.1490  -3.9698  -3.9575  -3.9572  -3.8674  -3.8446  -3.7868
    -3.5915  -3.5523  -3.4961  -3.4903  -3.3704  -3.2819  -3.1688  -3.1145
    -3.0626  -2.9677  -2.8439  -2.7020  -2.6635  -2.5372  -2.4803  -2.1602
    -0.1440   0.4604   0.6419   0.9311   1.0147   1.2746   1.5486   1.6904
     1.7123   1.8192   2.1273   2.1278   2.2874   2.3478   2.3668   2.5997
     2.6159   2.6581   2.7284   2.7623   2.8304   2.9874   3.0252   3.1024
     3.2244   3.3801   3.6075   4.2405   4.5121   4.5610   4.6974   4.8740
     4.9788   5.1302   5.2096   5.2554   5.3021   5.3912   5.5970   5.7066
     5.7839   5.9107   5.9796   6.0419   6.2352   6.3451   6.3959   6.5159
     6.5436   6.6732   6.7126   6.8386   6.9634   7.0303   7.2242   7.2479
     7.3980   7.5217   7.7280   7.8131   7.9216   7.9417   8.1251   8.1610
     8.2994   8.3219   8.4452   8.6637   8.7170   8.8549   9.0347   9.0588
     9.0808   9.2062   9.3182   9.4373   9.5719   9.5852   9.6553   9.7708
     9.8947   9.9436  10.0024  10.1540  10.2074  10.3423  10.4181  10.6025
    10.7363  10.7512  10.9107  10.9575  11.0200  11.0824  11.1634  11.2337
    11.2451  11.3832  11.4669  11.4824  11.5244  11.5372  11.7355  11.8477
    11.9121  12.0477  12.0992  12.1794  12.2336  12.3431  12.4530  12.4735
    12.6433  12.6893  12.7145  12.7833  12.8653  12.8801  12.9075  12.9618
    13.0684  13.0885  13.1928  13.2487  13.3087  13.4038  13.4735  13.4913
    13.6804  13.6981  13.7605  13.9039  13.9271  13.9546  13.9608  14.0697
    14.1042  14.2717  14.3119  14.4024  14.5146  14.6181  14.6595  14.8584
    14.8897  14.9184  15.0739  15.1226  15.1796  15.2210  15.2488  15.3653
    15.3759  15.4032  15.4746  15.5182  15.5910  15.7220  15.7856  15.7918
    15.8309  15.8815  16.0337  16.0359  16.0766  16.2455  16.2606  16.3915
    16.4443  16.5886  16.5892  16.6624  16.7469  16.7524  16.7824  16.8807
    16.9808  16.9900  17.0314  17.2289  17.2606  17.2761  17.3703  17.4064
    17.4590  17.5416  17.6337  17.6761  17.7116  17.8527  17.8734  17.9835
    18.0271  18.0617  18.0817  18.2252  18.3268  18.4099  18.5018  18.5903
    18.6112  18.6931  18.7372  18.7772  18.8604  18.9095  18.9320  19.0334
    19.1605  19.1762  19.2842  19.2915  19.3237  19.3666  19.4309  19.5407
    19.5458  19.5978  19.6465  19.7053

     the Fermi energy is     1.0308 ev

!    total energy              =   -1530.21359151 Ry
     Harris-Foulkes estimate   =   -1530.21359147 Ry
     estimated scf accuracy    <       0.00000027 Ry

     The total energy is the sum of the following terms:

     one-electron contribution =  -18315.36831264 Ry
     hartree contribution      =    9184.38143538 Ry
     xc contribution           =    -279.65957517 Ry
     ewald contribution        =    7880.43512075 Ry
     smearing contrib. (-TS)   =      -0.00225982 Ry

     convergence has been achieved in  16 iterations

     Forces acting on atoms (Ry/au):

     negative rho (up, down):  0.356E-02 0.000E+00
     atom    1 type  1   force =     0.00056262   -0.00054086   -0.00015810
     atom    2 type  1   force =    -0.00091137    0.00054944    0.00003210
     atom    3 type  2   force =     0.00136240   -0.00047593   -0.00002811
     atom    4 type  2   force =    -0.00371335    0.00049659   -0.00017043
     atom    5 type  1   force =     0.00034193   -0.02492964    0.00007659
     atom    6 type  1   force =     0.00056999    0.02457640   -0.00014256
     atom    7 type  1   force =     0.00004865    0.00017611    0.00017253
     atom    8 type  1   force =     0.00166707   -0.00006881    0.00009920
     atom    9 type  2   force =    -0.00020152    0.00003556   -0.00001070
     atom   10 type  2   force =     0.00002569   -0.00003900   -0.00029362
     atom   11 type  1   force =     0.00007924   -0.04607126    0.00006621
     atom   12 type  1   force =     0.00008986    0.04609902    0.00000373
     atom   13 type  1   force =     0.00034991   -0.00002095    0.00005301
     atom   14 type  1   force =     0.00046505   -0.00052719   -0.00009952
     atom   15 type  1   force =    -0.00094822    0.00053638   -0.00041825
     atom   16 type  2   force =     0.00137874   -0.00047803   -0.00002564
     atom   17 type  2   force =    -0.00370264    0.00049379   -0.00017630
     atom   18 type  1   force =     0.00032436   -0.02491582    0.00007842
     atom   19 type  1   force =     0.00052869    0.02456325   -0.00014032
     atom   20 type  1   force =     0.00001896    0.00017159    0.00006308
     atom   21 type  1   force =     0.00166189   -0.00006879   -0.00006304
     atom   22 type  2   force =    -0.00022618    0.00003562   -0.00001126
     atom   23 type  2   force =     0.00002835   -0.00003948   -0.00008214
     atom   24 type  1   force =     0.00006651   -0.04607072    0.00006825
     atom   25 type  1   force =     0.00007456    0.04609810    0.00000578
     atom   26 type  1   force =     0.00034878   -0.00002093    0.00005615
     atom   27 type  3   force =    -0.00003765   -0.00019237    0.00022176
     atom   28 type  3   force =    -0.00003427   -0.00020452    0.00067273
     atom   29 type  3   force =    -0.00015369    0.00041884    0.00009464
     atom   30 type  3   force =    -0.00006439    0.00041361    0.00005582

     Total force =     0.001204     Total SCF correction =     0.001179
     SCF correction compared to forces is large: reduce conv_thr to get better values

     BFGS Geometry Optimization

     bfgs converged in   1 scf cycles and   0 bfgs steps
     (criteria: energy < 0.10E-03, force < 0.10E-02)

     End of BFGS Geometry Optimization

     Final energy   =   -1530.2135915088 Ry
Begin final coordinates

ATOMIC_POSITIONS (crystal)
O0       0.000000000   0.000000000   0.374700000    0   0   1
O0       0.000000000   0.500000000   0.385740000    0   0   1
Nb1      0.250000000   0.500000000   0.440200000    0   0   1
Nb1      0.000000000   0.000000000   0.447550000    0   0   1
O0       0.250000000   0.790000000   0.448160000    0   0   1
O0       0.250000000   0.210000000   0.448200000    0   0   1
O0       0.000000000   0.500000000   0.498190000    0   0   1
O0       0.000000000   0.000000000   0.526470000    0   0   1
Nb1      0.250000000   0.000000000   0.581100000    0   0   1
Nb1      0.000000000   0.500000000   0.567470000    0   0   1
O0       0.250000000   0.710000000   0.580120000    0   0   1
O0       0.250000000   0.290000000   0.580130000    0   0   1
O0       0.000000000   0.000000000   0.625620000    0   0   1
O0       0.500000000   0.000000000   0.374700000    0   0   1
O0       0.500000000   0.500000000   0.385740000    0   0   1
Nb1      0.750000000   0.500000000   0.440200000    0   0   1
Nb1      0.500000000   0.000000000   0.447550000    0   0   1
O0       0.750000000   0.790000000   0.448160000    0   0   1
O0       0.750000000   0.210000000   0.448200000    0   0   1
O0       0.500000000   0.500000000   0.498190000    0   0   1
O0       0.500000000   0.000000000   0.526480000    0   0   1
Nb1      0.750000000   0.000000000   0.581100000    0   0   1
Nb1      0.500000000   0.500000000   0.567460000    0   0   1
O0       0.750000000   0.710000000   0.580120000    0   0   1
O0       0.750000000   0.290000000   0.580130000    0   0   1
O0       0.500000000   0.000000000   0.625620000    0   0   1
H2      -0.000420000   0.502910000   0.349430000
H2       0.499580000   0.502680000   0.349420000
H2       0.151300000  -0.001220000   0.359170000
H2       0.651290000  -0.001220000   0.359170000
End final coordinates

     General routines

     Parallel routines

   This run was terminated on:  19:56:15  27Feb2014

   JOB DONE.
Running PBS batch system epilogue script
Job id: 278711.audhumbla.fysik.dtu.dk
Username: zhonxu
Groupname: campgst
Jobname: NbO2/bare
Sessionid: 30956
Queuename: verylong
Accounting:
This job has allocated the following 16 nodes:
c021 c021 c021 c021 c021 c021 c021 c021 c008 c008 c008 c008 c008 c008 c008 c008
Finished epilogue job 278711.audhumbla.fysik.dtu.dk for zhonxu