     Program PWSCF v.5.0.2 (svn rev. 9656) starts on 28Apr2014 at  3:42: 8

     Current dimensions of program PWSCF are:
     Max number of different atomic species (ntypx) = 10
     Max number of k-points (npk) =  40000
     Max angular momentum in pseudopotentials (lmaxx) =  3
     Reading input from pwscf.in
Warning: card &CELL ignored
Warning: card / ignored

     Subspace diagonalization in iterative solution of the eigenvalue problem:
     a serial algorithm will be used

     bravais-lattice index     =            0
     lattice parameter (alat)  =      12.2076  a.u.
     unit-cell volume          =    7496.5096 (a.u.)^3
     number of atoms/cell      =           32
     number of atomic types    =            3
     number of electrons       =       247.00
     number of Kohn-Sham states=          370
     kinetic-energy cutoff     =      40.0000  Ry
     charge density cutoff     =     500.0000  Ry
     convergence threshold     =      1.0E-06
     mixing beta               =       0.7000
     number of iterations used =            8  plain     mixing
     Exchange-correlation      = SLA  PW   PBE  PBE ( 1 4 3 4 0)
     EXX-fraction              =        0.00
     nstep                     =           50

     celldm(1)=  12.207631  celldm(2)=   0.000000  celldm(3)=   0.000000
     celldm(4)=   0.000000  celldm(5)=   0.000000  celldm(6)=   0.000000

     crystal axes: (cart. coord. in units of alat)
               a(1) = (   1.000000   0.000000   0.000000 )
               a(2) = (   0.000000   1.004836   0.000000 )
               a(3) = (   0.000000   0.000000   4.100811 )

     reciprocal axes: (cart. coord. in units 2 pi/alat)
               b(1) = (  1.000000  0.000000  0.000000 )
               b(2) = (  0.000000  0.995187  0.000000 )
               b(3) = (  0.000000  0.000000  0.243854 )

     PseudoPot. # 1 for O  read from file:
     /home/camp/zhonxu/pseudo/o_pbe_v1.01.uspp.F.UPF
     MD5 check sum: 2bcb18d16ea4b960afae9ec6d52f22d2
     Pseudo is Ultrasoft + core correction, Zval =  6.0
     Generated by new atomic code, or converted to UPF format
     Using radial grid of  737 points,  5 beta functions with:
                l(1) =   0
                l(2) =   0
                l(3) =   1
                l(4) =   1
                l(5) =   2
     Q(r) pseudized with  8 coefficients,  rinner =    0.900   0.900   0.900
                                                       0.900   0.900

     PseudoPot. # 2 for Pt read from file:
     /home/camp/zhonxu/pseudo/pt_pbe_v1.uspp.F.UPF
     MD5 check sum: 4c71d6ad5ef119f1eb26a4d0b7884226
     Pseudo is Ultrasoft + core correction, Zval = 16.0
     Generated by new atomic code, or converted to UPF format
     Using radial grid of  985 points,  6 beta functions with:
                l(1) =   0
                l(2) =   0
                l(3) =   1
                l(4) =   1
                l(5) =   2
                l(6) =   2
     Q(r) pseudized with  8 coefficients,  rinner =    1.300   1.300   1.300
                                                       1.300   1.300

     PseudoPot. # 3 for H  read from file:
     /home/camp/zhonxu/pseudo/h_pbe_v1.uspp.F.UPF
     MD5 check sum: 3408e3ff4ec8b0a4e358431e7e038a48
     Pseudo is Ultrasoft, Zval =  1.0
     Generated by new atomic code, or converted to UPF format
     Using radial grid of  615 points,  2 beta functions with:
                l(1) =   0
                l(2) =   0
     Q(r) pseudized with  8 coefficients,  rinner =    0.700

     atomic species   valence    mass     pseudopotential
        O0             6.00    15.99940     O ( 1.00)
        Pt1           16.00   195.08000     Pt( 1.00)
        H2             1.00     1.00794     H ( 1.00)

     Simplified LDA+U calculation (l_max = 2) with parameters (eV):
     atomic species    L          U    alpha       J0     beta
        Pt1            2     1.5000   0.0000   0.0000   0.0000

     No symmetry found

   Cartesian axes

     site n.     atom                  positions (alat units)
         1           O0  tau(   1) = (   0.0000000   0.0000000   1.5486303  )
         2           O0  tau(   2) = (   0.0000000   0.5024180   1.6456145  )
         3           Pt1 tau(   3) = (   0.2500000   0.5024180   1.8492198  )
         4           Pt1 tau(   4) = (   0.0000000   0.0000000   1.8561502  )
         5           O0  tau(   5) = (   0.2500000   0.8139171   1.8185047  )
         6           O0  tau(   6) = (   0.2500000   0.1909188   1.8850199  )
         7           O0  tau(   7) = (   0.0000000   0.5024180   2.0364218  )
         8           O0  tau(   8) = (   0.0000000   0.0000000   2.1712565  )
         9           Pt1 tau(   9) = (   0.2500000   0.0000000   2.3611651  )
        10           Pt1 tau(  10) = (   0.0000000   0.5024180   2.3568182  )
        11           O0  tau(  11) = (   0.2500000   0.6933368   2.3352889  )
        12           O0  tau(  12) = (   0.2500000   0.3114991   2.3978263  )
        13           O0  tau(  13) = (   0.0000000   0.0000000   2.5469728  )
        14           O0  tau(  14) = (   0.5000000   0.0000000   1.5487944  )
        15           O0  tau(  15) = (   0.5000000   0.5024180   1.6432360  )
        16           Pt1 tau(  16) = (   0.7500000   0.5024180   1.8492608  )
        17           Pt1 tau(  17) = (   0.5000000   0.0000000   1.8561092  )
        18           O0  tau(  18) = (   0.7500000   0.8139171   1.8183407  )
        19           O0  tau(  19) = (   0.7500000   0.1909188   1.8850199  )
        20           O0  tau(  20) = (   0.5000000   0.5024180   2.0398255  )
        21           O0  tau(  21) = (   0.5000000   0.0000000   2.1711335  )
        22           Pt1 tau(  22) = (   0.7500000   0.0000000   2.3611651  )
        23           Pt1 tau(  23) = (   0.5000000   0.5024180   2.3633795  )
        24           O0  tau(  24) = (   0.7500000   0.6933368   2.3343868  )
        25           O0  tau(  25) = (   0.7500000   0.3114991   2.3965141  )
        26           O0  tau(  26) = (   0.5000000   0.0000000   2.5473419  )
        27           H2  tau(  27) = (   0.0000800   0.6431151   1.5815188  )
        28           H2  tau(  28) = (   0.4999900   0.6432457   1.5795915  )
        29           H2  tau(  29) = (   0.1433600   0.0342348   1.5075812  )
        30           H2  tau(  30) = (   0.6432100   0.0348377   1.5077042  )
        31           O0  tau(  31) = (   0.5002800   0.5276996   2.6647891  )
        32           H2  tau(  32) = (   0.4897800   0.3840985   2.7162543  )

     number of k points=    10  Methfessel-Paxton smearing, width (Ry)=  0.0100
                       cart. coord. in units 2pi/alat
        k(    1) = (   0.0000000   0.0000000   0.0000000), wk =   0.1250000
        k(    2) = (   0.0000000   0.2487968   0.0000000), wk =   0.2500000
        k(    3) = (   0.0000000  -0.4975937   0.0000000), wk =   0.1250000
        k(    4) = (   0.2500000   0.0000000   0.0000000), wk =   0.2500000
        k(    5) = (   0.2500000   0.2487968   0.0000000), wk =   0.2500000
        k(    6) = (   0.2500000  -0.4975937   0.0000000), wk =   0.2500000
        k(    7) = (  -0.5000000   0.0000000   0.0000000), wk =   0.1250000
        k(    8) = (  -0.5000000   0.2487968   0.0000000), wk =   0.2500000
        k(    9) = (  -0.5000000  -0.4975937   0.0000000), wk =   0.1250000
        k(   10) = (  -0.2500000   0.2487968   0.0000000), wk =   0.2500000

     Largest allocated arrays     est. size (Mb)     dimensions
     Largest temporary arrays     est. size (Mb)     dimensions

     Check: negative/imaginary core charge=   -0.000003    0.000000

     Initial potential from superposition of free atoms
     Check: negative starting charge=   -1.535574

     starting charge  242.99984, renormalised to  247.00000

     negative rho (up, down):  0.156E+01 0.000E+00
     Number of +U iterations with fixed ns =  0
     Starting occupations:
 --- enter write_ns ---
 LDA+U parameters:
U( 2)     =  1.50000000
alpha( 2) =  0.00000000
atom    3   Tr[ns(na)] =   8.00000
    eigenvalues:
  0.800  0.800  0.800  0.800  0.800
    eigenvectors:
  1.000  0.000  0.000  0.000  0.000
  0.000  1.000  0.000  0.000  0.000
  0.000  0.000  1.000  0.000  0.000
  0.000  0.000  0.000  1.000  0.000
  0.000  0.000  0.000  0.000  1.000
    occupations:
  0.800  0.000  0.000  0.000  0.000
  0.000  0.800  0.000  0.000  0.000
  0.000  0.000  0.800  0.000  0.000
  0.000  0.000  0.000  0.800  0.000
  0.000  0.000  0.000  0.000  0.800
atom    4   Tr[ns(na)] =   8.00000
    eigenvalues:
  0.800  0.800  0.800  0.800  0.800
    eigenvectors:
  1.000  0.000  0.000  0.000  0.000
  0.000  1.000  0.000  0.000  0.000
  0.000  0.000  1.000  0.000  0.000
  0.000  0.000  0.000  1.000  0.000
  0.000  0.000  0.000  0.000  1.000
    occupations:
  0.800  0.000  0.000  0.000  0.000
  0.000  0.800  0.000  0.000  0.000
  0.000  0.000  0.800  0.000  0.000
  0.000  0.000  0.000  0.800  0.000
  0.000  0.000  0.000  0.000  0.800
atom    9   Tr[ns(na)] =   8.00000
    eigenvalues:
  0.800  0.800  0.800  0.800  0.800
    eigenvectors:
  1.000  0.000  0.000  0.000  0.000
  0.000  1.000  0.000  0.000  0.000
  0.000  0.000  1.000  0.000  0.000
  0.000  0.000  0.000  1.000  0.000
  0.000  0.000  0.000  0.000  1.000
    occupations:
  0.800  0.000  0.000  0.000  0.000
  0.000  0.800  0.000  0.000  0.000
  0.000  0.000  0.800  0.000  0.000
  0.000  0.000  0.000  0.800  0.000
  0.000  0.000  0.000  0.000  0.800
atom   10   Tr[ns(na)] =   8.00000
    eigenvalues:
  0.800  0.800  0.800  0.800  0.800
    eigenvectors:
  1.000  0.000  0.000  0.000  0.000
  0.000  1.000  0.000  0.000  0.000
  0.000  0.000  1.000  0.000  0.000
  0.000  0.000  0.000  1.000  0.000
  0.000  0.000  0.000  0.000  1.000
    occupations:
  0.800  0.000  0.000  0.000  0.000
  0.000  0.800  0.000  0.000  0.000
  0.000  0.000  0.800  0.000  0.000
  0.000  0.000  0.000  0.800  0.000
  0.000  0.000  0.000  0.000  0.800
atom   16   Tr[ns(na)] =   8.00000
    eigenvalues:
  0.800  0.800  0.800  0.800  0.800
    eigenvectors:
  1.000  0.000  0.000  0.000  0.000
  0.000  1.000  0.000  0.000  0.000
  0.000  0.000  1.000  0.000  0.000
  0.000  0.000  0.000  1.000  0.000
  0.000  0.000  0.000  0.000  1.000
    occupations:
  0.800  0.000  0.000  0.000  0.000
  0.000  0.800  0.000  0.000  0.000
  0.000  0.000  0.800  0.000  0.000
  0.000  0.000  0.000  0.800  0.000
  0.000  0.000  0.000  0.000  0.800
atom   17   Tr[ns(na)] =   8.00000
    eigenvalues:
  0.800  0.800  0.800  0.800  0.800
    eigenvectors:
  1.000  0.000  0.000  0.000  0.000
  0.000  1.000  0.000  0.000  0.000
  0.000  0.000  1.000  0.000  0.000
  0.000  0.000  0.000  1.000  0.000
  0.000  0.000  0.000  0.000  1.000
    occupations:
  0.800  0.000  0.000  0.000  0.000
  0.000  0.800  0.000  0.000  0.000
  0.000  0.000  0.800  0.000  0.000
  0.000  0.000  0.000  0.800  0.000
  0.000  0.000  0.000  0.000  0.800
atom   22   Tr[ns(na)] =   8.00000
    eigenvalues:
  0.800  0.800  0.800  0.800  0.800
    eigenvectors:
  1.000  0.000  0.000  0.000  0.000
  0.000  1.000  0.000  0.000  0.000
  0.000  0.000  1.000  0.000  0.000
  0.000  0.000  0.000  1.000  0.000
  0.000  0.000  0.000  0.000  1.000
[...]
 -0.092 -0.000 -0.019  0.757  0.000
  0.000 -0.003  0.001  0.000  0.952
atom   10   Tr[ns(na)] =   8.69670
    eigenvalues:
  0.662  0.745  0.978  0.980  0.984
    eigenvectors:
  0.000  0.984  0.000  0.003  0.013
  0.006  0.000  0.987  0.007  0.000
  0.000  0.000  0.006  0.708  0.286
  0.000  0.016  0.001  0.283  0.701
  0.994  0.000  0.006  0.000  0.000
    occupations:
  0.749 -0.001 -0.004  0.029  0.000
 -0.001  0.976 -0.000  0.000 -0.025
 -0.004 -0.000  0.981 -0.001  0.000
  0.029  0.000 -0.001  0.979 -0.000
  0.000 -0.025  0.000 -0.000  0.664
atom   16   Tr[ns(na)] =   8.67139
    eigenvalues:
  0.683  0.698  0.983  0.985  0.988
    eigenvectors:
  0.015  0.159  0.799  0.000  0.027
  0.913  0.087  0.000  0.000  0.000
  0.000  0.004  0.044  0.000  0.952
  0.072  0.750  0.158  0.000  0.020
  0.000  0.000  0.000  1.000  0.000
    occupations:
  0.933 -0.002  0.007 -0.108 -0.000
 -0.002  0.684 -0.001 -0.004 -0.002
  0.007 -0.001  0.986  0.017  0.000
 -0.108 -0.004  0.017  0.748 -0.000
 -0.000 -0.002  0.000 -0.000  0.985
atom   17   Tr[ns(na)] =   8.66124
    eigenvalues:
  0.684  0.704  0.976  0.982  0.984
    eigenvectors:
  0.000  0.986  0.006  0.002  0.006
  0.009  0.000  0.044  0.940  0.007
  0.000  0.005  0.923  0.036  0.036
  0.000  0.009  0.027  0.014  0.951
  0.991  0.000  0.000  0.008  0.000
    occupations:
  0.708 -0.005 -0.018  0.026 -0.001
 -0.005  0.979  0.001  0.000  0.028
 -0.018  0.001  0.975  0.003  0.000
  0.026  0.000  0.003  0.981  0.000
 -0.001  0.028  0.000  0.000  0.687
atom   22   Tr[ns(na)] =   8.63370
    eigenvalues:
  0.707  0.718  0.952  0.955  0.984
    eigenvectors:
  0.001  0.138  0.000  0.010  0.851
  0.996  0.004  0.000  0.000  0.000
  0.000  0.007  0.057  0.930  0.006
  0.003  0.852  0.000  0.002  0.143
  0.000  0.000  0.942  0.058  0.000
    occupations:
  0.947  0.000 -0.005 -0.092 -0.000
  0.000  0.707  0.000  0.001 -0.003
 -0.005  0.000  0.953 -0.019 -0.001
 -0.092  0.001 -0.019  0.757 -0.000
 -0.000 -0.003 -0.001 -0.000  0.952
atom   23   Tr[ns(na)] =   8.64543
    eigenvalues:
  0.684  0.709  0.964  0.982  0.984
    eigenvectors:
  0.000  0.980  0.000  0.001  0.019
  0.010  0.000  0.988  0.002  0.001
  0.000  0.013  0.002  0.621  0.364
  0.000  0.008  0.000  0.376  0.617
  0.990  0.000  0.010  0.000  0.000
    occupations:
  0.714 -0.001  0.031  0.024  0.000
 -0.001  0.961  0.001 -0.000 -0.028
  0.031  0.001  0.979 -0.002 -0.000
  0.024 -0.000 -0.002  0.981 -0.000
  0.000 -0.028 -0.000 -0.000  0.687
N of occupied +U levels =  69.2772391
 --- exit write_ns ---

     Threshold (ethr) on eigenvalues was too large:
     Diagonalizing with lowered threshold

     Davidson diagonalization with overlap
     ethr =  6.00E-09,  avg # of iterations =  2.0

[...]

     total energy              =   -2281.76306136 Ry
     Harris-Foulkes estimate   =   -2281.76306138 Ry
     estimated scf accuracy    <       0.00000012 Ry

     iteration # 10     ecut=    40.00 Ry     beta=0.70
     Davidson diagonalization with overlap
     ethr =  4.84E-11,  avg # of iterations =  1.0

     negative rho (up, down):  0.158E+01 0.000E+00

     End of self-consistent calculation
 --- enter write_ns ---
 LDA+U parameters:
U( 2)     =  1.50000000
alpha( 2) =  0.00000000
atom    3   Tr[ns(na)] =   8.67141
    eigenvalues:
  0.683  0.698  0.983  0.985  0.988
    eigenvectors:
  0.015  0.159  0.793  0.002  0.032
  0.912  0.088  0.000  0.000  0.000
  0.000  0.004  0.049  0.002  0.945
  0.073  0.750  0.156  0.000  0.022
  0.000  0.000  0.003  0.996  0.001
    occupations:
  0.933  0.002  0.007 -0.108  0.000
  0.002  0.684  0.001  0.004 -0.002
  0.007  0.001  0.986  0.017 -0.000
 -0.108  0.004  0.017  0.748  0.001
  0.000 -0.002 -0.000  0.001  0.985
atom    4   Tr[ns(na)] =   8.66343
    eigenvalues:
  0.684  0.704  0.977  0.982  0.984
    eigenvectors:
  0.000  0.986  0.006  0.002  0.006
  0.009  0.000  0.043  0.941  0.007
  0.000  0.005  0.920  0.035  0.040
  0.000  0.009  0.030  0.014  0.947
  0.991  0.000  0.000  0.008  0.000
    occupations:
  0.708 -0.005 -0.019  0.026 -0.001
 -0.005  0.979  0.001  0.000  0.027
 -0.019  0.001  0.976  0.003  0.000
  0.026  0.000  0.003  0.981  0.000
 -0.001  0.027  0.000  0.000  0.687
atom    9   Tr[ns(na)] =   8.63346
    eigenvalues:
  0.707  0.718  0.952  0.955  0.984
    eigenvectors:
  0.000  0.139  0.000  0.011  0.851
  1.000  0.000  0.000  0.000  0.000
  0.000  0.007  0.022  0.965  0.006
  0.000  0.854  0.000  0.002  0.143
  0.000  0.000  0.978  0.022  0.000
    occupations:
  0.947  0.000 -0.005 -0.092  0.000
  0.000  0.707 -0.000 -0.000 -0.003
 -0.005 -0.000  0.954 -0.019  0.001
 -0.092 -0.000 -0.019  0.757  0.000
  0.000 -0.003  0.001  0.000  0.952
atom   10   Tr[ns(na)] =   8.69851
    eigenvalues:
  0.662  0.746  0.978  0.980  0.984
    eigenvectors:
  0.000  0.984  0.000  0.003  0.013
  0.006  0.000  0.986  0.007  0.000
  0.000  0.000  0.006  0.708  0.286
  0.000  0.016  0.001  0.282  0.701
  0.994  0.000  0.006  0.000  0.000
    occupations:
  0.750 -0.001 -0.004  0.029  0.000
 -0.001  0.976 -0.000  0.000 -0.025
 -0.004 -0.000  0.981 -0.001  0.000
  0.029  0.000 -0.001  0.979 -0.000
  0.000 -0.025  0.000 -0.000  0.664
atom   16   Tr[ns(na)] =   8.67156
    eigenvalues:
  0.683  0.698  0.983  0.985  0.988
    eigenvectors:
  0.015  0.159  0.799  0.000  0.027
  0.911  0.089  0.000  0.000  0.000
  0.000  0.004  0.043  0.000  0.952
  0.073  0.749  0.158  0.000  0.020
  0.000  0.000  0.000  1.000  0.000
    occupations:
  0.933 -0.002  0.007 -0.108 -0.000
 -0.002  0.684 -0.001 -0.004 -0.002
  0.007 -0.001  0.986  0.017  0.000
 -0.108 -0.004  0.017  0.748 -0.000
 -0.000 -0.002  0.000 -0.000  0.985
atom   17   Tr[ns(na)] =   8.66116
    eigenvalues:
  0.684  0.704  0.976  0.982  0.984
    eigenvectors:
  0.000  0.986  0.006  0.002  0.006
  0.009  0.000  0.044  0.940  0.007
  0.000  0.005  0.923  0.036  0.036
  0.000  0.009  0.027  0.014  0.951
  0.991  0.000  0.000  0.008  0.000
    occupations:
  0.708 -0.005 -0.018  0.026 -0.001
 -0.005  0.979  0.001  0.000  0.028
 -0.018  0.001  0.975  0.003  0.000
  0.026  0.000  0.003  0.981  0.000
 -0.001  0.028  0.000  0.000  0.687
atom   22   Tr[ns(na)] =   8.63315
    eigenvalues:
  0.707  0.718  0.952  0.955  0.984
    eigenvectors:
  0.001  0.138  0.000  0.010  0.851
  0.996  0.004  0.000  0.000  0.000
  0.000  0.007  0.060  0.927  0.006
  0.003  0.851  0.000  0.002  0.143
  0.000  0.000  0.939  0.060  0.000
    occupations:
  0.947  0.000 -0.005 -0.092 -0.000
  0.000  0.707  0.000  0.001 -0.003
 -0.005  0.000  0.953 -0.019 -0.001
 -0.092  0.001 -0.019  0.757 -0.000
 -0.000 -0.003 -0.001 -0.000  0.952
atom   23   Tr[ns(na)] =   8.64498
    eigenvalues:
  0.684  0.709  0.964  0.982  0.984
    eigenvectors:
  0.000  0.980  0.000  0.001  0.019
  0.010  0.000  0.988  0.002  0.001
  0.000  0.013  0.002  0.623  0.362
  0.000  0.008  0.000  0.374  0.618
  0.990  0.000  0.010  0.000  0.000
    occupations:
  0.714 -0.001  0.031  0.024  0.000
 -0.001  0.961  0.001 -0.000 -0.028
  0.031  0.001  0.979 -0.002 -0.000
  0.024 -0.000 -0.002  0.981 -0.000
  0.000 -0.028 -0.000 -0.000  0.687
N of occupied +U levels =  69.2776724
 --- exit write_ns ---

[...]

          k = 0.2500-0.4976 0.0000 ( 32026 PWs)   bands (ev):

[...]

          k =-0.2500 0.2488 0.0000 ( 32025 PWs)   bands (ev):

   -55.6672 -55.6275 -55.6172 -55.5790 -55.5367 -55.5313 -55.5208 -55.4822
   -55.4465 -55.4237 -55.4199 -55.3102 -55.3018 -55.2655 -55.2607 -55.2584
   -55.2514 -55.2288 -55.2132 -55.2069 -55.1211 -54.9256 -54.6873 -54.4285
   -21.9576 -21.7123 -21.0748 -20.8768 -20.5852 -20.4788 -20.4109 -20.3392
   -20.2696 -20.1506 -20.1157 -20.0509 -19.9828 -19.8911 -19.8452 -19.8146
   -19.6711 -19.0296 -18.8765 -10.2248  -9.9715  -9.8482  -9.7873  -9.3951
    -9.3054  -9.1749  -9.0602  -9.0125  -8.9828  -8.8483  -8.7767  -8.7290
    -8.5842  -8.5535  -8.4837  -8.3736  -8.3009  -7.9987  -7.8623  -7.6840
    -7.6339  -7.5861  -7.4080  -7.2215  -7.0124  -6.9512  -6.9099  -6.7619
    -6.7108  -6.6655  -6.5753  -6.4929  -6.3851  -6.3588  -6.3123  -6.1452
    -6.0928  -6.0461  -5.9093  -5.8256  -5.6363  -5.5206  -5.4254  -5.2769
    -5.1750  -5.0496  -4.9665  -4.8792  -4.8324  -4.7420  -4.6460  -4.3987
    -4.3724  -4.2539  -4.1164  -4.0840  -4.0340  -3.9245  -3.7174  -3.6643
    -3.6296  -3.5419  -3.5097  -3.4048  -3.3757  -3.2999  -3.2433  -2.9905
    -2.9149  -2.6424  -2.4919  -2.3868  -2.2492  -2.2050  -2.1494  -2.0754
    -2.0148  -1.8198  -1.6372  -1.5839  -1.4612  -0.9545  -0.7221  -0.5221
    -0.1729  -0.0053   0.3643   0.5879   0.8225   0.9321   1.0722   1.1347
     1.3741   1.5065   1.5454   1.9213   3.2468   3.9417   4.6506   5.0680
     5.1305   5.2189   5.2963   5.5610   6.0404   6.2015   6.2750   6.3440
     6.4962   6.5965   6.6821   6.7762   6.8915   6.9668   7.1445   7.2288
     7.3922   7.4989   7.5456   7.6757   7.7389   7.8500   7.9604   8.0529
     8.2210   8.3214   8.3586   8.4378   8.5042   8.5981   8.6940   8.7744
     8.8984   8.9771   9.0477   9.1943   9.3439   9.4399   9.5776   9.6410
     9.7478   9.8113   9.9411  10.0799  10.1462  10.2013  10.2628  10.3668
    10.5226  10.5650  10.6194  10.7027  10.7611  10.9550  10.9907  11.0957
    11.1802  11.2135  11.3638  11.4278  11.5052  11.6425  11.7286  11.8048
    11.8848  11.9078  12.0067  12.0347  12.0903  12.2363  12.2920  12.3435
    12.3956  12.4470  12.5252  12.5606  12.6452  12.7184  12.7952  12.9011
    12.9524  13.0196  13.0980  13.2020  13.2249  13.4473  13.5194  13.5666
    13.6043  13.6792  13.7352  13.8137  13.9336  13.9710  14.0564  14.0785
    14.1554  14.2764  14.3722  14.4664  14.5420  14.6240  14.7124  14.8324
    14.8945  14.9919  15.0719  15.1588  15.2174  15.2996  15.3283  15.4032
    15.4571  15.5091  15.5638  15.6316  15.6933  15.7304  15.7708  15.8417
    15.9041  15.9841  16.0126  16.0603  16.1309  16.2218  16.3056  16.3755
    16.4540  16.5306  16.5776  16.5978  16.6431  16.6995  16.7517  16.7627
    16.7762  16.8050  16.8274  16.8420  16.8608  16.9384  16.9801  17.0461
    17.1008  17.1474  17.2092  17.2335  17.3093  17.3254  17.3846  17.4793
    17.5198  17.5486  17.5969  17.6199  17.6567  17.7574  17.9021  17.9431
    18.0113  18.0594  18.1353  18.1783  18.2404  18.3350  18.4691  18.4844
    18.5831  18.6075  18.6428  18.7164  18.7904  18.8469  18.8838  18.9704
    19.0189  19.1182  19.1777  19.2196  19.2827  19.3469  19.4432  19.5289
    19.6588  19.6866  19.8210  19.8667  19.9366  19.9923  20.0372  20.0655
    20.1089  20.1560  20.2674  20.3347  20.3536  20.4016  20.4882  20.5581
    20.6487  20.6715  20.7285  20.8123  20.8931  20.9678  20.9967  21.0377
    21.0851  21.2025  21.2693  21.3109  21.3448  21.3729  21.4668  21.5096
    21.5761  21.6345  21.6989  21.7596  21.7933  21.9035  22.0026  22.0741
    22.1294  22.1832

     the Fermi energy is    -1.5660 ev

!    total energy              =   -2281.76306136 Ry
     Harris-Foulkes estimate   =   -2281.76306137 Ry
     estimated scf accuracy    <          6.6E-09 Ry

     The total energy is the sum of the following terms:

     one-electron contribution =  -23707.66206187 Ry
     hartree contribution      =   11896.83667823 Ry
     xc contribution           =    -572.99628849 Ry
     ewald contribution        =   10101.62928800 Ry
     Hubbard energy            =       0.42924244 Ry
     smearing contrib. (-TS)   =       0.00008033 Ry

     convergence has been achieved in  10 iterations

     Forces acting on atoms (Ry/au):

     negative rho (up, down):  0.158E+01 0.000E+00
     atom    1 type  1   force =    -0.00843023   -0.00412405   -0.00006559
     atom    2 type  1   force =     0.00035636    0.00345507    0.00018187
     atom    3 type  2   force =     0.01103339    0.00840989    0.00000656
     atom    4 type  2   force =     0.01082952    0.00409962    0.00026798
     atom    5 type  1   force =     0.00121359   -0.00434160    0.00054351
     atom    6 type  1   force =    -0.00002238   -0.00270955   -0.00027273
     atom    7 type  1   force =     0.00028988   -0.00115832   -0.00032205
     atom    8 type  1   force =    -0.00416463   -0.00139794   -0.00000538
     atom    9 type  2   force =     0.00314199    0.00363475    0.00034043
     atom   10 type  2   force =    -0.00046584   -0.02090181   -0.00095965
     atom   11 type  1   force =     0.00211980    0.00184277   -0.00016458
     atom   12 type  1   force =    -0.01206954    0.00559092    0.00004914
     atom   13 type  1   force =    -0.00113200   -0.00601302    0.00005649
     atom   14 type  1   force =    -0.00829879   -0.00384557   -0.00003029
     atom   15 type  1   force =     0.00023892    0.00213028   -0.00024810
     atom   16 type  2   force =    -0.01222683    0.00831414    0.00008180
     atom   17 type  2   force =     0.01045343    0.00534643    0.00014258
     atom   18 type  1   force =     0.00109161   -0.00442597    0.00040817
     atom   19 type  1   force =    -0.00003939   -0.00258558   -0.00025728
     atom   20 type  1   force =     0.00030776   -0.00147676   -0.00012965
     atom   21 type  1   force =    -0.00401125    0.00098647   -0.00022426
     atom   22 type  2   force =     0.00086034    0.00394334    0.00045531
     atom   23 type  2   force =    -0.00056415   -0.00034391    0.00002529
     atom   24 type  1   force =    -0.00201667    0.00245807   -0.00004708
     atom   25 type  1   force =     0.01208471    0.00599543    0.00007132
     atom   26 type  1   force =    -0.00118563   -0.00364699    0.00002432
     atom   27 type  3   force =     0.00001592   -0.00017593   -0.00003538
     atom   28 type  3   force =    -0.00004562   -0.00009432   -0.00015728
     atom   29 type  3   force =     0.00010158   -0.00002067    0.00009483
     atom   30 type  3   force =     0.00011038   -0.00004931    0.00009414
     atom   31 type  1   force =     0.00008210    0.00044895   -0.00033134
     atom   32 type  3   force =     0.00034167    0.00065518    0.00040692

     Total force =     0.001844     Total SCF correction =     0.000187
     SCF correction compared to forces is large: reduce conv_thr to get better values

     bfgs converged in  11 scf cycles and  10 bfgs steps
     (criteria: energy < 0.10E-03, force < 0.10E-02)

     End of BFGS Geometry Optimization

     Final energy   =   -2281.7630613631 Ry
Begin final coordinates

ATOMIC_POSITIONS (crystal)
O0       0.000000000   0.000000000   0.377480838    0   0   1
O0       0.000000000   0.500000000   0.401504851    0   0   1
Pt1      0.250000000   0.500000000   0.451114671    0   0   1
Pt1      0.000000000   0.000000000   0.452488087    0   0   1
O0       0.250000000   0.810000000   0.442936626    0   0   1
O0       0.250000000   0.190000000   0.460167673    0   0   1
O0       0.000000000   0.500000000   0.496812542    0   0   1
O0       0.000000000   0.000000000   0.529406917    0   0   1
Pt1      0.250000000   0.000000000   0.575666325    0   0   1
Pt1      0.000000000   0.500000000   0.574654385    0   0   1
O0       0.250000000   0.690000000   0.568423711    0   0   1
O0       0.250000000   0.310000000   0.585196429    0   0   1
O0       0.000000000   0.000000000   0.620993084    0   0   1
O0       0.500000000   0.000000000   0.377546232    0   0   1
O0       0.500000000   0.500000000   0.401040826    0   0   1
Pt1      0.750000000   0.500000000   0.451116237    0   0   1
Pt1      0.500000000   0.000000000   0.452525229    0   0   1
O0       0.750000000   0.810000000   0.442976417    0   0   1
O0       0.750000000   0.190000000   0.460156459    0   0   1
O0       0.500000000   0.500000000   0.497483384    0   0   1
O0       0.500000000   0.000000000   0.529417682    0   0   1
Pt1      0.750000000   0.000000000   0.575662587    0   0   1
Pt1      0.500000000   0.500000000   0.576306444    0   0   1
O0       0.750000000   0.690000000   0.568442006    0   0   1
O0       0.750000000   0.310000000   0.585054116    0   0   1
O0       0.500000000   0.000000000   0.621060985    0   0   1
H2       0.000050249   0.640295898   0.385999682
H2       0.500081898   0.640583769   0.385715198
H2       0.143319119   0.034081746   0.367446771
H2       0.643209689   0.034497084   0.367494914
O0       0.499300248   0.527415387   0.649832450
H2       0.491771335   0.384461481   0.662496243
End final coordinates

     General routines

     Parallel routines
     Hubbard U routines

   This run was terminated on:  13:36:41  28Apr2014

   JOB DONE.
Running PBS batch system epilogue script
Job id: 340487.audhumbla.fysik.dtu.dk
Username: zhonxu
Groupname: campgst
Jobname: PtO2/Eads-2-layers/OH-U-1.5
Sessionid: 28896
Queuename: verylong
Accounting:
This job has allocated the following 16 nodes:
d081 d081 d081 d081 d081 d081 d081 d081 d068 d068 d068 d068 d068 d068 d068 d068
Finished epilogue job 340487.audhumbla.fysik.dtu.dk for zhonxu