     Program PWSCF v.5.0.2 (svn rev. 9656) starts on  1May2014 at  6:21:15

     Current dimensions of program PWSCF are:
     Max number of different atomic species (ntypx) = 10
     Max number of k-points (npk) =  40000
     Max angular momentum in pseudopotentials (lmaxx) =  3
     Reading input from pwscf.in
Warning: card &CELL ignored
Warning: card / ignored

     Subspace diagonalization in iterative solution of the eigenvalue problem:
     a serial algorithm will be used

     bravais-lattice index     =            0
     lattice parameter (alat)  =      11.7919  a.u.
     unit-cell volume          =    7123.6633 (a.u.)^3
     number of atoms/cell      =           33
     number of atomic types    =            3
     number of electrons       =       253.00
     number of Kohn-Sham states=          367
     kinetic-energy cutoff     =      40.0000  Ry
     charge density cutoff     =     500.0000  Ry
     convergence threshold     =      1.0E-06
     mixing beta               =       0.3000
     number of iterations used =            8  plain     mixing
     Exchange-correlation      = SLA  PW   PBE  PBE ( 1 4 3 4 0)
     EXX-fraction              =        0.00
     nstep                     =           50

     celldm(1)=  11.791891  celldm(2)=   0.000000  celldm(3)=   0.000000
     celldm(4)=   0.000000  celldm(5)=   0.000000  celldm(6)=   0.000000

     crystal axes: (cart. coord. in units of alat)
               a(1) = (   1.000000   0.000000   0.000000 )
               a(2) = (   0.000000   1.026665   0.000000 )
               a(3) = (   0.000000   0.000000   4.231793 )

     reciprocal axes: (cart. coord. in units 2 pi/alat)
               b(1) = (  1.000000  0.000000  0.000000 )
               b(2) = (  0.000000  0.974028  0.000000 )
               b(3) = (  0.000000  0.000000  0.236306 )

     PseudoPot. # 1 for O  read from file:
     /home/camp/zhonxu/pseudo/o_pbe_v1.01.uspp.F.UPF
     MD5 check sum: 2bcb18d16ea4b960afae9ec6d52f22d2
     Pseudo is Ultrasoft + core correction, Zval =  6.0
     Generated by new atomic code, or converted to UPF format
     Using radial grid of  737 points,  5 beta functions with:
                l(1) =   0
                l(2) =   0
                l(3) =   1
                l(4) =   1
                l(5) =   2
     Q(r) pseudized with  8 coefficients,  rinner =    0.900   0.900   0.900
                                                       0.900   0.900

     PseudoPot. # 2 for Ru read from file:
     /home/camp/zhonxu/pseudo/ru_pbe_v1.uspp.F.UPF
     MD5 check sum: df00be1c11b23341d9806d8f1dfa10cf
     Pseudo is Ultrasoft + core correction, Zval = 16.0
     Generated by new atomic code, or converted to UPF format
     Using radial grid of  967 points,  6 beta functions with:
                l(1) =   0
                l(2) =   0
                l(3) =   1
                l(4) =   1
                l(5) =   2
                l(6) =   2
     Q(r) pseudized with  8 coefficients,  rinner =    1.300   1.300   1.300
                                                       1.300   1.300

     PseudoPot. # 3 for H  read from file:
     /home/camp/zhonxu/pseudo/h_pbe_v1.uspp.F.UPF
     MD5 check sum: 3408e3ff4ec8b0a4e358431e7e038a48
     Pseudo is Ultrasoft, Zval =  1.0
     Generated by new atomic code, or converted to UPF format
     Using radial grid of  615 points,  2 beta functions with:
                l(1) =   0
                l(2) =   0
     Q(r) pseudized with  8 coefficients,  rinner =    0.700

     atomic species   valence    mass     pseudopotential
        O0             6.00    15.99940     O ( 1.00)
        Ru1           16.00   101.07000     Ru( 1.00)
        H2             1.00     1.00794     H ( 1.00)

     No symmetry found

   Cartesian axes

     site n.     atom                  positions (alat units)
         1           O0  tau(   1) = (   0.0000000   0.0000000   1.6080390  )
         2           O0  tau(   2) = (   0.0000000   0.5133323   1.7023233  )
         3           Ru1 tau(   3) = (   0.2500000   0.5133323   1.9175523  )
         4           Ru1 tau(   4) = (   0.0000000   0.0000000   1.9215302  )
         5           O0  tau(   5) = (   0.2500000   0.8315984   1.9195836  )
         6           O0  tau(   6) = (   0.2500000   0.1950663   1.9193297  )
         7           O0  tau(   7) = (   0.0000000   0.5133323   2.1106490  )
         8           O0  tau(   8) = (   0.0000000   0.0000000   2.2345136  )
         9           Ru1 tau(   9) = (   0.2500000   0.0000000   2.4487269  )
        10           Ru1 tau(  10) = (   0.0000000   0.5133323   2.4113179  )
        11           O0  tau(  11) = (   0.2500000   0.7083986   2.4387399  )
        12           O0  tau(  12) = (   0.2500000   0.3182660   2.4402210  )
        13           O0  tau(  13) = (   0.0000000   0.0000000   2.6238385  )
        14           O0  tau(  14) = (   0.5000000   0.0000000   1.6080390  )
        15           O0  tau(  15) = (   0.5000000   0.5133323   1.7023233  )
        16           Ru1 tau(  16) = (   0.7500000   0.5133323   1.9175523  )
        17           Ru1 tau(  17) = (   0.5000000   0.0000000   1.9215302  )
        18           O0  tau(  18) = (   0.7500000   0.8315984   1.9195836  )
        19           O0  tau(  19) = (   0.7500000   0.1950663   1.9193297  )
        20           O0  tau(  20) = (   0.5000000   0.5133323   2.1106490  )
        21           O0  tau(  21) = (   0.5000000   0.0000000   2.2345136  )
        22           Ru1 tau(  22) = (   0.7500000   0.0000000   2.4487269  )
        23           Ru1 tau(  23) = (   0.5000000   0.5133323   2.4113179  )
        24           O0  tau(  24) = (   0.7500000   0.7083986   2.4387399  )
        25           O0  tau(  25) = (   0.7500000   0.3182660   2.4401787  )
        26           O0  tau(  26) = (   0.5000000   0.0000000   2.6238385  )
        27           H2  tau(  27) = (  -0.0004100   0.6466653   1.6162063  )
        28           H2  tau(  28) = (   0.4995900   0.6466653   1.6162063  )
        29           H2  tau(  29) = (   0.1464700   0.0296706   1.5559879  )
        30           H2  tau(  30) = (   0.6464700   0.0296706   1.5559879  )
        31           O0  tau(  31) = (   0.5000000   0.5133323   2.7317916  )
        32           O0  tau(  32) = (   0.5000000   0.3266334   2.8417335  )
        33           H2  tau(  33) = (   0.5000000   0.3740858   2.9935280  )

     number of k points=    10  Methfessel-Paxton smearing, width (Ry)=  0.0100
                       cart. coord. in units 2pi/alat
        k(    1) = (   0.0000000   0.0000000   0.0000000), wk =   0.1250000
        k(    2) = (   0.0000000   0.2435070   0.0000000), wk =   0.2500000
        k(    3) = (   0.0000000  -0.4870139   0.0000000), wk =   0.1250000
        k(    4) = (   0.2500000   0.0000000   0.0000000), wk =   0.2500000
        k(    5) = (   0.2500000   0.2435070   0.0000000), wk =   0.2500000
        k(    6) = (   0.2500000  -0.4870139   0.0000000), wk =   0.2500000
        k(    7) = (  -0.5000000   0.0000000   0.0000000), wk =   0.1250000
        k(    8) = (  -0.5000000   0.2435070   0.0000000), wk =   0.2500000
        k(    9) = (  -0.5000000  -0.4870139   0.0000000), wk =   0.1250000
        k(   10) = (  -0.2500000   0.2435070   0.0000000), wk =   0.2500000

     Largest allocated arrays     est. size (Mb)     dimensions
     Largest temporary arrays     est. size (Mb)     dimensions

     Check: negative/imaginary core charge=   -0.000003    0.000000

     Initial potential from superposition of free atoms
     Check: negative starting charge=   -0.521993

     starting charge  244.99980, renormalised to  253.00000

     negative rho (up, down):  0.539E+00 0.000E+00
     Starting wfc are  189 randomized atomic wfcs

     Self-consistent Calculation

     iteration #  1     ecut=    40.00 Ry     beta=0.30
     Davidson diagonalization with overlap
     ethr =  1.00E-02,  avg # of iterations =  5.9

     negative rho (up, down):  0.570E+00 0.000E+00

     total energy              =   -2192.28541589 Ry
     Harris-Foulkes estimate   =   -2200.06638963 Ry
     estimated scf accuracy    <      16.64313498 Ry

[...]

     End of self-consistent calculation

          k = 0.0000 0.0000 0.0000 ( 30363 PWs)   bands (ev):

   -74.2624 -74.2518 -74.0973 -73.9856 -73.9751 -73.8139 -73.6846 -73.6746
   -44.4082 -44.3518 -44.2348 -44.2246 -44.2195 -44.2157 -44.2010 -44.1388
   -44.1202 -44.1118 -44.0650 -43.9656 -43.8690 -43.8379 -43.8070 -43.8007
   -43.7711 -43.7598 -43.7536 -43.6948 -43.6128 -43.5704 -43.5421 -43.5233
   -24.4988 -20.5986 -20.0794 -20.0606 -19.8839 -19.8356 -19.6777 -19.3921
   -19.1676 -19.1181 -19.0872 -19.0823 -19.0640 -19.0264 -18.7531 -18.5831
   -18.5573 -18.5047 -18.3343 -16.5456  -9.0533  -8.7192  -8.5979  -8.5606
    -7.9101  -7.7698  -7.7466  -7.5881  -7.5357  -7.2762  -7.2457  -7.2157
    -7.1924  -7.1540  -7.1285  -7.0419  -7.0080  -6.8933  -6.7411  -6.6644
    -6.5741  -6.3943  -6.2971  -6.1964  -6.0087  -5.9299  -5.4014  -5.3171
    -5.1575  -5.0615  -5.0272  -4.9745  -4.6400  -4.6121  -4.5059  -4.4355
    -4.3910  -4.3651  -4.2967  -4.2303  -4.1167  -4.0622  -3.9179  -3.8343
    -3.7917  -3.6967  -3.6402  -3.4685  -3.4649  -3.3677  -3.2326  -3.1324
    -3.0266  -2.7869  -2.7377  -2.7215  -2.4224  -2.2119  -1.9066  -1.7499
    -1.6714  -1.5511  -1.5160  -1.4172  -1.3026  -1.2074  -1.1141  -1.0428
    -1.0041  -0.8876  -0.8459  -0.7940  -0.6210  -0.5912  -0.5350  -0.3820
    -0.0452  -0.0133   0.2123   0.2819   0.5195   0.6320   0.8474   0.9713
     1.7530   1.8105   2.3991   2.5792   2.6897   2.7256   2.7816   3.0189
     3.3346   3.4534   3.6111   3.8185   3.9739   4.0064   4.0280   4.2360
     4.2660   4.5113   4.7947   5.2334   5.5773   6.1188   6.3122   6.6330
     6.8431   7.0880   7.3134   7.3833   7.4344   7.5074   7.6102   7.7530
     7.8431   7.9210   7.9806   8.1048   8.1500   8.3920   8.4694   8.5372
     8.6377   8.7863   8.8543   8.9667   9.0057   9.1249   9.2519   9.3166
     9.3381   9.4751   9.6007   9.6354   9.8099   9.9345   9.9781  10.0932
    10.1341  10.2576  10.3284  10.4083  10.6004  10.6312  10.8097  10.9005
    11.1456  11.1729  11.2381  11.2998  11.3493  11.4198  11.4993  11.6254
    11.6336  11.6521  11.6995  11.7825  11.8146  11.9129  12.0332  12.0461
    12.1311  12.1646  12.2575  12.3444  12.4803  12.4953  12.5445  12.6668
    12.7048  12.7223  12.7333  12.8018  12.9358  12.9687  12.9985  13.0649
    13.1454  13.2140  13.2561  13.3066  13.4232  13.4883  13.5567  13.8470
    13.9729  14.0136  14.0342  14.1499  14.1706  14.2103  14.2491  14.2780
    14.4477  14.5230  14.7136  14.8786  14.9079  14.9862  15.0038  15.1390
    15.1864  15.3495  15.4978  15.5359  15.6588  15.7231  15.9339  16.0471
    16.0576  16.0838  16.2528  16.3073  16.3262  16.3752  16.5435  16.6919
    16.8355  16.8558  16.9668  17.0681  17.2001  17.2931  17.3545  17.3938
    17.5213  17.5266  17.6253  17.6945  17.6988  17.8074  17.8659  17.9663
    18.0970  18.1401  18.3415  18.4567  18.5810  18.6099  18.6512  18.6610
    18.7562  18.8465  18.8542  18.8648  18.9395  18.9950  19.1462  19.1687
[...]
     atom   25 type  1   force =     0.01308867   -0.01290648   -0.01780935
     atom   26 type  1   force =    -0.00150462   -0.01976985   -0.02003858
     atom   27 type  3   force =    -0.00001442   -0.00074168    0.00071415
     atom   28 type  3   force =    -0.00001156   -0.00101736   -0.00040884
     atom   29 type  3   force =     0.00030267    0.00031668    0.00017420
     atom   30 type  3   force =     0.00031871    0.00029253    0.00015198
     atom   31 type  1   force =     0.00003569    0.09875787   -0.03573197
     atom   32 type  1   force =     0.00001465   -0.06994250    0.04909699
     atom   33 type  3   force =    -0.00001998    0.00305789   -0.00726602

     Total force =     0.061156     Total SCF correction =     0.000092

     BFGS Geometry Optimization

     number of scf cycles    =   1
     number of bfgs steps    =   0

     energy   new            =   -2196.7101741736 Ry

     new trust radius        =       0.0490969907 bohr
     new conv_thr            =       0.0000010000 Ry

ATOMIC_POSITIONS (crystal)
O0       0.000000000   0.000000000   0.379990000    0   0   0
O0       0.000000000   0.500000000   0.402270000    0   0   0
Ru1      0.250000000   0.500000000   0.453130000    0   0   0
Ru1      0.000000000   0.000000000   0.454070000    0   0   0
O0       0.250000000   0.810000000   0.453610000    0   0   0
O0       0.250000000   0.190000000   0.453550000    0   0   0
O0       0.000000000   0.500000000   0.498760000    0   0   0
O0       0.000000000   0.000000000   0.528030000    0   0   0
Ru1      0.250000000   0.000000000   0.578650000    0   0   0
Ru1      0.000000000   0.500000000   0.569810000    0   0   0
O0       0.250000000   0.690000000   0.576290000    0   0   0
O0       0.250000000   0.310000000   0.576640000    0   0   0
O0       0.000000000   0.000000000   0.620030000    0   0   0
O0       0.500000000   0.000000000   0.379990000    0   0   0
O0       0.500000000   0.500000000   0.402270000    0   0   0
Ru1      0.750000000   0.500000000   0.453130000    0   0   0
Ru1      0.500000000   0.000000000   0.454070000    0   0   0
O0       0.750000000   0.810000000   0.453610000    0   0   0
O0       0.750000000   0.190000000   0.453550000    0   0   0
O0       0.500000000   0.500000000   0.498760000    0   0   0
O0       0.500000000   0.000000000   0.528030000    0   0   0
Ru1      0.750000000   0.000000000   0.578650000    0   0   0
Ru1      0.500000000   0.500000000   0.569810000    0   0   0
O0       0.750000000   0.690000000   0.576290000    0   0   0
O0       0.750000000   0.310000000   0.576630000    0   0   0
O0       0.500000000   0.000000000   0.620030000    0   0   0
H2      -0.000410000   0.629870000   0.381920000    0   0   0
H2       0.499590000   0.629870000   0.381920000    0   0   0
H2       0.146470000   0.028900000   0.367690000    0   0   0
H2       0.646470000   0.028900000   0.367690000    0   0   0
O0       0.500003027   0.500000000   0.644823941    1   0   1
O0       0.500001243   0.318150000   0.672503891    1   0   1
H2       0.499998306   0.364370000   0.707244391    1   0   1

     Check: negative starting charge=   -0.521993
     NEW-OLD atomic charge density approx. for the potential

     Check: negative/imaginary core charge=   -0.000003    0.000000
     Check: negative starting charge=   -0.521988

[...]

     energy   old            =   -2196.7101741736 Ry
     energy   new            =   -2196.7114298001 Ry

     CASE: energy  _new < energy  _old

[...]

     Threshold (ethr) on eigenvalues was too large:
     Diagonalizing with lowered threshold

     Davidson diagonalization with overlap
     ethr =  3.50E-08,  avg # of iterations =  1.0

[...]

     Total force =     0.001504     Total SCF correction =     0.000036

     number of scf cycles    =   9
     number of bfgs steps    =   8

     energy   old            =   -2196.7129193273 Ry
     energy   new            =   -2196.7129285612 Ry

     CASE: energy  _new < energy  _old

     new trust radius        =       0.0019271919 bohr
     new conv_thr            =       0.0000000100 Ry

ATOMIC_POSITIONS (crystal)
O0       0.000000000   0.000000000   0.379990000    0   0   0
O0       0.000000000   0.500000000   0.402270000    0   0   0
Ru1      0.250000000   0.500000000   0.453130000    0   0   0
Ru1      0.000000000   0.000000000   0.454070000    0   0   0
O0       0.250000000   0.810000000   0.453610000    0   0   0
O0       0.250000000   0.190000000   0.453550000    0   0   0
O0       0.000000000   0.500000000   0.498760000    0   0   0
O0       0.000000000   0.000000000   0.528030000    0   0   0
Ru1      0.250000000   0.000000000   0.578650000    0   0   0
Ru1      0.000000000   0.500000000   0.569810000    0   0   0
O0       0.250000000   0.690000000   0.576290000    0   0   0
O0       0.250000000   0.310000000   0.576640000    0   0   0
O0       0.000000000   0.000000000   0.620030000    0   0   0
O0       0.500000000   0.000000000   0.379990000    0   0   0
O0       0.500000000   0.500000000   0.402270000    0   0   0
Ru1      0.750000000   0.500000000   0.453130000    0   0   0
Ru1      0.500000000   0.000000000   0.454070000    0   0   0
O0       0.750000000   0.810000000   0.453610000    0   0   0
O0       0.750000000   0.190000000   0.453550000    0   0   0
O0       0.500000000   0.500000000   0.498760000    0   0   0
O0       0.500000000   0.000000000   0.528030000    0   0   0
Ru1      0.750000000   0.000000000   0.578650000    0   0   0
Ru1      0.500000000   0.500000000   0.569810000    0   0   0
O0       0.750000000   0.690000000   0.576290000    0   0   0
O0       0.750000000   0.310000000   0.576630000    0   0   0
O0       0.500000000   0.000000000   0.620030000    0   0   0
H2      -0.000410000   0.629870000   0.381920000    0   0   0
H2       0.499590000   0.629870000   0.381920000    0   0   0
H2       0.146470000   0.028900000   0.367690000    0   0   0
H2       0.646470000   0.028900000   0.367690000    0   0   0
O0       0.500069377   0.500000000   0.645652337    1   0   1
O0       0.499987715   0.318150000   0.674257462    1   0   1
H2       0.499962844   0.364370000   0.709829803    1   0   1

     Check: negative starting charge=   -0.521988
     NEW-OLD atomic charge density approx. for the potential

     Check: negative/imaginary core charge=   -0.000003    0.000000
     Check: negative starting charge=   -0.521988

[...]

     Self-consistent Calculation

[...]

     Threshold (ethr) on eigenvalues was too large:
     Diagonalizing with lowered threshold

     Davidson diagonalization with overlap
     ethr =  5.48E-09,  avg # of iterations =  1.0

[...]

     total energy              =   -2196.71293015 Ry
     Harris-Foulkes estimate   =   -2196.71293016 Ry
     estimated scf accuracy    <       0.00000001 Ry

     iteration # 12     ecut=    40.00 Ry     beta=0.30
     Davidson diagonalization with overlap
     ethr =  5.69E-12,  avg # of iterations =  1.0

     negative rho (up, down):  0.580E+00 0.000E+00

     End of self-consistent calculation

[...]

          k = 0.2500-0.4870 0.0000 ( 30468 PWs)   bands (ev):

[...]

          k =-0.2500 0.2435 0.0000 ( 30434 PWs)   bands (ev):

   -74.3085 -74.3009 -74.1463 -74.0272 -74.0198 -73.8605 -73.7274 -73.7203
   -44.4284 -44.3986 -44.2985 -44.2782 -44.2705 -44.2566 -44.2461 -44.1823
   -44.1637 -44.1508 -44.1110 -43.9867 -43.8999 -43.8803 -43.8678 -43.8577
   -43.8282 -43.8096 -43.8033 -43.7143 -43.6599 -43.6112 -43.5965 -43.5873
   -23.8236 -20.5056 -20.0870 -19.9904 -19.9298 -19.7951 -19.6921 -19.3647
   -19.3584 -19.2923 -19.1577 -19.0880 -19.0195 -18.9452 -18.8008 -18.7917
   -18.7593 -18.6732 -18.4467 -16.6455  -8.9074  -8.5622  -8.0957  -8.0858
    -8.0334  -7.7061  -7.6876  -7.5802  -7.4977  -7.4661  -7.3596  -7.2209
    -7.2046  -7.1442  -7.0930  -6.9487  -6.9284  -6.8470  -6.7798  -6.5680
    -6.3025  -6.2717  -6.2151  -6.0921  -5.9949  -5.8403  -5.5023  -5.4721
    -5.2719  -5.2070  -5.0648  -5.0455  -4.9844  -4.9059  -4.8507  -4.8095
    -4.7345  -4.5649  -4.5483  -4.4423  -4.4261  -4.3040  -4.2657  -4.0954
    -3.9960  -3.8079  -3.7510  -3.6698  -3.6358  -3.5215  -3.4161  -3.3265
    -3.0806  -3.0552  -2.7698  -2.6635  -2.4145  -2.3104  -1.8466  -1.6819
    -1.4702  -1.3598  -1.2349  -1.1757  -1.1238  -1.0102  -0.9523  -0.9219
    -0.8894  -0.8619  -0.7680  -0.7196  -0.6782  -0.5560  -0.4060  -0.2063
    -0.0972  -0.0024   0.1131   0.1810   0.3417   0.4297   0.6015   1.1175
     1.8294   1.9540   2.0362   2.1212   2.5622   2.9202   2.9965   3.2390
     3.4009   3.5251   3.5753   3.6484   3.7656   3.9323   4.0302   4.2477
     4.4153   4.7112   5.1035   5.2848   5.7441   5.8230   6.1580   6.1827
     6.2565   6.5431   6.6120   6.7611   6.8953   7.1348   7.1798   7.4915
     7.6471   7.7762   7.9554   8.0755   8.1628   8.4264   8.4829   8.5874
     8.6509   8.7078   8.9253   9.0368   9.1178   9.2398   9.3598   9.4092
     9.5914   9.6859   9.7068   9.8681  10.0450  10.1048  10.1858  10.2371
    10.2982  10.4420  10.5053  10.6156  10.6683  10.7992  10.8500  10.9349
    10.9983  11.1385  11.2587  11.3308  11.3948  11.5566  11.6092  11.7139
    11.7667  11.8767  11.9394  12.0300  12.0768  12.1070  12.2088  12.2560
    12.3768  12.4561  12.5105  12.5986  12.6625  12.7560  12.8288  12.8735
    12.9076  12.9895  13.0564  13.1197  13.2637  13.3103  13.3896  13.4426
    13.5356  13.6642  13.7442  13.8375  13.9360  13.9933  14.0265  14.1813
    14.2251  14.2597  14.3944  14.4396  14.6050  14.6604  14.7224  14.7841
    14.8226  14.9271  14.9661  15.0518  15.1455  15.1775  15.2839  15.3174
    15.4188  15.4486  15.5785  15.6271  15.7156  15.7887  15.8751  15.9111
    15.9573  15.9831  16.0483  16.1501  16.1924  16.2220  16.2752  16.3376
    16.3758  16.4591  16.5896  16.6165  16.6969  16.7389  16.7871  16.8904
    16.9432  17.0039  17.0574  17.1415  17.2540  17.3339  17.3691  17.4798
    17.5142  17.5690  17.5868  17.6896  17.7468  17.7666  17.8167  17.9196
    17.9762  18.0024  18.0765  18.1084  18.1923  18.2277  18.3309  18.3474
    18.4675  18.5126  18.6189  18.6808  18.8039  18.8712  18.9165  18.9695
    19.0877  19.1581  19.1873  19.3187  19.3227  19.4259  19.5001  19.5780
    19.6285  19.7038  19.7704  19.8388  19.9263  19.9637  20.0394  20.1416
    20.1844  20.2740  20.3476  20.4648  20.5266  20.6008  20.6390  20.7397
    20.8657  20.9187  20.9743  21.0078  21.0500  21.0974  21.1484  21.2840
    21.3132  21.3574  21.4270  21.4644  21.4885  21.5574  21.6184  21.6584
    21.7377  21.8447  21.8991  21.9431  21.9752  22.0420  22.0966  22.1409
    22.2005  22.2842  22.3429  22.4345  22.4910  22.5164  22.6156

     the Fermi energy is    -0.3789 ev

!    total energy              =   -2196.71293015 Ry
     Harris-Foulkes estimate   =   -2196.71293016 Ry
     estimated scf accuracy    <          2.8E-09 Ry

     The total energy is the sum of the following terms:

     one-electron contribution =  -25681.79944255 Ry
     hartree contribution      =   12868.87674164 Ry
     xc contribution           =    -345.49598996 Ry
     ewald contribution        =   10961.70644136 Ry
     smearing contrib. (-TS)   =      -0.00068064 Ry

     convergence has been achieved in  12 iterations

     Forces acting on atoms (Ry/au):

     negative rho (up, down):  0.580E+00 0.000E+00
     atom    1 type  1   force =    -0.00540788   -0.01173867   -0.00095777
     atom    2 type  1   force =    -0.00013587    0.01192489    0.00601249
     atom    3 type  2   force =     0.00914261   -0.00691959   -0.00753878
     atom    4 type  2   force =     0.00406964    0.00587496    0.00087816
     atom    5 type  1   force =     0.00186151   -0.02575444   -0.00138299
     atom    6 type  1   force =    -0.00052680    0.02680104   -0.00158583
     atom    7 type  1   force =     0.00016468   -0.00041089   -0.00353056
     atom    8 type  1   force =    -0.00031742   -0.00256346   -0.00143524
     atom    9 type  2   force =     0.00830675    0.00282614    0.00534566
     atom   10 type  2   force =     0.00005005    0.00265226   -0.00205662
     atom   11 type  1   force =    -0.01230817    0.00958551   -0.01689512
     atom   12 type  1   force =    -0.01364814   -0.01271298   -0.01879571
     atom   13 type  1   force =    -0.00161963   -0.00077406   -0.00087721
     atom   14 type  1   force =    -0.00541790   -0.01207809   -0.00107649
     atom   15 type  1   force =    -0.00016015    0.01142437    0.00106837
     atom   16 type  2   force =    -0.00979708   -0.00701014   -0.00748988
     atom   17 type  2   force =     0.00400569    0.00728355    0.00256919
     atom   18 type  1   force =     0.00146264   -0.02583107   -0.00134560
     atom   19 type  1   force =     0.00161064    0.02682291   -0.00157613
     atom   20 type  1   force =     0.00018885    0.00522899   -0.01138515
     atom   21 type  1   force =    -0.00025366   -0.00166656   -0.00122395
     atom   22 type  2   force =    -0.00643547    0.00328457    0.00552054
     atom   23 type  2   force =     0.00013108   -0.01876168    0.11321269
     atom   24 type  1   force =     0.01221371    0.00937467   -0.01701449
     atom   25 type  1   force =     0.01377206   -0.01281259   -0.01887486
     atom   26 type  1   force =    -0.00152561   -0.01687475   -0.01995773
     atom   27 type  3   force =    -0.00001843   -0.00074042    0.00068064
     atom   28 type  3   force =    -0.00001370   -0.00102859   -0.00045279
     atom   29 type  3   force =     0.00028526    0.00031609    0.00014253
     atom   30 type  3   force =     0.00032793    0.00028891    0.00011669
     atom   31 type  1   force =     0.00005033    0.06328181    0.00003167
     atom   32 type  1   force =    -0.00004963   -0.05024689   -0.00000077
     atom   33 type  3   force =    -0.00000788    0.02095422   -0.00012497

     Total force =     0.000147     Total SCF correction =     0.000048
     SCF correction compared to forces is large: reduce conv_thr to get better values

     bfgs converged in  10 scf cycles and   9 bfgs steps
     (criteria: energy < 0.10E-03, force < 0.10E-02)

     End of BFGS Geometry Optimization

     Final energy   =   -2196.7129301536 Ry
Begin final coordinates

ATOMIC_POSITIONS (crystal)
O0       0.000000000   0.000000000   0.379990000    0   0   0
O0       0.000000000   0.500000000   0.402270000    0   0   0
Ru1      0.250000000   0.500000000   0.453130000    0   0   0
Ru1      0.000000000   0.000000000   0.454070000    0   0   0
O0       0.250000000   0.810000000   0.453610000    0   0   0
O0       0.250000000   0.190000000   0.453550000    0   0   0
O0       0.000000000   0.500000000   0.498760000    0   0   0
O0       0.000000000   0.000000000   0.528030000    0   0   0
Ru1      0.250000000   0.000000000   0.578650000    0   0   0
Ru1      0.000000000   0.500000000   0.569810000    0   0   0
O0       0.250000000   0.690000000   0.576290000    0   0   0
O0       0.250000000   0.310000000   0.576640000    0   0   0
O0       0.000000000   0.000000000   0.620030000    0   0   0
O0       0.500000000   0.000000000   0.379990000    0   0   0
O0       0.500000000   0.500000000   0.402270000    0   0   0
Ru1      0.750000000   0.500000000   0.453130000    0   0   0
Ru1      0.500000000   0.000000000   0.454070000    0   0   0
O0       0.750000000   0.810000000   0.453610000    0   0   0
O0       0.750000000   0.190000000   0.453550000    0   0   0
O0       0.500000000   0.500000000   0.498760000    0   0   0
O0       0.500000000   0.000000000   0.528030000    0   0   0
Ru1      0.750000000   0.000000000   0.578650000    0   0   0
Ru1      0.500000000   0.500000000   0.569810000    0   0   0
O0       0.750000000   0.690000000   0.576290000    0   0   0
O0       0.750000000   0.310000000   0.576630000    0   0   0
O0       0.500000000   0.000000000   0.620030000    0   0   0
H2      -0.000410000   0.629870000   0.381920000    0   0   0
H2       0.499590000   0.629870000   0.381920000    0   0   0
H2       0.146470000   0.028900000   0.367690000    0   0   0
H2       0.646470000   0.028900000   0.367690000    0   0   0
O0       0.500069377   0.500000000   0.645652337    1   0   1
O0       0.499987715   0.318150000   0.674257462    1   0   1
H2       0.499962844   0.364370000   0.709829803    1   0   1
End final coordinates

     General routines

     Parallel routines

   This run was terminated on:  15:22:51   1May2014

   JOB DONE.
Running PBS batch system epilogue script
Job id: 344752.audhumbla.fysik.dtu.dk
Username: zhonxu
Groupname: campgst
Jobname: RuO2/Eads-2-layers/OOH
Sessionid: 26072
Queuename: verylong
Accounting:
This job has allocated the following 16 nodes:
a080 a080 a080 a080 a080 a080 a080 a080 a078 a078 a078 a078 a078 a078 a078 a078
Finished epilogue job 344752.audhumbla.fysik.dtu.dk for zhonxu