     Program PWSCF v.5.0.2 (svn rev. 9656) starts on  5Jun2014 at 19:59:27

     Current dimensions of program PWSCF are:
     Max number of different atomic species (ntypx) = 10
     Max number of k-points (npk) =  40000
     Max angular momentum in pseudopotentials (lmaxx) =  3
     Reading input from pwscf.in
Warning: card &CELL ignored
Warning: card / ignored

     Subspace diagonalization in iterative solution of the eigenvalue problem:
     a serial algorithm will be used

     bravais-lattice index     =            0
     lattice parameter (alat)  =      11.7919  a.u.
     unit-cell volume          =    7123.6633 (a.u.)^3
     number of atoms/cell      =           33
     number of atomic types    =            3
     number of electrons       =       253.00
     number of Kohn-Sham states=          367
     kinetic-energy cutoff     =      40.0000  Ry
     charge density cutoff     =     500.0000  Ry
     convergence threshold     =      1.0E-06
     mixing beta               =       0.3000
     number of iterations used =            8  plain     mixing
     Exchange-correlation      = SLA  PW   PBE  PBE ( 1 4 3 4 0)
     EXX-fraction              =        0.00
     nstep                     =           50

     celldm(1)=  11.791891  celldm(2)=   0.000000  celldm(3)=   0.000000
     celldm(4)=   0.000000  celldm(5)=   0.000000  celldm(6)=   0.000000

     crystal axes: (cart. coord. in units of alat)
               a(1) = (   1.000000   0.000000   0.000000 )
               a(2) = (   0.000000   1.026665   0.000000 )
               a(3) = (   0.000000   0.000000   4.231793 )

     reciprocal axes: (cart. coord. in units 2 pi/alat)
               b(1) = (  1.000000  0.000000  0.000000 )
               b(2) = (  0.000000  0.974028  0.000000 )
               b(3) = (  0.000000  0.000000  0.236306 )

     PseudoPot. # 1 for O  read from file:
     /home/camp/zhonxu/pseudo/o_pbe_v1.01.uspp.F.UPF
     MD5 check sum: 2bcb18d16ea4b960afae9ec6d52f22d2
     Pseudo is Ultrasoft + core correction, Zval =  6.0
     Generated by new atomic code, or converted to UPF format
     Using radial grid of  737 points,  5 beta functions with:
                l(1) =   0
                l(2) =   0
                l(3) =   1
                l(4) =   1
                l(5) =   2
     Q(r) pseudized with  8 coefficients,  rinner =    0.900   0.900   0.900
                                                       0.900   0.900

     PseudoPot. # 2 for Ru read from file:
     /home/camp/zhonxu/pseudo/ru_pbe_v1.uspp.F.UPF
     MD5 check sum: df00be1c11b23341d9806d8f1dfa10cf
     Pseudo is Ultrasoft + core correction, Zval = 16.0
     Generated by new atomic code, or converted to UPF format
     Using radial grid of  967 points,  6 beta functions with:
                l(1) =   0
                l(2) =   0
                l(3) =   1
                l(4) =   1
                l(5) =   2
                l(6) =   2
     Q(r) pseudized with  8 coefficients,  rinner =    1.300   1.300   1.300
                                                       1.300   1.300

     PseudoPot. # 3 for H  read from file:
     /home/camp/zhonxu/pseudo/h_pbe_v1.uspp.F.UPF
     MD5 check sum: 3408e3ff4ec8b0a4e358431e7e038a48
     Pseudo is Ultrasoft, Zval =  1.0
     Generated by new atomic code, or converted to UPF format
     Using radial grid of  615 points,  2 beta functions with:
                l(1) =   0
                l(2) =   0
     Q(r) pseudized with  8 coefficients,  rinner =    0.700

     atomic species   valence    mass     pseudopotential
        O0             6.00    15.99940     O ( 1.00)
        Ru1           16.00   101.07000     Ru( 1.00)
        H2             1.00     1.00794     H ( 1.00)

     Simplified LDA+U calculation (l_max = 2) with parameters (eV):
     atomic species    L          U    alpha       J0     beta
        Ru1            2     2.0000   0.0000   0.0000   0.0000

     No symmetry found

   Cartesian axes

     site n.     atom                  positions (alat units)
         1           O0  tau(   1) = (   0.0000000   0.0000000   1.5976288  )
         2           O0  tau(   2) = (   0.0000000   0.5133323   1.7135376  )
         3           Ru1 tau(   3) = (   0.2500000   0.5133323   1.9265237  )
         4           Ru1 tau(   4) = (   0.0000000   0.0000000   1.9104429  )
         5           O0  tau(   5) = (   0.2500000   0.8315984   1.9133628  )
         6           O0  tau(   6) = (   0.2500000   0.1950663   1.9137014  )
         7           O0  tau(   7) = (   0.0000000   0.5133323   2.1143307  )
         8           O0  tau(   8) = (   0.0000000   0.0000000   2.2232570  )
         9           Ru1 tau(   9) = (   0.2500000   0.0000000   2.4362008  )
        10           Ru1 tau(  10) = (   0.0000000   0.5133323   2.4139839  )
        11           O0  tau(  11) = (   0.2500000   0.7083986   2.4352275  )
        12           O0  tau(  12) = (   0.2500000   0.3182660   2.4428024  )
        13           O0  tau(  13) = (   0.0000000   0.0000000   2.6141054  )
        14           O0  tau(  14) = (   0.5000000   0.0000000   1.5980943  )
        15           O0  tau(  15) = (   0.5000000   0.5133323   1.7110408  )
        16           Ru1 tau(  16) = (   0.7500000   0.5133323   1.9265660  )
        17           Ru1 tau(  17) = (   0.5000000   0.0000000   1.9113316  )
        18           O0  tau(  18) = (   0.7500000   0.8315984   1.9134475  )
        19           O0  tau(  19) = (   0.7500000   0.1950663   1.9137014  )
        20           O0  tau(  20) = (   0.5000000   0.5133323   2.1248255  )
        21           O0  tau(  21) = (   0.5000000   0.0000000   2.2236379  )
        22           Ru1 tau(  22) = (   0.7500000   0.0000000   2.4362855  )
        23           Ru1 tau(  23) = (   0.5000000   0.5133323   2.4472458  )
        24           O0  tau(  24) = (   0.7500000   0.7083986   2.4352698  )
        25           O0  tau(  25) = (   0.7500000   0.3182660   2.4426755  )
        26           O0  tau(  26) = (   0.5000000   0.0000000   2.6042453  )
        27           H2  tau(  27) = (  -0.0003700   0.6408749   1.6195494  )
        28           H2  tau(  28) = (   0.4997300   0.6446633   1.6222578  )
        29           H2  tau(  29) = (   0.1462300   0.0299786   1.5449853  )
        30           H2  tau(  30) = (   0.6457400   0.0313441   1.5450699  )
        31           O0  tau(  31) = (   0.5000700   0.5415759   2.7547279  )
        32           O0  tau(  32) = (   0.4999900   0.3417972   2.8749108  )
        33           H2  tau(  33) = (   0.4999600   0.4009947   3.0215847  )

     number of k points=    10  Methfessel-Paxton smearing, width (Ry)=  0.0100
                       cart. coord. in units 2pi/alat
        k(    1) = (   0.0000000   0.0000000   0.0000000), wk =   0.1250000
        k(    2) = (   0.0000000   0.2435070   0.0000000), wk =   0.2500000
        k(    3) = (   0.0000000  -0.4870139   0.0000000), wk =   0.1250000
        k(    4) = (   0.2500000   0.0000000   0.0000000), wk =   0.2500000
        k(    5) = (   0.2500000   0.2435070   0.0000000), wk =   0.2500000
        k(    6) = (   0.2500000  -0.4870139   0.0000000), wk =   0.2500000
        k(    7) = (  -0.5000000   0.0000000   0.0000000), wk =   0.1250000
        k(    8) = (  -0.5000000   0.2435070   0.0000000), wk =   0.2500000
        k(    9) = (  -0.5000000  -0.4870139   0.0000000), wk =   0.1250000
        k(   10) = (  -0.2500000   0.2435070   0.0000000), wk =   0.2500000

     Largest allocated arrays     est. size (Mb)     dimensions
     Largest temporary arrays     est. size (Mb)     dimensions

     Check: negative/imaginary core charge=   -0.000003    0.000000

     Initial potential from superposition of free atoms
     Check: negative starting charge=   -0.523679

     starting charge  244.99980, renormalised to  253.00000

     negative rho (up, down):  0.541E+00 0.000E+00
     Number of +U iterations with fixed ns =  0
     Starting occupations:
 --- enter write_ns ---
 LDA+U parameters:
U( 2)     =  2.00000000
alpha( 2) =  0.00000000
atom    3   Tr[ns(na)] =   6.00000
    eigenvalues:
  0.600  0.600  0.600  0.600  0.600
    eigenvectors:
  1.000  0.000  0.000  0.000  0.000
  0.000  1.000  0.000  0.000  0.000
  0.000  0.000  1.000  0.000  0.000
  0.000  0.000  0.000  1.000  0.000
  0.000  0.000  0.000  0.000  1.000
    occupations:
  0.600  0.000  0.000  0.000  0.000
  0.000  0.600  0.000  0.000  0.000
  0.000  0.000  0.600  0.000  0.000
  0.000  0.000  0.000  0.600  0.000
  0.000  0.000  0.000  0.000  0.600
atom    4   Tr[ns(na)] =   6.00000
    eigenvalues:
  0.600  0.600  0.600  0.600  0.600
    eigenvectors:
  1.000  0.000  0.000  0.000  0.000
  0.000  1.000  0.000  0.000  0.000
  0.000  0.000  1.000  0.000  0.000
  0.000  0.000  0.000  1.000  0.000
  0.000  0.000  0.000  0.000  1.000
    occupations:
  0.600  0.000  0.000  0.000  0.000
  0.000  0.600  0.000  0.000  0.000
  0.000  0.000  0.600  0.000  0.000
  0.000  0.000  0.000  0.600  0.000
  0.000  0.000  0.000  0.000  0.600
atom    9   Tr[ns(na)] =   6.00000
    eigenvalues:
  0.600  0.600  0.600  0.600  0.600
    eigenvectors:
  1.000  0.000  0.000  0.000  0.000
  0.000  1.000  0.000  0.000  0.000
  0.000  0.000  1.000  0.000  0.000
  0.000  0.000  0.000  1.000  0.000
  0.000  0.000  0.000  0.000  1.000
    occupations:
  0.600  0.000  0.000  0.000  0.000
  0.000  0.600  0.000  0.000  0.000
  0.000  0.000  0.600  0.000  0.000
  0.000  0.000  0.000  0.600  0.000
  0.000  0.000  0.000  0.000  0.600
atom   10   Tr[ns(na)] =   6.00000
    eigenvalues:
  0.600  0.600  0.600  0.600  0.600
    eigenvectors:
  1.000  0.000  0.000  0.000  0.000
  0.000  1.000  0.000  0.000  0.000
  0.000  0.000  1.000  0.000  0.000
  0.000  0.000  0.000  1.000  0.000
  0.000  0.000  0.000  0.000  1.000
    occupations:
  0.600  0.000  0.000  0.000  0.000
  0.000  0.600  0.000  0.000  0.000
  0.000  0.000  0.600  0.000  0.000
  0.000  0.000  0.000  0.600  0.000
  0.000  0.000  0.000  0.000  0.600
atom   16   Tr[ns(na)] =   6.00000
    eigenvalues:
  0.600  0.600  0.600  0.600  0.600
    eigenvectors:
  1.000  0.000  0.000  0.000  0.000
  0.000  1.000  0.000  0.000  0.000
  0.000  0.000  1.000  0.000  0.000
  0.000  0.000  0.000  1.000  0.000
  0.000  0.000  0.000  0.000  1.000
    occupations:
  0.600  0.000  0.000  0.000  0.000
  0.000  0.600  0.000  0.000  0.000
  0.000  0.000  0.600  0.000  0.000
  0.000  0.000  0.000  0.600  0.000
  0.000  0.000  0.000  0.000  0.600
atom   17   Tr[ns(na)] =   6.00000
    eigenvalues:
  0.600  0.600  0.600  0.600  0.600
    eigenvectors:
  1.000  0.000  0.000  0.000  0.000
  0.000  1.000  0.000  0.000  0.000
  0.000  0.000  1.000  0.000  0.000
  0.000  0.000  0.000  1.000  0.000
  0.000  0.000  0.000  0.000  1.000
    occupations:
  0.600  0.000  0.000  0.000  0.000
  0.000  0.600  0.000  0.000  0.000
  0.000  0.000  0.600  0.000  0.000
  0.000  0.000  0.000  0.600  0.000
  0.000  0.000  0.000  0.000  0.600
atom   22   Tr[ns(na)] =   6.00000
    eigenvalues:
  0.600  0.600  0.600  0.600  0.600
    eigenvectors:
  1.000  0.000  0.000  0.000  0.000
  0.000  1.000  0.000  0.000  0.000
  0.000  0.000  1.000  0.000  0.000
[...]
  0.000  0.832  0.001  0.000 -0.006
  0.002  0.001  0.726 -0.001  0.000
  0.045  0.000 -0.001  0.960 -0.000
  0.000 -0.006  0.000 -0.000  0.539
atom   16   Tr[ns(na)] =   7.19262
    eigenvalues:
  0.522  0.568  0.716  0.826  0.964
    eigenvectors:
  0.001  0.186  0.005  0.000  0.808
  0.997  0.003  0.000  0.000  0.000
  0.000  0.001  0.971  0.020  0.009
  0.002  0.811  0.004  0.000  0.183
  0.000  0.000  0.020  0.980  0.000
    occupations:
  0.889  0.005  0.022 -0.153  0.001
  0.005  0.522  0.001  0.000 -0.002
  0.022  0.001  0.720 -0.006 -0.015
 -0.153  0.000 -0.006  0.641 -0.000
  0.001 -0.002 -0.015 -0.000  0.824
atom   17   Tr[ns(na)] =   7.18311
    eigenvalues:
  0.555  0.603  0.679  0.784  0.969
    eigenvectors:
  0.001  0.989  0.000  0.000  0.011
  0.000  0.000  0.020  0.980  0.000
  0.000  0.000  0.980  0.020  0.000
  0.000  0.011  0.000  0.000  0.989
  0.999  0.001  0.000  0.000  0.000
    occupations:
  0.607 -0.000  0.000  0.037  0.001
 -0.000  0.782  0.015 -0.001 -0.001
  0.000  0.015  0.681  0.001  0.000
  0.037 -0.001  0.001  0.966  0.000
  0.001 -0.001  0.000  0.000  0.555
atom   22   Tr[ns(na)] =   7.17235
    eigenvalues:
  0.580  0.600  0.772  0.814  0.820
    eigenvectors:
  0.000  0.160  0.002  0.819  0.020
  0.998  0.001  0.000  0.000  0.000
  0.000  0.000  0.994  0.004  0.002
  0.002  0.838  0.002  0.155  0.004
  0.000  0.000  0.003  0.022  0.975
    occupations:
  0.780  0.004 -0.003 -0.078  0.001
  0.004  0.580  0.001 -0.002  0.000
 -0.003  0.001  0.772 -0.002  0.003
 -0.078 -0.002 -0.002  0.634 -0.000
  0.001  0.000  0.003 -0.000  0.820
atom   23   Tr[ns(na)] =   7.21071
    eigenvalues:
  0.551  0.590  0.714  0.803  0.947
    eigenvectors:
  0.000  0.996  0.000  0.001  0.003
  0.001  0.000  0.999  0.000  0.000
  0.000  0.000  0.000  0.999  0.000
  0.000  0.003  0.000  0.000  0.996
  0.999  0.000  0.001  0.000  0.000
    occupations:
  0.592  0.000  0.005  0.021  0.000
  0.000  0.714  0.002  0.001 -0.005
  0.005  0.002  0.803 -0.002 -0.000
  0.021  0.001 -0.002  0.946 -0.000
  0.000 -0.005 -0.000 -0.000  0.551
N of occupied +U levels =  57.5218812
 --- exit write_ns ---

     Threshold (ethr) on eigenvalues was too large:
     Diagonalizing with lowered threshold

     Davidson diagonalization with overlap
     ethr =  1.35E-08,  avg # of iterations =  2.7

[...]

     total energy              =   -2195.66405110 Ry
     Harris-Foulkes estimate   =   -2195.66405110 Ry
     estimated scf accuracy    <       0.00000001 Ry

     iteration # 16     ecut=    40.00 Ry     beta=0.30
     Davidson diagonalization with overlap
     ethr =  5.58E-12,  avg # of iterations =  1.0

     negative rho (up, down):  0.576E+00 0.000E+00

     End of self-consistent calculation
 --- enter write_ns ---
 LDA+U parameters:
U( 2)     =  2.00000000
alpha( 2) =  0.00000000
atom    3   Tr[ns(na)] =   7.19278
    eigenvalues:
  0.522  0.567  0.717  0.826  0.964
    eigenvectors:
  0.001  0.186  0.005  0.000  0.808
  0.997  0.003  0.000  0.000  0.000
  0.000  0.001  0.969  0.022  0.008
  0.002  0.810  0.004  0.000  0.183
  0.000  0.000  0.022  0.978  0.000
    occupations:
  0.889 -0.005  0.022 -0.154 -0.001
 -0.005  0.522 -0.001 -0.000 -0.002
  0.022 -0.001  0.721 -0.006  0.016
 -0.154 -0.000 -0.006  0.641 -0.000
 -0.001 -0.002  0.016 -0.000  0.823
atom    4   Tr[ns(na)] =   7.18739
    eigenvalues:
  0.555  0.602  0.674  0.791  0.971
    eigenvectors:
  0.001  0.989  0.000  0.000  0.011
  0.000  0.000  0.016  0.984  0.000
  0.000  0.000  0.984  0.016  0.000
  0.000  0.011  0.000  0.000  0.989
  0.999  0.001  0.000  0.000  0.000
    occupations:
  0.606 -0.001  0.000  0.038  0.001
 -0.001  0.789  0.015 -0.001 -0.001
  0.000  0.015  0.676  0.002  0.000
  0.038 -0.001  0.002  0.967  0.000
  0.001 -0.001  0.000  0.000  0.555
atom    9   Tr[ns(na)] =   7.17121
    eigenvalues:
  0.580  0.600  0.771  0.813  0.822
    eigenvectors:
  0.000  0.160  0.004  0.661  0.175
  0.995  0.004  0.000  0.000  0.000
  0.000  0.000  0.992  0.003  0.005
  0.005  0.836  0.003  0.124  0.033
  0.000  0.000  0.001  0.212  0.787
    occupations:
  0.780 -0.003 -0.005 -0.078  0.003
 -0.003  0.580  0.001  0.003  0.000
 -0.005  0.001  0.772 -0.002 -0.002
 -0.078  0.003 -0.002  0.634 -0.002
  0.003  0.000 -0.002 -0.002  0.820
atom   10   Tr[ns(na)] =   7.21191
    eigenvalues:
  0.539  0.543  0.726  0.833  0.965
    eigenvectors:
  0.000  0.988  0.000  0.000  0.011
  0.000  0.000  0.000  0.999  0.000
  0.000  0.000  1.000  0.000  0.000
  0.000  0.011  0.000  0.000  0.989
  1.000  0.000  0.000  0.000  0.000
    occupations:
  0.548  0.000  0.002  0.045  0.000
  0.000  0.833  0.001  0.000 -0.006
  0.002  0.001  0.726 -0.001  0.000
  0.045  0.000 -0.001  0.960 -0.000
  0.000 -0.006  0.000 -0.000  0.539
atom   16   Tr[ns(na)] =   7.19250
    eigenvalues:
  0.522  0.568  0.716  0.826  0.964
    eigenvectors:
  0.001  0.186  0.005  0.000  0.808
  0.997  0.003  0.000  0.000  0.000
  0.000  0.001  0.971  0.020  0.009
  0.002  0.811  0.004  0.000  0.183
  0.000  0.000  0.020  0.980  0.000
    occupations:
  0.889  0.005  0.022 -0.153  0.001
  0.005  0.522  0.001  0.000 -0.002
  0.022  0.001  0.720 -0.006 -0.015
 -0.153  0.000 -0.006  0.641 -0.000
  0.001 -0.002 -0.015 -0.000  0.824
atom   17   Tr[ns(na)] =   7.18396
    eigenvalues:
  0.555  0.603  0.679  0.784  0.970
    eigenvectors:
  0.001  0.989  0.000  0.000  0.011
  0.000  0.000  0.020  0.980  0.000
  0.000  0.000  0.980  0.020  0.000
  0.000  0.011  0.000  0.000  0.989
  0.999  0.001  0.000  0.000  0.000
    occupations:
  0.607 -0.000  0.000  0.037  0.001
 -0.000  0.782  0.015 -0.001 -0.001
  0.000  0.015  0.682  0.001  0.000
  0.037 -0.001  0.001  0.966  0.000
  0.001 -0.001  0.000  0.000  0.555
atom   22   Tr[ns(na)] =   7.17083
    eigenvalues:
  0.580  0.600  0.772  0.813  0.820
    eigenvectors:
  0.000  0.160  0.002  0.821  0.017
  0.998  0.001  0.000  0.000  0.000
  0.000  0.000  0.993  0.004  0.002
  0.002  0.838  0.002  0.156  0.003
  0.000  0.000  0.003  0.019  0.977
    occupations:
  0.779  0.004 -0.003 -0.078  0.001
  0.004  0.580  0.001 -0.002  0.000
 -0.003  0.001  0.772 -0.002  0.003
 -0.078 -0.002 -0.002  0.634 -0.000
  0.001  0.000  0.003 -0.000  0.820
atom   23   Tr[ns(na)] =   7.21113
    eigenvalues:
  0.551  0.590  0.714  0.803  0.947
    eigenvectors:
  0.000  0.996  0.000  0.001  0.003
  0.001  0.000  0.999  0.000  0.000
  0.000  0.000  0.000  0.999  0.000
  0.000  0.003  0.000  0.000  0.996
  0.999  0.000  0.001  0.000  0.000
    occupations:
  0.592  0.000  0.005  0.021  0.000
  0.000  0.714  0.002  0.001 -0.005
  0.005  0.002  0.803 -0.002 -0.000
  0.021  0.001 -0.002  0.946 -0.000
  0.000 -0.005 -0.000 -0.000  0.551
N of occupied +U levels =  57.5216976
 --- exit write_ns ---

[...]

          k = 0.2500-0.4870 0.0000 ( 30468 PWs)   bands (ev):

[...]

          k =-0.2500 0.2435 0.0000 ( 30434 PWs)   bands (ev):

   -74.0182 -74.0098 -73.7689 -73.7555 -73.6785 -73.4734 -73.4529 -73.4453
   -44.1754 -44.0546 -44.0420 -44.0380 -43.9731 -43.9646 -43.9296 -43.9270
   -43.9082 -43.8523 -43.7700 -43.7146 -43.6740 -43.6527 -43.6060 -43.5510
   -43.5384 -43.4130 -43.3778 -43.3334 -43.3309 -43.3176 -43.2820 -43.2784
   -23.2643 -20.4768 -20.0617 -19.9448 -19.9113 -19.6947 -19.4771 -19.3813
   -19.2605 -19.2331 -19.2070 -19.1348 -18.9481 -18.9185 -18.8795 -18.8072
   -18.7441 -18.7056 -18.4589 -16.9978  -8.7793  -8.5342  -8.2089  -8.1854
    -8.1472  -7.9117  -7.8694  -7.5808  -7.5505  -7.3920  -7.3622  -7.2611
    -7.2252  -7.1268  -7.0893  -7.0339  -6.9696  -6.8870  -6.8237  -6.5557
    -6.4009  -6.3386  -6.1170  -6.0412  -5.9385  -5.7741  -5.5908  -5.4805
    -5.4016  -5.2426  -5.1395  -5.0747  -5.0008  -4.9169  -4.8795  -4.7898
    -4.6766  -4.6222  -4.5959  -4.4585  -4.4355  -4.3707  -4.3079  -4.1269
    -4.0258  -3.8093  -3.7191  -3.6847  -3.5724  -3.5213  -3.4412  -3.3776
    -3.1679  -3.0918  -3.0091  -2.7487  -2.6859  -2.3977  -2.1168  -1.9239
    -1.6877  -1.5670  -1.4946  -1.4310  -1.3743  -1.3387  -1.2914  -1.2100
    -1.1598  -1.1403  -1.0497  -1.0158  -0.8558  -0.6720  -0.5749  -0.3488
    -0.2111  -0.1387   0.0580   0.1869   0.2617   0.3689   0.5595   1.3219
     1.9653   2.0848   2.1963   2.2539   2.7536   3.0565   3.1445   3.3419
     3.5498   3.6602   3.7472   3.8099   3.8961   3.9575   4.1587   4.1798
     4.3420   4.5816   4.7301   5.2356   5.6441   5.7978   6.0825   6.1188
     6.1905   6.5149   6.5680   6.7218   6.9205   7.1066   7.1447   7.4624
     7.6249   7.7486   7.9487   8.0836   8.1463   8.4053   8.4541   8.5810
     8.6785   8.7782   8.9415   9.0309   9.1138   9.2624   9.3820   9.4444
     9.6101   9.6947   9.7420   9.8634  10.0521  10.1028  10.1770  10.2682
    10.3070  10.4280  10.5195  10.6189  10.6667  10.7673  10.8392  10.9647
    11.0213  11.1605  11.2711  11.3814  11.3998  11.5532  11.6094  11.7061
    11.8037  11.8861  12.0013  12.0101  12.0672  12.1324  12.2157  12.2522
    12.3747  12.4187  12.5174  12.6187  12.7286  12.7571  12.8237  12.8822
    12.9338  12.9945  13.0896  13.2052  13.2566  13.3303  13.3903  13.4676
    13.5614  13.6796  13.7893  13.8435  13.9350  13.9775  14.0310  14.1511
    14.2424  14.3008  14.4383  14.4860  14.5889  14.6794  14.7434  14.7886
    14.8679  14.9281  15.0348  15.1058  15.2046  15.2392  15.3253  15.3510
    15.4521  15.5146  15.5649  15.6411  15.6964  15.8028  15.8475  15.9086
    15.9443  16.0192  16.0748  16.1302  16.1782  16.2185  16.2798  16.3068
    16.3963  16.4477  16.5623  16.6288  16.7054  16.7599  16.7919  16.9009
    16.9414  16.9845  17.0505  17.1410  17.2633  17.3368  17.3673  17.4650
    17.5145  17.5453  17.5840  17.6791  17.7655  17.8008  17.8431  17.9022
    17.9938  18.0240  18.0707  18.1096  18.2097  18.2597  18.3122  18.3994
    18.4455  18.4989  18.6224  18.7085  18.7791  18.8673  18.8752  18.9556
    19.0458  19.1297  19.2145  19.2635  19.3073  19.4171  19.5005  19.6043
    19.6503  19.7198  19.7930  19.8451  19.8952  19.9631  20.0285  20.1493
    20.2223  20.2654  20.3118  20.5020  20.5695  20.5939  20.6370  20.7391
    20.8877  20.9333  20.9552  20.9999  21.0528  21.1053  21.1603  21.2507
    21.3142  21.3598  21.4225  21.4769  21.5149  21.5786  21.6081  21.6782
    21.7524  21.8222  21.8990  21.9304  21.9510  22.0629  22.0806  22.1329
    22.2113  22.3108  22.3451  22.4266  22.4682  22.5217  22.6377

     the Fermi energy is    -0.5453 ev

!    total energy              =   -2195.66405110 Ry
     Harris-Foulkes estimate   =   -2195.66405110 Ry
     estimated scf accuracy    <          5.8E-09 Ry

     The total energy is the sum of the following terms:

     one-electron contribution =  -25638.71915315 Ry
     hartree contribution      =   12848.73574670 Ry
     xc contribution           =    -345.57569140 Ry
     ewald contribution        =   10938.83106109 Ry
     Hubbard energy            =       1.06467976 Ry
     smearing contrib. (-TS)   =      -0.00069411 Ry

     convergence has been achieved in  16 iterations

     Forces acting on atoms (Ry/au):

     negative rho (up, down):  0.576E+00 0.000E+00
     atom    1 type  1   force =    -0.00364930   -0.00909213    0.00010191
     atom    2 type  1   force =    -0.00024838    0.00549714   -0.00040940
     atom    3 type  2   force =     0.03369383    0.00076065   -0.00036664
     atom    4 type  2   force =     0.00289581    0.00523665    0.00033142
     atom    5 type  1   force =     0.00188143   -0.03226770    0.00019380
     atom    6 type  1   force =     0.00256124    0.03406210    0.00002545
     atom    7 type  1   force =     0.00022415   -0.00527144    0.00047338
     atom    8 type  1   force =    -0.00001285    0.00041676    0.00070829
     atom    9 type  2   force =    -0.01564676    0.00012311    0.00012656
     atom   10 type  2   force =     0.00005975    0.00187337   -0.00031617
     atom   11 type  1   force =    -0.01053263    0.01453369   -0.00025562
     atom   12 type  1   force =    -0.00387018   -0.01091072    0.00026774
     atom   13 type  1   force =    -0.00170942   -0.00219596   -0.00064430
     atom   14 type  1   force =    -0.00455863   -0.00996101    0.00001905
     atom   15 type  1   force =    -0.00012901    0.00524857   -0.00035933
     atom   16 type  2   force =    -0.03424902    0.00078529   -0.00035607
     atom   17 type  2   force =     0.00259623    0.00531733    0.00025026
     atom   18 type  1   force =    -0.00006378   -0.03249319    0.00012656
     atom   19 type  1   force =     0.00041183    0.03420995    0.00004001
     atom   20 type  1   force =     0.00005617   -0.00496505    0.00010423
     atom   21 type  1   force =     0.00021537    0.00056833    0.00057167
     atom   22 type  2   force =     0.01735427   -0.00086384    0.00015649
     atom   23 type  2   force =     0.00027184    0.00168896    0.00020020
     atom   24 type  1   force =     0.01053136    0.01481044   -0.00018950
     atom   25 type  1   force =     0.00371860   -0.01097649    0.00015593
     atom   26 type  1   force =    -0.00154185   -0.00692709   -0.00058962
     atom   27 type  3   force =     0.00001120    0.00016396   -0.00017264
     atom   28 type  3   force =     0.00001966    0.00020692   -0.00004285
     atom   29 type  3   force =    -0.00014186   -0.00002461   -0.00051748
     atom   30 type  3   force =    -0.00008252   -0.00000393   -0.00040004
     atom   31 type  1   force =     0.00021647   -0.00011784    0.00012692
     atom   32 type  1   force =    -0.00030016    0.00022252    0.00050568
     atom   33 type  3   force =     0.00001715    0.00034527    0.00013414

     Total force =     0.002042     Total SCF correction =     0.000129

     entering subroutine stress ...

     negative rho (up, down):  0.576E+00 0.000E+00
          total   stress  (Ry/bohr**3)                   (kbar)     P=   -6.68
  -0.00004880   0.00000229   0.00000230         -7.18      0.34      0.34
   0.00000229  -0.00004931   0.00000183          0.34     -7.25      0.27
   0.00000230   0.00000183  -0.00003809          0.34      0.27     -5.60

     bfgs converged in  15 scf cycles and  14 bfgs steps
     (criteria: energy < 0.10E-03, force < 0.10E-02)

     End of BFGS Geometry Optimization

     Final energy   =   -2195.6640510969 Ry
Begin final coordinates

ATOMIC_POSITIONS (crystal)
O0       0.000000000   0.000000000   0.378454070    0   0   1
O0       0.000000000   0.500000000   0.404933066    0   0   1
Ru1      0.250000000   0.500000000   0.454841092    0   0   1
Ru1      0.000000000   0.000000000   0.452153033    0   0   1
O0       0.250000000   0.810000000   0.452594682    0   0   1
O0       0.250000000   0.190000000   0.452612943    0   0   1
O0       0.000000000   0.500000000   0.499740267    0   0   1
O0       0.000000000   0.000000000   0.525467268    0   0   1
Ru1      0.250000000   0.000000000   0.576000247    0   0   1
Ru1      0.000000000   0.500000000   0.569777523    0   0   1
O0       0.250000000   0.690000000   0.574886845    0   0   1
O0       0.250000000   0.310000000   0.576909596    0   0   1
O0       0.000000000   0.000000000   0.617964642    0   0   1
O0       0.500000000   0.000000000   0.378544885    0   0   1
O0       0.500000000   0.500000000   0.404292280    0   0   1
Ru1      0.750000000   0.500000000   0.454842532    0   0   1
Ru1      0.500000000   0.000000000   0.452360746    0   0   1
O0       0.750000000   0.810000000   0.452613465    0   0   1
O0       0.750000000   0.190000000   0.452611830    0   0   1
O0       0.500000000   0.500000000   0.501632699    0   0   1
O0       0.500000000   0.000000000   0.525604337    0   0   1
Ru1      0.750000000   0.000000000   0.576039926    0   0   1
Ru1      0.500000000   0.500000000   0.577608380    0   0   1
O0       0.750000000   0.690000000   0.574902858    0   0   1
O0       0.750000000   0.310000000   0.576833925    0   0   1
O0       0.500000000   0.000000000   0.615649612    0   0   1
H2      -0.000546147   0.619929841   0.381495291
H2       0.499576948   0.625965372   0.382734872
H2       0.146887680   0.027835711   0.366221345
H2       0.646360658   0.029257619   0.366215782
O0       0.500730585   0.529044420   0.649959252
O0       0.499291554   0.336549532   0.678812696
H2       0.499919507   0.395962251   0.713308015
End final coordinates

     General routines

     Parallel routines
     Hubbard U routines

   This run was terminated on:  13:33:48   6Jun2014

   JOB DONE.
Running PBS batch system epilogue script
Job id: 381403.audhumbla.fysik.dtu.dk
Username: zhonxu
Groupname: campgst
Jobname: RuO2/Eads-2-layers/OOH-U-2.0
Sessionid: 9414
Queuename: verylong
Accounting:
This job has allocated the following 16 nodes:
d024 d024 d024 d024 d024 d024 d024 d024 d021 d021 d021 d021 d021 d021 d021 d021
Finished epilogue job 381403.audhumbla.fysik.dtu.dk for zhonxu