     Program PWSCF v.5.0.2 (svn rev. 9656) starts on  9May2014 at  8: 8:39

     Current dimensions of program PWSCF are:
     Max number of different atomic species (ntypx) = 10
     Max number of k-points (npk) =  40000
     Max angular momentum in pseudopotentials (lmaxx) =  3
     Reading input from pwscf.in
Warning: card &CELL ignored
Warning: card / ignored

     Subspace diagonalization in iterative solution of the eigenvalue problem:
     a serial algorithm will be used

     bravais-lattice index     =            0
     lattice parameter (alat)  =      10.1289  a.u.
     unit-cell volume          =    6836.7721 (a.u.)^3
     number of atoms/cell      =           30
     number of atomic types    =            3
     number of electrons       =       232.00
     number of Kohn-Sham states=          348
     kinetic-energy cutoff     =      40.0000  Ry
     charge density cutoff     =     500.0000  Ry
     convergence threshold     =      1.0E-06
     mixing beta               =       0.7000
     number of iterations used =            8  plain     mixing
     Exchange-correlation      = SLA  PW   PBE  PBE ( 1 4 3 4 0)
     EXX-fraction              =        0.00
     nstep                     =           50

     celldm(1)=  10.128932  celldm(2)=   0.000000  celldm(3)=   0.000000
     celldm(4)=   0.000000  celldm(5)=   0.000000  celldm(6)=   0.000000

     crystal axes: (cart. coord. in units of alat)
               a(1) = (   1.000000   0.000000   0.000000 )
               a(2) = (   0.000000   1.306037   0.000000 )
               a(3) = (   0.000000   0.000000   5.037380 )

     reciprocal axes: (cart. coord. in units 2 pi/alat)
               b(1) = (  1.000000  0.000000  0.000000 )
               b(2) = (  0.000000  0.765675  0.000000 )
               b(3) = (  0.000000  0.000000  0.198516 )

     PseudoPot. # 1 for O  read from file:
     /home/camp/zhonxu/pseudo/o_pbe_v1.01.uspp.F.UPF
     MD5 check sum: 2bcb18d16ea4b960afae9ec6d52f22d2
     Pseudo is Ultrasoft + core correction, Zval =  6.0
     Generated by new atomic code, or converted to UPF format
     Using radial grid of  737 points,  5 beta functions with:
                l(1) =   0
                l(2) =   0
                l(3) =   1
                l(4) =   1
                l(5) =   2
     Q(r) pseudized with  8 coefficients,  rinner =    0.900   0.900   0.900
                                                       0.900   0.900

     PseudoPot. # 2 for Re read from file:
     /home/camp/zhonxu/pseudo/re_pbe_v1.uspp.F.UPF
     MD5 check sum: 6f5a5dcaf9c96c20d0ffdde0de57afc6
     Pseudo is Ultrasoft + core correction, Zval = 15.0
     Generated by new atomic code, or converted to UPF format
     Using radial grid of  981 points,  8 beta functions with:
                l(1) =   0
                l(2) =   0
                l(3) =   1
                l(4) =   1
                l(5) =   2
                l(6) =   2
                l(7) =   3
                l(8) =   3
     Q(r) pseudized with  8 coefficients,  rinner =    1.000   1.000   1.000
                                                       1.000   1.000   1.000
                                                       1.000

     PseudoPot. # 3 for H  read from file:
     /home/camp/zhonxu/pseudo/h_pbe_v1.uspp.F.UPF
     MD5 check sum: 3408e3ff4ec8b0a4e358431e7e038a48
     Pseudo is Ultrasoft, Zval =  1.0
     Generated by new atomic code, or converted to UPF format
     Using radial grid of  615 points,  2 beta functions with:
                l(1) =   0
                l(2) =   0
     Q(r) pseudized with  8 coefficients,  rinner =    0.700

     atomic species   valence    mass     pseudopotential
        O0             6.00    15.99940     O ( 1.00)
        Re1           15.00   186.20700     Re( 1.00)
        H2             1.00     1.00794     H ( 1.00)

     Simplified LDA+U calculation (l_max = 2) with parameters (eV):
     atomic species    L          U    alpha       J0     beta
        Re1            2     6.0000   0.0000   0.0000   0.0000

     No symmetry found

   Cartesian axes

     site n.     atom                  positions (alat units)
         1           O0  tau(   1) = (   0.0000000   0.0000000   1.8688176  )
         2           O0  tau(   2) = (   0.0000000   0.6530184   1.9243296  )
         3           Re1 tau(   3) = (   0.2500000   0.6530184   2.2228951  )
         4           Re1 tau(   4) = (   0.0000000   0.0000000   2.2352367  )
         5           O0  tau(   5) = (   0.2500000   1.0187087   2.2249100  )
         6           O0  tau(   6) = (   0.2500000   0.2873281   2.2250611  )
         7           O0  tau(   7) = (   0.0000000   0.6530184   2.5071041  )
         8           O0  tau(   8) = (   0.0000000   0.0000000   2.5966183  )
         9           Re1 tau(   9) = (   0.2500000   0.0000000   2.8989619  )
        10           Re1 tau(  10) = (   0.0000000   0.6530184   2.8608793  )
        11           O0  tau(  11) = (   0.2500000   0.9403465   2.8908013  )
        12           O0  tau(  12) = (   0.2500000   0.3656903   2.8907005  )
        13           O0  tau(  13) = (   0.0000000   0.0000000   3.1620138  )
        14           O0  tau(  14) = (   0.5000000   0.0000000   1.8688176  )
        15           O0  tau(  15) = (   0.5000000   0.6530184   1.9243296  )
        16           Re1 tau(  16) = (   0.7500000   0.6530184   2.2228951  )
        17           Re1 tau(  17) = (   0.5000000   0.0000000   2.2352367  )
        18           O0  tau(  18) = (   0.7500000   1.0187087   2.2249604  )
        19           O0  tau(  19) = (   0.7500000   0.2873281   2.2250611  )
        20           O0  tau(  20) = (   0.5000000   0.6530184   2.5071041  )
        21           O0  tau(  21) = (   0.5000000   0.0000000   2.5966183  )
        22           Re1 tau(  22) = (   0.7500000   0.0000000   2.8989619  )
        23           Re1 tau(  23) = (   0.5000000   0.6530184   2.8609296  )
        24           O0  tau(  24) = (   0.7500000   0.9403465   2.8908013  )
        25           O0  tau(  25) = (   0.7500000   0.3656903   2.8907005  )
        26           O0  tau(  26) = (   0.5000000   0.0000000   3.1620138  )
        27           H2  tau(  27) = (  -0.0003800   0.8172395   1.8403061  )
        28           H2  tau(  28) = (   0.4996200   0.8172395   1.8403061  )
        29           H2  tau(  29) = (   0.1698700   0.0284977   1.7974380  )
        30           H2  tau(  30) = (   0.6698800   0.0284977   1.7974380  )

     number of k points=    10  Methfessel-Paxton smearing, width (Ry)=  0.0100
                       cart. coord. in units 2pi/alat
        k(    1) = (   0.0000000   0.0000000   0.0000000), wk =   0.1250000
        k(    2) = (   0.0000000   0.1914188   0.0000000), wk =   0.2500000
        k(    3) = (   0.0000000  -0.3828376   0.0000000), wk =   0.1250000
        k(    4) = (   0.2500000   0.0000000   0.0000000), wk =   0.2500000
        k(    5) = (   0.2500000   0.1914188   0.0000000), wk =   0.2500000
        k(    6) = (   0.2500000  -0.3828376   0.0000000), wk =   0.2500000
        k(    7) = (  -0.5000000   0.0000000   0.0000000), wk =   0.1250000
        k(    8) = (  -0.5000000   0.1914188   0.0000000), wk =   0.2500000
        k(    9) = (  -0.5000000  -0.3828376   0.0000000), wk =   0.1250000
        k(   10) = (  -0.2500000   0.1914188   0.0000000), wk =   0.2500000

     Largest allocated arrays     est. size (Mb)     dimensions
     Largest temporary arrays     est. size (Mb)     dimensions

     Check: negative/imaginary core charge=   -0.000003    0.000000

     Initial potential from superposition of free atoms
     Check: negative starting charge=   -0.237311

     starting charge  227.99958, renormalised to  232.00000

     negative rho (up, down):  0.241E+00 0.000E+00
     Number of +U iterations with fixed ns =  0
     Starting occupations:
 --- enter write_ns ---
 LDA+U parameters:
U( 2)     =  6.00000000
alpha( 2) =  0.00000000
atom    3   Tr[ns(na)] =   5.00000
    eigenvalues:
  0.500  0.500  0.500  0.500  0.500
    eigenvectors:
  1.000  0.000  0.000  0.000  0.000
  0.000  1.000  0.000  0.000  0.000
  0.000  0.000  1.000  0.000  0.000
  0.000  0.000  0.000  1.000  0.000
  0.000  0.000  0.000  0.000  1.000
    occupations:
  0.500  0.000  0.000  0.000  0.000
  0.000  0.500  0.000  0.000  0.000
  0.000  0.000  0.500  0.000  0.000
  0.000  0.000  0.000  0.500  0.000
  0.000  0.000  0.000  0.000  0.500
atom    4   Tr[ns(na)] =   5.00000
    eigenvalues:
  0.500  0.500  0.500  0.500  0.500
    eigenvectors:
  1.000  0.000  0.000  0.000  0.000
  0.000  1.000  0.000  0.000  0.000
  0.000  0.000  1.000  0.000  0.000
  0.000  0.000  0.000  1.000  0.000
  0.000  0.000  0.000  0.000  1.000
    occupations:
  0.500  0.000  0.000  0.000  0.000
  0.000  0.500  0.000  0.000  0.000
  0.000  0.000  0.500  0.000  0.000
  0.000  0.000  0.000  0.500  0.000
  0.000  0.000  0.000  0.000  0.500
atom    9   Tr[ns(na)] =   5.00000
    eigenvalues:
  0.500  0.500  0.500  0.500  0.500
    eigenvectors:
  1.000  0.000  0.000  0.000  0.000
  0.000  1.000  0.000  0.000  0.000
  0.000  0.000  1.000  0.000  0.000
  0.000  0.000  0.000  1.000  0.000
  0.000  0.000  0.000  0.000  1.000
    occupations:
  0.500  0.000  0.000  0.000  0.000
  0.000  0.500  0.000  0.000  0.000
  0.000  0.000  0.500  0.000  0.000
  0.000  0.000  0.000  0.500  0.000
  0.000  0.000  0.000  0.000  0.500
atom   10   Tr[ns(na)] =   5.00000
    eigenvalues:
  0.500  0.500  0.500  0.500  0.500
    eigenvectors:
  1.000  0.000  0.000  0.000  0.000
  0.000  1.000  0.000  0.000  0.000
  0.000  0.000  1.000  0.000  0.000
  0.000  0.000  0.000  1.000  0.000
  0.000  0.000  0.000  0.000  1.000
    occupations:
  0.500  0.000  0.000  0.000  0.000
  0.000  0.500  0.000  0.000  0.000
  0.000  0.000  0.500  0.000  0.000
  0.000  0.000  0.000  0.500  0.000
  0.000  0.000  0.000  0.000  0.500
atom   16   Tr[ns(na)] =   5.00000
    eigenvalues:
  0.500  0.500  0.500  0.500  0.500
    eigenvectors:
  1.000  0.000  0.000  0.000  0.000
  0.000  1.000  0.000  0.000  0.000
  0.000  0.000  1.000  0.000  0.000
  0.000  0.000  0.000  1.000  0.000
  0.000  0.000  0.000  0.000  1.000
    occupations:
  0.500  0.000  0.000  0.000  0.000
  0.000  0.500  0.000  0.000  0.000
  0.000  0.000  0.500  0.000  0.000
  0.000  0.000  0.000  0.500  0.000
  0.000  0.000  0.000  0.000  0.500
atom   17   Tr[ns(na)] =   5.00000
    eigenvalues:
  0.500  0.500  0.500  0.500  0.500
    eigenvectors:
  1.000  0.000  0.000  0.000  0.000
  0.000  1.000  0.000  0.000  0.000
  0.000  0.000  1.000  0.000  0.000
  0.000  0.000  0.000  1.000  0.000
  0.000  0.000  0.000  0.000  1.000
    occupations:
  0.500  0.000  0.000  0.000  0.000
  0.000  0.500  0.000  0.000  0.000
  0.000  0.000  0.500  0.000  0.000
  0.000  0.000  0.000  0.500  0.000
  0.000  0.000  0.000  0.000  0.500
atom   22   Tr[ns(na)] =   5.00000
    eigenvalues:
  0.500  0.500  0.500  0.500  0.500
    eigenvectors:
  1.000  0.000  0.000  0.000  0.000
  0.000  1.000  0.000  0.000  0.000
  0.000  0.000  1.000  0.000  0.000
  0.000  0.000  0.000  1.000  0.000
  0.000  0.000  0.000  0.000  1.000
    occupations:
[...]
  0.001 -0.002 -0.000 -0.000  0.568
atom    9   Tr[ns(na)] =   6.60363
    eigenvalues:
  0.545  0.588  0.603  0.771  0.794
    eigenvectors:
  0.000  0.221  0.000  0.773  0.006
  0.000  0.000  1.000  0.000  0.000
  1.000  0.000  0.000  0.000  0.000
  0.000  0.779  0.000  0.219  0.002
  0.000  0.000  0.000  0.008  0.992
    occupations:
  0.731  0.000 -0.002 -0.076  0.002
  0.000  0.603  0.000  0.000  0.000
 -0.002  0.000  0.545  0.001 -0.000
 -0.076  0.000  0.001  0.629 -0.001
  0.002  0.000 -0.000 -0.001  0.794
atom   10   Tr[ns(na)] =   6.53359
    eigenvalues:
  0.463  0.535  0.539  0.782  0.947
    eigenvectors:
  1.000  0.000  0.000  0.000  0.000
  0.000  0.000  0.000  0.000  1.000
  0.000  0.001  0.999  0.000  0.000
  0.000  0.000  0.000  1.000  0.000
  0.000  0.999  0.001  0.000  0.000
    occupations:
  0.463  0.000 -0.001  0.002  0.000
  0.000  0.947  0.001 -0.000  0.001
 -0.001  0.001  0.539  0.000  0.000
  0.002 -0.000  0.000  0.782  0.000
  0.000  0.001  0.000  0.000  0.535
atom   16   Tr[ns(na)] =   6.64338
    eigenvalues:
  0.534  0.565  0.592  0.775  0.856
    eigenvectors:
  0.000  0.332  0.001  0.667  0.000
  0.999  0.000  0.000  0.000  0.001
  0.000  0.010  0.981  0.010  0.000
  0.000  0.658  0.019  0.323  0.000
  0.001  0.000  0.000  0.000  0.999
    occupations:
  0.705  0.000  0.016 -0.098 -0.000
  0.000  0.534 -0.000 -0.000 -0.008
  0.016 -0.000  0.594 -0.008  0.000
 -0.098 -0.000 -0.008  0.633  0.000
 -0.000 -0.008  0.000  0.000  0.855
atom   17   Tr[ns(na)] =   6.61641
    eigenvalues:
  0.568  0.592  0.612  0.743  0.793
    eigenvectors:
  0.001  0.000  0.990  0.001  0.008
  0.000  0.013  0.001  0.986  0.000
  0.000  0.987  0.000  0.013  0.000
  0.000  0.000  0.008  0.000  0.991
  0.999  0.000  0.001  0.000  0.000
    occupations:
  0.613  0.003  0.001 -0.017  0.001
  0.003  0.741  0.017 -0.000 -0.002
  0.001  0.017  0.594  0.001 -0.000
 -0.017 -0.000  0.001  0.792 -0.000
  0.001 -0.002 -0.000 -0.000  0.568
atom   22   Tr[ns(na)] =   6.60365
    eigenvalues:
  0.545  0.588  0.603  0.771  0.794
    eigenvectors:
  0.000  0.221  0.000  0.773  0.006
  0.000  0.000  1.000  0.000  0.000
  1.000  0.000  0.000  0.000  0.000
  0.000  0.779  0.000  0.219  0.002
  0.000  0.000  0.000  0.008  0.992
    occupations:
  0.731  0.000 -0.002 -0.076  0.002
  0.000  0.603  0.000  0.000  0.000
 -0.002  0.000  0.545  0.001 -0.000
 -0.076  0.000  0.001  0.629 -0.001
  0.002  0.000 -0.000 -0.001  0.794
atom   23   Tr[ns(na)] =   6.53347
    eigenvalues:
  0.463  0.535  0.539  0.782  0.947
    eigenvectors:
  1.000  0.000  0.000  0.000  0.000
  0.000  0.000  0.000  0.000  1.000
  0.000  0.001  0.999  0.000  0.000
  0.000  0.000  0.000  1.000  0.000
  0.000  0.999  0.001  0.000  0.000
    occupations:
  0.463  0.000 -0.001  0.002  0.000
  0.000  0.947  0.001 -0.000  0.001
 -0.001  0.001  0.538  0.000  0.000
  0.002 -0.000  0.000  0.782  0.000
  0.000  0.001  0.000  0.000  0.535
N of occupied +U levels =  52.7941842
 --- exit write_ns ---

     Threshold (ethr) on eigenvalues was too large:
     Diagonalizing with lowered threshold

     Davidson diagonalization with overlap
     ethr =  2.17E-08,  avg # of iterations =  2.0

[...]

     total energy              =   -2139.25195097 Ry
     Harris-Foulkes estimate   =   -2139.25195098 Ry
     estimated scf accuracy    <       0.00000010 Ry

     iteration # 13     ecut=    40.00 Ry     beta=0.70
     Davidson diagonalization with overlap
     ethr =  8.75E-12,  avg # of iterations =  1.0

     negative rho (up, down):  0.234E+00 0.000E+00

     End of self-consistent calculation
 --- enter write_ns ---
 LDA+U parameters:
U( 2)     =  6.00000000
alpha( 2) =  0.00000000
atom    3   Tr[ns(na)] =   6.64171
    eigenvalues:
  0.534  0.565  0.591  0.775  0.855
    eigenvectors:
  0.000  0.332  0.000  0.667  0.000
  0.999  0.000  0.000  0.000  0.001
  0.000  0.010  0.980  0.010  0.000
  0.000  0.658  0.019  0.323  0.000
  0.001  0.000  0.000  0.000  0.999
    occupations:
  0.705  0.000  0.016 -0.098 -0.000
  0.000  0.534 -0.000 -0.000 -0.008
  0.016 -0.000  0.593 -0.008  0.000
 -0.098 -0.000 -0.008  0.633  0.000
 -0.000 -0.008  0.000  0.000  0.855
atom    4   Tr[ns(na)] =   6.61565
    eigenvalues:
  0.568  0.592  0.612  0.743  0.793
    eigenvectors:
  0.001  0.000  0.990  0.001  0.008
  0.000  0.013  0.001  0.986  0.000
  0.000  0.987  0.000  0.013  0.000
  0.000  0.000  0.008  0.000  0.991
  0.999  0.000  0.001  0.000  0.000
    occupations:
  0.613  0.003  0.001 -0.017  0.001
  0.003  0.740  0.017 -0.000 -0.002
  0.001  0.017  0.594  0.001 -0.000
 -0.017 -0.000  0.001  0.792 -0.000
  0.001 -0.002 -0.000 -0.000  0.568
atom    9   Tr[ns(na)] =   6.60410
    eigenvalues:
  0.545  0.588  0.603  0.771  0.794
    eigenvectors:
  0.000  0.221  0.000  0.773  0.006
  0.000  0.000  1.000  0.000  0.000
  1.000  0.000  0.000  0.000  0.000
  0.000  0.779  0.000  0.219  0.002
  0.000  0.000  0.000  0.008  0.992
    occupations:
  0.731  0.000 -0.002 -0.076  0.002
  0.000  0.603  0.000  0.000  0.000
 -0.002  0.000  0.545  0.001 -0.000
 -0.076  0.000  0.001  0.629 -0.001
  0.002  0.000 -0.000 -0.001  0.794
atom   10   Tr[ns(na)] =   6.53604
    eigenvalues:
  0.463  0.535  0.540  0.782  0.947
    eigenvectors:
  1.000  0.000  0.000  0.000  0.000
  0.000  0.000  0.000  0.000  1.000
  0.000  0.001  0.999  0.000  0.000
  0.000  0.000  0.000  1.000  0.000
  0.000  0.999  0.001  0.000  0.000
    occupations:
  0.463  0.000 -0.001  0.002  0.000
  0.000  0.947  0.001 -0.000  0.001
 -0.001  0.001  0.540  0.000  0.000
  0.002 -0.000  0.000  0.782  0.000
  0.000  0.001  0.000  0.000  0.535
atom   16   Tr[ns(na)] =   6.64171
    eigenvalues:
  0.534  0.565  0.591  0.775  0.855
    eigenvectors:
  0.000  0.332  0.000  0.667  0.000
  0.999  0.000  0.000  0.000  0.001
  0.000  0.010  0.980  0.010  0.000
  0.000  0.658  0.019  0.323  0.000
  0.001  0.000  0.000  0.000  0.999
    occupations:
  0.705  0.000  0.016 -0.098 -0.000
  0.000  0.534 -0.000 -0.000 -0.008
  0.016 -0.000  0.593 -0.008  0.000
 -0.098 -0.000 -0.008  0.633  0.000
 -0.000 -0.008  0.000  0.000  0.855
atom   17   Tr[ns(na)] =   6.61564
    eigenvalues:
  0.568  0.592  0.612  0.743  0.793
    eigenvectors:
  0.001  0.000  0.990  0.001  0.008
  0.000  0.013  0.001  0.986  0.000
  0.000  0.987  0.000  0.013  0.000
  0.000  0.000  0.008  0.000  0.991
  0.999  0.000  0.001  0.000  0.000
    occupations:
  0.613  0.003  0.001 -0.017  0.001
  0.003  0.740  0.017 -0.000 -0.002
  0.001  0.017  0.594  0.001 -0.000
 -0.017 -0.000  0.001  0.792 -0.000
  0.001 -0.002 -0.000 -0.000  0.568
atom   22   Tr[ns(na)] =   6.60410
    eigenvalues:
  0.545  0.588  0.603  0.771  0.794
    eigenvectors:
  0.000  0.221  0.000  0.773  0.006
  0.000  0.000  1.000  0.000  0.000
  1.000  0.000  0.000  0.000  0.000
  0.000  0.779  0.000  0.219  0.002
  0.000  0.000  0.000  0.008  0.992
    occupations:
  0.731  0.000 -0.002 -0.076  0.002
  0.000  0.603  0.000  0.000  0.000
 -0.002  0.000  0.545  0.001 -0.000
 -0.076  0.000  0.001  0.629 -0.001
  0.002  0.000 -0.000 -0.001  0.794
atom   23   Tr[ns(na)] =   6.53604
    eigenvalues:
  0.463  0.535  0.540  0.782  0.947
    eigenvectors:
  1.000  0.000  0.000  0.000  0.000
  0.000  0.000  0.000  0.000  1.000
  0.000  0.001  0.999  0.000  0.000
  0.000  0.000  0.000  1.000  0.000
  0.000  0.999  0.001  0.000  0.000
    occupations:
  0.463  0.000 -0.001  0.002  0.000
  0.000  0.947  0.001 -0.000  0.001
 -0.001  0.001  0.540  0.000  0.000
  0.002 -0.000  0.000  0.782  0.000
  0.000  0.001  0.000  0.000  0.535
N of occupied +U levels =  52.7950006
 --- exit write_ns ---

[...]

          k = 0.2500-0.3828 0.0000 ( 29202 PWs)   bands (ev):

[...]

          k =-0.2500 0.1914 0.0000 ( 29229 PWs)   bands (ev):

   -80.8627 -80.8239 -80.5594 -80.5200 -80.3291 -80.2916 -80.2720 -80.2337
   -42.9426 -42.8436 -42.8365 -42.7798 -42.7278 -42.6162 -42.6042 -42.5492
   -42.5431 -42.5427 -42.4682 -42.4545 -42.4406 -42.3815 -42.3635 -42.3295
   -42.3153 -42.2965 -42.2191 -42.1930 -42.1304 -41.9666 -41.6774 -41.5927
   -20.8107 -20.3735 -20.3460 -20.2392 -20.0936 -19.9811 -19.9074 -19.8359
   -19.7879 -19.6934 -19.4880 -19.3816 -19.3580 -19.1325 -19.1130 -18.9953
   -18.2857 -18.1031  -9.1520  -9.1393  -8.9237  -8.8896  -8.8138  -8.7063
    -8.6302  -8.2710  -8.1947  -8.0477  -8.0200  -7.9051  -7.7800  -7.4238
    -7.4061  -7.1482  -6.8994  -6.7771  -6.6942  -6.6607  -6.5700  -6.2923
    -6.2914  -6.0576  -5.8502  -5.8358  -5.6554  -5.6289  -5.5605  -5.3878
    -5.2886  -5.0818  -4.9831  -4.9095  -4.8972  -4.8458  -4.7636  -4.6934
    -4.6593  -4.6446  -4.2464  -4.1021  -4.0270  -3.8881  -3.8167  -3.7054
    -3.7040  -3.4501  -3.3817  -3.2634  -3.1869  -2.9535  -2.8700  -2.7422
    -2.5149  -2.4572  -2.2804  -1.7787  -1.4879  -1.2170  -1.1184  -0.6387
    -0.3580  -0.1161   0.0241   0.3422   0.4323   0.6733   0.7474   1.1293
     1.2487   1.3074   1.3626   1.4978   1.5586   1.6338   1.7266   1.8732
     2.4357   2.5318   3.7043   3.8003   3.8968   3.9870   4.1257   4.3710
     4.6082   4.6460   4.8034   4.9356   4.9532   4.9894   5.2271   5.4211
     5.7876   5.9646   5.9940   6.2427   6.2712   6.5436   6.7014   6.7194
     6.8418   6.9835   7.2577   7.3777   7.4146   7.6758   7.7725   7.9935
     8.1427   8.3021   8.3604   8.4731   8.5998   8.6436   8.7972   8.8845
     9.1038   9.3347   9.3905   9.4266   9.6006   9.6942   9.7637   9.7811
     9.8424   9.9444   9.9601  10.1695  10.1697  10.3119  10.3192  10.4606
    10.4799  10.6511  10.7645  10.7928  10.9264  11.0570  11.0646  11.2507
    11.3976  11.4480  11.4875  11.7091  11.7927  11.9159  11.9708  12.0877
    12.3056  12.4538  12.4960  12.5189  12.6474  12.7048  12.7100  12.8462
    12.8508  12.9584  13.0506  13.1954  13.2330  13.3220  13.5026  13.5819
    13.6158  13.6732  13.7936  13.8127  13.9090  13.9180  13.9726  14.0601
    14.1392  14.2472  14.2907  14.3503  14.4134  14.5367  14.5646  14.6091
    14.7772  14.7823  14.8200  14.8733  14.8848  14.9539  15.0292  15.0468
    15.1162  15.2382  15.3170  15.3934  15.5063  15.5667  15.6599  15.7191
    15.8936  15.9544  16.1043  16.1243  16.1820  16.2254  16.2847  16.4244
    16.5225  16.5744  16.6371  16.6970  16.7869  16.8607  16.8932  17.0182
    17.1167  17.1208  17.2099  17.3361  17.3404  17.4986  17.5434  17.6583
    17.7142  17.7403  17.7860  17.9060  17.9918  18.0499  18.1562  18.1946
    18.2424  18.3340  18.3433  18.4177  18.5360  18.5808  18.6691  18.6848
    18.7894  18.8932  18.8978  18.9791  19.0812  19.0935  19.1963  19.3276
    19.4703  19.5309  19.5961  19.6580  19.8139  19.9537  19.9755  20.0075
    20.0989  20.1831  20.2470  20.2709  20.4814  20.5143  20.5386  20.6229
    20.6665  20.7819  20.7836  20.8295  20.8762  20.9076  20.9723  21.0396
    21.1419  21.1868  21.2709  21.3120  21.4434  21.4502  21.5241  21.5411
    21.6614  21.6665  21.7600  21.8415  21.9195  21.9619  22.1080  22.1461
    22.1970  22.2512  22.2784  22.3351  22.3557  22.4388  22.4771  22.5437
    22.5470  22.6119  22.6271  22.7225

     the Fermi energy is     0.2872 ev

!    total energy              =   -2139.25195097 Ry
     Harris-Foulkes estimate   =   -2139.25195097 Ry
     estimated scf accuracy    <          8.7E-09 Ry

     The total energy is the sum of the following terms:

     one-electron contribution =  -23559.62366083 Ry
     hartree contribution      =   11796.68578407 Ry
     xc contribution           =    -587.37842472 Ry
     ewald contribution        =   10207.40397145 Ry
     Hubbard energy            =       3.65957352 Ry
     smearing contrib. (-TS)   =       0.00080554 Ry

     convergence has been achieved in  13 iterations

     Forces acting on atoms (Ry/au):

     negative rho (up, down):  0.234E+00 0.000E+00
     atom    1 type  1   force =    -0.00382158   -0.00612059   -0.00010038
     atom    2 type  1   force =     0.00002105    0.00489276    0.00020929
     atom    3 type  2   force =    -0.00035892   -0.00213493    0.00017516
     atom    4 type  2   force =     0.00139280    0.00621334    0.00011955
     atom    5 type  1   force =     0.00171463    0.00713082   -0.00015933
     atom    6 type  1   force =     0.00019756   -0.00746730   -0.00036825
     atom    7 type  1   force =     0.00010668   -0.00137832    0.00032135
     atom    8 type  1   force =     0.00251100   -0.00101214    0.00084285
     atom    9 type  2   force =    -0.00160802    0.00042478    0.00028914
     atom   10 type  2   force =     0.00000428   -0.00096990   -0.00059995
     atom   11 type  1   force =     0.00021056   -0.00742176    0.00006944
     atom   12 type  1   force =    -0.00021841    0.00783255    0.00003852
     atom   13 type  1   force =    -0.00030057    0.00017909    0.00013789
     atom   14 type  1   force =    -0.00380998   -0.00611952   -0.00010034
     atom   15 type  1   force =     0.00002431    0.00488708    0.00020964
     atom   16 type  2   force =    -0.00037223   -0.00213403    0.00017219
     atom   17 type  2   force =     0.00139298    0.00621307    0.00011567
     atom   18 type  1   force =     0.00170922    0.00712999   -0.00017122
     atom   19 type  1   force =     0.00019076   -0.00746775   -0.00036797
     atom   20 type  1   force =     0.00010421   -0.00137781    0.00031810
     atom   21 type  1   force =     0.00250977   -0.00101309    0.00083336
     atom   22 type  2   force =    -0.00162008    0.00042412    0.00028799
     atom   23 type  2   force =     0.00000354   -0.00096976   -0.00061487
     atom   24 type  1   force =     0.00020533   -0.00742173    0.00007009
     atom   25 type  1   force =    -0.00022282    0.00783269    0.00003852
     atom   26 type  1   force =    -0.00030049    0.00018004    0.00012662
     atom   27 type  3   force =     0.00000857   -0.00036223   -0.00027172
     atom   28 type  3   force =     0.00000829   -0.00036311   -0.00027099
     atom   29 type  3   force =     0.00015969    0.00019647   -0.00067516
     atom   30 type  3   force =     0.00015785    0.00019719   -0.00067516

     Total force =     0.002129     Total SCF correction =     0.000496
     SCF correction compared to forces is large: reduce conv_thr to get better values

     bfgs converged in  14 scf cycles and  13 bfgs steps
     (criteria: energy < 0.10E-03, force < 0.10E-02)

     End of BFGS Geometry Optimization

     Final energy   =   -2139.2519509664 Ry
Begin final coordinates

ATOMIC_POSITIONS (crystal)
O0       0.000000000   0.000000000   0.372503521    0   0   1
O0       0.000000000   0.500000000   0.381682500    0   0   1
Re1      0.250000000   0.500000000   0.440826135    0   0   1
Re1      0.000000000   0.000000000   0.444597454    0   0   1
O0       0.250000000   0.780000000   0.442423136    0   0   1
O0       0.250000000   0.220000000   0.442282216    0   0   1
O0       0.000000000   0.500000000   0.496890826    0   0   1
O0       0.000000000   0.000000000   0.515474697    0   0   1
Re1      0.250000000   0.000000000   0.575829039    0   0   1
Re1      0.000000000   0.500000000   0.566404509    0   0   1
O0       0.250000000   0.720000000   0.573065344    0   0   1
O0       0.250000000   0.280000000   0.573080994    0   0   1
O0       0.000000000   0.000000000   0.628008765    0   0   1
O0       0.500000000   0.000000000   0.372503631    0   0   1
O0       0.500000000   0.500000000   0.381682673    0   0   1
Re1      0.750000000   0.500000000   0.440826435    0   0   1
Re1      0.500000000   0.000000000   0.444597657    0   0   1
O0       0.750000000   0.780000000   0.442424931    0   0   1
O0       0.750000000   0.220000000   0.442282231    0   0   1
O0       0.500000000   0.500000000   0.496891775    0   0   1
O0       0.500000000   0.000000000   0.515475199    0   0   1
Re1      0.750000000   0.000000000   0.575829156    0   0   1
Re1      0.500000000   0.500000000   0.566405796    0   0   1
O0       0.750000000   0.720000000   0.573065327    0   0   1
O0       0.750000000   0.280000000   0.573081072    0   0   1
O0       0.500000000   0.000000000   0.628009483    0   0   1
H2      -0.000426553   0.623797796   0.364285067
H2       0.499573929   0.623797076   0.364284877
H2       0.169492787   0.022913997   0.358222620
H2       0.669493809   0.022912771   0.358222932
End final coordinates

     General routines

     Parallel routines
     Hubbard U routines

   This run was terminated on:   2: 2:11  10May2014

   JOB DONE.
Running PBS batch system epilogue script
Job id: 340871.audhumbla.fysik.dtu.dk
Username: zhonxu
Groupname: campgst
Jobname: ReO2/Eads-2-layers/bare-U-6.0
Sessionid: 14871
Queuename: verylong
Accounting:
This job has allocated the following 16 nodes:
d101 d101 d101 d101 d101 d101 d101 d101 d028 d028 d028 d028 d028 d028 d028 d028
Finished epilogue job 340871.audhumbla.fysik.dtu.dk for zhonxu