     Program PWSCF v.5.0.2 (svn rev. 9656) starts on 19Apr2014 at 11:54:25

     Current dimensions of program PWSCF are:
     Max number of different atomic species (ntypx) = 10
     Max number of k-points (npk) =  40000
     Max angular momentum in pseudopotentials (lmaxx) =  3
     Reading input from pwscf.in
Warning: card &CELL ignored
Warning: card / ignored

     Subspace diagonalization in iterative solution of the eigenvalue problem:
     a serial algorithm will be used

     bravais-lattice index     =            0
     lattice parameter (alat)  =      11.7541  a.u.
     unit-cell volume          =    9749.5977 (a.u.)^3
     number of atoms/cell      =           49
     number of atomic types    =            2
     number of electrons       =       438.00
     number of Kohn-Sham states=          657
     kinetic-energy cutoff     =      40.0000  Ry
     charge density cutoff     =     500.0000  Ry
     convergence threshold     =      1.0E-06
     mixing beta               =       0.3000
     number of iterations used =            8  plain     mixing
     Exchange-correlation      = SLA  PW   PBE  PBE ( 1 4 3 4 0)
     EXX-fraction              =        0.00
     nstep                     =           50

     celldm(1)=  11.754097  celldm(2)=   0.000000  celldm(3)=   0.000000
     celldm(4)=   0.000000  celldm(5)=   0.000000  celldm(6)=   0.000000

     crystal axes: (cart. coord. in units of alat)
               a(1) = (   1.000000   0.000000   0.000000 )
               a(2) = (   0.000000   1.034513   0.000000 )
               a(3) = (   0.000000   0.000000   5.803406 )

     reciprocal axes: (cart. coord. in units 2 pi/alat)
               b(1) = (  1.000000  0.000000  0.000000 )
               b(2) = (  0.000000  0.966638  0.000000 )
               b(3) = (  0.000000  0.000000  0.172313 )

     PseudoPot. # 1 for O  read from file:
     /home/camp/zhonxu/pseudo/o_pbe_v1.01.uspp.F.UPF
     MD5 check sum: 2bcb18d16ea4b960afae9ec6d52f22d2
     Pseudo is Ultrasoft + core correction, Zval =  6.0
     Generated by new atomic code, or converted to UPF format
     Using radial grid of  737 points,  5 beta functions with:
                l(1) =   0
                l(2) =   0
                l(3) =   1
                l(4) =   1
                l(5) =   2
     Q(r) pseudized with  8 coefficients,  rinner =    0.900   0.900   0.900
                                                       0.900   0.900

     PseudoPot. # 2 for Rh read from file:
     /home/camp/zhonxu/pseudo/rh_pbe_v1.uspp.F.UPF
     MD5 check sum: 37b626987ad0dd8ec6bf4cc9ef289918
     Pseudo is Ultrasoft + core correction, Zval = 15.0
     Generated by new atomic code, or converted to UPF format
     Using radial grid of  969 points,  7 beta functions with:
                l(1) =   0
                l(2) =   0
                l(3) =   1
                l(4) =   1
                l(5) =   2
                l(6) =   2
                l(7) =   2
     Q(r) pseudized with  6 coefficients,  rinner =    1.050   1.050   1.050
                                                       1.050   1.050

     atomic species   valence    mass     pseudopotential
        O0             6.00    15.99940     O ( 1.00)
        Rh1           15.00   102.90550     Rh( 1.00)

      4 Sym. Ops. (no inversion) found

   Cartesian axes

     site n.     atom                  positions (alat units)
         1           O0  tau(   1) = (   0.0000000   0.5172566   1.9292842  )
         2           Rh1 tau(   2) = (   0.2500000   0.5172566   2.1258455  )
         3           Rh1 tau(   3) = (   0.0000000   0.0000000   2.1258455  )
         4           O0  tau(   4) = (   0.2500000   0.8379556   2.1258455  )
         5           O0  tau(   5) = (   0.2500000   0.1965575   2.1258455  )
         6           O0  tau(   6) = (   0.0000000   0.5172566   2.3223488  )
         7           O0  tau(   7) = (   0.0000000   0.0000000   2.4465417  )
         8           Rh1 tau(   8) = (   0.2500000   0.0000000   2.6431030  )
         9           Rh1 tau(   9) = (   0.0000000   0.5172566   2.6431030  )
        10           O0  tau(  10) = (   0.2500000   0.7138141   2.6431030  )
        11           O0  tau(  11) = (   0.2500000   0.3206991   2.6431030  )
        12           O0  tau(  12) = (   0.0000000   0.0000000   2.8396064  )
        13           O0  tau(  13) = (   0.0000000   0.5172566   2.9573575  )
        14           Rh1 tau(  14) = (   0.2500000   0.5172566   3.1562402  )
        15           Rh1 tau(  15) = (   0.0000000   0.0000000   3.1604767  )
        16           O0  tau(  16) = (   0.2500000   0.8345107   3.1596642  )
        17           O0  tau(  17) = (   0.2500000   0.2000024   3.1596642  )
        18           O0  tau(  18) = (   0.0000000   0.5172566   3.3551809  )
        19           O0  tau(  19) = (   0.0000000   0.0000000   3.4777488  )
        20           Rh1 tau(  20) = (   0.2500000   0.0000000   3.6811582  )
        21           Rh1 tau(  21) = (   0.0000000   0.5172566   3.6632837  )
        22           O0  tau(  22) = (   0.2500000   0.7138554   3.6912561  )
        23           O0  tau(  23) = (   0.2500000   0.3206577   3.6912561  )
        24           O0  tau(  24) = (   0.0000000   0.0000000   3.8739473  )
        25           O0  tau(  25) = (   0.5000000   0.5172566   1.9292842  )
        26           Rh1 tau(  26) = (   0.7500000   0.5172566   2.1258455  )
        27           Rh1 tau(  27) = (   0.5000000   0.0000000   2.1258455  )
        28           O0  tau(  28) = (   0.7500000   0.8379556   2.1258455  )
        29           O0  tau(  29) = (   0.7500000   0.1965575   2.1258455  )
        30           O0  tau(  30) = (   0.5000000   0.5172566   2.3223488  )
        31           O0  tau(  31) = (   0.5000000   0.0000000   2.4465417  )
        32           Rh1 tau(  32) = (   0.7500000   0.0000000   2.6431030  )
        33           Rh1 tau(  33) = (   0.5000000   0.5172566   2.6431030  )
        34           O0  tau(  34) = (   0.7500000   0.7138141   2.6431030  )
        35           O0  tau(  35) = (   0.7500000   0.3206991   2.6431030  )
        36           O0  tau(  36) = (   0.5000000   0.0000000   2.8396064  )
        37           O0  tau(  37) = (   0.5000000   0.5172566   2.9573575  )
        38           Rh1 tau(  38) = (   0.7500000   0.5172566   3.1562402  )
        39           Rh1 tau(  39) = (   0.5000000   0.0000000   3.1604767  )
        40           O0  tau(  40) = (   0.7500000   0.8345107   3.1596642  )
        41           O0  tau(  41) = (   0.7500000   0.2000024   3.1596642  )
        42           O0  tau(  42) = (   0.5000000   0.5172566   3.3551809  )
        43           O0  tau(  43) = (   0.5000000   0.0000000   3.4777488  )
        44           Rh1 tau(  44) = (   0.7500000   0.0000000   3.6811582  )
        45           Rh1 tau(  45) = (   0.5000000   0.5172566   3.6632837  )
        46           O0  tau(  46) = (   0.7500000   0.7138554   3.6912561  )
        47           O0  tau(  47) = (   0.7500000   0.3206577   3.6912561  )
        48           O0  tau(  48) = (   0.5000000   0.0000000   3.8739473  )
        49           O0  tau(  49) = (   0.5000000   0.5172566   3.9515969  )

     number of k points=     9  Methfessel-Paxton smearing, width (Ry)=  0.0100
                       cart. coord. in units 2pi/alat
        k(    1) = (   0.0000000   0.0000000   0.0000000), wk =   0.1250000
        k(    2) = (   0.0000000   0.2416596   0.0000000), wk =   0.2500000
        k(    3) = (   0.0000000  -0.4833191   0.0000000), wk =   0.1250000
        k(    4) = (   0.2500000   0.0000000   0.0000000), wk =   0.2500000
        k(    5) = (   0.2500000   0.2416596   0.0000000), wk =   0.5000000
        k(    6) = (   0.2500000  -0.4833191   0.0000000), wk =   0.2500000
        k(    7) = (  -0.5000000   0.0000000   0.0000000), wk =   0.1250000
        k(    8) = (  -0.5000000   0.2416596   0.0000000), wk =   0.2500000
        k(    9) = (  -0.5000000  -0.4833191   0.0000000), wk =   0.1250000

     Largest allocated arrays     est. size (Mb)     dimensions
     Largest temporary arrays     est. size (Mb)     dimensions

     Check: negative/imaginary core charge=   -0.000003    0.000000

     Initial potential from superposition of free atoms
     Check: negative starting charge=   -1.286866

     starting charge  429.99837, renormalised to  438.00000

     negative rho (up, down):  0.131E+01 0.000E+00
     Starting wfc are  324 randomized atomic wfcs

     Self-consistent Calculation

     iteration #  1     ecut=    40.00 Ry     beta=0.30
     Davidson diagonalization with overlap
     ethr =  1.00E-02,  avg # of iterations =  5.8

     negative rho (up, down):  0.133E+01 0.000E+00

     total energy              =   -3721.46330257 Ry
     Harris-Foulkes estimate   =   -3797.12370836 Ry
     estimated scf accuracy    <     151.97260815 Ry

[...]

     iteration # 21     ecut=    40.00 Ry     beta=0.30
     Davidson diagonalization with overlap
     c_bands:  2 eigenvalues not converged
     c_bands:  4 eigenvalues not converged
     ethr =  1.46E-06,  avg # of iterations = 16.1

[...]

     End of self-consistent calculation

          k = 0.0000 0.0000 0.0000 ( 41643 PWs)   bands (ev):

   -48.8070 -48.4436 -48.4372 -48.1363 -48.1114 -48.1089 -48.0831 -48.0725
   -48.0628 -48.0607 -48.0530 -48.0527 -48.0524 -48.0513 -48.0427 -48.0408
   -48.0390 -48.0324 -48.0250 -48.0204 -47.9925 -47.9418 -47.9393 -47.9352
   -47.9263 -47.9218 -47.9143 -47.9038 -47.8879 -47.8833 -47.8686 -47.8673
   -47.8652 -47.8491 -47.8413 -47.8224 -47.7928 -47.7845 -47.7501 -47.7103
   -47.7025 -47.6558 -47.6384 -47.6354 -47.6180 -47.5475 -47.5295 -47.5221
   -20.1246 -19.8897 -19.6451 -19.5137 -19.5021 -19.2682 -19.2427 -19.0434
   -18.9489 -18.9132 -18.8811 -18.8743 -18.8295 -18.8259 -18.8007 -18.7963
   -18.7615 -18.7261 -18.7240 -18.6201 -18.5961 -18.5448 -18.4949 -18.4799
   -18.3579 -18.3183 -18.2623 -18.1555 -17.5052 -17.3945 -17.3845 -17.3065
   -17.0884  -8.5432  -8.5145  -8.4802  -8.4065  -8.2984  -8.2328  -7.5391
    -7.4545  -7.3216  -7.3015  -7.2711  -7.2532  -7.1673  -7.1589  -7.1553
    -7.1406  -7.1036  -7.0956  -7.0395  -7.0325  -6.9864  -6.9756  -6.9401
    -6.9142  -6.9141  -6.7443  -6.7108  -6.7030  -6.6951  -6.6001  -6.5442
    -6.5030  -6.4504  -6.4396  -6.4151  -6.2834  -6.1314  -5.9243  -5.8026
    -5.7544  -5.6239  -5.4057  -5.2504  -5.1890  -5.1575  -5.1240  -5.0993
    -5.0966  -4.9954  -4.9681  -4.8005  -4.7697  -4.7521  -4.6755  -4.6648
    -4.5801  -4.5425  -4.3566  -4.3490  -4.3324  -4.1549  -4.1177  -4.0859
    -4.0343  -4.0128  -3.9769  -3.9262  -3.8739  -3.8470  -3.8361  -3.7811
    -3.7648  -3.7109  -3.6039  -3.5596  -3.5163  -3.5137  -3.4316  -3.3763
    -3.1929  -3.1716  -3.1672  -3.1576  -3.1023  -3.0714  -3.0021  -2.9703
    -2.9502  -2.8273  -2.7869  -2.7025  -2.6426  -2.6384  -2.6159  -2.6044
    -2.5888  -2.5818  -2.5229  -2.4812  -2.4643  -2.4004  -2.3539  -2.3255
    -2.2901  -2.2067  -2.1388  -2.1192  -2.0871  -2.0393  -2.0020  -1.9884
    -1.9614  -1.9125  -1.8938  -1.8282  -1.8021  -1.7947  -1.7768  -1.7479
[...]
O0       0.250000000   0.310000000   0.455440000    0   0   0
O0       0.000000000   0.000000000   0.489300000    0   0   0
O0       0.000000000   0.500000000   0.510160819
Rh1      0.253424566   0.500000000   0.544450654
Rh1      0.000000000   0.000000000   0.544442364
O0       0.250482846   0.806765606   0.544386937
O0       0.250482846   0.193234394   0.544386937
O0       0.000000000   0.500000000   0.577942567
O0       0.000000000   0.000000000   0.598928087
Rh1      0.250037386   0.000000000   0.633606226
Rh1      0.000000000   0.500000000   0.630523515
O0       0.248932404   0.691391140   0.633744416
O0       0.248932404   0.308608860   0.633744416
O0       0.000000000   0.000000000   0.666843515
O0       0.500000000   0.500000000   0.332440000    0   0   0
Rh1      0.750000000   0.500000000   0.366310000    0   0   0
Rh1      0.500000000   0.000000000   0.366310000    0   0   0
O0       0.750000000   0.810000000   0.366310000    0   0   0
O0       0.750000000   0.190000000   0.366310000    0   0   0
O0       0.500000000   0.500000000   0.400170000    0   0   0
O0       0.500000000   0.000000000   0.421570000    0   0   0
Rh1      0.750000000   0.000000000   0.455440000    0   0   0
Rh1      0.500000000   0.500000000   0.455440000    0   0   0
O0       0.750000000   0.690000000   0.455440000    0   0   0
O0       0.750000000   0.310000000   0.455440000    0   0   0
O0       0.500000000   0.000000000   0.489300000    0   0   0
O0       0.500000000   0.500000000   0.509906787
Rh1      0.746575434   0.500000000   0.544450654
Rh1      0.500000000   0.000000000   0.544433248
O0       0.749517154   0.806765606   0.544386937
O0       0.749517154   0.193234394   0.544386937
O0       0.500000000   0.500000000   0.579587970
O0       0.500000000   0.000000000   0.598687173
Rh1      0.749962614  -0.000000000   0.633606226
Rh1      0.500000000   0.500000000   0.637621925
O0       0.751067596   0.691391140   0.633744416
O0       0.751067596   0.308608860   0.633744416
O0       0.500000000   0.000000000   0.666706501
O0       0.500000000   0.500000000   0.686347665

     Check: negative starting charge=   -1.290104
     NEW-OLD atomic charge density approx. for the potential

     Check: negative/imaginary core charge=   -0.000003    0.000000
     Check: negative starting charge=   -1.290114

[...]

     Self-consistent Calculation

[...]

     Threshold (ethr) on eigenvalues was too large:
     Diagonalizing with lowered threshold

     Davidson diagonalization with overlap
     ethr =  2.34E-09,  avg # of iterations =  2.9

[...]

     total energy              =   -3790.19259957 Ry
     Harris-Foulkes estimate   =   -3790.19259958 Ry
     estimated scf accuracy    <       0.00000001 Ry

     iteration # 20     ecut=    40.00 Ry     beta=0.30
     Davidson diagonalization with overlap
     ethr =  3.40E-12,  avg # of iterations =  1.0

     negative rho (up, down):  0.138E+01 0.000E+00

     End of self-consistent calculation

[...]

          k = 0.2500-0.4833 0.0000 ( 41698 PWs)   bands (ev):

[...]

          k =-0.5000-0.4833 0.0000 ( 41672 PWs)   bands (ev):

   -48.9284 -48.6004 -48.4843 -48.0288 -48.0176 -48.0029 -48.0021 -47.9970
   -47.9949 -47.9942 -47.9933 -47.9881 -47.9854 -47.9763 -47.9763 -47.9753
   -47.9682 -47.9582 -47.9462 -47.9428 -47.9317 -47.9303 -47.9191 -47.8552
   -47.8520 -47.8519 -47.8330 -47.8328 -47.8284 -47.8197 -47.8137 -47.8087
   -47.8077 -47.7980 -47.7980 -47.7932 -47.7924 -47.7305 -47.7298 -47.6298
   -47.6266 -47.5728 -47.5710 -47.5705 -47.5688 -47.5688 -47.4617 -47.4604
   -19.4612 -19.3349 -19.3227 -19.2704 -19.0984 -19.0688 -19.0644 -19.0224
   -18.9033 -18.9009 -18.8888 -18.8862 -18.8228 -18.8061 -18.7923 -18.7888
   -18.7305 -18.6729 -18.6644 -18.6628 -18.6325 -18.6126 -18.5619 -18.5065
   -18.4816 -18.4800 -18.4273 -18.4061 -17.4995 -17.4913 -17.4110 -17.3511
   -17.3414  -7.6385  -7.5919  -7.5719  -7.5512  -7.1721  -7.1663  -7.1440
    -7.1408  -7.1331  -7.1154  -7.1151  -7.1055  -7.0958  -7.0534  -7.0263
    -7.0262  -6.8107  -6.8055  -6.7965  -6.7669  -6.6893  -6.6764  -6.6623
    -6.6446  -6.6114  -6.6085  -6.5665  -6.5623  -6.3406  -6.2848  -6.2820
    -6.2594  -6.2569  -6.2053  -6.1677  -6.1656  -6.1281  -6.1030  -6.0935
    -6.0521  -5.7136  -5.6932  -5.6385  -5.6323  -5.4118  -5.4079  -5.3958
    -5.3942  -5.2153  -5.0666  -5.0295  -5.0125  -4.9402  -4.8979  -4.8791
    -4.8789  -4.8543  -4.8496  -4.8351  -4.7979  -4.7883  -4.7820  -4.7487
    -4.7440  -4.7182  -4.5996  -4.5109  -4.4664  -4.4435  -4.4104  -4.4023
    -4.3212  -4.2637  -4.1317  -4.1146  -4.0733  -3.8005  -3.6977  -3.4446
    -3.3882  -3.3610  -3.3493  -3.1996  -3.1915  -3.1730  -3.1529  -3.0282
    -3.0264  -2.9256  -2.9031  -2.8957  -2.8417  -2.8387  -2.7444  -2.5630
    -2.4561  -2.3960  -2.1384  -1.9790  -1.9705  -1.9063  -1.8359  -1.7812
    -1.6824  -1.6654  -1.6433  -1.6243  -1.5469  -1.5289  -1.4527  -1.4470
    -1.3861  -1.3424  -1.3383  -1.2476  -1.2206  -1.0564  -1.0387  -1.0211
    -1.0018  -0.9428  -0.9424  -0.9417  -0.6688  -0.6665  -0.6590  -0.6565
    -0.6093  -0.5673  -0.5355  -0.5344  -0.5308  -0.4540  -0.4275  -0.3949
    -0.3783  -0.3755  -0.3482  -0.3102  -0.2773  -0.2722  -0.2617  -0.2489
    -0.2185  -0.1238  -0.1148  -0.1148   0.5143   0.5190   0.8368   0.9501
     1.1672   1.2579   1.2606   1.2720   1.3856   1.4243   1.4252   1.6517
     1.6928   1.7103   1.7253   2.3192   2.4745   2.4958   2.5005   2.7604
     2.8127   2.8700   2.8722   3.1294   3.1837   3.2424   3.2549   3.3975
     3.4308   3.4853   3.5072   3.5142   6.0912   6.0917   6.9050   7.4786
     7.4802   7.8192   7.8195   7.9812   7.9842   7.9905   8.1063   8.1165
     8.2239   8.2991   8.3015   8.4277   8.5767   8.6008   8.6337   8.6712
     8.8366   8.8436   8.8967   9.0241   9.0332   9.0586   9.1384   9.1785
     9.5343   9.5491   9.5783   9.6933   9.7260   9.7762   9.8067   9.8800
    10.3221  10.3245  10.3877  10.5243  10.5366  10.6024  10.6149  10.7530
    11.2113  11.2403  11.2684  11.5827  11.5842  11.6032  11.6356  11.6925
    12.0783  12.0963  12.2329  12.3390  12.4494  12.4577  12.4908  12.5055
    12.6855  12.6924  12.7820  12.7848  12.8937  12.9095  12.9391  13.0349
    13.0351  13.0824  13.1725  13.2907  13.3662  13.4190  13.4773  13.5178
    13.5948  13.6563  13.6683  13.7075  13.7524  13.7582  13.8182  13.8753
    13.9349  14.1365  14.1598  14.2308  14.2565  14.2576  14.3405  14.3565
    14.3786  14.4415  14.4933  14.5173  14.5822  14.6973  14.8693  14.9306
    14.9618  14.9701  14.9920  15.0027  15.1081  15.1231  15.1697  15.1857
    15.2043  15.2144  15.2163  15.2227  15.3345  15.3464  15.3826  15.4245
    15.5010  15.5128  15.5207  15.5478  15.5694  15.5730  15.5994  15.6270
    15.6288  15.6428  15.7030  15.7414  15.8943  15.8997  15.9279  15.9326
    15.9391  15.9568  15.9923  16.0100  16.0479  16.0513  16.0631  16.1185
    16.1679  16.1785  16.1788  16.2518  16.2676  16.3110  16.3176  16.3919
    16.4891  16.4910  16.5158  16.5455  16.6763  16.6989  16.7012  16.7054
    16.8141  16.8345  16.8706  16.9699  17.0028  17.0338  17.0388  17.0950
    17.1046  17.1482  17.1749  17.1877  17.3811  17.4462  17.4506  17.4656
    17.5290  17.5780  17.5785  17.6583  17.7171  17.7237  17.7876  17.7925
    17.8047  17.8259  17.8577  17.8997  17.9205  17.9424  17.9502  17.9580
    18.2458  18.2680  18.3381  18.3513  18.3935  18.4536  18.4658  18.5561
    18.6219  18.6618  18.7081  18.8111  18.8525  18.8614  18.8883  18.9365
    19.0629  19.1796  19.1848  19.1943  19.4830  19.5872  19.6124  19.6364
    19.6454  19.6459  19.6776  19.8181  19.8286  19.8500  19.8640  19.9186
[...]
    23.4758  23.5035  23.5528  23.5925  23.6924  23.6961  23.7623  23.7900
    23.9010  23.9215  23.9386  23.9736  23.9784  23.9898  24.0080  24.0596
    24.1563  24.1810  24.2052  24.2352  24.2756  24.2983  24.3287  24.3860
    24.3872  24.3895  24.4164  24.4420  24.5220  24.5301  24.5432  24.5661
    24.6002  24.6445  24.7605  24.7660  24.8438  24.8594  24.8758  24.8942
    24.9911  25.1079  25.1769  25.2408  25.2445  25.2575  25.2585  25.2929
    25.4160  25.4403  25.5076  25.5458  25.5740  25.6367  25.6381  25.6462
    25.8008  25.8080  25.8816  25.9690  25.9779  25.9936  26.0159  26.0881
    26.1159  26.1546  26.1806  26.2638  26.2782  26.3656  26.4207  26.4263
    26.5199  26.5576  26.5906  26.6461  26.6979  26.7121  26.7859  26.7922
    26.7954  26.8456  26.8590  26.8764  27.0196  27.0568  27.0632  27.0752
    27.1046  27.1529  27.1797  27.1858  27.2179  27.2957  27.3834  27.3949
    27.4513  27.4804  27.4915  27.5018  27.5431  27.7002  27.7246  27.7837
    27.7951  27.8446  27.9189  27.9350  27.9397  27.9909  28.0075  28.0195
    28.0215

     the Fermi energy is    -0.2023 ev

!    total energy              =   -3790.19259957 Ry
     Harris-Foulkes estimate   =   -3790.19259958 Ry
     estimated scf accuracy    <          5.4E-09 Ry

     The total energy is the sum of the following terms:

     one-electron contribution =  -80506.38479605 Ry
     hartree contribution      =   40357.10174980 Ry
     xc contribution           =    -702.70285900 Ry
     ewald contribution        =   37061.79331875 Ry
     smearing contrib. (-TS)   =      -0.00001307 Ry

     convergence has been achieved in  20 iterations

     Forces acting on atoms (Ry/au):

     negative rho (up, down):  0.138E+01 0.000E+00
     atom    1 type  1   force =     0.00000000    0.00000000    0.01217289
     atom    2 type  2   force =    -0.00142090    0.00000000   -0.02553490
     atom    3 type  2   force =     0.00000000    0.00000000    0.07664952
     atom    4 type  1   force =     0.00019427   -0.01164427   -0.02794045
     atom    5 type  1   force =     0.00019427    0.01164427   -0.02794045
     atom    6 type  1   force =     0.00000000    0.00000000    0.02289947
     atom    7 type  1   force =     0.00000000    0.00000000   -0.02630352
     atom    8 type  2   force =     0.00063720    0.00000000   -0.01205957
     atom    9 type  2   force =     0.00000000    0.00000000   -0.01112401
     atom   10 type  1   force =    -0.00071807    0.02081453   -0.00260515
     atom   11 type  1   force =    -0.00071807   -0.02081453   -0.00260515
     atom   12 type  1   force =     0.00000000    0.00000000    0.02464206
     atom   13 type  1   force =     0.00000000    0.00000000   -0.00003798
     atom   14 type  2   force =     0.00001504    0.00000000   -0.00000268
     atom   15 type  2   force =     0.00000000    0.00000000   -0.00031742
     atom   16 type  1   force =     0.00000669   -0.00004031   -0.00040752
     atom   17 type  1   force =     0.00000669    0.00004031   -0.00040752
     atom   18 type  1   force =     0.00000000    0.00000000    0.00013476
     atom   19 type  1   force =     0.00000000    0.00000000    0.00000963
     atom   20 type  2   force =     0.00000343    0.00000000    0.00013854
     atom   21 type  2   force =     0.00000000    0.00000000    0.00039514
     atom   22 type  1   force =     0.00026264   -0.00007807    0.00012757
     atom   23 type  1   force =     0.00026264    0.00007807    0.00012757
     atom   24 type  1   force =     0.00000000    0.00000000    0.00056925
     atom   25 type  1   force =     0.00000000    0.00000000    0.01256811
     atom   26 type  2   force =     0.00142090    0.00000000   -0.02553490
     atom   27 type  2   force =     0.00000000    0.00000000    0.07661701
     atom   28 type  1   force =    -0.00019427   -0.01164427   -0.02794045
     atom   29 type  1   force =    -0.00019427    0.01164427   -0.02794045
     atom   30 type  1   force =     0.00000000    0.00000000    0.02782598
     atom   31 type  1   force =     0.00000000    0.00000000   -0.02712468
     atom   32 type  2   force =    -0.00063720    0.00000000   -0.01205957
     atom   33 type  2   force =     0.00000000    0.00000000   -0.01717211
     atom   34 type  1   force =     0.00071807    0.02081453   -0.00260515
     atom   35 type  1   force =     0.00071807   -0.02081453   -0.00260515
     atom   36 type  1   force =     0.00000000    0.00000000    0.02601614
     atom   37 type  1   force =     0.00000000    0.00000000    0.00006633
     atom   38 type  2   force =    -0.00001504    0.00000000   -0.00000268
     atom   39 type  2   force =     0.00000000    0.00000000   -0.00002805
     atom   40 type  1   force =    -0.00000669   -0.00004031   -0.00040752
     atom   41 type  1   force =    -0.00000669    0.00004031   -0.00040752
     atom   42 type  1   force =     0.00000000    0.00000000   -0.00007878
     atom   43 type  1   force =     0.00000000    0.00000000    0.00001308
     atom   44 type  2   force =    -0.00000343    0.00000000    0.00013854
     atom   45 type  2   force =     0.00000000    0.00000000    0.00027818
     atom   46 type  1   force =    -0.00026264   -0.00007807    0.00012757
     atom   47 type  1   force =    -0.00026264    0.00007807    0.00012757
     atom   48 type  1   force =     0.00000000    0.00000000   -0.00020219
     atom   49 type  1   force =     0.00000000    0.00000000   -0.00024940

     Total force =     0.001367     Total SCF correction =     0.000155
     SCF correction compared to forces is large: reduce conv_thr to get better values

     bfgs converged in  13 scf cycles and  12 bfgs steps
     (criteria: energy < 0.10E-03, force < 0.10E-02)

     End of BFGS Geometry Optimization

     Final energy   =   -3790.1925995695 Ry
Begin final coordinates

ATOMIC_POSITIONS (crystal)
O0       0.000000000   0.500000000   0.332440000    0   0   0
Rh1      0.250000000   0.500000000   0.366310000    0   0   0
Rh1      0.000000000   0.000000000   0.366310000    0   0   0
O0       0.250000000   0.810000000   0.366310000    0   0   0
O0       0.250000000   0.190000000   0.366310000    0   0   0
O0       0.000000000   0.500000000   0.400170000    0   0   0
O0       0.000000000   0.000000000   0.421570000    0   0   0
Rh1      0.250000000   0.000000000   0.455440000    0   0   0
Rh1      0.000000000   0.500000000   0.455440000    0   0   0
O0       0.250000000   0.690000000   0.455440000    0   0   0
O0       0.250000000   0.310000000   0.455440000    0   0   0
O0       0.000000000   0.000000000   0.489300000    0   0   0
O0       0.000000000   0.500000000   0.510160819
Rh1      0.253424566   0.500000000   0.544450654
Rh1      0.000000000   0.000000000   0.544442364
O0       0.250482846   0.806765606   0.544386937
O0       0.250482846   0.193234394   0.544386937
O0       0.000000000   0.500000000   0.577942567
O0       0.000000000   0.000000000   0.598928087
Rh1      0.250037386   0.000000000   0.633606226
Rh1      0.000000000   0.500000000   0.630523515
O0       0.248932404   0.691391140   0.633744416
O0       0.248932404   0.308608860   0.633744416
O0       0.000000000   0.000000000   0.666843515
O0       0.500000000   0.500000000   0.332440000    0   0   0
Rh1      0.750000000   0.500000000   0.366310000    0   0   0
Rh1      0.500000000   0.000000000   0.366310000    0   0   0
O0       0.750000000   0.810000000   0.366310000    0   0   0
O0       0.750000000   0.190000000   0.366310000    0   0   0
O0       0.500000000   0.500000000   0.400170000    0   0   0
O0       0.500000000   0.000000000   0.421570000    0   0   0
Rh1      0.750000000   0.000000000   0.455440000    0   0   0
Rh1      0.500000000   0.500000000   0.455440000    0   0   0
O0       0.750000000   0.690000000   0.455440000    0   0   0
O0       0.750000000   0.310000000   0.455440000    0   0   0
O0       0.500000000   0.000000000   0.489300000    0   0   0
O0       0.500000000   0.500000000   0.509906787
Rh1      0.746575434   0.500000000   0.544450654
Rh1      0.500000000   0.000000000   0.544433248
O0       0.749517154   0.806765606   0.544386937
O0       0.749517154   0.193234394   0.544386937
O0       0.500000000   0.500000000   0.579587970
O0       0.500000000   0.000000000   0.598687173
Rh1      0.749962614  -0.000000000   0.633606226
Rh1      0.500000000   0.500000000   0.637621925
O0       0.751067596   0.691391140   0.633744416
O0       0.751067596   0.308608860   0.633744416
O0       0.500000000   0.000000000   0.666706501
O0       0.500000000   0.500000000   0.686347665
End final coordinates

     General routines

     Parallel routines

   This run was terminated on:  22: 2:18  20Apr2014

   JOB DONE.
Running PBS batch system epilogue script
Job id: 329715.audhumbla.fysik.dtu.dk
Username: zhonxu
Groupname: campgst
Jobname: RhO2/Eads-4-layers/O-relax
Sessionid: 51066
Queuename: verylong
Accounting:
This job has allocated the following 32 nodes:
g025 g025 g025 g025 g025 g025 g025 g025 g025 g025 g025 g025 g025 g025 g025 g025 g021 g021 g021 g021 g021 g021 g021 g021 g021 g021 g021 g021 g021 g021 g021 g021
Finished epilogue job 329715.audhumbla.fysik.dtu.dk for zhonxu