     Program PWSCF v.5.0.2 (svn rev. 9656) starts on 12May2014 at 20:35:51

     Current dimensions of program PWSCF are:
     Max number of different atomic species (ntypx) = 10
     Max number of k-points (npk) =  40000
     Max angular momentum in pseudopotentials (lmaxx) =  3
     Reading input from pwscf.in
Warning: card &CELL ignored
Warning: card / ignored

     Subspace diagonalization in iterative solution of the eigenvalue problem:
     a serial algorithm will be used

     bravais-lattice index     =            0
     lattice parameter (alat)  =      11.7541  a.u.
     unit-cell volume          =    7139.8207 (a.u.)^3
     number of atoms/cell      =           31
     number of atomic types    =            3
     number of electrons       =       238.00
     number of Kohn-Sham states=          357
     kinetic-energy cutoff     =      40.0000  Ry
     charge density cutoff     =     500.0000  Ry
     convergence threshold     =      1.0E-06
     mixing beta               =       0.3000
     number of iterations used =            8  plain     mixing
     Exchange-correlation      = SLA  PW   PBE  PBE ( 1 4 3 4 0)
     EXX-fraction              =        0.00
     nstep                     =           50

     celldm(1)=  11.754097  celldm(2)=   0.000000  celldm(3)=   0.000000
     celldm(4)=   0.000000  celldm(5)=   0.000000  celldm(6)=   0.000000

     crystal axes: (cart. coord. in units of alat)
               a(1) = (   1.000000   0.000000   0.000000 )
               a(2) = (   0.000000   1.034513   0.000000 )
               a(3) = (   0.000000   0.000000   4.249947 )

     reciprocal axes: (cart. coord. in units 2 pi/alat)
               b(1) = (  1.000000  0.000000  0.000000 )
               b(2) = (  0.000000  0.966638  0.000000 )
               b(3) = (  0.000000  0.000000  0.235297 )

     PseudoPot. # 1 for O  read from file:
     /home/camp/zhonxu/pseudo/o_pbe_v1.01.uspp.F.UPF
     MD5 check sum: 2bcb18d16ea4b960afae9ec6d52f22d2
     Pseudo is Ultrasoft + core correction, Zval =  6.0
     Generated by new atomic code, or converted to UPF format
     Using radial grid of  737 points,  5 beta functions with:
                l(1) =   0
                l(2) =   0
                l(3) =   1
                l(4) =   1
                l(5) =   2
     Q(r) pseudized with  8 coefficients,  rinner =    0.900   0.900   0.900
                                                       0.900   0.900

     PseudoPot. # 2 for Rh read from file:
     /home/camp/zhonxu/pseudo/rh_pbe_v1.uspp.F.UPF
     MD5 check sum: 37b626987ad0dd8ec6bf4cc9ef289918
     Pseudo is Ultrasoft + core correction, Zval = 15.0
     Generated by new atomic code, or converted to UPF format
     Using radial grid of  969 points,  7 beta functions with:
                l(1) =   0
                l(2) =   0
                l(3) =   1
                l(4) =   1
                l(5) =   2
                l(6) =   2
                l(7) =   2
     Q(r) pseudized with  6 coefficients,  rinner =    1.050   1.050   1.050
                                                       1.050   1.050

     PseudoPot. # 3 for H  read from file:
     /home/camp/zhonxu/pseudo/h_pbe_v1.uspp.F.UPF
     MD5 check sum: 3408e3ff4ec8b0a4e358431e7e038a48
     Pseudo is Ultrasoft, Zval =  1.0
     Generated by new atomic code, or converted to UPF format
     Using radial grid of  615 points,  2 beta functions with:
                l(1) =   0
                l(2) =   0
     Q(r) pseudized with  8 coefficients,  rinner =    0.700

     atomic species   valence    mass     pseudopotential
        O0             6.00    15.99940     O ( 1.00)
        Rh1           15.00   102.90550     Rh( 1.00)
        H2             1.00     1.00794     H ( 1.00)

     Simplified LDA+U calculation (l_max = 2) with parameters (eV):
     atomic species    L          U    alpha       J0     beta
        Rh1            2     4.5000   0.0000   0.0000   0.0000

     No symmetry found

   Cartesian axes

     site n.     atom                  positions (alat units)
         1           O0  tau(   1) = (   0.0000000   0.0000000   1.6064375  )
         2           O0  tau(   2) = (   0.0000000   0.5172566   1.7091588  )
         3           Rh1 tau(   3) = (   0.2500000   0.5172566   1.9262886  )
         4           Rh1 tau(   4) = (   0.0000000   0.0000000   1.9228036  )
         5           O0  tau(   5) = (   0.2500000   0.8379556   1.9220386  )
         6           O0  tau(   6) = (   0.2500000   0.1965575   1.9215286  )
         7           O0  tau(   7) = (   0.0000000   0.5172566   2.1200437  )
         8           O0  tau(   8) = (   0.0000000   0.0000000   2.2432071  )
         9           Rh1 tau(   9) = (   0.2500000   0.0000000   2.4439746  )
        10           Rh1 tau(  10) = (   0.0000000   0.5172566   2.4253174  )
        11           O0  tau(  11) = (   0.2500000   0.7138141   2.4432947  )
        12           O0  tau(  12) = (   0.2500000   0.3206991   2.4432097  )
        13           O0  tau(  13) = (   0.0000000   0.0000000   2.6356898  )
        14           O0  tau(  14) = (   0.5000000   0.0000000   1.6064375  )
        15           O0  tau(  15) = (   0.5000000   0.5172566   1.7079263  )
        16           Rh1 tau(  16) = (   0.7500000   0.5172566   1.9262886  )
        17           Rh1 tau(  17) = (   0.5000000   0.0000000   1.9227611  )
        18           O0  tau(  18) = (   0.7500000   0.8379556   1.9219536  )
        19           O0  tau(  19) = (   0.7500000   0.1965575   1.9216136  )
        20           O0  tau(  20) = (   0.5000000   0.5172566   2.1284161  )
        21           O0  tau(  21) = (   0.5000000   0.0000000   2.2423572  )
        22           Rh1 tau(  22) = (   0.7500000   0.0000000   2.4439321  )
        23           Rh1 tau(  23) = (   0.5000000   0.5172566   2.4652244  )
        24           O0  tau(  24) = (   0.7500000   0.7138141   2.4431672  )
        25           O0  tau(  25) = (   0.7500000   0.3206991   2.4432097  )
        26           O0  tau(  26) = (   0.5000000   0.0000000   2.6354348  )
        27           H2  tau(  27) = (  -0.0000700   0.6590056   1.6354222  )
        28           H2  tau(  28) = (   0.4999300   0.6605366   1.6368247  )
        29           H2  tau(  29) = (   0.1480800   0.0354838   1.5606656  )
        30           H2  tau(  30) = (   0.6481100   0.0354321   1.5605806  )
        31           O0  tau(  31) = (   0.5000800   0.5160462   2.7479734  )

     number of k points=    10  Methfessel-Paxton smearing, width (Ry)=  0.0100
                       cart. coord. in units 2pi/alat
        k(    1) = (   0.0000000   0.0000000   0.0000000), wk =   0.1250000
        k(    2) = (   0.0000000   0.2416596   0.0000000), wk =   0.2500000
        k(    3) = (   0.0000000  -0.4833191   0.0000000), wk =   0.1250000
        k(    4) = (   0.2500000   0.0000000   0.0000000), wk =   0.2500000
        k(    5) = (   0.2500000   0.2416596   0.0000000), wk =   0.2500000
        k(    6) = (   0.2500000  -0.4833191   0.0000000), wk =   0.2500000
        k(    7) = (  -0.5000000   0.0000000   0.0000000), wk =   0.1250000
        k(    8) = (  -0.5000000   0.2416596   0.0000000), wk =   0.2500000
        k(    9) = (  -0.5000000  -0.4833191   0.0000000), wk =   0.1250000
        k(   10) = (  -0.2500000   0.2416596   0.0000000), wk =   0.2500000

     Largest allocated arrays     est. size (Mb)     dimensions
     Largest temporary arrays     est. size (Mb)     dimensions

     Check: negative/imaginary core charge=   -0.000003    0.000000

     Initial potential from superposition of free atoms
     Check: negative starting charge=   -0.645358

     starting charge  233.99915, renormalised to  238.00000

     negative rho (up, down):  0.656E+00 0.000E+00
     Number of +U iterations with fixed ns =  0
     Starting occupations:
 --- enter write_ns ---
 LDA+U parameters:
U( 2)     =  4.50000000
alpha( 2) =  0.00000000
atom    3   Tr[ns(na)] =   7.00000
    eigenvalues:
  0.700  0.700  0.700  0.700  0.700
    eigenvectors:
  1.000  0.000  0.000  0.000  0.000
  0.000  1.000  0.000  0.000  0.000
  0.000  0.000  1.000  0.000  0.000
  0.000  0.000  0.000  1.000  0.000
  0.000  0.000  0.000  0.000  1.000
    occupations:
  0.700  0.000  0.000  0.000  0.000
  0.000  0.700  0.000  0.000  0.000
  0.000  0.000  0.700  0.000  0.000
  0.000  0.000  0.000  0.700  0.000
  0.000  0.000  0.000  0.000  0.700
atom    4   Tr[ns(na)] =   7.00000
    eigenvalues:
  0.700  0.700  0.700  0.700  0.700
    eigenvectors:
  1.000  0.000  0.000  0.000  0.000
  0.000  1.000  0.000  0.000  0.000
  0.000  0.000  1.000  0.000  0.000
  0.000  0.000  0.000  1.000  0.000
  0.000  0.000  0.000  0.000  1.000
    occupations:
  0.700  0.000  0.000  0.000  0.000
  0.000  0.700  0.000  0.000  0.000
  0.000  0.000  0.700  0.000  0.000
  0.000  0.000  0.000  0.700  0.000
  0.000  0.000  0.000  0.000  0.700
atom    9   Tr[ns(na)] =   7.00000
    eigenvalues:
  0.700  0.700  0.700  0.700  0.700
    eigenvectors:
  1.000  0.000  0.000  0.000  0.000
  0.000  1.000  0.000  0.000  0.000
  0.000  0.000  1.000  0.000  0.000
  0.000  0.000  0.000  1.000  0.000
  0.000  0.000  0.000  0.000  1.000
    occupations:
  0.700  0.000  0.000  0.000  0.000
  0.000  0.700  0.000  0.000  0.000
  0.000  0.000  0.700  0.000  0.000
  0.000  0.000  0.000  0.700  0.000
  0.000  0.000  0.000  0.000  0.700
atom   10   Tr[ns(na)] =   7.00000
    eigenvalues:
  0.700  0.700  0.700  0.700  0.700
    eigenvectors:
  1.000  0.000  0.000  0.000  0.000
  0.000  1.000  0.000  0.000  0.000
  0.000  0.000  1.000  0.000  0.000
  0.000  0.000  0.000  1.000  0.000
  0.000  0.000  0.000  0.000  1.000
    occupations:
  0.700  0.000  0.000  0.000  0.000
  0.000  0.700  0.000  0.000  0.000
  0.000  0.000  0.700  0.000  0.000
  0.000  0.000  0.000  0.700  0.000
  0.000  0.000  0.000  0.000  0.700
atom   16   Tr[ns(na)] =   7.00000
    eigenvalues:
  0.700  0.700  0.700  0.700  0.700
    eigenvectors:
  1.000  0.000  0.000  0.000  0.000
  0.000  1.000  0.000  0.000  0.000
  0.000  0.000  1.000  0.000  0.000
  0.000  0.000  0.000  1.000  0.000
  0.000  0.000  0.000  0.000  1.000
    occupations:
  0.700  0.000  0.000  0.000  0.000
  0.000  0.700  0.000  0.000  0.000
  0.000  0.000  0.700  0.000  0.000
  0.000  0.000  0.000  0.700  0.000
  0.000  0.000  0.000  0.000  0.700
atom   17   Tr[ns(na)] =   7.00000
    eigenvalues:
  0.700  0.700  0.700  0.700  0.700
    eigenvectors:
  1.000  0.000  0.000  0.000  0.000
  0.000  1.000  0.000  0.000  0.000
  0.000  0.000  1.000  0.000  0.000
  0.000  0.000  0.000  1.000  0.000
  0.000  0.000  0.000  0.000  1.000
    occupations:
  0.700  0.000  0.000  0.000  0.000
  0.000  0.700  0.000  0.000  0.000
  0.000  0.000  0.700  0.000  0.000
  0.000  0.000  0.000  0.700  0.000
  0.000  0.000  0.000  0.000  0.700
atom   22   Tr[ns(na)] =   7.00000
    eigenvalues:
  0.700  0.700  0.700  0.700  0.700
    eigenvectors:
  1.000  0.000  0.000  0.000  0.000
  0.000  1.000  0.000  0.000  0.000
  0.000  0.000  1.000  0.000  0.000
  0.000  0.000  0.000  1.000  0.000
  0.000  0.000  0.000  0.000  1.000
    occupations:
  0.700  0.000  0.000  0.000  0.000
[...]
    eigenvectors:
  0.005  0.146  0.000  0.000  0.849
  0.969  0.031  0.000  0.000  0.000
  0.000  0.000  0.931  0.069  0.000
  0.026  0.823  0.000  0.000  0.151
  0.000  0.000  0.069  0.931  0.000
    occupations:
  0.928  0.002 -0.000 -0.120 -0.000
  0.002  0.636  0.001  0.001 -0.000
 -0.000  0.001  0.872  0.000 -0.009
 -0.120  0.001  0.000  0.694  0.001
 -0.000 -0.000 -0.009  0.001  0.901
atom   10   Tr[ns(na)] =   8.04576
    eigenvalues:
  0.587  0.591  0.929  0.938  0.978
    eigenvectors:
  0.991  0.000  0.000  0.000  0.009
  0.000  0.000  0.000  1.000  0.000
  0.000  0.000  1.000  0.000  0.000
  0.009  0.000  0.000  0.000  0.991
  0.000  1.000  0.000  0.000  0.000
    occupations:
  0.590  0.000  0.001  0.037 -0.000
  0.000  0.938 -0.000 -0.000 -0.000
  0.001 -0.000  0.929  0.000  0.000
  0.037 -0.000  0.000  0.975 -0.000
 -0.000 -0.000  0.000 -0.000  0.591
atom   16   Tr[ns(na)] =   8.05912
    eigenvalues:
  0.582  0.603  0.905  0.962  0.978
    eigenvectors:
  0.010  0.191  0.002  0.000  0.796
  0.958  0.042  0.000  0.000  0.000
  0.000  0.000  0.983  0.015  0.002
  0.032  0.767  0.000  0.000  0.201
  0.000  0.000  0.014  0.985  0.001
    occupations:
  0.902  0.005  0.002 -0.150  0.001
  0.005  0.583  0.001  0.002 -0.006
  0.002  0.001  0.906 -0.004 -0.007
 -0.150  0.002 -0.004  0.678  0.000
  0.001 -0.006 -0.007  0.000  0.961
atom   17   Tr[ns(na)] =   8.06146
    eigenvalues:
  0.600  0.650  0.877  0.925  0.979
    eigenvectors:
  0.001  0.991  0.000  0.000  0.008
  0.000  0.000  0.075  0.925  0.000
  0.000  0.000  0.925  0.075  0.000
  0.000  0.008  0.000  0.000  0.992
  0.999  0.001  0.000  0.000  0.000
    occupations:
  0.652 -0.004 -0.001  0.029  0.001
 -0.004  0.921  0.013  0.001 -0.001
 -0.001  0.013  0.881 -0.000  0.001
  0.029  0.001 -0.000  0.976  0.000
  0.001 -0.001  0.001  0.000  0.600
atom   22   Tr[ns(na)] =   8.06009
    eigenvalues:
  0.636  0.643  0.869  0.904  0.979
    eigenvectors:
  0.000  0.151  0.000  0.000  0.849
  0.998  0.002  0.000  0.000  0.000
  0.000  0.000  0.936  0.064  0.000
  0.002  0.847  0.000  0.000  0.151
  0.000  0.000  0.064  0.936  0.000
    occupations:
  0.928 -0.001  0.000 -0.120 -0.000
 -0.001  0.636  0.001 -0.000 -0.000
  0.000  0.001  0.872 -0.000  0.008
 -0.120 -0.000 -0.000  0.694  0.001
 -0.000 -0.000  0.008  0.001  0.901
atom   23   Tr[ns(na)] =   8.04767
    eigenvalues:
  0.639  0.702  0.827  0.874  0.982
    eigenvectors:
  0.000  0.993  0.000  0.000  0.007
  0.000  0.000  0.000  1.000  0.000
  0.000  0.000  1.000  0.000  0.000
  0.000  0.007  0.000  0.000  0.993
  1.000  0.000  0.000  0.000  0.000
    occupations:
  0.704  0.000 -0.001  0.023 -0.000
  0.000  0.874 -0.000  0.000  0.000
 -0.001 -0.000  0.827  0.001  0.000
  0.023  0.000  0.001  0.980  0.000
 -0.000  0.000  0.000  0.000  0.639
N of occupied +U levels =  64.4561967
 --- exit write_ns ---

     Threshold (ethr) on eigenvalues was too large:
     Diagonalizing with lowered threshold

     Davidson diagonalization with overlap
     ethr =  1.28E-08,  avg # of iterations =  2.7

[...]

     total energy              =   -1978.49623514 Ry
     Harris-Foulkes estimate   =   -1978.49623514 Ry
     estimated scf accuracy    <       0.00000004 Ry

     iteration # 16     ecut=    40.00 Ry     beta=0.30
     Davidson diagonalization with overlap
     ethr =  1.06E-11,  avg # of iterations =  1.0

     negative rho (up, down):  0.689E+00 0.000E+00

     End of self-consistent calculation
 --- enter write_ns ---
 LDA+U parameters:
U( 2)     =  4.50000000
alpha( 2) =  0.00000000
atom    3   Tr[ns(na)] =   8.05928
    eigenvalues:
  0.582  0.603  0.905  0.962  0.978
    eigenvectors:
  0.011  0.190  0.002  0.000  0.796
  0.954  0.046  0.000  0.000  0.000
  0.000  0.000  0.977  0.021  0.002
  0.035  0.764  0.000  0.000  0.201
  0.000  0.000  0.020  0.979  0.001
    occupations:
  0.902 -0.005  0.002 -0.150 -0.001
 -0.005  0.583 -0.001 -0.002 -0.006
  0.002 -0.001  0.906 -0.004  0.008
 -0.150 -0.002 -0.004  0.678 -0.000
 -0.001 -0.006  0.008 -0.000  0.961
atom    4   Tr[ns(na)] =   8.06228
    eigenvalues:
  0.599  0.650  0.876  0.927  0.979
    eigenvectors:
  0.001  0.991  0.000  0.000  0.008
  0.000  0.000  0.055  0.945  0.000
  0.000  0.000  0.945  0.055  0.000
  0.000  0.008  0.000  0.000  0.992
  0.999  0.001  0.000  0.000  0.000
    occupations:
  0.652 -0.004 -0.001  0.029  0.001
 -0.004  0.924  0.012  0.001 -0.001
 -0.001  0.012  0.879 -0.001  0.001
  0.029  0.001 -0.001  0.976  0.000
  0.001 -0.001  0.001  0.000  0.599
atom    9   Tr[ns(na)] =   8.06087
    eigenvalues:
  0.635  0.643  0.869  0.904  0.979
    eigenvectors:
  0.005  0.146  0.000  0.000  0.849
  0.970  0.030  0.000  0.000  0.000
  0.000  0.000  0.931  0.069  0.000
  0.025  0.823  0.000  0.000  0.151
  0.000  0.000  0.069  0.931  0.000
    occupations:
  0.928  0.002 -0.000 -0.120 -0.000
  0.002  0.636  0.001  0.001 -0.000
 -0.000  0.001  0.872  0.000 -0.009
 -0.120  0.001  0.000  0.694  0.001
 -0.000 -0.000 -0.009  0.001  0.902
atom   10   Tr[ns(na)] =   8.04607
    eigenvalues:
  0.587  0.591  0.929  0.938  0.978
    eigenvectors:
  0.991  0.000  0.000  0.000  0.009
  0.000  0.000  0.000  1.000  0.000
  0.000  0.000  1.000  0.000  0.000
  0.009  0.000  0.000  0.000  0.991
  0.000  1.000  0.000  0.000  0.000
    occupations:
  0.590  0.000  0.001  0.037 -0.000
  0.000  0.938 -0.000 -0.000 -0.000
  0.001 -0.000  0.929  0.000  0.000
  0.037 -0.000  0.000  0.975 -0.000
 -0.000 -0.000  0.000 -0.000  0.591
atom   16   Tr[ns(na)] =   8.05925
    eigenvalues:
  0.582  0.603  0.905  0.962  0.978
    eigenvectors:
  0.010  0.191  0.002  0.000  0.796
  0.957  0.043  0.000  0.000  0.000
  0.000  0.000  0.983  0.015  0.002
  0.033  0.766  0.000  0.000  0.201
  0.000  0.000  0.014  0.985  0.001
    occupations:
  0.902  0.005  0.002 -0.150  0.001
  0.005  0.583  0.001  0.002 -0.006
  0.002  0.001  0.906 -0.004 -0.007
 -0.150  0.002 -0.004  0.678  0.000
  0.001 -0.006 -0.007  0.000  0.961
atom   17   Tr[ns(na)] =   8.06070
    eigenvalues:
  0.600  0.650  0.877  0.925  0.979
    eigenvectors:
  0.001  0.991  0.000  0.000  0.008
  0.000  0.000  0.074  0.925  0.000
  0.000  0.000  0.926  0.074  0.000
  0.000  0.008  0.000  0.000  0.992
  0.999  0.001  0.000  0.000  0.000
    occupations:
  0.652 -0.004 -0.001  0.029  0.001
 -0.004  0.921  0.013  0.001 -0.001
 -0.001  0.013  0.881 -0.000  0.001
  0.029  0.001 -0.000  0.976  0.000
  0.001 -0.001  0.001  0.000  0.600
atom   22   Tr[ns(na)] =   8.06088
    eigenvalues:
  0.636  0.643  0.870  0.904  0.979
    eigenvectors:
  0.000  0.151  0.000  0.000  0.849
  0.998  0.002  0.000  0.000  0.000
  0.000  0.000  0.936  0.064  0.000
  0.002  0.847  0.000  0.000  0.151
  0.000  0.000  0.064  0.936  0.000
    occupations:
  0.928 -0.001  0.000 -0.120 -0.000
 -0.001  0.636  0.001 -0.000 -0.000
  0.000  0.001  0.872 -0.000  0.008
 -0.120 -0.000 -0.000  0.694  0.001
 -0.000 -0.000  0.008  0.001  0.901
atom   23   Tr[ns(na)] =   8.04725
    eigenvalues:
  0.639  0.702  0.827  0.874  0.982
    eigenvectors:
  0.000  0.993  0.000  0.000  0.007
  0.000  0.000  0.000  1.000  0.000
  0.000  0.000  1.000  0.000  0.000
  0.000  0.007  0.000  0.000  0.993
  1.000  0.000  0.000  0.000  0.000
    occupations:
  0.704  0.000 -0.001  0.023 -0.000
  0.000  0.874 -0.000  0.000  0.000
 -0.001 -0.000  0.827  0.001  0.000
  0.023  0.000  0.001  0.980  0.000
 -0.000  0.000  0.000  0.000  0.639
N of occupied +U levels =  64.4565826
 --- exit write_ns ---

[...]

          k = 0.2500-0.4833 0.0000 ( 30510 PWs)   bands (ev):

[...]

          k =-0.2500 0.2417 0.0000 ( 30481 PWs)   bands (ev):

   -50.1192 -49.7880 -49.7085 -49.0064 -48.9949 -48.9904 -48.9794 -48.9633
   -48.9526 -48.9360 -48.9191 -48.9045 -48.8224 -48.8174 -48.8088 -48.6683
   -48.6637 -48.6586 -48.6330 -48.5753 -48.5618 -48.5582 -48.5535 -48.5441
   -21.5364 -21.2470 -21.2028 -21.0724 -20.7895 -20.6971 -20.6185 -20.5901
   -20.4518 -20.3938 -20.3063 -20.2805 -20.2625 -20.1114 -20.0618 -20.0475
   -19.4765 -19.3090 -19.1843 -10.2809 -10.1799  -9.9782  -9.7506  -9.5517
    -9.4523  -9.4371  -9.3245  -9.1304  -9.0039  -8.9395  -8.8894  -8.7762
    -8.6341  -8.5364  -8.4186  -8.2916  -8.2654  -8.0632  -7.8254  -7.7297
    -7.6562  -7.5479  -7.3902  -7.3530  -7.2879  -7.1523  -7.0145  -6.9836
    -6.8281  -6.7816  -6.6542  -6.5917  -6.5460  -6.4705  -6.4021  -6.3092
    -6.2164  -6.1752  -6.0876  -5.9552  -5.9023  -5.6611  -5.4442  -5.3743
    -5.2938  -5.1175  -5.0455  -4.9222  -4.9064  -4.7303  -4.6607  -4.5728
    -4.4235  -4.3040  -4.2887  -4.1219  -4.0233  -3.8721  -3.8486  -3.7620
    -3.7501  -3.6832  -3.5961  -3.5198  -3.4992  -3.4319  -3.3449  -3.3026
    -3.1574  -2.8214  -2.6896  -2.6108  -2.5296  -2.3567  -2.2185  -2.1264
    -2.0935  -1.9567  -1.8881  -1.7756  -0.9960  -0.6932  -0.4358  -0.0383
     0.1909   0.4438   0.6442   0.8950   1.1121   1.2682   1.3263   1.4661
     1.5390   1.7102   1.7510   2.1229   3.4966   4.4535   4.5821   5.0528
     5.3104   5.3265   5.4841   6.0689   6.3755   6.4035   6.4433   6.5396
     6.6603   6.7831   6.9267   7.1400   7.3012   7.4821   7.6108   7.7127
     7.8683   8.0039   8.0845   8.1653   8.2557   8.3388   8.4449   8.5280
     8.7633   8.8503   8.8840   9.0029   9.2211   9.3984   9.4898   9.5636
     9.6395   9.7598   9.8046   9.8670   9.9360  10.1069  10.1655  10.2484
    10.3344  10.4233  10.4559  10.6129  10.7392  10.7954  10.8450  10.9549
    10.9889  11.1143  11.1661  11.2344  11.3499  11.4687  11.5081  11.5578
    11.5920  11.7326  11.7573  11.7983  11.8742  12.0285  12.1363  12.1944
    12.2434  12.2879  12.3489  12.4492  12.5071  12.6290  12.6814  12.7469
    12.7998  12.8561  12.9618  13.0506  13.0980  13.1507  13.1900  13.2812
    13.3321  13.4253  13.5228  13.5651  13.7413  13.8042  13.8534  13.8876
    13.9326  14.1324  14.1802  14.2070  14.2793  14.3698  14.4039  14.4959
    14.6024  14.6321  14.7338  14.8099  15.0139  15.1397  15.2892  15.3150
    15.3693  15.4353  15.5012  15.5282  15.5813  15.6539  15.7202  15.7742
    15.8727  15.9388  16.0238  16.0516  16.1262  16.1959  16.2719  16.3353
    16.3926  16.4197  16.4672  16.4985  16.5773  16.6238  16.6643  16.7375
    16.8047  16.8906  16.9973  17.0508  17.1263  17.2095  17.2526  17.3336
    17.3897  17.4899  17.5415  17.5926  17.6336  17.7420  17.8098  17.8483
    17.9289  18.0177  18.0794  18.1532  18.1624  18.2926  18.3119  18.3928
    18.4576  18.5682  18.6558  18.7141  18.8055  18.8492  18.8972  18.9621
    19.0161  19.0608  19.1166  19.2075  19.2624  19.2914  19.3450  19.4827
    19.5444  19.6110  19.6758  19.7396  19.7889  19.8972  20.0276  20.0655
    20.1981  20.2566  20.2794  20.3393  20.5148  20.5641  20.6207  20.6799
    20.7120  20.7857  20.8620  20.9151  20.9418  21.0341  21.0946  21.2008
    21.2885  21.3383  21.3573  21.3990  21.4407  21.5295  21.6735  21.7446
    21.7745  21.8408  21.8849  21.9147  21.9459  22.0493  22.1005  22.1795
    22.2121  22.3119  22.4059  22.4635  22.5422

     the Fermi energy is    -2.2399 ev

!    total energy              =   -1978.49623514 Ry
     Harris-Foulkes estimate   =   -1978.49623514 Ry
     estimated scf accuracy    <          2.4E-09 Ry

     The total energy is the sum of the following terms:

     one-electron contribution =  -23298.52736196 Ry
     hartree contribution      =   11696.64331300 Ry
     xc contribution           =    -372.11788016 Ry
     ewald contribution        =    9993.75619016 Ry
     Hubbard energy            =       1.74986640 Ry
     smearing contrib. (-TS)   =      -0.00036260 Ry

     convergence has been achieved in  16 iterations

     Forces acting on atoms (Ry/au):

     negative rho (up, down):  0.689E+00 0.000E+00
     atom    1 type  1   force =    -0.00729381   -0.01235596   -0.00006692
     atom    2 type  1   force =     0.00007030    0.00362076    0.00068679
     atom    3 type  2   force =     0.03707912    0.00795347   -0.00075816
     atom    4 type  2   force =     0.00863615    0.00912623    0.00007013
     atom    5 type  1   force =    -0.00300779   -0.02930809    0.00019041
     atom    6 type  1   force =     0.00350850    0.02600550    0.00025702
     atom    7 type  1   force =    -0.00030792   -0.00197966    0.00022320
     atom    8 type  1   force =    -0.00312402   -0.00108243   -0.00019631
     atom    9 type  2   force =     0.00268654    0.00039288   -0.00029526
     atom   10 type  2   force =    -0.00003419   -0.00117682   -0.00074604
     atom   11 type  1   force =     0.00022529    0.01160416   -0.00049065
     atom   12 type  1   force =    -0.00032026   -0.01232449   -0.00056481
     atom   13 type  1   force =    -0.00074614    0.00009975    0.00035728
     atom   14 type  1   force =    -0.00660086   -0.01232888    0.00020335
     atom   15 type  1   force =     0.00011816    0.00321201   -0.00000164
     atom   16 type  2   force =    -0.03736080    0.00660145   -0.00074297
     atom   17 type  2   force =     0.00839237    0.00931498   -0.00034948
     atom   18 type  1   force =    -0.00222502   -0.02895056    0.00019004
     atom   19 type  1   force =     0.00407500    0.02650514    0.00025878
     atom   20 type  1   force =    -0.00018918   -0.00483606    0.00047887
     atom   21 type  1   force =    -0.00300365   -0.00068944   -0.00006706
     atom   22 type  2   force =    -0.00006273    0.00059536   -0.00027270
     atom   23 type  2   force =    -0.00011429    0.00111276    0.00052362
     atom   24 type  1   force =    -0.00061692    0.01167280   -0.00048444
     atom   25 type  1   force =     0.00115274   -0.01237749   -0.00056932
     atom   26 type  1   force =    -0.00070123   -0.00002043    0.00000340
     atom   27 type  3   force =    -0.00000975   -0.00041996    0.00076879
     atom   28 type  3   force =    -0.00000448   -0.00010417    0.00063798
     atom   29 type  3   force =     0.00000000    0.00013027    0.00014454
     atom   30 type  3   force =    -0.00020873    0.00019127    0.00009715
     atom   31 type  1   force =    -0.00001238   -0.00018432    0.00051444

     Total force =     0.002480     Total SCF correction =     0.000124

     bfgs converged in   8 scf cycles and   7 bfgs steps
     (criteria: energy < 0.10E-03, force < 0.10E-02)

     End of BFGS Geometry Optimization

     Final energy   =   -1978.4962351388 Ry
Begin final coordinates

ATOMIC_POSITIONS (crystal)
O0       0.000000000   0.000000000   0.378214993    0   0   1
O0       0.000000000   0.500000000   0.402446305    0   0   1
Rh1      0.250000000   0.500000000   0.453376528    0   0   1
Rh1      0.000000000   0.000000000   0.452426672    0   0   1
O0       0.250000000   0.810000000   0.452452562    0   0   1
O0       0.250000000   0.190000000   0.452210116    0   0   1
O0       0.000000000   0.500000000   0.499549443    0   0   1
O0       0.000000000   0.000000000   0.527600355    0   0   1
Rh1      0.250000000   0.000000000   0.574687732    0   0   1
Rh1      0.000000000   0.500000000   0.570928325    0   0   1
O0       0.250000000   0.690000000   0.574743785    0   0   1
O0       0.250000000   0.310000000   0.574685741    0   0   1
O0       0.000000000   0.000000000   0.619881493    0   0   1
O0       0.500000000   0.000000000   0.378113025    0   0   1
O0       0.500000000   0.500000000   0.402303546    0   0   1
Rh1      0.750000000   0.500000000   0.453378573    0   0   1
Rh1      0.500000000   0.000000000   0.452315107    0   0   1
O0       0.750000000   0.810000000   0.452426105    0   0   1
O0       0.750000000   0.190000000   0.452224691    0   0   1
O0       0.500000000   0.500000000   0.501526982    0   0   1
O0       0.500000000   0.000000000   0.527486237    0   0   1
Rh1      0.750000000   0.000000000   0.574684118    0   0   1
Rh1      0.500000000   0.500000000   0.579122619    0   0   1
O0       0.750000000   0.690000000   0.574708847    0   0   1
O0       0.750000000   0.310000000   0.574706386    0   0   1
O0       0.500000000   0.000000000   0.619984781    0   0   1
H2      -0.000168959   0.636468578   0.384957496
H2       0.499814250   0.637702357   0.385369384
H2       0.147924444   0.034551426   0.367351614
H2       0.647999791   0.034691396   0.367290014
O0       0.500064450   0.498500677   0.645666425
End final coordinates

     General routines

     Parallel routines
     Hubbard U routines

   This run was terminated on:   6:46:20  13May2014

   JOB DONE.
Running PBS batch system epilogue script
Job id: 351075.audhumbla.fysik.dtu.dk
Username: zhonxu
Groupname: campgst
Jobname: RhO2/Eads-2-layers/O-U-4.5
Sessionid: 3214
Queuename: verylong
Accounting:
This job has allocated the following 16 nodes:
a053 a053 a053 a053 a053 a053 a053 a053 a020 a020 a020 a020 a020 a020 a020 a020
Finished epilogue job 351075.audhumbla.fysik.dtu.dk for zhonxu