     Program PWSCF v.5.0.2 (svn rev. 9656) starts on 17Sep2014 at 14:12:51

     Current dimensions of program PWSCF are:
     Max number of different atomic species (ntypx) = 10
     Max number of k-points (npk) =  40000
     Max angular momentum in pseudopotentials (lmaxx) =  3
     Reading input from pwscf.in
Warning: card &CELL ignored
Warning: card / ignored

     Subspace diagonalization in iterative solution of the eigenvalue problem:
     a serial algorithm will be used

     bravais-lattice index     =            0
     lattice parameter (alat)  =      10.7336  a.u.
     unit-cell volume          =    6184.1966 (a.u.)^3
     number of atoms/cell      =           33
     number of atomic types    =            3
     number of electrons       =       245.00 (up: 134.00, down: 111.00)
     number of Kohn-Sham states=          367
     kinetic-energy cutoff     =      40.0000  Ry
     charge density cutoff     =     500.0000  Ry
     convergence threshold     =      1.0E-06
     mixing beta               =       0.7000
     number of iterations used =            8  plain     mixing
     Exchange-correlation      = SLA  PW   PBE  PBE ( 1 4 3 4 0)
     EXX-fraction              =        0.00
     nstep                     =           50

     celldm(1)=  10.733644  celldm(2)=   0.000000  celldm(3)=   0.000000
     celldm(4)=   0.000000  celldm(5)=   0.000000  celldm(6)=   0.000000

     crystal axes: (cart. coord. in units of alat)
               a(1) = (   1.000000   0.000000   0.000000 )
               a(2) = (   0.000000   1.085558   0.000000 )
               a(3) = (   0.000000   0.000000   4.606685 )

     reciprocal axes: (cart. coord. in units 2 pi/alat)
               b(1) = (  1.000000  0.000000  0.000000 )
               b(2) = (  0.000000  0.921185  0.000000 )
               b(3) = (  0.000000  0.000000  0.217076 )

     PseudoPot. # 1 for O  read from file:
     /home-research/zhongnanxu/pseudopotentials/gbrv_espresso_pseudo_v1.01/o_pbe_v1.01.uspp.F.UPF
     MD5 check sum: 2bcb18d16ea4b960afae9ec6d52f22d2
     Pseudo is Ultrasoft + core correction, Zval =  6.0
     Generated by new atomic code, or converted to UPF format
     Using radial grid of  737 points,  5 beta functions with:
                l(1) =   0
                l(2) =   0
                l(3) =   1
                l(4) =   1
                l(5) =   2
     Q(r) pseudized with  8 coefficients,  rinner =    0.900   0.900   0.900
                                                       0.900   0.900

     PseudoPot. # 2 for Mn read from file:
     /home-research/zhongnanxu/pseudopotentials/gbrv_espresso_pseudo_v1.01/mn_pbe_v1.uspp.F.UPF
     MD5 check sum: 5fd7c7b5c956fd19902447332617373a
     Pseudo is Ultrasoft + core correction, Zval = 15.0
     Generated by new atomic code, or converted to UPF format
     Using radial grid of  859 points,  6 beta functions with:
                l(1) =   0
                l(2) =   0
                l(3) =   1
                l(4) =   1
                l(5) =   2
                l(6) =   2
     Q(r) pseudized with  6 coefficients,  rinner =    1.150   1.150   1.150
                                                       1.150   1.150

     PseudoPot. # 3 for H  read from file:
     /home-research/zhongnanxu/pseudopotentials/gbrv_espresso_pseudo_v1.01/h_pbe_v1.uspp.F.UPF
     MD5 check sum: 3408e3ff4ec8b0a4e358431e7e038a48
     Pseudo is Ultrasoft, Zval =  1.0
     Generated by new atomic code, or converted to UPF format
     Using radial grid of  615 points,  2 beta functions with:
                l(1) =   0
                l(2) =   0
     Q(r) pseudized with  8 coefficients,  rinner =    0.700

     atomic species   valence    mass     pseudopotential
        O0             6.00    15.99940     O ( 1.00)
        Mn1           15.00    54.93800     Mn( 1.00)
        H2             1.00     1.00794     H ( 1.00)

     Starting magnetic structure
     atomic species   magnetization
        O0           0.000
        Mn1          0.600
        H2           0.000

     Simplified LDA+U calculation (l_max = 2) with parameters (eV):
     atomic species    L          U    alpha       J0     beta
        Mn1            2     3.5000   0.0000   0.0000   0.0000

     No symmetry found

   Cartesian axes

     site n.     atom                  positions (alat units)
         1           O0  tau(   1) = (   0.0000000   0.0000000   1.7437224  )
         2           O0  tau(   2) = (   0.0000000   0.5427791   1.8429044  )
         3           Mn1 tau(   3) = (   0.2500000   0.5427791   2.0790891  )
         4           Mn1 tau(   4) = (   0.0000000   0.0000000   2.0720409  )
         5           O0  tau(   5) = (   0.2500000   0.8684466   2.0701982  )
         6           O0  tau(   6) = (   0.2500000   0.2171117   2.0775689  )
         7           O0  tau(   7) = (   0.0000000   0.5427791   2.2916415  )
         8           O0  tau(   8) = (   0.0000000   0.0000000   2.4165748  )
         9           Mn1 tau(   9) = (   0.2500000   0.0000000   2.6429013  )
        10           Mn1 tau(  10) = (   0.0000000   0.5427791   2.6202364  )
        11           O0  tau(  11) = (   0.2500000   0.7598908   2.6530821  )
        12           O0  tau(  12) = (   0.2500000   0.3256675   2.6691594  )
        13           O0  tau(  13) = (   0.0000000   0.0000000   2.8472538  )
        14           O0  tau(  14) = (   0.5000000   0.0000000   1.7445516  )
        15           O0  tau(  15) = (   0.5000000   0.5427791   1.8431808  )
        16           Mn1 tau(  16) = (   0.7500000   0.5427791   2.0791352  )
        17           Mn1 tau(  17) = (   0.5000000   0.0000000   2.0732386  )
        18           O0  tau(  18) = (   0.7500000   0.8684466   2.0702443  )
        19           O0  tau(  19) = (   0.7500000   0.2171117   2.0776150  )
        20           O0  tau(  20) = (   0.5000000   0.5427791   2.2991504  )
        21           O0  tau(  21) = (   0.5000000   0.0000000   2.4162063  )
        22           Mn1 tau(  22) = (   0.7500000   0.0000000   2.6429474  )
        23           Mn1 tau(  23) = (   0.5000000   0.5427791   2.6555697  )
        24           O0  tau(  24) = (   0.7500000   0.7598908   2.6530360  )
        25           O0  tau(  25) = (   0.7500000   0.3256675   2.6692055  )
        26           O0  tau(  26) = (   0.5000000   0.0000000   2.8451348  )
        27           H2  tau(  27) = (   0.0001200   0.7023996   1.7685525  )
        28           H2  tau(  28) = (   0.5001300   0.7024539   1.7688749  )
        29           H2  tau(  29) = (   0.1617300   0.0395469   1.6903309  )
        30           H2  tau(  30) = (   0.6616200   0.0396554   1.6909759  )
        31           O0  tau(  31) = (   0.4997000   0.5889697   2.9894622  )
        32           O0  tau(  32) = (   0.5006400   0.3801951   3.1245302  )
        33           H2  tau(  33) = (   0.4997200   0.4495948   3.2842900  )

     number of k points=    20  Methfessel-Paxton smearing, width (Ry)=  0.0100
                       cart. coord. in units 2pi/alat
        k(    1) = (   0.0000000   0.0000000   0.0000000), wk =   0.0625000
        k(    2) = (   0.0000000   0.2302962   0.0000000), wk =   0.1250000
        k(    3) = (   0.0000000  -0.4605925   0.0000000), wk =   0.0625000
        k(    4) = (   0.2500000   0.0000000   0.0000000), wk =   0.1250000
        k(    5) = (   0.2500000   0.2302962   0.0000000), wk =   0.1250000
        k(    6) = (   0.2500000  -0.4605925   0.0000000), wk =   0.1250000
        k(    7) = (  -0.5000000   0.0000000   0.0000000), wk =   0.0625000
        k(    8) = (  -0.5000000   0.2302962   0.0000000), wk =   0.1250000
        k(    9) = (  -0.5000000  -0.4605925   0.0000000), wk =   0.0625000
        k(   10) = (  -0.2500000   0.2302962   0.0000000), wk =   0.1250000
        k(   11) = (   0.0000000   0.0000000   0.0000000), wk =   0.0625000
        k(   12) = (   0.0000000   0.2302962   0.0000000), wk =   0.1250000
        k(   13) = (   0.0000000  -0.4605925   0.0000000), wk =   0.0625000
        k(   14) = (   0.2500000   0.0000000   0.0000000), wk =   0.1250000
        k(   15) = (   0.2500000   0.2302962   0.0000000), wk =   0.1250000
        k(   16) = (   0.2500000  -0.4605925   0.0000000), wk =   0.1250000
        k(   17) = (  -0.5000000   0.0000000   0.0000000), wk =   0.0625000
        k(   18) = (  -0.5000000   0.2302962   0.0000000), wk =   0.1250000
        k(   19) = (  -0.5000000  -0.4605925   0.0000000), wk =   0.0625000
        k(   20) = (  -0.2500000   0.2302962   0.0000000), wk =   0.1250000

     Largest allocated arrays     est. size (Mb)     dimensions
     Largest temporary arrays     est. size (Mb)     dimensions

     Check: negative/imaginary core charge=   -0.000022    0.000000

     Initial potential from superposition of free atoms
     Check: negative starting charge=(component1):   -0.000638
     Check: negative starting charge=(component2):   -0.000356

     starting charge  236.99986, renormalised to  245.00000

     negative rho (up, down):  0.660E-03 0.368E-03
     Number of +U iterations with fixed ns =  0
     Starting occupations:
 --- enter write_ns ---
 LDA+U parameters:
U( 2)     =  3.50000000
alpha( 2) =  0.00000000
atom    3   Tr[ns(na)] (up, down, total) =   5.00000  0.00000  5.00000
   spin  1
    eigenvalues:
  1.000  1.000  1.000  1.000  1.000
    eigenvectors:
  1.000  0.000  0.000  0.000  0.000
  0.000  1.000  0.000  0.000  0.000
  0.000  0.000  1.000  0.000  0.000
  0.000  0.000  0.000  1.000  0.000
  0.000  0.000  0.000  0.000  1.000
    occupations:
  1.000  0.000  0.000  0.000  0.000
  0.000  1.000  0.000  0.000  0.000
  0.000  0.000  1.000  0.000  0.000
  0.000  0.000  0.000  1.000  0.000
  0.000  0.000  0.000  0.000  1.000
   spin  2
    eigenvalues:
  0.000  0.000  0.000  0.000  0.000
    eigenvectors:
  1.000  0.000  0.000  0.000  0.000
  0.000  1.000  0.000  0.000  0.000
  0.000  0.000  1.000  0.000  0.000
  0.000  0.000  0.000  1.000  0.000
  0.000  0.000  0.000  0.000  1.000
    occupations:
  0.000  0.000  0.000  0.000  0.000
  0.000  0.000  0.000  0.000  0.000
  0.000  0.000  0.000  0.000  0.000
  0.000  0.000  0.000  0.000  0.000
  0.000  0.000  0.000  0.000  0.000
atomic mag. moment =     5.000000
atom    4   Tr[ns(na)] (up, down, total) =   5.00000  0.00000  5.00000
   spin  1
    eigenvalues:
  1.000  1.000  1.000  1.000  1.000
    eigenvectors:
  1.000  0.000  0.000  0.000  0.000
  0.000  1.000  0.000  0.000  0.000
  0.000  0.000  1.000  0.000  0.000
  0.000  0.000  0.000  1.000  0.000
  0.000  0.000  0.000  0.000  1.000
    occupations:
  1.000  0.000  0.000  0.000  0.000
  0.000  1.000  0.000  0.000  0.000
  0.000  0.000  1.000  0.000  0.000
  0.000  0.000  0.000  1.000  0.000
  0.000  0.000  0.000  0.000  1.000
   spin  2
    eigenvalues:
  0.000  0.000  0.000  0.000  0.000
    eigenvectors:
  1.000  0.000  0.000  0.000  0.000
  0.000  1.000  0.000  0.000  0.000
  0.000  0.000  1.000  0.000  0.000
  0.000  0.000  0.000  1.000  0.000
  0.000  0.000  0.000  0.000  1.000
    occupations:
  0.000  0.000  0.000  0.000  0.000
  0.000  0.000  0.000  0.000  0.000
  0.000  0.000  0.000  0.000  0.000
[...]
atom    4   Tr[ns(na)] (up, down, total) =   4.27900  1.14957  5.42857
   spin  1
    eigenvalues:
  0.614  0.663  0.994  1.004  1.004
    eigenvectors:
  0.000  0.998  0.000  0.000  0.001
  0.000  0.001  0.000  0.478  0.521
  0.000  0.000  0.000  0.522  0.478
  0.000  0.000  0.999  0.000  0.000
  1.000  0.000  0.000  0.000  0.000
    occupations:
  0.663 -0.010 -0.004  0.006  0.000
 -0.010  1.004  0.000  0.000  0.001
 -0.004  0.000  1.004  0.000  0.000
  0.006  0.000  0.000  0.994  0.000
  0.000  0.001  0.000  0.000  0.614
   spin  2
    eigenvalues:
  0.100  0.134  0.155  0.377  0.383
    eigenvectors:
  0.003  0.003  0.000  0.993  0.001
  0.001  0.880  0.116  0.003  0.000
  0.001  0.115  0.884  0.000  0.000
  0.996  0.002  0.000  0.002  0.000
  0.000  0.000  0.000  0.001  0.999
    occupations:
  0.375  0.013  0.005 -0.014  0.000
  0.013  0.137 -0.007  0.000 -0.003
  0.005 -0.007  0.153  0.001  0.000
 -0.014  0.000  0.001  0.101  0.000
  0.000 -0.003  0.000  0.000  0.383
atomic mag. moment =     3.129426
atom    9   Tr[ns(na)] (up, down, total) =   4.25831  1.21009  5.46840
   spin  1
    eigenvalues:
  0.652  0.661  0.969  0.980  0.997
    eigenvectors:
  0.210  0.005  0.000  0.000  0.785
  0.022  0.978  0.000  0.000  0.000
  0.000  0.000  0.078  0.922  0.000
  0.768  0.017  0.000  0.000  0.215
  0.000  0.000  0.922  0.078  0.000
    occupations:
  0.923  0.001  0.000 -0.142  0.000
  0.001  0.660  0.000  0.001  0.000
  0.000  0.000  0.979  0.000 -0.003
 -0.142  0.001  0.000  0.726  0.000
  0.000  0.000 -0.003  0.000  0.970
   spin  2
    eigenvalues:
  0.127  0.144  0.146  0.383  0.410
    eigenvectors:
  0.818  0.000  0.000  0.182  0.000
  0.000  0.000  0.000  0.001  0.999
  0.000  0.927  0.073  0.000  0.000
  0.182  0.000  0.000  0.817  0.001
  0.000  0.073  0.927  0.000  0.000
    occupations:
  0.174  0.000  0.001  0.099  0.000
  0.000  0.410  0.000  0.001  0.000
  0.001  0.000  0.144  0.001  0.000
  0.099  0.001  0.001  0.336  0.000
  0.000  0.000  0.000  0.000  0.146
atomic mag. moment =     3.048223
atom   10   Tr[ns(na)] (up, down, total) =   4.54209  0.80929  5.35138
   spin  1
    eigenvalues:
  0.627  0.932  0.989  0.996  0.999
    eigenvectors:
  0.000  0.956  0.000  0.043  0.001
  0.000  0.000  1.000  0.000  0.000
  0.000  0.000  0.000  0.010  0.990
  0.000  0.044  0.000  0.947  0.009
  1.000  0.000  0.000  0.000  0.000
    occupations:
  0.935  0.000  0.001  0.013  0.000
  0.000  0.989  0.000  0.000  0.000
  0.001  0.000  0.999  0.000  0.000
  0.013  0.000  0.000  0.993  0.000
  0.000  0.000  0.000  0.000  0.627
   spin  2
    eigenvalues:
  0.085  0.098  0.106  0.177  0.342
    eigenvectors:
  0.026  0.000  0.000  0.974  0.000
  0.000  0.000  1.000  0.000  0.000
  0.001  0.999  0.000  0.000  0.000
  0.974  0.001  0.000  0.026  0.000
  0.000  0.000  0.000  0.000  1.000
    occupations:
  0.175  0.000  0.000 -0.015  0.000
  0.000  0.106  0.000  0.000  0.002
  0.000  0.000  0.098  0.000  0.000
 -0.015  0.000  0.000  0.088  0.000
  0.000  0.002  0.000  0.000  0.342
atomic mag. moment =     3.732797
atom   16   Tr[ns(na)] (up, down, total) =   4.30917  1.12008  5.42925
   spin  1
    eigenvalues:
  0.638  0.671  0.997  0.997  1.005
    eigenvectors:
  0.247  0.006  0.065  0.673  0.009
  0.056  0.942  0.001  0.001  0.000
  0.000  0.000  0.000  0.010  0.990
  0.697  0.051  0.022  0.228  0.001
  0.000  0.001  0.912  0.088  0.000
    occupations:
  0.906 -0.017 -0.003 -0.155 -0.001
 -0.017  0.670 -0.001  0.001 -0.008
 -0.003 -0.001  1.005 -0.004  0.000
 -0.155  0.001 -0.004  0.730  0.000
 -0.001 -0.008  0.000  0.000  0.997
   spin  2
    eigenvalues:
  0.098  0.129  0.156  0.358  0.378
    eigenvectors:
  0.773  0.000  0.004  0.025  0.198
  0.000  0.002  0.000  0.909  0.088
  0.004  0.012  0.984  0.000  0.000
  0.222  0.000  0.000  0.064  0.713
  0.000  0.986  0.012  0.002  0.000
    occupations:
  0.160  0.002 -0.002  0.115  0.000
  0.002  0.360  0.000 -0.007  0.011
 -0.002  0.000  0.156  0.004 -0.003
  0.115 -0.007  0.004  0.314 -0.001
  0.000  0.011 -0.003 -0.001  0.130
atomic mag. moment =     3.189086
atom   17   Tr[ns(na)] (up, down, total) =   4.27971  1.14904  5.42875
   spin  1
    eigenvalues:
  0.614  0.663  0.994  1.004  1.005
    eigenvectors:
  0.000  0.998  0.000  0.000  0.001
  0.000  0.001  0.000  0.153  0.845
  0.000  0.000  0.000  0.846  0.153
  0.000  0.000  0.999  0.000  0.000
  1.000  0.000  0.000  0.000  0.000
    occupations:
  0.663 -0.011 -0.005  0.006  0.000
 -0.011  1.004  0.000  0.000  0.002
 -0.005  0.000  1.004  0.000  0.000
  0.006  0.000  0.000  0.994  0.000
  0.000  0.002  0.000  0.000  0.614
   spin  2
    eigenvalues:
  0.100  0.134  0.156  0.376  0.384
    eigenvectors:
  0.003  0.003  0.000  0.993  0.001
  0.001  0.871  0.125  0.003  0.000
  0.000  0.124  0.875  0.000  0.000
  0.996  0.002  0.000  0.003  0.000
  0.000  0.000  0.000  0.001  0.999
    occupations:
  0.374  0.013  0.005 -0.014  0.000
  0.013  0.137 -0.007  0.000 -0.003
  0.005 -0.007  0.153  0.001  0.000
 -0.014  0.000  0.001  0.100  0.000
  0.000 -0.003  0.000  0.000  0.384
atomic mag. moment =     3.130666
atom   22   Tr[ns(na)] (up, down, total) =   4.25837  1.21000  5.46837
   spin  1
    eigenvalues:
  0.652  0.660  0.969  0.980  0.997
    eigenvectors:
  0.214  0.000  0.000  0.000  0.785
  0.002  0.998  0.000  0.000  0.000
  0.000  0.000  0.078  0.922  0.000
  0.784  0.002  0.000  0.000  0.215
  0.000  0.000  0.922  0.078  0.000
    occupations:
  0.923  0.000  0.000 -0.142  0.000
  0.000  0.660  0.000  0.000  0.000
  0.000  0.000  0.979  0.000  0.003
 -0.142  0.000  0.000  0.726  0.000
  0.000  0.000  0.003  0.000  0.970
   spin  2
    eigenvalues:
  0.127  0.144  0.146  0.383  0.410
    eigenvectors:
  0.818  0.000  0.000  0.182  0.000
  0.000  0.000  0.000  0.001  0.999
  0.000  0.911  0.089  0.000  0.000
  0.182  0.000  0.000  0.817  0.001
  0.000  0.089  0.911  0.000  0.000
    occupations:
  0.174  0.000  0.001  0.099  0.000
  0.000  0.410  0.000 -0.001  0.000
  0.001  0.000  0.144  0.001 -0.001
  0.099 -0.001  0.001  0.336  0.000
  0.000  0.000 -0.001  0.000  0.146
atomic mag. moment =     3.048363
atom   23   Tr[ns(na)] (up, down, total) =   4.43140  0.93897  5.37037
   spin  1
    eigenvalues:
  0.653  0.781  0.998  0.998  1.001
    eigenvectors:
  0.000  0.995  0.000  0.004  0.000
  0.000  0.000  1.000  0.000  0.000
  0.000  0.000  0.000  0.000  0.999
  0.000  0.004  0.000  0.995  0.000
  1.000  0.000  0.000  0.000  0.000
    occupations:
  0.782  0.000  0.004  0.014  0.000
  0.000  0.998  0.000  0.000  0.000
  0.004  0.000  1.001  0.000  0.000
  0.014  0.000  0.000  0.997  0.000
  0.000  0.000  0.000  0.000  0.653
   spin  2
    eigenvalues:
  0.094  0.117  0.120  0.245  0.363
    eigenvectors:
  0.010  0.000  0.000  0.990  0.000
  0.000  0.000  1.000  0.000  0.000
  0.000  0.999  0.000  0.000  0.000
  0.989  0.000  0.000  0.010  0.000
  0.000  0.000  0.000  0.000  1.000
    occupations:
  0.243  0.000 -0.002 -0.015  0.000
  0.000  0.120  0.000  0.000  0.002
 -0.002  0.000  0.117  0.000  0.000
 -0.015  0.000  0.000  0.095  0.000
  0.000  0.002  0.000  0.000  0.363
atomic mag. moment =     3.492430
N of occupied +U levels =  43.3743831
 --- exit write_ns ---

 ------ SPIN UP ------------

[...]

 ------ SPIN DOWN ----------

[...]

          k = 0.2500-0.4606 0.0000 ( 26462 PWs)   bands (ev):

[...]

          k =-0.2500 0.2303 0.0000 ( 26396 PWs)   bands (ev):

   -79.5802 -79.5723 -79.4217 -79.4102 -79.3518 -79.3436 -79.0971 -78.5103
   -48.4631 -48.4116 -48.4072 -48.3851 -48.3671 -48.2961 -48.2848 -48.2775
   -48.2427 -48.2360 -48.2244 -48.2016 -48.1939 -48.1344 -48.0912 -48.0401
   -48.0289 -48.0223 -48.0059 -47.9323 -47.6824 -47.6347 -47.4626 -46.9013
   -26.0420 -20.8438 -20.3882 -20.0993 -19.8698 -19.4349 -19.3832 -19.3083
   -19.2320 -19.0667 -19.0288 -18.9711 -18.8883 -18.7987 -18.7865 -18.6615
   -18.5317 -18.4124 -18.2647 -17.9482 -10.0445  -8.2662  -8.2292  -7.9919
    -7.8245  -7.5043  -7.4026  -7.3313  -7.0311  -6.8342  -6.6964  -6.5652
    -6.5378  -6.3497  -6.3341  -6.1677  -6.1350  -5.9828  -5.9446  -5.8938
    -5.8508  -5.6186  -5.5621  -5.4395  -5.3753  -5.3463  -5.2191  -5.1733
    -4.8307  -4.8217  -4.7593  -4.6338  -4.4866  -4.4672  -4.4171  -4.2861
    -4.1954  -4.1398  -4.1027  -3.9345  -3.8371  -3.7243  -3.6081  -3.5450
    -3.4429  -3.3870  -3.2623  -3.2052  -3.0125  -2.9382  -2.9124  -2.8313
    -2.7393  -2.6814  -2.5486  -2.3930  -2.2371  -2.1761  -1.8368   0.9966
     1.0535   1.0846   1.1575   1.1779   1.2682   1.3158   1.3917   1.4249
     1.4543   1.5460   1.5555   1.6888   1.7548   1.8025   1.8349   1.9115
     1.9564   2.0244   2.0994   2.1705   2.2696   2.2798   2.2909   2.4127
     2.4396   2.5450   2.6249   2.7262   2.7913   2.8934   2.9540   3.0001
     3.1529   3.2823   3.3573   3.4267   3.4938   3.7067   3.8323   3.8940
     3.9625   4.2749   4.4324   4.8341   5.2029   5.5208   5.6843   6.0787
     6.2401   6.3657   6.5093   6.5739   6.8493   6.9787   7.1810   7.4953
     7.6010   7.7916   7.9637   8.1670   8.2730   8.3580   8.4912   8.7188
     8.7606   9.0032   9.1724   9.3223   9.4554   9.5799   9.6292   9.7969
     9.8901   9.9678  10.0376  10.1959  10.2363  10.4571  10.4945  10.5618
    10.6631  10.8446  10.9225  10.9710  11.1416  11.1939  11.3239  11.3904
    11.5233  11.6308  11.7572  11.8252  11.9603  12.0114  12.1159  12.1787
    12.2183  12.3290  12.4185  12.4628  12.5094  12.5965  12.7340  12.7864
    12.8942  12.9562  13.0613  13.1628  13.2193  13.3116  13.4477  13.4699
    13.5665  13.6150  13.6494  13.7105  13.9311  14.0377  14.0908  14.1504
    14.2763  14.3706  14.3996  14.4464  14.4688  14.5358  14.6655  14.7412
    14.8434  14.8856  14.9455  14.9903  15.1421  15.2178  15.2711  15.2927
    15.3565  15.4148  15.5128  15.6122  15.6976  15.7353  15.7847  15.8895
    15.9906  16.0692  16.1462  16.2103  16.2577  16.3026  16.4000  16.4510
    16.4988  16.5735  16.6921  16.7410  16.8453  16.9510  16.9931  17.0489
    17.1523  17.1927  17.2853  17.3670  17.4013  17.5447  17.5680  17.6474
    17.7160  17.7745  17.8461  17.9247  17.9808  18.0351  18.0707  18.1518
    18.2632  18.3075  18.3835  18.4413  18.5509  18.6036  18.7228  18.7319
    18.7840  18.8649  18.9705  19.0245  19.0936  19.1201  19.2162  19.2519
    19.3937  19.4639  19.5750  19.6211  19.6923  19.7317  19.7943  19.8755
    19.9954  20.0549  20.1052  20.2414  20.3017  20.3874  20.4183  20.4989
    20.5903  20.6801  20.7700  20.8334  20.9393  20.9860  21.0351  21.1731
    21.2174  21.2803  21.3387  21.4404  21.4793  21.5862  21.6613  21.7187
    21.9039  21.9528  21.9640  22.0636  22.1106  22.1686  22.2396  22.3394
    22.3691  22.4352  22.5259  22.5595  22.6639  22.7123  22.7653  22.9053
    22.9749  23.0330  23.1094  23.1860  23.3347  23.3744  23.4657  23.5190
    23.6174  23.6307  23.6600  23.7529  23.7663  23.8114  23.8730

     the spin up/dw Fermi energies are    -1.2246   -0.9656 ev

!    total energy              =   -2352.88589649 Ry
     Harris-Foulkes estimate   =   -2352.88589649 Ry
     estimated scf accuracy    <          3.3E-09 Ry

     The total energy is the sum of the following terms:

     one-electron contribution =  -26686.37332867 Ry
     hartree contribution      =   13371.59937891 Ry
     xc contribution           =    -356.40474016 Ry
     ewald contribution        =   11317.03600983 Ry
     Hubbard energy            =       1.25684930 Ry
     smearing contrib. (-TS)   =      -0.00006570 Ry

     total magnetization       =    23.00 Bohr mag/cell
     absolute magnetization    =    31.02 Bohr mag/cell

     convergence has been achieved in  16 iterations

     Forces acting on atoms (Ry/au):

     negative rho (up, down):  0.182E-02 0.133E-02
     atom    1 type  1   force =    -0.00533877   -0.01658224    0.00000384
     atom    2 type  1   force =     0.00035632    0.01298614    0.00040256
     atom    3 type  2   force =    -0.00227566   -0.00226260    0.00011705
     atom    4 type  2   force =     0.00655063    0.01205767   -0.00003741
     atom    5 type  1   force =     0.00295798    0.01224627   -0.00042416
     atom    6 type  1   force =    -0.00128378   -0.01634199    0.00000000
     atom    7 type  1   force =     0.00000814   -0.00034649    0.00047567
     atom    8 type  1   force =    -0.00128742   -0.00130191    0.00010530
     atom    9 type  2   force =     0.00138775    0.00239190    0.00003521
     atom   10 type  2   force =    -0.00008514   -0.00353703    0.00032959
     atom   11 type  1   force =    -0.00196445   -0.03856157   -0.00026185
     atom   12 type  1   force =    -0.00002641    0.04102553   -0.00019092
     atom   13 type  1   force =    -0.00036424   -0.00080053    0.00075726
     atom   14 type  1   force =    -0.00510202   -0.01594603    0.00006917
     atom   15 type  1   force =     0.00038405    0.01179441   -0.00000041
     atom   16 type  2   force =     0.00109463   -0.00221755    0.00016199
     atom   17 type  2   force =     0.00633353    0.01192646    0.00007643
     atom   18 type  1   force =     0.00150775    0.01225186   -0.00043777
     atom   19 type  1   force =    -0.00335103   -0.01633894   -0.00003806
     atom   20 type  1   force =     0.00003609    0.00048768   -0.00076971
     atom   21 type  1   force =    -0.00123516   -0.00109490   -0.00000958
     atom   22 type  2   force =    -0.00002852    0.00242699    0.00004584
     atom   23 type  2   force =    -0.00002075   -0.00543360    0.00007877
     atom   24 type  1   force =     0.00205085   -0.03855255   -0.00026470
     atom   25 type  1   force =     0.00008935    0.04106234   -0.00019403
     atom   26 type  1   force =    -0.00037871   -0.00215108    0.00010241
     atom   27 type  3   force =     0.00001217   -0.00023589    0.00009799
     atom   28 type  3   force =     0.00000576    0.00000015    0.00008707
     atom   29 type  3   force =    -0.00001361   -0.00022363   -0.00009821
     atom   30 type  3   force =    -0.00002482   -0.00029987   -0.00013971
     atom   31 type  1   force =    -0.00005001    0.00093323    0.00084676
     atom   32 type  1   force =     0.00009088    0.00000276   -0.00021116
     atom   33 type  3   force =    -0.00003537    0.00063498   -0.00071524

     Total force =     0.002263     Total SCF correction =     0.000308
     SCF correction compared to forces is large: reduce conv_thr to get better values

     bfgs converged in  27 scf cycles and  26 bfgs steps
     (criteria: energy < 0.10E-03, force < 0.10E-02)

     End of BFGS Geometry Optimization

     Final energy   =   -2352.8858964912 Ry
Begin final coordinates

ATOMIC_POSITIONS (crystal)
O0       0.000000000   0.000000000   0.375794018    0   0   1
O0       0.000000000   0.500000000   0.396190916    0   0   1
Mn1      0.250000000   0.500000000   0.448171263    0   0   1
Mn1      0.000000000   0.000000000   0.447834834    0   0   1
O0       0.250000000   0.800000000   0.447800673    0   0   1
O0       0.250000000   0.200000000   0.449310172    0   0   1
O0       0.000000000   0.500000000   0.494728140    0   0   1
O0       0.000000000   0.000000000   0.524563920    0   0   1
Mn1      0.250000000   0.000000000   0.573389112    0   0   1
Mn1      0.000000000   0.500000000   0.570736307    0   0   1
O0       0.250000000   0.700000000   0.580863141    0   0   1
O0       0.250000000   0.300000000   0.581623811    0   0   1
O0       0.000000000   0.000000000   0.620093848    0   0   1
O0       0.500000000   0.000000000   0.375599831    0   0   1
O0       0.500000000   0.500000000   0.396167206    0   0   1
Mn1      0.750000000   0.500000000   0.448163267    0   0   1
Mn1      0.500000000   0.000000000   0.447532630    0   0   1
O0       0.750000000   0.800000000   0.447815476    0   0   1
O0       0.750000000   0.200000000   0.449291977    0   0   1
O0       0.500000000   0.500000000   0.497169753    0   0   1
O0       0.500000000   0.000000000   0.524529892    0   0   1
Mn1      0.750000000   0.000000000   0.573385444    0   0   1
Mn1      0.500000000   0.500000000   0.571386868    0   0   1
O0       0.750000000   0.700000000   0.580869455    0   0   1
O0       0.750000000   0.300000000   0.581625263    0   0   1
O0       0.500000000   0.000000000   0.620063923    0   0   1
H2       0.000372852   0.648196846   0.380566955
H2       0.500415610   0.647431701   0.380348248
H2       0.161846051   0.040106602   0.364975952
H2       0.661733191   0.040833644   0.364846513
O0       0.499700000   0.550699553   0.658944112    0   1   1
O0       0.500640000   0.371554611   0.688911119    0   1   1
H2       0.499720000   0.433088283   0.724035962    0   1   1
End final coordinates

     General routines

     Parallel routines
     Hubbard U routines

   This run was terminated on:  11:36: 6  20Sep2014

   JOB DONE.