     Program PWSCF v.5.0.2 (svn rev. 9656) starts on 28Apr2014 at  5:32:45

     Current dimensions of program PWSCF are:
     Max number of different atomic species (ntypx) = 10
     Max number of k-points (npk) =  40000
     Max angular momentum in pseudopotentials (lmaxx) =  3
     Reading input from pwscf.in
Warning: card &CELL ignored
Warning: card / ignored

     Subspace diagonalization in iterative solution of the eigenvalue problem:
     a serial algorithm will be used

     bravais-lattice index     =            0
     lattice parameter (alat)  =      12.2076  a.u.
     unit-cell volume          =    7496.5096 (a.u.)^3
     number of atoms/cell      =           32
     number of atomic types    =            3
     number of electrons       =       247.00
     number of Kohn-Sham states=          370
     kinetic-energy cutoff     =      40.0000  Ry
     charge density cutoff     =     500.0000  Ry
     convergence threshold     =      1.0E-06
     mixing beta               =       0.7000
     number of iterations used =            8  plain     mixing
     Exchange-correlation      = SLA  PW   PBE  PBE ( 1 4 3 4 0)
     EXX-fraction              =        0.00
     nstep                     =           50

     celldm(1)=  12.207631  celldm(2)=   0.000000  celldm(3)=   0.000000
     celldm(4)=   0.000000  celldm(5)=   0.000000  celldm(6)=   0.000000

     crystal axes: (cart. coord. in units of alat)
               a(1) = (   1.000000   0.000000   0.000000 )
               a(2) = (   0.000000   1.004836   0.000000 )
               a(3) = (   0.000000   0.000000   4.100811 )

     reciprocal axes: (cart. coord. in units 2 pi/alat)
               b(1) = (  1.000000  0.000000  0.000000 )
               b(2) = (  0.000000  0.995187  0.000000 )
               b(3) = (  0.000000  0.000000  0.243854 )

     PseudoPot. # 1 for O  read from file:
     /home/camp/zhonxu/pseudo/o_pbe_v1.01.uspp.F.UPF
     MD5 check sum: 2bcb18d16ea4b960afae9ec6d52f22d2
     Pseudo is Ultrasoft + core correction, Zval =  6.0
     Generated by new atomic code, or converted to UPF format
     Using radial grid of  737 points,  5 beta functions with:
                l(1) =   0
                l(2) =   0
                l(3) =   1
                l(4) =   1
                l(5) =   2
     Q(r) pseudized with  8 coefficients,  rinner =    0.900   0.900   0.900
                                                       0.900   0.900

     PseudoPot. # 2 for Pt read from file:
     /home/camp/zhonxu/pseudo/pt_pbe_v1.uspp.F.UPF
     MD5 check sum: 4c71d6ad5ef119f1eb26a4d0b7884226
     Pseudo is Ultrasoft + core correction, Zval = 16.0
     Generated by new atomic code, or converted to UPF format
     Using radial grid of  985 points,  6 beta functions with:
                l(1) =   0
                l(2) =   0
                l(3) =   1
                l(4) =   1
                l(5) =   2
                l(6) =   2
     Q(r) pseudized with  8 coefficients,  rinner =    1.300   1.300   1.300
                                                       1.300   1.300

     PseudoPot. # 3 for H  read from file:
     /home/camp/zhonxu/pseudo/h_pbe_v1.uspp.F.UPF
     MD5 check sum: 3408e3ff4ec8b0a4e358431e7e038a48
     Pseudo is Ultrasoft, Zval =  1.0
     Generated by new atomic code, or converted to UPF format
     Using radial grid of  615 points,  2 beta functions with:
                l(1) =   0
                l(2) =   0
     Q(r) pseudized with  8 coefficients,  rinner =    0.700

     atomic species   valence    mass     pseudopotential
        O0             6.00    15.99940     O ( 1.00)
        Pt1           16.00   195.08000     Pt( 1.00)
        H2             1.00     1.00794     H ( 1.00)

     Simplified LDA+U calculation (l_max = 2) with parameters (eV):
     atomic species    L          U    alpha       J0     beta
        Pt1            2     6.5000   0.0000   0.0000   0.0000

     No symmetry found

   Cartesian axes

     site n.     atom                  positions (alat units)
         1           O0  tau(   1) = (   0.0000000   0.0000000   1.5486303  )
         2           O0  tau(   2) = (   0.0000000   0.5024180   1.6456145  )
         3           Pt1 tau(   3) = (   0.2500000   0.5024180   1.8492198  )
         4           Pt1 tau(   4) = (   0.0000000   0.0000000   1.8561502  )
         5           O0  tau(   5) = (   0.2500000   0.8139171   1.8185047  )
         6           O0  tau(   6) = (   0.2500000   0.1909188   1.8850199  )
         7           O0  tau(   7) = (   0.0000000   0.5024180   2.0364218  )
         8           O0  tau(   8) = (   0.0000000   0.0000000   2.1712565  )
         9           Pt1 tau(   9) = (   0.2500000   0.0000000   2.3611651  )
        10           Pt1 tau(  10) = (   0.0000000   0.5024180   2.3568182  )
        11           O0  tau(  11) = (   0.2500000   0.6933368   2.3352889  )
        12           O0  tau(  12) = (   0.2500000   0.3114991   2.3978263  )
        13           O0  tau(  13) = (   0.0000000   0.0000000   2.5469728  )
        14           O0  tau(  14) = (   0.5000000   0.0000000   1.5487944  )
        15           O0  tau(  15) = (   0.5000000   0.5024180   1.6432360  )
        16           Pt1 tau(  16) = (   0.7500000   0.5024180   1.8492608  )
        17           Pt1 tau(  17) = (   0.5000000   0.0000000   1.8561092  )
        18           O0  tau(  18) = (   0.7500000   0.8139171   1.8183407  )
        19           O0  tau(  19) = (   0.7500000   0.1909188   1.8850199  )
        20           O0  tau(  20) = (   0.5000000   0.5024180   2.0398255  )
        21           O0  tau(  21) = (   0.5000000   0.0000000   2.1711335  )
        22           Pt1 tau(  22) = (   0.7500000   0.0000000   2.3611651  )
        23           Pt1 tau(  23) = (   0.5000000   0.5024180   2.3633795  )
        24           O0  tau(  24) = (   0.7500000   0.6933368   2.3343868  )
        25           O0  tau(  25) = (   0.7500000   0.3114991   2.3965141  )
        26           O0  tau(  26) = (   0.5000000   0.0000000   2.5473419  )
        27           H2  tau(  27) = (   0.0000800   0.6431151   1.5815188  )
        28           H2  tau(  28) = (   0.4999900   0.6432457   1.5795915  )
        29           H2  tau(  29) = (   0.1433600   0.0342348   1.5075812  )
        30           H2  tau(  30) = (   0.6432100   0.0348377   1.5077042  )
        31           O0  tau(  31) = (   0.5002800   0.5276996   2.6647891  )
        32           H2  tau(  32) = (   0.4897800   0.3840985   2.7162543  )

     number of k points=    10  Methfessel-Paxton smearing, width (Ry)=  0.0100
                       cart. coord. in units 2pi/alat
        k(    1) = (   0.0000000   0.0000000   0.0000000), wk =   0.1250000
        k(    2) = (   0.0000000   0.2487968   0.0000000), wk =   0.2500000
        k(    3) = (   0.0000000  -0.4975937   0.0000000), wk =   0.1250000
        k(    4) = (   0.2500000   0.0000000   0.0000000), wk =   0.2500000
        k(    5) = (   0.2500000   0.2487968   0.0000000), wk =   0.2500000
        k(    6) = (   0.2500000  -0.4975937   0.0000000), wk =   0.2500000
        k(    7) = (  -0.5000000   0.0000000   0.0000000), wk =   0.1250000
        k(    8) = (  -0.5000000   0.2487968   0.0000000), wk =   0.2500000
        k(    9) = (  -0.5000000  -0.4975937   0.0000000), wk =   0.1250000
        k(   10) = (  -0.2500000   0.2487968   0.0000000), wk =   0.2500000

     Largest allocated arrays     est. size (Mb)     dimensions
     Largest temporary arrays     est. size (Mb)     dimensions

     Check: negative/imaginary core charge=   -0.000003    0.000000

     Initial potential from superposition of free atoms
     Check: negative starting charge=   -1.535574

     starting charge  242.99984, renormalised to  247.00000

     negative rho (up, down):  0.156E+01 0.000E+00
     Number of +U iterations with fixed ns =  0
     Starting occupations:
 --- enter write_ns ---
 LDA+U parameters:
U( 2)     =  6.50000000
alpha( 2) =  0.00000000
atom    3   Tr[ns(na)] =   8.00000
    eigenvalues:
  0.800  0.800  0.800  0.800  0.800
    eigenvectors:
  1.000  0.000  0.000  0.000  0.000
  0.000  1.000  0.000  0.000  0.000
  0.000  0.000  1.000  0.000  0.000
  0.000  0.000  0.000  1.000  0.000
  0.000  0.000  0.000  0.000  1.000
    occupations:
  0.800  0.000  0.000  0.000  0.000
  0.000  0.800  0.000  0.000  0.000
  0.000  0.000  0.800  0.000  0.000
  0.000  0.000  0.000  0.800  0.000
  0.000  0.000  0.000  0.000  0.800
atom    4   Tr[ns(na)] =   8.00000
    eigenvalues:
  0.800  0.800  0.800  0.800  0.800
    eigenvectors:
  1.000  0.000  0.000  0.000  0.000
  0.000  1.000  0.000  0.000  0.000
  0.000  0.000  1.000  0.000  0.000
  0.000  0.000  0.000  1.000  0.000
  0.000  0.000  0.000  0.000  1.000
    occupations:
  0.800  0.000  0.000  0.000  0.000
  0.000  0.800  0.000  0.000  0.000
  0.000  0.000  0.800  0.000  0.000
  0.000  0.000  0.000  0.800  0.000
  0.000  0.000  0.000  0.000  0.800
atom    9   Tr[ns(na)] =   8.00000
    eigenvalues:
  0.800  0.800  0.800  0.800  0.800
    eigenvectors:
  1.000  0.000  0.000  0.000  0.000
  0.000  1.000  0.000  0.000  0.000
  0.000  0.000  1.000  0.000  0.000
  0.000  0.000  0.000  1.000  0.000
  0.000  0.000  0.000  0.000  1.000
    occupations:
  0.800  0.000  0.000  0.000  0.000
  0.000  0.800  0.000  0.000  0.000
  0.000  0.000  0.800  0.000  0.000
  0.000  0.000  0.000  0.800  0.000
  0.000  0.000  0.000  0.000  0.800
atom   10   Tr[ns(na)] =   8.00000
    eigenvalues:
  0.800  0.800  0.800  0.800  0.800
    eigenvectors:
  1.000  0.000  0.000  0.000  0.000
  0.000  1.000  0.000  0.000  0.000
  0.000  0.000  1.000  0.000  0.000
  0.000  0.000  0.000  1.000  0.000
  0.000  0.000  0.000  0.000  1.000
    occupations:
  0.800  0.000  0.000  0.000  0.000
  0.000  0.800  0.000  0.000  0.000
  0.000  0.000  0.800  0.000  0.000
  0.000  0.000  0.000  0.800  0.000
  0.000  0.000  0.000  0.000  0.800
atom   16   Tr[ns(na)] =   8.00000
    eigenvalues:
  0.800  0.800  0.800  0.800  0.800
    eigenvectors:
  1.000  0.000  0.000  0.000  0.000
  0.000  1.000  0.000  0.000  0.000
  0.000  0.000  1.000  0.000  0.000
  0.000  0.000  0.000  1.000  0.000
  0.000  0.000  0.000  0.000  1.000
    occupations:
  0.800  0.000  0.000  0.000  0.000
  0.000  0.800  0.000  0.000  0.000
  0.000  0.000  0.800  0.000  0.000
  0.000  0.000  0.000  0.800  0.000
  0.000  0.000  0.000  0.000  0.800
atom   17   Tr[ns(na)] =   8.00000
    eigenvalues:
  0.800  0.800  0.800  0.800  0.800
    eigenvectors:
  1.000  0.000  0.000  0.000  0.000
  0.000  1.000  0.000  0.000  0.000
  0.000  0.000  1.000  0.000  0.000
  0.000  0.000  0.000  1.000  0.000
  0.000  0.000  0.000  0.000  1.000
    occupations:
  0.800  0.000  0.000  0.000  0.000
  0.000  0.800  0.000  0.000  0.000
  0.000  0.000  0.800  0.000  0.000
  0.000  0.000  0.000  0.800  0.000
  0.000  0.000  0.000  0.000  0.800
atom   22   Tr[ns(na)] =   8.00000
    eigenvalues:
  0.800  0.800  0.800  0.800  0.800
    eigenvectors:
  1.000  0.000  0.000  0.000  0.000
  0.000  1.000  0.000  0.000  0.000
  0.000  0.000  1.000  0.000  0.000
  0.000  0.000  0.000  1.000  0.000
  0.000  0.000  0.000  0.000  1.000
[...]
  0.000  0.724 -0.000  0.000 -0.003
 -0.008 -0.000  0.971 -0.023  0.001
 -0.086  0.000 -0.023  0.772  0.001
  0.000 -0.003  0.001  0.001  0.964
atom   10   Tr[ns(na)] =   8.82524
    eigenvalues:
  0.678  0.769  0.987  0.988  0.991
    eigenvectors:
  0.000  0.980  0.000  0.013  0.007
  0.013  0.000  0.982  0.005  0.000
  0.000  0.000  0.002  0.229  0.769
  0.000  0.020  0.003  0.753  0.224
  0.987  0.000  0.013  0.000  0.000
    occupations:
  0.773 -0.001 -0.005  0.031 -0.000
 -0.001  0.983 -0.000  0.000 -0.035
 -0.005 -0.000  0.990 -0.001  0.000
  0.031  0.000 -0.001  0.984  0.000
 -0.000 -0.035  0.000  0.000  0.682
atom   16   Tr[ns(na)] =   8.78340
    eigenvalues:
  0.704  0.718  0.988  0.990  0.992
    eigenvectors:
  0.006  0.162  0.829  0.000  0.003
  0.966  0.034  0.000  0.000  0.000
  0.000  0.006  0.008  0.001  0.985
  0.029  0.798  0.162  0.000  0.011
  0.000  0.000  0.000  0.999  0.001
    occupations:
  0.943 -0.001  0.008 -0.101 -0.000
 -0.001  0.704 -0.001 -0.003 -0.002
  0.008 -0.001  0.991  0.019 -0.000
 -0.101 -0.003  0.019  0.765 -0.000
 -0.000 -0.002 -0.000 -0.000  0.990
atom   17   Tr[ns(na)] =   8.77932
    eigenvalues:
  0.702  0.725  0.986  0.988  0.989
    eigenvectors:
  0.000  0.985  0.009  0.004  0.003
  0.013  0.000  0.068  0.849  0.070
  0.000  0.005  0.805  0.018  0.172
  0.000  0.010  0.117  0.119  0.754
  0.987  0.000  0.001  0.011  0.001
    occupations:
  0.729 -0.004 -0.019  0.025 -0.001
 -0.004  0.984  0.000  0.000  0.032
 -0.019  0.000  0.985  0.003  0.000
  0.025  0.000  0.003  0.986  0.000
 -0.001  0.032  0.000  0.000  0.706
atom   22   Tr[ns(na)] =   8.77157
    eigenvalues:
  0.724  0.735  0.965  0.973  0.989
    eigenvectors:
  0.001  0.134  0.000  0.013  0.852
  0.996  0.004  0.000  0.000  0.000
  0.000  0.010  0.008  0.975  0.007
  0.003  0.852  0.000  0.004  0.141
  0.000  0.000  0.992  0.008  0.000
    occupations:
  0.954  0.001 -0.008 -0.086 -0.000
  0.001  0.725  0.000  0.000 -0.003
 -0.008  0.000  0.971 -0.023 -0.001
 -0.086  0.000 -0.023  0.772 -0.001
 -0.000 -0.003 -0.001 -0.001  0.965
atom   23   Tr[ns(na)] =   8.76824
    eigenvalues:
  0.700  0.728  0.978  0.988  0.990
    eigenvectors:
  0.000  0.972  0.000  0.000  0.028
  0.018  0.000  0.980  0.001  0.001
  0.000  0.019  0.002  0.371  0.608
  0.000  0.009  0.000  0.628  0.363
  0.982  0.000  0.018  0.000  0.000
    occupations:
  0.736 -0.001  0.036  0.024  0.000
 -0.001  0.973  0.001 -0.000 -0.037
  0.036  0.001  0.984 -0.002  0.000
  0.024 -0.000 -0.002  0.986 -0.000
  0.000 -0.037  0.000 -0.000  0.705
N of occupied +U levels =  70.2640828
 --- exit write_ns ---

     Threshold (ethr) on eigenvalues was too large:
     Diagonalizing with lowered threshold

     Davidson diagonalization with overlap
     ethr =  7.45E-09,  avg # of iterations =  2.0

[...]

     total energy              =   -2280.39093421 Ry
     Harris-Foulkes estimate   =   -2280.39093423 Ry
     estimated scf accuracy    <       0.00000021 Ry

     iteration # 14     ecut=    40.00 Ry     beta=0.70
     Davidson diagonalization with overlap
     ethr =  4.85E-12,  avg # of iterations =  1.0

     negative rho (up, down):  0.157E+01 0.000E+00

     End of self-consistent calculation
 --- enter write_ns ---
 LDA+U parameters:
U( 2)     =  6.50000000
alpha( 2) =  0.00000000
atom    3   Tr[ns(na)] =   8.78318
    eigenvalues:
  0.703  0.718  0.988  0.990  0.992
    eigenvectors:
  0.006  0.162  0.825  0.003  0.004
  0.963  0.036  0.000  0.000  0.000
  0.000  0.006  0.010  0.000  0.984
  0.030  0.796  0.161  0.001  0.012
  0.000  0.000  0.003  0.996  0.000
    occupations:
  0.943  0.001  0.008 -0.101  0.000
  0.001  0.704  0.001  0.003 -0.002
  0.008  0.001  0.991  0.019  0.000
 -0.101  0.003  0.019  0.765  0.001
  0.000 -0.002  0.000  0.001  0.990
atom    4   Tr[ns(na)] =   8.78164
    eigenvalues:
  0.702  0.725  0.986  0.988  0.989
    eigenvectors:
  0.000  0.984  0.010  0.004  0.002
  0.012  0.000  0.071  0.816  0.100
  0.000  0.006  0.759  0.008  0.228
  0.000  0.010  0.159  0.162  0.669
  0.987  0.000  0.001  0.010  0.001
    occupations:
  0.729 -0.004 -0.019  0.026 -0.001
 -0.004  0.984  0.000  0.000  0.032
 -0.019  0.000  0.986  0.003 -0.000
  0.026  0.000  0.003  0.986  0.000
 -0.001  0.032 -0.000  0.000  0.706
atom    9   Tr[ns(na)] =   8.77169
    eigenvalues:
  0.724  0.735  0.964  0.974  0.989
    eigenvectors:
  0.000  0.134  0.000  0.013  0.852
  0.999  0.000  0.000  0.000  0.000
  0.000  0.011  0.005  0.978  0.007
  0.000  0.855  0.000  0.004  0.141
  0.000  0.000  0.995  0.005  0.000
    occupations:
  0.954  0.000 -0.008 -0.086  0.000
  0.000  0.724 -0.000  0.000 -0.003
 -0.008 -0.000  0.971 -0.023  0.001
 -0.086  0.000 -0.023  0.772  0.001
  0.000 -0.003  0.001  0.001  0.964
atom   10   Tr[ns(na)] =   8.82419
    eigenvalues:
  0.678  0.768  0.987  0.988  0.991
    eigenvectors:
  0.000  0.980  0.000  0.013  0.007
  0.013  0.000  0.983  0.005  0.000
  0.000  0.000  0.002  0.229  0.769
  0.000  0.020  0.003  0.753  0.224
  0.987  0.000  0.013  0.000  0.000
    occupations:
  0.773 -0.001 -0.005  0.031 -0.000
 -0.001  0.983 -0.000  0.000 -0.035
 -0.005 -0.000  0.990 -0.001  0.000
  0.031  0.000 -0.001  0.984  0.000
 -0.000 -0.035  0.000  0.000  0.682
atom   16   Tr[ns(na)] =   8.78341
    eigenvalues:
  0.704  0.718  0.988  0.990  0.992
    eigenvectors:
  0.006  0.162  0.829  0.000  0.003
  0.965  0.035  0.000  0.000  0.000
  0.000  0.006  0.008  0.001  0.985
  0.029  0.798  0.162  0.000  0.011
  0.000  0.000  0.000  0.999  0.001
    occupations:
  0.943 -0.001  0.008 -0.101 -0.000
 -0.001  0.704 -0.001 -0.003 -0.002
  0.008 -0.001  0.991  0.019 -0.000
 -0.101 -0.003  0.019  0.765 -0.000
 -0.000 -0.002 -0.000 -0.000  0.990
atom   17   Tr[ns(na)] =   8.77960
    eigenvalues:
  0.702  0.725  0.986  0.988  0.989
    eigenvectors:
  0.000  0.985  0.009  0.004  0.003
  0.013  0.000  0.068  0.849  0.069
  0.000  0.005  0.804  0.018  0.173
  0.000  0.010  0.118  0.118  0.755
  0.987  0.000  0.001  0.011  0.001
    occupations:
  0.729 -0.004 -0.019  0.025 -0.001
 -0.004  0.984  0.000  0.000  0.032
 -0.019  0.000  0.985  0.003  0.000
  0.025  0.000  0.003  0.986  0.000
 -0.001  0.032  0.000  0.000  0.706
atom   22   Tr[ns(na)] =   8.77145
    eigenvalues:
  0.724  0.735  0.965  0.973  0.989
    eigenvectors:
  0.001  0.134  0.000  0.013  0.852
  0.996  0.004  0.000  0.000  0.000
  0.000  0.010  0.008  0.975  0.007
  0.003  0.852  0.000  0.004  0.141
  0.000  0.000  0.992  0.008  0.000
    occupations:
  0.954  0.001 -0.008 -0.086 -0.000
  0.001  0.725  0.000  0.000 -0.003
 -0.008  0.000  0.971 -0.023 -0.001
 -0.086  0.000 -0.023  0.772 -0.001
 -0.000 -0.003 -0.001 -0.001  0.965
atom   23   Tr[ns(na)] =   8.76828
    eigenvalues:
  0.700  0.728  0.978  0.988  0.990
    eigenvectors:
  0.000  0.972  0.000  0.000  0.028
  0.018  0.000  0.980  0.001  0.001
  0.000  0.019  0.002  0.370  0.608
  0.000  0.009  0.000  0.628  0.362
  0.982  0.000  0.018  0.000  0.000
    occupations:
  0.736 -0.001  0.036  0.024  0.000
 -0.001  0.973  0.001 -0.000 -0.037
  0.036  0.001  0.984 -0.002  0.000
  0.024 -0.000 -0.002  0.986 -0.000
  0.000 -0.037  0.000 -0.000  0.705
N of occupied +U levels =  70.2634613
 --- exit write_ns ---

[...]

          k = 0.2500-0.4976 0.0000 ( 32026 PWs)   bands (ev):

[...]

          k =-0.2500 0.2488 0.0000 ( 32025 PWs)   bands (ev):

   -55.1279 -55.0880 -55.0238 -54.9822 -54.9567 -54.9343 -54.9298 -54.9164
   -54.8566 -54.8507 -54.8183 -54.7668 -54.7615 -54.7452 -54.7377 -54.6249
   -54.6224 -54.6192 -54.5873 -54.5802 -54.4967 -54.3774 -54.1563 -53.8519
   -22.1029 -21.9242 -21.2245 -21.0664 -20.8526 -20.7968 -20.6824 -20.6407
   -20.5537 -20.3586 -20.3168 -20.2293 -20.1218 -20.0378 -19.9697 -19.9524
   -19.7807 -19.3216 -19.0767 -11.2296 -11.0724 -10.9988 -10.8079 -10.5123
   -10.4181 -10.3995 -10.0458 -10.0002  -9.8091  -9.6496  -9.6053  -9.4150
    -9.3532  -9.2671  -9.1906  -9.0337  -8.9506  -8.8432  -8.6996  -8.4991
    -8.3872  -8.3608  -8.2139  -8.1320  -8.0188  -7.8894  -7.8162  -7.6766
    -7.6264  -7.5551  -7.4555  -7.4239  -7.3029  -7.2307  -7.1612  -7.1083
    -7.0162  -6.9165  -6.8310  -6.6795  -6.5532  -6.2924  -6.0688  -5.9135
    -5.6609  -5.6370  -5.5909  -5.4293  -5.3632  -5.3230  -5.1767  -5.0182
    -4.8879  -4.8150  -4.6245  -4.4140  -4.3784  -4.3087  -4.1083  -4.0449
    -3.9482  -3.8420  -3.8121  -3.6825  -3.5977  -3.4680  -3.4401  -3.1621
    -3.1559  -2.8993  -2.7543  -2.6657  -2.5365  -2.5121  -2.4702  -2.4090
    -2.3232  -2.1320  -1.9578  -1.8579  -1.7478  -1.1145  -0.8429  -0.6604
    -0.3066  -0.1683   0.2517   0.5091   0.7365   0.8167   0.9647   1.0540
     1.2825   1.4153   1.4889   1.8329   3.2636   3.9548   4.6143   5.0403
     5.1039   5.2090   5.2742   5.5501   6.0169   6.1933   6.2949   6.3289
     6.4600   6.5945   6.6808   6.7818   6.8643   6.9411   7.1407   7.2303
     7.3971   7.5199   7.5443   7.7031   7.7529   7.8584   7.9614   8.0602
     8.2431   8.3339   8.3738   8.4760   8.5339   8.6293   8.6863   8.7988
     8.9445   8.9914   9.0666   9.1949   9.3472   9.4323   9.6085   9.6486
     9.7619   9.8233   9.9178  10.0717  10.1228  10.1898  10.2386  10.3735
    10.5150  10.5528  10.6125  10.7082  10.7410  10.9517  11.0161  11.0967
    11.1858  11.2142  11.3729  11.4364  11.4948  11.6514  11.7544  11.7931
    11.8627  11.9420  12.0195  12.0384  12.1089  12.2304  12.3005  12.3616
    12.4044  12.4728  12.5301  12.5922  12.6668  12.7360  12.7965  12.9613
    13.0109  13.0473  13.1263  13.2246  13.2832  13.4878  13.5621  13.5897
    13.6315  13.6851  13.7410  13.8433  13.9545  14.0033  14.0792  14.1041
    14.2138  14.3153  14.3675  14.5297  14.5811  14.6624  14.7481  14.8619
    14.9119  15.0158  15.0878  15.2013  15.2620  15.3061  15.3236  15.4137
    15.4606  15.5116  15.5953  15.6248  15.7047  15.7381  15.7824  15.8627
    15.8858  15.9884  16.0142  16.0628  16.1279  16.2479  16.3286  16.3991
    16.4822  16.5251  16.6433  16.7323  16.7929  16.8272  16.9246  16.9594
    17.0259  17.0811  17.1347  17.1920  17.2279  17.2938  17.3175  17.3380
    17.3643  17.3883  17.4050  17.4252  17.4820  17.5058  17.5147  17.5362
    17.5710  17.5886  17.6411  17.6705  17.7794  17.9155  17.9537  18.0077
    18.0547  18.1306  18.1735  18.2259  18.2784  18.3656  18.4773  18.5193
    18.5899  18.6161  18.6337  18.7324  18.8028  18.8758  18.9145  18.9810
    19.0299  19.1445  19.1867  19.2608  19.3103  19.3731  19.4608  19.5660
    19.6543  19.6979  19.8255  19.8857  19.9529  20.0002  20.0536  20.0888
    20.1414  20.1733  20.2749  20.3546  20.3650  20.4297  20.5309  20.5715
    20.6661  20.7071  20.7423  20.8156  20.9150  20.9547  20.9875  21.0286
    21.0947  21.2226  21.2601  21.3042  21.3396  21.3642  21.4640  21.5086
    21.5825  21.6285  21.7115  21.7581  21.8064  21.9080  21.9983  22.0803
    22.1536  22.1946

     the Fermi energy is    -1.8542 ev

!    total energy              =   -2280.39093421 Ry
     Harris-Foulkes estimate   =   -2280.39093422 Ry
     estimated scf accuracy    <          4.3E-09 Ry

     The total energy is the sum of the following terms:

     one-electron contribution =  -23734.65576473 Ry
     hartree contribution      =   11912.43473993 Ry
     xc contribution           =    -573.08227143 Ry
     ewald contribution        =   10113.19964161 Ry
     Hubbard energy            =       1.71251221 Ry
     smearing contrib. (-TS)   =       0.00020820 Ry

     convergence has been achieved in  14 iterations

     Forces acting on atoms (Ry/au):

     negative rho (up, down):  0.157E+01 0.000E+00
     atom    1 type  1   force =    -0.00802848   -0.00354148    0.00032874
     atom    2 type  1   force =     0.00036496    0.00256176   -0.00071031
     atom    3 type  2   force =     0.01519414    0.00769953   -0.00022532
     atom    4 type  2   force =     0.01035657    0.00417582    0.00006310
     atom    5 type  1   force =     0.00142680   -0.00295887   -0.00088797
     atom    6 type  1   force =     0.00004788   -0.00322882   -0.00032640
     atom    7 type  1   force =     0.00027190   -0.00059632    0.00081131
     atom    8 type  1   force =    -0.00421902   -0.00074094    0.00033688
     atom    9 type  2   force =     0.00324369    0.00232806   -0.00036431
     atom   10 type  2   force =    -0.00046622   -0.02430707    0.00069955
     atom   11 type  1   force =     0.00412079    0.00209840    0.00066203
     atom   12 type  1   force =    -0.01282738    0.00766589   -0.00006718
     atom   13 type  1   force =    -0.00106462   -0.00669108   -0.00019132
     atom   14 type  1   force =    -0.00779887   -0.00328009    0.00024039
     atom   15 type  1   force =     0.00012245    0.00113801   -0.00008904
     atom   16 type  2   force =    -0.01641962    0.00766939   -0.00031601
     atom   17 type  2   force =     0.01005462    0.00543170    0.00014685
     atom   18 type  1   force =     0.00097759   -0.00304380   -0.00079978
     atom   19 type  1   force =     0.00011328   -0.00312287   -0.00036048
     atom   20 type  1   force =     0.00031377   -0.00222575   -0.00055552
     atom   21 type  1   force =    -0.00389200    0.00179019    0.00048484
     atom   22 type  2   force =     0.00062987    0.00257200   -0.00054085
     atom   23 type  2   force =    -0.00049671    0.00165729   -0.00024816
     atom   24 type  1   force =    -0.00405026    0.00262310    0.00052179
     atom   25 type  1   force =     0.01296869    0.00793159   -0.00002218
     atom   26 type  1   force =    -0.00117329   -0.00555694   -0.00015947
     atom   27 type  3   force =    -0.00001649    0.00037258   -0.00009115
     atom   28 type  3   force =     0.00001665    0.00008605   -0.00003234
     atom   29 type  3   force =    -0.00006230   -0.00006172    0.00038289
     atom   30 type  3   force =    -0.00001668   -0.00009194    0.00032874
     atom   31 type  1   force =     0.00010756    0.00067449    0.00064766
     atom   32 type  3   force =     0.00020075    0.00097182    0.00033303

     Total force =     0.002828     Total SCF correction =     0.000258

     bfgs converged in  18 scf cycles and  17 bfgs steps
     (criteria: energy < 0.10E-03, force < 0.10E-02)

     End of BFGS Geometry Optimization

     Final energy   =   -2280.3909342137 Ry
Begin final coordinates

ATOMIC_POSITIONS (crystal)
O0       0.000000000   0.000000000   0.377470323    0   0   1
O0       0.000000000   0.500000000   0.401629960    0   0   1
Pt1      0.250000000   0.500000000   0.451122356    0   0   1
Pt1      0.000000000   0.000000000   0.452589839    0   0   1
O0       0.250000000   0.810000000   0.442519873    0   0   1
O0       0.250000000   0.190000000   0.461122939    0   0   1
O0       0.000000000   0.500000000   0.496636964    0   0   1
O0       0.000000000   0.000000000   0.529636618    0   0   1
Pt1      0.250000000   0.000000000   0.575703395    0   0   1
Pt1      0.000000000   0.500000000   0.574336926    0   0   1
O0       0.250000000   0.690000000   0.566180757    0   0   1
O0       0.250000000   0.310000000   0.586004849    0   0   1
O0       0.000000000   0.000000000   0.621189589    0   0   1
O0       0.500000000   0.000000000   0.377535838    0   0   1
O0       0.500000000   0.500000000   0.401214185    0   0   1
Pt1      0.750000000   0.500000000   0.451125582    0   0   1
Pt1      0.500000000   0.000000000   0.452631864    0   0   1
O0       0.750000000   0.810000000   0.442517021    0   0   1
O0       0.750000000   0.190000000   0.461126605    0   0   1
O0       0.500000000   0.500000000   0.497307916    0   0   1
O0       0.500000000   0.000000000   0.529603044    0   0   1
Pt1      0.750000000   0.000000000   0.575710138    0   0   1
Pt1      0.500000000   0.500000000   0.575911641    0   0   1
O0       0.750000000   0.690000000   0.566272915    0   0   1
O0       0.750000000   0.310000000   0.585889241    0   0   1
O0       0.500000000   0.000000000   0.621205757    0   0   1
H2       0.000075781   0.641000266   0.386547233
H2       0.499997986   0.641490316   0.386371811
H2       0.143618850   0.034245793   0.367697513
H2       0.643637771   0.034221502   0.367757016
O0       0.499287742   0.532608525   0.649456225
H2       0.492221868   0.390346915   0.662594067
End final coordinates

     General routines

     Parallel routines
     Hubbard U routines

   This run was terminated on:  22:45:48  28Apr2014

   JOB DONE.
Running PBS batch system epilogue script
Job id: 340497.audhumbla.fysik.dtu.dk
Username: zhonxu
Groupname: campgst
Jobname: PtO2/Eads-2-layers/OH-U-6.5
Sessionid: 29667
Queuename: verylong
Accounting:
This job has allocated the following 16 nodes:
b028 b028 b028 b028 b028 b028 b028 b028 b008 b008 b008 b008 b008 b008 b008 b008
Finished epilogue job 340497.audhumbla.fysik.dtu.dk for zhonxu