     Program PWSCF v.5.0.2 (svn rev. 9656) starts on 13Aug2014 at 10:14:43

     Current dimensions of program PWSCF are:
     Max number of different atomic species (ntypx) = 10
     Max number of k-points (npk) =  40000
     Max angular momentum in pseudopotentials (lmaxx) =  3
     Reading input from pwscf.in
Warning: card &CELL ignored
Warning: card / ignored

     Subspace diagonalization in iterative solution of the eigenvalue problem:
     a serial algorithm will be used

     bravais-lattice index     =            0
     lattice parameter (alat)  =      10.9604  a.u.
     unit-cell volume          =    6350.6732 (a.u.)^3
     number of atoms/cell      =           33
     number of atomic types    =            3
     number of electrons       =       237.00 (up: 126.00, down: 111.00)
     number of Kohn-Sham states=          343
     kinetic-energy cutoff     =      40.0000  Ry
     charge density cutoff     =     500.0000  Ry
     convergence threshold     =      1.0E-06
     mixing beta               =       0.7000
     number of iterations used =            8  plain     mixing
     Exchange-correlation      = SLA  PW   PBE  PBE ( 1 4 3 4 0)
     EXX-fraction              =        0.00
     nstep                     =           50

     celldm(1)=  10.960412  celldm(2)=   0.000000  celldm(3)=   0.000000
     celldm(4)=   0.000000  celldm(5)=   0.000000  celldm(6)=   0.000000

     crystal axes: (cart. coord. in units of alat)
               a(1) = (   1.000000   0.000000   0.000000 )
               a(2) = (   0.000000   1.067975   0.000000 )
               a(3) = (   0.000000   0.000000   4.516251 )

     reciprocal axes: (cart. coord. in units 2 pi/alat)
               b(1) = (  1.000000  0.000000  0.000000 )
               b(2) = (  0.000000  0.936351  0.000000 )
               b(3) = (  0.000000  0.000000  0.221423 )

     PseudoPot. # 1 for O  read from file:
     /home-research/zhongnanxu/gbrv_espresso_pseudo_v1.01/o_pbe_v1.01.uspp.F.UPF
     MD5 check sum: 2bcb18d16ea4b960afae9ec6d52f22d2
     Pseudo is Ultrasoft + core correction, Zval =  6.0
     Generated by new atomic code, or converted to UPF format
     Using radial grid of  737 points,  5 beta functions with:
                l(1) =   0
                l(2) =   0
                l(3) =   1
                l(4) =   1
                l(5) =   2
     Q(r) pseudized with  8 coefficients,  rinner =    0.900   0.900   0.900
                                                       0.900   0.900

     PseudoPot. # 2 for Cr read from file:
     /home-research/zhongnanxu/gbrv_espresso_pseudo_v1.01/cr_pbe_v1.uspp.F.UPF
     MD5 check sum: 68b6f918d1762dccfb11451fe85b0e0e
     Pseudo is Ultrasoft + core correction, Zval = 14.0
     Generated by new atomic code, or converted to UPF format
     Using radial grid of  857 points,  6 beta functions with:
                l(1) =   0
                l(2) =   0
                l(3) =   1
                l(4) =   1
                l(5) =   2
                l(6) =   2
     Q(r) pseudized with  6 coefficients,  rinner =    1.000   1.000   1.000
                                                       1.000   1.000

     PseudoPot. # 3 for H  read from file:
     /home-research/zhongnanxu/gbrv_espresso_pseudo_v1.01/h_pbe_v1.uspp.F.UPF
     MD5 check sum: 3408e3ff4ec8b0a4e358431e7e038a48
     Pseudo is Ultrasoft, Zval =  1.0
     Generated by new atomic code, or converted to UPF format
     Using radial grid of  615 points,  2 beta functions with:
                l(1) =   0
                l(2) =   0
     Q(r) pseudized with  8 coefficients,  rinner =    0.700

     atomic species   valence    mass     pseudopotential
        O0             6.00    15.99940     O ( 1.00)
        Cr1           14.00    51.99600     Cr( 1.00)
        H2             1.00     1.00794     H ( 1.00)

     Starting magnetic structure
     atomic species   magnetization
        O0           0.000
        Cr1          0.600
        H2           0.000

     Simplified LDA+U calculation (l_max = 2) with parameters (eV):
     atomic species    L          U    alpha       J0     beta
        Cr1            2     7.0000   0.0000   0.0000   0.0000

     No symmetry found

   Cartesian axes

     site n.     atom                  positions (alat units)
         1           O0  tau(   1) = (   0.0000000   0.0000000   1.6846519  )
         2           O0  tau(   2) = (   0.0000000   0.5339875   1.7810739  )
         3           Cr1 tau(   3) = (   0.2500000   0.5339875   2.0199384  )
         4           Cr1 tau(   4) = (   0.0000000   0.0000000   2.0268031  )
         5           O0  tau(   5) = (   0.2500000   0.8543801   2.0221514  )
         6           O0  tau(   6) = (   0.2500000   0.2135950   2.0222417  )
         7           O0  tau(   7) = (   0.0000000   0.5339875   2.2442154  )
         8           O0  tau(   8) = (   0.0000000   0.0000000   2.3730189  )
         9           Cr1 tau(   9) = (   0.2500000   0.0000000   2.6060123  )
        10           Cr1 tau(  10) = (   0.0000000   0.5339875   2.5660886  )
        11           O0  tau(  11) = (   0.2500000   0.7475825   2.6086317  )
        12           O0  tau(  12) = (   0.2500000   0.3203925   2.6129673  )
        13           O0  tau(  13) = (   0.0000000   0.0000000   2.8272634  )
        14           O0  tau(  14) = (   0.5000000   0.0000000   1.6832519  )
        15           O0  tau(  15) = (   0.5000000   0.5339875   1.7816610  )
        16           Cr1 tau(  16) = (   0.7500000   0.5339875   2.0199384  )
        17           Cr1 tau(  17) = (   0.5000000   0.0000000   2.0253127  )
        18           O0  tau(  18) = (   0.7500000   0.8543801   2.0222417  )
        19           O0  tau(  19) = (   0.7500000   0.2135950   2.0222417  )
        20           O0  tau(  20) = (   0.5000000   0.5339875   2.2545125  )
        21           O0  tau(  21) = (   0.5000000   0.0000000   2.3724318  )
        22           Cr1 tau(  22) = (   0.7500000   0.0000000   2.6053348  )
        23           Cr1 tau(  23) = (   0.5000000   0.5339875   2.6037541  )
        24           O0  tau(  24) = (   0.7500000   0.7475825   2.6082704  )
        25           O0  tau(  25) = (   0.7500000   0.3203925   2.6126512  )
        26           O0  tau(  26) = (   0.5000000   0.0000000   2.8256376  )
        27           H2  tau(  27) = (  -0.0008300   0.6805458   1.6940909  )
        28           H2  tau(  28) = (   0.4992400   0.6808982   1.6952199  )
        29           H2  tau(  29) = (   0.1599900   0.0275324   1.6300956  )
        30           H2  tau(  30) = (   0.6598700   0.0279062   1.6287859  )
        31           O0  tau(  31) = (   0.4998600   0.5892659   2.9640155  )
        32           O0  tau(  32) = (   0.5002200   0.3910498   3.0943093  )
        33           H2  tau(  33) = (   0.4998900   0.4530991   3.2536878  )

     number of k points=    20  Methfessel-Paxton smearing, width (Ry)=  0.0100
                       cart. coord. in units 2pi/alat
        k(    1) = (   0.0000000   0.0000000   0.0000000), wk =   0.0625000
        k(    2) = (   0.0000000   0.2340879   0.0000000), wk =   0.1250000
        k(    3) = (   0.0000000  -0.4681757   0.0000000), wk =   0.0625000
        k(    4) = (   0.2500000   0.0000000   0.0000000), wk =   0.1250000
        k(    5) = (   0.2500000   0.2340879   0.0000000), wk =   0.1250000
        k(    6) = (   0.2500000  -0.4681757   0.0000000), wk =   0.1250000
        k(    7) = (  -0.5000000   0.0000000   0.0000000), wk =   0.0625000
        k(    8) = (  -0.5000000   0.2340879   0.0000000), wk =   0.1250000
        k(    9) = (  -0.5000000  -0.4681757   0.0000000), wk =   0.0625000
        k(   10) = (  -0.2500000   0.2340879   0.0000000), wk =   0.1250000
        k(   11) = (   0.0000000   0.0000000   0.0000000), wk =   0.0625000
        k(   12) = (   0.0000000   0.2340879   0.0000000), wk =   0.1250000
        k(   13) = (   0.0000000  -0.4681757   0.0000000), wk =   0.0625000
        k(   14) = (   0.2500000   0.0000000   0.0000000), wk =   0.1250000
        k(   15) = (   0.2500000   0.2340879   0.0000000), wk =   0.1250000
        k(   16) = (   0.2500000  -0.4681757   0.0000000), wk =   0.1250000
        k(   17) = (  -0.5000000   0.0000000   0.0000000), wk =   0.0625000
        k(   18) = (  -0.5000000   0.2340879   0.0000000), wk =   0.1250000
        k(   19) = (  -0.5000000  -0.4681757   0.0000000), wk =   0.0625000
        k(   20) = (  -0.2500000   0.2340879   0.0000000), wk =   0.1250000

     Largest allocated arrays     est. size (Mb)     dimensions
     Largest temporary arrays     est. size (Mb)     dimensions

     Check: negative/imaginary core charge=   -0.000012    0.000000

     Initial potential from superposition of free atoms
     Check: negative starting charge=(component1):   -0.001245
     Check: negative starting charge=(component2):   -0.000436

     starting charge  228.99983, renormalised to  237.00000

     negative rho (up, down):  0.129E-02 0.451E-03
     Number of +U iterations with fixed ns =  0
     Starting occupations:
 --- enter write_ns ---
 LDA+U parameters:
U( 2)     =  7.00000000
alpha( 2) =  0.00000000
atom    3   Tr[ns(na)] (up, down, total) =   5.00000  0.00000  5.00000
   spin  1
    eigenvalues:
  1.000  1.000  1.000  1.000  1.000
    eigenvectors:
  1.000  0.000  0.000  0.000  0.000
  0.000  1.000  0.000  0.000  0.000
  0.000  0.000  1.000  0.000  0.000
  0.000  0.000  0.000  1.000  0.000
  0.000  0.000  0.000  0.000  1.000
    occupations:
  1.000  0.000  0.000  0.000  0.000
  0.000  1.000  0.000  0.000  0.000
  0.000  0.000  1.000  0.000  0.000
  0.000  0.000  0.000  1.000  0.000
  0.000  0.000  0.000  0.000  1.000
   spin  2
    eigenvalues:
  0.000  0.000  0.000  0.000  0.000
    eigenvectors:
  1.000  0.000  0.000  0.000  0.000
  0.000  1.000  0.000  0.000  0.000
  0.000  0.000  1.000  0.000  0.000
  0.000  0.000  0.000  1.000  0.000
  0.000  0.000  0.000  0.000  1.000
    occupations:
  0.000  0.000  0.000  0.000  0.000
  0.000  0.000  0.000  0.000  0.000
  0.000  0.000  0.000  0.000  0.000
  0.000  0.000  0.000  0.000  0.000
  0.000  0.000  0.000  0.000  0.000
atomic mag. moment =     5.000000
atom    4   Tr[ns(na)] (up, down, total) =   5.00000  0.00000  5.00000
   spin  1
    eigenvalues:
  1.000  1.000  1.000  1.000  1.000
    eigenvectors:
  1.000  0.000  0.000  0.000  0.000
  0.000  1.000  0.000  0.000  0.000
  0.000  0.000  1.000  0.000  0.000
  0.000  0.000  0.000  1.000  0.000
  0.000  0.000  0.000  0.000  1.000
    occupations:
  1.000  0.000  0.000  0.000  0.000
  0.000  1.000  0.000  0.000  0.000
  0.000  0.000  1.000  0.000  0.000
  0.000  0.000  0.000  1.000  0.000
  0.000  0.000  0.000  0.000  1.000
   spin  2
    eigenvalues:
  0.000  0.000  0.000  0.000  0.000
    eigenvectors:
  1.000  0.000  0.000  0.000  0.000
  0.000  1.000  0.000  0.000  0.000
  0.000  0.000  1.000  0.000  0.000
  0.000  0.000  0.000  1.000  0.000
  0.000  0.000  0.000  0.000  1.000
    occupations:
  0.000  0.000  0.000  0.000  0.000
  0.000  0.000  0.000  0.000  0.000
  0.000  0.000  0.000  0.000  0.000
  0.000  0.000  0.000  0.000  0.000
  0.000  0.000  0.000  0.000  0.000
[...]
  0.001  0.746  0.000  0.000  0.253
  0.000  0.000  0.000  1.000  0.000
    occupations:
  0.867 -0.001  0.001 -0.216  0.000
 -0.001  0.445  0.001  0.002 -0.005
  0.001  0.001  0.863 -0.005 -0.001
 -0.216  0.002 -0.005  0.623  0.000
  0.000 -0.005 -0.001  0.000  0.960
   spin  2
    eigenvalues:
  0.057  0.071  0.076  0.265  0.313
    eigenvectors:
  0.736  0.002  0.032  0.001  0.229
  0.000  0.001  0.000  0.996  0.002
  0.041  0.030  0.929  0.000  0.000
  0.224  0.000  0.006  0.001  0.768
  0.000  0.967  0.032  0.001  0.000
    occupations:
  0.117  0.001 -0.001  0.107  0.000
  0.001  0.265  0.000 -0.003  0.007
 -0.001  0.000  0.075  0.005 -0.001
  0.107 -0.003  0.005  0.254  0.000
  0.000  0.007 -0.001  0.000  0.072
atomic mag. moment =     2.975328
atom   17   Tr[ns(na)] (up, down, total) =   3.77830  0.77031  4.54861
   spin  1
    eigenvalues:
  0.468  0.499  0.889  0.931  0.991
    eigenvectors:
  0.000  0.997  0.000  0.001  0.002
  0.000  0.001  0.008  0.991  0.000
  0.000  0.000  0.992  0.008  0.000
  0.000  0.002  0.000  0.000  0.998
  1.000  0.000  0.000  0.000  0.000
    occupations:
  0.500 -0.015 -0.001  0.022  0.000
 -0.015  0.930  0.004  0.001  0.000
 -0.001  0.004  0.889  0.000  0.002
  0.022  0.001  0.000  0.990  0.000
  0.000  0.000  0.002  0.000  0.468
   spin  2
    eigenvalues:
  0.065  0.067  0.069  0.270  0.299
    eigenvectors:
  0.001  0.008  0.000  0.990  0.000
  0.101  0.008  0.889  0.001  0.000
  0.842  0.078  0.080  0.000  0.000
  0.056  0.905  0.031  0.009  0.000
  0.000  0.000  0.000  0.000  1.000
    occupations:
  0.268  0.006  0.001 -0.019  0.000
  0.006  0.069 -0.001  0.000  0.000
  0.001 -0.001  0.065  0.000  0.000
 -0.019  0.000  0.000  0.068  0.000
  0.000  0.000  0.000  0.000  0.299
atomic mag. moment =     3.007991
atom   22   Tr[ns(na)] (up, down, total) =   3.76742  0.82517  4.59259
   spin  1
    eigenvalues:
  0.510  0.525  0.817  0.922  0.994
    eigenvectors:
  0.003  0.215  0.000  0.000  0.781
  0.986  0.014  0.000  0.000  0.000
  0.000  0.000  0.985  0.015  0.000
  0.011  0.771  0.000  0.000  0.219
  0.000  0.000  0.015  0.985  0.000
    occupations:
  0.892  0.002  0.001 -0.194  0.001
  0.002  0.510  0.001  0.001  0.001
  0.001  0.001  0.818  0.000  0.013
 -0.194  0.001  0.000  0.628  0.001
  0.001  0.001  0.013  0.001  0.920
   spin  2
    eigenvalues:
  0.068  0.077  0.078  0.282  0.320
    eigenvectors:
  0.799  0.000  0.000  0.000  0.200
  0.000  0.000  0.000  0.999  0.001
  0.000  0.043  0.957  0.000  0.000
  0.201  0.000  0.000  0.001  0.799
  0.000  0.957  0.043  0.000  0.000
    occupations:
  0.119  0.000  0.001  0.101  0.000
  0.000  0.282  0.000  0.001  0.000
  0.001  0.000  0.078  0.002  0.000
  0.101  0.001  0.002  0.269  0.000
  0.000  0.000  0.000  0.000  0.077
atomic mag. moment =     2.942251
atom   23   Tr[ns(na)] (up, down, total) =   3.79434  0.71576  4.51010
   spin  1
    eigenvalues:
  0.427  0.475  0.951  0.952  0.989
    eigenvectors:
  0.996  0.000  0.003  0.000  0.001
  0.000  0.000  0.003  0.997  0.000
  0.003  0.000  0.995  0.003  0.000
  0.001  0.000  0.000  0.000  0.999
  0.000  1.000  0.000  0.000  0.000
    occupations:
  0.429  0.000  0.028  0.021  0.000
  0.000  0.952  0.000  0.000 -0.009
  0.028  0.000  0.949 -0.001  0.000
  0.021  0.000 -0.001  0.989  0.000
  0.000 -0.009  0.000  0.000  0.476
   spin  2
    eigenvalues:
  0.055  0.067  0.069  0.223  0.302
    eigenvectors:
  0.003  0.012  0.000  0.985  0.000
  0.000  0.000  1.000  0.000  0.000
  0.997  0.001  0.000  0.002  0.000
  0.001  0.987  0.000  0.012  0.000
  0.000  0.000  0.000  0.000  1.000
    occupations:
  0.220  0.000 -0.008 -0.017  0.000
  0.000  0.069  0.000  0.000  0.002
 -0.008  0.000  0.056  0.001  0.000
 -0.017  0.000  0.001  0.069  0.000
  0.000  0.002  0.000  0.000  0.302
atomic mag. moment =     3.078577
N of occupied +U levels =  36.3924794
 --- exit write_ns ---

 ------ SPIN UP ------------

          k = 0.0000 0.0000 0.0000 ( 27003 PWs)   bands (ev):

   -74.5548 -74.3817 -74.2617 -74.2482 -74.2177 -74.2164 -74.2024 -74.1917
   -46.0035 -45.8773 -45.7919 -45.7594 -45.6621 -45.6586 -45.6283 -45.6253
   -45.6236 -45.6192 -45.6116 -45.6070 -45.5661 -45.5535 -45.5417 -45.5286
   -45.5163 -45.5031 -45.4858 -45.4850 -45.4656 -45.4619 -45.4474 -45.3892
   -25.3235 -20.2021 -19.8740 -19.4557 -19.4320 -18.9998 -18.9611 -18.8270
   -18.6652 -18.6370 -18.5660 -18.5413 -18.4957 -18.4024 -18.3594 -18.1441
   -17.9787 -17.5819 -17.5353 -17.4433  -9.8884  -9.4993  -9.3486  -8.7156
    -8.5607  -8.4829  -8.1805  -8.1745  -8.1111  -7.9844  -7.9683  -7.4812
    -7.3621  -7.2271  -7.2076  -7.0790  -6.7294  -6.7119  -6.6578  -6.6228
    -6.4448  -6.1879  -6.1358  -6.0434  -6.0246  -5.8638  -5.8186  -5.6586
    -5.6154  -5.5273  -5.5072  -5.3770  -5.3121  -5.2606  -5.0068  -4.8887
    -4.8682  -4.8063  -4.7105  -4.6286  -4.6056  -4.5078  -4.3601  -4.3124
    -4.2799  -4.2751  -4.1776  -4.0530  -4.0175  -3.9659  -3.9433  -3.8511
    -3.6831  -3.5982  -3.5378  -3.4543  -3.3611  -3.3395  -3.2314  -3.2197
    -3.1870  -3.1148  -2.9632  -2.8044  -2.4972  -2.3458  -2.0922  -2.0865
    -2.0120  -1.9171  -1.7407  -1.6986  -1.5845  -1.4933  -1.4399  -1.3292
    -1.3267  -1.2750  -1.1348  -0.9062  -0.6973  -0.6411  -0.6125   0.0809
     0.7522   1.3079   1.3702   2.0190   2.0761   2.0862   2.2510   2.2880
     2.3606   2.4126   2.5155   2.5760   2.6863   2.8602   3.0892   3.1227
     3.5378   3.8694   4.1645   4.3689   4.9422   5.3887   5.9465   6.3749
     6.8075   7.0316   7.0952   7.1299   7.4519   7.4598   7.5617   7.6417
     7.7427   7.8719   7.9320   8.0444   8.0871   8.2372   8.3188   8.5666
     8.7370   8.7524   8.9007   9.0545   9.2846   9.2872   9.4246   9.5100
     9.6393   9.7603   9.8414   9.9323  10.0251  10.0988  10.1449  10.1791
    10.4288  10.5010  10.5228  10.7786  10.7884  10.8511  10.8953  11.1268
    11.1976  11.3052  11.3278  11.4725  11.5530  11.5960  11.6653  11.7100
    11.7551  11.7996  11.8703  11.9482  11.9810  12.0349  12.1840  12.3200
    12.3348  12.4815  12.4974  12.5160  12.6927  12.7120  12.7601  12.8873
    12.9185  12.9451  12.9964  13.1603  13.1979  13.3691  13.3940  13.5312
    13.5526  13.5973  13.6120  13.6523  13.7461  13.8938  14.0128  14.1016
    14.2197  14.2281  14.3345  14.3486  14.4456  14.4542  14.5792  14.7240
    14.7335  14.8847  14.9069  14.9651  15.1250  15.1481  15.1889  15.2665
    15.3410  15.3581  15.5589  15.5944  15.7302  15.8365  15.8629  16.0565
    16.2517  16.3942  16.4295  16.5371  16.5724  16.6576  16.6827  16.7755
    16.8792  17.0543  17.1799  17.2094  17.2659  17.3859  17.4909  17.5498
    17.6618  17.7688  17.8756  18.0344  18.0957  18.1969  18.2323  18.3114
    18.3735  18.3934  18.5139  18.6931  18.7448  18.8382  18.9144  18.9769
    19.1184  19.1606  19.2050  19.2571  19.4397  19.4595  19.5014  19.5809
    19.6208  19.7517  19.7582  19.8013  19.9355  20.0171  20.0745  20.1136
    20.1382  20.1980  20.3094  20.4115  20.4712  20.5384  20.5665  20.6337
    20.7818  20.9639  21.0087  21.0119  21.0712  21.1238  21.1707  21.2331
    21.3560  21.4152  21.4678  21.5143  21.5303  21.5922  21.6371  21.7410
    21.7606  21.8762  21.9440  22.0928  22.1516  22.2056  22.2669

[...]

          k =-0.5000 0.0000 0.0000 ( 27158 PWs)   bands (ev):

[...]

 ------ SPIN DOWN ----------

[...]

          k = 0.2500-0.4682 0.0000 ( 27150 PWs)   bands (ev):

[...]

          k =-0.2500 0.2341 0.0000 ( 27132 PWs)   bands (ev):

   -71.2376 -71.0957 -71.0928 -71.0892 -71.0821 -71.0785 -71.0245 -70.9937
   -42.7529 -42.7275 -42.7196 -42.6508 -42.6037 -42.5939 -42.5486 -42.5143
   -42.4864 -42.4800 -42.4789 -42.4626 -42.4348 -42.4202 -42.3985 -42.3852
   -42.3840 -42.3745 -42.3694 -42.3518 -42.3290 -42.3231 -42.2573 -42.2368
   -25.8027 -20.3750 -20.0662 -19.7631 -19.7129 -19.5257 -19.4342 -19.3976
   -19.3761 -19.1897 -19.1394 -19.1195 -19.0411 -18.9740 -18.8671 -18.8371
   -18.7659 -18.7174 -18.6736 -18.1207 -10.0756  -8.3536  -7.6693  -7.5758
    -7.4609  -7.1667  -6.9902  -6.8610  -6.6175  -6.4853  -6.3950  -6.2032
    -6.1549  -5.9791  -5.9357  -5.8875  -5.8414  -5.7806  -5.6662  -5.6107
    -5.3289  -5.2807  -5.1929  -5.1344  -4.9808  -4.9115  -4.8761  -4.8247
    -4.6809  -4.5836  -4.5413  -4.5266  -4.4809  -4.4423  -4.3570  -4.2969
    -4.2138  -4.1864  -4.0998  -4.0628  -3.8715  -3.7810  -3.7152  -3.5934
    -3.5356  -3.4504  -3.3777  -3.3520  -3.3109  -3.2584  -3.2227  -3.1710
    -3.1092  -3.0605  -2.9639  -2.8950  -2.7696  -2.7289  -2.6063   2.6682
     3.0534   3.4055   3.5900   3.6222   3.6589   3.6874   3.7504   3.8209
     3.8259   3.8492   3.8741   3.8877   3.9756   4.0095   4.0784   4.1282
     4.1424   4.2141   4.2416   4.3046   4.3642   4.4087   4.4645   4.4951
     4.5127   4.5786   4.6461   4.6803   4.7052   4.7308   4.7975   4.8232
     4.8427   4.9273   4.9512   4.9734   4.9995   5.0676   5.1578   5.2150
     5.2461   5.2987   5.3993   5.4641   5.4878   5.5624   5.7254   6.1267
     6.2305   6.3794   6.5041   6.5859   6.8344   6.9663   7.1576   7.4107
     7.6195   7.7713   7.9479   8.1540   8.2095   8.3140   8.4387   8.6312
     8.7019   8.9639   9.0729   9.2423   9.3392   9.5216   9.5436   9.6826
     9.8319   9.8973  10.0073  10.0298  10.1460  10.2633  10.4093  10.4707
    10.5714  10.6402  10.7658  10.8617  11.0070  11.1006  11.2286  11.3267
    11.3759  11.4778  11.5789  11.7350  11.8011  11.9213  12.0052  12.0403
    12.1098  12.2142  12.2677  12.3440  12.4129  12.5230  12.6181  12.7001
    12.7621  12.8238  12.9744  13.0122  13.1655  13.2360  13.2800  13.3498
    13.4023  13.4615  13.5106  13.6568  13.7210  13.8619  13.9022  13.9516
    14.0483  14.0966  14.2026  14.2812  14.3572  14.3815  14.4778  14.5966
    14.6226  14.8174  14.8987  14.9202  15.0148  15.0605  15.1158  15.1651
    15.2737  15.3344  15.4182  15.5398  15.6499  15.7044  15.7723  15.8228
    15.8509  15.9296  16.0104  16.1050  16.1263  16.2461  16.2779  16.3682
    16.4092  16.4809  16.5531  16.6341  16.6827  16.7453  16.8938  16.9460
    17.0094  17.1003  17.2052  17.2209  17.2820  17.3409  17.4268  17.4625
    17.4964  17.5466  17.6259  17.7361  17.8078  17.8648  17.9546  18.0247
    18.0794  18.1370  18.1868  18.2861  18.3796  18.4411  18.4693  18.5522
    18.6074  18.7242  18.7936  18.8776  18.9272  19.0028  19.0377  19.0882
    19.1448  19.2529  19.3455  19.3992  19.4649  19.5153  19.5590  19.6659
    19.7542  19.8325  19.8840  19.9163  20.0777  20.2098  20.2420  20.3066
    20.3733  20.3833  20.4945  20.5969  20.6794  20.8215  20.8901  20.9188
    21.0152  21.1056  21.2351  21.2478  21.3374  21.4182  21.4453  21.4800
    21.6328  21.6976  21.7598  21.8794  21.9287  21.9869  22.0208

     the spin up/dw Fermi energies are    -1.5325   -1.7041 ev

!    total energy              =   -2055.84114507 Ry
     Harris-Foulkes estimate   =   -2055.84114542 Ry
     estimated scf accuracy    <       0.00000054 Ry

     The total energy is the sum of the following terms:

     one-electron contribution =  -23876.41416920 Ry
     hartree contribution      =   11967.95804037 Ry
     xc contribution           =    -330.58403933 Ry
     ewald contribution        =   10180.59311788 Ry
     Hubbard energy            =       2.60611805 Ry
     smearing contrib. (-TS)   =      -0.00021284 Ry

     total magnetization       =    15.00 Bohr mag/cell
     absolute magnetization    =    32.89 Bohr mag/cell

     convergence has been achieved in  56 iterations

     Forces acting on atoms (Ry/au):

     negative rho (up, down):  0.557E-02 0.161E-02
     atom    1 type  1   force =    -0.00251662   -0.01029988    0.00062797
     atom    2 type  1   force =    -0.00005606    0.00374023    0.00059946
     atom    3 type  2   force =     0.01605235    0.00260861    0.00044027
     atom    4 type  2   force =     0.00325861    0.00503361   -0.00019733
     atom    5 type  1   force =     0.00112708    0.00648917   -0.00001870
     atom    6 type  1   force =     0.00006358   -0.00498087    0.00001225
     atom    7 type  1   force =     0.00002079   -0.00334260   -0.00028793
     atom    8 type  1   force =    -0.00074238    0.00072087   -0.00025848
     atom    9 type  2   force =    -0.00085391    0.00140050   -0.00062273
     atom   10 type  2   force =     0.00007563   -0.00309471   -0.00044775
     atom   11 type  1   force =    -0.02243013   -0.02733785   -0.00044020
     atom   12 type  1   force =    -0.01987716    0.03287868    0.00010800
     atom   13 type  1   force =    -0.00054941   -0.00103985   -0.00018028
     atom   14 type  1   force =    -0.00313625   -0.01059853    0.00058266
     atom   15 type  1   force =    -0.00000877    0.00396921    0.00030980
     atom   16 type  2   force =    -0.01640506    0.00282662    0.00040623
     atom   17 type  2   force =     0.00338427    0.00493004   -0.00003506
     atom   18 type  1   force =     0.00093480    0.00643562   -0.00002654
     atom   19 type  1   force =    -0.00013708   -0.00501882    0.00001473
     atom   20 type  1   force =    -0.00014420   -0.00495373    0.00013893
     atom   21 type  1   force =    -0.00127166    0.00066536   -0.00000507
     atom   22 type  2   force =     0.00183048    0.00100234    0.00085889
     atom   23 type  2   force =    -0.00013334   -0.00335957   -0.00080272
     atom   24 type  1   force =     0.02211486   -0.02713458   -0.00017499
     atom   25 type  1   force =     0.02014768    0.03274427    0.00038347
     atom   26 type  1   force =     0.00008729   -0.00591608   -0.00020406
     atom   27 type  3   force =     0.00003572   -0.00027793    0.00046807
     atom   28 type  3   force =     0.00003634   -0.00008972    0.00037009
     atom   29 type  3   force =    -0.00053500    0.00013237   -0.00040250
     atom   30 type  3   force =    -0.00041844    0.00015089   -0.00036647
     atom   31 type  1   force =     0.00001623    0.00053164   -0.00081505
     atom   32 type  1   force =     0.00005567    0.00049229    0.00000830
     atom   33 type  3   force =    -0.00002591    0.00069242   -0.00004324

     Total force =     0.002664     Total SCF correction =     0.001817
     SCF correction compared to forces is large: reduce conv_thr to get better values

     BFGS Geometry Optimization

     bfgs converged in   1 scf cycles and   0 bfgs steps
     (criteria: energy < 0.10E-03, force < 0.10E-02)

     End of BFGS Geometry Optimization

     Final energy   =   -2055.8411450696 Ry
Begin final coordinates

ATOMIC_POSITIONS (crystal)
O0       0.000000000   0.000000000   0.373020000    0   0   1
O0       0.000000000   0.500000000   0.394370000    0   0   1
Cr1      0.250000000   0.500000000   0.447260000    0   0   1
Cr1      0.000000000   0.000000000   0.448780000    0   0   1
O0       0.250000000   0.800000000   0.447750000    0   0   1
O0       0.250000000   0.200000000   0.447770000    0   0   1
O0       0.000000000   0.500000000   0.496920000    0   0   1
O0       0.000000000   0.000000000   0.525440000    0   0   1
Cr1      0.250000000   0.000000000   0.577030000    0   0   1
Cr1      0.000000000   0.500000000   0.568190000    0   0   1
O0       0.250000000   0.700000000   0.577610000    0   0   1
O0       0.250000000   0.300000000   0.578570000    0   0   1
O0       0.000000000   0.000000000   0.626020000    0   0   1
O0       0.500000000   0.000000000   0.372710000    0   0   1
O0       0.500000000   0.500000000   0.394500000    0   0   1
Cr1      0.750000000   0.500000000   0.447260000    0   0   1
Cr1      0.500000000   0.000000000   0.448450000    0   0   1
O0       0.750000000   0.800000000   0.447770000    0   0   1
O0       0.750000000   0.200000000   0.447770000    0   0   1
O0       0.500000000   0.500000000   0.499200000    0   0   1
O0       0.500000000   0.000000000   0.525310000    0   0   1
Cr1      0.750000000   0.000000000   0.576880000    0   0   1
Cr1      0.500000000   0.500000000   0.576530000    0   0   1
O0       0.750000000   0.700000000   0.577530000    0   0   1
O0       0.750000000   0.300000000   0.578500000    0   0   1
O0       0.500000000   0.000000000   0.625660000    0   0   1
H2      -0.000830000   0.637230000   0.375110000
H2       0.499240000   0.637560000   0.375360000
H2       0.159990000   0.025780000   0.360940000
H2       0.659870000   0.026130000   0.360650000
O0       0.499860000   0.551760000   0.656300000    0   1   1
O0       0.500220000   0.366160000   0.685150000    0   1   1
H2       0.499890000   0.424260000   0.720440000    0   1   1
End final coordinates

     General routines

     Parallel routines
     Hubbard U routines

   This run was terminated on:   9:13: 9  14Aug2014

   JOB DONE.
mv: inter-device move failed: `/scratch/1087941.gilgamesh.cheme.cmu.edu/pwscf.save' to `./pwscf.save'; unable to remove target: Is a directory