     Program PWSCF v.5.0.2 (svn rev. 9656) starts on  8Feb2014 at 16:53:25

     Current dimensions of program PWSCF are:
     Max number of different atomic species (ntypx) = 10
     Max number of k-points (npk) =  40000
     Max angular momentum in pseudopotentials (lmaxx) =  3
     Reading input from MoO2-2-pert.in
Warning: card &IONS ignored
Warning: card / ignored
Warning: card &CELL ignored
Warning: card / ignored

     Subspace diagonalization in iterative solution of the eigenvalue problem:
     a serial algorithm will be used

     bravais-lattice index     =            0
     lattice parameter (alat)  =      18.7083  a.u.
     unit-cell volume          =    3611.2673 (a.u.)^3
     number of atoms/cell      =           48
     number of atomic types    =            3
     number of electrons       =       416.00
     number of Kohn-Sham states=          624
     kinetic-energy cutoff     =      40.0000  Ry
     charge density cutoff     =     500.0000  Ry
     convergence threshold     =      1.0E-06
     mixing beta               =       0.7000
     number of iterations used =            8  plain     mixing
     Exchange-correlation      = SLA  PW   PBE  PBE ( 1 4 3 4 0)
     EXX-fraction              =        0.00

     celldm(1)=  18.708289  celldm(2)=   0.000000  celldm(3)=   0.000000
     celldm(4)=   0.000000  celldm(5)=   0.000000  celldm(6)=   0.000000

     crystal axes: (cart. coord. in units of alat)
               a(1) = (   1.000000   0.000000   0.000000 )
               a(2) = (   0.000000   1.000000   0.000000 )
               a(3) = (   0.000000   0.000000   0.551515 )

     reciprocal axes: (cart. coord. in units 2 pi/alat)
               b(1) = (  1.000000  0.000000  0.000000 )
               b(2) = (  0.000000  1.000000  0.000000 )
               b(3) = (  0.000000  0.000000  1.813187 )

     PseudoPot. # 1 for Mo read from file:
     /home/camp/zhonxu/pseudo/mo_pbe_v1.uspp.F.UPF
     MD5 check sum: 30c4dcd161f5d35cd49bb5239c51a633
     Pseudo is Ultrasoft + core correction, Zval = 14.0
     Generated by new atomic code, or converted to UPF format
     Using radial grid of  889 points,  6 beta functions with:
                l(1) =   0
                l(2) =   0
                l(3) =   1
                l(4) =   1
                l(5) =   2
                l(6) =   2
     Q(r) pseudized with  6 coefficients,  rinner =    1.000   1.000   1.000
                                                       1.000   1.000

     PseudoPot. # 2 for O  read from file:
     /home/camp/zhonxu/pseudo/o_pbe_v1.01.uspp.F.UPF
     MD5 check sum: 2bcb18d16ea4b960afae9ec6d52f22d2
     Pseudo is Ultrasoft + core correction, Zval =  6.0
     Generated by new atomic code, or converted to UPF format
     Using radial grid of  737 points,  5 beta functions with:
                l(1) =   0
                l(2) =   0
                l(3) =   1
                l(4) =   1
                l(5) =   2
     Q(r) pseudized with  8 coefficients,  rinner =    0.900   0.900   0.900
                                                       0.900   0.900

     PseudoPot. # 3 for O  read from file:
     /home/camp/zhonxu/pseudo/o_pbe_v1.01.uspp.F.UPF
     MD5 check sum: 2bcb18d16ea4b960afae9ec6d52f22d2
     Pseudo is Ultrasoft + core correction, Zval =  6.0
     Generated by new atomic code, or converted to UPF format
     Using radial grid of  737 points,  5 beta functions with:
                l(1) =   0
                l(2) =   0
                l(3) =   1
                l(4) =   1
                l(5) =   2
     Q(r) pseudized with  8 coefficients,  rinner =    0.900   0.900   0.900
                                                       0.900   0.900

     atomic species   valence    mass     pseudopotential
        Mo0           14.00    95.94000     Mo( 1.00)
        O1             6.00    15.99940     O ( 1.00)
        O2             6.00    15.99940     O ( 1.00)

     Starting magnetic structure
     atomic species   magnetization
        Mo0          0.000
        O1           0.000
        O2           0.000

     Simplified LDA+U calculation (l_max = 2) with parameters (eV):
     atomic species    L          U    alpha       J0     beta
        Mo0            2     0.0000   0.0000   0.0000   0.0000
        O1             1     0.0000   0.0000   0.0000   0.0000
        O2             1     0.0000   0.0000   0.0000   0.0000

      4 Sym. Ops. (no inversion) found

   Cartesian axes

     site n.     atom                  positions (alat units)
         1           Mo0 tau(   1) = (  -0.1400000  -0.1400000   0.0000000  )
         2           Mo0 tau(   2) = (   0.1100000   0.1100000   0.1378788  )
         3           Mo0 tau(   3) = (  -0.1400000  -0.1400000   0.2757576  )
         4           Mo0 tau(   4) = (   0.1100000   0.1100000   0.4136364  )
         5           Mo0 tau(   5) = (  -0.1400000   0.3600000   0.0000000  )
         6           Mo0 tau(   6) = (   0.1100000   0.6100000   0.1378788  )
         7           Mo0 tau(   7) = (  -0.1400000   0.3600000   0.2757576  )
         8           Mo0 tau(   8) = (   0.1100000   0.6100000   0.4136364  )
         9           Mo0 tau(   9) = (   0.3600000  -0.1400000   0.0000000  )
        10           Mo0 tau(  10) = (   0.6100000   0.1100000   0.1378788  )
        11           Mo0 tau(  11) = (   0.3600000  -0.1400000   0.2757576  )
        12           Mo0 tau(  12) = (   0.6100000   0.1100000   0.4136364  )
        13           Mo0 tau(  13) = (   0.3600000   0.3600000   0.0000000  )
        14           Mo0 tau(  14) = (   0.6100000   0.6100000   0.1378788  )
        15           Mo0 tau(  15) = (   0.3600000   0.3600000   0.2757576  )
        16           Mo0 tau(  16) = (   0.6100000   0.6100000   0.4136364  )
        17           O1  tau(  17) = (   0.0000000   0.0000000   0.0000000  )
        18           O2  tau(  18) = (  -0.2800000  -0.2800000   0.0000000  )
        19           O2  tau(  19) = (   0.2500000  -0.0300000   0.1378788  )
        20           O2  tau(  20) = (  -0.0300000   0.2500000   0.1378788  )
        21           O2  tau(  21) = (   0.0000000   0.0000000   0.2757576  )
        22           O2  tau(  22) = (  -0.2800000  -0.2800000   0.2757576  )
        23           O2  tau(  23) = (   0.2500000  -0.0300000   0.4136364  )
        24           O2  tau(  24) = (  -0.0300000   0.2500000   0.4136364  )
        25           O2  tau(  25) = (   0.0000000   0.5000000   0.0000000  )
        26           O2  tau(  26) = (  -0.2800000   0.2200000   0.0000000  )
        27           O2  tau(  27) = (   0.2500000   0.4700000   0.1378788  )
        28           O2  tau(  28) = (  -0.0300000   0.7500000   0.1378788  )
        29           O2  tau(  29) = (   0.0000000   0.5000000   0.2757576  )
        30           O2  tau(  30) = (  -0.2800000   0.2200000   0.2757576  )
        31           O2  tau(  31) = (   0.2500000   0.4700000   0.4136364  )
        32           O2  tau(  32) = (  -0.0300000   0.7500000   0.4136364  )
        33           O2  tau(  33) = (   0.5000000   0.0000000   0.0000000  )
        34           O2  tau(  34) = (   0.2200000  -0.2800000   0.0000000  )
        35           O2  tau(  35) = (   0.7500000  -0.0300000   0.1378788  )
        36           O2  tau(  36) = (   0.4700000   0.2500000   0.1378788  )
        37           O2  tau(  37) = (   0.5000000   0.0000000   0.2757576  )
        38           O2  tau(  38) = (   0.2200000  -0.2800000   0.2757576  )
        39           O2  tau(  39) = (   0.7500000  -0.0300000   0.4136364  )
        40           O2  tau(  40) = (   0.4700000   0.2500000   0.4136364  )
        41           O2  tau(  41) = (   0.5000000   0.5000000   0.0000000  )
        42           O2  tau(  42) = (   0.2200000   0.2200000   0.0000000  )
        43           O2  tau(  43) = (   0.7500000   0.4700000   0.1378788  )
        44           O2  tau(  44) = (   0.4700000   0.7500000   0.1378788  )
        45           O2  tau(  45) = (   0.5000000   0.5000000   0.2757576  )
        46           O2  tau(  46) = (   0.2200000   0.2200000   0.2757576  )
        47           O2  tau(  47) = (   0.7500000   0.4700000   0.4136364  )
        48           O2  tau(  48) = (   0.4700000   0.7500000   0.4136364  )

     number of k points=    42  Methfessel-Paxton smearing, width (Ry)=  0.0100
                       cart. coord. in units 2pi/alat
        k(    1) = (   0.0000000   0.0000000   0.0000000), wk =   0.0156250
        k(    2) = (   0.0000000   0.0000000   0.4532967), wk =   0.0312500
        k(    3) = (   0.0000000   0.0000000  -0.9065934), wk =   0.0156250
        k(    4) = (   0.0000000   0.2500000   0.0000000), wk =   0.0625000
        k(    5) = (   0.0000000   0.2500000   0.4532967), wk =   0.1250000
        k(    6) = (   0.0000000   0.2500000  -0.9065934), wk =   0.0625000
        k(    7) = (   0.0000000  -0.5000000   0.0000000), wk =   0.0312500
        k(    8) = (   0.0000000  -0.5000000   0.4532967), wk =   0.0625000
        k(    9) = (   0.0000000  -0.5000000  -0.9065934), wk =   0.0312500
        k(   10) = (   0.2500000   0.2500000   0.0000000), wk =   0.0312500
        k(   11) = (   0.2500000   0.2500000   0.4532967), wk =   0.0625000
        k(   12) = (   0.2500000   0.2500000  -0.9065934), wk =   0.0312500
        k(   13) = (   0.2500000  -0.5000000   0.0000000), wk =   0.0625000
        k(   14) = (   0.2500000  -0.5000000   0.4532967), wk =   0.1250000
        k(   15) = (   0.2500000  -0.5000000  -0.9065934), wk =   0.0625000
        k(   16) = (  -0.5000000  -0.5000000   0.0000000), wk =   0.0156250
        k(   17) = (  -0.5000000  -0.5000000   0.4532967), wk =   0.0312500
        k(   18) = (  -0.5000000  -0.5000000  -0.9065934), wk =   0.0156250
        k(   19) = (   0.2500000  -0.2500000   0.0000000), wk =   0.0312500
        k(   20) = (   0.2500000  -0.2500000   0.4532967), wk =   0.0625000
        k(   21) = (   0.2500000  -0.2500000  -0.9065934), wk =   0.0312500
        k(   22) = (   0.0000000   0.0000000   0.0000000), wk =   0.0156250
        k(   23) = (   0.0000000   0.0000000   0.4532967), wk =   0.0312500
        k(   24) = (   0.0000000   0.0000000  -0.9065934), wk =   0.0156250
        k(   25) = (   0.0000000   0.2500000   0.0000000), wk =   0.0625000
        k(   26) = (   0.0000000   0.2500000   0.4532967), wk =   0.1250000
        k(   27) = (   0.0000000   0.2500000  -0.9065934), wk =   0.0625000
        k(   28) = (   0.0000000  -0.5000000   0.0000000), wk =   0.0312500
        k(   29) = (   0.0000000  -0.5000000   0.4532967), wk =   0.0625000
        k(   30) = (   0.0000000  -0.5000000  -0.9065934), wk =   0.0312500
        k(   31) = (   0.2500000   0.2500000   0.0000000), wk =   0.0312500
        k(   32) = (   0.2500000   0.2500000   0.4532967), wk =   0.0625000
        k(   33) = (   0.2500000   0.2500000  -0.9065934), wk =   0.0312500
        k(   34) = (   0.2500000  -0.5000000   0.0000000), wk =   0.0625000
        k(   35) = (   0.2500000  -0.5000000   0.4532967), wk =   0.1250000
        k(   36) = (   0.2500000  -0.5000000  -0.9065934), wk =   0.0625000
[...]
atomic mag. moment =     0.000000
atom   42   Tr[ns(na)] (up, down, total) =   2.70514  2.70514  5.41029
   spin  1
    eigenvalues:
  0.900  0.902  0.903
    eigenvectors:
  0.000  0.000  1.000
  0.500  0.500  0.000
  0.500  0.500  0.000
    occupations:
  0.903 -0.000 -0.000
 -0.000  0.901  0.001
 -0.000  0.001  0.901
   spin  2
    eigenvalues:
  0.900  0.902  0.903
    eigenvectors:
  0.000  0.000  1.000
  0.500  0.500  0.000
  0.500  0.500  0.000
    occupations:
  0.903 -0.000 -0.000
 -0.000  0.901  0.001
 -0.000  0.001  0.901
atomic mag. moment =     0.000000
atom   43   Tr[ns(na)] (up, down, total) =   2.70508  2.70508  5.41016
   spin  1
    eigenvalues:
  0.900  0.902  0.903
    eigenvectors:
  0.000  0.000  1.000
  0.500  0.500  0.000
  0.500  0.500  0.000
    occupations:
  0.903  0.000 -0.000
  0.000  0.901 -0.001
 -0.000 -0.001  0.901
   spin  2
    eigenvalues:
  0.900  0.902  0.903
    eigenvectors:
  0.000  0.000  1.000
  0.500  0.500  0.000
  0.500  0.500  0.000
    occupations:
  0.903  0.000 -0.000
  0.000  0.901 -0.001
 -0.000 -0.001  0.901
atomic mag. moment =    -0.000000
atom   44   Tr[ns(na)] (up, down, total) =   2.70508  2.70508  5.41016
   spin  1
    eigenvalues:
  0.900  0.902  0.903
    eigenvectors:
  0.000  0.000  1.000
  0.500  0.500  0.000
  0.500  0.500  0.000
    occupations:
  0.903 -0.000  0.000
 -0.000  0.901 -0.001
  0.000 -0.001  0.901
   spin  2
    eigenvalues:
  0.900  0.902  0.903
    eigenvectors:
  0.000  0.000  1.000
  0.500  0.500  0.000
  0.500  0.500  0.000
    occupations:
  0.903 -0.000  0.000
 -0.000  0.901 -0.001
  0.000 -0.001  0.901
atomic mag. moment =    -0.000000
atom   45   Tr[ns(na)] (up, down, total) =   2.70507  2.70507  5.41015
   spin  1
    eigenvalues:
  0.900  0.902  0.903
    eigenvectors:
  0.000  0.000  1.000
  0.500  0.500  0.000
  0.500  0.500  0.000
    occupations:
  0.903 -0.000 -0.000
 -0.000  0.901  0.001
 -0.000  0.001  0.901
   spin  2
    eigenvalues:
  0.900  0.902  0.903
    eigenvectors:
  0.000  0.000  1.000
  0.500  0.500  0.000
  0.500  0.500  0.000
    occupations:
  0.903 -0.000 -0.000
 -0.000  0.901  0.001
 -0.000  0.001  0.901
atomic mag. moment =     0.000000
atom   46   Tr[ns(na)] (up, down, total) =   2.70517  2.70517  5.41034
   spin  1
    eigenvalues:
  0.900  0.902  0.903
    eigenvectors:
  0.000  0.000  1.000
  0.500  0.500  0.000
  0.500  0.500  0.000
    occupations:
  0.903 -0.000 -0.000
 -0.000  0.901  0.001
 -0.000  0.001  0.901
   spin  2
    eigenvalues:
  0.900  0.902  0.903
    eigenvectors:
  0.000  0.000  1.000
  0.500  0.500  0.000
  0.500  0.500  0.000
    occupations:
  0.903 -0.000 -0.000
 -0.000  0.901  0.001
 -0.000  0.001  0.901
atomic mag. moment =     0.000000
atom   47   Tr[ns(na)] (up, down, total) =   2.70508  2.70508  5.41016
   spin  1
    eigenvalues:
  0.900  0.902  0.903
    eigenvectors:
  0.000  0.000  1.000
  0.500  0.500  0.000
  0.500  0.500  0.000
    occupations:
  0.903 -0.000  0.000
 -0.000  0.901 -0.001
  0.000 -0.001  0.901
   spin  2
    eigenvalues:
  0.900  0.902  0.903
    eigenvectors:
  0.000  0.000  1.000
  0.500  0.500  0.000
  0.500  0.500  0.000
    occupations:
  0.903 -0.000  0.000
 -0.000  0.901 -0.001
  0.000 -0.001  0.901
atomic mag. moment =    -0.000000
atom   48   Tr[ns(na)] (up, down, total) =   2.70508  2.70508  5.41016
   spin  1
    eigenvalues:
  0.900  0.902  0.903
    eigenvectors:
  0.000  0.000  1.000
  0.500  0.500  0.000
  0.500  0.500  0.000
    occupations:
  0.903  0.000 -0.000
  0.000  0.901 -0.001
 -0.000 -0.001  0.901
   spin  2
    eigenvalues:
  0.900  0.902  0.903
    eigenvectors:
  0.000  0.000  1.000
  0.500  0.500  0.000
  0.500  0.500  0.000
    occupations:
  0.903  0.000 -0.000
  0.000  0.901 -0.001
 -0.000 -0.001  0.901
atomic mag. moment =    -0.000000
N of occupied +U levels = 266.2319728
 --- exit write_ns ---

 ------ SPIN UP ------------

          k = 0.0000 0.0000 0.0000 ( 15465 PWs)   bands (ev):

   -49.3515 -49.3467 -49.3467 -49.3466 -49.3466 -49.3465 -49.3465 -49.3418
   -49.2299 -49.2299 -49.2299 -49.2298 -49.2297 -49.2297 -49.2297 -49.2297
   -23.9096 -23.9096 -23.9096 -23.9095 -23.9035 -23.9034 -23.9032 -23.9031
   -23.6556 -23.6555 -23.6486 -23.6485 -23.6226 -23.6225 -23.6224 -23.6224
   -23.5158 -23.5156 -23.5148 -23.5147 -23.5089 -23.5088 -23.5087 -23.5087
   -23.4260 -23.4260 -23.4259 -23.4259 -23.3971 -23.3970 -23.3923 -23.3922
   -23.2180 -23.2179 -23.2174 -23.2173 -23.2173 -23.2172 -23.2171 -23.2171
   -22.8794 -22.8672 -22.8672 -22.8671 -22.8671 -22.8670 -22.8670 -22.8549
    -7.2171  -6.7898  -6.7898  -6.4793  -6.4791  -6.4791  -6.4790  -6.4777
    -6.4705  -6.4705  -6.4705  -6.4705  -6.0617  -6.0617  -6.0401  -6.0400
    -6.0400  -6.0398  -6.0129  -6.0129  -5.8502  -5.8502  -5.7923  -5.7923
    -5.6617  -5.6617  -5.5865  -5.5865  -5.3048  -5.3048  -5.3048  -5.3048
     4.6088   4.7384   4.7384   4.9344   5.1163   5.1164   5.1164   5.1164
     5.3309   5.3309   5.3309   5.3309   5.4096   5.8097   5.8097   5.9031
     5.9031   5.9031   5.9032   5.9396   5.9396   6.1486   6.1487   6.5088
     6.5088   6.5624   6.5624   6.5625   6.5625   6.6960   6.6961   6.7673
     6.7673   6.8035   6.8036   7.0599   7.0599   7.0600   7.0600   7.0700
     7.0700   7.5905   7.5905   7.5905   7.5905   7.8217   7.8217   7.8319
     7.8319   7.8709   7.8709   8.0578   8.0578   8.0578   8.0579   8.0873
     8.0873   8.2259   8.2259   8.3348   8.3348   8.5072   8.5072   8.5072
     8.5072   8.7862   8.7862   8.7863   8.7863   8.9957   8.9957   9.0504
     9.0504   9.3968   9.3968   9.5247   9.5248   9.5248   9.5248   9.6340
     9.6340   9.6340   9.6340   9.6923   9.8644   9.8644   9.9907   9.9909
     9.9909   9.9910  10.0033  10.0033  10.0520  10.0520  10.3687  10.4194
    10.5452  10.5452  10.7452  10.7700  11.3721  11.3721  11.3721  11.3722
    11.7958  11.7958  11.7958  11.7958  12.4377  13.0146  13.0147  13.5145
    13.5146  13.5770  13.5771  13.6978  13.6979  13.7319  13.7319  13.8796
    13.8796  14.4158  14.4159  14.4160  14.4160  14.4353  14.4354  14.4354
    14.4354  14.5821  14.5821  14.5821  14.5822  14.8985  14.8986  15.8689
    15.8690  15.8690  15.8690  15.8804  16.0438  16.0441  16.0442  16.0925
    16.0926  16.4673  16.4673  16.4674  16.4674  16.8957  16.8957  16.8957
    16.8958  17.2707  17.2708  17.5056  17.5056  17.5519  17.5519  17.5655
    17.5656  17.6125  17.6125  17.6126  17.6126  17.9041  17.9042  17.9168
    17.9711  17.9711  18.2778  18.2779  19.9315  19.9316  19.9316  19.9316
    20.1905  20.6917  20.6917  20.6918  20.6919  21.7587  21.7587  22.1103
    22.1103  22.5533  22.5533  22.7219  22.7219  22.7219  22.7220  22.8057
    22.8057  23.2876  23.2876  23.3176  23.3176  23.9784  23.9784  23.9784
    23.9784  24.5958  24.5958  24.9240  24.9240  24.9240  24.9240  25.0173
    25.3168  25.3168  25.3168  25.3168  25.5603  25.5603  25.5603  25.5603
    25.6000  26.1225  26.1225  26.3723  26.3723  26.3830  26.3830  26.3965
    27.6377  27.6378  27.7737  27.7738  27.7738  27.7738  28.0310  28.0310
    28.0311  28.0311  28.2859  28.2860  28.5735  28.5736  28.6980  28.6980
    28.8997  29.0517  29.0517  29.0653  29.0653  29.0928  29.0928  29.0929
    29.0929  29.2025  29.2025  30.0244  30.0244  30.0245  30.0245  30.5557
    30.5557  30.5557  30.5557  31.5843  31.5843  31.7250  31.7250  31.7390
    31.7390  31.8700  31.8700  31.8700  31.8700  32.0338  32.3757  32.3757
    32.4237  32.4237  32.7582  32.7582  32.9184  32.9184  33.7443  33.7443
    33.7443  33.7443  33.9095  34.1437  34.1437  34.1502  34.1502  34.1502
    34.1503  34.1883  34.1884  34.1885  34.1885  34.6270  34.6270  34.6825
    34.9058  34.9058  34.9059  34.9059  35.1356  35.1356  35.2519  35.2520
    35.9101  35.9960  35.9960  35.9960  35.9961  36.1299  36.1299  36.1364
    36.1364  36.2691  36.2691  36.3686  36.3687  36.8777  36.8778  37.1103
    37.1103  37.2854  37.2854  37.2854  37.2854  37.2989  37.4704  37.4705
    37.4705  37.4705  38.0482  38.0482  38.2071  38.2071  38.2071  38.2072
    38.4473  38.5735  38.5735  38.5912  38.5912  38.5912  38.5912  39.3420
    39.3420  39.8795  39.8795  40.6472  40.6473  40.7090  40.7090  40.7090
    40.7090  40.8798  40.8798  41.0657  41.0657  41.0658  41.0658  41.2056
    41.2056  41.2056  41.2056  41.3128  41.8124  41.8124  41.8124  41.8125
    42.1309  42.1309  42.1397  42.4876  42.4876  42.6071  42.6071  42.6071
    42.6072  42.6740  42.6740  42.7404  42.7405  43.1077  43.1078  43.1287
[...]
    44.6095  44.6567  44.6567  44.6567  44.6567  44.9905  44.9905  45.0058
    45.0058  45.1685  45.1685  45.1685  45.1686  45.2599  45.2599  45.2599
    45.2600  45.3325  45.3325  45.5077  45.5077  45.5590  45.5590  45.7143
    45.7143  45.7597  45.7597  45.7619  45.7620  45.9485  45.9485  46.2438
    46.3774  46.3774  46.3774  46.3774  46.6277  46.6277  46.6959  46.6959
    46.7351  46.7351  46.7351  46.7352  46.8128  46.8128  46.8128  46.8128
    47.3977  47.3977  47.7443  47.7443  48.0492  48.0492  48.1473  48.1474
    48.4698  48.5442  48.5442  48.5442  48.5442  48.8548  48.8548  48.8548
    48.8548  48.9049  48.9049  48.9049  48.9049  49.0992  49.0992  49.3138
    49.3139  49.4165  49.4166  49.4166  49.4166  49.4521  49.4521  49.7081
    49.7081  49.7081  49.7082  49.9791  50.0189  50.1732  50.1732  50.3587
    50.3587  50.3587  50.3587  50.4430  50.6703  50.6703  50.6703  50.6703
    50.8661  50.8661  51.1700  51.1700  51.1701  51.1701  51.3405  51.3405
    51.3798  51.3798  51.6870  51.9756  51.9756  52.4320  52.4320  52.4320
    52.4320  52.6376  52.6376  52.6376  52.6376  52.7779  52.7782  52.8539

[...]

          k =-0.5000-0.5000 0.0000 ( 15388 PWs)   bands (ev):

[...]

 ------ SPIN DOWN ----------

[...]

          k =-0.5000-0.5000-0.9066 ( 15464 PWs)   bands (ev):

[...]

          k = 0.2500-0.2500-0.9066 ( 15408 PWs)   bands (ev):

   -49.2916 -49.2915 -49.2899 -49.2898 -49.2898 -49.2897 -49.2891 -49.2890
   -49.2881 -49.2880 -49.2874 -49.2873 -49.2873 -49.2873 -49.2857 -49.2856
   -23.5836 -23.5835 -23.5809 -23.5808 -23.5808 -23.5808 -23.5795 -23.5795
   -23.5795 -23.5795 -23.5782 -23.5782 -23.5765 -23.5764 -23.5764 -23.5762
   -23.4068 -23.4068 -23.4036 -23.4035 -23.4015 -23.4014 -23.4013 -23.4013
   -23.3977 -23.3976 -23.3948 -23.3947 -23.3947 -23.3947 -23.3947 -23.3947
   -23.3208 -23.3208 -23.3208 -23.3207 -23.3153 -23.3152 -23.3146 -23.3144
   -23.3144 -23.3143 -23.3139 -23.3138 -23.3099 -23.3099 -23.3086 -23.3086
    -6.5842  -6.5840  -6.4336  -6.4335  -6.4334  -6.4333  -6.3531  -6.3529
    -6.2716  -6.2715  -6.2424  -6.2423  -6.2422  -6.2421  -6.1230  -6.1229
    -5.8405  -5.8401  -5.8328  -5.8328  -5.8125  -5.8125  -5.8124  -5.8124
    -5.8054  -5.8054  -5.8051  -5.8051  -5.7970  -5.7966  -5.7892  -5.7892
     5.4449   5.4450   5.4671   5.4671   5.4672   5.4673   5.5344   5.5344
     5.5344   5.5344   5.5377   5.5377   5.6960   5.6962   5.7569   5.7571
     6.1451   6.1451   6.1551   6.1551   6.4379   6.4380   6.4380   6.4380
     6.5161   6.5162   6.5911   6.5912   6.6919   6.6919   6.7053   6.7053
     6.7054   6.7054   7.1556   7.1556   7.1556   7.1556   7.3362   7.3362
     7.3363   7.3363   7.3480   7.3480   7.4617   7.4617   7.5826   7.5826
     7.5826   7.5826   7.6977   7.6979   7.8345   7.8347   7.8485   7.8487
     8.3315   8.3315   8.3315   8.3315   8.4365   8.4366   8.4818   8.4818
     8.5489   8.5490   8.5970   8.5970   8.5970   8.5971   8.5994   8.5995
     8.7058   8.7058   8.8744   8.8744   8.8744   8.8744   9.1337   9.1337
     9.3269   9.3272   9.5557   9.5559   9.6389   9.6389   9.6390   9.6391
     9.8688   9.8689  10.1167  10.1169  10.1169  10.1170  10.3642  10.3643
    12.5142  12.5142  12.5276  12.5277  12.5277  12.5277  12.7032  12.7032
    12.7925  12.7925  12.7925  12.7926  12.7932  12.7932  12.8644  12.8645
    12.9283  12.9283  13.0342  13.0342  13.2298  13.2299  13.2299  13.2299
    13.5327  13.5328  13.5946  13.5947  13.7588  13.7589  13.8059  13.8059
    13.8059  13.8059  14.2522  14.2522  14.3278  14.3278  14.3278  14.3279
    14.5200  14.5201  14.8286  14.8286  14.8286  14.8287  15.2933  15.2933
    16.0382  16.0383  16.0383  16.0383  16.5920  16.5920  16.7032  16.7033
    16.7405  16.7406  16.7406  16.7406  17.3726  17.3726  17.4520  17.4520
    17.4972  17.4973  17.9922  17.9922  18.2194  18.2194  18.2195  18.2195
    18.5460  18.5461  19.1378  19.1378  19.1378  19.1379  19.6136  19.6137
    20.4030  20.4030  21.4508  21.4508  21.4509  21.4509  21.9737  21.9738
    22.6416  22.6417  22.7906  22.7906  22.7907  22.7908  23.7400  23.7401
    24.1161  24.1162  24.1589  24.1590  24.7076  24.7076  24.7797  24.7798
    24.7798  24.7798  25.1769  25.1769  25.1769  25.1769  25.7903  25.7904
    26.0499  26.0499  26.2759  26.2759  26.4833  26.4833  26.4833  26.4834
    27.1316  27.1316  27.2291  27.2291  27.3097  27.3097  27.3098  27.3098
    27.5030  27.5030  27.5031  27.5031  27.6945  27.6945  27.6946  27.6946
    27.8595  27.8596  27.8656  27.8656  27.9058  27.9058  28.3573  28.3573
    28.4265  28.4265  28.4265  28.4265  28.8431  28.8431  29.2883  29.2884
    29.6684  29.6684  30.0978  30.0978  30.0978  30.0978  30.1296  30.1296
    30.2467  30.2467  30.4217  30.4217  30.8247  30.8247  31.2939  31.2939
    31.2939  31.2940  31.5176  31.5177  31.5177  31.5177  32.4003  32.4003
    32.4003  32.4004  32.4276  32.4276  32.7185  32.7185  32.8273  32.8273
    33.4960  33.4961  33.8887  33.8887  34.0479  34.0479  34.0479  34.0480
    34.6874  34.6875  35.0296  35.0296  35.0296  35.0296  35.2191  35.2191
    35.2346  35.2346  35.2346  35.2346  35.4794  35.4795  35.4795  35.4795
    35.4838  35.4838  35.9588  35.9588  36.2092  36.2092  36.3124  36.3124
    36.5622  36.5622  36.5623  36.5623  36.8240  36.8241  36.8770  36.8771
    37.3335  37.3335  37.3963  37.3964  37.6834  37.6834  37.7389  37.7389
    37.7620  37.7620  37.7621  37.7621  37.9147  37.9147  37.9147  37.9148
    37.9967  37.9968  38.5124  38.5124  38.8016  38.8016  38.8017  38.8017
    38.9289  38.9289  39.3541  39.3541  39.3542  39.3542  39.8690  39.8690
    40.2277  40.2277  40.2897  40.2897  40.4462  40.4462  40.4462  40.4462
    40.7390  40.7390  41.4103  41.4103  41.4104  41.4104  41.5570  41.5570
    41.5590  41.5590  41.8645  41.8645  41.8645  41.8646  42.1763  42.1763
    42.2122  42.2122  42.2122  42.2122  42.2390  42.2390  42.3414  42.3414
[...]
    44.7878  44.7878  44.9711  44.9711  44.9711  44.9711  45.2831  45.2831
    45.6119  45.6119  45.6216  45.6216  45.6663  45.6663  45.8515  45.8516
    45.8516  45.8516  46.1625  46.1625  46.2700  46.2700  46.2700  46.2700
    46.4978  46.4978  46.7308  46.7309  46.7712  46.7712  46.8415  46.8415
    46.8415  46.8415  46.9009  46.9009  46.9115  46.9116  46.9116  46.9116
    47.0599  47.0599  47.3956  47.3956  47.4493  47.4493  47.4861  47.4861
    47.5627  47.5627  47.5628  47.5628  47.7201  47.7201  47.8546  47.8546
    47.8546  47.8547  48.0621  48.0621  48.0621  48.0621  48.1230  48.1230
    48.3237  48.3237  48.3238  48.3238  48.4793  48.4794  48.8755  48.8755
    48.9345  48.9345  48.9345  48.9345  49.4594  49.4595  49.7948  49.7948
    49.7948  49.7948  49.9266  49.9266  50.0031  50.0031  50.1203  50.1203
    50.1203  50.1203  50.4443  50.4443  50.5559  50.5560  50.5771  50.5771
    50.7638  50.7638  50.9150  50.9150  50.9150  50.9150  51.2852  51.2852
    51.4076  51.4076  51.4076  51.4076  51.7605  51.7605  51.8334  51.8334
    52.2037  52.2037  52.2037  52.2037  52.3711  52.3712  52.6441  52.6441

     the Fermi energy is    12.9471 ev

!    total energy              =   -3262.60218374 Ry
     Harris-Foulkes estimate   =   -3262.60218399 Ry
     estimated scf accuracy    <       0.00000028 Ry

     The total energy is the sum of the following terms:

     one-electron contribution =    -920.60023132 Ry
     hartree contribution      =     690.16835157 Ry
     xc contribution           =    -539.17450247 Ry
     ewald contribution        =   -2492.99511507 Ry
     Hubbard energy            =       0.00000000 Ry
     smearing contrib. (-TS)   =      -0.00068646 Ry

     total magnetization       =    -0.00 Bohr mag/cell
     absolute magnetization    =     0.00 Bohr mag/cell

     convergence has been achieved in  15 iterations

     Writing output data file pwscf.save

     General routines

     Parallel routines
     Hubbard U routines

   This run was terminated on:   0:11:11   9Feb2014

   JOB DONE.
Running PBS batch system epilogue script
Job id: 266903.audhumbla.fysik.dtu.dk
Username: zhonxu
Groupname: campgst
Jobname: linear-response/MoO2-2-scf
Sessionid: 7492
Queuename: verylong
Accounting:
This job has allocated the following 16 nodes:
c099 c099 c099 c099 c099 c099 c099 c099 c037 c037 c037 c037 c037 c037 c037 c037
Finished epilogue job 266903.audhumbla.fysik.dtu.dk for zhonxu