     Program PWSCF v.5.0.2 (svn rev. 9656) starts on  1Jun2014 at  0:12:21

     Current dimensions of program PWSCF are:
     Max number of different atomic species (ntypx) = 10
     Max number of k-points (npk) =  40000
     Max angular momentum in pseudopotentials (lmaxx) =  3
     Reading input from pwscf.in
Warning: card &CELL ignored
Warning: card / ignored

     Subspace diagonalization in iterative solution of the eigenvalue problem:
     a serial algorithm will be used

     bravais-lattice index     =            0
     lattice parameter (alat)  =      11.7541  a.u.
     unit-cell volume          =    7139.8207 (a.u.)^3
     number of atoms/cell      =           33
     number of atomic types    =            3
     number of electrons       =       245.00
     number of Kohn-Sham states=          367
     kinetic-energy cutoff     =      40.0000  Ry
     charge density cutoff     =     500.0000  Ry
     convergence threshold     =      1.0E-06
     mixing beta               =       0.7000
     number of iterations used =            8  plain     mixing
     Exchange-correlation      = SLA  PW   PBE  PBE ( 1 4 3 4 0)
     EXX-fraction              =        0.00
     nstep                     =           50

     celldm(1)=  11.754097  celldm(2)=   0.000000  celldm(3)=   0.000000
     celldm(4)=   0.000000  celldm(5)=   0.000000  celldm(6)=   0.000000

     crystal axes: (cart. coord. in units of alat)
               a(1) = (   1.000000   0.000000   0.000000 )
               a(2) = (   0.000000   1.034513   0.000000 )
               a(3) = (   0.000000   0.000000   4.249947 )

     reciprocal axes: (cart. coord. in units 2 pi/alat)
               b(1) = (  1.000000  0.000000  0.000000 )
               b(2) = (  0.000000  0.966638  0.000000 )
               b(3) = (  0.000000  0.000000  0.235297 )

     PseudoPot. # 1 for O  read from file:
     /home/camp/zhonxu/pseudo/o_pbe_v1.01.uspp.F.UPF
     MD5 check sum: 2bcb18d16ea4b960afae9ec6d52f22d2
     Pseudo is Ultrasoft + core correction, Zval =  6.0
     Generated by new atomic code, or converted to UPF format
     Using radial grid of  737 points,  5 beta functions with:
                l(1) =   0
                l(2) =   0
                l(3) =   1
                l(4) =   1
                l(5) =   2
     Q(r) pseudized with  8 coefficients,  rinner =    0.900   0.900   0.900
                                                       0.900   0.900

     PseudoPot. # 2 for Rh read from file:
     /home/camp/zhonxu/pseudo/rh_pbe_v1.uspp.F.UPF
     MD5 check sum: 37b626987ad0dd8ec6bf4cc9ef289918
     Pseudo is Ultrasoft + core correction, Zval = 15.0
     Generated by new atomic code, or converted to UPF format
     Using radial grid of  969 points,  7 beta functions with:
                l(1) =   0
                l(2) =   0
                l(3) =   1
                l(4) =   1
                l(5) =   2
                l(6) =   2
                l(7) =   2
     Q(r) pseudized with  6 coefficients,  rinner =    1.050   1.050   1.050
                                                       1.050   1.050

     PseudoPot. # 3 for H  read from file:
     /home/camp/zhonxu/pseudo/h_pbe_v1.uspp.F.UPF
     MD5 check sum: 3408e3ff4ec8b0a4e358431e7e038a48
     Pseudo is Ultrasoft, Zval =  1.0
     Generated by new atomic code, or converted to UPF format
     Using radial grid of  615 points,  2 beta functions with:
                l(1) =   0
                l(2) =   0
     Q(r) pseudized with  8 coefficients,  rinner =    0.700

     atomic species   valence    mass     pseudopotential
        O0             6.00    15.99940     O ( 1.00)
        Rh1           15.00   102.90550     Rh( 1.00)
        H2             1.00     1.00794     H ( 1.00)

     Simplified LDA+U calculation (l_max = 2) with parameters (eV):
     atomic species    L          U    alpha       J0     beta
        Rh1            2     1.0000   0.0000   0.0000   0.0000

     No symmetry found

   Cartesian axes

     site n.     atom                  positions (alat units)
         1           O0  tau(   1) = (   0.0000000   0.0000000   1.6055876  )
         2           O0  tau(   2) = (   0.0000000   0.5172566   1.7058013  )
         3           Rh1 tau(   3) = (   0.2500000   0.5172566   1.9245886  )
         4           Rh1 tau(   4) = (   0.0000000   0.0000000   1.9225486  )
         5           O0  tau(   5) = (   0.2500000   0.8379556   1.9216561  )
         6           O0  tau(   6) = (   0.2500000   0.1965575   1.9210611  )
         7           O0  tau(   7) = (   0.0000000   0.5172566   2.1183012  )
         8           O0  tau(   8) = (   0.0000000   0.0000000   2.2433346  )
         9           Rh1 tau(   9) = (   0.2500000   0.0000000   2.4442296  )
        10           Rh1 tau(  10) = (   0.0000000   0.5172566   2.4248924  )
        11           O0  tau(  11) = (   0.2500000   0.7138141   2.4423597  )
        12           O0  tau(  12) = (   0.2500000   0.3206991   2.4526445  )
        13           O0  tau(  13) = (   0.0000000   0.0000000   2.6373472  )
        14           O0  tau(  14) = (   0.5000000   0.0000000   1.6058426  )
        15           O0  tau(  15) = (   0.5000000   0.5172566   1.7065663  )
        16           Rh1 tau(  16) = (   0.7500000   0.5172566   1.9245461  )
        17           Rh1 tau(  17) = (   0.5000000   0.0000000   1.9225486  )
        18           O0  tau(  18) = (   0.7500000   0.8379556   1.9215286  )
        19           O0  tau(  19) = (   0.7500000   0.1965575   1.9212311  )
        20           O0  tau(  20) = (   0.5000000   0.5172566   2.1254411  )
        21           O0  tau(  21) = (   0.5000000   0.0000000   2.2428246  )
        22           Rh1 tau(  22) = (   0.7500000   0.0000000   2.4442296  )
        23           Rh1 tau(  23) = (   0.5000000   0.5172566   2.4566820  )
        24           O0  tau(  24) = (   0.7500000   0.7138141   2.4423172  )
        25           O0  tau(  25) = (   0.7500000   0.3206991   2.4526445  )
        26           O0  tau(  26) = (   0.5000000   0.0000000   2.6350523  )
        27           H2  tau(  27) = (   0.0000500   0.6607849   1.6355072  )
        28           H2  tau(  28) = (   0.4999200   0.6608884   1.6361872  )
        29           H2  tau(  29) = (   0.1477700   0.0372011   1.5603681  )
        30           H2  tau(  30) = (   0.6484400   0.0346148   1.5604531  )
        31           O0  tau(  31) = (   0.4997300   0.5556577   2.7651007  )
        32           O0  tau(  32) = (   0.5003300   0.3573415   2.8834192  )
        33           H2  tau(  33) = (   0.4999300   0.4160398   3.0312324  )

     number of k points=    10  Methfessel-Paxton smearing, width (Ry)=  0.0100
                       cart. coord. in units 2pi/alat
        k(    1) = (   0.0000000   0.0000000   0.0000000), wk =   0.1250000
        k(    2) = (   0.0000000   0.2416596   0.0000000), wk =   0.2500000
        k(    3) = (   0.0000000  -0.4833191   0.0000000), wk =   0.1250000
        k(    4) = (   0.2500000   0.0000000   0.0000000), wk =   0.2500000
        k(    5) = (   0.2500000   0.2416596   0.0000000), wk =   0.2500000
        k(    6) = (   0.2500000  -0.4833191   0.0000000), wk =   0.2500000
        k(    7) = (  -0.5000000   0.0000000   0.0000000), wk =   0.1250000
        k(    8) = (  -0.5000000   0.2416596   0.0000000), wk =   0.2500000
        k(    9) = (  -0.5000000  -0.4833191   0.0000000), wk =   0.1250000
        k(   10) = (  -0.2500000   0.2416596   0.0000000), wk =   0.2500000

     Largest allocated arrays     est. size (Mb)     dimensions
     Largest temporary arrays     est. size (Mb)     dimensions

     Check: negative/imaginary core charge=   -0.000003    0.000000

     Initial potential from superposition of free atoms
     Check: negative starting charge=   -0.646062

     starting charge  240.99914, renormalised to  245.00000

     negative rho (up, down):  0.657E+00 0.000E+00
     Number of +U iterations with fixed ns =  0
     Starting occupations:
 --- enter write_ns ---
 LDA+U parameters:
U( 2)     =  1.00000000
alpha( 2) =  0.00000000
atom    3   Tr[ns(na)] =   7.00000
    eigenvalues:
  0.700  0.700  0.700  0.700  0.700
    eigenvectors:
  1.000  0.000  0.000  0.000  0.000
  0.000  1.000  0.000  0.000  0.000
  0.000  0.000  1.000  0.000  0.000
  0.000  0.000  0.000  1.000  0.000
  0.000  0.000  0.000  0.000  1.000
    occupations:
  0.700  0.000  0.000  0.000  0.000
  0.000  0.700  0.000  0.000  0.000
  0.000  0.000  0.700  0.000  0.000
  0.000  0.000  0.000  0.700  0.000
  0.000  0.000  0.000  0.000  0.700
atom    4   Tr[ns(na)] =   7.00000
    eigenvalues:
  0.700  0.700  0.700  0.700  0.700
    eigenvectors:
  1.000  0.000  0.000  0.000  0.000
  0.000  1.000  0.000  0.000  0.000
  0.000  0.000  1.000  0.000  0.000
  0.000  0.000  0.000  1.000  0.000
  0.000  0.000  0.000  0.000  1.000
    occupations:
  0.700  0.000  0.000  0.000  0.000
  0.000  0.700  0.000  0.000  0.000
  0.000  0.000  0.700  0.000  0.000
  0.000  0.000  0.000  0.700  0.000
  0.000  0.000  0.000  0.000  0.700
atom    9   Tr[ns(na)] =   7.00000
    eigenvalues:
  0.700  0.700  0.700  0.700  0.700
    eigenvectors:
  1.000  0.000  0.000  0.000  0.000
  0.000  1.000  0.000  0.000  0.000
  0.000  0.000  1.000  0.000  0.000
  0.000  0.000  0.000  1.000  0.000
  0.000  0.000  0.000  0.000  1.000
    occupations:
  0.700  0.000  0.000  0.000  0.000
  0.000  0.700  0.000  0.000  0.000
  0.000  0.000  0.700  0.000  0.000
  0.000  0.000  0.000  0.700  0.000
  0.000  0.000  0.000  0.000  0.700
atom   10   Tr[ns(na)] =   7.00000
    eigenvalues:
  0.700  0.700  0.700  0.700  0.700
    eigenvectors:
  1.000  0.000  0.000  0.000  0.000
  0.000  1.000  0.000  0.000  0.000
  0.000  0.000  1.000  0.000  0.000
  0.000  0.000  0.000  1.000  0.000
  0.000  0.000  0.000  0.000  1.000
    occupations:
  0.700  0.000  0.000  0.000  0.000
  0.000  0.700  0.000  0.000  0.000
  0.000  0.000  0.700  0.000  0.000
  0.000  0.000  0.000  0.700  0.000
  0.000  0.000  0.000  0.000  0.700
atom   16   Tr[ns(na)] =   7.00000
    eigenvalues:
  0.700  0.700  0.700  0.700  0.700
    eigenvectors:
  1.000  0.000  0.000  0.000  0.000
  0.000  1.000  0.000  0.000  0.000
  0.000  0.000  1.000  0.000  0.000
  0.000  0.000  0.000  1.000  0.000
  0.000  0.000  0.000  0.000  1.000
    occupations:
  0.700  0.000  0.000  0.000  0.000
  0.000  0.700  0.000  0.000  0.000
  0.000  0.000  0.700  0.000  0.000
  0.000  0.000  0.000  0.700  0.000
  0.000  0.000  0.000  0.000  0.700
atom   17   Tr[ns(na)] =   7.00000
    eigenvalues:
  0.700  0.700  0.700  0.700  0.700
    eigenvectors:
  1.000  0.000  0.000  0.000  0.000
  0.000  1.000  0.000  0.000  0.000
  0.000  0.000  1.000  0.000  0.000
  0.000  0.000  0.000  1.000  0.000
  0.000  0.000  0.000  0.000  1.000
    occupations:
  0.700  0.000  0.000  0.000  0.000
  0.000  0.700  0.000  0.000  0.000
  0.000  0.000  0.700  0.000  0.000
  0.000  0.000  0.000  0.700  0.000
  0.000  0.000  0.000  0.000  0.700
atom   22   Tr[ns(na)] =   7.00000
    eigenvalues:
  0.700  0.700  0.700  0.700  0.700
    eigenvectors:
  1.000  0.000  0.000  0.000  0.000
  0.000  1.000  0.000  0.000  0.000
[...]
    eigenvalues:
  0.597  0.612  0.896  0.911  0.972
    eigenvectors:
  0.000  0.991  0.001  0.000  0.009
  0.001  0.000  0.000  0.999  0.000
  0.000  0.001  0.999  0.000  0.000
  0.000  0.009  0.000  0.000  0.991
  0.999  0.000  0.000  0.001  0.000
    occupations:
  0.615  0.000  0.007  0.034 -0.000
  0.000  0.911 -0.000  0.000 -0.009
  0.007 -0.000  0.896  0.000  0.000
  0.034  0.000  0.000  0.969  0.000
 -0.000 -0.009  0.000  0.000  0.597
atom   16   Tr[ns(na)] =   7.98377
    eigenvalues:
  0.590  0.612  0.877  0.947  0.966
    eigenvectors:
  0.012  0.191  0.003  0.001  0.793
  0.948  0.052  0.000  0.000  0.000
  0.000  0.000  0.993  0.004  0.003
  0.040  0.757  0.000  0.000  0.203
  0.000  0.000  0.004  0.995  0.001
    occupations:
  0.893  0.005  0.003 -0.143  0.001
  0.005  0.592 -0.000  0.003 -0.006
  0.003 -0.000  0.877 -0.005 -0.004
 -0.143  0.003 -0.005  0.683 -0.000
  0.001 -0.006 -0.004 -0.000  0.946
atom   17   Tr[ns(na)] =   7.97120
    eigenvalues:
  0.604  0.651  0.855  0.904  0.973
    eigenvectors:
  0.000  0.992  0.000  0.000  0.007
  0.000  0.000  0.042  0.958  0.000
  0.000  0.000  0.958  0.042  0.000
  0.000  0.007  0.000  0.000  0.993
  1.000  0.000  0.000  0.000  0.000
    occupations:
  0.653 -0.004 -0.001  0.027  0.001
 -0.004  0.902  0.010  0.001 -0.000
 -0.001  0.010  0.857 -0.001  0.001
  0.027  0.001 -0.001  0.970  0.000
  0.001 -0.000  0.001  0.000  0.604
atom   22   Tr[ns(na)] =   7.96437
    eigenvalues:
  0.639  0.651  0.840  0.878  0.974
    eigenvectors:
  0.000  0.152  0.001  0.000  0.848
  1.000  0.000  0.000  0.000  0.000
  0.000  0.000  0.985  0.015  0.000
  0.000  0.848  0.000  0.000  0.152
  0.000  0.000  0.015  0.985  0.000
    occupations:
  0.925  0.002  0.001 -0.116 -0.000
  0.002  0.639  0.001 -0.001 -0.000
  0.001  0.001  0.841 -0.005  0.005
 -0.116 -0.001 -0.005  0.700  0.000
 -0.000 -0.000  0.005  0.000  0.877
atom   23   Tr[ns(na)] =   7.98799
    eigenvalues:
  0.603  0.637  0.848  0.938  0.969
    eigenvectors:
  0.000  0.994  0.000  0.003  0.002
  0.001  0.000  0.999  0.000  0.000
  0.000  0.003  0.000  0.996  0.000
  0.000  0.002  0.000  0.000  0.997
  0.999  0.000  0.001  0.000  0.000
    occupations:
  0.638 -0.000  0.017  0.016 -0.000
 -0.000  0.848 -0.001 -0.000 -0.009
  0.017 -0.001  0.937 -0.002  0.000
  0.016 -0.000 -0.002  0.968  0.000
 -0.000 -0.009  0.000  0.000  0.603
N of occupied +U levels =  63.8040392
 --- exit write_ns ---

     Threshold (ethr) on eigenvalues was too large:
     Diagonalizing with lowered threshold

     Davidson diagonalization with overlap
     ethr =  5.21E-09,  avg # of iterations =  3.5

[...]

     total energy              =   -2013.24751418 Ry
     Harris-Foulkes estimate   =   -2013.24751418 Ry
     estimated scf accuracy    <       0.00000003 Ry

     iteration # 16     ecut=    40.00 Ry     beta=0.70
     Davidson diagonalization with overlap
     ethr =  1.38E-11,  avg # of iterations =  1.0

     negative rho (up, down):  0.694E+00 0.000E+00

     End of self-consistent calculation
 --- enter write_ns ---
 LDA+U parameters:
U( 2)     =  1.00000000
alpha( 2) =  0.00000000
atom    3   Tr[ns(na)] =   7.98346
    eigenvalues:
  0.590  0.612  0.877  0.947  0.966
    eigenvectors:
  0.013  0.190  0.003  0.001  0.793
  0.944  0.056  0.000  0.000  0.000
  0.000  0.000  0.989  0.008  0.003
  0.043  0.754  0.000  0.000  0.203
  0.000  0.000  0.007  0.991  0.001
    occupations:
  0.893 -0.005  0.003 -0.143 -0.001
 -0.005  0.592 -0.001 -0.003 -0.006
  0.003 -0.001  0.878 -0.005  0.006
 -0.143 -0.003 -0.005  0.683 -0.000
 -0.001 -0.006  0.006 -0.000  0.946
atom    4   Tr[ns(na)] =   7.97368
    eigenvalues:
  0.603  0.650  0.859  0.903  0.972
    eigenvectors:
  0.000  0.992  0.000  0.000  0.007
  0.000  0.000  0.068  0.932  0.000
  0.000  0.000  0.932  0.068  0.000
  0.000  0.007  0.000  0.000  0.993
  1.000  0.000  0.000  0.000  0.000
    occupations:
  0.652 -0.004 -0.002  0.026  0.001
 -0.004  0.900  0.011  0.001 -0.000
 -0.002  0.011  0.862 -0.001  0.001
  0.026  0.001 -0.001  0.970  0.000
  0.001 -0.000  0.001  0.000  0.603
atom    9   Tr[ns(na)] =   7.96363
    eigenvalues:
  0.639  0.651  0.840  0.878  0.974
    eigenvectors:
  0.001  0.151  0.001  0.000  0.847
  0.992  0.008  0.000  0.000  0.000
  0.000  0.000  0.983  0.016  0.000
  0.007  0.841  0.000  0.000  0.152
  0.000  0.000  0.017  0.983  0.000
    occupations:
  0.925 -0.001  0.001 -0.116 -0.001
 -0.001  0.639 -0.000  0.001 -0.000
  0.001 -0.000  0.841 -0.005 -0.005
 -0.116  0.001 -0.005  0.700  0.001
 -0.001 -0.000 -0.005  0.001  0.877
atom   10   Tr[ns(na)] =   7.97606
    eigenvalues:
  0.597  0.612  0.896  0.911  0.972
    eigenvectors:
  0.000  0.991  0.001  0.000  0.009
  0.001  0.000  0.000  0.999  0.000
  0.000  0.001  0.999  0.000  0.000
  0.000  0.009  0.000  0.000  0.991
  0.999  0.000  0.000  0.001  0.000
    occupations:
  0.615  0.000  0.007  0.034 -0.000
  0.000  0.911 -0.000  0.000 -0.009
  0.007 -0.000  0.895  0.000  0.000
  0.034  0.000  0.000  0.969  0.000
 -0.000 -0.009  0.000  0.000  0.597
atom   16   Tr[ns(na)] =   7.98338
    eigenvalues:
  0.590  0.612  0.877  0.946  0.966
    eigenvectors:
  0.012  0.191  0.003  0.001  0.793
  0.947  0.052  0.000  0.000  0.000
  0.000  0.000  0.993  0.004  0.003
  0.040  0.756  0.000  0.000  0.203
  0.000  0.000  0.004  0.995  0.001
    occupations:
  0.893  0.005  0.003 -0.143  0.001
  0.005  0.592 -0.000  0.003 -0.006
  0.003 -0.000  0.877 -0.005 -0.004
 -0.143  0.003 -0.005  0.683 -0.000
  0.001 -0.006 -0.004 -0.000  0.946
atom   17   Tr[ns(na)] =   7.97203
    eigenvalues:
  0.604  0.651  0.855  0.904  0.973
    eigenvectors:
  0.000  0.992  0.000  0.000  0.007
  0.000  0.000  0.042  0.958  0.000
  0.000  0.000  0.958  0.042  0.000
  0.000  0.007  0.000  0.000  0.993
  1.000  0.000  0.000  0.000  0.000
    occupations:
  0.653 -0.004 -0.001  0.027  0.001
 -0.004  0.902  0.010  0.001 -0.000
 -0.001  0.010  0.857 -0.001  0.001
  0.027  0.001 -0.001  0.970  0.000
  0.001 -0.000  0.001  0.000  0.604
atom   22   Tr[ns(na)] =   7.96376
    eigenvalues:
  0.639  0.651  0.840  0.878  0.974
    eigenvectors:
  0.000  0.152  0.001  0.000  0.848
  1.000  0.000  0.000  0.000  0.000
  0.000  0.000  0.985  0.015  0.000
  0.000  0.848  0.000  0.000  0.152
  0.000  0.000  0.015  0.985  0.000
    occupations:
  0.925  0.002  0.001 -0.116 -0.000
  0.002  0.639  0.001 -0.001 -0.000
  0.001  0.001  0.840 -0.005  0.005
 -0.116 -0.001 -0.005  0.700  0.000
 -0.000 -0.000  0.005  0.000  0.877
atom   23   Tr[ns(na)] =   7.98757
    eigenvalues:
  0.603  0.637  0.848  0.938  0.969
    eigenvectors:
  0.000  0.994  0.000  0.003  0.002
  0.001  0.000  0.999  0.000  0.000
  0.000  0.003  0.000  0.996  0.000
  0.000  0.002  0.000  0.000  0.997
  0.999  0.000  0.001  0.000  0.000
    occupations:
  0.638 -0.000  0.017  0.016 -0.000
 -0.000  0.848 -0.001 -0.000 -0.009
  0.017 -0.001  0.937 -0.002  0.000
  0.016 -0.000 -0.002  0.968  0.000
 -0.000 -0.009  0.000  0.000  0.603
N of occupied +U levels =  63.8035736
 --- exit write_ns ---

[...]

          k = 0.2500-0.4833 0.0000 ( 30510 PWs)   bands (ev):

[...]

          k =-0.2500 0.2417 0.0000 ( 30481 PWs)   bands (ev):

   -48.8293 -48.7688 -48.7623 -48.7266 -48.7066 -48.6989 -48.6726 -48.6431
   -48.6397 -48.6202 -48.5903 -48.5571 -48.5398 -48.5296 -48.4336 -48.4293
   -48.3820 -48.3682 -48.3349 -48.3338 -48.3314 -48.3297 -48.3171 -48.2914
   -24.0488 -20.8518 -20.5506 -20.3630 -20.2579 -20.0954 -19.8497 -19.7917
   -19.6674 -19.6132 -19.5101 -19.4491 -19.4169 -19.3400 -19.2391 -19.1828
   -19.1066 -18.4189 -18.2726 -17.4651  -9.1210  -8.9939  -8.8512  -8.7861
    -8.5720  -8.1957  -8.1461  -8.1037  -8.0581  -8.0102  -7.9255  -7.8907
    -7.8383  -7.7667  -7.7040  -7.5096  -7.3222  -7.2905  -7.2333  -7.0407
    -6.8611  -6.7088  -6.6561  -6.5739  -6.4851  -6.3647  -6.0783  -5.9689
    -5.8514  -5.7964  -5.6922  -5.6196  -5.5754  -5.4898  -5.4356  -5.3948
    -5.3635  -5.2226  -5.1405  -5.0605  -4.9915  -4.8830  -4.7415  -4.6561
    -4.4274  -4.3763  -4.2723  -4.1890  -4.0929  -4.0399  -3.9196  -3.8028
    -3.7096  -3.6448  -3.4669  -3.2816  -3.1316  -3.0594  -2.9765  -2.9200
    -2.8325  -2.7054  -2.6918  -2.5997  -2.5797  -2.4819  -2.4427  -2.3619
    -2.3002  -2.2554  -2.2175  -2.1055  -1.8901  -1.6933  -1.4883  -1.4267
    -1.3540  -1.3137  -1.1652  -1.0521  -0.9404  -0.8476  -0.7722  -0.3515
     0.1699   0.2542   0.4629   0.8924   1.0458   1.3747   1.4742   1.7447
     1.8638   2.0331   2.0833   2.2358   2.3448   2.4121   2.7022   3.3632
     3.9323   4.1426   4.5307   5.0504   5.2753   5.5726   5.9394   5.9699
     6.0117   6.2645   6.4000   6.5536   6.6032   6.9207   6.9714   7.2296
     7.4231   7.5497   7.7346   7.8439   7.8911   8.2241   8.2529   8.2943
     8.3792   8.4541   8.6798   8.7695   8.8981   9.0052   9.1098   9.1890
     9.2693   9.3915   9.5027   9.6236   9.7814   9.8465   9.9307   9.9708
    10.0660  10.1893  10.2695  10.3534  10.4508  10.5485  10.6024  10.6827
    10.7632  10.9039  10.9982  11.1166  11.1646  11.2178  11.2889  11.3480
    11.4830  11.5199  11.6667  11.7026  11.7529  11.7894  11.8511  11.9549
    11.9931  12.1562  12.1998  12.3146  12.3610  12.4626  12.5355  12.5632
    12.6163  12.7019  12.7762  12.8392  12.9207  12.9709  13.0635  13.1655
    13.2597  13.3537  13.4263  13.5310  13.6062  13.6658  13.7827  13.8258
    13.8479  13.9611  14.0027  14.1169  14.2004  14.3029  14.3404  14.3920
    14.4837  14.5129  14.5452  14.6896  14.7398  14.7964  14.9347  15.0012
    15.0576  15.1391  15.2499  15.3325  15.4454  15.5134  15.5365  15.6103
    15.7036  15.7362  15.7861  15.8384  15.9341  15.9828  16.0366  16.0641
    16.1430  16.1778  16.3396  16.3694  16.4174  16.4695  16.5353  16.5914
    16.6144  16.6952  16.7563  16.8242  16.8855  17.0063  17.0650  17.1558
    17.2228  17.2363  17.2989  17.3778  17.4507  17.4825  17.5547  17.6144
    17.7080  17.7309  17.7793  17.9002  17.9351  17.9914  18.0883  18.1101
    18.2122  18.2294  18.3399  18.4134  18.5033  18.6255  18.6608  18.7064
    18.8691  18.9218  18.9817  19.0202  19.0555  19.1679  19.2424  19.2665
    19.3319  19.3972  19.4763  19.5563  19.6066  19.6841  19.7421  19.8805
    19.9306  19.9716  20.0937  20.1334  20.1930  20.3215  20.3850  20.4695
    20.5580  20.6314  20.7081  20.7432  20.7823  20.8475  20.9088  20.9924
    21.0773  21.1230  21.1754  21.2212  21.2527  21.3542  21.3961  21.4672
    21.5193  21.5742  21.6577  21.6855  21.7455  21.8081  21.8319  21.9456
    22.0299  22.0640  22.1038  22.1793  22.2953  22.3381  22.4207  22.4366
    22.5064  22.5751  22.6663  22.7015  22.7851  22.8537  22.9141

     the Fermi energy is    -1.2192 ev

!    total energy              =   -2013.24751418 Ry
     Harris-Foulkes estimate   =   -2013.24751418 Ry
     estimated scf accuracy    <          7.5E-09 Ry

     The total energy is the sum of the following terms:

     one-electron contribution =  -23699.15010724 Ry
     hartree contribution      =   11904.32478341 Ry
     xc contribution           =    -379.84932983 Ry
     ewald contribution        =   10161.01861709 Ry
     Hubbard energy            =       0.40906322 Ry
     smearing contrib. (-TS)   =      -0.00054083 Ry

     convergence has been achieved in  16 iterations

     Forces acting on atoms (Ry/au):

     negative rho (up, down):  0.694E+00 0.000E+00
     atom    1 type  1   force =    -0.00729879   -0.01331414    0.00032123
     atom    2 type  1   force =     0.00021356    0.00597148    0.00048845
     atom    3 type  2   force =     0.03023603    0.00349592    0.00062839
     atom    4 type  2   force =     0.00815088    0.00850336    0.00018586
     atom    5 type  1   force =    -0.00211415   -0.03276514    0.00005688
     atom    6 type  1   force =     0.00110288    0.03056790    0.00001878
     atom    7 type  1   force =    -0.00021661   -0.00349999   -0.00056853
     atom    8 type  1   force =    -0.00272589    0.00090105   -0.00021514
     atom    9 type  2   force =     0.00550336    0.00134526    0.00011122
     atom   10 type  2   force =    -0.00015473   -0.00062430    0.00084205
     atom   11 type  1   force =    -0.01192478    0.01530929   -0.00048168
     atom   12 type  1   force =    -0.00612017   -0.00942238   -0.00044077
     atom   13 type  1   force =    -0.00077169   -0.00296591   -0.00001380
     atom   14 type  1   force =    -0.00646435   -0.01327332   -0.00006219
     atom   15 type  1   force =     0.00014055    0.00598071    0.00045879
     atom   16 type  2   force =    -0.03054225    0.00365236    0.00060866
     atom   17 type  2   force =     0.00806635    0.00934760    0.00019548
     atom   18 type  1   force =     0.00008606   -0.03334268    0.00006109
     atom   19 type  1   force =     0.00308889    0.03015141    0.00000626
     atom   20 type  1   force =    -0.00016080   -0.00507792   -0.00009643
     atom   21 type  1   force =    -0.00298074    0.00114783   -0.00018340
     atom   22 type  2   force =    -0.00283309    0.00137201    0.00014630
     atom   23 type  2   force =    -0.00026676    0.00129766   -0.00030127
     atom   24 type  1   force =     0.01172925    0.01524921   -0.00048113
     atom   25 type  1   force =     0.00692048   -0.00953282   -0.00045935
     atom   26 type  1   force =    -0.00094742   -0.01081088   -0.00005004
     atom   27 type  3   force =    -0.00002593   -0.00002019   -0.00000829
     atom   28 type  3   force =    -0.00002131    0.00006633    0.00002330
     atom   29 type  3   force =     0.00012607   -0.00001175    0.00010218
     atom   30 type  3   force =     0.00016533    0.00005502    0.00013179
     atom   31 type  1   force =    -0.00014462    0.00077416   -0.00074691
     atom   32 type  1   force =     0.00019194   -0.00062623    0.00003491
     atom   33 type  3   force =    -0.00000756    0.00009911   -0.00031269

     Total force =     0.002306     Total SCF correction =     0.000383
     SCF correction compared to forces is large: reduce conv_thr to get better values

     entering subroutine stress ...

     negative rho (up, down):  0.694E+00 0.000E+00
          total   stress  (Ry/bohr**3)                   (kbar)     P=  -16.18
  -0.00010949   0.00000353   0.00000423        -16.11      0.52      0.62
   0.00000353  -0.00013567   0.00000438          0.52    -19.96      0.64
   0.00000423   0.00000438  -0.00008471          0.62      0.64    -12.46

     bfgs converged in   4 scf cycles and   3 bfgs steps
     (criteria: energy < 0.10E-03, force < 0.10E-02)

     End of BFGS Geometry Optimization

     Final energy   =   -2013.2475141770 Ry
Begin final coordinates

ATOMIC_POSITIONS (crystal)
O0       0.000000000   0.000000000   0.377828125    0   0   1
O0       0.000000000   0.500000000   0.401394170    0   0   1
Rh1      0.250000000   0.500000000   0.452830788    0   0   1
Rh1      0.000000000   0.000000000   0.452367867    0   0   1
O0       0.250000000   0.810000000   0.452170616    0   0   1
O0       0.250000000   0.190000000   0.452024956    0   0   1
O0       0.000000000   0.500000000   0.498634505    0   0   1
O0       0.000000000   0.000000000   0.527882518    0   0   1
Rh1      0.250000000   0.000000000   0.575085686    0   0   1
Rh1      0.000000000   0.500000000   0.570550177    0   0   1
O0       0.250000000   0.690000000   0.574613973    0   0   1
O0       0.250000000   0.310000000   0.577039960    0   0   1
O0       0.000000000   0.000000000   0.620554940    0   0   1
O0       0.500000000   0.000000000   0.377868639    0   0   1
O0       0.500000000   0.500000000   0.401588956    0   0   1
Rh1      0.750000000   0.500000000   0.452825492    0   0   1
Rh1      0.500000000   0.000000000   0.452316675    0   0   1
O0       0.750000000   0.810000000   0.452140565    0   0   1
O0       0.750000000   0.190000000   0.452062958    0   0   1
O0       0.500000000   0.500000000   0.500154914    0   0   1
O0       0.500000000   0.000000000   0.527742470    0   0   1
Rh1      0.750000000   0.000000000   0.575076623    0   0   1
Rh1      0.500000000   0.500000000   0.578011906    0   0   1
O0       0.750000000   0.690000000   0.574605378    0   0   1
O0       0.750000000   0.310000000   0.577037725    0   0   1
O0       0.500000000   0.000000000   0.620082783    0   0   1
H2       0.000041201   0.638623894   0.384836725
H2       0.499911974   0.638701606   0.385007920
H2       0.147745690   0.035935878   0.367160115
H2       0.648433999   0.033465332   0.367189263
O0       0.499680247   0.536830513   0.650644959
O0       0.500394013   0.345735013   0.678392427
H2       0.499930010   0.402208548   0.713205224
End final coordinates

     General routines

     Parallel routines
     Hubbard U routines

   This run was terminated on:   7: 8:43   1Jun2014

   JOB DONE.