     Program PWSCF v.5.0.2 (svn rev. 9656) starts on 31May2014 at  4:19:33

     Current dimensions of program PWSCF are:
     Max number of different atomic species (ntypx) = 10
     Max number of k-points (npk) =  40000
     Max angular momentum in pseudopotentials (lmaxx) =  3
     Reading input from pwscf.in
Warning: card &CELL ignored
Warning: card / ignored

     Subspace diagonalization in iterative solution of the eigenvalue problem:
     a serial algorithm will be used

     bravais-lattice index     =            0
     lattice parameter (alat)  =      12.2076  a.u.
     unit-cell volume          =    7496.5096 (a.u.)^3
     number of atoms/cell      =           33
     number of atomic types    =            3
     number of electrons       =       253.00
     number of Kohn-Sham states=          379
     kinetic-energy cutoff     =      40.0000  Ry
     charge density cutoff     =     500.0000  Ry
     convergence threshold     =      1.0E-06
     mixing beta               =       0.7000
     number of iterations used =            8  plain     mixing
     Exchange-correlation      = SLA  PW   PBE  PBE ( 1 4 3 4 0)
     EXX-fraction              =        0.00
     nstep                     =           50

     celldm(1)=  12.207631  celldm(2)=   0.000000  celldm(3)=   0.000000
     celldm(4)=   0.000000  celldm(5)=   0.000000  celldm(6)=   0.000000

     crystal axes: (cart. coord. in units of alat)
               a(1) = (   1.000000   0.000000   0.000000 )
               a(2) = (   0.000000   1.004836   0.000000 )
               a(3) = (   0.000000   0.000000   4.100811 )

     reciprocal axes: (cart. coord. in units 2 pi/alat)
               b(1) = (  1.000000  0.000000  0.000000 )
               b(2) = (  0.000000  0.995187  0.000000 )
               b(3) = (  0.000000  0.000000  0.243854 )

     PseudoPot. # 1 for O  read from file:
     /home/camp/zhonxu/pseudo/o_pbe_v1.01.uspp.F.UPF
     MD5 check sum: 2bcb18d16ea4b960afae9ec6d52f22d2
     Pseudo is Ultrasoft + core correction, Zval =  6.0
     Generated by new atomic code, or converted to UPF format
     Using radial grid of  737 points,  5 beta functions with:
                l(1) =   0
                l(2) =   0
                l(3) =   1
                l(4) =   1
                l(5) =   2
     Q(r) pseudized with  8 coefficients,  rinner =    0.900   0.900   0.900
                                                       0.900   0.900

     PseudoPot. # 2 for Pt read from file:
     /home/camp/zhonxu/pseudo/pt_pbe_v1.uspp.F.UPF
     MD5 check sum: 4c71d6ad5ef119f1eb26a4d0b7884226
     Pseudo is Ultrasoft + core correction, Zval = 16.0
     Generated by new atomic code, or converted to UPF format
     Using radial grid of  985 points,  6 beta functions with:
                l(1) =   0
                l(2) =   0
                l(3) =   1
                l(4) =   1
                l(5) =   2
                l(6) =   2
     Q(r) pseudized with  8 coefficients,  rinner =    1.300   1.300   1.300
                                                       1.300   1.300

     PseudoPot. # 3 for H  read from file:
     /home/camp/zhonxu/pseudo/h_pbe_v1.uspp.F.UPF
     MD5 check sum: 3408e3ff4ec8b0a4e358431e7e038a48
     Pseudo is Ultrasoft, Zval =  1.0
     Generated by new atomic code, or converted to UPF format
     Using radial grid of  615 points,  2 beta functions with:
                l(1) =   0
                l(2) =   0
     Q(r) pseudized with  8 coefficients,  rinner =    0.700

     atomic species   valence    mass     pseudopotential
        O0             6.00    15.99940     O ( 1.00)
        Pt1           16.00   195.08000     Pt( 1.00)
        H2             1.00     1.00794     H ( 1.00)

     Simplified LDA+U calculation (l_max = 2) with parameters (eV):
     atomic species    L          U    alpha       J0     beta
        Pt1            2     1.5000   0.0000   0.0000   0.0000

     No symmetry found

   Cartesian axes

     site n.     atom                  positions (alat units)
         1           O0  tau(   1) = (   0.0000000   0.0000000   1.5494095  )
         2           O0  tau(   2) = (   0.0000000   0.5024180   1.6475009  )
         3           Pt1 tau(   3) = (   0.2500000   0.5024180   1.8504910  )
         4           Pt1 tau(   4) = (   0.0000000   0.0000000   1.8570523  )
         5           O0  tau(   5) = (   0.2500000   0.8139171   1.8187098  )
         6           O0  tau(   6) = (   0.2500000   0.1909188   1.8864142  )
         7           O0  tau(   7) = (   0.0000000   0.5024180   2.0369959  )
         8           O0  tau(   8) = (   0.0000000   0.0000000   2.1720357  )
         9           Pt1 tau(   9) = (   0.2500000   0.0000000   2.3614521  )
        10           Pt1 tau(  10) = (   0.0000000   0.5024180   2.3598528  )
        11           O0  tau(  11) = (   0.2500000   0.6933368   2.3268823  )
        12           O0  tau(  12) = (   0.2500000   0.3114991   2.4033624  )
        13           O0  tau(  13) = (   0.0000000   0.0000000   2.5482851  )
        14           O0  tau(  14) = (   0.5000000   0.0000000   1.5485073  )
        15           O0  tau(  15) = (   0.5000000   0.5024180   1.6434821  )
        16           Pt1 tau(  16) = (   0.7500000   0.5024180   1.8504910  )
        17           Pt1 tau(  17) = (   0.5000000   0.0000000   1.8561092  )
        18           O0  tau(  18) = (   0.7500000   0.8139171   1.8187918  )
        19           O0  tau(  19) = (   0.7500000   0.1909188   1.8863321  )
        20           O0  tau(  20) = (   0.5000000   0.5024180   2.0428191  )
        21           O0  tau(  21) = (   0.5000000   0.0000000   2.1708874  )
        22           Pt1 tau(  22) = (   0.7500000   0.0000000   2.3614521  )
        23           Pt1 tau(  23) = (   0.5000000   0.5024180   2.3628874  )
        24           O0  tau(  24) = (   0.7500000   0.6933368   2.3268003  )
        25           O0  tau(  25) = (   0.7500000   0.3114991   2.4034034  )
        26           O0  tau(  26) = (   0.5000000   0.0000000   2.5460296  )
        27           H2  tau(  27) = (   0.0000200   0.6429744   1.5830361  )
        28           H2  tau(  28) = (   0.5000600   0.6435874   1.5806577  )
        29           H2  tau(  29) = (   0.1433700   0.0339333   1.5082373  )
        30           H2  tau(  30) = (   0.6430800   0.0354607   1.5076632  )
        31           O0  tau(  31) = (   0.5001100   0.5589199   2.6603192  )
        32           O0  tau(  32) = (   0.4999400   0.3687346   2.7792838  )
        33           H2  tau(  33) = (   0.4999900   0.4305019   2.9192445  )

     number of k points=    10  Methfessel-Paxton smearing, width (Ry)=  0.0100
                       cart. coord. in units 2pi/alat
        k(    1) = (   0.0000000   0.0000000   0.0000000), wk =   0.1250000
        k(    2) = (   0.0000000   0.2487968   0.0000000), wk =   0.2500000
        k(    3) = (   0.0000000  -0.4975937   0.0000000), wk =   0.1250000
        k(    4) = (   0.2500000   0.0000000   0.0000000), wk =   0.2500000
        k(    5) = (   0.2500000   0.2487968   0.0000000), wk =   0.2500000
        k(    6) = (   0.2500000  -0.4975937   0.0000000), wk =   0.2500000
        k(    7) = (  -0.5000000   0.0000000   0.0000000), wk =   0.1250000
        k(    8) = (  -0.5000000   0.2487968   0.0000000), wk =   0.2500000
        k(    9) = (  -0.5000000  -0.4975937   0.0000000), wk =   0.1250000
        k(   10) = (  -0.2500000   0.2487968   0.0000000), wk =   0.2500000

     Largest allocated arrays     est. size (Mb)     dimensions
     Largest temporary arrays     est. size (Mb)     dimensions

     Check: negative/imaginary core charge=   -0.000003    0.000000

     Initial potential from superposition of free atoms
     Check: negative starting charge=   -1.535323

     starting charge  248.99983, renormalised to  253.00000

     negative rho (up, down):  0.156E+01 0.000E+00
     Number of +U iterations with fixed ns =  0
     Starting occupations:
 --- enter write_ns ---
 LDA+U parameters:
U( 2)     =  1.50000000
alpha( 2) =  0.00000000
atom    3   Tr[ns(na)] =   8.00000
    eigenvalues:
  0.800  0.800  0.800  0.800  0.800
    eigenvectors:
  1.000  0.000  0.000  0.000  0.000
  0.000  1.000  0.000  0.000  0.000
  0.000  0.000  1.000  0.000  0.000
  0.000  0.000  0.000  1.000  0.000
  0.000  0.000  0.000  0.000  1.000
    occupations:
  0.800  0.000  0.000  0.000  0.000
  0.000  0.800  0.000  0.000  0.000
  0.000  0.000  0.800  0.000  0.000
  0.000  0.000  0.000  0.800  0.000
  0.000  0.000  0.000  0.000  0.800
atom    4   Tr[ns(na)] =   8.00000
    eigenvalues:
  0.800  0.800  0.800  0.800  0.800
    eigenvectors:
  1.000  0.000  0.000  0.000  0.000
  0.000  1.000  0.000  0.000  0.000
  0.000  0.000  1.000  0.000  0.000
  0.000  0.000  0.000  1.000  0.000
  0.000  0.000  0.000  0.000  1.000
    occupations:
  0.800  0.000  0.000  0.000  0.000
  0.000  0.800  0.000  0.000  0.000
  0.000  0.000  0.800  0.000  0.000
  0.000  0.000  0.000  0.800  0.000
  0.000  0.000  0.000  0.000  0.800
atom    9   Tr[ns(na)] =   8.00000
    eigenvalues:
  0.800  0.800  0.800  0.800  0.800
    eigenvectors:
  1.000  0.000  0.000  0.000  0.000
  0.000  1.000  0.000  0.000  0.000
  0.000  0.000  1.000  0.000  0.000
  0.000  0.000  0.000  1.000  0.000
  0.000  0.000  0.000  0.000  1.000
    occupations:
  0.800  0.000  0.000  0.000  0.000
  0.000  0.800  0.000  0.000  0.000
  0.000  0.000  0.800  0.000  0.000
  0.000  0.000  0.000  0.800  0.000
  0.000  0.000  0.000  0.000  0.800
atom   10   Tr[ns(na)] =   8.00000
    eigenvalues:
  0.800  0.800  0.800  0.800  0.800
    eigenvectors:
  1.000  0.000  0.000  0.000  0.000
  0.000  1.000  0.000  0.000  0.000
  0.000  0.000  1.000  0.000  0.000
  0.000  0.000  0.000  1.000  0.000
  0.000  0.000  0.000  0.000  1.000
    occupations:
  0.800  0.000  0.000  0.000  0.000
  0.000  0.800  0.000  0.000  0.000
  0.000  0.000  0.800  0.000  0.000
  0.000  0.000  0.000  0.800  0.000
  0.000  0.000  0.000  0.000  0.800
atom   16   Tr[ns(na)] =   8.00000
    eigenvalues:
  0.800  0.800  0.800  0.800  0.800
    eigenvectors:
  1.000  0.000  0.000  0.000  0.000
  0.000  1.000  0.000  0.000  0.000
  0.000  0.000  1.000  0.000  0.000
  0.000  0.000  0.000  1.000  0.000
  0.000  0.000  0.000  0.000  1.000
    occupations:
  0.800  0.000  0.000  0.000  0.000
  0.000  0.800  0.000  0.000  0.000
  0.000  0.000  0.800  0.000  0.000
  0.000  0.000  0.000  0.800  0.000
  0.000  0.000  0.000  0.000  0.800
atom   17   Tr[ns(na)] =   8.00000
    eigenvalues:
  0.800  0.800  0.800  0.800  0.800
    eigenvectors:
  1.000  0.000  0.000  0.000  0.000
  0.000  1.000  0.000  0.000  0.000
  0.000  0.000  1.000  0.000  0.000
  0.000  0.000  0.000  1.000  0.000
  0.000  0.000  0.000  0.000  1.000
    occupations:
  0.800  0.000  0.000  0.000  0.000
  0.000  0.800  0.000  0.000  0.000
  0.000  0.000  0.800  0.000  0.000
  0.000  0.000  0.000  0.800  0.000
  0.000  0.000  0.000  0.000  0.800
atom   22   Tr[ns(na)] =   8.00000
    eigenvalues:
  0.800  0.800  0.800  0.800  0.800
    eigenvectors:
  1.000  0.000  0.000  0.000  0.000
  0.000  1.000  0.000  0.000  0.000
  0.000  0.000  1.000  0.000  0.000
[...]
  0.000 -0.032  0.000 -0.000  0.662
atom   16   Tr[ns(na)] =   8.67339
    eigenvalues:
  0.682  0.700  0.983  0.984  0.988
    eigenvectors:
  0.049  0.127  0.793  0.002  0.029
  0.747  0.253  0.000  0.000  0.000
  0.001  0.003  0.046  0.001  0.950
  0.203  0.617  0.159  0.000  0.020
  0.000  0.000  0.003  0.997  0.001
    occupations:
  0.932 -0.007  0.006 -0.109 -0.001
 -0.007  0.687 -0.002 -0.005 -0.002
  0.006 -0.002  0.986  0.016  0.000
 -0.109 -0.005  0.016  0.747 -0.001
 -0.001 -0.002  0.000 -0.001  0.984
atom   17   Tr[ns(na)] =   8.66203
    eigenvalues:
  0.684  0.704  0.977  0.982  0.984
    eigenvectors:
  0.000  0.987  0.006  0.002  0.005
  0.008  0.000  0.059  0.924  0.008
  0.000  0.004  0.894  0.046  0.056
  0.000  0.009  0.041  0.020  0.930
  0.992  0.000  0.000  0.008  0.000
    occupations:
  0.708 -0.005 -0.018  0.026 -0.001
 -0.005  0.979  0.001  0.000  0.027
 -0.018  0.001  0.977  0.003  0.000
  0.026  0.000  0.003  0.981  0.000
 -0.001  0.027  0.000  0.000  0.687
atom   22   Tr[ns(na)] =   8.63560
    eigenvalues:
  0.706  0.717  0.952  0.959  0.984
    eigenvectors:
  0.001  0.136  0.002  0.013  0.848
  0.997  0.003  0.000  0.000  0.000
  0.000  0.010  0.126  0.856  0.008
  0.002  0.851  0.001  0.003  0.143
  0.000  0.000  0.872  0.128  0.000
    occupations:
  0.947  0.002 -0.007 -0.091  0.000
  0.002  0.706  0.000 -0.000 -0.003
 -0.007  0.000  0.956 -0.023 -0.002
 -0.091 -0.000 -0.023  0.756  0.000
  0.000 -0.003 -0.002  0.000  0.953
atom   23   Tr[ns(na)] =   8.65485
    eigenvalues:
  0.697  0.703  0.961  0.982  0.985
    eigenvectors:
  0.000  0.961  0.000  0.031  0.008
  0.016  0.000  0.984  0.000  0.000
  0.000  0.031  0.000  0.969  0.000
  0.000  0.008  0.000  0.000  0.992
  0.984  0.000  0.016  0.000  0.000
    occupations:
  0.713  0.000  0.048  0.025 -0.000
  0.000  0.957  0.000 -0.000 -0.033
  0.048  0.000  0.973 -0.004 -0.000
  0.025 -0.000 -0.004  0.983 -0.000
 -0.000 -0.033 -0.000 -0.000  0.701
N of occupied +U levels =  69.3179761
 --- exit write_ns ---

     Threshold (ethr) on eigenvalues was too large:
     Diagonalizing with lowered threshold

     Davidson diagonalization with overlap
     ethr =  1.01E-08,  avg # of iterations =  2.0

[...]

     total energy              =   -2313.78376536 Ry
     Harris-Foulkes estimate   =   -2313.78376538 Ry
     estimated scf accuracy    <       0.00000030 Ry

     iteration # 14     ecut=    40.00 Ry     beta=0.70
     Davidson diagonalization with overlap
     ethr =  7.69E-12,  avg # of iterations =  1.0

     negative rho (up, down):  0.158E+01 0.000E+00

     End of self-consistent calculation
 --- enter write_ns ---
 LDA+U parameters:
U( 2)     =  1.50000000
alpha( 2) =  0.00000000
atom    3   Tr[ns(na)] =   8.67358
    eigenvalues:
  0.682  0.700  0.983  0.984  0.988
    eigenvectors:
  0.049  0.126  0.790  0.004  0.029
  0.745  0.255  0.000  0.000  0.000
  0.001  0.003  0.045  0.002  0.949
  0.205  0.616  0.158  0.001  0.020
  0.000  0.000  0.006  0.993  0.001
    occupations:
  0.932  0.007  0.006 -0.109  0.001
  0.007  0.687  0.002  0.005 -0.002
  0.006  0.002  0.986  0.016 -0.000
 -0.109  0.005  0.016  0.747  0.001
  0.001 -0.002 -0.000  0.001  0.984
atom    4   Tr[ns(na)] =   8.66309
    eigenvalues:
  0.684  0.704  0.977  0.982  0.984
    eigenvectors:
  0.000  0.986  0.006  0.002  0.006
  0.008  0.000  0.040  0.943  0.008
  0.000  0.005  0.919  0.031  0.046
  0.000  0.009  0.035  0.016  0.940
  0.992  0.000  0.000  0.008  0.000
    occupations:
  0.708 -0.005 -0.018  0.026 -0.001
 -0.005  0.979  0.001  0.000  0.027
 -0.018  0.001  0.977  0.003  0.000
  0.026  0.000  0.003  0.981  0.000
 -0.001  0.027  0.000  0.000  0.687
atom    9   Tr[ns(na)] =   8.63526
    eigenvalues:
  0.706  0.717  0.952  0.959  0.984
    eigenvectors:
  0.000  0.137  0.001  0.013  0.849
  0.999  0.000  0.000  0.000  0.000
  0.000  0.010  0.113  0.869  0.008
  0.000  0.853  0.001  0.003  0.143
  0.000  0.000  0.885  0.115  0.000
    occupations:
  0.947 -0.001 -0.007 -0.092 -0.000
 -0.001  0.706 -0.000  0.001 -0.003
 -0.007 -0.000  0.956 -0.023  0.002
 -0.092  0.001 -0.023  0.756  0.000
 -0.000 -0.003  0.002  0.000  0.953
atom   10   Tr[ns(na)] =   8.72039
    eigenvalues:
  0.659  0.761  0.976  0.980  0.984
    eigenvectors:
  0.000  0.982  0.000  0.006  0.011
  0.010  0.000  0.990  0.000  0.000
  0.000  0.001  0.000  0.418  0.581
  0.000  0.017  0.000  0.576  0.407
  0.990  0.000  0.010  0.000  0.000
    occupations:
  0.765  0.000 -0.007  0.028  0.000
  0.000  0.973 -0.000  0.000 -0.032
 -0.007 -0.000  0.982 -0.001  0.000
  0.028  0.000 -0.001  0.978 -0.000
  0.000 -0.032  0.000 -0.000  0.662
atom   16   Tr[ns(na)] =   8.67358
    eigenvalues:
  0.682  0.700  0.983  0.984  0.988
    eigenvectors:
  0.050  0.126  0.793  0.002  0.029
  0.742  0.258  0.000  0.000  0.000
  0.001  0.003  0.045  0.001  0.950
  0.207  0.613  0.159  0.000  0.020
  0.000  0.000  0.003  0.997  0.001
    occupations:
  0.932 -0.007  0.006 -0.109 -0.001
 -0.007  0.687 -0.002 -0.005 -0.002
  0.006 -0.002  0.986  0.016  0.000
 -0.109 -0.005  0.016  0.747 -0.001
 -0.001 -0.002  0.000 -0.001  0.984
atom   17   Tr[ns(na)] =   8.66160
    eigenvalues:
  0.684  0.704  0.977  0.982  0.984
    eigenvectors:
  0.000  0.987  0.006  0.002  0.005
  0.008  0.000  0.058  0.925  0.008
  0.000  0.004  0.894  0.046  0.056
  0.000  0.009  0.041  0.020  0.930
  0.992  0.000  0.000  0.008  0.000
    occupations:
  0.708 -0.005 -0.018  0.026 -0.001
 -0.005  0.979  0.001  0.000  0.027
 -0.018  0.001  0.977  0.003  0.000
  0.026  0.000  0.003  0.981  0.000
 -0.001  0.027  0.000  0.000  0.686
atom   22   Tr[ns(na)] =   8.63523
    eigenvalues:
  0.706  0.717  0.952  0.959  0.984
    eigenvectors:
  0.001  0.136  0.002  0.013  0.848
  0.997  0.003  0.000  0.000  0.000
  0.000  0.010  0.127  0.855  0.008
  0.002  0.851  0.001  0.003  0.143
  0.000  0.000  0.871  0.129  0.000
    occupations:
  0.947  0.002 -0.007 -0.092  0.000
  0.002  0.706  0.000 -0.000 -0.003
 -0.007  0.000  0.956 -0.023 -0.002
 -0.092 -0.000 -0.023  0.756  0.000
  0.000 -0.003 -0.002  0.000  0.953
atom   23   Tr[ns(na)] =   8.65418
    eigenvalues:
  0.697  0.703  0.961  0.982  0.985
    eigenvectors:
  0.000  0.961  0.000  0.031  0.008
  0.016  0.000  0.984  0.000  0.000
  0.000  0.031  0.000  0.969  0.000
  0.000  0.008  0.000  0.000  0.992
  0.984  0.000  0.016  0.000  0.000
    occupations:
  0.713  0.000  0.048  0.025 -0.000
  0.000  0.957  0.000 -0.000 -0.033
  0.048  0.000  0.973 -0.004 -0.000
  0.025 -0.000 -0.004  0.983 -0.000
 -0.000 -0.033 -0.000 -0.000  0.701
N of occupied +U levels =  69.3169162
 --- exit write_ns ---

[...]

          k = 0.2500-0.4976 0.0000 ( 32026 PWs)   bands (ev):

[...]

          k =-0.2500 0.2488 0.0000 ( 32025 PWs)   bands (ev):

   -55.1127 -55.0878 -55.0481 -55.0308 -54.9966 -54.9929 -54.9521 -54.9474
   -54.9445 -54.9136 -54.8452 -54.8413 -54.8327 -54.7353 -54.7304 -54.6798
   -54.6750 -54.6673 -54.6619 -54.6423 -54.6370 -54.2607 -54.0231 -53.6920
   -23.6046 -21.4190 -21.1082 -20.5089 -20.3133 -20.0152 -19.9039 -19.8597
   -19.7171 -19.6965 -19.6077 -19.5593 -19.4939 -19.4571 -19.3258 -19.2799
   -19.2362 -18.4808 -18.3211 -17.3281  -9.6678  -9.4142  -9.2937  -9.2122
    -8.8698  -8.8230  -8.7362  -8.6119  -8.5093  -8.4631  -8.4254  -8.2965
    -8.2278  -8.1643  -8.0767  -7.9928  -7.9686  -7.8630  -7.7149  -7.3931
    -7.3199  -7.1453  -7.0999  -7.0090  -6.9549  -6.7862  -6.4759  -6.4294
    -6.3133  -6.2136  -6.1560  -6.1234  -6.0351  -5.9337  -5.8256  -5.8078
    -5.7600  -5.5991  -5.5693  -5.4877  -5.3739  -5.3103  -5.1988  -4.9942
    -4.9028  -4.8309  -4.7016  -4.5382  -4.4650  -4.3695  -4.3248  -4.2217
    -4.1451  -4.0851  -3.9001  -3.8138  -3.7173  -3.6150  -3.5975  -3.4863
    -3.3635  -3.2424  -3.1285  -3.0677  -2.9991  -2.9558  -2.8451  -2.8152
    -2.7469  -2.6914  -2.4174  -2.3618  -2.0970  -1.9317  -1.8559  -1.6836
    -1.6427  -1.5712  -1.5189  -1.4001  -1.1756  -1.0541  -1.0172  -0.8736
    -0.3933  -0.2009  -0.0609   0.3930   0.5672   0.8738   1.0693   1.3550
     1.4239   1.5799   1.6147   1.9039   2.0514   2.0927   2.3806   3.4360
     3.7600   4.1017   4.5774   4.8918   5.1263   5.5820   5.7174   5.7750
     6.0046   6.1859   6.3238   6.4925   6.5406   6.7561   6.8690   6.9464
     7.0162   7.1169   7.2962   7.4709   7.6209   7.6527   7.7875   7.8992
     7.9578   8.0513   8.2159   8.2586   8.4314   8.4833   8.5687   8.6856
     8.8064   8.8234   8.9241   8.9466   9.1517   9.1965   9.3184   9.4174
     9.5359   9.5923   9.6717   9.7689   9.8631   9.9983  10.0390  10.1152
    10.2025  10.2963  10.4000  10.4901  10.5857  10.6518  10.7270  10.7788
    10.9483  11.0014  11.1127  11.2111  11.3123  11.3692  11.4379  11.5616
    11.6411  11.7270  11.8257  11.8847  11.9533  12.0318  12.0850  12.1530
    12.2394  12.2819  12.3725  12.4354  12.5760  12.6506  12.7210  12.7540
    12.8470  12.8887  12.9721  13.0177  13.1884  13.2578  13.3200  13.4219
    13.5259  13.5898  13.6437  13.6990  13.7859  13.8124  13.9262  14.0140
    14.1021  14.1548  14.2393  14.3644  14.4214  14.4598  14.5811  14.7173
    14.7568  14.8100  14.9015  14.9672  15.0609  15.1359  15.1818  15.2673
    15.3258  15.3365  15.4025  15.4396  15.5116  15.5740  15.6301  15.6639
    15.7550  15.8380  15.8618  15.9051  15.9786  16.0482  16.1166  16.1494
    16.2214  16.2778  16.3426  16.4332  16.5184  16.5886  16.7442  16.7759
    16.8174  16.9217  16.9928  17.0366  17.0819  17.1256  17.1443  17.1864
    17.1957  17.2137  17.2582  17.2970  17.3237  17.3405  17.3615  17.3854
    17.4152  17.4214  17.4715  17.5058  17.6108  17.6165  17.6867  17.7786
    17.8788  17.9721  17.9908  18.0809  18.1095  18.2345  18.2908  18.3600
    18.3801  18.4039  18.4806  18.5602  18.6090  18.6636  18.7289  18.8428
    18.9299  18.9621  19.0246  19.1035  19.1193  19.1930  19.3072  19.3738
    19.4423  19.5245  19.5742  19.6353  19.6768  19.8267  19.9687  20.0088
    20.0876  20.1488  20.1900  20.2346  20.2780  20.3187  20.3454  20.4058
    20.5162  20.5730  20.6467  20.7037  20.7439  20.8034  20.8260  20.8533
    20.9331  20.9854  21.0562  21.0738  21.1561  21.2235  21.3038  21.3337
    21.3840  21.4980  21.5039  21.5860  21.6125  21.6794  21.7763  21.8694
    21.9299  21.9827  22.0678  22.1470  22.1978  22.2709  22.3157  22.3456
    22.4252  22.4791  22.5478

     the Fermi energy is    -0.9885 ev

!    total energy              =   -2313.78376537 Ry
     Harris-Foulkes estimate   =   -2313.78376537 Ry
     estimated scf accuracy    <          3.6E-09 Ry

     The total energy is the sum of the following terms:

     one-electron contribution =  -24126.68883897 Ry
     hartree contribution      =   12113.21908199 Ry
     xc contribution           =    -579.99255588 Ry
     ewald contribution        =   10279.25058418 Ry
     Hubbard energy            =       0.42796391 Ry
     smearing contrib. (-TS)   =      -0.00000060 Ry

     convergence has been achieved in  14 iterations

     Forces acting on atoms (Ry/au):

     negative rho (up, down):  0.158E+01 0.000E+00
     atom    1 type  1   force =    -0.00707119   -0.00411744    0.00068810
     atom    2 type  1   force =     0.00012068    0.00497515    0.00056988
     atom    3 type  2   force =     0.00578488    0.00634295    0.00008837
     atom    4 type  2   force =     0.00996730    0.00373722    0.00014859
     atom    5 type  1   force =     0.00102212   -0.00445236   -0.00036763
     atom    6 type  1   force =     0.00007600   -0.00212525    0.00019609
     atom    7 type  1   force =     0.00013400   -0.00177825   -0.00045469
     atom    8 type  1   force =    -0.00399678    0.00040813   -0.00017567
     atom    9 type  2   force =     0.00617459    0.00444273   -0.00031697
     atom   10 type  2   force =    -0.00006793   -0.02276262    0.00098446
     atom   11 type  1   force =    -0.00216571    0.00221267   -0.00053108
     atom   12 type  1   force =    -0.01322826    0.01084844    0.00005427
     atom   13 type  1   force =    -0.00112709   -0.00761543    0.00030742
     atom   14 type  1   force =    -0.00762833   -0.00397099    0.00045669
     atom   15 type  1   force =     0.00016239    0.00103773   -0.00081549
     atom   16 type  2   force =    -0.00665789    0.00644023    0.00003626
     atom   17 type  2   force =     0.01002757    0.00518952   -0.00003950
     atom   18 type  1   force =     0.00122761   -0.00448889   -0.00035215
     atom   19 type  1   force =    -0.00017145   -0.00206697    0.00022270
     atom   20 type  1   force =     0.00000379   -0.00354632    0.00082436
     atom   21 type  1   force =    -0.00390181    0.00228611   -0.00048402
     atom   22 type  2   force =    -0.00256621    0.00438376   -0.00031707
     atom   23 type  2   force =     0.00008654    0.00625672   -0.00000749
     atom   24 type  1   force =     0.00220813    0.00226144   -0.00054800
     atom   25 type  1   force =     0.01329128    0.01090322    0.00005634
     atom   26 type  1   force =    -0.00107006   -0.01537532   -0.00007952
     atom   27 type  3   force =     0.00000945   -0.00024270    0.00031175
     atom   28 type  3   force =     0.00000077    0.00063919    0.00014842
     atom   29 type  3   force =    -0.00039237   -0.00014527   -0.00046031
     atom   30 type  3   force =    -0.00024498   -0.00016003   -0.00023144
     atom   31 type  1   force =     0.00003264   -0.00000488   -0.00019151
     atom   32 type  1   force =    -0.00004697    0.00042516    0.00013531
     atom   33 type  3   force =     0.00000730    0.00006235    0.00014357

     Total force =     0.002538     Total SCF correction =     0.000247

     entering subroutine stress ...

     negative rho (up, down):  0.158E+01 0.000E+00
          total   stress  (Ry/bohr**3)                   (kbar)     P=  -18.97
  -0.00020438   0.00000000   0.00000398        -30.06      0.00      0.59
   0.00000000  -0.00013241  -0.00000658          0.00    -19.48     -0.97
   0.00000398  -0.00000658  -0.00005000          0.59     -0.97     -7.35

     bfgs converged in   6 scf cycles and   5 bfgs steps
     (criteria: energy < 0.10E-03, force < 0.10E-02)

     End of BFGS Geometry Optimization

     Final energy   =   -2313.7837653661 Ry
Begin final coordinates

ATOMIC_POSITIONS (crystal)
O0       0.000000000   0.000000000   0.377633095    0   0   1
O0       0.000000000   0.500000000   0.401699199    0   0   1
Pt1      0.250000000   0.500000000   0.451292351    0   0   1
Pt1      0.000000000   0.000000000   0.452716202    0   0   1
O0       0.250000000   0.810000000   0.443231954    0   0   1
O0       0.250000000   0.190000000   0.460227720    0   0   1
O0       0.000000000   0.500000000   0.496758902    0   0   1
O0       0.000000000   0.000000000   0.529641365    0   0   1
Pt1      0.250000000   0.000000000   0.575790617    0   0   1
Pt1      0.000000000   0.500000000   0.575243891    0   0   1
O0       0.250000000   0.690000000   0.567058920    0   0   1
O0       0.250000000   0.310000000   0.586279971    0   0   1
O0       0.000000000   0.000000000   0.621324762    0   0   1
O0       0.500000000   0.000000000   0.377509590    0   0   1
O0       0.500000000   0.500000000   0.401116988    0   0   1
Pt1      0.750000000   0.500000000   0.451298529    0   0   1
Pt1      0.500000000   0.000000000   0.452569460    0   0   1
O0       0.750000000   0.810000000   0.443246782    0   0   1
O0       0.750000000   0.190000000   0.460205567    0   0   1
O0       0.500000000   0.500000000   0.498147925    0   0   1
O0       0.500000000   0.000000000   0.529441991    0   0   1
Pt1      0.750000000   0.000000000   0.575788234    0   0   1
Pt1      0.500000000   0.500000000   0.576196317    0   0   1
O0       0.750000000   0.690000000   0.567036696    0   0   1
O0       0.750000000   0.310000000   0.586269862    0   0   1
O0       0.500000000   0.000000000   0.620866149    0   0   1
H2       0.000025941   0.640413600   0.386205283
H2       0.500074231   0.640261925   0.385709580
H2       0.143755430   0.033842883   0.367890652
H2       0.643292777   0.035210591   0.367684337
O0       0.500164236   0.556182905   0.648896011
O0       0.499876569   0.367186294   0.677795881
H2       0.499995287   0.428536951   0.711955217
End final coordinates

     General routines

     Parallel routines
     Hubbard U routines

   This run was terminated on:  11:36: 3  31May2014

   JOB DONE.
Running PBS batch system epilogue script
Job id: 373310.audhumbla.fysik.dtu.dk
Username: zhonxu
Groupname: campgst
Jobname: PtO2/Eads-2-layers/OOH-U-1.5
Sessionid: 10535
Queuename: verylong
Accounting:
This job has allocated the following 16 nodes:
a020 a020 a020 a020 a020 a020 a020 a020 a007 a007 a007 a007 a007 a007 a007 a007
Finished epilogue job 373310.audhumbla.fysik.dtu.dk for zhonxu