     Program PWSCF v.5.0.2 (svn rev. 9656) starts on 10May2014 at  1:16:16

     Current dimensions of program PWSCF are:
     Max number of different atomic species (ntypx) = 10
     Max number of k-points (npk) =  40000
     Max angular momentum in pseudopotentials (lmaxx) =  3
     Reading input from pwscf.in
Warning: card &CELL ignored
Warning: card / ignored

     Subspace diagonalization in iterative solution of the eigenvalue problem:
     a serial algorithm will be used

     bravais-lattice index     =            0
     lattice parameter (alat)  =      10.9604  a.u.
     unit-cell volume          =    6350.6732 (a.u.)^3
     number of atoms/cell      =           30
     number of atomic types    =            3
     number of electrons       =       224.00 (up: 120.00, down: 104.00)
     number of Kohn-Sham states=          324
     kinetic-energy cutoff     =      40.0000  Ry
     charge density cutoff     =     500.0000  Ry
     convergence threshold     =      1.0E-06
     mixing beta               =       0.7000
     number of iterations used =            8  plain     mixing
     Exchange-correlation      = SLA  PW   PBE  PBE ( 1 4 3 4 0)
     EXX-fraction              =        0.00
     nstep                     =           50

     celldm(1)=  10.960412  celldm(2)=   0.000000  celldm(3)=   0.000000
     celldm(4)=   0.000000  celldm(5)=   0.000000  celldm(6)=   0.000000

     crystal axes: (cart. coord. in units of alat)
               a(1) = (   1.000000   0.000000   0.000000 )
               a(2) = (   0.000000   1.067975   0.000000 )
               a(3) = (   0.000000   0.000000   4.516251 )

     reciprocal axes: (cart. coord. in units 2 pi/alat)
               b(1) = (  1.000000  0.000000  0.000000 )
               b(2) = (  0.000000  0.936351  0.000000 )
               b(3) = (  0.000000  0.000000  0.221423 )

     PseudoPot. # 1 for O  read from file:
     /home/camp/zhonxu/pseudo/o_pbe_v1.01.uspp.F.UPF
     MD5 check sum: 2bcb18d16ea4b960afae9ec6d52f22d2
     Pseudo is Ultrasoft + core correction, Zval =  6.0
     Generated by new atomic code, or converted to UPF format
     Using radial grid of  737 points,  5 beta functions with:
                l(1) =   0
                l(2) =   0
                l(3) =   1
                l(4) =   1
                l(5) =   2
     Q(r) pseudized with  8 coefficients,  rinner =    0.900   0.900   0.900
                                                       0.900   0.900

     PseudoPot. # 2 for Cr read from file:
     /home/camp/zhonxu/pseudo/cr_pbe_v1.uspp.F.UPF
     MD5 check sum: 68b6f918d1762dccfb11451fe85b0e0e
     Pseudo is Ultrasoft + core correction, Zval = 14.0
     Generated by new atomic code, or converted to UPF format
     Using radial grid of  857 points,  6 beta functions with:
                l(1) =   0
                l(2) =   0
                l(3) =   1
                l(4) =   1
                l(5) =   2
                l(6) =   2
     Q(r) pseudized with  6 coefficients,  rinner =    1.000   1.000   1.000
                                                       1.000   1.000

     PseudoPot. # 3 for H  read from file:
     /home/camp/zhonxu/pseudo/h_pbe_v1.uspp.F.UPF
     MD5 check sum: 3408e3ff4ec8b0a4e358431e7e038a48
     Pseudo is Ultrasoft, Zval =  1.0
     Generated by new atomic code, or converted to UPF format
     Using radial grid of  615 points,  2 beta functions with:
                l(1) =   0
                l(2) =   0
     Q(r) pseudized with  8 coefficients,  rinner =    0.700

     atomic species   valence    mass     pseudopotential
        O0             6.00    15.99940     O ( 1.00)
        Cr1           14.00    51.99600     Cr( 1.00)
        H2             1.00     1.00794     H ( 1.00)

     Starting magnetic structure
     atomic species   magnetization
        O0           0.000
        Cr1          0.600
        H2           0.000

     Simplified LDA+U calculation (l_max = 2) with parameters (eV):
     atomic species    L          U    alpha       J0     beta
        Cr1            2     7.5000   0.0000   0.0000   0.0000

     No symmetry found

   Cartesian axes

     site n.     atom                  positions (alat units)
         1           O0  tau(   1) = (   0.0000000   0.0000000   1.7181625  )
         2           O0  tau(   2) = (   0.0000000   0.5339875   1.8008551  )
         3           Cr1 tau(   3) = (   0.2500000   0.5339875   2.0300096  )
         4           Cr1 tau(   4) = (   0.0000000   0.0000000   2.0413454  )
         5           O0  tau(   5) = (   0.2500000   0.8543801   2.0369195  )
         6           O0  tau(   6) = (   0.2500000   0.2135950   2.0378227  )
         7           O0  tau(   7) = (   0.0000000   0.5339875   2.2471058  )
         8           O0  tau(   8) = (   0.0000000   0.0000000   2.3700833  )
         9           Cr1 tau(   9) = (   0.2500000   0.0000000   2.6079543  )
        10           Cr1 tau(  10) = (   0.0000000   0.5339875   2.5535334  )
        11           O0  tau(  11) = (   0.2500000   0.7475825   2.5983798  )
        12           O0  tau(  12) = (   0.2500000   0.3203925   2.5982895  )
        13           O0  tau(  13) = (   0.0000000   0.0000000   2.7910882  )
        14           O0  tau(  14) = (   0.5000000   0.0000000   1.7181625  )
        15           O0  tau(  15) = (   0.5000000   0.5339875   1.8008551  )
        16           Cr1 tau(  16) = (   0.7500000   0.5339875   2.0300096  )
        17           Cr1 tau(  17) = (   0.5000000   0.0000000   2.0413454  )
        18           O0  tau(  18) = (   0.7500000   0.8543801   2.0369195  )
        19           O0  tau(  19) = (   0.7500000   0.2135950   2.0378227  )
        20           O0  tau(  20) = (   0.5000000   0.5339875   2.2471058  )
        21           O0  tau(  21) = (   0.5000000   0.0000000   2.3700833  )
        22           Cr1 tau(  22) = (   0.7500000   0.0000000   2.6079543  )
        23           Cr1 tau(  23) = (   0.5000000   0.5339875   2.5535334  )
        24           O0  tau(  24) = (   0.7500000   0.7475825   2.5983798  )
        25           O0  tau(  25) = (   0.7500000   0.3203925   2.5982895  )
        26           O0  tau(  26) = (   0.5000000   0.0000000   2.7910882  )
        27           H2  tau(  27) = (  -0.0006900   0.6851274   1.7196980  )
        28           H2  tau(  28) = (   0.4993100   0.6851274   1.7196980  )
        29           H2  tau(  29) = (   0.1573400   0.0316548   1.6594512  )
        30           H2  tau(  30) = (   0.6573500   0.0316548   1.6594512  )

     number of k points=    20  Methfessel-Paxton smearing, width (Ry)=  0.0100
                       cart. coord. in units 2pi/alat
        k(    1) = (   0.0000000   0.0000000   0.0000000), wk =   0.0625000
        k(    2) = (   0.0000000   0.2340879   0.0000000), wk =   0.1250000
        k(    3) = (   0.0000000  -0.4681757   0.0000000), wk =   0.0625000
        k(    4) = (   0.2500000   0.0000000   0.0000000), wk =   0.1250000
        k(    5) = (   0.2500000   0.2340879   0.0000000), wk =   0.1250000
        k(    6) = (   0.2500000  -0.4681757   0.0000000), wk =   0.1250000
        k(    7) = (  -0.5000000   0.0000000   0.0000000), wk =   0.0625000
        k(    8) = (  -0.5000000   0.2340879   0.0000000), wk =   0.1250000
        k(    9) = (  -0.5000000  -0.4681757   0.0000000), wk =   0.0625000
        k(   10) = (  -0.2500000   0.2340879   0.0000000), wk =   0.1250000
        k(   11) = (   0.0000000   0.0000000   0.0000000), wk =   0.0625000
        k(   12) = (   0.0000000   0.2340879   0.0000000), wk =   0.1250000
        k(   13) = (   0.0000000  -0.4681757   0.0000000), wk =   0.0625000
        k(   14) = (   0.2500000   0.0000000   0.0000000), wk =   0.1250000
        k(   15) = (   0.2500000   0.2340879   0.0000000), wk =   0.1250000
        k(   16) = (   0.2500000  -0.4681757   0.0000000), wk =   0.1250000
        k(   17) = (  -0.5000000   0.0000000   0.0000000), wk =   0.0625000
        k(   18) = (  -0.5000000   0.2340879   0.0000000), wk =   0.1250000
        k(   19) = (  -0.5000000  -0.4681757   0.0000000), wk =   0.0625000
        k(   20) = (  -0.2500000   0.2340879   0.0000000), wk =   0.1250000

     Largest allocated arrays     est. size (Mb)     dimensions
     Largest temporary arrays     est. size (Mb)     dimensions

     Check: negative/imaginary core charge=   -0.000012    0.000000

     Initial potential from superposition of free atoms
     Check: negative starting charge=(component1):   -0.001590
     Check: negative starting charge=(component2):   -0.000511

     starting charge  215.99984, renormalised to  224.00000

     negative rho (up, down):  0.165E-02 0.530E-03
     Number of +U iterations with fixed ns =  0
     Starting occupations:
 --- enter write_ns ---
 LDA+U parameters:
U( 2)     =  7.50000000
alpha( 2) =  0.00000000
atom    3   Tr[ns(na)] (up, down, total) =   5.00000  0.00000  5.00000
   spin  1
    eigenvalues:
  1.000  1.000  1.000  1.000  1.000
    eigenvectors:
  1.000  0.000  0.000  0.000  0.000
  0.000  1.000  0.000  0.000  0.000
  0.000  0.000  1.000  0.000  0.000
  0.000  0.000  0.000  1.000  0.000
  0.000  0.000  0.000  0.000  1.000
    occupations:
  1.000  0.000  0.000  0.000  0.000
  0.000  1.000  0.000  0.000  0.000
  0.000  0.000  1.000  0.000  0.000
  0.000  0.000  0.000  1.000  0.000
  0.000  0.000  0.000  0.000  1.000
   spin  2
    eigenvalues:
  0.000  0.000  0.000  0.000  0.000
    eigenvectors:
  1.000  0.000  0.000  0.000  0.000
  0.000  1.000  0.000  0.000  0.000
  0.000  0.000  1.000  0.000  0.000
  0.000  0.000  0.000  1.000  0.000
  0.000  0.000  0.000  0.000  1.000
    occupations:
  0.000  0.000  0.000  0.000  0.000
  0.000  0.000  0.000  0.000  0.000
  0.000  0.000  0.000  0.000  0.000
  0.000  0.000  0.000  0.000  0.000
  0.000  0.000  0.000  0.000  0.000
atomic mag. moment =     5.000000
atom    4   Tr[ns(na)] (up, down, total) =   5.00000  0.00000  5.00000
   spin  1
    eigenvalues:
  1.000  1.000  1.000  1.000  1.000
    eigenvectors:
  1.000  0.000  0.000  0.000  0.000
  0.000  1.000  0.000  0.000  0.000
  0.000  0.000  1.000  0.000  0.000
  0.000  0.000  0.000  1.000  0.000
  0.000  0.000  0.000  0.000  1.000
    occupations:
  1.000  0.000  0.000  0.000  0.000
  0.000  1.000  0.000  0.000  0.000
  0.000  0.000  1.000  0.000  0.000
  0.000  0.000  0.000  1.000  0.000
  0.000  0.000  0.000  0.000  1.000
   spin  2
    eigenvalues:
  0.000  0.000  0.000  0.000  0.000
    eigenvectors:
  1.000  0.000  0.000  0.000  0.000
  0.000  1.000  0.000  0.000  0.000
  0.000  0.000  1.000  0.000  0.000
  0.000  0.000  0.000  1.000  0.000
  0.000  0.000  0.000  0.000  1.000
    occupations:
  0.000  0.000  0.000  0.000  0.000
  0.000  0.000  0.000  0.000  0.000
  0.000  0.000  0.000  0.000  0.000
  0.000  0.000  0.000  0.000  0.000
  0.000  0.000  0.000  0.000  0.000
atomic mag. moment =     5.000000
atom    9   Tr[ns(na)] (up, down, total) =   5.00000  0.00000  5.00000
   spin  1
    eigenvalues:
  1.000  1.000  1.000  1.000  1.000
    eigenvectors:
  1.000  0.000  0.000  0.000  0.000
  0.000  1.000  0.000  0.000  0.000
  0.000  0.000  1.000  0.000  0.000
[...]
  0.732  0.000  0.037  0.000  0.230
  0.000  0.001  0.000  0.999  0.000
  0.045  0.000  0.955  0.000  0.000
  0.223  0.000  0.008  0.000  0.769
  0.000  0.998  0.000  0.001  0.000
    occupations:
  0.112 -0.000 -0.001  0.105 -0.000
 -0.000  0.253 -0.000 -0.000  0.007
 -0.001 -0.000  0.070  0.005  0.000
  0.105 -0.000  0.005  0.246 -0.000
 -0.000  0.007  0.000 -0.000  0.067
atomic mag. moment =     3.028323
atom    4   Tr[ns(na)] (up, down, total) =   3.79713  0.73616  4.53330
   spin  1
    eigenvalues:
  0.466  0.493  0.912  0.935  0.992
    eigenvectors:
  0.000  0.997  0.000  0.001  0.002
  0.000  0.001  0.011  0.988  0.000
  0.000  0.000  0.989  0.011  0.000
  0.000  0.002  0.000  0.000  0.998
  1.000  0.000  0.000  0.000  0.000
    occupations:
  0.494 -0.016 -0.001  0.020  0.000
 -0.016  0.934  0.002  0.002  0.000
 -0.001  0.002  0.912 -0.000  0.002
  0.020  0.002 -0.000  0.991 -0.000
  0.000  0.000  0.002 -0.000  0.466
   spin  2
    eigenvalues:
  0.060  0.063  0.065  0.256  0.291
    eigenvectors:
  0.000  0.010  0.000  0.990  0.000
  0.041  0.069  0.889  0.001  0.000
  0.953  0.016  0.030  0.000  0.000
  0.005  0.905  0.080  0.009  0.000
  0.000  0.000  0.000  0.000  1.000
    occupations:
  0.254  0.006  0.001 -0.019  0.000
  0.006  0.065 -0.001 -0.000 -0.000
  0.001 -0.001  0.060  0.000  0.000
 -0.019 -0.000  0.000  0.065 -0.000
  0.000 -0.000  0.000 -0.000  0.291
atomic mag. moment =     3.060970
atom    9   Tr[ns(na)] (up, down, total) =   3.79391  0.78426  4.57817
   spin  1
    eigenvalues:
  0.506  0.525  0.838  0.930  0.994
    eigenvectors:
  0.000  0.222  0.000  0.000  0.778
  0.998  0.002  0.000  0.000  0.000
  0.000  0.000  1.000  0.000  0.000
  0.001  0.777  0.000  0.000  0.222
  0.000  0.000  0.000  1.000  0.000
    occupations:
  0.890  0.000 -0.000 -0.195 -0.000
  0.000  0.507  0.001  0.001 -0.000
 -0.000  0.001  0.838 -0.001 -0.000
 -0.195  0.001 -0.001  0.629  0.000
 -0.000 -0.000 -0.000  0.000  0.930
   spin  2
    eigenvalues:
  0.064  0.072  0.072  0.266  0.311
    eigenvectors:
  0.797  0.000  0.000  0.000  0.203
  0.000  0.000  0.000  1.000  0.000
  0.000  1.000  0.000  0.000  0.000
  0.203  0.000  0.000  0.000  0.797
  0.000  0.000  1.000  0.000  0.000
    occupations:
  0.114 -0.000  0.000  0.099 -0.000
 -0.000  0.266 -0.000 -0.000  0.000
  0.000 -0.000  0.072  0.000 -0.000
  0.099 -0.000  0.000  0.260 -0.000
 -0.000  0.000 -0.000 -0.000  0.072
atomic mag. moment =     3.009645
atom   10   Tr[ns(na)] (up, down, total) =   3.80599  0.66773  4.47372
   spin  1
    eigenvalues:
  0.426  0.489  0.938  0.961  0.993
    eigenvectors:
  0.999  0.000  0.000  0.000  0.001
  0.000  0.000  0.000  1.000  0.000
  0.000  0.000  1.000  0.000  0.000
  0.001  0.000  0.000  0.000  0.999
  0.000  1.000  0.000  0.000  0.000
    occupations:
  0.426  0.000 -0.005  0.021 -0.000
  0.000  0.961  0.000 -0.000 -0.001
 -0.005  0.000  0.938  0.000 -0.000
  0.021 -0.000  0.000  0.992  0.000
 -0.000 -0.001 -0.000  0.000  0.489
   spin  2
    eigenvalues:
  0.061  0.066  0.075  0.182  0.284
    eigenvectors:
  0.018  0.000  0.000  0.982  0.000
  0.000  0.000  1.000  0.000  0.000
  0.000  1.000  0.000  0.000  0.000
  0.982  0.000  0.000  0.018  0.000
  0.000  0.000  0.000  0.000  1.000
    occupations:
  0.180 -0.000 -0.000 -0.016  0.000
 -0.000  0.075  0.000  0.000  0.001
 -0.000  0.000  0.066 -0.000  0.000
 -0.016  0.000 -0.000  0.063 -0.000
  0.000  0.001  0.000 -0.000  0.284
atomic mag. moment =     3.138261
atom   16   Tr[ns(na)] (up, down, total) =   3.77572  0.74739  4.52311
   spin  1
    eigenvalues:
  0.433  0.491  0.895  0.964  0.993
    eigenvectors:
  0.000  0.259  0.001  0.000  0.741
  1.000  0.000  0.000  0.000  0.000
  0.000  0.000  0.999  0.000  0.000
  0.000  0.741  0.000  0.000  0.259
  0.000  0.000  0.000  1.000  0.000
    occupations:
  0.863 -0.000 -0.001 -0.220 -0.000
 -0.000  0.433 -0.000 -0.000 -0.005
 -0.001 -0.000  0.895 -0.006  0.001
 -0.220 -0.000 -0.006  0.621 -0.000
 -0.000 -0.005  0.001 -0.000  0.963
   spin  2
    eigenvalues:
  0.054  0.067  0.071  0.253  0.303
    eigenvectors:
  0.732  0.000  0.037  0.000  0.230
  0.000  0.001  0.000  0.999  0.000
  0.045  0.000  0.955  0.000  0.000
  0.223  0.000  0.008  0.000  0.769
  0.000  0.998  0.000  0.001  0.000
    occupations:
  0.112 -0.000 -0.001  0.105 -0.000
 -0.000  0.253 -0.000 -0.000  0.007
 -0.001 -0.000  0.070  0.005  0.000
  0.105 -0.000  0.005  0.246 -0.000
 -0.000  0.007  0.000 -0.000  0.067
atomic mag. moment =     3.028323
atom   17   Tr[ns(na)] (up, down, total) =   3.79714  0.73616  4.53330
   spin  1
    eigenvalues:
  0.466  0.493  0.912  0.935  0.992
    eigenvectors:
  0.000  0.997  0.000  0.001  0.002
  0.000  0.001  0.011  0.988  0.000
  0.000  0.000  0.989  0.011  0.000
  0.000  0.002  0.000  0.000  0.998
  1.000  0.000  0.000  0.000  0.000
    occupations:
  0.494 -0.016 -0.001  0.020  0.000
 -0.016  0.934  0.002  0.002  0.000
 -0.001  0.002  0.912 -0.000  0.002
  0.020  0.002 -0.000  0.991 -0.000
  0.000  0.000  0.002 -0.000  0.466
   spin  2
    eigenvalues:
  0.060  0.063  0.065  0.256  0.291
    eigenvectors:
  0.000  0.010  0.000  0.990  0.000
  0.041  0.069  0.889  0.001  0.000
  0.953  0.016  0.030  0.000  0.000
  0.005  0.905  0.080  0.009  0.000
  0.000  0.000  0.000  0.000  1.000
    occupations:
  0.254  0.006  0.001 -0.019  0.000
  0.006  0.065 -0.001 -0.000 -0.000
  0.001 -0.001  0.060  0.000  0.000
 -0.019 -0.000  0.000  0.065 -0.000
  0.000 -0.000  0.000 -0.000  0.291
atomic mag. moment =     3.060973
atom   22   Tr[ns(na)] (up, down, total) =   3.79390  0.78426  4.57817
   spin  1
    eigenvalues:
  0.506  0.525  0.838  0.930  0.994
    eigenvectors:
  0.000  0.222  0.000  0.000  0.778
  0.998  0.002  0.000  0.000  0.000
  0.000  0.000  1.000  0.000  0.000
  0.001  0.777  0.000  0.000  0.222
  0.000  0.000  0.000  1.000  0.000
    occupations:
  0.890  0.000 -0.000 -0.195 -0.000
  0.000  0.507  0.001  0.001 -0.000
 -0.000  0.001  0.838 -0.001 -0.000
 -0.195  0.001 -0.001  0.629  0.000
 -0.000 -0.000 -0.000  0.000  0.930
   spin  2
    eigenvalues:
  0.064  0.072  0.072  0.266  0.311
    eigenvectors:
  0.797  0.000  0.000  0.000  0.203
  0.000  0.000  0.000  1.000  0.000
  0.000  1.000  0.000  0.000  0.000
  0.203  0.000  0.000  0.000  0.797
  0.000  0.000  1.000  0.000  0.000
    occupations:
  0.114 -0.000  0.000  0.099 -0.000
 -0.000  0.266 -0.000 -0.000  0.000
  0.000 -0.000  0.072  0.000 -0.000
  0.099 -0.000  0.000  0.260 -0.000
 -0.000  0.000 -0.000 -0.000  0.072
atomic mag. moment =     3.009643
atom   23   Tr[ns(na)] (up, down, total) =   3.80598  0.66773  4.47370
   spin  1
    eigenvalues:
  0.426  0.489  0.938  0.961  0.993
    eigenvectors:
  0.999  0.000  0.000  0.000  0.001
  0.000  0.000  0.000  1.000  0.000
  0.000  0.000  1.000  0.000  0.000
  0.001  0.000  0.000  0.000  0.999
  0.000  1.000  0.000  0.000  0.000
    occupations:
  0.426  0.000 -0.005  0.021 -0.000
  0.000  0.961  0.000 -0.000 -0.001
 -0.005  0.000  0.938  0.000 -0.000
  0.021 -0.000  0.000  0.992  0.000
 -0.000 -0.001 -0.000  0.000  0.489
   spin  2
    eigenvalues:
  0.061  0.066  0.075  0.182  0.284
    eigenvectors:
  0.018  0.000  0.000  0.982  0.000
  0.000  0.000  1.000  0.000  0.000
  0.000  1.000  0.000  0.000  0.000
  0.982  0.000  0.000  0.018  0.000
  0.000  0.000  0.000  0.000  1.000
    occupations:
  0.180 -0.000 -0.000 -0.016  0.000
 -0.000  0.075  0.000  0.000  0.001
 -0.000  0.000  0.066 -0.000  0.000
 -0.016  0.000 -0.000  0.063 -0.000
  0.000  0.001  0.000 -0.000  0.284
atomic mag. moment =     3.138249
N of occupied +U levels =  36.2165754
 --- exit write_ns ---

 ------ SPIN UP ------------

[...]

 ------ SPIN DOWN ----------

[...]

          k = 0.2500-0.4682 0.0000 ( 27150 PWs)   bands (ev):

[...]

          k =-0.2500 0.2341 0.0000 ( 27132 PWs)   bands (ev):

   -72.0800 -72.0685 -71.8888 -71.8782 -71.8195 -71.8155 -71.8085 -71.8038
   -43.6232 -43.6119 -43.5053 -43.4399 -43.4180 -43.3756 -43.3691 -43.3581
   -43.3491 -43.3293 -43.3089 -43.2781 -43.2549 -43.2289 -43.2117 -43.1958
   -43.1629 -43.1494 -43.1263 -43.1261 -43.1224 -43.1028 -43.1004 -42.9936
   -21.2381 -20.8547 -20.6360 -20.5818 -20.3320 -20.2794 -20.2494 -20.2369
   -20.0699 -20.0139 -19.9503 -19.8867 -19.7688 -19.7664 -19.6681 -19.6569
   -19.5831 -19.5360  -8.4197  -8.3175  -8.0125  -7.7721  -7.7081  -7.4295
    -7.3214  -7.2144  -7.0569  -6.9984  -6.7894  -6.7823  -6.7236  -6.6420
    -6.6101  -6.5071  -6.4562  -6.1352  -6.1180  -6.0212  -5.9471  -5.8402
    -5.7406  -5.6862  -5.6846  -5.5387  -5.4332  -5.3724  -5.3376  -5.2974
    -5.2625  -5.1533  -5.1335  -5.0643  -4.9958  -4.9192  -4.8781  -4.6215
    -4.5792  -4.5749  -4.3986  -4.3322  -4.2381  -4.2078  -4.1567  -4.1439
    -4.0977  -4.0351  -4.0105  -3.9559  -3.8565  -3.6766  -3.6477  -3.5167
     2.2337   2.3990   2.8865   2.9676   3.0241   3.0519   3.1260   3.1326
     3.1846   3.2346   3.2356   3.3009   3.3358   3.4039   3.4611   3.5181
     3.6051   3.6619   3.6838   3.7458   3.8074   3.8634   3.8753   3.8938
     3.9668   4.0125   4.0470   4.1029   4.1036   4.1716   4.2076   4.2153
     4.3170   4.3414   4.3695   4.3847   4.4492   4.5072   4.5567   4.6030
     4.6877   4.6960   4.8009   4.9060   5.3707   5.7081   5.8087   6.0121
     6.0637   6.2067   6.4022   6.5205   6.6523   6.8375   6.8844   7.2215
     7.3799   7.6062   7.6500   7.8516   8.0538   8.1807   8.3645   8.4886
     8.4914   8.6901   8.7902   8.8254   9.0159   9.2143   9.2251   9.3201
     9.3659   9.5693   9.8067   9.9547   9.9962   9.9995  10.1292  10.1429
    10.3276  10.4348  10.5829  10.6829  10.7513  10.8613  10.9493  11.0461
    11.1645  11.2621  11.3525  11.4151  11.4931  11.6261  11.6560  11.7263
    11.8374  11.8760  12.0308  12.1366  12.2066  12.2419  12.3118  12.4391
    12.5959  12.6082  12.7495  12.7518  12.8247  12.9368  12.9419  13.0816
    13.1154  13.1578  13.2210  13.2589  13.3499  13.4189  13.4902  13.6134
    13.7126  13.7878  13.8142  14.0038  14.0505  14.1119  14.1868  14.2298
    14.2415  14.3872  14.4240  14.5570  14.5989  14.6852  14.7365  14.8496
    14.8983  14.9760  15.1360  15.1615  15.1714  15.2030  15.4122  15.5434
    15.6381  15.6634  15.8694  15.9162  15.9904  16.0477  16.1818  16.1925
    16.2137  16.2945  16.2953  16.4420  16.4980  16.5683  16.7584  16.7882
    16.8370  16.8699  16.9184  17.0263  17.0704  17.2031  17.2670  17.3240
    17.4061  17.4707  17.5852  17.6380  17.6609  17.7787  17.8139  17.8403
    17.9741  18.0226  18.0712  18.1285  18.2524  18.2708  18.3179  18.3536
    18.4606  18.5074  18.6192  18.7424  18.7682  18.9091  18.9596  19.0349
    19.0473  19.1102  19.2577  19.3235  19.4296  19.4541  19.5687  19.6829
    19.7120  19.7153  19.8603  19.8677  19.8789  19.9980  20.0562  20.1577
    20.1583  20.3192  20.4013  20.4378  20.4855  20.5635  20.5679  20.7889
    20.8359  20.9327  21.0008  21.0898

     the spin up/dw Fermi energies are    -2.4537   -2.5902 ev

!    total energy              =   -1990.29904640 Ry
     Harris-Foulkes estimate   =   -1990.29904641 Ry
     estimated scf accuracy    <          8.0E-09 Ry

     The total energy is the sum of the following terms:

     one-electron contribution =  -22751.88000816 Ry
     hartree contribution      =   11394.74957646 Ry
     xc contribution           =    -315.82194540 Ry
     ewald contribution        =    9679.96374512 Ry
     Hubbard energy            =       2.68969799 Ry
     smearing contrib. (-TS)   =      -0.00011241 Ry

     total magnetization       =    16.00 Bohr mag/cell
     absolute magnetization    =    32.73 Bohr mag/cell

     convergence has been achieved in  21 iterations

     Forces acting on atoms (Ry/au):

     negative rho (up, down):  0.634E-02 0.171E-02
     atom    1 type  1   force =    -0.00390153   -0.00948321   -0.00046344
     atom    2 type  1   force =     0.00004032    0.00442159    0.00027315
     atom    3 type  2   force =    -0.00029244    0.00264002   -0.00011806
     atom    4 type  2   force =     0.00378127    0.00442920    0.00002228
     atom    5 type  1   force =     0.00112163    0.00733011    0.00007420
     atom    6 type  1   force =    -0.00030333   -0.00632101   -0.00010460
     atom    7 type  1   force =    -0.00000009   -0.00291287   -0.00021947
     atom    8 type  1   force =    -0.00110448    0.00009784    0.00051578
     atom    9 type  2   force =     0.00063183    0.00040579   -0.00036217
     atom   10 type  2   force =    -0.00016831   -0.00030644    0.00015579
     atom   11 type  1   force =    -0.00021124   -0.04132815   -0.00006977
     atom   12 type  1   force =     0.00021438    0.04195651   -0.00005811
     atom   13 type  1   force =    -0.00025168   -0.00031983    0.00010597
     atom   14 type  1   force =    -0.00390261   -0.00948410   -0.00046211
     atom   15 type  1   force =     0.00004026    0.00442493    0.00028140
     atom   16 type  2   force =    -0.00033501    0.00264006   -0.00011736
     atom   17 type  2   force =     0.00378135    0.00442951    0.00002067
     atom   18 type  1   force =     0.00111614    0.00733015    0.00007430
     atom   19 type  1   force =    -0.00030870   -0.00632110   -0.00010465
     atom   20 type  1   force =     0.00000037   -0.00291333   -0.00022671
     atom   21 type  1   force =    -0.00110362    0.00009775    0.00051379
     atom   22 type  2   force =     0.00063610    0.00040546   -0.00036245
     atom   23 type  2   force =    -0.00016420   -0.00030608    0.00012095
     atom   24 type  1   force =    -0.00020325   -0.04132838   -0.00007002
     atom   25 type  1   force =     0.00022253    0.04195658   -0.00005844
     atom   26 type  1   force =    -0.00025108   -0.00031979    0.00010925
     atom   27 type  3   force =    -0.00005124   -0.00043025   -0.00036381
     atom   28 type  3   force =    -0.00005124   -0.00043231   -0.00036251
     atom   29 type  3   force =     0.00050856   -0.00017942    0.00062888
     atom   30 type  3   force =     0.00050930   -0.00017923    0.00062726

     Total force =     0.001904     Total SCF correction =     0.000235
     SCF correction compared to forces is large: reduce conv_thr to get better values

     bfgs converged in  17 scf cycles and  16 bfgs steps
     (criteria: energy < 0.10E-03, force < 0.10E-02)

     End of BFGS Geometry Optimization

     Final energy   =   -1990.2990464034 Ry
Begin final coordinates

ATOMIC_POSITIONS (crystal)
O0       0.000000000   0.000000000   0.374220485    0   0   1
O0       0.000000000   0.500000000   0.393799406    0   0   1
Cr1      0.250000000   0.500000000   0.446623436    0   0   1
Cr1      0.000000000   0.000000000   0.450551047    0   0   1
O0       0.250000000   0.800000000   0.448800780    0   0   1
O0       0.250000000   0.200000000   0.448807649    0   0   1
O0       0.000000000   0.500000000   0.497910647    0   0   1
O0       0.000000000   0.000000000   0.527625172    0   0   1
Cr1      0.250000000   0.000000000   0.580025942    0   0   1
Cr1      0.000000000   0.500000000   0.570570571    0   0   1
O0       0.250000000   0.700000000   0.580187887    0   0   1
O0       0.250000000   0.300000000   0.580432512    0   0   1
O0       0.000000000   0.000000000   0.629077292    0   0   1
O0       0.500000000   0.000000000   0.374220593    0   0   1
O0       0.500000000   0.500000000   0.393798957    0   0   1
Cr1      0.750000000   0.500000000   0.446623412    0   0   1
Cr1      0.500000000   0.000000000   0.450551322    0   0   1
O0       0.750000000   0.800000000   0.448800731    0   0   1
O0       0.750000000   0.200000000   0.448807660    0   0   1
O0       0.500000000   0.500000000   0.497912318    0   0   1
O0       0.500000000   0.000000000   0.527625256    0   0   1
Cr1      0.750000000   0.000000000   0.580025953    0   0   1
Cr1      0.500000000   0.500000000   0.570573674    0   0   1
O0       0.750000000   0.700000000   0.580187902    0   0   1
O0       0.750000000   0.300000000   0.580432528    0   0   1
O0       0.500000000   0.000000000   0.629076932    0   0   1
H2      -0.000669385   0.637787691   0.374761241
H2       0.499330628   0.637789513   0.374761412
H2       0.158607241   0.028373605   0.361633382
H2       0.658607859   0.028373265   0.361633901
End final coordinates

     General routines

     Parallel routines
     Hubbard U routines

   This run was terminated on:  15: 8:32  11May2014

   JOB DONE.
Running PBS batch system epilogue script
Job id: 340925.audhumbla.fysik.dtu.dk
Username: zhonxu
Groupname: campgst
Jobname: CrO2/Eads-2-layers/bare-U-7.5
Sessionid: 30200
Queuename: verylong
Accounting:
This job has allocated the following 16 nodes:
c054 c054 c054 c054 c054 c054 c054 c054 c023 c023 c023 c023 c023 c023 c023 c023
Finished epilogue job 340925.audhumbla.fysik.dtu.dk for zhonxu