     Program PWSCF v.5.0.2 (svn rev. 9656) starts on 23Jan2014 at 20:54:26

     Current dimensions of program PWSCF are:
     Max number of different atomic species (ntypx) = 10
     Max number of k-points (npk) =  40000
     Max angular momentum in pseudopotentials (lmaxx) =  3
     Reading input from MoO2-v-1.2.in

     Subspace diagonalization in iterative solution of the eigenvalue problem:
     a serial algorithm will be used

     bravais-lattice index     =            0
     lattice parameter (alat)  =       9.2016  a.u.
     unit-cell volume          =     502.0761 (a.u.)^3
     number of atoms/cell      =            6
     number of atomic types    =            2
     number of electrons       =        52.00
     number of Kohn-Sham states=           78
     kinetic-energy cutoff     =      40.0000  Ry
     charge density cutoff     =     500.0000  Ry
     convergence threshold     =      1.0E-06
     mixing beta               =       0.7000
     number of iterations used =            8  plain     mixing
     Exchange-correlation      = SLA  PW   PBE  PBE ( 1 4 3 4 0)
     EXX-fraction              =        0.00
     nstep                     =           50

     celldm(1)=   9.201558  celldm(2)=   0.000000  celldm(3)=   0.000000
     celldm(4)=   0.000000  celldm(5)=   0.000000  celldm(6)=   0.000000

     crystal axes: (cart. coord. in units of alat)
               a(1) = (   1.000000   0.000000   0.000000 )
               a(2) = (   0.000000   1.000000   0.000000 )
               a(3) = (   0.000000   0.000000   0.644444 )

     reciprocal axes: (cart. coord. in units 2 pi/alat)
               b(1) = (  1.000000  0.000000  0.000000 )
               b(2) = (  0.000000  1.000000  0.000000 )
               b(3) = (  0.000000  0.000000  1.551724 )

     PseudoPot. # 1 for Mo read from file:
     /home/camp/zhonxu/pseudo/mo_pbe_v1.uspp.F.UPF
     MD5 check sum: 30c4dcd161f5d35cd49bb5239c51a633
     Pseudo is Ultrasoft + core correction, Zval = 14.0
     Generated by new atomic code, or converted to UPF format
     Using radial grid of  889 points,  6 beta functions with:
                l(1) =   0
                l(2) =   0
                l(3) =   1
                l(4) =   1
                l(5) =   2
                l(6) =   2
     Q(r) pseudized with  6 coefficients,  rinner =    1.000   1.000   1.000
                                                       1.000   1.000

     PseudoPot. # 2 for O  read from file:
     /home/camp/zhonxu/pseudo/o_pbe_v1.01.uspp.F.UPF
     MD5 check sum: 2bcb18d16ea4b960afae9ec6d52f22d2
     Pseudo is Ultrasoft + core correction, Zval =  6.0
     Generated by new atomic code, or converted to UPF format
     Using radial grid of  737 points,  5 beta functions with:
                l(1) =   0
                l(2) =   0
                l(3) =   1
                l(4) =   1
                l(5) =   2
     Q(r) pseudized with  8 coefficients,  rinner =    0.900   0.900   0.900
                                                       0.900   0.900

     atomic species   valence    mass     pseudopotential
        Mo0           14.00    95.94000     Mo( 1.00)
        O1             6.00    15.99940     O ( 1.00)

     Starting magnetic structure
     atomic species   magnetization
        Mo0          0.600
        O1           0.000

      8 Sym. Ops., with inversion, found
          (note:  8 additional sym.ops. were found but ignored
           their fractional translations are incommensurate with FFT grid)

   Cartesian axes

     site n.     atom                  positions (alat units)
         1           Mo0 tau(   1) = (   0.0000000   0.0000000   0.0000000  )
         2           Mo0 tau(   2) = (   0.5000000   0.5000000   0.3222222  )
         3           O1  tau(   3) = (   0.3050000   0.3050000   0.0000000  )
         4           O1  tau(   4) = (  -0.3050000  -0.3050000   0.0000000  )
         5           O1  tau(   5) = (   0.8050000   0.1950000   0.3222222  )
         6           O1  tau(   6) = (   0.1950000   0.8050000   0.3222222  )

     number of k points=    54  Methfessel-Paxton smearing, width (Ry)=  0.0100
                       cart. coord. in units 2pi/alat
        k(    1) = (   0.0000000   0.0000000   0.0000000), wk =   0.0080000
        k(    2) = (   0.0000000   0.0000000   0.3103448), wk =   0.0160000
        k(    3) = (   0.0000000   0.0000000   0.6206897), wk =   0.0160000
        k(    4) = (   0.0000000   0.2000000   0.0000000), wk =   0.0320000
        k(    5) = (   0.0000000   0.2000000   0.3103448), wk =   0.0640000
        k(    6) = (   0.0000000   0.2000000   0.6206897), wk =   0.0640000
        k(    7) = (   0.0000000   0.4000000   0.0000000), wk =   0.0320000
        k(    8) = (   0.0000000   0.4000000   0.3103448), wk =   0.0640000
        k(    9) = (   0.0000000   0.4000000   0.6206897), wk =   0.0640000
        k(   10) = (   0.2000000   0.2000000   0.0000000), wk =   0.0160000
        k(   11) = (   0.2000000   0.2000000   0.3103448), wk =   0.0320000
        k(   12) = (   0.2000000   0.2000000   0.6206897), wk =   0.0320000
        k(   13) = (   0.2000000   0.4000000   0.0000000), wk =   0.0320000
        k(   14) = (   0.2000000   0.4000000   0.3103448), wk =   0.0640000
        k(   15) = (   0.2000000   0.4000000   0.6206897), wk =   0.0640000
        k(   16) = (   0.4000000   0.4000000   0.0000000), wk =   0.0160000
        k(   17) = (   0.4000000   0.4000000   0.3103448), wk =   0.0320000
        k(   18) = (   0.4000000   0.4000000   0.6206897), wk =   0.0320000
        k(   19) = (  -0.2000000   0.2000000   0.0000000), wk =   0.0160000
        k(   20) = (  -0.2000000   0.2000000  -0.3103448), wk =   0.0320000
        k(   21) = (  -0.2000000   0.2000000  -0.6206897), wk =   0.0320000
        k(   22) = (  -0.2000000   0.4000000   0.0000000), wk =   0.0320000
        k(   23) = (  -0.2000000   0.4000000  -0.3103448), wk =   0.0640000
        k(   24) = (  -0.2000000   0.4000000  -0.6206897), wk =   0.0640000
        k(   25) = (  -0.4000000   0.4000000   0.0000000), wk =   0.0160000
        k(   26) = (  -0.4000000   0.4000000  -0.3103448), wk =   0.0320000
        k(   27) = (  -0.4000000   0.4000000  -0.6206897), wk =   0.0320000
        k(   28) = (   0.0000000   0.0000000   0.0000000), wk =   0.0080000
        k(   29) = (   0.0000000   0.0000000   0.3103448), wk =   0.0160000
        k(   30) = (   0.0000000   0.0000000   0.6206897), wk =   0.0160000
        k(   31) = (   0.0000000   0.2000000   0.0000000), wk =   0.0320000
        k(   32) = (   0.0000000   0.2000000   0.3103448), wk =   0.0640000
        k(   33) = (   0.0000000   0.2000000   0.6206897), wk =   0.0640000
        k(   34) = (   0.0000000   0.4000000   0.0000000), wk =   0.0320000
        k(   35) = (   0.0000000   0.4000000   0.3103448), wk =   0.0640000
        k(   36) = (   0.0000000   0.4000000   0.6206897), wk =   0.0640000
        k(   37) = (   0.2000000   0.2000000   0.0000000), wk =   0.0160000
        k(   38) = (   0.2000000   0.2000000   0.3103448), wk =   0.0320000
        k(   39) = (   0.2000000   0.2000000   0.6206897), wk =   0.0320000
        k(   40) = (   0.2000000   0.4000000   0.0000000), wk =   0.0320000
        k(   41) = (   0.2000000   0.4000000   0.3103448), wk =   0.0640000
        k(   42) = (   0.2000000   0.4000000   0.6206897), wk =   0.0640000
        k(   43) = (   0.4000000   0.4000000   0.0000000), wk =   0.0160000
        k(   44) = (   0.4000000   0.4000000   0.3103448), wk =   0.0320000
        k(   45) = (   0.4000000   0.4000000   0.6206897), wk =   0.0320000
        k(   46) = (  -0.2000000   0.2000000   0.0000000), wk =   0.0160000
        k(   47) = (  -0.2000000   0.2000000  -0.3103448), wk =   0.0320000
        k(   48) = (  -0.2000000   0.2000000  -0.6206897), wk =   0.0320000
        k(   49) = (  -0.2000000   0.4000000   0.0000000), wk =   0.0320000
        k(   50) = (  -0.2000000   0.4000000  -0.3103448), wk =   0.0640000
        k(   51) = (  -0.2000000   0.4000000  -0.6206897), wk =   0.0640000
        k(   52) = (  -0.4000000   0.4000000   0.0000000), wk =   0.0160000
        k(   53) = (  -0.4000000   0.4000000  -0.3103448), wk =   0.0320000
        k(   54) = (  -0.4000000   0.4000000  -0.6206897), wk =   0.0320000

     Largest allocated arrays     est. size (Mb)     dimensions
     Largest temporary arrays     est. size (Mb)     dimensions

     Check: negative/imaginary core charge=   -0.000007    0.000000

     Initial potential from superposition of free atoms

     starting charge   51.99787, renormalised to   52.00000
     Starting wfc are   42 randomized atomic wfcs

     Self-consistent Calculation

     iteration #  1     ecut=    40.00 Ry     beta=0.70
     Davidson diagonalization with overlap
     ethr =  1.00E-02,  avg # of iterations =  5.3

     negative rho (up, down):  0.000E+00 0.155E-02

     total energy              =    -406.64920921 Ry
     Harris-Foulkes estimate   =    -407.13091019 Ry
     estimated scf accuracy    <       2.57847211 Ry

     total magnetization       =     4.00 Bohr mag/cell
     absolute magnetization    =     5.12 Bohr mag/cell

[...]

     End of self-consistent calculation

 ------ SPIN UP ------------

          k = 0.0000 0.0000 0.0000 (  2127 PWs)   bands (ev):

   -51.4604 -51.4525 -25.6545 -25.6544 -25.5428 -25.5426 -25.4296 -25.4046
    -8.4236  -7.7213  -6.9281  -6.9276   3.4103   3.4451   4.5540   5.0344
     5.0347   6.9330   6.9331   7.3641   8.2932   8.5217   8.5217   9.0061
     9.7945  10.1913  10.4869  10.5712  10.5713  13.0019  13.2117  15.3550
    16.0409  16.0413  17.0881  19.4580  19.4581  22.8014  23.9164  24.3216
    25.3428  26.3119  26.3120  26.7066  28.5727  29.3834  30.1777  30.1778
    31.0341  31.0341  32.5963  35.1159  35.2134  35.2135  35.8902  36.6436
    37.8595  38.1378  38.5824  38.7715  38.8618  38.8619  39.2168  39.2168
    40.1174  40.5840  40.5841  42.3044  42.8745  44.6210  44.6212  45.1123
    45.5237  46.0290  46.0290  46.5136  46.7553  47.5297

[...]

          k =-0.2000 0.2000 0.0000 (  2131 PWs)   bands (ev):

[...]

 ------ SPIN DOWN ----------

[...]

     the Fermi energy is    11.4615 ev

!    total energy              =    -407.75593650 Ry
     Harris-Foulkes estimate   =    -407.75593668 Ry
     estimated scf accuracy    <       0.00000035 Ry

     The total energy is the sum of the following terms:

     one-electron contribution =    -128.46256745 Ry
     hartree contribution      =      90.21300920 Ry
     xc contribution           =     -67.21196605 Ry
     ewald contribution        =    -302.29421942 Ry
     smearing contrib. (-TS)   =      -0.00019278 Ry

[...]

     convergence has been achieved in  10 iterations

     Forces acting on atoms (Ry/au):

     negative rho (up, down):  0.000E+00 0.208E-02
     atom    1 type  1   force =     0.00000000    0.00000000    0.00000000
     atom    2 type  1   force =     0.00000000    0.00000000    0.00000000
     atom    3 type  2   force =    -0.00426088   -0.00426088    0.00000000
     atom    4 type  2   force =     0.00426088    0.00426088   -0.00000000
[...]
        k(    5) = (   0.0000021   0.2031372   0.3008330), wk =   0.0640000
        k(    6) = (   0.0000021   0.2031372   0.6016660), wk =   0.0640000
        k(    7) = (   0.0000042   0.4062745   0.0000000), wk =   0.0320000
        k(    8) = (   0.0000042   0.4062745   0.3008330), wk =   0.0640000
        k(    9) = (   0.0000042   0.4062745   0.6016660), wk =   0.0640000
        k(   10) = (   0.2031393   0.2031393   0.0000000), wk =   0.0160000
        k(   11) = (   0.2031393   0.2031393   0.3008330), wk =   0.0320000
        k(   12) = (   0.2031393   0.2031393   0.6016660), wk =   0.0320000
        k(   13) = (   0.2031414   0.4062766   0.0000000), wk =   0.0320000
        k(   14) = (   0.2031414   0.4062766   0.3008330), wk =   0.0640000
        k(   15) = (   0.2031414   0.4062766   0.6016660), wk =   0.0640000
        k(   16) = (   0.4062787   0.4062787   0.0000000), wk =   0.0160000
        k(   17) = (   0.4062787   0.4062787   0.3008330), wk =   0.0320000
        k(   18) = (   0.4062787   0.4062787   0.6016660), wk =   0.0320000
        k(   19) = (  -0.2031351   0.2031351   0.0000000), wk =   0.0160000
        k(   20) = (  -0.2031351   0.2031351  -0.3008330), wk =   0.0320000
        k(   21) = (  -0.2031351   0.2031351  -0.6016660), wk =   0.0320000
        k(   22) = (  -0.2031330   0.4062723   0.0000000), wk =   0.0320000
        k(   23) = (  -0.2031330   0.4062723  -0.3008330), wk =   0.0640000
        k(   24) = (  -0.2031330   0.4062723  -0.6016660), wk =   0.0640000
        k(   25) = (  -0.4062702   0.4062702   0.0000000), wk =   0.0160000
        k(   26) = (  -0.4062702   0.4062702  -0.3008330), wk =   0.0320000
        k(   27) = (  -0.4062702   0.4062702  -0.6016660), wk =   0.0320000
        k(   28) = (   0.0000000   0.0000000   0.0000000), wk =   0.0080000
        k(   29) = (   0.0000000   0.0000000   0.3008330), wk =   0.0160000
        k(   30) = (   0.0000000   0.0000000   0.6016660), wk =   0.0160000
        k(   31) = (   0.0000021   0.2031372   0.0000000), wk =   0.0320000
        k(   32) = (   0.0000021   0.2031372   0.3008330), wk =   0.0640000
        k(   33) = (   0.0000021   0.2031372   0.6016660), wk =   0.0640000
        k(   34) = (   0.0000042   0.4062745   0.0000000), wk =   0.0320000
        k(   35) = (   0.0000042   0.4062745   0.3008330), wk =   0.0640000
        k(   36) = (   0.0000042   0.4062745   0.6016660), wk =   0.0640000
        k(   37) = (   0.2031393   0.2031393   0.0000000), wk =   0.0160000
        k(   38) = (   0.2031393   0.2031393   0.3008330), wk =   0.0320000
        k(   39) = (   0.2031393   0.2031393   0.6016660), wk =   0.0320000
        k(   40) = (   0.2031414   0.4062766   0.0000000), wk =   0.0320000
        k(   41) = (   0.2031414   0.4062766   0.3008330), wk =   0.0640000
        k(   42) = (   0.2031414   0.4062766   0.6016660), wk =   0.0640000
        k(   43) = (   0.4062787   0.4062787   0.0000000), wk =   0.0160000
        k(   44) = (   0.4062787   0.4062787   0.3008330), wk =   0.0320000
        k(   45) = (   0.4062787   0.4062787   0.6016660), wk =   0.0320000
        k(   46) = (  -0.2031351   0.2031351   0.0000000), wk =   0.0160000
        k(   47) = (  -0.2031351   0.2031351  -0.3008330), wk =   0.0320000
        k(   48) = (  -0.2031351   0.2031351  -0.6016660), wk =   0.0320000
        k(   49) = (  -0.2031330   0.4062723   0.0000000), wk =   0.0320000
        k(   50) = (  -0.2031330   0.4062723  -0.3008330), wk =   0.0640000
        k(   51) = (  -0.2031330   0.4062723  -0.6016660), wk =   0.0640000
        k(   52) = (  -0.4062702   0.4062702   0.0000000), wk =   0.0160000
        k(   53) = (  -0.4062702   0.4062702  -0.3008330), wk =   0.0320000
        k(   54) = (  -0.4062702   0.4062702  -0.6016660), wk =   0.0320000

[...]

     Threshold (ethr) on eigenvalues was too large:
     Diagonalizing with lowered threshold

     Davidson diagonalization with overlap
     ethr =  3.78E-09,  avg # of iterations =  1.9

[...]

     Total force =     0.000052     Total SCF correction =     0.000006
     SCF correction compared to forces is large: reduce conv_thr to get better values

[...]

     Volume is kept fixed: isostatic pressure set to zero

     bfgs converged in   8 scf cycles and   7 bfgs steps
     (criteria: energy < 0.10E-03, force < 0.10E-02, cell < 0.50E+00)

     End of BFGS Geometry Optimization

     Final enthalpy =    -407.7608380610 Ry
Begin final coordinates
     new unit-cell volume =    502.07609 a.u.^3 (    74.40000 Ang^3 )

CELL_PARAMETERS (alat=  9.20155768)
   0.984556129  -0.000010196   0.000000000
  -0.000010196   0.984556129   0.000000000
   0.000000000   0.000000000   0.664820686

ATOMIC_POSITIONS (crystal)
Mo0      0.000000000   0.000000000   0.000000000    0   0   0
Mo0      0.500000000   0.500000000   0.500000000    0   0   0
O1       0.305478053   0.305478053   0.000000000    1   1   0
O1      -0.305478053  -0.305478053   0.000000000    1   1   0
O1       0.805480888   0.194519112   0.500000000    1   1   0
O1       0.194519112   0.805480888   0.500000000    1   1   0
End final coordinates

     A final scf calculation at the relaxed structure.
     The G-vectors are recalculated for the final unit cell
     Results may differ from those at the preceding step.

     bravais-lattice index     =            0
     lattice parameter (alat)  =       9.2016  a.u.
     unit-cell volume          =     502.0761 (a.u.)^3
     number of atoms/cell      =            6
     number of atomic types    =            2
     number of electrons       =        52.00
     number of Kohn-Sham states=           78
     kinetic-energy cutoff     =      40.0000  Ry
     charge density cutoff     =     500.0000  Ry
     convergence threshold     =      1.0E-08
     mixing beta               =       0.7000
     number of iterations used =            8  plain     mixing
     Exchange-correlation      = SLA  PW   PBE  PBE ( 1 4 3 4 0)
     EXX-fraction              =        0.00

     celldm(1)=   9.201558  celldm(2)=   0.000000  celldm(3)=   0.000000
     celldm(4)=   0.000000  celldm(5)=   0.000000  celldm(6)=   0.000000

     crystal axes: (cart. coord. in units of alat)
               a(1) = (   0.984556  -0.000010   0.000000 )
               a(2) = (  -0.000010   0.984556   0.000000 )
               a(3) = (   0.000000   0.000000   0.664821 )

     reciprocal axes: (cart. coord. in units 2 pi/alat)
               b(1) = (  1.015686  0.000011 -0.000000 )
               b(2) = (  0.000011  1.015686 -0.000000 )
               b(3) = ( -0.000000 -0.000000  1.504165 )

     PseudoPot. # 1 for Mo read from file:
     /home/camp/zhonxu/pseudo/mo_pbe_v1.uspp.F.UPF
     MD5 check sum: 30c4dcd161f5d35cd49bb5239c51a633
     Pseudo is Ultrasoft + core correction, Zval = 14.0
     Generated by new atomic code, or converted to UPF format
     Using radial grid of  889 points,  6 beta functions with:
                l(1) =   0
                l(2) =   0
                l(3) =   1
                l(4) =   1
                l(5) =   2
                l(6) =   2
     Q(r) pseudized with  6 coefficients,  rinner =    1.000   1.000   1.000
                                                       1.000   1.000

     PseudoPot. # 2 for O  read from file:
     /home/camp/zhonxu/pseudo/o_pbe_v1.01.uspp.F.UPF
     MD5 check sum: 2bcb18d16ea4b960afae9ec6d52f22d2
     Pseudo is Ultrasoft + core correction, Zval =  6.0
     Generated by new atomic code, or converted to UPF format
     Using radial grid of  737 points,  5 beta functions with:
                l(1) =   0
                l(2) =   0
                l(3) =   1
                l(4) =   1
                l(5) =   2
     Q(r) pseudized with  8 coefficients,  rinner =    0.900   0.900   0.900
                                                       0.900   0.900

     atomic species   valence    mass     pseudopotential
        Mo0           14.00    95.94000     Mo( 1.00)
        O1             6.00    15.99940     O ( 1.00)

     Starting magnetic structure
     atomic species   magnetization
        Mo0          0.600
        O1           0.000

      8 Sym. Ops., with inversion, found
          (note:  8 additional sym.ops. were found but ignored
           their fractional translations are incommensurate with FFT grid)

   Cartesian axes

     site n.     atom                  positions (alat units)
         1           Mo0 tau(   1) = (   0.0000000   0.0000000   0.0000000  )
         2           Mo0 tau(   2) = (   0.4922730   0.4922730   0.3324103  )
         3           O1  tau(   3) = (   0.3007572   0.3007572   0.0000000  )
         4           O1  tau(   4) = (  -0.3007572  -0.3007572   0.0000000  )
         5           O1  tau(   5) = (   0.7930392   0.1915068   0.3324103  )
         6           O1  tau(   6) = (   0.1915068   0.7930392   0.3324103  )

     number of k points=    54  Methfessel-Paxton smearing, width (Ry)=  0.0100
                       cart. coord. in units 2pi/alat
        k(    1) = (   0.0000000   0.0000000   0.0000000), wk =   0.0080000
        k(    2) = (   0.0000000   0.0000000   0.3008330), wk =   0.0160000
        k(    3) = (   0.0000000   0.0000000   0.6016660), wk =   0.0160000
        k(    4) = (   0.0000021   0.2031372   0.0000000), wk =   0.0320000
        k(    5) = (   0.0000021   0.2031372   0.3008330), wk =   0.0640000
        k(    6) = (   0.0000021   0.2031372   0.6016660), wk =   0.0640000
        k(    7) = (   0.0000042   0.4062745   0.0000000), wk =   0.0320000
        k(    8) = (   0.0000042   0.4062745   0.3008330), wk =   0.0640000
        k(    9) = (   0.0000042   0.4062745   0.6016660), wk =   0.0640000
        k(   10) = (   0.2031393   0.2031393   0.0000000), wk =   0.0160000
        k(   11) = (   0.2031393   0.2031393   0.3008330), wk =   0.0320000
        k(   12) = (   0.2031393   0.2031393   0.6016660), wk =   0.0320000
        k(   13) = (   0.2031414   0.4062766   0.0000000), wk =   0.0320000
        k(   14) = (   0.2031414   0.4062766   0.3008330), wk =   0.0640000
        k(   15) = (   0.2031414   0.4062766   0.6016660), wk =   0.0640000
        k(   16) = (   0.4062787   0.4062787   0.0000000), wk =   0.0160000
        k(   17) = (   0.4062787   0.4062787   0.3008330), wk =   0.0320000
        k(   18) = (   0.4062787   0.4062787   0.6016660), wk =   0.0320000
        k(   19) = (  -0.2031351   0.2031351   0.0000000), wk =   0.0160000
        k(   20) = (  -0.2031351   0.2031351  -0.3008330), wk =   0.0320000
        k(   21) = (  -0.2031351   0.2031351  -0.6016660), wk =   0.0320000
        k(   22) = (  -0.2031330   0.4062723   0.0000000), wk =   0.0320000
        k(   23) = (  -0.2031330   0.4062723  -0.3008330), wk =   0.0640000
        k(   24) = (  -0.2031330   0.4062723  -0.6016660), wk =   0.0640000
        k(   25) = (  -0.4062702   0.4062702   0.0000000), wk =   0.0160000
        k(   26) = (  -0.4062702   0.4062702  -0.3008330), wk =   0.0320000
        k(   27) = (  -0.4062702   0.4062702  -0.6016660), wk =   0.0320000
        k(   28) = (   0.0000000   0.0000000   0.0000000), wk =   0.0080000
        k(   29) = (   0.0000000   0.0000000   0.3008330), wk =   0.0160000
        k(   30) = (   0.0000000   0.0000000   0.6016660), wk =   0.0160000
        k(   31) = (   0.0000021   0.2031372   0.0000000), wk =   0.0320000
        k(   32) = (   0.0000021   0.2031372   0.3008330), wk =   0.0640000
        k(   33) = (   0.0000021   0.2031372   0.6016660), wk =   0.0640000
        k(   34) = (   0.0000042   0.4062745   0.0000000), wk =   0.0320000
        k(   35) = (   0.0000042   0.4062745   0.3008330), wk =   0.0640000
        k(   36) = (   0.0000042   0.4062745   0.6016660), wk =   0.0640000
        k(   37) = (   0.2031393   0.2031393   0.0000000), wk =   0.0160000
        k(   38) = (   0.2031393   0.2031393   0.3008330), wk =   0.0320000
        k(   39) = (   0.2031393   0.2031393   0.6016660), wk =   0.0320000
        k(   40) = (   0.2031414   0.4062766   0.0000000), wk =   0.0320000
        k(   41) = (   0.2031414   0.4062766   0.3008330), wk =   0.0640000
        k(   42) = (   0.2031414   0.4062766   0.6016660), wk =   0.0640000
        k(   43) = (   0.4062787   0.4062787   0.0000000), wk =   0.0160000
        k(   44) = (   0.4062787   0.4062787   0.3008330), wk =   0.0320000
        k(   45) = (   0.4062787   0.4062787   0.6016660), wk =   0.0320000
        k(   46) = (  -0.2031351   0.2031351   0.0000000), wk =   0.0160000
        k(   47) = (  -0.2031351   0.2031351  -0.3008330), wk =   0.0320000
        k(   48) = (  -0.2031351   0.2031351  -0.6016660), wk =   0.0320000
        k(   49) = (  -0.2031330   0.4062723   0.0000000), wk =   0.0320000
        k(   50) = (  -0.2031330   0.4062723  -0.3008330), wk =   0.0640000
        k(   51) = (  -0.2031330   0.4062723  -0.6016660), wk =   0.0640000
        k(   52) = (  -0.4062702   0.4062702   0.0000000), wk =   0.0160000
        k(   53) = (  -0.4062702   0.4062702  -0.3008330), wk =   0.0320000
        k(   54) = (  -0.4062702   0.4062702  -0.6016660), wk =   0.0320000

     Largest allocated arrays     est. size (Mb)     dimensions
     Largest temporary arrays     est. size (Mb)     dimensions

     Check: negative/imaginary core charge=   -0.000007    0.000000

     Initial potential from superposition of free atoms

     starting charge   51.99787, renormalised to   52.00000
     Starting wfc are   42 randomized atomic wfcs

     Self-consistent Calculation

[...]

     total energy              =    -407.76082794 Ry
     Harris-Foulkes estimate   =    -407.76082788 Ry
     estimated scf accuracy    <       0.00000010 Ry

[...]

     iteration # 11     ecut=    40.00 Ry     beta=0.70
     Davidson diagonalization with overlap
     ethr =  2.00E-10,  avg # of iterations =  2.0

     negative rho (up, down):  0.000E+00 0.210E-02

     End of self-consistent calculation

 ------ SPIN UP ------------

[...]

 ------ SPIN DOWN ----------

[...]

          k = 0.4063 0.4063 0.6017 (  2139 PWs)   bands (ev):

[...]

          k =-0.4063 0.4063-0.6017 (  2139 PWs)   bands (ev):

   -50.1840 -50.1838 -24.3763 -24.3714 -24.2347 -24.2283 -24.0263 -24.0263
    -7.4670  -7.3148  -7.2805  -7.1243   4.9237   5.0661   5.1600   5.2703
     5.8064   6.0837   6.9193   6.9754   7.7986   7.9491   8.3498   8.4866
    12.0369  12.4185  12.8797  13.0550  13.1143  13.3050  15.0432  15.4931
    15.9885  16.4229  20.1442  20.4844  21.7070  22.5446  22.7758  23.4833
    24.4663  24.7974  27.3028  27.4735  28.7524  29.2435  30.4960  30.9221
    32.6374  32.7958  32.8569  33.9395  35.8479  35.9239  36.9358  37.2748
    38.0536  38.6082  39.2135  40.0406  40.6154  40.7651  41.0304  41.5771
    41.8137  41.9905  42.2106  42.7049  43.6171  43.8959  44.3392  45.5887
    45.7418  46.3073  46.3721  46.9187  47.0696  47.9185

     the Fermi energy is    11.4028 ev

!    total energy              =    -407.76082799 Ry
     Harris-Foulkes estimate   =    -407.76082798 Ry
     estimated scf accuracy    <          6.4E-09 Ry

     The total energy is the sum of the following terms:

     one-electron contribution =    -125.73692982 Ry
     hartree contribution      =      88.88655517 Ry
     xc contribution           =     -67.17983126 Ry
     ewald contribution        =    -303.73059715 Ry
     smearing contrib. (-TS)   =      -0.00002492 Ry

     total magnetization       =     4.00 Bohr mag/cell
     absolute magnetization    =     4.11 Bohr mag/cell

     convergence has been achieved in  11 iterations

     Forces acting on atoms (Ry/au):

     negative rho (up, down):  0.000E+00 0.210E-02
     atom    1 type  1   force =     0.00000000    0.00000000    0.00000000
     atom    2 type  1   force =     0.00000000    0.00000000    0.00000000
     atom    3 type  2   force =     0.00005638    0.00005638    0.00000000
     atom    4 type  2   force =    -0.00005638   -0.00005638    0.00000000
     atom    5 type  2   force =     0.00005054   -0.00005054    0.00000000
     atom    6 type  2   force =    -0.00005054    0.00005054    0.00000000

     Total force =     0.000151     Total SCF correction =     0.000039
     SCF correction compared to forces is large: reduce conv_thr to get better values

     entering subroutine stress ...

     negative rho (up, down):  0.000E+00 0.210E-02
          total   stress  (Ry/bohr**3)                   (kbar)     P= -140.09
  -0.00095232   0.00000020   0.00000000       -140.09      0.03      0.00
   0.00000020  -0.00095232   0.00000000          0.03   -140.09      0.00
   0.00000000   0.00000000  -0.00095221          0.00      0.00   -140.07

     General routines

     Parallel routines

   This run was terminated on:  21:56:29  23Jan2014

   JOB DONE.