     Program PWSCF v.5.0.2 (svn rev. 9656) starts on 24Jan2014 at 15:47:26

     Current dimensions of program PWSCF are:
     Max number of different atomic species (ntypx) = 10
     Max number of k-points (npk) =  40000
     Max angular momentum in pseudopotentials (lmaxx) =  3
     Reading input from NbO2-v-0.90.in

     Subspace diagonalization in iterative solution of the eigenvalue problem:
     a serial algorithm will be used

     bravais-lattice index     =            0
     lattice parameter (alat)  =       8.7997  a.u.
     unit-cell volume          =     439.1202 (a.u.)^3
     number of atoms/cell      =            6
     number of atomic types    =            2
     number of electrons       =        50.00
     number of Kohn-Sham states=           75
     kinetic-energy cutoff     =      40.0000  Ry
     charge density cutoff     =     500.0000  Ry
     convergence threshold     =      1.0E-06
     mixing beta               =       0.3000
     number of iterations used =            8  plain     mixing
     Exchange-correlation      = SLA  PW   PBE  PBE ( 1 4 3 4 0)
     EXX-fraction              =        0.00
     nstep                     =           50

     celldm(1)=   8.799662  celldm(2)=   0.000000  celldm(3)=   0.000000
     celldm(4)=   0.000000  celldm(5)=   0.000000  celldm(6)=   0.000000

     crystal axes: (cart. coord. in units of alat)
               a(1) = (   1.000000   0.000000   0.000000 )
               a(2) = (   0.000000   1.000000   0.000000 )
               a(3) = (   0.000000   0.000000   0.644444 )

     reciprocal axes: (cart. coord. in units 2 pi/alat)
               b(1) = (  1.000000  0.000000  0.000000 )
               b(2) = (  0.000000  1.000000  0.000000 )
               b(3) = (  0.000000  0.000000  1.551724 )

     PseudoPot. # 1 for Nb read from file:
     /home/camp/zhonxu/pseudo/nb_pbe_v1.uspp.F.UPF
     MD5 check sum: 573aab8a2fa660278ed4a62cd769473f
     Pseudo is Ultrasoft + core correction, Zval = 13.0
     Generated by new atomic code, or converted to UPF format
     Using radial grid of  887 points,  6 beta functions with:
                l(1) =   0
                l(2) =   0
                l(3) =   1
                l(4) =   1
                l(5) =   2
                l(6) =   2
     Q(r) pseudized with  6 coefficients,  rinner =    1.000   1.000   1.000
                                                       1.000   1.000

     PseudoPot. # 2 for O  read from file:
     /home/camp/zhonxu/pseudo/o_pbe_v1.01.uspp.F.UPF
     MD5 check sum: 2bcb18d16ea4b960afae9ec6d52f22d2
     Pseudo is Ultrasoft + core correction, Zval =  6.0
     Generated by new atomic code, or converted to UPF format
     Using radial grid of  737 points,  5 beta functions with:
                l(1) =   0
                l(2) =   0
                l(3) =   1
                l(4) =   1
                l(5) =   2
     Q(r) pseudized with  8 coefficients,  rinner =    0.900   0.900   0.900
                                                       0.900   0.900

     atomic species   valence    mass     pseudopotential
        Nb0           13.00    92.90640     Nb( 1.00)
        O1             6.00    15.99940     O ( 1.00)

     Starting magnetic structure
     atomic species   magnetization
        Nb0          0.600
        O1           0.000

      8 Sym. Ops., with inversion, found
          (note:  8 additional sym.ops. were found but ignored
           their fractional translations are incommensurate with FFT grid)

   Cartesian axes

     site n.     atom                  positions (alat units)
         1           Nb0 tau(   1) = (   0.0000000   0.0000000   0.0000000  )
         2           Nb0 tau(   2) = (   0.5000000   0.5000000   0.3222222  )
         3           O1  tau(   3) = (   0.3050000   0.3050000   0.0000000  )
         4           O1  tau(   4) = (  -0.3050000  -0.3050000   0.0000000  )
         5           O1  tau(   5) = (   0.8050000   0.1950000   0.3222222  )
         6           O1  tau(   6) = (   0.1950000   0.8050000   0.3222222  )

     number of k points=    54  Methfessel-Paxton smearing, width (Ry)=  0.0100
                       cart. coord. in units 2pi/alat
        k(    1) = (   0.0000000   0.0000000   0.0000000), wk =   0.0080000
        k(    2) = (   0.0000000   0.0000000   0.3103448), wk =   0.0160000
        k(    3) = (   0.0000000   0.0000000   0.6206897), wk =   0.0160000
        k(    4) = (   0.0000000   0.2000000   0.0000000), wk =   0.0320000
        k(    5) = (   0.0000000   0.2000000   0.3103448), wk =   0.0640000
        k(    6) = (   0.0000000   0.2000000   0.6206897), wk =   0.0640000
        k(    7) = (   0.0000000   0.4000000   0.0000000), wk =   0.0320000
        k(    8) = (   0.0000000   0.4000000   0.3103448), wk =   0.0640000
        k(    9) = (   0.0000000   0.4000000   0.6206897), wk =   0.0640000
        k(   10) = (   0.2000000   0.2000000   0.0000000), wk =   0.0160000
        k(   11) = (   0.2000000   0.2000000   0.3103448), wk =   0.0320000
        k(   12) = (   0.2000000   0.2000000   0.6206897), wk =   0.0320000
        k(   13) = (   0.2000000   0.4000000   0.0000000), wk =   0.0320000
        k(   14) = (   0.2000000   0.4000000   0.3103448), wk =   0.0640000
        k(   15) = (   0.2000000   0.4000000   0.6206897), wk =   0.0640000
        k(   16) = (   0.4000000   0.4000000   0.0000000), wk =   0.0160000
        k(   17) = (   0.4000000   0.4000000   0.3103448), wk =   0.0320000
        k(   18) = (   0.4000000   0.4000000   0.6206897), wk =   0.0320000
        k(   19) = (  -0.2000000   0.2000000   0.0000000), wk =   0.0160000
        k(   20) = (  -0.2000000   0.2000000  -0.3103448), wk =   0.0320000
        k(   21) = (  -0.2000000   0.2000000  -0.6206897), wk =   0.0320000
        k(   22) = (  -0.2000000   0.4000000   0.0000000), wk =   0.0320000
        k(   23) = (  -0.2000000   0.4000000  -0.3103448), wk =   0.0640000
        k(   24) = (  -0.2000000   0.4000000  -0.6206897), wk =   0.0640000
        k(   25) = (  -0.4000000   0.4000000   0.0000000), wk =   0.0160000
        k(   26) = (  -0.4000000   0.4000000  -0.3103448), wk =   0.0320000
        k(   27) = (  -0.4000000   0.4000000  -0.6206897), wk =   0.0320000
        k(   28) = (   0.0000000   0.0000000   0.0000000), wk =   0.0080000
        k(   29) = (   0.0000000   0.0000000   0.3103448), wk =   0.0160000
        k(   30) = (   0.0000000   0.0000000   0.6206897), wk =   0.0160000
        k(   31) = (   0.0000000   0.2000000   0.0000000), wk =   0.0320000
        k(   32) = (   0.0000000   0.2000000   0.3103448), wk =   0.0640000
        k(   33) = (   0.0000000   0.2000000   0.6206897), wk =   0.0640000
        k(   34) = (   0.0000000   0.4000000   0.0000000), wk =   0.0320000
        k(   35) = (   0.0000000   0.4000000   0.3103448), wk =   0.0640000
        k(   36) = (   0.0000000   0.4000000   0.6206897), wk =   0.0640000
        k(   37) = (   0.2000000   0.2000000   0.0000000), wk =   0.0160000
        k(   38) = (   0.2000000   0.2000000   0.3103448), wk =   0.0320000
        k(   39) = (   0.2000000   0.2000000   0.6206897), wk =   0.0320000
        k(   40) = (   0.2000000   0.4000000   0.0000000), wk =   0.0320000
        k(   41) = (   0.2000000   0.4000000   0.3103448), wk =   0.0640000
        k(   42) = (   0.2000000   0.4000000   0.6206897), wk =   0.0640000
        k(   43) = (   0.4000000   0.4000000   0.0000000), wk =   0.0160000
        k(   44) = (   0.4000000   0.4000000   0.3103448), wk =   0.0320000
        k(   45) = (   0.4000000   0.4000000   0.6206897), wk =   0.0320000
        k(   46) = (  -0.2000000   0.2000000   0.0000000), wk =   0.0160000
        k(   47) = (  -0.2000000   0.2000000  -0.3103448), wk =   0.0320000
        k(   48) = (  -0.2000000   0.2000000  -0.6206897), wk =   0.0320000
        k(   49) = (  -0.2000000   0.4000000   0.0000000), wk =   0.0320000
        k(   50) = (  -0.2000000   0.4000000  -0.3103448), wk =   0.0640000
        k(   51) = (  -0.2000000   0.4000000  -0.6206897), wk =   0.0640000
        k(   52) = (  -0.4000000   0.4000000   0.0000000), wk =   0.0160000
        k(   53) = (  -0.4000000   0.4000000  -0.3103448), wk =   0.0320000
        k(   54) = (  -0.4000000   0.4000000  -0.6206897), wk =   0.0320000

     Largest allocated arrays     est. size (Mb)     dimensions
     Largest temporary arrays     est. size (Mb)     dimensions

     Check: negative/imaginary core charge=   -0.000007    0.000000

     Initial potential from superposition of free atoms

     starting charge   49.99453, renormalised to   50.00000
     Starting wfc are   42 randomized atomic wfcs

     Self-consistent Calculation

     iteration #  1     ecut=    40.00 Ry     beta=0.30
     Davidson diagonalization with overlap
     ethr =  1.00E-02,  avg # of iterations =  5.4

     total energy              =    -364.20940243 Ry
     Harris-Foulkes estimate   =    -364.85792366 Ry
     estimated scf accuracy    <       3.51564136 Ry

     total magnetization       =     2.00 Bohr mag/cell
     absolute magnetization    =     2.83 Bohr mag/cell

[...]

     End of self-consistent calculation

 ------ SPIN UP ------------

          k = 0.0000 0.0000 0.0000 (  1883 PWs)   bands (ev):

   -41.8846 -41.8492 -18.3299 -18.3299 -17.9622 -17.9104 -17.9104 -17.8791
    -6.5841  -5.9779  -4.3468  -4.3467   5.2424   5.4799   6.1774   7.0622
     7.0623   9.2358   9.2358   9.7617  10.5578  10.6344  10.6344  11.2788
    14.2740  14.5061  15.2035  15.4259  15.4259  18.4997  18.5880  18.8940
    21.5921  21.5922  22.8042  22.8042  23.0154  26.2844  28.5943  29.3519
    29.5711  29.6709  30.7846  30.7846  33.1598  33.9212  34.1436  34.1436
    34.8048  34.8048  35.8912  40.1985  40.1985  40.4545  40.7854  41.3358
    42.6480  43.4432  43.4432  43.8873  43.8873  43.9829  45.0651  45.2015
    46.4812  46.4812  46.5251  46.6868  48.0199  50.1836  50.5656  50.5657
    51.5701  51.6134  51.8578

[...]

          k =-0.2000 0.2000 0.0000 (  1893 PWs)   bands (ev):

[...]

 ------ SPIN DOWN ----------

[...]

     the Fermi energy is    15.0787 ev

!    total energy              =    -365.22856277 Ry
     Harris-Foulkes estimate   =    -365.22856129 Ry
     estimated scf accuracy    <       0.00000070 Ry

     The total energy is the sum of the following terms:

     one-electron contribution =     -83.68697383 Ry
     hartree contribution      =      72.09756279 Ry
     xc contribution           =     -66.19166306 Ry
     ewald contribution        =    -287.44741953 Ry
     smearing contrib. (-TS)   =      -0.00006914 Ry

[...]

     convergence has been achieved in  22 iterations

     Forces acting on atoms (Ry/au):

     atom    1 type  1   force =     0.00000000    0.00000000    0.00000000
     atom    2 type  1   force =     0.00000000    0.00000000    0.00000000
     atom    3 type  2   force =    -0.03415122   -0.03415122    0.00000000
     atom    4 type  2   force =     0.03415122    0.03415122    0.00000000
     atom    5 type  2   force =    -0.03416568    0.03416568    0.00000000
     atom    6 type  2   force =     0.03416568   -0.03416568    0.00000000

[...]
        k(    6) = (   0.0000000   0.1948032   0.6542480), wk =   0.0640000
        k(    7) = (   0.0000001   0.3896064   0.0000000), wk =   0.0320000
        k(    8) = (   0.0000001   0.3896064   0.3271240), wk =   0.0640000
        k(    9) = (   0.0000001   0.3896064   0.6542480), wk =   0.0640000
        k(   10) = (   0.1948032   0.1948032   0.0000000), wk =   0.0160000
        k(   11) = (   0.1948032   0.1948032   0.3271240), wk =   0.0320000
        k(   12) = (   0.1948032   0.1948032   0.6542480), wk =   0.0320000
        k(   13) = (   0.1948032   0.3896064   0.0000000), wk =   0.0320000
        k(   14) = (   0.1948032   0.3896064   0.3271240), wk =   0.0640000
        k(   15) = (   0.1948032   0.3896064   0.6542480), wk =   0.0640000
        k(   16) = (   0.3896064   0.3896064   0.0000000), wk =   0.0160000
        k(   17) = (   0.3896064   0.3896064   0.3271240), wk =   0.0320000
        k(   18) = (   0.3896064   0.3896064   0.6542480), wk =   0.0320000
        k(   19) = (  -0.1948031   0.1948031   0.0000000), wk =   0.0160000
        k(   20) = (  -0.1948031   0.1948031  -0.3271240), wk =   0.0320000
        k(   21) = (  -0.1948031   0.1948031  -0.6542480), wk =   0.0320000
        k(   22) = (  -0.1948031   0.3896063   0.0000000), wk =   0.0320000
        k(   23) = (  -0.1948031   0.3896063  -0.3271240), wk =   0.0640000
        k(   24) = (  -0.1948031   0.3896063  -0.6542480), wk =   0.0640000
        k(   25) = (  -0.3896063   0.3896063   0.0000000), wk =   0.0160000
        k(   26) = (  -0.3896063   0.3896063  -0.3271240), wk =   0.0320000
        k(   27) = (  -0.3896063   0.3896063  -0.6542480), wk =   0.0320000
        k(   28) = (   0.0000000   0.0000000   0.0000000), wk =   0.0080000
        k(   29) = (   0.0000000   0.0000000   0.3271240), wk =   0.0160000
        k(   30) = (   0.0000000   0.0000000   0.6542480), wk =   0.0160000
        k(   31) = (   0.0000000   0.1948032   0.0000000), wk =   0.0320000
        k(   32) = (   0.0000000   0.1948032   0.3271240), wk =   0.0640000
        k(   33) = (   0.0000000   0.1948032   0.6542480), wk =   0.0640000
        k(   34) = (   0.0000001   0.3896064   0.0000000), wk =   0.0320000
        k(   35) = (   0.0000001   0.3896064   0.3271240), wk =   0.0640000
        k(   36) = (   0.0000001   0.3896064   0.6542480), wk =   0.0640000
        k(   37) = (   0.1948032   0.1948032   0.0000000), wk =   0.0160000
        k(   38) = (   0.1948032   0.1948032   0.3271240), wk =   0.0320000
        k(   39) = (   0.1948032   0.1948032   0.6542480), wk =   0.0320000
        k(   40) = (   0.1948032   0.3896064   0.0000000), wk =   0.0320000
        k(   41) = (   0.1948032   0.3896064   0.3271240), wk =   0.0640000
        k(   42) = (   0.1948032   0.3896064   0.6542480), wk =   0.0640000
        k(   43) = (   0.3896064   0.3896064   0.0000000), wk =   0.0160000
        k(   44) = (   0.3896064   0.3896064   0.3271240), wk =   0.0320000
        k(   45) = (   0.3896064   0.3896064   0.6542480), wk =   0.0320000
        k(   46) = (  -0.1948031   0.1948031   0.0000000), wk =   0.0160000
        k(   47) = (  -0.1948031   0.1948031  -0.3271240), wk =   0.0320000
        k(   48) = (  -0.1948031   0.1948031  -0.6542480), wk =   0.0320000
        k(   49) = (  -0.1948031   0.3896063   0.0000000), wk =   0.0320000
        k(   50) = (  -0.1948031   0.3896063  -0.3271240), wk =   0.0640000
        k(   51) = (  -0.1948031   0.3896063  -0.6542480), wk =   0.0640000
        k(   52) = (  -0.3896063   0.3896063   0.0000000), wk =   0.0160000
        k(   53) = (  -0.3896063   0.3896063  -0.3271240), wk =   0.0320000
        k(   54) = (  -0.3896063   0.3896063  -0.6542480), wk =   0.0320000

[...]

     Threshold (ethr) on eigenvalues was too large:
     Diagonalizing with lowered threshold

     Davidson diagonalization with overlap
     ethr =  1.25E-08,  avg # of iterations =  1.4

[...]

     Total force =     0.000088     Total SCF correction =     0.000007

[...]

     Volume is kept fixed: isostatic pressure set to zero

     bfgs converged in   8 scf cycles and   7 bfgs steps
     (criteria: energy < 0.10E-03, force < 0.10E-02, cell < 0.50E+00)

     End of BFGS Geometry Optimization

     Final enthalpy =    -365.2476930127 Ry
Begin final coordinates
     new unit-cell volume =    439.12020 a.u.^3 (    65.07090 Ang^3 )

CELL_PARAMETERS (alat=  8.79966175)
   1.026677300  -0.000000148   0.000000000
  -0.000000148   1.026677300   0.000000000
   0.000000000   0.000000000   0.611388921

ATOMIC_POSITIONS (crystal)
Nb0      0.000000000   0.000000000   0.000000000    0   0   0
Nb0      0.500000000   0.500000000   0.500000000    0   0   0
O1       0.289358796   0.289358796   0.000000000    1   1   0
O1      -0.289358796  -0.289358796   0.000000000    1   1   0
O1       0.789359054   0.210640946   0.500000000    1   1   0
O1       0.210640946   0.789359054   0.500000000    1   1   0
End final coordinates

     A final scf calculation at the relaxed structure.
     The G-vectors are recalculated for the final unit cell
     Results may differ from those at the preceding step.

     bravais-lattice index     =            0
     lattice parameter (alat)  =       8.7997  a.u.
     unit-cell volume          =     439.1202 (a.u.)^3
     number of atoms/cell      =            6
     number of atomic types    =            2
     number of electrons       =        50.00
     number of Kohn-Sham states=           75
     kinetic-energy cutoff     =      40.0000  Ry
     charge density cutoff     =     500.0000  Ry
     convergence threshold     =      1.1E-08
     mixing beta               =       0.3000
     number of iterations used =            8  plain     mixing
     Exchange-correlation      = SLA  PW   PBE  PBE ( 1 4 3 4 0)
     EXX-fraction              =        0.00

     celldm(1)=   8.799662  celldm(2)=   0.000000  celldm(3)=   0.000000
     celldm(4)=   0.000000  celldm(5)=   0.000000  celldm(6)=   0.000000

     crystal axes: (cart. coord. in units of alat)
               a(1) = (   1.026677  -0.000000   0.000000 )
               a(2) = (  -0.000000   1.026677   0.000000 )
               a(3) = (   0.000000   0.000000   0.611389 )

     reciprocal axes: (cart. coord. in units 2 pi/alat)
               b(1) = (  0.974016  0.000000 -0.000000 )
               b(2) = (  0.000000  0.974016 -0.000000 )
               b(3) = ( -0.000000 -0.000000  1.635620 )

     PseudoPot. # 1 for Nb read from file:
     /home/camp/zhonxu/pseudo/nb_pbe_v1.uspp.F.UPF
     MD5 check sum: 573aab8a2fa660278ed4a62cd769473f
     Pseudo is Ultrasoft + core correction, Zval = 13.0
     Generated by new atomic code, or converted to UPF format
     Using radial grid of  887 points,  6 beta functions with:
                l(1) =   0
                l(2) =   0
                l(3) =   1
                l(4) =   1
                l(5) =   2
                l(6) =   2
     Q(r) pseudized with  6 coefficients,  rinner =    1.000   1.000   1.000
                                                       1.000   1.000

     PseudoPot. # 2 for O  read from file:
     /home/camp/zhonxu/pseudo/o_pbe_v1.01.uspp.F.UPF
     MD5 check sum: 2bcb18d16ea4b960afae9ec6d52f22d2
     Pseudo is Ultrasoft + core correction, Zval =  6.0
     Generated by new atomic code, or converted to UPF format
     Using radial grid of  737 points,  5 beta functions with:
                l(1) =   0
                l(2) =   0
                l(3) =   1
                l(4) =   1
                l(5) =   2
     Q(r) pseudized with  8 coefficients,  rinner =    0.900   0.900   0.900
                                                       0.900   0.900

     atomic species   valence    mass     pseudopotential
        Nb0           13.00    92.90640     Nb( 1.00)
        O1             6.00    15.99940     O ( 1.00)

     Starting magnetic structure
     atomic species   magnetization
        Nb0          0.600
        O1           0.000

      8 Sym. Ops., with inversion, found
          (note:  8 additional sym.ops. were found but ignored
           their fractional translations are incommensurate with FFT grid)

   Cartesian axes

     site n.     atom                  positions (alat units)
         1           Nb0 tau(   1) = (   0.0000000   0.0000000   0.0000000  )
         2           Nb0 tau(   2) = (   0.5133386   0.5133386   0.3056945  )
         3           O1  tau(   3) = (   0.2970781   0.2970781   0.0000000  )
         4           O1  tau(   4) = (  -0.2970781  -0.2970781   0.0000000  )
         5           O1  tau(   5) = (   0.8104170   0.2162602   0.3056945  )
         6           O1  tau(   6) = (   0.2162602   0.8104170   0.3056945  )

     number of k points=    54  Methfessel-Paxton smearing, width (Ry)=  0.0100
                       cart. coord. in units 2pi/alat
        k(    1) = (   0.0000000   0.0000000   0.0000000), wk =   0.0080000
        k(    2) = (   0.0000000   0.0000000   0.3271240), wk =   0.0160000
        k(    3) = (   0.0000000   0.0000000   0.6542480), wk =   0.0160000
        k(    4) = (   0.0000000   0.1948032   0.0000000), wk =   0.0320000
        k(    5) = (   0.0000000   0.1948032   0.3271240), wk =   0.0640000
        k(    6) = (   0.0000000   0.1948032   0.6542480), wk =   0.0640000
        k(    7) = (   0.0000001   0.3896064   0.0000000), wk =   0.0320000
        k(    8) = (   0.0000001   0.3896064   0.3271240), wk =   0.0640000
        k(    9) = (   0.0000001   0.3896064   0.6542480), wk =   0.0640000
        k(   10) = (   0.1948032   0.1948032   0.0000000), wk =   0.0160000
        k(   11) = (   0.1948032   0.1948032   0.3271240), wk =   0.0320000
        k(   12) = (   0.1948032   0.1948032   0.6542480), wk =   0.0320000
        k(   13) = (   0.1948032   0.3896064   0.0000000), wk =   0.0320000
        k(   14) = (   0.1948032   0.3896064   0.3271240), wk =   0.0640000
        k(   15) = (   0.1948032   0.3896064   0.6542480), wk =   0.0640000
        k(   16) = (   0.3896064   0.3896064   0.0000000), wk =   0.0160000
        k(   17) = (   0.3896064   0.3896064   0.3271240), wk =   0.0320000
        k(   18) = (   0.3896064   0.3896064   0.6542480), wk =   0.0320000
        k(   19) = (  -0.1948031   0.1948031   0.0000000), wk =   0.0160000
        k(   20) = (  -0.1948031   0.1948031  -0.3271240), wk =   0.0320000
        k(   21) = (  -0.1948031   0.1948031  -0.6542480), wk =   0.0320000
        k(   22) = (  -0.1948031   0.3896063   0.0000000), wk =   0.0320000
        k(   23) = (  -0.1948031   0.3896063  -0.3271240), wk =   0.0640000
        k(   24) = (  -0.1948031   0.3896063  -0.6542480), wk =   0.0640000
        k(   25) = (  -0.3896063   0.3896063   0.0000000), wk =   0.0160000
        k(   26) = (  -0.3896063   0.3896063  -0.3271240), wk =   0.0320000
        k(   27) = (  -0.3896063   0.3896063  -0.6542480), wk =   0.0320000
        k(   28) = (   0.0000000   0.0000000   0.0000000), wk =   0.0080000
        k(   29) = (   0.0000000   0.0000000   0.3271240), wk =   0.0160000
        k(   30) = (   0.0000000   0.0000000   0.6542480), wk =   0.0160000
        k(   31) = (   0.0000000   0.1948032   0.0000000), wk =   0.0320000
        k(   32) = (   0.0000000   0.1948032   0.3271240), wk =   0.0640000
        k(   33) = (   0.0000000   0.1948032   0.6542480), wk =   0.0640000
        k(   34) = (   0.0000001   0.3896064   0.0000000), wk =   0.0320000
        k(   35) = (   0.0000001   0.3896064   0.3271240), wk =   0.0640000
        k(   36) = (   0.0000001   0.3896064   0.6542480), wk =   0.0640000
        k(   37) = (   0.1948032   0.1948032   0.0000000), wk =   0.0160000
        k(   38) = (   0.1948032   0.1948032   0.3271240), wk =   0.0320000
        k(   39) = (   0.1948032   0.1948032   0.6542480), wk =   0.0320000
        k(   40) = (   0.1948032   0.3896064   0.0000000), wk =   0.0320000
        k(   41) = (   0.1948032   0.3896064   0.3271240), wk =   0.0640000
        k(   42) = (   0.1948032   0.3896064   0.6542480), wk =   0.0640000
        k(   43) = (   0.3896064   0.3896064   0.0000000), wk =   0.0160000
        k(   44) = (   0.3896064   0.3896064   0.3271240), wk =   0.0320000
        k(   45) = (   0.3896064   0.3896064   0.6542480), wk =   0.0320000
        k(   46) = (  -0.1948031   0.1948031   0.0000000), wk =   0.0160000
        k(   47) = (  -0.1948031   0.1948031  -0.3271240), wk =   0.0320000
        k(   48) = (  -0.1948031   0.1948031  -0.6542480), wk =   0.0320000
        k(   49) = (  -0.1948031   0.3896063   0.0000000), wk =   0.0320000
        k(   50) = (  -0.1948031   0.3896063  -0.3271240), wk =   0.0640000
        k(   51) = (  -0.1948031   0.3896063  -0.6542480), wk =   0.0640000
        k(   52) = (  -0.3896063   0.3896063   0.0000000), wk =   0.0160000
        k(   53) = (  -0.3896063   0.3896063  -0.3271240), wk =   0.0320000
        k(   54) = (  -0.3896063   0.3896063  -0.6542480), wk =   0.0320000

     Largest allocated arrays     est. size (Mb)     dimensions
     Largest temporary arrays     est. size (Mb)     dimensions

     Check: negative/imaginary core charge=   -0.000007    0.000000

     Initial potential from superposition of free atoms

     starting charge   49.99453, renormalised to   50.00000
     Starting wfc are   42 randomized atomic wfcs

     Self-consistent Calculation

[...]

     total energy              =    -365.24772974 Ry
     Harris-Foulkes estimate   =    -365.24773056 Ry
     estimated scf accuracy    <       0.00000003 Ry

[...]

     iteration # 23     ecut=    40.00 Ry     beta=0.30
     Davidson diagonalization with overlap
     ethr =  5.43E-11,  avg # of iterations =  2.4

     End of self-consistent calculation

 ------ SPIN UP ------------

[...]

 ------ SPIN DOWN ----------

[...]

          k = 0.3896 0.3896 0.6542 (  1880 PWs)   bands (ev):

[...]

          k =-0.3896 0.3896-0.6542 (  1880 PWs)   bands (ev):

   -41.9002 -41.8993 -18.8497 -18.8379 -18.3595 -18.3408 -17.9649 -17.9615
    -5.6454  -5.3569  -5.0218  -4.6974   6.3827   6.6904   7.0446   7.2683
     7.5351   7.8960   8.4046   9.0086   9.5202   9.7437  10.5954  10.6886
    14.8002  15.3031  15.6154  16.2379  17.1650  17.2586  19.9844  20.7766
    21.0717  21.6561  23.0644  23.2721  24.8224  25.0255  26.7597  27.0587
    29.9148  30.0611  30.8353  31.0075  31.9612  32.2971  33.0940  33.5474
    37.0260  37.5926  38.0034  38.1231  40.1896  40.6208  41.5680  42.1816
    42.6225  43.5251  43.9313  43.9690  44.7037  44.7870  45.0079  45.8006
    45.8512  46.3135  46.8455  47.0996  47.3762  47.4259  48.3762  48.7574
    50.1487  51.4465  52.2041

     the Fermi energy is    14.6372 ev

!    total energy              =    -365.24773064 Ry
     Harris-Foulkes estimate   =    -365.24773063 Ry
     estimated scf accuracy    <          7.1E-09 Ry

     The total energy is the sum of the following terms:

     one-electron contribution =     -84.19156773 Ry
     hartree contribution      =      72.25606442 Ry
     xc contribution           =     -66.17077027 Ry
     ewald contribution        =    -287.14136949 Ry
     smearing contrib. (-TS)   =      -0.00008758 Ry

     total magnetization       =     0.00 Bohr mag/cell
     absolute magnetization    =     0.01 Bohr mag/cell

     convergence has been achieved in  23 iterations

     Forces acting on atoms (Ry/au):

     atom    1 type  1   force =     0.00000000    0.00000000    0.00000000
     atom    2 type  1   force =     0.00000000    0.00000000    0.00000000
     atom    3 type  2   force =    -0.00007490   -0.00007490   -0.00000000
     atom    4 type  2   force =     0.00007490    0.00007490   -0.00000000
     atom    5 type  2   force =    -0.00010518    0.00010518    0.00000000
     atom    6 type  2   force =     0.00010518   -0.00010518    0.00000000

     Total force =     0.000258     Total SCF correction =     0.000233
     SCF correction compared to forces is large: reduce conv_thr to get better values

     entering subroutine stress ...

          total   stress  (Ry/bohr**3)                   (kbar)     P=  291.44
   0.00198146   0.00000005   0.00000000        291.48      0.01      0.00
   0.00000005   0.00198146   0.00000000          0.01    291.48      0.00
   0.00000000   0.00000000   0.00198063          0.00      0.00    291.36

     General routines

     Parallel routines

   This run was terminated on:  16:43: 8  24Jan2014

   JOB DONE.
Running PBS batch system epilogue script
Job id: 251923.audhumbla.fysik.dtu.dk
Username: zhonxu
Groupname: campgst
Jobname: NbO2/fine-EOS/ferro/NbO2-v-0.90
Sessionid: 31381
Queuename: verylong
Accounting:
This job has allocated the following 4 nodes:
q117 q117 q117 q117
Finished epilogue job 251923.audhumbla.fysik.dtu.dk for zhonxu