     Program PWSCF v.5.0.2 (svn rev. 9656) starts on  7Jun2014 at  4:39: 9

     Current dimensions of program PWSCF are:
     Max number of different atomic species (ntypx) = 10
     Max number of k-points (npk) =  40000
     Max angular momentum in pseudopotentials (lmaxx) =  3
     Reading input from pwscf.in
Warning: card &CELL ignored
Warning: card / ignored

     Subspace diagonalization in iterative solution of the eigenvalue problem:
     a serial algorithm will be used

     bravais-lattice index     =            0
     lattice parameter (alat)  =      11.2250  a.u.
     unit-cell volume          =    9585.4248 (a.u.)^3
     number of atoms/cell      =           51
     number of atomic types    =            3
     number of electrons       =       397.00
     number of Kohn-Sham states=          571
     kinetic-energy cutoff     =      40.0000  Ry
     charge density cutoff     =     500.0000  Ry
     convergence threshold     =      1.0E-06
     mixing beta               =       0.3000
     number of iterations used =            8  plain     mixing
     Exchange-correlation      = SLA  PW   PBE  PBE ( 1 4 3 4 0)
     EXX-fraction              =        0.00
     nstep                     =           50

     celldm(1)=  11.224973  celldm(2)=   0.000000  celldm(3)=   0.000000
     celldm(4)=   0.000000  celldm(5)=   0.000000  celldm(6)=   0.000000

     crystal axes: (cart. coord. in units of alat)
               a(1) = (   1.000000   0.000000   0.000000 )
               a(2) = (   0.000000   1.107086   0.000000 )
               a(3) = (   0.000000   0.000000   6.121726 )

     reciprocal axes: (cart. coord. in units 2 pi/alat)
               b(1) = (  1.000000  0.000000  0.000000 )
               b(2) = (  0.000000  0.903272  0.000000 )
               b(3) = (  0.000000  0.000000  0.163353 )

     PseudoPot. # 1 for O  read from file:
     /home/camp/zhonxu/pseudo/o_pbe_v1.01.uspp.F.UPF
     MD5 check sum: 2bcb18d16ea4b960afae9ec6d52f22d2
     Pseudo is Ultrasoft + core correction, Zval =  6.0
     Generated by new atomic code, or converted to UPF format
     Using radial grid of  737 points,  5 beta functions with:
                l(1) =   0
                l(2) =   0
                l(3) =   1
                l(4) =   1
                l(5) =   2
     Q(r) pseudized with  8 coefficients,  rinner =    0.900   0.900   0.900
                                                       0.900   0.900

     PseudoPot. # 2 for Ti read from file:
     /home/camp/zhonxu/pseudo/ti_pbe_v1.uspp.F.UPF
     MD5 check sum: bcc8f6961b3b91f0cac3ca967d22d0fb
     Pseudo is Ultrasoft + core correction, Zval = 12.0
     Generated by new atomic code, or converted to UPF format
     Using radial grid of  851 points,  6 beta functions with:
                l(1) =   0
                l(2) =   0
                l(3) =   1
                l(4) =   1
                l(5) =   2
                l(6) =   2
     Q(r) pseudized with  6 coefficients,  rinner =    1.000   1.000   1.000
                                                       1.000   1.000

     PseudoPot. # 3 for H  read from file:
     /home/camp/zhonxu/pseudo/h_pbe_v1.uspp.F.UPF
     MD5 check sum: 3408e3ff4ec8b0a4e358431e7e038a48
     Pseudo is Ultrasoft, Zval =  1.0
     Generated by new atomic code, or converted to UPF format
     Using radial grid of  615 points,  2 beta functions with:
                l(1) =   0
                l(2) =   0
     Q(r) pseudized with  8 coefficients,  rinner =    0.700

     atomic species   valence    mass     pseudopotential
        O0             6.00    15.99940     O ( 1.00)
        Ti1           12.00    47.88000     Ti( 1.00)
        H2             1.00     1.00794     H ( 1.00)

      2 Sym. Ops. (no inversion) found

   Cartesian axes

     site n.     atom                  positions (alat units)
         1           O0  tau(   1) = (   0.0000000   0.5535432   2.0202309  )
         2           Ti1 tau(   2) = (   0.2500000   0.5535432   2.2305735  )
         3           Ti1 tau(   3) = (   0.0000000   0.0000000   2.2305735  )
         4           O0  tau(   4) = (   0.2500000   0.8967400   2.2305735  )
         5           O0  tau(   5) = (   0.2500000   0.2103464   2.2305735  )
         6           O0  tau(   6) = (   0.0000000   0.5535432   2.4409160  )
         7           O0  tau(   7) = (   0.0000000   0.0000000   2.5737574  )
         8           Ti1 tau(   8) = (   0.2500000   0.0000000   2.7841000  )
         9           Ti1 tau(   9) = (   0.0000000   0.5535432   2.7841000  )
        10           O0  tau(  10) = (   0.2500000   0.7638896   2.7841000  )
        11           O0  tau(  11) = (   0.2500000   0.3431968   2.7841000  )
        12           O0  tau(  12) = (   0.0000000   0.0000000   2.9944425  )
        13           O0  tau(  13) = (   0.0000000   0.5535432   3.1319977  )
        14           Ti1 tau(  14) = (   0.2500000   0.5535432   3.3288112  )
        15           Ti1 tau(  15) = (   0.0000000   0.0000000   3.3672556  )
        16           O0  tau(  16) = (   0.2500000   0.8873962   3.3437482  )
        17           O0  tau(  17) = (   0.2500000   0.2196902   3.3437482  )
        18           O0  tau(  18) = (   0.0000000   0.5535432   3.5641916  )
        19           O0  tau(  19) = (   0.0000000   0.0000000   3.6800146  )
        20           Ti1 tau(  20) = (   0.2500000   0.0000000   3.9334541  )
        21           Ti1 tau(  21) = (   0.0000000   0.5535432   3.8694821  )
        22           O0  tau(  22) = (   0.2500000   0.7608340   3.9259244  )
        23           O0  tau(  23) = (   0.2500000   0.3462523   3.9259244  )
        24           O0  tau(  24) = (   0.0000000   0.0000000   4.1134329  )
        25           O0  tau(  25) = (   0.5000000   0.5535432   2.0202309  )
        26           Ti1 tau(  26) = (   0.7500000   0.5535432   2.2305735  )
        27           Ti1 tau(  27) = (   0.5000000   0.0000000   2.2305735  )
        28           O0  tau(  28) = (   0.7500000   0.8967400   2.2305735  )
        29           O0  tau(  29) = (   0.7500000   0.2103464   2.2305735  )
        30           O0  tau(  30) = (   0.5000000   0.5535432   2.4409160  )
        31           O0  tau(  31) = (   0.5000000   0.0000000   2.5737574  )
        32           Ti1 tau(  32) = (   0.7500000   0.0000000   2.7841000  )
        33           Ti1 tau(  33) = (   0.5000000   0.5535432   2.7841000  )
        34           O0  tau(  34) = (   0.7500000   0.7638896   2.7841000  )
        35           O0  tau(  35) = (   0.7500000   0.3431968   2.7841000  )
        36           O0  tau(  36) = (   0.5000000   0.0000000   2.9944425  )
        37           O0  tau(  37) = (   0.5000000   0.5535432   3.1319977  )
        38           Ti1 tau(  38) = (   0.7500000   0.5535432   3.3288112  )
        39           Ti1 tau(  39) = (   0.5000000   0.0000000   3.3672556  )
        40           O0  tau(  40) = (   0.7500000   0.8873962   3.3437482  )
        41           O0  tau(  41) = (   0.7500000   0.2196902   3.3437482  )
        42           O0  tau(  42) = (   0.5000000   0.5535432   3.5641916  )
        43           O0  tau(  43) = (   0.5000000   0.0000000   3.6800146  )
        44           Ti1 tau(  44) = (   0.7500000   0.0000000   3.9334541  )
        45           Ti1 tau(  45) = (   0.5000000   0.5535432   3.8694821  )
        46           O0  tau(  46) = (   0.7500000   0.7608340   3.9259244  )
        47           O0  tau(  47) = (   0.7500000   0.3462523   3.9259244  )
        48           O0  tau(  48) = (   0.5000000   0.0000000   4.1134329  )
        49           O0  tau(  49) = (   0.5000000   0.5535432   4.2751689  )
        50           O0  tau(  50) = (   0.5000000   0.3574118   4.3913592  )
        51           H2  tau(  51) = (   0.5000000   0.4072639   4.5511363  )

     number of k points=     9  Methfessel-Paxton smearing, width (Ry)=  0.0100
                       cart. coord. in units 2pi/alat
        k(    1) = (   0.0000000   0.0000000   0.0000000), wk =   0.1250000
        k(    2) = (   0.0000000   0.2258180   0.0000000), wk =   0.2500000
        k(    3) = (   0.0000000  -0.4516359   0.0000000), wk =   0.1250000
        k(    4) = (   0.2500000   0.0000000   0.0000000), wk =   0.2500000
        k(    5) = (   0.2500000   0.2258180   0.0000000), wk =   0.5000000
        k(    6) = (   0.2500000  -0.4516359   0.0000000), wk =   0.2500000
        k(    7) = (  -0.5000000   0.0000000   0.0000000), wk =   0.1250000
        k(    8) = (  -0.5000000   0.2258180   0.0000000), wk =   0.2500000
        k(    9) = (  -0.5000000  -0.4516359   0.0000000), wk =   0.1250000

     Largest allocated arrays     est. size (Mb)     dimensions
     Largest temporary arrays     est. size (Mb)     dimensions

     Check: negative/imaginary core charge=   -0.000007    0.000000

     Initial potential from superposition of free atoms
     Check: negative starting charge=   -0.203931

     starting charge  380.99923, renormalised to  397.00000

     negative rho (up, down):  0.212E+00 0.000E+00
     Starting wfc are  297 randomized atomic wfcs

     Self-consistent Calculation

     iteration #  1     ecut=    40.00 Ry     beta=0.30
     Davidson diagonalization with overlap
     ethr =  1.00E-02,  avg # of iterations =  6.0

     negative rho (up, down):  0.192E+00 0.000E+00

     total energy              =   -2613.80692601 Ry
     Harris-Foulkes estimate   =   -3005.97040702 Ry
     estimated scf accuracy    <     773.97718610 Ry

[...]

     End of self-consistent calculation

          k = 0.0000 0.0000 0.0000 ( 40985 PWs)   bands (ev):

   -58.2415 -58.2018 -57.9035 -57.8637 -57.5926 -57.5524 -57.5086 -57.5052
   -57.4686 -57.4635 -57.4259 -57.4222 -57.0369 -56.9953 -56.7558 -56.7158
   -34.7354 -34.5154 -34.4903 -34.4835 -34.4696 -34.3613 -34.2874 -34.2091
   -34.1419 -34.0944 -34.0789 -34.0552 -34.0428 -34.0311 -33.9921 -33.9897
   -33.8977 -33.8783 -33.7901 -33.7810 -33.7644 -33.7544 -33.7487 -33.7427
   -33.7128 -33.6889 -33.6834 -33.6787 -33.6783 -33.6580 -33.6362 -33.6322
   -33.6246 -33.6043 -33.5818 -33.5796 -33.5565 -33.3210 -33.2830 -33.2590
   -33.2362 -33.2236 -33.1057 -33.0943 -33.0653 -33.0025 -32.8978 -32.7826
   -24.3742 -18.8278 -18.7236 -18.3736 -18.1430 -18.0886 -18.0536 -17.9423
   -17.8581 -17.7026 -17.6867 -17.6732 -17.5898 -17.5166 -17.3999 -17.3976
   -17.3377 -17.3130 -17.3089 -17.2854 -17.2549 -17.1811 -17.0323 -17.0248
   -17.0074 -16.9696 -16.8604 -16.8578 -16.8296 -16.5512 -16.4811 -16.1467
   -15.6841 -15.6290  -8.5182  -6.6774  -6.4654  -6.3181  -6.1183  -6.0448
    -5.8836  -5.8801  -5.7815  -5.7091  -5.4086  -5.2896  -5.2694  -5.2679
    -5.2387  -5.1647  -5.0296  -4.9808  -4.9442  -4.9439  -4.8900  -4.8741
    -4.8186  -4.7989  -4.7507  -4.7012  -4.6818  -4.5801  -4.5782  -4.5402
    -4.5167  -4.4829  -4.4668  -4.4254  -4.2595  -4.2374  -4.2198  -4.1956
    -4.1710  -3.9646  -3.9534  -3.8795  -3.8129  -3.7909  -3.7022  -3.6791
    -3.5480  -3.4579  -3.3425  -3.3422  -3.2421  -3.2239  -3.2196  -3.2008
    -3.1316  -3.1072  -3.0383  -3.0311  -2.9508  -2.9232  -2.9213  -2.8818
    -2.8816  -2.8754  -2.6728  -2.6069  -2.5225  -2.5088  -2.4952  -2.4100
[...]
O0       0.000000000   0.000000000   0.489150000    0   0   0
O0       0.000000000   0.496646254   0.510979725
Ti1      0.252921701   0.511323558   0.543950009
Ti1      0.000000000   0.007468664   0.549623985
O0       0.249854913   0.797559354   0.545521871
O0       0.249878191   0.191952135   0.545841191
O0       0.000000000   0.492887475   0.581017259
O0       0.000000000  -0.003973236   0.600671381
Ti1      0.249275734  -0.008806175   0.641850416
Ti1      0.000000000   0.494762319   0.630638876
O0       0.244530815   0.683972231   0.639096056
O0       0.247796924   0.304677625   0.640255518
O0       0.000000000  -0.006635470   0.671678966
O0       0.500000000   0.500000000   0.330010000    0   0   0
Ti1      0.750000000   0.500000000   0.364370000    0   0   0
Ti1      0.500000000   0.000000000   0.364370000    0   0   0
O0       0.750000000   0.810000000   0.364370000    0   0   0
O0       0.750000000   0.190000000   0.364370000    0   0   0
O0       0.500000000   0.500000000   0.398730000    0   0   0
O0       0.500000000   0.000000000   0.420430000    0   0   0
Ti1      0.750000000   0.000000000   0.454790000    0   0   0
Ti1      0.500000000   0.500000000   0.454790000    0   0   0
O0       0.750000000   0.690000000   0.454790000    0   0   0
O0       0.750000000   0.310000000   0.454790000    0   0   0
O0       0.500000000   0.000000000   0.489150000    0   0   0
O0       0.500000000   0.496267008   0.510829356
Ti1      0.747078299   0.511323558   0.543950009
Ti1      0.500000000   0.007219435   0.549997544
O0       0.750145087   0.797559354   0.545521871
O0       0.750121809   0.191952135   0.545841191
O0       0.500000000   0.495082090   0.581955299
O0       0.500000000  -0.003300301   0.600686018
Ti1      0.750724266  -0.008806175   0.641850416
Ti1      0.500000000   0.487672660   0.634855531
O0       0.755469185   0.683972231   0.639096056
O0       0.752203076   0.304677625   0.640255518
O0       0.500000000  -0.010983671   0.671189051
O0       0.500000000   0.536755705   0.693979950
O0       0.500000000   0.363383157   0.715275173
H2       0.500000000   0.420550754   0.740504933

     Check: negative starting charge=   -0.202417
     NEW-OLD atomic charge density approx. for the potential

     Check: negative/imaginary core charge=   -0.000007    0.000000
     Check: negative starting charge=   -0.202312

[...]

     Self-consistent Calculation

[...]

     Threshold (ethr) on eigenvalues was too large:
     Diagonalizing with lowered threshold

     Davidson diagonalization with overlap
     ethr =  5.70E-08,  avg # of iterations =  1.0

[...]

     total energy              =   -2996.99987382 Ry
     Harris-Foulkes estimate   =   -2996.99987382 Ry
     estimated scf accuracy    <       0.00000001 Ry

     iteration # 11     ecut=    40.00 Ry     beta=0.30
     Davidson diagonalization with overlap
     ethr =  2.83E-12,  avg # of iterations =  1.0

     negative rho (up, down):  0.200E+00 0.000E+00

     End of self-consistent calculation

[...]

          k = 0.2500-0.4516 0.0000 ( 40874 PWs)   bands (ev):

[...]

          k =-0.5000-0.4516 0.0000 ( 40844 PWs)   bands (ev):

   -58.2448 -58.2442 -57.7187 -57.7136 -57.6543 -57.5276 -57.5015 -57.4854
   -57.4573 -57.4573 -57.3618 -57.3462 -57.0496 -57.0485 -56.7963 -56.7963
   -34.5416 -34.5412 -34.5199 -34.5193 -34.4383 -34.4378 -34.1239 -34.0812
   -33.9857 -33.9785 -33.9746 -33.9251 -33.9211 -33.8921 -33.8859 -33.8689
   -33.8545 -33.8523 -33.8425 -33.8095 -33.8091 -33.7437 -33.7394 -33.7306
   -33.7128 -33.7051 -33.7038 -33.7004 -33.6941 -33.6790 -33.6516 -33.6511
   -33.6081 -33.5932 -33.5696 -33.5608 -33.3972 -33.3939 -33.3233 -33.3218
   -33.2856 -33.2806 -33.1381 -33.1381 -33.0760 -33.0759 -33.0105 -33.0105
   -24.0528 -18.1674 -18.0953 -18.0949 -18.0787 -17.9551 -17.9449 -17.7850
   -17.7700 -17.7679 -17.7235 -17.5839 -17.5748 -17.5384 -17.5054 -17.4639
   -17.4576 -17.4460 -17.4441 -17.3530 -17.3460 -17.3427 -17.3316 -17.0590
   -17.0560 -17.0157 -17.0066 -16.9098 -16.8974 -16.6945 -16.6890 -16.2931
   -15.8471 -15.8462  -8.4615  -6.7430  -5.7259  -5.5614  -5.4166  -5.2830
    -5.2795  -5.2669  -5.2341  -5.1876  -5.1585  -5.1317  -5.1305  -4.9824
    -4.9710  -4.9506  -4.9129  -4.8572  -4.8558  -4.8230  -4.8195  -4.7855
    -4.7748  -4.7390  -4.7387  -4.7343  -4.7053  -4.6880  -4.6681  -4.5365
    -4.5303  -4.4917  -4.4870  -4.4331  -4.4115  -4.2748  -4.2666  -4.1801
    -4.1771  -4.1377  -4.1273  -4.0476  -4.0094  -3.7662  -3.7449  -3.7189
    -3.6854  -3.5170  -3.4564  -3.4366  -3.4206  -3.3481  -3.3288  -3.3066
    -3.2860  -3.2795  -3.2556  -3.2202  -3.2150  -3.1425  -3.1092  -3.0403
    -2.9687  -2.9464  -2.8763  -2.8660  -2.8491  -2.8228  -2.8213  -2.8034
    -2.7741  -2.7338  -2.7306  -2.4213  -2.4190  -2.3366  -2.3270  -2.2588
    -2.2576  -2.1540  -2.0319  -1.9761  -1.9127  -1.9041  -1.6938  -1.6880
    -1.6828  -1.6186  -1.6069  -1.5462  -1.5381  -1.4218  -1.4179  -1.3990
    -1.3085  -1.2722  -1.0828  -1.0827  -0.8214  -0.8203  -0.7497   1.4226
     1.4246   1.4744   1.4764   1.5791   1.6077   1.6262   1.6601   1.7952
     1.7991   1.8618   1.9081   1.9723   1.9798   1.9803   1.9811   2.0470
     2.0528   2.1939   2.2625   2.3832   2.4007   2.4048   2.4151   2.4425
     2.6234   2.6502   2.6703   2.6829   2.7211   2.7896   2.8276   2.8625
     2.8983   2.9311   2.9460   2.9641   3.0089   3.0731   3.1230   3.1233
     3.1705   3.1986   3.2753   3.2815   3.2857   3.3030   3.3382   3.3880
     3.4112   4.0447   4.1736   4.1747   4.2820   4.3427   4.3576   4.4198
     4.4249   4.4311   4.4384   4.6281   4.6530   4.7901   4.8749   4.8929
     5.2487   5.3299   5.5027   5.5098   5.5320   5.6735   5.8007   5.8076
     5.8508   5.8674   5.9201   5.9207   5.9266   6.1063   6.1464   6.1729
     6.1753   6.1804   6.3478   6.3484   6.4852   6.4884   6.7074   6.7645
     6.9279   6.9527   7.1497   7.1573   7.3190   7.3615   7.4886   7.5164
     7.7813   7.8540   7.8892   8.0020   8.3454   8.3873   8.4590   8.6433
     8.9390   9.0270   9.1394   9.2521   9.5720   9.5854   9.6848   9.6985
     9.7689   9.8195   9.8573   9.8897  10.3224  10.3441  10.3528  10.4056
    10.4848  10.5006  10.6121  10.6326  10.9977  11.1972  11.2343  11.2746
    11.4395  11.4950  11.5548  11.5703  11.9709  12.3479  12.3948  12.4179
    12.5399  12.6974  12.7224  12.7608  12.8765  12.9129  12.9565  13.0483
    13.0925  13.2605  13.2611  13.5186  13.5237  13.5333  13.6343  13.6755
    13.6881  13.6895  13.7640  13.7668  13.8629  13.9033  13.9100  13.9857
    14.0064  14.0267  14.0393  14.0807  14.0981  14.1099  14.1654  14.1801
    14.2481  14.2940  14.3344  14.3544  14.3820  14.4347  14.4375  14.4693
    14.4795  14.4819  14.5108  14.5333  14.5552  14.5702  14.6378  14.6476
    14.6742  14.6924  14.6976  14.7024  14.7544  14.8392  14.8945  14.9253
    14.9411  14.9575  15.0039  15.0350  15.0417  15.0526  15.2005  15.2585
    15.2728  15.3655  15.3769  15.4216  15.4663  15.5410  15.5724  15.6000
    15.6191  15.6277  15.6724  15.6724  15.7498  15.7735  15.8030  15.8298
    15.8430  15.8624  15.9118  15.9350  15.9397  15.9943  16.0210  16.0484
    16.1017  16.1160  16.1648  16.1996  16.2587  16.3171  16.3471  16.3678
    16.4861  16.5341  16.6154  16.6470  16.6604  16.7039  16.7901  16.7991
    16.8632  16.8651  16.9257  16.9937  17.0110  17.0197  17.0611  17.1793
    17.3272  17.3576  17.4184  17.4338  17.4892  17.4923  17.5936  17.5950
    17.6182  17.6638  17.6812  17.7635  17.7689  17.8267  17.8542  17.9396
    17.9937  18.1129  18.1313  18.1434  18.2132  18.2192  18.3714  18.3773
    18.3946  18.4865  18.5260  18.5756  18.6700  18.6765  18.7358  18.7478
    18.8459  18.9290  18.9310  19.0266  19.0717  19.0896  19.1692  19.1981
    19.2558  19.3387  19.3498  19.3892  19.5168  19.5558  19.5708  19.6178
    19.6418  19.6936  19.8141  19.8343  19.9209  19.9896  20.0398  20.0458
    20.1027  20.2296  20.2578  20.2725  20.3831  20.4022  20.4628  20.4689
    20.5083  20.5152  20.5500  20.6837  20.9073  20.9394  20.9648  21.0995
    21.1433  21.1820  21.2056  21.3404  21.4095  21.4620  21.5174  21.5511
    21.6267  21.6436  21.6974  21.7228  21.7776  21.8489  21.9067  21.9320
    22.0439  22.0503  22.1255  22.1746  22.1843  22.2362  22.3073  22.4728
    22.5424  22.5462  22.5691  22.6214  22.6417  22.6716  22.6838  22.6885
    22.7543  22.7590  22.8113  22.8321  22.9475  22.9740  23.0153  23.0775
    23.1749  23.2007  23.2276  23.2467  23.2743  23.3084  23.3533  23.4052
    23.4113  23.4625  23.4770

     the Fermi energy is    -0.7513 ev

!    total energy              =   -2996.99987383 Ry
     Harris-Foulkes estimate   =   -2996.99987382 Ry
     estimated scf accuracy    <          1.8E-09 Ry

     The total energy is the sum of the following terms:

     one-electron contribution =  -64548.26865366 Ry
     hartree contribution      =   32329.99085762 Ry
     xc contribution           =    -520.25136919 Ry
     ewald contribution        =   29741.53080505 Ry
     smearing contrib. (-TS)   =      -0.00151365 Ry

     convergence has been achieved in  11 iterations

     Forces acting on atoms (Ry/au):

     negative rho (up, down):  0.200E+00 0.000E+00
     atom    1 type  1   force =     0.00000000   -0.00000169    0.05124176
     atom    2 type  2   force =    -0.00004443   -0.00004663   -0.11521811
     atom    3 type  2   force =     0.00000000    0.00000890    0.12578475
     atom    4 type  1   force =    -0.00000645    0.03078278   -0.03406735
     atom    5 type  1   force =    -0.00001200   -0.03081086   -0.03408712
     atom    6 type  1   force =     0.00000000    0.00001857    0.07561107
     atom    7 type  1   force =     0.00000000   -0.00025262   -0.09576547
     atom    8 type  2   force =     0.00108458    0.00125111    0.06698007
     atom    9 type  2   force =     0.00000000   -0.00193176   -0.03351627
     atom   10 type  1   force =     0.00083010    0.02302428    0.00236165
     atom   11 type  1   force =     0.00072766   -0.02345864    0.00040562
     atom   12 type  1   force =     0.00000000   -0.00126555   -0.00528323
     atom   13 type  1   force =     0.00000000    0.00025023    0.00063803
     atom   14 type  2   force =    -0.00011370    0.00016818    0.00030570
     atom   15 type  2   force =     0.00000000   -0.00025422   -0.00046129
     atom   16 type  1   force =    -0.00005188    0.00076277    0.00061418
     atom   17 type  1   force =    -0.00016523   -0.00001226    0.00038027
     atom   18 type  1   force =     0.00000000    0.00039077    0.00002985
     atom   19 type  1   force =     0.00000000    0.00055697    0.00013636
     atom   20 type  2   force =    -0.00007894    0.00020912   -0.00013200
     atom   21 type  2   force =     0.00000000    0.00016548    0.00048491
     atom   22 type  1   force =    -0.00057347   -0.00022513   -0.00008684
     atom   23 type  1   force =    -0.00080860    0.00047779   -0.00055388
     atom   24 type  1   force =     0.00000000    0.00005412    0.00017582
     atom   25 type  1   force =     0.00000000    0.00001150    0.05121244
     atom   26 type  2   force =     0.00004443   -0.00004663   -0.11521811
     atom   27 type  2   force =     0.00000000   -0.00000052    0.12581075
     atom   28 type  1   force =     0.00000645    0.03078278   -0.03406735
     atom   29 type  1   force =     0.00001200   -0.03081086   -0.03408712
     atom   30 type  1   force =     0.00000000   -0.00000045    0.07650814
     atom   31 type  1   force =     0.00000000   -0.00024736   -0.09590227
     atom   32 type  2   force =    -0.00108458    0.00125111    0.06698007
     atom   33 type  2   force =     0.00000000   -0.00192318   -0.04346284
     atom   34 type  1   force =    -0.00083010    0.02302428    0.00236165
     atom   35 type  1   force =    -0.00072766   -0.02345864    0.00040562
     atom   36 type  1   force =     0.00000000   -0.00132331   -0.00666778
     atom   37 type  1   force =     0.00000000    0.00032305   -0.00057107
     atom   38 type  2   force =     0.00011370    0.00016818    0.00030570
     atom   39 type  2   force =     0.00000000   -0.00033678   -0.00012748
     atom   40 type  1   force =     0.00005188    0.00076277    0.00061418
     atom   41 type  1   force =     0.00016523   -0.00001226    0.00038027
     atom   42 type  1   force =     0.00000000    0.00034524   -0.00098823
     atom   43 type  1   force =     0.00000000    0.00004750    0.00051194
     atom   44 type  2   force =     0.00007894    0.00020912   -0.00013200
     atom   45 type  2   force =     0.00000000    0.00009016    0.00018497
     atom   46 type  1   force =     0.00057347   -0.00022513   -0.00008684
     atom   47 type  1   force =     0.00080860    0.00047779   -0.00055388
     atom   48 type  1   force =     0.00000000    0.00020241    0.00015128
     atom   49 type  1   force =     0.00000000    0.00007567    0.00014939
     atom   50 type  1   force =     0.00000000    0.00006055    0.00031543
     atom   51 type  3   force =     0.00000000    0.00069126   -0.00000530

     Total force =     0.003160     Total SCF correction =     0.000134

     bfgs converged in  35 scf cycles and  34 bfgs steps
     (criteria: energy < 0.10E-03, force < 0.10E-02)

     End of BFGS Geometry Optimization

     Final energy   =   -2996.9998738319 Ry
Begin final coordinates

ATOMIC_POSITIONS (crystal)
O0       0.000000000   0.500000000   0.330010000    0   0   0
Ti1      0.250000000   0.500000000   0.364370000    0   0   0
Ti1      0.000000000   0.000000000   0.364370000    0   0   0
O0       0.250000000   0.810000000   0.364370000    0   0   0
O0       0.250000000   0.190000000   0.364370000    0   0   0
O0       0.000000000   0.500000000   0.398730000    0   0   0
O0       0.000000000   0.000000000   0.420430000    0   0   0
Ti1      0.250000000   0.000000000   0.454790000    0   0   0
Ti1      0.000000000   0.500000000   0.454790000    0   0   0
O0       0.250000000   0.690000000   0.454790000    0   0   0
O0       0.250000000   0.310000000   0.454790000    0   0   0
O0       0.000000000   0.000000000   0.489150000    0   0   0
O0       0.000000000   0.496646254   0.510979725
Ti1      0.252921701   0.511323558   0.543950009
Ti1      0.000000000   0.007468664   0.549623985
O0       0.249854913   0.797559354   0.545521871
O0       0.249878191   0.191952135   0.545841191
O0       0.000000000   0.492887475   0.581017259
O0       0.000000000  -0.003973236   0.600671381
Ti1      0.249275734  -0.008806175   0.641850416
Ti1      0.000000000   0.494762319   0.630638876
O0       0.244530815   0.683972231   0.639096056
O0       0.247796924   0.304677625   0.640255518
O0       0.000000000  -0.006635470   0.671678966
O0       0.500000000   0.500000000   0.330010000    0   0   0
Ti1      0.750000000   0.500000000   0.364370000    0   0   0
Ti1      0.500000000   0.000000000   0.364370000    0   0   0
O0       0.750000000   0.810000000   0.364370000    0   0   0
O0       0.750000000   0.190000000   0.364370000    0   0   0
O0       0.500000000   0.500000000   0.398730000    0   0   0
O0       0.500000000   0.000000000   0.420430000    0   0   0
Ti1      0.750000000   0.000000000   0.454790000    0   0   0
Ti1      0.500000000   0.500000000   0.454790000    0   0   0
O0       0.750000000   0.690000000   0.454790000    0   0   0
O0       0.750000000   0.310000000   0.454790000    0   0   0
O0       0.500000000   0.000000000   0.489150000    0   0   0
O0       0.500000000   0.496267008   0.510829356
Ti1      0.747078299   0.511323558   0.543950009
Ti1      0.500000000   0.007219435   0.549997544
O0       0.750145087   0.797559354   0.545521871
O0       0.750121809   0.191952135   0.545841191
O0       0.500000000   0.495082090   0.581955299
O0       0.500000000  -0.003300301   0.600686018
Ti1      0.750724266  -0.008806175   0.641850416
Ti1      0.500000000   0.487672660   0.634855531
O0       0.755469185   0.683972231   0.639096056
O0       0.752203076   0.304677625   0.640255518
O0       0.500000000  -0.010983671   0.671189051
O0       0.500000000   0.536755705   0.693979950
O0       0.500000000   0.363383157   0.715275173
H2       0.500000000   0.420550754   0.740504933
End final coordinates

     General routines

     Parallel routines

   This run was terminated on:  20:52: 8   8Jun2014

   JOB DONE.
Running PBS batch system epilogue script
Job id: 381387.audhumbla.fysik.dtu.dk
Username: zhonxu
Groupname: campgst
Jobname: TiO2/Eads-4-layers/OOH-relax
Sessionid: 62274
Queuename: verylong
Accounting:
This job has allocated the following 32 nodes:
g023 g023 g023 g023 g023 g023 g023 g023 g023 g023 g023 g023 g023 g023 g023 g023 g011 g011 g011 g011 g011 g011 g011 g011 g011 g011 g011 g011 g011 g011 g011 g011
Finished epilogue job 381387.audhumbla.fysik.dtu.dk for zhonxu