     Program PWSCF v.5.0.2 (svn rev. 9656) starts on  1Jun2014 at  7:15:37

     Current dimensions of program PWSCF are:
     Max number of different atomic species (ntypx) = 10
     Max number of k-points (npk) =  40000
     Max angular momentum in pseudopotentials (lmaxx) =  3
     Reading input from pwscf.in
Warning: card &CELL ignored
Warning: card / ignored

     Subspace diagonalization in iterative solution of the eigenvalue problem:
     a serial algorithm will be used

     bravais-lattice index     =            0
     lattice parameter (alat)  =      11.1872  a.u.
     unit-cell volume          =    7531.8600 (a.u.)^3
     number of atoms/cell      =           33
     number of atomic types    =            3
     number of electrons       =       229.00
     number of Kohn-Sham states=          343
     kinetic-energy cutoff     =      40.0000  Ry
     charge density cutoff     =     500.0000  Ry
     convergence threshold     =      1.0E-06
     mixing beta               =       0.7000
     number of iterations used =            8  plain     mixing
     Exchange-correlation      = SLA  PW   PBE  PBE ( 1 4 3 4 0)
     EXX-fraction              =        0.00
     nstep                     =           50

     celldm(1)=  11.187179  celldm(2)=   0.000000  celldm(3)=   0.000000
     celldm(4)=   0.000000  celldm(5)=   0.000000  celldm(6)=   0.000000

     crystal axes: (cart. coord. in units of alat)
               a(1) = (   1.000000   0.000000   0.000000 )
               a(2) = (   0.000000   1.180104   0.000000 )
               a(3) = (   0.000000   0.000000   4.558482 )

     reciprocal axes: (cart. coord. in units 2 pi/alat)
               b(1) = (  1.000000  0.000000  0.000000 )
               b(2) = (  0.000000  0.847383  0.000000 )
               b(3) = (  0.000000  0.000000  0.219371 )

     PseudoPot. # 1 for O  read from file:
     /home/camp/zhonxu/pseudo/o_pbe_v1.01.uspp.F.UPF
     MD5 check sum: 2bcb18d16ea4b960afae9ec6d52f22d2
     Pseudo is Ultrasoft + core correction, Zval =  6.0
     Generated by new atomic code, or converted to UPF format
     Using radial grid of  737 points,  5 beta functions with:
                l(1) =   0
                l(2) =   0
                l(3) =   1
                l(4) =   1
                l(5) =   2
     Q(r) pseudized with  8 coefficients,  rinner =    0.900   0.900   0.900
                                                       0.900   0.900

     PseudoPot. # 2 for Nb read from file:
     /home/camp/zhonxu/pseudo/nb_pbe_v1.uspp.F.UPF
     MD5 check sum: 573aab8a2fa660278ed4a62cd769473f
     Pseudo is Ultrasoft + core correction, Zval = 13.0
     Generated by new atomic code, or converted to UPF format
     Using radial grid of  887 points,  6 beta functions with:
                l(1) =   0
                l(2) =   0
                l(3) =   1
                l(4) =   1
                l(5) =   2
                l(6) =   2
     Q(r) pseudized with  6 coefficients,  rinner =    1.000   1.000   1.000
                                                       1.000   1.000

     PseudoPot. # 3 for H  read from file:
     /home/camp/zhonxu/pseudo/h_pbe_v1.uspp.F.UPF
     MD5 check sum: 3408e3ff4ec8b0a4e358431e7e038a48
     Pseudo is Ultrasoft, Zval =  1.0
     Generated by new atomic code, or converted to UPF format
     Using radial grid of  615 points,  2 beta functions with:
                l(1) =   0
                l(2) =   0
     Q(r) pseudized with  8 coefficients,  rinner =    0.700

     atomic species   valence    mass     pseudopotential
        O0             6.00    15.99940     O ( 1.00)
        Nb1           13.00    92.90640     Nb( 1.00)
        H2             1.00     1.00794     H ( 1.00)

     Simplified LDA+U calculation (l_max = 2) with parameters (eV):
     atomic species    L          U    alpha       J0     beta
        Nb1            2     4.0000   0.0000   0.0000   0.0000

     No symmetry found

   Cartesian axes

     site n.     atom                  positions (alat units)
         1           O0  tau(   1) = (   0.0000000   0.0000000   1.6962113  )
         2           O0  tau(   2) = (   0.0000000   0.5900519   1.7723835  )
         3           Nb1 tau(   3) = (   0.2500000   0.5900519   2.0257895  )
         4           Nb1 tau(   4) = (   0.0000000   0.0000000   2.0274306  )
         5           O0  tau(   5) = (   0.2500000   0.9322821   2.0383253  )
         6           O0  tau(   6) = (   0.2500000   0.2478218   2.0381886  )
         7           O0  tau(   7) = (   0.0000000   0.5900519   2.2790132  )
         8           O0  tau(   8) = (   0.0000000   0.0000000   2.3853170  )
         9           Nb1 tau(   9) = (   0.2500000   0.0000000   2.6318397  )
        10           Nb1 tau(  10) = (   0.0000000   0.5900519   2.5956910  )
        11           O0  tau(  11) = (   0.2500000   0.8378738   2.6232242  )
        12           O0  tau(  12) = (   0.2500000   0.3422301   2.6255034  )
        13           O0  tau(  13) = (   0.0000000   0.0000000   2.8344187  )
        14           O0  tau(  14) = (   0.5000000   0.0000000   1.6974420  )
        15           O0  tau(  15) = (   0.5000000   0.5900519   1.7789021  )
        16           Nb1 tau(  16) = (   0.7500000   0.5900519   2.0259719  )
        17           Nb1 tau(  17) = (   0.5000000   0.0000000   2.0298010  )
        18           O0  tau(  18) = (   0.7500000   0.9322821   2.0382798  )
        19           O0  tau(  19) = (   0.7500000   0.2478218   2.0381886  )
        20           O0  tau(  20) = (   0.5000000   0.5900519   2.2737254  )
        21           O0  tau(  21) = (   0.5000000   0.0000000   2.3845421  )
        22           Nb1 tau(  22) = (   0.7500000   0.0000000   2.6318397  )
        23           Nb1 tau(  23) = (   0.5000000   0.5900519   2.6269166  )
        24           O0  tau(  24) = (   0.7500000   0.8378738   2.6231786  )
        25           O0  tau(  25) = (   0.7500000   0.3422301   2.6254579  )
        26           O0  tau(  26) = (   0.5000000   0.0000000   2.8332335  )
        27           H2  tau(  27) = (  -0.0005200   0.5958463   1.6070929  )
        28           H2  tau(  28) = (   0.4994400   0.5914445   1.6138395  )
        29           H2  tau(  29) = (   0.1507700   0.0008261   1.6243240  )
        30           H2  tau(  30) = (   0.6503900   0.0006019   1.6249166  )
        31           O0  tau(  31) = (   0.5000000   0.6010623   2.9587285  )
        32           O0  tau(  32) = (   0.5000000   0.4103103   3.1155403  )
        33           H2  tau(  33) = (   0.5000000   0.4955964   3.2584031  )

     number of k points=    10  Methfessel-Paxton smearing, width (Ry)=  0.0100
                       cart. coord. in units 2pi/alat
        k(    1) = (   0.0000000   0.0000000   0.0000000), wk =   0.1250000
        k(    2) = (   0.0000000   0.2118458   0.0000000), wk =   0.2500000
        k(    3) = (   0.0000000  -0.4236915   0.0000000), wk =   0.1250000
        k(    4) = (   0.2500000   0.0000000   0.0000000), wk =   0.2500000
        k(    5) = (   0.2500000   0.2118458   0.0000000), wk =   0.2500000
        k(    6) = (   0.2500000  -0.4236915   0.0000000), wk =   0.2500000
        k(    7) = (  -0.5000000   0.0000000   0.0000000), wk =   0.1250000
        k(    8) = (  -0.5000000   0.2118458   0.0000000), wk =   0.2500000
        k(    9) = (  -0.5000000  -0.4236915   0.0000000), wk =   0.1250000
        k(   10) = (  -0.2500000   0.2118458   0.0000000), wk =   0.2500000

     Largest allocated arrays     est. size (Mb)     dimensions
     Largest temporary arrays     est. size (Mb)     dimensions

     Check: negative/imaginary core charge=   -0.000003    0.000000

     Initial potential from superposition of free atoms
     Check: negative starting charge=   -0.003307

     starting charge  228.97806, renormalised to  229.00000

     negative rho (up, down):  0.331E-02 0.000E+00
     Number of +U iterations with fixed ns =  0
     Starting occupations:
 --- enter write_ns ---
 LDA+U parameters:
U( 2)     =  4.00000000
alpha( 2) =  0.00000000
atom    3   Tr[ns(na)] =   3.00000
    eigenvalues:
  0.300  0.300  0.300  0.300  0.300
    eigenvectors:
  1.000  0.000  0.000  0.000  0.000
  0.000  1.000  0.000  0.000  0.000
  0.000  0.000  1.000  0.000  0.000
  0.000  0.000  0.000  1.000  0.000
  0.000  0.000  0.000  0.000  1.000
    occupations:
  0.300  0.000  0.000  0.000  0.000
  0.000  0.300  0.000  0.000  0.000
  0.000  0.000  0.300  0.000  0.000
  0.000  0.000  0.000  0.300  0.000
  0.000  0.000  0.000  0.000  0.300
atom    4   Tr[ns(na)] =   3.00000
    eigenvalues:
  0.300  0.300  0.300  0.300  0.300
    eigenvectors:
  1.000  0.000  0.000  0.000  0.000
  0.000  1.000  0.000  0.000  0.000
  0.000  0.000  1.000  0.000  0.000
  0.000  0.000  0.000  1.000  0.000
  0.000  0.000  0.000  0.000  1.000
    occupations:
  0.300  0.000  0.000  0.000  0.000
  0.000  0.300  0.000  0.000  0.000
  0.000  0.000  0.300  0.000  0.000
  0.000  0.000  0.000  0.300  0.000
  0.000  0.000  0.000  0.000  0.300
atom    9   Tr[ns(na)] =   3.00000
    eigenvalues:
  0.300  0.300  0.300  0.300  0.300
    eigenvectors:
  1.000  0.000  0.000  0.000  0.000
  0.000  1.000  0.000  0.000  0.000
  0.000  0.000  1.000  0.000  0.000
  0.000  0.000  0.000  1.000  0.000
  0.000  0.000  0.000  0.000  1.000
    occupations:
  0.300  0.000  0.000  0.000  0.000
  0.000  0.300  0.000  0.000  0.000
  0.000  0.000  0.300  0.000  0.000
  0.000  0.000  0.000  0.300  0.000
  0.000  0.000  0.000  0.000  0.300
atom   10   Tr[ns(na)] =   3.00000
    eigenvalues:
  0.300  0.300  0.300  0.300  0.300
    eigenvectors:
  1.000  0.000  0.000  0.000  0.000
  0.000  1.000  0.000  0.000  0.000
  0.000  0.000  1.000  0.000  0.000
  0.000  0.000  0.000  1.000  0.000
  0.000  0.000  0.000  0.000  1.000
    occupations:
  0.300  0.000  0.000  0.000  0.000
  0.000  0.300  0.000  0.000  0.000
  0.000  0.000  0.300  0.000  0.000
  0.000  0.000  0.000  0.300  0.000
  0.000  0.000  0.000  0.000  0.300
atom   16   Tr[ns(na)] =   3.00000
    eigenvalues:
  0.300  0.300  0.300  0.300  0.300
    eigenvectors:
  1.000  0.000  0.000  0.000  0.000
  0.000  1.000  0.000  0.000  0.000
  0.000  0.000  1.000  0.000  0.000
  0.000  0.000  0.000  1.000  0.000
  0.000  0.000  0.000  0.000  1.000
    occupations:
  0.300  0.000  0.000  0.000  0.000
  0.000  0.300  0.000  0.000  0.000
  0.000  0.000  0.300  0.000  0.000
  0.000  0.000  0.000  0.300  0.000
  0.000  0.000  0.000  0.000  0.300
atom   17   Tr[ns(na)] =   3.00000
    eigenvalues:
  0.300  0.300  0.300  0.300  0.300
    eigenvectors:
  1.000  0.000  0.000  0.000  0.000
  0.000  1.000  0.000  0.000  0.000
  0.000  0.000  1.000  0.000  0.000
  0.000  0.000  0.000  1.000  0.000
  0.000  0.000  0.000  0.000  1.000
    occupations:
  0.300  0.000  0.000  0.000  0.000
  0.000  0.300  0.000  0.000  0.000
  0.000  0.000  0.300  0.000  0.000
  0.000  0.000  0.000  0.300  0.000
  0.000  0.000  0.000  0.000  0.300
atom   22   Tr[ns(na)] =   3.00000
    eigenvalues:
  0.300  0.300  0.300  0.300  0.300
    eigenvectors:
  1.000  0.000  0.000  0.000  0.000
  0.000  1.000  0.000  0.000  0.000
  0.000  0.000  1.000  0.000  0.000
[...]
  0.000  0.000  0.003  0.000  0.997
  0.000  0.000  0.000  1.000  0.000
    occupations:
  0.509  0.000  0.001  0.010  0.000
  0.000  0.462 -0.000 -0.000  0.001
  0.001 -0.000  0.351 -0.001  0.000
  0.010 -0.000 -0.001  0.684 -0.000
  0.000  0.001  0.000 -0.000  0.544
atom   16   Tr[ns(na)] =   5.17105
    eigenvalues:
  0.351  0.385  0.512  0.581  0.756
    eigenvectors:
  0.000  0.000  0.002  0.377  0.621
  0.000  0.000  0.998  0.002  0.000
  0.002  0.998  0.000  0.000  0.000
  0.000  0.000  0.000  0.621  0.378
  0.998  0.002  0.000  0.000  0.000
    occupations:
  0.690  0.005  0.003 -0.085  0.004
  0.005  0.512  0.001 -0.000  0.001
  0.003  0.001  0.385 -0.001  0.001
 -0.085 -0.000 -0.001  0.647 -0.003
  0.004  0.001  0.001 -0.003  0.352
atom   17   Tr[ns(na)] =   5.22286
    eigenvalues:
  0.392  0.409  0.552  0.587  0.671
    eigenvectors:
  0.000  0.004  0.000  0.996  0.000
  0.000  0.995  0.000  0.004  0.001
  1.000  0.000  0.000  0.000  0.000
  0.000  0.001  0.000  0.000  0.999
  0.000  0.000  1.000  0.000  0.000
    occupations:
  0.587  0.011  0.000 -0.000 -0.000
  0.011  0.410 -0.000 -0.008  0.000
  0.000 -0.000  0.392 -0.000  0.001
 -0.000 -0.008 -0.000  0.670  0.000
 -0.000  0.000  0.001  0.000  0.552
atom   22   Tr[ns(na)] =   5.28347
    eigenvalues:
  0.452  0.463  0.494  0.615  0.619
    eigenvectors:
  0.882  0.001  0.000  0.116  0.002
  0.000  0.000  0.000  0.020  0.980
  0.000  0.095  0.905  0.000  0.000
  0.118  0.000  0.000  0.865  0.018
  0.001  0.904  0.095  0.000  0.000
    occupations:
  0.471 -0.000 -0.000  0.053 -0.000
 -0.000  0.619 -0.000  0.001  0.000
 -0.000 -0.000  0.491 -0.000 -0.009
  0.053  0.001 -0.000  0.596  0.000
 -0.000  0.000 -0.009  0.000  0.466
atom   23   Tr[ns(na)] =   5.24391
    eigenvalues:
  0.359  0.499  0.554  0.595  0.615
    eigenvectors:
  0.004  0.000  0.000  0.836  0.160
  0.000  0.994  0.006  0.000  0.000
  0.996  0.000  0.000  0.002  0.001
  0.000  0.000  0.000  0.162  0.838
  0.000  0.006  0.994  0.000  0.000
    occupations:
  0.598  0.000  0.014  0.007 -0.000
  0.000  0.500  0.000 -0.000 -0.004
  0.014  0.000  0.359  0.003  0.000
  0.007 -0.000  0.003  0.612 -0.000
 -0.000 -0.004  0.000 -0.000  0.554
N of occupied +U levels =  41.6996983
 --- exit write_ns ---

     Threshold (ethr) on eigenvalues was too large:
     Diagonalizing with lowered threshold

     Davidson diagonalization with overlap
     ethr =  1.16E-09,  avg # of iterations =  3.0

[...]

     total energy              =   -1592.88051175 Ry
     Harris-Foulkes estimate   =   -1592.88051176 Ry
     estimated scf accuracy    <       0.00000003 Ry

     iteration #  8     ecut=    40.00 Ry     beta=0.70
     Davidson diagonalization with overlap
     ethr =  1.20E-11,  avg # of iterations =  1.0

     negative rho (up, down):  0.339E-02 0.000E+00

     End of self-consistent calculation
 --- enter write_ns ---
 LDA+U parameters:
U( 2)     =  4.00000000
alpha( 2) =  0.00000000
atom    3   Tr[ns(na)] =   5.17110
    eigenvalues:
  0.350  0.387  0.512  0.581  0.756
    eigenvectors:
  0.000  0.000  0.001  0.377  0.621
  0.000  0.000  0.998  0.001  0.000
  0.043  0.957  0.000  0.000  0.000
  0.000  0.000  0.000  0.622  0.378
  0.957  0.043  0.000  0.000  0.000
    occupations:
  0.690 -0.005  0.003 -0.085 -0.005
 -0.005  0.512 -0.001  0.001  0.001
  0.003 -0.001  0.385 -0.001 -0.008
 -0.085  0.001 -0.001  0.647  0.003
 -0.005  0.001 -0.008  0.003  0.351
atom    4   Tr[ns(na)] =   5.22419
    eigenvalues:
  0.392  0.411  0.553  0.588  0.669
    eigenvectors:
  0.000  0.004  0.000  0.996  0.000
  0.000  0.995  0.000  0.004  0.001
  1.000  0.000  0.000  0.000  0.000
  0.000  0.001  0.000  0.000  0.999
  0.000  0.000  1.000  0.000  0.000
    occupations:
  0.587  0.011  0.000  0.001 -0.000
  0.011  0.412 -0.000 -0.008  0.000
  0.000 -0.000  0.392 -0.000  0.001
  0.001 -0.008 -0.000  0.668  0.000
 -0.000  0.000  0.001  0.000  0.553
atom    9   Tr[ns(na)] =   5.28348
    eigenvalues:
  0.452  0.463  0.494  0.615  0.619
    eigenvectors:
  0.882  0.001  0.000  0.115  0.003
  0.000  0.000  0.000  0.027  0.973
  0.000  0.094  0.906  0.000  0.000
  0.118  0.000  0.000  0.858  0.024
  0.001  0.905  0.094  0.000  0.000
    occupations:
  0.471 -0.000  0.000  0.053  0.000
 -0.000  0.619  0.000 -0.001  0.000
  0.000  0.000  0.491 -0.000  0.009
  0.053 -0.001 -0.000  0.596 -0.000
  0.000  0.000  0.009 -0.000  0.466
atom   10   Tr[ns(na)] =   5.10019
    eigenvalues:
  0.351  0.463  0.508  0.544  0.685
    eigenvectors:
  0.000  0.000  0.997  0.000  0.003
  0.000  1.000  0.000  0.000  0.000
  1.000  0.000  0.000  0.000  0.000
  0.000  0.000  0.003  0.000  0.997
  0.000  0.000  0.000  1.000  0.000
    occupations:
  0.509  0.000  0.001  0.010  0.000
  0.000  0.463 -0.000 -0.001  0.001
  0.001 -0.000  0.351 -0.001  0.000
  0.010 -0.001 -0.001  0.684 -0.000
  0.000  0.001  0.000 -0.000  0.544
atom   16   Tr[ns(na)] =   5.17127
    eigenvalues:
  0.351  0.385  0.512  0.581  0.756
    eigenvectors:
  0.000  0.000  0.002  0.377  0.621
  0.000  0.000  0.998  0.002  0.000
  0.002  0.998  0.000  0.000  0.000
  0.000  0.000  0.000  0.621  0.378
  0.998  0.002  0.000  0.000  0.000
    occupations:
  0.690  0.005  0.003 -0.085  0.004
  0.005  0.512  0.001 -0.000  0.001
  0.003  0.001  0.385 -0.001  0.001
 -0.085 -0.000 -0.001  0.647 -0.003
  0.004  0.001  0.001 -0.003  0.352
atom   17   Tr[ns(na)] =   5.22295
    eigenvalues:
  0.392  0.409  0.552  0.587  0.671
    eigenvectors:
  0.000  0.004  0.000  0.996  0.000
  0.000  0.995  0.000  0.004  0.001
  1.000  0.000  0.000  0.000  0.000
  0.000  0.001  0.000  0.000  0.999
  0.000  0.000  1.000  0.000  0.000
    occupations:
  0.587  0.011  0.000 -0.000 -0.000
  0.011  0.410 -0.000 -0.008  0.000
  0.000 -0.000  0.392 -0.000  0.001
 -0.000 -0.008 -0.000  0.670  0.000
 -0.000  0.000  0.001  0.000  0.552
atom   22   Tr[ns(na)] =   5.28342
    eigenvalues:
  0.452  0.463  0.494  0.615  0.619
    eigenvectors:
  0.882  0.001  0.000  0.116  0.002
  0.000  0.000  0.000  0.020  0.980
  0.000  0.095  0.905  0.000  0.000
  0.118  0.000  0.000  0.865  0.018
  0.001  0.904  0.095  0.000  0.000
    occupations:
  0.471 -0.000 -0.000  0.053 -0.000
 -0.000  0.619 -0.000  0.001  0.000
 -0.000 -0.000  0.491 -0.000 -0.009
  0.053  0.001 -0.000  0.596  0.000
 -0.000  0.000 -0.009  0.000  0.466
atom   23   Tr[ns(na)] =   5.24316
    eigenvalues:
  0.359  0.499  0.554  0.595  0.615
    eigenvectors:
  0.004  0.000  0.000  0.833  0.164
  0.000  0.994  0.006  0.000  0.000
  0.996  0.000  0.000  0.002  0.001
  0.000  0.000  0.000  0.165  0.835
  0.000  0.006  0.994  0.000  0.000
    occupations:
  0.598  0.000  0.014  0.007 -0.000
  0.000  0.499  0.000 -0.000 -0.004
  0.014  0.000  0.359  0.003  0.000
  0.007 -0.000  0.003  0.611 -0.000
 -0.000 -0.004  0.000 -0.000  0.554
N of occupied +U levels =  41.6997634
 --- exit write_ns ---

[...]

          k = 0.2500-0.4237 0.0000 ( 32188 PWs)   bands (ev):

[...]

          k =-0.2500 0.2118 0.0000 ( 32165 PWs)   bands (ev):

   -56.0785 -56.0117 -55.6707 -55.6117 -55.6093 -55.5874 -55.5518 -55.5304
   -32.8889 -32.2905 -32.2361 -32.1743 -32.1400 -32.1228 -32.1044 -32.0759
   -32.0685 -32.0230 -31.9732 -31.9647 -31.9281 -31.9169 -31.8675 -31.6449
   -31.6421 -31.5053 -31.4991 -31.4821 -31.4665 -31.3854 -31.3491 -31.3054
   -22.4528 -20.1076 -19.9488 -19.1936 -18.9675 -18.7798 -18.7209 -18.6728
   -18.6528 -18.6323 -18.6224 -18.5830 -17.9480 -17.9010 -17.8547 -17.8297
   -17.8018 -17.7539 -17.5849 -16.0852  -8.6653  -8.2852  -7.7831  -7.3676
    -6.9405  -6.8027  -6.6553  -6.4670  -6.3259  -6.2997  -6.1654  -6.0898
    -6.0277  -6.0055  -5.8001  -5.7111  -5.6934  -5.5311  -5.4335  -5.3898
    -5.3607  -5.2061  -5.0002  -4.9251  -4.7865  -4.6403  -4.4310  -4.3874
    -4.3370  -4.2089  -4.0948  -4.0674  -4.0081  -3.9706  -3.8466  -3.8065
    -3.7543  -3.7253  -3.6846  -3.6048  -3.4897  -3.3936  -3.3300  -3.2960
    -3.2198  -3.0764  -3.0221  -2.9311  -2.8783  -2.8257  -2.7488  -2.6010
    -2.5404  -2.5046  -2.3752  -2.3413  -2.0329  -1.8780  -0.8001  -0.4996
     0.3590   0.4341   1.2210   1.3659   1.6843   1.8484   1.9859   2.0469
     2.2068   2.3024   2.4248   2.4594   2.4830   2.6054   2.6396   2.7956
     2.8233   2.9275   2.9814   3.0548   3.1026   3.1986   3.2207   3.4853
     3.7856   4.1808   4.3636   4.4501   4.7182   4.8215   5.0136   5.1863
     5.2289   5.2622   5.4252   5.5075   5.5997   5.6967   5.8381   5.8625
     5.9479   6.0332   6.0961   6.1888   6.4230   6.5258   6.5719   6.7159
     6.7897   6.8255   6.8956   7.0642   7.1533   7.3360   7.4023   7.4670
     7.6217   7.7939   7.8875   8.0106   8.0826   8.1444   8.3185   8.3445
     8.5223   8.6034   8.7251   8.7991   8.9553   8.9763   9.0612   9.2436
     9.3221   9.4102   9.4640   9.5607   9.6715   9.7910   9.8760   9.9458
    10.0560  10.1330  10.2143  10.3212  10.4085  10.4431  10.6076  10.7798
    10.8475  10.9881  11.0283  11.1118  11.1644  11.2116  11.3158  11.3910
    11.4725  11.5894  11.6147  11.6559  11.6874  11.8595  11.8998  12.0089
    12.1247  12.1817  12.2289  12.3187  12.4538  12.5433  12.6071  12.7145
    12.7483  12.7836  12.8709  12.9093  12.9450  13.0015  13.0590  13.1714
    13.2186  13.3094  13.3560  13.4234  13.5049  13.5922  13.6275  13.7084
    13.7690  13.8635  13.9165  14.0043  14.0486  14.0906  14.1357  14.2408
    14.3057  14.3947  14.4301  14.4733  14.6509  14.7410  14.8298  14.8797
    14.9552  15.1013  15.1616  15.2404  15.3008  15.3116  15.4066  15.4495
    15.4893  15.5565  15.5863  15.7009  15.7620  15.8061  15.8661  15.8936
    15.9861  16.0435  16.1248  16.1953  16.2859  16.3600  16.3834  16.4428
    16.5569  16.6763  16.7009  16.7528  16.7788  16.8773  16.9196  17.0291
    17.0640  17.1147  17.1823  17.2387  17.3133  17.3747  17.4661  17.4843
    17.5654  17.6235  17.6932  17.8290  17.8732  17.9239  17.9712  18.0653
    18.1206  18.2219  18.3015  18.3475  18.4093  18.5428  18.5789  18.6280
    18.6583  18.7360  18.8128  18.8749  18.9628  19.0042  19.0782  19.0898
    19.1968  19.2748  19.3062  19.3630  19.4366  19.4623  19.5196  19.6101
    19.6832  19.7493  19.7755  19.8166  19.8799  19.9167  19.9778  20.0304
    20.0665  20.1389  20.1710  20.2356  20.2899  20.3559  20.4153

     the Fermi energy is     1.1932 ev

!    total energy              =   -1592.88051175 Ry
     Harris-Foulkes estimate   =   -1592.88051176 Ry
     estimated scf accuracy    <          6.1E-09 Ry

     The total energy is the sum of the following terms:

     one-electron contribution =  -19352.27332629 Ry
     hartree contribution      =    9709.30951804 Ry
     xc contribution           =    -294.68367302 Ry
     ewald contribution        =    8341.97421394 Ry
     Hubbard energy            =       2.79297898 Ry
     smearing contrib. (-TS)   =      -0.00022339 Ry

     convergence has been achieved in   8 iterations

     Forces acting on atoms (Ry/au):

     negative rho (up, down):  0.339E-02 0.000E+00
     atom    1 type  1   force =     0.00161267   -0.00027499    0.00036917
     atom    2 type  1   force =    -0.00036328    0.00034208   -0.00004830
     atom    3 type  2   force =     0.02391971    0.00009106   -0.00014284
     atom    4 type  2   force =    -0.00408661    0.00015247    0.00032156
     atom    5 type  1   force =    -0.00257418   -0.01570354    0.00009234
     atom    6 type  1   force =    -0.00224997    0.01546079    0.00009311
     atom    7 type  1   force =    -0.00015547    0.00048935    0.00010980
     atom    8 type  1   force =     0.00160266    0.00062047   -0.00015755
     atom    9 type  2   force =     0.00074781    0.00041852   -0.00002103
     atom   10 type  2   force =     0.00010917   -0.00024967   -0.00005799
     atom   11 type  1   force =    -0.01137844   -0.00870667   -0.00023044
     atom   12 type  1   force =    -0.01014290    0.01080787   -0.00028346
     atom   13 type  1   force =     0.00035075   -0.00102056   -0.00001699
     atom   14 type  1   force =     0.00120821   -0.00001400    0.00041959
     atom   15 type  1   force =    -0.00035480    0.00008340   -0.00036107
     atom   16 type  2   force =    -0.02261447    0.00004873   -0.00015467
     atom   17 type  2   force =    -0.00424127    0.00015373    0.00032515
     atom   18 type  1   force =     0.00353040   -0.01560385    0.00009431
     atom   19 type  1   force =     0.00300278    0.01540444    0.00010270
     atom   20 type  1   force =    -0.00006053   -0.00601909   -0.00005374
     atom   21 type  1   force =     0.00164880    0.00032676   -0.00008279
     atom   22 type  2   force =    -0.00117347    0.00040640   -0.00002974
     atom   23 type  2   force =     0.00005108    0.00530546    0.00005426
     atom   24 type  1   force =     0.01138937   -0.00873062   -0.00023131
     atom   25 type  1   force =     0.01014286    0.01083828   -0.00027495
     atom   26 type  1   force =     0.00037127   -0.00399536    0.00007969
     atom   27 type  3   force =     0.00000504    0.00008376    0.00022745
     atom   28 type  3   force =     0.00000320   -0.00035457   -0.00014529
     atom   29 type  3   force =    -0.00013088    0.00001677    0.00020609
     atom   30 type  3   force =    -0.00015389   -0.00001428    0.00022167
     atom   31 type  1   force =    -0.00001678   -0.00020162    0.00014285
     atom   32 type  1   force =     0.00000437   -0.00038417   -0.00019283
     atom   33 type  3   force =    -0.00000321    0.00022267   -0.00037477

     Total force =     0.001354     Total SCF correction =     0.000299
     SCF correction compared to forces is large: reduce conv_thr to get better values

     entering subroutine stress ...

     negative rho (up, down):  0.339E-02 0.000E+00
          total   stress  (Ry/bohr**3)                   (kbar)     P=   -3.39
  -0.00002261  -0.00000005   0.00000126         -3.33     -0.01      0.19
  -0.00000005  -0.00001200   0.00000109         -0.01     -1.77      0.16
   0.00000126   0.00000109  -0.00003454          0.19      0.16     -5.08

     bfgs converged in  15 scf cycles and  14 bfgs steps
     (criteria: energy < 0.10E-03, force < 0.10E-02)

     End of BFGS Geometry Optimization

     Final energy   =   -1592.8805117502 Ry
Begin final coordinates

ATOMIC_POSITIONS (crystal)
O0       0.000000000   0.000000000   0.372270684    0   0   1
O0       0.000000000   0.500000000   0.388005095    0   0   1
Nb1      0.250000000   0.500000000   0.443398078    0   0   1
Nb1      0.000000000   0.000000000   0.444972241    0   0   1
O0       0.250000000   0.790000000   0.446808491    0   0   1
O0       0.250000000   0.210000000   0.446754861    0   0   1
O0       0.000000000   0.500000000   0.500059560    0   0   1
O0       0.000000000   0.000000000   0.523605158    0   0   1
Nb1      0.250000000   0.000000000   0.577608486    0   0   1
Nb1      0.000000000   0.500000000   0.569172669    0   0   1
O0       0.250000000   0.710000000   0.576675898    0   0   1
O0       0.250000000   0.290000000   0.576958406    0   0   1
O0       0.000000000   0.000000000   0.621913868    0   0   1
O0       0.500000000   0.000000000   0.372408107    0   0   1
O0       0.500000000   0.500000000   0.388459805    0   0   1
Nb1      0.750000000   0.500000000   0.443401502    0   0   1
Nb1      0.500000000   0.000000000   0.445199459    0   0   1
O0       0.750000000   0.790000000   0.446789861    0   0   1
O0       0.750000000   0.210000000   0.446753515    0   0   1
O0       0.500000000   0.500000000   0.500657505    0   0   1
O0       0.500000000   0.000000000   0.523612207    0   0   1
Nb1      0.750000000   0.000000000   0.577600689    0   0   1
Nb1      0.500000000   0.500000000   0.575613950    0   0   1
O0       0.750000000   0.710000000   0.576688879    0   0   1
O0       0.750000000   0.290000000   0.576974623    0   0   1
O0       0.500000000   0.000000000   0.621643902    0   0   1
H2      -0.000487067   0.505211193   0.351792769
H2       0.499523391   0.499920297   0.352213000
H2       0.150865603   0.000855604   0.356617804
H2       0.650616663   0.000568948   0.356662051
O0       0.499950647   0.506516493   0.649261901
O0       0.500002631   0.347469854   0.683670651
H2       0.499995185   0.419609446   0.715034322
End final coordinates

     General routines

     Parallel routines
     Hubbard U routines

   This run was terminated on:  22:21:44   1Jun2014

   JOB DONE.
Running PBS batch system epilogue script
Job id: 373366.audhumbla.fysik.dtu.dk
Username: zhonxu
Groupname: campgst
Jobname: NbO2/Eads-2-layers/OOH-U-4.0
Sessionid: 28936
Queuename: verylong
Accounting:
This job has allocated the following 16 nodes:
d053 d053 d053 d053 d053 d053 d053 d053 d005 d005 d005 d005 d005 d005 d005 d005
Finished epilogue job 373366.audhumbla.fysik.dtu.dk for zhonxu