     Program PWSCF v.5.0.2 (svn rev. 9656) starts on  9Feb2014 at  0:46:25

     Current dimensions of program PWSCF are:
     Max number of different atomic species (ntypx) = 10
     Max number of k-points (npk) =  40000
     Max angular momentum in pseudopotentials (lmaxx) =  3
     Reading input from VO2-2-pert.in
Warning: card &IONS ignored
Warning: card / ignored
Warning: card &CELL ignored
Warning: card / ignored

     Subspace diagonalization in iterative solution of the eigenvalue problem:
     a serial algorithm will be used

     bravais-lattice index     =            0
     lattice parameter (alat)  =      17.2721  a.u.
     unit-cell volume          =    3202.1180 (a.u.)^3
     number of atoms/cell      =           48
     number of atomic types    =            3
     number of electrons       =       400.00
     number of Kohn-Sham states=          600
     kinetic-energy cutoff     =      40.0000  Ry
     charge density cutoff     =     500.0000  Ry
     convergence threshold     =      1.0E-06
     mixing beta               =       0.7000
     number of iterations used =            8  plain     mixing
     Exchange-correlation      = SLA  PW   PBE  PBE ( 1 4 3 4 0)
     EXX-fraction              =        0.00

     celldm(1)=  17.272097  celldm(2)=   0.000000  celldm(3)=   0.000000
     celldm(4)=   0.000000  celldm(5)=   0.000000  celldm(6)=   0.000000

     crystal axes: (cart. coord. in units of alat)
               a(1) = (   1.000000   0.000000   0.000000 )
               a(2) = (   0.000000   1.000000   0.000000 )
               a(3) = (   0.000000   0.000000   0.621444 )

     reciprocal axes: (cart. coord. in units 2 pi/alat)
               b(1) = (  1.000000  0.000000  0.000000 )
               b(2) = (  0.000000  1.000000  0.000000 )
               b(3) = (  0.000000  0.000000  1.609155 )

     PseudoPot. # 1 for V  read from file:
     /home/camp/zhonxu/pseudo/v_pbe_v1.uspp.F.UPF
     MD5 check sum: f3d00ac417565f5fd6449f790f2b64f9
     Pseudo is Ultrasoft + core correction, Zval = 13.0
     Generated by new atomic code, or converted to UPF format
     Using radial grid of  853 points,  6 beta functions with:
                l(1) =   0
                l(2) =   0
                l(3) =   1
                l(4) =   1
                l(5) =   2
                l(6) =   2
     Q(r) pseudized with  6 coefficients,  rinner =    1.100   1.100   1.100
                                                       1.100   1.100

     PseudoPot. # 2 for O  read from file:
     /home/camp/zhonxu/pseudo/o_pbe_v1.01.uspp.F.UPF
     MD5 check sum: 2bcb18d16ea4b960afae9ec6d52f22d2
     Pseudo is Ultrasoft + core correction, Zval =  6.0
     Generated by new atomic code, or converted to UPF format
     Using radial grid of  737 points,  5 beta functions with:
                l(1) =   0
                l(2) =   0
                l(3) =   1
                l(4) =   1
                l(5) =   2
     Q(r) pseudized with  8 coefficients,  rinner =    0.900   0.900   0.900
                                                       0.900   0.900

     PseudoPot. # 3 for O  read from file:
     /home/camp/zhonxu/pseudo/o_pbe_v1.01.uspp.F.UPF
     MD5 check sum: 2bcb18d16ea4b960afae9ec6d52f22d2
     Pseudo is Ultrasoft + core correction, Zval =  6.0
     Generated by new atomic code, or converted to UPF format
     Using radial grid of  737 points,  5 beta functions with:
                l(1) =   0
                l(2) =   0
                l(3) =   1
                l(4) =   1
                l(5) =   2
     Q(r) pseudized with  8 coefficients,  rinner =    0.900   0.900   0.900
                                                       0.900   0.900

     atomic species   valence    mass     pseudopotential
        V0            13.00    50.94150     V ( 1.00)
        O1             6.00    15.99940     O ( 1.00)
        O2             6.00    15.99940     O ( 1.00)

     Starting magnetic structure
     atomic species   magnetization
        V0           0.600
        O1           0.000
        O2           0.000

     Simplified LDA+U calculation (l_max = 2) with parameters (eV):
     atomic species    L          U    alpha       J0     beta
        V0             2     0.0000   0.0000   0.0000   0.0000
        O1             1     0.0000   0.0000   0.0000   0.0000
        O2             1     0.0000   0.0000   0.0000   0.0000

      4 Sym. Ops. (no inversion) found

   Cartesian axes

     site n.     atom                  positions (alat units)
         1           V0  tau(   1) = (  -0.1500000  -0.1500000   0.0000000  )
         2           V0  tau(   2) = (   0.1000000   0.1000000   0.1553611  )
         3           V0  tau(   3) = (  -0.1500000  -0.1500000   0.3107221  )
         4           V0  tau(   4) = (   0.1000000   0.1000000   0.4660832  )
         5           V0  tau(   5) = (  -0.1500000   0.3500000   0.0000000  )
         6           V0  tau(   6) = (   0.1000000   0.6000000   0.1553611  )
         7           V0  tau(   7) = (  -0.1500000   0.3500000   0.3107221  )
         8           V0  tau(   8) = (   0.1000000   0.6000000   0.4660832  )
         9           V0  tau(   9) = (   0.3500000  -0.1500000   0.0000000  )
        10           V0  tau(  10) = (   0.6000000   0.1000000   0.1553611  )
        11           V0  tau(  11) = (   0.3500000  -0.1500000   0.3107221  )
        12           V0  tau(  12) = (   0.6000000   0.1000000   0.4660832  )
        13           V0  tau(  13) = (   0.3500000   0.3500000   0.0000000  )
        14           V0  tau(  14) = (   0.6000000   0.6000000   0.1553611  )
        15           V0  tau(  15) = (   0.3500000   0.3500000   0.3107221  )
        16           V0  tau(  16) = (   0.6000000   0.6000000   0.4660832  )
        17           O1  tau(  17) = (   0.0000000   0.0000000   0.0000000  )
        18           O2  tau(  18) = (  -0.3000000  -0.3000000   0.0000000  )
        19           O2  tau(  19) = (   0.2500000  -0.0500000   0.1553611  )
        20           O2  tau(  20) = (  -0.0500000   0.2500000   0.1553611  )
        21           O2  tau(  21) = (   0.0000000   0.0000000   0.3107221  )
        22           O2  tau(  22) = (  -0.3000000  -0.3000000   0.3107221  )
        23           O2  tau(  23) = (   0.2500000  -0.0500000   0.4660832  )
        24           O2  tau(  24) = (  -0.0500000   0.2500000   0.4660832  )
        25           O2  tau(  25) = (   0.0000000   0.5000000   0.0000000  )
        26           O2  tau(  26) = (  -0.3000000   0.2000000   0.0000000  )
        27           O2  tau(  27) = (   0.2500000   0.4500000   0.1553611  )
        28           O2  tau(  28) = (  -0.0500000   0.7500000   0.1553611  )
        29           O2  tau(  29) = (   0.0000000   0.5000000   0.3107221  )
        30           O2  tau(  30) = (  -0.3000000   0.2000000   0.3107221  )
        31           O2  tau(  31) = (   0.2500000   0.4500000   0.4660832  )
        32           O2  tau(  32) = (  -0.0500000   0.7500000   0.4660832  )
        33           O2  tau(  33) = (   0.5000000   0.0000000   0.0000000  )
        34           O2  tau(  34) = (   0.2000000  -0.3000000   0.0000000  )
        35           O2  tau(  35) = (   0.7500000  -0.0500000   0.1553611  )
        36           O2  tau(  36) = (   0.4500000   0.2500000   0.1553611  )
        37           O2  tau(  37) = (   0.5000000   0.0000000   0.3107221  )
        38           O2  tau(  38) = (   0.2000000  -0.3000000   0.3107221  )
        39           O2  tau(  39) = (   0.7500000  -0.0500000   0.4660832  )
        40           O2  tau(  40) = (   0.4500000   0.2500000   0.4660832  )
        41           O2  tau(  41) = (   0.5000000   0.5000000   0.0000000  )
        42           O2  tau(  42) = (   0.2000000   0.2000000   0.0000000  )
        43           O2  tau(  43) = (   0.7500000   0.4500000   0.1553611  )
        44           O2  tau(  44) = (   0.4500000   0.7500000   0.1553611  )
        45           O2  tau(  45) = (   0.5000000   0.5000000   0.3107221  )
        46           O2  tau(  46) = (   0.2000000   0.2000000   0.3107221  )
        47           O2  tau(  47) = (   0.7500000   0.4500000   0.4660832  )
        48           O2  tau(  48) = (   0.4500000   0.7500000   0.4660832  )

     number of k points=    42  Methfessel-Paxton smearing, width (Ry)=  0.0100
                       cart. coord. in units 2pi/alat
        k(    1) = (   0.0000000   0.0000000   0.0000000), wk =   0.0156250
        k(    2) = (   0.0000000   0.0000000   0.4022887), wk =   0.0312500
        k(    3) = (   0.0000000   0.0000000  -0.8045775), wk =   0.0156250
        k(    4) = (   0.0000000   0.2500000   0.0000000), wk =   0.0625000
        k(    5) = (   0.0000000   0.2500000   0.4022887), wk =   0.1250000
        k(    6) = (   0.0000000   0.2500000  -0.8045775), wk =   0.0625000
        k(    7) = (   0.0000000  -0.5000000   0.0000000), wk =   0.0312500
        k(    8) = (   0.0000000  -0.5000000   0.4022887), wk =   0.0625000
        k(    9) = (   0.0000000  -0.5000000  -0.8045775), wk =   0.0312500
        k(   10) = (   0.2500000   0.2500000   0.0000000), wk =   0.0312500
        k(   11) = (   0.2500000   0.2500000   0.4022887), wk =   0.0625000
        k(   12) = (   0.2500000   0.2500000  -0.8045775), wk =   0.0312500
        k(   13) = (   0.2500000  -0.5000000   0.0000000), wk =   0.0625000
        k(   14) = (   0.2500000  -0.5000000   0.4022887), wk =   0.1250000
        k(   15) = (   0.2500000  -0.5000000  -0.8045775), wk =   0.0625000
        k(   16) = (  -0.5000000  -0.5000000   0.0000000), wk =   0.0156250
        k(   17) = (  -0.5000000  -0.5000000   0.4022887), wk =   0.0312500
        k(   18) = (  -0.5000000  -0.5000000  -0.8045775), wk =   0.0156250
        k(   19) = (   0.2500000  -0.2500000   0.0000000), wk =   0.0312500
        k(   20) = (   0.2500000  -0.2500000   0.4022887), wk =   0.0625000
        k(   21) = (   0.2500000  -0.2500000  -0.8045775), wk =   0.0312500
        k(   22) = (   0.0000000   0.0000000   0.0000000), wk =   0.0156250
        k(   23) = (   0.0000000   0.0000000   0.4022887), wk =   0.0312500
        k(   24) = (   0.0000000   0.0000000  -0.8045775), wk =   0.0156250
        k(   25) = (   0.0000000   0.2500000   0.0000000), wk =   0.0625000
        k(   26) = (   0.0000000   0.2500000   0.4022887), wk =   0.1250000
        k(   27) = (   0.0000000   0.2500000  -0.8045775), wk =   0.0625000
        k(   28) = (   0.0000000  -0.5000000   0.0000000), wk =   0.0312500
        k(   29) = (   0.0000000  -0.5000000   0.4022887), wk =   0.0625000
        k(   30) = (   0.0000000  -0.5000000  -0.8045775), wk =   0.0312500
        k(   31) = (   0.2500000   0.2500000   0.0000000), wk =   0.0312500
        k(   32) = (   0.2500000   0.2500000   0.4022887), wk =   0.0625000
        k(   33) = (   0.2500000   0.2500000  -0.8045775), wk =   0.0312500
        k(   34) = (   0.2500000  -0.5000000   0.0000000), wk =   0.0625000
        k(   35) = (   0.2500000  -0.5000000   0.4022887), wk =   0.1250000
        k(   36) = (   0.2500000  -0.5000000  -0.8045775), wk =   0.0625000
[...]
  0.877  0.887  0.888
    eigenvectors:
  0.000  1.000  0.000
  0.500  0.000  0.500
  0.500  0.000  0.500
    occupations:
  0.887 -0.000 -0.000
 -0.000  0.883  0.006
 -0.000  0.006  0.883
   spin  2
    eigenvalues:
  0.894  0.907  0.911
    eigenvectors:
  0.000  1.000  0.000
  0.500  0.000  0.500
  0.500  0.000  0.500
    occupations:
  0.907 -0.000 -0.000
 -0.000  0.903 -0.008
 -0.000 -0.008  0.903
atomic mag. moment =    -0.059579
atom   42   Tr[ns(na)] (up, down, total) =   2.65230  2.71188  5.36418
   spin  1
    eigenvalues:
  0.877  0.887  0.888
    eigenvectors:
  0.000  1.000  0.000
  0.500  0.000  0.500
  0.500  0.000  0.500
    occupations:
  0.887 -0.000 -0.000
 -0.000  0.883  0.006
 -0.000  0.006  0.883
   spin  2
    eigenvalues:
  0.894  0.907  0.911
    eigenvectors:
  0.000  1.000  0.000
  0.500  0.000  0.500
  0.500  0.000  0.500
    occupations:
  0.907 -0.000 -0.000
 -0.000  0.903 -0.008
 -0.000 -0.008  0.903
atomic mag. moment =    -0.059578
atom   43   Tr[ns(na)] (up, down, total) =   2.65230  2.71188  5.36418
   spin  1
    eigenvalues:
  0.877  0.887  0.888
    eigenvectors:
  0.000  1.000  0.000
  0.500  0.000  0.500
  0.500  0.000  0.500
    occupations:
  0.887  0.000 -0.000
  0.000  0.883 -0.006
 -0.000 -0.006  0.883
   spin  2
    eigenvalues:
  0.894  0.907  0.911
    eigenvectors:
  0.000  1.000  0.000
  0.500  0.000  0.500
  0.500  0.000  0.500
    occupations:
  0.907  0.000 -0.000
  0.000  0.903  0.008
 -0.000  0.008  0.903
atomic mag. moment =    -0.059586
atom   44   Tr[ns(na)] (up, down, total) =   2.65230  2.71188  5.36418
   spin  1
    eigenvalues:
  0.877  0.887  0.888
    eigenvectors:
  0.000  1.000  0.000
  0.500  0.000  0.500
  0.500  0.000  0.500
    occupations:
  0.887 -0.000  0.000
 -0.000  0.883 -0.006
  0.000 -0.006  0.883
   spin  2
    eigenvalues:
  0.894  0.907  0.911
    eigenvectors:
  0.000  1.000  0.000
  0.500  0.000  0.500
  0.500  0.000  0.500
    occupations:
  0.907 -0.000  0.000
 -0.000  0.903  0.008
  0.000  0.008  0.903
atomic mag. moment =    -0.059586
atom   45   Tr[ns(na)] (up, down, total) =   2.65231  2.71189  5.36419
   spin  1
    eigenvalues:
  0.877  0.887  0.888
    eigenvectors:
  0.000  1.000  0.000
  0.500  0.000  0.500
  0.500  0.000  0.500
    occupations:
  0.887 -0.000 -0.000
 -0.000  0.883  0.006
 -0.000  0.006  0.883
   spin  2
    eigenvalues:
  0.894  0.907  0.911
    eigenvectors:
  0.000  1.000  0.000
  0.500  0.000  0.500
  0.500  0.000  0.500
    occupations:
  0.907 -0.000 -0.000
 -0.000  0.903 -0.008
 -0.000 -0.008  0.903
atomic mag. moment =    -0.059580
atom   46   Tr[ns(na)] (up, down, total) =   2.65230  2.71188  5.36419
   spin  1
    eigenvalues:
  0.877  0.887  0.888
    eigenvectors:
  0.000  1.000  0.000
  0.500  0.000  0.500
  0.500  0.000  0.500
    occupations:
  0.887 -0.000 -0.000
 -0.000  0.883  0.006
 -0.000  0.006  0.883
   spin  2
    eigenvalues:
  0.894  0.907  0.911
    eigenvectors:
  0.000  1.000  0.000
  0.500  0.000  0.500
  0.500  0.000  0.500
    occupations:
  0.907 -0.000 -0.000
 -0.000  0.903 -0.008
 -0.000 -0.008  0.903
atomic mag. moment =    -0.059579
atom   47   Tr[ns(na)] (up, down, total) =   2.65230  2.71188  5.36418
   spin  1
    eigenvalues:
  0.877  0.887  0.888
    eigenvectors:
  0.000  1.000  0.000
  0.500  0.000  0.500
  0.500  0.000  0.500
    occupations:
  0.887 -0.000  0.000
 -0.000  0.883 -0.006
  0.000 -0.006  0.883
   spin  2
    eigenvalues:
  0.894  0.907  0.911
    eigenvectors:
  0.000  1.000  0.000
  0.500  0.000  0.500
  0.500  0.000  0.500
    occupations:
  0.907 -0.000  0.000
 -0.000  0.903  0.008
  0.000  0.008  0.903
atomic mag. moment =    -0.059586
atom   48   Tr[ns(na)] (up, down, total) =   2.65230  2.71188  5.36418
   spin  1
    eigenvalues:
  0.877  0.887  0.888
    eigenvectors:
  0.000  1.000  0.000
  0.500  0.000  0.500
  0.500  0.000  0.500
    occupations:
  0.887  0.000 -0.000
  0.000  0.883 -0.006
 -0.000 -0.006  0.883
   spin  2
    eigenvalues:
  0.894  0.907  0.911
    eigenvectors:
  0.000  1.000  0.000
  0.500  0.000  0.500
  0.500  0.000  0.500
    occupations:
  0.907  0.000 -0.000
  0.000  0.903  0.008
 -0.000  0.008  0.903
atomic mag. moment =    -0.059586
N of occupied +U levels = 243.5038872
 --- exit write_ns ---

 ------ SPIN UP ------------

          k = 0.0000 0.0000 0.0000 ( 13729 PWs)   bands (ev):

   -55.1757 -55.1716 -55.1716 -55.1715 -55.1714 -55.1714 -55.1714 -55.1673
   -55.1375 -55.1375 -55.1375 -55.1374 -55.1373 -55.1373 -55.1373 -55.1373
   -29.2558 -29.2558 -29.2557 -29.2556 -29.2529 -29.2527 -29.2526 -29.2524
   -29.0084 -29.0084 -29.0014 -29.0014 -28.9617 -28.9616 -28.9615 -28.9615
   -28.9587 -28.9587 -28.9585 -28.9585 -28.9308 -28.9306 -28.9299 -28.9297
   -28.9275 -28.9275 -28.9273 -28.9273 -28.9197 -28.9174 -28.9174 -28.9124
   -28.9124 -28.9094 -28.9094 -28.9094 -28.9092 -28.9092 -28.9092 -28.8990
   -28.8908 -28.8906 -28.8902 -28.8900 -28.8900 -28.8900 -28.8899 -28.8898
    -9.0731  -8.2971  -8.2971  -8.2971  -8.2970  -8.2774  -8.2773  -7.7680
    -7.7679  -7.7679  -7.7679  -7.6279  -7.5769  -7.5769  -7.4941  -7.4941
    -7.4785  -7.4784  -7.3679  -7.3678  -7.2865  -7.2864  -7.2787  -7.2786
    -7.2786  -7.2786  -7.1763  -7.1762  -7.1762  -7.1762  -7.1359  -7.1358
     3.1608   3.4863   3.4863   3.7625   3.9876   3.9876   3.9876   3.9876
     4.1027   4.1027   4.1027   4.1027   4.1754   4.3595   4.3595   4.3784
     4.3784   4.5560   4.5561   4.8897   4.8897   4.8897   4.8897   5.3429
     5.3429   5.4493   5.4494   5.4883   5.4884   5.5493   5.5494   5.5777
     5.5778   5.6293   5.6294   5.6294   5.6294   5.7834   5.7834   5.7835
     5.7835   5.8350   5.8350   5.8350   5.8350   6.0062   6.0062   6.0062
     6.0062   6.1200   6.1200   6.1542   6.1542   6.4643   6.4643   6.5344
     6.5344   6.8433   6.8433   6.8433   6.8433   6.8856   6.8857   6.9439
     6.9439   7.1296   7.1296   7.1296   7.1296   7.5095   7.7482   7.7482
     7.7482   7.7482   7.8141   7.8141   7.9864   7.9864   8.1748   8.1748
     8.2219   8.2219   8.4418   8.4418   8.4418   8.4418   8.7051   8.7051
     8.7502   8.7502   8.7502   8.7502   8.8798   9.0162   9.0162   9.4300
     9.9320   9.9600   9.9601  10.1010  10.1010  10.1010  10.1011  10.1648
    10.6129  10.6130  10.6290  10.6290  10.6291  10.6292  10.6316  10.6317
    10.7005  11.0188  11.0189  11.2366  11.2366  11.2367  11.2367  11.3371
    11.3372  11.4005  11.4006  11.4700  11.4701  11.4702  11.4702  11.4831
    11.4833  11.4869  11.4870  11.9202  11.9202  11.9203  11.9203  11.9864
    11.9865  12.2484  12.2484  12.2484  12.2484  12.3174  12.3175  12.7279
    12.8447  13.2572  13.2572  13.2572  13.2572  13.8943  13.8944  14.1848
    14.1849  14.4337  14.4338  14.5584  14.5584  14.5585  14.5586  14.6040
    14.6041  14.6060  14.6062  14.6719  14.6719  14.6720  14.6720  14.9775
    14.9776  14.9912  14.9913  15.7602  15.7602  15.7602  15.7602  16.0999
    17.7274  20.0927  20.0927  20.0927  20.0927  21.2960  21.2960  21.4250
    21.4250  21.6213  21.6214  22.2698  22.2698  22.2698  22.2698  22.4826
    22.4826  22.7047  22.7047  23.1089  23.1089  23.1089  23.1089  23.2462
    23.2463  24.1602  24.1602  24.1602  24.1602  24.4985  24.6671  24.6671
    25.0780  25.0780  25.2693  25.3168  25.3168  25.3813  25.5236  25.5236
    25.5236  25.5236  25.6251  25.6251  25.7630  25.7630  25.7630  25.7630
    26.9264  26.9264  26.9832  26.9833  26.9884  26.9884  26.9884  26.9884
    27.1269  27.1270  27.3322  27.4254  27.4254  27.4254  27.4254  27.5154
    27.5154  27.5154  27.5154  27.6036  27.6036  27.6036  27.6036  27.6853
    27.6853  28.3408  28.3408  28.3697  28.3697  28.9280  28.9280  28.9423
    28.9424  29.6467  29.6467  29.6467  29.6467  29.9186  29.9186  30.2747
    30.9571  31.3478  31.3478  31.7165  31.7165  32.2540  32.2540  32.2540
    32.2540  32.6094  32.6094  32.6094  32.6094  33.0041  33.0041  33.0100
    33.0100  33.0854  33.0854  33.0855  33.0855  33.1940  33.1940  33.1940
    33.1940  33.3061  33.3062  33.8192  33.8193  33.9105  34.0452  34.0453
    34.5770  34.8522  34.8522  35.2573  35.2573  35.2573  35.2573  35.5311
    35.5312  35.9161  35.9181  35.9181  35.9460  35.9460  35.9460  35.9460
    36.0163  36.4713  36.4714  37.0112  37.0112  37.2930  37.2930  37.3304
    37.3304  37.3548  37.3548  37.3548  37.3548  37.5044  37.5044  37.5718
    37.5718  37.5718  37.5718  37.7797  37.7797  37.7797  37.7797  38.2027
    38.2028  38.2028  38.2028  38.4404  38.4404  38.4404  38.4404  38.4411
    38.6594  38.6594  39.1796  39.1796  40.2838  40.2838  41.1122  41.1267
    41.1267  41.7306  41.7307  41.7408  41.7409  41.7900  41.9147  41.9147
    42.4148  42.4148  42.4148  42.4149  42.8843  42.8843  42.9251  42.9251
    42.9251  42.9251  43.0484  43.1424  43.1424  43.1424  43.1424  43.4120
    43.4120  43.4387  43.4387  43.4837  43.4837  43.4837  43.4837  43.6027
    43.6028  43.6867  43.6867  43.6867  43.6867  44.4960  44.6112  44.6112
    44.8363  44.8363  44.8644  44.8644  45.5249  45.5249  45.6596  45.6596
    45.6876  45.6876  45.6876  45.6876  45.7294  45.7852  45.7852  46.5263
    46.5263  46.5263  46.5263  46.6249  46.6249  46.6249  46.6249  46.6391
    46.6391  46.8582  46.8582  46.9734  46.9734  46.9734  46.9734  47.0771
    47.0771  47.2503  47.2504  47.4978  47.4979  47.4979  47.4979  47.6200
    47.8339  47.8339  47.8340  47.8340  47.8473  47.8473  47.9324  47.9324
    48.2898  48.2898  48.5170  48.5170  48.6137  48.6138  48.8236  48.8236
    48.8369  48.8369  48.8369  48.8369  49.3706  49.3706  49.4067  49.4067
    49.4067  49.4067  49.5882  50.0553  50.0553  50.0553  50.0553  50.0853
    50.0853  50.0927  50.0927  50.0927  50.0928  50.1924  50.1924  50.1924
    50.1924  50.2752  50.2752  50.4486  50.8311  50.8311  50.8311  50.8311
    50.8394  50.8394  51.3782  51.3782  51.5863  51.5864  52.0725  52.1405
    52.1406  52.2137  52.2137  52.2824  52.2824  52.2824  52.2824  52.3588
    52.3588  52.4901  52.5282  52.5282  52.5282  52.5282  53.2785  53.2785

[...]

          k =-0.5000-0.5000 0.0000 ( 13640 PWs)   bands (ev):

[...]

 ------ SPIN DOWN ----------

[...]

          k =-0.5000-0.5000-0.8046 ( 13712 PWs)   bands (ev):

[...]

          k = 0.2500-0.2500-0.8046 ( 13696 PWs)   bands (ev):

   -53.9996 -53.9996 -53.9980 -53.9980 -53.9980 -53.9979 -53.9973 -53.9973
   -53.9964 -53.9963 -53.9957 -53.9957 -53.9957 -53.9956 -53.9941 -53.9940
   -27.9897 -27.9896 -27.9879 -27.9879 -27.9879 -27.9878 -27.9844 -27.9843
   -27.9825 -27.9825 -27.9825 -27.9824 -27.9820 -27.9820 -27.9771 -27.9770
   -27.8272 -27.8271 -27.8235 -27.8234 -27.8173 -27.8172 -27.8150 -27.8150
   -27.8150 -27.8149 -27.8128 -27.8127 -27.8004 -27.8003 -27.8003 -27.8001
   -27.7659 -27.7659 -27.7659 -27.7659 -27.7546 -27.7545 -27.7531 -27.7530
   -27.7530 -27.7529 -27.7515 -27.7513 -27.7457 -27.7457 -27.7434 -27.7434
    -8.4357  -8.4357  -8.1575  -8.1575  -8.1575  -8.1575  -7.9997  -7.9997
    -7.8137  -7.8137  -7.7466  -7.7466  -7.7466  -7.7466  -7.4703  -7.4702
    -7.4636  -7.4636  -7.4491  -7.4491  -7.4405  -7.4405  -7.4334  -7.4334
    -7.4334  -7.4334  -7.4124  -7.4124  -7.4124  -7.4124  -7.3847  -7.3847
     4.2425   4.2425   4.2808   4.2808   4.4875   4.4875   4.4875   4.4875
     4.5399   4.5399   4.6398   4.6398   4.6940   4.6940   4.7365   4.7365
     4.8009   4.8009   4.8009   4.8009   4.8412   4.8412   4.9414   4.9414
     4.9414   4.9414   5.0286   5.0286   5.0286   5.0287   5.1603   5.1603
     5.5365   5.5365   5.7221   5.7221   5.7222   5.7222   5.8985   5.8985
     6.1167   6.1167   6.1167   6.1167   6.1961   6.1961   6.2709   6.2709
     6.2709   6.2709   6.5191   6.5191   6.5472   6.5472   6.8444   6.8444
     6.8651   6.8651   6.8652   6.8652   7.1410   7.1411   7.1411   7.1411
     7.1600   7.1600   7.1748   7.1748   7.4247   7.4247   7.4439   7.4439
     7.5851   7.5851   7.7157   7.7157   7.7157   7.7157   7.7901   7.7902
     8.0020   8.0020   8.0629   8.0629   8.2753   8.2753   8.2753   8.2753
     8.3524   8.3524   8.7034   8.7034   8.7034   8.7034   8.9592   8.9592
    11.5490  11.5490  11.7224  11.7224  11.7224  11.7224  11.8907  11.8907
    11.9506  11.9507  11.9623  11.9623  12.0889  12.0889  12.0889  12.0889
    12.1729  12.1729  12.2552  12.2552  12.2552  12.2553  12.2793  12.2793
    12.3245  12.3246  12.4412  12.4412  12.5437  12.5438  12.5813  12.5813
    12.5813  12.5813  12.6825  12.6826  12.8204  12.8204  12.8204  12.8204
    12.8549  12.8549  13.0717  13.0717  13.0717  13.0717  13.3367  13.3367
    14.0889  14.0889  14.0889  14.0889  14.2600  14.2600  14.4947  14.4947
    14.4947  14.4948  14.5085  14.5085  14.7991  14.7991  15.0852  15.0853
    15.0871  15.0871  15.0891  15.0891  15.3811  15.3811  15.3811  15.3811
    15.5759  15.5759  15.9412  15.9412  15.9412  15.9412  16.0070  16.0071
    19.8628  19.8629  20.7859  20.7859  20.7859  20.7859  21.3483  21.3483
    22.0811  22.0811  22.1805  22.1805  22.1805  22.1805  23.4100  23.4100
    23.6767  23.6767  23.7204  23.7205  24.2638  24.2638  24.2638  24.2638
    24.2837  24.2837  25.0429  25.0429  25.1081  25.1081  25.2442  25.2442
    25.2443  25.2443  25.4595  25.4595  25.4595  25.4596  25.6029  25.6029
    25.6763  25.6763  25.6881  25.6881  25.6881  25.6881  26.1880  26.1880
    26.9286  26.9286  26.9286  26.9287  27.2180  27.2180  27.2516  27.2516
    27.3550  27.3550  27.3550  27.3551  27.4159  27.4159  27.4980  27.4980
    27.8146  27.8146  27.8146  27.8146  28.2981  28.2981  28.3553  28.3553
    28.6335  28.6335  28.8388  28.8388  29.0362  29.0362  29.0362  29.0362
    29.2615  29.2615  29.6858  29.6858  29.6858  29.6858  29.7023  29.7024
    30.3647  30.3647  30.5527  30.5527  30.5527  30.5528  31.5370  31.5370
    31.7103  31.7103  31.7103  31.7103  32.1835  32.1836  32.5388  32.5388
    33.9069  33.9069  34.0685  34.0685  34.0685  34.0685  34.3175  34.3175
    34.4746  34.4746  34.7736  34.7736  35.0437  35.0437  35.0586  35.0586
    35.2149  35.2149  35.2149  35.2150  35.6762  35.6762  35.8052  35.8052
    35.8052  35.8052  36.1893  36.1893  36.1893  36.1893  36.3346  36.3346
    36.5572  36.5572  36.7135  36.7135  36.7135  36.7135  37.0887  37.0887
    37.4043  37.4043  37.8147  37.8148  37.8148  37.8148  38.2735  38.2735
    38.2735  38.2735  38.5400  38.5400  38.5992  38.5992  39.1254  39.1254
    39.2498  39.2498  39.2498  39.2498  39.2679  39.2679  39.3960  39.3960
    39.7564  39.7564  40.0950  40.0950  40.0950  40.0950  40.1559  40.1559
    40.2973  40.2973  40.2973  40.2973  40.9094  40.9094  41.1449  41.1449
    42.2319  42.2319  42.2319  42.2319  42.2434  42.2434  42.5619  42.5619
    42.8358  42.8358  42.9183  42.9183  42.9852  42.9852  42.9852  42.9852
    43.3426  43.3426  43.7444  43.7444  44.0546  44.0546  44.0546  44.0546
    44.7125  44.7125  44.7367  44.7368  44.7368  44.7368  45.1594  45.1594
    45.1618  45.1618  46.1645  46.1645  46.3381  46.3381  46.3381  46.3381
    46.3750  46.3750  46.4070  46.4070  46.4070  46.4070  46.4895  46.4895
    46.5220  46.5220  46.6869  46.6869  47.0035  47.0035  47.0035  47.0035
    47.3016  47.3016  48.0415  48.0415  48.1583  48.1583  48.1845  48.1845
    48.1845  48.1845  48.3416  48.3417  48.3417  48.3417  48.4330  48.4330
    48.8721  48.8721  48.9570  48.9570  48.9570  48.9570  49.3216  49.3216
    49.3216  49.3217  49.3764  49.3764  49.4836  49.4836  49.5342  49.5342
    49.5553  49.5553  49.5903  49.5903  49.8504  49.8504  49.8504  49.8504
    49.9307  49.9307  49.9307  49.9307  50.0178  50.0178  50.1795  50.1795
    50.1795  50.1796  50.2431  50.2431  50.3739  50.3739  50.3763  50.3763
    50.5373  50.5373  50.6863  50.6863  50.9244  50.9244  51.0237  51.0237
    51.0237  51.0237  51.2574  51.2574  51.2574  51.2574  51.3854  51.3854
    51.4987  51.4987  51.6170  51.6170  51.6170  51.6170  52.0347  52.0347
    52.0347  52.0347  52.1197  52.1197  52.5772  52.5772  52.7886  52.7886

     the Fermi energy is    10.9450 ev

!    total energy              =   -3356.38688421 Ry
     Harris-Foulkes estimate   =   -3356.38688448 Ry
     estimated scf accuracy    <       0.00000032 Ry

     The total energy is the sum of the following terms:

     one-electron contribution =   -1296.45869277 Ry
     hartree contribution      =     845.55399538 Ry
     xc contribution           =    -537.24301523 Ry
     ewald contribution        =   -2368.23960066 Ry
     Hubbard energy            =       0.00000000 Ry
     smearing contrib. (-TS)   =       0.00042906 Ry

     total magnetization       =    16.02 Bohr mag/cell
     absolute magnetization    =    19.66 Bohr mag/cell

     convergence has been achieved in  37 iterations

     Writing output data file pwscf.save

     General routines

     Parallel routines
     Hubbard U routines

   This run was terminated on:  12:54:33   9Feb2014

   JOB DONE.