     Program PWSCF v.5.0.2 (svn rev. 9656) starts on  9May2014 at 12: 2:37

     Current dimensions of program PWSCF are:
     Max number of different atomic species (ntypx) = 10
     Max number of k-points (npk) =  40000
     Max angular momentum in pseudopotentials (lmaxx) =  3
     Reading input from pwscf.in
Warning: card &CELL ignored
Warning: card / ignored

     Subspace diagonalization in iterative solution of the eigenvalue problem:
     a serial algorithm will be used

     Found symmetry operation: I + ( -0.5000  0.0000  0.0000)
     This is a supercell, fractional translations are disabled

     bravais-lattice index     =            0
     lattice parameter (alat)  =      10.7336  a.u.
     unit-cell volume          =    6184.1966 (a.u.)^3
     number of atoms/cell      =           30
     number of atomic types    =            3
     number of electrons       =       232.00 (up: 128.00, down: 104.00)
     number of Kohn-Sham states=          336
     kinetic-energy cutoff     =      40.0000  Ry
     charge density cutoff     =     500.0000  Ry
     convergence threshold     =      1.0E-06
     mixing beta               =       0.7000
     number of iterations used =            8  plain     mixing
     Exchange-correlation      = SLA  PW   PBE  PBE ( 1 4 3 4 0)
     EXX-fraction              =        0.00
     nstep                     =           50

     celldm(1)=  10.733644  celldm(2)=   0.000000  celldm(3)=   0.000000
     celldm(4)=   0.000000  celldm(5)=   0.000000  celldm(6)=   0.000000

     crystal axes: (cart. coord. in units of alat)
               a(1) = (   1.000000   0.000000   0.000000 )
               a(2) = (   0.000000   1.085558   0.000000 )
               a(3) = (   0.000000   0.000000   4.606685 )

     reciprocal axes: (cart. coord. in units 2 pi/alat)
               b(1) = (  1.000000  0.000000  0.000000 )
               b(2) = (  0.000000  0.921185  0.000000 )
               b(3) = (  0.000000  0.000000  0.217076 )

     PseudoPot. # 1 for O  read from file:
     /home/camp/zhonxu/pseudo/o_pbe_v1.01.uspp.F.UPF
     MD5 check sum: 2bcb18d16ea4b960afae9ec6d52f22d2
     Pseudo is Ultrasoft + core correction, Zval =  6.0
     Generated by new atomic code, or converted to UPF format
     Using radial grid of  737 points,  5 beta functions with:
                l(1) =   0
                l(2) =   0
                l(3) =   1
                l(4) =   1
                l(5) =   2
     Q(r) pseudized with  8 coefficients,  rinner =    0.900   0.900   0.900
                                                       0.900   0.900

     PseudoPot. # 2 for Mn read from file:
     /home/camp/zhonxu/pseudo/mn_pbe_v1.uspp.F.UPF
     MD5 check sum: 5fd7c7b5c956fd19902447332617373a
     Pseudo is Ultrasoft + core correction, Zval = 15.0
     Generated by new atomic code, or converted to UPF format
     Using radial grid of  859 points,  6 beta functions with:
                l(1) =   0
                l(2) =   0
                l(3) =   1
                l(4) =   1
                l(5) =   2
                l(6) =   2
     Q(r) pseudized with  6 coefficients,  rinner =    1.150   1.150   1.150
                                                       1.150   1.150

     PseudoPot. # 3 for H  read from file:
     /home/camp/zhonxu/pseudo/h_pbe_v1.uspp.F.UPF
     MD5 check sum: 3408e3ff4ec8b0a4e358431e7e038a48
     Pseudo is Ultrasoft, Zval =  1.0
     Generated by new atomic code, or converted to UPF format
     Using radial grid of  615 points,  2 beta functions with:
                l(1) =   0
                l(2) =   0
     Q(r) pseudized with  8 coefficients,  rinner =    0.700

     atomic species   valence    mass     pseudopotential
        O0             6.00    15.99940     O ( 1.00)
        Mn1           15.00    54.93800     Mn( 1.00)
        H2             1.00     1.00794     H ( 1.00)

     Starting magnetic structure
     atomic species   magnetization
        O0           0.000
        Mn1          0.600
        H2           0.000

     Simplified LDA+U calculation (l_max = 2) with parameters (eV):
     atomic species    L          U    alpha       J0     beta
        Mn1            2     7.0000   0.0000   0.0000   0.0000

     No symmetry found

   Cartesian axes

     site n.     atom                  positions (alat units)
         1           O0  tau(   1) = (   0.0000000   0.0000000   1.7440910  )
         2           O0  tau(   2) = (   0.0000000   0.5427791   1.8348887  )
         3           Mn1 tau(   3) = (   0.2500000   0.5427791   2.0695072  )
         4           Mn1 tau(   4) = (   0.0000000   0.0000000   2.0719487  )
         5           O0  tau(   5) = (   0.2500000   0.8684466   2.0695533  )
         6           O0  tau(   6) = (   0.2500000   0.2171117   2.0770161  )
         7           O0  tau(   7) = (   0.0000000   0.5427791   2.2881405  )
         8           O0  tau(   8) = (   0.0000000   0.0000000   2.4167130  )
         9           Mn1 tau(   9) = (   0.2500000   0.0000000   2.6452046  )
        10           Mn1 tau(  10) = (   0.0000000   0.5427791   2.6189465  )
        11           O0  tau(  11) = (   0.2500000   0.7598908   2.6694358  )
        12           O0  tau(  12) = (   0.2500000   0.3256675   2.6696661  )
        13           O0  tau(  13) = (   0.0000000   0.0000000   2.8462864  )
        14           O0  tau(  14) = (   0.5000000   0.0000000   1.7440910  )
        15           O0  tau(  15) = (   0.5000000   0.5427791   1.8348887  )
        16           Mn1 tau(  16) = (   0.7500000   0.5427791   2.0695072  )
        17           Mn1 tau(  17) = (   0.5000000   0.0000000   2.0719487  )
        18           O0  tau(  18) = (   0.7500000   0.8684466   2.0695533  )
        19           O0  tau(  19) = (   0.7500000   0.2171117   2.0770161  )
        20           O0  tau(  20) = (   0.5000000   0.5427791   2.2881405  )
        21           O0  tau(  21) = (   0.5000000   0.0000000   2.4167130  )
        22           Mn1 tau(  22) = (   0.7500000   0.0000000   2.6452046  )
        23           Mn1 tau(  23) = (   0.5000000   0.5427791   2.6189465  )
        24           O0  tau(  24) = (   0.7500000   0.7598908   2.6694358  )
        25           O0  tau(  25) = (   0.7500000   0.3256675   2.6696661  )
        26           O0  tau(  26) = (   0.5000000   0.0000000   2.8462864  )
        27           H2  tau(  27) = (  -0.0000900   0.7018026   1.7591088  )
        28           H2  tau(  28) = (   0.4999100   0.7018026   1.7591088  )
        29           H2  tau(  29) = (   0.1616900   0.0388738   1.6898703  )
        30           H2  tau(  30) = (   0.6616900   0.0388738   1.6898703  )

     number of k points=    20  Methfessel-Paxton smearing, width (Ry)=  0.0100
                       cart. coord. in units 2pi/alat
        k(    1) = (   0.0000000   0.0000000   0.0000000), wk =   0.0625000
        k(    2) = (   0.0000000   0.2302962   0.0000000), wk =   0.1250000
        k(    3) = (   0.0000000  -0.4605925   0.0000000), wk =   0.0625000
        k(    4) = (   0.2500000   0.0000000   0.0000000), wk =   0.1250000
        k(    5) = (   0.2500000   0.2302962   0.0000000), wk =   0.1250000
        k(    6) = (   0.2500000  -0.4605925   0.0000000), wk =   0.1250000
        k(    7) = (  -0.5000000   0.0000000   0.0000000), wk =   0.0625000
        k(    8) = (  -0.5000000   0.2302962   0.0000000), wk =   0.1250000
        k(    9) = (  -0.5000000  -0.4605925   0.0000000), wk =   0.0625000
        k(   10) = (  -0.2500000   0.2302962   0.0000000), wk =   0.1250000
        k(   11) = (   0.0000000   0.0000000   0.0000000), wk =   0.0625000
        k(   12) = (   0.0000000   0.2302962   0.0000000), wk =   0.1250000
        k(   13) = (   0.0000000  -0.4605925   0.0000000), wk =   0.0625000
        k(   14) = (   0.2500000   0.0000000   0.0000000), wk =   0.1250000
        k(   15) = (   0.2500000   0.2302962   0.0000000), wk =   0.1250000
        k(   16) = (   0.2500000  -0.4605925   0.0000000), wk =   0.1250000
        k(   17) = (  -0.5000000   0.0000000   0.0000000), wk =   0.0625000
        k(   18) = (  -0.5000000   0.2302962   0.0000000), wk =   0.1250000
        k(   19) = (  -0.5000000  -0.4605925   0.0000000), wk =   0.0625000
        k(   20) = (  -0.2500000   0.2302962   0.0000000), wk =   0.1250000

     Largest allocated arrays     est. size (Mb)     dimensions
     Largest temporary arrays     est. size (Mb)     dimensions

     Check: negative/imaginary core charge=   -0.000022    0.000000

     Initial potential from superposition of free atoms
     Check: negative starting charge=(component1):   -0.000776
     Check: negative starting charge=(component2):   -0.000381

     starting charge  223.99987, renormalised to  232.00000

     negative rho (up, down):  0.804E-03 0.395E-03
     Number of +U iterations with fixed ns =  0
     Starting occupations:
 --- enter write_ns ---
 LDA+U parameters:
U( 2)     =  7.00000000
alpha( 2) =  0.00000000
atom    3   Tr[ns(na)] (up, down, total) =   5.00000  0.00000  5.00000
   spin  1
    eigenvalues:
  1.000  1.000  1.000  1.000  1.000
    eigenvectors:
  1.000  0.000  0.000  0.000  0.000
  0.000  1.000  0.000  0.000  0.000
  0.000  0.000  1.000  0.000  0.000
  0.000  0.000  0.000  1.000  0.000
  0.000  0.000  0.000  0.000  1.000
    occupations:
  1.000  0.000  0.000  0.000  0.000
  0.000  1.000  0.000  0.000  0.000
  0.000  0.000  1.000  0.000  0.000
  0.000  0.000  0.000  1.000  0.000
  0.000  0.000  0.000  0.000  1.000
   spin  2
    eigenvalues:
  0.000  0.000  0.000  0.000  0.000
    eigenvectors:
  1.000  0.000  0.000  0.000  0.000
  0.000  1.000  0.000  0.000  0.000
  0.000  0.000  1.000  0.000  0.000
  0.000  0.000  0.000  1.000  0.000
  0.000  0.000  0.000  0.000  1.000
    occupations:
  0.000  0.000  0.000  0.000  0.000
  0.000  0.000  0.000  0.000  0.000
  0.000  0.000  0.000  0.000  0.000
  0.000  0.000  0.000  0.000  0.000
  0.000  0.000  0.000  0.000  0.000
atomic mag. moment =     5.000000
atom    4   Tr[ns(na)] (up, down, total) =   5.00000  0.00000  5.00000
   spin  1
    eigenvalues:
  1.000  1.000  1.000  1.000  1.000
    eigenvectors:
  1.000  0.000  0.000  0.000  0.000
  0.000  1.000  0.000  0.000  0.000
  0.000  0.000  1.000  0.000  0.000
  0.000  0.000  0.000  1.000  0.000
  0.000  0.000  0.000  0.000  1.000
    occupations:
  1.000  0.000  0.000  0.000  0.000
  0.000  1.000  0.000  0.000  0.000
  0.000  0.000  1.000  0.000  0.000
  0.000  0.000  0.000  1.000  0.000
  0.000  0.000  0.000  0.000  1.000
   spin  2
    eigenvalues:
  0.000  0.000  0.000  0.000  0.000
    eigenvectors:
  1.000  0.000  0.000  0.000  0.000
  0.000  1.000  0.000  0.000  0.000
  0.000  0.000  1.000  0.000  0.000
  0.000  0.000  0.000  1.000  0.000
  0.000  0.000  0.000  0.000  1.000
    occupations:
  0.000  0.000  0.000  0.000  0.000
  0.000  0.000  0.000  0.000  0.000
  0.000  0.000  0.000  0.000  0.000
  0.000  0.000  0.000  0.000  0.000
  0.000  0.000  0.000  0.000  0.000
atomic mag. moment =     5.000000
atom    9   Tr[ns(na)] (up, down, total) =   5.00000  0.00000  5.00000
   spin  1
    eigenvalues:
  1.000  1.000  1.000  1.000  1.000
    eigenvectors:
[...]
  0.224  0.000  0.002  0.000  0.774
  0.000  0.999  0.000  0.001  0.000
    occupations:
  0.118 -0.000 -0.002  0.104 -0.000
 -0.000  0.273  0.000 -0.000  0.007
 -0.002  0.000  0.085 -0.001 -0.000
  0.104 -0.000 -0.001  0.254 -0.000
 -0.000  0.007 -0.000 -0.000  0.076
atomic mag. moment =     3.716150
atom    4   Tr[ns(na)] (up, down, total) =   4.52703  0.79313  5.32016
   spin  1
    eigenvalues:
  0.729  0.793  0.997  1.004  1.005
    eigenvectors:
  0.000  0.997  0.001  0.001  0.000
  0.000  0.001  0.000  0.318  0.681
  0.000  0.001  0.000  0.680  0.319
  0.000  0.001  0.999  0.000  0.000
  1.000  0.000  0.000  0.000  0.000
    occupations:
  0.793 -0.006 -0.005  0.007 -0.001
 -0.006  1.004 -0.001  0.000  0.003
 -0.005 -0.001  1.004  0.000 -0.000
  0.007  0.000  0.000  0.997 -0.000
 -0.001  0.003 -0.000 -0.000  0.729
   spin  2
    eigenvalues:
  0.067  0.074  0.079  0.256  0.317
    eigenvectors:
  0.008  0.001  0.000  0.992  0.000
  0.009  0.231  0.758  0.001  0.001
  0.027  0.732  0.241  0.001  0.000
  0.957  0.036  0.000  0.007  0.000
  0.000  0.000  0.001  0.000  0.999
    occupations:
  0.255  0.006  0.005 -0.015  0.000
  0.006  0.078 -0.002  0.000 -0.007
  0.005 -0.002  0.075  0.001  0.000
 -0.015  0.000  0.001  0.069 -0.000
  0.000 -0.007  0.000 -0.000  0.316
atomic mag. moment =     3.733903
atom    9   Tr[ns(na)] (up, down, total) =   4.49859  0.84831  5.34690
   spin  1
    eigenvalues:
  0.750  0.764  0.990  0.994  1.001
    eigenvectors:
  0.232  0.000  0.000  0.000  0.767
  0.001  0.999  0.000  0.000  0.000
  0.000  0.000  0.000  1.000  0.000
  0.767  0.001  0.000  0.000  0.233
  0.000  0.000  1.000  0.000  0.000
    occupations:
  0.942  0.000  0.000 -0.106 -0.000
  0.000  0.764  0.000  0.000  0.000
  0.000  0.000  0.994  0.000  0.000
 -0.106  0.000  0.000  0.808  0.000
 -0.000  0.000  0.000  0.000  0.990
   spin  2
    eigenvalues:
  0.070  0.081  0.087  0.304  0.306
    eigenvectors:
  0.805  0.000  0.000  0.000  0.195
  0.000  0.000  0.000  1.000  0.000
  0.000  0.000  1.000  0.000  0.000
  0.195  0.000  0.000  0.000  0.805
  0.000  1.000  0.000  0.000  0.000
    occupations:
  0.116 -0.000  0.000  0.093 -0.000
 -0.000  0.304 -0.000  0.000 -0.000
  0.000 -0.000  0.087  0.000 -0.000
  0.093  0.000  0.000  0.260  0.000
 -0.000 -0.000 -0.000  0.000  0.081
atomic mag. moment =     3.650288
atom   10   Tr[ns(na)] (up, down, total) =   4.70439  0.55804  5.26243
   spin  1
    eigenvalues:
  0.740  0.968  0.999  0.999  1.000
    eigenvectors:
  0.000  0.960  0.000  0.000  0.040
  0.000  0.000  0.001  0.999  0.000
  0.000  0.000  0.998  0.001  0.001
  0.000  0.040  0.001  0.000  0.959
  1.000  0.000  0.000  0.000  0.000
    occupations:
  0.969 -0.000  0.000  0.006  0.000
 -0.000  0.999  0.000  0.000 -0.000
  0.000  0.000  0.999 -0.000  0.000
  0.006  0.000 -0.000  0.998  0.000
  0.000 -0.000  0.000  0.000  0.740
   spin  2
    eigenvalues:
  0.055  0.059  0.067  0.113  0.263
    eigenvectors:
  0.049  0.000  0.000  0.951  0.000
  0.000  0.000  1.000  0.000  0.000
  0.000  1.000  0.000  0.000  0.000
  0.951  0.000  0.000  0.049  0.000
  0.000  0.000  0.000  0.000  1.000
    occupations:
  0.111  0.000 -0.000 -0.013  0.000
  0.000  0.067  0.000 -0.000  0.000
 -0.000  0.000  0.059 -0.000 -0.000
 -0.013 -0.000 -0.000  0.058 -0.000
  0.000  0.000 -0.000 -0.000  0.263
atomic mag. moment =     4.146353
atom   16   Tr[ns(na)] (up, down, total) =   4.52206  0.80591  5.32797
   spin  1
    eigenvalues:
  0.744  0.775  0.999  1.001  1.003
    eigenvectors:
  0.249  0.000  0.001  0.545  0.206
  0.000  0.999  0.001  0.000  0.000
  0.000  0.000  0.002  0.269  0.729
  0.751  0.000  0.000  0.184  0.064
  0.000  0.001  0.996  0.002  0.001
    occupations:
  0.938  0.000 -0.002 -0.111  0.000
  0.000  0.775 -0.000  0.000 -0.007
 -0.002 -0.000  1.003 -0.001  0.000
 -0.111  0.000 -0.001  0.808  0.000
  0.000 -0.007  0.000  0.000  0.999
   spin  2
    eigenvalues:
  0.061  0.076  0.085  0.273  0.310
    eigenvectors:
  0.771  0.000  0.003  0.000  0.226
  0.000  0.001  0.000  0.999  0.000
  0.004  0.000  0.996  0.000  0.000
  0.224  0.000  0.002  0.000  0.774
  0.000  0.999  0.000  0.001  0.000
    occupations:
  0.118 -0.000 -0.002  0.104 -0.000
 -0.000  0.273  0.000 -0.000  0.007
 -0.002  0.000  0.085 -0.001 -0.000
  0.104 -0.000 -0.001  0.254 -0.000
 -0.000  0.007 -0.000 -0.000  0.076
atomic mag. moment =     3.716150
atom   17   Tr[ns(na)] (up, down, total) =   4.52703  0.79314  5.32016
   spin  1
    eigenvalues:
  0.729  0.793  0.997  1.004  1.005
    eigenvectors:
  0.000  0.997  0.001  0.001  0.000
  0.000  0.001  0.000  0.318  0.681
  0.000  0.001  0.000  0.680  0.319
  0.000  0.001  0.999  0.000  0.000
  1.000  0.000  0.000  0.000  0.000
    occupations:
  0.793 -0.006 -0.005  0.007 -0.001
 -0.006  1.004 -0.001  0.000  0.003
 -0.005 -0.001  1.004  0.000 -0.000
  0.007  0.000  0.000  0.997 -0.000
 -0.001  0.003 -0.000 -0.000  0.729
   spin  2
    eigenvalues:
  0.067  0.074  0.079  0.256  0.317
    eigenvectors:
  0.008  0.001  0.000  0.992  0.000
  0.009  0.231  0.758  0.001  0.001
  0.027  0.732  0.241  0.001  0.000
  0.957  0.036  0.000  0.007  0.000
  0.000  0.000  0.001  0.000  0.999
    occupations:
  0.255  0.006  0.005 -0.015  0.000
  0.006  0.078 -0.002  0.000 -0.007
  0.005 -0.002  0.075  0.001  0.000
 -0.015  0.000  0.001  0.069 -0.000
  0.000 -0.007  0.000 -0.000  0.316
atomic mag. moment =     3.733888
atom   22   Tr[ns(na)] (up, down, total) =   4.49859  0.84831  5.34690
   spin  1
    eigenvalues:
  0.750  0.764  0.990  0.994  1.001
    eigenvectors:
  0.232  0.000  0.000  0.000  0.767
  0.001  0.999  0.000  0.000  0.000
  0.000  0.000  0.000  1.000  0.000
  0.767  0.001  0.000  0.000  0.233
  0.000  0.000  1.000  0.000  0.000
    occupations:
  0.942  0.000  0.000 -0.106 -0.000
  0.000  0.764  0.000  0.000  0.000
  0.000  0.000  0.994  0.000  0.000
 -0.106  0.000  0.000  0.808  0.000
 -0.000  0.000  0.000  0.000  0.990
   spin  2
    eigenvalues:
  0.070  0.081  0.087  0.304  0.306
    eigenvectors:
  0.805  0.000  0.000  0.000  0.195
  0.000  0.000  0.000  1.000  0.000
  0.000  0.000  1.000  0.000  0.000
  0.195  0.000  0.000  0.000  0.805
  0.000  1.000  0.000  0.000  0.000
    occupations:
  0.116 -0.000  0.000  0.093 -0.000
 -0.000  0.304 -0.000  0.000 -0.000
  0.000 -0.000  0.087  0.000 -0.000
  0.093  0.000  0.000  0.260  0.000
 -0.000 -0.000 -0.000  0.000  0.081
atomic mag. moment =     3.650288
atom   23   Tr[ns(na)] (up, down, total) =   4.70439  0.55804  5.26243
   spin  1
    eigenvalues:
  0.740  0.968  0.999  0.999  1.000
    eigenvectors:
  0.000  0.960  0.000  0.000  0.040
  0.000  0.000  0.001  0.999  0.000
  0.000  0.000  0.998  0.001  0.001
  0.000  0.040  0.001  0.000  0.959
  1.000  0.000  0.000  0.000  0.000
    occupations:
  0.969 -0.000  0.000  0.006  0.000
 -0.000  0.999  0.000  0.000 -0.000
  0.000  0.000  0.999 -0.000  0.000
  0.006  0.000 -0.000  0.998  0.000
  0.000 -0.000  0.000  0.000  0.740
   spin  2
    eigenvalues:
  0.055  0.059  0.067  0.113  0.263
    eigenvectors:
  0.049  0.000  0.000  0.951  0.000
  0.000  0.000  1.000  0.000  0.000
  0.000  1.000  0.000  0.000  0.000
  0.951  0.000  0.000  0.049  0.000
  0.000  0.000  0.000  0.000  1.000
    occupations:
  0.111  0.000 -0.000 -0.013  0.000
  0.000  0.067  0.000 -0.000  0.000
 -0.000  0.000  0.059 -0.000 -0.000
 -0.013 -0.000 -0.000  0.058 -0.000
  0.000  0.000 -0.000 -0.000  0.263
atomic mag. moment =     4.146354
N of occupied +U levels =  42.5149264
 --- exit write_ns ---

 ------ SPIN UP ------------

[...]

 ------ SPIN DOWN ----------

[...]

          k = 0.2500-0.4606 0.0000 ( 26462 PWs)   bands (ev):

[...]

          k =-0.2500 0.2303 0.0000 ( 26396 PWs)   bands (ev):

   -79.9744 -79.9667 -79.9423 -79.9344 -79.8697 -79.8611 -79.0863 -79.0781
   -48.8721 -48.8625 -48.8517 -48.8405 -48.8390 -48.7895 -48.7816 -48.7689
   -48.7600 -48.7420 -48.7225 -48.7045 -48.6969 -48.6812 -48.6671 -48.6496
   -48.5091 -48.5014 -48.2036 -48.0982 -48.0542 -48.0363 -47.5854 -47.5764
   -21.6459 -21.1866 -21.1589 -20.9778 -20.5271 -20.4650 -20.4524 -20.3801
   -20.1764 -20.1469 -20.0939 -20.0035 -19.8692 -19.8067 -19.7380 -19.6910
   -19.6658 -19.5449  -8.9128  -8.6906  -8.3204  -8.2945  -8.1063  -7.9361
    -7.7397  -7.5575  -7.3972  -7.2444  -7.0781  -7.0661  -6.9375  -6.8883
    -6.8595  -6.6607  -6.6135  -6.5039  -6.4182  -6.3148  -6.1860  -6.1505
    -6.0526  -5.9749  -5.7843  -5.7558  -5.7268  -5.6293  -5.6125  -5.4971
    -5.4002  -5.2851  -5.2220  -5.1274  -5.1159  -5.0293  -4.9849  -4.8365
    -4.7486  -4.6088  -4.5229  -4.4917  -4.4467  -4.3758  -4.3068  -4.2103
    -4.0392  -3.9628  -3.7840  -3.7003  -3.6666  -3.3902  -3.3570  -3.0947
     1.7452   1.8158   1.8553   1.9097   1.9629   2.0183   2.0623   2.0968
     2.1502   2.1537   2.2420   2.2430   2.2998   2.3050   2.3219   2.4156
     2.4432   2.5615   2.5990   2.6478   2.7103   2.7483   2.8379   2.8856
     2.9090   2.9775   3.0224   3.0561   3.1674   3.2033   3.2250   3.2607
     3.3262   3.3415   3.4570   3.5379   3.5720   3.5830   3.6646   3.7671
     3.7959   4.2196   4.4340   4.9047   5.3697   5.6267   5.7989   6.1067
     6.2317   6.3326   6.4526   6.4632   6.6281   6.8790   6.9758   7.2934
     7.3243   7.5531   7.7391   7.9117   8.0876   8.0906   8.1983   8.3574
     8.4491   8.5876   8.8241   8.8926   9.1379   9.1851   9.2284   9.4388
     9.4704   9.5508   9.8534   9.9068  10.0710  10.0797  10.1724  10.3195
    10.4101  10.4950  10.5605  10.6952  10.7661  10.8931  11.0158  11.0233
    11.1823  11.2357  11.3042  11.4967  11.5071  11.6249  11.6568  11.7168
    11.8429  11.8978  12.0719  12.1611  12.2047  12.3193  12.4436  12.4750
    12.4800  12.6312  12.8042  12.8116  12.9378  12.9691  13.0215  13.0565
    13.1564  13.1785  13.3039  13.3377  13.3838  13.4336  13.4396  13.5113
    13.6213  13.6937  13.8219  13.8715  14.0208  14.0283  14.1334  14.1869
    14.2010  14.3303  14.3477  14.5154  14.5628  14.5779  14.6850  14.7742
    14.8978  15.0446  15.1104  15.1715  15.2235  15.4091  15.4728  15.5873
    15.6408  15.7710  15.8412  15.8947  16.0245  16.1162  16.1901  16.2677
    16.3178  16.4722  16.4815  16.5305  16.6352  16.7592  16.7744  16.8999
    16.9456  17.0461  17.1026  17.1146  17.2470  17.2801  17.3135  17.5133
    17.5147  17.5732  17.6727  17.7415  17.8774  17.9570  18.0163  18.1014
    18.1539  18.2421  18.2958  18.3060  18.3362  18.4893  18.5550  18.6122
    18.6613  18.7762  18.7934  18.8557  18.9594  19.0893  19.1289  19.2024
    19.2842  19.3131  19.3850  19.4853  19.5944  19.6644  19.7616  19.8289
    19.9350  19.9824  20.0489  20.0496  20.1564  20.1723  20.2819  20.3374
    20.4099  20.4215  20.4564  20.5250  20.6458  20.7634  20.8459  20.9535
    21.0165  21.1181  21.1407  21.2202  21.2662  21.3800  21.4055  21.4390
    21.5019  21.7016  21.7105  21.7385  21.8265  21.9450  21.9584  22.0697

     the spin up/dw Fermi energies are    -2.4869   -0.6075 ev

!    total energy              =   -2286.45758266 Ry
     Harris-Foulkes estimate   =   -2286.45758266 Ry
     estimated scf accuracy    <          6.5E-09 Ry

     The total energy is the sum of the following terms:

     one-electron contribution =  -24945.39282861 Ry
     hartree contribution      =   12489.84094921 Ry
     xc contribution           =    -342.11138834 Ry
     ewald contribution        =   10509.32055124 Ry
     Hubbard energy            =       1.88545094 Ry
     smearing contrib. (-TS)   =      -0.00031709 Ry

     total magnetization       =    24.00 Bohr mag/cell
     absolute magnetization    =    37.87 Bohr mag/cell

     convergence has been achieved in  15 iterations

     Forces acting on atoms (Ry/au):

     negative rho (up, down):  0.156E-02 0.143E-02
     atom    1 type  1   force =    -0.00427855   -0.01312135   -0.00059603
     atom    2 type  1   force =     0.00043802    0.00707427    0.00045240
     atom    3 type  2   force =    -0.00087851    0.00153541   -0.00002092
     atom    4 type  2   force =     0.00613875    0.00890969    0.00049497
     atom    5 type  1   force =     0.00105584    0.01082320   -0.00057731
     atom    6 type  1   force =    -0.00159446   -0.01531595    0.00031539
     atom    7 type  1   force =     0.00006671    0.00215061   -0.00033797
     atom    8 type  1   force =    -0.00140091   -0.00247831   -0.00099150
     atom    9 type  2   force =     0.00076503    0.00004087    0.00008010
     atom   10 type  2   force =    -0.00005136   -0.00075793   -0.00014763
     atom   11 type  1   force =     0.00004952   -0.01782191    0.00028196
     atom   12 type  1   force =     0.00005711    0.01817385    0.00031123
     atom   13 type  1   force =    -0.00047925   -0.00008042    0.00006534
     atom   14 type  1   force =    -0.00427730   -0.01312022   -0.00059807
     atom   15 type  1   force =     0.00043796    0.00707579    0.00045368
     atom   16 type  2   force =    -0.00087912    0.00153486   -0.00002091
     atom   17 type  2   force =     0.00613727    0.00890888    0.00049151
     atom   18 type  1   force =     0.00105640    0.01082330   -0.00057736
     atom   19 type  1   force =    -0.00159254   -0.01531565    0.00031501
     atom   20 type  1   force =     0.00006661    0.00215055   -0.00033775
     atom   21 type  1   force =    -0.00140104   -0.00247826   -0.00099136
     atom   22 type  2   force =     0.00076878    0.00004104    0.00008016
     atom   23 type  2   force =    -0.00005134   -0.00075797   -0.00014698
     atom   24 type  1   force =     0.00005005   -0.01782192    0.00028192
     atom   25 type  1   force =     0.00005763    0.01817377    0.00031122
     atom   26 type  1   force =    -0.00047923   -0.00008045    0.00006872
     atom   27 type  3   force =     0.00001592    0.00001399    0.00053813
     atom   28 type  3   force =     0.00001610    0.00001368    0.00053718
     atom   29 type  3   force =     0.00009318    0.00085362    0.00013374
     atom   30 type  3   force =     0.00009273    0.00085295    0.00013116

     Total force =     0.002679     Total SCF correction =     0.000508
     SCF correction compared to forces is large: reduce conv_thr to get better values

     bfgs converged in  18 scf cycles and  17 bfgs steps
     (criteria: energy < 0.10E-03, force < 0.10E-02)

     End of BFGS Geometry Optimization

     Final energy   =   -2286.4575826569 Ry
Begin final coordinates

ATOMIC_POSITIONS (crystal)
O0       0.000000000   0.000000000   0.372346662    0   0   1
O0       0.000000000   0.500000000   0.391438941    0   0   1
Mn1      0.250000000   0.500000000   0.445330911    0   0   1
Mn1      0.000000000   0.000000000   0.447212482    0   0   1
O0       0.250000000   0.800000000   0.445573118    0   0   1
O0       0.250000000   0.200000000   0.449218940    0   0   1
O0       0.000000000   0.500000000   0.494925743    0   0   1
O0       0.000000000   0.000000000   0.527009440    0   0   1
Mn1      0.250000000   0.000000000   0.576662274    0   0   1
Mn1      0.000000000   0.500000000   0.574045793    0   0   1
O0       0.250000000   0.700000000   0.588378611    0   0   1
O0       0.250000000   0.300000000   0.588503486    0   0   1
O0       0.000000000   0.000000000   0.626912843    0   0   1
O0       0.500000000   0.000000000   0.372348066    0   0   1
O0       0.500000000   0.500000000   0.391438810    0   0   1
Mn1      0.750000000   0.500000000   0.445330924    0   0   1
Mn1      0.500000000   0.000000000   0.447213873    0   0   1
O0       0.750000000   0.800000000   0.445572949    0   0   1
O0       0.750000000   0.200000000   0.449219154    0   0   1
O0       0.500000000   0.500000000   0.494925668    0   0   1
O0       0.500000000   0.000000000   0.527009515    0   0   1
Mn1      0.750000000   0.000000000   0.576662264    0   0   1
Mn1      0.500000000   0.500000000   0.574045786    0   0   1
O0       0.750000000   0.700000000   0.588378606    0   0   1
O0       0.750000000   0.300000000   0.588503497    0   0   1
O0       0.500000000   0.000000000   0.626912539    0   0   1
H2       0.000506478   0.648101685   0.376075461
H2       0.500506450   0.648103048   0.376076026
H2       0.161237308   0.044481360   0.361972929
H2       0.661237067   0.044483747   0.361974691
End final coordinates

     General routines

     Parallel routines
     Hubbard U routines

   This run was terminated on:  15:23:12  10May2014

   JOB DONE.
Running PBS batch system epilogue script
Job id: 340907.audhumbla.fysik.dtu.dk
Username: zhonxu
Groupname: campgst
Jobname: MnO2/Eads-2-layers/bare-U-7.0
Sessionid: 27327
Queuename: verylong
Accounting:
This job has allocated the following 16 nodes:
b080 b080 b080 b080 b080 b080 b080 b080 b079 b079 b079 b079 b079 b079 b079 b079
Finished epilogue job 340907.audhumbla.fysik.dtu.dk for zhonxu