     Program PWSCF v.5.0.2 (svn rev. 9656) starts on 10Apr2014 at  6:48: 7

     Current dimensions of program PWSCF are:
     Max number of different atomic species (ntypx) = 10
     Max number of k-points (npk) =  40000
     Max angular momentum in pseudopotentials (lmaxx) =  3
     Reading input from pwscf.in
Warning: card &CELL ignored
Warning: card / ignored

     Subspace diagonalization in iterative solution of the eigenvalue problem:
     a serial algorithm will be used

     bravais-lattice index     =            0
     lattice parameter (alat)  =      10.3179  a.u.
     unit-cell volume          =    9693.3575 (a.u.)^3
     number of atoms/cell      =           49
     number of atomic types    =            2
     number of electrons       =       422.00
     number of Kohn-Sham states=          633
     kinetic-energy cutoff     =      40.0000  Ry
     charge density cutoff     =     500.0000  Ry
     convergence threshold     =      1.0E-06
     mixing beta               =       0.3000
     number of iterations used =            8  plain     mixing
     Exchange-correlation      = SLA  PW   PBE  PBE ( 1 4 3 4 0)
     EXX-fraction              =        0.00
     nstep                     =           50

     celldm(1)=  10.317905  celldm(2)=   0.000000  celldm(3)=   0.000000
     celldm(4)=   0.000000  celldm(5)=   0.000000  celldm(6)=   0.000000

     crystal axes: (cart. coord. in units of alat)
               a(1) = (   1.000000   0.000000   0.000000 )
               a(2) = (   0.000000   1.282117   0.000000 )
               a(3) = (   0.000000   0.000000   6.882911 )

     reciprocal axes: (cart. coord. in units 2 pi/alat)
               b(1) = (  1.000000  0.000000  0.000000 )
               b(2) = (  0.000000  0.779960  0.000000 )
               b(3) = (  0.000000  0.000000  0.145287 )

     PseudoPot. # 1 for O  read from file:
     /home/camp/zhonxu/pseudo/o_pbe_v1.01.uspp.F.UPF
     MD5 check sum: 2bcb18d16ea4b960afae9ec6d52f22d2
     Pseudo is Ultrasoft + core correction, Zval =  6.0
     Generated by new atomic code, or converted to UPF format
     Using radial grid of  737 points,  5 beta functions with:
                l(1) =   0
                l(2) =   0
                l(3) =   1
                l(4) =   1
                l(5) =   2
     Q(r) pseudized with  8 coefficients,  rinner =    0.900   0.900   0.900
                                                       0.900   0.900

     PseudoPot. # 2 for Mo read from file:
     /home/camp/zhonxu/pseudo/mo_pbe_v1.uspp.F.UPF
     MD5 check sum: 30c4dcd161f5d35cd49bb5239c51a633
     Pseudo is Ultrasoft + core correction, Zval = 14.0
     Generated by new atomic code, or converted to UPF format
     Using radial grid of  889 points,  6 beta functions with:
                l(1) =   0
                l(2) =   0
                l(3) =   1
                l(4) =   1
                l(5) =   2
                l(6) =   2
     Q(r) pseudized with  6 coefficients,  rinner =    1.000   1.000   1.000
                                                       1.000   1.000

     atomic species   valence    mass     pseudopotential
        O0             6.00    15.99940     O ( 1.00)
        Mo1           14.00    95.94000     Mo( 1.00)

      4 Sym. Ops. (no inversion) found

   Cartesian axes

     site n.     atom                  positions (alat units)
         1           O0  tau(   1) = (   0.0000000   0.6410583   2.1977822  )
         2           Mo1 tau(   2) = (   0.2500000   0.6410583   2.4798439  )
         3           Mo1 tau(   3) = (   0.0000000   0.0000000   2.4798439  )
         4           O0  tau(   4) = (   0.2500000   1.0000510   2.4798439  )
         5           O0  tau(   5) = (   0.2500000   0.2820657   2.4798439  )
         6           O0  tau(   6) = (   0.0000000   0.6410583   2.7619056  )
         7           O0  tau(   7) = (   0.0000000   0.0000000   2.8388565  )
         8           Mo1 tau(   8) = (   0.2500000   0.0000000   3.1209182  )
         9           Mo1 tau(   9) = (   0.0000000   0.6410583   3.1209182  )
        10           O0  tau(  10) = (   0.2500000   0.9231240   3.1209182  )
        11           O0  tau(  11) = (   0.2500000   0.3589927   3.1209182  )
        12           O0  tau(  12) = (   0.0000000   0.0000000   3.4029799  )
        13           O0  tau(  13) = (   0.0000000   0.6410583   3.4705701  )
        14           Mo1 tau(  14) = (   0.2286600   0.6410583   3.7488462  )
        15           Mo1 tau(  15) = (   0.0000000   0.0000000   3.7864269  )
        16           O0  tau(  16) = (   0.2460200   1.0042564   3.7683248  )
        17           O0  tau(  17) = (   0.2460200   0.2778603   3.7683248  )
        18           O0  tau(  18) = (   0.0000000   0.6410583   4.0400621  )
        19           O0  tau(  19) = (   0.0000000   0.0000000   4.1500511  )
        20           Mo1 tau(  20) = (   0.2719400   0.0000000   4.4350036  )
        21           Mo1 tau(  21) = (   0.0000000   0.6410583   4.3760858  )
        22           O0  tau(  22) = (   0.2568700   0.9035974   4.4329387  )
        23           O0  tau(  23) = (   0.2568700   0.3785193   4.4329387  )
        24           O0  tau(  24) = (   0.0000000   0.0000000   4.6642045  )
        25           O0  tau(  25) = (   0.5000000   0.6410583   2.1977822  )
        26           Mo1 tau(  26) = (   0.7500000   0.6410583   2.4798439  )
        27           Mo1 tau(  27) = (   0.5000000   0.0000000   2.4798439  )
        28           O0  tau(  28) = (   0.7500000   1.0000510   2.4798439  )
        29           O0  tau(  29) = (   0.7500000   0.2820657   2.4798439  )
        30           O0  tau(  30) = (   0.5000000   0.6410583   2.7619056  )
        31           O0  tau(  31) = (   0.5000000   0.0000000   2.8388565  )
        32           Mo1 tau(  32) = (   0.7500000   0.0000000   3.1209182  )
        33           Mo1 tau(  33) = (   0.5000000   0.6410583   3.1209182  )
        34           O0  tau(  34) = (   0.7500000   0.9231240   3.1209182  )
        35           O0  tau(  35) = (   0.7500000   0.3589927   3.1209182  )
        36           O0  tau(  36) = (   0.5000000   0.0000000   3.4029799  )
        37           O0  tau(  37) = (   0.5000000   0.6410583   3.4927331  )
        38           Mo1 tau(  38) = (   0.7713400   0.6410583   3.7488462  )
        39           Mo1 tau(  39) = (   0.5000000   0.0000000   3.7719728  )
        40           O0  tau(  40) = (   0.7539800   1.0042564   3.7683248  )
        41           O0  tau(  41) = (   0.7539800   0.2778603   3.7683248  )
        42           O0  tau(  42) = (   0.5000000   0.6410583   4.0184498  )
        43           O0  tau(  43) = (   0.5000000   0.0000000   4.1341515  )
        44           Mo1 tau(  44) = (   0.7280600   0.0000000   4.4350036  )
        45           Mo1 tau(  45) = (   0.5000000   0.6410583   4.3550241  )
        46           O0  tau(  46) = (   0.7431300   0.9035974   4.4329387  )
        47           O0  tau(  47) = (   0.7431300   0.3785193   4.4329387  )
        48           O0  tau(  48) = (   0.5000000   0.0000000   4.7053643  )
        49           O0  tau(  49) = (   0.5000000   0.6410583   4.6808611  )

     number of k points=     9  Methfessel-Paxton smearing, width (Ry)=  0.0100
                       cart. coord. in units 2pi/alat
        k(    1) = (   0.0000000   0.0000000   0.0000000), wk =   0.1250000
        k(    2) = (   0.0000000   0.1949901   0.0000000), wk =   0.2500000
        k(    3) = (   0.0000000  -0.3899801   0.0000000), wk =   0.1250000
        k(    4) = (   0.2500000   0.0000000   0.0000000), wk =   0.2500000
        k(    5) = (   0.2500000   0.1949901   0.0000000), wk =   0.5000000
        k(    6) = (   0.2500000  -0.3899801   0.0000000), wk =   0.2500000
        k(    7) = (  -0.5000000   0.0000000   0.0000000), wk =   0.1250000
        k(    8) = (  -0.5000000   0.1949901   0.0000000), wk =   0.2500000
        k(    9) = (  -0.5000000  -0.3899801   0.0000000), wk =   0.1250000

     Largest allocated arrays     est. size (Mb)     dimensions
     Largest temporary arrays     est. size (Mb)     dimensions

     Check: negative/imaginary core charge=   -0.000004    0.000000

     Initial potential from superposition of free atoms
     Check: negative starting charge=   -0.003562

     starting charge  421.98294, renormalised to  422.00000

     negative rho (up, down):  0.356E-02 0.000E+00
     Starting wfc are  340 randomized atomic wfcs

     Self-consistent Calculation

     iteration #  1     ecut=    40.00 Ry     beta=0.30
     Davidson diagonalization with overlap
     ethr =  1.00E-02,  avg # of iterations =  6.2

     negative rho (up, down):  0.361E-02 0.000E+00

     total energy              =   -3289.92735287 Ry
     Harris-Foulkes estimate   =   -3297.70187190 Ry
     estimated scf accuracy    <      17.53287553 Ry

[...]

     End of self-consistent calculation

          k = 0.0000 0.0000 0.0000 ( 41461 PWs)   bands (ev):

   -61.6315 -61.6203 -61.5671 -61.5041 -61.4622 -61.4171 -61.3887 -61.3788
   -61.3452 -61.3273 -61.3147 -61.2990 -61.2783 -61.2608 -61.2107 -61.1337
   -36.2063 -36.1410 -36.1377 -36.1077 -36.0692 -36.0390 -36.0224 -35.9888
   -35.9405 -35.9292 -35.8207 -35.7842 -35.7686 -35.7399 -35.7337 -35.6918
   -35.6861 -35.6740 -35.6357 -35.5786 -35.5764 -35.5631 -35.5533 -35.5448
   -35.5268 -35.5217 -35.5097 -35.4802 -35.4501 -35.4332 -35.4230 -35.3338
   -35.3266 -35.3232 -35.3143 -35.3062 -35.2944 -35.2894 -35.2533 -35.1846
   -35.0597 -35.0503 -35.0460 -34.9855 -34.9480 -34.8843 -34.7798 -34.6670
   -19.4785 -19.2216 -19.1080 -18.9928 -18.9270 -18.7417 -18.6570 -18.4761
   -18.4632 -18.3083 -18.2794 -18.2313 -18.2089 -18.1667 -18.1476 -18.0935
   -18.0641 -17.9540 -17.8812 -17.8793 -17.8672 -17.8116 -17.7700 -17.7698
   -17.7368 -17.5666 -17.5611 -17.4447 -16.7865 -16.6029 -16.4354 -16.1556
   -15.4777  -7.4787  -7.4435  -7.3818  -7.2949  -7.1773  -7.1389  -7.0475
    -6.8669  -6.6090  -6.5552  -6.4197  -6.4126  -6.3443  -6.2287  -6.1968
    -6.1507  -6.0355  -6.0283  -5.9975  -5.8979  -5.8493  -5.8097  -5.7448
    -5.7424  -5.7052  -5.6295  -5.5823  -5.4515  -5.4194  -5.4054  -5.3517
    -5.3384  -5.3331  -5.2975  -5.1399  -4.9786  -4.8822  -4.7799  -4.7477
    -4.6160  -4.5935  -4.5021  -4.3785  -4.3506  -4.3410  -4.2998  -4.2820
    -4.2694  -4.1643  -4.1216  -4.0909  -3.8851  -3.8494  -3.8064  -3.7153
    -3.6972  -3.6929  -3.6792  -3.6186  -3.4846  -3.4647  -3.4554  -3.3488
    -3.3091  -3.2785  -3.2600  -3.2277  -3.2055  -3.1836  -3.1051  -3.0525
    -2.9457  -2.8101  -2.7780  -2.7388  -2.7134  -2.6065  -2.5689  -2.5259
    -2.3968  -2.3960  -2.2866  -2.2741  -2.2011  -2.1960  -2.1651  -2.1022
    -2.0591  -2.0212  -1.9339  -1.6782  -1.5779  -1.5614  -1.5544  -1.5258
    -1.4967  -1.4575  -1.3877  -1.3143  -1.1592  -1.0977  -1.0737  -0.6339
    -0.2482  -0.2171  -0.1536   0.2803   0.4825   0.5623   0.6589   0.7866
     0.8569   0.9118   1.0208   1.2419   1.2939   1.3569   1.4475   1.4559
     1.4741   1.5360   1.5998   1.6492   1.6902   1.7209   1.8203   1.9408
     1.9552   1.9799   1.9968   2.1133   2.1536   2.2734   2.4710   2.6469
[...]
Mo1      0.000000000   0.000000000   0.360290000    0   0   0
O0       0.250000000   0.780000000   0.360290000    0   0   0
O0       0.250000000   0.220000000   0.360290000    0   0   0
O0       0.000000000   0.500000000   0.401270000    0   0   0
O0       0.000000000   0.000000000   0.412450000    0   0   0
Mo1      0.250000000   0.000000000   0.453430000    0   0   0
Mo1      0.000000000   0.500000000   0.453430000    0   0   0
O0       0.250000000   0.720000000   0.453430000    0   0   0
O0       0.250000000   0.280000000   0.453430000    0   0   0
O0       0.000000000   0.000000000   0.494410000    0   0   0
O0       0.000000000   0.500000000   0.504923013
Mo1      0.234128260   0.500000000   0.546122865
Mo1      0.000000000   0.000000000   0.547876506
O0       0.244933093   0.784980461   0.546335474
O0       0.244933093   0.215019539   0.546335474
O0       0.000000000   0.500000000   0.587902039
O0       0.000000000   0.000000000   0.600388322
Mo1      0.268054464  -0.000000000   0.641170240
Mo1      0.000000000   0.500000000   0.636429919
O0       0.251082376   0.710793094   0.639121974
O0       0.251082376   0.289206906   0.639121974
O0       0.000000000   0.000000000   0.674842665
O0       0.500000000   0.500000000   0.319310000    0   0   0
Mo1      0.750000000   0.500000000   0.360290000    0   0   0
Mo1      0.500000000   0.000000000   0.360290000    0   0   0
O0       0.750000000   0.780000000   0.360290000    0   0   0
O0       0.750000000   0.220000000   0.360290000    0   0   0
O0       0.500000000   0.500000000   0.401270000    0   0   0
O0       0.500000000   0.000000000   0.412450000    0   0   0
Mo1      0.750000000   0.000000000   0.453430000    0   0   0
Mo1      0.500000000   0.500000000   0.453430000    0   0   0
O0       0.750000000   0.720000000   0.453430000    0   0   0
O0       0.750000000   0.280000000   0.453430000    0   0   0
O0       0.500000000   0.000000000   0.494410000    0   0   0
O0       0.500000000   0.500000000   0.507262467
Mo1      0.765871740   0.500000000   0.546122865
Mo1      0.500000000   0.000000000   0.547124580
O0       0.755066907   0.784980461   0.546335474
O0       0.755066907   0.215019539   0.546335474
O0       0.500000000   0.500000000   0.581970841
O0       0.500000000   0.000000000   0.598583021
Mo1      0.731945536   0.000000000   0.641170240
Mo1      0.500000000   0.500000000   0.648882034
O0       0.748917624   0.710793094   0.639121974
O0       0.748917624   0.289206906   0.639121974
O0       0.500000000   0.000000000   0.679757139
O0       0.500000000   0.500000000   0.693556351

     Check: negative starting charge=   -0.003569
     NEW-OLD atomic charge density approx. for the potential

     Check: negative/imaginary core charge=   -0.000004    0.000000
     Check: negative starting charge=   -0.003569

[...]

     Self-consistent Calculation

[...]

     Threshold (ethr) on eigenvalues was too large:
     Diagonalizing with lowered threshold

     Davidson diagonalization with overlap
     ethr =  3.62E-09,  avg # of iterations =  3.0

[...]

     total energy              =   -3294.38998393 Ry
     Harris-Foulkes estimate   =   -3294.38998393 Ry
     estimated scf accuracy    <       0.00000002 Ry

     iteration # 17     ecut=    40.00 Ry     beta=0.30
     Davidson diagonalization with overlap
     ethr =  3.95E-12,  avg # of iterations =  1.0

     negative rho (up, down):  0.469E-02 0.000E+00

     End of self-consistent calculation

[...]

          k = 0.2500-0.3900 0.0000 ( 41418 PWs)   bands (ev):

[...]

          k =-0.5000-0.3900 0.0000 ( 41316 PWs)   bands (ev):

   -61.6013 -61.2960 -61.2863 -61.2552 -61.2551 -61.1367 -61.1327 -61.1013
   -61.1013 -61.0618 -61.0507 -61.0474 -61.0306 -61.0250 -61.0231 -60.9607
   -36.2933 -35.7840 -35.6217 -35.6117 -35.5691 -35.5690 -35.5142 -35.4936
   -35.4798 -35.4676 -35.4316 -35.4140 -35.4059 -35.4052 -35.4040 -35.3915
   -35.3911 -35.3579 -35.3352 -35.3259 -35.3249 -35.3229 -35.3223 -35.3081
   -35.2955 -35.2538 -35.2139 -35.2134 -35.2049 -35.1840 -35.1711 -35.1451
   -35.1438 -35.1335 -35.1317 -35.1250 -35.1247 -35.1210 -35.1189 -35.1153
   -35.0832 -35.0787 -35.0645 -35.0641 -35.0552 -34.9842 -34.9367 -34.8791
   -18.7739 -18.3800 -18.3064 -18.2865 -18.2707 -18.2694 -18.2393 -18.1850
   -18.1512 -18.1297 -18.0809 -18.0634 -18.0465 -18.0427 -17.9161 -17.9124
   -17.8837 -17.7591 -17.7587 -17.7488 -17.6536 -17.6431 -17.6358 -17.6309
   -17.5680 -17.5222 -17.3668 -17.2236 -16.9829 -16.9798 -16.6855 -16.0647
   -16.0535  -6.7521  -6.5058  -6.4349  -6.4343  -6.3830  -6.3799  -6.3512
    -6.3482  -6.3330  -6.2968  -6.2254  -6.0999  -6.0765  -5.9479  -5.8823
    -5.8188  -5.5910  -5.5136  -5.5005  -5.4227  -5.3619  -5.3574  -5.1911
    -5.1430  -5.1364  -5.1095  -5.0892  -5.0379  -4.9920  -4.9328  -4.8896
    -4.8036  -4.7463  -4.6824  -4.6643  -4.6639  -4.6078  -4.5793  -4.5692
    -4.5559  -4.5546  -4.5327  -4.5187  -4.3918  -4.3477  -4.2336  -4.2267
    -4.0933  -4.0924  -3.9466  -3.9345  -3.8867  -3.8518  -3.8132  -3.7150
    -3.6834  -3.6719  -3.6589  -3.5315  -3.4939  -3.4716  -3.4128  -3.4053
    -3.3824  -3.2868  -3.2828  -3.2566  -3.2130  -3.1777  -3.1733  -3.1507
    -3.1047  -3.0708  -2.9565  -2.9205  -2.8016  -2.7388  -2.6390  -2.5849
    -2.3674  -2.3399  -2.2298  -2.2259  -2.1948  -2.1706  -2.0969  -2.0637
    -2.0202  -1.8908  -1.8468  -1.7670  -1.7468  -1.5663  -1.5133  -1.4311
    -1.2470  -1.2403  -1.2393  -1.2293   0.2175   0.3452   0.5354   0.5915
     0.6569   0.6702   0.8079   0.8262   0.8308   0.8992   0.9043   0.9053
     1.1006   1.2005   1.2032   1.2312   1.2730   1.4828   1.4861   1.6283
     1.6877   1.7205   1.8458   1.8824   1.8842   1.9609   1.9698   1.9937
     2.1688   2.1814   2.2388   2.3283   2.4987   2.5203   2.5259   2.6831
     2.7096   2.7107   2.7229   2.8341   2.8668   2.9214   2.9245   3.0473
     3.0897   3.1019   3.1364   3.1382   3.1811   3.4163   3.5237   4.0811
     4.1480   4.2200   4.2228   4.2258   4.2322   4.2687   4.5489   4.9456
     5.0949   5.1330   5.1425   5.6072   5.8816   6.0419   6.0488   6.1682
     6.4276   6.4814   6.5413   6.6721   6.6751   6.8895   6.9722   7.0304
     7.1062   7.1532   7.2780   7.3200   7.4400   7.4798   7.8070   8.3645
     8.3660   8.4011   8.4932   8.4942   8.6090   8.6915   8.7073   8.7293
     8.8431   8.9283   8.9375   9.0144   9.1887   9.2206   9.2563   9.3023
     9.6093   9.6361   9.6434   9.6740   9.6926   9.7321   9.7348   9.7584
    10.2280  10.2436  10.2716  10.3235  10.3459  10.3909  10.4125  10.5275
    10.9961  11.0110  11.0235  11.0703  11.1488  11.1686  11.1718  11.3476
    11.7315  11.7469  11.7861  12.0299  12.3238  12.3630  12.3678  12.3891
    12.8746  12.9624  12.9636  12.9806  13.1493  13.1706  13.2104  13.2286
    13.2889  13.3084  13.3405  13.3524  13.3884  13.3935  13.5358  13.6741
    13.6863  13.7306  13.7485  13.7581  14.1072  14.1955  14.2399  14.2702
    14.5009  14.5254  14.5836  14.5921  14.5958  14.6034  14.6648  14.6955
    14.7487  14.7695  14.7726  14.8475  14.8509  14.8643  14.8800  14.9393
    14.9482  14.9767  14.9895  15.0049  15.0817  15.1231  15.1862  15.2814
    15.3018  15.3478  15.3707  15.3796  15.4114  15.4277  15.5494  15.5876
    15.5884  15.6005  15.6283  15.6574  15.6577  15.7025  15.7829  15.8373
    15.8453  15.8522  15.9185  15.9190  15.9530  15.9644  16.0020  16.0130
    16.1057  16.1341  16.2701  16.2783  16.3428  16.3519  16.3765  16.3838
    16.4682  16.5224  16.6374  16.6562  16.8423  16.8928  16.9708  17.0188
    17.0605  17.0657  17.0748  17.1736  17.2065  17.2610  17.2812  17.3922
    17.5031  17.5133  17.6055  17.8293  17.8362  17.8685  17.8889  18.0129
    18.0460  18.0602  18.1138  18.2261  18.4426  18.4449  18.4709  18.4762
    18.5481  18.5594  18.5741  18.5986  18.6560  18.6971  18.6982  18.7585
    18.7905  18.8517  18.8543  18.8629  18.8958  18.9674  18.9918  18.9935
    19.1339  19.1538  19.1572  19.1825  19.3385  19.3575  19.3993  19.4071
    19.5080  19.5151  19.5335  19.5386  19.5847  19.5907  19.5919  19.6893
    19.7880  19.7921  19.7940  19.8232  19.9086  19.9515  19.9552  20.0248
[...]
    22.2902  22.3028  22.3068  22.3855  22.4268  22.4782  22.5244  22.6774
    22.6977  22.8081  22.8643  22.8860  22.9814  23.0441  23.1021  23.1612
    23.1746  23.1802  23.1963  23.2683  23.3212  23.3967  23.4117  23.4360
    23.4462  23.4852  23.5013  23.5375  23.5438  23.5904  23.5904  23.7073
    23.7150  23.7244  23.8062  23.8170  23.9171  23.9435  23.9454  24.0679
    24.1924  24.3230  24.3416  24.3448  24.4120  24.4288  24.4848  24.4851
    24.4907  24.5409  24.5982  24.6887  24.7178  24.7364  24.7393  24.7578
    24.7759  24.8465  24.8577  24.8839  24.9482  24.9550  24.9619  25.0040
    25.0591  25.0833  25.1049  25.1180  25.1347  25.1679  25.2009  25.2839
    25.3302  25.4316  25.4508  25.5069  25.5271  25.5302  25.5648  25.5774
    25.5917  25.6839  25.6892  25.7903  25.8030  25.8061  25.8212  25.8915
    25.9028  25.9468  25.9545  26.0322  26.0829  26.1101  26.1766  26.2026
    26.2067  26.2674  26.2940  26.3112  26.3277  26.3560  26.3849  26.4437
    26.4506  26.4646  26.4952  26.5494  26.5554  26.7626  26.7648  26.7863
    26.8073

     the Fermi energy is     1.2155 ev

!    total energy              =   -3294.38998393 Ry
     Harris-Foulkes estimate   =   -3294.38998393 Ry
     estimated scf accuracy    <          2.8E-09 Ry

     The total energy is the sum of the following terms:

     one-electron contribution =  -76764.02308038 Ry
     hartree contribution      =   38434.50255871 Ry
     xc contribution           =    -545.68498040 Ry
     ewald contribution        =   35580.81755990 Ry
     smearing contrib. (-TS)   =      -0.00204176 Ry

     convergence has been achieved in  17 iterations

     Forces acting on atoms (Ry/au):

     negative rho (up, down):  0.469E-02 0.000E+00
     atom    1 type  1   force =     0.00000000    0.00000000    0.12978616
     atom    2 type  2   force =    -0.00569725    0.00000000   -0.15083480
     atom    3 type  2   force =     0.00000000    0.00000000    0.09078595
     atom    4 type  1   force =     0.00028622    0.02432515   -0.01290761
     atom    5 type  1   force =     0.00028622   -0.02432515   -0.01290761
     atom    6 type  1   force =     0.00000000    0.00000000   -0.00804280
     atom    7 type  1   force =     0.00000000    0.00000000   -0.03393918
     atom    8 type  2   force =     0.00013712    0.00000000    0.01196255
     atom    9 type  2   force =     0.00000000    0.00000000   -0.01781622
     atom   10 type  1   force =     0.00212335   -0.01707234   -0.00154350
     atom   11 type  1   force =     0.00212335    0.01707234   -0.00154350
     atom   12 type  1   force =     0.00000000    0.00000000   -0.01062689
     atom   13 type  1   force =     0.00000000    0.00000000    0.00001667
     atom   14 type  2   force =    -0.00026911    0.00000000    0.00000487
     atom   15 type  2   force =     0.00000000    0.00000000   -0.00078212
     atom   16 type  1   force =     0.00012787    0.00017135   -0.00027758
     atom   17 type  1   force =     0.00012787   -0.00017135   -0.00027758
     atom   18 type  1   force =     0.00000000    0.00000000    0.00055007
     atom   19 type  1   force =     0.00000000    0.00000000    0.00054669
     atom   20 type  2   force =     0.00019243    0.00000000    0.00021581
     atom   21 type  2   force =     0.00000000    0.00000000    0.00047849
     atom   22 type  1   force =    -0.00005535    0.00043195    0.00010546
     atom   23 type  1   force =    -0.00005535   -0.00043195    0.00010546
     atom   24 type  1   force =     0.00000000    0.00000000   -0.00009598
     atom   25 type  1   force =     0.00000000    0.00000000    0.12997757
     atom   26 type  2   force =     0.00569725   -0.00000000   -0.15083480
     atom   27 type  2   force =     0.00000000    0.00000000    0.09419823
     atom   28 type  1   force =    -0.00028622    0.02432515   -0.01290761
     atom   29 type  1   force =    -0.00028622   -0.02432515   -0.01290761
     atom   30 type  1   force =     0.00000000    0.00000000    0.00152378
     atom   31 type  1   force =     0.00000000    0.00000000   -0.03641782
     atom   32 type  2   force =    -0.00013712   -0.00000000    0.01196255
     atom   33 type  2   force =     0.00000000    0.00000000    0.01575901
     atom   34 type  1   force =    -0.00212335   -0.01707234   -0.00154350
     atom   35 type  1   force =    -0.00212335    0.01707234   -0.00154350
     atom   36 type  1   force =     0.00000000    0.00000000   -0.02135337
     atom   37 type  1   force =     0.00000000    0.00000000   -0.00056936
     atom   38 type  2   force =     0.00026911   -0.00000000    0.00000487
     atom   39 type  2   force =     0.00000000    0.00000000    0.00007080
     atom   40 type  1   force =    -0.00012787    0.00017135   -0.00027758
     atom   41 type  1   force =    -0.00012787   -0.00017135   -0.00027758
     atom   42 type  1   force =     0.00000000    0.00000000    0.00011849
     atom   43 type  1   force =     0.00000000    0.00000000    0.00021054
     atom   44 type  2   force =    -0.00019243    0.00000000    0.00021581
     atom   45 type  2   force =     0.00000000    0.00000000    0.00018811
     atom   46 type  1   force =     0.00005535    0.00043195    0.00010546
     atom   47 type  1   force =     0.00005535   -0.00043195    0.00010546
     atom   48 type  1   force =     0.00000000    0.00000000    0.00089011
     atom   49 type  1   force =     0.00000000    0.00000000    0.00033910

     Total force =     0.002095     Total SCF correction =     0.000184

     bfgs converged in  17 scf cycles and  16 bfgs steps
     (criteria: energy < 0.10E-03, force < 0.10E-02)

     End of BFGS Geometry Optimization

     Final energy   =   -3294.3899839296 Ry
Begin final coordinates

ATOMIC_POSITIONS (crystal)
O0       0.000000000   0.500000000   0.319310000    0   0   0
Mo1      0.250000000   0.500000000   0.360290000    0   0   0
Mo1      0.000000000   0.000000000   0.360290000    0   0   0
O0       0.250000000   0.780000000   0.360290000    0   0   0
O0       0.250000000   0.220000000   0.360290000    0   0   0
O0       0.000000000   0.500000000   0.401270000    0   0   0
O0       0.000000000   0.000000000   0.412450000    0   0   0
Mo1      0.250000000   0.000000000   0.453430000    0   0   0
Mo1      0.000000000   0.500000000   0.453430000    0   0   0
O0       0.250000000   0.720000000   0.453430000    0   0   0
O0       0.250000000   0.280000000   0.453430000    0   0   0
O0       0.000000000   0.000000000   0.494410000    0   0   0
O0       0.000000000   0.500000000   0.504923013
Mo1      0.234128260   0.500000000   0.546122865
Mo1      0.000000000   0.000000000   0.547876506
O0       0.244933093   0.784980461   0.546335474
O0       0.244933093   0.215019539   0.546335474
O0       0.000000000   0.500000000   0.587902039
O0       0.000000000   0.000000000   0.600388322
Mo1      0.268054464  -0.000000000   0.641170240
Mo1      0.000000000   0.500000000   0.636429919
O0       0.251082376   0.710793094   0.639121974
O0       0.251082376   0.289206906   0.639121974
O0       0.000000000   0.000000000   0.674842665
O0       0.500000000   0.500000000   0.319310000    0   0   0
Mo1      0.750000000   0.500000000   0.360290000    0   0   0
Mo1      0.500000000   0.000000000   0.360290000    0   0   0
O0       0.750000000   0.780000000   0.360290000    0   0   0
O0       0.750000000   0.220000000   0.360290000    0   0   0
O0       0.500000000   0.500000000   0.401270000    0   0   0
O0       0.500000000   0.000000000   0.412450000    0   0   0
Mo1      0.750000000   0.000000000   0.453430000    0   0   0
Mo1      0.500000000   0.500000000   0.453430000    0   0   0
O0       0.750000000   0.720000000   0.453430000    0   0   0
O0       0.750000000   0.280000000   0.453430000    0   0   0
O0       0.500000000   0.000000000   0.494410000    0   0   0
O0       0.500000000   0.500000000   0.507262467
Mo1      0.765871740   0.500000000   0.546122865
Mo1      0.500000000   0.000000000   0.547124580
O0       0.755066907   0.784980461   0.546335474
O0       0.755066907   0.215019539   0.546335474
O0       0.500000000   0.500000000   0.581970841
O0       0.500000000   0.000000000   0.598583021
Mo1      0.731945536   0.000000000   0.641170240
Mo1      0.500000000   0.500000000   0.648882034
O0       0.748917624   0.710793094   0.639121974
O0       0.748917624   0.289206906   0.639121974
O0       0.500000000   0.000000000   0.679757139
O0       0.500000000   0.500000000   0.693556351
End final coordinates

     General routines

     Parallel routines

   This run was terminated on:  11: 4:49  11Apr2014

   JOB DONE.