     Program PWSCF v.5.0.2 (svn rev. 9656) starts on 24Jan2014 at 13:45:16

     Current dimensions of program PWSCF are:
     Max number of different atomic species (ntypx) = 10
     Max number of k-points (npk) =  40000
     Max angular momentum in pseudopotentials (lmaxx) =  3
     Reading input from NbO2-v-1.00.in

     Subspace diagonalization in iterative solution of the eigenvalue problem:
     a serial algorithm will be used

     bravais-lattice index     =            0
     lattice parameter (alat)  =       9.1142  a.u.
     unit-cell volume          =     487.9113 (a.u.)^3
     number of atoms/cell      =            6
     number of atomic types    =            2
     number of electrons       =        50.00
     number of Kohn-Sham states=           75
     kinetic-energy cutoff     =      40.0000  Ry
     charge density cutoff     =     500.0000  Ry
     convergence threshold     =      1.0E-06
     mixing beta               =       0.3000
     number of iterations used =            8  plain     mixing
     Exchange-correlation      = SLA  PW   PBE  PBE ( 1 4 3 4 0)
     EXX-fraction              =        0.00
     nstep                     =           50

     celldm(1)=   9.114198  celldm(2)=   0.000000  celldm(3)=   0.000000
     celldm(4)=   0.000000  celldm(5)=   0.000000  celldm(6)=   0.000000

     crystal axes: (cart. coord. in units of alat)
               a(1) = (   1.000000   0.000000   0.000000 )
               a(2) = (   0.000000   1.000000   0.000000 )
               a(3) = (   0.000000   0.000000   0.644444 )

     reciprocal axes: (cart. coord. in units 2 pi/alat)
               b(1) = (  1.000000  0.000000  0.000000 )
               b(2) = (  0.000000  1.000000  0.000000 )
               b(3) = (  0.000000  0.000000  1.551724 )

     PseudoPot. # 1 for Nb read from file:
     /home/camp/zhonxu/pseudo/nb_pbe_v1.uspp.F.UPF
     MD5 check sum: 573aab8a2fa660278ed4a62cd769473f
     Pseudo is Ultrasoft + core correction, Zval = 13.0
     Generated by new atomic code, or converted to UPF format
     Using radial grid of  887 points,  6 beta functions with:
                l(1) =   0
                l(2) =   0
                l(3) =   1
                l(4) =   1
                l(5) =   2
                l(6) =   2
     Q(r) pseudized with  6 coefficients,  rinner =    1.000   1.000   1.000
                                                       1.000   1.000

     PseudoPot. # 2 for O  read from file:
     /home/camp/zhonxu/pseudo/o_pbe_v1.01.uspp.F.UPF
     MD5 check sum: 2bcb18d16ea4b960afae9ec6d52f22d2
     Pseudo is Ultrasoft + core correction, Zval =  6.0
     Generated by new atomic code, or converted to UPF format
     Using radial grid of  737 points,  5 beta functions with:
                l(1) =   0
                l(2) =   0
                l(3) =   1
                l(4) =   1
                l(5) =   2
     Q(r) pseudized with  8 coefficients,  rinner =    0.900   0.900   0.900
                                                       0.900   0.900

     atomic species   valence    mass     pseudopotential
        Nb0           13.00    92.90640     Nb( 1.00)
        O1             6.00    15.99940     O ( 1.00)

     Starting magnetic structure
     atomic species   magnetization
        Nb0          0.600
        O1           0.000

      8 Sym. Ops., with inversion, found
          (note:  8 additional sym.ops. were found but ignored
           their fractional translations are incommensurate with FFT grid)

   Cartesian axes

     site n.     atom                  positions (alat units)
         1           Nb0 tau(   1) = (   0.0000000   0.0000000   0.0000000  )
         2           Nb0 tau(   2) = (   0.5000000   0.5000000   0.3222222  )
         3           O1  tau(   3) = (   0.3050000   0.3050000   0.0000000  )
         4           O1  tau(   4) = (  -0.3050000  -0.3050000   0.0000000  )
         5           O1  tau(   5) = (   0.8050000   0.1950000   0.3222222  )
         6           O1  tau(   6) = (   0.1950000   0.8050000   0.3222222  )

     number of k points=    54  Methfessel-Paxton smearing, width (Ry)=  0.0100
                       cart. coord. in units 2pi/alat
        k(    1) = (   0.0000000   0.0000000   0.0000000), wk =   0.0080000
        k(    2) = (   0.0000000   0.0000000   0.3103448), wk =   0.0160000
        k(    3) = (   0.0000000   0.0000000   0.6206897), wk =   0.0160000
        k(    4) = (   0.0000000   0.2000000   0.0000000), wk =   0.0320000
        k(    5) = (   0.0000000   0.2000000   0.3103448), wk =   0.0640000
        k(    6) = (   0.0000000   0.2000000   0.6206897), wk =   0.0640000
        k(    7) = (   0.0000000   0.4000000   0.0000000), wk =   0.0320000
        k(    8) = (   0.0000000   0.4000000   0.3103448), wk =   0.0640000
        k(    9) = (   0.0000000   0.4000000   0.6206897), wk =   0.0640000
        k(   10) = (   0.2000000   0.2000000   0.0000000), wk =   0.0160000
        k(   11) = (   0.2000000   0.2000000   0.3103448), wk =   0.0320000
        k(   12) = (   0.2000000   0.2000000   0.6206897), wk =   0.0320000
        k(   13) = (   0.2000000   0.4000000   0.0000000), wk =   0.0320000
        k(   14) = (   0.2000000   0.4000000   0.3103448), wk =   0.0640000
        k(   15) = (   0.2000000   0.4000000   0.6206897), wk =   0.0640000
        k(   16) = (   0.4000000   0.4000000   0.0000000), wk =   0.0160000
        k(   17) = (   0.4000000   0.4000000   0.3103448), wk =   0.0320000
        k(   18) = (   0.4000000   0.4000000   0.6206897), wk =   0.0320000
        k(   19) = (  -0.2000000   0.2000000   0.0000000), wk =   0.0160000
        k(   20) = (  -0.2000000   0.2000000  -0.3103448), wk =   0.0320000
        k(   21) = (  -0.2000000   0.2000000  -0.6206897), wk =   0.0320000
        k(   22) = (  -0.2000000   0.4000000   0.0000000), wk =   0.0320000
        k(   23) = (  -0.2000000   0.4000000  -0.3103448), wk =   0.0640000
        k(   24) = (  -0.2000000   0.4000000  -0.6206897), wk =   0.0640000
        k(   25) = (  -0.4000000   0.4000000   0.0000000), wk =   0.0160000
        k(   26) = (  -0.4000000   0.4000000  -0.3103448), wk =   0.0320000
        k(   27) = (  -0.4000000   0.4000000  -0.6206897), wk =   0.0320000
        k(   28) = (   0.0000000   0.0000000   0.0000000), wk =   0.0080000
        k(   29) = (   0.0000000   0.0000000   0.3103448), wk =   0.0160000
        k(   30) = (   0.0000000   0.0000000   0.6206897), wk =   0.0160000
        k(   31) = (   0.0000000   0.2000000   0.0000000), wk =   0.0320000
        k(   32) = (   0.0000000   0.2000000   0.3103448), wk =   0.0640000
        k(   33) = (   0.0000000   0.2000000   0.6206897), wk =   0.0640000
        k(   34) = (   0.0000000   0.4000000   0.0000000), wk =   0.0320000
        k(   35) = (   0.0000000   0.4000000   0.3103448), wk =   0.0640000
        k(   36) = (   0.0000000   0.4000000   0.6206897), wk =   0.0640000
        k(   37) = (   0.2000000   0.2000000   0.0000000), wk =   0.0160000
        k(   38) = (   0.2000000   0.2000000   0.3103448), wk =   0.0320000
        k(   39) = (   0.2000000   0.2000000   0.6206897), wk =   0.0320000
        k(   40) = (   0.2000000   0.4000000   0.0000000), wk =   0.0320000
        k(   41) = (   0.2000000   0.4000000   0.3103448), wk =   0.0640000
        k(   42) = (   0.2000000   0.4000000   0.6206897), wk =   0.0640000
        k(   43) = (   0.4000000   0.4000000   0.0000000), wk =   0.0160000
        k(   44) = (   0.4000000   0.4000000   0.3103448), wk =   0.0320000
        k(   45) = (   0.4000000   0.4000000   0.6206897), wk =   0.0320000
        k(   46) = (  -0.2000000   0.2000000   0.0000000), wk =   0.0160000
        k(   47) = (  -0.2000000   0.2000000  -0.3103448), wk =   0.0320000
        k(   48) = (  -0.2000000   0.2000000  -0.6206897), wk =   0.0320000
        k(   49) = (  -0.2000000   0.4000000   0.0000000), wk =   0.0320000
        k(   50) = (  -0.2000000   0.4000000  -0.3103448), wk =   0.0640000
        k(   51) = (  -0.2000000   0.4000000  -0.6206897), wk =   0.0640000
        k(   52) = (  -0.4000000   0.4000000   0.0000000), wk =   0.0160000
        k(   53) = (  -0.4000000   0.4000000  -0.3103448), wk =   0.0320000
        k(   54) = (  -0.4000000   0.4000000  -0.6206897), wk =   0.0320000

     Largest allocated arrays     est. size (Mb)     dimensions
     Largest temporary arrays     est. size (Mb)     dimensions

     Check: negative/imaginary core charge=   -0.000007    0.000000

     Initial potential from superposition of free atoms

     starting charge   49.99453, renormalised to   50.00000
     Starting wfc are   42 randomized atomic wfcs

     Self-consistent Calculation

     iteration #  1     ecut=    40.00 Ry     beta=0.30
     Davidson diagonalization with overlap
     ethr =  1.00E-02,  avg # of iterations =  5.4

     total energy              =    -364.21389393 Ry
     Harris-Foulkes estimate   =    -364.96238802 Ry
     estimated scf accuracy    <       3.70931482 Ry

     total magnetization       =     2.00 Bohr mag/cell
     absolute magnetization    =     2.85 Bohr mag/cell

[...]

     End of self-consistent calculation

 ------ SPIN UP ------------

          k = 0.0000 0.0000 0.0000 (  2063 PWs)   bands (ev):

   -44.0984 -44.0787 -20.3408 -20.3408 -20.1145 -20.0898 -20.0898 -20.0630
    -7.8268  -7.2289  -6.0800  -6.0795   4.1684   4.2436   5.1680   5.8264
     5.8267   7.6837   7.6838   8.1341   8.9379   9.0639   9.0639   9.6675
    12.2051  12.3569  12.9452  13.1851  13.1852  15.7569  15.7866  16.4214
    18.6119  18.6120  19.7998  20.4625  20.4625  23.7943  25.7963  26.0422
    26.8110  27.2057  27.7660  27.7660  30.3413  30.5895  31.2555  31.2555
    31.9753  31.9754  33.2186  36.8505  36.8506  37.1585  37.4852  37.5983
    39.0878  39.9472  39.9473  40.2431  40.2431  40.6917  40.7571  40.9073
    41.8968  42.4604  42.4605  43.1246  44.0824  46.1335  46.1336  46.5439
    47.0817  47.5674  47.5674

[...]

          k =-0.2000 0.2000 0.0000 (  2069 PWs)   bands (ev):

[...]

 ------ SPIN DOWN ----------

[...]

     the Fermi energy is    13.0317 ev

!    total energy              =    -365.28037068 Ry
     Harris-Foulkes estimate   =    -365.28036914 Ry
     estimated scf accuracy    <       0.00000050 Ry

     The total energy is the sum of the following terms:

     one-electron contribution =     -97.94492426 Ry
     hartree contribution      =      75.86521636 Ry
     xc contribution           =     -65.67345177 Ry
     ewald contribution        =    -277.52743219 Ry
     smearing contrib. (-TS)   =       0.00022118 Ry

[...]

     convergence has been achieved in  14 iterations

     Forces acting on atoms (Ry/au):

     atom    1 type  1   force =     0.00000000    0.00000000    0.00000000
     atom    2 type  1   force =     0.00000000    0.00000000    0.00000000
     atom    3 type  2   force =    -0.02005003   -0.02005003    0.00000000
     atom    4 type  2   force =     0.02005003    0.02005003    0.00000000
     atom    5 type  2   force =    -0.02003320    0.02003320    0.00000000
     atom    6 type  2   force =     0.02003320   -0.02003320    0.00000000

[...]
        k(    2) = (   0.0000000   0.0000000   0.3254709), wk =   0.0160000
        k(    3) = (   0.0000000   0.0000000   0.6509419), wk =   0.0160000
        k(    4) = (   0.0000006   0.1952973   0.0000000), wk =   0.0320000
        k(    5) = (   0.0000006   0.1952973   0.3254709), wk =   0.0640000
        k(    6) = (   0.0000006   0.1952973   0.6509419), wk =   0.0640000
        k(    7) = (   0.0000013   0.3905945   0.0000000), wk =   0.0320000
        k(    8) = (   0.0000013   0.3905945   0.3254709), wk =   0.0640000
        k(    9) = (   0.0000013   0.3905945   0.6509419), wk =   0.0640000
        k(   10) = (   0.1952979   0.1952979   0.0000000), wk =   0.0160000
        k(   11) = (   0.1952979   0.1952979   0.3254709), wk =   0.0320000
        k(   12) = (   0.1952979   0.1952979   0.6509419), wk =   0.0320000
        k(   13) = (   0.1952985   0.3905951   0.0000000), wk =   0.0320000
        k(   14) = (   0.1952985   0.3905951   0.3254709), wk =   0.0640000
        k(   15) = (   0.1952985   0.3905951   0.6509419), wk =   0.0640000
        k(   16) = (   0.3905958   0.3905958   0.0000000), wk =   0.0160000
        k(   17) = (   0.3905958   0.3905958   0.3254709), wk =   0.0320000
        k(   18) = (   0.3905958   0.3905958   0.6509419), wk =   0.0320000
        k(   19) = (  -0.1952966   0.1952966   0.0000000), wk =   0.0160000
        k(   20) = (  -0.1952966   0.1952966  -0.3254709), wk =   0.0320000
        k(   21) = (  -0.1952966   0.1952966  -0.6509419), wk =   0.0320000
        k(   22) = (  -0.1952960   0.3905939   0.0000000), wk =   0.0320000
        k(   23) = (  -0.1952960   0.3905939  -0.3254709), wk =   0.0640000
        k(   24) = (  -0.1952960   0.3905939  -0.6509419), wk =   0.0640000
        k(   25) = (  -0.3905932   0.3905932   0.0000000), wk =   0.0160000
        k(   26) = (  -0.3905932   0.3905932  -0.3254709), wk =   0.0320000
        k(   27) = (  -0.3905932   0.3905932  -0.6509419), wk =   0.0320000
        k(   28) = (   0.0000000   0.0000000   0.0000000), wk =   0.0080000
        k(   29) = (   0.0000000   0.0000000   0.3254709), wk =   0.0160000
        k(   30) = (   0.0000000   0.0000000   0.6509419), wk =   0.0160000
        k(   31) = (   0.0000006   0.1952973   0.0000000), wk =   0.0320000
        k(   32) = (   0.0000006   0.1952973   0.3254709), wk =   0.0640000
        k(   33) = (   0.0000006   0.1952973   0.6509419), wk =   0.0640000
        k(   34) = (   0.0000013   0.3905945   0.0000000), wk =   0.0320000
        k(   35) = (   0.0000013   0.3905945   0.3254709), wk =   0.0640000
        k(   36) = (   0.0000013   0.3905945   0.6509419), wk =   0.0640000
        k(   37) = (   0.1952979   0.1952979   0.0000000), wk =   0.0160000
        k(   38) = (   0.1952979   0.1952979   0.3254709), wk =   0.0320000
        k(   39) = (   0.1952979   0.1952979   0.6509419), wk =   0.0320000
        k(   40) = (   0.1952985   0.3905951   0.0000000), wk =   0.0320000
        k(   41) = (   0.1952985   0.3905951   0.3254709), wk =   0.0640000
        k(   42) = (   0.1952985   0.3905951   0.6509419), wk =   0.0640000
        k(   43) = (   0.3905958   0.3905958   0.0000000), wk =   0.0160000
        k(   44) = (   0.3905958   0.3905958   0.3254709), wk =   0.0320000
        k(   45) = (   0.3905958   0.3905958   0.6509419), wk =   0.0320000
        k(   46) = (  -0.1952966   0.1952966   0.0000000), wk =   0.0160000
        k(   47) = (  -0.1952966   0.1952966  -0.3254709), wk =   0.0320000
        k(   48) = (  -0.1952966   0.1952966  -0.6509419), wk =   0.0320000
        k(   49) = (  -0.1952960   0.3905939   0.0000000), wk =   0.0320000
        k(   50) = (  -0.1952960   0.3905939  -0.3254709), wk =   0.0640000
        k(   51) = (  -0.1952960   0.3905939  -0.6509419), wk =   0.0640000
        k(   52) = (  -0.3905932   0.3905932   0.0000000), wk =   0.0160000
        k(   53) = (  -0.3905932   0.3905932  -0.3254709), wk =   0.0320000
        k(   54) = (  -0.3905932   0.3905932  -0.6509419), wk =   0.0320000

[...]

     Threshold (ethr) on eigenvalues was too large:
     Diagonalizing with lowered threshold

     Davidson diagonalization with overlap
     ethr =  1.77E-09,  avg # of iterations =  2.0

[...]

     Total force =     0.000196     Total SCF correction =     0.000015

[...]

     Volume is kept fixed: isostatic pressure set to zero

     bfgs converged in   7 scf cycles and   6 bfgs steps
     (criteria: energy < 0.10E-03, force < 0.10E-02, cell < 0.50E+00)

     End of BFGS Geometry Optimization

     Final enthalpy =    -365.2941236871 Ry
Begin final coordinates
     new unit-cell volume =    487.91134 a.u.^3 (    72.30100 Ang^3 )

CELL_PARAMETERS (alat=  9.11419835)
   1.024079933  -0.000003318   0.000000000
  -0.000003318   1.024079933   0.000000000
   0.000000000   0.000000000   0.614494177

ATOMIC_POSITIONS (crystal)
Nb0      0.000000000   0.000000000   0.000000000    0   0   0
Nb0      0.500000000   0.500000000   0.500000000    0   0   0
O1       0.292816318   0.292816318   0.000000000    1   1   0
O1      -0.292816318  -0.292816318   0.000000000    1   1   0
O1       0.792815403   0.207184597   0.500000000    1   1   0
O1       0.207184597   0.792815403   0.500000000    1   1   0
End final coordinates

     A final scf calculation at the relaxed structure.
     The G-vectors are recalculated for the final unit cell
     Results may differ from those at the preceding step.

     bravais-lattice index     =            0
     lattice parameter (alat)  =       9.1142  a.u.
     unit-cell volume          =     487.9113 (a.u.)^3
     number of atoms/cell      =            6
     number of atomic types    =            2
     number of electrons       =        50.00
     number of Kohn-Sham states=           75
     kinetic-energy cutoff     =      40.0000  Ry
     charge density cutoff     =     500.0000  Ry
     convergence threshold     =      1.0E-08
     mixing beta               =       0.3000
     number of iterations used =            8  plain     mixing
     Exchange-correlation      = SLA  PW   PBE  PBE ( 1 4 3 4 0)
     EXX-fraction              =        0.00

     celldm(1)=   9.114198  celldm(2)=   0.000000  celldm(3)=   0.000000
     celldm(4)=   0.000000  celldm(5)=   0.000000  celldm(6)=   0.000000

     crystal axes: (cart. coord. in units of alat)
               a(1) = (   1.024080  -0.000003   0.000000 )
               a(2) = (  -0.000003   1.024080   0.000000 )
               a(3) = (   0.000000   0.000000   0.614494 )

     reciprocal axes: (cart. coord. in units 2 pi/alat)
               b(1) = (  0.976486  0.000003 -0.000000 )
               b(2) = (  0.000003  0.976486 -0.000000 )
               b(3) = ( -0.000000 -0.000000  1.627355 )

     PseudoPot. # 1 for Nb read from file:
     /home/camp/zhonxu/pseudo/nb_pbe_v1.uspp.F.UPF
     MD5 check sum: 573aab8a2fa660278ed4a62cd769473f
     Pseudo is Ultrasoft + core correction, Zval = 13.0
     Generated by new atomic code, or converted to UPF format
     Using radial grid of  887 points,  6 beta functions with:
                l(1) =   0
                l(2) =   0
                l(3) =   1
                l(4) =   1
                l(5) =   2
                l(6) =   2
     Q(r) pseudized with  6 coefficients,  rinner =    1.000   1.000   1.000
                                                       1.000   1.000

     PseudoPot. # 2 for O  read from file:
     /home/camp/zhonxu/pseudo/o_pbe_v1.01.uspp.F.UPF
     MD5 check sum: 2bcb18d16ea4b960afae9ec6d52f22d2
     Pseudo is Ultrasoft + core correction, Zval =  6.0
     Generated by new atomic code, or converted to UPF format
     Using radial grid of  737 points,  5 beta functions with:
                l(1) =   0
                l(2) =   0
                l(3) =   1
                l(4) =   1
                l(5) =   2
     Q(r) pseudized with  8 coefficients,  rinner =    0.900   0.900   0.900
                                                       0.900   0.900

     atomic species   valence    mass     pseudopotential
        Nb0           13.00    92.90640     Nb( 1.00)
        O1             6.00    15.99940     O ( 1.00)

     Starting magnetic structure
     atomic species   magnetization
        Nb0          0.600
        O1           0.000

      8 Sym. Ops., with inversion, found
          (note:  8 additional sym.ops. were found but ignored
           their fractional translations are incommensurate with FFT grid)

   Cartesian axes

     site n.     atom                  positions (alat units)
         1           Nb0 tau(   1) = (   0.0000000   0.0000000   0.0000000  )
         2           Nb0 tau(   2) = (   0.5120383   0.5120383   0.3072471  )
         3           O1  tau(   3) = (   0.2998663   0.2998663   0.0000000  )
         4           O1  tau(   4) = (  -0.2998663  -0.2998663   0.0000000  )
         5           O1  tau(   5) = (   0.8119057   0.2121710   0.3072471  )
         6           O1  tau(   6) = (   0.2121710   0.8119057   0.3072471  )

     number of k points=    54  Methfessel-Paxton smearing, width (Ry)=  0.0100
                       cart. coord. in units 2pi/alat
        k(    1) = (   0.0000000   0.0000000   0.0000000), wk =   0.0080000
        k(    2) = (   0.0000000   0.0000000   0.3254709), wk =   0.0160000
        k(    3) = (   0.0000000   0.0000000   0.6509419), wk =   0.0160000
        k(    4) = (   0.0000006   0.1952973   0.0000000), wk =   0.0320000
        k(    5) = (   0.0000006   0.1952973   0.3254709), wk =   0.0640000
        k(    6) = (   0.0000006   0.1952973   0.6509419), wk =   0.0640000
        k(    7) = (   0.0000013   0.3905945   0.0000000), wk =   0.0320000
        k(    8) = (   0.0000013   0.3905945   0.3254709), wk =   0.0640000
        k(    9) = (   0.0000013   0.3905945   0.6509419), wk =   0.0640000
        k(   10) = (   0.1952979   0.1952979   0.0000000), wk =   0.0160000
        k(   11) = (   0.1952979   0.1952979   0.3254709), wk =   0.0320000
        k(   12) = (   0.1952979   0.1952979   0.6509419), wk =   0.0320000
        k(   13) = (   0.1952985   0.3905951   0.0000000), wk =   0.0320000
        k(   14) = (   0.1952985   0.3905951   0.3254709), wk =   0.0640000
        k(   15) = (   0.1952985   0.3905951   0.6509419), wk =   0.0640000
        k(   16) = (   0.3905958   0.3905958   0.0000000), wk =   0.0160000
        k(   17) = (   0.3905958   0.3905958   0.3254709), wk =   0.0320000
        k(   18) = (   0.3905958   0.3905958   0.6509419), wk =   0.0320000
        k(   19) = (  -0.1952966   0.1952966   0.0000000), wk =   0.0160000
        k(   20) = (  -0.1952966   0.1952966  -0.3254709), wk =   0.0320000
        k(   21) = (  -0.1952966   0.1952966  -0.6509419), wk =   0.0320000
        k(   22) = (  -0.1952960   0.3905939   0.0000000), wk =   0.0320000
        k(   23) = (  -0.1952960   0.3905939  -0.3254709), wk =   0.0640000
        k(   24) = (  -0.1952960   0.3905939  -0.6509419), wk =   0.0640000
        k(   25) = (  -0.3905932   0.3905932   0.0000000), wk =   0.0160000
        k(   26) = (  -0.3905932   0.3905932  -0.3254709), wk =   0.0320000
        k(   27) = (  -0.3905932   0.3905932  -0.6509419), wk =   0.0320000
        k(   28) = (   0.0000000   0.0000000   0.0000000), wk =   0.0080000
        k(   29) = (   0.0000000   0.0000000   0.3254709), wk =   0.0160000
        k(   30) = (   0.0000000   0.0000000   0.6509419), wk =   0.0160000
        k(   31) = (   0.0000006   0.1952973   0.0000000), wk =   0.0320000
        k(   32) = (   0.0000006   0.1952973   0.3254709), wk =   0.0640000
        k(   33) = (   0.0000006   0.1952973   0.6509419), wk =   0.0640000
        k(   34) = (   0.0000013   0.3905945   0.0000000), wk =   0.0320000
        k(   35) = (   0.0000013   0.3905945   0.3254709), wk =   0.0640000
        k(   36) = (   0.0000013   0.3905945   0.6509419), wk =   0.0640000
        k(   37) = (   0.1952979   0.1952979   0.0000000), wk =   0.0160000
        k(   38) = (   0.1952979   0.1952979   0.3254709), wk =   0.0320000
        k(   39) = (   0.1952979   0.1952979   0.6509419), wk =   0.0320000
        k(   40) = (   0.1952985   0.3905951   0.0000000), wk =   0.0320000
        k(   41) = (   0.1952985   0.3905951   0.3254709), wk =   0.0640000
        k(   42) = (   0.1952985   0.3905951   0.6509419), wk =   0.0640000
        k(   43) = (   0.3905958   0.3905958   0.0000000), wk =   0.0160000
        k(   44) = (   0.3905958   0.3905958   0.3254709), wk =   0.0320000
        k(   45) = (   0.3905958   0.3905958   0.6509419), wk =   0.0320000
        k(   46) = (  -0.1952966   0.1952966   0.0000000), wk =   0.0160000
        k(   47) = (  -0.1952966   0.1952966  -0.3254709), wk =   0.0320000
        k(   48) = (  -0.1952966   0.1952966  -0.6509419), wk =   0.0320000
        k(   49) = (  -0.1952960   0.3905939   0.0000000), wk =   0.0320000
        k(   50) = (  -0.1952960   0.3905939  -0.3254709), wk =   0.0640000
        k(   51) = (  -0.1952960   0.3905939  -0.6509419), wk =   0.0640000
        k(   52) = (  -0.3905932   0.3905932   0.0000000), wk =   0.0160000
        k(   53) = (  -0.3905932   0.3905932  -0.3254709), wk =   0.0320000
        k(   54) = (  -0.3905932   0.3905932  -0.6509419), wk =   0.0320000

     Largest allocated arrays     est. size (Mb)     dimensions
     Largest temporary arrays     est. size (Mb)     dimensions

     Check: negative/imaginary core charge=   -0.000007    0.000000

     Initial potential from superposition of free atoms

     starting charge   49.99453, renormalised to   50.00000
     Starting wfc are   42 randomized atomic wfcs

     Self-consistent Calculation

[...]

     total energy              =    -365.29416214 Ry
     Harris-Foulkes estimate   =    -365.29416219 Ry
     estimated scf accuracy    <       0.00000002 Ry

[...]

     iteration # 27     ecut=    40.00 Ry     beta=0.30
     Davidson diagonalization with overlap
     ethr =  3.42E-11,  avg # of iterations =  2.0

     End of self-consistent calculation

 ------ SPIN UP ------------

[...]

 ------ SPIN DOWN ----------

[...]

          k = 0.3906 0.3906 0.6509 (  2065 PWs)   bands (ev):

[...]

          k =-0.3906 0.3906-0.6509 (  2065 PWs)   bands (ev):

   -43.9742 -43.9737 -20.6000 -20.5939 -20.2088 -20.1993 -19.9190 -19.9174
    -7.0256  -6.8397  -6.5452  -6.3403   5.2498   5.5327   5.7148   5.9334
     6.0789   6.5311   6.9100   7.3524   8.1652   8.3366   8.9525   9.0638
    12.8832  13.3645  13.5662  14.1149  14.8165  14.8933  17.1712  17.9592
    18.0492  18.7214  20.9175  21.2273  22.2184  22.4608  24.1993  24.4476
    26.5229  26.6580  28.3386  28.5505  28.8989  29.4635  30.2510  30.7106
    33.7029  34.2192  34.4912  34.5745  36.7575  37.0487  38.4599  38.9992
    39.2223  39.7509  40.1685  40.6404  41.1000  41.2770  41.6011  42.2363
    42.3386  42.7561  43.1892  43.2878  43.4833  43.6161  44.3867  45.1792
    46.3123  47.5766  48.1268

     the Fermi energy is    12.6638 ev

!    total energy              =    -365.29416222 Ry
     Harris-Foulkes estimate   =    -365.29416222 Ry
     estimated scf accuracy    <          1.3E-09 Ry

     The total energy is the sum of the following terms:

     one-electron contribution =     -98.71881985 Ry
     hartree contribution      =      76.13582582 Ry
     xc contribution           =     -65.64861102 Ry
     ewald contribution        =    -277.06223270 Ry
     smearing contrib. (-TS)   =      -0.00032448 Ry

     total magnetization       =     0.47 Bohr mag/cell
     absolute magnetization    =     0.48 Bohr mag/cell

     convergence has been achieved in  27 iterations

     Forces acting on atoms (Ry/au):

     atom    1 type  1   force =     0.00000000    0.00000000    0.00000000
     atom    2 type  1   force =     0.00000000    0.00000000    0.00000000
     atom    3 type  2   force =    -0.00015254   -0.00015254    0.00000000
     atom    4 type  2   force =     0.00015254    0.00015254    0.00000000
     atom    5 type  2   force =    -0.00015034    0.00015034    0.00000000
     atom    6 type  2   force =     0.00015034   -0.00015034    0.00000000

     Total force =     0.000428     Total SCF correction =     0.000065
     SCF correction compared to forces is large: reduce conv_thr to get better values

     entering subroutine stress ...

          total   stress  (Ry/bohr**3)                   (kbar)     P=  -14.81
  -0.00010078   0.00000013   0.00000000        -14.83      0.02      0.00
   0.00000013  -0.00010078   0.00000000          0.02    -14.83      0.00
   0.00000000   0.00000000  -0.00010045          0.00      0.00    -14.78

     General routines

     Parallel routines

   This run was terminated on:  14:50:15  24Jan2014

   JOB DONE.