     Program PWSCF v.5.0.2 (svn rev. 9656) starts on 28Apr2014 at 20:50:26

     Current dimensions of program PWSCF are:
     Max number of different atomic species (ntypx) = 10
     Max number of k-points (npk) =  40000
     Max angular momentum in pseudopotentials (lmaxx) =  3
     Reading input from pwscf.in
Warning: card &CELL ignored
Warning: card / ignored

     Subspace diagonalization in iterative solution of the eigenvalue problem:
     a serial algorithm will be used

     bravais-lattice index     =            0
     lattice parameter (alat)  =      10.3179  a.u.
     unit-cell volume          =    6964.3238 (a.u.)^3
     number of atoms/cell      =           32
     number of atomic types    =            3
     number of electrons       =       231.00
     number of Kohn-Sham states=          346
     kinetic-energy cutoff     =      40.0000  Ry
     charge density cutoff     =     500.0000  Ry
     convergence threshold     =      1.0E-06
     mixing beta               =       0.7000
     number of iterations used =            8  plain     mixing
     Exchange-correlation      = SLA  PW   PBE  PBE ( 1 4 3 4 0)
     EXX-fraction              =        0.00
     nstep                     =           50

     celldm(1)=  10.317905  celldm(2)=   0.000000  celldm(3)=   0.000000
     celldm(4)=   0.000000  celldm(5)=   0.000000  celldm(6)=   0.000000

     crystal axes: (cart. coord. in units of alat)
               a(1) = (   1.000000   0.000000   0.000000 )
               a(2) = (   0.000000   1.282117   0.000000 )
               a(3) = (   0.000000   0.000000   4.945120 )

     reciprocal axes: (cart. coord. in units 2 pi/alat)
               b(1) = (  1.000000  0.000000  0.000000 )
               b(2) = (  0.000000  0.779960  0.000000 )
               b(3) = (  0.000000  0.000000  0.202220 )

     PseudoPot. # 1 for O  read from file:
     /home/camp/zhonxu/pseudo/o_pbe_v1.01.uspp.F.UPF
     MD5 check sum: 2bcb18d16ea4b960afae9ec6d52f22d2
     Pseudo is Ultrasoft + core correction, Zval =  6.0
     Generated by new atomic code, or converted to UPF format
     Using radial grid of  737 points,  5 beta functions with:
                l(1) =   0
                l(2) =   0
                l(3) =   1
                l(4) =   1
                l(5) =   2
     Q(r) pseudized with  8 coefficients,  rinner =    0.900   0.900   0.900
                                                       0.900   0.900

     PseudoPot. # 2 for Mo read from file:
     /home/camp/zhonxu/pseudo/mo_pbe_v1.uspp.F.UPF
     MD5 check sum: 30c4dcd161f5d35cd49bb5239c51a633
     Pseudo is Ultrasoft + core correction, Zval = 14.0
     Generated by new atomic code, or converted to UPF format
     Using radial grid of  889 points,  6 beta functions with:
                l(1) =   0
                l(2) =   0
                l(3) =   1
                l(4) =   1
                l(5) =   2
                l(6) =   2
     Q(r) pseudized with  6 coefficients,  rinner =    1.000   1.000   1.000
                                                       1.000   1.000

     PseudoPot. # 3 for H  read from file:
     /home/camp/zhonxu/pseudo/h_pbe_v1.uspp.F.UPF
     MD5 check sum: 3408e3ff4ec8b0a4e358431e7e038a48
     Pseudo is Ultrasoft, Zval =  1.0
     Generated by new atomic code, or converted to UPF format
     Using radial grid of  615 points,  2 beta functions with:
                l(1) =   0
                l(2) =   0
     Q(r) pseudized with  8 coefficients,  rinner =    0.700

     atomic species   valence    mass     pseudopotential
        O0             6.00    15.99940     O ( 1.00)
        Mo1           14.00    95.94000     Mo( 1.00)
        H2             1.00     1.00794     H ( 1.00)

     Simplified LDA+U calculation (l_max = 2) with parameters (eV):
     atomic species    L          U    alpha       J0     beta
        Mo1            2     0.5000   0.0000   0.0000   0.0000

     No symmetry found

   Cartesian axes

     site n.     atom                  positions (alat units)
         1           O0  tau(   1) = (   0.0000000   0.0000000   1.8362221  )
         2           O0  tau(   2) = (   0.0000000   0.6410583   1.8932888  )
         3           Mo1 tau(   3) = (   0.2500000   0.6410583   2.1787211  )
         4           Mo1 tau(   4) = (   0.0000000   0.0000000   2.1942488  )
         5           O0  tau(   5) = (   0.2500000   1.0000510   2.1917762  )
         6           O0  tau(   6) = (   0.2500000   0.2820657   2.1916279  )
         7           O0  tau(   7) = (   0.0000000   0.6410583   2.4619282  )
         8           O0  tau(   8) = (   0.0000000   0.0000000   2.5552920  )
         9           Mo1 tau(   9) = (   0.2500000   0.0000000   2.8451750  )
        10           Mo1 tau(  10) = (   0.0000000   0.6410583   2.7951798  )
        11           O0  tau(  11) = (   0.2500000   0.9231240   2.8229220  )
        12           O0  tau(  12) = (   0.2500000   0.3589927   2.8238121  )
        13           O0  tau(  13) = (   0.0000000   0.0000000   3.0959420  )
        14           O0  tau(  14) = (   0.5000000   0.0000000   1.8365188  )
        15           O0  tau(  15) = (   0.5000000   0.6410583   1.8939316  )
        16           Mo1 tau(  16) = (   0.7500000   0.6410583   2.1784244  )
        17           Mo1 tau(  17) = (   0.5000000   0.0000000   2.1964741  )
        18           O0  tau(  18) = (   0.7500000   1.0000510   2.1920730  )
        19           O0  tau(  19) = (   0.7500000   0.2820657   2.1913806  )
        20           O0  tau(  20) = (   0.5000000   0.6410583   2.4641535  )
        21           O0  tau(  21) = (   0.5000000   0.0000000   2.5544514  )
        22           Mo1 tau(  22) = (   0.7500000   0.0000000   2.8455212  )
        23           Mo1 tau(  23) = (   0.5000000   0.6410583   2.8262846  )
        24           O0  tau(  24) = (   0.7500000   0.9231240   2.8210923  )
        25           O0  tau(  25) = (   0.7500000   0.3589927   2.8208450  )
        26           O0  tau(  26) = (   0.5000000   0.0000000   3.0950519  )
        27           H2  tau(  27) = (  -0.0007600   0.7828861   1.7821225  )
        28           H2  tau(  28) = (   0.4995000   0.7914763   1.7941391  )
        29           H2  tau(  29) = (   0.1669200   0.0220268   1.7647651  )
        30           H2  tau(  30) = (   0.6653100   0.0245269   1.7632816  )
        31           O0  tau(  31) = (   0.5147600   0.6413532   3.1767948  )
        32           H2  tau(  32) = (   0.3891500   0.6353401   3.3044778  )

     number of k points=    10  Methfessel-Paxton smearing, width (Ry)=  0.0100
                       cart. coord. in units 2pi/alat
        k(    1) = (   0.0000000   0.0000000   0.0000000), wk =   0.1250000
        k(    2) = (   0.0000000   0.1949901   0.0000000), wk =   0.2500000
        k(    3) = (   0.0000000  -0.3899801   0.0000000), wk =   0.1250000
        k(    4) = (   0.2500000   0.0000000   0.0000000), wk =   0.2500000
        k(    5) = (   0.2500000   0.1949901   0.0000000), wk =   0.2500000
        k(    6) = (   0.2500000  -0.3899801   0.0000000), wk =   0.2500000
        k(    7) = (  -0.5000000   0.0000000   0.0000000), wk =   0.1250000
        k(    8) = (  -0.5000000   0.1949901   0.0000000), wk =   0.2500000
        k(    9) = (  -0.5000000  -0.3899801   0.0000000), wk =   0.1250000
        k(   10) = (  -0.2500000   0.1949901   0.0000000), wk =   0.2500000

     Largest allocated arrays     est. size (Mb)     dimensions
     Largest temporary arrays     est. size (Mb)     dimensions

     Check: negative/imaginary core charge=   -0.000003    0.000000

     Initial potential from superposition of free atoms
     Check: negative starting charge=   -0.002345

     starting charge  230.99142, renormalised to  231.00000

     negative rho (up, down):  0.235E-02 0.000E+00
     Number of +U iterations with fixed ns =  0
     Starting occupations:
 --- enter write_ns ---
 LDA+U parameters:
U( 2)     =  0.50000000
alpha( 2) =  0.00000000
atom    3   Tr[ns(na)] =   5.00000
    eigenvalues:
  0.500  0.500  0.500  0.500  0.500
    eigenvectors:
  1.000  0.000  0.000  0.000  0.000
  0.000  1.000  0.000  0.000  0.000
  0.000  0.000  1.000  0.000  0.000
  0.000  0.000  0.000  1.000  0.000
  0.000  0.000  0.000  0.000  1.000
    occupations:
  0.500  0.000  0.000  0.000  0.000
  0.000  0.500  0.000  0.000  0.000
  0.000  0.000  0.500  0.000  0.000
  0.000  0.000  0.000  0.500  0.000
  0.000  0.000  0.000  0.000  0.500
atom    4   Tr[ns(na)] =   5.00000
    eigenvalues:
  0.500  0.500  0.500  0.500  0.500
    eigenvectors:
  1.000  0.000  0.000  0.000  0.000
  0.000  1.000  0.000  0.000  0.000
  0.000  0.000  1.000  0.000  0.000
  0.000  0.000  0.000  1.000  0.000
  0.000  0.000  0.000  0.000  1.000
    occupations:
  0.500  0.000  0.000  0.000  0.000
  0.000  0.500  0.000  0.000  0.000
  0.000  0.000  0.500  0.000  0.000
  0.000  0.000  0.000  0.500  0.000
  0.000  0.000  0.000  0.000  0.500
atom    9   Tr[ns(na)] =   5.00000
    eigenvalues:
  0.500  0.500  0.500  0.500  0.500
    eigenvectors:
  1.000  0.000  0.000  0.000  0.000
  0.000  1.000  0.000  0.000  0.000
  0.000  0.000  1.000  0.000  0.000
  0.000  0.000  0.000  1.000  0.000
  0.000  0.000  0.000  0.000  1.000
    occupations:
  0.500  0.000  0.000  0.000  0.000
  0.000  0.500  0.000  0.000  0.000
  0.000  0.000  0.500  0.000  0.000
  0.000  0.000  0.000  0.500  0.000
  0.000  0.000  0.000  0.000  0.500
atom   10   Tr[ns(na)] =   5.00000
    eigenvalues:
  0.500  0.500  0.500  0.500  0.500
    eigenvectors:
  1.000  0.000  0.000  0.000  0.000
  0.000  1.000  0.000  0.000  0.000
  0.000  0.000  1.000  0.000  0.000
  0.000  0.000  0.000  1.000  0.000
  0.000  0.000  0.000  0.000  1.000
    occupations:
  0.500  0.000  0.000  0.000  0.000
  0.000  0.500  0.000  0.000  0.000
  0.000  0.000  0.500  0.000  0.000
  0.000  0.000  0.000  0.500  0.000
  0.000  0.000  0.000  0.000  0.500
atom   16   Tr[ns(na)] =   5.00000
    eigenvalues:
  0.500  0.500  0.500  0.500  0.500
    eigenvectors:
  1.000  0.000  0.000  0.000  0.000
  0.000  1.000  0.000  0.000  0.000
  0.000  0.000  1.000  0.000  0.000
  0.000  0.000  0.000  1.000  0.000
  0.000  0.000  0.000  0.000  1.000
    occupations:
  0.500  0.000  0.000  0.000  0.000
  0.000  0.500  0.000  0.000  0.000
  0.000  0.000  0.500  0.000  0.000
  0.000  0.000  0.000  0.500  0.000
  0.000  0.000  0.000  0.000  0.500
atom   17   Tr[ns(na)] =   5.00000
    eigenvalues:
  0.500  0.500  0.500  0.500  0.500
    eigenvectors:
  1.000  0.000  0.000  0.000  0.000
  0.000  1.000  0.000  0.000  0.000
  0.000  0.000  1.000  0.000  0.000
  0.000  0.000  0.000  1.000  0.000
  0.000  0.000  0.000  0.000  1.000
    occupations:
  0.500  0.000  0.000  0.000  0.000
  0.000  0.500  0.000  0.000  0.000
  0.000  0.000  0.500  0.000  0.000
  0.000  0.000  0.000  0.500  0.000
  0.000  0.000  0.000  0.000  0.500
atom   22   Tr[ns(na)] =   5.00000
    eigenvalues:
  0.500  0.500  0.500  0.500  0.500
    eigenvectors:
  1.000  0.000  0.000  0.000  0.000
  0.000  1.000  0.000  0.000  0.000
  0.000  0.000  1.000  0.000  0.000
  0.000  0.000  0.000  1.000  0.000
  0.000  0.000  0.000  0.000  1.000
[...]
  0.000  0.000  0.760  0.010  0.230
  0.728  0.272  0.000  0.000  0.000
    occupations:
  0.657 -0.000 -0.001 -0.040 -0.001
 -0.000  0.588 -0.000 -0.001 -0.000
 -0.001 -0.000  0.533  0.000  0.008
 -0.040 -0.001  0.000  0.605  0.000
 -0.001 -0.000  0.008  0.000  0.524
atom   10   Tr[ns(na)] =   5.75548
    eigenvalues:
  0.504  0.520  0.522  0.611  0.720
    eigenvectors:
  0.987  0.010  0.000  0.001  0.001
  0.001  0.000  0.000  0.998  0.000
  0.010  0.989  0.001  0.000  0.000
  0.001  0.000  0.000  0.000  0.999
  0.000  0.001  0.999  0.000  0.000
    occupations:
  0.505 -0.004 -0.002 -0.008 -0.000
 -0.004  0.611 -0.001  0.000  0.000
 -0.002 -0.001  0.520 -0.000 -0.000
 -0.008  0.000 -0.000  0.720 -0.000
 -0.000  0.000 -0.000 -0.000  0.522
atom   16   Tr[ns(na)] =   5.81291
    eigenvalues:
  0.507  0.511  0.562  0.603  0.723
    eigenvectors:
  0.011  0.003  0.342  0.000  0.644
  0.010  0.986  0.003  0.001  0.000
  0.958  0.008  0.004  0.022  0.008
  0.000  0.002  0.651  0.000  0.347
  0.021  0.001  0.000  0.977  0.000
    occupations:
  0.665  0.004  0.018 -0.076  0.002
  0.004  0.511  0.001  0.001 -0.002
  0.018  0.001  0.511 -0.009 -0.014
 -0.076  0.001 -0.009  0.618 -0.001
  0.002 -0.002 -0.014 -0.001  0.601
atom   17   Tr[ns(na)] =   5.81691
    eigenvalues:
  0.481  0.523  0.579  0.607  0.719
    eigenvectors:
  0.000  0.000  0.975  0.023  0.003
  0.001  0.000  0.023  0.976  0.000
  0.999  0.000  0.000  0.001  0.000
  0.000  0.000  0.002  0.000  0.997
  0.000  1.000  0.000  0.000  0.000
    occupations:
  0.580  0.004  0.001 -0.007  0.000
  0.004  0.606  0.004 -0.001 -0.000
  0.001  0.004  0.481  0.001  0.000
 -0.007 -0.001  0.001  0.719  0.000
  0.000 -0.000  0.000  0.000  0.523
atom   22   Tr[ns(na)] =   5.80971
    eigenvalues:
  0.517  0.538  0.584  0.588  0.678
    eigenvectors:
  0.000  0.000  0.220  0.007  0.773
  0.000  0.000  0.028  0.972  0.000
  0.272  0.728  0.000  0.000  0.000
  0.000  0.000  0.752  0.021  0.227
  0.728  0.272  0.000  0.000  0.000
    occupations:
  0.657 -0.000 -0.001 -0.040 -0.001
 -0.000  0.588 -0.000  0.001 -0.000
 -0.001 -0.000  0.532  0.000 -0.009
 -0.040  0.001  0.000  0.605  0.000
 -0.001 -0.000 -0.009  0.000  0.523
atom   23   Tr[ns(na)] =   5.81598
    eigenvalues:
  0.504  0.530  0.563  0.583  0.728
    eigenvectors:
  0.000  0.000  0.186  0.809  0.005
  0.000  0.000  0.813  0.186  0.000
  0.998  0.002  0.000  0.000  0.000
  0.000  0.000  0.001  0.005  0.995
  0.002  0.998  0.000  0.000  0.000
    occupations:
  0.580  0.008 -0.000 -0.011  0.000
  0.008  0.567  0.001 -0.001 -0.000
 -0.000  0.001  0.504 -0.000 -0.001
 -0.011 -0.001 -0.000  0.727 -0.000
  0.000 -0.000 -0.001 -0.000  0.530
N of occupied +U levels =  46.4581267
 --- exit write_ns ---

     Threshold (ethr) on eigenvalues was too large:
     Diagonalizing with lowered threshold

     Davidson diagonalization with overlap
     ethr =  5.42E-08,  avg # of iterations =  1.0

[...]

     total energy              =   -1733.35436693 Ry
     Harris-Foulkes estimate   =   -1733.35436721 Ry
     estimated scf accuracy    <       0.00000139 Ry

     iteration #  8     ecut=    40.00 Ry     beta=0.70
     Davidson diagonalization with overlap
     ethr =  6.01E-10,  avg # of iterations =  1.0

     negative rho (up, down):  0.342E-02 0.000E+00

     End of self-consistent calculation
 --- enter write_ns ---
 LDA+U parameters:
U( 2)     =  0.50000000
alpha( 2) =  0.00000000
atom    3   Tr[ns(na)] =   5.81680
    eigenvalues:
  0.508  0.512  0.562  0.605  0.721
    eigenvectors:
  0.012  0.003  0.340  0.000  0.645
  0.012  0.984  0.003  0.000  0.000
  0.956  0.010  0.005  0.021  0.009
  0.000  0.001  0.652  0.000  0.346
  0.020  0.001  0.000  0.978  0.000
    occupations:
  0.664 -0.004  0.018 -0.075 -0.001
 -0.004  0.512 -0.001 -0.001 -0.002
  0.018 -0.001  0.512 -0.008  0.014
 -0.075 -0.001 -0.008  0.617  0.000
 -0.001 -0.002  0.014  0.000  0.602
atom    4   Tr[ns(na)] =   5.80603
    eigenvalues:
  0.470  0.524  0.579  0.613  0.718
    eigenvectors:
  0.000  0.000  0.987  0.012  0.002
  0.001  0.000  0.012  0.988  0.000
  0.999  0.000  0.000  0.001  0.000
  0.000  0.000  0.001  0.000  0.998
  0.000  1.000  0.000  0.000  0.000
    occupations:
  0.580  0.004  0.001 -0.005  0.000
  0.004  0.612  0.003 -0.001 -0.000
  0.001  0.003  0.470 -0.000  0.000
 -0.005 -0.001 -0.000  0.718  0.000
  0.000 -0.000  0.000  0.000  0.524
atom    9   Tr[ns(na)] =   5.81356
    eigenvalues:
  0.519  0.537  0.583  0.588  0.679
    eigenvectors:
  0.000  0.000  0.227  0.003  0.770
  0.000  0.000  0.014  0.986  0.000
  0.276  0.724  0.000  0.000  0.000
  0.000  0.000  0.760  0.010  0.230
  0.724  0.276  0.000  0.000  0.000
    occupations:
  0.657 -0.000 -0.001 -0.040 -0.001
 -0.000  0.588 -0.000 -0.001 -0.000
 -0.001 -0.000  0.532  0.000  0.008
 -0.040 -0.001  0.000  0.605  0.000
 -0.001 -0.000  0.008  0.000  0.524
atom   10   Tr[ns(na)] =   5.76040
    eigenvalues:
  0.504  0.521  0.522  0.612  0.721
    eigenvectors:
  0.988  0.009  0.000  0.001  0.001
  0.001  0.000  0.000  0.999  0.000
  0.009  0.989  0.001  0.000  0.000
  0.001  0.000  0.000  0.000  0.999
  0.000  0.001  0.999  0.000  0.000
    occupations:
  0.505 -0.004 -0.002 -0.008 -0.000
 -0.004  0.612 -0.001  0.000  0.000
 -0.002 -0.001  0.521 -0.000 -0.000
 -0.008  0.000 -0.000  0.720 -0.000
 -0.000  0.000 -0.000 -0.000  0.522
atom   16   Tr[ns(na)] =   5.81706
    eigenvalues:
  0.508  0.511  0.562  0.604  0.724
    eigenvectors:
  0.011  0.003  0.342  0.000  0.644
  0.013  0.983  0.003  0.001  0.000
  0.955  0.011  0.004  0.022  0.008
  0.000  0.002  0.651  0.000  0.347
  0.021  0.001  0.000  0.977  0.000
    occupations:
  0.665  0.004  0.018 -0.076  0.002
  0.004  0.512  0.001  0.001 -0.002
  0.018  0.001  0.512 -0.009 -0.014
 -0.076  0.001 -0.009  0.618 -0.001
  0.002 -0.002 -0.014 -0.001  0.602
atom   17   Tr[ns(na)] =   5.81358
    eigenvalues:
  0.481  0.523  0.579  0.606  0.719
    eigenvectors:
  0.000  0.000  0.973  0.024  0.003
  0.001  0.000  0.025  0.974  0.000
  0.999  0.000  0.000  0.001  0.000
  0.000  0.000  0.002  0.000  0.997
  0.000  1.000  0.000  0.000  0.000
    occupations:
  0.580  0.004  0.001 -0.007  0.000
  0.004  0.605  0.004 -0.001 -0.000
  0.001  0.004  0.481  0.001  0.000
 -0.007 -0.001  0.001  0.718  0.000
  0.000 -0.000  0.000  0.000  0.523
atom   22   Tr[ns(na)] =   5.81084
    eigenvalues:
  0.517  0.538  0.584  0.588  0.678
    eigenvectors:
  0.000  0.000  0.220  0.007  0.773
  0.000  0.000  0.028  0.972  0.000
  0.273  0.727  0.000  0.000  0.000
  0.000  0.000  0.752  0.021  0.227
  0.726  0.273  0.000  0.000  0.000
    occupations:
  0.657 -0.000 -0.001 -0.040 -0.001
 -0.000  0.588 -0.000  0.001 -0.000
 -0.001 -0.000  0.532  0.000 -0.009
 -0.040  0.001  0.000  0.605  0.000
 -0.001 -0.000 -0.009  0.000  0.523
atom   23   Tr[ns(na)] =   5.81844
    eigenvalues:
  0.504  0.530  0.564  0.583  0.728
    eigenvectors:
  0.000  0.000  0.194  0.801  0.005
  0.000  0.000  0.806  0.194  0.000
  0.998  0.002  0.000  0.000  0.000
  0.000  0.000  0.001  0.005  0.995
  0.002  0.998  0.000  0.000  0.000
    occupations:
  0.580  0.008 -0.000 -0.011  0.000
  0.008  0.568  0.001 -0.001 -0.000
 -0.000  0.001  0.504 -0.000 -0.001
 -0.011 -0.001 -0.000  0.727 -0.000
  0.000 -0.000 -0.001 -0.000  0.530
N of occupied +U levels =  46.4566981
 --- exit write_ns ---

[...]

          k = 0.2500-0.3900 0.0000 ( 29726 PWs)   bands (ev):

[...]

          k =-0.2500 0.1950 0.0000 ( 29746 PWs)   bands (ev):

   -62.3780 -62.3403 -62.2536 -62.1954 -62.1843 -62.1273 -62.0887 -62.0449
   -36.9179 -36.7488 -36.6914 -36.6758 -36.6560 -36.5810 -36.5456 -36.5098
   -36.4387 -36.4346 -36.4045 -36.3447 -36.3303 -36.3005 -36.2815 -36.2568
   -36.1992 -36.1627 -36.1444 -36.1164 -36.1087 -35.9474 -35.8078 -35.7824
   -20.6241 -20.3668 -19.7979 -19.6510 -19.5715 -19.4340 -19.3441 -19.2465
   -19.2081 -19.0806 -18.8886 -18.7628 -18.7458 -18.7076 -18.6130 -18.5717
   -18.5147 -18.0074 -17.8580  -8.6230  -8.4979  -8.0077  -7.9241  -7.6300
    -7.5394  -7.5143  -7.4459  -7.2775  -7.1331  -7.0693  -6.9478  -6.8023
    -6.7560  -6.5669  -6.2943  -6.2131  -6.1212  -6.0665  -5.9534  -5.8556
    -5.6749  -5.6565  -5.5100  -5.4171  -5.2845  -5.2010  -5.0757  -4.9834
    -4.8536  -4.6533  -4.6091  -4.4567  -4.3999  -4.3639  -4.2722  -4.2517
    -4.1857  -4.1002  -4.0093  -3.9172  -3.8632  -3.7723  -3.6419  -3.5066
    -3.4112  -3.3151  -3.2668  -3.1805  -3.1069  -3.0748  -2.9729  -2.8795
    -2.6972  -2.6544  -2.5993  -2.3473  -1.4443  -1.3307  -1.2394  -0.5090
    -0.3668  -0.2055  -0.1760   0.3085   0.3840   0.7597   0.8651   0.9250
     0.9737   1.1671   1.3154   1.4728   1.5899   1.6258   1.7785   1.9044
     2.0545   2.0761   2.1728   2.3364   2.5501   3.4647   3.6742   3.7585
     3.8327   3.9741   4.0607   4.1674   4.4689   4.6360   4.7392   4.8312
     4.8855   5.0463   5.1050   5.3677   5.6930   5.8496   5.9363   6.0657
     6.1586   6.2560   6.4286   6.4964   6.6314   6.8101   7.0994   7.1766
     7.3016   7.3632   7.6234   7.7153   8.0119   8.1219   8.2727   8.3576
     8.5335   8.6283   8.7401   8.8633   8.9805   9.0591   9.1653   9.3165
     9.4088   9.5091   9.5573   9.6475   9.7149   9.7490   9.8293   9.9816
    10.0867  10.3340  10.3654  10.4471  10.5183  10.6634  10.7301  10.8127
    10.8873  11.0038  11.1275  11.1944  11.3718  11.4986  11.5901  11.6419
    11.7683  11.8822  11.9118  12.0276  12.0919  12.2032  12.3105  12.3669
    12.4079  12.4327  12.5124  12.6275  12.7620  12.8236  12.9376  13.0097
    13.0785  13.1480  13.2393  13.3264  13.3745  13.4645  13.4882  13.5558
    13.6326  13.7146  13.8094  13.8377  13.9294  14.0258  14.0553  14.1005
    14.1644  14.1976  14.2919  14.3472  14.4114  14.4971  14.5313  14.6356
    14.6866  14.7487  14.8626  14.9388  15.0195  15.0771  15.1224  15.2171
    15.3255  15.4309  15.5083  15.5892  15.6038  15.7030  15.7698  15.9269
    15.9514  16.0167  16.0648  16.1394  16.2336  16.3078  16.3632  16.3954
    16.4383  16.4772  16.5586  16.6512  16.7639  16.8105  16.8471  16.9743
    17.0755  17.1421  17.1906  17.2297  17.2598  17.3234  17.4069  17.4917
    17.5439  17.5925  17.7011  17.8218  17.8716  17.9711  18.0575  18.1340
    18.2099  18.2390  18.2819  18.3124  18.4144  18.5331  18.5648  18.6940
    18.7601  18.8292  18.9271  18.9823  19.0433  19.1383  19.1977  19.2511
    19.3755  19.4184  19.5219  19.5943  19.7905  19.8101  19.9123  19.9476
    19.9510  20.0531  20.1188  20.1740  20.2591  20.2886  20.3426  20.3629
    20.3829  20.4554  20.5185  20.5931  20.6473  20.7221  20.7688  20.8188
    20.9148  21.0020  21.0379  21.1283  21.2013  21.2679  21.3164  21.3482
    21.4293  21.4873  21.5429  21.6191  21.6492  21.7384  21.7583  21.8017
    21.8485  21.8775

     the Fermi energy is     0.2189 ev

!    total energy              =   -1733.35436694 Ry
     Harris-Foulkes estimate   =   -1733.35436710 Ry
     estimated scf accuracy    <       0.00000018 Ry

     The total energy is the sum of the following terms:

     one-electron contribution =  -22246.23614788 Ry
     hartree contribution      =   11147.98864465 Ry
     xc contribution           =    -294.50339611 Ry
     ewald contribution        =    9659.04680196 Ry
     Hubbard energy            =       0.34964793 Ry
     smearing contrib. (-TS)   =       0.00008250 Ry

     convergence has been achieved in   8 iterations

     Forces acting on atoms (Ry/au):

     negative rho (up, down):  0.342E-02 0.000E+00
     atom    1 type  1   force =    -0.00033173   -0.00497527    0.00012046
     atom    2 type  1   force =    -0.00027194    0.00831441    0.00040381
     atom    3 type  2   force =    -0.00437285   -0.00562042    0.00033198
     atom    4 type  2   force =    -0.00000088    0.00581548    0.00002681
     atom    5 type  1   force =     0.00096784    0.00044270   -0.00013455
     atom    6 type  1   force =    -0.00110768   -0.00445040   -0.00019424
     atom    7 type  1   force =     0.00018271    0.00020204    0.00000104
     atom    8 type  1   force =     0.00360316    0.00048132   -0.00031501
     atom    9 type  2   force =    -0.00025052    0.00008612    0.00001205
     atom   10 type  2   force =    -0.00314221    0.00000193   -0.00015501
     atom   11 type  1   force =    -0.01277142   -0.02590904   -0.00023054
     atom   12 type  1   force =    -0.01343349    0.02529745   -0.00021310
     atom   13 type  1   force =     0.00030768    0.00009744   -0.00017848
     atom   14 type  1   force =    -0.00342071   -0.00629888    0.00029538
     atom   15 type  1   force =    -0.00025133    0.00995747    0.00028183
     atom   16 type  2   force =     0.00846054   -0.00669797    0.00004061
     atom   17 type  2   force =    -0.00046243    0.00478136    0.00024964
     atom   18 type  1   force =     0.00163841    0.00032759   -0.00010161
     atom   19 type  1   force =     0.00095604   -0.00412765   -0.00020366
     atom   20 type  1   force =    -0.00577379    0.00135585    0.00003594
     atom   21 type  1   force =     0.00242631    0.00020129   -0.00060113
     atom   22 type  2   force =    -0.00478774   -0.00054657   -0.00066698
     atom   23 type  2   force =     0.00195627    0.00168969   -0.00013565
     atom   24 type  1   force =     0.01395022   -0.02397456    0.00043136
     atom   25 type  1   force =     0.01485362    0.02422622    0.00047400
     atom   26 type  1   force =     0.00072847    0.00049480   -0.00006193
     atom   27 type  3   force =     0.00000449   -0.00042647    0.00028856
     atom   28 type  3   force =     0.00000745   -0.00025020    0.00012237
     atom   29 type  3   force =    -0.00022101    0.00000299    0.00032670
     atom   30 type  3   force =    -0.00024232   -0.00004511    0.00044779
     atom   31 type  1   force =     0.00022965    0.00001320   -0.00059234
     atom   32 type  3   force =     0.00056922   -0.00046679   -0.00010610

     Total force =     0.001959     Total SCF correction =     0.001073
     SCF correction compared to forces is large: reduce conv_thr to get better values

     bfgs converged in   2 scf cycles and   1 bfgs steps
     (criteria: energy < 0.10E-03, force < 0.10E-02)

     End of BFGS Geometry Optimization

     Final energy   =   -1733.3543669412 Ry
Begin final coordinates

ATOMIC_POSITIONS (crystal)
O0       0.000000000   0.000000000   0.371341409    0   0   1
O0       0.000000000   0.500000000   0.382876053    0   0   1
Mo1      0.250000000   0.500000000   0.440580318    0   0   1
Mo1      0.000000000   0.000000000   0.443703505    0   0   1
O0       0.250000000   0.780000000   0.443216739    0   0   1
O0       0.250000000   0.220000000   0.443185311    0   0   1
O0       0.000000000   0.500000000   0.497879664    0   0   1
O0       0.000000000   0.000000000   0.516718365    0   0   1
Mo1      0.250000000   0.000000000   0.575361338    0   0   1
Mo1      0.000000000   0.500000000   0.565206282    0   0   1
O0       0.250000000   0.720000000   0.570844885    0   0   1
O0       0.250000000   0.280000000   0.571025192    0   0   1
O0       0.000000000   0.000000000   0.626051920    0   0   1
O0       0.500000000   0.000000000   0.371403846    0   0   1
O0       0.500000000   0.500000000   0.382999648    0   0   1
Mo1      0.750000000   0.500000000   0.440511211    0   0   1
Mo1      0.500000000   0.000000000   0.444161651    0   0   1
O0       0.750000000   0.780000000   0.443277780    0   0   1
O0       0.750000000   0.220000000   0.443135325    0   0   1
O0       0.500000000   0.500000000   0.498302437    0   0   1
O0       0.500000000   0.000000000   0.516540949    0   0   1
Mo1      0.750000000   0.000000000   0.575416145    0   0   1
Mo1      0.500000000   0.500000000   0.571539248    0   0   1
O0       0.750000000   0.720000000   0.570490080    0   0   1
O0       0.750000000   0.280000000   0.570441140    0   0   1
O0       0.500000000   0.000000000   0.625875100    0   0   1
H2      -0.000760481   0.610594700   0.360385233
H2       0.499500662   0.617295989   0.362813368
H2       0.166925594   0.017183395   0.356874039
H2       0.665329359   0.019131612   0.356575190
O0       0.514751557   0.500229461   0.642395496
H2       0.389239747   0.495505666   0.668221132
End final coordinates

     General routines

     Parallel routines
     Hubbard U routines

   This run was terminated on:  22:46: 6  28Apr2014

   JOB DONE.
Running PBS batch system epilogue script
Job id: 340383.audhumbla.fysik.dtu.dk
Username: zhonxu
Groupname: campgst
Jobname: MoO2/Eads-2-layers/OH-U-0.5
Sessionid: 3786
Queuename: verylong
Accounting:
This job has allocated the following 16 nodes:
d104 d104 d104 d104 d104 d104 d104 d104 d041 d041 d041 d041 d041 d041 d041 d041
Finished epilogue job 340383.audhumbla.fysik.dtu.dk for zhonxu