     Program PWSCF v.5.0.2 (svn rev. 9656) starts on 24Jan2014 at 14:39: 4

     Current dimensions of program PWSCF are:
     Max number of different atomic species (ntypx) = 10
     Max number of k-points (npk) =  40000
     Max angular momentum in pseudopotentials (lmaxx) =  3
     Reading input from NbO2-v-0.95.in

     Subspace diagonalization in iterative solution of the eigenvalue problem:
     a serial algorithm will be used

     bravais-lattice index     =            0
     lattice parameter (alat)  =       8.9597  a.u.
     unit-cell volume          =     463.5158 (a.u.)^3
     number of atoms/cell      =            6
     number of atomic types    =            2
     number of electrons       =        50.00
     number of Kohn-Sham states=           75
     kinetic-energy cutoff     =      40.0000  Ry
     charge density cutoff     =     500.0000  Ry
     convergence threshold     =      1.0E-06
     mixing beta               =       0.3000
     number of iterations used =            8  plain     mixing
     Exchange-correlation      = SLA  PW   PBE  PBE ( 1 4 3 4 0)
     EXX-fraction              =        0.00
     nstep                     =           50

     celldm(1)=   8.959691  celldm(2)=   0.000000  celldm(3)=   0.000000
     celldm(4)=   0.000000  celldm(5)=   0.000000  celldm(6)=   0.000000

     crystal axes: (cart. coord. in units of alat)
               a(1) = (   1.000000   0.000000   0.000000 )
               a(2) = (   0.000000   1.000000   0.000000 )
               a(3) = (   0.000000   0.000000   0.644444 )

     reciprocal axes: (cart. coord. in units 2 pi/alat)
               b(1) = (  1.000000  0.000000  0.000000 )
               b(2) = (  0.000000  1.000000  0.000000 )
               b(3) = (  0.000000  0.000000  1.551724 )

     PseudoPot. # 1 for Nb read from file:
     /home/camp/zhonxu/pseudo/nb_pbe_v1.uspp.F.UPF
     MD5 check sum: 573aab8a2fa660278ed4a62cd769473f
     Pseudo is Ultrasoft + core correction, Zval = 13.0
     Generated by new atomic code, or converted to UPF format
     Using radial grid of  887 points,  6 beta functions with:
                l(1) =   0
                l(2) =   0
                l(3) =   1
                l(4) =   1
                l(5) =   2
                l(6) =   2
     Q(r) pseudized with  6 coefficients,  rinner =    1.000   1.000   1.000
                                                       1.000   1.000

     PseudoPot. # 2 for O  read from file:
     /home/camp/zhonxu/pseudo/o_pbe_v1.01.uspp.F.UPF
     MD5 check sum: 2bcb18d16ea4b960afae9ec6d52f22d2
     Pseudo is Ultrasoft + core correction, Zval =  6.0
     Generated by new atomic code, or converted to UPF format
     Using radial grid of  737 points,  5 beta functions with:
                l(1) =   0
                l(2) =   0
                l(3) =   1
                l(4) =   1
                l(5) =   2
     Q(r) pseudized with  8 coefficients,  rinner =    0.900   0.900   0.900
                                                       0.900   0.900

     atomic species   valence    mass     pseudopotential
        Nb0           13.00    92.90640     Nb( 1.00)
        O1             6.00    15.99940     O ( 1.00)

     Starting magnetic structure
     atomic species   magnetization
        Nb0          0.000
        O1           0.000

      8 Sym. Ops., with inversion, found
          (note:  8 additional sym.ops. were found but ignored
           their fractional translations are incommensurate with FFT grid)

   Cartesian axes

     site n.     atom                  positions (alat units)
         1           Nb0 tau(   1) = (   0.0000000   0.0000000   0.0000000  )
         2           Nb0 tau(   2) = (   0.5000000   0.5000000   0.3222222  )
         3           O1  tau(   3) = (   0.3050000   0.3050000   0.0000000  )
         4           O1  tau(   4) = (  -0.3050000  -0.3050000   0.0000000  )
         5           O1  tau(   5) = (   0.8050000   0.1950000   0.3222222  )
         6           O1  tau(   6) = (   0.1950000   0.8050000   0.3222222  )

     number of k points=    54  Methfessel-Paxton smearing, width (Ry)=  0.0100
                       cart. coord. in units 2pi/alat
        k(    1) = (   0.0000000   0.0000000   0.0000000), wk =   0.0080000
        k(    2) = (   0.0000000   0.0000000   0.3103448), wk =   0.0160000
        k(    3) = (   0.0000000   0.0000000   0.6206897), wk =   0.0160000
        k(    4) = (   0.0000000   0.2000000   0.0000000), wk =   0.0320000
        k(    5) = (   0.0000000   0.2000000   0.3103448), wk =   0.0640000
        k(    6) = (   0.0000000   0.2000000   0.6206897), wk =   0.0640000
        k(    7) = (   0.0000000   0.4000000   0.0000000), wk =   0.0320000
        k(    8) = (   0.0000000   0.4000000   0.3103448), wk =   0.0640000
        k(    9) = (   0.0000000   0.4000000   0.6206897), wk =   0.0640000
        k(   10) = (   0.2000000   0.2000000   0.0000000), wk =   0.0160000
        k(   11) = (   0.2000000   0.2000000   0.3103448), wk =   0.0320000
        k(   12) = (   0.2000000   0.2000000   0.6206897), wk =   0.0320000
        k(   13) = (   0.2000000   0.4000000   0.0000000), wk =   0.0320000
        k(   14) = (   0.2000000   0.4000000   0.3103448), wk =   0.0640000
        k(   15) = (   0.2000000   0.4000000   0.6206897), wk =   0.0640000
        k(   16) = (   0.4000000   0.4000000   0.0000000), wk =   0.0160000
        k(   17) = (   0.4000000   0.4000000   0.3103448), wk =   0.0320000
        k(   18) = (   0.4000000   0.4000000   0.6206897), wk =   0.0320000
        k(   19) = (  -0.2000000   0.2000000   0.0000000), wk =   0.0160000
        k(   20) = (  -0.2000000   0.2000000  -0.3103448), wk =   0.0320000
        k(   21) = (  -0.2000000   0.2000000  -0.6206897), wk =   0.0320000
        k(   22) = (  -0.2000000   0.4000000   0.0000000), wk =   0.0320000
        k(   23) = (  -0.2000000   0.4000000  -0.3103448), wk =   0.0640000
        k(   24) = (  -0.2000000   0.4000000  -0.6206897), wk =   0.0640000
        k(   25) = (  -0.4000000   0.4000000   0.0000000), wk =   0.0160000
        k(   26) = (  -0.4000000   0.4000000  -0.3103448), wk =   0.0320000
        k(   27) = (  -0.4000000   0.4000000  -0.6206897), wk =   0.0320000
        k(   28) = (   0.0000000   0.0000000   0.0000000), wk =   0.0080000
        k(   29) = (   0.0000000   0.0000000   0.3103448), wk =   0.0160000
        k(   30) = (   0.0000000   0.0000000   0.6206897), wk =   0.0160000
        k(   31) = (   0.0000000   0.2000000   0.0000000), wk =   0.0320000
        k(   32) = (   0.0000000   0.2000000   0.3103448), wk =   0.0640000
        k(   33) = (   0.0000000   0.2000000   0.6206897), wk =   0.0640000
        k(   34) = (   0.0000000   0.4000000   0.0000000), wk =   0.0320000
        k(   35) = (   0.0000000   0.4000000   0.3103448), wk =   0.0640000
        k(   36) = (   0.0000000   0.4000000   0.6206897), wk =   0.0640000
        k(   37) = (   0.2000000   0.2000000   0.0000000), wk =   0.0160000
        k(   38) = (   0.2000000   0.2000000   0.3103448), wk =   0.0320000
        k(   39) = (   0.2000000   0.2000000   0.6206897), wk =   0.0320000
        k(   40) = (   0.2000000   0.4000000   0.0000000), wk =   0.0320000
        k(   41) = (   0.2000000   0.4000000   0.3103448), wk =   0.0640000
        k(   42) = (   0.2000000   0.4000000   0.6206897), wk =   0.0640000
        k(   43) = (   0.4000000   0.4000000   0.0000000), wk =   0.0160000
        k(   44) = (   0.4000000   0.4000000   0.3103448), wk =   0.0320000
        k(   45) = (   0.4000000   0.4000000   0.6206897), wk =   0.0320000
        k(   46) = (  -0.2000000   0.2000000   0.0000000), wk =   0.0160000
        k(   47) = (  -0.2000000   0.2000000  -0.3103448), wk =   0.0320000
        k(   48) = (  -0.2000000   0.2000000  -0.6206897), wk =   0.0320000
        k(   49) = (  -0.2000000   0.4000000   0.0000000), wk =   0.0320000
        k(   50) = (  -0.2000000   0.4000000  -0.3103448), wk =   0.0640000
        k(   51) = (  -0.2000000   0.4000000  -0.6206897), wk =   0.0640000
        k(   52) = (  -0.4000000   0.4000000   0.0000000), wk =   0.0160000
        k(   53) = (  -0.4000000   0.4000000  -0.3103448), wk =   0.0320000
        k(   54) = (  -0.4000000   0.4000000  -0.6206897), wk =   0.0320000

     Largest allocated arrays     est. size (Mb)     dimensions
     Largest temporary arrays     est. size (Mb)     dimensions

     Check: negative/imaginary core charge=   -0.000007    0.000000

     Initial potential from superposition of free atoms

     starting charge   49.99453, renormalised to   50.00000
     Starting wfc are   42 randomized atomic wfcs

     Self-consistent Calculation

     iteration #  1     ecut=    40.00 Ry     beta=0.30
     Davidson diagonalization with overlap
     ethr =  1.00E-02,  avg # of iterations =  5.3

     total energy              =    -364.79195677 Ry
     Harris-Foulkes estimate   =    -366.03923602 Ry
     estimated scf accuracy    <       2.81776281 Ry

     total magnetization       =    -0.00 Bohr mag/cell
     absolute magnetization    =     0.00 Bohr mag/cell

[...]

     End of self-consistent calculation

 ------ SPIN UP ------------

          k = 0.0000 0.0000 0.0000 (  1959 PWs)   bands (ev):

   -42.9764 -42.9501 -19.2904 -19.2904 -19.0322 -18.9668 -18.9655 -18.9655
    -7.2407  -6.6345  -5.2690  -5.2690   4.7045   4.8527   5.6760   6.4224
     6.4225   8.4228   8.4228   8.8993   9.7001   9.8080   9.8080  10.4314
    13.3055  13.4785  14.1411  14.3285  14.3285  17.1640  17.1657  17.6321
    20.0536  20.0537  21.3701  21.6270  21.6270  24.9975  27.1651  27.8260
    28.1654  28.2506  29.2640  29.2640  31.7083  32.2155  32.7052  32.7052
    33.3998  33.3998  34.5208  38.4702  38.4702  38.9297  38.9607  39.4097
    40.8001  41.6225  41.6225  42.0218  42.0218  42.3189  42.9236  42.9237
    44.1772  44.4112  44.4112  44.7590  46.0265  48.2900  48.2900  48.3209
    49.2822  49.6404  49.6404

[...]

          k =-0.2000 0.2000 0.0000 (  1979 PWs)   bands (ev):

[...]

 ------ SPIN DOWN ----------

[...]

     the Fermi energy is    13.9999 ev

!    total energy              =    -365.26731274 Ry
     Harris-Foulkes estimate   =    -365.26730660 Ry
     estimated scf accuracy    <       0.00000014 Ry

     The total energy is the sum of the following terms:

     one-electron contribution =     -91.04522378 Ry
     hartree contribution      =      74.00469789 Ry
     xc contribution           =     -65.91314081 Ry
     ewald contribution        =    -282.31332842 Ry
     smearing contrib. (-TS)   =      -0.00031762 Ry

[...]

     convergence has been achieved in   8 iterations

     Forces acting on atoms (Ry/au):

     atom    1 type  1   force =     0.00000000    0.00000000    0.00000000
     atom    2 type  1   force =     0.00000000    0.00000000    0.00000000
     atom    3 type  2   force =    -0.02542476   -0.02542476   -0.00000000
     atom    4 type  2   force =     0.02542476    0.02542476    0.00000000
     atom    5 type  2   force =    -0.02541749    0.02541749    0.00000000
     atom    6 type  2   force =     0.02541749   -0.02541749    0.00000000

[...]
        k(    7) = (  -0.0000000   0.3900700   0.0000000), wk =   0.0320000
        k(    8) = (  -0.0000000   0.3900700   0.3263468), wk =   0.0640000
        k(    9) = (  -0.0000000   0.3900700   0.6526936), wk =   0.0640000
        k(   10) = (   0.1950350   0.1950350   0.0000000), wk =   0.0160000
        k(   11) = (   0.1950350   0.1950350   0.3263468), wk =   0.0320000
        k(   12) = (   0.1950350   0.1950350   0.6526936), wk =   0.0320000
        k(   13) = (   0.1950350   0.3900700   0.0000000), wk =   0.0320000
        k(   14) = (   0.1950350   0.3900700   0.3263468), wk =   0.0640000
        k(   15) = (   0.1950350   0.3900700   0.6526936), wk =   0.0640000
        k(   16) = (   0.3900700   0.3900700   0.0000000), wk =   0.0160000
        k(   17) = (   0.3900700   0.3900700   0.3263468), wk =   0.0320000
        k(   18) = (   0.3900700   0.3900700   0.6526936), wk =   0.0320000
        k(   19) = (  -0.1950350   0.1950350   0.0000000), wk =   0.0160000
        k(   20) = (  -0.1950350   0.1950350  -0.3263468), wk =   0.0320000
        k(   21) = (  -0.1950350   0.1950350  -0.6526936), wk =   0.0320000
        k(   22) = (  -0.1950351   0.3900701   0.0000000), wk =   0.0320000
        k(   23) = (  -0.1950351   0.3900701  -0.3263468), wk =   0.0640000
        k(   24) = (  -0.1950351   0.3900701  -0.6526936), wk =   0.0640000
        k(   25) = (  -0.3900701   0.3900701   0.0000000), wk =   0.0160000
        k(   26) = (  -0.3900701   0.3900701  -0.3263468), wk =   0.0320000
        k(   27) = (  -0.3900701   0.3900701  -0.6526936), wk =   0.0320000
        k(   28) = (   0.0000000   0.0000000   0.0000000), wk =   0.0080000
        k(   29) = (   0.0000000   0.0000000   0.3263468), wk =   0.0160000
        k(   30) = (   0.0000000   0.0000000   0.6526936), wk =   0.0160000
        k(   31) = (  -0.0000000   0.1950350   0.0000000), wk =   0.0320000
        k(   32) = (  -0.0000000   0.1950350   0.3263468), wk =   0.0640000
        k(   33) = (  -0.0000000   0.1950350   0.6526936), wk =   0.0640000
        k(   34) = (  -0.0000000   0.3900700   0.0000000), wk =   0.0320000
        k(   35) = (  -0.0000000   0.3900700   0.3263468), wk =   0.0640000
        k(   36) = (  -0.0000000   0.3900700   0.6526936), wk =   0.0640000
        k(   37) = (   0.1950350   0.1950350   0.0000000), wk =   0.0160000
        k(   38) = (   0.1950350   0.1950350   0.3263468), wk =   0.0320000
        k(   39) = (   0.1950350   0.1950350   0.6526936), wk =   0.0320000
        k(   40) = (   0.1950350   0.3900700   0.0000000), wk =   0.0320000
        k(   41) = (   0.1950350   0.3900700   0.3263468), wk =   0.0640000
        k(   42) = (   0.1950350   0.3900700   0.6526936), wk =   0.0640000
        k(   43) = (   0.3900700   0.3900700   0.0000000), wk =   0.0160000
        k(   44) = (   0.3900700   0.3900700   0.3263468), wk =   0.0320000
        k(   45) = (   0.3900700   0.3900700   0.6526936), wk =   0.0320000
        k(   46) = (  -0.1950350   0.1950350   0.0000000), wk =   0.0160000
        k(   47) = (  -0.1950350   0.1950350  -0.3263468), wk =   0.0320000
        k(   48) = (  -0.1950350   0.1950350  -0.6526936), wk =   0.0320000
        k(   49) = (  -0.1950351   0.3900701   0.0000000), wk =   0.0320000
        k(   50) = (  -0.1950351   0.3900701  -0.3263468), wk =   0.0640000
        k(   51) = (  -0.1950351   0.3900701  -0.6526936), wk =   0.0640000
        k(   52) = (  -0.3900701   0.3900701   0.0000000), wk =   0.0160000
        k(   53) = (  -0.3900701   0.3900701  -0.3263468), wk =   0.0320000
        k(   54) = (  -0.3900701   0.3900701  -0.6526936), wk =   0.0320000

[...]

     Threshold (ethr) on eigenvalues was too large:
     Diagonalizing with lowered threshold

     Davidson diagonalization with overlap
     ethr =  9.70E-09,  avg # of iterations =  1.0

[...]

     Total force =     0.000052     Total SCF correction =     0.000006
     SCF correction compared to forces is large: reduce conv_thr to get better values

[...]

     Volume is kept fixed: isostatic pressure set to zero

     bfgs converged in   8 scf cycles and   7 bfgs steps
     (criteria: energy < 0.10E-03, force < 0.10E-02, cell < 0.50E+00)

     End of BFGS Geometry Optimization

     Final enthalpy =    -365.2836613786 Ry
Begin final coordinates
     new unit-cell volume =    463.51577 a.u.^3 (    68.68595 Ang^3 )

CELL_PARAMETERS (alat=  8.95969056)
   1.025456894   0.000000129   0.000000000
   0.000000129   1.025456894   0.000000000
   0.000000000   0.000000000   0.612845027

ATOMIC_POSITIONS (crystal)
Nb0      0.000000000   0.000000000   0.000000000    0   0   0
Nb0      0.500000000   0.500000000   0.500000000    0   0   0
O1       0.290806671   0.290806671   0.000000000    1   1   0
O1      -0.290806671  -0.290806671   0.000000000    1   1   0
O1       0.790806739   0.209193261   0.500000000    1   1   0
O1       0.209193261   0.790806739   0.500000000    1   1   0
End final coordinates

     A final scf calculation at the relaxed structure.
     The G-vectors are recalculated for the final unit cell
     Results may differ from those at the preceding step.

     bravais-lattice index     =            0
     lattice parameter (alat)  =       8.9597  a.u.
     unit-cell volume          =     463.5158 (a.u.)^3
     number of atoms/cell      =            6
     number of atomic types    =            2
     number of electrons       =        50.00
     number of Kohn-Sham states=           75
     kinetic-energy cutoff     =      40.0000  Ry
     charge density cutoff     =     500.0000  Ry
     convergence threshold     =      1.0E-08
     mixing beta               =       0.3000
     number of iterations used =            8  plain     mixing
     Exchange-correlation      = SLA  PW   PBE  PBE ( 1 4 3 4 0)
     EXX-fraction              =        0.00

     celldm(1)=   8.959691  celldm(2)=   0.000000  celldm(3)=   0.000000
     celldm(4)=   0.000000  celldm(5)=   0.000000  celldm(6)=   0.000000

     crystal axes: (cart. coord. in units of alat)
               a(1) = (   1.025457   0.000000   0.000000 )
               a(2) = (   0.000000   1.025457   0.000000 )
               a(3) = (   0.000000   0.000000   0.612845 )

     reciprocal axes: (cart. coord. in units 2 pi/alat)
               b(1) = (  0.975175 -0.000000  0.000000 )
               b(2) = ( -0.000000  0.975175  0.000000 )
               b(3) = (  0.000000  0.000000  1.631734 )

     PseudoPot. # 1 for Nb read from file:
     /home/camp/zhonxu/pseudo/nb_pbe_v1.uspp.F.UPF
     MD5 check sum: 573aab8a2fa660278ed4a62cd769473f
     Pseudo is Ultrasoft + core correction, Zval = 13.0
     Generated by new atomic code, or converted to UPF format
     Using radial grid of  887 points,  6 beta functions with:
                l(1) =   0
                l(2) =   0
                l(3) =   1
                l(4) =   1
                l(5) =   2
                l(6) =   2
     Q(r) pseudized with  6 coefficients,  rinner =    1.000   1.000   1.000
                                                       1.000   1.000

     PseudoPot. # 2 for O  read from file:
     /home/camp/zhonxu/pseudo/o_pbe_v1.01.uspp.F.UPF
     MD5 check sum: 2bcb18d16ea4b960afae9ec6d52f22d2
     Pseudo is Ultrasoft + core correction, Zval =  6.0
     Generated by new atomic code, or converted to UPF format
     Using radial grid of  737 points,  5 beta functions with:
                l(1) =   0
                l(2) =   0
                l(3) =   1
                l(4) =   1
                l(5) =   2
     Q(r) pseudized with  8 coefficients,  rinner =    0.900   0.900   0.900
                                                       0.900   0.900

     atomic species   valence    mass     pseudopotential
        Nb0           13.00    92.90640     Nb( 1.00)
        O1             6.00    15.99940     O ( 1.00)

     Starting magnetic structure
     atomic species   magnetization
        Nb0          0.000
        O1           0.000

      8 Sym. Ops., with inversion, found
          (note:  8 additional sym.ops. were found but ignored
           their fractional translations are incommensurate with FFT grid)

   Cartesian axes

     site n.     atom                  positions (alat units)
         1           Nb0 tau(   1) = (   0.0000000   0.0000000   0.0000000  )
         2           Nb0 tau(   2) = (   0.5127285   0.5127285   0.3064225  )
         3           O1  tau(   3) = (   0.2982097   0.2982097   0.0000000  )
         4           O1  tau(   4) = (  -0.2982097  -0.2982097   0.0000000  )
         5           O1  tau(   5) = (   0.8109382   0.2145188   0.3064225  )
         6           O1  tau(   6) = (   0.2145188   0.8109382   0.3064225  )

     number of k points=    54  Methfessel-Paxton smearing, width (Ry)=  0.0100
                       cart. coord. in units 2pi/alat
        k(    1) = (   0.0000000   0.0000000   0.0000000), wk =   0.0080000
        k(    2) = (   0.0000000   0.0000000   0.3263468), wk =   0.0160000
        k(    3) = (   0.0000000   0.0000000   0.6526936), wk =   0.0160000
        k(    4) = (  -0.0000000   0.1950350   0.0000000), wk =   0.0320000
        k(    5) = (  -0.0000000   0.1950350   0.3263468), wk =   0.0640000
        k(    6) = (  -0.0000000   0.1950350   0.6526936), wk =   0.0640000
        k(    7) = (  -0.0000000   0.3900700   0.0000000), wk =   0.0320000
        k(    8) = (  -0.0000000   0.3900700   0.3263468), wk =   0.0640000
        k(    9) = (  -0.0000000   0.3900700   0.6526936), wk =   0.0640000
        k(   10) = (   0.1950350   0.1950350   0.0000000), wk =   0.0160000
        k(   11) = (   0.1950350   0.1950350   0.3263468), wk =   0.0320000
        k(   12) = (   0.1950350   0.1950350   0.6526936), wk =   0.0320000
        k(   13) = (   0.1950350   0.3900700   0.0000000), wk =   0.0320000
        k(   14) = (   0.1950350   0.3900700   0.3263468), wk =   0.0640000
        k(   15) = (   0.1950350   0.3900700   0.6526936), wk =   0.0640000
        k(   16) = (   0.3900700   0.3900700   0.0000000), wk =   0.0160000
        k(   17) = (   0.3900700   0.3900700   0.3263468), wk =   0.0320000
        k(   18) = (   0.3900700   0.3900700   0.6526936), wk =   0.0320000
        k(   19) = (  -0.1950350   0.1950350   0.0000000), wk =   0.0160000
        k(   20) = (  -0.1950350   0.1950350  -0.3263468), wk =   0.0320000
        k(   21) = (  -0.1950350   0.1950350  -0.6526936), wk =   0.0320000
        k(   22) = (  -0.1950351   0.3900701   0.0000000), wk =   0.0320000
        k(   23) = (  -0.1950351   0.3900701  -0.3263468), wk =   0.0640000
        k(   24) = (  -0.1950351   0.3900701  -0.6526936), wk =   0.0640000
        k(   25) = (  -0.3900701   0.3900701   0.0000000), wk =   0.0160000
        k(   26) = (  -0.3900701   0.3900701  -0.3263468), wk =   0.0320000
        k(   27) = (  -0.3900701   0.3900701  -0.6526936), wk =   0.0320000
        k(   28) = (   0.0000000   0.0000000   0.0000000), wk =   0.0080000
        k(   29) = (   0.0000000   0.0000000   0.3263468), wk =   0.0160000
        k(   30) = (   0.0000000   0.0000000   0.6526936), wk =   0.0160000
        k(   31) = (  -0.0000000   0.1950350   0.0000000), wk =   0.0320000
        k(   32) = (  -0.0000000   0.1950350   0.3263468), wk =   0.0640000
        k(   33) = (  -0.0000000   0.1950350   0.6526936), wk =   0.0640000
        k(   34) = (  -0.0000000   0.3900700   0.0000000), wk =   0.0320000
        k(   35) = (  -0.0000000   0.3900700   0.3263468), wk =   0.0640000
        k(   36) = (  -0.0000000   0.3900700   0.6526936), wk =   0.0640000
        k(   37) = (   0.1950350   0.1950350   0.0000000), wk =   0.0160000
        k(   38) = (   0.1950350   0.1950350   0.3263468), wk =   0.0320000
        k(   39) = (   0.1950350   0.1950350   0.6526936), wk =   0.0320000
        k(   40) = (   0.1950350   0.3900700   0.0000000), wk =   0.0320000
        k(   41) = (   0.1950350   0.3900700   0.3263468), wk =   0.0640000
        k(   42) = (   0.1950350   0.3900700   0.6526936), wk =   0.0640000
        k(   43) = (   0.3900700   0.3900700   0.0000000), wk =   0.0160000
        k(   44) = (   0.3900700   0.3900700   0.3263468), wk =   0.0320000
        k(   45) = (   0.3900700   0.3900700   0.6526936), wk =   0.0320000
        k(   46) = (  -0.1950350   0.1950350   0.0000000), wk =   0.0160000
        k(   47) = (  -0.1950350   0.1950350  -0.3263468), wk =   0.0320000
        k(   48) = (  -0.1950350   0.1950350  -0.6526936), wk =   0.0320000
        k(   49) = (  -0.1950351   0.3900701   0.0000000), wk =   0.0320000
        k(   50) = (  -0.1950351   0.3900701  -0.3263468), wk =   0.0640000
        k(   51) = (  -0.1950351   0.3900701  -0.6526936), wk =   0.0640000
        k(   52) = (  -0.3900701   0.3900701   0.0000000), wk =   0.0160000
        k(   53) = (  -0.3900701   0.3900701  -0.3263468), wk =   0.0320000
        k(   54) = (  -0.3900701   0.3900701  -0.6526936), wk =   0.0320000

     Largest allocated arrays     est. size (Mb)     dimensions
     Largest temporary arrays     est. size (Mb)     dimensions

     Check: negative/imaginary core charge=   -0.000007    0.000000

     Initial potential from superposition of free atoms

     starting charge   49.99453, renormalised to   50.00000
     Starting wfc are   42 randomized atomic wfcs

     Self-consistent Calculation

[...]

     total energy              =    -365.28371902 Ry
     Harris-Foulkes estimate   =    -365.28371751 Ry
     estimated scf accuracy    <       0.00000003 Ry

[...]

     iteration # 10     ecut=    40.00 Ry     beta=0.30
     Davidson diagonalization with overlap
     ethr =  6.61E-11,  avg # of iterations =  2.0

     End of self-consistent calculation

 ------ SPIN UP ------------

[...]

 ------ SPIN DOWN ----------

[...]

          k = 0.3901 0.3901 0.6527 (  1970 PWs)   bands (ev):

[...]

          k =-0.3901 0.3901-0.6527 (  1970 PWs)   bands (ev):

   -43.0240 -43.0233 -19.7918 -19.7831 -19.3653 -19.3520 -19.0324 -19.0300
    -6.3704  -6.1357  -5.8303  -5.5695   5.7766   6.0709   6.3327   6.5571
     6.7422   7.1697   7.6034   8.1209   8.8005   8.9978   9.7348   9.8374
    13.7468  14.2415  14.4949  15.0810  15.8728  15.9582  18.4777  19.2656
    19.4630  20.0978  21.9331  22.1929  23.4273  23.6339  25.4137  25.6793
    28.1156  28.2492  29.5198  29.6907  30.3344  30.7791  31.5554  32.0154
    35.2483  35.8283  36.1641  36.2177  38.3735  38.7360  39.9130  40.4734
    40.8229  41.5503  41.9868  42.1934  42.7812  42.9106  43.2079  43.9245
    43.9688  44.4087  44.9823  45.0912  45.3155  45.3228  46.2476  46.8497
    48.1180  49.4021  50.0486

     the Fermi energy is    13.6113 ev

!    total energy              =    -365.28372046 Ry
     Harris-Foulkes estimate   =    -365.28371903 Ry
     estimated scf accuracy    <          2.2E-09 Ry

     The total energy is the sum of the following terms:

     one-electron contribution =     -91.63633541 Ry
     hartree contribution      =      74.20070340 Ry
     xc contribution           =     -65.89231605 Ry
     ewald contribution        =    -281.95562500 Ry
     smearing contrib. (-TS)   =      -0.00014740 Ry

     total magnetization       =    -0.00 Bohr mag/cell
     absolute magnetization    =     0.00 Bohr mag/cell

     convergence has been achieved in  10 iterations

     Forces acting on atoms (Ry/au):

     atom    1 type  1   force =     0.00000000    0.00000000    0.00000000
     atom    2 type  1   force =     0.00000000    0.00000000    0.00000000
     atom    3 type  2   force =    -0.00008504   -0.00008504    0.00000000
     atom    4 type  2   force =     0.00008504    0.00008504   -0.00000000
     atom    5 type  2   force =    -0.00008603    0.00008603    0.00000000
     atom    6 type  2   force =     0.00008603   -0.00008603    0.00000000

     Total force =     0.000242     Total SCF correction =     0.000027
     SCF correction compared to forces is large: reduce conv_thr to get better values

     entering subroutine stress ...

          total   stress  (Ry/bohr**3)                   (kbar)     P=  116.40
   0.00079149   0.00000000   0.00000000        116.43      0.00      0.00
   0.00000000   0.00079149   0.00000000          0.00    116.43      0.00
   0.00000000   0.00000000   0.00079074          0.00      0.00    116.32

     General routines

     Parallel routines

   This run was terminated on:  15:23:39  24Jan2014

   JOB DONE.
Running PBS batch system epilogue script
Job id: 251985.audhumbla.fysik.dtu.dk
Username: zhonxu
Groupname: campgst
Jobname: NbO2/fine-EOS/non-mag/NbO2-v-0.95
Sessionid: 11064
Queuename: verylong
Accounting:
This job has allocated the following 4 nodes:
q105 q105 q105 q105
Finished epilogue job 251985.audhumbla.fysik.dtu.dk for zhonxu