     Program PWSCF v.5.0.2 (svn rev. 9656) starts on 15Oct2014 at 13:11:43

     Current dimensions of program PWSCF are:
     Max number of different atomic species (ntypx) = 10
     Max number of k-points (npk) =  40000
     Max angular momentum in pseudopotentials (lmaxx) =  3
     Reading input from pwscf.in
Warning: card &CELL ignored
Warning: card / ignored

     Subspace diagonalization in iterative solution of the eigenvalue problem:
     a serial algorithm will be used

     bravais-lattice index     =            0
     lattice parameter (alat)  =      11.2250  a.u.
     unit-cell volume          =    7005.5484 (a.u.)^3
     number of atoms/cell      =           33
     number of atomic types    =            3
     number of electrons       =       221.00
     number of Kohn-Sham states=          319
     kinetic-energy cutoff     =      40.0000  Ry
     charge density cutoff     =     500.0000  Ry
     convergence threshold     =      1.0E-06
     mixing beta               =       0.7000
     number of iterations used =            8  plain     mixing
     Exchange-correlation      = SLA  PW   PBE  PBE ( 1 4 3 4 0)
     EXX-fraction              =        0.00
     nstep                     =           50

     celldm(1)=  11.224973  celldm(2)=   0.000000  celldm(3)=   0.000000
     celldm(4)=   0.000000  celldm(5)=   0.000000  celldm(6)=   0.000000

     crystal axes: (cart. coord. in units of alat)
               a(1) = (   1.000000   0.000000   0.000000 )
               a(2) = (   0.000000   1.107086   0.000000 )
               a(3) = (   0.000000   0.000000   4.474090 )

     reciprocal axes: (cart. coord. in units 2 pi/alat)
               b(1) = (  1.000000  0.000000  0.000000 )
               b(2) = (  0.000000  0.903272  0.000000 )
               b(3) = (  0.000000  0.000000  0.223509 )

     PseudoPot. # 1 for O  read from file:
     /home-research/zhongnanxu/pseudopotentials/gbrv_espresso_pseudo_v1.01/o_pbe_v1.01.uspp.F.UPF
     MD5 check sum: 2bcb18d16ea4b960afae9ec6d52f22d2
     Pseudo is Ultrasoft + core correction, Zval =  6.0
     Generated by new atomic code, or converted to UPF format
     Using radial grid of  737 points,  5 beta functions with:
                l(1) =   0
                l(2) =   0
                l(3) =   1
                l(4) =   1
                l(5) =   2
     Q(r) pseudized with  8 coefficients,  rinner =    0.900   0.900   0.900
                                                       0.900   0.900

     PseudoPot. # 2 for Ti read from file:
     /home-research/zhongnanxu/pseudopotentials/gbrv_espresso_pseudo_v1.01/ti_pbe_v1.uspp.F.UPF
     MD5 check sum: bcc8f6961b3b91f0cac3ca967d22d0fb
     Pseudo is Ultrasoft + core correction, Zval = 12.0
     Generated by new atomic code, or converted to UPF format
     Using radial grid of  851 points,  6 beta functions with:
                l(1) =   0
                l(2) =   0
                l(3) =   1
                l(4) =   1
                l(5) =   2
                l(6) =   2
     Q(r) pseudized with  6 coefficients,  rinner =    1.000   1.000   1.000
                                                       1.000   1.000

     PseudoPot. # 3 for H  read from file:
     /home-research/zhongnanxu/pseudopotentials/gbrv_espresso_pseudo_v1.01/h_pbe_v1.uspp.F.UPF
     MD5 check sum: 3408e3ff4ec8b0a4e358431e7e038a48
     Pseudo is Ultrasoft, Zval =  1.0
     Generated by new atomic code, or converted to UPF format
     Using radial grid of  615 points,  2 beta functions with:
                l(1) =   0
                l(2) =   0
     Q(r) pseudized with  8 coefficients,  rinner =    0.700

     atomic species   valence    mass     pseudopotential
        O0             6.00    15.99940     O ( 1.00)
        Ti1           12.00    47.88000     Ti( 1.00)
        H2             1.00     1.00794     H ( 1.00)

     Simplified LDA+U calculation (l_max = 2) with parameters (eV):
     atomic species    L          U    alpha       J0     beta
        Ti1            2     8.0000   0.0000   0.0000   0.0000

     No symmetry found

   Cartesian axes

     site n.     atom                  positions (alat units)
         1           O0  tau(   1) = (   0.0000000   0.0000000   1.6839579  )
         2           O0  tau(   2) = (   0.0000000   0.5535432   1.7822984  )
         3           Ti1 tau(   3) = (   0.2500000   0.5535432   2.0167854  )
         4           Ti1 tau(   4) = (   0.0000000   0.0000000   2.0157564  )
         5           O0  tau(   5) = (   0.2500000   0.8967400   2.0110586  )
         6           O0  tau(   6) = (   0.2500000   0.2103464   2.0159354  )
         7           O0  tau(   7) = (   0.0000000   0.5535432   2.2298416  )
         8           O0  tau(   8) = (   0.0000000   0.0000000   2.3559214  )
         9           Ti1 tau(   9) = (   0.2500000   0.0000000   2.5994014  )
        10           Ti1 tau(  10) = (   0.0000000   0.5535432   2.5501417  )
        11           O0  tau(  11) = (   0.2500000   0.7638896   2.5901400  )
        12           O0  tau(  12) = (   0.2500000   0.3431968   2.5973433  )
        13           O0  tau(  13) = (   0.0000000   0.0000000   2.7921004  )
        14           O0  tau(  14) = (   0.5000000   0.0000000   1.6878504  )
        15           O0  tau(  15) = (   0.5000000   0.5535432   1.7824326  )
        16           Ti1 tau(  16) = (   0.7500000   0.5535432   2.0168302  )
        17           Ti1 tau(  17) = (   0.5000000   0.0000000   2.0241229  )
        18           O0  tau(  18) = (   0.7500000   0.8967400   2.0108796  )
        19           O0  tau(  19) = (   0.7500000   0.2103464   2.0163380  )
        20           O0  tau(  20) = (   0.5000000   0.5535432   2.2277835  )
        21           O0  tau(  21) = (   0.5000000   0.0000000   2.3568163  )
        22           Ti1 tau(  22) = (   0.7500000   0.0000000   2.5994461  )
        23           Ti1 tau(  23) = (   0.5000000   0.5535432   2.6028464  )
        24           O0  tau(  24) = (   0.7500000   0.7638896   2.5900953  )
        25           O0  tau(  25) = (   0.7500000   0.3431968   2.5972986  )
        26           O0  tau(  26) = (   0.5000000   0.0000000   2.7896844  )
        27           H2  tau(  27) = (  -0.0002200   0.6966784   1.6959037  )
        28           H2  tau(  28) = (   0.4998100   0.6979626   1.6980065  )
        29           H2  tau(  29) = (   0.1517400   0.0340540   1.6246762  )
        30           H2  tau(  30) = (   0.6507100   0.0357700   1.6273159  )
        31           O0  tau(  31) = (   0.5003100   0.5957342   2.9447116  )
        32           O0  tau(  32) = (   0.4991200   0.3951413   3.0700309  )
        33           H2  tau(  33) = (   0.5003600   0.4565514   3.2249239  )

     number of k points=    10  Methfessel-Paxton smearing, width (Ry)=  0.0100
                       cart. coord. in units 2pi/alat
        k(    1) = (   0.0000000   0.0000000   0.0000000), wk =   0.1250000
        k(    2) = (   0.0000000   0.2258180   0.0000000), wk =   0.2500000
        k(    3) = (   0.0000000  -0.4516359   0.0000000), wk =   0.1250000
        k(    4) = (   0.2500000   0.0000000   0.0000000), wk =   0.2500000
        k(    5) = (   0.2500000   0.2258180   0.0000000), wk =   0.2500000
        k(    6) = (   0.2500000  -0.4516359   0.0000000), wk =   0.2500000
        k(    7) = (  -0.5000000   0.0000000   0.0000000), wk =   0.1250000
        k(    8) = (  -0.5000000   0.2258180   0.0000000), wk =   0.2500000
        k(    9) = (  -0.5000000  -0.4516359   0.0000000), wk =   0.1250000
        k(   10) = (  -0.2500000   0.2258180   0.0000000), wk =   0.2500000

     Largest allocated arrays     est. size (Mb)     dimensions
     Largest temporary arrays     est. size (Mb)     dimensions

     Check: negative/imaginary core charge=   -0.000006    0.000000

     Initial potential from superposition of free atoms
     Check: negative starting charge=   -0.102179

     starting charge  212.99957, renormalised to  221.00000

     negative rho (up, down):  0.106E+00 0.000E+00
     Number of +U iterations with fixed ns =  0
     Starting occupations:
 --- enter write_ns ---
 LDA+U parameters:
U( 2)     =  8.00000000
alpha( 2) =  0.00000000
atom    3   Tr[ns(na)] =   2.00000
    eigenvalues:
  0.200  0.200  0.200  0.200  0.200
    eigenvectors:
  1.000  0.000  0.000  0.000  0.000
  0.000  1.000  0.000  0.000  0.000
  0.000  0.000  1.000  0.000  0.000
  0.000  0.000  0.000  1.000  0.000
  0.000  0.000  0.000  0.000  1.000
    occupations:
  0.200  0.000  0.000  0.000  0.000
  0.000  0.200  0.000  0.000  0.000
  0.000  0.000  0.200  0.000  0.000
  0.000  0.000  0.000  0.200  0.000
  0.000  0.000  0.000  0.000  0.200
atom    4   Tr[ns(na)] =   2.00000
    eigenvalues:
  0.200  0.200  0.200  0.200  0.200
    eigenvectors:
  1.000  0.000  0.000  0.000  0.000
  0.000  1.000  0.000  0.000  0.000
  0.000  0.000  1.000  0.000  0.000
  0.000  0.000  0.000  1.000  0.000
  0.000  0.000  0.000  0.000  1.000
    occupations:
  0.200  0.000  0.000  0.000  0.000
  0.000  0.200  0.000  0.000  0.000
  0.000  0.000  0.200  0.000  0.000
  0.000  0.000  0.000  0.200  0.000
  0.000  0.000  0.000  0.000  0.200
atom    9   Tr[ns(na)] =   2.00000
    eigenvalues:
  0.200  0.200  0.200  0.200  0.200
    eigenvectors:
  1.000  0.000  0.000  0.000  0.000
  0.000  1.000  0.000  0.000  0.000
  0.000  0.000  1.000  0.000  0.000
  0.000  0.000  0.000  1.000  0.000
  0.000  0.000  0.000  0.000  1.000
    occupations:
  0.200  0.000  0.000  0.000  0.000
  0.000  0.200  0.000  0.000  0.000
  0.000  0.000  0.200  0.000  0.000
  0.000  0.000  0.000  0.200  0.000
  0.000  0.000  0.000  0.000  0.200
atom   10   Tr[ns(na)] =   2.00000
    eigenvalues:
  0.200  0.200  0.200  0.200  0.200
    eigenvectors:
  1.000  0.000  0.000  0.000  0.000
  0.000  1.000  0.000  0.000  0.000
  0.000  0.000  1.000  0.000  0.000
  0.000  0.000  0.000  1.000  0.000
  0.000  0.000  0.000  0.000  1.000
    occupations:
  0.200  0.000  0.000  0.000  0.000
  0.000  0.200  0.000  0.000  0.000
  0.000  0.000  0.200  0.000  0.000
  0.000  0.000  0.000  0.200  0.000
  0.000  0.000  0.000  0.000  0.200
atom   16   Tr[ns(na)] =   2.00000
    eigenvalues:
  0.200  0.200  0.200  0.200  0.200
    eigenvectors:
  1.000  0.000  0.000  0.000  0.000
  0.000  1.000  0.000  0.000  0.000
  0.000  0.000  1.000  0.000  0.000
  0.000  0.000  0.000  1.000  0.000
  0.000  0.000  0.000  0.000  1.000
    occupations:
  0.200  0.000  0.000  0.000  0.000
  0.000  0.200  0.000  0.000  0.000
  0.000  0.000  0.200  0.000  0.000
  0.000  0.000  0.000  0.200  0.000
  0.000  0.000  0.000  0.000  0.200
atom   17   Tr[ns(na)] =   2.00000
    eigenvalues:
  0.200  0.200  0.200  0.200  0.200
    eigenvectors:
  1.000  0.000  0.000  0.000  0.000
  0.000  1.000  0.000  0.000  0.000
  0.000  0.000  1.000  0.000  0.000
  0.000  0.000  0.000  1.000  0.000
  0.000  0.000  0.000  0.000  1.000
    occupations:
  0.200  0.000  0.000  0.000  0.000
  0.000  0.200  0.000  0.000  0.000
  0.000  0.000  0.200  0.000  0.000
  0.000  0.000  0.000  0.200  0.000
  0.000  0.000  0.000  0.000  0.200
atom   22   Tr[ns(na)] =   2.00000
    eigenvalues:
[...]
  0.130 -0.010  0.007  0.372 -0.001
  0.000  0.015 -0.005 -0.001  0.124
atom    4   Tr[ns(na)] =   2.60092
    eigenvalues:
  0.113  0.135  0.147  0.444  0.462
    eigenvectors:
  0.007  0.002  0.000  0.000  0.990
  0.003  0.783  0.211  0.000  0.003
  0.002  0.209  0.789  0.000  0.000
  0.987  0.006  0.000  0.000  0.007
  0.000  0.000  0.000  1.000  0.000
    occupations:
  0.458  0.016  0.005 -0.029  0.000
  0.016  0.138 -0.005  0.000 -0.004
  0.005 -0.005  0.145  0.001  0.000
 -0.029  0.000  0.001  0.115  0.000
  0.000 -0.004  0.000  0.000  0.444
atom    9   Tr[ns(na)] =   2.59171
    eigenvalues:
  0.112  0.154  0.160  0.386  0.483
    eigenvectors:
  0.000  0.003  0.890  0.107  0.000
  0.000  0.000  0.000  0.000  1.000
  0.998  0.002  0.000  0.000  0.000
  0.000  0.000  0.107  0.892  0.000
  0.002  0.995  0.003  0.000  0.000
    occupations:
  0.185  0.002  0.001  0.070  0.000
  0.002  0.483  0.000 -0.003  0.000
  0.001  0.000  0.112  0.003 -0.002
  0.070 -0.003  0.003  0.362  0.000
  0.000  0.000 -0.002  0.000  0.154
atom   10   Tr[ns(na)] =   2.52139
    eigenvalues:
  0.122  0.148  0.174  0.321  0.495
    eigenvectors:
  0.023  0.000  0.000  0.977  0.000
  0.000  0.000  1.000  0.000  0.000
  0.001  0.999  0.000  0.000  0.000
  0.976  0.001  0.000  0.023  0.000
  0.000  0.000  0.000  0.000  1.000
    occupations:
  0.317  0.000 -0.001 -0.030  0.000
  0.000  0.174  0.000  0.000  0.005
 -0.001  0.000  0.148 -0.001  0.000
 -0.030  0.000 -0.001  0.127  0.000
  0.000  0.005  0.000  0.000  0.495
atom   16   Tr[ns(na)] =   2.48723
    eigenvalues:
  0.108  0.121  0.132  0.431  0.453
    eigenvectors:
  0.714  0.036  0.054  0.154  0.042
  0.000  0.001  0.001  0.232  0.766
  0.102  0.180  0.717  0.000  0.000
  0.179  0.007  0.010  0.613  0.191
  0.005  0.774  0.219  0.001  0.002
    occupations:
  0.174  0.001 -0.003  0.130 -0.001
  0.001  0.447  0.000  0.010  0.015
 -0.003  0.000  0.127  0.007  0.005
  0.130  0.010  0.007  0.372  0.000
 -0.001  0.015  0.005  0.000  0.124
atom   17   Tr[ns(na)] =   2.59923
    eigenvalues:
  0.112  0.136  0.147  0.441  0.464
    eigenvectors:
  0.007  0.002  0.000  0.000  0.991
  0.002  0.786  0.209  0.000  0.002
  0.001  0.208  0.790  0.000  0.000
  0.989  0.004  0.000  0.000  0.007
  0.000  0.000  0.000  1.000  0.000
    occupations:
  0.460  0.015  0.005 -0.029  0.000
  0.015  0.139 -0.004  0.000 -0.003
  0.005 -0.004  0.145  0.001  0.000
 -0.029  0.000  0.001  0.115  0.000
  0.000 -0.003  0.000  0.000  0.440
atom   22   Tr[ns(na)] =   2.59184
    eigenvalues:
  0.112  0.154  0.160  0.386  0.483
    eigenvectors:
  0.000  0.005  0.888  0.107  0.000
  0.000  0.000  0.000  0.000  1.000
  0.998  0.002  0.000  0.000  0.000
  0.000  0.001  0.106  0.893  0.000
  0.002  0.993  0.006  0.000  0.000
    occupations:
  0.185 -0.002  0.001  0.070  0.000
 -0.002  0.483  0.000  0.003  0.000
  0.001  0.000  0.112  0.003  0.002
  0.070  0.003  0.003  0.362  0.001
  0.000  0.000  0.002  0.001  0.154
atom   23   Tr[ns(na)] =   2.52047
    eigenvalues:
  0.105  0.125  0.154  0.386  0.490
    eigenvectors:
  0.002  0.011  0.000  0.987  0.000
  0.000  0.000  1.000  0.000  0.000
  0.997  0.001  0.000  0.002  0.000
  0.001  0.988  0.000  0.011  0.000
  0.000  0.000  0.000  0.000  1.000
    occupations:
  0.383  0.000 -0.011 -0.028  0.000
  0.000  0.154  0.000  0.000  0.004
 -0.011  0.000  0.105  0.001  0.000
 -0.028  0.000  0.001  0.128  0.000
  0.000  0.004  0.000  0.000  0.490
N of occupied +U levels =  20.3998240
 --- exit write_ns ---

[...]

     total energy              =   -1595.99254546 Ry
     Harris-Foulkes estimate   =   -1595.99254546 Ry
     estimated scf accuracy    <       0.00000005 Ry

     iteration # 12     ecut=    40.00 Ry     beta=0.70
     Davidson diagonalization with overlap
     ethr =  2.15E-11,  avg # of iterations =  1.0

     negative rho (up, down):  0.109E+00 0.000E+00

     End of self-consistent calculation
 --- enter write_ns ---
 LDA+U parameters:
U( 2)     =  8.00000000
alpha( 2) =  0.00000000
atom    3   Tr[ns(na)] =   2.48719
    eigenvalues:
  0.108  0.121  0.132  0.431  0.453
    eigenvectors:
  0.713  0.037  0.054  0.154  0.042
  0.000  0.001  0.001  0.234  0.764
  0.103  0.182  0.715  0.000  0.000
  0.179  0.008  0.010  0.611  0.192
  0.005  0.772  0.221  0.000  0.002
    occupations:
  0.174 -0.001 -0.003  0.130  0.000
 -0.001  0.447  0.001 -0.010  0.015
 -0.003  0.001  0.127  0.007 -0.005
  0.130 -0.010  0.007  0.372 -0.001
  0.000  0.015 -0.005 -0.001  0.124
atom    4   Tr[ns(na)] =   2.60105
    eigenvalues:
  0.113  0.135  0.147  0.444  0.462
    eigenvectors:
  0.007  0.002  0.000  0.000  0.990
  0.003  0.783  0.211  0.000  0.003
  0.002  0.209  0.789  0.000  0.000
  0.987  0.006  0.000  0.000  0.007
  0.000  0.000  0.000  1.000  0.000
    occupations:
  0.458  0.017  0.005 -0.029  0.000
  0.017  0.139 -0.005  0.000 -0.004
  0.005 -0.005  0.145  0.001  0.000
 -0.029  0.000  0.001  0.115  0.000
  0.000 -0.004  0.000  0.000  0.444
atom    9   Tr[ns(na)] =   2.59218
    eigenvalues:
  0.112  0.154  0.160  0.386  0.483
    eigenvectors:
  0.000  0.003  0.890  0.107  0.000
  0.000  0.000  0.000  0.000  1.000
  0.998  0.002  0.000  0.000  0.000
  0.000  0.000  0.107  0.893  0.000
  0.002  0.995  0.003  0.000  0.000
    occupations:
  0.185  0.002  0.001  0.070  0.000
  0.002  0.483  0.000 -0.003  0.000
  0.001  0.000  0.113  0.003 -0.002
  0.070 -0.003  0.003  0.362  0.000
  0.000  0.000 -0.002  0.000  0.154
atom   10   Tr[ns(na)] =   2.52144
    eigenvalues:
  0.122  0.148  0.174  0.321  0.495
    eigenvectors:
  0.023  0.000  0.000  0.977  0.000
  0.000  0.000  1.000  0.000  0.000
  0.001  0.999  0.000  0.000  0.000
  0.976  0.001  0.000  0.023  0.000
  0.000  0.000  0.000  0.000  1.000
    occupations:
  0.317  0.000 -0.001 -0.030  0.000
  0.000  0.174  0.000  0.000  0.005
 -0.001  0.000  0.148 -0.001  0.000
 -0.030  0.000 -0.001  0.127  0.000
  0.000  0.005  0.000  0.000  0.495
atom   16   Tr[ns(na)] =   2.48739
    eigenvalues:
  0.108  0.121  0.132  0.431  0.453
    eigenvectors:
  0.714  0.036  0.054  0.154  0.042
  0.000  0.001  0.001  0.232  0.766
  0.102  0.179  0.719  0.000  0.000
  0.179  0.007  0.010  0.613  0.191
  0.005  0.777  0.216  0.001  0.002
    occupations:
  0.174  0.001 -0.003  0.130 -0.001
  0.001  0.447  0.000  0.010  0.015
 -0.003  0.000  0.127  0.007  0.005
  0.130  0.010  0.007  0.372  0.000
 -0.001  0.015  0.005  0.000  0.124
atom   17   Tr[ns(na)] =   2.59965
    eigenvalues:
  0.112  0.136  0.147  0.441  0.464
    eigenvectors:
  0.007  0.002  0.000  0.000  0.991
  0.002  0.787  0.209  0.000  0.002
  0.001  0.207  0.791  0.000  0.000
  0.989  0.004  0.000  0.000  0.007
  0.000  0.000  0.000  1.000  0.000
    occupations:
  0.460  0.015  0.005 -0.029  0.000
  0.015  0.139 -0.004  0.000 -0.003
  0.005 -0.004  0.145  0.001  0.000
 -0.029  0.000  0.001  0.115  0.000
  0.000 -0.003  0.000  0.000  0.441
atom   22   Tr[ns(na)] =   2.59232
    eigenvalues:
  0.112  0.154  0.160  0.386  0.483
    eigenvectors:
  0.000  0.005  0.888  0.107  0.000
  0.000  0.000  0.000  0.000  1.000
  0.998  0.002  0.000  0.000  0.000
  0.000  0.001  0.106  0.893  0.000
  0.002  0.993  0.006  0.000  0.000
    occupations:
  0.185 -0.002  0.001  0.070  0.000
 -0.002  0.483  0.000  0.003  0.000
  0.001  0.000  0.112  0.003  0.002
  0.070  0.003  0.003  0.362  0.001
  0.000  0.000  0.002  0.001  0.154
atom   23   Tr[ns(na)] =   2.52050
    eigenvalues:
  0.105  0.125  0.154  0.386  0.490
    eigenvectors:
  0.002  0.011  0.000  0.987  0.000
  0.000  0.000  1.000  0.000  0.000
  0.997  0.001  0.000  0.002  0.000
  0.001  0.988  0.000  0.011  0.000
  0.000  0.000  0.000  0.000  1.000
    occupations:
  0.383  0.000 -0.011 -0.028  0.000
  0.000  0.154  0.000  0.000  0.004
 -0.011  0.000  0.105  0.001  0.000
 -0.028  0.000  0.001  0.128  0.000
  0.000  0.004  0.000  0.000  0.490
N of occupied +U levels =  20.4017060
 --- exit write_ns ---

[...]

          k = 0.2500-0.4516 0.0000 ( 29882 PWs)   bands (ev):

[...]

          k =-0.2500 0.2258 0.0000 ( 29912 PWs)   bands (ev):

   -61.6113 -61.5875 -61.3917 -61.0559 -60.2711 -60.2408 -59.7668 -59.7415
   -37.9722 -37.7792 -37.7528 -37.7197 -37.6791 -37.6740 -37.6588 -37.5419
   -37.4741 -37.2417 -37.2217 -37.1641 -36.7223 -36.5525 -36.4854 -36.4292
   -36.2860 -36.2558 -36.0829 -36.0628 -35.9982 -35.9152 -35.8557 -35.7185
   -24.8297 -21.3725 -21.1550 -20.1830 -19.7412 -19.6994 -19.3308 -19.2894
   -19.1532 -19.0586 -18.9878 -18.9683 -18.9612 -18.8033 -18.7066 -18.0960
   -17.8575 -17.5949 -17.3451 -17.3245  -9.4740  -8.9561  -8.7607  -7.8696
    -7.2721  -7.1660  -7.1190  -7.0363  -6.9264  -6.7480  -6.7384  -6.6439
    -6.6065  -6.5637  -6.4903  -6.3203  -6.2561  -6.2162  -6.1088  -6.0111
    -5.9177  -5.6903  -5.6315  -5.3838  -5.3113  -5.0864  -5.0243  -4.8847
    -4.8556  -4.7799  -4.7603  -4.6545  -4.5875  -4.5346  -4.4518  -4.3670
    -4.3282  -4.2510  -4.2100  -4.0845  -4.0243  -3.9031  -3.8181  -3.6720
    -3.6117  -3.4631  -3.2893  -3.0486  -2.9176  -2.7488  -2.6895  -2.6484
    -2.5380  -2.3260  -2.2651  -2.2385  -2.1824  -2.0719  -2.0218   0.4037
     0.7436   0.7951   0.8285   0.9014   0.9606   1.0176   1.0621   1.2986
     1.3199   1.4066   1.4804   1.5051   1.6457   1.6933   1.7956   1.8883
     1.9687   2.0501   2.1208   2.2004   2.2777   2.3067   2.3966   2.6046
     2.6869   2.7731   2.7828   2.8818   3.0404   3.0880   3.1577   3.2146
     3.2325   3.3318   3.3449   3.4335   3.7429   3.7901   3.8908   3.9592
     4.0470   4.0972   4.2321   4.7392   5.1411   5.2704   5.6424   5.6700
     5.7467   6.0413   6.1210   6.3244   6.3929   6.6677   6.7520   7.0311
     7.1999   7.3791   7.5029   7.6295   7.7825   8.0047   8.0520   8.1053
     8.1950   8.2614   8.4511   8.4945   8.6981   8.7695   8.8650   8.9631
     9.0709   9.1357   9.2660   9.3957   9.5208   9.6126   9.6888   9.7647
     9.8564   9.9577  10.0964  10.3057  10.3260  10.4043  10.4765  10.5453
    10.6429  10.7093  10.8770  10.9298  11.0218  11.0801  11.1710  11.2121
    11.3283  11.4444  11.5047  11.5266  11.6320  11.6972  11.7752  11.8317
    11.9227  12.0295  12.0447  12.1328  12.2014  12.2615  12.3458  12.3901
    12.5089  12.5543  12.5774  12.6927  12.7663  12.9078  12.9831  13.0088
    13.0489  13.0938  13.1340  13.3064  13.4341  13.5415  13.5667  13.6853
    13.7258  13.8461  13.8808  13.9600  14.0331  14.0691  14.1517  14.1991
    14.2467  14.3217  14.3464  14.4722  14.5325  14.5748  14.6218  14.7359
    14.7919  14.9012  14.9466  15.0917  15.1219  15.1970  15.2814  15.3472
    15.4716  15.5137  15.5372  15.6162  15.6520  15.7212  15.7943  15.8573
    15.9357  15.9940  16.0692  16.1322  16.1745  16.2770  16.3603  16.4386
    16.5093  16.5706  16.6121  16.7072  16.7704  16.8500  16.8935  16.9352
    17.0046  17.0761  17.1432  17.2163  17.2603  17.3645  17.4070  17.4587
    17.5393  17.5999  17.6547  17.7530  17.8074  17.9140  17.9375  18.0518
    18.1137  18.1690  18.2791  18.3537  18.4125  18.4833  18.6343  18.6460
    18.6920  18.7563  18.8044  18.8554  18.9505  19.0394  19.1030

     the Fermi energy is    -2.0103 ev

!    total energy              =   -1595.99254546 Ry
     Harris-Foulkes estimate   =   -1595.99254546 Ry
     estimated scf accuracy    <          1.9E-09 Ry

     The total energy is the sum of the following terms:

     one-electron contribution =  -19018.60672857 Ry
     hartree contribution      =    9529.17192582 Ry
     xc contribution           =    -284.38217006 Ry
     ewald contribution        =    8173.90727695 Ry
     Hubbard energy            =       3.91789208 Ry
     smearing contrib. (-TS)   =      -0.00074169 Ry

     convergence has been achieved in  12 iterations

     Forces acting on atoms (Ry/au):

     negative rho (up, down):  0.109E+00 0.000E+00
     atom    1 type  1   force =    -0.00388570   -0.01566773   -0.00010433
     atom    2 type  1   force =     0.00005662    0.01639013   -0.00023503
     atom    3 type  2   force =     0.03465982   -0.00610215    0.00041228
     atom    4 type  2   force =     0.00324375    0.01033848   -0.00020282
     atom    5 type  1   force =    -0.00103427   -0.09098699    0.00013256
     atom    6 type  1   force =    -0.00375098    0.08803623    0.00010243
     atom    7 type  1   force =     0.00006158   -0.00136016    0.00059558
     atom    8 type  1   force =     0.00006458   -0.00063466   -0.00044529
     atom    9 type  2   force =     0.00268234    0.00025584    0.00029242
     atom   10 type  2   force =     0.00007596   -0.00175575   -0.00015295
     atom   11 type  1   force =    -0.02485216   -0.00914019   -0.00021062
     atom   12 type  1   force =    -0.02244638    0.01446246   -0.00009276
     atom   13 type  1   force =     0.00000027   -0.00268874   -0.00039848
     atom   14 type  1   force =    -0.00509586   -0.01574947    0.00013484
     atom   15 type  1   force =     0.00014109    0.01689018   -0.00021875
     atom   16 type  2   force =    -0.03459357   -0.00649249    0.00040960
     atom   17 type  2   force =     0.00316471    0.01000346   -0.00010228
     atom   18 type  1   force =     0.00435378   -0.09113592    0.00009577
     atom   19 type  1   force =     0.00278692    0.08829793    0.00015082
     atom   20 type  1   force =    -0.00005823   -0.00100407    0.00018133
     atom   21 type  1   force =    -0.00004536    0.00001465   -0.00056203
     atom   22 type  2   force =    -0.00266253    0.00026401    0.00028989
     atom   23 type  2   force =    -0.00012908   -0.00231909    0.00078477
     atom   24 type  1   force =     0.02491848   -0.00899497   -0.00021136
     atom   25 type  1   force =     0.02235100    0.01429828   -0.00009853
     atom   26 type  1   force =     0.00004231   -0.00549646   -0.00043133
     atom   27 type  3   force =     0.00000140    0.00015709   -0.00023306
     atom   28 type  3   force =    -0.00001411    0.00008657   -0.00032216
     atom   29 type  3   force =     0.00004897   -0.00012966   -0.00017894
     atom   30 type  3   force =    -0.00010555   -0.00024011   -0.00028767
     atom   31 type  1   force =     0.00023756    0.00007342    0.00024595
     atom   32 type  1   force =    -0.00030336    0.00007615    0.00013400
     atom   33 type  3   force =     0.00008597    0.00025376    0.00052614

     Total force =     0.001889     Total SCF correction =     0.000127

     bfgs converged in  12 scf cycles and  11 bfgs steps
     (criteria: energy < 0.10E-03, force < 0.10E-02)

     End of BFGS Geometry Optimization

     Final energy   =   -1595.9925454593 Ry
Begin final coordinates

ATOMIC_POSITIONS (crystal)
O0       0.000000000   0.000000000   0.375527984    0   0   1
O0       0.000000000   0.500000000   0.397483691    0   0   1
Ti1      0.250000000   0.500000000   0.450351955    0   0   1
Ti1      0.000000000   0.000000000   0.450075771    0   0   1
O0       0.250000000   0.810000000   0.449064122    0   0   1
O0       0.250000000   0.190000000   0.450280196    0   0   1
O0       0.000000000   0.500000000   0.498355714    0   0   1
O0       0.000000000   0.000000000   0.527086920    0   0   1
Ti1      0.250000000   0.000000000   0.580933642    0   0   1
Ti1      0.000000000   0.500000000   0.571105291    0   0   1
O0       0.250000000   0.690000000   0.579513489    0   0   1
O0       0.250000000   0.310000000   0.581247922    0   0   1
O0       0.000000000   0.000000000   0.625369716    0   0   1
O0       0.500000000   0.000000000   0.376200847    0   0   1
O0       0.500000000   0.500000000   0.397601207    0   0   1
Ti1      0.750000000   0.500000000   0.450361732    0   0   1
Ti1      0.500000000   0.000000000   0.451405770    0   0   1
O0       0.750000000   0.810000000   0.449073345    0   0   1
O0       0.750000000   0.190000000   0.450308340    0   0   1
O0       0.500000000   0.500000000   0.498553101    0   0   1
O0       0.500000000   0.000000000   0.527212437    0   0   1
Ti1      0.750000000   0.000000000   0.580948410    0   0   1
Ti1      0.500000000   0.500000000   0.581415110    0   0   1
O0       0.750000000   0.690000000   0.579514927    0   0   1
O0       0.750000000   0.310000000   0.581241968    0   0   1
O0       0.500000000   0.000000000   0.624679565    0   0   1
H2      -0.000122046   0.631016821   0.378816949
H2       0.499944148   0.631784392   0.379229496
H2       0.152718296   0.030412259   0.362829970
H2       0.651984615   0.031785918   0.363321822
O0       0.500310000   0.540017990   0.658840240    0   1   1
O0       0.499120000   0.357814507   0.686396924    0   1   1
H2       0.500360000   0.411969215   0.721141429    0   1   1
End final coordinates

     General routines

     Parallel routines
     Hubbard U routines

   This run was terminated on:  23:46:52  15Oct2014

   JOB DONE.