     Program PWSCF v.5.0.2 (svn rev. 9656) starts on 17Sep2014 at 14:50:48

     Current dimensions of program PWSCF are:
     Max number of different atomic species (ntypx) = 10
     Max number of k-points (npk) =  40000
     Max angular momentum in pseudopotentials (lmaxx) =  3
     Reading input from pwscf.in
Warning: card &CELL ignored
Warning: card / ignored

     Subspace diagonalization in iterative solution of the eigenvalue problem:
     a serial algorithm will be used

     bravais-lattice index     =            0
     lattice parameter (alat)  =      10.7336  a.u.
     unit-cell volume          =    6184.1966 (a.u.)^3
     number of atoms/cell      =           33
     number of atomic types    =            3
     number of electrons       =       245.00 (up: 134.00, down: 111.00)
     number of Kohn-Sham states=          367
     kinetic-energy cutoff     =      40.0000  Ry
     charge density cutoff     =     500.0000  Ry
     convergence threshold     =      1.0E-06
     mixing beta               =       0.7000
     number of iterations used =            8  plain     mixing
     Exchange-correlation      = SLA  PW   PBE  PBE ( 1 4 3 4 0)
     EXX-fraction              =        0.00
     nstep                     =           50

     celldm(1)=  10.733644  celldm(2)=   0.000000  celldm(3)=   0.000000
     celldm(4)=   0.000000  celldm(5)=   0.000000  celldm(6)=   0.000000

     crystal axes: (cart. coord. in units of alat)
               a(1) = (   1.000000   0.000000   0.000000 )
               a(2) = (   0.000000   1.085558   0.000000 )
               a(3) = (   0.000000   0.000000   4.606685 )

     reciprocal axes: (cart. coord. in units 2 pi/alat)
               b(1) = (  1.000000  0.000000  0.000000 )
               b(2) = (  0.000000  0.921185  0.000000 )
               b(3) = (  0.000000  0.000000  0.217076 )

     PseudoPot. # 1 for O  read from file:
     /home-research/zhongnanxu/pseudopotentials/gbrv_espresso_pseudo_v1.01/o_pbe_v1.01.uspp.F.UPF
     MD5 check sum: 2bcb18d16ea4b960afae9ec6d52f22d2
     Pseudo is Ultrasoft + core correction, Zval =  6.0
     Generated by new atomic code, or converted to UPF format
     Using radial grid of  737 points,  5 beta functions with:
                l(1) =   0
                l(2) =   0
                l(3) =   1
                l(4) =   1
                l(5) =   2
     Q(r) pseudized with  8 coefficients,  rinner =    0.900   0.900   0.900
                                                       0.900   0.900

     PseudoPot. # 2 for Mn read from file:
     /home-research/zhongnanxu/pseudopotentials/gbrv_espresso_pseudo_v1.01/mn_pbe_v1.uspp.F.UPF
     MD5 check sum: 5fd7c7b5c956fd19902447332617373a
     Pseudo is Ultrasoft + core correction, Zval = 15.0
     Generated by new atomic code, or converted to UPF format
     Using radial grid of  859 points,  6 beta functions with:
                l(1) =   0
                l(2) =   0
                l(3) =   1
                l(4) =   1
                l(5) =   2
                l(6) =   2
     Q(r) pseudized with  6 coefficients,  rinner =    1.150   1.150   1.150
                                                       1.150   1.150

     PseudoPot. # 3 for H  read from file:
     /home-research/zhongnanxu/pseudopotentials/gbrv_espresso_pseudo_v1.01/h_pbe_v1.uspp.F.UPF
     MD5 check sum: 3408e3ff4ec8b0a4e358431e7e038a48
     Pseudo is Ultrasoft, Zval =  1.0
     Generated by new atomic code, or converted to UPF format
     Using radial grid of  615 points,  2 beta functions with:
                l(1) =   0
                l(2) =   0
     Q(r) pseudized with  8 coefficients,  rinner =    0.700

     atomic species   valence    mass     pseudopotential
        O0             6.00    15.99940     O ( 1.00)
        Mn1           15.00    54.93800     Mn( 1.00)
        H2             1.00     1.00794     H ( 1.00)

     Starting magnetic structure
     atomic species   magnetization
        O0           0.000
        Mn1          0.600
        H2           0.000

     Simplified LDA+U calculation (l_max = 2) with parameters (eV):
     atomic species    L          U    alpha       J0     beta
        Mn1            2     8.0000   0.0000   0.0000   0.0000

     No symmetry found

   Cartesian axes

     site n.     atom                  positions (alat units)
         1           O0  tau(   1) = (   0.0000000   0.0000000   1.7437224  )
         2           O0  tau(   2) = (   0.0000000   0.5427791   1.8429044  )
         3           Mn1 tau(   3) = (   0.2500000   0.5427791   2.0790891  )
         4           Mn1 tau(   4) = (   0.0000000   0.0000000   2.0720409  )
         5           O0  tau(   5) = (   0.2500000   0.8684466   2.0701982  )
         6           O0  tau(   6) = (   0.2500000   0.2171117   2.0775689  )
         7           O0  tau(   7) = (   0.0000000   0.5427791   2.2916415  )
         8           O0  tau(   8) = (   0.0000000   0.0000000   2.4165748  )
         9           Mn1 tau(   9) = (   0.2500000   0.0000000   2.6429013  )
        10           Mn1 tau(  10) = (   0.0000000   0.5427791   2.6202364  )
        11           O0  tau(  11) = (   0.2500000   0.7598908   2.6530821  )
        12           O0  tau(  12) = (   0.2500000   0.3256675   2.6691594  )
        13           O0  tau(  13) = (   0.0000000   0.0000000   2.8472538  )
        14           O0  tau(  14) = (   0.5000000   0.0000000   1.7445516  )
        15           O0  tau(  15) = (   0.5000000   0.5427791   1.8431808  )
        16           Mn1 tau(  16) = (   0.7500000   0.5427791   2.0791352  )
        17           Mn1 tau(  17) = (   0.5000000   0.0000000   2.0732386  )
        18           O0  tau(  18) = (   0.7500000   0.8684466   2.0702443  )
        19           O0  tau(  19) = (   0.7500000   0.2171117   2.0776150  )
        20           O0  tau(  20) = (   0.5000000   0.5427791   2.2991504  )
        21           O0  tau(  21) = (   0.5000000   0.0000000   2.4162063  )
        22           Mn1 tau(  22) = (   0.7500000   0.0000000   2.6429474  )
        23           Mn1 tau(  23) = (   0.5000000   0.5427791   2.6555697  )
        24           O0  tau(  24) = (   0.7500000   0.7598908   2.6530360  )
        25           O0  tau(  25) = (   0.7500000   0.3256675   2.6692055  )
        26           O0  tau(  26) = (   0.5000000   0.0000000   2.8451348  )
        27           H2  tau(  27) = (   0.0001200   0.7023996   1.7685525  )
        28           H2  tau(  28) = (   0.5001300   0.7024539   1.7688749  )
        29           H2  tau(  29) = (   0.1617300   0.0395469   1.6903309  )
        30           H2  tau(  30) = (   0.6616200   0.0396554   1.6909759  )
        31           O0  tau(  31) = (   0.4997000   0.5889697   2.9894622  )
        32           O0  tau(  32) = (   0.5006400   0.3801951   3.1245302  )
        33           H2  tau(  33) = (   0.4997200   0.4495948   3.2842900  )

     number of k points=    20  Methfessel-Paxton smearing, width (Ry)=  0.0100
                       cart. coord. in units 2pi/alat
        k(    1) = (   0.0000000   0.0000000   0.0000000), wk =   0.0625000
        k(    2) = (   0.0000000   0.2302962   0.0000000), wk =   0.1250000
        k(    3) = (   0.0000000  -0.4605925   0.0000000), wk =   0.0625000
        k(    4) = (   0.2500000   0.0000000   0.0000000), wk =   0.1250000
        k(    5) = (   0.2500000   0.2302962   0.0000000), wk =   0.1250000
        k(    6) = (   0.2500000  -0.4605925   0.0000000), wk =   0.1250000
        k(    7) = (  -0.5000000   0.0000000   0.0000000), wk =   0.0625000
        k(    8) = (  -0.5000000   0.2302962   0.0000000), wk =   0.1250000
        k(    9) = (  -0.5000000  -0.4605925   0.0000000), wk =   0.0625000
        k(   10) = (  -0.2500000   0.2302962   0.0000000), wk =   0.1250000
        k(   11) = (   0.0000000   0.0000000   0.0000000), wk =   0.0625000
        k(   12) = (   0.0000000   0.2302962   0.0000000), wk =   0.1250000
        k(   13) = (   0.0000000  -0.4605925   0.0000000), wk =   0.0625000
        k(   14) = (   0.2500000   0.0000000   0.0000000), wk =   0.1250000
        k(   15) = (   0.2500000   0.2302962   0.0000000), wk =   0.1250000
        k(   16) = (   0.2500000  -0.4605925   0.0000000), wk =   0.1250000
        k(   17) = (  -0.5000000   0.0000000   0.0000000), wk =   0.0625000
        k(   18) = (  -0.5000000   0.2302962   0.0000000), wk =   0.1250000
        k(   19) = (  -0.5000000  -0.4605925   0.0000000), wk =   0.0625000
        k(   20) = (  -0.2500000   0.2302962   0.0000000), wk =   0.1250000

     Largest allocated arrays     est. size (Mb)     dimensions
     Largest temporary arrays     est. size (Mb)     dimensions

     Check: negative/imaginary core charge=   -0.000022    0.000000

     Initial potential from superposition of free atoms
     Check: negative starting charge=(component1):   -0.000638
     Check: negative starting charge=(component2):   -0.000356

     starting charge  236.99986, renormalised to  245.00000

     negative rho (up, down):  0.660E-03 0.368E-03
     Number of +U iterations with fixed ns =  0
     Starting occupations:
 --- enter write_ns ---
 LDA+U parameters:
U( 2)     =  8.00000000
alpha( 2) =  0.00000000
atom    3   Tr[ns(na)] (up, down, total) =   5.00000  0.00000  5.00000
   spin  1
    eigenvalues:
  1.000  1.000  1.000  1.000  1.000
    eigenvectors:
  1.000  0.000  0.000  0.000  0.000
  0.000  1.000  0.000  0.000  0.000
  0.000  0.000  1.000  0.000  0.000
  0.000  0.000  0.000  1.000  0.000
  0.000  0.000  0.000  0.000  1.000
    occupations:
  1.000  0.000  0.000  0.000  0.000
  0.000  1.000  0.000  0.000  0.000
  0.000  0.000  1.000  0.000  0.000
  0.000  0.000  0.000  1.000  0.000
  0.000  0.000  0.000  0.000  1.000
   spin  2
    eigenvalues:
  0.000  0.000  0.000  0.000  0.000
    eigenvectors:
  1.000  0.000  0.000  0.000  0.000
  0.000  1.000  0.000  0.000  0.000
  0.000  0.000  1.000  0.000  0.000
  0.000  0.000  0.000  1.000  0.000
  0.000  0.000  0.000  0.000  1.000
    occupations:
  0.000  0.000  0.000  0.000  0.000
  0.000  0.000  0.000  0.000  0.000
  0.000  0.000  0.000  0.000  0.000
  0.000  0.000  0.000  0.000  0.000
  0.000  0.000  0.000  0.000  0.000
atomic mag. moment =     5.000000
atom    4   Tr[ns(na)] (up, down, total) =   5.00000  0.00000  5.00000
   spin  1
    eigenvalues:
  1.000  1.000  1.000  1.000  1.000
    eigenvectors:
  1.000  0.000  0.000  0.000  0.000
  0.000  1.000  0.000  0.000  0.000
  0.000  0.000  1.000  0.000  0.000
  0.000  0.000  0.000  1.000  0.000
  0.000  0.000  0.000  0.000  1.000
    occupations:
  1.000  0.000  0.000  0.000  0.000
  0.000  1.000  0.000  0.000  0.000
  0.000  0.000  1.000  0.000  0.000
  0.000  0.000  0.000  1.000  0.000
  0.000  0.000  0.000  0.000  1.000
   spin  2
    eigenvalues:
  0.000  0.000  0.000  0.000  0.000
    eigenvectors:
  1.000  0.000  0.000  0.000  0.000
  0.000  1.000  0.000  0.000  0.000
  0.000  0.000  1.000  0.000  0.000
  0.000  0.000  0.000  1.000  0.000
  0.000  0.000  0.000  0.000  1.000
    occupations:
  0.000  0.000  0.000  0.000  0.000
  0.000  0.000  0.000  0.000  0.000
  0.000  0.000  0.000  0.000  0.000
[...]
  0.000  0.006  0.000  0.000  0.065
atomic mag. moment =     3.885541
atom    4   Tr[ns(na)] (up, down, total) =   4.59593  0.69805  5.29398
   spin  1
    eigenvalues:
  0.762  0.829  0.997  1.003  1.004
    eigenvectors:
  0.000  0.997  0.001  0.002  0.000
  0.001  0.001  0.000  0.737  0.261
  0.000  0.001  0.000  0.261  0.738
  0.000  0.001  0.998  0.000  0.000
  0.999  0.000  0.000  0.000  0.000
    occupations:
  0.829 -0.004 -0.006  0.006 -0.001
 -0.004  1.003 -0.001  0.000  0.006
 -0.006 -0.001  1.004  0.000  0.000
  0.006  0.000  0.000  0.997  0.000
 -0.001  0.006  0.000  0.000  0.762
   spin  2
    eigenvalues:
  0.059  0.062  0.067  0.218  0.292
    eigenvectors:
  0.009  0.002  0.000  0.989  0.000
  0.048  0.034  0.915  0.001  0.003
  0.498  0.419  0.082  0.001  0.000
  0.445  0.546  0.000  0.009  0.000
  0.000  0.000  0.002  0.000  0.997
    occupations:
  0.216  0.004  0.006 -0.015  0.000
  0.004  0.067 -0.002  0.000 -0.011
  0.006 -0.002  0.061  0.001  0.000
 -0.015  0.000  0.001  0.062  0.000
  0.000 -0.011  0.000  0.000  0.292
atomic mag. moment =     3.897876
atom    9   Tr[ns(na)] (up, down, total) =   4.56841  0.74528  5.31369
   spin  1
    eigenvalues:
  0.780  0.797  0.994  0.996  1.001
    eigenvectors:
  0.241  0.000  0.000  0.000  0.759
  0.001  0.999  0.000  0.000  0.000
  0.000  0.000  0.008  0.991  0.000
  0.759  0.000  0.000  0.000  0.241
  0.000  0.000  0.991  0.009  0.000
    occupations:
  0.948 -0.001  0.000 -0.095  0.000
 -0.001  0.797  0.000  0.000  0.001
  0.000  0.000  0.996  0.000  0.000
 -0.095  0.000  0.000  0.833  0.000
  0.000  0.001  0.000  0.000  0.994
   spin  2
    eigenvalues:
  0.059  0.068  0.076  0.265  0.276
    eigenvectors:
  0.800  0.000  0.000  0.000  0.200
  0.000  0.000  0.000  0.998  0.002
  0.000  0.000  1.000  0.000  0.000
  0.200  0.000  0.000  0.001  0.798
  0.000  1.000  0.000  0.000  0.000
    occupations:
  0.103  0.000  0.000  0.087  0.000
  0.000  0.265  0.000 -0.001  0.000
  0.000  0.000  0.076  0.001  0.000
  0.087 -0.001  0.001  0.233  0.000
  0.000  0.000  0.000  0.000  0.068
atomic mag. moment =     3.823127
atom   10   Tr[ns(na)] (up, down, total) =   4.74823  0.49758  5.24581
   spin  1
    eigenvalues:
  0.781  0.971  0.998  0.998  1.000
    eigenvectors:
  0.000  0.965  0.000  0.000  0.035
  0.000  0.000  0.993  0.007  0.000
  0.000  0.000  0.007  0.991  0.002
  0.000  0.035  0.000  0.002  0.963
  1.000  0.000  0.000  0.000  0.000
    occupations:
  0.972  0.000  0.000  0.005  0.000
  0.000  0.998  0.000  0.000 -0.001
  0.000  0.000  0.998  0.000  0.000
  0.005  0.000  0.000  0.999  0.000
  0.000 -0.001  0.000  0.000  0.781
   spin  2
    eigenvalues:
  0.048  0.054  0.060  0.103  0.233
    eigenvectors:
  0.048  0.000  0.000  0.952  0.000
  0.000  0.000  1.000  0.000  0.000
  0.000  1.000  0.000  0.000  0.000
  0.952  0.000  0.000  0.048  0.000
  0.000  0.000  0.000  0.000  1.000
    occupations:
  0.100  0.000  0.000 -0.012  0.000
  0.000  0.060  0.000  0.000  0.001
  0.000  0.000  0.054  0.000  0.000
 -0.012  0.000  0.000  0.051  0.000
  0.000  0.001  0.000  0.000  0.233
atomic mag. moment =     4.250646
atom   16   Tr[ns(na)] (up, down, total) =   4.59194  0.70653  5.29848
   spin  1
    eigenvalues:
  0.777  0.811  0.999  1.001  1.003
    eigenvectors:
  0.252  0.002  0.000  0.367  0.378
  0.006  0.993  0.001  0.000  0.000
  0.000  0.000  0.002  0.508  0.490
  0.741  0.004  0.000  0.123  0.132
  0.000  0.001  0.996  0.002  0.000
    occupations:
  0.945  0.000  0.000 -0.098  0.000
  0.000  0.811  0.000  0.003 -0.006
  0.000  0.000  1.002  0.001  0.000
 -0.098  0.003  0.001  0.834  0.000
  0.000 -0.006  0.000  0.000  0.999
   spin  2
    eigenvalues:
  0.052  0.064  0.072  0.234  0.284
    eigenvectors:
  0.768  0.000  0.000  0.001  0.231
  0.000  0.001  0.000  0.997  0.002
  0.001  0.003  0.995  0.000  0.001
  0.231  0.000  0.002  0.001  0.767
  0.000  0.996  0.003  0.001  0.000
    occupations:
  0.106  0.000 -0.003  0.098  0.000
  0.000  0.234  0.000 -0.002  0.006
 -0.003  0.000  0.072 -0.005  0.000
  0.098 -0.002 -0.005  0.230  0.000
  0.000  0.006  0.000  0.000  0.065
atomic mag. moment =     3.885406
atom   17   Tr[ns(na)] (up, down, total) =   4.59611  0.69784  5.29395
   spin  1
    eigenvalues:
  0.762  0.829  0.997  1.003  1.004
    eigenvectors:
  0.000  0.997  0.001  0.002  0.000
  0.001  0.001  0.000  0.692  0.306
  0.000  0.001  0.000  0.306  0.693
  0.000  0.001  0.998  0.000  0.000
  0.999  0.000  0.000  0.000  0.000
    occupations:
  0.829 -0.005 -0.006  0.006  0.000
 -0.005  1.003 -0.001  0.000  0.006
 -0.006 -0.001  1.004  0.000  0.000
  0.006  0.000  0.000  0.997  0.000
  0.000  0.006  0.000  0.000  0.762
   spin  2
    eigenvalues:
  0.059  0.062  0.067  0.217  0.293
    eigenvectors:
  0.009  0.002  0.000  0.989  0.000
  0.052  0.038  0.908  0.001  0.003
  0.503  0.406  0.090  0.001  0.000
  0.436  0.555  0.000  0.009  0.000
  0.000  0.000  0.002  0.000  0.997
    occupations:
  0.216  0.004  0.006 -0.015  0.000
  0.004  0.067 -0.002  0.000 -0.011
  0.006 -0.002  0.061  0.001  0.000
 -0.015  0.000  0.001  0.062  0.000
  0.000 -0.011  0.000  0.000  0.292
atomic mag. moment =     3.898274
atom   22   Tr[ns(na)] (up, down, total) =   4.56841  0.74525  5.31365
   spin  1
    eigenvalues:
  0.780  0.797  0.994  0.996  1.001
    eigenvectors:
  0.240  0.001  0.000  0.000  0.759
  0.003  0.997  0.000  0.000  0.000
  0.000  0.000  0.008  0.992  0.000
  0.757  0.002  0.000  0.000  0.241
  0.000  0.000  0.992  0.008  0.000
    occupations:
  0.948  0.001  0.000 -0.095  0.000
  0.001  0.797  0.000  0.001  0.001
  0.000  0.000  0.996  0.000  0.000
 -0.095  0.001  0.000  0.833  0.000
  0.000  0.001  0.000  0.000  0.994
   spin  2
    eigenvalues:
  0.059  0.068  0.076  0.265  0.276
    eigenvectors:
  0.800  0.000  0.000  0.001  0.200
  0.000  0.000  0.000  0.998  0.002
  0.000  0.000  1.000  0.000  0.000
  0.200  0.000  0.000  0.002  0.798
  0.000  1.000  0.000  0.000  0.000
    occupations:
  0.103  0.000  0.000  0.087  0.000
  0.000  0.265  0.000  0.001  0.000
  0.000  0.000  0.076  0.001  0.000
  0.087  0.001  0.001  0.233  0.000
  0.000  0.000  0.000  0.000  0.068
atomic mag. moment =     3.823157
atom   23   Tr[ns(na)] (up, down, total) =   4.73182  0.51411  5.24593
   spin  1
    eigenvalues:
  0.763  0.971  0.999  1.000  1.000
    eigenvectors:
  0.000  0.962  0.000  0.000  0.037
  0.000  0.000  0.000  0.996  0.004
  0.000  0.000  0.998  0.000  0.002
  0.000  0.038  0.002  0.004  0.957
  1.000  0.000  0.000  0.000  0.000
    occupations:
  0.972  0.000  0.000  0.006  0.000
  0.000  1.000  0.000  0.000 -0.001
  0.000  0.000  0.999  0.000  0.000
  0.006  0.000  0.000  0.999  0.000
  0.000 -0.001  0.000  0.000  0.763
   spin  2
    eigenvalues:
  0.050  0.052  0.058  0.103  0.252
    eigenvectors:
  0.000  0.054  0.000  0.945  0.000
  0.000  0.000  1.000  0.000  0.000
  0.995  0.005  0.000  0.000  0.000
  0.004  0.941  0.000  0.055  0.000
  0.000  0.000  0.000  0.000  1.000
    occupations:
  0.100  0.000  0.000 -0.012  0.000
  0.000  0.058  0.000  0.000  0.001
  0.000  0.000  0.050  0.000  0.000
 -0.012  0.000  0.000  0.054  0.000
  0.000  0.001  0.000  0.000  0.252
atomic mag. moment =     4.217706
N of occupied +U levels =  42.3040398
 --- exit write_ns ---

 ------ SPIN UP ------------

[...]

 ------ SPIN DOWN ----------

[...]

          k = 0.2500-0.4606 0.0000 ( 26462 PWs)   bands (ev):

[...]

          k =-0.2500 0.2303 0.0000 ( 26396 PWs)   bands (ev):

   -78.7980 -78.7902 -78.7877 -78.7801 -78.6934 -78.6848 -78.0371 -77.9877
   -47.7068 -47.6949 -47.6837 -47.6813 -47.6701 -47.6545 -47.6466 -47.5978
   -47.5948 -47.5884 -47.5580 -47.5405 -47.5398 -47.5233 -47.5150 -47.4994
   -47.3449 -47.3369 -47.1290 -47.0057 -47.0007 -46.9343 -46.5601 -46.5458
   -25.6922 -20.6849 -20.2646 -20.1710 -20.0502 -19.6157 -19.5555 -19.5479
   -19.4893 -19.2814 -19.2316 -19.1862 -19.1163 -18.9403 -18.8944 -18.8373
   -18.7674 -18.7450 -18.6104 -17.4003  -9.6054  -7.8987  -7.6828  -7.5684
    -7.4595  -7.3207  -7.3013  -7.1217  -6.9626  -6.7917  -6.5868  -6.4116
    -6.2511  -6.0962  -6.0849  -5.9597  -5.8960  -5.8734  -5.6284  -5.5909
    -5.5147  -5.3932  -5.3149  -5.1769  -5.1553  -5.0011  -4.9545  -4.8112
    -4.7833  -4.7435  -4.6611  -4.5914  -4.5465  -4.4558  -4.3082  -4.3006
    -4.1980  -4.1782  -4.0994  -4.0574  -3.9124  -3.8056  -3.6633  -3.5701
    -3.5606  -3.5441  -3.4698  -3.4073  -3.3001  -3.1502  -3.0726  -2.9145
    -2.8439  -2.7643  -2.5588  -2.5424  -2.5133  -2.4872  -2.2472   2.9806
     3.1885   3.3084   3.3739   3.3898   3.5184   3.5213   3.5521   3.5872
     3.6472   3.6565   3.7183   3.7247   3.7650   3.7821   3.8119   3.8546
     3.8937   4.0051   4.0607   4.0971   4.1105   4.1708   4.2521   4.2742
     4.3519   4.4086   4.4358   4.4662   4.5224   4.5317   4.5917   4.6169
     4.6457   4.6756   4.7373   4.7647   4.7851   4.8670   4.9224   4.9371
     4.9443   5.0526   5.1024   5.1663   5.3757   5.6847   5.8266   6.1580
     6.3245   6.4282   6.5548   6.6902   6.7768   7.0055   7.1704   7.5266
     7.6865   7.7527   7.8845   8.0821   8.2586   8.4010   8.4954   8.7065
     8.7237   8.8375   8.9503   9.0951   9.2702   9.4895   9.6169   9.6444
     9.7152   9.9025   9.9872  10.0550  10.1340  10.2245  10.2464  10.4101
    10.6191  10.7721  10.8272  10.9047  11.0466  11.1649  11.2157  11.2981
    11.3571  11.5793  11.5983  11.6110  11.7105  11.7767  11.9325  11.9663
    12.0205  12.1664  12.2669  12.2967  12.3503  12.4426  12.4812  12.5810
    12.6328  12.9433  12.9916  13.0647  13.1076  13.1440  13.2788  13.3829
    13.4207  13.4702  13.5340  13.6065  13.6805  13.7583  13.8089  13.9087
    14.0218  14.0565  14.1047  14.2226  14.3004  14.3531  14.4164  14.4400
    14.5099  14.6678  14.7516  14.7717  14.8426  14.8979  15.0099  15.1116
    15.1828  15.3143  15.3694  15.4281  15.4897  15.6112  15.6948  15.7854
    15.8359  15.8794  15.9989  16.0437  16.1341  16.2456  16.3093  16.3845
    16.5059  16.6074  16.6494  16.6985  16.8516  16.8820  17.0117  17.0394
    17.0928  17.1544  17.2279  17.2838  17.4182  17.4645  17.5335  17.6093
    17.6887  17.7028  17.8505  17.9409  17.9530  18.0114  18.1126  18.1623
    18.2458  18.2960  18.3690  18.3932  18.4796  18.5672  18.6706  18.7053
    18.7917  18.8799  18.9616  19.0246  19.0946  19.1399  19.2704  19.3037
    19.3636  19.4749  19.5310  19.6116  19.6364  19.8361  19.9063  19.9780
    20.0618  20.1135  20.1550  20.2068  20.2937  20.3491  20.4113  20.4960
    20.5724  20.6127  20.6998  20.7456  20.7878  20.9168  20.9898  21.1133
    21.1508  21.2836  21.3335  21.3827  21.4572  21.5473  21.6706  21.7412
    21.8057  21.8823  21.9438  21.9859  22.0549  22.1135  22.1768  22.2375
    22.3223  22.3813  22.4241  22.5249  22.6176  22.6905  22.7396  22.7937
    22.9073  22.9720  23.0320  23.0768  23.1266  23.2034  23.2725  23.3481
    23.4449  23.4978  23.5185  23.6218  23.6704  23.7395  23.7915

     the spin up/dw Fermi energies are    -1.5702    0.7051 ev

!    total energy              =   -2351.52968139 Ry
     Harris-Foulkes estimate   =   -2351.52968140 Ry
     estimated scf accuracy    <          4.2E-09 Ry

     The total energy is the sum of the following terms:

     one-electron contribution =  -25324.21481435 Ry
     hartree contribution      =   12692.13136543 Ry
     xc contribution           =    -357.06449175 Ry
     ewald contribution        =   10635.66993916 Ry
     Hubbard energy            =       1.94894035 Ry
     smearing contrib. (-TS)   =      -0.00062023 Ry

     total magnetization       =    23.00 Bohr mag/cell
     absolute magnetization    =    41.14 Bohr mag/cell

     convergence has been achieved in  19 iterations

     Forces acting on atoms (Ry/au):

     negative rho (up, down):  0.124E-02 0.132E-02
     atom    1 type  1   force =    -0.00281824   -0.00931632    0.00017604
     atom    2 type  1   force =     0.00054211    0.00471783    0.00016429
     atom    3 type  2   force =     0.00229700    0.00240198    0.00006882
     atom    4 type  2   force =     0.00464426    0.00746451   -0.00024093
     atom    5 type  1   force =     0.00113629    0.00825272   -0.00018980
     atom    6 type  1   force =    -0.00110381   -0.01322250    0.00001835
     atom    7 type  1   force =     0.00010492    0.00404048   -0.00082381
     atom    8 type  1   force =    -0.00118036   -0.00299981    0.00029898
     atom    9 type  2   force =     0.00211775    0.00070476   -0.00064200
     atom   10 type  2   force =    -0.00007690   -0.00181198    0.00002761
     atom   11 type  1   force =    -0.00660073   -0.01090506    0.00018166
     atom   12 type  1   force =    -0.00620541    0.01200506    0.00032021
     atom   13 type  1   force =    -0.00045726   -0.00023263    0.00026747
     atom   14 type  1   force =    -0.00272109   -0.00951323    0.00019903
     atom   15 type  1   force =     0.00057588    0.00447441    0.00006774
     atom   16 type  2   force =    -0.00376463    0.00251644    0.00013411
     atom   17 type  2   force =     0.00462970    0.00755258   -0.00057907
     atom   18 type  1   force =     0.00061195    0.00818790   -0.00027365
     atom   19 type  1   force =    -0.00194603   -0.01318439    0.00004775
     atom   20 type  1   force =     0.00008233    0.00397485   -0.00032734
     atom   21 type  1   force =    -0.00130886   -0.00303597    0.00047359
     atom   22 type  2   force =    -0.00071674    0.00063143   -0.00061286
     atom   23 type  2   force =    -0.00003751   -0.00169765    0.00065396
     atom   24 type  1   force =     0.00664078   -0.01084327    0.00017179
     atom   25 type  1   force =     0.00640675    0.01206955    0.00031954
     atom   26 type  1   force =    -0.00042788   -0.00155558    0.00003941
     atom   27 type  3   force =    -0.00004894   -0.00004510    0.00023111
     atom   28 type  3   force =    -0.00003686    0.00007180    0.00033446
     atom   29 type  3   force =    -0.00015265   -0.00030859   -0.00016584
     atom   30 type  3   force =    -0.00017592   -0.00026080   -0.00008084
     atom   31 type  1   force =    -0.00000923   -0.00033667   -0.00025949
     atom   32 type  1   force =     0.00000570   -0.00008941   -0.00014601
     atom   33 type  3   force =    -0.00000638    0.00029265    0.00014572

     Total force =     0.002008     Total SCF correction =     0.000128

     bfgs converged in  34 scf cycles and  33 bfgs steps
     (criteria: energy < 0.10E-03, force < 0.10E-02)

     End of BFGS Geometry Optimization

     Final energy   =   -2351.5296813938 Ry
Begin final coordinates

ATOMIC_POSITIONS (crystal)
O0       0.000000000   0.000000000   0.367782220    0   0   1
O0       0.000000000   0.500000000   0.387279334    0   0   1
Mn1      0.250000000   0.500000000   0.442209828    0   0   1
Mn1      0.000000000   0.000000000   0.444173033    0   0   1
O0       0.250000000   0.800000000   0.440687957    0   0   1
O0       0.250000000   0.200000000   0.446458996    0   0   1
O0       0.000000000   0.500000000   0.492480166    0   0   1
O0       0.000000000   0.000000000   0.524368984    0   0   1
Mn1      0.250000000   0.000000000   0.574668673    0   0   1
Mn1      0.000000000   0.500000000   0.571142579    0   0   1
O0       0.250000000   0.700000000   0.587073083    0   0   1
O0       0.250000000   0.300000000   0.587613517    0   0   1
O0       0.000000000   0.000000000   0.626144827    0   0   1
O0       0.500000000   0.000000000   0.367693820    0   0   1
O0       0.500000000   0.500000000   0.387510780    0   0   1
Mn1      0.750000000   0.500000000   0.442192399    0   0   1
Mn1      0.500000000   0.000000000   0.444061540    0   0   1
O0       0.750000000   0.800000000   0.440858808    0   0   1
O0       0.750000000   0.200000000   0.446425838    0   0   1
O0       0.500000000   0.500000000   0.493329719    0   0   1
O0       0.500000000   0.000000000   0.524339882    0   0   1
Mn1      0.750000000   0.000000000   0.574667829    0   0   1
Mn1      0.500000000   0.500000000   0.574247247    0   0   1
O0       0.750000000   0.700000000   0.587090112    0   0   1
O0       0.750000000   0.300000000   0.587604483    0   0   1
O0       0.500000000   0.000000000   0.625981921    0   0   1
H2       0.000979363   0.649038384   0.372481725
H2       0.500865638   0.648779667   0.372578512
H2       0.160008053   0.050584027   0.358011818
H2       0.660093302   0.050310461   0.357913012
O0       0.499700000   0.542323675   0.684178668    0   1   1
O0       0.500640000   0.350340452   0.708587596    0   1   1
H2       0.499720000   0.389301493   0.745491092    0   1   1
End final coordinates

     General routines

     Parallel routines
     Hubbard U routines

   This run was terminated on:  18:48: 0  20Sep2014

   JOB DONE.