     Program PWSCF v.5.0.2 (svn rev. 9656) starts on 12Jun2014 at  9: 3:54

     Current dimensions of program PWSCF are:
     Max number of different atomic species (ntypx) = 10
     Max number of k-points (npk) =  40000
     Max angular momentum in pseudopotentials (lmaxx) =  3
     Reading input from pwscf.in
Warning: card &CELL ignored
Warning: card / ignored

     Subspace diagonalization in iterative solution of the eigenvalue problem:
     a serial algorithm will be used

     bravais-lattice index     =            0
     lattice parameter (alat)  =      10.7336  a.u.
     unit-cell volume          =    6184.1966 (a.u.)^3
     number of atoms/cell      =           33
     number of atomic types    =            3
     number of electrons       =       245.00 (up: 134.00, down: 111.00)
     number of Kohn-Sham states=          355
     kinetic-energy cutoff     =      40.0000  Ry
     charge density cutoff     =     500.0000  Ry
     convergence threshold     =      1.0E-06
     mixing beta               =       0.7000
     number of iterations used =            8  plain     mixing
     Exchange-correlation      = SLA  PW   PBE  PBE ( 1 4 3 4 0)
     EXX-fraction              =        0.00
     nstep                     =           50

     celldm(1)=  10.733644  celldm(2)=   0.000000  celldm(3)=   0.000000
     celldm(4)=   0.000000  celldm(5)=   0.000000  celldm(6)=   0.000000

     crystal axes: (cart. coord. in units of alat)
               a(1) = (   1.000000   0.000000   0.000000 )
               a(2) = (   0.000000   1.085558   0.000000 )
               a(3) = (   0.000000   0.000000   4.606685 )

     reciprocal axes: (cart. coord. in units 2 pi/alat)
               b(1) = (  1.000000  0.000000  0.000000 )
               b(2) = (  0.000000  0.921185  0.000000 )
               b(3) = (  0.000000  0.000000  0.217076 )

     PseudoPot. # 1 for O  read from file:
     /home/camp/zhonxu/pseudo/o_pbe_v1.01.uspp.F.UPF
     MD5 check sum: 2bcb18d16ea4b960afae9ec6d52f22d2
     Pseudo is Ultrasoft + core correction, Zval =  6.0
     Generated by new atomic code, or converted to UPF format
     Using radial grid of  737 points,  5 beta functions with:
                l(1) =   0
                l(2) =   0
                l(3) =   1
                l(4) =   1
                l(5) =   2
     Q(r) pseudized with  8 coefficients,  rinner =    0.900   0.900   0.900
                                                       0.900   0.900

     PseudoPot. # 2 for Mn read from file:
     /home/camp/zhonxu/pseudo/mn_pbe_v1.uspp.F.UPF
     MD5 check sum: 5fd7c7b5c956fd19902447332617373a
     Pseudo is Ultrasoft + core correction, Zval = 15.0
     Generated by new atomic code, or converted to UPF format
     Using radial grid of  859 points,  6 beta functions with:
                l(1) =   0
                l(2) =   0
                l(3) =   1
                l(4) =   1
                l(5) =   2
                l(6) =   2
     Q(r) pseudized with  6 coefficients,  rinner =    1.150   1.150   1.150
                                                       1.150   1.150

     PseudoPot. # 3 for H  read from file:
     /home/camp/zhonxu/pseudo/h_pbe_v1.uspp.F.UPF
     MD5 check sum: 3408e3ff4ec8b0a4e358431e7e038a48
     Pseudo is Ultrasoft, Zval =  1.0
     Generated by new atomic code, or converted to UPF format
     Using radial grid of  615 points,  2 beta functions with:
                l(1) =   0
                l(2) =   0
     Q(r) pseudized with  8 coefficients,  rinner =    0.700

     atomic species   valence    mass     pseudopotential
        O0             6.00    15.99940     O ( 1.00)
        Mn1           15.00    54.93800     Mn( 1.00)
        H2             1.00     1.00794     H ( 1.00)

     Starting magnetic structure
     atomic species   magnetization
        O0           0.000
        Mn1          0.600
        H2           0.000

     Simplified LDA+U calculation (l_max = 2) with parameters (eV):
     atomic species    L          U    alpha       J0     beta
        Mn1            2     8.0000   0.0000   0.0000   0.0000

     No symmetry found

   Cartesian axes

     site n.     atom                  positions (alat units)
         1           O0  tau(   1) = (   0.0000000   0.0000000   1.6947073  )
         2           O0  tau(   2) = (   0.0000000   0.5427791   1.7854590  )
         3           Mn1 tau(   3) = (   0.2500000   0.5427791   2.0392413  )
         4           Mn1 tau(   4) = (   0.0000000   0.0000000   2.0465659  )
         5           O0  tau(   5) = (   0.2500000   0.8684466   2.0285077  )
         6           O0  tau(   6) = (   0.2500000   0.2171117   2.0575298  )
         7           O0  tau(   7) = (   0.0000000   0.5427791   2.2699901  )
         8           O0  tau(   8) = (   0.0000000   0.0000000   2.4156074  )
         9           Mn1 tau(   9) = (   0.2500000   0.0000000   2.6472316  )
        10           Mn1 tau(  10) = (   0.0000000   0.5427791   2.6321216  )
        11           O0  tau(  11) = (   0.2500000   0.7598908   2.7062432  )
        12           O0  tau(  12) = (   0.2500000   0.3256675   2.7085465  )
        13           O0  tau(  13) = (   0.0000000   0.0000000   2.8850287  )
        14           O0  tau(  14) = (   0.5000000   0.0000000   1.6942006  )
        15           O0  tau(  15) = (   0.5000000   0.5427791   1.7873017  )
        16           Mn1 tau(  16) = (   0.7500000   0.5427791   2.0391952  )
        17           Mn1 tau(  17) = (   0.5000000   0.0000000   2.0459670  )
        18           O0  tau(  18) = (   0.7500000   0.8684466   2.0286459  )
        19           O0  tau(  19) = (   0.7500000   0.2171117   2.0573916  )
        20           O0  tau(  20) = (   0.5000000   0.5427791   2.2753800  )
        21           O0  tau(  21) = (   0.5000000   0.0000000   2.4155153  )
        22           Mn1 tau(  22) = (   0.7500000   0.0000000   2.6472316  )
        23           Mn1 tau(  23) = (   0.5000000   0.5427791   2.6503180  )
        24           O0  tau(  24) = (   0.7500000   0.7598908   2.7063814  )
        25           O0  tau(  25) = (   0.7500000   0.3256675   2.7084544  )
        26           O0  tau(  26) = (   0.5000000   0.0000000   2.8839691  )
        27           H2  tau(  27) = (   0.0006700   0.7050701   1.7183396  )
        28           H2  tau(  28) = (   0.5007200   0.7047227   1.7194913  )
        29           H2  tau(  29) = (   0.1604400   0.0534420   1.6494697  )
        30           H2  tau(  30) = (   0.6604900   0.0532792   1.6490090  )
        31           O0  tau(  31) = (   0.4989700   0.5842909   3.1389031  )
        32           O0  tau(  32) = (   0.5015200   0.3784582   3.2559589  )
        33           H2  tau(  33) = (   0.4990600   0.4251698   3.4247479  )

     number of k points=    20  Methfessel-Paxton smearing, width (Ry)=  0.0100
                       cart. coord. in units 2pi/alat
        k(    1) = (   0.0000000   0.0000000   0.0000000), wk =   0.0625000
        k(    2) = (   0.0000000   0.2302962   0.0000000), wk =   0.1250000
        k(    3) = (   0.0000000  -0.4605925   0.0000000), wk =   0.0625000
        k(    4) = (   0.2500000   0.0000000   0.0000000), wk =   0.1250000
        k(    5) = (   0.2500000   0.2302962   0.0000000), wk =   0.1250000
        k(    6) = (   0.2500000  -0.4605925   0.0000000), wk =   0.1250000
        k(    7) = (  -0.5000000   0.0000000   0.0000000), wk =   0.0625000
        k(    8) = (  -0.5000000   0.2302962   0.0000000), wk =   0.1250000
        k(    9) = (  -0.5000000  -0.4605925   0.0000000), wk =   0.0625000
        k(   10) = (  -0.2500000   0.2302962   0.0000000), wk =   0.1250000
        k(   11) = (   0.0000000   0.0000000   0.0000000), wk =   0.0625000
        k(   12) = (   0.0000000   0.2302962   0.0000000), wk =   0.1250000
        k(   13) = (   0.0000000  -0.4605925   0.0000000), wk =   0.0625000
        k(   14) = (   0.2500000   0.0000000   0.0000000), wk =   0.1250000
        k(   15) = (   0.2500000   0.2302962   0.0000000), wk =   0.1250000
        k(   16) = (   0.2500000  -0.4605925   0.0000000), wk =   0.1250000
        k(   17) = (  -0.5000000   0.0000000   0.0000000), wk =   0.0625000
        k(   18) = (  -0.5000000   0.2302962   0.0000000), wk =   0.1250000
        k(   19) = (  -0.5000000  -0.4605925   0.0000000), wk =   0.0625000
        k(   20) = (  -0.2500000   0.2302962   0.0000000), wk =   0.1250000

     Largest allocated arrays     est. size (Mb)     dimensions
     Largest temporary arrays     est. size (Mb)     dimensions

     Check: negative/imaginary core charge=   -0.000023    0.000000

     Initial potential from superposition of free atoms
     Check: negative starting charge=(component1):   -0.000578
     Check: negative starting charge=(component2):   -0.000325

     starting charge  236.99986, renormalised to  245.00000

     negative rho (up, down):  0.597E-03 0.336E-03
     Number of +U iterations with fixed ns =  0
     Starting occupations:
 --- enter write_ns ---
 LDA+U parameters:
U( 2)     =  8.00000000
alpha( 2) =  0.00000000
atom    3   Tr[ns(na)] (up, down, total) =   5.00000  0.00000  5.00000
   spin  1
    eigenvalues:
  1.000  1.000  1.000  1.000  1.000
    eigenvectors:
  1.000  0.000  0.000  0.000  0.000
  0.000  1.000  0.000  0.000  0.000
  0.000  0.000  1.000  0.000  0.000
  0.000  0.000  0.000  1.000  0.000
  0.000  0.000  0.000  0.000  1.000
    occupations:
  1.000  0.000  0.000  0.000  0.000
  0.000  1.000  0.000  0.000  0.000
  0.000  0.000  1.000  0.000  0.000
  0.000  0.000  0.000  1.000  0.000
  0.000  0.000  0.000  0.000  1.000
   spin  2
    eigenvalues:
  0.000  0.000  0.000  0.000  0.000
    eigenvectors:
  1.000  0.000  0.000  0.000  0.000
  0.000  1.000  0.000  0.000  0.000
  0.000  0.000  1.000  0.000  0.000
  0.000  0.000  0.000  1.000  0.000
  0.000  0.000  0.000  0.000  1.000
    occupations:
  0.000  0.000  0.000  0.000  0.000
  0.000  0.000  0.000  0.000  0.000
  0.000  0.000  0.000  0.000  0.000
  0.000  0.000  0.000  0.000  0.000
  0.000  0.000  0.000  0.000  0.000
atomic mag. moment =     5.000000
atom    4   Tr[ns(na)] (up, down, total) =   5.00000  0.00000  5.00000
   spin  1
    eigenvalues:
  1.000  1.000  1.000  1.000  1.000
    eigenvectors:
  1.000  0.000  0.000  0.000  0.000
  0.000  1.000  0.000  0.000  0.000
  0.000  0.000  1.000  0.000  0.000
  0.000  0.000  0.000  1.000  0.000
  0.000  0.000  0.000  0.000  1.000
    occupations:
  1.000  0.000  0.000  0.000  0.000
  0.000  1.000  0.000  0.000  0.000
  0.000  0.000  1.000  0.000  0.000
  0.000  0.000  0.000  1.000  0.000
  0.000  0.000  0.000  0.000  1.000
   spin  2
    eigenvalues:
  0.000  0.000  0.000  0.000  0.000
    eigenvectors:
  1.000  0.000  0.000  0.000  0.000
  0.000  1.000  0.000  0.000  0.000
  0.000  0.000  1.000  0.000  0.000
  0.000  0.000  0.000  1.000  0.000
  0.000  0.000  0.000  0.000  1.000
    occupations:
  0.000  0.000  0.000  0.000  0.000
  0.000  0.000  0.000  0.000  0.000
  0.000  0.000  0.000  0.000  0.000
  0.000  0.000  0.000  0.000  0.000
  0.000  0.000  0.000  0.000  0.000
atomic mag. moment =     5.000000
[...]
  0.044  0.037  0.915  0.001  0.003
  0.483  0.433  0.082  0.002  0.000
  0.463  0.528  0.000  0.009  0.000
  0.000  0.000  0.003  0.000  0.997
    occupations:
  0.216  0.004  0.006 -0.015  0.000
  0.004  0.067 -0.002  0.000 -0.013
  0.006 -0.002  0.061  0.001  0.000
 -0.015  0.000  0.001  0.062 -0.000
  0.000 -0.013  0.000 -0.000  0.292
atomic mag. moment =     3.897763
atom    9   Tr[ns(na)] (up, down, total) =   4.56944  0.74362  5.31305
   spin  1
    eigenvalues:
  0.781  0.797  0.994  0.996  1.001
    eigenvectors:
  0.240  0.000  0.000  0.000  0.760
  0.001  0.999  0.000  0.000  0.000
  0.000  0.000  0.014  0.986  0.000
  0.759  0.001  0.000  0.000  0.240
  0.000  0.000  0.986  0.014  0.000
    occupations:
  0.948 -0.001 -0.000 -0.094 -0.000
 -0.001  0.797  0.000 -0.000  0.001
 -0.000  0.000  0.996 -0.000  0.000
 -0.094 -0.000 -0.000  0.834  0.000
 -0.000  0.001  0.000  0.000  0.994
   spin  2
    eigenvalues:
  0.059  0.068  0.076  0.265  0.275
    eigenvectors:
  0.800  0.000  0.000  0.001  0.199
  0.000  0.000  0.000  0.995  0.005
  0.000  0.000  1.000  0.000  0.000
  0.200  0.000  0.000  0.004  0.796
  0.000  1.000  0.000  0.000  0.000
    occupations:
  0.103 -0.000  0.000  0.086 -0.000
 -0.000  0.265 -0.000 -0.001 -0.000
  0.000 -0.000  0.076  0.001 -0.000
  0.086 -0.001  0.001  0.232 -0.000
 -0.000 -0.000 -0.000 -0.000  0.068
atomic mag. moment =     3.825817
atom   10   Tr[ns(na)] (up, down, total) =   4.74949  0.49640  5.24590
   spin  1
    eigenvalues:
  0.782  0.971  0.998  0.998  1.000
    eigenvectors:
  0.000  0.964  0.000  0.000  0.036
  0.000  0.000  0.999  0.001  0.000
  0.000  0.000  0.001  0.997  0.002
  0.000  0.036  0.000  0.002  0.962
  1.000  0.000  0.000  0.000  0.000
    occupations:
  0.972 -0.000  0.000  0.005  0.000
 -0.000  0.998  0.000  0.000 -0.001
  0.000  0.000  0.998 -0.000  0.000
  0.005  0.000 -0.000  0.999 -0.000
  0.000 -0.001  0.000 -0.000  0.782
   spin  2
    eigenvalues:
  0.048  0.054  0.060  0.103  0.231
    eigenvectors:
  0.047  0.000  0.000  0.953  0.000
  0.000  0.000  1.000  0.000  0.000
  0.000  1.000  0.000  0.000  0.000
  0.953  0.000  0.000  0.047  0.000
  0.000  0.000  0.000  0.000  1.000
    occupations:
  0.100  0.000 -0.000 -0.012 -0.000
  0.000  0.060 -0.000 -0.000  0.001
 -0.000 -0.000  0.054 -0.000  0.000
 -0.012 -0.000 -0.000  0.050  0.000
 -0.000  0.001  0.000  0.000  0.231
atomic mag. moment =     4.253092
atom   16   Tr[ns(na)] (up, down, total) =   4.59138  0.70755  5.29894
   spin  1
    eigenvalues:
  0.776  0.811  0.999  1.001  1.003
    eigenvectors:
  0.251  0.003  0.000  0.346  0.399
  0.011  0.988  0.001  0.000  0.000
  0.000  0.000  0.002  0.537  0.461
  0.738  0.007  0.000  0.114  0.140
  0.000  0.001  0.996  0.002  0.000
    occupations:
  0.945  0.000 -0.000 -0.098  0.000
  0.000  0.811 -0.000  0.004 -0.006
 -0.000 -0.000  1.002  0.002  0.000
 -0.098  0.004  0.002  0.834  0.000
  0.000 -0.006  0.000  0.000  0.999
   spin  2
    eigenvalues:
  0.052  0.064  0.072  0.235  0.284
    eigenvectors:
  0.769  0.000  0.000  0.001  0.230
  0.000  0.001  0.000  0.996  0.003
  0.001  0.005  0.993  0.000  0.001
  0.231  0.000  0.002  0.002  0.766
  0.000  0.993  0.005  0.001  0.000
    occupations:
  0.106 -0.000 -0.004  0.098  0.000
 -0.000  0.235  0.000 -0.003  0.006
 -0.004  0.000  0.072 -0.006 -0.001
  0.098 -0.003 -0.006  0.230 -0.000
  0.000  0.006 -0.001 -0.000  0.065
atomic mag. moment =     3.883831
atom   17   Tr[ns(na)] (up, down, total) =   4.59597  0.69785  5.29382
   spin  1
    eigenvalues:
  0.762  0.829  0.998  1.003  1.004
    eigenvectors:
  0.000  0.996  0.001  0.002  0.000
  0.001  0.001  0.000  0.796  0.203
  0.000  0.001  0.000  0.202  0.797
  0.000  0.001  0.998  0.000  0.000
  0.999  0.000  0.000  0.001  0.000
    occupations:
  0.830 -0.005 -0.006  0.006 -0.001
 -0.005  1.003 -0.001  0.000  0.006
 -0.006 -0.001  1.004  0.000 -0.000
  0.006  0.000  0.000  0.997 -0.000
 -0.001  0.006 -0.000 -0.000  0.762
   spin  2
    eigenvalues:
  0.059  0.062  0.067  0.218  0.292
    eigenvectors:
  0.009  0.001  0.000  0.989  0.000
  0.048  0.040  0.908  0.001  0.003
  0.486  0.423  0.089  0.002  0.000
  0.456  0.535  0.000  0.009  0.000
  0.000  0.000  0.003  0.000  0.997
    occupations:
  0.216  0.004  0.006 -0.015  0.000
  0.004  0.067 -0.002  0.000 -0.013
  0.006 -0.002  0.061  0.001  0.000
 -0.015  0.000  0.001  0.062 -0.000
  0.000 -0.013  0.000 -0.000  0.292
atomic mag. moment =     3.898118
atom   22   Tr[ns(na)] (up, down, total) =   4.56943  0.74360  5.31304
   spin  1
    eigenvalues:
  0.781  0.797  0.994  0.996  1.001
    eigenvectors:
  0.240  0.001  0.000  0.000  0.760
  0.003  0.996  0.000  0.000  0.000
  0.000  0.000  0.012  0.988  0.000
  0.757  0.003  0.000  0.000  0.240
  0.000  0.000  0.988  0.012  0.000
    occupations:
  0.948  0.001 -0.000 -0.094  0.000
  0.001  0.797  0.000  0.001  0.001
 -0.000  0.000  0.996 -0.000 -0.000
 -0.094  0.001 -0.000  0.834 -0.000
  0.000  0.001 -0.000 -0.000  0.994
   spin  2
    eigenvalues:
  0.059  0.068  0.076  0.265  0.275
    eigenvectors:
  0.800  0.000  0.000  0.001  0.199
  0.000  0.000  0.000  0.994  0.006
  0.000  0.000  1.000  0.000  0.000
  0.200  0.000  0.000  0.004  0.796
  0.000  1.000  0.000  0.000  0.000
    occupations:
  0.103 -0.000  0.000  0.086  0.000
 -0.000  0.265 -0.000  0.001 -0.000
  0.000 -0.000  0.076  0.001  0.000
  0.086  0.001  0.001  0.232  0.000
  0.000 -0.000  0.000  0.000  0.068
atomic mag. moment =     3.825828
atom   23   Tr[ns(na)] (up, down, total) =   4.72899  0.51807  5.24706
   spin  1
    eigenvalues:
  0.761  0.970  0.999  1.000  1.000
    eigenvectors:
  0.000  0.961  0.000  0.039  0.000
  0.000  0.000  0.000  0.000  1.000
  0.000  0.000  0.998  0.002  0.000
  0.000  0.039  0.002  0.959  0.000
  1.000  0.000  0.000  0.000  0.000
    occupations:
  0.971 -0.000  0.000  0.006 -0.000
 -0.000  1.000 -0.000  0.000 -0.001
  0.000 -0.000  0.999 -0.000  0.000
  0.006  0.000 -0.000  0.998  0.000
 -0.000 -0.001  0.000  0.000  0.761
   spin  2
    eigenvalues:
  0.049  0.052  0.058  0.104  0.255
    eigenvectors:
  0.000  0.054  0.000  0.946  0.000
  0.000  0.000  1.000  0.000  0.000
  0.999  0.001  0.000  0.000  0.000
  0.001  0.945  0.000  0.054  0.000
  0.000  0.000  0.000  0.000  1.000
    occupations:
  0.101  0.000 -0.000 -0.012  0.000
  0.000  0.058  0.000 -0.000  0.001
 -0.000  0.000  0.049 -0.000 -0.000
 -0.012 -0.000 -0.000  0.055 -0.000
  0.000  0.001 -0.000 -0.000  0.255
atomic mag. moment =     4.210913
N of occupied +U levels =  42.3044748
 --- exit write_ns ---

 ------ SPIN UP ------------

[...]

 ------ SPIN DOWN ----------

[...]

          k = 0.2500-0.4606 0.0000 ( 26462 PWs)   bands (ev):

[...]

          k =-0.2500 0.2303 0.0000 ( 26396 PWs)   bands (ev):

   -78.7798 -78.7726 -78.7720 -78.7650 -78.6839 -78.6753 -78.0279 -77.9631
   -47.6974 -47.6775 -47.6700 -47.6651 -47.6569 -47.6345 -47.6267 -47.5853
   -47.5803 -47.5726 -47.5484 -47.5303 -47.5236 -47.5064 -47.4993 -47.4835
   -47.3340 -47.3260 -47.1185 -46.9937 -46.9847 -46.9091 -46.5451 -46.5238
   -25.7587 -20.6744 -20.2518 -20.1562 -20.0330 -19.6009 -19.5403 -19.5335
   -19.4716 -19.2635 -19.2153 -19.1719 -19.1003 -18.9256 -18.8772 -18.8230
   -18.7528 -18.7198 -18.5938 -17.4633  -9.6664  -7.8795  -7.6703  -7.6555
    -7.5207  -7.3059  -7.2889  -7.1067  -6.9466  -6.7787  -6.5710  -6.3984
    -6.2329  -6.0773  -6.0681  -5.9423  -5.8784  -5.8587  -5.6103  -5.5741
    -5.5005  -5.3817  -5.2972  -5.1633  -5.1383  -4.9873  -4.9361  -4.7921
    -4.7674  -4.7302  -4.6457  -4.5851  -4.5272  -4.4419  -4.2907  -4.2853
    -4.1841  -4.1583  -4.0812  -4.0398  -3.8932  -3.7886  -3.6430  -3.5554
    -3.5417  -3.5283  -3.4468  -3.3899  -3.2822  -3.1378  -3.0528  -2.9055
    -2.8482  -2.7488  -2.6109  -2.5939  -2.5068  -2.4633  -2.2304   2.9516
     3.2022   3.3201   3.3877   3.4047   3.5335   3.5370   3.5679   3.6033
     3.6659   3.6743   3.7323   3.7407   3.7823   3.7937   3.8247   3.8705
     3.9085   4.0122   4.0613   4.1100   4.1239   4.1861   4.2639   4.2895
     4.3660   4.4076   4.4503   4.4756   4.5303   4.5420   4.5932   4.6306
     4.6633   4.6939   4.7496   4.7784   4.8005   4.8814   4.9371   4.9437
     4.9599   5.0622   5.1133   5.1831   5.3609   5.6733   5.8159   6.1537
     6.3262   6.4302   6.5687   6.6946   6.7818   7.0016   7.1653   7.5242
     7.6853   7.7522   7.8979   8.0818   8.2670   8.3990   8.4980   8.7110
     8.7314   8.8417   8.9485   9.1004   9.2681   9.5055   9.6179   9.6453
     9.7267   9.9043  10.0144  10.0640  10.1404  10.2375  10.2487  10.4190
    10.6200  10.7794  10.8304  10.9050  11.0557  11.1713  11.2073  11.3003
    11.3673  11.5765  11.6036  11.6162  11.7255  11.7782  11.9378  11.9733
    12.0218  12.1693  12.2724  12.3099  12.3676  12.4594  12.4857  12.5849
    12.6390  12.9435  12.9927  13.0622  13.1037  13.1552  13.2896  13.3878
    13.4250  13.4702  13.5355  13.6031  13.6906  13.7625  13.8134  13.9085
    14.0134  14.0588  14.1130  14.2367  14.3099  14.3705  14.4298  14.4438
    14.5166  14.6727  14.7618  14.7767  14.8534  14.9075  15.0141  15.1291
    15.1896  15.3181  15.3778  15.4372  15.4956  15.6153  15.6881  15.7767
    15.8370  15.8843  15.9987  16.0484  16.1397  16.2494  16.3141  16.3898
    16.5104  16.6127  16.6599  16.7020  16.8461  16.8808  17.0131  17.0405
    17.0983  17.1521  17.2306  17.2833  17.4203  17.4678  17.5321  17.6086
    17.6971  17.7061  17.8550  17.9405  17.9533  18.0116  18.1183  18.1417
    18.2389  18.2956  18.3698  18.3946  18.4706  18.5748  18.6801  18.7052
    18.7993  18.8768  18.9693  19.0295  19.1013  19.1495  19.2780  19.3060
    19.3567  19.4768  19.5350  19.6185  19.6413  19.8314  19.9055  19.9813
    20.0633  20.1105  20.1580  20.2054  20.2825  20.3455  20.4062  20.4947
    20.5732  20.6010  20.7034  20.7447  20.7843  20.9186  20.9904  21.1195
    21.1671  21.2953  21.3413  21.3928  21.4591  21.5472  21.6671  21.7481
    21.8061  21.8896  21.9554  21.9802  22.0498  22.1126  22.1687  22.2361
    22.3178  22.3825  22.4154  22.5268  22.6249  22.6920  22.7379  22.8009
    22.9106  22.9803  23.0411

     the spin up/dw Fermi energies are    -1.5525    0.1378 ev

!    total energy              =   -2351.52963905 Ry
     Harris-Foulkes estimate   =   -2351.52963905 Ry
     estimated scf accuracy    <          5.5E-09 Ry

     The total energy is the sum of the following terms:

     one-electron contribution =  -25361.79775807 Ry
     hartree contribution      =   12711.02653428 Ry
     xc contribution           =    -357.06904105 Ry
     ewald contribution        =   10654.36189907 Ry
     Hubbard energy            =       1.94942780 Ry
     smearing contrib. (-TS)   =      -0.00070106 Ry

     total magnetization       =    23.00 Bohr mag/cell
     absolute magnetization    =    41.13 Bohr mag/cell

     convergence has been achieved in  16 iterations

     Forces acting on atoms (Ry/au):

     negative rho (up, down):  0.126E-02 0.134E-02
     atom    1 type  1   force =    -0.00290035   -0.00906302   -0.00004679
     atom    2 type  1   force =     0.00043518    0.00397334   -0.00003841
     atom    3 type  2   force =     0.00303294    0.00267281    0.00052476
     atom    4 type  2   force =     0.00459194    0.00775451    0.00005991
     atom    5 type  1   force =     0.00115704    0.00796491    0.00020199
     atom    6 type  1   force =    -0.00089477   -0.01373483    0.00026565
     atom    7 type  1   force =     0.00008869    0.00475299   -0.00048483
     atom    8 type  1   force =    -0.00127194   -0.00344949    0.00051928
     atom    9 type  2   force =     0.00259428    0.00081597   -0.00062960
     atom   10 type  2   force =    -0.00009030   -0.00185635   -0.00008397
     atom   11 type  1   force =    -0.00798440   -0.00977718   -0.00025328
     atom   12 type  1   force =    -0.00773867    0.01075985   -0.00012980
     atom   13 type  1   force =    -0.00044627   -0.00021108    0.00044887
     atom   14 type  1   force =    -0.00296066   -0.00927401   -0.00011829
     atom   15 type  1   force =     0.00047475    0.00396234   -0.00031367
     atom   16 type  2   force =    -0.00447262    0.00286234    0.00049869
     atom   17 type  2   force =     0.00464241    0.00785863    0.00008912
     atom   18 type  1   force =     0.00057262    0.00791105    0.00020976
     atom   19 type  1   force =    -0.00199963   -0.01380867    0.00025598
     atom   20 type  1   force =     0.00009343    0.00467450   -0.00051963
     atom   21 type  1   force =    -0.00123679   -0.00349962    0.00049879
     atom   22 type  2   force =    -0.00117475    0.00072942   -0.00063068
     atom   23 type  2   force =    -0.00003485   -0.00192150   -0.00078983
     atom   24 type  1   force =     0.00802210   -0.00967642   -0.00027547
     atom   25 type  1   force =     0.00791940    0.01084888   -0.00011147
     atom   26 type  1   force =    -0.00043395   -0.00178814    0.00049008
     atom   27 type  3   force =     0.00004283   -0.00001357   -0.00019705
     atom   28 type  3   force =     0.00002709   -0.00002157   -0.00029547
     atom   29 type  3   force =    -0.00000468    0.00006821   -0.00014195
     atom   30 type  3   force =    -0.00003514    0.00004206   -0.00009655
     atom   31 type  1   force =    -0.00001902    0.00038791    0.00049949
     atom   32 type  1   force =     0.00001005    0.00024736    0.00044955
     atom   33 type  3   force =    -0.00000597   -0.00019164    0.00014482

     Total force =     0.002195     Total SCF correction =     0.000286
     SCF correction compared to forces is large: reduce conv_thr to get better values

     entering subroutine stress ...

     negative rho (up, down):  0.126E-02 0.134E-02
          total   stress  (Ry/bohr**3)                   (kbar)     P=   45.97
   0.00050733  -0.00000077   0.00000189         74.63     -0.11      0.28
  -0.00000077   0.00046879   0.00000383         -0.11     68.96      0.56
   0.00000189   0.00000383  -0.00003856          0.28      0.56     -5.67

     bfgs converged in   4 scf cycles and   3 bfgs steps
     (criteria: energy < 0.10E-03, force < 0.10E-02)

     End of BFGS Geometry Optimization

     Final energy   =   -2351.5296390487 Ry
Begin final coordinates

ATOMIC_POSITIONS (crystal)
O0       0.000000000   0.000000000   0.367861208    0   0   1
O0       0.000000000   0.500000000   0.387682087    0   0   1
Mn1      0.250000000   0.500000000   0.442616317    0   0   1
Mn1      0.000000000   0.000000000   0.444261101    0   0   1
O0       0.250000000   0.800000000   0.440363977    0   0   1
O0       0.250000000   0.200000000   0.446669579    0   0   1
O0       0.000000000   0.500000000   0.492768339    0   0   1
O0       0.000000000   0.000000000   0.524412649    0   0   1
Mn1      0.250000000   0.000000000   0.574739802    0   0   1
Mn1      0.000000000   0.500000000   0.571313284    0   0   1
O0       0.250000000   0.700000000   0.587432705    0   0   1
O0       0.250000000   0.300000000   0.587951445    0   0   1
O0       0.000000000   0.000000000   0.626230028    0   0   1
O0       0.500000000   0.000000000   0.367757873    0   0   1
O0       0.500000000   0.500000000   0.388009233    0   0   1
Mn1      0.750000000   0.500000000   0.442617044    0   0   1
Mn1      0.500000000   0.000000000   0.444111110    0   0   1
O0       0.750000000   0.800000000   0.440394922    0   0   1
O0       0.750000000   0.200000000   0.446639616    0   0   1
O0       0.500000000   0.500000000   0.493866802    0   0   1
O0       0.500000000   0.000000000   0.524380340    0   0   1
Mn1      0.750000000   0.000000000   0.574739149    0   0   1
Mn1      0.500000000   0.500000000   0.575191893    0   0   1
O0       0.750000000   0.700000000   0.587459045    0   0   1
O0       0.750000000   0.300000000   0.587934559    0   0   1
O0       0.500000000   0.000000000   0.625994661    0   0   1
H2       0.000704697   0.649212854   0.372992786
H2       0.500734619   0.649034376   0.373223036
H2       0.160413213   0.049275793   0.358039523
H2       0.660474876   0.049122964   0.357944497
O0       0.498957959   0.538443800   0.681453369
O0       0.501527421   0.348725150   0.706815060
H2       0.499054055   0.391608386   0.743472961
End final coordinates

     General routines

     Parallel routines
     Hubbard U routines

   This run was terminated on:  16:30:42  12Jun2014

   JOB DONE.
Running PBS batch system epilogue script
Job id: 388558.audhumbla.fysik.dtu.dk
Username: zhonxu
Groupname: campgst
Jobname: MnO2/Eads-2-layers/OOH-U-8.0
Sessionid: 21464
Queuename: verylong
Accounting:
This job has allocated the following 16 nodes:
b111 b111 b111 b111 b111 b111 b111 b111 b023 b023 b023 b023 b023 b023 b023 b023
Finished epilogue job 388558.audhumbla.fysik.dtu.dk for zhonxu