     Program PWSCF v.5.0.2 (svn rev. 9656) starts on  1Jun2014 at  9:32:59

     Current dimensions of program PWSCF are:
     Max number of different atomic species (ntypx) = 10
     Max number of k-points (npk) =  40000
     Max angular momentum in pseudopotentials (lmaxx) =  3
     Reading input from pwscf.in
Warning: card &CELL ignored
Warning: card / ignored

     Subspace diagonalization in iterative solution of the eigenvalue problem:
     a serial algorithm will be used

     bravais-lattice index     =            0
     lattice parameter (alat)  =      11.1872  a.u.
     unit-cell volume          =    7531.8600 (a.u.)^3
     number of atoms/cell      =           33
     number of atomic types    =            3
     number of electrons       =       229.00
     number of Kohn-Sham states=          343
     kinetic-energy cutoff     =      40.0000  Ry
     charge density cutoff     =     500.0000  Ry
     convergence threshold     =      1.0E-06
     mixing beta               =       0.7000
     number of iterations used =            8  plain     mixing
     Exchange-correlation      = SLA  PW   PBE  PBE ( 1 4 3 4 0)
     EXX-fraction              =        0.00
     nstep                     =           50

     celldm(1)=  11.187179  celldm(2)=   0.000000  celldm(3)=   0.000000
     celldm(4)=   0.000000  celldm(5)=   0.000000  celldm(6)=   0.000000

     crystal axes: (cart. coord. in units of alat)
               a(1) = (   1.000000   0.000000   0.000000 )
               a(2) = (   0.000000   1.180104   0.000000 )
               a(3) = (   0.000000   0.000000   4.558482 )

     reciprocal axes: (cart. coord. in units 2 pi/alat)
               b(1) = (  1.000000  0.000000  0.000000 )
               b(2) = (  0.000000  0.847383  0.000000 )
               b(3) = (  0.000000  0.000000  0.219371 )

     PseudoPot. # 1 for O  read from file:
     /home/camp/zhonxu/pseudo/o_pbe_v1.01.uspp.F.UPF
     MD5 check sum: 2bcb18d16ea4b960afae9ec6d52f22d2
     Pseudo is Ultrasoft + core correction, Zval =  6.0
     Generated by new atomic code, or converted to UPF format
     Using radial grid of  737 points,  5 beta functions with:
                l(1) =   0
                l(2) =   0
                l(3) =   1
                l(4) =   1
                l(5) =   2
     Q(r) pseudized with  8 coefficients,  rinner =    0.900   0.900   0.900
                                                       0.900   0.900

     PseudoPot. # 2 for Nb read from file:
     /home/camp/zhonxu/pseudo/nb_pbe_v1.uspp.F.UPF
     MD5 check sum: 573aab8a2fa660278ed4a62cd769473f
     Pseudo is Ultrasoft + core correction, Zval = 13.0
     Generated by new atomic code, or converted to UPF format
     Using radial grid of  887 points,  6 beta functions with:
                l(1) =   0
                l(2) =   0
                l(3) =   1
                l(4) =   1
                l(5) =   2
                l(6) =   2
     Q(r) pseudized with  6 coefficients,  rinner =    1.000   1.000   1.000
                                                       1.000   1.000

     PseudoPot. # 3 for H  read from file:
     /home/camp/zhonxu/pseudo/h_pbe_v1.uspp.F.UPF
     MD5 check sum: 3408e3ff4ec8b0a4e358431e7e038a48
     Pseudo is Ultrasoft, Zval =  1.0
     Generated by new atomic code, or converted to UPF format
     Using radial grid of  615 points,  2 beta functions with:
                l(1) =   0
                l(2) =   0
     Q(r) pseudized with  8 coefficients,  rinner =    0.700

     atomic species   valence    mass     pseudopotential
        O0             6.00    15.99940     O ( 1.00)
        Nb1           13.00    92.90640     Nb( 1.00)
        H2             1.00     1.00794     H ( 1.00)

     Simplified LDA+U calculation (l_max = 2) with parameters (eV):
     atomic species    L          U    alpha       J0     beta
        Nb1            2     7.0000   0.0000   0.0000   0.0000

     No symmetry found

   Cartesian axes

     site n.     atom                  positions (alat units)
         1           O0  tau(   1) = (   0.0000000   0.0000000   1.6962113  )
         2           O0  tau(   2) = (   0.0000000   0.5900519   1.7723835  )
         3           Nb1 tau(   3) = (   0.2500000   0.5900519   2.0257895  )
         4           Nb1 tau(   4) = (   0.0000000   0.0000000   2.0274306  )
         5           O0  tau(   5) = (   0.2500000   0.9322821   2.0383253  )
         6           O0  tau(   6) = (   0.2500000   0.2478218   2.0381886  )
         7           O0  tau(   7) = (   0.0000000   0.5900519   2.2790132  )
         8           O0  tau(   8) = (   0.0000000   0.0000000   2.3853170  )
         9           Nb1 tau(   9) = (   0.2500000   0.0000000   2.6318397  )
        10           Nb1 tau(  10) = (   0.0000000   0.5900519   2.5956910  )
        11           O0  tau(  11) = (   0.2500000   0.8378738   2.6232242  )
        12           O0  tau(  12) = (   0.2500000   0.3422301   2.6255034  )
        13           O0  tau(  13) = (   0.0000000   0.0000000   2.8344187  )
        14           O0  tau(  14) = (   0.5000000   0.0000000   1.6974420  )
        15           O0  tau(  15) = (   0.5000000   0.5900519   1.7789021  )
        16           Nb1 tau(  16) = (   0.7500000   0.5900519   2.0259719  )
        17           Nb1 tau(  17) = (   0.5000000   0.0000000   2.0298010  )
        18           O0  tau(  18) = (   0.7500000   0.9322821   2.0382798  )
        19           O0  tau(  19) = (   0.7500000   0.2478218   2.0381886  )
        20           O0  tau(  20) = (   0.5000000   0.5900519   2.2737254  )
        21           O0  tau(  21) = (   0.5000000   0.0000000   2.3845421  )
        22           Nb1 tau(  22) = (   0.7500000   0.0000000   2.6318397  )
        23           Nb1 tau(  23) = (   0.5000000   0.5900519   2.6269166  )
        24           O0  tau(  24) = (   0.7500000   0.8378738   2.6231786  )
        25           O0  tau(  25) = (   0.7500000   0.3422301   2.6254579  )
        26           O0  tau(  26) = (   0.5000000   0.0000000   2.8332335  )
        27           H2  tau(  27) = (  -0.0005200   0.5958463   1.6070929  )
        28           H2  tau(  28) = (   0.4994400   0.5914445   1.6138395  )
        29           H2  tau(  29) = (   0.1507700   0.0008261   1.6243240  )
        30           H2  tau(  30) = (   0.6503900   0.0006019   1.6249166  )
        31           O0  tau(  31) = (   0.5000000   0.6010623   2.9587285  )
        32           O0  tau(  32) = (   0.5000000   0.4103103   3.1155403  )
        33           H2  tau(  33) = (   0.5000000   0.4955964   3.2584031  )

     number of k points=    10  Methfessel-Paxton smearing, width (Ry)=  0.0100
                       cart. coord. in units 2pi/alat
        k(    1) = (   0.0000000   0.0000000   0.0000000), wk =   0.1250000
        k(    2) = (   0.0000000   0.2118458   0.0000000), wk =   0.2500000
        k(    3) = (   0.0000000  -0.4236915   0.0000000), wk =   0.1250000
        k(    4) = (   0.2500000   0.0000000   0.0000000), wk =   0.2500000
        k(    5) = (   0.2500000   0.2118458   0.0000000), wk =   0.2500000
        k(    6) = (   0.2500000  -0.4236915   0.0000000), wk =   0.2500000
        k(    7) = (  -0.5000000   0.0000000   0.0000000), wk =   0.1250000
        k(    8) = (  -0.5000000   0.2118458   0.0000000), wk =   0.2500000
        k(    9) = (  -0.5000000  -0.4236915   0.0000000), wk =   0.1250000
        k(   10) = (  -0.2500000   0.2118458   0.0000000), wk =   0.2500000

     Largest allocated arrays     est. size (Mb)     dimensions
     Largest temporary arrays     est. size (Mb)     dimensions

     Check: negative/imaginary core charge=   -0.000003    0.000000

     Initial potential from superposition of free atoms
     Check: negative starting charge=   -0.003307

     starting charge  228.97806, renormalised to  229.00000

     negative rho (up, down):  0.331E-02 0.000E+00
     Number of +U iterations with fixed ns =  0
     Starting occupations:
 --- enter write_ns ---
 LDA+U parameters:
U( 2)     =  7.00000000
alpha( 2) =  0.00000000
atom    3   Tr[ns(na)] =   3.00000
    eigenvalues:
  0.300  0.300  0.300  0.300  0.300
    eigenvectors:
  1.000  0.000  0.000  0.000  0.000
  0.000  1.000  0.000  0.000  0.000
  0.000  0.000  1.000  0.000  0.000
  0.000  0.000  0.000  1.000  0.000
  0.000  0.000  0.000  0.000  1.000
    occupations:
  0.300  0.000  0.000  0.000  0.000
  0.000  0.300  0.000  0.000  0.000
  0.000  0.000  0.300  0.000  0.000
  0.000  0.000  0.000  0.300  0.000
  0.000  0.000  0.000  0.000  0.300
atom    4   Tr[ns(na)] =   3.00000
    eigenvalues:
  0.300  0.300  0.300  0.300  0.300
    eigenvectors:
  1.000  0.000  0.000  0.000  0.000
  0.000  1.000  0.000  0.000  0.000
  0.000  0.000  1.000  0.000  0.000
  0.000  0.000  0.000  1.000  0.000
  0.000  0.000  0.000  0.000  1.000
    occupations:
  0.300  0.000  0.000  0.000  0.000
  0.000  0.300  0.000  0.000  0.000
  0.000  0.000  0.300  0.000  0.000
  0.000  0.000  0.000  0.300  0.000
  0.000  0.000  0.000  0.000  0.300
atom    9   Tr[ns(na)] =   3.00000
    eigenvalues:
  0.300  0.300  0.300  0.300  0.300
    eigenvectors:
  1.000  0.000  0.000  0.000  0.000
  0.000  1.000  0.000  0.000  0.000
  0.000  0.000  1.000  0.000  0.000
  0.000  0.000  0.000  1.000  0.000
  0.000  0.000  0.000  0.000  1.000
    occupations:
  0.300  0.000  0.000  0.000  0.000
  0.000  0.300  0.000  0.000  0.000
  0.000  0.000  0.300  0.000  0.000
  0.000  0.000  0.000  0.300  0.000
  0.000  0.000  0.000  0.000  0.300
atom   10   Tr[ns(na)] =   3.00000
    eigenvalues:
  0.300  0.300  0.300  0.300  0.300
    eigenvectors:
  1.000  0.000  0.000  0.000  0.000
  0.000  1.000  0.000  0.000  0.000
  0.000  0.000  1.000  0.000  0.000
  0.000  0.000  0.000  1.000  0.000
  0.000  0.000  0.000  0.000  1.000
    occupations:
  0.300  0.000  0.000  0.000  0.000
  0.000  0.300  0.000  0.000  0.000
  0.000  0.000  0.300  0.000  0.000
  0.000  0.000  0.000  0.300  0.000
  0.000  0.000  0.000  0.000  0.300
atom   16   Tr[ns(na)] =   3.00000
    eigenvalues:
  0.300  0.300  0.300  0.300  0.300
    eigenvectors:
  1.000  0.000  0.000  0.000  0.000
  0.000  1.000  0.000  0.000  0.000
  0.000  0.000  1.000  0.000  0.000
  0.000  0.000  0.000  1.000  0.000
  0.000  0.000  0.000  0.000  1.000
    occupations:
  0.300  0.000  0.000  0.000  0.000
  0.000  0.300  0.000  0.000  0.000
  0.000  0.000  0.300  0.000  0.000
  0.000  0.000  0.000  0.300  0.000
  0.000  0.000  0.000  0.000  0.300
atom   17   Tr[ns(na)] =   3.00000
    eigenvalues:
  0.300  0.300  0.300  0.300  0.300
    eigenvectors:
  1.000  0.000  0.000  0.000  0.000
  0.000  1.000  0.000  0.000  0.000
  0.000  0.000  1.000  0.000  0.000
  0.000  0.000  0.000  1.000  0.000
  0.000  0.000  0.000  0.000  1.000
    occupations:
  0.300  0.000  0.000  0.000  0.000
  0.000  0.300  0.000  0.000  0.000
  0.000  0.000  0.300  0.000  0.000
  0.000  0.000  0.000  0.300  0.000
  0.000  0.000  0.000  0.000  0.300
atom   22   Tr[ns(na)] =   3.00000
    eigenvalues:
  0.300  0.300  0.300  0.300  0.300
    eigenvectors:
  1.000  0.000  0.000  0.000  0.000
  0.000  1.000  0.000  0.000  0.000
  0.000  0.000  1.000  0.000  0.000
[...]
  0.000  0.000  0.000  0.000  1.000
  0.000  0.000  0.000  1.000  0.000
    occupations:
  0.504  0.000  0.000  0.000 -0.000
  0.000  0.322 -0.000  0.001  0.001
  0.000 -0.000  0.307 -0.002 -0.000
  0.000  0.001 -0.002  0.835 -0.000
 -0.000  0.001 -0.000 -0.000  0.535
atom   16   Tr[ns(na)] =   5.07968
    eigenvalues:
  0.317  0.322  0.516  0.603  0.782
    eigenvectors:
  0.000  0.000  0.001  0.333  0.667
  0.000  0.000  0.999  0.000  0.000
  0.435  0.565  0.000  0.000  0.000
  0.000  0.000  0.000  0.667  0.333
  0.565  0.435  0.000  0.000  0.000
    occupations:
  0.722  0.004  0.001 -0.084  0.002
  0.004  0.516  0.001 -0.001  0.001
  0.001  0.001  0.320 -0.000  0.002
 -0.084 -0.001 -0.000  0.663 -0.001
  0.002  0.001  0.002 -0.001  0.319
atom   17   Tr[ns(na)] =   5.11272
    eigenvalues:
  0.311  0.337  0.555  0.586  0.767
    eigenvectors:
  0.003  0.000  0.000  0.997  0.000
  0.996  0.000  0.000  0.003  0.001
  0.000  1.000  0.000  0.000  0.000
  0.001  0.000  0.000  0.000  0.999
  0.000  0.000  1.000  0.000  0.000
    occupations:
  0.585  0.015  0.000 -0.000 -0.000
  0.015  0.312 -0.000 -0.014  0.000
  0.000 -0.000  0.337 -0.000  0.001
 -0.000 -0.014 -0.000  0.767  0.000
 -0.000  0.000  0.001  0.000  0.555
atom   22   Tr[ns(na)] =   5.23158
    eigenvalues:
  0.406  0.456  0.476  0.638  0.640
    eigenvectors:
  0.000  0.870  0.000  0.116  0.014
  0.000  0.000  0.000  0.109  0.891
  1.000  0.000  0.000  0.000  0.000
  0.000  0.129  0.000  0.775  0.095
  0.000  0.000  1.000  0.000  0.000
    occupations:
  0.479 -0.000 -0.000  0.061 -0.000
 -0.000  0.639 -0.000  0.001  0.000
 -0.000 -0.000  0.406  0.002 -0.000
  0.061  0.001  0.002  0.615  0.000
 -0.000  0.000 -0.000  0.000  0.476
atom   23   Tr[ns(na)] =   5.17139
    eigenvalues:
  0.310  0.459  0.564  0.609  0.644
    eigenvectors:
  0.001  0.000  0.000  0.905  0.094
  0.000  0.997  0.003  0.000  0.000
  0.999  0.000  0.000  0.000  0.001
  0.000  0.000  0.000  0.094  0.905
  0.000  0.003  0.997  0.000  0.000
    occupations:
  0.612 -0.000  0.008  0.010 -0.000
 -0.000  0.459 -0.000 -0.000 -0.006
  0.008 -0.000  0.310  0.006  0.000
  0.010 -0.000  0.006  0.640 -0.000
 -0.000 -0.006  0.000 -0.000  0.564
N of occupied +U levels =  41.0299042
 --- exit write_ns ---

     Threshold (ethr) on eigenvalues was too large:
     Diagonalizing with lowered threshold

     Davidson diagonalization with overlap
     ethr =  7.10E-09,  avg # of iterations =  2.3

[...]

     total energy              =   -1590.84134948 Ry
     Harris-Foulkes estimate   =   -1590.84134948 Ry
     estimated scf accuracy    <       0.00000001 Ry

     iteration # 10     ecut=    40.00 Ry     beta=0.70
     Davidson diagonalization with overlap
     ethr =  4.59E-12,  avg # of iterations =  1.0

     negative rho (up, down):  0.342E-02 0.000E+00

     End of self-consistent calculation
 --- enter write_ns ---
 LDA+U parameters:
U( 2)     =  7.00000000
alpha( 2) =  0.00000000
atom    3   Tr[ns(na)] =   5.07995
    eigenvalues:
  0.317  0.321  0.516  0.603  0.782
    eigenvectors:
  0.000  0.000  0.000  0.333  0.667
  0.000  0.000  0.999  0.000  0.000
  0.420  0.580  0.000  0.000  0.000
  0.000  0.000  0.000  0.667  0.333
  0.580  0.420  0.000  0.000  0.000
    occupations:
  0.723 -0.004  0.001 -0.084 -0.002
 -0.004  0.516 -0.001  0.001  0.001
  0.001 -0.001  0.320 -0.000 -0.002
 -0.084  0.001 -0.000  0.663  0.001
 -0.002  0.001 -0.002  0.001  0.319
atom    4   Tr[ns(na)] =   5.11750
    eigenvalues:
  0.310  0.338  0.555  0.585  0.771
    eigenvectors:
  0.003  0.000  0.000  0.997  0.000
  0.996  0.000  0.000  0.003  0.001
  0.000  1.000  0.000  0.000  0.000
  0.001  0.000  0.000  0.000  0.999
  0.000  0.000  1.000  0.000  0.000
    occupations:
  0.584  0.015  0.000 -0.000 -0.000
  0.015  0.311 -0.001 -0.014  0.000
  0.000 -0.001  0.338  0.000  0.001
 -0.000 -0.014  0.000  0.770  0.000
 -0.000  0.000  0.001  0.000  0.555
atom    9   Tr[ns(na)] =   5.23163
    eigenvalues:
  0.406  0.455  0.476  0.638  0.640
    eigenvectors:
  0.000  0.869  0.000  0.116  0.013
  0.000  0.000  0.000  0.107  0.893
  1.000  0.000  0.000  0.000  0.000
  0.000  0.130  0.000  0.776  0.094
  0.000  0.000  1.000  0.000  0.000
    occupations:
  0.479  0.000 -0.000  0.062  0.000
  0.000  0.639  0.000 -0.001  0.000
 -0.000  0.000  0.406  0.002  0.000
  0.062 -0.001  0.002  0.615 -0.000
  0.000  0.000  0.000 -0.000  0.476
atom   10   Tr[ns(na)] =   5.00633
    eigenvalues:
  0.307  0.322  0.504  0.535  0.835
    eigenvectors:
  0.000  0.000  1.000  0.000  0.000
  0.000  1.000  0.000  0.000  0.000
  1.000  0.000  0.000  0.000  0.000
  0.000  0.000  0.000  0.000  1.000
  0.000  0.000  0.000  1.000  0.000
    occupations:
  0.504  0.000  0.000  0.000 -0.000
  0.000  0.322 -0.000  0.001  0.001
  0.000 -0.000  0.307 -0.002 -0.000
  0.000  0.001 -0.002  0.835 -0.000
 -0.000  0.001 -0.000 -0.000  0.535
atom   16   Tr[ns(na)] =   5.08005
    eigenvalues:
  0.317  0.322  0.516  0.603  0.782
    eigenvectors:
  0.000  0.000  0.000  0.333  0.667
  0.000  0.000  0.999  0.000  0.000
  0.434  0.566  0.000  0.000  0.000
  0.000  0.000  0.000  0.667  0.333
  0.566  0.434  0.000  0.000  0.000
    occupations:
  0.722  0.004  0.001 -0.084  0.002
  0.004  0.516  0.001 -0.001  0.001
  0.001  0.001  0.320 -0.000  0.002
 -0.084 -0.001 -0.000  0.663 -0.001
  0.002  0.001  0.002 -0.001  0.319
atom   17   Tr[ns(na)] =   5.11256
    eigenvalues:
  0.311  0.337  0.555  0.586  0.767
    eigenvectors:
  0.003  0.000  0.000  0.997  0.000
  0.996  0.000  0.000  0.003  0.001
  0.000  1.000  0.000  0.000  0.000
  0.001  0.000  0.000  0.000  0.999
  0.000  0.000  1.000  0.000  0.000
    occupations:
  0.585  0.015  0.000 -0.000 -0.000
  0.015  0.312 -0.000 -0.014  0.000
  0.000 -0.000  0.337 -0.000  0.001
 -0.000 -0.014 -0.000  0.767  0.000
 -0.000  0.000  0.001  0.000  0.555
atom   22   Tr[ns(na)] =   5.23186
    eigenvalues:
  0.406  0.456  0.476  0.638  0.640
    eigenvectors:
  0.000  0.870  0.000  0.115  0.014
  0.000  0.000  0.000  0.114  0.886
  1.000  0.000  0.000  0.000  0.000
  0.000  0.129  0.000  0.771  0.099
  0.000  0.000  1.000  0.000  0.000
    occupations:
  0.479 -0.000 -0.000  0.061 -0.000
 -0.000  0.639 -0.000  0.001  0.000
 -0.000 -0.000  0.406  0.002 -0.000
  0.061  0.001  0.002  0.615  0.000
 -0.000  0.000 -0.000  0.000  0.476
atom   23   Tr[ns(na)] =   5.17001
    eigenvalues:
  0.310  0.459  0.564  0.609  0.643
    eigenvectors:
  0.001  0.000  0.000  0.903  0.097
  0.000  0.997  0.003  0.000  0.000
  0.999  0.000  0.000  0.000  0.001
  0.000  0.000  0.000  0.097  0.903
  0.000  0.003  0.997  0.000  0.000
    occupations:
  0.612 -0.000  0.008  0.010 -0.000
 -0.000  0.459 -0.000 -0.000 -0.006
  0.008 -0.000  0.310  0.005  0.000
  0.010 -0.000  0.005  0.640 -0.000
 -0.000 -0.006  0.000 -0.000  0.564
N of occupied +U levels =  41.0298986
 --- exit write_ns ---

[...]

          k = 0.2500-0.4237 0.0000 ( 32188 PWs)   bands (ev):

[...]

          k =-0.2500 0.2118 0.0000 ( 32165 PWs)   bands (ev):

   -56.4745 -56.4040 -55.8146 -55.7703 -55.7531 -55.5234 -55.5149 -55.4502
   -33.1729 -32.7052 -32.5602 -32.5115 -32.5007 -32.4266 -32.3903 -32.2688
   -32.2175 -32.1020 -32.0583 -32.0120 -31.9927 -31.9582 -31.8356 -31.7454
   -31.6789 -31.5668 -31.4938 -31.3698 -31.3144 -31.2568 -31.2481 -31.2183
   -22.5115 -20.0940 -19.9337 -19.2435 -19.1857 -18.8910 -18.7862 -18.7440
   -18.7138 -18.6661 -18.6270 -18.5866 -17.9252 -17.9120 -17.8908 -17.8254
   -17.7587 -17.6970 -17.6626 -16.1278  -8.8506  -8.2956  -7.7477  -7.2441
    -7.1752  -7.1214  -6.8551  -6.6104  -6.4535  -6.3596  -6.3094  -6.1734
    -6.1322  -6.0531  -5.8622  -5.8075  -5.7294  -5.4975  -5.3383  -5.3042
    -5.2741  -5.0340  -4.9286  -4.7710  -4.6484  -4.4187  -4.3739  -4.3441
    -4.2233  -4.1223  -4.0053  -3.9722  -3.9323  -3.8621  -3.8306  -3.7499
    -3.7197  -3.6086  -3.5902  -3.5062  -3.3759  -3.3130  -3.2557  -3.2221
    -3.1416  -3.0127  -2.9524  -2.8829  -2.8350  -2.8272  -2.7381  -2.5549
    -2.4799  -2.4593  -2.2845  -2.2353  -2.0894  -1.8677  -1.1473  -0.7730
    -0.1886  -0.0890   1.4828   1.7100   1.8232   1.8865   1.9281   1.9986
     2.1211   2.3381   2.4293   2.4760   2.7060   2.7429   2.7766   2.8578
     2.9591   3.0399   3.1395   3.1768   3.3571   3.3951   3.4607   3.6642
     3.9934   4.2282   4.3645   4.4294   4.7121   4.7791   4.9150   5.0038
     5.1333   5.2050   5.2264   5.3149   5.3973   5.6767   5.7576   5.7853
     5.9061   6.0134   6.0450   6.1465   6.3417   6.4296   6.5267   6.6356
     6.6992   6.7613   6.8297   6.9412   7.0445   7.2395   7.3658   7.3947
     7.4745   7.8179   7.8753   8.0139   8.0642   8.1509   8.2823   8.3428
     8.5195   8.6002   8.7248   8.8162   8.9449   8.9700   9.0720   9.2538
     9.3083   9.4234   9.4793   9.5739   9.6892   9.8375   9.8710   9.9581
    10.0641  10.1510  10.2336  10.3287  10.4342  10.4715  10.6172  10.8014
    10.8585  10.9859  11.0390  11.1409  11.1692  11.2285  11.3009  11.3868
    11.4748  11.5961  11.6116  11.6462  11.6930  11.8814  11.9197  12.0190
    12.1215  12.1959  12.2512  12.3358  12.4582  12.5468  12.5968  12.7113
    12.7468  12.7752  12.8480  12.9267  12.9625  12.9885  13.0614  13.1626
    13.1940  13.2947  13.3808  13.4322  13.5296  13.6065  13.6501  13.7151
    13.7831  13.8472  13.9058  14.0042  14.0519  14.0718  14.1407  14.2405
    14.3194  14.3952  14.4262  14.5012  14.6432  14.7411  14.7581  14.8781
    14.9508  15.0507  15.1644  15.2476  15.3161  15.3342  15.3983  15.4499
    15.4939  15.5535  15.5810  15.7253  15.7736  15.8147  15.8791  15.9038
    15.9910  16.0717  16.1241  16.2091  16.2766  16.3629  16.3862  16.4447
    16.5563  16.6582  16.7078  16.7409  16.7921  16.8797  16.9178  17.0407
    17.0705  17.1370  17.1928  17.2412  17.3280  17.3795  17.5007  17.5168
    17.5702  17.6308  17.6988  17.8387  17.8693  17.9434  17.9650  18.0644
    18.1280  18.2319  18.2838  18.3377  18.4180  18.5511  18.5858  18.6487
    18.6679  18.7651  18.8380  18.8827  18.9714  19.0088  19.0718  19.0990
    19.2025  19.2807  19.2939  19.3814  19.4402  19.4638  19.5009  19.5719
    19.6789  19.7534  19.7805  19.8148  19.8709  19.9149  19.9744  20.0268
    20.0669  20.1109  20.1737  20.2378  20.2881  20.3617  20.4127

     the Fermi energy is     1.0710 ev

!    total energy              =   -1590.84134948 Ry
     Harris-Foulkes estimate   =   -1590.84134948 Ry
     estimated scf accuracy    <          5.0E-09 Ry

     The total energy is the sum of the following terms:

     one-electron contribution =  -19252.21375978 Ry
     hartree contribution      =    9659.33547357 Ry
     xc contribution           =    -294.76495914 Ry
     ewald contribution        =    8292.14986277 Ry
     Hubbard energy            =       4.65194958 Ry
     smearing contrib. (-TS)   =       0.00008352 Ry

     convergence has been achieved in  10 iterations

     Forces acting on atoms (Ry/au):

     negative rho (up, down):  0.342E-02 0.000E+00
     atom    1 type  1   force =    -0.00033452   -0.00033916   -0.00029397
     atom    2 type  1   force =    -0.00007319    0.00027803   -0.00004968
     atom    3 type  2   force =     0.03021556   -0.00005340    0.00004364
     atom    4 type  2   force =    -0.00064924   -0.00001855   -0.00013742
     atom    5 type  1   force =    -0.00112444   -0.02838832    0.00014347
     atom    6 type  1   force =    -0.00098827    0.02837703    0.00015807
     atom    7 type  1   force =    -0.00014436   -0.00045369   -0.00024961
     atom    8 type  1   force =     0.00053169    0.00131033    0.00038332
     atom    9 type  2   force =     0.00248948   -0.00121780    0.00027435
     atom   10 type  2   force =     0.00025574   -0.00030337   -0.00017533
     atom   11 type  1   force =     0.00272573    0.01482481   -0.00045683
     atom   12 type  1   force =     0.00589442   -0.00813800   -0.00021035
     atom   13 type  1   force =     0.00012208   -0.00166951    0.00029152
     atom   14 type  1   force =    -0.00033255   -0.00001330   -0.00024419
     atom   15 type  1   force =    -0.00008327    0.00014645    0.00007043
     atom   16 type  2   force =    -0.02990930   -0.00010089    0.00006507
     atom   17 type  2   force =    -0.00089890   -0.00010310   -0.00021490
     atom   18 type  1   force =     0.00144438   -0.02837176    0.00014206
     atom   19 type  1   force =     0.00127965    0.02835453    0.00016416
     atom   20 type  1   force =    -0.00013241   -0.00276672   -0.00059183
     atom   21 type  1   force =     0.00041047    0.00105097    0.00025319
     atom   22 type  2   force =    -0.00237867   -0.00121580    0.00031372
     atom   23 type  2   force =    -0.00014250   -0.00248399   -0.00016763
     atom   24 type  1   force =    -0.00279707    0.01480046   -0.00051032
     atom   25 type  1   force =    -0.00595516   -0.00813300   -0.00026898
     atom   26 type  1   force =     0.00005036   -0.00495759    0.00030436
     atom   27 type  3   force =     0.00001183    0.00016485    0.00078321
     atom   28 type  3   force =     0.00000800   -0.00022699    0.00004747
     atom   29 type  3   force =     0.00024436    0.00005540    0.00012519
     atom   30 type  3   force =     0.00023104    0.00002154    0.00018881
     atom   31 type  1   force =     0.00002486    0.00086578    0.00070413
     atom   32 type  1   force =     0.00000557   -0.00067823   -0.00044866
     atom   33 type  3   force =    -0.00000137   -0.00061701   -0.00043648

     Total force =     0.002297     Total SCF correction =     0.000237
     SCF correction compared to forces is large: reduce conv_thr to get better values

     entering subroutine stress ...

     negative rho (up, down):  0.342E-02 0.000E+00
          total   stress  (Ry/bohr**3)                   (kbar)     P=   -0.62
  -0.00000741  -0.00000000   0.00000079         -1.09     -0.00      0.12
  -0.00000000   0.00002792  -0.00000156         -0.00      4.11     -0.23
   0.00000079  -0.00000156  -0.00003322          0.12     -0.23     -4.89

     bfgs converged in  15 scf cycles and  14 bfgs steps
     (criteria: energy < 0.10E-03, force < 0.10E-02)

     End of BFGS Geometry Optimization

     Final energy   =   -1590.8413494761 Ry
Begin final coordinates

ATOMIC_POSITIONS (crystal)
O0       0.000000000   0.000000000   0.370407625    0   0   1
O0       0.000000000   0.500000000   0.387364180    0   0   1
Nb1      0.250000000   0.500000000   0.443128776    0   0   1
Nb1      0.000000000   0.000000000   0.443444647    0   0   1
O0       0.250000000   0.790000000   0.447288671    0   0   1
O0       0.250000000   0.210000000   0.447269810    0   0   1
O0       0.000000000   0.500000000   0.499202748    0   0   1
O0       0.000000000   0.000000000   0.524960583    0   0   1
Nb1      0.250000000   0.000000000   0.577835551    0   0   1
Nb1      0.000000000   0.500000000   0.568713106    0   0   1
O0       0.250000000   0.710000000   0.578492676    0   0   1
O0       0.250000000   0.290000000   0.579238840    0   0   1
O0       0.000000000   0.000000000   0.622421922    0   0   1
O0       0.500000000   0.000000000   0.370593730    0   0   1
O0       0.500000000   0.500000000   0.387591608    0   0   1
Nb1      0.750000000   0.500000000   0.443128268    0   0   1
Nb1      0.500000000   0.000000000   0.443646668    0   0   1
O0       0.750000000   0.790000000   0.447278326    0   0   1
O0       0.750000000   0.210000000   0.447273557    0   0   1
O0       0.500000000   0.500000000   0.500998326    0   0   1
O0       0.500000000   0.000000000   0.525043719    0   0   1
Nb1      0.750000000   0.000000000   0.577873928    0   0   1
Nb1      0.500000000   0.500000000   0.575868883    0   0   1
O0       0.750000000   0.710000000   0.578444636    0   0   1
O0       0.750000000   0.290000000   0.579190616    0   0   1
O0       0.500000000   0.000000000   0.622015636    0   0   1
H2      -0.000429847   0.505609048   0.351238028
H2       0.499584678   0.500481445   0.351439565
H2       0.152402500   0.000951193   0.355623266
H2       0.652249634   0.000661509   0.355732245
O0       0.500043670   0.515570697   0.649976734
O0       0.500006443   0.349500953   0.682163390
H2       0.499989216   0.415868180   0.714369737
End final coordinates

     General routines

     Parallel routines
     Hubbard U routines

   This run was terminated on:   0: 0:20   2Jun2014

   JOB DONE.
Running PBS batch system epilogue script
Job id: 373372.audhumbla.fysik.dtu.dk
Username: zhonxu
Groupname: campgst
Jobname: NbO2/Eads-2-layers/OOH-U-7.0
Sessionid: 1328
Queuename: verylong
Accounting:
This job has allocated the following 16 nodes:
a027 a027 a027 a027 a027 a027 a027 a027 a018 a018 a018 a018 a018 a018 a018 a018
Finished epilogue job 373372.audhumbla.fysik.dtu.dk for zhonxu