     Program PWSCF v.5.0.2 (svn rev. 9656) starts on 26Apr2014 at 21:32:15

     Current dimensions of program PWSCF are:
     Max number of different atomic species (ntypx) = 10
     Max number of k-points (npk) =  40000
     Max angular momentum in pseudopotentials (lmaxx) =  3
     Reading input from pwscf.in
Warning: card &CELL ignored
Warning: card / ignored

     Subspace diagonalization in iterative solution of the eigenvalue problem:
     a serial algorithm will be used

     bravais-lattice index     =            0
     lattice parameter (alat)  =      11.7919  a.u.
     unit-cell volume          =    7123.6633 (a.u.)^3
     number of atoms/cell      =           31
     number of atomic types    =            3
     number of electrons       =       246.00
     number of Kohn-Sham states=          357
     kinetic-energy cutoff     =      40.0000  Ry
     charge density cutoff     =     500.0000  Ry
     convergence threshold     =      1.0E-06
     mixing beta               =       0.7000
     number of iterations used =            8  plain     mixing
     Exchange-correlation      = SLA  PW   PBE  PBE ( 1 4 3 4 0)
     EXX-fraction              =        0.00
     nstep                     =           50

     celldm(1)=  11.791891  celldm(2)=   0.000000  celldm(3)=   0.000000
     celldm(4)=   0.000000  celldm(5)=   0.000000  celldm(6)=   0.000000

     crystal axes: (cart. coord. in units of alat)
               a(1) = (   1.000000   0.000000   0.000000 )
               a(2) = (   0.000000   1.026665   0.000000 )
               a(3) = (   0.000000   0.000000   4.231793 )

     reciprocal axes: (cart. coord. in units 2 pi/alat)
               b(1) = (  1.000000  0.000000  0.000000 )
               b(2) = (  0.000000  0.974028  0.000000 )
               b(3) = (  0.000000  0.000000  0.236306 )

     PseudoPot. # 1 for O  read from file:
     /home/camp/zhonxu/pseudo/o_pbe_v1.01.uspp.F.UPF
     MD5 check sum: 2bcb18d16ea4b960afae9ec6d52f22d2
     Pseudo is Ultrasoft + core correction, Zval =  6.0
     Generated by new atomic code, or converted to UPF format
     Using radial grid of  737 points,  5 beta functions with:
                l(1) =   0
                l(2) =   0
                l(3) =   1
                l(4) =   1
                l(5) =   2
     Q(r) pseudized with  8 coefficients,  rinner =    0.900   0.900   0.900
                                                       0.900   0.900

     PseudoPot. # 2 for Ru read from file:
     /home/camp/zhonxu/pseudo/ru_pbe_v1.uspp.F.UPF
     MD5 check sum: df00be1c11b23341d9806d8f1dfa10cf
     Pseudo is Ultrasoft + core correction, Zval = 16.0
     Generated by new atomic code, or converted to UPF format
     Using radial grid of  967 points,  6 beta functions with:
                l(1) =   0
                l(2) =   0
                l(3) =   1
                l(4) =   1
                l(5) =   2
                l(6) =   2
     Q(r) pseudized with  8 coefficients,  rinner =    1.300   1.300   1.300
                                                       1.300   1.300

     PseudoPot. # 3 for H  read from file:
     /home/camp/zhonxu/pseudo/h_pbe_v1.uspp.F.UPF
     MD5 check sum: 3408e3ff4ec8b0a4e358431e7e038a48
     Pseudo is Ultrasoft, Zval =  1.0
     Generated by new atomic code, or converted to UPF format
     Using radial grid of  615 points,  2 beta functions with:
                l(1) =   0
                l(2) =   0
     Q(r) pseudized with  8 coefficients,  rinner =    0.700

     atomic species   valence    mass     pseudopotential
        O0             6.00    15.99940     O ( 1.00)
        Ru1           16.00   101.07000     Ru( 1.00)
        H2             1.00     1.00794     H ( 1.00)

     Simplified LDA+U calculation (l_max = 2) with parameters (eV):
     atomic species    L          U    alpha       J0     beta
        Ru1            2     4.0000   0.0000   0.0000   0.0000

     No symmetry found

   Cartesian axes

     site n.     atom                  positions (alat units)
         1           O0  tau(   1) = (   0.0000000   0.0000000   1.6006333  )
         2           O0  tau(   2) = (   0.0000000   0.5133323   1.7090519  )
         3           Ru1 tau(   3) = (   0.2500000   0.5133323   1.9249579  )
         4           Ru1 tau(   4) = (   0.0000000   0.0000000   1.9138706  )
         5           O0  tau(   5) = (   0.2500000   0.8315984   1.9151825  )
         6           O0  tau(   6) = (   0.2500000   0.1950663   1.9148016  )
         7           O0  tau(   7) = (   0.0000000   0.5133323   2.1086177  )
         8           O0  tau(   8) = (   0.0000000   0.0000000   2.2256691  )
         9           Ru1 tau(   9) = (   0.2500000   0.0000000   2.4381898  )
        10           Ru1 tau(  10) = (   0.0000000   0.5133323   2.4080594  )
        11           O0  tau(  11) = (   0.2500000   0.7083986   2.4344235  )
        12           O0  tau(  12) = (   0.2500000   0.3182660   2.4336618  )
        13           O0  tau(  13) = (   0.0000000   0.0000000   2.6157981  )
        14           O0  tau(  14) = (   0.5000000   0.0000000   1.6005064  )
        15           O0  tau(  15) = (   0.5000000   0.5133323   1.7116333  )
        16           Ru1 tau(  16) = (   0.7500000   0.5133323   1.9249156  )
        17           Ru1 tau(  17) = (   0.5000000   0.0000000   1.9130666  )
        18           O0  tau(  18) = (   0.7500000   0.8315984   1.9150979  )
        19           O0  tau(  19) = (   0.7500000   0.1950663   1.9148440  )
        20           O0  tau(  20) = (   0.5000000   0.5133323   2.1279570  )
        21           O0  tau(  21) = (   0.5000000   0.0000000   2.2254152  )
        22           Ru1 tau(  22) = (   0.7500000   0.0000000   2.4382321  )
        23           Ru1 tau(  23) = (   0.5000000   0.5133323   2.4678123  )
        24           O0  tau(  24) = (   0.7500000   0.7083986   2.4345927  )
        25           O0  tau(  25) = (   0.7500000   0.3182660   2.4334925  )
        26           O0  tau(  26) = (   0.5000000   0.0000000   2.6078847  )
        27           H2  tau(  27) = (  -0.0002600   0.6438727   1.6192532  )
        28           H2  tau(  28) = (   0.4995800   0.6393041   1.6156985  )
        29           H2  tau(  29) = (   0.1450800   0.0331921   1.5470588  )
        30           H2  tau(  30) = (   0.6459600   0.0301326   1.5471435  )
        31           O0  tau(  31) = (   0.5000500   0.5106527   2.7413977  )

     number of k points=    10  Methfessel-Paxton smearing, width (Ry)=  0.0100
                       cart. coord. in units 2pi/alat
        k(    1) = (   0.0000000   0.0000000   0.0000000), wk =   0.1250000
        k(    2) = (   0.0000000   0.2435070   0.0000000), wk =   0.2500000
        k(    3) = (   0.0000000  -0.4870139   0.0000000), wk =   0.1250000
        k(    4) = (   0.2500000   0.0000000   0.0000000), wk =   0.2500000
        k(    5) = (   0.2500000   0.2435070   0.0000000), wk =   0.2500000
        k(    6) = (   0.2500000  -0.4870139   0.0000000), wk =   0.2500000
        k(    7) = (  -0.5000000   0.0000000   0.0000000), wk =   0.1250000
        k(    8) = (  -0.5000000   0.2435070   0.0000000), wk =   0.2500000
        k(    9) = (  -0.5000000  -0.4870139   0.0000000), wk =   0.1250000
        k(   10) = (  -0.2500000   0.2435070   0.0000000), wk =   0.2500000

     Largest allocated arrays     est. size (Mb)     dimensions
     Largest temporary arrays     est. size (Mb)     dimensions

     Check: negative/imaginary core charge=   -0.000003    0.000000

     Initial potential from superposition of free atoms
     Check: negative starting charge=   -0.520948

     starting charge  237.99981, renormalised to  246.00000

     negative rho (up, down):  0.538E+00 0.000E+00
     Number of +U iterations with fixed ns =  0
     Starting occupations:
 --- enter write_ns ---
 LDA+U parameters:
U( 2)     =  4.00000000
alpha( 2) =  0.00000000
atom    3   Tr[ns(na)] =   6.00000
    eigenvalues:
  0.600  0.600  0.600  0.600  0.600
    eigenvectors:
  1.000  0.000  0.000  0.000  0.000
  0.000  1.000  0.000  0.000  0.000
  0.000  0.000  1.000  0.000  0.000
  0.000  0.000  0.000  1.000  0.000
  0.000  0.000  0.000  0.000  1.000
    occupations:
  0.600  0.000  0.000  0.000  0.000
  0.000  0.600  0.000  0.000  0.000
  0.000  0.000  0.600  0.000  0.000
  0.000  0.000  0.000  0.600  0.000
  0.000  0.000  0.000  0.000  0.600
atom    4   Tr[ns(na)] =   6.00000
    eigenvalues:
  0.600  0.600  0.600  0.600  0.600
    eigenvectors:
  1.000  0.000  0.000  0.000  0.000
  0.000  1.000  0.000  0.000  0.000
  0.000  0.000  1.000  0.000  0.000
  0.000  0.000  0.000  1.000  0.000
  0.000  0.000  0.000  0.000  1.000
    occupations:
  0.600  0.000  0.000  0.000  0.000
  0.000  0.600  0.000  0.000  0.000
  0.000  0.000  0.600  0.000  0.000
  0.000  0.000  0.000  0.600  0.000
  0.000  0.000  0.000  0.000  0.600
atom    9   Tr[ns(na)] =   6.00000
    eigenvalues:
  0.600  0.600  0.600  0.600  0.600
    eigenvectors:
  1.000  0.000  0.000  0.000  0.000
  0.000  1.000  0.000  0.000  0.000
  0.000  0.000  1.000  0.000  0.000
  0.000  0.000  0.000  1.000  0.000
  0.000  0.000  0.000  0.000  1.000
    occupations:
  0.600  0.000  0.000  0.000  0.000
  0.000  0.600  0.000  0.000  0.000
  0.000  0.000  0.600  0.000  0.000
  0.000  0.000  0.000  0.600  0.000
  0.000  0.000  0.000  0.000  0.600
atom   10   Tr[ns(na)] =   6.00000
    eigenvalues:
  0.600  0.600  0.600  0.600  0.600
    eigenvectors:
  1.000  0.000  0.000  0.000  0.000
  0.000  1.000  0.000  0.000  0.000
  0.000  0.000  1.000  0.000  0.000
  0.000  0.000  0.000  1.000  0.000
  0.000  0.000  0.000  0.000  1.000
    occupations:
  0.600  0.000  0.000  0.000  0.000
  0.000  0.600  0.000  0.000  0.000
  0.000  0.000  0.600  0.000  0.000
  0.000  0.000  0.000  0.600  0.000
  0.000  0.000  0.000  0.000  0.600
atom   16   Tr[ns(na)] =   6.00000
    eigenvalues:
  0.600  0.600  0.600  0.600  0.600
    eigenvectors:
  1.000  0.000  0.000  0.000  0.000
  0.000  1.000  0.000  0.000  0.000
  0.000  0.000  1.000  0.000  0.000
  0.000  0.000  0.000  1.000  0.000
  0.000  0.000  0.000  0.000  1.000
    occupations:
  0.600  0.000  0.000  0.000  0.000
  0.000  0.600  0.000  0.000  0.000
  0.000  0.000  0.600  0.000  0.000
  0.000  0.000  0.000  0.600  0.000
  0.000  0.000  0.000  0.000  0.600
atom   17   Tr[ns(na)] =   6.00000
    eigenvalues:
  0.600  0.600  0.600  0.600  0.600
    eigenvectors:
  1.000  0.000  0.000  0.000  0.000
  0.000  1.000  0.000  0.000  0.000
  0.000  0.000  1.000  0.000  0.000
  0.000  0.000  0.000  1.000  0.000
  0.000  0.000  0.000  0.000  1.000
    occupations:
  0.600  0.000  0.000  0.000  0.000
  0.000  0.600  0.000  0.000  0.000
  0.000  0.000  0.600  0.000  0.000
  0.000  0.000  0.000  0.600  0.000
  0.000  0.000  0.000  0.000  0.600
atom   22   Tr[ns(na)] =   6.00000
    eigenvalues:
  0.600  0.600  0.600  0.600  0.600
    eigenvectors:
  1.000  0.000  0.000  0.000  0.000
  0.000  1.000  0.000  0.000  0.000
  0.000  0.000  1.000  0.000  0.000
  0.000  0.000  0.000  1.000  0.000
  0.000  0.000  0.000  0.000  1.000
    occupations:
  0.600  0.000  0.000  0.000  0.000
  0.000  0.600  0.000  0.000  0.000
[...]
    eigenvectors:
  0.001  0.161  0.000  0.778  0.060
  0.990  0.010  0.000  0.000  0.000
  0.000  0.000  0.987  0.000  0.013
  0.009  0.830  0.000  0.149  0.012
  0.000  0.000  0.013  0.072  0.915
    occupations:
  0.789 -0.002 -0.001 -0.087  0.003
 -0.002  0.572  0.001  0.003  0.000
 -0.001  0.001  0.789  0.000 -0.006
 -0.087  0.003  0.000  0.629 -0.001
  0.003  0.000 -0.006 -0.001  0.836
atom   10   Tr[ns(na)] =   7.25486
    eigenvalues:
  0.523  0.529  0.747  0.860  0.968
    eigenvectors:
  0.987  0.000  0.000  0.000  0.013
  0.000  0.000  0.000  1.000  0.000
  0.000  0.000  1.000  0.000  0.000
  0.013  0.000  0.000  0.000  0.987
  0.000  1.000  0.000  0.000  0.000
    occupations:
  0.529  0.000 -0.001  0.051  0.000
  0.000  0.860  0.001  0.001  0.001
 -0.001  0.001  0.747 -0.000  0.000
  0.051  0.001 -0.000  0.962  0.000
  0.000  0.001  0.000  0.000  0.529
atom   16   Tr[ns(na)] =   7.21807
    eigenvalues:
  0.515  0.558  0.670  0.890  0.976
    eigenvectors:
  0.000  0.176  0.006  0.001  0.818
  0.999  0.001  0.000  0.000  0.000
  0.000  0.004  0.978  0.005  0.013
  0.001  0.820  0.010  0.000  0.169
  0.000  0.000  0.005  0.994  0.000
    occupations:
  0.901 -0.004  0.034 -0.156 -0.001
 -0.004  0.515 -0.002  0.003 -0.006
  0.034 -0.002  0.675 -0.008  0.016
 -0.156  0.003 -0.008  0.630 -0.001
 -0.001 -0.006  0.016 -0.001  0.889
atom   17   Tr[ns(na)] =   7.22055
    eigenvalues:
  0.553  0.606  0.657  0.811  0.983
    eigenvectors:
  0.001  0.987  0.000  0.000  0.012
  0.000  0.000  0.015  0.984  0.000
  0.000  0.000  0.985  0.015  0.000
  0.000  0.012  0.000  0.000  0.988
  0.999  0.001  0.000  0.000  0.000
    occupations:
  0.611 -0.001  0.000  0.041  0.002
 -0.001  0.808  0.019 -0.001 -0.001
  0.000  0.019  0.660  0.001  0.000
  0.041 -0.001  0.001  0.978  0.000
  0.002 -0.001  0.000  0.000  0.553
atom   22   Tr[ns(na)] =   7.23979
    eigenvalues:
  0.570  0.590  0.778  0.836  0.846
    eigenvectors:
  0.000  0.160  0.004  0.188  0.648
  0.997  0.003  0.000  0.000  0.000
  0.000  0.000  0.990  0.001  0.009
  0.003  0.837  0.001  0.035  0.124
  0.000  0.000  0.004  0.776  0.219
    occupations:
  0.803  0.003  0.005 -0.093  0.003
  0.003  0.570  0.001 -0.003 -0.001
  0.005  0.001  0.779 -0.001  0.004
 -0.093 -0.003 -0.001  0.630 -0.002
  0.003 -0.001  0.004 -0.002  0.838
atom   23   Tr[ns(na)] =   7.22377
    eigenvalues:
  0.580  0.665  0.673  0.712  0.983
    eigenvectors:
  0.000  0.976  0.017  0.000  0.007
  0.000  0.000  0.000  1.000  0.000
  0.000  0.017  0.983  0.000  0.000
  0.000  0.007  0.000  0.000  0.993
  1.000  0.000  0.000  0.000  0.000
    occupations:
  0.667 -0.000 -0.001  0.027 -0.000
 -0.000  0.712  0.000  0.000  0.001
 -0.001  0.000  0.673  0.002 -0.000
  0.027  0.000  0.002  0.981 -0.000
 -0.000  0.001 -0.000 -0.000  0.580
N of occupied +U levels =  57.8324083
 --- exit write_ns ---

     Threshold (ethr) on eigenvalues was too large:
     Diagonalizing with lowered threshold

     Davidson diagonalization with overlap
     ethr =  3.72E-08,  avg # of iterations =  2.1

[...]

     total energy              =   -2161.32554096 Ry
     Harris-Foulkes estimate   =   -2161.32554096 Ry
     estimated scf accuracy    <       0.00000002 Ry

     iteration # 27     ecut=    40.00 Ry     beta=0.70
     Davidson diagonalization with overlap
     ethr =  4.82E-12,  avg # of iterations =  1.0

     negative rho (up, down):  0.575E+00 0.000E+00

     End of self-consistent calculation
 --- enter write_ns ---
 LDA+U parameters:
U( 2)     =  4.00000000
alpha( 2) =  0.00000000
atom    3   Tr[ns(na)] =   7.21850
    eigenvalues:
  0.515  0.559  0.670  0.889  0.976
    eigenvectors:
  0.000  0.175  0.006  0.000  0.818
  0.999  0.001  0.000  0.000  0.000
  0.000  0.003  0.981  0.003  0.013
  0.001  0.820  0.010  0.000  0.168
  0.000  0.000  0.003  0.997  0.000
    occupations:
  0.901  0.004  0.034 -0.156  0.000
  0.004  0.515  0.002 -0.003 -0.006
  0.034  0.002  0.675 -0.008 -0.012
 -0.156 -0.003 -0.008  0.630  0.001
  0.000 -0.006 -0.012  0.001  0.889
atom    4   Tr[ns(na)] =   7.22728
    eigenvalues:
  0.554  0.605  0.657  0.816  0.981
    eigenvectors:
  0.001  0.986  0.000  0.000  0.013
  0.000  0.000  0.023  0.977  0.000
  0.000  0.000  0.977  0.023  0.000
  0.000  0.013  0.000  0.000  0.987
  0.999  0.001  0.000  0.000  0.000
    occupations:
  0.610 -0.001 -0.000  0.042  0.002
 -0.001  0.812  0.024 -0.001 -0.001
 -0.000  0.024  0.660  0.002  0.000
  0.042 -0.001  0.002  0.977  0.000
  0.002 -0.001  0.000  0.000  0.554
atom    9   Tr[ns(na)] =   7.23123
    eigenvalues:
  0.572  0.591  0.789  0.825  0.838
    eigenvectors:
  0.001  0.161  0.000  0.785  0.053
  0.990  0.010  0.000  0.000  0.000
  0.000  0.000  0.986  0.000  0.014
  0.009  0.829  0.000  0.151  0.010
  0.000  0.000  0.014  0.063  0.923
    occupations:
  0.788 -0.002 -0.001 -0.086  0.003
 -0.002  0.572  0.001  0.003  0.000
 -0.001  0.001  0.790  0.000 -0.006
 -0.086  0.003  0.000  0.629 -0.001
  0.003  0.000 -0.006 -0.001  0.836
atom   10   Tr[ns(na)] =   7.25550
    eigenvalues:
  0.523  0.529  0.747  0.861  0.968
    eigenvectors:
  0.987  0.000  0.000  0.000  0.013
  0.000  0.000  0.000  1.000  0.000
  0.000  0.000  1.000  0.000  0.000
  0.013  0.000  0.000  0.000  0.987
  0.000  1.000  0.000  0.000  0.000
    occupations:
  0.529  0.000 -0.001  0.051  0.000
  0.000  0.861  0.001  0.001  0.001
 -0.001  0.001  0.747 -0.000  0.000
  0.051  0.001 -0.000  0.962  0.000
  0.000  0.001  0.000  0.000  0.529
atom   16   Tr[ns(na)] =   7.21895
    eigenvalues:
  0.515  0.558  0.671  0.890  0.976
    eigenvectors:
  0.000  0.176  0.006  0.001  0.818
  0.999  0.001  0.000  0.000  0.000
  0.000  0.004  0.978  0.005  0.013
  0.001  0.820  0.010  0.000  0.169
  0.000  0.000  0.005  0.994  0.000
    occupations:
  0.901 -0.004  0.034 -0.156 -0.001
 -0.004  0.515 -0.002  0.003 -0.006
  0.034 -0.002  0.676 -0.008  0.016
 -0.156  0.003 -0.008  0.630 -0.001
 -0.001 -0.006  0.016 -0.001  0.888
atom   17   Tr[ns(na)] =   7.22199
    eigenvalues:
  0.553  0.606  0.658  0.811  0.983
    eigenvectors:
  0.001  0.987  0.000  0.000  0.012
  0.000  0.000  0.015  0.985  0.000
  0.000  0.000  0.985  0.015  0.000
  0.000  0.012  0.000  0.000  0.988
  0.999  0.001  0.000  0.000  0.000
    occupations:
  0.611 -0.001 -0.000  0.041  0.002
 -0.001  0.808  0.019 -0.001 -0.001
 -0.000  0.019  0.660  0.001  0.000
  0.041 -0.001  0.001  0.978  0.000
  0.002 -0.001  0.000  0.000  0.553
atom   22   Tr[ns(na)] =   7.23457
    eigenvalues:
  0.570  0.590  0.777  0.836  0.845
    eigenvectors:
  0.000  0.160  0.004  0.184  0.652
  0.997  0.003  0.000  0.000  0.000
  0.000  0.000  0.991  0.001  0.009
  0.003  0.837  0.001  0.035  0.124
  0.000  0.000  0.004  0.781  0.215
    occupations:
  0.802  0.003  0.005 -0.093  0.003
  0.003  0.570  0.001 -0.003 -0.001
  0.005  0.001  0.777 -0.001  0.004
 -0.093 -0.003 -0.001  0.630 -0.002
  0.003 -0.001  0.004 -0.002  0.838
atom   23   Tr[ns(na)] =   7.22416
    eigenvalues:
  0.580  0.665  0.673  0.712  0.983
    eigenvectors:
  0.000  0.977  0.016  0.000  0.007
  0.000  0.000  0.000  1.000  0.000
  0.000  0.016  0.984  0.000  0.000
  0.000  0.007  0.000  0.000  0.993
  1.000  0.000  0.000  0.000  0.000
    occupations:
  0.667 -0.000 -0.001  0.027 -0.000
 -0.000  0.712  0.000  0.000  0.001
 -0.001  0.000  0.673  0.002 -0.000
  0.027  0.000  0.002  0.981 -0.000
 -0.000  0.001 -0.000 -0.000  0.580
N of occupied +U levels =  57.8321682
 --- exit write_ns ---

[...]

          k = 0.2500-0.4870 0.0000 ( 30468 PWs)   bands (ev):

[...]

          k =-0.2500 0.2435 0.0000 ( 30434 PWs)   bands (ev):

   -75.0817 -74.3236 -74.2828 -74.1557 -74.1477 -73.8107 -73.7165 -73.7074
   -45.6271 -44.8886 -44.7298 -44.4941 -44.4850 -44.4698 -44.3366 -44.2898
   -44.2795 -44.2410 -44.1966 -44.1906 -44.0806 -44.0309 -43.9616 -43.9537
   -43.9404 -43.8978 -43.7475 -43.7290 -43.6956 -43.6360 -43.5377 -43.4280
   -21.0220 -20.5813 -20.5356 -20.4577 -20.3160 -20.1340 -20.0670 -19.9266
   -19.9041 -19.8424 -19.6264 -19.5933 -19.5569 -19.4981 -19.4640 -19.3752
   -19.3065 -19.1532 -18.9098  -9.4051  -9.1595  -9.0040  -8.8290  -8.7214
    -8.7021  -8.5176  -8.3748  -8.0884  -8.0230  -7.9346  -7.8683  -7.8154
    -7.7272  -7.6938  -7.6063  -7.5201  -7.3566  -7.2339  -7.0402  -6.9762
    -6.7811  -6.5425  -6.5132  -6.3284  -6.2446  -6.1593  -5.9928  -5.9260
    -5.8869  -5.8115  -5.7358  -5.5917  -5.5050  -5.3864  -5.3231  -5.2854
    -5.2020  -5.0831  -5.0406  -4.9789  -4.7739  -4.7017  -4.6215  -4.5047
    -4.3601  -4.2925  -4.2073  -4.1460  -4.0168  -3.9038  -3.8145  -3.7074
    -3.4925  -3.4134  -3.2652  -3.0661  -2.9688  -2.5629  -2.5199  -2.4804
    -2.4657  -2.2854  -2.2505  -2.2240  -2.1039  -2.0837  -1.9753  -1.9114
    -1.7711  -1.4299  -1.4224  -1.2390  -1.1495  -0.8130  -0.7046  -0.6071
    -0.4876  -0.4340  -0.3102  -0.0500   0.8762   1.2478   1.5746   1.6139
     1.9093   2.3182   2.5047   2.7809   2.9657   3.0544   3.1731   3.2536
     3.3785   3.4271   3.6809   3.8221   4.0504   4.6939   4.7727   5.2575
     5.5438   5.5920   5.7674   6.3507   6.5392   6.5982   6.6843   6.7594
     6.8429   6.9487   7.0808   7.2993   7.5648   7.7829   7.8966   7.9932
     8.2309   8.3217   8.3711   8.4913   8.5308   8.6055   8.7081   8.7601
     8.9697   9.1738   9.2486   9.3651   9.5157   9.6192   9.8077   9.8646
    10.0053  10.0880  10.1233  10.1557  10.2777  10.3504  10.3680  10.4960
    10.5972  10.6483  10.7203  10.9061  10.9547  11.1094  11.2045  11.2913
    11.4022  11.5269  11.5432  11.6005  11.6756  11.7849  11.8256  11.8673
    11.9538  12.0171  12.1199  12.1858  12.2445  12.3272  12.4956  12.5291
    12.5992  12.6206  12.7055  12.7428  12.8334  12.8593  12.9364  13.0241
    13.0850  13.1932  13.2893  13.3705  13.4243  13.5142  13.5889  13.6580
    13.7837  13.8438  13.9663  14.0118  14.1488  14.2021  14.2494  14.3361
    14.4461  14.4995  14.5684  14.6194  14.6619  14.8118  14.8748  14.9527
    15.0516  15.0933  15.1377  15.2354  15.3338  15.4216  15.5459  15.5926
    15.6501  15.7155  15.7861  15.8414  15.9008  15.9424  15.9799  16.0796
    16.1090  16.1741  16.3030  16.3264  16.3612  16.4542  16.5517  16.6240
    16.6728  16.7389  16.7828  16.8153  16.8857  16.9338  16.9796  17.0769
    17.1593  17.2182  17.3008  17.3897  17.4259  17.4729  17.5067  17.6070
    17.7099  17.7252  17.8323  17.8631  17.9207  17.9578  18.0332  18.0802
    18.2227  18.2434  18.2988  18.3206  18.4252  18.5064  18.6136  18.6448
    18.6859  18.8226  18.8463  18.9263  19.0410  19.1024  19.1631  19.1901
    19.2879  19.3556  19.4561  19.4968  19.5262  19.6193  19.7369  19.7619
    19.8482  19.8929  19.9576  19.9958  20.1709  20.2008  20.3102  20.3829
    20.4902  20.5602  20.6273  20.6806  20.7938  20.8039  20.8861  20.9045
    20.9669  21.0472  21.1032  21.1706  21.2481  21.3057  21.3482  21.4001
    21.5179  21.5343  21.5873  21.6483  21.6999  21.7736  21.8275  21.9484
    21.9721  22.0348  22.0445  22.1025  22.1489

     the Fermi energy is    -1.3127 ev

!    total energy              =   -2161.32554096 Ry
     Harris-Foulkes estimate   =   -2161.32554096 Ry
     estimated scf accuracy    <          5.2E-09 Ry

     The total energy is the sum of the following terms:

     one-electron contribution =  -25166.35191488 Ry
     hartree contribution      =   12605.47197483 Ry
     xc contribution           =    -337.78905872 Ry
     ewald contribution        =   10735.27143957 Ry
     Hubbard energy            =       2.07210123 Ry
     smearing contrib. (-TS)   =      -0.00008299 Ry

     convergence has been achieved in  27 iterations

     Forces acting on atoms (Ry/au):

     negative rho (up, down):  0.575E+00 0.000E+00
     atom    1 type  1   force =    -0.00509704   -0.00804557   -0.00035084
     atom    2 type  1   force =     0.00017561    0.00242529   -0.00082408
     atom    3 type  2   force =     0.03290100    0.00374085   -0.00080220
     atom    4 type  2   force =     0.00263151    0.00508860    0.00035203
     atom    5 type  1   force =     0.00271984   -0.04101235   -0.00009165
     atom    6 type  1   force =     0.00389391    0.04186072   -0.00004079
     atom    7 type  1   force =    -0.00029320   -0.00257743    0.00072951
     atom    8 type  1   force =     0.00146544   -0.00174068    0.00096628
     atom    9 type  2   force =    -0.00245405    0.00338094    0.00085448
     atom   10 type  2   force =     0.00019215   -0.00242939   -0.00005452
     atom   11 type  1   force =    -0.00624066    0.01367211    0.00057355
     atom   12 type  1   force =    -0.00817122   -0.01450161    0.00058454
     atom   13 type  1   force =     0.00094541   -0.00100623   -0.00025338
     atom   14 type  1   force =    -0.00448609   -0.00776161   -0.00014770
     atom   15 type  1   force =    -0.00009686    0.00275204   -0.00053823
     atom   16 type  2   force =    -0.03317345    0.00485841   -0.00079815
     atom   17 type  2   force =     0.00229436    0.00514029    0.00020710
     atom   18 type  1   force =    -0.00130385   -0.04162998   -0.00009762
     atom   19 type  1   force =     0.00118565    0.04080103   -0.00000638
     atom   20 type  1   force =    -0.00051330   -0.00340898    0.00043764
     atom   21 type  1   force =    -0.00149843   -0.00164198    0.00077386
     atom   22 type  2   force =     0.00161082    0.00318089    0.00027595
     atom   23 type  2   force =    -0.00064189    0.00152076   -0.00024022
     atom   24 type  1   force =     0.00705737    0.01528345    0.00024186
     atom   25 type  1   force =     0.00864171   -0.01632968    0.00021773
     atom   26 type  1   force =    -0.00253247   -0.00149123   -0.00036793
     atom   27 type  3   force =     0.00001353    0.00034719   -0.00043098
     atom   28 type  3   force =     0.00000692   -0.00011179   -0.00075576
     atom   29 type  3   force =     0.00031069   -0.00021124   -0.00020277
     atom   30 type  3   force =     0.00018364   -0.00014512   -0.00012358
     atom   31 type  1   force =     0.00027296   -0.00000772   -0.00008774

     Total force =     0.002812     Total SCF correction =     0.000149

     bfgs converged in  14 scf cycles and  13 bfgs steps
     (criteria: energy < 0.10E-03, force < 0.10E-02)

     End of BFGS Geometry Optimization

     Final energy   =   -2161.3255409557 Ry
Begin final coordinates

ATOMIC_POSITIONS (crystal)
O0       0.000000000   0.000000000   0.379416293    0   0   1
O0       0.000000000   0.500000000   0.403850437    0   0   1
Ru1      0.250000000   0.500000000   0.454623130    0   0   1
Ru1      0.000000000   0.000000000   0.452847677    0   0   1
O0       0.250000000   0.810000000   0.452958531    0   0   1
O0       0.250000000   0.190000000   0.452821723    0   0   1
O0       0.000000000   0.500000000   0.499184748    0   0   1
O0       0.000000000   0.000000000   0.525263242    0   0   1
Ru1      0.250000000   0.000000000   0.576159457    0   0   1
Ru1      0.000000000   0.500000000   0.568835637    0   0   1
O0       0.250000000   0.690000000   0.574796786    0   0   1
O0       0.250000000   0.310000000   0.574704226    0   0   1
O0       0.000000000   0.000000000   0.617777737    0   0   1
O0       0.500000000   0.000000000   0.379268490    0   0   1
O0       0.500000000   0.500000000   0.405006718    0   0   1
Ru1      0.750000000   0.500000000   0.454615302    0   0   1
Ru1      0.500000000   0.000000000   0.452674875    0   0   1
O0       0.750000000   0.810000000   0.452959333    0   0   1
O0       0.750000000   0.190000000   0.452842156    0   0   1
O0       0.500000000   0.500000000   0.503581093    0   0   1
O0       0.500000000   0.000000000   0.525455448    0   0   1
Ru1      0.750000000   0.000000000   0.575793012    0   0   1
Ru1      0.500000000   0.500000000   0.581768831    0   0   1
O0       0.750000000   0.690000000   0.574702381    0   0   1
O0       0.750000000   0.310000000   0.574463908    0   0   1
O0       0.500000000   0.000000000   0.616024062    0   0   1
H2      -0.000491446   0.624970292   0.382079567
H2       0.499380890   0.617913509   0.381052790
H2       0.145682363   0.029881614   0.366685068
H2       0.646231859   0.027531241   0.366565853
O0       0.500384987   0.497208912   0.646191489
End final coordinates

     General routines

     Parallel routines
     Hubbard U routines

   This run was terminated on:  17:27:24  27Apr2014

   JOB DONE.
Running PBS batch system epilogue script
Job id: 340441.audhumbla.fysik.dtu.dk
Username: zhonxu
Groupname: campgst
Jobname: RuO2/Eads-2-layers/O-U-4.0
Sessionid: 27685
Queuename: verylong
Accounting:
This job has allocated the following 16 nodes:
d063 d063 d063 d063 d063 d063 d063 d063 d036 d036 d036 d036 d036 d036 d036 d036
Finished epilogue job 340441.audhumbla.fysik.dtu.dk for zhonxu