     Program PWSCF v.5.0.2 (svn rev. 9656) starts on 30Apr2014 at  4:50:39

     Current dimensions of program PWSCF are:
     Max number of different atomic species (ntypx) = 10
     Max number of k-points (npk) =  40000
     Max angular momentum in pseudopotentials (lmaxx) =  3
     Reading input from pwscf.in
Warning: card &CELL ignored
Warning: card / ignored

     Subspace diagonalization in iterative solution of the eigenvalue problem:
     a serial algorithm will be used

     bravais-lattice index     =            0
     lattice parameter (alat)  =      11.7541  a.u.
     unit-cell volume          =    7139.8207 (a.u.)^3
     number of atoms/cell      =           31
     number of atomic types    =            3
     number of electrons       =       238.00
     number of Kohn-Sham states=          357
     kinetic-energy cutoff     =      40.0000  Ry
     charge density cutoff     =     500.0000  Ry
     convergence threshold     =      1.0E-06
     mixing beta               =       0.7000
     number of iterations used =            8  plain     mixing
     Exchange-correlation      = SLA  PW   PBE  PBE ( 1 4 3 4 0)
     EXX-fraction              =        0.00
     nstep                     =           50

     celldm(1)=  11.754097  celldm(2)=   0.000000  celldm(3)=   0.000000
     celldm(4)=   0.000000  celldm(5)=   0.000000  celldm(6)=   0.000000

     crystal axes: (cart. coord. in units of alat)
               a(1) = (   1.000000   0.000000   0.000000 )
               a(2) = (   0.000000   1.034513   0.000000 )
               a(3) = (   0.000000   0.000000   4.249947 )

     reciprocal axes: (cart. coord. in units 2 pi/alat)
               b(1) = (  1.000000  0.000000  0.000000 )
               b(2) = (  0.000000  0.966638  0.000000 )
               b(3) = (  0.000000  0.000000  0.235297 )

     PseudoPot. # 1 for O  read from file:
     /home/camp/zhonxu/pseudo/o_pbe_v1.01.uspp.F.UPF
     MD5 check sum: 2bcb18d16ea4b960afae9ec6d52f22d2
     Pseudo is Ultrasoft + core correction, Zval =  6.0
     Generated by new atomic code, or converted to UPF format
     Using radial grid of  737 points,  5 beta functions with:
                l(1) =   0
                l(2) =   0
                l(3) =   1
                l(4) =   1
                l(5) =   2
     Q(r) pseudized with  8 coefficients,  rinner =    0.900   0.900   0.900
                                                       0.900   0.900

     PseudoPot. # 2 for Rh read from file:
     /home/camp/zhonxu/pseudo/rh_pbe_v1.uspp.F.UPF
     MD5 check sum: 37b626987ad0dd8ec6bf4cc9ef289918
     Pseudo is Ultrasoft + core correction, Zval = 15.0
     Generated by new atomic code, or converted to UPF format
     Using radial grid of  969 points,  7 beta functions with:
                l(1) =   0
                l(2) =   0
                l(3) =   1
                l(4) =   1
                l(5) =   2
                l(6) =   2
                l(7) =   2
     Q(r) pseudized with  6 coefficients,  rinner =    1.050   1.050   1.050
                                                       1.050   1.050

     PseudoPot. # 3 for H  read from file:
     /home/camp/zhonxu/pseudo/h_pbe_v1.uspp.F.UPF
     MD5 check sum: 3408e3ff4ec8b0a4e358431e7e038a48
     Pseudo is Ultrasoft, Zval =  1.0
     Generated by new atomic code, or converted to UPF format
     Using radial grid of  615 points,  2 beta functions with:
                l(1) =   0
                l(2) =   0
     Q(r) pseudized with  8 coefficients,  rinner =    0.700

     atomic species   valence    mass     pseudopotential
        O0             6.00    15.99940     O ( 1.00)
        Rh1           15.00   102.90550     Rh( 1.00)
        H2             1.00     1.00794     H ( 1.00)

     Simplified LDA+U calculation (l_max = 2) with parameters (eV):
     atomic species    L          U    alpha       J0     beta
        Rh1            2     7.0000   0.0000   0.0000   0.0000

     No symmetry found

   Cartesian axes

     site n.     atom                  positions (alat units)
         1           O0  tau(   1) = (   0.0000000   0.0000000   1.6064375  )
         2           O0  tau(   2) = (   0.0000000   0.5172566   1.7091588  )
         3           Rh1 tau(   3) = (   0.2500000   0.5172566   1.9262886  )
         4           Rh1 tau(   4) = (   0.0000000   0.0000000   1.9228036  )
         5           O0  tau(   5) = (   0.2500000   0.8379556   1.9220386  )
         6           O0  tau(   6) = (   0.2500000   0.1965575   1.9215286  )
         7           O0  tau(   7) = (   0.0000000   0.5172566   2.1200437  )
         8           O0  tau(   8) = (   0.0000000   0.0000000   2.2432071  )
         9           Rh1 tau(   9) = (   0.2500000   0.0000000   2.4439746  )
        10           Rh1 tau(  10) = (   0.0000000   0.5172566   2.4253174  )
        11           O0  tau(  11) = (   0.2500000   0.7138141   2.4432947  )
        12           O0  tau(  12) = (   0.2500000   0.3206991   2.4432097  )
        13           O0  tau(  13) = (   0.0000000   0.0000000   2.6356898  )
        14           O0  tau(  14) = (   0.5000000   0.0000000   1.6064375  )
        15           O0  tau(  15) = (   0.5000000   0.5172566   1.7079263  )
        16           Rh1 tau(  16) = (   0.7500000   0.5172566   1.9262886  )
        17           Rh1 tau(  17) = (   0.5000000   0.0000000   1.9227611  )
        18           O0  tau(  18) = (   0.7500000   0.8379556   1.9219536  )
        19           O0  tau(  19) = (   0.7500000   0.1965575   1.9216136  )
        20           O0  tau(  20) = (   0.5000000   0.5172566   2.1284161  )
        21           O0  tau(  21) = (   0.5000000   0.0000000   2.2423572  )
        22           Rh1 tau(  22) = (   0.7500000   0.0000000   2.4439321  )
        23           Rh1 tau(  23) = (   0.5000000   0.5172566   2.4652244  )
        24           O0  tau(  24) = (   0.7500000   0.7138141   2.4431672  )
        25           O0  tau(  25) = (   0.7500000   0.3206991   2.4432097  )
        26           O0  tau(  26) = (   0.5000000   0.0000000   2.6354348  )
        27           H2  tau(  27) = (  -0.0000700   0.6590056   1.6354222  )
        28           H2  tau(  28) = (   0.4999300   0.6605366   1.6368247  )
        29           H2  tau(  29) = (   0.1480800   0.0354838   1.5606656  )
        30           H2  tau(  30) = (   0.6481100   0.0354321   1.5605806  )
        31           O0  tau(  31) = (   0.5000800   0.5160462   2.7479734  )

     number of k points=    10  Methfessel-Paxton smearing, width (Ry)=  0.0100
                       cart. coord. in units 2pi/alat
        k(    1) = (   0.0000000   0.0000000   0.0000000), wk =   0.1250000
        k(    2) = (   0.0000000   0.2416596   0.0000000), wk =   0.2500000
        k(    3) = (   0.0000000  -0.4833191   0.0000000), wk =   0.1250000
        k(    4) = (   0.2500000   0.0000000   0.0000000), wk =   0.2500000
        k(    5) = (   0.2500000   0.2416596   0.0000000), wk =   0.2500000
        k(    6) = (   0.2500000  -0.4833191   0.0000000), wk =   0.2500000
        k(    7) = (  -0.5000000   0.0000000   0.0000000), wk =   0.1250000
        k(    8) = (  -0.5000000   0.2416596   0.0000000), wk =   0.2500000
        k(    9) = (  -0.5000000  -0.4833191   0.0000000), wk =   0.1250000
        k(   10) = (  -0.2500000   0.2416596   0.0000000), wk =   0.2500000

     Largest allocated arrays     est. size (Mb)     dimensions
     Largest temporary arrays     est. size (Mb)     dimensions

     Check: negative/imaginary core charge=   -0.000003    0.000000

     Initial potential from superposition of free atoms
     Check: negative starting charge=   -0.645358

     starting charge  233.99915, renormalised to  238.00000

     negative rho (up, down):  0.656E+00 0.000E+00
     Number of +U iterations with fixed ns =  0
     Starting occupations:
 --- enter write_ns ---
 LDA+U parameters:
U( 2)     =  7.00000000
alpha( 2) =  0.00000000
atom    3   Tr[ns(na)] =   7.00000
    eigenvalues:
  0.700  0.700  0.700  0.700  0.700
    eigenvectors:
  1.000  0.000  0.000  0.000  0.000
  0.000  1.000  0.000  0.000  0.000
  0.000  0.000  1.000  0.000  0.000
  0.000  0.000  0.000  1.000  0.000
  0.000  0.000  0.000  0.000  1.000
    occupations:
  0.700  0.000  0.000  0.000  0.000
  0.000  0.700  0.000  0.000  0.000
  0.000  0.000  0.700  0.000  0.000
  0.000  0.000  0.000  0.700  0.000
  0.000  0.000  0.000  0.000  0.700
atom    4   Tr[ns(na)] =   7.00000
    eigenvalues:
  0.700  0.700  0.700  0.700  0.700
    eigenvectors:
  1.000  0.000  0.000  0.000  0.000
  0.000  1.000  0.000  0.000  0.000
  0.000  0.000  1.000  0.000  0.000
  0.000  0.000  0.000  1.000  0.000
  0.000  0.000  0.000  0.000  1.000
    occupations:
  0.700  0.000  0.000  0.000  0.000
  0.000  0.700  0.000  0.000  0.000
  0.000  0.000  0.700  0.000  0.000
  0.000  0.000  0.000  0.700  0.000
  0.000  0.000  0.000  0.000  0.700
atom    9   Tr[ns(na)] =   7.00000
    eigenvalues:
  0.700  0.700  0.700  0.700  0.700
    eigenvectors:
  1.000  0.000  0.000  0.000  0.000
  0.000  1.000  0.000  0.000  0.000
  0.000  0.000  1.000  0.000  0.000
  0.000  0.000  0.000  1.000  0.000
  0.000  0.000  0.000  0.000  1.000
    occupations:
  0.700  0.000  0.000  0.000  0.000
  0.000  0.700  0.000  0.000  0.000
  0.000  0.000  0.700  0.000  0.000
  0.000  0.000  0.000  0.700  0.000
  0.000  0.000  0.000  0.000  0.700
atom   10   Tr[ns(na)] =   7.00000
    eigenvalues:
  0.700  0.700  0.700  0.700  0.700
    eigenvectors:
  1.000  0.000  0.000  0.000  0.000
  0.000  1.000  0.000  0.000  0.000
  0.000  0.000  1.000  0.000  0.000
  0.000  0.000  0.000  1.000  0.000
  0.000  0.000  0.000  0.000  1.000
    occupations:
  0.700  0.000  0.000  0.000  0.000
  0.000  0.700  0.000  0.000  0.000
  0.000  0.000  0.700  0.000  0.000
  0.000  0.000  0.000  0.700  0.000
  0.000  0.000  0.000  0.000  0.700
atom   16   Tr[ns(na)] =   7.00000
    eigenvalues:
  0.700  0.700  0.700  0.700  0.700
    eigenvectors:
  1.000  0.000  0.000  0.000  0.000
  0.000  1.000  0.000  0.000  0.000
  0.000  0.000  1.000  0.000  0.000
  0.000  0.000  0.000  1.000  0.000
  0.000  0.000  0.000  0.000  1.000
    occupations:
  0.700  0.000  0.000  0.000  0.000
  0.000  0.700  0.000  0.000  0.000
  0.000  0.000  0.700  0.000  0.000
  0.000  0.000  0.000  0.700  0.000
  0.000  0.000  0.000  0.000  0.700
atom   17   Tr[ns(na)] =   7.00000
    eigenvalues:
  0.700  0.700  0.700  0.700  0.700
    eigenvectors:
  1.000  0.000  0.000  0.000  0.000
  0.000  1.000  0.000  0.000  0.000
  0.000  0.000  1.000  0.000  0.000
  0.000  0.000  0.000  1.000  0.000
  0.000  0.000  0.000  0.000  1.000
    occupations:
  0.700  0.000  0.000  0.000  0.000
  0.000  0.700  0.000  0.000  0.000
  0.000  0.000  0.700  0.000  0.000
  0.000  0.000  0.000  0.700  0.000
  0.000  0.000  0.000  0.000  0.700
atom   22   Tr[ns(na)] =   7.00000
    eigenvalues:
  0.700  0.700  0.700  0.700  0.700
    eigenvectors:
  1.000  0.000  0.000  0.000  0.000
  0.000  1.000  0.000  0.000  0.000
  0.000  0.000  1.000  0.000  0.000
  0.000  0.000  0.000  1.000  0.000
  0.000  0.000  0.000  0.000  1.000
    occupations:
  0.700  0.000  0.000  0.000  0.000
[...]
    eigenvectors:
  0.009  0.144  0.000  0.000  0.848
  0.946  0.054  0.000  0.000  0.000
  0.000  0.000  0.927  0.073  0.000
  0.045  0.803  0.000  0.000  0.152
  0.000  0.000  0.073  0.927  0.000
    occupations:
  0.929  0.002 -0.000 -0.123 -0.000
  0.002  0.633  0.001  0.001 -0.000
 -0.000  0.001  0.891  0.000 -0.008
 -0.123  0.001  0.000  0.691  0.001
 -0.000 -0.000 -0.008  0.001  0.916
atom   10   Tr[ns(na)] =   8.08621
    eigenvalues:
  0.578  0.590  0.945  0.949  0.981
    eigenvectors:
  0.991  0.000  0.000  0.000  0.009
  0.000  0.000  0.001  0.999  0.000
  0.000  0.000  0.999  0.001  0.000
  0.009  0.000  0.000  0.000  0.991
  0.000  1.000  0.000  0.000  0.000
    occupations:
  0.582  0.000  0.001  0.038 -0.000
  0.000  0.949 -0.000 -0.000 -0.000
  0.001 -0.000  0.945  0.000  0.000
  0.038 -0.000  0.000  0.977 -0.000
 -0.000 -0.000  0.000 -0.000  0.590
atom   16   Tr[ns(na)] =   8.10217
    eigenvalues:
  0.578  0.599  0.925  0.969  0.981
    eigenvectors:
  0.007  0.194  0.002  0.000  0.796
  0.968  0.032  0.000  0.000  0.000
  0.000  0.000  0.985  0.012  0.002
  0.024  0.774  0.000  0.000  0.202
  0.000  0.000  0.012  0.987  0.001
    occupations:
  0.904  0.004  0.001 -0.154  0.001
  0.004  0.578  0.000  0.002 -0.006
  0.001  0.000  0.925 -0.004 -0.005
 -0.154  0.002 -0.004  0.675  0.000
  0.001 -0.006 -0.005  0.000  0.968
atom   17   Tr[ns(na)] =   8.11858
    eigenvalues:
  0.597  0.650  0.894  0.937  0.982
    eigenvectors:
  0.001  0.991  0.000  0.000  0.008
  0.000  0.000  0.088  0.912  0.000
  0.000  0.000  0.912  0.088  0.000
  0.000  0.008  0.000  0.000  0.992
  0.999  0.001  0.000  0.000  0.000
    occupations:
  0.652 -0.004 -0.001  0.029  0.002
 -0.004  0.933  0.012  0.001 -0.001
 -0.001  0.012  0.898 -0.000  0.001
  0.029  0.001 -0.000  0.979  0.000
  0.002 -0.001  0.001  0.000  0.597
atom   22   Tr[ns(na)] =   8.12302
    eigenvalues:
  0.633  0.639  0.889  0.918  0.982
    eigenvectors:
  0.001  0.152  0.000  0.000  0.847
  0.997  0.003  0.000  0.000  0.000
  0.000  0.000  0.932  0.068  0.000
  0.003  0.845  0.000  0.000  0.153
  0.000  0.000  0.068  0.932  0.000
    occupations:
  0.929 -0.001  0.000 -0.123 -0.000
 -0.001  0.633  0.001 -0.000 -0.000
  0.000  0.001  0.891 -0.000  0.007
 -0.123 -0.000 -0.000  0.691  0.001
 -0.000 -0.000  0.007  0.001  0.916
atom   23   Tr[ns(na)] =   8.11455
    eigenvalues:
  0.641  0.706  0.838  0.888  0.984
    eigenvectors:
  0.000  0.993  0.000  0.000  0.007
  0.000  0.000  0.000  1.000  0.000
  0.000  0.000  1.000  0.000  0.000
  0.000  0.007  0.000  0.000  0.993
  1.000  0.000  0.000  0.000  0.000
    occupations:
  0.708  0.000 -0.001  0.024 -0.000
  0.000  0.888 -0.000 -0.000  0.000
 -0.001 -0.000  0.838  0.001  0.000
  0.024 -0.000  0.001  0.982  0.000
 -0.000  0.000  0.000  0.000  0.641
N of occupied +U levels =  64.8889092
 --- exit write_ns ---

     Threshold (ethr) on eigenvalues was too large:
     Diagonalizing with lowered threshold

     Davidson diagonalization with overlap
     ethr =  2.92E-08,  avg # of iterations =  3.0

[...]

     total energy              =   -1977.54320231 Ry
     Harris-Foulkes estimate   =   -1977.54320232 Ry
     estimated scf accuracy    <       0.00000002 Ry

     iteration # 19     ecut=    40.00 Ry     beta=0.70
     Davidson diagonalization with overlap
     ethr =  6.33E-12,  avg # of iterations =  1.0

     negative rho (up, down):  0.687E+00 0.000E+00

     End of self-consistent calculation
 --- enter write_ns ---
 LDA+U parameters:
U( 2)     =  7.00000000
alpha( 2) =  0.00000000
atom    3   Tr[ns(na)] =   8.10173
    eigenvalues:
  0.578  0.599  0.925  0.969  0.981
    eigenvectors:
  0.008  0.194  0.002  0.000  0.796
  0.965  0.035  0.000  0.000  0.000
  0.000  0.000  0.979  0.018  0.002
  0.027  0.771  0.000  0.000  0.202
  0.000  0.000  0.018  0.981  0.001
    occupations:
  0.904 -0.004  0.001 -0.154 -0.001
 -0.004  0.578 -0.001 -0.002 -0.005
  0.001 -0.001  0.925 -0.004  0.006
 -0.154 -0.002 -0.004  0.675 -0.000
 -0.001 -0.005  0.006 -0.000  0.968
atom    4   Tr[ns(na)] =   8.11885
    eigenvalues:
  0.596  0.650  0.893  0.938  0.981
    eigenvectors:
  0.001  0.991  0.000  0.000  0.008
  0.000  0.000  0.063  0.937  0.000
  0.000  0.000  0.937  0.063  0.000
  0.000  0.008  0.000  0.000  0.992
  0.999  0.001  0.000  0.000  0.000
    occupations:
  0.653 -0.004 -0.001  0.029  0.001
 -0.004  0.936  0.011  0.001 -0.001
 -0.001  0.011  0.896 -0.000  0.001
  0.029  0.001 -0.000  0.979  0.000
  0.001 -0.001  0.001  0.000  0.596
atom    9   Tr[ns(na)] =   8.12342
    eigenvalues:
  0.633  0.639  0.889  0.919  0.982
    eigenvectors:
  0.009  0.144  0.000  0.000  0.848
  0.948  0.052  0.000  0.000  0.000
  0.000  0.000  0.927  0.073  0.000
  0.044  0.804  0.000  0.000  0.152
  0.000  0.000  0.073  0.927  0.000
    occupations:
  0.929  0.002 -0.000 -0.123 -0.000
  0.002  0.633  0.001  0.001 -0.000
 -0.000  0.001  0.891  0.000 -0.008
 -0.123  0.001  0.000  0.691  0.001
 -0.000 -0.000 -0.008  0.001  0.916
atom   10   Tr[ns(na)] =   8.08672
    eigenvalues:
  0.578  0.590  0.945  0.949  0.981
    eigenvectors:
  0.991  0.000  0.000  0.000  0.009
  0.000  0.000  0.001  0.999  0.000
  0.000  0.000  0.999  0.001  0.000
  0.009  0.000  0.000  0.000  0.991
  0.000  1.000  0.000  0.000  0.000
    occupations:
  0.582  0.000  0.001  0.038 -0.000
  0.000  0.949 -0.000 -0.000 -0.000
  0.001 -0.000  0.945  0.000  0.000
  0.038 -0.000  0.000  0.977 -0.000
 -0.000 -0.000  0.000 -0.000  0.590
atom   16   Tr[ns(na)] =   8.10173
    eigenvalues:
  0.578  0.599  0.924  0.969  0.981
    eigenvectors:
  0.008  0.194  0.002  0.000  0.796
  0.967  0.032  0.000  0.000  0.000
  0.000  0.000  0.985  0.012  0.002
  0.025  0.773  0.000  0.000  0.202
  0.000  0.000  0.012  0.987  0.001
    occupations:
  0.904  0.004  0.001 -0.154  0.001
  0.004  0.578  0.000  0.002 -0.006
  0.001  0.000  0.925 -0.004 -0.005
 -0.154  0.002 -0.004  0.675  0.000
  0.001 -0.006 -0.005  0.000  0.968
atom   17   Tr[ns(na)] =   8.11786
    eigenvalues:
  0.597  0.650  0.894  0.937  0.982
    eigenvectors:
  0.001  0.991  0.000  0.000  0.008
  0.000  0.000  0.087  0.912  0.000
  0.000  0.000  0.913  0.087  0.000
  0.000  0.008  0.000  0.000  0.992
  0.999  0.001  0.000  0.000  0.000
    occupations:
  0.652 -0.004 -0.001  0.029  0.002
 -0.004  0.933  0.012  0.001 -0.001
 -0.001  0.012  0.898 -0.000  0.001
  0.029  0.001 -0.000  0.979  0.000
  0.002 -0.001  0.001  0.000  0.597
atom   22   Tr[ns(na)] =   8.12344
    eigenvalues:
  0.633  0.639  0.889  0.918  0.982
    eigenvectors:
  0.000  0.152  0.000  0.000  0.847
  0.997  0.003  0.000  0.000  0.000
  0.000  0.000  0.932  0.068  0.000
  0.002  0.845  0.000  0.000  0.153
  0.000  0.000  0.068  0.932  0.000
    occupations:
  0.929 -0.001  0.000 -0.123 -0.000
 -0.001  0.634  0.001 -0.000 -0.000
  0.000  0.001  0.891 -0.000  0.007
 -0.123 -0.000 -0.000  0.691  0.001
 -0.000 -0.000  0.007  0.001  0.916
atom   23   Tr[ns(na)] =   8.11513
    eigenvalues:
  0.641  0.706  0.839  0.888  0.984
    eigenvectors:
  0.000  0.993  0.000  0.000  0.007
  0.000  0.000  0.000  1.000  0.000
  0.000  0.000  1.000  0.000  0.000
  0.000  0.007  0.000  0.000  0.993
  1.000  0.000  0.000  0.000  0.000
    occupations:
  0.708  0.000 -0.001  0.024 -0.000
  0.000  0.888 -0.000 -0.000  0.000
 -0.001 -0.000  0.839  0.001  0.000
  0.024 -0.000  0.001  0.982  0.000
 -0.000  0.000  0.000  0.000  0.641
N of occupied +U levels =  64.8888812
 --- exit write_ns ---

[...]

          k = 0.2500-0.4833 0.0000 ( 30510 PWs)   bands (ev):

[...]

          k =-0.2500 0.2417 0.0000 ( 30481 PWs)   bands (ev):

   -49.7660 -49.4451 -49.3718 -48.6918 -48.6906 -48.6599 -48.5903 -48.5838
   -48.5814 -48.5651 -48.5554 -48.5329 -48.4561 -48.4493 -48.4458 -48.3792
   -48.3077 -48.3062 -48.3009 -48.2293 -48.1997 -48.1916 -48.1875 -48.1778
   -21.4857 -21.2247 -21.1992 -21.0896 -20.7816 -20.7109 -20.6729 -20.5991
   -20.5163 -20.4193 -20.3708 -20.3489 -20.2888 -20.1347 -20.0991 -20.0531
   -19.5761 -19.3692 -19.2343 -10.8088 -10.6324 -10.3580 -10.2500 -10.1335
   -10.0031  -9.9310  -9.8965  -9.6170  -9.2358  -9.1529  -9.0519  -8.9153
    -8.8202  -8.7364  -8.5857  -8.5269  -8.4909  -8.3935  -8.1195  -8.0393
    -7.9074  -7.7718  -7.6944  -7.5749  -7.5033  -7.4305  -7.3870  -7.2933
    -7.1749  -7.0949  -7.0269  -6.9505  -6.8676  -6.8203  -6.7452  -6.6792
    -6.6347  -6.4727  -6.4273  -6.2884  -6.1347  -5.7645  -5.5776  -5.5255
    -5.4232  -5.2590  -5.1781  -5.0869  -5.0496  -4.9285  -4.8091  -4.7238
    -4.6754  -4.4839  -4.4052  -4.2668  -4.1887  -4.0445  -3.9746  -3.9377
    -3.8780  -3.8138  -3.7728  -3.6654  -3.6173  -3.5495  -3.4802  -3.3852
    -3.2972  -2.9730  -2.8396  -2.7571  -2.6913  -2.5160  -2.3851  -2.2776
    -2.2579  -2.1141  -2.0456  -1.9386  -0.9105  -0.6377  -0.3254   0.0317
     0.2456   0.5399   0.7183   1.0008   1.1874   1.3385   1.4169   1.5590
     1.6272   1.7692   1.8243   2.1967   3.5031   4.4474   4.5613   5.0344
     5.3094   5.3246   5.4767   6.0581   6.3659   6.3962   6.4472   6.5172
     6.6312   6.7578   6.9011   7.1194   7.2923   7.4812   7.6186   7.7066
     7.8990   8.0103   8.0965   8.1920   8.2493   8.3241   8.4474   8.5244
     8.7579   8.8745   8.9053   9.0088   9.2208   9.3971   9.5176   9.5768
     9.6531   9.7762   9.8187   9.8808   9.9589  10.1036  10.1498  10.2637
    10.3374  10.4241  10.4436  10.6217  10.7434  10.8173  10.8477  10.9877
    11.0095  11.1314  11.2131  11.2756  11.3731  11.4764  11.5057  11.5691
    11.5959  11.7410  11.7677  11.8196  11.8791  12.0389  12.1757  12.2156
    12.2662  12.3258  12.3455  12.4671  12.5107  12.6253  12.6836  12.7397
    12.8003  12.8582  12.9845  13.0716  13.1232  13.1832  13.2267  13.2885
    13.3924  13.4487  13.5403  13.5880  13.7571  13.8217  13.8896  13.9314
    13.9755  14.1546  14.2154  14.2364  14.3030  14.3778  14.4224  14.5124
    14.6257  14.6769  14.7489  14.8197  15.0314  15.1637  15.3153  15.3291
    15.3776  15.4370  15.5092  15.5325  15.5964  15.6635  15.7224  15.7857
    15.8754  15.9246  16.0246  16.0630  16.1392  16.2197  16.2905  16.3600
    16.3913  16.4498  16.4773  16.5173  16.5866  16.6396  16.6662  16.7443
    16.8264  16.9037  16.9986  17.0598  17.1292  17.2093  17.2453  17.3338
    17.3975  17.4972  17.5271  17.5945  17.6413  17.7351  17.7977  17.8444
    17.9468  18.0133  18.0706  18.1453  18.1653  18.2898  18.3173  18.4076
    18.4512  18.5667  18.6461  18.7085  18.8329  18.8580  18.9054  18.9557
    19.0173  19.0741  19.1416  19.2199  19.2786  19.3138  19.3614  19.4980
    19.5497  19.6360  19.7090  19.7521  19.8033  19.9161  20.0295  20.0778
    20.2103  20.2852  20.2918  20.3554  20.5252  20.5726  20.6198  20.6777
    20.7234  20.7983  20.8790  20.9280  20.9489  21.0526  21.0979  21.1974
    21.3077  21.3388  21.3844  21.4114  21.4552  21.5440  21.6707  21.7523
    21.7625  21.8368  21.8693  21.9233  21.9502  22.0558  22.1110  22.1899
    22.2340  22.3259  22.4044  22.4577  22.5464

     the Fermi energy is    -2.4016 ev

!    total energy              =   -1977.54320231 Ry
     Harris-Foulkes estimate   =   -1977.54320232 Ry
     estimated scf accuracy    <          3.5E-09 Ry

     The total energy is the sum of the following terms:

     one-electron contribution =  -23312.92430760 Ry
     hartree contribution      =   11705.25768063 Ry
     xc contribution           =    -372.23278201 Ry
     ewald contribution        =    9999.73955989 Ry
     Hubbard energy            =       2.61698007 Ry
     smearing contrib. (-TS)   =      -0.00033330 Ry

     convergence has been achieved in  19 iterations

     Forces acting on atoms (Ry/au):

     negative rho (up, down):  0.687E+00 0.000E+00
     atom    1 type  1   force =    -0.00707919   -0.01166860    0.00021081
     atom    2 type  1   force =     0.00003622    0.00244243    0.00037010
     atom    3 type  2   force =     0.03429416    0.00863397   -0.00006240
     atom    4 type  2   force =     0.00839498    0.00880016    0.00009585
     atom    5 type  1   force =    -0.00356170   -0.02711902    0.00005575
     atom    6 type  1   force =     0.00421561    0.02379647    0.00015688
     atom    7 type  1   force =    -0.00033040   -0.00241056   -0.00058913
     atom    8 type  1   force =    -0.00310966   -0.00109045   -0.00039579
     atom    9 type  2   force =     0.00213727    0.00044741   -0.00016167
     atom   10 type  2   force =    -0.00004092   -0.00110080   -0.00071793
     atom   11 type  1   force =     0.00350361    0.01245567   -0.00039492
     atom   12 type  1   force =     0.00288633   -0.01327703   -0.00052122
     atom   13 type  1   force =    -0.00067637    0.00009089    0.00020535
     atom   14 type  1   force =    -0.00654787   -0.01168678    0.00020293
     atom   15 type  1   force =     0.00010914    0.00187285   -0.00031285
     atom   16 type  2   force =    -0.03450633    0.00705596   -0.00005419
     atom   17 type  2   force =     0.00815744    0.00895842   -0.00002281
     atom   18 type  1   force =    -0.00287665   -0.02668978    0.00007429
     atom   19 type  1   force =     0.00477186    0.02441365    0.00014833
     atom   20 type  1   force =    -0.00017881   -0.00503309    0.00096173
     atom   21 type  1   force =    -0.00295834   -0.00068731   -0.00039315
     atom   22 type  2   force =     0.00034262    0.00065024   -0.00015177
     atom   23 type  2   force =    -0.00011146    0.00147463    0.00050540
     atom   24 type  1   force =    -0.00402850    0.01253918   -0.00038722
     atom   25 type  1   force =    -0.00192650   -0.01331536   -0.00052951
     atom   26 type  1   force =    -0.00062283    0.00000668    0.00011712
     atom   27 type  3   force =    -0.00000973   -0.00002880    0.00061160
     atom   28 type  3   force =    -0.00000337    0.00032926    0.00041840
     atom   29 type  3   force =    -0.00008821    0.00013401    0.00012339
     atom   30 type  3   force =    -0.00017883    0.00028047    0.00007715
     atom   31 type  1   force =    -0.00001358   -0.00027476    0.00035945

     Total force =     0.002175     Total SCF correction =     0.000165

     bfgs converged in   9 scf cycles and   8 bfgs steps
     (criteria: energy < 0.10E-03, force < 0.10E-02)

     End of BFGS Geometry Optimization

     Final energy   =   -1977.5432023118 Ry
Begin final coordinates

ATOMIC_POSITIONS (crystal)
O0       0.000000000   0.000000000   0.378217262    0   0   1
O0       0.000000000   0.500000000   0.402568896    0   0   1
Rh1      0.250000000   0.500000000   0.453372574    0   0   1
Rh1      0.000000000   0.000000000   0.452405300    0   0   1
O0       0.250000000   0.810000000   0.452528920    0   0   1
O0       0.250000000   0.190000000   0.452237109    0   0   1
O0       0.000000000   0.500000000   0.499771628    0   0   1
O0       0.000000000   0.000000000   0.527526484    0   0   1
Rh1      0.250000000   0.000000000   0.574571416    0   0   1
Rh1      0.000000000   0.500000000   0.571092054    0   0   1
O0       0.250000000   0.690000000   0.574658906    0   0   1
O0       0.250000000   0.310000000   0.574583671    0   0   1
O0       0.000000000   0.000000000   0.619873806    0   0   1
O0       0.500000000   0.000000000   0.378123011    0   0   1
O0       0.500000000   0.500000000   0.402435732    0   0   1
Rh1      0.750000000   0.500000000   0.453375593    0   0   1
Rh1      0.500000000   0.000000000   0.452296106    0   0   1
O0       0.750000000   0.810000000   0.452496324    0   0   1
O0       0.750000000   0.190000000   0.452252935    0   0   1
O0       0.500000000   0.500000000   0.501863512    0   0   1
O0       0.500000000   0.000000000   0.527440890    0   0   1
Rh1      0.750000000   0.000000000   0.574569054    0   0   1
Rh1      0.500000000   0.500000000   0.578775411    0   0   1
O0       0.750000000   0.690000000   0.574622319    0   0   1
O0       0.750000000   0.310000000   0.574610901    0   0   1
O0       0.500000000   0.000000000   0.620006498    0   0   1
H2      -0.000230030   0.636187690   0.385036271
H2       0.499750730   0.637317134   0.385421671
H2       0.147975789   0.034678688   0.367394552
H2       0.647988833   0.034944037   0.367328080
O0       0.500061596   0.498207557   0.645363115
End final coordinates

     General routines

     Parallel routines
     Hubbard U routines

   This run was terminated on:  17:40:13  30Apr2014

   JOB DONE.
Running PBS batch system epilogue script
Job id: 340549.audhumbla.fysik.dtu.dk
Username: zhonxu
Groupname: campgst
Jobname: RhO2/Eads-2-layers/O-U-7.0
Sessionid: 20127
Queuename: verylong
Accounting:
This job has allocated the following 16 nodes:
d064 d064 d064 d064 d064 d064 d064 d064 d063 d063 d063 d063 d063 d063 d063 d063
Finished epilogue job 340549.audhumbla.fysik.dtu.dk for zhonxu