     Program PWSCF v.5.0.2 (svn rev. 9656) starts on 28Apr2014 at  6:33: 0

     Current dimensions of program PWSCF are:
     Max number of different atomic species (ntypx) = 10
     Max number of k-points (npk) =  40000
     Max angular momentum in pseudopotentials (lmaxx) =  3
     Reading input from pwscf.in
Warning: card &CELL ignored
Warning: card / ignored

     Subspace diagonalization in iterative solution of the eigenvalue problem:
     a serial algorithm will be used

     bravais-lattice index     =            0
     lattice parameter (alat)  =      11.2250  a.u.
     unit-cell volume          =    7005.5484 (a.u.)^3
     number of atoms/cell      =           31
     number of atomic types    =            3
     number of electrons       =       214.00
     number of Kohn-Sham states=          309
     kinetic-energy cutoff     =      40.0000  Ry
     charge density cutoff     =     500.0000  Ry
     convergence threshold     =      1.0E-06
     mixing beta               =       0.7000
     number of iterations used =            8  plain     mixing
     Exchange-correlation      = SLA  PW   PBE  PBE ( 1 4 3 4 0)
     EXX-fraction              =        0.00
     nstep                     =           50

     celldm(1)=  11.224973  celldm(2)=   0.000000  celldm(3)=   0.000000
     celldm(4)=   0.000000  celldm(5)=   0.000000  celldm(6)=   0.000000

     crystal axes: (cart. coord. in units of alat)
               a(1) = (   1.000000   0.000000   0.000000 )
               a(2) = (   0.000000   1.107086   0.000000 )
               a(3) = (   0.000000   0.000000   4.474090 )

     reciprocal axes: (cart. coord. in units 2 pi/alat)
               b(1) = (  1.000000  0.000000  0.000000 )
               b(2) = (  0.000000  0.903272  0.000000 )
               b(3) = (  0.000000  0.000000  0.223509 )

     PseudoPot. # 1 for O  read from file:
     /home/camp/zhonxu/pseudo/o_pbe_v1.01.uspp.F.UPF
     MD5 check sum: 2bcb18d16ea4b960afae9ec6d52f22d2
     Pseudo is Ultrasoft + core correction, Zval =  6.0
     Generated by new atomic code, or converted to UPF format
     Using radial grid of  737 points,  5 beta functions with:
                l(1) =   0
                l(2) =   0
                l(3) =   1
                l(4) =   1
                l(5) =   2
     Q(r) pseudized with  8 coefficients,  rinner =    0.900   0.900   0.900
                                                       0.900   0.900

     PseudoPot. # 2 for Ti read from file:
     /home/camp/zhonxu/pseudo/ti_pbe_v1.uspp.F.UPF
     MD5 check sum: bcc8f6961b3b91f0cac3ca967d22d0fb
     Pseudo is Ultrasoft + core correction, Zval = 12.0
     Generated by new atomic code, or converted to UPF format
     Using radial grid of  851 points,  6 beta functions with:
                l(1) =   0
                l(2) =   0
                l(3) =   1
                l(4) =   1
                l(5) =   2
                l(6) =   2
     Q(r) pseudized with  6 coefficients,  rinner =    1.000   1.000   1.000
                                                       1.000   1.000

     PseudoPot. # 3 for H  read from file:
     /home/camp/zhonxu/pseudo/h_pbe_v1.uspp.F.UPF
     MD5 check sum: 3408e3ff4ec8b0a4e358431e7e038a48
     Pseudo is Ultrasoft, Zval =  1.0
     Generated by new atomic code, or converted to UPF format
     Using radial grid of  615 points,  2 beta functions with:
                l(1) =   0
                l(2) =   0
     Q(r) pseudized with  8 coefficients,  rinner =    0.700

     atomic species   valence    mass     pseudopotential
        O0             6.00    15.99940     O ( 1.00)
        Ti1           12.00    47.88000     Ti( 1.00)
        H2             1.00     1.00794     H ( 1.00)

     Simplified LDA+U calculation (l_max = 2) with parameters (eV):
     atomic species    L          U    alpha       J0     beta
        Ti1            2     0.5000   0.0000   0.0000   0.0000

     No symmetry found

   Cartesian axes

     site n.     atom                  positions (alat units)
         1           O0  tau(   1) = (   0.0000000   0.0000000   1.6912507  )
         2           O0  tau(   2) = (   0.0000000   0.5535432   1.7801061  )
         3           Ti1 tau(   3) = (   0.2500000   0.5535432   2.0136983  )
         4           Ti1 tau(   4) = (   0.0000000   0.0000000   2.0256889  )
         5           O0  tau(   5) = (   0.2500000   0.8967400   2.0101638  )
         6           O0  tau(   6) = (   0.2500000   0.2103464   2.0140115  )
         7           O0  tau(   7) = (   0.0000000   0.5535432   2.2264413  )
         8           O0  tau(   8) = (   0.0000000   0.0000000   2.3510894  )
         9           Ti1 tau(   9) = (   0.2500000   0.0000000   2.5997146  )
        10           Ti1 tau(  10) = (   0.0000000   0.5535432   2.5433858  )
        11           O0  tau(  11) = (   0.2500000   0.7638896   2.5969406  )
        12           O0  tau(  12) = (   0.2500000   0.3431968   2.5970301  )
        13           O0  tau(  13) = (   0.0000000   0.0000000   2.7842260  )
        14           O0  tau(  14) = (   0.5000000   0.0000000   1.6905348  )
        15           O0  tau(  15) = (   0.5000000   0.5535432   1.7767953  )
        16           Ti1 tau(  16) = (   0.7500000   0.5535432   2.0136983  )
        17           Ti1 tau(  17) = (   0.5000000   0.0000000   2.0204542  )
        18           O0  tau(  18) = (   0.7500000   0.8967400   2.0103875  )
        19           O0  tau(  19) = (   0.7500000   0.2103464   2.0134299  )
        20           O0  tau(  20) = (   0.5000000   0.5535432   2.2001336  )
        21           O0  tau(  21) = (   0.5000000   0.0000000   2.3501946  )
        22           Ti1 tau(  22) = (   0.7500000   0.0000000   2.5996698  )
        23           Ti1 tau(  23) = (   0.5000000   0.5535432   2.6765794  )
        24           O0  tau(  24) = (   0.7500000   0.7638896   2.5974328  )
        25           O0  tau(  25) = (   0.7500000   0.3431968   2.5965380  )
        26           O0  tau(  26) = (   0.5000000   0.0000000   2.7806915  )
        27           H2  tau(  27) = (  -0.0007400   0.6861389   1.6797970  )
        28           H2  tau(  28) = (   0.4994200   0.6816995   1.6713410  )
        29           H2  tau(  29) = (   0.1486600   0.0377184   1.6265106  )
        30           H2  tau(  30) = (   0.6489300   0.0363456   1.6257052  )
        31           O0  tau(  31) = (   0.4999900   0.5533882   2.9590287  )

     number of k points=    10  Methfessel-Paxton smearing, width (Ry)=  0.0100
                       cart. coord. in units 2pi/alat
        k(    1) = (   0.0000000   0.0000000   0.0000000), wk =   0.1250000
        k(    2) = (   0.0000000   0.2258180   0.0000000), wk =   0.2500000
        k(    3) = (   0.0000000  -0.4516359   0.0000000), wk =   0.1250000
        k(    4) = (   0.2500000   0.0000000   0.0000000), wk =   0.2500000
        k(    5) = (   0.2500000   0.2258180   0.0000000), wk =   0.2500000
        k(    6) = (   0.2500000  -0.4516359   0.0000000), wk =   0.2500000
        k(    7) = (  -0.5000000   0.0000000   0.0000000), wk =   0.1250000
        k(    8) = (  -0.5000000   0.2258180   0.0000000), wk =   0.2500000
        k(    9) = (  -0.5000000  -0.4516359   0.0000000), wk =   0.1250000
        k(   10) = (  -0.2500000   0.2258180   0.0000000), wk =   0.2500000

     Largest allocated arrays     est. size (Mb)     dimensions
     Largest temporary arrays     est. size (Mb)     dimensions

     Check: negative/imaginary core charge=   -0.000006    0.000000

     Initial potential from superposition of free atoms
     Check: negative starting charge=   -0.102438

     starting charge  205.99958, renormalised to  214.00000

     negative rho (up, down):  0.106E+00 0.000E+00
     Number of +U iterations with fixed ns =  0
     Starting occupations:
 --- enter write_ns ---
 LDA+U parameters:
U( 2)     =  0.50000000
alpha( 2) =  0.00000000
atom    3   Tr[ns(na)] =   2.00000
    eigenvalues:
  0.200  0.200  0.200  0.200  0.200
    eigenvectors:
  1.000  0.000  0.000  0.000  0.000
  0.000  1.000  0.000  0.000  0.000
  0.000  0.000  1.000  0.000  0.000
  0.000  0.000  0.000  1.000  0.000
  0.000  0.000  0.000  0.000  1.000
    occupations:
  0.200  0.000  0.000  0.000  0.000
  0.000  0.200  0.000  0.000  0.000
  0.000  0.000  0.200  0.000  0.000
  0.000  0.000  0.000  0.200  0.000
  0.000  0.000  0.000  0.000  0.200
atom    4   Tr[ns(na)] =   2.00000
    eigenvalues:
  0.200  0.200  0.200  0.200  0.200
    eigenvectors:
  1.000  0.000  0.000  0.000  0.000
  0.000  1.000  0.000  0.000  0.000
  0.000  0.000  1.000  0.000  0.000
  0.000  0.000  0.000  1.000  0.000
  0.000  0.000  0.000  0.000  1.000
    occupations:
  0.200  0.000  0.000  0.000  0.000
  0.000  0.200  0.000  0.000  0.000
  0.000  0.000  0.200  0.000  0.000
  0.000  0.000  0.000  0.200  0.000
  0.000  0.000  0.000  0.000  0.200
atom    9   Tr[ns(na)] =   2.00000
    eigenvalues:
  0.200  0.200  0.200  0.200  0.200
    eigenvectors:
  1.000  0.000  0.000  0.000  0.000
  0.000  1.000  0.000  0.000  0.000
  0.000  0.000  1.000  0.000  0.000
  0.000  0.000  0.000  1.000  0.000
  0.000  0.000  0.000  0.000  1.000
    occupations:
  0.200  0.000  0.000  0.000  0.000
  0.000  0.200  0.000  0.000  0.000
  0.000  0.000  0.200  0.000  0.000
  0.000  0.000  0.000  0.200  0.000
  0.000  0.000  0.000  0.000  0.200
atom   10   Tr[ns(na)] =   2.00000
    eigenvalues:
  0.200  0.200  0.200  0.200  0.200
    eigenvectors:
  1.000  0.000  0.000  0.000  0.000
  0.000  1.000  0.000  0.000  0.000
  0.000  0.000  1.000  0.000  0.000
  0.000  0.000  0.000  1.000  0.000
  0.000  0.000  0.000  0.000  1.000
    occupations:
  0.200  0.000  0.000  0.000  0.000
  0.000  0.200  0.000  0.000  0.000
  0.000  0.000  0.200  0.000  0.000
  0.000  0.000  0.000  0.200  0.000
  0.000  0.000  0.000  0.000  0.200
atom   16   Tr[ns(na)] =   2.00000
    eigenvalues:
  0.200  0.200  0.200  0.200  0.200
    eigenvectors:
  1.000  0.000  0.000  0.000  0.000
  0.000  1.000  0.000  0.000  0.000
  0.000  0.000  1.000  0.000  0.000
  0.000  0.000  0.000  1.000  0.000
  0.000  0.000  0.000  0.000  1.000
    occupations:
  0.200  0.000  0.000  0.000  0.000
  0.000  0.200  0.000  0.000  0.000
  0.000  0.000  0.200  0.000  0.000
  0.000  0.000  0.000  0.200  0.000
  0.000  0.000  0.000  0.000  0.200
atom   17   Tr[ns(na)] =   2.00000
    eigenvalues:
  0.200  0.200  0.200  0.200  0.200
    eigenvectors:
  1.000  0.000  0.000  0.000  0.000
  0.000  1.000  0.000  0.000  0.000
  0.000  0.000  1.000  0.000  0.000
  0.000  0.000  0.000  1.000  0.000
  0.000  0.000  0.000  0.000  1.000
    occupations:
  0.200  0.000  0.000  0.000  0.000
  0.000  0.200  0.000  0.000  0.000
  0.000  0.000  0.200  0.000  0.000
  0.000  0.000  0.000  0.200  0.000
  0.000  0.000  0.000  0.000  0.200
atom   22   Tr[ns(na)] =   2.00000
    eigenvalues:
  0.200  0.200  0.200  0.200  0.200
    eigenvectors:
  1.000  0.000  0.000  0.000  0.000
  0.000  1.000  0.000  0.000  0.000
  0.000  0.000  1.000  0.000  0.000
  0.000  0.000  0.000  1.000  0.000
  0.000  0.000  0.000  0.000  1.000
    occupations:
  0.200  0.000  0.000  0.000  0.000
  0.000  0.200  0.000  0.000  0.000
[...]
    occupations:
  0.241  0.011 -0.004  0.066  0.002
  0.011  0.414  0.003 -0.022  0.011
 -0.004  0.003  0.206  0.006 -0.016
  0.066 -0.022  0.006  0.360 -0.002
  0.002  0.011 -0.016 -0.002  0.214
atom    4   Tr[ns(na)] =   2.95181
    eigenvalues:
  0.183  0.220  0.235  0.414  0.423
    eigenvectors:
  0.006  0.003  0.000  0.001  0.991
  0.001  0.903  0.094  0.000  0.003
  0.000  0.093  0.906  0.000  0.000
  0.993  0.001  0.000  0.000  0.006
  0.000  0.000  0.000  0.999  0.001
    occupations:
  0.421  0.010  0.004 -0.018 -0.000
  0.010  0.222 -0.004  0.000 -0.001
  0.004 -0.004  0.234  0.000 -0.000
 -0.018  0.000  0.000  0.185 -0.000
 -0.000 -0.001 -0.000 -0.000  0.414
atom    9   Tr[ns(na)] =   2.93311
    eigenvalues:
  0.189  0.227  0.246  0.383  0.423
    eigenvectors:
  0.000  0.000  0.921  0.079  0.000
  0.000  0.000  0.000  0.003  0.997
  0.999  0.001  0.000  0.000  0.000
  0.000  0.000  0.079  0.918  0.003
  0.001  0.999  0.000  0.000  0.000
    occupations:
  0.257  0.001 -0.000  0.037  0.000
  0.001  0.423  0.000 -0.003 -0.000
 -0.000  0.000  0.189 -0.000 -0.001
  0.037 -0.003 -0.000  0.372 -0.000
  0.000 -0.000 -0.001 -0.000  0.227
atom   10   Tr[ns(na)] =   2.85630
    eigenvalues:
  0.191  0.236  0.247  0.329  0.425
    eigenvectors:
  0.016  0.000  0.000  0.984  0.000
  0.000  0.000  1.000  0.000  0.000
  0.000  1.000  0.000  0.000  0.000
  0.984  0.000  0.000  0.016  0.000
  0.000  0.000  0.000  0.000  1.000
    occupations:
  0.327 -0.000 -0.000 -0.017 -0.000
 -0.000  0.247 -0.000 -0.000 -0.000
 -0.000 -0.000  0.236 -0.000  0.000
 -0.017 -0.000 -0.000  0.194  0.000
 -0.000 -0.000  0.000  0.000  0.425
atom   16   Tr[ns(na)] =   2.87004
    eigenvalues:
  0.193  0.209  0.228  0.382  0.423
    eigenvectors:
  0.032  0.715  0.074  0.170  0.009
  0.003  0.005  0.004  0.172  0.816
  0.612  0.000  0.387  0.001  0.000
  0.011  0.148  0.012  0.657  0.173
  0.342  0.132  0.523  0.001  0.002
    occupations:
  0.241 -0.011 -0.004  0.066 -0.003
 -0.011  0.414 -0.003  0.022  0.011
 -0.004 -0.003  0.207  0.006  0.016
  0.066  0.022  0.006  0.360  0.001
 -0.003  0.011  0.016  0.001  0.214
atom   17   Tr[ns(na)] =   2.94494
    eigenvalues:
  0.184  0.218  0.235  0.412  0.423
    eigenvectors:
  0.006  0.003  0.000  0.000  0.991
  0.001  0.905  0.091  0.000  0.003
  0.000  0.090  0.909  0.000  0.000
  0.993  0.001  0.000  0.000  0.006
  0.000  0.000  0.000  1.000  0.000
    occupations:
  0.421  0.011  0.004 -0.018 -0.000
  0.011  0.220 -0.005  0.000 -0.002
  0.004 -0.005  0.234  0.000 -0.000
 -0.018  0.000  0.000  0.185 -0.000
 -0.000 -0.002 -0.000 -0.000  0.412
atom   22   Tr[ns(na)] =   2.93306
    eigenvalues:
  0.189  0.227  0.246  0.383  0.423
    eigenvectors:
  0.000  0.000  0.921  0.079  0.000
  0.000  0.000  0.000  0.003  0.997
  0.999  0.001  0.000  0.000  0.000
  0.000  0.000  0.079  0.918  0.003
  0.001  0.999  0.000  0.000  0.000
    occupations:
  0.257 -0.001  0.000  0.037  0.000
 -0.001  0.423  0.000  0.003 -0.000
  0.000  0.000  0.189 -0.000  0.001
  0.037  0.003 -0.000  0.372 -0.000
  0.000 -0.000  0.001 -0.000  0.227
atom   23   Tr[ns(na)] =   3.06159
    eigenvalues:
  0.133  0.302  0.314  0.347  0.435
    eigenvectors:
  0.003  0.000  0.000  0.000  0.997
  0.000  0.000  1.000  0.000  0.000
  0.000  1.000  0.000  0.000  0.000
  0.997  0.000  0.000  0.000  0.003
  0.000  0.000  0.000  1.000  0.000
    occupations:
  0.434 -0.000  0.000 -0.017 -0.000
 -0.000  0.314 -0.000 -0.000  0.000
  0.000 -0.000  0.302 -0.000  0.000
 -0.017 -0.000 -0.000  0.134 -0.000
 -0.000  0.000  0.000 -0.000  0.347
N of occupied +U levels =  23.4208462
 --- exit write_ns ---

     Threshold (ethr) on eigenvalues was too large:
     Diagonalizing with lowered threshold

     Davidson diagonalization with overlap
     ethr =  6.37E-08,  avg # of iterations =  1.0

[...]

     total energy              =   -1566.65277305 Ry
     Harris-Foulkes estimate   =   -1566.65277306 Ry
     estimated scf accuracy    <       0.00000005 Ry

     iteration # 11     ecut=    40.00 Ry     beta=0.70
     Davidson diagonalization with overlap
     ethr =  2.31E-11,  avg # of iterations =  1.0

     negative rho (up, down):  0.102E+00 0.000E+00

     End of self-consistent calculation
 --- enter write_ns ---
 LDA+U parameters:
U( 2)     =  0.50000000
alpha( 2) =  0.00000000
atom    3   Tr[ns(na)] =   2.86987
    eigenvalues:
  0.193  0.209  0.228  0.382  0.423
    eigenvectors:
  0.033  0.715  0.073  0.170  0.009
  0.003  0.005  0.004  0.171  0.817
  0.610  0.000  0.389  0.001  0.000
  0.011  0.149  0.011  0.657  0.172
  0.342  0.132  0.523  0.000  0.002
    occupations:
  0.241  0.011 -0.004  0.066  0.002
  0.011  0.414  0.003 -0.022  0.011
 -0.004  0.003  0.206  0.006 -0.016
  0.066 -0.022  0.006  0.360 -0.002
  0.002  0.011 -0.016 -0.002  0.214
atom    4   Tr[ns(na)] =   2.95200
    eigenvalues:
  0.183  0.220  0.235  0.414  0.423
    eigenvectors:
  0.006  0.003  0.000  0.001  0.991
  0.001  0.903  0.094  0.000  0.003
  0.000  0.093  0.906  0.000  0.000
  0.993  0.001  0.000  0.000  0.006
  0.000  0.000  0.000  0.999  0.001
    occupations:
  0.421  0.010  0.004 -0.018 -0.000
  0.010  0.222 -0.004  0.000 -0.001
  0.004 -0.004  0.234  0.000 -0.000
 -0.018  0.000  0.000  0.185 -0.000
 -0.000 -0.001 -0.000 -0.000  0.414
atom    9   Tr[ns(na)] =   2.93338
    eigenvalues:
  0.189  0.227  0.246  0.383  0.423
    eigenvectors:
  0.000  0.000  0.921  0.079  0.000
  0.000  0.000  0.000  0.003  0.997
  0.999  0.001  0.000  0.000  0.000
  0.000  0.000  0.078  0.918  0.003
  0.001  0.999  0.000  0.000  0.000
    occupations:
  0.257  0.001 -0.000  0.037  0.000
  0.001  0.423  0.000 -0.003 -0.000
 -0.000  0.000  0.189 -0.000 -0.001
  0.037 -0.003 -0.000  0.372 -0.000
  0.000 -0.000 -0.001 -0.000  0.227
atom   10   Tr[ns(na)] =   2.85628
    eigenvalues:
  0.191  0.236  0.247  0.329  0.425
    eigenvectors:
  0.016  0.000  0.000  0.984  0.000
  0.000  0.000  1.000  0.000  0.000
  0.000  1.000  0.000  0.000  0.000
  0.984  0.000  0.000  0.016  0.000
  0.000  0.000  0.000  0.000  1.000
    occupations:
  0.327 -0.000 -0.000 -0.017 -0.000
 -0.000  0.247 -0.000 -0.000 -0.000
 -0.000 -0.000  0.236 -0.000  0.000
 -0.017 -0.000 -0.000  0.194  0.000
 -0.000 -0.000  0.000  0.000  0.425
atom   16   Tr[ns(na)] =   2.86990
    eigenvalues:
  0.193  0.209  0.228  0.382  0.423
    eigenvectors:
  0.033  0.714  0.075  0.170  0.009
  0.003  0.005  0.004  0.172  0.817
  0.611  0.000  0.388  0.001  0.000
  0.011  0.148  0.012  0.657  0.172
  0.342  0.133  0.522  0.001  0.002
    occupations:
  0.241 -0.011 -0.004  0.066 -0.003
 -0.011  0.414 -0.003  0.022  0.011
 -0.004 -0.003  0.207  0.006  0.016
  0.066  0.022  0.006  0.360  0.001
 -0.003  0.011  0.016  0.001  0.214
atom   17   Tr[ns(na)] =   2.94517
    eigenvalues:
  0.184  0.218  0.235  0.412  0.423
    eigenvectors:
  0.006  0.003  0.000  0.000  0.991
  0.001  0.905  0.091  0.000  0.003
  0.000  0.090  0.909  0.000  0.000
  0.993  0.001  0.000  0.000  0.006
  0.000  0.000  0.000  1.000  0.000
    occupations:
  0.421  0.011  0.004 -0.018 -0.000
  0.011  0.220 -0.005  0.000 -0.002
  0.004 -0.005  0.234  0.000 -0.000
 -0.018  0.000  0.000  0.185 -0.000
 -0.000 -0.002 -0.000 -0.000  0.412
atom   22   Tr[ns(na)] =   2.93332
    eigenvalues:
  0.189  0.227  0.246  0.383  0.423
    eigenvectors:
  0.000  0.000  0.921  0.079  0.000
  0.000  0.000  0.000  0.003  0.997
  0.999  0.001  0.000  0.000  0.000
  0.000  0.000  0.079  0.918  0.003
  0.001  0.999  0.000  0.000  0.000
    occupations:
  0.257 -0.001  0.000  0.037  0.000
 -0.001  0.423  0.000  0.003 -0.000
  0.000  0.000  0.189 -0.000  0.001
  0.037  0.003 -0.000  0.372 -0.000
  0.000 -0.000  0.001 -0.000  0.227
atom   23   Tr[ns(na)] =   3.06241
    eigenvalues:
  0.133  0.303  0.314  0.347  0.435
    eigenvectors:
  0.003  0.000  0.000  0.000  0.997
  0.000  0.000  1.000  0.000  0.000
  0.000  1.000  0.000  0.000  0.000
  0.997  0.000  0.000  0.000  0.003
  0.000  0.000  0.000  1.000  0.000
    occupations:
  0.434 -0.000  0.000 -0.017 -0.000
 -0.000  0.314 -0.000 -0.000  0.000
  0.000 -0.000  0.303 -0.000  0.000
 -0.017 -0.000 -0.000  0.134 -0.000
 -0.000  0.000  0.000 -0.000  0.347
N of occupied +U levels =  23.4223298
 --- exit write_ns ---

[...]

          k = 0.2500-0.4516 0.0000 ( 29882 PWs)   bands (ev):

[...]

          k =-0.2500 0.2258 0.0000 ( 29912 PWs)   bands (ev):

   -60.6262 -60.5985 -60.3096 -59.8063 -59.7755 -59.3737 -59.3447 -58.7026
   -37.1175 -36.8835 -36.8279 -36.8047 -36.7816 -36.7779 -36.6603 -36.5425
   -36.4899 -36.3666 -36.1254 -36.0505 -36.0459 -35.9449 -35.9215 -35.8385
   -35.6563 -35.6393 -35.6320 -35.5626 -35.4985 -35.0986 -35.0722 -35.0271
   -21.9673 -21.7162 -21.0338 -20.7837 -20.3130 -20.2636 -20.2439 -20.1818
   -19.9861 -19.8568 -19.7755 -19.7545 -19.6375 -19.5540 -19.3299 -19.1980
   -18.8791 -18.8036 -17.9713  -9.8033  -9.5234  -8.5438  -8.2930  -8.0217
    -7.7961  -7.6936  -7.6659  -7.5847  -7.3820  -7.3369  -7.2403  -7.1813
    -7.0464  -6.9719  -6.8977  -6.8361  -6.7637  -6.6266  -6.5507  -6.4837
    -6.3065  -6.2021  -6.0647  -5.9587  -5.8073  -5.7548  -5.6710  -5.5671
    -5.5182  -5.4338  -5.4054  -5.3251  -5.2510  -5.1819  -5.0860  -5.0048
    -4.9609  -4.9152  -4.8379  -4.7457  -4.6636  -4.4935  -4.4401  -4.2408
    -4.1839  -4.1337  -4.1276  -4.0167  -3.9650  -3.8972  -3.7267  -3.6947
    -3.6122  -3.5465  -3.4820  -3.3417  -1.0823  -1.0537  -0.9434  -0.8182
    -0.4968  -0.4296  -0.3681  -0.3217  -0.2062  -0.0495   0.0392   0.1593
     0.1745   0.2343   0.4411   0.5334   0.5858   0.7200   0.8391   0.9241
     1.0038   1.1280   1.1760   1.5818   1.8317   1.8970   1.9849   2.0020
     2.2060   2.2679   2.6163   2.7760   2.9397   3.1349   3.1980   3.2285
     3.3875   3.5052   3.6946   3.8292   3.9065   4.0485   4.4689   4.6053
     4.6677   4.8601   5.2278   5.7856   5.8874   5.9987   6.1510   6.3082
     6.3425   6.5528   6.7408   6.8988   7.0203   7.2610   7.3117   7.4151
     7.6061   7.6921   7.7608   7.8918   7.9244   8.0377   8.2068   8.3414
     8.4880   8.6876   8.7447   8.7935   8.9984   9.1442   9.2053   9.2978
     9.3685   9.4728   9.5792   9.6041   9.7148   9.8386   9.8822  10.0243
    10.0949  10.2714  10.3344  10.4762  10.5752  10.6888  10.7901  10.8366
    10.9356  11.0034  11.0652  11.1229  11.1574  11.2788  11.3661  11.4051
    11.4516  11.5200  11.6664  11.7036  11.7943  11.8707  11.9315  12.0139
    12.0640  12.1026  12.1725  12.2904  12.4062  12.4129  12.4908  12.5379
    12.6067  12.7297  12.8045  12.9014  12.9391  12.9859  13.0711  13.2048
    13.3132  13.3408  13.4176  13.4553  13.5701  13.6496  13.7236  13.7867
    13.8333  13.8982  13.9870  14.0746  14.1299  14.1751  14.3011  14.3594
    14.4344  14.5375  14.5887  14.6235  14.7239  14.7642  14.8694  14.9912
    15.0832  15.1804  15.2279  15.2895  15.3841  15.4525  15.4865  15.5785
    15.6137  15.6879  15.7605  15.8411  15.8603  15.9845  16.0417  16.0826
    16.1590  16.2086  16.3085  16.3599  16.4753  16.6075  16.6956  16.7065
    16.7752  16.8461  16.8821  16.9276  16.9632  17.0795  17.1091  17.1953
    17.2654  17.3300  17.4212  17.4725  17.5526  17.6107  17.6426  17.6979
    17.7707  17.8363  17.9534  18.0346  18.1265  18.2027  18.2460  18.3078
    18.3957  18.4868  18.5842  18.6036  18.6570

     the Fermi energy is    -3.4261 ev

!    total energy              =   -1566.65277305 Ry
     Harris-Foulkes estimate   =   -1566.65277306 Ry
     estimated scf accuracy    <          9.2E-09 Ry

     The total energy is the sum of the following terms:

     one-electron contribution =  -18535.04351649 Ry
     hartree contribution      =    9283.23283650 Ry
     xc contribution           =    -276.72302989 Ry
     ewald contribution        =    7961.58981678 Ry
     Hubbard energy            =       0.29095621 Ry
     smearing contrib. (-TS)   =       0.00016384 Ry

     convergence has been achieved in  11 iterations

     Forces acting on atoms (Ry/au):

     negative rho (up, down):  0.102E+00 0.000E+00
     atom    1 type  1   force =    -0.00063309   -0.01006126   -0.00012836
     atom    2 type  1   force =     0.00012961    0.01509515    0.00008738
     atom    3 type  2   force =     0.05892836   -0.01032163   -0.00045395
     atom    4 type  2   force =    -0.00343609    0.00465387    0.00019216
     atom    5 type  1   force =    -0.00261294   -0.06641315   -0.00008178
     atom    6 type  1   force =    -0.00557049    0.06838132   -0.00021001
     atom    7 type  1   force =    -0.00003080    0.00078051    0.00005181
     atom    8 type  1   force =     0.00188169   -0.00118198   -0.00047884
     atom    9 type  2   force =     0.00748393    0.00016147   -0.00002967
     atom   10 type  2   force =     0.00004770    0.00020998   -0.00002234
     atom   11 type  1   force =    -0.03371266   -0.00148455    0.00033550
     atom   12 type  1   force =    -0.03403541    0.00183084    0.00026877
     atom   13 type  1   force =     0.00013638    0.00014607   -0.00031628
     atom   14 type  1   force =    -0.00005894   -0.00925540    0.00045123
     atom   15 type  1   force =     0.00005075    0.01179732    0.00027738
     atom   16 type  2   force =    -0.05854460   -0.00945242   -0.00046334
     atom   17 type  2   force =    -0.00364619    0.00410216    0.00017686
     atom   18 type  1   force =     0.00747151   -0.06642489   -0.00016074
     atom   19 type  1   force =     0.00490648    0.06832608   -0.00009916
     atom   20 type  1   force =    -0.00025490   -0.00020345   -0.00082109
     atom   21 type  1   force =     0.00196719   -0.00090753   -0.00029232
     atom   22 type  2   force =    -0.00787135   -0.00002954   -0.00003661
     atom   23 type  2   force =     0.00001538   -0.00013578    0.00028402
     atom   24 type  1   force =     0.03416131   -0.00137428    0.00027053
     atom   25 type  1   force =     0.03346563    0.00171412    0.00033033
     atom   26 type  1   force =     0.00021175   -0.00010334    0.00022364
     atom   27 type  3   force =     0.00003549    0.00016927    0.00028606
     atom   28 type  3   force =    -0.00001264   -0.00006101    0.00002235
     atom   29 type  3   force =    -0.00008824    0.00003363   -0.00011508
     atom   30 type  3   force =    -0.00039702    0.00000395   -0.00014079
     atom   31 type  1   force =     0.00001219    0.00000449    0.00059235

     Total force =     0.001772     Total SCF correction =     0.000246
     SCF correction compared to forces is large: reduce conv_thr to get better values

     bfgs converged in   6 scf cycles and   5 bfgs steps
     (criteria: energy < 0.10E-03, force < 0.10E-02)

     End of BFGS Geometry Optimization

     Final energy   =   -1566.6527730509 Ry
Begin final coordinates

ATOMIC_POSITIONS (crystal)
O0       0.000000000   0.000000000   0.377908136    0   0   1
O0       0.000000000   0.500000000   0.397745387    0   0   1
Ti1      0.250000000   0.500000000   0.450016718    0   0   1
Ti1      0.000000000   0.000000000   0.452447480    0   0   1
O0       0.250000000   0.810000000   0.449359967    0   0   1
O0       0.250000000   0.190000000   0.450209983    0   0   1
O0       0.000000000   0.500000000   0.497538720    0   0   1
O0       0.000000000   0.000000000   0.525580610    0   0   1
Ti1      0.250000000   0.000000000   0.581013813    0   0   1
Ti1      0.000000000   0.500000000   0.568465620    0   0   1
O0       0.250000000   0.690000000   0.580487257    0   0   1
O0       0.250000000   0.310000000   0.580466048    0   0   1
O0       0.000000000   0.000000000   0.622501039    0   0   1
O0       0.500000000   0.000000000   0.377678482    0   0   1
O0       0.500000000   0.500000000   0.396931455    0   0   1
Ti1      0.750000000   0.500000000   0.450018678    0   0   1
Ti1      0.500000000   0.000000000   0.451591765    0   0   1
O0       0.750000000   0.810000000   0.449400767    0   0   1
O0       0.750000000   0.190000000   0.450105318    0   0   1
O0       0.500000000   0.500000000   0.491829448    0   0   1
O0       0.500000000   0.000000000   0.525357944    0   0   1
Ti1      0.750000000   0.000000000   0.581005878    0   0   1
Ti1      0.500000000   0.500000000   0.598421862    0   0   1
O0       0.750000000   0.690000000   0.580555580    0   0   1
O0       0.750000000   0.310000000   0.580392039    0   0   1
O0       0.500000000   0.000000000   0.621567211    0   0   1
H2      -0.000681860   0.620364602   0.375507658
H2       0.499387351   0.616188891   0.373467026
H2       0.148869111   0.034239888   0.363570762
H2       0.649134642   0.032954788   0.363288696
O0       0.500004931   0.499867769   0.661608654
End final coordinates

     General routines

     Parallel routines
     Hubbard U routines

   This run was terminated on:  11:20: 3  28Apr2014

   JOB DONE.