     Program PWSCF v.5.0.2 (svn rev. 9656) starts on 25May2014 at  3: 6: 6

     Current dimensions of program PWSCF are:
     Max number of different atomic species (ntypx) = 10
     Max number of k-points (npk) =  40000
     Max angular momentum in pseudopotentials (lmaxx) =  3
     Reading input from pwscf.in
Warning: card &CELL ignored
Warning: card / ignored

     Subspace diagonalization in iterative solution of the eigenvalue problem:
     a serial algorithm will be used

     bravais-lattice index     =            0
     lattice parameter (alat)  =      10.7336  a.u.
     unit-cell volume          =    6184.1966 (a.u.)^3
     number of atoms/cell      =           31
     number of atomic types    =            3
     number of electrons       =       238.00 (up: 130.00, down: 108.00)
     number of Kohn-Sham states=          345
     kinetic-energy cutoff     =      40.0000  Ry
     charge density cutoff     =     500.0000  Ry
     convergence threshold     =      1.0E-06
     mixing beta               =       0.7000
     number of iterations used =            8  plain     mixing
     Exchange-correlation      = SLA  PW   PBE  PBE ( 1 4 3 4 0)
     EXX-fraction              =        0.00
     nstep                     =           50

     celldm(1)=  10.733644  celldm(2)=   0.000000  celldm(3)=   0.000000
     celldm(4)=   0.000000  celldm(5)=   0.000000  celldm(6)=   0.000000

     crystal axes: (cart. coord. in units of alat)
               a(1) = (   1.000000   0.000000   0.000000 )
               a(2) = (   0.000000   1.085558   0.000000 )
               a(3) = (   0.000000   0.000000   4.606685 )

     reciprocal axes: (cart. coord. in units 2 pi/alat)
               b(1) = (  1.000000  0.000000  0.000000 )
               b(2) = (  0.000000  0.921185  0.000000 )
               b(3) = (  0.000000  0.000000  0.217076 )

     PseudoPot. # 1 for O  read from file:
     /home/camp/zhonxu/pseudo/o_pbe_v1.01.uspp.F.UPF
     MD5 check sum: 2bcb18d16ea4b960afae9ec6d52f22d2
     Pseudo is Ultrasoft + core correction, Zval =  6.0
     Generated by new atomic code, or converted to UPF format
     Using radial grid of  737 points,  5 beta functions with:
                l(1) =   0
                l(2) =   0
                l(3) =   1
                l(4) =   1
                l(5) =   2
     Q(r) pseudized with  8 coefficients,  rinner =    0.900   0.900   0.900
                                                       0.900   0.900

     PseudoPot. # 2 for Mn read from file:
     /home/camp/zhonxu/pseudo/mn_pbe_v1.uspp.F.UPF
     MD5 check sum: 5fd7c7b5c956fd19902447332617373a
     Pseudo is Ultrasoft + core correction, Zval = 15.0
     Generated by new atomic code, or converted to UPF format
     Using radial grid of  859 points,  6 beta functions with:
                l(1) =   0
                l(2) =   0
                l(3) =   1
                l(4) =   1
                l(5) =   2
                l(6) =   2
     Q(r) pseudized with  6 coefficients,  rinner =    1.150   1.150   1.150
                                                       1.150   1.150

     PseudoPot. # 3 for H  read from file:
     /home/camp/zhonxu/pseudo/h_pbe_v1.uspp.F.UPF
     MD5 check sum: 3408e3ff4ec8b0a4e358431e7e038a48
     Pseudo is Ultrasoft, Zval =  1.0
     Generated by new atomic code, or converted to UPF format
     Using radial grid of  615 points,  2 beta functions with:
                l(1) =   0
                l(2) =   0
     Q(r) pseudized with  8 coefficients,  rinner =    0.700

     atomic species   valence    mass     pseudopotential
        O0             6.00    15.99940     O ( 1.00)
        Mn1           15.00    54.93800     Mn( 1.00)
        H2             1.00     1.00794     H ( 1.00)

     Starting magnetic structure
     atomic species   magnetization
        O0           0.000
        Mn1          0.600
        H2           0.000

     Simplified LDA+U calculation (l_max = 2) with parameters (eV):
     atomic species    L          U    alpha       J0     beta
        Mn1            2     6.0000   0.0000   0.0000   0.0000

     No symmetry found

   Cartesian axes

     site n.     atom                  positions (alat units)
         1           O0  tau(   1) = (   0.0000000   0.0000000   1.7202744  )
         2           O0  tau(   2) = (   0.0000000   0.5427791   1.8177979  )
         3           Mn1 tau(   3) = (   0.2500000   0.5427791   2.0612152  )
         4           Mn1 tau(   4) = (   0.0000000   0.0000000   2.0598332  )
         5           O0  tau(   5) = (   0.2500000   0.8684466   2.0535681  )
         6           O0  tau(   6) = (   0.2500000   0.2171117   2.0699679  )
         7           O0  tau(   7) = (   0.0000000   0.5427791   2.2802170  )
         8           O0  tau(   8) = (   0.0000000   0.0000000   2.4211815  )
         9           Mn1 tau(   9) = (   0.2500000   0.0000000   2.6485675  )
        10           Mn1 tau(  10) = (   0.0000000   0.5427791   2.6423945  )
        11           O0  tau(  11) = (   0.2500000   0.7598908   2.6861120  )
        12           O0  tau(  12) = (   0.2500000   0.3256675   2.6878165  )
        13           O0  tau(  13) = (   0.0000000   0.0000000   2.8723603  )
        14           O0  tau(  14) = (   0.5000000   0.0000000   1.7195373  )
        15           O0  tau(  15) = (   0.5000000   0.5427791   1.8170148  )
        16           Mn1 tau(  16) = (   0.7500000   0.5427791   2.0611691  )
        17           Mn1 tau(  17) = (   0.5000000   0.0000000   2.0586815  )
        18           O0  tau(  18) = (   0.7500000   0.8684466   2.0536141  )
        19           O0  tau(  19) = (   0.7500000   0.2171117   2.0701061  )
        20           O0  tau(  20) = (   0.5000000   0.5427791   2.2907202  )
        21           O0  tau(  21) = (   0.5000000   0.0000000   2.4216883  )
        22           Mn1 tau(  22) = (   0.7500000   0.0000000   2.6485675  )
        23           Mn1 tau(  23) = (   0.5000000   0.5427791   2.6418417  )
        24           O0  tau(  24) = (   0.7500000   0.7598908   2.6862502  )
        25           O0  tau(  25) = (   0.7500000   0.3256675   2.6877704  )
        26           O0  tau(  26) = (   0.5000000   0.0000000   2.8750782  )
        27           H2  tau(  27) = (   0.0005700   0.7039628   1.7470392  )
        28           H2  tau(  28) = (   0.5005600   0.7030618   1.7451966  )
        29           H2  tau(  29) = (   0.1612500   0.0476886   1.6718121  )
        30           H2  tau(  30) = (   0.6611800   0.0483291   1.6714896  )
        31           O0  tau(  31) = (   0.4998600   0.5433654   2.9814466  )

     number of k points=    20  Methfessel-Paxton smearing, width (Ry)=  0.0100
                       cart. coord. in units 2pi/alat
        k(    1) = (   0.0000000   0.0000000   0.0000000), wk =   0.0625000
        k(    2) = (   0.0000000   0.2302962   0.0000000), wk =   0.1250000
        k(    3) = (   0.0000000  -0.4605925   0.0000000), wk =   0.0625000
        k(    4) = (   0.2500000   0.0000000   0.0000000), wk =   0.1250000
        k(    5) = (   0.2500000   0.2302962   0.0000000), wk =   0.1250000
        k(    6) = (   0.2500000  -0.4605925   0.0000000), wk =   0.1250000
        k(    7) = (  -0.5000000   0.0000000   0.0000000), wk =   0.0625000
        k(    8) = (  -0.5000000   0.2302962   0.0000000), wk =   0.1250000
        k(    9) = (  -0.5000000  -0.4605925   0.0000000), wk =   0.0625000
        k(   10) = (  -0.2500000   0.2302962   0.0000000), wk =   0.1250000
        k(   11) = (   0.0000000   0.0000000   0.0000000), wk =   0.0625000
        k(   12) = (   0.0000000   0.2302962   0.0000000), wk =   0.1250000
        k(   13) = (   0.0000000  -0.4605925   0.0000000), wk =   0.0625000
        k(   14) = (   0.2500000   0.0000000   0.0000000), wk =   0.1250000
        k(   15) = (   0.2500000   0.2302962   0.0000000), wk =   0.1250000
        k(   16) = (   0.2500000  -0.4605925   0.0000000), wk =   0.1250000
        k(   17) = (  -0.5000000   0.0000000   0.0000000), wk =   0.0625000
        k(   18) = (  -0.5000000   0.2302962   0.0000000), wk =   0.1250000
        k(   19) = (  -0.5000000  -0.4605925   0.0000000), wk =   0.0625000
        k(   20) = (  -0.2500000   0.2302962   0.0000000), wk =   0.1250000

     Largest allocated arrays     est. size (Mb)     dimensions
     Largest temporary arrays     est. size (Mb)     dimensions

     Check: negative/imaginary core charge=   -0.000023    0.000000

     Initial potential from superposition of free atoms
     Check: negative starting charge=(component1):   -0.000744
     Check: negative starting charge=(component2):   -0.000363

     starting charge  229.99987, renormalised to  238.00000

     negative rho (up, down):  0.770E-03 0.375E-03
     Number of +U iterations with fixed ns =  0
     Starting occupations:
 --- enter write_ns ---
 LDA+U parameters:
U( 2)     =  6.00000000
alpha( 2) =  0.00000000
atom    3   Tr[ns(na)] (up, down, total) =   5.00000  0.00000  5.00000
   spin  1
    eigenvalues:
  1.000  1.000  1.000  1.000  1.000
    eigenvectors:
  1.000  0.000  0.000  0.000  0.000
  0.000  1.000  0.000  0.000  0.000
  0.000  0.000  1.000  0.000  0.000
  0.000  0.000  0.000  1.000  0.000
  0.000  0.000  0.000  0.000  1.000
    occupations:
  1.000  0.000  0.000  0.000  0.000
  0.000  1.000  0.000  0.000  0.000
  0.000  0.000  1.000  0.000  0.000
  0.000  0.000  0.000  1.000  0.000
  0.000  0.000  0.000  0.000  1.000
   spin  2
    eigenvalues:
  0.000  0.000  0.000  0.000  0.000
    eigenvectors:
  1.000  0.000  0.000  0.000  0.000
  0.000  1.000  0.000  0.000  0.000
  0.000  0.000  1.000  0.000  0.000
  0.000  0.000  0.000  1.000  0.000
  0.000  0.000  0.000  0.000  1.000
    occupations:
  0.000  0.000  0.000  0.000  0.000
  0.000  0.000  0.000  0.000  0.000
  0.000  0.000  0.000  0.000  0.000
  0.000  0.000  0.000  0.000  0.000
  0.000  0.000  0.000  0.000  0.000
atomic mag. moment =     5.000000
atom    4   Tr[ns(na)] (up, down, total) =   5.00000  0.00000  5.00000
   spin  1
    eigenvalues:
  1.000  1.000  1.000  1.000  1.000
    eigenvectors:
  1.000  0.000  0.000  0.000  0.000
  0.000  1.000  0.000  0.000  0.000
  0.000  0.000  1.000  0.000  0.000
  0.000  0.000  0.000  1.000  0.000
  0.000  0.000  0.000  0.000  1.000
    occupations:
  1.000  0.000  0.000  0.000  0.000
  0.000  1.000  0.000  0.000  0.000
  0.000  0.000  1.000  0.000  0.000
  0.000  0.000  0.000  1.000  0.000
  0.000  0.000  0.000  0.000  1.000
   spin  2
    eigenvalues:
  0.000  0.000  0.000  0.000  0.000
    eigenvectors:
  1.000  0.000  0.000  0.000  0.000
  0.000  1.000  0.000  0.000  0.000
  0.000  0.000  1.000  0.000  0.000
  0.000  0.000  0.000  1.000  0.000
  0.000  0.000  0.000  0.000  1.000
    occupations:
  0.000  0.000  0.000  0.000  0.000
  0.000  0.000  0.000  0.000  0.000
  0.000  0.000  0.000  0.000  0.000
  0.000  0.000  0.000  0.000  0.000
  0.000  0.000  0.000  0.000  0.000
atomic mag. moment =     5.000000
atom    9   Tr[ns(na)] (up, down, total) =   5.00000  0.00000  5.00000
   spin  1
    eigenvalues:
  1.000  1.000  1.000  1.000  1.000
    eigenvectors:
  1.000  0.000  0.000  0.000  0.000
[...]
 -0.000  0.009  0.002  0.000  0.092
atomic mag. moment =     3.516066
atom    4   Tr[ns(na)] (up, down, total) =   4.45202  0.89826  5.35028
   spin  1
    eigenvalues:
  0.693  0.753  0.997  1.004  1.005
    eigenvectors:
  0.000  0.998  0.001  0.001  0.000
  0.000  0.001  0.000  0.882  0.117
  0.000  0.001  0.000  0.117  0.883
  0.000  0.001  0.999  0.000  0.000
  1.000  0.000  0.000  0.000  0.000
    occupations:
  0.754 -0.008 -0.006  0.006 -0.001
 -0.008  1.004 -0.000  0.000  0.003
 -0.006 -0.000  1.004  0.000 -0.000
  0.006  0.000  0.000  0.996 -0.000
 -0.001  0.003 -0.000 -0.000  0.693
   spin  2
    eigenvalues:
  0.075  0.089  0.097  0.297  0.340
    eigenvectors:
  0.005  0.002  0.000  0.993  0.000
  0.003  0.560  0.435  0.002  0.001
  0.006  0.428  0.565  0.001  0.000
  0.985  0.010  0.000  0.005  0.000
  0.000  0.000  0.000  0.000  0.999
    occupations:
  0.296  0.008  0.006 -0.015  0.000
  0.008  0.093 -0.003  0.000 -0.007
  0.006 -0.003  0.093  0.001  0.000
 -0.015  0.000  0.001  0.076 -0.000
  0.000 -0.007  0.000 -0.000  0.340
atomic mag. moment =     3.553768
atom    9   Tr[ns(na)] (up, down, total) =   4.42566  0.96107  5.38673
   spin  1
    eigenvalues:
  0.714  0.734  0.986  0.992  1.000
    eigenvectors:
  0.228  0.000  0.000  0.000  0.772
  0.002  0.998  0.000  0.000  0.000
  0.000  0.000  0.008  0.992  0.000
  0.770  0.002  0.000  0.000  0.228
  0.000  0.000  0.992  0.008  0.000
    occupations:
  0.935  0.002 -0.000 -0.120  0.000
  0.002  0.734 -0.000 -0.000  0.000
 -0.000 -0.000  0.992 -0.000 -0.001
 -0.120 -0.000 -0.000  0.779  0.000
  0.000  0.000 -0.001  0.000  0.986
   spin  2
    eigenvalues:
  0.084  0.097  0.100  0.335  0.345
    eigenvectors:
  0.805  0.000  0.000  0.172  0.023
  0.000  0.000  0.000  0.127  0.873
  0.000  0.004  0.996  0.000  0.000
  0.195  0.000  0.000  0.701  0.104
  0.000  0.996  0.004  0.000  0.000
    occupations:
  0.133 -0.000  0.000  0.100  0.000
 -0.000  0.343 -0.000  0.004 -0.000
  0.000 -0.000  0.100  0.000 -0.000
  0.100  0.004  0.000  0.287 -0.000
  0.000 -0.000 -0.000 -0.000  0.097
atomic mag. moment =     3.464593
atom   10   Tr[ns(na)] (up, down, total) =   4.66821  0.62176  5.28997
   spin  1
    eigenvalues:
  0.709  0.969  0.996  0.997  0.998
    eigenvectors:
  0.000  0.966  0.000  0.034  0.000
  0.000  0.000  1.000  0.000  0.000
  0.000  0.000  0.000  0.000  1.000
  0.000  0.034  0.000  0.966  0.000
  1.000  0.000  0.000  0.000  0.000
    occupations:
  0.970  0.000  0.000  0.005  0.000
  0.000  0.996  0.000  0.000 -0.001
  0.000  0.000  0.998  0.000 -0.000
  0.005  0.000  0.000  0.996 -0.000
  0.000 -0.001 -0.000 -0.000  0.709
   spin  2
    eigenvalues:
  0.063  0.066  0.074  0.132  0.286
    eigenvectors:
  0.034  0.000  0.000  0.966  0.000
  0.000  0.000  1.000  0.000  0.000
  0.001  0.999  0.000  0.000  0.000
  0.965  0.001  0.000  0.034  0.000
  0.000  0.000  0.000  0.000  1.000
    occupations:
  0.130  0.000 -0.000 -0.013 -0.000
  0.000  0.074  0.000 -0.000  0.001
 -0.000  0.000  0.066 -0.000  0.000
 -0.013 -0.000 -0.000  0.065 -0.000
 -0.000  0.001  0.000 -0.000  0.286
atomic mag. moment =     4.046444
atom   16   Tr[ns(na)] (up, down, total) =   4.43750  0.92194  5.35944
   spin  1
    eigenvalues:
  0.704  0.729  0.999  1.001  1.004
    eigenvectors:
  0.216  0.032  0.000  0.705  0.047
  0.179  0.819  0.001  0.002  0.000
  0.000  0.000  0.000  0.059  0.940
  0.606  0.148  0.000  0.233  0.013
  0.000  0.001  0.999  0.000  0.000
    occupations:
  0.929 -0.014 -0.002 -0.126 -0.000
 -0.014  0.725 -0.001 -0.003 -0.008
 -0.002 -0.001  1.004 -0.002  0.000
 -0.126 -0.003 -0.002  0.781 -0.000
 -0.000 -0.008  0.000 -0.000  0.999
   spin  2
    eigenvalues:
  0.073  0.091  0.105  0.313  0.340
    eigenvectors:
  0.776  0.000  0.002  0.011  0.210
  0.000  0.001  0.000  0.961  0.038
  0.003  0.023  0.973  0.000  0.000
  0.220  0.000  0.001  0.027  0.752
  0.000  0.975  0.023  0.001  0.000
    occupations:
  0.132  0.001 -0.003  0.110  0.000
  0.001  0.313  0.000 -0.007  0.009
 -0.003  0.000  0.104 -0.001 -0.002
  0.110 -0.007 -0.001  0.280 -0.001
  0.000  0.009 -0.002 -0.001  0.092
atomic mag. moment =     3.515552
atom   17   Tr[ns(na)] (up, down, total) =   4.45311  0.89689  5.34999
   spin  1
    eigenvalues:
  0.694  0.753  0.996  1.004  1.005
    eigenvectors:
  0.000  0.998  0.001  0.002  0.000
  0.000  0.001  0.000  0.913  0.086
  0.000  0.001  0.000  0.085  0.914
  0.000  0.001  0.999  0.000  0.000
  1.000  0.000  0.000  0.000  0.000
    occupations:
  0.754 -0.008 -0.006  0.006 -0.001
 -0.008  1.004 -0.000  0.000  0.003
 -0.006 -0.000  1.005  0.000 -0.000
  0.006  0.000  0.000  0.996 -0.000
 -0.001  0.003 -0.000 -0.000  0.694
   spin  2
    eigenvalues:
  0.075  0.089  0.097  0.296  0.340
    eigenvectors:
  0.006  0.002  0.000  0.993  0.000
  0.004  0.547  0.447  0.002  0.001
  0.006  0.441  0.552  0.001  0.000
  0.984  0.010  0.000  0.005  0.000
  0.000  0.000  0.000  0.000  0.999
    occupations:
  0.294  0.008  0.006 -0.015  0.000
  0.008  0.093 -0.004  0.000 -0.007
  0.006 -0.004  0.093  0.001  0.000
 -0.015  0.000  0.001  0.076 -0.000
  0.000 -0.007  0.000 -0.000  0.340
atomic mag. moment =     3.556222
atom   22   Tr[ns(na)] (up, down, total) =   4.42574  0.96095  5.38669
   spin  1
    eigenvalues:
  0.714  0.734  0.986  0.992  1.000
    eigenvectors:
  0.228  0.000  0.000  0.000  0.772
  0.000  1.000  0.000  0.000  0.000
  0.000  0.000  0.008  0.992  0.000
  0.772  0.000  0.000  0.000  0.228
  0.000  0.000  0.992  0.008  0.000
    occupations:
  0.935 -0.002 -0.000 -0.120  0.000
 -0.002  0.734  0.000  0.001  0.000
 -0.000  0.000  0.992 -0.000  0.001
 -0.120  0.001 -0.000  0.779 -0.000
  0.000  0.000  0.001 -0.000  0.986
   spin  2
    eigenvalues:
  0.084  0.097  0.100  0.335  0.345
    eigenvectors:
  0.805  0.000  0.000  0.171  0.023
  0.000  0.000  0.000  0.129  0.871
  0.000  0.002  0.998  0.000  0.000
  0.195  0.000  0.000  0.699  0.106
  0.000  0.998  0.002  0.000  0.000
    occupations:
  0.133  0.000  0.000  0.100 -0.000
  0.000  0.343 -0.000 -0.004 -0.000
  0.000 -0.000  0.100  0.000  0.000
  0.100 -0.004  0.000  0.287  0.000
 -0.000 -0.000  0.000  0.000  0.097
atomic mag. moment =     3.464792
atom   23   Tr[ns(na)] (up, down, total) =   4.50461  0.83592  5.34053
   spin  1
    eigenvalues:
  0.728  0.774  1.000  1.001  1.001
    eigenvectors:
  0.000  0.999  0.001  0.000  0.000
  0.000  0.000  0.000  0.999  0.001
  0.000  0.000  0.001  0.001  0.998
  0.000  0.001  0.998  0.000  0.001
  1.000  0.000  0.000  0.000  0.000
    occupations:
  0.774 -0.000  0.001  0.006  0.000
 -0.000  1.001 -0.000  0.000 -0.001
  0.001 -0.000  1.001 -0.000  0.000
  0.006  0.000 -0.000  1.000  0.000
  0.000 -0.001  0.000  0.000  0.728
   spin  2
    eigenvalues:
  0.070  0.086  0.088  0.275  0.316
    eigenvectors:
  0.006  0.000  0.000  0.994  0.000
  0.000  0.000  1.000  0.000  0.000
  0.000  1.000  0.000  0.000  0.000
  0.994  0.000  0.000  0.006  0.000
  0.000  0.000  0.000  0.000  1.000
    occupations:
  0.274  0.000 -0.001 -0.015  0.000
  0.000  0.088 -0.000  0.000  0.001
 -0.001 -0.000  0.086 -0.000 -0.000
 -0.015  0.000 -0.000  0.072 -0.000
  0.000  0.001 -0.000 -0.000  0.316
atomic mag. moment =     3.668690
N of occupied +U levels =  42.8231579
 --- exit write_ns ---

 ------ SPIN UP ------------

[...]

 ------ SPIN DOWN ----------

[...]

          k = 0.2500-0.4606 0.0000 ( 26462 PWs)   bands (ev):

[...]

          k =-0.2500 0.2303 0.0000 ( 26396 PWs)   bands (ev):

   -80.3376 -80.3296 -80.2020 -80.1940 -80.1523 -80.1211 -80.1120 -79.2576
   -49.2317 -49.1749 -49.1681 -49.1376 -49.1051 -49.0866 -49.0753 -49.0700
   -49.0608 -49.0577 -49.0418 -48.9998 -48.9869 -48.9620 -48.9620 -48.9437
   -48.9026 -48.8848 -48.8643 -48.7528 -48.7451 -48.3474 -48.2457 -47.7076
   -21.8062 -21.5035 -21.3123 -21.0162 -20.8257 -20.6878 -20.4619 -20.4266
   -20.3465 -20.2845 -20.1522 -20.1175 -20.0406 -19.9539 -19.9195 -19.8035
   -19.7451 -19.6382 -19.5692  -9.1061  -8.8419  -8.5050  -8.3984  -8.3522
    -8.0965  -7.9898  -7.8481  -7.5506  -7.3883  -7.3296  -7.2075  -7.1931
    -7.0444  -7.0189  -6.9484  -6.8652  -6.7710  -6.6842  -6.5440  -6.4358
    -6.4017  -6.3487  -6.2531  -6.1625  -6.1286  -6.0776  -5.9266  -5.8617
    -5.7994  -5.7468  -5.5742  -5.5307  -5.4356  -5.3296  -5.2604  -5.1519
    -5.0702  -4.9789  -4.8910  -4.8008  -4.7561  -4.6199  -4.5727  -4.4957
    -4.4440  -4.3446  -4.2817  -4.1515  -4.0401  -3.9396  -3.7658  -3.7151
    -3.6222  -3.3455  -3.3034  -3.0057   1.1454   1.1822   1.1880   1.2464
     1.2751   1.2926   1.3280   1.4023   1.4607   1.4827   1.5787   1.6205
     1.6524   1.7088   1.7232   1.8312   1.8834   1.9366   1.9630   2.0217
     2.0657   2.1079   2.1780   2.2272   2.2477   2.3385   2.4076   2.4572
     2.4683   2.5088   2.6356   2.6890   2.7842   2.8224   2.8693   2.9941
     3.0125   3.1733   3.2875   3.3533   3.7343   4.3717   4.6006   5.0608
     5.5018   5.6923   5.7807   6.2675   6.3830   6.5873   6.6231   6.6399
     6.8418   7.0042   7.1130   7.3962   7.5517   7.7279   7.9094   8.0571
     8.3732   8.4378   8.4799   8.5324   8.6430   8.7115   8.8996   9.0937
     9.2055   9.3339   9.4409   9.5403   9.5935   9.9039   9.9707  10.0670
    10.1592  10.2261  10.3365  10.4805  10.5939  10.6672  10.7551  10.8771
    10.9774  11.0493  11.1660  11.2677  11.3163  11.3695  11.5616  11.6230
    11.6669  11.7627  11.7877  11.9432  11.9969  12.1043  12.1938  12.3077
    12.4202  12.5053  12.5767  12.6025  12.6940  12.8058  12.9488  12.9742
    13.0504  13.0966  13.1537  13.1976  13.2951  13.3054  13.4202  13.5228
    13.5680  13.6091  13.6470  13.7219  13.7635  13.7953  13.8870  14.0329
    14.1273  14.1986  14.2312  14.2737  14.3067  14.4003  14.5281  14.5659
    14.6831  14.7521  14.8090  14.9525  15.0275  15.0879  15.1432  15.2132
    15.2942  15.4264  15.4706  15.6548  15.7229  15.8648  15.9157  15.9851
    16.1153  16.1740  16.2939  16.3219  16.3922  16.5120  16.5476  16.5952
    16.6437  16.7329  16.8008  16.8879  17.0091  17.0944  17.1429  17.2116
    17.2630  17.3841  17.4370  17.5174  17.5807  17.6241  17.7285  17.7801
    17.8448  17.9347  17.9610  18.1075  18.1717  18.2328  18.3384  18.3922
    18.4437  18.5606  18.6214  18.7150  18.7845  18.8272  18.8659  18.9842
    19.0937  19.1308  19.1449  19.2482  19.2894  19.3435  19.4082  19.5042
    19.6811  19.7569  19.7808  19.9342  19.9535  20.0203  20.0799  20.1383
    20.2012  20.2553  20.3051  20.3448  20.4202  20.4464  20.5832  20.6472
    20.8057  20.9281  20.9629  21.0190  21.1213  21.1593  21.1994  21.2582
    21.3368  21.4254  21.5255  21.5649  21.6153  21.7251  21.7943  21.8221
    21.9479  22.0488  22.1028  22.1959  22.2890  22.3488  22.4047  22.4774
    22.5375

     the spin up/dw Fermi energies are    -2.4869   -0.4391 ev

!    total energy              =   -2318.65460682 Ry
     Harris-Foulkes estimate   =   -2318.65460682 Ry
     estimated scf accuracy    <          5.2E-09 Ry

     The total energy is the sum of the following terms:

     one-electron contribution =  -25996.41767557 Ry
     hartree contribution      =   13016.01024592 Ry
     xc contribution           =    -348.86562748 Ry
     ewald contribution        =   11008.78445606 Ry
     Hubbard energy            =       1.83284261 Ry
     smearing contrib. (-TS)   =       0.00115165 Ry

     total magnetization       =    22.00 Bohr mag/cell
     absolute magnetization    =    36.64 Bohr mag/cell

     convergence has been achieved in  13 iterations

     Forces acting on atoms (Ry/au):

     negative rho (up, down):  0.173E-02 0.142E-02
     atom    1 type  1   force =    -0.00505731   -0.01361716    0.00015896
     atom    2 type  1   force =     0.00040299    0.00912331    0.00040255
     atom    3 type  2   force =     0.00197676    0.00147155    0.00019478
     atom    4 type  2   force =     0.00675917    0.01102588    0.00021790
     atom    5 type  1   force =     0.00180407    0.01051724    0.00022599
     atom    6 type  1   force =    -0.00095564   -0.01672509    0.00018186
     atom    7 type  1   force =     0.00006629    0.00190799    0.00045027
     atom    8 type  1   force =    -0.00141450   -0.00293671   -0.00013545
     atom    9 type  2   force =     0.00734226    0.00049092    0.00001105
     atom   10 type  2   force =    -0.00010911   -0.00141953   -0.00023271
     atom   11 type  1   force =    -0.00630534   -0.02185464    0.00001752
     atom   12 type  1   force =    -0.00595650    0.02266563    0.00006787
     atom   13 type  1   force =    -0.00042913   -0.00045123   -0.00067782
     atom   14 type  1   force =    -0.00499579   -0.01308272    0.00021371
     atom   15 type  1   force =     0.00047749    0.00783409   -0.00000189
     atom   16 type  2   force =    -0.00364841    0.00142856    0.00020338
     atom   17 type  2   force =     0.00674648    0.01093307    0.00007757
     atom   18 type  1   force =     0.00117744    0.01050872    0.00024374
     atom   19 type  1   force =    -0.00267221   -0.01664683    0.00018059
     atom   20 type  1   force =     0.00005468    0.00283653   -0.00012484
     atom   21 type  1   force =    -0.00143610   -0.00270928   -0.00023726
     atom   22 type  2   force =    -0.00589441    0.00060364    0.00001282
     atom   23 type  2   force =     0.00001333   -0.00180699   -0.00054616
     atom   24 type  1   force =     0.00635069   -0.02182055    0.00001222
     atom   25 type  1   force =     0.00611068    0.02274767    0.00007406
     atom   26 type  1   force =    -0.00044988   -0.00069801    0.00003239
     atom   27 type  3   force =    -0.00000083   -0.00040444   -0.00043916
     atom   28 type  3   force =    -0.00001152   -0.00018733   -0.00041575
     atom   29 type  3   force =     0.00004103   -0.00006290    0.00020704
     atom   30 type  3   force =     0.00001071   -0.00001409    0.00025604
     atom   31 type  1   force =     0.00000262    0.00034268   -0.00063129

     Total force =     0.001689     Total SCF correction =     0.000186
     SCF correction compared to forces is large: reduce conv_thr to get better values

     entering subroutine stress ...

     negative rho (up, down):  0.173E-02 0.142E-02
          total   stress  (Ry/bohr**3)                   (kbar)     P=   33.68
   0.00037861  -0.00000225   0.00000402         55.69     -0.33      0.59
  -0.00000225   0.00035696   0.00000504         -0.33     52.51      0.74
   0.00000402   0.00000504  -0.00004866          0.59      0.74     -7.16

     bfgs converged in  12 scf cycles and  11 bfgs steps
     (criteria: energy < 0.10E-03, force < 0.10E-02)

     End of BFGS Geometry Optimization

     Final energy   =   -2318.6546068164 Ry
Begin final coordinates

ATOMIC_POSITIONS (crystal)
O0       0.000000000   0.000000000   0.373650117    0   0   1
O0       0.000000000   0.500000000   0.393890065    0   0   1
Mn1      0.250000000   0.500000000   0.446819492    0   0   1
Mn1      0.000000000   0.000000000   0.447393302    0   0   1
O0       0.250000000   0.800000000   0.445973423    0   0   1
O0       0.250000000   0.200000000   0.449690091    0   0   1
O0       0.000000000   0.500000000   0.494264901    0   0   1
O0       0.000000000   0.000000000   0.526374225    0   0   1
Mn1      0.250000000   0.000000000   0.575728980    0   0   1
Mn1      0.000000000   0.500000000   0.572063208    0   0   1
O0       0.250000000   0.700000000   0.583106028    0   0   1
O0       0.250000000   0.300000000   0.583476612    0   0   1
O0       0.000000000   0.000000000   0.624361993    0   0   1
O0       0.500000000   0.000000000   0.373483270    0   0   1
O0       0.500000000   0.500000000   0.393825154    0   0   1
Mn1      0.750000000   0.500000000   0.446810776    0   0   1
Mn1      0.500000000   0.000000000   0.447113572    0   0   1
O0       0.750000000   0.800000000   0.446010619    0   0   1
O0       0.750000000   0.200000000   0.449690759    0   0   1
O0       0.500000000   0.500000000   0.496675836    0   0   1
O0       0.500000000   0.000000000   0.526467254    0   0   1
Mn1      0.750000000   0.000000000   0.575729590    0   0   1
Mn1      0.500000000   0.500000000   0.573053492    0   0   1
O0       0.750000000   0.700000000   0.583122840    0   0   1
O0       0.750000000   0.300000000   0.583475004    0   0   1
O0       0.500000000   0.000000000   0.625070811    0   0   1
H2       0.000551356   0.648893512   0.378702102
H2       0.500596094   0.647794578   0.378280432
H2       0.161307581   0.043353567   0.363079868
H2       0.661067699   0.044147724   0.362930937
O0       0.499872460   0.501398875   0.646845246
End final coordinates

     General routines

     Parallel routines
     Hubbard U routines

   This run was terminated on:   2:26:12  26May2014

   JOB DONE.