     Program PWSCF v.5.0.2 (svn rev. 9656) starts on 31Jan2014 at 16:41:13

     Current dimensions of program PWSCF are:
     Max number of different atomic species (ntypx) = 10
     Max number of k-points (npk) =  40000
     Max angular momentum in pseudopotentials (lmaxx) =  3
     Waiting for input...
     Reading input from standard input

     Subspace diagonalization in iterative solution of the eigenvalue problem:
     a serial algorithm will be used

     bravais-lattice index     =            0
     lattice parameter (alat)  =       9.2662  a.u.
     unit-cell volume          =     512.7250 (a.u.)^3
     number of atoms/cell      =            6
     number of atomic types    =            2
     number of electrons       =        52.00
     number of Kohn-Sham states=           75
     kinetic-energy cutoff     =      40.0000  Ry
     charge density cutoff     =     500.0000  Ry
     convergence threshold     =      1.0E-06
     mixing beta               =       0.3000
     number of iterations used =            8  plain     mixing
     Exchange-correlation      = SLA  PW   PBE  PBE ( 1 4 3 4 0)
     EXX-fraction              =        0.00
     nstep                     =           50

     celldm(1)=   9.266157  celldm(2)=   0.000000  celldm(3)=   0.000000
     celldm(4)=   0.000000  celldm(5)=   0.000000  celldm(6)=   0.000000

     crystal axes: (cart. coord. in units of alat)
               a(1) = (   1.000000   0.000000   0.000000 )
               a(2) = (   0.000000   1.000000   0.000000 )
               a(3) = (   0.000000   0.000000   0.644444 )

     reciprocal axes: (cart. coord. in units 2 pi/alat)
               b(1) = (  1.000000  0.000000  0.000000 )
               b(2) = (  0.000000  1.000000  0.000000 )
               b(3) = (  0.000000  0.000000  1.551724 )

     PseudoPot. # 1 for Sn read from file:
     /home/camp/zhonxu/pseudo/sn_pbe_v1.uspp.F.UPF
     MD5 check sum: 4cf58ce39ec5d5d420df3dd08604eb00
     Pseudo is Ultrasoft + core correction, Zval = 14.0
     Generated by new atomic code, or converted to UPF format
     Using radial grid of  891 points,  6 beta functions with:
                l(1) =   0
                l(2) =   0
                l(3) =   1
                l(4) =   1
                l(5) =   2
                l(6) =   2
     Q(r) pseudized with  6 coefficients,  rinner =    1.200   1.200   1.200
                                                       1.200   1.200

     PseudoPot. # 2 for O  read from file:
     /home/camp/zhonxu/pseudo/o_pbe_v1.01.uspp.F.UPF
     MD5 check sum: 2bcb18d16ea4b960afae9ec6d52f22d2
     Pseudo is Ultrasoft + core correction, Zval =  6.0
     Generated by new atomic code, or converted to UPF format
     Using radial grid of  737 points,  5 beta functions with:
                l(1) =   0
                l(2) =   0
                l(3) =   1
                l(4) =   1
                l(5) =   2
     Q(r) pseudized with  8 coefficients,  rinner =    0.900   0.900   0.900
                                                       0.900   0.900

     atomic species   valence    mass     pseudopotential
        Sn0           14.00   118.71000     Sn( 1.00)
        O1             6.00    15.99940     O ( 1.00)

     Starting magnetic structure
     atomic species   magnetization
        Sn0          0.000
        O1           0.000

      8 Sym. Ops., with inversion, found
          (note:  8 additional sym.ops. were found but ignored
           their fractional translations are incommensurate with FFT grid)

   Cartesian axes

     site n.     atom                  positions (alat units)
         1           Sn0 tau(   1) = (   0.0000000   0.0000000   0.0000000  )
         2           Sn0 tau(   2) = (   0.5000000   0.5000000   0.3222222  )
         3           O1  tau(   3) = (   0.3050000   0.3050000   0.0000000  )
         4           O1  tau(   4) = (  -0.3050000  -0.3050000   0.0000000  )
         5           O1  tau(   5) = (   0.8050000   0.1950000   0.3222222  )
         6           O1  tau(   6) = (   0.1950000   0.8050000   0.3222222  )

     number of k points=    54  Methfessel-Paxton smearing, width (Ry)=  0.0100
                       cart. coord. in units 2pi/alat
        k(    1) = (   0.0000000   0.0000000   0.0000000), wk =   0.0080000
        k(    2) = (   0.0000000   0.0000000   0.3103448), wk =   0.0160000
        k(    3) = (   0.0000000   0.0000000   0.6206897), wk =   0.0160000
        k(    4) = (   0.0000000   0.2000000   0.0000000), wk =   0.0320000
        k(    5) = (   0.0000000   0.2000000   0.3103448), wk =   0.0640000
        k(    6) = (   0.0000000   0.2000000   0.6206897), wk =   0.0640000
        k(    7) = (   0.0000000   0.4000000   0.0000000), wk =   0.0320000
        k(    8) = (   0.0000000   0.4000000   0.3103448), wk =   0.0640000
        k(    9) = (   0.0000000   0.4000000   0.6206897), wk =   0.0640000
        k(   10) = (   0.2000000   0.2000000   0.0000000), wk =   0.0160000
        k(   11) = (   0.2000000   0.2000000   0.3103448), wk =   0.0320000
        k(   12) = (   0.2000000   0.2000000   0.6206897), wk =   0.0320000
        k(   13) = (   0.2000000   0.4000000   0.0000000), wk =   0.0320000
        k(   14) = (   0.2000000   0.4000000   0.3103448), wk =   0.0640000
        k(   15) = (   0.2000000   0.4000000   0.6206897), wk =   0.0640000
        k(   16) = (   0.4000000   0.4000000   0.0000000), wk =   0.0160000
        k(   17) = (   0.4000000   0.4000000   0.3103448), wk =   0.0320000
        k(   18) = (   0.4000000   0.4000000   0.6206897), wk =   0.0320000
        k(   19) = (  -0.2000000   0.2000000   0.0000000), wk =   0.0160000
        k(   20) = (  -0.2000000   0.2000000  -0.3103448), wk =   0.0320000
        k(   21) = (  -0.2000000   0.2000000  -0.6206897), wk =   0.0320000
        k(   22) = (  -0.2000000   0.4000000   0.0000000), wk =   0.0320000
        k(   23) = (  -0.2000000   0.4000000  -0.3103448), wk =   0.0640000
        k(   24) = (  -0.2000000   0.4000000  -0.6206897), wk =   0.0640000
        k(   25) = (  -0.4000000   0.4000000   0.0000000), wk =   0.0160000
        k(   26) = (  -0.4000000   0.4000000  -0.3103448), wk =   0.0320000
        k(   27) = (  -0.4000000   0.4000000  -0.6206897), wk =   0.0320000
        k(   28) = (   0.0000000   0.0000000   0.0000000), wk =   0.0080000
        k(   29) = (   0.0000000   0.0000000   0.3103448), wk =   0.0160000
        k(   30) = (   0.0000000   0.0000000   0.6206897), wk =   0.0160000
        k(   31) = (   0.0000000   0.2000000   0.0000000), wk =   0.0320000
        k(   32) = (   0.0000000   0.2000000   0.3103448), wk =   0.0640000
        k(   33) = (   0.0000000   0.2000000   0.6206897), wk =   0.0640000
        k(   34) = (   0.0000000   0.4000000   0.0000000), wk =   0.0320000
        k(   35) = (   0.0000000   0.4000000   0.3103448), wk =   0.0640000
        k(   36) = (   0.0000000   0.4000000   0.6206897), wk =   0.0640000
        k(   37) = (   0.2000000   0.2000000   0.0000000), wk =   0.0160000
        k(   38) = (   0.2000000   0.2000000   0.3103448), wk =   0.0320000
        k(   39) = (   0.2000000   0.2000000   0.6206897), wk =   0.0320000
        k(   40) = (   0.2000000   0.4000000   0.0000000), wk =   0.0320000
        k(   41) = (   0.2000000   0.4000000   0.3103448), wk =   0.0640000
        k(   42) = (   0.2000000   0.4000000   0.6206897), wk =   0.0640000
        k(   43) = (   0.4000000   0.4000000   0.0000000), wk =   0.0160000
        k(   44) = (   0.4000000   0.4000000   0.3103448), wk =   0.0320000
        k(   45) = (   0.4000000   0.4000000   0.6206897), wk =   0.0320000
        k(   46) = (  -0.2000000   0.2000000   0.0000000), wk =   0.0160000
        k(   47) = (  -0.2000000   0.2000000  -0.3103448), wk =   0.0320000
        k(   48) = (  -0.2000000   0.2000000  -0.6206897), wk =   0.0320000
        k(   49) = (  -0.2000000   0.4000000   0.0000000), wk =   0.0320000
        k(   50) = (  -0.2000000   0.4000000  -0.3103448), wk =   0.0640000
        k(   51) = (  -0.2000000   0.4000000  -0.6206897), wk =   0.0640000
        k(   52) = (  -0.4000000   0.4000000   0.0000000), wk =   0.0160000
        k(   53) = (  -0.4000000   0.4000000  -0.3103448), wk =   0.0320000
        k(   54) = (  -0.4000000   0.4000000  -0.6206897), wk =   0.0320000

     Largest allocated arrays     est. size (Mb)     dimensions
     Largest temporary arrays     est. size (Mb)     dimensions

     Check: negative/imaginary core charge=   -0.000004    0.000000

     Initial potential from superposition of free atoms

     starting charge   49.99990, renormalised to   52.00000
     Starting wfc are   34 randomized atomic wfcs

     Self-consistent Calculation

     iteration #  1     ecut=    40.00 Ry     beta=0.30
     Davidson diagonalization with overlap
     ethr =  1.00E-02,  avg # of iterations =  5.1

     total energy              =    -455.38200389 Ry
     Harris-Foulkes estimate   =    -456.15634844 Ry
     estimated scf accuracy    <       1.67534328 Ry

     total magnetization       =     0.00 Bohr mag/cell
     absolute magnetization    =     0.00 Bohr mag/cell

[...]

     End of self-consistent calculation

 ------ SPIN UP ------------

          k = 0.0000 0.0000 0.0000 (  2177 PWs)   bands (ev):

   -12.3976 -11.8012 -11.5472 -11.5056 -11.5056 -11.4181 -11.4178 -11.3532
   -11.3350 -11.3350  -9.9748  -8.3175  -8.3175  -6.8297   0.6032   4.6285
     4.6285   5.1738   5.7655   6.5938   6.8169   7.5180   7.5181   7.9076
     7.9077   8.6801   9.4023  14.6985  14.9759  14.9759  18.7293  19.1770
    19.9408  19.9408  20.7082  20.8995  23.3052  25.9682  27.0892  27.1607
    28.0532  28.0532  28.2927  28.2927  28.8544  28.8544  29.0258  29.0272
    29.9032  30.5449  30.7763  31.6761  33.6466  33.6466  35.6163  35.6164
    35.6872  36.7071  37.9151  38.0754  38.0754  39.8954  39.9471  40.0567
    41.3659  41.4143  41.4143  41.8495  41.8495  42.1122  43.9302  44.0804
    44.9715  44.9715  45.7678

[...]

          k =-0.2000 0.2000 0.0000 (  2153 PWs)   bands (ev):

[...]

 ------ SPIN DOWN ----------

[...]

     the Fermi energy is     8.7825 ev

!    total energy              =    -455.50862639 Ry
     Harris-Foulkes estimate   =    -455.50861020 Ry
     estimated scf accuracy    <       0.00000027 Ry

     The total energy is the sum of the following terms:

     one-electron contribution =    -140.81112273 Ry
     hartree contribution      =     109.99526776 Ry
     xc contribution           =    -124.50602062 Ry
     ewald contribution        =    -300.18676131 Ry
     smearing contrib. (-TS)   =       0.00001050 Ry

[...]

     convergence has been achieved in   7 iterations

     Forces acting on atoms (Ry/au):

     atom    1 type  1   force =     0.00000000    0.00000000    0.00000000
     atom    2 type  1   force =     0.00000000    0.00000000    0.00000000
     atom    3 type  2   force =     0.00381219    0.00381219    0.00000000
     atom    4 type  2   force =    -0.00381219   -0.00381219   -0.00000000
     atom    5 type  2   force =     0.00381325   -0.00381325    0.00000000
     atom    6 type  2   force =    -0.00381325    0.00381325   -0.00000000

[...]
     NEW k-points:
        k(    1) = (   0.0000000   0.0000000   0.0000000), wk =   0.0080000
        k(    2) = (   0.0000000   0.0000000   0.3021768), wk =   0.0160000
        k(    3) = (   0.0000000   0.0000000   0.6043536), wk =   0.0160000
        k(    4) = (  -0.0000002   0.2026850   0.0000000), wk =   0.0320000
        k(    5) = (  -0.0000002   0.2026850   0.3021768), wk =   0.0640000
        k(    6) = (  -0.0000002   0.2026850   0.6043536), wk =   0.0640000
        k(    7) = (  -0.0000004   0.4053701   0.0000000), wk =   0.0320000
        k(    8) = (  -0.0000004   0.4053701   0.3021768), wk =   0.0640000
        k(    9) = (  -0.0000004   0.4053701   0.6043536), wk =   0.0640000
        k(   10) = (   0.2026848   0.2026848   0.0000000), wk =   0.0160000
        k(   11) = (   0.2026848   0.2026848   0.3021768), wk =   0.0320000
        k(   12) = (   0.2026848   0.2026848   0.6043536), wk =   0.0320000
        k(   13) = (   0.2026846   0.4053699   0.0000000), wk =   0.0320000
        k(   14) = (   0.2026846   0.4053699   0.3021768), wk =   0.0640000
        k(   15) = (   0.2026846   0.4053699   0.6043536), wk =   0.0640000
        k(   16) = (   0.4053697   0.4053697   0.0000000), wk =   0.0160000
        k(   17) = (   0.4053697   0.4053697   0.3021768), wk =   0.0320000
        k(   18) = (   0.4053697   0.4053697   0.6043536), wk =   0.0320000
        k(   19) = (  -0.2026853   0.2026853   0.0000000), wk =   0.0160000
        k(   20) = (  -0.2026853   0.2026853  -0.3021768), wk =   0.0320000
        k(   21) = (  -0.2026853   0.2026853  -0.6043536), wk =   0.0320000
        k(   22) = (  -0.2026855   0.4053703   0.0000000), wk =   0.0320000
        k(   23) = (  -0.2026855   0.4053703  -0.3021768), wk =   0.0640000
        k(   24) = (  -0.2026855   0.4053703  -0.6043536), wk =   0.0640000
        k(   25) = (  -0.4053705   0.4053705   0.0000000), wk =   0.0160000
        k(   26) = (  -0.4053705   0.4053705  -0.3021768), wk =   0.0320000
        k(   27) = (  -0.4053705   0.4053705  -0.6043536), wk =   0.0320000
        k(   28) = (   0.0000000   0.0000000   0.0000000), wk =   0.0080000
        k(   29) = (   0.0000000   0.0000000   0.3021768), wk =   0.0160000
        k(   30) = (   0.0000000   0.0000000   0.6043536), wk =   0.0160000
        k(   31) = (  -0.0000002   0.2026850   0.0000000), wk =   0.0320000
        k(   32) = (  -0.0000002   0.2026850   0.3021768), wk =   0.0640000
        k(   33) = (  -0.0000002   0.2026850   0.6043536), wk =   0.0640000
        k(   34) = (  -0.0000004   0.4053701   0.0000000), wk =   0.0320000
        k(   35) = (  -0.0000004   0.4053701   0.3021768), wk =   0.0640000
        k(   36) = (  -0.0000004   0.4053701   0.6043536), wk =   0.0640000
        k(   37) = (   0.2026848   0.2026848   0.0000000), wk =   0.0160000
        k(   38) = (   0.2026848   0.2026848   0.3021768), wk =   0.0320000
        k(   39) = (   0.2026848   0.2026848   0.6043536), wk =   0.0320000
        k(   40) = (   0.2026846   0.4053699   0.0000000), wk =   0.0320000
        k(   41) = (   0.2026846   0.4053699   0.3021768), wk =   0.0640000
        k(   42) = (   0.2026846   0.4053699   0.6043536), wk =   0.0640000
        k(   43) = (   0.4053697   0.4053697   0.0000000), wk =   0.0160000
        k(   44) = (   0.4053697   0.4053697   0.3021768), wk =   0.0320000
        k(   45) = (   0.4053697   0.4053697   0.6043536), wk =   0.0320000
        k(   46) = (  -0.2026853   0.2026853   0.0000000), wk =   0.0160000
        k(   47) = (  -0.2026853   0.2026853  -0.3021768), wk =   0.0320000
        k(   48) = (  -0.2026853   0.2026853  -0.6043536), wk =   0.0320000
        k(   49) = (  -0.2026855   0.4053703   0.0000000), wk =   0.0320000
        k(   50) = (  -0.2026855   0.4053703  -0.3021768), wk =   0.0640000
        k(   51) = (  -0.2026855   0.4053703  -0.6043536), wk =   0.0640000
        k(   52) = (  -0.4053705   0.4053705   0.0000000), wk =   0.0160000
        k(   53) = (  -0.4053705   0.4053705  -0.3021768), wk =   0.0320000
        k(   54) = (  -0.4053705   0.4053705  -0.6043536), wk =   0.0320000

[...]

     Volume is kept fixed: isostatic pressure set to zero

     bfgs converged in   4 scf cycles and   3 bfgs steps
     (criteria: energy < 0.10E-03, force < 0.10E-02, cell < 0.50E+00)

     End of BFGS Geometry Optimization

     Final enthalpy =    -455.5125831350 Ry
Begin final coordinates
     new unit-cell volume =    512.72496 a.u.^3 (    75.97800 Ang^3 )

CELL_PARAMETERS (alat=  9.26615712)
   0.986752622   0.000000999   0.000000000
   0.000000999   0.986752622   0.000000000
   0.000000000   0.000000000   0.661864223

ATOMIC_POSITIONS (crystal)
Sn0      0.000000000   0.000000000   0.000000000    0   0   0
Sn0      0.500000000   0.500000000   0.500000000    0   0   0
O1       0.306528860   0.306528860   0.000000000    1   1   0
O1      -0.306528860  -0.306528860   0.000000000    1   1   0
O1       0.806528699   0.193471301   0.500000000    1   1   0
O1       0.193471301   0.806528699   0.500000000    1   1   0
End final coordinates

     A final scf calculation at the relaxed structure.
     The G-vectors are recalculated for the final unit cell
     Results may differ from those at the preceding step.

     bravais-lattice index     =            0
     lattice parameter (alat)  =       9.2662  a.u.
     unit-cell volume          =     512.7250 (a.u.)^3
     number of atoms/cell      =            6
     number of atomic types    =            2
     number of electrons       =        52.00
     number of Kohn-Sham states=           75
     kinetic-energy cutoff     =      40.0000  Ry
     charge density cutoff     =     500.0000  Ry
     convergence threshold     =      1.2E-08
     mixing beta               =       0.3000
     number of iterations used =            8  plain     mixing
     Exchange-correlation      = SLA  PW   PBE  PBE ( 1 4 3 4 0)
     EXX-fraction              =        0.00

     celldm(1)=   9.266157  celldm(2)=   0.000000  celldm(3)=   0.000000
     celldm(4)=   0.000000  celldm(5)=   0.000000  celldm(6)=   0.000000

     crystal axes: (cart. coord. in units of alat)
               a(1) = (   0.986753   0.000001   0.000000 )
               a(2) = (   0.000001   0.986753   0.000000 )
               a(3) = (   0.000000   0.000000   0.661864 )

     reciprocal axes: (cart. coord. in units 2 pi/alat)
               b(1) = (  1.013425 -0.000001  0.000000 )
               b(2) = ( -0.000001  1.013425  0.000000 )
               b(3) = (  0.000000  0.000000  1.510884 )

     PseudoPot. # 1 for Sn read from file:
     /home/camp/zhonxu/pseudo/sn_pbe_v1.uspp.F.UPF
     MD5 check sum: 4cf58ce39ec5d5d420df3dd08604eb00
     Pseudo is Ultrasoft + core correction, Zval = 14.0
     Generated by new atomic code, or converted to UPF format
     Using radial grid of  891 points,  6 beta functions with:
                l(1) =   0
                l(2) =   0
                l(3) =   1
                l(4) =   1
                l(5) =   2
                l(6) =   2
     Q(r) pseudized with  6 coefficients,  rinner =    1.200   1.200   1.200
                                                       1.200   1.200

     PseudoPot. # 2 for O  read from file:
     /home/camp/zhonxu/pseudo/o_pbe_v1.01.uspp.F.UPF
     MD5 check sum: 2bcb18d16ea4b960afae9ec6d52f22d2
     Pseudo is Ultrasoft + core correction, Zval =  6.0
     Generated by new atomic code, or converted to UPF format
     Using radial grid of  737 points,  5 beta functions with:
                l(1) =   0
                l(2) =   0
                l(3) =   1
                l(4) =   1
                l(5) =   2
     Q(r) pseudized with  8 coefficients,  rinner =    0.900   0.900   0.900
                                                       0.900   0.900

     atomic species   valence    mass     pseudopotential
        Sn0           14.00   118.71000     Sn( 1.00)
        O1             6.00    15.99940     O ( 1.00)

     Starting magnetic structure
     atomic species   magnetization
        Sn0          0.000
        O1           0.000

      8 Sym. Ops., with inversion, found
          (note:  8 additional sym.ops. were found but ignored
           their fractional translations are incommensurate with FFT grid)

   Cartesian axes

     site n.     atom                  positions (alat units)
         1           Sn0 tau(   1) = (   0.0000000   0.0000000   0.0000000  )
         2           Sn0 tau(   2) = (   0.4933768   0.4933768   0.3309321  )
         3           O1  tau(   3) = (   0.3024685   0.3024685   0.0000000  )
         4           O1  tau(   4) = (  -0.3024685  -0.3024685   0.0000000  )
         5           O1  tau(   5) = (   0.7958445   0.1909091   0.3309321  )
         6           O1  tau(   6) = (   0.1909091   0.7958445   0.3309321  )

     number of k points=    54  Methfessel-Paxton smearing, width (Ry)=  0.0100
                       cart. coord. in units 2pi/alat
        k(    1) = (   0.0000000   0.0000000   0.0000000), wk =   0.0080000
        k(    2) = (   0.0000000   0.0000000   0.3021768), wk =   0.0160000
        k(    3) = (   0.0000000   0.0000000   0.6043536), wk =   0.0160000
        k(    4) = (  -0.0000002   0.2026850   0.0000000), wk =   0.0320000
        k(    5) = (  -0.0000002   0.2026850   0.3021768), wk =   0.0640000
        k(    6) = (  -0.0000002   0.2026850   0.6043536), wk =   0.0640000
        k(    7) = (  -0.0000004   0.4053701   0.0000000), wk =   0.0320000
        k(    8) = (  -0.0000004   0.4053701   0.3021768), wk =   0.0640000
        k(    9) = (  -0.0000004   0.4053701   0.6043536), wk =   0.0640000
        k(   10) = (   0.2026848   0.2026848   0.0000000), wk =   0.0160000
        k(   11) = (   0.2026848   0.2026848   0.3021768), wk =   0.0320000
        k(   12) = (   0.2026848   0.2026848   0.6043536), wk =   0.0320000
        k(   13) = (   0.2026846   0.4053699   0.0000000), wk =   0.0320000
        k(   14) = (   0.2026846   0.4053699   0.3021768), wk =   0.0640000
        k(   15) = (   0.2026846   0.4053699   0.6043536), wk =   0.0640000
        k(   16) = (   0.4053697   0.4053697   0.0000000), wk =   0.0160000
        k(   17) = (   0.4053697   0.4053697   0.3021768), wk =   0.0320000
        k(   18) = (   0.4053697   0.4053697   0.6043536), wk =   0.0320000
        k(   19) = (  -0.2026853   0.2026853   0.0000000), wk =   0.0160000
        k(   20) = (  -0.2026853   0.2026853  -0.3021768), wk =   0.0320000
        k(   21) = (  -0.2026853   0.2026853  -0.6043536), wk =   0.0320000
        k(   22) = (  -0.2026855   0.4053703   0.0000000), wk =   0.0320000
        k(   23) = (  -0.2026855   0.4053703  -0.3021768), wk =   0.0640000
        k(   24) = (  -0.2026855   0.4053703  -0.6043536), wk =   0.0640000
        k(   25) = (  -0.4053705   0.4053705   0.0000000), wk =   0.0160000
        k(   26) = (  -0.4053705   0.4053705  -0.3021768), wk =   0.0320000
        k(   27) = (  -0.4053705   0.4053705  -0.6043536), wk =   0.0320000
        k(   28) = (   0.0000000   0.0000000   0.0000000), wk =   0.0080000
        k(   29) = (   0.0000000   0.0000000   0.3021768), wk =   0.0160000
        k(   30) = (   0.0000000   0.0000000   0.6043536), wk =   0.0160000
        k(   31) = (  -0.0000002   0.2026850   0.0000000), wk =   0.0320000
        k(   32) = (  -0.0000002   0.2026850   0.3021768), wk =   0.0640000
        k(   33) = (  -0.0000002   0.2026850   0.6043536), wk =   0.0640000
        k(   34) = (  -0.0000004   0.4053701   0.0000000), wk =   0.0320000
        k(   35) = (  -0.0000004   0.4053701   0.3021768), wk =   0.0640000
        k(   36) = (  -0.0000004   0.4053701   0.6043536), wk =   0.0640000
        k(   37) = (   0.2026848   0.2026848   0.0000000), wk =   0.0160000
        k(   38) = (   0.2026848   0.2026848   0.3021768), wk =   0.0320000
        k(   39) = (   0.2026848   0.2026848   0.6043536), wk =   0.0320000
        k(   40) = (   0.2026846   0.4053699   0.0000000), wk =   0.0320000
        k(   41) = (   0.2026846   0.4053699   0.3021768), wk =   0.0640000
        k(   42) = (   0.2026846   0.4053699   0.6043536), wk =   0.0640000
        k(   43) = (   0.4053697   0.4053697   0.0000000), wk =   0.0160000
        k(   44) = (   0.4053697   0.4053697   0.3021768), wk =   0.0320000
        k(   45) = (   0.4053697   0.4053697   0.6043536), wk =   0.0320000
        k(   46) = (  -0.2026853   0.2026853   0.0000000), wk =   0.0160000
        k(   47) = (  -0.2026853   0.2026853  -0.3021768), wk =   0.0320000
        k(   48) = (  -0.2026853   0.2026853  -0.6043536), wk =   0.0320000
        k(   49) = (  -0.2026855   0.4053703   0.0000000), wk =   0.0320000
        k(   50) = (  -0.2026855   0.4053703  -0.3021768), wk =   0.0640000
        k(   51) = (  -0.2026855   0.4053703  -0.6043536), wk =   0.0640000
        k(   52) = (  -0.4053705   0.4053705   0.0000000), wk =   0.0160000
        k(   53) = (  -0.4053705   0.4053705  -0.3021768), wk =   0.0320000
        k(   54) = (  -0.4053705   0.4053705  -0.6043536), wk =   0.0320000

     Largest allocated arrays     est. size (Mb)     dimensions
     Largest temporary arrays     est. size (Mb)     dimensions

     Check: negative/imaginary core charge=   -0.000004    0.000000

     Initial potential from superposition of free atoms

     starting charge   49.99990, renormalised to   52.00000
     Starting wfc are   34 randomized atomic wfcs

     Self-consistent Calculation

[...]

     total energy              =    -455.51258789 Ry
     Harris-Foulkes estimate   =    -455.51258388 Ry
     estimated scf accuracy    <       0.00000006 Ry

[...]

     iteration #  9     ecut=    40.00 Ry     beta=0.30
     Davidson diagonalization with overlap
     ethr =  1.19E-10,  avg # of iterations =  1.0

     End of self-consistent calculation

 ------ SPIN UP ------------

[...]

 ------ SPIN DOWN ----------

[...]

          k = 0.4054 0.4054 0.6044 (  2186 PWs)   bands (ev):

[...]

          k =-0.4054 0.4054-0.6044 (  2186 PWs)   bands (ev):

   -12.1633 -12.0949 -11.7694 -11.6707 -11.3874 -11.3859 -11.3544 -11.3519
   -11.3329 -11.3303  -8.4012  -8.2293  -7.1392  -7.0251   1.1954   1.3307
     4.2011   4.2067   4.9977   6.0265   6.1843   7.1239   7.6993   7.7368
     7.8856   7.9434  13.1734  13.2997  17.0936  17.5185  18.7632  19.0867
    19.2583  19.6497  21.2394  21.5072  22.8913  23.2300  23.3700  25.1992
    26.0532  26.2596  27.2056  28.2424  29.0313  29.0318  30.5738  31.0964
    32.4989  32.6599  33.4117  34.1465  34.4838  35.0756  35.5779  36.2733
    36.4721  37.9458  38.4015  38.7197  40.1074  40.4588  41.1065  41.5299
    41.6699  41.9863  42.3778  43.0844  43.1431  44.1687  44.2385  44.8680
    45.4799  45.8398  46.7115

     the Fermi energy is     8.7947 ev

!    total energy              =    -455.51259175 Ry
     Harris-Foulkes estimate   =    -455.51258791 Ry
     estimated scf accuracy    <          9.8E-09 Ry

     The total energy is the sum of the following terms:

     one-electron contribution =    -138.75865731 Ry
     hartree contribution      =     109.02184448 Ry
     xc contribution           =    -124.47948905 Ry
     ewald contribution        =    -301.29630117 Ry
     smearing contrib. (-TS)   =       0.00001131 Ry

     total magnetization       =     0.00 Bohr mag/cell
     absolute magnetization    =     0.00 Bohr mag/cell

     convergence has been achieved in   9 iterations

     Forces acting on atoms (Ry/au):

     atom    1 type  1   force =     0.00000000    0.00000000    0.00000000
     atom    2 type  1   force =     0.00000000    0.00000000    0.00000000
     atom    3 type  2   force =     0.00043341    0.00043341    0.00000000
     atom    4 type  2   force =    -0.00043341   -0.00043341    0.00000000
     atom    5 type  2   force =     0.00043463   -0.00043463   -0.00000000
     atom    6 type  2   force =    -0.00043463    0.00043463   -0.00000000

     Total force =     0.001228     Total SCF correction =     0.000078

     entering subroutine stress ...

          total   stress  (Ry/bohr**3)                   (kbar)     P=  -13.25
  -0.00009049  -0.00000003   0.00000000        -13.31     -0.00      0.00
  -0.00000003  -0.00009049   0.00000000         -0.00    -13.31      0.00
   0.00000000   0.00000000  -0.00008930          0.00      0.00    -13.14

     General routines

     Parallel routines

   This run was terminated on:  18:33:41  31Jan2014

   JOB DONE.
Running PBS batch system epilogue script
Job id: 255939.audhumbla.fysik.dtu.dk
Username: zhonxu
Groupname: campgst
Jobname: SnO2/ground
Sessionid: 31073
Queuename: verylong
Accounting:
This job has allocated the following 1 nodes:
q016
Finished epilogue job 255939.audhumbla.fysik.dtu.dk for zhonxu