     Program PWSCF v.5.0.2 (svn rev. 9656) starts on 29Apr2014 at  3:26:28

     Current dimensions of program PWSCF are:
     Max number of different atomic species (ntypx) = 10
     Max number of k-points (npk) =  40000
     Max angular momentum in pseudopotentials (lmaxx) =  3
     Reading input from pwscf.in
Warning: card &CELL ignored
Warning: card / ignored

     Subspace diagonalization in iterative solution of the eigenvalue problem:
     a serial algorithm will be used

     bravais-lattice index     =            0
     lattice parameter (alat)  =      12.0187  a.u.
     unit-cell volume          =    7280.5819 (a.u.)^3
     number of atoms/cell      =           31
     number of atomic types    =            3
     number of electrons       =       238.00
     number of Kohn-Sham states=          357
     kinetic-energy cutoff     =      40.0000  Ry
     charge density cutoff     =     500.0000  Ry
     convergence threshold     =      1.0E-06
     mixing beta               =       0.7000
     number of iterations used =            8  plain     mixing
     Exchange-correlation      = SLA  PW   PBE  PBE ( 1 4 3 4 0)
     EXX-fraction              =        0.00
     nstep                     =           50

     celldm(1)=  12.018658  celldm(2)=   0.000000  celldm(3)=   0.000000
     celldm(4)=   0.000000  celldm(5)=   0.000000  celldm(6)=   0.000000

     crystal axes: (cart. coord. in units of alat)
               a(1) = (   1.000000   0.000000   0.000000 )
               a(2) = (   0.000000   1.009517   0.000000 )
               a(3) = (   0.000000   0.000000   4.154171 )

     reciprocal axes: (cart. coord. in units 2 pi/alat)
               b(1) = (  1.000000  0.000000  0.000000 )
               b(2) = (  0.000000  0.990572  0.000000 )
               b(3) = (  0.000000  0.000000  0.240722 )

     PseudoPot. # 1 for O  read from file:
     /home/camp/zhonxu/pseudo/o_pbe_v1.01.uspp.F.UPF
     MD5 check sum: 2bcb18d16ea4b960afae9ec6d52f22d2
     Pseudo is Ultrasoft + core correction, Zval =  6.0
     Generated by new atomic code, or converted to UPF format
     Using radial grid of  737 points,  5 beta functions with:
                l(1) =   0
                l(2) =   0
                l(3) =   1
                l(4) =   1
                l(5) =   2
     Q(r) pseudized with  8 coefficients,  rinner =    0.900   0.900   0.900
                                                       0.900   0.900

     PseudoPot. # 2 for Ir read from file:
     /home/camp/zhonxu/pseudo/ir_pbe_v1.uspp.F.UPF
     MD5 check sum: abf987a9674477536ede83817f8f8b70
     Pseudo is Ultrasoft + core correction, Zval = 15.0
     Generated by new atomic code, or converted to UPF format
     Using radial grid of  983 points,  7 beta functions with:
                l(1) =   0
                l(2) =   0
                l(3) =   1
                l(4) =   1
                l(5) =   1
                l(6) =   2
                l(7) =   2
     Q(r) pseudized with  8 coefficients,  rinner =    1.350   1.350   1.350
                                                       1.350   1.350

     PseudoPot. # 3 for H  read from file:
     /home/camp/zhonxu/pseudo/h_pbe_v1.uspp.F.UPF
     MD5 check sum: 3408e3ff4ec8b0a4e358431e7e038a48
     Pseudo is Ultrasoft, Zval =  1.0
     Generated by new atomic code, or converted to UPF format
     Using radial grid of  615 points,  2 beta functions with:
                l(1) =   0
                l(2) =   0
     Q(r) pseudized with  8 coefficients,  rinner =    0.700

     atomic species   valence    mass     pseudopotential
        O0             6.00    15.99940     O ( 1.00)
        Ir1           15.00   192.22000     Ir( 1.00)
        H2             1.00     1.00794     H ( 1.00)

     Simplified LDA+U calculation (l_max = 2) with parameters (eV):
     atomic species    L          U    alpha       J0     beta
        Ir1            2     4.5000   0.0000   0.0000   0.0000

     No symmetry found

   Cartesian axes

     site n.     atom                  positions (alat units)
         1           O0  tau(   1) = (   0.0000000   0.0000000   1.5706091  )
         2           O0  tau(   2) = (   0.0000000   0.5047586   1.6747957  )
         3           Ir1 tau(   3) = (   0.2500000   0.5047586   1.8830443  )
         4           Ir1 tau(   4) = (   0.0000000   0.0000000   1.8812580  )
         5           O0  tau(   5) = (   0.2500000   0.8177090   1.8812996  )
         6           O0  tau(   6) = (   0.2500000   0.1918083   1.8799287  )
         7           O0  tau(   7) = (   0.0000000   0.5047586   2.0722253  )
         8           O0  tau(   8) = (   0.0000000   0.0000000   2.1948149  )
         9           Ir1 tau(   9) = (   0.2500000   0.0000000   2.3898532  )
        10           Ir1 tau(  10) = (   0.0000000   0.5047586   2.3761029  )
        11           O0  tau(  11) = (   0.2500000   0.6965669   2.3876930  )
        12           O0  tau(  12) = (   0.2500000   0.3129503   2.3878177  )
        13           O0  tau(  13) = (   0.0000000   0.0000000   2.5742569  )
        14           O0  tau(  14) = (   0.5000000   0.0000000   1.5702768  )
        15           O0  tau(  15) = (   0.5000000   0.5047586   1.6724694  )
        16           Ir1 tau(  16) = (   0.7500000   0.5047586   1.8830859  )
        17           Ir1 tau(  17) = (   0.5000000   0.0000000   1.8811334  )
        18           O0  tau(  18) = (   0.7500000   0.8177090   1.8813411  )
        19           O0  tau(  19) = (   0.7500000   0.1918083   1.8799702  )
        20           O0  tau(  20) = (   0.5000000   0.5047586   2.0802013  )
        21           O0  tau(  21) = (   0.5000000   0.0000000   2.1944825  )
        22           Ir1 tau(  22) = (   0.7500000   0.0000000   2.3898532  )
        23           Ir1 tau(  23) = (   0.5000000   0.5047586   2.4038943  )
        24           O0  tau(  24) = (   0.7500000   0.6965669   2.3876515  )
        25           O0  tau(  25) = (   0.7500000   0.3129503   2.3878177  )
        26           O0  tau(  26) = (   0.5000000   0.0000000   2.5734260  )
        27           H2  tau(  27) = (  -0.0000700   0.6394282   1.5957418  )
        28           H2  tau(  28) = (   0.4999700   0.6419823   1.5977358  )
        29           H2  tau(  29) = (   0.1436200   0.0342933   1.5227115  )
        30           H2  tau(  30) = (   0.6432900   0.0353230   1.5222545  )
        31           O0  tau(  31) = (   0.5000100   0.5042640   2.6822238  )

     number of k points=    10  Methfessel-Paxton smearing, width (Ry)=  0.0100
                       cart. coord. in units 2pi/alat
        k(    1) = (   0.0000000   0.0000000   0.0000000), wk =   0.1250000
        k(    2) = (   0.0000000   0.2476431   0.0000000), wk =   0.2500000
        k(    3) = (   0.0000000  -0.4952862   0.0000000), wk =   0.1250000
        k(    4) = (   0.2500000   0.0000000   0.0000000), wk =   0.2500000
        k(    5) = (   0.2500000   0.2476431   0.0000000), wk =   0.2500000
        k(    6) = (   0.2500000  -0.4952862   0.0000000), wk =   0.2500000
        k(    7) = (  -0.5000000   0.0000000   0.0000000), wk =   0.1250000
        k(    8) = (  -0.5000000   0.2476431   0.0000000), wk =   0.2500000
        k(    9) = (  -0.5000000  -0.4952862   0.0000000), wk =   0.1250000
        k(   10) = (  -0.2500000   0.2476431   0.0000000), wk =   0.2500000

     Largest allocated arrays     est. size (Mb)     dimensions
     Largest temporary arrays     est. size (Mb)     dimensions

     Check: negative/imaginary core charge=   -0.000003    0.000000

     Initial potential from superposition of free atoms
     Check: negative starting charge=   -3.336659

     starting charge  233.99968, renormalised to  238.00000

     negative rho (up, down):  0.339E+01 0.000E+00
     Number of +U iterations with fixed ns =  0
     Starting occupations:
 --- enter write_ns ---
 LDA+U parameters:
U( 2)     =  4.50000000
alpha( 2) =  0.00000000
atom    3   Tr[ns(na)] =   7.00000
    eigenvalues:
  0.700  0.700  0.700  0.700  0.700
    eigenvectors:
  1.000  0.000  0.000  0.000  0.000
  0.000  1.000  0.000  0.000  0.000
  0.000  0.000  1.000  0.000  0.000
  0.000  0.000  0.000  1.000  0.000
  0.000  0.000  0.000  0.000  1.000
    occupations:
  0.700  0.000  0.000  0.000  0.000
  0.000  0.700  0.000  0.000  0.000
  0.000  0.000  0.700  0.000  0.000
  0.000  0.000  0.000  0.700  0.000
  0.000  0.000  0.000  0.000  0.700
atom    4   Tr[ns(na)] =   7.00000
    eigenvalues:
  0.700  0.700  0.700  0.700  0.700
    eigenvectors:
  1.000  0.000  0.000  0.000  0.000
  0.000  1.000  0.000  0.000  0.000
  0.000  0.000  1.000  0.000  0.000
  0.000  0.000  0.000  1.000  0.000
  0.000  0.000  0.000  0.000  1.000
    occupations:
  0.700  0.000  0.000  0.000  0.000
  0.000  0.700  0.000  0.000  0.000
  0.000  0.000  0.700  0.000  0.000
  0.000  0.000  0.000  0.700  0.000
  0.000  0.000  0.000  0.000  0.700
atom    9   Tr[ns(na)] =   7.00000
    eigenvalues:
  0.700  0.700  0.700  0.700  0.700
    eigenvectors:
  1.000  0.000  0.000  0.000  0.000
  0.000  1.000  0.000  0.000  0.000
  0.000  0.000  1.000  0.000  0.000
  0.000  0.000  0.000  1.000  0.000
  0.000  0.000  0.000  0.000  1.000
    occupations:
  0.700  0.000  0.000  0.000  0.000
  0.000  0.700  0.000  0.000  0.000
  0.000  0.000  0.700  0.000  0.000
  0.000  0.000  0.000  0.700  0.000
  0.000  0.000  0.000  0.000  0.700
atom   10   Tr[ns(na)] =   7.00000
    eigenvalues:
  0.700  0.700  0.700  0.700  0.700
    eigenvectors:
  1.000  0.000  0.000  0.000  0.000
  0.000  1.000  0.000  0.000  0.000
  0.000  0.000  1.000  0.000  0.000
  0.000  0.000  0.000  1.000  0.000
  0.000  0.000  0.000  0.000  1.000
    occupations:
  0.700  0.000  0.000  0.000  0.000
  0.000  0.700  0.000  0.000  0.000
  0.000  0.000  0.700  0.000  0.000
  0.000  0.000  0.000  0.700  0.000
  0.000  0.000  0.000  0.000  0.700
atom   16   Tr[ns(na)] =   7.00000
    eigenvalues:
  0.700  0.700  0.700  0.700  0.700
    eigenvectors:
  1.000  0.000  0.000  0.000  0.000
  0.000  1.000  0.000  0.000  0.000
  0.000  0.000  1.000  0.000  0.000
  0.000  0.000  0.000  1.000  0.000
  0.000  0.000  0.000  0.000  1.000
    occupations:
  0.700  0.000  0.000  0.000  0.000
  0.000  0.700  0.000  0.000  0.000
  0.000  0.000  0.700  0.000  0.000
  0.000  0.000  0.000  0.700  0.000
  0.000  0.000  0.000  0.000  0.700
atom   17   Tr[ns(na)] =   7.00000
    eigenvalues:
  0.700  0.700  0.700  0.700  0.700
    eigenvectors:
  1.000  0.000  0.000  0.000  0.000
  0.000  1.000  0.000  0.000  0.000
  0.000  0.000  1.000  0.000  0.000
  0.000  0.000  0.000  1.000  0.000
  0.000  0.000  0.000  0.000  1.000
    occupations:
  0.700  0.000  0.000  0.000  0.000
  0.000  0.700  0.000  0.000  0.000
  0.000  0.000  0.700  0.000  0.000
  0.000  0.000  0.000  0.700  0.000
  0.000  0.000  0.000  0.000  0.700
atom   22   Tr[ns(na)] =   7.00000
    eigenvalues:
  0.700  0.700  0.700  0.700  0.700
    eigenvectors:
  1.000  0.000  0.000  0.000  0.000
  0.000  1.000  0.000  0.000  0.000
  0.000  0.000  1.000  0.000  0.000
  0.000  0.000  0.000  1.000  0.000
  0.000  0.000  0.000  0.000  1.000
    occupations:
  0.700  0.000  0.000  0.000  0.000
[...]
  0.000  0.000  0.966  0.034  0.000
  0.001  0.860  0.000  0.000  0.139
  0.000  0.000  0.034  0.966  0.000
    occupations:
  0.939  0.001 -0.000 -0.110 -0.000
  0.001  0.653  0.001  0.000 -0.000
 -0.000  0.001  0.868 -0.000 -0.007
 -0.110  0.000 -0.000  0.710  0.001
 -0.000 -0.000 -0.007  0.001  0.904
atom   10   Tr[ns(na)] =   8.12237
    eigenvalues:
  0.575  0.607  0.945  0.951  0.983
    eigenvectors:
  0.991  0.000  0.000  0.000  0.009
  0.000  0.000  1.000  0.000  0.000
  0.000  0.000  0.000  0.999  0.000
  0.009  0.000  0.000  0.000  0.991
  0.000  1.000  0.000  0.000  0.000
    occupations:
  0.579  0.000  0.001  0.038 -0.000
  0.000  0.945 -0.000  0.000 -0.000
  0.001 -0.000  0.951  0.000  0.000
  0.038  0.000  0.000  0.980 -0.000
 -0.000 -0.000  0.000 -0.000  0.607
atom   16   Tr[ns(na)] =   8.17004
    eigenvalues:
  0.603  0.630  0.901  0.968  0.982
    eigenvectors:
  0.001  0.184  0.003  0.001  0.811
  0.997  0.003  0.000  0.000  0.000
  0.000  0.000  0.989  0.008  0.003
  0.002  0.813  0.000  0.000  0.184
  0.000  0.000  0.008  0.991  0.001
    occupations:
  0.917  0.004  0.003 -0.136  0.001
  0.004  0.603  0.000 -0.000 -0.005
  0.003  0.000  0.902 -0.004 -0.006
 -0.136 -0.000 -0.004  0.695 -0.000
  0.001 -0.005 -0.006 -0.000  0.968
atom   17   Tr[ns(na)] =   8.15810
    eigenvalues:
  0.619  0.669  0.880  0.926  0.985
    eigenvectors:
  0.000  0.989  0.000  0.000  0.010
  0.000  0.000  0.084  0.916  0.000
  0.000  0.000  0.916  0.084  0.000
  0.000  0.010  0.000  0.000  0.990
  0.999  0.000  0.000  0.000  0.000
    occupations:
  0.672 -0.003 -0.001  0.032  0.001
 -0.003  0.922  0.013  0.000 -0.002
 -0.001  0.013  0.884 -0.000  0.000
  0.032  0.000 -0.000  0.981  0.000
  0.001 -0.002  0.000  0.000  0.619
atom   22   Tr[ns(na)] =   8.14902
    eigenvalues:
  0.653  0.666  0.867  0.906  0.983
    eigenvectors:
  0.000  0.139  0.000  0.000  0.861
  1.000  0.000  0.000  0.000  0.000
  0.000  0.000  0.969  0.031  0.000
  0.000  0.860  0.000  0.000  0.139
  0.000  0.000  0.031  0.969  0.000
    occupations:
  0.939 -0.000 -0.000 -0.110 -0.000
 -0.000  0.653  0.000  0.000 -0.000
 -0.000  0.000  0.868 -0.000  0.007
 -0.110  0.000 -0.000  0.710  0.000
 -0.000 -0.000  0.007  0.000  0.904
atom   23   Tr[ns(na)] =   8.12214
    eigenvalues:
  0.654  0.720  0.824  0.877  0.987
    eigenvectors:
  0.000  0.990  0.000  0.000  0.010
  0.000  0.000  0.000  1.000  0.000
  0.000  0.000  1.000  0.000  0.000
  0.000  0.010  0.000  0.000  0.990
  1.000  0.000  0.000  0.000  0.000
    occupations:
  0.722  0.000 -0.000  0.026 -0.000
  0.000  0.877  0.000  0.000 -0.000
 -0.000  0.000  0.824  0.000  0.000
  0.026  0.000  0.000  0.984  0.000
 -0.000 -0.000  0.000  0.000  0.654
N of occupied +U levels =  65.2000135
 --- exit write_ns ---

     Threshold (ethr) on eigenvalues was too large:
     Diagonalizing with lowered threshold

     Davidson diagonalization with overlap
     ethr =  7.37E-09,  avg # of iterations =  2.0

[...]

     total energy              =   -2104.39584894 Ry
     Harris-Foulkes estimate   =   -2104.39584895 Ry
     estimated scf accuracy    <       0.00000009 Ry

     iteration # 14     ecut=    40.00 Ry     beta=0.70
     Davidson diagonalization with overlap
     ethr =  1.64E-11,  avg # of iterations =  1.0

     negative rho (up, down):  0.313E+01 0.000E+00

     End of self-consistent calculation
 --- enter write_ns ---
 LDA+U parameters:
U( 2)     =  4.50000000
alpha( 2) =  0.00000000
atom    3   Tr[ns(na)] =   8.16964
    eigenvalues:
  0.603  0.630  0.901  0.968  0.982
    eigenvectors:
  0.001  0.184  0.003  0.000  0.812
  0.997  0.003  0.000  0.000  0.000
  0.000  0.000  0.986  0.011  0.003
  0.002  0.813  0.000  0.000  0.184
  0.000  0.000  0.011  0.988  0.001
    occupations:
  0.917 -0.004  0.003 -0.136 -0.001
 -0.004  0.603 -0.001  0.000 -0.005
  0.003 -0.001  0.902 -0.004  0.007
 -0.136  0.000 -0.004  0.695 -0.000
 -0.001 -0.005  0.007 -0.000  0.968
atom    4   Tr[ns(na)] =   8.15907
    eigenvalues:
  0.620  0.669  0.875  0.932  0.984
    eigenvectors:
  0.000  0.989  0.000  0.000  0.011
  0.000  0.000  0.046  0.953  0.000
  0.000  0.000  0.954  0.046  0.000
  0.000  0.011  0.000  0.000  0.989
  1.000  0.000  0.000  0.000  0.000
    occupations:
  0.672 -0.003 -0.001  0.033  0.001
 -0.003  0.929  0.012  0.000 -0.002
 -0.001  0.012  0.877 -0.000  0.000
  0.033  0.000 -0.000  0.981  0.000
  0.001 -0.002  0.000  0.000  0.620
atom    9   Tr[ns(na)] =   8.14938
    eigenvalues:
  0.653  0.666  0.867  0.906  0.983
    eigenvectors:
  0.000  0.139  0.000  0.000  0.861
  0.999  0.001  0.000  0.000  0.000
  0.000  0.000  0.966  0.034  0.000
  0.001  0.860  0.000  0.000  0.139
  0.000  0.000  0.034  0.966  0.000
    occupations:
  0.939  0.001 -0.000 -0.110 -0.000
  0.001  0.653  0.001  0.000 -0.000
 -0.000  0.001  0.868 -0.000 -0.007
 -0.110  0.000 -0.000  0.711  0.001
 -0.000 -0.000 -0.007  0.001  0.904
atom   10   Tr[ns(na)] =   8.12259
    eigenvalues:
  0.575  0.607  0.945  0.951  0.983
    eigenvectors:
  0.991  0.000  0.000  0.000  0.009
  0.000  0.000  0.999  0.001  0.000
  0.000  0.000  0.001  0.999  0.000
  0.009  0.000  0.000  0.000  0.991
  0.000  1.000  0.000  0.000  0.000
    occupations:
  0.579  0.000  0.001  0.038 -0.000
  0.000  0.945 -0.000  0.000 -0.000
  0.001 -0.000  0.951  0.000  0.000
  0.038  0.000  0.000  0.980 -0.000
 -0.000 -0.000  0.000 -0.000  0.607
atom   16   Tr[ns(na)] =   8.16958
    eigenvalues:
  0.603  0.630  0.901  0.968  0.982
    eigenvectors:
  0.001  0.184  0.003  0.001  0.811
  0.997  0.003  0.000  0.000  0.000
  0.000  0.000  0.989  0.008  0.003
  0.002  0.813  0.000  0.000  0.184
  0.000  0.000  0.008  0.991  0.001
    occupations:
  0.917  0.004  0.003 -0.136  0.001
  0.004  0.603  0.000 -0.000 -0.005
  0.003  0.000  0.902 -0.004 -0.006
 -0.136 -0.000 -0.004  0.695 -0.000
  0.001 -0.005 -0.006 -0.000  0.968
atom   17   Tr[ns(na)] =   8.15803
    eigenvalues:
  0.619  0.669  0.880  0.926  0.985
    eigenvectors:
  0.000  0.989  0.000  0.000  0.010
  0.000  0.000  0.083  0.916  0.000
  0.000  0.000  0.916  0.083  0.000
  0.000  0.010  0.000  0.000  0.990
  0.999  0.000  0.000  0.000  0.000
    occupations:
  0.672 -0.003 -0.001  0.032  0.001
 -0.003  0.922  0.013  0.000 -0.002
 -0.001  0.013  0.884 -0.000  0.000
  0.032  0.000 -0.000  0.981  0.000
  0.001 -0.002  0.000  0.000  0.619
atom   22   Tr[ns(na)] =   8.14933
    eigenvalues:
  0.653  0.666  0.867  0.906  0.983
    eigenvectors:
  0.000  0.139  0.000  0.000  0.861
  1.000  0.000  0.000  0.000  0.000
  0.000  0.000  0.969  0.031  0.000
  0.000  0.860  0.000  0.000  0.139
  0.000  0.000  0.031  0.969  0.000
    occupations:
  0.939 -0.000 -0.000 -0.110 -0.000
 -0.000  0.653  0.000  0.000 -0.000
 -0.000  0.000  0.868 -0.000  0.007
 -0.110  0.000 -0.000  0.711  0.000
 -0.000 -0.000  0.007  0.000  0.904
atom   23   Tr[ns(na)] =   8.12228
    eigenvalues:
  0.654  0.720  0.824  0.877  0.987
    eigenvectors:
  0.000  0.990  0.000  0.000  0.010
  0.000  0.000  0.000  1.000  0.000
  0.000  0.000  1.000  0.000  0.000
  0.000  0.010  0.000  0.000  0.990
  1.000  0.000  0.000  0.000  0.000
    occupations:
  0.722  0.000 -0.000  0.026 -0.000
  0.000  0.877  0.000  0.000 -0.000
 -0.000  0.000  0.824  0.000  0.000
  0.026  0.000  0.000  0.984  0.000
 -0.000 -0.000  0.000  0.000  0.654
N of occupied +U levels =  65.1998916
 --- exit write_ns ---

[...]

          k = 0.2500-0.4953 0.0000 ( 31088 PWs)   bands (ev):

[...]

          k =-0.2500 0.2476 0.0000 ( 31099 PWs)   bands (ev):

   -52.0304 -51.7289 -51.6108 -50.8416 -50.8367 -50.7855 -50.7349 -50.7202
   -50.7076 -50.7050 -50.6582 -50.6496 -50.6293 -50.5657 -50.5374 -50.4454
   -50.4407 -50.4356 -50.3668 -50.3568 -50.3458 -50.3189 -50.3077 -50.2692
   -21.6707 -21.4476 -21.3120 -21.2681 -20.9681 -20.8604 -20.8153 -20.6853
   -20.5635 -20.5473 -20.4689 -20.3786 -20.2392 -20.1634 -20.0651 -19.8783
   -19.2718 -19.1223 -18.9908 -10.6707 -10.5457 -10.2811 -10.0599  -9.7820
    -9.6935  -9.6288  -9.5217  -9.2899  -9.1474  -9.0828  -9.0489  -9.0019
    -8.7524  -8.6335  -8.5676  -8.3615  -8.3055  -8.0531  -7.9524  -7.7103
    -7.6594  -7.5643  -7.4619  -7.3957  -7.2618  -7.0846  -6.9504  -6.8870
    -6.7495  -6.6603  -6.5801  -6.4561  -6.4097  -6.3078  -6.2698  -6.1877
    -6.0292  -5.8947  -5.8182  -5.6716  -5.5665  -5.4667  -5.2571  -5.1702
    -5.0878  -4.9007  -4.7970  -4.6578  -4.5982  -4.4911  -4.3295  -4.0666
    -4.0110  -3.8759  -3.8082  -3.6844  -3.5894  -3.5582  -3.4428  -3.3355
    -3.2665  -3.1927  -3.1380  -3.1035  -2.9920  -2.8904  -2.8068  -2.7041
    -2.5842  -2.1649  -2.0529  -1.8958  -1.7865  -1.5659  -1.3615  -1.2523
    -1.2004  -1.0274  -0.9428  -0.7047  -0.1550   0.4846   0.7904   1.1555
     1.4257   1.5893   1.9185   2.1164   2.3991   2.5549   2.6073   2.7810
     2.9119   3.1246   3.1621   3.5907   3.7062   4.5602   4.8361   5.3131
     5.4159   5.5325   5.5743   6.1777   6.4410   6.5244   6.6697   6.7628
     6.8497   6.9489   7.1596   7.2997   7.3412   7.3972   7.5538   7.8200
     7.9097   7.9929   8.0645   8.1515   8.1596   8.3005   8.4211   8.4831
     8.5468   8.7660   8.8454   8.9267   9.0245   9.0655   9.1669   9.2045
     9.2074   9.2472   9.2486   9.2926   9.3166   9.4336   9.4358   9.4479
     9.5278   9.6231   9.6972   9.7680   9.8680   9.9626  10.0331  10.1591
    10.2186  10.3235  10.4087  10.4488  10.5007  10.5431  10.6686  10.8496
    10.9054  11.0260  11.0529  11.1109  11.1609  11.3178  11.4373  11.5543
    11.6143  11.6709  11.7708  11.8015  11.8473  12.0365  12.1372  12.1954
    12.2481  12.2859  12.3957  12.5092  12.5940  12.6410  12.6938  12.7282
    12.8116  12.8817  12.9349  13.0014  13.0779  13.1141  13.1843  13.2491
    13.3110  13.4321  13.4632  13.5754  13.6747  13.8529  13.9055  13.9189
    14.0309  14.0770  14.1910  14.2545  14.3049  14.4243  14.4477  14.5932
    14.6951  14.7824  14.8269  14.9446  15.0669  15.1351  15.2215  15.3482
    15.3978  15.4693  15.5678  15.5899  15.6695  15.7615  15.7996  15.8584
    15.9471  16.0135  16.0330  16.1241  16.1658  16.2231  16.3261  16.3541
    16.4034  16.4233  16.5177  16.5584  16.6223  16.7048  16.7405  16.7821
    16.8250  16.9785  17.1557  17.1805  17.2294  17.3165  17.3494  17.4620
    17.4971  17.5415  17.5759  17.6728  17.7373  17.7736  17.8642  17.9205
    17.9722  17.9992  18.0476  18.1818  18.2118  18.2590  18.3563  18.4956
    18.5453  18.5952  18.6317  18.7163  18.7895  18.8918  18.9774  19.0180
    19.0645  19.1256  19.1755  19.2617  19.2748  19.3464  19.3932  19.5500
    19.6142  19.6503  19.6812  19.7645  19.8852  19.9430  20.0044  20.0665
    20.1999  20.2736  20.3358  20.3944  20.4741  20.5365  20.6096  20.7012
    20.7378  20.7885  20.8453  20.8765  20.8907  20.9642  21.0674  21.1687
    21.2635  21.3097  21.3626  21.4102  21.4743  21.5370  21.5577  21.6726
    21.7602  21.8220  21.8600  21.8875  21.9373

     the Fermi energy is    -1.3892 ev

!    total energy              =   -2104.39584894 Ry
     Harris-Foulkes estimate   =   -2104.39584895 Ry
     estimated scf accuracy    <          8.6E-09 Ry

     The total energy is the sum of the following terms:

     one-electron contribution =  -22733.72010315 Ry
     hartree contribution      =   11409.29930099 Ry
     xc contribution           =    -576.35978674 Ry
     ewald contribution        =    9794.68569339 Ry
     Hubbard energy            =       1.69914156 Ry
     smearing contrib. (-TS)   =      -0.00009499 Ry

     convergence has been achieved in  14 iterations

     Forces acting on atoms (Ry/au):

     negative rho (up, down):  0.313E+01 0.000E+00
     atom    1 type  1   force =    -0.00748815   -0.01275759   -0.00037264
     atom    2 type  1   force =    -0.00000119    0.00292516    0.00030022
     atom    3 type  2   force =     0.03446759    0.00805874   -0.00056870
     atom    4 type  2   force =     0.00944361    0.00822416    0.00001155
     atom    5 type  1   force =    -0.00387877   -0.01556132    0.00008825
     atom    6 type  1   force =     0.00700701    0.01328988    0.00024104
     atom    7 type  1   force =    -0.00037523   -0.00223068   -0.00046099
     atom    8 type  1   force =    -0.00352450   -0.00074885    0.00008524
     atom    9 type  2   force =     0.00657151    0.00063965   -0.00016113
     atom   10 type  2   force =    -0.00000112   -0.00092963   -0.00090324
     atom   11 type  1   force =     0.00922945    0.00842013   -0.00009845
     atom   12 type  1   force =     0.00865032   -0.00897922   -0.00012331
     atom   13 type  1   force =    -0.00088242   -0.00002599    0.00036374
     atom   14 type  1   force =    -0.00798075   -0.01340457   -0.00037531
     atom   15 type  1   force =     0.00009293    0.00338328   -0.00028864
     atom   16 type  2   force =    -0.03449292    0.00680292   -0.00059670
     atom   17 type  2   force =     0.00938841    0.00842838   -0.00023321
     atom   18 type  1   force =    -0.00513534   -0.01486695    0.00010754
     atom   19 type  1   force =     0.00482997    0.01402627    0.00022983
     atom   20 type  1   force =    -0.00023297   -0.00528527    0.00077677
     atom   21 type  1   force =    -0.00331308   -0.00049528   -0.00016158
     atom   22 type  2   force =    -0.00408401    0.00051429   -0.00014840
     atom   23 type  2   force =    -0.00006762    0.00039847    0.00031725
     atom   24 type  1   force =    -0.00916443    0.00842764   -0.00010698
     atom   25 type  1   force =    -0.00847476   -0.00896536   -0.00012415
     atom   26 type  1   force =    -0.00079220   -0.00013381   -0.00015037
     atom   27 type  3   force =    -0.00000109   -0.00006608    0.00081062
     atom   28 type  3   force =     0.00001921    0.00028344    0.00079332
     atom   29 type  3   force =     0.00017715    0.00015585    0.00011530
     atom   30 type  3   force =     0.00002106    0.00051427    0.00015641
     atom   31 type  1   force =    -0.00000767   -0.00004192    0.00047674

     Total force =     0.002301     Total SCF correction =     0.000360
     SCF correction compared to forces is large: reduce conv_thr to get better values

     bfgs converged in   8 scf cycles and   7 bfgs steps
     (criteria: energy < 0.10E-03, force < 0.10E-02)

     End of BFGS Geometry Optimization

     Final energy   =   -2104.3958489394 Ry
Begin final coordinates

ATOMIC_POSITIONS (crystal)
O0       0.000000000   0.000000000   0.378413712    0   0   1
O0       0.000000000   0.500000000   0.403654659    0   0   1
Ir1      0.250000000   0.500000000   0.453504202    0   0   1
Ir1      0.000000000   0.000000000   0.452878015    0   0   1
O0       0.250000000   0.810000000   0.453078917    0   0   1
O0       0.250000000   0.190000000   0.452617317    0   0   1
O0       0.000000000   0.500000000   0.499458882    0   0   1
O0       0.000000000   0.000000000   0.528121457    0   0   1
Ir1      0.250000000   0.000000000   0.574827235    0   0   1
Ir1      0.000000000   0.500000000   0.572116542    0   0   1
O0       0.250000000   0.690000000   0.574361516    0   0   1
O0       0.250000000   0.310000000   0.574383558    0   0   1
O0       0.000000000   0.000000000   0.619201255    0   0   1
O0       0.500000000   0.000000000   0.378300507    0   0   1
O0       0.500000000   0.500000000   0.403102527    0   0   1
Ir1      0.750000000   0.500000000   0.453509788    0   0   1
Ir1      0.500000000   0.000000000   0.452851054    0   0   1
O0       0.750000000   0.810000000   0.453097101    0   0   1
O0       0.750000000   0.190000000   0.452622818    0   0   1
O0       0.500000000   0.500000000   0.501414366    0   0   1
O0       0.500000000   0.000000000   0.528159291    0   0   1
Ir1      0.750000000   0.000000000   0.574831831    0   0   1
Ir1      0.500000000   0.500000000   0.577870963    0   0   1
O0       0.750000000   0.690000000   0.574361866    0   0   1
O0       0.750000000   0.310000000   0.574386669    0   0   1
O0       0.500000000   0.000000000   0.619238933    0   0   1
H2      -0.000173017   0.632833899   0.384519975
H2       0.499880415   0.635545825   0.385122940
H2       0.143331046   0.034219448   0.366702840
H2       0.642803115   0.035898194   0.366562905
O0       0.500006837   0.499419680   0.644786361
End final coordinates

     General routines

     Parallel routines
     Hubbard U routines

   This run was terminated on:  12: 6:26  29Apr2014

   JOB DONE.
Running PBS batch system epilogue script
Job id: 340408.audhumbla.fysik.dtu.dk
Username: zhonxu
Groupname: campgst
Jobname: IrO2/Eads-2-layers/O-U-4.5
Sessionid: 19217
Queuename: verylong
Accounting:
This job has allocated the following 16 nodes:
b024 b024 b024 b024 b024 b024 b024 b024 b011 b011 b011 b011 b011 b011 b011 b011
Finished epilogue job 340408.audhumbla.fysik.dtu.dk for zhonxu