     Program PWSCF v.5.0.2 (svn rev. 9656) starts on 28Apr2014 at  5:13:49

     Current dimensions of program PWSCF are:
     Max number of different atomic species (ntypx) = 10
     Max number of k-points (npk) =  40000
     Max angular momentum in pseudopotentials (lmaxx) =  3
     Reading input from pwscf.in
Warning: card &CELL ignored
Warning: card / ignored

     Subspace diagonalization in iterative solution of the eigenvalue problem:
     a serial algorithm will be used

     bravais-lattice index     =            0
     lattice parameter (alat)  =      12.2076  a.u.
     unit-cell volume          =    7496.5096 (a.u.)^3
     number of atoms/cell      =           32
     number of atomic types    =            3
     number of electrons       =       247.00
     number of Kohn-Sham states=          370
     kinetic-energy cutoff     =      40.0000  Ry
     charge density cutoff     =     500.0000  Ry
     convergence threshold     =      1.0E-06
     mixing beta               =       0.7000
     number of iterations used =            8  plain     mixing
     Exchange-correlation      = SLA  PW   PBE  PBE ( 1 4 3 4 0)
     EXX-fraction              =        0.00
     nstep                     =           50

     celldm(1)=  12.207631  celldm(2)=   0.000000  celldm(3)=   0.000000
     celldm(4)=   0.000000  celldm(5)=   0.000000  celldm(6)=   0.000000

     crystal axes: (cart. coord. in units of alat)
               a(1) = (   1.000000   0.000000   0.000000 )
               a(2) = (   0.000000   1.004836   0.000000 )
               a(3) = (   0.000000   0.000000   4.100811 )

     reciprocal axes: (cart. coord. in units 2 pi/alat)
               b(1) = (  1.000000  0.000000  0.000000 )
               b(2) = (  0.000000  0.995187  0.000000 )
               b(3) = (  0.000000  0.000000  0.243854 )

     PseudoPot. # 1 for O  read from file:
     /home/camp/zhonxu/pseudo/o_pbe_v1.01.uspp.F.UPF
     MD5 check sum: 2bcb18d16ea4b960afae9ec6d52f22d2
     Pseudo is Ultrasoft + core correction, Zval =  6.0
     Generated by new atomic code, or converted to UPF format
     Using radial grid of  737 points,  5 beta functions with:
                l(1) =   0
                l(2) =   0
                l(3) =   1
                l(4) =   1
                l(5) =   2
     Q(r) pseudized with  8 coefficients,  rinner =    0.900   0.900   0.900
                                                       0.900   0.900

     PseudoPot. # 2 for Pt read from file:
     /home/camp/zhonxu/pseudo/pt_pbe_v1.uspp.F.UPF
     MD5 check sum: 4c71d6ad5ef119f1eb26a4d0b7884226
     Pseudo is Ultrasoft + core correction, Zval = 16.0
     Generated by new atomic code, or converted to UPF format
     Using radial grid of  985 points,  6 beta functions with:
                l(1) =   0
                l(2) =   0
                l(3) =   1
                l(4) =   1
                l(5) =   2
                l(6) =   2
     Q(r) pseudized with  8 coefficients,  rinner =    1.300   1.300   1.300
                                                       1.300   1.300

     PseudoPot. # 3 for H  read from file:
     /home/camp/zhonxu/pseudo/h_pbe_v1.uspp.F.UPF
     MD5 check sum: 3408e3ff4ec8b0a4e358431e7e038a48
     Pseudo is Ultrasoft, Zval =  1.0
     Generated by new atomic code, or converted to UPF format
     Using radial grid of  615 points,  2 beta functions with:
                l(1) =   0
                l(2) =   0
     Q(r) pseudized with  8 coefficients,  rinner =    0.700

     atomic species   valence    mass     pseudopotential
        O0             6.00    15.99940     O ( 1.00)
        Pt1           16.00   195.08000     Pt( 1.00)
        H2             1.00     1.00794     H ( 1.00)

     Simplified LDA+U calculation (l_max = 2) with parameters (eV):
     atomic species    L          U    alpha       J0     beta
        Pt1            2     5.0000   0.0000   0.0000   0.0000

     No symmetry found

   Cartesian axes

     site n.     atom                  positions (alat units)
         1           O0  tau(   1) = (   0.0000000   0.0000000   1.5486303  )
         2           O0  tau(   2) = (   0.0000000   0.5024180   1.6456145  )
         3           Pt1 tau(   3) = (   0.2500000   0.5024180   1.8492198  )
         4           Pt1 tau(   4) = (   0.0000000   0.0000000   1.8561502  )
         5           O0  tau(   5) = (   0.2500000   0.8139171   1.8185047  )
         6           O0  tau(   6) = (   0.2500000   0.1909188   1.8850199  )
         7           O0  tau(   7) = (   0.0000000   0.5024180   2.0364218  )
         8           O0  tau(   8) = (   0.0000000   0.0000000   2.1712565  )
         9           Pt1 tau(   9) = (   0.2500000   0.0000000   2.3611651  )
        10           Pt1 tau(  10) = (   0.0000000   0.5024180   2.3568182  )
        11           O0  tau(  11) = (   0.2500000   0.6933368   2.3352889  )
        12           O0  tau(  12) = (   0.2500000   0.3114991   2.3978263  )
        13           O0  tau(  13) = (   0.0000000   0.0000000   2.5469728  )
        14           O0  tau(  14) = (   0.5000000   0.0000000   1.5487944  )
        15           O0  tau(  15) = (   0.5000000   0.5024180   1.6432360  )
        16           Pt1 tau(  16) = (   0.7500000   0.5024180   1.8492608  )
        17           Pt1 tau(  17) = (   0.5000000   0.0000000   1.8561092  )
        18           O0  tau(  18) = (   0.7500000   0.8139171   1.8183407  )
        19           O0  tau(  19) = (   0.7500000   0.1909188   1.8850199  )
        20           O0  tau(  20) = (   0.5000000   0.5024180   2.0398255  )
        21           O0  tau(  21) = (   0.5000000   0.0000000   2.1711335  )
        22           Pt1 tau(  22) = (   0.7500000   0.0000000   2.3611651  )
        23           Pt1 tau(  23) = (   0.5000000   0.5024180   2.3633795  )
        24           O0  tau(  24) = (   0.7500000   0.6933368   2.3343868  )
        25           O0  tau(  25) = (   0.7500000   0.3114991   2.3965141  )
        26           O0  tau(  26) = (   0.5000000   0.0000000   2.5473419  )
        27           H2  tau(  27) = (   0.0000800   0.6431151   1.5815188  )
        28           H2  tau(  28) = (   0.4999900   0.6432457   1.5795915  )
        29           H2  tau(  29) = (   0.1433600   0.0342348   1.5075812  )
        30           H2  tau(  30) = (   0.6432100   0.0348377   1.5077042  )
        31           O0  tau(  31) = (   0.5002800   0.5276996   2.6647891  )
        32           H2  tau(  32) = (   0.4897800   0.3840985   2.7162543  )

     number of k points=    10  Methfessel-Paxton smearing, width (Ry)=  0.0100
                       cart. coord. in units 2pi/alat
        k(    1) = (   0.0000000   0.0000000   0.0000000), wk =   0.1250000
        k(    2) = (   0.0000000   0.2487968   0.0000000), wk =   0.2500000
        k(    3) = (   0.0000000  -0.4975937   0.0000000), wk =   0.1250000
        k(    4) = (   0.2500000   0.0000000   0.0000000), wk =   0.2500000
        k(    5) = (   0.2500000   0.2487968   0.0000000), wk =   0.2500000
        k(    6) = (   0.2500000  -0.4975937   0.0000000), wk =   0.2500000
        k(    7) = (  -0.5000000   0.0000000   0.0000000), wk =   0.1250000
        k(    8) = (  -0.5000000   0.2487968   0.0000000), wk =   0.2500000
        k(    9) = (  -0.5000000  -0.4975937   0.0000000), wk =   0.1250000
        k(   10) = (  -0.2500000   0.2487968   0.0000000), wk =   0.2500000

     Largest allocated arrays     est. size (Mb)     dimensions
     Largest temporary arrays     est. size (Mb)     dimensions

     Check: negative/imaginary core charge=   -0.000003    0.000000

     Initial potential from superposition of free atoms
     Check: negative starting charge=   -1.535574

     starting charge  242.99984, renormalised to  247.00000

     negative rho (up, down):  0.156E+01 0.000E+00
     Number of +U iterations with fixed ns =  0
     Starting occupations:
 --- enter write_ns ---
 LDA+U parameters:
U( 2)     =  5.00000000
alpha( 2) =  0.00000000
atom    3   Tr[ns(na)] =   8.00000
    eigenvalues:
  0.800  0.800  0.800  0.800  0.800
    eigenvectors:
  1.000  0.000  0.000  0.000  0.000
  0.000  1.000  0.000  0.000  0.000
  0.000  0.000  1.000  0.000  0.000
  0.000  0.000  0.000  1.000  0.000
  0.000  0.000  0.000  0.000  1.000
    occupations:
  0.800  0.000  0.000  0.000  0.000
  0.000  0.800  0.000  0.000  0.000
  0.000  0.000  0.800  0.000  0.000
  0.000  0.000  0.000  0.800  0.000
  0.000  0.000  0.000  0.000  0.800
atom    4   Tr[ns(na)] =   8.00000
    eigenvalues:
  0.800  0.800  0.800  0.800  0.800
    eigenvectors:
  1.000  0.000  0.000  0.000  0.000
  0.000  1.000  0.000  0.000  0.000
  0.000  0.000  1.000  0.000  0.000
  0.000  0.000  0.000  1.000  0.000
  0.000  0.000  0.000  0.000  1.000
    occupations:
  0.800  0.000  0.000  0.000  0.000
  0.000  0.800  0.000  0.000  0.000
  0.000  0.000  0.800  0.000  0.000
  0.000  0.000  0.000  0.800  0.000
  0.000  0.000  0.000  0.000  0.800
atom    9   Tr[ns(na)] =   8.00000
    eigenvalues:
  0.800  0.800  0.800  0.800  0.800
    eigenvectors:
  1.000  0.000  0.000  0.000  0.000
  0.000  1.000  0.000  0.000  0.000
  0.000  0.000  1.000  0.000  0.000
  0.000  0.000  0.000  1.000  0.000
  0.000  0.000  0.000  0.000  1.000
    occupations:
  0.800  0.000  0.000  0.000  0.000
  0.000  0.800  0.000  0.000  0.000
  0.000  0.000  0.800  0.000  0.000
  0.000  0.000  0.000  0.800  0.000
  0.000  0.000  0.000  0.000  0.800
atom   10   Tr[ns(na)] =   8.00000
    eigenvalues:
  0.800  0.800  0.800  0.800  0.800
    eigenvectors:
  1.000  0.000  0.000  0.000  0.000
  0.000  1.000  0.000  0.000  0.000
  0.000  0.000  1.000  0.000  0.000
  0.000  0.000  0.000  1.000  0.000
  0.000  0.000  0.000  0.000  1.000
    occupations:
  0.800  0.000  0.000  0.000  0.000
  0.000  0.800  0.000  0.000  0.000
  0.000  0.000  0.800  0.000  0.000
  0.000  0.000  0.000  0.800  0.000
  0.000  0.000  0.000  0.000  0.800
atom   16   Tr[ns(na)] =   8.00000
    eigenvalues:
  0.800  0.800  0.800  0.800  0.800
    eigenvectors:
  1.000  0.000  0.000  0.000  0.000
  0.000  1.000  0.000  0.000  0.000
  0.000  0.000  1.000  0.000  0.000
  0.000  0.000  0.000  1.000  0.000
  0.000  0.000  0.000  0.000  1.000
    occupations:
  0.800  0.000  0.000  0.000  0.000
  0.000  0.800  0.000  0.000  0.000
  0.000  0.000  0.800  0.000  0.000
  0.000  0.000  0.000  0.800  0.000
  0.000  0.000  0.000  0.000  0.800
atom   17   Tr[ns(na)] =   8.00000
    eigenvalues:
  0.800  0.800  0.800  0.800  0.800
    eigenvectors:
  1.000  0.000  0.000  0.000  0.000
  0.000  1.000  0.000  0.000  0.000
  0.000  0.000  1.000  0.000  0.000
  0.000  0.000  0.000  1.000  0.000
  0.000  0.000  0.000  0.000  1.000
    occupations:
  0.800  0.000  0.000  0.000  0.000
  0.000  0.800  0.000  0.000  0.000
  0.000  0.000  0.800  0.000  0.000
  0.000  0.000  0.000  0.800  0.000
  0.000  0.000  0.000  0.000  0.800
atom   22   Tr[ns(na)] =   8.00000
    eigenvalues:
  0.800  0.800  0.800  0.800  0.800
    eigenvectors:
  1.000  0.000  0.000  0.000  0.000
  0.000  1.000  0.000  0.000  0.000
  0.000  0.000  1.000  0.000  0.000
  0.000  0.000  0.000  1.000  0.000
  0.000  0.000  0.000  0.000  1.000
[...]
 -0.088  0.000 -0.022  0.766  0.001
  0.000 -0.003  0.001  0.001  0.961
atom   10   Tr[ns(na)] =   8.78432
    eigenvalues:
  0.674  0.757  0.985  0.986  0.990
    eigenvectors:
  0.000  0.981  0.000  0.011  0.007
  0.011  0.000  0.987  0.002  0.000
  0.000  0.000  0.001  0.258  0.741
  0.000  0.018  0.001  0.729  0.252
  0.989  0.000  0.011  0.000  0.000
    occupations:
  0.761 -0.001 -0.005  0.031 -0.000
 -0.001  0.982 -0.000  0.000 -0.033
 -0.005 -0.000  0.989 -0.001  0.000
  0.031  0.000 -0.001  0.983  0.000
 -0.000 -0.033  0.000  0.000  0.677
atom   16   Tr[ns(na)] =   8.74841
    eigenvalues:
  0.697  0.711  0.987  0.989  0.991
    eigenvectors:
  0.006  0.164  0.825  0.000  0.005
  0.962  0.038  0.000  0.000  0.000
  0.000  0.005  0.012  0.001  0.982
  0.032  0.794  0.163  0.000  0.012
  0.000  0.000  0.000  0.999  0.001
    occupations:
  0.940 -0.000  0.008 -0.103 -0.000
 -0.000  0.697 -0.001 -0.003 -0.002
  0.008 -0.001  0.990  0.018 -0.000
 -0.103 -0.003  0.018  0.759 -0.000
 -0.000 -0.002 -0.000 -0.000  0.989
atom   17   Tr[ns(na)] =   8.74321
    eigenvalues:
  0.695  0.718  0.984  0.987  0.988
    eigenvectors:
  0.000  0.985  0.008  0.003  0.003
  0.011  0.000  0.063  0.879  0.047
  0.000  0.005  0.845  0.027  0.123
  0.000  0.009  0.084  0.081  0.826
  0.988  0.000  0.001  0.010  0.001
    occupations:
  0.722 -0.004 -0.019  0.026 -0.001
 -0.004  0.983  0.000  0.000  0.031
 -0.019  0.000  0.983  0.003  0.000
  0.026  0.000  0.003  0.985  0.000
 -0.001  0.031  0.000  0.000  0.699
atom   22   Tr[ns(na)] =   8.73121
    eigenvalues:
  0.719  0.729  0.961  0.969  0.988
    eigenvectors:
  0.001  0.135  0.000  0.013  0.852
  0.996  0.004  0.000  0.000  0.000
  0.000  0.009  0.010  0.974  0.007
  0.003  0.852  0.000  0.003  0.142
  0.000  0.000  0.990  0.010  0.000
    occupations:
  0.952  0.001 -0.007 -0.088 -0.000
  0.001  0.719  0.000  0.000 -0.003
 -0.007  0.000  0.967 -0.022 -0.001
 -0.088  0.000 -0.022  0.766 -0.001
 -0.000 -0.003 -0.001 -0.001  0.961
atom   23   Tr[ns(na)] =   8.73189
    eigenvalues:
  0.694  0.722  0.975  0.986  0.988
    eigenvectors:
  0.000  0.974  0.000  0.000  0.026
  0.016  0.000  0.982  0.001  0.001
  0.000  0.018  0.002  0.387  0.593
  0.000  0.009  0.000  0.611  0.380
  0.984  0.000  0.016  0.000  0.000
    occupations:
  0.729 -0.001  0.035  0.024  0.000
 -0.001  0.971  0.001 -0.000 -0.035
  0.035  0.001  0.983 -0.002  0.000
  0.024 -0.000 -0.002  0.985 -0.000
  0.000 -0.035  0.000 -0.000  0.699
N of occupied +U levels =  69.9640552
 --- exit write_ns ---

     Threshold (ethr) on eigenvalues was too large:
     Diagonalizing with lowered threshold

     Davidson diagonalization with overlap
     ethr =  1.53E-08,  avg # of iterations =  1.9

[...]

     total energy              =   -2280.79089964 Ry
     Harris-Foulkes estimate   =   -2280.79089965 Ry
     estimated scf accuracy    <       0.00000006 Ry

     iteration # 12     ecut=    40.00 Ry     beta=0.70
     Davidson diagonalization with overlap
     ethr =  2.63E-11,  avg # of iterations =  1.0

     negative rho (up, down):  0.158E+01 0.000E+00

     End of self-consistent calculation
 --- enter write_ns ---
 LDA+U parameters:
U( 2)     =  5.00000000
alpha( 2) =  0.00000000
atom    3   Tr[ns(na)] =   8.74843
    eigenvalues:
  0.696  0.711  0.987  0.989  0.991
    eigenvectors:
  0.006  0.163  0.821  0.003  0.006
  0.961  0.039  0.000  0.000  0.000
  0.000  0.005  0.014  0.000  0.981
  0.032  0.793  0.161  0.001  0.013
  0.000  0.000  0.004  0.996  0.000
    occupations:
  0.940  0.001  0.008 -0.103  0.000
  0.001  0.697  0.001  0.003 -0.002
  0.008  0.001  0.990  0.018  0.000
 -0.103  0.003  0.018  0.759  0.001
  0.000 -0.002  0.000  0.001  0.989
atom    4   Tr[ns(na)] =   8.74578
    eigenvalues:
  0.696  0.718  0.985  0.987  0.988
    eigenvectors:
  0.000  0.985  0.009  0.003  0.003
  0.011  0.000  0.067  0.853  0.068
  0.000  0.005  0.814  0.019  0.162
  0.000  0.009  0.110  0.115  0.766
  0.989  0.000  0.001  0.010  0.001
    occupations:
  0.722 -0.005 -0.019  0.026 -0.001
 -0.005  0.983  0.000  0.000  0.031
 -0.019  0.000  0.984  0.003  0.000
  0.026  0.000  0.003  0.985  0.000
 -0.001  0.031  0.000  0.000  0.699
atom    9   Tr[ns(na)] =   8.73122
    eigenvalues:
  0.718  0.729  0.961  0.970  0.987
    eigenvectors:
  0.000  0.136  0.000  0.013  0.852
  0.999  0.000  0.000  0.000  0.000
  0.000  0.010  0.006  0.978  0.007
  0.000  0.854  0.000  0.004  0.142
  0.000  0.000  0.994  0.006  0.000
    occupations:
  0.952  0.000 -0.007 -0.088  0.000
  0.000  0.718 -0.000  0.000 -0.003
 -0.007 -0.000  0.968 -0.022  0.001
 -0.088  0.000 -0.022  0.766  0.001
  0.000 -0.003  0.001  0.001  0.961
atom   10   Tr[ns(na)] =   8.78282
    eigenvalues:
  0.674  0.756  0.985  0.986  0.990
    eigenvectors:
  0.000  0.981  0.000  0.011  0.007
  0.011  0.000  0.987  0.002  0.000
  0.000  0.000  0.001  0.258  0.741
  0.000  0.018  0.001  0.729  0.252
  0.989  0.000  0.011  0.000  0.000
    occupations:
  0.761 -0.001 -0.005  0.031 -0.000
 -0.001  0.982 -0.000  0.000 -0.033
 -0.005 -0.000  0.989 -0.001  0.000
  0.031  0.000 -0.001  0.983  0.000
 -0.000 -0.033  0.000  0.000  0.677
atom   16   Tr[ns(na)] =   8.74866
    eigenvalues:
  0.697  0.711  0.987  0.989  0.991
    eigenvectors:
  0.006  0.164  0.825  0.000  0.005
  0.963  0.037  0.000  0.000  0.000
  0.000  0.005  0.012  0.000  0.982
  0.031  0.794  0.163  0.000  0.012
  0.000  0.000  0.000  0.999  0.001
    occupations:
  0.940 -0.000  0.008 -0.103 -0.000
 -0.000  0.697 -0.001 -0.003 -0.002
  0.008 -0.001  0.990  0.018 -0.000
 -0.103 -0.003  0.018  0.759 -0.000
 -0.000 -0.002 -0.000 -0.000  0.989
atom   17   Tr[ns(na)] =   8.74367
    eigenvalues:
  0.695  0.718  0.984  0.987  0.988
    eigenvectors:
  0.000  0.985  0.008  0.003  0.004
  0.011  0.000  0.063  0.880  0.046
  0.000  0.005  0.845  0.027  0.123
  0.000  0.009  0.084  0.080  0.827
  0.988  0.000  0.001  0.010  0.001
    occupations:
  0.722 -0.004 -0.019  0.026 -0.001
 -0.004  0.983  0.000  0.000  0.031
 -0.019  0.000  0.983  0.003  0.000
  0.026  0.000  0.003  0.985  0.000
 -0.001  0.031  0.000  0.000  0.699
atom   22   Tr[ns(na)] =   8.73095
    eigenvalues:
  0.718  0.729  0.961  0.970  0.988
    eigenvectors:
  0.001  0.135  0.000  0.013  0.852
  0.996  0.004  0.000  0.000  0.000
  0.000  0.009  0.010  0.974  0.007
  0.003  0.852  0.000  0.003  0.142
  0.000  0.000  0.990  0.010  0.000
    occupations:
  0.952  0.001 -0.007 -0.088 -0.000
  0.001  0.719  0.000  0.000 -0.003
 -0.007  0.000  0.967 -0.022 -0.001
 -0.088  0.000 -0.022  0.766 -0.001
 -0.000 -0.003 -0.001 -0.001  0.961
atom   23   Tr[ns(na)] =   8.73148
    eigenvalues:
  0.694  0.722  0.975  0.986  0.988
    eigenvectors:
  0.000  0.974  0.000  0.000  0.026
  0.016  0.000  0.982  0.001  0.001
  0.000  0.018  0.002  0.387  0.593
  0.000  0.009  0.000  0.611  0.380
  0.984  0.000  0.016  0.000  0.000
    occupations:
  0.729 -0.001  0.035  0.024  0.000
 -0.001  0.971  0.001 -0.000 -0.036
  0.035  0.001  0.983 -0.002  0.000
  0.024 -0.000 -0.002  0.985 -0.000
  0.000 -0.036  0.000 -0.000  0.699
N of occupied +U levels =  69.9630127
 --- exit write_ns ---

[...]

          k = 0.2500-0.4976 0.0000 ( 32026 PWs)   bands (ev):

[...]

          k =-0.2500 0.2488 0.0000 ( 32025 PWs)   bands (ev):

   -55.2924 -55.2530 -55.2153 -55.1743 -55.1287 -55.0968 -55.0925 -55.0888
   -55.0552 -55.0493 -55.0032 -54.9326 -54.9273 -54.9149 -54.9076 -54.8010
   -54.8006 -54.7952 -54.7807 -54.7737 -54.6791 -54.5743 -54.3496 -54.0677
   -22.0620 -21.8623 -21.1634 -21.0013 -20.7516 -20.6842 -20.5952 -20.5517
   -20.4487 -20.2875 -20.2553 -20.1704 -20.0805 -19.9887 -19.9216 -19.9053
   -19.7416 -19.2320 -19.0112 -10.8865 -10.6914 -10.5634 -10.4669 -10.0608
   -10.0494  -9.9308  -9.6425  -9.5734  -9.5297  -9.4065  -9.3549  -9.1911
    -9.1181  -9.0691  -8.9450  -8.8561  -8.7151  -8.5641  -8.3572  -8.1791
    -8.1359  -8.0462  -7.9367  -7.8072  -7.7141  -7.6521  -7.5405  -7.3958
    -7.3239  -7.2666  -7.1551  -7.0927  -7.0120  -6.9217  -6.8794  -6.8332
    -6.7462  -6.6602  -6.5620  -6.4578  -6.2787  -6.1213  -5.8860  -5.7699
    -5.5545  -5.4868  -5.4380  -5.3110  -5.2398  -5.1912  -5.0155  -4.9362
    -4.7565  -4.7128  -4.5236  -4.3498  -4.3241  -4.2273  -4.0160  -3.9514
    -3.8674  -3.7727  -3.7514  -3.6202  -3.5500  -3.4309  -3.3912  -3.1201
    -3.0982  -2.8319  -2.6874  -2.5967  -2.4585  -2.4321  -2.3908  -2.3295
    -2.2483  -2.0553  -1.8720  -1.7818  -1.6649  -1.0609  -0.8021  -0.6133
    -0.2554  -0.1188   0.2890   0.5352   0.7680   0.8509   1.0010   1.0762
     1.3150   1.4499   1.5162   1.8627   3.2593   3.9466   4.6255   5.0476
     5.1111   5.2120   5.2815   5.5498   6.0251   6.1971   6.2900   6.3335
     6.4711   6.5991   6.6789   6.7809   6.8710   6.9486   7.1422   7.2300
     7.3969   7.5150   7.5440   7.6934   7.7502   7.8556   7.9610   8.0597
     8.2362   8.3292   8.3699   8.4643   8.5264   8.6194   8.6878   8.7930
     8.9325   8.9857   9.0609   9.1947   9.3470   9.4346   9.6001   9.6471
     9.7583   9.8174   9.9242  10.0781  10.1294  10.1917  10.2448  10.3749
    10.5166  10.5556  10.6138  10.7087  10.7465  10.9546  11.0081  11.0966
    11.1886  11.2094  11.3715  11.4338  11.4981  11.6492  11.7476  11.7961
    11.8708  11.9319  12.0203  12.0364  12.1025  12.2336  12.2993  12.3574
    12.3998  12.4653  12.5282  12.5833  12.6595  12.7318  12.7952  12.9459
    12.9989  13.0378  13.1200  13.2191  13.2661  13.4776  13.5492  13.5848
    13.6253  13.6788  13.7381  13.8362  13.9476  13.9971  14.0727  14.0943
    14.1960  14.3039  14.3687  14.5117  14.5710  14.6547  14.7362  14.8537
    14.9079  15.0070  15.0836  15.1926  15.2554  15.3010  15.3253  15.4082
    15.4608  15.5122  15.5852  15.6270  15.7045  15.7359  15.7782  15.8550
    15.8897  15.9894  16.0137  16.0605  16.1276  16.2422  16.3244  16.3925
    16.4783  16.5260  16.6390  16.7287  16.7917  16.8246  16.9184  16.9574
    17.0115  17.0687  17.1197  17.1405  17.1519  17.1635  17.1846  17.2057
    17.2469  17.2947  17.3075  17.3219  17.3489  17.3743  17.4114  17.4911
    17.5274  17.5566  17.6269  17.6535  17.7693  17.9073  17.9449  17.9760
    18.0185  18.0587  18.1466  18.1859  18.2565  18.3520  18.4753  18.5118
    18.5875  18.6102  18.6349  18.7287  18.8007  18.8676  18.9043  18.9781
    19.0243  19.1366  19.1839  19.2487  19.3010  19.3654  19.4547  19.5542
    19.6555  19.6939  19.8232  19.8805  19.9463  20.0002  20.0491  20.0819
    20.1323  20.1665  20.2729  20.3508  20.3627  20.4210  20.5229  20.5667
    20.6621  20.6979  20.7376  20.8133  20.9099  20.9597  20.9901  21.0294
    21.0918  21.2159  21.2627  21.3051  21.3400  21.3652  21.4652  21.5078
    21.5806  21.6307  21.7070  21.7584  21.8023  21.9064  21.9987  22.0785
    22.1482  22.1900

     the Fermi energy is    -1.7737 ev

!    total energy              =   -2280.79089964 Ry
     Harris-Foulkes estimate   =   -2280.79089964 Ry
     estimated scf accuracy    <          8.6E-09 Ry

     The total energy is the sum of the following terms:

     one-electron contribution =  -23733.23218379 Ry
     hartree contribution      =   11911.07121864 Ry
     xc contribution           =    -573.05717338 Ry
     ewald contribution        =   10113.07774288 Ry
     Hubbard energy            =       1.34934619 Ry
     smearing contrib. (-TS)   =       0.00014982 Ry

     convergence has been achieved in  12 iterations

     Forces acting on atoms (Ry/au):

     negative rho (up, down):  0.158E+01 0.000E+00
     atom    1 type  1   force =    -0.00840321   -0.00379674    0.00014188
     atom    2 type  1   force =     0.00038307    0.00263111   -0.00094579
     atom    3 type  2   force =     0.01463970    0.00788987   -0.00018565
     atom    4 type  2   force =     0.01068270    0.00420982   -0.00020879
     atom    5 type  1   force =     0.00138480   -0.00329317   -0.00063215
     atom    6 type  1   force =    -0.00000620   -0.00316250   -0.00019177
     atom    7 type  1   force =     0.00024969   -0.00077684   -0.00035169
     atom    8 type  1   force =    -0.00424575   -0.00076071   -0.00011207
     atom    9 type  2   force =     0.00312408    0.00264551   -0.00040114
     atom   10 type  2   force =    -0.00043843   -0.02408750    0.00093496
     atom   11 type  1   force =     0.00388424    0.00198935    0.00059487
     atom   12 type  1   force =    -0.01291021    0.00756355   -0.00004115
     atom   13 type  1   force =    -0.00107996   -0.00659842   -0.00005728
     atom   14 type  1   force =    -0.00813250   -0.00354773    0.00014224
     atom   15 type  1   force =     0.00011944    0.00170832    0.00027645
     atom   16 type  2   force =    -0.01586299    0.00786446   -0.00020435
     atom   17 type  2   force =     0.01037420    0.00547360   -0.00013338
     atom   18 type  1   force =     0.00097594   -0.00337523   -0.00048825
     atom   19 type  1   force =     0.00007759   -0.00306230   -0.00026396
     atom   20 type  1   force =     0.00035085   -0.00204921    0.00061037
     atom   21 type  1   force =    -0.00394767    0.00166571    0.00009755
     atom   22 type  2   force =     0.00078321    0.00292014   -0.00045736
     atom   23 type  2   force =    -0.00057746    0.00079998    0.00000795
     atom   24 type  1   force =    -0.00380166    0.00251212    0.00043484
     atom   25 type  1   force =     0.01303759    0.00781652    0.00003686
     atom   26 type  1   force =    -0.00118076   -0.00513169    0.00029026
     atom   27 type  3   force =    -0.00002132    0.00043880   -0.00015453
     atom   28 type  3   force =     0.00002141   -0.00011589   -0.00009317
     atom   29 type  3   force =     0.00008881   -0.00002333    0.00060531
     atom   30 type  3   force =     0.00008344   -0.00007752    0.00051484
     atom   31 type  1   force =     0.00012175    0.00099200    0.00003583
     atom   32 type  3   force =     0.00022562    0.00073791    0.00019827

     Total force =     0.002611     Total SCF correction =     0.000263
     SCF correction compared to forces is large: reduce conv_thr to get better values

     bfgs converged in  16 scf cycles and  15 bfgs steps
     (criteria: energy < 0.10E-03, force < 0.10E-02)

     End of BFGS Geometry Optimization

     Final energy   =   -2280.7908996378 Ry
Begin final coordinates

ATOMIC_POSITIONS (crystal)
O0       0.000000000   0.000000000   0.377498113    0   0   1
O0       0.000000000   0.500000000   0.401691941    0   0   1
Pt1      0.250000000   0.500000000   0.451153403    0   0   1
Pt1      0.000000000   0.000000000   0.452590099    0   0   1
O0       0.250000000   0.810000000   0.442685516    0   0   1
O0       0.250000000   0.190000000   0.460877717    0   0   1
O0       0.000000000   0.500000000   0.496768336    0   0   1
O0       0.000000000   0.000000000   0.529621136    0   0   1
Pt1      0.250000000   0.000000000   0.575710244    0   0   1
Pt1      0.000000000   0.500000000   0.574283017    0   0   1
O0       0.250000000   0.690000000   0.566575335    0   0   1
O0       0.250000000   0.310000000   0.585797583    0   0   1
O0       0.000000000   0.000000000   0.621145958    0   0   1
O0       0.500000000   0.000000000   0.377557462    0   0   1
O0       0.500000000   0.500000000   0.401174202    0   0   1
Pt1      0.750000000   0.500000000   0.451153435    0   0   1
Pt1      0.500000000   0.000000000   0.452628727    0   0   1
O0       0.750000000   0.810000000   0.442671770    0   0   1
O0       0.750000000   0.190000000   0.460884842    0   0   1
O0       0.500000000   0.500000000   0.497298725    0   0   1
O0       0.500000000   0.000000000   0.529582833    0   0   1
Pt1      0.750000000   0.000000000   0.575714106    0   0   1
Pt1      0.500000000   0.500000000   0.575985585    0   0   1
O0       0.750000000   0.690000000   0.566681478    0   0   1
O0       0.750000000   0.310000000   0.585682533    0   0   1
O0       0.500000000   0.000000000   0.621143665    0   0   1
H2       0.000080717   0.640706356   0.386447826
H2       0.499997528   0.641382407   0.386254224
H2       0.143465816   0.034097373   0.367577547
H2       0.643484113   0.034141839   0.367642470
O0       0.499257811   0.531256698   0.649541421
H2       0.492337524   0.388879339   0.662598754
End final coordinates

     General routines

     Parallel routines
     Hubbard U routines

   This run was terminated on:  19:27:25  28Apr2014

   JOB DONE.
Running PBS batch system epilogue script
Job id: 340494.audhumbla.fysik.dtu.dk
Username: zhonxu
Groupname: campgst
Jobname: PtO2/Eads-2-layers/OH-U-5.0
Sessionid: 32742
Queuename: verylong
Accounting:
This job has allocated the following 16 nodes:
c039 c039 c039 c039 c039 c039 c039 c039 c003 c003 c003 c003 c003 c003 c003 c003
Finished epilogue job 340494.audhumbla.fysik.dtu.dk for zhonxu