     Program PWSCF v.5.0.2 (svn rev. 9656) starts on 15May2014 at 23:56:52

     Current dimensions of program PWSCF are:
     Max number of different atomic species (ntypx) = 10
     Max number of k-points (npk) =  40000
     Max angular momentum in pseudopotentials (lmaxx) =  3
     Reading input from pwscf.in
Warning: card &CELL ignored
Warning: card / ignored

     Subspace diagonalization in iterative solution of the eigenvalue problem:
     a serial algorithm will be used

     Found symmetry operation: I + ( -0.5000  0.0000  0.0000)
     This is a supercell, fractional translations are disabled

     bravais-lattice index     =            0
     lattice parameter (alat)  =      10.7336  a.u.
     unit-cell volume          =    6184.1966 (a.u.)^3
     number of atoms/cell      =           30
     number of atomic types    =            3
     number of electrons       =       232.00 (up: 128.00, down: 104.00)
     number of Kohn-Sham states=          336
     kinetic-energy cutoff     =      40.0000  Ry
     charge density cutoff     =     500.0000  Ry
     convergence threshold     =      1.0E-06
     mixing beta               =       0.7000
     number of iterations used =            8  plain     mixing
     Exchange-correlation      = SLA  PW   PBE  PBE ( 1 4 3 4 0)
     EXX-fraction              =        0.00
     nstep                     =           50

     celldm(1)=  10.733644  celldm(2)=   0.000000  celldm(3)=   0.000000
     celldm(4)=   0.000000  celldm(5)=   0.000000  celldm(6)=   0.000000

     crystal axes: (cart. coord. in units of alat)
               a(1) = (   1.000000   0.000000   0.000000 )
               a(2) = (   0.000000   1.085558   0.000000 )
               a(3) = (   0.000000   0.000000   4.606685 )

     reciprocal axes: (cart. coord. in units 2 pi/alat)
               b(1) = (  1.000000  0.000000  0.000000 )
               b(2) = (  0.000000  0.921185  0.000000 )
               b(3) = (  0.000000  0.000000  0.217076 )

     PseudoPot. # 1 for O  read from file:
     /home/camp/zhonxu/pseudo/o_pbe_v1.01.uspp.F.UPF
     MD5 check sum: 2bcb18d16ea4b960afae9ec6d52f22d2
     Pseudo is Ultrasoft + core correction, Zval =  6.0
     Generated by new atomic code, or converted to UPF format
     Using radial grid of  737 points,  5 beta functions with:
                l(1) =   0
                l(2) =   0
                l(3) =   1
                l(4) =   1
                l(5) =   2
     Q(r) pseudized with  8 coefficients,  rinner =    0.900   0.900   0.900
                                                       0.900   0.900

     PseudoPot. # 2 for Mn read from file:
     /home/camp/zhonxu/pseudo/mn_pbe_v1.uspp.F.UPF
     MD5 check sum: 5fd7c7b5c956fd19902447332617373a
     Pseudo is Ultrasoft + core correction, Zval = 15.0
     Generated by new atomic code, or converted to UPF format
     Using radial grid of  859 points,  6 beta functions with:
                l(1) =   0
                l(2) =   0
                l(3) =   1
                l(4) =   1
                l(5) =   2
                l(6) =   2
     Q(r) pseudized with  6 coefficients,  rinner =    1.150   1.150   1.150
                                                       1.150   1.150

     PseudoPot. # 3 for H  read from file:
     /home/camp/zhonxu/pseudo/h_pbe_v1.uspp.F.UPF
     MD5 check sum: 3408e3ff4ec8b0a4e358431e7e038a48
     Pseudo is Ultrasoft, Zval =  1.0
     Generated by new atomic code, or converted to UPF format
     Using radial grid of  615 points,  2 beta functions with:
                l(1) =   0
                l(2) =   0
     Q(r) pseudized with  8 coefficients,  rinner =    0.700

     atomic species   valence    mass     pseudopotential
        O0             6.00    15.99940     O ( 1.00)
        Mn1           15.00    54.93800     Mn( 1.00)
        H2             1.00     1.00794     H ( 1.00)

     Starting magnetic structure
     atomic species   magnetization
        O0           0.000
        Mn1          0.600
        H2           0.000

     Simplified LDA+U calculation (l_max = 2) with parameters (eV):
     atomic species    L          U    alpha       J0     beta
        Mn1            2     0.0000   0.0000   0.0000   0.0000

     No symmetry found

   Cartesian axes

     site n.     atom                  positions (alat units)
         1           O0  tau(   1) = (   0.0000000   0.0000000   1.7440910  )
         2           O0  tau(   2) = (   0.0000000   0.5427791   1.8348887  )
         3           Mn1 tau(   3) = (   0.2500000   0.5427791   2.0695072  )
         4           Mn1 tau(   4) = (   0.0000000   0.0000000   2.0719487  )
         5           O0  tau(   5) = (   0.2500000   0.8684466   2.0695533  )
         6           O0  tau(   6) = (   0.2500000   0.2171117   2.0770161  )
         7           O0  tau(   7) = (   0.0000000   0.5427791   2.2881405  )
         8           O0  tau(   8) = (   0.0000000   0.0000000   2.4167130  )
         9           Mn1 tau(   9) = (   0.2500000   0.0000000   2.6452046  )
        10           Mn1 tau(  10) = (   0.0000000   0.5427791   2.6189465  )
        11           O0  tau(  11) = (   0.2500000   0.7598908   2.6694358  )
        12           O0  tau(  12) = (   0.2500000   0.3256675   2.6696661  )
        13           O0  tau(  13) = (   0.0000000   0.0000000   2.8462864  )
        14           O0  tau(  14) = (   0.5000000   0.0000000   1.7440910  )
        15           O0  tau(  15) = (   0.5000000   0.5427791   1.8348887  )
        16           Mn1 tau(  16) = (   0.7500000   0.5427791   2.0695072  )
        17           Mn1 tau(  17) = (   0.5000000   0.0000000   2.0719487  )
        18           O0  tau(  18) = (   0.7500000   0.8684466   2.0695533  )
        19           O0  tau(  19) = (   0.7500000   0.2171117   2.0770161  )
        20           O0  tau(  20) = (   0.5000000   0.5427791   2.2881405  )
        21           O0  tau(  21) = (   0.5000000   0.0000000   2.4167130  )
        22           Mn1 tau(  22) = (   0.7500000   0.0000000   2.6452046  )
        23           Mn1 tau(  23) = (   0.5000000   0.5427791   2.6189465  )
        24           O0  tau(  24) = (   0.7500000   0.7598908   2.6694358  )
        25           O0  tau(  25) = (   0.7500000   0.3256675   2.6696661  )
        26           O0  tau(  26) = (   0.5000000   0.0000000   2.8462864  )
        27           H2  tau(  27) = (  -0.0000900   0.7018026   1.7591088  )
        28           H2  tau(  28) = (   0.4999100   0.7018026   1.7591088  )
        29           H2  tau(  29) = (   0.1616900   0.0388738   1.6898703  )
        30           H2  tau(  30) = (   0.6616900   0.0388738   1.6898703  )

     number of k points=    20  Methfessel-Paxton smearing, width (Ry)=  0.0100
                       cart. coord. in units 2pi/alat
        k(    1) = (   0.0000000   0.0000000   0.0000000), wk =   0.0625000
        k(    2) = (   0.0000000   0.2302962   0.0000000), wk =   0.1250000
        k(    3) = (   0.0000000  -0.4605925   0.0000000), wk =   0.0625000
        k(    4) = (   0.2500000   0.0000000   0.0000000), wk =   0.1250000
        k(    5) = (   0.2500000   0.2302962   0.0000000), wk =   0.1250000
        k(    6) = (   0.2500000  -0.4605925   0.0000000), wk =   0.1250000
        k(    7) = (  -0.5000000   0.0000000   0.0000000), wk =   0.0625000
        k(    8) = (  -0.5000000   0.2302962   0.0000000), wk =   0.1250000
        k(    9) = (  -0.5000000  -0.4605925   0.0000000), wk =   0.0625000
        k(   10) = (  -0.2500000   0.2302962   0.0000000), wk =   0.1250000
        k(   11) = (   0.0000000   0.0000000   0.0000000), wk =   0.0625000
        k(   12) = (   0.0000000   0.2302962   0.0000000), wk =   0.1250000
        k(   13) = (   0.0000000  -0.4605925   0.0000000), wk =   0.0625000
        k(   14) = (   0.2500000   0.0000000   0.0000000), wk =   0.1250000
        k(   15) = (   0.2500000   0.2302962   0.0000000), wk =   0.1250000
        k(   16) = (   0.2500000  -0.4605925   0.0000000), wk =   0.1250000
        k(   17) = (  -0.5000000   0.0000000   0.0000000), wk =   0.0625000
        k(   18) = (  -0.5000000   0.2302962   0.0000000), wk =   0.1250000
        k(   19) = (  -0.5000000  -0.4605925   0.0000000), wk =   0.0625000
        k(   20) = (  -0.2500000   0.2302962   0.0000000), wk =   0.1250000

     Largest allocated arrays     est. size (Mb)     dimensions
     Largest temporary arrays     est. size (Mb)     dimensions

     Check: negative/imaginary core charge=   -0.000022    0.000000

     Initial potential from superposition of free atoms
     Check: negative starting charge=(component1):   -0.000776
     Check: negative starting charge=(component2):   -0.000381

     starting charge  223.99987, renormalised to  232.00000

     negative rho (up, down):  0.804E-03 0.395E-03
     Number of +U iterations with fixed ns =  0
     Starting occupations:
 --- enter write_ns ---
 LDA+U parameters:
U( 2)     =  0.00000000
alpha( 2) =  0.00000000
atom    3   Tr[ns(na)] (up, down, total) =   5.00000  0.00000  5.00000
   spin  1
    eigenvalues:
  1.000  1.000  1.000  1.000  1.000
    eigenvectors:
  1.000  0.000  0.000  0.000  0.000
  0.000  1.000  0.000  0.000  0.000
  0.000  0.000  1.000  0.000  0.000
  0.000  0.000  0.000  1.000  0.000
  0.000  0.000  0.000  0.000  1.000
    occupations:
  1.000  0.000  0.000  0.000  0.000
  0.000  1.000  0.000  0.000  0.000
  0.000  0.000  1.000  0.000  0.000
  0.000  0.000  0.000  1.000  0.000
  0.000  0.000  0.000  0.000  1.000
   spin  2
    eigenvalues:
  0.000  0.000  0.000  0.000  0.000
    eigenvectors:
  1.000  0.000  0.000  0.000  0.000
  0.000  1.000  0.000  0.000  0.000
  0.000  0.000  1.000  0.000  0.000
  0.000  0.000  0.000  1.000  0.000
  0.000  0.000  0.000  0.000  1.000
    occupations:
  0.000  0.000  0.000  0.000  0.000
  0.000  0.000  0.000  0.000  0.000
  0.000  0.000  0.000  0.000  0.000
  0.000  0.000  0.000  0.000  0.000
  0.000  0.000  0.000  0.000  0.000
atomic mag. moment =     5.000000
atom    4   Tr[ns(na)] (up, down, total) =   5.00000  0.00000  5.00000
   spin  1
    eigenvalues:
  1.000  1.000  1.000  1.000  1.000
    eigenvectors:
  1.000  0.000  0.000  0.000  0.000
  0.000  1.000  0.000  0.000  0.000
  0.000  0.000  1.000  0.000  0.000
  0.000  0.000  0.000  1.000  0.000
  0.000  0.000  0.000  0.000  1.000
    occupations:
  1.000  0.000  0.000  0.000  0.000
  0.000  1.000  0.000  0.000  0.000
  0.000  0.000  1.000  0.000  0.000
  0.000  0.000  0.000  1.000  0.000
  0.000  0.000  0.000  0.000  1.000
   spin  2
    eigenvalues:
  0.000  0.000  0.000  0.000  0.000
    eigenvectors:
  1.000  0.000  0.000  0.000  0.000
  0.000  1.000  0.000  0.000  0.000
  0.000  0.000  1.000  0.000  0.000
  0.000  0.000  0.000  1.000  0.000
  0.000  0.000  0.000  0.000  1.000
    occupations:
  0.000  0.000  0.000  0.000  0.000
  0.000  0.000  0.000  0.000  0.000
  0.000  0.000  0.000  0.000  0.000
  0.000  0.000  0.000  0.000  0.000
  0.000  0.000  0.000  0.000  0.000
atomic mag. moment =     5.000000
atom    9   Tr[ns(na)] (up, down, total) =   5.00000  0.00000  5.00000
   spin  1
    eigenvalues:
  1.000  1.000  1.000  1.000  1.000
    eigenvectors:
[...]
atomic mag. moment =     3.126013
atom   16   Tr[ns(na)] (up, down, total) =   4.16667  1.36160  5.52827
   spin  1
    eigenvalues:
  0.579  0.605  0.988  0.989  1.005
    eigenvectors:
  0.262  0.000  0.730  0.000  0.008
  0.000  1.000  0.000  0.000  0.000
  0.000  0.000  0.009  0.000  0.991
  0.738  0.000  0.261  0.000  0.001
  0.000  0.000  0.000  0.999  0.000
    occupations:
  0.881  0.000 -0.005 -0.180  0.000
  0.000  0.605  0.000  0.000 -0.008
 -0.005  0.000  1.005 -0.006  0.000
 -0.180  0.000 -0.006  0.686  0.000
  0.000 -0.008  0.000  0.000  0.989
   spin  2
    eigenvalues:
  0.142  0.190  0.241  0.390  0.399
    eigenvectors:
  0.768  0.000  0.001  0.000  0.231
  0.000  0.003  0.000  0.997  0.000
  0.001  0.000  0.999  0.000  0.001
  0.231  0.000  0.000  0.000  0.769
  0.000  0.997  0.000  0.003  0.000
    occupations:
  0.202 -0.000 -0.000  0.108 -0.000
 -0.000  0.389  0.000 -0.000  0.011
 -0.000  0.000  0.241  0.005 -0.000
  0.108 -0.000  0.005  0.340 -0.000
 -0.000  0.011 -0.000 -0.000  0.191
atomic mag. moment =     2.805062
atom   17   Tr[ns(na)] (up, down, total) =   4.11340  1.42406  5.53747
   spin  1
    eigenvalues:
  0.549  0.585  0.984  0.994  1.001
    eigenvectors:
  0.000  0.999  0.000  0.000  0.001
  0.000  0.001  0.000  0.009  0.990
  0.000  0.000  0.005  0.986  0.009
  0.000  0.000  0.994  0.006  0.000
  1.000  0.000  0.000  0.000  0.000
    occupations:
  0.586 -0.012 -0.004  0.003 -0.000
 -0.012  1.000  0.000 -0.000  0.001
 -0.004  0.000  0.994  0.001  0.000
  0.003 -0.000  0.001  0.984  0.000
 -0.000  0.001  0.000  0.000  0.549
   spin  2
    eigenvalues:
  0.144  0.203  0.248  0.409  0.421
    eigenvectors:
  0.001  0.005  0.000  0.000  0.993
  0.000  0.954  0.040  0.000  0.005
  0.000  0.040  0.959  0.000  0.001
  0.999  0.000  0.000  0.000  0.001
  0.000  0.000  0.000  1.000  0.000
    occupations:
  0.420  0.016  0.005 -0.009 -0.000
  0.016  0.206 -0.008  0.000 -0.002
  0.005 -0.008  0.246  0.001 -0.000
 -0.009  0.000  0.001  0.144 -0.000
 -0.000 -0.002 -0.000 -0.000  0.409
atomic mag. moment =     2.689340
atom   22   Tr[ns(na)] (up, down, total) =   3.98960  1.61628  5.60588
   spin  1
    eigenvalues:
  0.587  0.593  0.886  0.938  0.987
    eigenvectors:
  0.001  0.196  0.000  0.000  0.803
  0.995  0.005  0.000  0.000  0.000
  0.000  0.000  0.000  1.000  0.000
  0.004  0.799  0.000  0.000  0.197
  0.000  0.000  1.000  0.000  0.000
    occupations:
  0.909  0.000 -0.000 -0.157  0.000
  0.000  0.587  0.000  0.000 -0.000
 -0.000  0.000  0.938  0.000 -0.000
 -0.157  0.000  0.000  0.670  0.000
  0.000 -0.000 -0.000  0.000  0.886
   spin  2
    eigenvalues:
  0.224  0.241  0.267  0.424  0.461
    eigenvectors:
  0.845  0.000  0.000  0.155  0.000
  0.000  0.000  0.000  0.000  1.000
  0.000  1.000  0.000  0.000  0.000
  0.155  0.000  0.000  0.845  0.000
  0.000  0.000  1.000  0.000  0.000
    occupations:
  0.255 -0.000  0.000  0.072 -0.000
 -0.000  0.461 -0.000 -0.000 -0.000
  0.000 -0.000  0.241 -0.000 -0.000
  0.072 -0.000 -0.000  0.393 -0.000
 -0.000 -0.000 -0.000 -0.000  0.267
atomic mag. moment =     2.373321
atom   23   Tr[ns(na)] (up, down, total) =   4.29865  1.17239  5.47104
   spin  1
    eigenvalues:
  0.582  0.759  0.969  0.993  0.995
    eigenvectors:
  0.000  0.996  0.000  0.004  0.000
  0.000  0.000  1.000  0.000  0.000
  0.000  0.000  0.000  0.000  1.000
  0.000  0.004  0.000  0.996  0.000
  1.000  0.000  0.000  0.000  0.000
    occupations:
  0.760  0.000  0.001  0.014  0.000
  0.000  0.969 -0.000 -0.000 -0.000
  0.001 -0.000  0.995 -0.000 -0.000
  0.014 -0.000 -0.000  0.992 -0.000
  0.000 -0.000 -0.000 -0.000  0.582
   spin  2
    eigenvalues:
  0.136  0.181  0.191  0.270  0.394
    eigenvectors:
  0.015  0.000  0.000  0.985  0.000
  0.000  1.000  0.000  0.000  0.000
  0.000  0.000  1.000  0.000  0.000
  0.985  0.000  0.000  0.015  0.000
  0.000  0.000  0.000  0.000  1.000
    occupations:
  0.268 -0.000 -0.000 -0.016 -0.000
 -0.000  0.181 -0.000 -0.000  0.000
 -0.000 -0.000  0.191 -0.000  0.000
 -0.016 -0.000 -0.000  0.138 -0.000
 -0.000  0.000  0.000 -0.000  0.394
atomic mag. moment =     3.126265
N of occupied +U levels =  44.2838240
 --- exit write_ns ---

 ------ SPIN UP ------------

          k = 0.0000 0.0000 0.0000 ( 26393 PWs)   bands (ev):

   -84.2587 -84.2488 -83.9599 -83.9498 -83.9045 -83.8942 -83.6080 -83.5976
   -53.1028 -52.9878 -52.8921 -52.8744 -52.8695 -52.8590 -52.7804 -52.7716
   -52.6606 -52.6541 -52.6191 -52.6096 -52.6061 -52.6013 -52.5893 -52.5822
   -52.3958 -52.3866 -52.3530 -52.3467 -52.3450 -52.2222 -52.1963 -52.1768
   -22.2274 -21.5533 -21.4018 -21.1755 -20.6460 -20.4665 -20.4608 -20.2977
   -20.2825 -20.1761 -20.0569 -19.9677 -19.9232 -19.9023 -19.8862 -19.3921
   -19.0848 -18.9516 -10.1087  -9.8779  -9.6261  -9.5435  -9.2348  -8.6544
    -8.6275  -8.6203  -8.5794  -8.4123  -8.2449  -8.2328  -8.0879  -7.9764
    -7.9556  -7.8320  -7.7763  -7.6123  -7.5850  -7.5242  -7.2808  -7.2635
    -7.1884  -6.9257  -6.8938  -6.8574  -6.7880  -6.2352  -6.1858  -6.1492
    -6.0119  -5.9241  -5.9058  -5.8271  -5.6990  -5.4934  -5.4656  -5.3239
    -5.2633  -5.1979  -5.1632  -5.0218  -4.9173  -4.8959  -4.7464  -4.7396
    -4.7018  -4.6870  -4.6224  -4.5695  -4.4874  -4.3492  -4.2098  -4.1391
    -4.1193  -4.0728  -3.9321  -3.9076  -3.8907  -3.6844  -3.5246  -3.4302
    -3.3862  -3.2039  -3.0829  -3.0464  -2.9327  -2.8757  -2.7118  -2.7052
    -2.6759  -2.6247  -2.5698  -2.4613  -2.3630  -2.1794  -2.0455  -1.8456
    -1.7925  -1.6142  -0.8920  -0.5495  -0.4306  -0.3876  -0.2091  -0.1789
    -0.1419   0.1495   0.3729   0.4232   0.6778   0.9578   1.0553   1.3928
     2.8763   3.5264   3.6422   4.1670   4.6239   5.4050   5.8884   6.0704
     6.4089   6.8788   7.0209   7.0698   7.0945   7.1523   7.4809   7.5356
     7.6513   7.8232   8.0975   8.1214   8.1280   8.1540   8.1927   8.3071
     8.3635   8.4924   8.7176   8.8124   8.8673   8.8999   9.0608   9.1044
     9.2250   9.3344   9.3457   9.4174   9.5336   9.5671   9.7765   9.9728
    10.1364  10.2009  10.2355  10.3553  10.4044  10.5706  10.8777  10.9452
    10.9644  10.9931  11.1591  11.2192  11.2693  11.3806  11.5497  11.7795
    11.8249  11.8362  11.8798  11.9932  12.1175  12.2018  12.2143  12.2550
    12.2948  12.3446  12.4047  12.4277  12.4677  12.4981  12.5966  12.6329
    12.7136  12.7674  12.8741  13.0122  13.0219  13.1213  13.1244  13.1900
    13.2236  13.2257  13.3477  13.4474  13.5204  13.6760  13.7553  13.8010
    13.8435  13.8649  14.0806  14.0952  14.1549  14.2655  14.2865  14.3455
    14.3899  14.5741  14.6974  14.7803  14.8154  14.9808  15.0308  15.1098
    15.2136  15.2747  15.3074  15.3597  15.4978  15.6067  15.7289  15.7899
    15.9297  16.0321  16.0613  16.0878  16.4079  16.4166  16.5772  16.6326
    16.7367  16.7431  16.7668  17.0893  17.2096  17.2570  17.3008  17.4003
    17.4915  17.6541  17.7446  17.8089  17.8533  18.1229  18.1740  18.3111
    18.3126  18.3509  18.4530  18.5133  18.5991  18.6393  18.8112  18.9172
    18.9475  19.0581  19.2314  19.2824  19.3071  19.3657  19.4241  19.5518
    19.5601  19.6302  19.6793  19.7004  19.7713  19.8202  19.8555  20.0637
    20.0794  20.1180  20.2455  20.2525  20.4901  20.6044  20.7008  20.7237
    20.7900  20.8635  20.9807  21.0782  21.2729  21.2835  21.3076  21.3669
    21.3931  21.4069  21.4269  21.5149  21.6897  21.9382  22.1144  22.1307
    22.2456  22.2690  22.3264  22.3374  22.3429  22.3696  22.4504  22.4565

[...]

          k =-0.5000 0.0000 0.0000 ( 26466 PWs)   bands (ev):

[...]

 ------ SPIN DOWN ----------

[...]

          k = 0.2500-0.4606 0.0000 ( 26462 PWs)   bands (ev):

[...]

          k =-0.2500 0.2303 0.0000 ( 26396 PWs)   bands (ev):

   -80.7852 -80.7771 -80.6367 -80.6282 -80.5693 -80.5609 -80.1474 -80.1388
   -49.6788 -49.5926 -49.5844 -49.5809 -49.5550 -49.5244 -49.5215 -49.5137
   -49.5085 -49.4918 -49.4512 -49.4227 -49.3945 -49.3774 -49.2188 -49.2001
   -49.1814 -49.1790 -49.1724 -49.1178 -48.9600 -48.9426 -48.7250 -48.7166
   -21.9842 -21.5742 -21.0990 -20.8628 -20.5350 -20.5331 -20.2730 -20.2254
   -20.1577 -20.0515 -20.0288 -19.9238 -19.8803 -19.8197 -19.5367 -19.3278
   -18.9735 -18.8618  -9.5708  -9.2878  -8.7629  -8.6040  -8.5186  -8.2010
    -8.0177  -7.9235  -7.8682  -7.8381  -7.6955  -7.5939  -7.4394  -7.4244
    -7.1859  -7.1780  -7.0601  -7.0508  -6.9122  -6.7546  -6.6156  -6.5636
    -6.5124  -6.4704  -6.1996  -6.0039  -5.9656  -5.8694  -5.6718  -5.6320
    -5.5928  -5.5829  -5.4301  -5.4077  -5.2357  -5.2028  -5.0104  -4.9357
    -4.8174  -4.7218  -4.5806  -4.3940  -4.2935  -4.2109  -4.1367  -3.9830
    -3.7788  -3.7169  -3.6668  -3.4160  -3.2618  -3.1799  -3.0587  -2.8093
    -1.4083  -1.2078  -1.1714  -1.1214  -1.0833  -1.0056  -0.9331  -0.9117
    -0.8082  -0.8019  -0.6014  -0.5976  -0.5838  -0.3891  -0.3313  -0.2320
    -0.2084  -0.1976  -0.0702  -0.0662   0.1292   0.1369   0.2391   0.3883
     0.4395   0.6975   0.7934   1.1631   1.2255   1.2457   1.3395   1.3913
     1.7578   1.7707   2.1092   2.2062   2.2505   2.4609   2.6034   2.6159
     3.5320   4.1608   4.3184   4.7711   5.2349   5.5042   5.5554   6.0126
     6.1869   6.3978   6.4323   6.5012   6.6667   6.8347   6.8859   7.1893
     7.3800   7.6530   7.6701   7.8519   8.0737   8.2832   8.3900   8.5351
     8.5839   8.7954   8.8830   8.9888   9.0689   9.1811   9.2803   9.4713
     9.5498   9.7163   9.9064   9.9765  10.0206  10.1997  10.2239  10.3680
    10.4629  10.5940  10.6615  10.7548  10.8281  11.0423  11.0593  11.1532
    11.3358  11.4178  11.4771  11.5428  11.6241  11.7236  11.7357  11.9010
    11.9650  12.0666  12.2004  12.2738  12.3273  12.3618  12.4539  12.5843
    12.7040  12.8482  12.8940  12.9432  12.9685  12.9830  13.0700  13.1485
    13.2838  13.3392  13.3733  13.4408  13.6396  13.6729  13.7369  13.7879
    13.8386  13.9282  14.0493  14.0998  14.2668  14.2967  14.3147  14.3772
    14.4108  14.5836  14.6268  14.6698  14.7418  14.7874  14.8762  14.9689
    15.0555  15.1099  15.1192  15.2289  15.3708  15.5337  15.5781  15.6141
    15.6481  15.8276  15.9055  15.9592  15.9701  16.1286  16.2332  16.2433
    16.3521  16.4572  16.5311  16.5927  16.5930  16.7075  16.8600  16.9847
    17.0099  17.0445  17.1511  17.1713  17.2893  17.3689  17.3728  17.4817
    17.4978  17.6053  17.6583  17.6838  17.8598  17.8961  17.9018  18.1139
    18.1378  18.1455  18.2346  18.3256  18.3993  18.4031  18.4881  18.5769
    18.6451  18.7481  18.8303  18.8441  18.9662  19.0559  19.1832  19.2194
    19.2707  19.3368  19.4612  19.4870  19.6037  19.6175  19.7643  19.8278
    19.8612  19.9658  19.9929  20.0582  20.1318  20.2677  20.2819  20.3140
    20.3500  20.4783  20.5693  20.6386  20.6733  20.7885  20.9179  20.9656
    21.0459  21.1312  21.2085  21.3127  21.3821  21.4167  21.5002  21.5048
    21.5730  21.6437  21.7523  21.8190  21.8289  21.9677  21.9840  22.0813

     the spin up/dw Fermi energies are    -1.8528   -2.4494 ev

!    total energy              =   -2288.93935534 Ry
     Harris-Foulkes estimate   =   -2288.93935606 Ry
     estimated scf accuracy    <       0.00000084 Ry

     The total energy is the sum of the following terms:

     one-electron contribution =  -25978.47462129 Ry
     hartree contribution      =   13004.51139681 Ry
     xc contribution           =    -341.14297378 Ry
     ewald contribution        =   11026.16724079 Ry
     Hubbard energy            =       0.00000000 Ry
     smearing contrib. (-TS)   =      -0.00039787 Ry

     total magnetization       =    24.00 Bohr mag/cell
     absolute magnetization    =    24.93 Bohr mag/cell

     convergence has been achieved in  36 iterations

     Forces acting on atoms (Ry/au):

     negative rho (up, down):  0.231E-02 0.130E-02
     atom    1 type  1   force =    -0.00426096   -0.01586771    0.00033011
     atom    2 type  1   force =     0.00019372    0.01395739    0.00045549
     atom    3 type  2   force =    -0.00044684   -0.00453660   -0.00027399
     atom    4 type  2   force =     0.00416787    0.01053715    0.00009536
     atom    5 type  1   force =     0.00353310    0.00524282    0.00005552
     atom    6 type  1   force =    -0.00283682   -0.00772174   -0.00027722
     atom    7 type  1   force =    -0.00004616    0.00079743   -0.00077693
     atom    8 type  1   force =    -0.00031187   -0.00196245   -0.00084636
     atom    9 type  2   force =     0.00022910    0.00041045    0.00032781
     atom   10 type  2   force =    -0.00005511   -0.00055525   -0.00033621
     atom   11 type  1   force =    -0.00006733   -0.06735156    0.00030762
     atom   12 type  1   force =    -0.00006154    0.06736258    0.00028361
     atom   13 type  1   force =    -0.00019535   -0.00019071    0.00066845
     atom   14 type  1   force =    -0.00426492   -0.01586771    0.00027899
     atom   15 type  1   force =     0.00019175    0.01395553    0.00044377
     atom   16 type  2   force =    -0.00027770   -0.00453933   -0.00027669
     atom   17 type  2   force =     0.00415927    0.01053951   -0.00000956
     atom   18 type  1   force =     0.00363323    0.00524202    0.00005319
     atom   19 type  1   force =    -0.00273722   -0.00772213   -0.00028130
     atom   20 type  1   force =    -0.00005218    0.00079884   -0.00095170
     atom   21 type  1   force =    -0.00034333   -0.00196234   -0.00085167
     atom   22 type  2   force =     0.00054914    0.00041073    0.00032681
     atom   23 type  2   force =    -0.00008891   -0.00055282   -0.00026432
     atom   24 type  1   force =     0.00015393   -0.06736775    0.00031286
     atom   25 type  1   force =     0.00016078    0.06737922    0.00028816
     atom   26 type  1   force =    -0.00022843   -0.00019055    0.00074555
     atom   27 type  3   force =     0.00007572   -0.00022248    0.00050057
     atom   28 type  3   force =     0.00007564   -0.00021847    0.00049806
     atom   29 type  3   force =    -0.00042995    0.00009674   -0.00041208
     atom   30 type  3   force =    -0.00041862    0.00009919   -0.00041389

     Total force =     0.002636     Total SCF correction =     0.001672
     SCF correction compared to forces is large: reduce conv_thr to get better values

     BFGS Geometry Optimization

     bfgs converged in   1 scf cycles and   0 bfgs steps
     (criteria: energy < 0.10E-03, force < 0.10E-02)

     End of BFGS Geometry Optimization

     Final energy   =   -2288.9393553351 Ry
Begin final coordinates

ATOMIC_POSITIONS (crystal)
O0       0.000000000   0.000000000   0.378600000    0   0   1
O0       0.000000000   0.500000000   0.398310000    0   0   1
Mn1      0.250000000   0.500000000   0.449240000    0   0   1
Mn1      0.000000000   0.000000000   0.449770000    0   0   1
O0       0.250000000   0.800000000   0.449250000    0   0   1
O0       0.250000000   0.200000000   0.450870000    0   0   1
O0       0.000000000   0.500000000   0.496700000    0   0   1
O0       0.000000000   0.000000000   0.524610000    0   0   1
Mn1      0.250000000   0.000000000   0.574210000    0   0   1
Mn1      0.000000000   0.500000000   0.568510000    0   0   1
O0       0.250000000   0.700000000   0.579470000    0   0   1
O0       0.250000000   0.300000000   0.579520000    0   0   1
O0       0.000000000   0.000000000   0.617860000    0   0   1
O0       0.500000000   0.000000000   0.378600000    0   0   1
O0       0.500000000   0.500000000   0.398310000    0   0   1
Mn1      0.750000000   0.500000000   0.449240000    0   0   1
Mn1      0.500000000   0.000000000   0.449770000    0   0   1
O0       0.750000000   0.800000000   0.449250000    0   0   1
O0       0.750000000   0.200000000   0.450870000    0   0   1
O0       0.500000000   0.500000000   0.496700000    0   0   1
O0       0.500000000   0.000000000   0.524610000    0   0   1
Mn1      0.750000000   0.000000000   0.574210000    0   0   1
Mn1      0.500000000   0.500000000   0.568510000    0   0   1
O0       0.750000000   0.700000000   0.579470000    0   0   1
O0       0.750000000   0.300000000   0.579520000    0   0   1
O0       0.500000000   0.000000000   0.617860000    0   0   1
H2      -0.000090000   0.646490000   0.381860000
H2       0.499910000   0.646490000   0.381860000
H2       0.161690000   0.035810000   0.366830000
H2       0.661690000   0.035810000   0.366830000
End final coordinates

     General routines

     Parallel routines
     Hubbard U routines

   This run was terminated on:   2:37:58  16May2014

   JOB DONE.
Running PBS batch system epilogue script
Job id: 359677.audhumbla.fysik.dtu.dk
Username: zhonxu
Groupname: campgst
Jobname: MnO2/Eads-2-layers/bare-U-0.0
Sessionid: 26658
Queuename: verylong
Accounting:
This job has allocated the following 16 nodes:
d113 d113 d113 d113 d113 d113 d113 d113 d112 d112 d112 d112 d112 d112 d112 d112
Finished epilogue job 359677.audhumbla.fysik.dtu.dk for zhonxu