     Program PWSCF v.5.0.2 (svn rev. 9656) starts on 24Jan2014 at 15:12: 5

     Current dimensions of program PWSCF are:
     Max number of different atomic species (ntypx) = 10
     Max number of k-points (npk) =  40000
     Max angular momentum in pseudopotentials (lmaxx) =  3
     Reading input from MnO2-v-1.05.in

     Subspace diagonalization in iterative solution of the eigenvalue problem:
     a serial algorithm will be used

     bravais-lattice index     =            0
     lattice parameter (alat)  =       8.5575  a.u.
     unit-cell volume          =     403.8595 (a.u.)^3
     number of atoms/cell      =            6
     number of atomic types    =            2
     number of electrons       =        54.00
     number of Kohn-Sham states=           78
     kinetic-energy cutoff     =      40.0000  Ry
     charge density cutoff     =     500.0000  Ry
     convergence threshold     =      1.0E-06
     mixing beta               =       0.3000
     number of iterations used =            8  plain     mixing
     Exchange-correlation      = SLA  PW   PBE  PBE ( 1 4 3 4 0)
     EXX-fraction              =        0.00
     nstep                     =           50

     celldm(1)=   8.557527  celldm(2)=   0.000000  celldm(3)=   0.000000
     celldm(4)=   0.000000  celldm(5)=   0.000000  celldm(6)=   0.000000

     crystal axes: (cart. coord. in units of alat)
               a(1) = (   1.000000   0.000000   0.000000 )
               a(2) = (   0.000000   1.000000   0.000000 )
               a(3) = (   0.000000   0.000000   0.644444 )

     reciprocal axes: (cart. coord. in units 2 pi/alat)
               b(1) = (  1.000000  0.000000  0.000000 )
               b(2) = (  0.000000  1.000000  0.000000 )
               b(3) = (  0.000000  0.000000  1.551724 )

     PseudoPot. # 1 for Mn read from file:
     /home/camp/zhonxu/pseudo/mn_pbe_v1.uspp.F.UPF
     MD5 check sum: 5fd7c7b5c956fd19902447332617373a
     Pseudo is Ultrasoft + core correction, Zval = 15.0
     Generated by new atomic code, or converted to UPF format
     Using radial grid of  859 points,  6 beta functions with:
                l(1) =   0
                l(2) =   0
                l(3) =   1
                l(4) =   1
                l(5) =   2
                l(6) =   2
     Q(r) pseudized with  6 coefficients,  rinner =    1.150   1.150   1.150
                                                       1.150   1.150

     PseudoPot. # 2 for O  read from file:
     /home/camp/zhonxu/pseudo/o_pbe_v1.01.uspp.F.UPF
     MD5 check sum: 2bcb18d16ea4b960afae9ec6d52f22d2
     Pseudo is Ultrasoft + core correction, Zval =  6.0
     Generated by new atomic code, or converted to UPF format
     Using radial grid of  737 points,  5 beta functions with:
                l(1) =   0
                l(2) =   0
                l(3) =   1
                l(4) =   1
                l(5) =   2
     Q(r) pseudized with  8 coefficients,  rinner =    0.900   0.900   0.900
                                                       0.900   0.900

     atomic species   valence    mass     pseudopotential
        Mn0           15.00    54.93800     Mn( 1.00)
        O1             6.00    15.99940     O ( 1.00)

     Starting magnetic structure
     atomic species   magnetization
        Mn0          0.600
        O1           0.000

     16 Sym. Ops., with inversion, found ( 8 have fractional translation)

   Cartesian axes

     site n.     atom                  positions (alat units)
         1           Mn0 tau(   1) = (   0.0000000   0.0000000   0.0000000  )
         2           Mn0 tau(   2) = (   0.5000000   0.5000000   0.3222222  )
         3           O1  tau(   3) = (   0.3050000   0.3050000   0.0000000  )
         4           O1  tau(   4) = (  -0.3050000  -0.3050000   0.0000000  )
         5           O1  tau(   5) = (   0.8050000   0.1950000   0.3222222  )
         6           O1  tau(   6) = (   0.1950000   0.8050000   0.3222222  )

     number of k points=    36  Methfessel-Paxton smearing, width (Ry)=  0.0100
                       cart. coord. in units 2pi/alat
        k(    1) = (   0.0000000   0.0000000   0.0000000), wk =   0.0080000
        k(    2) = (   0.0000000   0.0000000   0.3103448), wk =   0.0160000
        k(    3) = (   0.0000000   0.0000000   0.6206897), wk =   0.0160000
        k(    4) = (   0.0000000   0.2000000   0.0000000), wk =   0.0320000
        k(    5) = (   0.0000000   0.2000000   0.3103448), wk =   0.0640000
        k(    6) = (   0.0000000   0.2000000   0.6206897), wk =   0.0640000
        k(    7) = (   0.0000000   0.4000000   0.0000000), wk =   0.0320000
        k(    8) = (   0.0000000   0.4000000   0.3103448), wk =   0.0640000
        k(    9) = (   0.0000000   0.4000000   0.6206897), wk =   0.0640000
        k(   10) = (   0.2000000   0.2000000   0.0000000), wk =   0.0320000
        k(   11) = (   0.2000000   0.2000000   0.3103448), wk =   0.0640000
        k(   12) = (   0.2000000   0.2000000   0.6206897), wk =   0.0640000
        k(   13) = (   0.2000000   0.4000000   0.0000000), wk =   0.0640000
        k(   14) = (   0.2000000   0.4000000   0.3103448), wk =   0.1280000
        k(   15) = (   0.2000000   0.4000000   0.6206897), wk =   0.1280000
        k(   16) = (   0.4000000   0.4000000   0.0000000), wk =   0.0320000
        k(   17) = (   0.4000000   0.4000000   0.3103448), wk =   0.0640000
        k(   18) = (   0.4000000   0.4000000   0.6206897), wk =   0.0640000
        k(   19) = (   0.0000000   0.0000000   0.0000000), wk =   0.0080000
        k(   20) = (   0.0000000   0.0000000   0.3103448), wk =   0.0160000
        k(   21) = (   0.0000000   0.0000000   0.6206897), wk =   0.0160000
        k(   22) = (   0.0000000   0.2000000   0.0000000), wk =   0.0320000
        k(   23) = (   0.0000000   0.2000000   0.3103448), wk =   0.0640000
        k(   24) = (   0.0000000   0.2000000   0.6206897), wk =   0.0640000
        k(   25) = (   0.0000000   0.4000000   0.0000000), wk =   0.0320000
        k(   26) = (   0.0000000   0.4000000   0.3103448), wk =   0.0640000
        k(   27) = (   0.0000000   0.4000000   0.6206897), wk =   0.0640000
        k(   28) = (   0.2000000   0.2000000   0.0000000), wk =   0.0320000
        k(   29) = (   0.2000000   0.2000000   0.3103448), wk =   0.0640000
        k(   30) = (   0.2000000   0.2000000   0.6206897), wk =   0.0640000
        k(   31) = (   0.2000000   0.4000000   0.0000000), wk =   0.0640000
        k(   32) = (   0.2000000   0.4000000   0.3103448), wk =   0.1280000
        k(   33) = (   0.2000000   0.4000000   0.6206897), wk =   0.1280000
        k(   34) = (   0.4000000   0.4000000   0.0000000), wk =   0.0320000
        k(   35) = (   0.4000000   0.4000000   0.3103448), wk =   0.0640000
        k(   36) = (   0.4000000   0.4000000   0.6206897), wk =   0.0640000

     Largest allocated arrays     est. size (Mb)     dimensions
     Largest temporary arrays     est. size (Mb)     dimensions

     Check: negative/imaginary core charge=   -0.000059    0.000000

     Initial potential from superposition of free atoms

     starting charge   51.99998, renormalised to   54.00000
     Starting wfc are   42 randomized atomic wfcs

     Self-consistent Calculation

     iteration #  1     ecut=    40.00 Ry     beta=0.30
     Davidson diagonalization with overlap
     ethr =  1.00E-02,  avg # of iterations =  5.0

     total energy              =    -553.80637354 Ry
     Harris-Foulkes estimate   =    -554.32214703 Ry
     estimated scf accuracy    <       4.02028670 Ry

     total magnetization       =     6.00 Bohr mag/cell
     absolute magnetization    =     7.42 Bohr mag/cell

[...]

     End of self-consistent calculation

 ------ SPIN UP ------------

          k = 0.0000 0.0000 0.0000 (  1723 PWs)   bands (ev):

   -72.5993 -72.5976 -41.2923 -41.2864 -41.2462 -41.2462 -41.1663 -41.1663
    -9.9623  -8.3117  -8.0005  -8.0005   1.9525   2.5986   3.3204   3.9862
     3.9862   5.6871   5.6871   6.3154   6.7141   6.8386   6.9846   6.9846
     7.1210   7.9630   8.3816   8.3816   8.9442   8.9567   9.2470  11.8997
    11.8997  12.4902  16.5562  20.1891  20.1891  22.6492  23.7272  23.9592
    25.9549  27.0891  27.0891  27.6257  29.3423  31.9073  32.8623  33.4009
    33.4009  34.1296  34.1296  34.3007  35.2939  35.2939  35.8237  36.5408
    37.5827  38.4960  41.5276  41.5276  41.7601  41.9864  41.9864  44.0623
    45.0218  46.2539  46.2539  47.5037  48.5559  48.5559  48.6508  48.6564
    49.8798  51.0594  51.5999  51.5999  53.4691  53.7338

[...]

 ------ SPIN DOWN ----------

[...]

     the Fermi energy is     9.3974 ev

!    total energy              =    -554.96452064 Ry
     Harris-Foulkes estimate   =    -554.96451211 Ry
     estimated scf accuracy    <       0.00000024 Ry

     The total energy is the sum of the following terms:

     one-electron contribution =    -286.10995636 Ry
     hartree contribution      =     168.38117057 Ry
     xc contribution           =     -80.78771924 Ry
     ewald contribution        =    -356.44833175 Ry
     smearing contrib. (-TS)   =       0.00031614 Ry

[...]

     convergence has been achieved in  12 iterations

     Forces acting on atoms (Ry/au):

     atom    1 type  1   force =     0.00000000    0.00000000    0.00000000
     atom    2 type  1   force =     0.00000000    0.00000000    0.00000000
     atom    3 type  2   force =     0.00689224    0.00689224    0.00000000
     atom    4 type  2   force =    -0.00689224   -0.00689224    0.00000000
     atom    5 type  2   force =     0.00689224   -0.00689224   -0.00000000
     atom    6 type  2   force =    -0.00689224    0.00689224   -0.00000000

     Total force =     0.019494     Total SCF correction =     0.000276

     entering subroutine stress ...

          total   stress  (Ry/bohr**3)                   (kbar)     P= -126.60
  -0.00082875   0.00000000   0.00000000       -121.91      0.00      0.00
   0.00000000  -0.00082875   0.00000000          0.00   -121.91      0.00
   0.00000000   0.00000000  -0.00092434          0.00      0.00   -135.97

     Volume is kept fixed: isostatic pressure set to zero

     BFGS Geometry Optimization

     number of scf cycles    =   1
     number of bfgs steps    =   0

     enthalpy new            =    -554.9645206428 Ry

     new trust radius        =       0.0097471026 bohr
     new conv_thr            =       0.0000010000 Ry

     new unit-cell volume =    403.85948 a.u.^3 (    59.84580 Ang^3 )

CELL_PARAMETERS (alat=  8.55752677)
   1.000797238   0.000000000   0.000000000
   0.000000000   1.000797238   0.000000000
   0.000000000   0.000000000   0.643418120

ATOMIC_POSITIONS (crystal)
Mn0      0.000000000   0.000000000   0.000000000    0   0   0
Mn0      0.500000000   0.500000000   0.500000000    0   0   0
O1       0.305805401   0.305805401   0.000000000    1   1   0
O1      -0.305805401  -0.305805401   0.000000000    1   1   0
O1       0.805805401   0.194194599   0.500000000    1   1   0
O1       0.194194599   0.805805401   0.500000000    1   1   0

     NEW-OLD atomic charge density approx. for the potential
     NEW k-points:
        k(    1) = (   0.0000000   0.0000000   0.0000000), wk =   0.0080000
[...]
        k(   23) = (   0.0000000   0.1998407   0.3108399), wk =   0.0640000
        k(   24) = (   0.0000000   0.1998407   0.6216797), wk =   0.0640000
        k(   25) = (   0.0000000   0.3996814   0.0000000), wk =   0.0320000
        k(   26) = (   0.0000000   0.3996814   0.3108399), wk =   0.0640000
        k(   27) = (   0.0000000   0.3996814   0.6216797), wk =   0.0640000
        k(   28) = (   0.1998407   0.1998407   0.0000000), wk =   0.0320000
        k(   29) = (   0.1998407   0.1998407   0.3108399), wk =   0.0640000
        k(   30) = (   0.1998407   0.1998407   0.6216797), wk =   0.0640000
        k(   31) = (   0.1998407   0.3996814   0.0000000), wk =   0.0640000
        k(   32) = (   0.1998407   0.3996814   0.3108399), wk =   0.1280000
        k(   33) = (   0.1998407   0.3996814   0.6216797), wk =   0.1280000
        k(   34) = (   0.3996814   0.3996814   0.0000000), wk =   0.0320000
        k(   35) = (   0.3996814   0.3996814   0.3108399), wk =   0.0640000
        k(   36) = (   0.3996814   0.3996814   0.6216797), wk =   0.0640000

[...]

     enthalpy old            =    -554.9645206428 Ry
     enthalpy new            =    -554.9648689313 Ry

     CASE: enthalpy_new < enthalpy_old

[...]

     Total force =     0.002334     Total SCF correction =     0.000058

[...]

     Threshold (ethr) on eigenvalues was too large:
     Diagonalizing with lowered threshold

     Davidson diagonalization with overlap
     ethr =  6.79E-09,  avg # of iterations =  1.0

[...]

     Total force =     0.000264     Total SCF correction =     0.000037
     SCF correction compared to forces is large: reduce conv_thr to get better values

[...]

     number of scf cycles    =   4
     number of bfgs steps    =   3

     enthalpy old            =    -554.9650311693 Ry
     enthalpy new            =    -554.9650374040 Ry

     CASE: enthalpy_new < enthalpy_old

     new trust radius        =       0.0004184651 bohr
     new conv_thr            =       0.0000000100 Ry

     new unit-cell volume =    403.85948 a.u.^3 (    59.84580 Ang^3 )

[...]

ATOMIC_POSITIONS (crystal)
Mn0      0.000000000   0.000000000   0.000000000    0   0   0
Mn0      0.500000000   0.500000000   0.500000000    0   0   0
O1       0.306920430   0.306920430   0.000000000    1   1   0
O1      -0.306920430  -0.306920430   0.000000000    1   1   0
O1       0.806920430   0.193079570   0.500000000    1   1   0
O1       0.193079570   0.806920430   0.500000000    1   1   0

     NEW-OLD atomic charge density approx. for the potential
     NEW k-points:
        k(    1) = (   0.0000000   0.0000000   0.0000000), wk =   0.0080000
        k(    2) = (   0.0000000   0.0000000   0.3113141), wk =   0.0160000
        k(    3) = (   0.0000000   0.0000000   0.6226283), wk =   0.0160000
        k(    4) = (   0.0000000   0.1996884   0.0000000), wk =   0.0320000
        k(    5) = (   0.0000000   0.1996884   0.3113141), wk =   0.0640000
        k(    6) = (   0.0000000   0.1996884   0.6226283), wk =   0.0640000
        k(    7) = (   0.0000000   0.3993768   0.0000000), wk =   0.0320000
        k(    8) = (   0.0000000   0.3993768   0.3113141), wk =   0.0640000
        k(    9) = (   0.0000000   0.3993768   0.6226283), wk =   0.0640000
        k(   10) = (   0.1996884   0.1996884   0.0000000), wk =   0.0320000
        k(   11) = (   0.1996884   0.1996884   0.3113141), wk =   0.0640000
        k(   12) = (   0.1996884   0.1996884   0.6226283), wk =   0.0640000
        k(   13) = (   0.1996884   0.3993768   0.0000000), wk =   0.0640000
        k(   14) = (   0.1996884   0.3993768   0.3113141), wk =   0.1280000
        k(   15) = (   0.1996884   0.3993768   0.6226283), wk =   0.1280000
        k(   16) = (   0.3993768   0.3993768   0.0000000), wk =   0.0320000
        k(   17) = (   0.3993768   0.3993768   0.3113141), wk =   0.0640000
        k(   18) = (   0.3993768   0.3993768   0.6226283), wk =   0.0640000
        k(   19) = (   0.0000000   0.0000000   0.0000000), wk =   0.0080000
        k(   20) = (   0.0000000   0.0000000   0.3113141), wk =   0.0160000
        k(   21) = (   0.0000000   0.0000000   0.6226283), wk =   0.0160000
        k(   22) = (   0.0000000   0.1996884   0.0000000), wk =   0.0320000
        k(   23) = (   0.0000000   0.1996884   0.3113141), wk =   0.0640000
        k(   24) = (   0.0000000   0.1996884   0.6226283), wk =   0.0640000
        k(   25) = (   0.0000000   0.3993768   0.0000000), wk =   0.0320000
        k(   26) = (   0.0000000   0.3993768   0.3113141), wk =   0.0640000
        k(   27) = (   0.0000000   0.3993768   0.6226283), wk =   0.0640000
        k(   28) = (   0.1996884   0.1996884   0.0000000), wk =   0.0320000
        k(   29) = (   0.1996884   0.1996884   0.3113141), wk =   0.0640000
        k(   30) = (   0.1996884   0.1996884   0.6226283), wk =   0.0640000
        k(   31) = (   0.1996884   0.3993768   0.0000000), wk =   0.0640000
        k(   32) = (   0.1996884   0.3993768   0.3113141), wk =   0.1280000
        k(   33) = (   0.1996884   0.3993768   0.6226283), wk =   0.1280000
        k(   34) = (   0.3993768   0.3993768   0.0000000), wk =   0.0320000
        k(   35) = (   0.3993768   0.3993768   0.3113141), wk =   0.0640000
        k(   36) = (   0.3993768   0.3993768   0.6226283), wk =   0.0640000

[...]

     Threshold (ethr) on eigenvalues was too large:
     Diagonalizing with lowered threshold

     Davidson diagonalization with overlap
     ethr =  5.40E-11,  avg # of iterations =  2.1

[...]

     Volume is kept fixed: isostatic pressure set to zero

     bfgs converged in   5 scf cycles and   4 bfgs steps
     (criteria: energy < 0.10E-03, force < 0.10E-02, cell < 0.50E+00)

     End of BFGS Geometry Optimization

     Final enthalpy =    -554.9650377089 Ry
Begin final coordinates
     new unit-cell volume =    403.85948 a.u.^3 (    59.84580 Ang^3 )

CELL_PARAMETERS (alat=  8.55752677)
   1.001560459   0.000000000   0.000000000
   0.000000000   1.001560459   0.000000000
   0.000000000   0.000000000   0.642437884

ATOMIC_POSITIONS (crystal)
Mn0      0.000000000   0.000000000   0.000000000    0   0   0
Mn0      0.500000000   0.500000000   0.500000000    0   0   0
O1       0.306920430   0.306920430   0.000000000    1   1   0
O1      -0.306920430  -0.306920430   0.000000000    1   1   0
O1       0.806920430   0.193079570   0.500000000    1   1   0
O1       0.193079570   0.806920430   0.500000000    1   1   0
End final coordinates

     A final scf calculation at the relaxed structure.
     The G-vectors are recalculated for the final unit cell
     Results may differ from those at the preceding step.

     bravais-lattice index     =            0
     lattice parameter (alat)  =       8.5575  a.u.
     unit-cell volume          =     403.8595 (a.u.)^3
     number of atoms/cell      =            6
     number of atomic types    =            2
     number of electrons       =        54.00
     number of Kohn-Sham states=           78
     kinetic-energy cutoff     =      40.0000  Ry
     charge density cutoff     =     500.0000  Ry
     convergence threshold     =      1.0E-08
     mixing beta               =       0.3000
     number of iterations used =            8  plain     mixing
     Exchange-correlation      = SLA  PW   PBE  PBE ( 1 4 3 4 0)
     EXX-fraction              =        0.00

     celldm(1)=   8.557527  celldm(2)=   0.000000  celldm(3)=   0.000000
     celldm(4)=   0.000000  celldm(5)=   0.000000  celldm(6)=   0.000000

     crystal axes: (cart. coord. in units of alat)
               a(1) = (   1.001560   0.000000   0.000000 )
               a(2) = (   0.000000   1.001560   0.000000 )
               a(3) = (   0.000000   0.000000   0.642438 )

     reciprocal axes: (cart. coord. in units 2 pi/alat)
               b(1) = (  0.998442  0.000000  0.000000 )
               b(2) = (  0.000000  0.998442  0.000000 )
               b(3) = (  0.000000  0.000000  1.556571 )

     PseudoPot. # 1 for Mn read from file:
     /home/camp/zhonxu/pseudo/mn_pbe_v1.uspp.F.UPF
     MD5 check sum: 5fd7c7b5c956fd19902447332617373a
     Pseudo is Ultrasoft + core correction, Zval = 15.0
     Generated by new atomic code, or converted to UPF format
     Using radial grid of  859 points,  6 beta functions with:
                l(1) =   0
                l(2) =   0
                l(3) =   1
                l(4) =   1
                l(5) =   2
                l(6) =   2
     Q(r) pseudized with  6 coefficients,  rinner =    1.150   1.150   1.150
                                                       1.150   1.150

     PseudoPot. # 2 for O  read from file:
     /home/camp/zhonxu/pseudo/o_pbe_v1.01.uspp.F.UPF
     MD5 check sum: 2bcb18d16ea4b960afae9ec6d52f22d2
     Pseudo is Ultrasoft + core correction, Zval =  6.0
     Generated by new atomic code, or converted to UPF format
     Using radial grid of  737 points,  5 beta functions with:
                l(1) =   0
                l(2) =   0
                l(3) =   1
                l(4) =   1
                l(5) =   2
     Q(r) pseudized with  8 coefficients,  rinner =    0.900   0.900   0.900
                                                       0.900   0.900

     atomic species   valence    mass     pseudopotential
        Mn0           15.00    54.93800     Mn( 1.00)
        O1             6.00    15.99940     O ( 1.00)

     Starting magnetic structure
     atomic species   magnetization
        Mn0          0.600
        O1           0.000

     16 Sym. Ops., with inversion, found ( 8 have fractional translation)

   Cartesian axes

     site n.     atom                  positions (alat units)
         1           Mn0 tau(   1) = (   0.0000000   0.0000000   0.0000000  )
         2           Mn0 tau(   2) = (   0.5007802   0.5007802   0.3212189  )
         3           O1  tau(   3) = (   0.3073994   0.3073994   0.0000000  )
         4           O1  tau(   4) = (  -0.3073994  -0.3073994   0.0000000  )
         5           O1  tau(   5) = (   0.8081796   0.1933809   0.3212189  )
         6           O1  tau(   6) = (   0.1933809   0.8081796   0.3212189  )

     number of k points=    36  Methfessel-Paxton smearing, width (Ry)=  0.0100
                       cart. coord. in units 2pi/alat
        k(    1) = (   0.0000000   0.0000000   0.0000000), wk =   0.0080000
        k(    2) = (   0.0000000   0.0000000   0.3113141), wk =   0.0160000
        k(    3) = (   0.0000000   0.0000000   0.6226283), wk =   0.0160000
        k(    4) = (   0.0000000   0.1996884   0.0000000), wk =   0.0320000
        k(    5) = (   0.0000000   0.1996884   0.3113141), wk =   0.0640000
        k(    6) = (   0.0000000   0.1996884   0.6226283), wk =   0.0640000
        k(    7) = (   0.0000000   0.3993768   0.0000000), wk =   0.0320000
        k(    8) = (   0.0000000   0.3993768   0.3113141), wk =   0.0640000
        k(    9) = (   0.0000000   0.3993768   0.6226283), wk =   0.0640000
        k(   10) = (   0.1996884   0.1996884   0.0000000), wk =   0.0320000
        k(   11) = (   0.1996884   0.1996884   0.3113141), wk =   0.0640000
        k(   12) = (   0.1996884   0.1996884   0.6226283), wk =   0.0640000
        k(   13) = (   0.1996884   0.3993768   0.0000000), wk =   0.0640000
        k(   14) = (   0.1996884   0.3993768   0.3113141), wk =   0.1280000
        k(   15) = (   0.1996884   0.3993768   0.6226283), wk =   0.1280000
        k(   16) = (   0.3993768   0.3993768   0.0000000), wk =   0.0320000
        k(   17) = (   0.3993768   0.3993768   0.3113141), wk =   0.0640000
        k(   18) = (   0.3993768   0.3993768   0.6226283), wk =   0.0640000
        k(   19) = (   0.0000000   0.0000000   0.0000000), wk =   0.0080000
        k(   20) = (   0.0000000   0.0000000   0.3113141), wk =   0.0160000
        k(   21) = (   0.0000000   0.0000000   0.6226283), wk =   0.0160000
        k(   22) = (   0.0000000   0.1996884   0.0000000), wk =   0.0320000
        k(   23) = (   0.0000000   0.1996884   0.3113141), wk =   0.0640000
        k(   24) = (   0.0000000   0.1996884   0.6226283), wk =   0.0640000
        k(   25) = (   0.0000000   0.3993768   0.0000000), wk =   0.0320000
        k(   26) = (   0.0000000   0.3993768   0.3113141), wk =   0.0640000
        k(   27) = (   0.0000000   0.3993768   0.6226283), wk =   0.0640000
        k(   28) = (   0.1996884   0.1996884   0.0000000), wk =   0.0320000
        k(   29) = (   0.1996884   0.1996884   0.3113141), wk =   0.0640000
        k(   30) = (   0.1996884   0.1996884   0.6226283), wk =   0.0640000
        k(   31) = (   0.1996884   0.3993768   0.0000000), wk =   0.0640000
        k(   32) = (   0.1996884   0.3993768   0.3113141), wk =   0.1280000
        k(   33) = (   0.1996884   0.3993768   0.6226283), wk =   0.1280000
        k(   34) = (   0.3993768   0.3993768   0.0000000), wk =   0.0320000
        k(   35) = (   0.3993768   0.3993768   0.3113141), wk =   0.0640000
        k(   36) = (   0.3993768   0.3993768   0.6226283), wk =   0.0640000

     Largest allocated arrays     est. size (Mb)     dimensions
     Largest temporary arrays     est. size (Mb)     dimensions

     Check: negative/imaginary core charge=   -0.000059    0.000000

     Initial potential from superposition of free atoms

     starting charge   51.99998, renormalised to   54.00000
     Starting wfc are   42 randomized atomic wfcs

     Self-consistent Calculation

[...]

     total energy              =    -554.96498709 Ry
     Harris-Foulkes estimate   =    -554.96498492 Ry
     estimated scf accuracy    <       0.00000002 Ry

[...]

     iteration # 14     ecut=    40.00 Ry     beta=0.30
     Davidson diagonalization with overlap
     ethr =  3.28E-11,  avg # of iterations =  2.0

     End of self-consistent calculation

 ------ SPIN UP ------------

[...]

 ------ SPIN DOWN ----------

[...]

          k = 0.3994 0.3994 0.6226 (  1713 PWs)   bands (ev):

   -69.1873 -69.1872 -38.1045 -38.1042 -37.9437 -37.9436 -37.8385 -37.8384
    -8.3492  -8.2723  -8.1013  -8.0976   3.4481   3.5873   3.9590   3.9746
     4.9807   5.1201   5.8071   5.8683   7.4883   7.6743   7.7853   8.1656
    10.3947  10.6901  10.7311  10.7732  11.0833  11.3860  12.0923  12.6893
    12.7209  13.3167  21.1075  21.5140  22.5629  22.9882  24.3458  24.5020
    25.2932  25.4645  26.9486  27.0742  28.4084  28.8046  31.1022  32.7076
    33.2919  33.7709  34.0784  34.9523  38.5294  38.6921  39.0232  39.8009
    41.6434  42.0266  42.9206  43.7863  43.9534  44.2816  44.8470  45.5359
    45.5398  46.5928  48.0603  48.5872  48.6500  49.5673  50.3069  51.0278
    51.3839  51.4342  51.6348  52.2526  53.8011  54.2976

     the Fermi energy is     9.4107 ev

!    total energy              =    -554.96498919 Ry
     Harris-Foulkes estimate   =    -554.96498710 Ry
     estimated scf accuracy    <          8.4E-09 Ry

     The total energy is the sum of the following terms:

     one-electron contribution =    -287.13918902 Ry
     hartree contribution      =     168.90129518 Ry
     xc contribution           =     -80.80006999 Ry
     ewald contribution        =    -355.92737582 Ry
     smearing contrib. (-TS)   =       0.00035045 Ry

     total magnetization       =     6.00 Bohr mag/cell
     absolute magnetization    =     6.33 Bohr mag/cell

     convergence has been achieved in  14 iterations

     Forces acting on atoms (Ry/au):

     atom    1 type  1   force =     0.00000000    0.00000000    0.00000000
     atom    2 type  1   force =     0.00000000    0.00000000    0.00000000
     atom    3 type  2   force =     0.00003305    0.00003305   -0.00000000
     atom    4 type  2   force =    -0.00003305   -0.00003305   -0.00000000
     atom    5 type  2   force =     0.00003305   -0.00003305    0.00000000
     atom    6 type  2   force =    -0.00003305    0.00003305    0.00000000

     Total force =     0.000093     Total SCF correction =     0.000044
     SCF correction compared to forces is large: reduce conv_thr to get better values

     entering subroutine stress ...

          total   stress  (Ry/bohr**3)                   (kbar)     P= -114.19
  -0.00077624   0.00000000   0.00000000       -114.19      0.00      0.00
   0.00000000  -0.00077624   0.00000000          0.00   -114.19      0.00
   0.00000000   0.00000000  -0.00077623          0.00      0.00   -114.19

     General routines

     Parallel routines

   This run was terminated on:  15:29:42  24Jan2014

   JOB DONE.
Running PBS batch system epilogue script
Job id: 251941.audhumbla.fysik.dtu.dk
Username: zhonxu
Groupname: campgst
Jobname: MnO2/fine-EOS/ferro/MnO2-v-1.05
Sessionid: 22285
Queuename: verylong
Accounting:
This job has allocated the following 4 nodes:
q073 q073 q073 q073
Finished epilogue job 251941.audhumbla.fysik.dtu.dk for zhonxu