     Program PWSCF v.5.0.2 (svn rev. 9656) starts on 16May2014 at 16:22: 7

     Current dimensions of program PWSCF are:
     Max number of different atomic species (ntypx) = 10
     Max number of k-points (npk) =  40000
     Max angular momentum in pseudopotentials (lmaxx) =  3
     Reading input from pwscf.in
Warning: card &CELL ignored
Warning: card / ignored

     Subspace diagonalization in iterative solution of the eigenvalue problem:
     a serial algorithm will be used

     bravais-lattice index     =            0
     lattice parameter (alat)  =      10.3179  a.u.
     unit-cell volume          =    6964.3238 (a.u.)^3
     number of atoms/cell      =           33
     number of atomic types    =            3
     number of electrons       =       237.00
     number of Kohn-Sham states=          355
     kinetic-energy cutoff     =      40.0000  Ry
     charge density cutoff     =     500.0000  Ry
     convergence threshold     =      1.0E-06
     mixing beta               =       0.3000
     number of iterations used =            8  plain     mixing
     Exchange-correlation      = SLA  PW   PBE  PBE ( 1 4 3 4 0)
     EXX-fraction              =        0.00
     nstep                     =           50

     celldm(1)=  10.317905  celldm(2)=   0.000000  celldm(3)=   0.000000
     celldm(4)=   0.000000  celldm(5)=   0.000000  celldm(6)=   0.000000

     crystal axes: (cart. coord. in units of alat)
               a(1) = (   1.000000   0.000000   0.000000 )
               a(2) = (   0.000000   1.282117   0.000000 )
               a(3) = (   0.000000   0.000000   4.945120 )

     reciprocal axes: (cart. coord. in units 2 pi/alat)
               b(1) = (  1.000000  0.000000  0.000000 )
               b(2) = (  0.000000  0.779960  0.000000 )
               b(3) = (  0.000000  0.000000  0.202220 )

     PseudoPot. # 1 for O  read from file:
     /home/camp/zhonxu/pseudo/o_pbe_v1.01.uspp.F.UPF
     MD5 check sum: 2bcb18d16ea4b960afae9ec6d52f22d2
     Pseudo is Ultrasoft + core correction, Zval =  6.0
     Generated by new atomic code, or converted to UPF format
     Using radial grid of  737 points,  5 beta functions with:
                l(1) =   0
                l(2) =   0
                l(3) =   1
                l(4) =   1
                l(5) =   2
     Q(r) pseudized with  8 coefficients,  rinner =    0.900   0.900   0.900
                                                       0.900   0.900

     PseudoPot. # 2 for Mo read from file:
     /home/camp/zhonxu/pseudo/mo_pbe_v1.uspp.F.UPF
     MD5 check sum: 30c4dcd161f5d35cd49bb5239c51a633
     Pseudo is Ultrasoft + core correction, Zval = 14.0
     Generated by new atomic code, or converted to UPF format
     Using radial grid of  889 points,  6 beta functions with:
                l(1) =   0
                l(2) =   0
                l(3) =   1
                l(4) =   1
                l(5) =   2
                l(6) =   2
     Q(r) pseudized with  6 coefficients,  rinner =    1.000   1.000   1.000
                                                       1.000   1.000

     PseudoPot. # 3 for H  read from file:
     /home/camp/zhonxu/pseudo/h_pbe_v1.uspp.F.UPF
     MD5 check sum: 3408e3ff4ec8b0a4e358431e7e038a48
     Pseudo is Ultrasoft, Zval =  1.0
     Generated by new atomic code, or converted to UPF format
     Using radial grid of  615 points,  2 beta functions with:
                l(1) =   0
                l(2) =   0
     Q(r) pseudized with  8 coefficients,  rinner =    0.700

     atomic species   valence    mass     pseudopotential
        O0             6.00    15.99940     O ( 1.00)
        Mo1           14.00    95.94000     Mo( 1.00)
        H2             1.00     1.00794     H ( 1.00)

     No symmetry found

   Cartesian axes

     site n.     atom                  positions (alat units)
         1           O0  tau(   1) = (   0.0000000   0.0000000   1.8465574  )
         2           O0  tau(   2) = (   0.0000000   0.6410583   1.8808271  )
         3           Mo1 tau(   3) = (   0.2500000   0.6410583   2.1650231  )
         4           Mo1 tau(   4) = (   0.0000000   0.0000000   2.2064633  )
         5           O0  tau(   5) = (   0.2500000   1.0000510   2.1927158  )
         6           O0  tau(   6) = (   0.2500000   0.2820657   2.1921224  )
         7           O0  tau(   7) = (   0.0000000   0.6410583   2.4520379  )
         8           O0  tau(   8) = (   0.0000000   0.0000000   2.5658746  )
         9           Mo1 tau(   9) = (   0.2500000   0.0000000   2.8596642  )
        10           Mo1 tau(  10) = (   0.0000000   0.6410583   2.7884050  )
        11           O0  tau(  11) = (   0.2500000   0.9231240   2.8369661  )
        12           O0  tau(  12) = (   0.2500000   0.3589927   2.8372628  )
        13           O0  tau(  13) = (   0.0000000   0.0000000   3.1104807  )
        14           O0  tau(  14) = (   0.5000000   0.0000000   1.8465574  )
        15           O0  tau(  15) = (   0.5000000   0.6410583   1.8808271  )
        16           Mo1 tau(  16) = (   0.7500000   0.6410583   2.1650231  )
        17           Mo1 tau(  17) = (   0.5000000   0.0000000   2.2064633  )
        18           O0  tau(  18) = (   0.7500000   1.0000510   2.1927158  )
        19           O0  tau(  19) = (   0.7500000   0.2820657   2.1921224  )
        20           O0  tau(  20) = (   0.5000000   0.6410583   2.4520379  )
        21           O0  tau(  21) = (   0.5000000   0.0000000   2.5658746  )
        22           Mo1 tau(  22) = (   0.7500000   0.0000000   2.8596642  )
        23           Mo1 tau(  23) = (   0.5000000   0.6410583   2.7884050  )
        24           O0  tau(  24) = (   0.7500000   0.9231240   2.8369661  )
        25           O0  tau(  25) = (   0.7500000   0.3589927   2.8372628  )
        26           O0  tau(  26) = (   0.5000000   0.0000000   3.1104807  )
        27           H2  tau(  27) = (  -0.0004900   0.7868222   1.7746059  )
        28           H2  tau(  28) = (   0.4995100   0.7868222   1.7746059  )
        29           H2  tau(  29) = (   0.1657500   0.0265270   1.7749026  )
        30           H2  tau(  30) = (   0.6657500   0.0265270   1.7749026  )
        31           O0  tau(  31) = (   0.5000000   0.6410583   3.1546901  )
        32           O0  tau(  32) = (   0.5000000   0.4276885   3.2803456  )
        33           H2  tau(  33) = (   0.5000000   0.4819220   3.4537710  )

     number of k points=    10  Methfessel-Paxton smearing, width (Ry)=  0.0100
                       cart. coord. in units 2pi/alat
        k(    1) = (   0.0000000   0.0000000   0.0000000), wk =   0.1250000
        k(    2) = (   0.0000000   0.1949901   0.0000000), wk =   0.2500000
        k(    3) = (   0.0000000  -0.3899801   0.0000000), wk =   0.1250000
        k(    4) = (   0.2500000   0.0000000   0.0000000), wk =   0.2500000
        k(    5) = (   0.2500000   0.1949901   0.0000000), wk =   0.2500000
        k(    6) = (   0.2500000  -0.3899801   0.0000000), wk =   0.2500000
        k(    7) = (  -0.5000000   0.0000000   0.0000000), wk =   0.1250000
        k(    8) = (  -0.5000000   0.1949901   0.0000000), wk =   0.2500000
        k(    9) = (  -0.5000000  -0.3899801   0.0000000), wk =   0.1250000
        k(   10) = (  -0.2500000   0.1949901   0.0000000), wk =   0.2500000

     Largest allocated arrays     est. size (Mb)     dimensions
     Largest temporary arrays     est. size (Mb)     dimensions

     Check: negative/imaginary core charge=   -0.000003    0.000000

     Initial potential from superposition of free atoms
     Check: negative starting charge=   -0.002196

     starting charge  236.99142, renormalised to  237.00000

     negative rho (up, down):  0.220E-02 0.000E+00
     Starting wfc are  189 randomized atomic wfcs

     Self-consistent Calculation

     iteration #  1     ecut=    40.00 Ry     beta=0.30
     Davidson diagonalization with overlap
     ethr =  1.00E-02,  avg # of iterations =  6.0

     negative rho (up, down):  0.228E-02 0.000E+00

     total energy              =   -1763.92861498 Ry
     Harris-Foulkes estimate   =   -1767.62139453 Ry
     estimated scf accuracy    <       8.57140375 Ry

[...]

     End of self-consistent calculation

          k = 0.0000 0.0000 0.0000 ( 29769 PWs)   bands (ev):

   -62.1103 -62.0429 -61.9890 -61.9354 -61.8928 -61.8674 -61.8177 -61.7510
   -36.8056 -36.4893 -36.4850 -36.4452 -36.4393 -36.4062 -36.3244 -36.3205
   -36.1910 -36.1681 -36.0863 -36.0580 -36.0449 -36.0433 -36.0200 -36.0133
   -35.9034 -35.8805 -35.8404 -35.8342 -35.7141 -35.4533 -35.4052 -35.3508
   -23.9036 -20.5198 -20.1778 -19.6500 -19.4527 -19.3562 -19.1175 -19.0553
   -18.6656 -18.6530 -18.6410 -18.6283 -18.4991 -18.4251 -18.3346 -18.2650
   -18.2560 -17.6559 -17.4222 -15.9570  -8.6365  -8.4520  -8.2615  -7.9590
    -7.8634  -7.8042  -7.3421  -7.2646  -6.9575  -6.8955  -6.7156  -6.5765
    -6.5036  -6.4574  -6.4298  -6.2610  -6.2366  -6.0089  -5.8809  -5.8446
    -5.8277  -5.7258  -5.7061  -5.5134  -5.2942  -5.2506  -4.9276  -4.8953
    -4.7453  -4.6564  -4.6282  -4.5027  -4.4703  -4.2688  -4.2335  -4.1623
    -4.0836  -3.9377  -3.8195  -3.7329  -3.7137  -3.6142  -3.4639  -3.4165
    -3.2512  -3.2463  -3.0123  -2.8903  -2.8000  -2.7327  -2.7128  -2.6871
    -2.6363  -2.4404  -2.3617  -2.2164  -2.1258  -2.0509  -1.9870  -1.8287
    -1.6179  -0.6596  -0.1707  -0.0064   0.3730   0.4570   0.5666   0.7338
     0.9238   1.0082   1.1220   1.1705   1.4475   1.6768   1.6922   1.7543
     1.8894   2.3391   2.4267   3.0437   3.2527   3.3274   3.4573   3.4604
     3.5409   3.7718   4.0560   4.2120   4.2878   4.4258   4.6064   4.6137
     4.6965   4.8675   4.8729   4.9256   5.1128   5.2983   5.3517   5.4450
     5.4555   5.5917   5.7421   5.9770   6.3682   6.5279   6.5735   7.0433
     7.1001   7.2206   7.4338   7.5723   7.5934   7.6450   7.9041   7.9855
     8.1424   8.1871   8.2542   8.6422   8.8387   8.8896   9.1064   9.1124
     9.1309   9.3342   9.3831   9.3917   9.4842   9.4991   9.7320   9.7803
     9.9482   9.9915  10.0545  10.1050  10.1826  10.2423  10.3123  10.3784
    10.5973  10.7063  10.7520  10.8831  10.9035  11.1181  11.2175  11.2898
    11.3244  11.5694  11.6857  11.7096  11.8427  11.9105  11.9967  12.0241
    12.0947  12.1859  12.2101  12.3901  12.4699  12.5031  12.5432  12.6266
    12.6648  12.6825  12.7649  12.7713  12.8249  12.8875  13.0379  13.0709
    13.1677  13.2418  13.3202  13.3857  13.4494  13.5658  13.5803  13.7022
    13.7643  13.7656  13.8580  14.0143  14.0329  14.0734  14.1913  14.1924
    14.2736  14.3133  14.4568  14.5862  14.6447  14.7307  14.7672  14.9279
    15.0028  15.0729  15.1937  15.1946  15.3018  15.4550  15.4939  15.6453
    15.7543  15.8058  15.9219  15.9489  16.0273  16.0581  16.1352  16.1505
    16.2166  16.2414  16.3545  16.3743  16.4529  16.5617  16.5925  16.6283
    16.6984  16.7538  16.7735  16.8386  16.8938  16.9021  16.9502  17.0118
    17.1055  17.1347  17.3754  17.5285  17.6511  17.8000  17.8637  17.8755
    18.0099  18.0132  18.1710  18.2853  18.3393  18.4345  18.5018  18.5861
    18.6081  18.7222  18.8241  18.8493  18.8756  19.0251  19.1489  19.1850
[...]
     atom   22 type  2   force =    -0.00928880   -0.00015336    0.00600041
     atom   23 type  2   force =    -0.00004038    0.00243689    0.12539128
     atom   24 type  1   force =     0.01630480   -0.04151759   -0.02479943
     atom   25 type  1   force =     0.01730561    0.04143121   -0.02563624
     atom   26 type  1   force =    -0.00007546   -0.01821697   -0.01324676
     atom   27 type  3   force =    -0.00000281   -0.00015623    0.00004803
     atom   28 type  3   force =     0.00000340    0.00023267    0.00035548
     atom   29 type  3   force =     0.00158252   -0.00048032    0.00061975
     atom   30 type  3   force =     0.00103157   -0.00040184    0.00058526
     atom   31 type  1   force =     0.00011168    0.09141088   -0.04828269
     atom   32 type  1   force =     0.00000854   -0.07283497    0.06615485
     atom   33 type  3   force =    -0.00000678   -0.00129578   -0.00802716

     Total force =     0.082293     Total SCF correction =     0.000444

     BFGS Geometry Optimization

     number of scf cycles    =   1
     number of bfgs steps    =   0

     energy   new            =   -1765.6748251475 Ry

     new trust radius        =       0.0661548519 bohr
     new conv_thr            =       0.0000010000 Ry

ATOMIC_POSITIONS (crystal)
O0       0.000000000   0.000000000   0.373410000    0   0   0
O0       0.000000000   0.500000000   0.380340000    0   0   0
Mo1      0.250000000   0.500000000   0.437810000    0   0   0
Mo1      0.000000000   0.000000000   0.446190000    0   0   0
O0       0.250000000   0.780000000   0.443410000    0   0   0
O0       0.250000000   0.220000000   0.443290000    0   0   0
O0       0.000000000   0.500000000   0.495850000    0   0   0
O0       0.000000000   0.000000000   0.518870000    0   0   0
Mo1      0.250000000   0.000000000   0.578280000    0   0   0
Mo1      0.000000000   0.500000000   0.563870000    0   0   0
O0       0.250000000   0.720000000   0.573690000    0   0   0
O0       0.250000000   0.280000000   0.573750000    0   0   0
O0       0.000000000   0.000000000   0.629000000    0   0   0
O0       0.500000000   0.000000000   0.373410000    0   0   0
O0       0.500000000   0.500000000   0.380340000    0   0   0
Mo1      0.750000000   0.500000000   0.437810000    0   0   0
Mo1      0.500000000   0.000000000   0.446190000    0   0   0
O0       0.750000000   0.780000000   0.443410000    0   0   0
O0       0.750000000   0.220000000   0.443290000    0   0   0
O0       0.500000000   0.500000000   0.495850000    0   0   0
O0       0.500000000   0.000000000   0.518870000    0   0   0
Mo1      0.750000000   0.000000000   0.578280000    0   0   0
Mo1      0.500000000   0.500000000   0.563870000    0   0   0
O0       0.750000000   0.720000000   0.573690000    0   0   0
O0       0.750000000   0.280000000   0.573750000    0   0   0
O0       0.500000000   0.000000000   0.629000000    0   0   0
H2      -0.000490000   0.613690000   0.358860000    0   0   0
H2       0.499510000   0.613690000   0.358860000    0   0   0
H2       0.165750000   0.020690000   0.358920000    0   0   0
H2       0.665750000   0.020690000   0.358920000    0   0   0
O0       0.500010824   0.500000000   0.636993713    1   0   1
O0       0.500000828   0.333580000   0.664646562    1   0   1
H2       0.499999343   0.375880000   0.698262676    1   0   1

     Check: negative starting charge=   -0.002196
     NEW-OLD atomic charge density approx. for the potential

     Check: negative/imaginary core charge=   -0.000003    0.000000
     Check: negative starting charge=   -0.002197

[...]

     energy   old            =   -1765.6748251475 Ry
     energy   new            =   -1765.6769608016 Ry

     CASE: energy  _new < energy  _old

[...]

     Threshold (ethr) on eigenvalues was too large:
     Diagonalizing with lowered threshold

     Davidson diagonalization with overlap
     ethr =  2.41E-08,  avg # of iterations =  1.0

[...]

     number of scf cycles    =   8
     number of bfgs steps    =   7

     energy   old            =   -1765.6798485079 Ry
     energy   new            =   -1765.6799318562 Ry

     CASE: energy  _new < energy  _old

     new trust radius        =       0.0025788296 bohr
     new conv_thr            =       0.0000000100 Ry

ATOMIC_POSITIONS (crystal)
O0       0.000000000   0.000000000   0.373410000    0   0   0
O0       0.000000000   0.500000000   0.380340000    0   0   0
Mo1      0.250000000   0.500000000   0.437810000    0   0   0
Mo1      0.000000000   0.000000000   0.446190000    0   0   0
O0       0.250000000   0.780000000   0.443410000    0   0   0
O0       0.250000000   0.220000000   0.443290000    0   0   0
O0       0.000000000   0.500000000   0.495850000    0   0   0
O0       0.000000000   0.000000000   0.518870000    0   0   0
Mo1      0.250000000   0.000000000   0.578280000    0   0   0
Mo1      0.000000000   0.500000000   0.563870000    0   0   0
O0       0.250000000   0.720000000   0.573690000    0   0   0
O0       0.250000000   0.280000000   0.573750000    0   0   0
O0       0.000000000   0.000000000   0.629000000    0   0   0
O0       0.500000000   0.000000000   0.373410000    0   0   0
O0       0.500000000   0.500000000   0.380340000    0   0   0
Mo1      0.750000000   0.500000000   0.437810000    0   0   0
Mo1      0.500000000   0.000000000   0.446190000    0   0   0
O0       0.750000000   0.780000000   0.443410000    0   0   0
O0       0.750000000   0.220000000   0.443290000    0   0   0
O0       0.500000000   0.500000000   0.495850000    0   0   0
O0       0.500000000   0.000000000   0.518870000    0   0   0
Mo1      0.750000000   0.000000000   0.578280000    0   0   0
Mo1      0.500000000   0.500000000   0.563870000    0   0   0
O0       0.750000000   0.720000000   0.573690000    0   0   0
O0       0.750000000   0.280000000   0.573750000    0   0   0
O0       0.500000000   0.000000000   0.629000000    0   0   0
H2      -0.000490000   0.613690000   0.358860000    0   0   0
H2       0.499510000   0.613690000   0.358860000    0   0   0
H2       0.165750000   0.020690000   0.358920000    0   0   0
H2       0.665750000   0.020690000   0.358920000    0   0   0
O0       0.500213762   0.500000000   0.638051112    1   0   1
O0       0.499940517   0.333580000   0.666945173    1   0   1
H2       0.500006261   0.375880000   0.701695906    1   0   1

     Check: negative starting charge=   -0.002183
     NEW-OLD atomic charge density approx. for the potential

     Check: negative/imaginary core charge=   -0.000003    0.000000
     Check: negative starting charge=   -0.002183

[...]

     Self-consistent Calculation

[...]

     Threshold (ethr) on eigenvalues was too large:
     Diagonalizing with lowered threshold

     Davidson diagonalization with overlap
     ethr =  2.22E-09,  avg # of iterations =  1.0

[...]

     total energy              =   -1765.67993442 Ry
     Harris-Foulkes estimate   =   -1765.67993442 Ry
     estimated scf accuracy    <       0.00000003 Ry

     iteration # 10     ecut=    40.00 Ry     beta=0.30
     Davidson diagonalization with overlap
     ethr =  1.00E-11,  avg # of iterations =  1.0

     negative rho (up, down):  0.338E-02 0.000E+00

     End of self-consistent calculation

[...]

          k = 0.2500-0.3900 0.0000 ( 29726 PWs)   bands (ev):

[...]

          k =-0.2500 0.1950 0.0000 ( 29746 PWs)   bands (ev):

   -62.1326 -62.0839 -62.0469 -61.9590 -61.9483 -61.8879 -61.8749 -61.8056
   -36.6963 -36.5222 -36.4594 -36.4209 -36.4037 -36.3558 -36.3392 -36.2737
   -36.1915 -36.1828 -36.1138 -36.1036 -36.0739 -36.0701 -36.0684 -36.0383
   -35.9737 -35.9476 -35.9332 -35.9015 -35.8957 -35.6538 -35.6038 -35.5483
   -23.0295 -20.4649 -20.2243 -19.5334 -19.3338 -19.2244 -19.2003 -19.0099
   -18.9440 -18.9272 -18.7511 -18.6079 -18.4929 -18.4822 -18.3244 -18.2979
   -18.2625 -17.7401 -17.5920 -16.1326  -8.4820  -8.3700  -8.2055  -7.6699
    -7.3377  -7.2585  -7.2225  -7.1786  -7.0343  -6.9948  -6.9089  -6.8144
    -6.6594  -6.5396  -6.4922  -6.2690  -6.0633  -5.9221  -5.8225  -5.7484
    -5.6469  -5.6034  -5.4930  -5.4510  -5.2952  -5.1135  -5.0384  -5.0104
    -4.9581  -4.8274  -4.6716  -4.6072  -4.4384  -4.3765  -4.2023  -4.1223
    -4.1013  -3.9964  -3.9165  -3.8936  -3.8033  -3.7714  -3.7103  -3.6867
    -3.5222  -3.3875  -3.2607  -3.1408  -2.9911  -2.9521  -2.9041  -2.8225
    -2.6958  -2.6298  -2.4236  -2.3260  -2.1380  -1.7924  -1.2221  -1.1122
    -0.9881  -0.8661  -0.2289  -0.0147   0.0527   0.1663   0.4974   0.5922
     0.9914   1.1440   1.1877   1.3689   1.4718   1.5537   1.7424   1.7855
     1.8405   2.0428   2.1346   2.3283   2.3613   2.4594   2.5732   2.8203
     3.6336   3.7884   3.8131   4.0159   4.0456   4.2851   4.3707   4.4145
     4.6799   4.8383   4.8968   5.0033   5.1300   5.2223   5.3976   5.5691
     5.8736   5.9924   6.0734   6.2214   6.2990   6.3772   6.5033   6.5853
     6.7270   6.9813   7.0673   7.3056   7.3661   7.4375   7.7399   7.8002
     8.1120   8.2603   8.4223   8.4951   8.6692   8.7140   8.8691   8.9107
     9.0167   9.2079   9.2510   9.3390   9.5085   9.6077   9.6557   9.7248
     9.8249   9.9363   9.9876  10.0912  10.2617  10.4319  10.5134  10.6323
    10.6880  10.7484  10.8642  10.9376  11.0138  11.1567  11.2785  11.3318
    11.4330  11.6213  11.6705  11.8266  11.8798  11.9609  12.0166  12.1396
    12.1988  12.2768  12.3932  12.4058  12.4682  12.5798  12.6420  12.8216
    12.8568  12.9563  13.0131  13.1710  13.2093  13.2530  13.3444  13.4549
    13.5514  13.5789  13.6176  13.7185  13.7941  13.8674  13.9133  13.9468
    14.0233  14.0665  14.1217  14.2046  14.2838  14.3047  14.3701  14.4476
    14.4960  14.6024  14.6674  14.7590  14.8558  14.8941  14.9656  15.0916
    15.1455  15.2065  15.2795  15.3971  15.5159  15.5381  15.6389  15.6943
    15.7801  15.8632  15.9314  15.9926  16.0722  16.1399  16.2046  16.2927
    16.3880  16.4324  16.4650  16.5260  16.5635  16.6373  16.7035  16.7381
    16.8584  16.9581  17.0057  17.0505  17.1202  17.1636  17.2745  17.2925
    17.3155  17.3931  17.4988  17.6083  17.6779  17.7576  17.7876  17.9303
    18.0483  18.1503  18.1741  18.2321  18.3057  18.3999  18.4279  18.4896
    18.5781  18.6493  18.7659  18.8061  18.9112  18.9472  19.0483  19.0911
    19.1621  19.2270  19.3435  19.3978  19.4749  19.5676  19.6088  19.7080
    19.7671  19.9265  19.9757  20.0344  20.1220  20.1557  20.2070  20.2609
    20.3094  20.3692  20.4331  20.4816  20.5395  20.5496  20.6642  20.7173
    20.7749  20.8459  20.9028  20.9445  21.0086  21.0799  21.1533  21.2437
    21.3039  21.3533  21.4072  21.4476  21.4886  21.5588  21.6057  21.6497
    21.6843  21.7285  21.8139  21.8722  21.9436  21.9567  22.0146  22.0815
    22.1460  22.2271  22.2419

     the Fermi energy is     0.4454 ev

!    total energy              =   -1765.67993442 Ry
     Harris-Foulkes estimate   =   -1765.67993442 Ry
     estimated scf accuracy    <          2.4E-09 Ry

     The total energy is the sum of the following terms:

     one-electron contribution =  -22652.13209567 Ry
     hartree contribution      =   11355.22482458 Ry
     xc contribution           =    -301.50899738 Ry
     ewald contribution        =    9832.73699531 Ry
     smearing contrib. (-TS)   =      -0.00066126 Ry

     convergence has been achieved in  10 iterations

     Forces acting on atoms (Ry/au):

     negative rho (up, down):  0.338E-02 0.000E+00
     atom    1 type  1   force =    -0.00398853   -0.00529786   -0.00041071
     atom    2 type  1   force =    -0.00002911    0.01000569    0.00080285
     atom    3 type  2   force =    -0.01382192   -0.00688561   -0.00535523
     atom    4 type  2   force =     0.00034014    0.00524499   -0.00765432
     atom    5 type  1   force =     0.00189326    0.00069224    0.00120767
     atom    6 type  1   force =    -0.00053066   -0.00560968    0.00120647
     atom    7 type  1   force =     0.00030113    0.00131073    0.00167802
     atom    8 type  1   force =     0.00281423    0.00003967    0.00880748
     atom    9 type  2   force =     0.00529068    0.00078041    0.00794513
     atom   10 type  2   force =    -0.00005145    0.00066055    0.01518223
     atom   11 type  1   force =    -0.01592427   -0.04142226   -0.02505817
     atom   12 type  1   force =    -0.01810159    0.04047942   -0.02682291
     atom   13 type  1   force =    -0.00001444   -0.00035918   -0.00534834
     atom   14 type  1   force =    -0.00366674   -0.00515891   -0.00164702
     atom   15 type  1   force =    -0.00003519    0.01018418    0.00169671
     atom   16 type  2   force =     0.01317712   -0.00675667   -0.00539453
     atom   17 type  2   force =    -0.00009815    0.00416003   -0.00142363
     atom   18 type  1   force =     0.00135579    0.00049185    0.00114245
     atom   19 type  1   force =     0.00032359   -0.00581952    0.00128648
     atom   20 type  1   force =     0.00026261    0.00096117   -0.03947385
     atom   21 type  1   force =     0.00295159    0.00036939    0.00140640
     atom   22 type  2   force =    -0.00925895    0.00106901    0.00774587
     atom   23 type  2   force =    -0.00001981   -0.00268750    0.13304588
     atom   24 type  1   force =     0.01606427   -0.04149214   -0.02509425
     atom   25 type  1   force =     0.01824462    0.04031065   -0.02680457
     atom   26 type  1   force =    -0.00008990   -0.01633208   -0.01435634
     atom   27 type  3   force =    -0.00000733   -0.00013251    0.00007606
     atom   28 type  3   force =    -0.00000377    0.00017571    0.00029827
     atom   29 type  3   force =     0.00156747   -0.00050022    0.00061559
     atom   30 type  3   force =     0.00102173   -0.00042187    0.00058268
     atom   31 type  1   force =     0.00010206    0.04063728    0.00043394
     atom   32 type  1   force =    -0.00010783   -0.04132573    0.00035888
     atom   33 type  3   force =     0.00003935    0.02262877   -0.00067520

     Total force =     0.000893     Total SCF correction =     0.000048

     bfgs converged in   9 scf cycles and   8 bfgs steps
     (criteria: energy < 0.10E-03, force < 0.10E-02)

     End of BFGS Geometry Optimization

     Final energy   =   -1765.6799344204 Ry
Begin final coordinates

ATOMIC_POSITIONS (crystal)
O0       0.000000000   0.000000000   0.373410000    0   0   0
O0       0.000000000   0.500000000   0.380340000    0   0   0
Mo1      0.250000000   0.500000000   0.437810000    0   0   0
Mo1      0.000000000   0.000000000   0.446190000    0   0   0
O0       0.250000000   0.780000000   0.443410000    0   0   0
O0       0.250000000   0.220000000   0.443290000    0   0   0
O0       0.000000000   0.500000000   0.495850000    0   0   0
O0       0.000000000   0.000000000   0.518870000    0   0   0
Mo1      0.250000000   0.000000000   0.578280000    0   0   0
Mo1      0.000000000   0.500000000   0.563870000    0   0   0
O0       0.250000000   0.720000000   0.573690000    0   0   0
O0       0.250000000   0.280000000   0.573750000    0   0   0
O0       0.000000000   0.000000000   0.629000000    0   0   0
O0       0.500000000   0.000000000   0.373410000    0   0   0
O0       0.500000000   0.500000000   0.380340000    0   0   0
Mo1      0.750000000   0.500000000   0.437810000    0   0   0
Mo1      0.500000000   0.000000000   0.446190000    0   0   0
O0       0.750000000   0.780000000   0.443410000    0   0   0
O0       0.750000000   0.220000000   0.443290000    0   0   0
O0       0.500000000   0.500000000   0.495850000    0   0   0
O0       0.500000000   0.000000000   0.518870000    0   0   0
Mo1      0.750000000   0.000000000   0.578280000    0   0   0
Mo1      0.500000000   0.500000000   0.563870000    0   0   0
O0       0.750000000   0.720000000   0.573690000    0   0   0
O0       0.750000000   0.280000000   0.573750000    0   0   0
O0       0.500000000   0.000000000   0.629000000    0   0   0
H2      -0.000490000   0.613690000   0.358860000    0   0   0
H2       0.499510000   0.613690000   0.358860000    0   0   0
H2       0.165750000   0.020690000   0.358920000    0   0   0
H2       0.665750000   0.020690000   0.358920000    0   0   0
O0       0.500213762   0.500000000   0.638051112    1   0   1
O0       0.499940517   0.333580000   0.666945173    1   0   1
H2       0.500006261   0.375880000   0.701695906    1   0   1
End final coordinates

     General routines

     Parallel routines

   This run was terminated on:  23:32:36  16May2014

   JOB DONE.
Running PBS batch system epilogue script
Job id: 361511.audhumbla.fysik.dtu.dk
Username: zhonxu
Groupname: campgst
Jobname: MoO2/Eads-2-layers/OOH
Sessionid: 7334
Queuename: verylong
Accounting:
This job has allocated the following 16 nodes:
b139 b139 b139 b139 b139 b139 b139 b139 b136 b136 b136 b136 b136 b136 b136 b136
Finished epilogue job 361511.audhumbla.fysik.dtu.dk for zhonxu