     Program PWSCF v.5.0.2 (svn rev. 9656) starts on 10May2014 at  4: 5:43

     Current dimensions of program PWSCF are:
     Max number of different atomic species (ntypx) = 10
     Max number of k-points (npk) =  40000
     Max angular momentum in pseudopotentials (lmaxx) =  3
     Reading input from pwscf.in
Warning: card &CELL ignored
Warning: card / ignored

     Subspace diagonalization in iterative solution of the eigenvalue problem:
     a serial algorithm will be used

     bravais-lattice index     =            0
     lattice parameter (alat)  =      11.7541  a.u.
     unit-cell volume          =    7139.8207 (a.u.)^3
     number of atoms/cell      =           31
     number of atomic types    =            3
     number of electrons       =       238.00
     number of Kohn-Sham states=          357
     kinetic-energy cutoff     =      40.0000  Ry
     charge density cutoff     =     500.0000  Ry
     convergence threshold     =      1.0E-06
     mixing beta               =       0.7000
     number of iterations used =            8  plain     mixing
     Exchange-correlation      = SLA  PW   PBE  PBE ( 1 4 3 4 0)
     EXX-fraction              =        0.00
     nstep                     =           50

     celldm(1)=  11.754097  celldm(2)=   0.000000  celldm(3)=   0.000000
     celldm(4)=   0.000000  celldm(5)=   0.000000  celldm(6)=   0.000000

     crystal axes: (cart. coord. in units of alat)
               a(1) = (   1.000000   0.000000   0.000000 )
               a(2) = (   0.000000   1.034513   0.000000 )
               a(3) = (   0.000000   0.000000   4.249947 )

     reciprocal axes: (cart. coord. in units 2 pi/alat)
               b(1) = (  1.000000  0.000000  0.000000 )
               b(2) = (  0.000000  0.966638  0.000000 )
               b(3) = (  0.000000  0.000000  0.235297 )

     PseudoPot. # 1 for O  read from file:
     /home/camp/zhonxu/pseudo/o_pbe_v1.01.uspp.F.UPF
     MD5 check sum: 2bcb18d16ea4b960afae9ec6d52f22d2
     Pseudo is Ultrasoft + core correction, Zval =  6.0
     Generated by new atomic code, or converted to UPF format
     Using radial grid of  737 points,  5 beta functions with:
                l(1) =   0
                l(2) =   0
                l(3) =   1
                l(4) =   1
                l(5) =   2
     Q(r) pseudized with  8 coefficients,  rinner =    0.900   0.900   0.900
                                                       0.900   0.900

     PseudoPot. # 2 for Rh read from file:
     /home/camp/zhonxu/pseudo/rh_pbe_v1.uspp.F.UPF
     MD5 check sum: 37b626987ad0dd8ec6bf4cc9ef289918
     Pseudo is Ultrasoft + core correction, Zval = 15.0
     Generated by new atomic code, or converted to UPF format
     Using radial grid of  969 points,  7 beta functions with:
                l(1) =   0
                l(2) =   0
                l(3) =   1
                l(4) =   1
                l(5) =   2
                l(6) =   2
                l(7) =   2
     Q(r) pseudized with  6 coefficients,  rinner =    1.050   1.050   1.050
                                                       1.050   1.050

     PseudoPot. # 3 for H  read from file:
     /home/camp/zhonxu/pseudo/h_pbe_v1.uspp.F.UPF
     MD5 check sum: 3408e3ff4ec8b0a4e358431e7e038a48
     Pseudo is Ultrasoft, Zval =  1.0
     Generated by new atomic code, or converted to UPF format
     Using radial grid of  615 points,  2 beta functions with:
                l(1) =   0
                l(2) =   0
     Q(r) pseudized with  8 coefficients,  rinner =    0.700

     atomic species   valence    mass     pseudopotential
        O0             6.00    15.99940     O ( 1.00)
        Rh1           15.00   102.90550     Rh( 1.00)
        H2             1.00     1.00794     H ( 1.00)

     Simplified LDA+U calculation (l_max = 2) with parameters (eV):
     atomic species    L          U    alpha       J0     beta
        Rh1            2     0.0000   0.0000   0.0000   0.0000

     No symmetry found

   Cartesian axes

     site n.     atom                  positions (alat units)
         1           O0  tau(   1) = (   0.0000000   0.0000000   1.6064375  )
         2           O0  tau(   2) = (   0.0000000   0.5172566   1.7091588  )
         3           Rh1 tau(   3) = (   0.2500000   0.5172566   1.9262886  )
         4           Rh1 tau(   4) = (   0.0000000   0.0000000   1.9228036  )
         5           O0  tau(   5) = (   0.2500000   0.8379556   1.9220386  )
         6           O0  tau(   6) = (   0.2500000   0.1965575   1.9215286  )
         7           O0  tau(   7) = (   0.0000000   0.5172566   2.1200437  )
         8           O0  tau(   8) = (   0.0000000   0.0000000   2.2432071  )
         9           Rh1 tau(   9) = (   0.2500000   0.0000000   2.4439746  )
        10           Rh1 tau(  10) = (   0.0000000   0.5172566   2.4253174  )
        11           O0  tau(  11) = (   0.2500000   0.7138141   2.4432947  )
        12           O0  tau(  12) = (   0.2500000   0.3206991   2.4432097  )
        13           O0  tau(  13) = (   0.0000000   0.0000000   2.6356898  )
        14           O0  tau(  14) = (   0.5000000   0.0000000   1.6064375  )
        15           O0  tau(  15) = (   0.5000000   0.5172566   1.7079263  )
        16           Rh1 tau(  16) = (   0.7500000   0.5172566   1.9262886  )
        17           Rh1 tau(  17) = (   0.5000000   0.0000000   1.9227611  )
        18           O0  tau(  18) = (   0.7500000   0.8379556   1.9219536  )
        19           O0  tau(  19) = (   0.7500000   0.1965575   1.9216136  )
        20           O0  tau(  20) = (   0.5000000   0.5172566   2.1284161  )
        21           O0  tau(  21) = (   0.5000000   0.0000000   2.2423572  )
        22           Rh1 tau(  22) = (   0.7500000   0.0000000   2.4439321  )
        23           Rh1 tau(  23) = (   0.5000000   0.5172566   2.4652244  )
        24           O0  tau(  24) = (   0.7500000   0.7138141   2.4431672  )
        25           O0  tau(  25) = (   0.7500000   0.3206991   2.4432097  )
        26           O0  tau(  26) = (   0.5000000   0.0000000   2.6354348  )
        27           H2  tau(  27) = (  -0.0000700   0.6590056   1.6354222  )
        28           H2  tau(  28) = (   0.4999300   0.6605366   1.6368247  )
        29           H2  tau(  29) = (   0.1480800   0.0354838   1.5606656  )
        30           H2  tau(  30) = (   0.6481100   0.0354321   1.5605806  )
        31           O0  tau(  31) = (   0.5000800   0.5160462   2.7479734  )

     number of k points=    10  Methfessel-Paxton smearing, width (Ry)=  0.0100
                       cart. coord. in units 2pi/alat
        k(    1) = (   0.0000000   0.0000000   0.0000000), wk =   0.1250000
        k(    2) = (   0.0000000   0.2416596   0.0000000), wk =   0.2500000
        k(    3) = (   0.0000000  -0.4833191   0.0000000), wk =   0.1250000
        k(    4) = (   0.2500000   0.0000000   0.0000000), wk =   0.2500000
        k(    5) = (   0.2500000   0.2416596   0.0000000), wk =   0.2500000
        k(    6) = (   0.2500000  -0.4833191   0.0000000), wk =   0.2500000
        k(    7) = (  -0.5000000   0.0000000   0.0000000), wk =   0.1250000
        k(    8) = (  -0.5000000   0.2416596   0.0000000), wk =   0.2500000
        k(    9) = (  -0.5000000  -0.4833191   0.0000000), wk =   0.1250000
        k(   10) = (  -0.2500000   0.2416596   0.0000000), wk =   0.2500000

     Largest allocated arrays     est. size (Mb)     dimensions
     Largest temporary arrays     est. size (Mb)     dimensions

     Check: negative/imaginary core charge=   -0.000003    0.000000

     Initial potential from superposition of free atoms
     Check: negative starting charge=   -0.645358

     starting charge  233.99915, renormalised to  238.00000

     negative rho (up, down):  0.656E+00 0.000E+00
     Number of +U iterations with fixed ns =  0
     Starting occupations:
 --- enter write_ns ---
 LDA+U parameters:
U( 2)     =  0.00000000
alpha( 2) =  0.00000000
atom    3   Tr[ns(na)] =   7.00000
    eigenvalues:
  0.700  0.700  0.700  0.700  0.700
    eigenvectors:
  1.000  0.000  0.000  0.000  0.000
  0.000  1.000  0.000  0.000  0.000
  0.000  0.000  1.000  0.000  0.000
  0.000  0.000  0.000  1.000  0.000
  0.000  0.000  0.000  0.000  1.000
    occupations:
  0.700  0.000  0.000  0.000  0.000
  0.000  0.700  0.000  0.000  0.000
  0.000  0.000  0.700  0.000  0.000
  0.000  0.000  0.000  0.700  0.000
  0.000  0.000  0.000  0.000  0.700
atom    4   Tr[ns(na)] =   7.00000
    eigenvalues:
  0.700  0.700  0.700  0.700  0.700
    eigenvectors:
  1.000  0.000  0.000  0.000  0.000
  0.000  1.000  0.000  0.000  0.000
  0.000  0.000  1.000  0.000  0.000
  0.000  0.000  0.000  1.000  0.000
  0.000  0.000  0.000  0.000  1.000
    occupations:
  0.700  0.000  0.000  0.000  0.000
  0.000  0.700  0.000  0.000  0.000
  0.000  0.000  0.700  0.000  0.000
  0.000  0.000  0.000  0.700  0.000
  0.000  0.000  0.000  0.000  0.700
atom    9   Tr[ns(na)] =   7.00000
    eigenvalues:
  0.700  0.700  0.700  0.700  0.700
    eigenvectors:
  1.000  0.000  0.000  0.000  0.000
  0.000  1.000  0.000  0.000  0.000
  0.000  0.000  1.000  0.000  0.000
  0.000  0.000  0.000  1.000  0.000
  0.000  0.000  0.000  0.000  1.000
    occupations:
  0.700  0.000  0.000  0.000  0.000
  0.000  0.700  0.000  0.000  0.000
  0.000  0.000  0.700  0.000  0.000
  0.000  0.000  0.000  0.700  0.000
  0.000  0.000  0.000  0.000  0.700
atom   10   Tr[ns(na)] =   7.00000
    eigenvalues:
  0.700  0.700  0.700  0.700  0.700
    eigenvectors:
  1.000  0.000  0.000  0.000  0.000
  0.000  1.000  0.000  0.000  0.000
  0.000  0.000  1.000  0.000  0.000
  0.000  0.000  0.000  1.000  0.000
  0.000  0.000  0.000  0.000  1.000
    occupations:
  0.700  0.000  0.000  0.000  0.000
  0.000  0.700  0.000  0.000  0.000
  0.000  0.000  0.700  0.000  0.000
  0.000  0.000  0.000  0.700  0.000
  0.000  0.000  0.000  0.000  0.700
atom   16   Tr[ns(na)] =   7.00000
    eigenvalues:
  0.700  0.700  0.700  0.700  0.700
    eigenvectors:
  1.000  0.000  0.000  0.000  0.000
  0.000  1.000  0.000  0.000  0.000
  0.000  0.000  1.000  0.000  0.000
  0.000  0.000  0.000  1.000  0.000
  0.000  0.000  0.000  0.000  1.000
    occupations:
  0.700  0.000  0.000  0.000  0.000
  0.000  0.700  0.000  0.000  0.000
  0.000  0.000  0.700  0.000  0.000
  0.000  0.000  0.000  0.700  0.000
  0.000  0.000  0.000  0.000  0.700
atom   17   Tr[ns(na)] =   7.00000
    eigenvalues:
  0.700  0.700  0.700  0.700  0.700
    eigenvectors:
  1.000  0.000  0.000  0.000  0.000
  0.000  1.000  0.000  0.000  0.000
  0.000  0.000  1.000  0.000  0.000
  0.000  0.000  0.000  1.000  0.000
  0.000  0.000  0.000  0.000  1.000
    occupations:
  0.700  0.000  0.000  0.000  0.000
  0.000  0.700  0.000  0.000  0.000
  0.000  0.000  0.700  0.000  0.000
  0.000  0.000  0.000  0.700  0.000
  0.000  0.000  0.000  0.000  0.700
atom   22   Tr[ns(na)] =   7.00000
    eigenvalues:
  0.700  0.700  0.700  0.700  0.700
    eigenvectors:
  1.000  0.000  0.000  0.000  0.000
  0.000  1.000  0.000  0.000  0.000
  0.000  0.000  1.000  0.000  0.000
  0.000  0.000  0.000  1.000  0.000
  0.000  0.000  0.000  0.000  1.000
    occupations:
  0.700  0.000  0.000  0.000  0.000
[...]
    eigenvalues:
  0.593  0.615  0.871  0.938  0.963
    eigenvectors:
  0.013  0.191  0.002  0.000  0.793
  0.952  0.047  0.000  0.000  0.000
  0.000  0.000  0.975  0.022  0.002
  0.035  0.761  0.000  0.000  0.203
  0.000  0.000  0.022  0.977  0.001
    occupations:
  0.892 -0.008  0.003 -0.140 -0.002
 -0.008  0.594 -0.001 -0.002 -0.006
  0.003 -0.001  0.873 -0.004  0.010
 -0.140 -0.002 -0.004  0.685 -0.000
 -0.002 -0.006  0.010 -0.000  0.937
atom    4   Tr[ns(na)] =   7.94733
    eigenvalues:
  0.605  0.651  0.851  0.898  0.969
    eigenvectors:
  0.000  0.993  0.000  0.000  0.007
  0.000  0.000  0.042  0.957  0.000
  0.000  0.000  0.958  0.042  0.000
  0.000  0.007  0.000  0.000  0.993
  1.000  0.000  0.000  0.000  0.000
    occupations:
  0.653 -0.004 -0.001  0.026  0.001
 -0.004  0.896  0.010  0.001 -0.000
 -0.001  0.010  0.853 -0.001  0.001
  0.026  0.001 -0.001  0.967  0.000
  0.001 -0.000  0.001  0.000  0.605
atom    9   Tr[ns(na)] =   7.93563
    eigenvalues:
  0.639  0.651  0.838  0.872  0.968
    eigenvectors:
  0.002  0.150  0.000  0.000  0.848
  0.990  0.010  0.000  0.000  0.000
  0.000  0.000  0.937  0.063  0.000
  0.009  0.840  0.000  0.000  0.152
  0.000  0.000  0.063  0.937  0.000
    occupations:
  0.919  0.001 -0.000 -0.114 -0.001
  0.001  0.639  0.000  0.001 -0.000
 -0.000  0.000  0.840  0.000 -0.008
 -0.114  0.001  0.000  0.699  0.001
 -0.001 -0.000 -0.008  0.001  0.870
atom   10   Tr[ns(na)] =   7.94844
    eigenvalues:
  0.598  0.612  0.888  0.908  0.968
    eigenvectors:
  0.000  0.990  0.000  0.000  0.010
  0.000  0.000  0.000  1.000  0.000
  0.000  0.000  1.000  0.000  0.000
  0.000  0.010  0.000  0.000  0.990
  1.000  0.000  0.000  0.000  0.000
    occupations:
  0.615  0.000  0.001  0.035 -0.000
  0.000  0.908 -0.000  0.000 -0.000
  0.001 -0.000  0.888  0.000  0.000
  0.035  0.000  0.000  0.965 -0.000
 -0.000 -0.000  0.000 -0.000  0.598
atom   16   Tr[ns(na)] =   7.96089
    eigenvalues:
  0.593  0.615  0.871  0.938  0.963
    eigenvectors:
  0.012  0.192  0.002  0.000  0.793
  0.955  0.045  0.000  0.000  0.000
  0.000  0.000  0.981  0.017  0.002
  0.033  0.764  0.000  0.000  0.203
  0.000  0.000  0.017  0.982  0.001
    occupations:
  0.892  0.007  0.003 -0.140  0.002
  0.007  0.594  0.001  0.001 -0.006
  0.003  0.001  0.872 -0.004 -0.008
 -0.140  0.001 -0.004  0.685  0.000
  0.002 -0.006 -0.008  0.000  0.937
atom   17   Tr[ns(na)] =   7.94476
    eigenvalues:
  0.606  0.652  0.850  0.895  0.970
    eigenvectors:
  0.000  0.993  0.000  0.000  0.007
  0.000  0.000  0.053  0.947  0.000
  0.000  0.000  0.947  0.053  0.000
  0.000  0.007  0.000  0.000  0.993
  1.000  0.000  0.000  0.000  0.000
    occupations:
  0.654 -0.004 -0.001  0.026  0.001
 -0.004  0.893  0.010  0.001 -0.000
 -0.001  0.010  0.852 -0.000  0.001
  0.026  0.001 -0.000  0.968  0.000
  0.001 -0.000  0.001  0.000  0.606
atom   22   Tr[ns(na)] =   7.93558
    eigenvalues:
  0.639  0.651  0.838  0.872  0.968
    eigenvectors:
  0.000  0.152  0.000  0.000  0.848
  0.999  0.001  0.000  0.000  0.000
  0.000  0.000  0.942  0.058  0.000
  0.001  0.847  0.000  0.000  0.152
  0.000  0.000  0.058  0.942  0.000
    occupations:
  0.919  0.000  0.000 -0.114 -0.000
  0.000  0.639  0.000 -0.000 -0.000
  0.000  0.000  0.840 -0.000  0.008
 -0.114 -0.000 -0.000  0.699  0.000
 -0.000 -0.000  0.008  0.000  0.870
atom   23   Tr[ns(na)] =   7.92154
    eigenvalues:
  0.635  0.695  0.810  0.846  0.974
    eigenvectors:
  0.000  0.994  0.000  0.000  0.006
  0.000  0.000  0.000  1.000  0.000
  0.000  0.000  1.000  0.000  0.000
  0.000  0.006  0.000  0.000  0.994
  1.000  0.000  0.000  0.000  0.000
    occupations:
  0.697  0.000 -0.000  0.022 -0.000
  0.000  0.846 -0.000 -0.000 -0.000
 -0.000 -0.000  0.810  0.000  0.000
  0.022 -0.000  0.000  0.973  0.000
 -0.000 -0.000  0.000  0.000  0.635
N of occupied +U levels =  63.5550997
 --- exit write_ns ---

          k = 0.0000 0.0000 0.0000 ( 30479 PWs)   bands (ev):

   -50.7003 -50.3742 -50.2650 -49.7123 -49.7044 -49.6808 -49.6510 -49.6208
   -49.6013 -49.5720 -49.5659 -49.5402 -49.4971 -49.4896 -49.4777 -49.4000
   -49.3958 -49.3606 -49.2964 -49.2827 -49.2802 -49.2740 -49.2557 -49.2529
   -21.8050 -21.3714 -21.3464 -21.1778 -20.8824 -20.5374 -20.4844 -20.4754
   -20.4157 -20.3719 -20.2492 -20.2185 -20.0825 -19.9674 -19.9124 -19.9051
   -19.2494 -19.1474 -19.0341 -10.1727 -10.0983  -9.8282  -9.1908  -8.9936
    -8.9761  -8.9190  -8.8640  -8.8639  -8.6982  -8.5848  -8.5119  -8.4678
    -8.3325  -8.3165  -8.2092  -8.2049  -8.0707  -7.9301  -7.7148  -7.4826
    -7.3263  -7.2346  -7.2151  -6.9585  -6.8518  -6.7924  -6.3928  -6.1902
    -6.1130  -6.0751  -6.0203  -5.9884  -5.6523  -5.5992  -5.5702  -5.5582
    -5.5486  -5.4625  -5.3446  -5.2682  -5.1632  -4.9975  -4.9616  -4.9033
    -4.8612  -4.7631  -4.6665  -4.5832  -4.4795  -4.4426  -4.3743  -4.3099
    -4.1760  -4.1303  -4.1051  -3.9354  -3.9314  -3.8425  -3.6806  -3.6380
    -3.6303  -3.4472  -3.3501  -3.2912  -3.2873  -3.0398  -2.8942  -2.8063
    -2.6499  -2.6304  -2.5286  -2.4188  -2.3530  -2.0333  -1.8852  -1.7596
    -1.7111  -1.5739  -1.4918  -1.3483  -1.2143  -0.5329  -0.1972  -0.0765
    -0.0544   0.0919   0.2833   0.4388   0.5903   0.9659   1.3126   1.4915
     1.5591   1.6641   1.9676   2.1717   2.8605   3.9044   4.1494   4.6605
     4.9534   5.6990   5.9056   5.9455   6.0151   6.6974   6.7287   6.9648
     7.3429   7.6501   7.6577   7.7731   7.7789   7.8495   7.8633   7.8756
     8.0165   8.1203   8.1686   8.2401   8.2614   8.3108   8.4365   8.4957
     8.6071   8.6302   8.7134   8.9379   8.9388   9.0194   9.1198   9.1921
     9.3548   9.4613   9.4793   9.6493   9.6887   9.7896   9.9473  10.0247
    10.3492  10.3588  10.4245  10.5299  10.6172  10.7004  10.9362  10.9715
    10.9797  11.0211  11.0671  11.0805  11.1855  11.3051  11.3377  11.4035
    11.5964  11.6156  11.6583  11.6787  11.7469  11.7746  11.7992  11.9711
    12.0042  12.0466  12.0661  12.1529  12.2010  12.2516  12.3274  12.3314
    12.4180  12.4537  12.5185  12.6335  12.7326  12.7482  12.7685  12.8183
    12.8798  13.0269  13.0461  13.2958  13.5320  13.5410  13.5623  13.5995
    13.6347  13.7209  13.8417  13.9263  14.0586  14.1060  14.2024  14.2342
    14.3501  14.5139  14.5482  14.6220  14.7140  14.8007  14.9947  15.1282
    15.1887  15.2120  15.2502  15.4079  15.4961  15.5081  15.6764  15.6906
    15.7933  15.8315  15.8473  16.1263  16.2398  16.2919  16.4099  16.4887
    16.5926  16.7229  16.8230  16.8795  16.9252  17.0145  17.0801  17.1582
    17.2535  17.3543  17.4584  17.5533  17.5967  17.7252  17.8537  17.8915
    18.0827  18.0983  18.1336  18.2229  18.2454  18.2782  18.3344  18.3786
    18.4359  18.4801  18.5948  18.7015  18.7387  18.8162  18.9357  18.9770
    19.0996  19.1112  19.1326  19.2123  19.2780  19.3478  19.4416  19.4642
    19.4819  19.5631  19.6459  19.6562  19.6828  19.8213  19.8823  19.9461
    19.9527  19.9835  20.0926  20.1473  20.1814  20.2609  20.3449  20.3652
    20.4201  20.5056  20.5358  20.5868  20.7699  20.8968  20.9925  21.0095
    21.0739  21.0896  21.1704  21.3037  21.3777  21.4375  21.5112  21.5371
    21.5620  21.6134  21.6765  21.8409  21.8820  21.8877  21.9923  22.0505
    22.0898  22.1782  22.2611  22.3392  22.3503  22.3786  22.3932  22.4651
    22.4916  22.5125  22.5816  22.6312  22.7189

[...]

          k = 0.2500-0.4833 0.0000 ( 30510 PWs)   bands (ev):

[...]

          k =-0.5000 0.0000 0.0000 ( 30524 PWs)   bands (ev):

[...]

          k =-0.2500 0.2417 0.0000 ( 30481 PWs)   bands (ev):

   -50.7003 -50.3726 -50.2648 -49.7110 -49.7058 -49.6674 -49.6490 -49.6207
   -49.5858 -49.5790 -49.5720 -49.5418 -49.5063 -49.4956 -49.4796 -49.4008
   -49.3966 -49.3451 -49.2941 -49.2830 -49.2828 -49.2713 -49.2684 -49.2585
   -21.6733 -21.3738 -21.1966 -21.0522 -20.9167 -20.6544 -20.5879 -20.4721
   -20.3965 -20.3479 -20.2070 -20.1995 -20.1473 -20.0566 -20.0394 -19.9463
   -19.2455 -19.1796 -19.0857  -9.7586  -9.6165  -9.5011  -9.3256  -8.9931
    -8.9017  -8.8671  -8.8363  -8.8095  -8.7863  -8.6307  -8.6007  -8.4185
    -8.2733  -8.1835  -8.0779  -8.0050  -7.9334  -7.7033  -7.6056  -7.5120
    -7.3849  -7.2932  -7.0745  -6.9516  -6.7847  -6.6271  -6.5558  -6.4772
    -6.4245  -6.3440  -6.2727  -6.2243  -6.1706  -6.1113  -6.0559  -5.9026
    -5.7909  -5.7296  -5.6428  -5.4296  -5.4131  -5.2292  -5.1436  -5.0758
    -5.0135  -4.8065  -4.7515  -4.6657  -4.5918  -4.5367  -4.4279  -4.2220
    -3.9795  -3.8461  -3.7626  -3.7004  -3.5769  -3.4267  -3.4043  -3.3680
    -3.3115  -3.2043  -3.1534  -3.0994  -3.0602  -3.0010  -2.9700  -2.8462
    -2.7765  -2.4962  -2.3872  -2.3036  -2.1209  -2.0332  -1.9049  -1.8361
    -1.7792  -1.6594  -1.6010  -1.4873  -1.1566  -0.7906  -0.6426  -0.2007
     0.0829   0.2359   0.5060   0.6718   0.9610   1.1126   1.1568   1.2816
     1.3760   1.5878   1.6114   1.9729   3.4731   4.4516   4.6232   5.0880
     5.2822   5.3493   5.4938   6.0822   6.3562   6.4113   6.4723   6.5816
     6.7188   6.8345   6.9766   7.1776   7.3123   7.4655   7.5684   7.7188
     7.8247   7.9597   8.0489   8.1347   8.2597   8.3559   8.4289   8.5345
     8.7561   8.7743   8.8784   8.9933   9.2140   9.3574   9.4501   9.5307
     9.6134   9.7152   9.7723   9.8068   9.9142  10.1037  10.1817  10.2183
    10.3261  10.4227  10.4809  10.5888  10.6886  10.7428  10.8283  10.8900
    10.9523  11.0598  11.0940  11.1553  11.3105  11.4240  11.5008  11.5476
    11.5925  11.6912  11.7276  11.7648  11.8700  11.9872  12.0269  12.1443
    12.2058  12.2261  12.3664  12.4256  12.5049  12.6305  12.6869  12.7606
    12.7932  12.8356  12.9246  12.9629  13.0402  13.0722  13.1327  13.2063
    13.2711  13.3842  13.4665  13.5339  13.6619  13.7209  13.7888  13.8222
    13.9114  14.0381  14.1084  14.1663  14.2077  14.3369  14.3834  14.4802
    14.5555  14.5664  14.7002  14.8031  14.9600  15.0901  15.2149  15.2701
    15.3489  15.4168  15.4962  15.5146  15.5552  15.6128  15.7191  15.7530
    15.8715  15.9378  16.0100  16.0345  16.0833  16.1255  16.2211  16.2867
    16.3581  16.4189  16.4520  16.4797  16.5284  16.6046  16.6604  16.7213
    16.7986  16.8735  17.0011  17.0437  17.1203  17.2129  17.2726  17.3355
    17.3778  17.4762  17.5512  17.5962  17.6307  17.7582  17.8330  17.8496
    17.8996  18.0184  18.1033  18.1375  18.1680  18.2902  18.3134  18.3735
    18.4669  18.5729  18.6509  18.7037  18.7350  18.8296  18.8894  18.9801
    18.9975  19.0486  19.0658  19.1690  19.2064  19.2584  19.3267  19.4577
    19.5134  19.5770  19.6174  19.7006  19.7630  19.8721  20.0070  20.0587
    20.1740  20.2102  20.2600  20.3166  20.4768  20.5418  20.6212  20.6727
    20.6891  20.7678  20.8215  20.8752  20.9207  20.9993  21.0900  21.1930
    21.2415  21.2847  21.3444  21.3757  21.4264  21.5183  21.6728  21.7275
    21.7845  21.8568  21.8865  21.9245  21.9452  21.9993  22.0637  22.1659
    22.2009  22.2931  22.3984  22.4604  22.4906

     the Fermi energy is    -1.9274 ev

!    total energy              =   -1980.31426310 Ry
     Harris-Foulkes estimate   =   -1980.31426325 Ry
     estimated scf accuracy    <       0.00000016 Ry

     The total energy is the sum of the following terms:

     one-electron contribution =  -23249.29412304 Ry
     hartree contribution      =   11669.35754179 Ry
     xc contribution           =    -371.89759246 Ry
     ewald contribution        =    9971.51990613 Ry
     Hubbard energy            =       0.00000000 Ry
     smearing contrib. (-TS)   =       0.00000449 Ry

     convergence has been achieved in  40 iterations

     Forces acting on atoms (Ry/au):

     negative rho (up, down):  0.695E+00 0.000E+00
     atom    1 type  1   force =    -0.00693969   -0.01363176   -0.00000731
     atom    2 type  1   force =     0.00010750    0.00505278   -0.00060692
     atom    3 type  2   force =     0.04078240    0.00601246    0.00002361
     atom    4 type  2   force =     0.00866315    0.00963569    0.00015038
     atom    5 type  1   force =    -0.00141998   -0.03067415    0.00006453
     atom    6 type  1   force =     0.00111975    0.02747844    0.00011509
     atom    7 type  1   force =    -0.00019178   -0.00106363   -0.00027162
     atom    8 type  1   force =    -0.00293682   -0.00103952   -0.00027814
     atom    9 type  2   force =     0.00420861    0.00025831    0.00001269
     atom   10 type  2   force =    -0.00001045   -0.00133566   -0.00049254
     atom   11 type  1   force =    -0.00469813    0.00737885    0.00018360
     atom   12 type  1   force =    -0.00525280   -0.00793378    0.00018567
     atom   13 type  1   force =    -0.00093376    0.00020096    0.00005117
     atom   14 type  1   force =    -0.00654223   -0.01366948   -0.00007111
     atom   15 type  1   force =     0.00013144    0.00570588    0.00041362
     atom   16 type  2   force =    -0.04141543    0.00516905    0.00009763
     atom   17 type  2   force =     0.00851360    0.00989273   -0.00008280
     atom   18 type  1   force =     0.00000309   -0.03056507    0.00006808
     atom   19 type  1   force =     0.00221337    0.02769601    0.00009617
     atom   20 type  1   force =    -0.00011237   -0.00440649   -0.00011146
     atom   21 type  1   force =    -0.00296532   -0.00068195    0.00015643
     atom   22 type  2   force =    -0.00142045    0.00045104    0.00011530
     atom   23 type  2   force =    -0.00015006    0.00067672   -0.00063035
     atom   24 type  1   force =     0.00452151    0.00741867    0.00017420
     atom   25 type  1   force =     0.00588250   -0.00805412    0.00016060
     atom   26 type  1   force =    -0.00084767   -0.00006512    0.00000818
     atom   27 type  3   force =     0.00000680    0.00018191    0.00015702
     atom   28 type  3   force =     0.00000025   -0.00012945    0.00021672
     atom   29 type  3   force =    -0.00011860    0.00005803   -0.00019848
     atom   30 type  3   force =    -0.00018545    0.00001570   -0.00017090
     atom   31 type  1   force =    -0.00001298   -0.00003307    0.00047096

     Total force =     0.001431     Total SCF correction =     0.001711
     SCF correction compared to forces is large: reduce conv_thr to get better values

     BFGS Geometry Optimization

     bfgs converged in   1 scf cycles and   0 bfgs steps
     (criteria: energy < 0.10E-03, force < 0.10E-02)

     End of BFGS Geometry Optimization

     Final energy   =   -1980.3142630971 Ry
Begin final coordinates

ATOMIC_POSITIONS (crystal)
O0       0.000000000   0.000000000   0.377990000    0   0   1
O0       0.000000000   0.500000000   0.402160000    0   0   1
Rh1      0.250000000   0.500000000   0.453250000    0   0   1
Rh1      0.000000000   0.000000000   0.452430000    0   0   1
O0       0.250000000   0.810000000   0.452250000    0   0   1
O0       0.250000000   0.190000000   0.452130000    0   0   1
O0       0.000000000   0.500000000   0.498840000    0   0   1
O0       0.000000000   0.000000000   0.527820000    0   0   1
Rh1      0.250000000   0.000000000   0.575060000    0   0   1
Rh1      0.000000000   0.500000000   0.570670000    0   0   1
O0       0.250000000   0.690000000   0.574900000    0   0   1
O0       0.250000000   0.310000000   0.574880000    0   0   1
O0       0.000000000   0.000000000   0.620170000    0   0   1
O0       0.500000000   0.000000000   0.377990000    0   0   1
O0       0.500000000   0.500000000   0.401870000    0   0   1
Rh1      0.750000000   0.500000000   0.453250000    0   0   1
Rh1      0.500000000   0.000000000   0.452420000    0   0   1
O0       0.750000000   0.810000000   0.452230000    0   0   1
O0       0.750000000   0.190000000   0.452150000    0   0   1
O0       0.500000000   0.500000000   0.500810000    0   0   1
O0       0.500000000   0.000000000   0.527620000    0   0   1
Rh1      0.750000000   0.000000000   0.575050000    0   0   1
Rh1      0.500000000   0.500000000   0.580060000    0   0   1
O0       0.750000000   0.690000000   0.574870000    0   0   1
O0       0.750000000   0.310000000   0.574880000    0   0   1
O0       0.500000000   0.000000000   0.620110000    0   0   1
H2      -0.000070000   0.637020000   0.384810000
H2       0.499930000   0.638500000   0.385140000
H2       0.148080000   0.034300000   0.367220000
H2       0.648110000   0.034250000   0.367200000
O0       0.500080000   0.498830000   0.646590000
End final coordinates

     General routines

     Parallel routines
     Hubbard U routines

   This run was terminated on:   6:37:11  10May2014

   JOB DONE.
Running PBS batch system epilogue script
Job id: 351071.audhumbla.fysik.dtu.dk
Username: zhonxu
Groupname: campgst
Jobname: RhO2/Eads-2-layers/O-U-0.0
Sessionid: 17429
Queuename: verylong
Accounting:
This job has allocated the following 16 nodes:
d101 d101 d101 d101 d101 d101 d101 d101 d028 d028 d028 d028 d028 d028 d028 d028
Finished epilogue job 351071.audhumbla.fysik.dtu.dk for zhonxu