     Program PWSCF v.5.0.2 (svn rev. 9656) starts on  6May2014 at  6: 0:51

     Current dimensions of program PWSCF are:
     Max number of different atomic species (ntypx) = 10
     Max number of k-points (npk) =  40000
     Max angular momentum in pseudopotentials (lmaxx) =  3
     Reading input from pwscf.in
Warning: card &CELL ignored
Warning: card / ignored

     Subspace diagonalization in iterative solution of the eigenvalue problem:
     a serial algorithm will be used

     Found symmetry operation: I + ( -0.5000  0.0000  0.0000)
     This is a supercell, fractional translations are disabled

     bravais-lattice index     =            0
     lattice parameter (alat)  =      12.2076  a.u.
     unit-cell volume          =    7496.5096 (a.u.)^3
     number of atoms/cell      =           30
     number of atomic types    =            3
     number of electrons       =       240.00
     number of Kohn-Sham states=          360
     kinetic-energy cutoff     =      40.0000  Ry
     charge density cutoff     =     500.0000  Ry
     convergence threshold     =      1.0E-06
     mixing beta               =       0.7000
     number of iterations used =            8  plain     mixing
     Exchange-correlation      = SLA  PW   PBE  PBE ( 1 4 3 4 0)
     EXX-fraction              =        0.00
     nstep                     =           50

     celldm(1)=  12.207631  celldm(2)=   0.000000  celldm(3)=   0.000000
     celldm(4)=   0.000000  celldm(5)=   0.000000  celldm(6)=   0.000000

     crystal axes: (cart. coord. in units of alat)
               a(1) = (   1.000000   0.000000   0.000000 )
               a(2) = (   0.000000   1.004836   0.000000 )
               a(3) = (   0.000000   0.000000   4.100811 )

     reciprocal axes: (cart. coord. in units 2 pi/alat)
               b(1) = (  1.000000  0.000000  0.000000 )
               b(2) = (  0.000000  0.995187  0.000000 )
               b(3) = (  0.000000  0.000000  0.243854 )

     PseudoPot. # 1 for O  read from file:
     /home/camp/zhonxu/pseudo/o_pbe_v1.01.uspp.F.UPF
     MD5 check sum: 2bcb18d16ea4b960afae9ec6d52f22d2
     Pseudo is Ultrasoft + core correction, Zval =  6.0
     Generated by new atomic code, or converted to UPF format
     Using radial grid of  737 points,  5 beta functions with:
                l(1) =   0
                l(2) =   0
                l(3) =   1
                l(4) =   1
                l(5) =   2
     Q(r) pseudized with  8 coefficients,  rinner =    0.900   0.900   0.900
                                                       0.900   0.900

     PseudoPot. # 2 for Pt read from file:
     /home/camp/zhonxu/pseudo/pt_pbe_v1.uspp.F.UPF
     MD5 check sum: 4c71d6ad5ef119f1eb26a4d0b7884226
     Pseudo is Ultrasoft + core correction, Zval = 16.0
     Generated by new atomic code, or converted to UPF format
     Using radial grid of  985 points,  6 beta functions with:
                l(1) =   0
                l(2) =   0
                l(3) =   1
                l(4) =   1
                l(5) =   2
                l(6) =   2
     Q(r) pseudized with  8 coefficients,  rinner =    1.300   1.300   1.300
                                                       1.300   1.300

     PseudoPot. # 3 for H  read from file:
     /home/camp/zhonxu/pseudo/h_pbe_v1.uspp.F.UPF
     MD5 check sum: 3408e3ff4ec8b0a4e358431e7e038a48
     Pseudo is Ultrasoft, Zval =  1.0
     Generated by new atomic code, or converted to UPF format
     Using radial grid of  615 points,  2 beta functions with:
                l(1) =   0
                l(2) =   0
     Q(r) pseudized with  8 coefficients,  rinner =    0.700

     atomic species   valence    mass     pseudopotential
        O0             6.00    15.99940     O ( 1.00)
        Pt1           16.00   195.08000     Pt( 1.00)
        H2             1.00     1.00794     H ( 1.00)

     Simplified LDA+U calculation (l_max = 2) with parameters (eV):
     atomic species    L          U    alpha       J0     beta
        Pt1            2     1.0000   0.0000   0.0000   0.0000

     No symmetry found

   Cartesian axes

     site n.     atom                  positions (alat units)
         1           O0  tau(   1) = (   0.0000000   0.0000000   1.5457188  )
         2           O0  tau(   2) = (   0.0000000   0.5024180   1.6369208  )
         3           Pt1 tau(   3) = (   0.2500000   0.5024180   1.8413872  )
         4           Pt1 tau(   4) = (   0.0000000   0.0000000   1.8534436  )
         5           O0  tau(   5) = (   0.2500000   0.8139171   1.8157162  )
         6           O0  tau(   6) = (   0.2500000   0.1909188   1.8824364  )
         7           O0  tau(   7) = (   0.0000000   0.5024180   2.0315829  )
         8           O0  tau(   8) = (   0.0000000   0.0000000   2.1708464  )
         9           Pt1 tau(   9) = (   0.2500000   0.0000000   2.3625593  )
        10           Pt1 tau(  10) = (   0.0000000   0.5024180   2.3549318  )
        11           O0  tau(  11) = (   0.2500000   0.6933368   2.3911010  )
        12           O0  tau(  12) = (   0.2500000   0.3114991   2.3934384  )
        13           O0  tau(  13) = (   0.0000000   0.0000000   2.5491052  )
        14           O0  tau(  14) = (   0.5000000   0.0000000   1.5457188  )
        15           O0  tau(  15) = (   0.5000000   0.5024180   1.6369208  )
        16           Pt1 tau(  16) = (   0.7500000   0.5024180   1.8413872  )
        17           Pt1 tau(  17) = (   0.5000000   0.0000000   1.8534436  )
        18           O0  tau(  18) = (   0.7500000   0.8139171   1.8157162  )
        19           O0  tau(  19) = (   0.7500000   0.1909188   1.8824364  )
        20           O0  tau(  20) = (   0.5000000   0.5024180   2.0315829  )
        21           O0  tau(  21) = (   0.5000000   0.0000000   2.1708464  )
        22           Pt1 tau(  22) = (   0.7500000   0.0000000   2.3625593  )
        23           Pt1 tau(  23) = (   0.5000000   0.5024180   2.3549318  )
        24           O0  tau(  24) = (   0.7500000   0.6933368   2.3911010  )
        25           O0  tau(  25) = (   0.7500000   0.3114991   2.3934384  )
        26           O0  tau(  26) = (   0.5000000   0.0000000   2.5491052  )
        27           H2  tau(  27) = (  -0.0000500   0.6431553   1.5728661  )
        28           H2  tau(  28) = (   0.4999500   0.6431553   1.5728661  )
        29           H2  tau(  29) = (   0.1440700   0.0315318   1.5048747  )
        30           H2  tau(  30) = (   0.6440700   0.0315318   1.5048747  )

     number of k points=    10  Methfessel-Paxton smearing, width (Ry)=  0.0100
                       cart. coord. in units 2pi/alat
        k(    1) = (   0.0000000   0.0000000   0.0000000), wk =   0.1250000
        k(    2) = (   0.0000000   0.2487968   0.0000000), wk =   0.2500000
        k(    3) = (   0.0000000  -0.4975937   0.0000000), wk =   0.1250000
        k(    4) = (   0.2500000   0.0000000   0.0000000), wk =   0.2500000
        k(    5) = (   0.2500000   0.2487968   0.0000000), wk =   0.2500000
        k(    6) = (   0.2500000  -0.4975937   0.0000000), wk =   0.2500000
        k(    7) = (  -0.5000000   0.0000000   0.0000000), wk =   0.1250000
        k(    8) = (  -0.5000000   0.2487968   0.0000000), wk =   0.2500000
        k(    9) = (  -0.5000000  -0.4975937   0.0000000), wk =   0.1250000
        k(   10) = (  -0.2500000   0.2487968   0.0000000), wk =   0.2500000

     Largest allocated arrays     est. size (Mb)     dimensions
     Largest temporary arrays     est. size (Mb)     dimensions

     Check: negative/imaginary core charge=   -0.000003    0.000000

     Initial potential from superposition of free atoms
     Check: negative starting charge=   -1.537272

     starting charge  235.99985, renormalised to  240.00000

     negative rho (up, down):  0.156E+01 0.000E+00
     Number of +U iterations with fixed ns =  0
     Starting occupations:
 --- enter write_ns ---
 LDA+U parameters:
U( 2)     =  1.00000000
alpha( 2) =  0.00000000
atom    3   Tr[ns(na)] =   8.00000
    eigenvalues:
  0.800  0.800  0.800  0.800  0.800
    eigenvectors:
  1.000  0.000  0.000  0.000  0.000
  0.000  1.000  0.000  0.000  0.000
  0.000  0.000  1.000  0.000  0.000
  0.000  0.000  0.000  1.000  0.000
  0.000  0.000  0.000  0.000  1.000
    occupations:
  0.800  0.000  0.000  0.000  0.000
  0.000  0.800  0.000  0.000  0.000
  0.000  0.000  0.800  0.000  0.000
  0.000  0.000  0.000  0.800  0.000
  0.000  0.000  0.000  0.000  0.800
atom    4   Tr[ns(na)] =   8.00000
    eigenvalues:
  0.800  0.800  0.800  0.800  0.800
    eigenvectors:
  1.000  0.000  0.000  0.000  0.000
  0.000  1.000  0.000  0.000  0.000
  0.000  0.000  1.000  0.000  0.000
  0.000  0.000  0.000  1.000  0.000
  0.000  0.000  0.000  0.000  1.000
    occupations:
  0.800  0.000  0.000  0.000  0.000
  0.000  0.800  0.000  0.000  0.000
  0.000  0.000  0.800  0.000  0.000
  0.000  0.000  0.000  0.800  0.000
  0.000  0.000  0.000  0.000  0.800
atom    9   Tr[ns(na)] =   8.00000
    eigenvalues:
  0.800  0.800  0.800  0.800  0.800
    eigenvectors:
  1.000  0.000  0.000  0.000  0.000
  0.000  1.000  0.000  0.000  0.000
  0.000  0.000  1.000  0.000  0.000
  0.000  0.000  0.000  1.000  0.000
  0.000  0.000  0.000  0.000  1.000
    occupations:
  0.800  0.000  0.000  0.000  0.000
  0.000  0.800  0.000  0.000  0.000
  0.000  0.000  0.800  0.000  0.000
  0.000  0.000  0.000  0.800  0.000
  0.000  0.000  0.000  0.000  0.800
atom   10   Tr[ns(na)] =   8.00000
    eigenvalues:
  0.800  0.800  0.800  0.800  0.800
    eigenvectors:
  1.000  0.000  0.000  0.000  0.000
  0.000  1.000  0.000  0.000  0.000
  0.000  0.000  1.000  0.000  0.000
  0.000  0.000  0.000  1.000  0.000
  0.000  0.000  0.000  0.000  1.000
    occupations:
  0.800  0.000  0.000  0.000  0.000
  0.000  0.800  0.000  0.000  0.000
  0.000  0.000  0.800  0.000  0.000
  0.000  0.000  0.000  0.800  0.000
  0.000  0.000  0.000  0.000  0.800
atom   16   Tr[ns(na)] =   8.00000
    eigenvalues:
  0.800  0.800  0.800  0.800  0.800
    eigenvectors:
  1.000  0.000  0.000  0.000  0.000
  0.000  1.000  0.000  0.000  0.000
  0.000  0.000  1.000  0.000  0.000
  0.000  0.000  0.000  1.000  0.000
  0.000  0.000  0.000  0.000  1.000
    occupations:
  0.800  0.000  0.000  0.000  0.000
  0.000  0.800  0.000  0.000  0.000
  0.000  0.000  0.800  0.000  0.000
  0.000  0.000  0.000  0.800  0.000
  0.000  0.000  0.000  0.000  0.800
atom   17   Tr[ns(na)] =   8.00000
    eigenvalues:
  0.800  0.800  0.800  0.800  0.800
    eigenvectors:
  1.000  0.000  0.000  0.000  0.000
  0.000  1.000  0.000  0.000  0.000
  0.000  0.000  1.000  0.000  0.000
  0.000  0.000  0.000  1.000  0.000
  0.000  0.000  0.000  0.000  1.000
    occupations:
  0.800  0.000  0.000  0.000  0.000
  0.000  0.800  0.000  0.000  0.000
  0.000  0.000  0.800  0.000  0.000
  0.000  0.000  0.000  0.800  0.000
  0.000  0.000  0.000  0.000  0.800
atom   22   Tr[ns(na)] =   8.00000
    eigenvalues:
  0.800  0.800  0.800  0.800  0.800
    eigenvectors:
  1.000  0.000  0.000  0.000  0.000
  0.000  1.000  0.000  0.000  0.000
  0.000  0.000  1.000  0.000  0.000
  0.000  0.000  0.000  1.000  0.000
  0.000  0.000  0.000  0.000  1.000
    occupations:
[...]
    eigenvectors:
  0.000  0.987  0.007  0.002  0.004
  0.007  0.000  0.037  0.947  0.008
  0.000  0.004  0.840  0.021  0.135
  0.000  0.009  0.115  0.023  0.853
  0.993  0.000  0.000  0.007  0.000
    occupations:
  0.706 -0.005 -0.016  0.026 -0.001
 -0.005  0.979  0.001  0.000  0.026
 -0.016  0.001  0.977  0.004  0.000
  0.026  0.000  0.004  0.980  0.000
 -0.001  0.026  0.000  0.000  0.685
atom    9   Tr[ns(na)] =   8.61937
    eigenvalues:
  0.707  0.715  0.952  0.953  0.984
    eigenvectors:
  0.000  0.144  0.000  0.000  0.855
  0.997  0.003  0.000  0.000  0.000
  0.000  0.000  0.997  0.003  0.000
  0.002  0.853  0.000  0.000  0.145
  0.000  0.000  0.003  0.997  0.000
    occupations:
  0.945  0.000 -0.000 -0.095  0.000
  0.000  0.707  0.000  0.000 -0.000
 -0.000  0.000  0.952 -0.001 -0.000
 -0.095  0.000 -0.001  0.754  0.000
  0.000 -0.000 -0.000  0.000  0.953
atom   10   Tr[ns(na)] =   8.69420
    eigenvalues:
  0.655  0.772  0.958  0.980  0.983
    eigenvectors:
  0.000  0.984  0.000  0.000  0.016
  0.000  0.000  1.000  0.000  0.000
  0.000  0.000  0.000  0.999  0.001
  0.000  0.016  0.000  0.001  0.983
  1.000  0.000  0.000  0.000  0.000
    occupations:
  0.776  0.000  0.002  0.026  0.000
  0.000  0.958 -0.000  0.000 -0.001
  0.002 -0.000  0.980 -0.000 -0.000
  0.026  0.000 -0.000  0.979 -0.000
  0.000 -0.001 -0.000 -0.000  0.655
atom   16   Tr[ns(na)] =   8.67574
    eigenvalues:
  0.691  0.698  0.979  0.984  0.987
    eigenvectors:
  0.181  0.000  0.748  0.000  0.071
  0.000  1.000  0.000  0.000  0.000
  0.002  0.000  0.100  0.000  0.898
  0.817  0.000  0.152  0.000  0.031
  0.000  0.000  0.000  1.000  0.000
    occupations:
  0.927 -0.000  0.004 -0.111  0.000
 -0.000  0.698  0.000  0.000 -0.001
  0.004  0.000  0.985  0.014 -0.000
 -0.111  0.000  0.014  0.744  0.000
  0.000 -0.001 -0.000  0.000  0.984
atom   17   Tr[ns(na)] =   8.65123
    eigenvalues:
  0.682  0.702  0.976  0.981  0.984
    eigenvectors:
  0.000  0.987  0.007  0.002  0.004
  0.007  0.000  0.037  0.947  0.008
  0.000  0.004  0.841  0.021  0.134
  0.000  0.009  0.114  0.023  0.854
  0.993  0.000  0.000  0.007  0.000
    occupations:
  0.706 -0.005 -0.016  0.026 -0.001
 -0.005  0.979  0.001  0.000  0.026
 -0.016  0.001  0.977  0.004  0.000
  0.026  0.000  0.004  0.980  0.000
 -0.001  0.026  0.000  0.000  0.685
atom   22   Tr[ns(na)] =   8.61938
    eigenvalues:
  0.707  0.715  0.952  0.953  0.984
    eigenvectors:
  0.000  0.144  0.000  0.000  0.855
  0.997  0.003  0.000  0.000  0.000
  0.000  0.000  1.000  0.000  0.000
  0.002  0.853  0.000  0.000  0.145
  0.000  0.000  0.000  1.000  0.000
    occupations:
  0.945  0.000 -0.000 -0.095  0.000
  0.000  0.707  0.000  0.000 -0.000
 -0.000  0.000  0.952 -0.001 -0.000
 -0.095  0.000 -0.001  0.754  0.000
  0.000 -0.000 -0.000  0.000  0.953
atom   23   Tr[ns(na)] =   8.69427
    eigenvalues:
  0.655  0.772  0.958  0.980  0.983
    eigenvectors:
  0.000  0.984  0.000  0.000  0.016
  0.000  0.000  1.000  0.000  0.000
  0.000  0.000  0.000  0.999  0.001
  0.000  0.016  0.000  0.001  0.983
  1.000  0.000  0.000  0.000  0.000
    occupations:
  0.776  0.000  0.002  0.026  0.000
  0.000  0.958 -0.000  0.000 -0.001
  0.002 -0.000  0.980 -0.000 -0.000
  0.026  0.000 -0.000  0.979 -0.000
  0.000 -0.001 -0.000 -0.000  0.655
N of occupied +U levels =  69.2812248
 --- exit write_ns ---

     Threshold (ethr) on eigenvalues was too large:
     Diagonalizing with lowered threshold

     Davidson diagonalization with overlap
     ethr =  3.52E-08,  avg # of iterations =  1.3

[...]

     total energy              =   -2248.52340909 Ry
     Harris-Foulkes estimate   =   -2248.52340910 Ry
     estimated scf accuracy    <       0.00000010 Ry

     iteration # 12     ecut=    40.00 Ry     beta=0.70
     Davidson diagonalization with overlap
     ethr =  2.04E-11,  avg # of iterations =  1.0

     negative rho (up, down):  0.158E+01 0.000E+00

     End of self-consistent calculation
 --- enter write_ns ---
 LDA+U parameters:
U( 2)     =  1.00000000
alpha( 2) =  0.00000000
atom    3   Tr[ns(na)] =   8.67563
    eigenvalues:
  0.691  0.698  0.979  0.984  0.987
    eigenvectors:
  0.181  0.000  0.748  0.000  0.071
  0.000  1.000  0.000  0.000  0.000
  0.002  0.000  0.100  0.000  0.898
  0.817  0.000  0.152  0.000  0.031
  0.000  0.000  0.000  1.000  0.000
    occupations:
  0.927 -0.000  0.004 -0.111  0.000
 -0.000  0.698  0.000  0.000 -0.001
  0.004  0.000  0.985  0.014 -0.000
 -0.111  0.000  0.014  0.744  0.000
  0.000 -0.001 -0.000  0.000  0.984
atom    4   Tr[ns(na)] =   8.65056
    eigenvalues:
  0.682  0.702  0.976  0.981  0.984
    eigenvectors:
  0.000  0.987  0.007  0.002  0.004
  0.007  0.000  0.036  0.948  0.008
  0.000  0.004  0.848  0.021  0.128
  0.000  0.009  0.109  0.022  0.860
  0.993  0.000  0.000  0.007  0.000
    occupations:
  0.706 -0.005 -0.016  0.026 -0.001
 -0.005  0.979  0.001  0.000  0.026
 -0.016  0.001  0.976  0.004  0.000
  0.026  0.000  0.004  0.980  0.000
 -0.001  0.026  0.000  0.000  0.684
atom    9   Tr[ns(na)] =   8.61769
    eigenvalues:
  0.707  0.715  0.951  0.952  0.984
    eigenvectors:
  0.000  0.144  0.000  0.000  0.855
  0.997  0.003  0.000  0.000  0.000
  0.000  0.000  0.998  0.002  0.000
  0.002  0.853  0.000  0.000  0.145
  0.000  0.000  0.002  0.998  0.000
    occupations:
  0.945  0.000 -0.000 -0.095  0.000
  0.000  0.707  0.000  0.000 -0.000
 -0.000  0.000  0.951 -0.001 -0.000
 -0.095  0.000 -0.001  0.754  0.000
  0.000 -0.000 -0.000  0.000  0.952
atom   10   Tr[ns(na)] =   8.69729
    eigenvalues:
  0.655  0.773  0.958  0.980  0.983
    eigenvectors:
  0.000  0.984  0.000  0.000  0.016
  0.000  0.000  1.000  0.000  0.000
  0.000  0.000  0.000  0.999  0.001
  0.000  0.016  0.000  0.001  0.983
  1.000  0.000  0.000  0.000  0.000
    occupations:
  0.777  0.000  0.002  0.026  0.000
  0.000  0.958 -0.000  0.000 -0.001
  0.002 -0.000  0.980 -0.000 -0.000
  0.026  0.000 -0.000  0.979 -0.000
  0.000 -0.001 -0.000 -0.000  0.655
atom   16   Tr[ns(na)] =   8.67563
    eigenvalues:
  0.691  0.698  0.979  0.984  0.987
    eigenvectors:
  0.181  0.000  0.748  0.000  0.071
  0.000  1.000  0.000  0.000  0.000
  0.002  0.000  0.100  0.000  0.898
  0.817  0.000  0.152  0.000  0.031
  0.000  0.000  0.000  1.000  0.000
    occupations:
  0.927 -0.000  0.004 -0.111  0.000
 -0.000  0.698  0.000  0.000 -0.001
  0.004  0.000  0.985  0.014 -0.000
 -0.111  0.000  0.014  0.744  0.000
  0.000 -0.001 -0.000  0.000  0.984
atom   17   Tr[ns(na)] =   8.65055
    eigenvalues:
  0.682  0.702  0.976  0.981  0.984
    eigenvectors:
  0.000  0.987  0.007  0.002  0.004
  0.007  0.000  0.036  0.948  0.008
  0.000  0.004  0.848  0.021  0.128
  0.000  0.009  0.109  0.022  0.860
  0.993  0.000  0.000  0.007  0.000
    occupations:
  0.706 -0.005 -0.016  0.026 -0.001
 -0.005  0.979  0.001  0.000  0.026
 -0.016  0.001  0.976  0.004  0.000
  0.026  0.000  0.004  0.980  0.000
 -0.001  0.026  0.000  0.000  0.684
atom   22   Tr[ns(na)] =   8.61770
    eigenvalues:
  0.707  0.715  0.951  0.952  0.984
    eigenvectors:
  0.000  0.144  0.000  0.000  0.855
  0.997  0.003  0.000  0.000  0.000
  0.000  0.000  0.999  0.001  0.000
  0.002  0.853  0.000  0.000  0.145
  0.000  0.000  0.001  0.999  0.000
    occupations:
  0.945  0.000 -0.000 -0.095  0.000
  0.000  0.707  0.000  0.000 -0.000
 -0.000  0.000  0.951 -0.001 -0.000
 -0.095  0.000 -0.001  0.754  0.000
  0.000 -0.000 -0.000  0.000  0.952
atom   23   Tr[ns(na)] =   8.69727
    eigenvalues:
  0.655  0.773  0.958  0.980  0.983
    eigenvectors:
  0.000  0.984  0.000  0.000  0.016
  0.000  0.000  1.000  0.000  0.000
  0.000  0.000  0.000  0.999  0.001
  0.000  0.016  0.000  0.001  0.983
  1.000  0.000  0.000  0.000  0.000
    occupations:
  0.777  0.000  0.002  0.026  0.000
  0.000  0.958 -0.000  0.000 -0.001
  0.002 -0.000  0.980 -0.000 -0.000
  0.026  0.000 -0.000  0.979 -0.000
  0.000 -0.001 -0.000 -0.000  0.655
N of occupied +U levels =  69.2823207
 --- exit write_ns ---

[...]

          k = 0.2500-0.4976 0.0000 ( 32026 PWs)   bands (ev):

[...]

          k =-0.2500 0.2488 0.0000 ( 32025 PWs)   bands (ev):

   -55.7596 -55.7206 -55.6571 -55.6547 -55.6119 -55.6059 -55.5737 -55.5676
   -55.4540 -55.4506 -55.3883 -55.3819 -55.3817 -55.3791 -55.3036 -55.3000
   -55.2884 -55.2839 -55.1255 -55.0864 -54.7764 -54.7712 -54.5454 -54.5429
   -21.9642 -21.7372 -21.1103 -20.9688 -20.6187 -20.5232 -20.4426 -20.3166
   -20.3083 -20.2532 -20.1724 -20.1326 -20.0953 -19.9722 -19.9094 -19.8655
   -18.9751 -18.8372 -10.1654  -9.9385  -9.8540  -9.7360  -9.2793  -9.2668
    -9.1336  -9.0368  -8.9386  -8.9361  -8.7925  -8.7219  -8.6941  -8.5216
    -8.4761  -8.4043  -8.2266  -8.2035  -7.8720  -7.7861  -7.7243  -7.5498
    -7.5421  -7.1586  -7.0723  -6.9976  -6.8219  -6.7654  -6.7478  -6.6537
    -6.5631  -6.5128  -6.3981  -6.3516  -6.2529  -6.1698  -6.0190  -6.0066
    -5.7665  -5.6469  -5.5652  -5.4820  -5.4761  -5.2368  -5.1998  -5.0760
    -4.9462  -4.8819  -4.7233  -4.6175  -4.4072  -4.3605  -4.3227  -4.2196
    -4.0256  -4.0200  -3.9031  -3.7605  -3.6937  -3.6936  -3.6432  -3.4672
    -3.4196  -3.3878  -3.3563  -3.0923  -3.0487  -2.9787  -2.6488  -2.4933
    -2.4283  -2.3806  -2.2052  -2.1840  -2.1244  -2.0158  -1.6990  -1.6136
    -1.5907  -1.2652  -0.9762  -0.6427  -0.2524  -0.2029  -0.0150   0.3524
     0.6001   0.7766   0.9418   0.9986   1.2710   1.2970   1.4535   1.6516
     3.0741   3.6635   4.5727   4.9820   5.0624   5.1136   5.2229   5.4183
     5.6919   5.9558   6.0504   6.2390   6.4205   6.4999   6.6014   6.6400
     6.7664   6.8314   7.0274   7.0790   7.2709   7.3938   7.4213   7.5263
     7.5758   7.7378   7.8229   7.9653   8.0695   8.1609   8.2510   8.2965
     8.3344   8.4488   8.5524   8.6441   8.7600   8.8579   9.0286   9.1303
     9.2991   9.3452   9.4479   9.5508   9.6651   9.7482   9.8803   9.9582
    10.1034  10.1591  10.2104  10.2166  10.4261  10.5050  10.5351  10.6419
    10.6700  10.8212  10.8256  10.9732  11.1440  11.2491  11.3492  11.3796
    11.4134  11.5290  11.6353  11.7496  11.7835  11.8251  11.8696  11.9325
    11.9771  12.1479  12.1766  12.2088  12.3264  12.3310  12.4286  12.5155
    12.5630  12.6118  12.7199  12.7813  12.8711  12.8815  13.0168  13.0722
    13.1429  13.2333  13.4108  13.4910  13.5843  13.6264  13.6979  13.7958
    13.8266  13.8816  14.0006  14.0208  14.1238  14.2556  14.3564  14.3891
    14.4646  14.5911  14.6683  14.7091  14.8175  14.9244  14.9878  15.1502
    15.2017  15.2189  15.3399  15.3608  15.4484  15.5169  15.5503  15.6289
    15.6296  15.6733  15.7533  15.8134  15.8462  15.9272  16.0143  16.0396
    16.1600  16.1685  16.2209  16.2902  16.3756  16.4709  16.4743  16.4868
    16.6056  16.6995  16.7241  16.7247  16.7585  16.7720  16.7939  16.8879
    16.9236  17.0368  17.0666  17.1230  17.1371  17.1664  17.2214  17.2410
    17.3199  17.3474  17.4114  17.4550  17.4713  17.4886  17.5435  17.6119
    17.6872  17.7537  17.7778  17.8983  18.0191  18.0738  18.1048  18.1887
    18.1987  18.3372  18.3762  18.3802  18.5194  18.5572  18.6793  18.6902
    18.7182  18.8866  18.9269  19.0158  19.0274  19.1017  19.1387  19.2596
    19.3157  19.3763  19.4050  19.5474  19.5970  19.7450  19.8020  19.8341
    19.8990  19.9433  19.9754  20.0262  20.0418  20.0718  20.2419  20.2637
    20.3237  20.3284  20.4942  20.5051  20.6156  20.6972  20.7561  20.8007
    20.8032  20.9394  20.9483  21.0073  21.0290  21.2126  21.2515  21.2579
    21.3490  21.4320  21.4419  21.5293  21.5769  21.6203  21.6437  21.7579

     the Fermi energy is    -1.5600 ev

!    total energy              =   -2248.52340909 Ry
     Harris-Foulkes estimate   =   -2248.52340910 Ry
     estimated scf accuracy    <          8.4E-09 Ry

     The total energy is the sum of the following terms:

     one-electron contribution =  -22781.43596247 Ry
     hartree contribution      =   11430.61760939 Ry
     xc contribution           =    -565.08082921 Ry
     ewald contribution        =    9667.08907951 Ry
     Hubbard energy            =       0.28748047 Ry
     smearing contrib. (-TS)   =      -0.00078678 Ry

     convergence has been achieved in  12 iterations

     Forces acting on atoms (Ry/au):

     negative rho (up, down):  0.158E+01 0.000E+00
     atom    1 type  1   force =    -0.00807518   -0.00529644   -0.00009681
     atom    2 type  1   force =     0.00010608    0.00495070    0.00025298
     atom    3 type  2   force =    -0.00047901    0.00201828    0.00078155
     atom    4 type  2   force =     0.01069118    0.00199825   -0.00001403
     atom    5 type  1   force =     0.00101883   -0.00248109   -0.00081073
     atom    6 type  1   force =     0.00001628    0.00128862    0.00021678
     atom    7 type  1   force =     0.00004424    0.00457736   -0.00033250
     atom    8 type  1   force =    -0.00398379   -0.00738144   -0.00051215
     atom    9 type  2   force =     0.00181617    0.00094486    0.00028116
     atom   10 type  2   force =    -0.00003992   -0.00186677   -0.00044811
     atom   11 type  1   force =     0.00000190   -0.00672105    0.00012380
     atom   12 type  1   force =     0.00008287    0.00789772    0.00014396
     atom   13 type  1   force =    -0.00113161   -0.00032649   -0.00031771
     atom   14 type  1   force =    -0.00808918   -0.00529876   -0.00010424
     atom   15 type  1   force =     0.00010575    0.00494415    0.00026042
     atom   16 type  2   force =    -0.00048513    0.00201834    0.00078191
     atom   17 type  2   force =     0.01069177    0.00199834    0.00001867
     atom   18 type  1   force =     0.00101399   -0.00248099   -0.00081065
     atom   19 type  1   force =     0.00000846    0.00128859    0.00021680
     atom   20 type  1   force =     0.00004425    0.00457745   -0.00033218
     atom   21 type  1   force =    -0.00398418   -0.00738131   -0.00053506
     atom   22 type  2   force =     0.00180470    0.00094488    0.00028101
     atom   23 type  2   force =    -0.00003961   -0.00186699   -0.00044256
     atom   24 type  1   force =    -0.00000839   -0.00672139    0.00012336
     atom   25 type  1   force =     0.00007182    0.00789817    0.00014369
     atom   26 type  1   force =    -0.00113247   -0.00032644   -0.00034744
     atom   27 type  3   force =     0.00001342   -0.00005842    0.00071577
     atom   28 type  3   force =     0.00001336   -0.00005202    0.00071245
     atom   29 type  3   force =    -0.00005574    0.00045530    0.00002636
     atom   30 type  3   force =    -0.00004086    0.00045859    0.00002348

     Total force =     0.002419     Total SCF correction =     0.000127

     bfgs converged in   4 scf cycles and   3 bfgs steps
     (criteria: energy < 0.10E-03, force < 0.10E-02)

     End of BFGS Geometry Optimization

     Final energy   =   -2248.5234090881 Ry
Begin final coordinates

ATOMIC_POSITIONS (crystal)
O0       0.000000000   0.000000000   0.376947057    0   0   1
O0       0.000000000   0.500000000   0.399267428    0   0   1
Pt1      0.250000000   0.500000000   0.449014059    0   0   1
Pt1      0.000000000   0.000000000   0.451976301    0   0   1
O0       0.250000000   0.810000000   0.442661011    0   0   1
O0       0.250000000   0.190000000   0.459037920    0   0   1
O0       0.000000000   0.500000000   0.495477355    0   0   1
O0       0.000000000   0.000000000   0.529413730    0   0   1
Pt1      0.250000000   0.000000000   0.576066624    0   0   1
Pt1      0.000000000   0.500000000   0.574030446    0   0   1
O0       0.250000000   0.690000000   0.583153679    0   0   1
O0       0.250000000   0.310000000   0.583716303    0   0   1
O0       0.000000000   0.000000000   0.621567846    0   0   1
O0       0.500000000   0.000000000   0.376947763    0   0   1
O0       0.500000000   0.500000000   0.399267233    0   0   1
Pt1      0.750000000   0.500000000   0.449014041    0   0   1
Pt1      0.500000000   0.000000000   0.451976132    0   0   1
O0       0.750000000   0.810000000   0.442660962    0   0   1
O0       0.750000000   0.190000000   0.459037919    0   0   1
O0       0.500000000   0.500000000   0.495477554    0   0   1
O0       0.500000000   0.000000000   0.529415171    0   0   1
Pt1      0.750000000   0.000000000   0.576066647    0   0   1
Pt1      0.500000000   0.500000000   0.574029909    0   0   1
O0       0.750000000   0.690000000   0.583153842    0   0   1
O0       0.750000000   0.310000000   0.583716431    0   0   1
O0       0.500000000   0.000000000   0.621570072    0   0   1
H2      -0.000045373   0.640054896   0.383624676
H2       0.499954589   0.640054550   0.383624755
H2       0.143980827   0.031558228   0.366973451
H2       0.643979065   0.031557812   0.366973683
End final coordinates

     General routines

     Parallel routines
     Hubbard U routines

   This run was terminated on:  10:18:20   6May2014

   JOB DONE.