     Program PWSCF v.5.0.2 (svn rev. 9656) starts on 24Jan2014 at 14:12:22

     Current dimensions of program PWSCF are:
     Max number of different atomic species (ntypx) = 10
     Max number of k-points (npk) =  40000
     Max angular momentum in pseudopotentials (lmaxx) =  3
     Reading input from SnO2-v-1.00.in

     Subspace diagonalization in iterative solution of the eigenvalue problem:
     a serial algorithm will be used

     bravais-lattice index     =            0
     lattice parameter (alat)  =       9.2556  a.u.
     unit-cell volume          =     510.9771 (a.u.)^3
     number of atoms/cell      =            6
     number of atomic types    =            2
     number of electrons       =        52.00
     number of Kohn-Sham states=           75
     kinetic-energy cutoff     =      40.0000  Ry
     charge density cutoff     =     500.0000  Ry
     convergence threshold     =      1.0E-06
     mixing beta               =       0.3000
     number of iterations used =            8  plain     mixing
     Exchange-correlation      = SLA  PW   PBE  PBE ( 1 4 3 4 0)
     EXX-fraction              =        0.00
     nstep                     =           50

     celldm(1)=   9.255616  celldm(2)=   0.000000  celldm(3)=   0.000000
     celldm(4)=   0.000000  celldm(5)=   0.000000  celldm(6)=   0.000000

     crystal axes: (cart. coord. in units of alat)
               a(1) = (   1.000000   0.000000   0.000000 )
               a(2) = (   0.000000   1.000000   0.000000 )
               a(3) = (   0.000000   0.000000   0.644444 )

     reciprocal axes: (cart. coord. in units 2 pi/alat)
               b(1) = (  1.000000  0.000000  0.000000 )
               b(2) = (  0.000000  1.000000  0.000000 )
               b(3) = (  0.000000  0.000000  1.551724 )

     PseudoPot. # 1 for Sn read from file:
     /home/camp/zhonxu/pseudo/sn_pbe_v1.uspp.F.UPF
     MD5 check sum: 4cf58ce39ec5d5d420df3dd08604eb00
     Pseudo is Ultrasoft + core correction, Zval = 14.0
     Generated by new atomic code, or converted to UPF format
     Using radial grid of  891 points,  6 beta functions with:
                l(1) =   0
                l(2) =   0
                l(3) =   1
                l(4) =   1
                l(5) =   2
                l(6) =   2
     Q(r) pseudized with  6 coefficients,  rinner =    1.200   1.200   1.200
                                                       1.200   1.200

     PseudoPot. # 2 for O  read from file:
     /home/camp/zhonxu/pseudo/o_pbe_v1.01.uspp.F.UPF
     MD5 check sum: 2bcb18d16ea4b960afae9ec6d52f22d2
     Pseudo is Ultrasoft + core correction, Zval =  6.0
     Generated by new atomic code, or converted to UPF format
     Using radial grid of  737 points,  5 beta functions with:
                l(1) =   0
                l(2) =   0
                l(3) =   1
                l(4) =   1
                l(5) =   2
     Q(r) pseudized with  8 coefficients,  rinner =    0.900   0.900   0.900
                                                       0.900   0.900

     atomic species   valence    mass     pseudopotential
        Sn0           14.00   118.71000     Sn( 1.00)
        O1             6.00    15.99940     O ( 1.00)

     Starting magnetic structure
     atomic species   magnetization
        Sn0          0.000
        O1           0.000

      8 Sym. Ops., with inversion, found
          (note:  8 additional sym.ops. were found but ignored
           their fractional translations are incommensurate with FFT grid)

   Cartesian axes

     site n.     atom                  positions (alat units)
         1           Sn0 tau(   1) = (   0.0000000   0.0000000   0.0000000  )
         2           Sn0 tau(   2) = (   0.5000000   0.5000000   0.3222222  )
         3           O1  tau(   3) = (   0.3050000   0.3050000   0.0000000  )
         4           O1  tau(   4) = (  -0.3050000  -0.3050000   0.0000000  )
         5           O1  tau(   5) = (   0.8050000   0.1950000   0.3222222  )
         6           O1  tau(   6) = (   0.1950000   0.8050000   0.3222222  )

     number of k points=    54  Methfessel-Paxton smearing, width (Ry)=  0.0100
                       cart. coord. in units 2pi/alat
        k(    1) = (   0.0000000   0.0000000   0.0000000), wk =   0.0080000
        k(    2) = (   0.0000000   0.0000000   0.3103448), wk =   0.0160000
        k(    3) = (   0.0000000   0.0000000   0.6206897), wk =   0.0160000
        k(    4) = (   0.0000000   0.2000000   0.0000000), wk =   0.0320000
        k(    5) = (   0.0000000   0.2000000   0.3103448), wk =   0.0640000
        k(    6) = (   0.0000000   0.2000000   0.6206897), wk =   0.0640000
        k(    7) = (   0.0000000   0.4000000   0.0000000), wk =   0.0320000
        k(    8) = (   0.0000000   0.4000000   0.3103448), wk =   0.0640000
        k(    9) = (   0.0000000   0.4000000   0.6206897), wk =   0.0640000
        k(   10) = (   0.2000000   0.2000000   0.0000000), wk =   0.0160000
        k(   11) = (   0.2000000   0.2000000   0.3103448), wk =   0.0320000
        k(   12) = (   0.2000000   0.2000000   0.6206897), wk =   0.0320000
        k(   13) = (   0.2000000   0.4000000   0.0000000), wk =   0.0320000
        k(   14) = (   0.2000000   0.4000000   0.3103448), wk =   0.0640000
        k(   15) = (   0.2000000   0.4000000   0.6206897), wk =   0.0640000
        k(   16) = (   0.4000000   0.4000000   0.0000000), wk =   0.0160000
        k(   17) = (   0.4000000   0.4000000   0.3103448), wk =   0.0320000
        k(   18) = (   0.4000000   0.4000000   0.6206897), wk =   0.0320000
        k(   19) = (  -0.2000000   0.2000000   0.0000000), wk =   0.0160000
        k(   20) = (  -0.2000000   0.2000000  -0.3103448), wk =   0.0320000
        k(   21) = (  -0.2000000   0.2000000  -0.6206897), wk =   0.0320000
        k(   22) = (  -0.2000000   0.4000000   0.0000000), wk =   0.0320000
        k(   23) = (  -0.2000000   0.4000000  -0.3103448), wk =   0.0640000
        k(   24) = (  -0.2000000   0.4000000  -0.6206897), wk =   0.0640000
        k(   25) = (  -0.4000000   0.4000000   0.0000000), wk =   0.0160000
        k(   26) = (  -0.4000000   0.4000000  -0.3103448), wk =   0.0320000
        k(   27) = (  -0.4000000   0.4000000  -0.6206897), wk =   0.0320000
        k(   28) = (   0.0000000   0.0000000   0.0000000), wk =   0.0080000
        k(   29) = (   0.0000000   0.0000000   0.3103448), wk =   0.0160000
        k(   30) = (   0.0000000   0.0000000   0.6206897), wk =   0.0160000
        k(   31) = (   0.0000000   0.2000000   0.0000000), wk =   0.0320000
        k(   32) = (   0.0000000   0.2000000   0.3103448), wk =   0.0640000
        k(   33) = (   0.0000000   0.2000000   0.6206897), wk =   0.0640000
        k(   34) = (   0.0000000   0.4000000   0.0000000), wk =   0.0320000
        k(   35) = (   0.0000000   0.4000000   0.3103448), wk =   0.0640000
        k(   36) = (   0.0000000   0.4000000   0.6206897), wk =   0.0640000
        k(   37) = (   0.2000000   0.2000000   0.0000000), wk =   0.0160000
        k(   38) = (   0.2000000   0.2000000   0.3103448), wk =   0.0320000
        k(   39) = (   0.2000000   0.2000000   0.6206897), wk =   0.0320000
        k(   40) = (   0.2000000   0.4000000   0.0000000), wk =   0.0320000
        k(   41) = (   0.2000000   0.4000000   0.3103448), wk =   0.0640000
        k(   42) = (   0.2000000   0.4000000   0.6206897), wk =   0.0640000
        k(   43) = (   0.4000000   0.4000000   0.0000000), wk =   0.0160000
        k(   44) = (   0.4000000   0.4000000   0.3103448), wk =   0.0320000
        k(   45) = (   0.4000000   0.4000000   0.6206897), wk =   0.0320000
        k(   46) = (  -0.2000000   0.2000000   0.0000000), wk =   0.0160000
        k(   47) = (  -0.2000000   0.2000000  -0.3103448), wk =   0.0320000
        k(   48) = (  -0.2000000   0.2000000  -0.6206897), wk =   0.0320000
        k(   49) = (  -0.2000000   0.4000000   0.0000000), wk =   0.0320000
        k(   50) = (  -0.2000000   0.4000000  -0.3103448), wk =   0.0640000
        k(   51) = (  -0.2000000   0.4000000  -0.6206897), wk =   0.0640000
        k(   52) = (  -0.4000000   0.4000000   0.0000000), wk =   0.0160000
        k(   53) = (  -0.4000000   0.4000000  -0.3103448), wk =   0.0320000
        k(   54) = (  -0.4000000   0.4000000  -0.6206897), wk =   0.0320000

     Largest allocated arrays     est. size (Mb)     dimensions
     Largest temporary arrays     est. size (Mb)     dimensions

     Check: negative/imaginary core charge=   -0.000004    0.000000

     Initial potential from superposition of free atoms

     starting charge   49.99990, renormalised to   52.00000
     Starting wfc are   34 randomized atomic wfcs

     Self-consistent Calculation

     iteration #  1     ecut=    40.00 Ry     beta=0.30
     Davidson diagonalization with overlap
     ethr =  1.00E-02,  avg # of iterations =  5.1

     total energy              =    -455.38198434 Ry
     Harris-Foulkes estimate   =    -456.15574431 Ry
     estimated scf accuracy    <       1.67429489 Ry

     total magnetization       =    -0.00 Bohr mag/cell
     absolute magnetization    =     0.00 Bohr mag/cell

[...]

     End of self-consistent calculation

 ------ SPIN UP ------------

          k = 0.0000 0.0000 0.0000 (  2177 PWs)   bands (ev):

   -12.3527 -11.7495 -11.4906 -11.4491 -11.4490 -11.3598 -11.3595 -11.2938
   -11.2757 -11.2757  -9.9451  -8.2793  -8.2793  -6.7738   0.6417   4.6654
     4.6654   5.2132   5.8013   6.6471   6.8625   7.5688   7.5689   7.9537
     7.9537   8.7290   9.4870  14.7819  15.0453  15.0453  18.7926  19.2594
    20.0284  20.0284  20.7809  20.9707  23.4104  26.0316  27.1717  27.2525
    28.1337  28.1337  28.3780  28.3780  28.9364  28.9364  29.0913  29.0927
    29.9968  30.6289  30.8634  31.7546  33.7431  33.7431  35.7234  35.7235
    35.7897  36.7958  38.0263  38.1822  38.1822  39.9921  40.0769  40.1785
    41.5065  41.5251  41.5251  41.9772  41.9772  42.2162  44.0439  44.2008
    45.0821  45.0821  45.8783

[...]

          k =-0.2000 0.2000 0.0000 (  2153 PWs)   bands (ev):

[...]

 ------ SPIN DOWN ----------

[...]

     the Fermi energy is     8.8318 ev

!    total energy              =    -455.50843229 Ry
     Harris-Foulkes estimate   =    -455.50841613 Ry
     estimated scf accuracy    <       0.00000027 Ry

     The total energy is the sum of the following terms:

     one-electron contribution =    -140.29985333 Ry
     hartree contribution      =     109.84191947 Ry
     xc contribution           =    -124.52186987 Ry
     ewald contribution        =    -300.52863892 Ry
     smearing contrib. (-TS)   =       0.00001036 Ry

[...]

     convergence has been achieved in   7 iterations

     Forces acting on atoms (Ry/au):

     atom    1 type  1   force =     0.00000000    0.00000000    0.00000000
     atom    2 type  1   force =     0.00000000    0.00000000    0.00000000
     atom    3 type  2   force =     0.00337906    0.00337906    0.00000000
     atom    4 type  2   force =    -0.00337906   -0.00337906    0.00000000
     atom    5 type  2   force =     0.00337822   -0.00337822   -0.00000000
     atom    6 type  2   force =    -0.00337822    0.00337822   -0.00000000

[...]
O1       0.193568993   0.806431007   0.500000000    1   1   0

     NEW-OLD atomic charge density approx. for the potential
     NEW k-points:
        k(    1) = (   0.0000000   0.0000000   0.0000000), wk =   0.0080000
        k(    2) = (   0.0000000   0.0000000   0.3019934), wk =   0.0160000
        k(    3) = (   0.0000000   0.0000000   0.6039869), wk =   0.0160000
        k(    4) = (   0.0000004   0.2027466   0.0000000), wk =   0.0320000
        k(    5) = (   0.0000004   0.2027466   0.3019934), wk =   0.0640000
        k(    6) = (   0.0000004   0.2027466   0.6039869), wk =   0.0640000
        k(    7) = (   0.0000008   0.4054931   0.0000000), wk =   0.0320000
        k(    8) = (   0.0000008   0.4054931   0.3019934), wk =   0.0640000
        k(    9) = (   0.0000008   0.4054931   0.6039869), wk =   0.0640000
        k(   10) = (   0.2027470   0.2027470   0.0000000), wk =   0.0160000
        k(   11) = (   0.2027470   0.2027470   0.3019934), wk =   0.0320000
        k(   12) = (   0.2027470   0.2027470   0.6039869), wk =   0.0320000
        k(   13) = (   0.2027474   0.4054935   0.0000000), wk =   0.0320000
        k(   14) = (   0.2027474   0.4054935   0.3019934), wk =   0.0640000
        k(   15) = (   0.2027474   0.4054935   0.6039869), wk =   0.0640000
        k(   16) = (   0.4054939   0.4054939   0.0000000), wk =   0.0160000
        k(   17) = (   0.4054939   0.4054939   0.3019934), wk =   0.0320000
        k(   18) = (   0.4054939   0.4054939   0.6039869), wk =   0.0320000
        k(   19) = (  -0.2027462   0.2027462   0.0000000), wk =   0.0160000
        k(   20) = (  -0.2027462   0.2027462  -0.3019934), wk =   0.0320000
        k(   21) = (  -0.2027462   0.2027462  -0.6039869), wk =   0.0320000
        k(   22) = (  -0.2027458   0.4054927   0.0000000), wk =   0.0320000
        k(   23) = (  -0.2027458   0.4054927  -0.3019934), wk =   0.0640000
        k(   24) = (  -0.2027458   0.4054927  -0.6039869), wk =   0.0640000
        k(   25) = (  -0.4054923   0.4054923   0.0000000), wk =   0.0160000
        k(   26) = (  -0.4054923   0.4054923  -0.3019934), wk =   0.0320000
        k(   27) = (  -0.4054923   0.4054923  -0.6039869), wk =   0.0320000
        k(   28) = (   0.0000000   0.0000000   0.0000000), wk =   0.0080000
        k(   29) = (   0.0000000   0.0000000   0.3019934), wk =   0.0160000
        k(   30) = (   0.0000000   0.0000000   0.6039869), wk =   0.0160000
        k(   31) = (   0.0000004   0.2027466   0.0000000), wk =   0.0320000
        k(   32) = (   0.0000004   0.2027466   0.3019934), wk =   0.0640000
        k(   33) = (   0.0000004   0.2027466   0.6039869), wk =   0.0640000
        k(   34) = (   0.0000008   0.4054931   0.0000000), wk =   0.0320000
        k(   35) = (   0.0000008   0.4054931   0.3019934), wk =   0.0640000
        k(   36) = (   0.0000008   0.4054931   0.6039869), wk =   0.0640000
        k(   37) = (   0.2027470   0.2027470   0.0000000), wk =   0.0160000
        k(   38) = (   0.2027470   0.2027470   0.3019934), wk =   0.0320000
        k(   39) = (   0.2027470   0.2027470   0.6039869), wk =   0.0320000
        k(   40) = (   0.2027474   0.4054935   0.0000000), wk =   0.0320000
        k(   41) = (   0.2027474   0.4054935   0.3019934), wk =   0.0640000
        k(   42) = (   0.2027474   0.4054935   0.6039869), wk =   0.0640000
        k(   43) = (   0.4054939   0.4054939   0.0000000), wk =   0.0160000
        k(   44) = (   0.4054939   0.4054939   0.3019934), wk =   0.0320000
        k(   45) = (   0.4054939   0.4054939   0.6039869), wk =   0.0320000
        k(   46) = (  -0.2027462   0.2027462   0.0000000), wk =   0.0160000
        k(   47) = (  -0.2027462   0.2027462  -0.3019934), wk =   0.0320000
        k(   48) = (  -0.2027462   0.2027462  -0.6039869), wk =   0.0320000
        k(   49) = (  -0.2027458   0.4054927   0.0000000), wk =   0.0320000
        k(   50) = (  -0.2027458   0.4054927  -0.3019934), wk =   0.0640000
        k(   51) = (  -0.2027458   0.4054927  -0.6039869), wk =   0.0640000
        k(   52) = (  -0.4054923   0.4054923   0.0000000), wk =   0.0160000
        k(   53) = (  -0.4054923   0.4054923  -0.3019934), wk =   0.0320000
        k(   54) = (  -0.4054923   0.4054923  -0.6039869), wk =   0.0320000

[...]

     Threshold (ethr) on eigenvalues was too large:
     Diagonalizing with lowered threshold

     Davidson diagonalization with overlap
     ethr =  2.63E-08,  avg # of iterations =  1.3

[...]

     Volume is kept fixed: isostatic pressure set to zero

     bfgs converged in   4 scf cycles and   3 bfgs steps
     (criteria: energy < 0.10E-03, force < 0.10E-02, cell < 0.50E+00)

     End of BFGS Geometry Optimization

     Final enthalpy =    -455.5125394618 Ry
Begin final coordinates
     new unit-cell volume =    510.97715 a.u.^3 (    75.71900 Ang^3 )

CELL_PARAMETERS (alat=  9.25561606)
   0.986453225  -0.000001958   0.000000000
  -0.000001958   0.986453225   0.000000000
   0.000000000   0.000000000   0.662266047

ATOMIC_POSITIONS (crystal)
Sn0      0.000000000   0.000000000   0.000000000    0   0   0
Sn0      0.500000000   0.500000000   0.500000000    0   0   0
O1       0.306430785   0.306430785   0.000000000    1   1   0
O1      -0.306430785  -0.306430785   0.000000000    1   1   0
O1       0.806431007   0.193568993   0.500000000    1   1   0
O1       0.193568993   0.806431007   0.500000000    1   1   0
End final coordinates

     A final scf calculation at the relaxed structure.
     The G-vectors are recalculated for the final unit cell
     Results may differ from those at the preceding step.

     bravais-lattice index     =            0
     lattice parameter (alat)  =       9.2556  a.u.
     unit-cell volume          =     510.9771 (a.u.)^3
     number of atoms/cell      =            6
     number of atomic types    =            2
     number of electrons       =        52.00
     number of Kohn-Sham states=           75
     kinetic-energy cutoff     =      40.0000  Ry
     charge density cutoff     =     500.0000  Ry
     convergence threshold     =      1.3E-08
     mixing beta               =       0.3000
     number of iterations used =            8  plain     mixing
     Exchange-correlation      = SLA  PW   PBE  PBE ( 1 4 3 4 0)
     EXX-fraction              =        0.00

     celldm(1)=   9.255616  celldm(2)=   0.000000  celldm(3)=   0.000000
     celldm(4)=   0.000000  celldm(5)=   0.000000  celldm(6)=   0.000000

     crystal axes: (cart. coord. in units of alat)
               a(1) = (   0.986453  -0.000002   0.000000 )
               a(2) = (  -0.000002   0.986453   0.000000 )
               a(3) = (   0.000000   0.000000   0.662266 )

     reciprocal axes: (cart. coord. in units 2 pi/alat)
               b(1) = (  1.013733  0.000002 -0.000000 )
               b(2) = (  0.000002  1.013733 -0.000000 )
               b(3) = ( -0.000000 -0.000000  1.509967 )

     PseudoPot. # 1 for Sn read from file:
     /home/camp/zhonxu/pseudo/sn_pbe_v1.uspp.F.UPF
     MD5 check sum: 4cf58ce39ec5d5d420df3dd08604eb00
     Pseudo is Ultrasoft + core correction, Zval = 14.0
     Generated by new atomic code, or converted to UPF format
     Using radial grid of  891 points,  6 beta functions with:
                l(1) =   0
                l(2) =   0
                l(3) =   1
                l(4) =   1
                l(5) =   2
                l(6) =   2
     Q(r) pseudized with  6 coefficients,  rinner =    1.200   1.200   1.200
                                                       1.200   1.200

     PseudoPot. # 2 for O  read from file:
     /home/camp/zhonxu/pseudo/o_pbe_v1.01.uspp.F.UPF
     MD5 check sum: 2bcb18d16ea4b960afae9ec6d52f22d2
     Pseudo is Ultrasoft + core correction, Zval =  6.0
     Generated by new atomic code, or converted to UPF format
     Using radial grid of  737 points,  5 beta functions with:
                l(1) =   0
                l(2) =   0
                l(3) =   1
                l(4) =   1
                l(5) =   2
     Q(r) pseudized with  8 coefficients,  rinner =    0.900   0.900   0.900
                                                       0.900   0.900

     atomic species   valence    mass     pseudopotential
        Sn0           14.00   118.71000     Sn( 1.00)
        O1             6.00    15.99940     O ( 1.00)

     Starting magnetic structure
     atomic species   magnetization
        Sn0          0.000
        O1           0.000

      8 Sym. Ops., with inversion, found
          (note:  8 additional sym.ops. were found but ignored
           their fractional translations are incommensurate with FFT grid)

   Cartesian axes

     site n.     atom                  positions (alat units)
         1           Sn0 tau(   1) = (   0.0000000   0.0000000   0.0000000  )
         2           Sn0 tau(   2) = (   0.4932256   0.4932256   0.3311330  )
         3           O1  tau(   3) = (   0.3022790   0.3022790   0.0000000  )
         4           O1  tau(   4) = (  -0.3022790  -0.3022790   0.0000000  )
         5           O1  tau(   5) = (   0.7955061   0.1909452   0.3311330  )
         6           O1  tau(   6) = (   0.1909452   0.7955061   0.3311330  )

     number of k points=    54  Methfessel-Paxton smearing, width (Ry)=  0.0100
                       cart. coord. in units 2pi/alat
        k(    1) = (   0.0000000   0.0000000   0.0000000), wk =   0.0080000
        k(    2) = (   0.0000000   0.0000000   0.3019934), wk =   0.0160000
        k(    3) = (   0.0000000   0.0000000   0.6039869), wk =   0.0160000
        k(    4) = (   0.0000004   0.2027466   0.0000000), wk =   0.0320000
        k(    5) = (   0.0000004   0.2027466   0.3019934), wk =   0.0640000
        k(    6) = (   0.0000004   0.2027466   0.6039869), wk =   0.0640000
        k(    7) = (   0.0000008   0.4054931   0.0000000), wk =   0.0320000
        k(    8) = (   0.0000008   0.4054931   0.3019934), wk =   0.0640000
        k(    9) = (   0.0000008   0.4054931   0.6039869), wk =   0.0640000
        k(   10) = (   0.2027470   0.2027470   0.0000000), wk =   0.0160000
        k(   11) = (   0.2027470   0.2027470   0.3019934), wk =   0.0320000
        k(   12) = (   0.2027470   0.2027470   0.6039869), wk =   0.0320000
        k(   13) = (   0.2027474   0.4054935   0.0000000), wk =   0.0320000
        k(   14) = (   0.2027474   0.4054935   0.3019934), wk =   0.0640000
        k(   15) = (   0.2027474   0.4054935   0.6039869), wk =   0.0640000
        k(   16) = (   0.4054939   0.4054939   0.0000000), wk =   0.0160000
        k(   17) = (   0.4054939   0.4054939   0.3019934), wk =   0.0320000
        k(   18) = (   0.4054939   0.4054939   0.6039869), wk =   0.0320000
        k(   19) = (  -0.2027462   0.2027462   0.0000000), wk =   0.0160000
        k(   20) = (  -0.2027462   0.2027462  -0.3019934), wk =   0.0320000
        k(   21) = (  -0.2027462   0.2027462  -0.6039869), wk =   0.0320000
        k(   22) = (  -0.2027458   0.4054927   0.0000000), wk =   0.0320000
        k(   23) = (  -0.2027458   0.4054927  -0.3019934), wk =   0.0640000
        k(   24) = (  -0.2027458   0.4054927  -0.6039869), wk =   0.0640000
        k(   25) = (  -0.4054923   0.4054923   0.0000000), wk =   0.0160000
        k(   26) = (  -0.4054923   0.4054923  -0.3019934), wk =   0.0320000
        k(   27) = (  -0.4054923   0.4054923  -0.6039869), wk =   0.0320000
        k(   28) = (   0.0000000   0.0000000   0.0000000), wk =   0.0080000
        k(   29) = (   0.0000000   0.0000000   0.3019934), wk =   0.0160000
        k(   30) = (   0.0000000   0.0000000   0.6039869), wk =   0.0160000
        k(   31) = (   0.0000004   0.2027466   0.0000000), wk =   0.0320000
        k(   32) = (   0.0000004   0.2027466   0.3019934), wk =   0.0640000
        k(   33) = (   0.0000004   0.2027466   0.6039869), wk =   0.0640000
        k(   34) = (   0.0000008   0.4054931   0.0000000), wk =   0.0320000
        k(   35) = (   0.0000008   0.4054931   0.3019934), wk =   0.0640000
        k(   36) = (   0.0000008   0.4054931   0.6039869), wk =   0.0640000
        k(   37) = (   0.2027470   0.2027470   0.0000000), wk =   0.0160000
        k(   38) = (   0.2027470   0.2027470   0.3019934), wk =   0.0320000
        k(   39) = (   0.2027470   0.2027470   0.6039869), wk =   0.0320000
        k(   40) = (   0.2027474   0.4054935   0.0000000), wk =   0.0320000
        k(   41) = (   0.2027474   0.4054935   0.3019934), wk =   0.0640000
        k(   42) = (   0.2027474   0.4054935   0.6039869), wk =   0.0640000
        k(   43) = (   0.4054939   0.4054939   0.0000000), wk =   0.0160000
        k(   44) = (   0.4054939   0.4054939   0.3019934), wk =   0.0320000
        k(   45) = (   0.4054939   0.4054939   0.6039869), wk =   0.0320000
        k(   46) = (  -0.2027462   0.2027462   0.0000000), wk =   0.0160000
        k(   47) = (  -0.2027462   0.2027462  -0.3019934), wk =   0.0320000
        k(   48) = (  -0.2027462   0.2027462  -0.6039869), wk =   0.0320000
        k(   49) = (  -0.2027458   0.4054927   0.0000000), wk =   0.0320000
        k(   50) = (  -0.2027458   0.4054927  -0.3019934), wk =   0.0640000
        k(   51) = (  -0.2027458   0.4054927  -0.6039869), wk =   0.0640000
        k(   52) = (  -0.4054923   0.4054923   0.0000000), wk =   0.0160000
        k(   53) = (  -0.4054923   0.4054923  -0.3019934), wk =   0.0320000
        k(   54) = (  -0.4054923   0.4054923  -0.6039869), wk =   0.0320000

     Largest allocated arrays     est. size (Mb)     dimensions
     Largest temporary arrays     est. size (Mb)     dimensions

     Check: negative/imaginary core charge=   -0.000004    0.000000

     Initial potential from superposition of free atoms

     starting charge   49.99990, renormalised to   52.00000
     Starting wfc are   34 randomized atomic wfcs

     Self-consistent Calculation

[...]

     total energy              =    -455.51255179 Ry
     Harris-Foulkes estimate   =    -455.51254782 Ry
     estimated scf accuracy    <       0.00000006 Ry

[...]

     iteration #  9     ecut=    40.00 Ry     beta=0.30
     Davidson diagonalization with overlap
     ethr =  1.19E-10,  avg # of iterations =  1.0

     End of self-consistent calculation

 ------ SPIN UP ------------

[...]

 ------ SPIN DOWN ----------

[...]

          k = 0.4055 0.4055 0.6040 (  2182 PWs)   bands (ev):

[...]

          k =-0.4055 0.4055-0.6040 (  2182 PWs)   bands (ev):

   -12.1141 -12.0441 -11.7193 -11.6181 -11.3291 -11.3275 -11.2954 -11.2929
   -11.2749 -11.2721  -8.3582  -8.1833  -7.0917  -6.9751   1.2308   1.3666
     4.2376   4.2427   5.0429   6.0704   6.2392   7.1768   7.7461   7.7848
     7.9327   7.9906  13.2525  13.3793  17.1701  17.5933  18.8365  19.1602
    19.3393  19.7291  21.3101  21.5792  22.9709  23.3157  23.4421  25.2841
    26.1410  26.3504  27.2876  28.3274  29.0958  29.0965  30.6509  31.1754
    32.5972  32.7567  33.5053  34.2524  34.5636  35.1629  35.6885  36.3823
    36.5763  38.0555  38.5079  38.8218  40.2278  40.5815  41.2154  41.6376
    41.7766  42.1006  42.4937  43.2094  43.2564  44.2809  44.3517  44.9695
    45.5900  45.9598  46.8197

     the Fermi energy is     8.8447 ev

!    total energy              =    -455.51255560 Ry
     Harris-Foulkes estimate   =    -455.51255181 Ry
     estimated scf accuracy    <          9.9E-09 Ry

     The total energy is the sum of the following terms:

     one-electron contribution =    -138.16938446 Ry
     hartree contribution      =     108.82995405 Ry
     xc contribution           =    -124.49404869 Ry
     ewald contribution        =    -301.67908765 Ry
     smearing contrib. (-TS)   =       0.00001115 Ry

     total magnetization       =     0.00 Bohr mag/cell
     absolute magnetization    =     0.00 Bohr mag/cell

     convergence has been achieved in   9 iterations

     Forces acting on atoms (Ry/au):

     atom    1 type  1   force =     0.00000000    0.00000000    0.00000000
     atom    2 type  1   force =     0.00000000    0.00000000    0.00000000
     atom    3 type  2   force =     0.00053421    0.00053421   -0.00000000
     atom    4 type  2   force =    -0.00053421   -0.00053421   -0.00000000
     atom    5 type  2   force =     0.00053280   -0.00053280    0.00000000
     atom    6 type  2   force =    -0.00053280    0.00053280    0.00000000

     Total force =     0.001509     Total SCF correction =     0.000075

     entering subroutine stress ...

          total   stress  (Ry/bohr**3)                   (kbar)     P=   -7.63
  -0.00005208   0.00000006   0.00000000         -7.66      0.01      0.00
   0.00000006  -0.00005208   0.00000000          0.01     -7.66      0.00
   0.00000000   0.00000000  -0.00005147          0.00      0.00     -7.57

     General routines

     Parallel routines

   This run was terminated on:  14:41:49  24Jan2014

   JOB DONE.