     Program PWSCF v.5.0.2 (svn rev. 9656) starts on  1Apr2014 at 13:46:16

     Current dimensions of program PWSCF are:
     Max number of different atomic species (ntypx) = 10
     Max number of k-points (npk) =  40000
     Max angular momentum in pseudopotentials (lmaxx) =  3
     Reading input from pwscf.in
Warning: card &CELL ignored
Warning: card / ignored

     Subspace diagonalization in iterative solution of the eigenvalue problem:
     a serial algorithm will be used

     bravais-lattice index     =            0
     lattice parameter (alat)  =      10.7336  a.u.
     unit-cell volume          =    6184.1966 (a.u.)^3
     number of atoms/cell      =           32
     number of atomic types    =            3
     number of electrons       =       239.00
     number of Kohn-Sham states=          346
     kinetic-energy cutoff     =      40.0000  Ry
     charge density cutoff     =     500.0000  Ry
     convergence threshold     =      1.0E-06
     mixing beta               =       0.7000
     number of iterations used =            8  plain     mixing
     Exchange-correlation      = SLA  PW   PBE  PBE ( 1 4 3 4 0)
     EXX-fraction              =        0.00
     nstep                     =           50

     celldm(1)=  10.733644  celldm(2)=   0.000000  celldm(3)=   0.000000
     celldm(4)=   0.000000  celldm(5)=   0.000000  celldm(6)=   0.000000

     crystal axes: (cart. coord. in units of alat)
               a(1) = (   1.000000   0.000000   0.000000 )
               a(2) = (   0.000000   1.085558   0.000000 )
               a(3) = (   0.000000   0.000000   4.606685 )

     reciprocal axes: (cart. coord. in units 2 pi/alat)
               b(1) = (  1.000000  0.000000  0.000000 )
               b(2) = (  0.000000  0.921185  0.000000 )
               b(3) = (  0.000000  0.000000  0.217076 )

     PseudoPot. # 1 for O  read from file:
     /home/camp/zhonxu/pseudo/o_pbe_v1.01.uspp.F.UPF
     MD5 check sum: 2bcb18d16ea4b960afae9ec6d52f22d2
     Pseudo is Ultrasoft + core correction, Zval =  6.0
     Generated by new atomic code, or converted to UPF format
     Using radial grid of  737 points,  5 beta functions with:
                l(1) =   0
                l(2) =   0
                l(3) =   1
                l(4) =   1
                l(5) =   2
     Q(r) pseudized with  8 coefficients,  rinner =    0.900   0.900   0.900
                                                       0.900   0.900

     PseudoPot. # 2 for Mn read from file:
     /home/camp/zhonxu/pseudo/mn_pbe_v1.uspp.F.UPF
     MD5 check sum: 5fd7c7b5c956fd19902447332617373a
     Pseudo is Ultrasoft + core correction, Zval = 15.0
     Generated by new atomic code, or converted to UPF format
     Using radial grid of  859 points,  6 beta functions with:
                l(1) =   0
                l(2) =   0
                l(3) =   1
                l(4) =   1
                l(5) =   2
                l(6) =   2
     Q(r) pseudized with  6 coefficients,  rinner =    1.150   1.150   1.150
                                                       1.150   1.150

     PseudoPot. # 3 for H  read from file:
     /home/camp/zhonxu/pseudo/h_pbe_v1.uspp.F.UPF
     MD5 check sum: 3408e3ff4ec8b0a4e358431e7e038a48
     Pseudo is Ultrasoft, Zval =  1.0
     Generated by new atomic code, or converted to UPF format
     Using radial grid of  615 points,  2 beta functions with:
                l(1) =   0
                l(2) =   0
     Q(r) pseudized with  8 coefficients,  rinner =    0.700

     atomic species   valence    mass     pseudopotential
        O0             6.00    15.99940     O ( 1.00)
        Mn1           15.00    54.93800     Mn( 1.00)
        H2             1.00     1.00794     H ( 1.00)

     Starting magnetic structure
     atomic species   magnetization
        O0           0.000
        Mn1          0.600
        H2           0.000

     No symmetry found

   Cartesian axes

     site n.     atom                  positions (alat units)
         1           O0  tau(   1) = (   0.0000000   0.0000000   1.7440910  )
         2           O0  tau(   2) = (   0.0000000   0.5427791   1.8348887  )
         3           Mn1 tau(   3) = (   0.2500000   0.5427791   2.0695072  )
         4           Mn1 tau(   4) = (   0.0000000   0.0000000   2.0719487  )
         5           O0  tau(   5) = (   0.2500000   0.8684466   2.0695533  )
         6           O0  tau(   6) = (   0.2500000   0.2171117   2.0770161  )
         7           O0  tau(   7) = (   0.0000000   0.5427791   2.2881405  )
         8           O0  tau(   8) = (   0.0000000   0.0000000   2.4167130  )
         9           Mn1 tau(   9) = (   0.2500000   0.0000000   2.6452046  )
        10           Mn1 tau(  10) = (   0.0000000   0.5427791   2.6189465  )
        11           O0  tau(  11) = (   0.2500000   0.7598908   2.6694358  )
        12           O0  tau(  12) = (   0.2500000   0.3256675   2.6696661  )
        13           O0  tau(  13) = (   0.0000000   0.0000000   2.8462864  )
        14           O0  tau(  14) = (   0.5000000   0.0000000   1.7440910  )
        15           O0  tau(  15) = (   0.5000000   0.5427791   1.8348887  )
        16           Mn1 tau(  16) = (   0.7500000   0.5427791   2.0695072  )
        17           Mn1 tau(  17) = (   0.5000000   0.0000000   2.0719487  )
        18           O0  tau(  18) = (   0.7500000   0.8684466   2.0695533  )
        19           O0  tau(  19) = (   0.7500000   0.2171117   2.0770161  )
        20           O0  tau(  20) = (   0.5000000   0.5427791   2.2881405  )
        21           O0  tau(  21) = (   0.5000000   0.0000000   2.4167130  )
        22           Mn1 tau(  22) = (   0.7500000   0.0000000   2.6452046  )
        23           Mn1 tau(  23) = (   0.5000000   0.5427791   2.6189465  )
        24           O0  tau(  24) = (   0.7500000   0.7598908   2.6694358  )
        25           O0  tau(  25) = (   0.7500000   0.3256675   2.6696661  )
        26           O0  tau(  26) = (   0.5000000   0.0000000   2.8462864  )
        27           H2  tau(  27) = (  -0.0000900   0.7018026   1.7591088  )
        28           H2  tau(  28) = (   0.4999100   0.7018026   1.7591088  )
        29           H2  tau(  29) = (   0.1616900   0.0388738   1.6898703  )
        30           H2  tau(  30) = (   0.6616900   0.0388738   1.6898703  )
        31           O0  tau(  31) = (   0.5145900   0.5431265   2.9540829  )
        32           H2  tau(  32) = (   0.3541500   0.5429203   3.0192675  )

     number of k points=    20  Methfessel-Paxton smearing, width (Ry)=  0.0100
                       cart. coord. in units 2pi/alat
        k(    1) = (   0.0000000   0.0000000   0.0000000), wk =   0.0625000
        k(    2) = (   0.0000000   0.2302962   0.0000000), wk =   0.1250000
        k(    3) = (   0.0000000  -0.4605925   0.0000000), wk =   0.0625000
        k(    4) = (   0.2500000   0.0000000   0.0000000), wk =   0.1250000
        k(    5) = (   0.2500000   0.2302962   0.0000000), wk =   0.1250000
        k(    6) = (   0.2500000  -0.4605925   0.0000000), wk =   0.1250000
        k(    7) = (  -0.5000000   0.0000000   0.0000000), wk =   0.0625000
        k(    8) = (  -0.5000000   0.2302962   0.0000000), wk =   0.1250000
        k(    9) = (  -0.5000000  -0.4605925   0.0000000), wk =   0.0625000
        k(   10) = (  -0.2500000   0.2302962   0.0000000), wk =   0.1250000
        k(   11) = (   0.0000000   0.0000000   0.0000000), wk =   0.0625000
        k(   12) = (   0.0000000   0.2302962   0.0000000), wk =   0.1250000
        k(   13) = (   0.0000000  -0.4605925   0.0000000), wk =   0.0625000
        k(   14) = (   0.2500000   0.0000000   0.0000000), wk =   0.1250000
        k(   15) = (   0.2500000   0.2302962   0.0000000), wk =   0.1250000
        k(   16) = (   0.2500000  -0.4605925   0.0000000), wk =   0.1250000
        k(   17) = (  -0.5000000   0.0000000   0.0000000), wk =   0.0625000
        k(   18) = (  -0.5000000   0.2302962   0.0000000), wk =   0.1250000
        k(   19) = (  -0.5000000  -0.4605925   0.0000000), wk =   0.0625000
        k(   20) = (  -0.2500000   0.2302962   0.0000000), wk =   0.1250000

     Largest allocated arrays     est. size (Mb)     dimensions
     Largest temporary arrays     est. size (Mb)     dimensions

     Check: negative/imaginary core charge=   -0.000022    0.000000

     Initial potential from superposition of free atoms
     Check: negative starting charge=(component1):   -0.000732
     Check: negative starting charge=(component2):   -0.000396

     starting charge  230.99986, renormalised to  239.00000

     negative rho (up, down):  0.757E-03 0.410E-03
     Starting wfc are  185 randomized atomic wfcs

     Self-consistent Calculation

     iteration #  1     ecut=    40.00 Ry     beta=0.70
     Davidson diagonalization with overlap
     ethr =  1.00E-02,  avg # of iterations =  5.6

     negative rho (up, down):  0.137E-02 0.101E-02

     total energy              =   -2303.15462424 Ry
     Harris-Foulkes estimate   =   -2319.84950967 Ry
     estimated scf accuracy    <      29.11110496 Ry

     total magnetization       =    27.09 Bohr mag/cell
     absolute magnetization    =    32.77 Bohr mag/cell

[...]

     End of self-consistent calculation

 ------ SPIN UP ------------

          k = 0.0000 0.0000 0.0000 ( 26393 PWs)   bands (ev):

   -84.2640 -84.2537 -83.8806 -83.8640 -83.8632 -83.8514 -83.6283 -83.6179
   -53.1083 -52.9936 -52.8983 -52.8800 -52.8650 -52.8547 -52.7548 -52.6960
   -52.6342 -52.5791 -52.5571 -52.5533 -52.5236 -52.5121 -52.4901 -52.4306
   -52.3748 -52.3732 -52.3600 -52.3559 -52.3513 -52.2534 -52.2142 -52.1904
   -22.2241 -21.5655 -21.3824 -21.1601 -20.6050 -20.4486 -20.3966 -20.2587
   -20.1758 -20.1582 -20.0395 -19.9153 -19.9062 -19.8515 -19.7560 -19.5165
   -19.3721 -19.0992 -18.9473 -10.0938  -9.8646  -9.5417  -9.5220  -9.2200
    -8.7194  -8.6259  -8.6011  -8.5602  -8.4480  -8.2348  -8.1962  -7.9916
    -7.9555  -7.9339  -7.8138  -7.7493  -7.6144  -7.5413  -7.4893  -7.3374
    -7.2702  -7.1986  -6.9644  -6.8741  -6.8465  -6.8055  -6.7490  -6.2245
    -6.1435  -6.1144  -5.9495  -5.8976  -5.8464  -5.7025  -5.5109  -5.4751
    -5.2981  -5.2392  -5.2220  -5.1757  -5.0585  -5.0034  -4.8885  -4.8193
    -4.7426  -4.7107  -4.6931  -4.6809  -4.5900  -4.5165  -4.4667  -4.3113
    -4.2008  -4.1352  -4.1166  -4.0674  -3.8789  -3.8729  -3.8436  -3.7135
    -3.5597  -3.5530  -3.4451  -3.3574  -3.1662  -3.0468  -3.0372  -2.8510
    -2.8497  -2.7320  -2.6533  -2.6256  -2.5629  -2.4485  -2.3123  -2.2026
    -2.0854  -2.0084  -1.9750  -1.6838  -1.4802  -1.2000  -0.6850  -0.4670
    -0.4000  -0.1570  -0.1137  -0.1069  -0.0976   0.4143   0.4563   0.5314
     0.6990   1.0560   1.1930   1.3730   2.9014   3.6721   3.7432   4.2838
     4.7621   5.5212   6.0072   6.0858   6.4161   6.8039   6.9775   7.0917
     7.2292   7.5686   7.6888   7.7687   7.8289   8.0288   8.1397   8.1625
     8.2169   8.2885   8.3725   8.4515   8.5951   8.8133   8.8979   8.9499
     9.0166   9.0912   9.1790   9.2877   9.3563   9.4119   9.4698   9.4908
     9.7487   9.8484  10.0756  10.0824  10.1529  10.2985  10.4050  10.4643
[...]
     atom   21 type  1   force =    -0.00044653   -0.00191721   -0.00075897
     atom   22 type  2   force =    -0.00313174    0.00026833    0.00829972
     atom   23 type  2   force =     0.00348693   -0.00069711    0.12717091
     atom   24 type  1   force =     0.02803383   -0.04687667   -0.03623245
     atom   25 type  1   force =     0.02801982    0.04704666   -0.03608837
     atom   26 type  1   force =    -0.00067812   -0.00011583   -0.00140296
     atom   27 type  3   force =     0.00011017    0.00038922    0.00063422
     atom   28 type  3   force =     0.00006622    0.00029097    0.00027531
     atom   29 type  3   force =    -0.00055043    0.00009245   -0.00049818
     atom   30 type  3   force =    -0.00027709    0.00009491   -0.00049538
     atom   31 type  1   force =    -0.00026022   -0.00000864    0.00082963
     atom   32 type  3   force =    -0.00032122    0.00002305    0.00056279

     Total force =     0.145306     Total SCF correction =     0.001620

     BFGS Geometry Optimization

     number of scf cycles    =   1
     number of bfgs steps    =   0

     energy   new            =   -2322.2487636610 Ry

     new trust radius        =       0.1271709074 bohr
     new conv_thr            =       0.0000010000 Ry

ATOMIC_POSITIONS (crystal)
O0       0.000000000   0.000000000   0.378598995    0   0   1
O0       0.000000000   0.500000000   0.398355282    0   0   1
Mn1      0.250000000   0.500000000   0.449391191    0   0   1
Mn1      0.000000000   0.000000000   0.449788368    0   0   1
O0       0.250000000   0.800000000   0.449244786    0   0   1
O0       0.250000000   0.200000000   0.450851677    0   0   1
O0       0.000000000   0.500000000   0.496692600    0   0   1
O0       0.000000000   0.000000000   0.524603401    0   0   1
Mn1      0.250000000   0.000000000   0.574326973    0   0   1
Mn1      0.000000000   0.500000000   0.568423519    0   0   1
O0       0.250000000   0.700000000   0.578913388    0   0   1
O0       0.250000000   0.300000000   0.578966474    0   0   1
O0       0.000000000   0.000000000   0.617831199    0   0   1
O0       0.500000000   0.000000000   0.378610539    0   0   1
O0       0.500000000   0.500000000   0.398305399    0   0   1
Mn1      0.750000000   0.500000000   0.449393040    0   0   1
Mn1      0.500000000   0.000000000   0.449789019    0   0   1
O0       0.750000000   0.800000000   0.449244978    0   0   1
O0       0.750000000   0.200000000   0.450851931    0   0   1
O0       0.500000000   0.500000000   0.496217369    0   0   1
O0       0.500000000   0.000000000   0.524594651    0   0   1
Mn1      0.750000000   0.000000000   0.574377852    0   0   1
Mn1      0.500000000   0.500000000   0.571081888    0   0   1
O0       0.750000000   0.700000000   0.578737240    0   0   1
O0       0.750000000   0.300000000   0.578790153    0   0   1
O0       0.500000000   0.000000000   0.617831627    0   0   1
H2      -0.000079736   0.646523404   0.381872826
H2       0.499916169   0.646514972   0.381865568
H2       0.161638720   0.035817934   0.366819925
H2       0.661664185   0.035818145   0.366819982
O0       0.514565757   0.500319258   0.641276778
H2       0.354120074   0.500131978   0.655421382

     Check: negative starting charge=(component1):   -0.001069
     NEW-OLD atomic charge density approx. for the potential

     Check: negative/imaginary core charge=   -0.000022    0.000000
     Check: negative starting charge=(component1):   -0.001073

[...]

     energy   old            =   -2322.2487636610 Ry
     energy   new            =   -2322.2659681234 Ry

     CASE: energy  _new < energy  _old

[...]

     Threshold (ethr) on eigenvalues was too large:
     Diagonalizing with lowered threshold

     Davidson diagonalization with overlap
     ethr =  2.41E-08,  avg # of iterations =  1.9

[...]

     Total force =     0.002787     Total SCF correction =     0.000425
     SCF correction compared to forces is large: reduce conv_thr to get better values

[...]

     Total force =     0.003026     Total SCF correction =     0.000113

[...]

     number of scf cycles    =  21
     number of bfgs steps    =  20

     energy   old            =   -2322.2917586747 Ry
     energy   new            =   -2322.2917724156 Ry

     CASE: energy  _new < energy  _old

     new trust radius        =       0.0058622003 bohr
     new conv_thr            =       0.0000000100 Ry

ATOMIC_POSITIONS (crystal)
O0       0.000000000   0.000000000   0.378022904    0   0   1
O0       0.000000000   0.500000000   0.399006207    0   0   1
Mn1      0.250000000   0.500000000   0.450223689    0   0   1
Mn1      0.000000000   0.000000000   0.449049622    0   0   1
O0       0.250000000   0.800000000   0.448879294    0   0   1
O0       0.250000000   0.200000000   0.450161614    0   0   1
O0       0.000000000   0.500000000   0.496530124    0   0   1
O0       0.000000000   0.000000000   0.523852808    0   0   1
Mn1      0.250000000   0.000000000   0.573084753    0   0   1
Mn1      0.000000000   0.500000000   0.566255606    0   0   1
O0       0.250000000   0.700000000   0.576370911    0   0   1
O0       0.250000000   0.300000000   0.576472155    0   0   1
O0       0.000000000   0.000000000   0.616872131    0   0   1
O0       0.500000000   0.000000000   0.378340557    0   0   1
O0       0.500000000   0.500000000   0.399134208    0   0   1
Mn1      0.750000000   0.500000000   0.450228482    0   0   1
Mn1      0.500000000   0.000000000   0.449509153    0   0   1
O0       0.750000000   0.800000000   0.448849745    0   0   1
O0       0.750000000   0.200000000   0.450188293    0   0   1
O0       0.500000000   0.500000000   0.496477817    0   0   1
O0       0.500000000   0.000000000   0.523854528    0   0   1
Mn1      0.750000000   0.000000000   0.573375971    0   0   1
Mn1      0.500000000   0.500000000   0.578776587    0   0   1
O0       0.750000000   0.700000000   0.574682322    0   0   1
O0       0.750000000   0.300000000   0.574774636    0   0   1
O0       0.500000000   0.000000000   0.616759514    0   0   1
H2       0.000043364   0.646130913   0.382499974
H2       0.500091278   0.646378459   0.382687078
H2       0.161356755   0.036689578   0.366189602
H2       0.661016384   0.036823761   0.366349380
O0       0.515389014   0.500422161   0.647471006
H2       0.357532815   0.500240248   0.662959328

     Check: negative starting charge=(component1):   -0.001049
     NEW-OLD atomic charge density approx. for the potential

     Check: negative/imaginary core charge=   -0.000022    0.000000
     Check: negative starting charge=(component1):   -0.001049

[...]

     Self-consistent Calculation

[...]

     Threshold (ethr) on eigenvalues was too large:
     Diagonalizing with lowered threshold

     Davidson diagonalization with overlap
     ethr =  1.58E-08,  avg # of iterations =  2.0

[...]

     total energy              =   -2322.29178109 Ry
     Harris-Foulkes estimate   =   -2322.29178112 Ry
     estimated scf accuracy    <       0.00000021 Ry

[...]

     iteration # 15     ecut=    40.00 Ry     beta=0.70
     Davidson diagonalization with overlap
     ethr =  1.85E-11,  avg # of iterations =  1.0

     negative rho (up, down):  0.230E-02 0.126E-02

     End of self-consistent calculation

 ------ SPIN UP ------------

[...]

 ------ SPIN DOWN ----------

[...]

          k = 0.2500-0.4606 0.0000 ( 26462 PWs)   bands (ev):

[...]

          k =-0.2500 0.2303 0.0000 ( 26396 PWs)   bands (ev):

   -80.7126 -80.7040 -80.6855 -80.6522 -80.4611 -80.4605 -80.4480 -80.3586
   -49.6360 -49.5903 -49.5660 -49.5529 -49.5388 -49.4818 -49.4680 -49.4601
   -49.4277 -49.4178 -49.4075 -49.4054 -49.3074 -49.2925 -49.2797 -49.2618
   -49.2419 -49.2065 -49.2051 -49.1364 -49.1334 -49.0758 -49.0644 -49.0193
   -21.8022 -21.3671 -21.0085 -20.7566 -20.5879 -20.2671 -20.1871 -20.1037
   -20.0028 -19.9631 -19.9000 -19.8127 -19.7793 -19.6697 -19.5015 -19.4519
   -19.2913 -18.9768 -18.8247  -9.3803  -9.1117  -8.6018  -8.5114  -8.4505
    -8.0906  -8.0209  -7.9639  -7.8180  -7.7835  -7.6618  -7.5319  -7.4441
    -7.3056  -7.2080  -7.1484  -7.0488  -6.9561  -6.8951  -6.7439  -6.6752
    -6.5170  -6.4428  -6.3970  -6.2609  -6.0368  -5.8485  -5.7631  -5.7166
    -5.5999  -5.5419  -5.4861  -5.4402  -5.3494  -5.2754  -5.1780  -4.9834
    -4.9332  -4.7463  -4.6798  -4.5594  -4.4686  -4.3145  -4.2048  -4.1561
    -4.1238  -4.0078  -3.8000  -3.6668  -3.6181  -3.5507  -3.3230  -3.2448
    -3.0430  -2.9873  -2.8747  -2.5844  -1.2373  -1.1414  -1.0677  -1.0031
    -0.9826  -0.9439  -0.8615  -0.7961  -0.6941  -0.6335  -0.5869  -0.5096
    -0.4632  -0.4493  -0.3879  -0.2624  -0.1648  -0.0698   0.0014   0.0911
     0.1786   0.3178   0.3592   0.4726   0.5958   0.8833   0.9497   1.0525
     1.3477   1.3724   1.5002   1.7131   1.8685   1.9110   2.2246   2.3360
     2.3546   2.5752   2.6735   2.7943   3.7018   4.0402   4.3206   4.7933
     5.3064   5.6207   5.7445   6.0083   6.2478   6.4347   6.5290   6.6636
     6.7854   6.9452   7.0499   7.3542   7.4935   7.7286   7.9161   8.0674
     8.2784   8.3797   8.4627   8.6149   8.7098   8.8988   9.0838   9.2251
     9.3285   9.3817   9.5363   9.6315   9.7539   9.8638   9.9629  10.0839
    10.1713  10.2756  10.4064  10.5088  10.6406  10.7070  10.7984  10.9939
    11.0940  11.1330  11.2092  11.3239  11.4383  11.5237  11.5795  11.6843
    11.7704  11.8907  11.9455  12.0728  12.1043  12.2034  12.2505  12.4018
    12.4588  12.5222  12.6646  12.7548  12.8787  12.9037  12.9780  13.0720
    13.1497  13.1700  13.2190  13.2827  13.3976  13.4303  13.5397  13.6026
    13.6878  13.8456  13.8611  13.8801  13.9681  14.0457  14.0961  14.1416
    14.2216  14.3576  14.4464  14.5429  14.5895  14.6746  14.7443  14.8484
    14.8745  14.9137  14.9990  15.0405  15.1079  15.2075  15.3081  15.3732
    15.4789  15.5180  15.6258  15.7162  15.7526  15.8493  15.9042  16.0763
    16.1016  16.2015  16.2548  16.3471  16.4254  16.5139  16.5252  16.5760
    16.6672  16.7663  16.8886  16.9232  17.0052  17.0997  17.1334  17.2203
    17.2900  17.3573  17.4418  17.4973  17.5306  17.6667  17.7041  17.7652
    17.8340  17.9339  17.9843  18.0576  18.1030  18.2248  18.2868  18.3376
    18.3837  18.4878  18.5339  18.5785  18.6333  18.7630  18.8309  18.9460
    19.0384  19.0765  19.1506  19.1922  19.2526  19.3360  19.4184  19.4909
    19.5385  19.6301  19.7456  19.7975  19.9019  19.9442  20.0408  20.0768
    20.1347  20.2639  20.3445  20.3662  20.4011  20.5179  20.6500  20.6785
    20.7952  20.8982  20.9847  21.0134  21.0506  21.1188  21.1912  21.2303
    21.3975  21.4170  21.5213  21.5953  21.6614  21.7173  21.7659  21.8656
    21.9262  22.0072  22.0791  22.1417  22.2323  22.3637  22.3922  22.5071
    22.5725  22.6338

     the Fermi energy is    -1.7882 ev

!    total energy              =   -2322.29178110 Ry
     Harris-Foulkes estimate   =   -2322.29178111 Ry
     estimated scf accuracy    <          4.6E-09 Ry

     The total energy is the sum of the following terms:

     one-electron contribution =  -26820.12397525 Ry
     hartree contribution      =   13428.69968993 Ry
     xc contribution           =    -348.85892153 Ry
     ewald contribution        =   11417.99145021 Ry
     smearing contrib. (-TS)   =      -0.00002446 Ry

     total magnetization       =    23.01 Bohr mag/cell
     absolute magnetization    =    24.04 Bohr mag/cell

     convergence has been achieved in  15 iterations

     Forces acting on atoms (Ry/au):

     negative rho (up, down):  0.230E-02 0.126E-02
     atom    1 type  1   force =    -0.00455238   -0.01558396    0.00009581
     atom    2 type  1   force =     0.00034167    0.01240540    0.00025922
     atom    3 type  2   force =     0.03825555   -0.00408666   -0.00013068
     atom    4 type  2   force =     0.00413203    0.01144154    0.00014406
     atom    5 type  1   force =     0.00198255    0.00928413    0.00025079
     atom    6 type  1   force =    -0.00479697   -0.01142334    0.00027915
     atom    7 type  1   force =     0.00225549    0.00102523   -0.00079660
     atom    8 type  1   force =     0.00179831   -0.00162030   -0.00008646
     atom    9 type  2   force =     0.00232656    0.00003986   -0.00022070
     atom   10 type  2   force =    -0.00452906   -0.00108420    0.00079132
     atom   11 type  1   force =    -0.02274218   -0.05775228    0.00000243
     atom   12 type  1   force =    -0.02296146    0.05794461   -0.00000010
     atom   13 type  1   force =    -0.00218423   -0.00017147    0.00006850
     atom   14 type  1   force =    -0.00517004   -0.01592259    0.00004161
     atom   15 type  1   force =     0.00032206    0.01202537   -0.00068852
     atom   16 type  2   force =    -0.03930336   -0.00397222   -0.00007768
     atom   17 type  2   force =     0.00431929    0.01134046   -0.00009320
     atom   18 type  1   force =     0.00547383    0.00896719    0.00021186
     atom   19 type  1   force =    -0.00093919   -0.01150856    0.00026590
     atom   20 type  1   force =    -0.00172303    0.00024674    0.00055583
     atom   21 type  1   force =    -0.00173967   -0.00152454   -0.00027412
     atom   22 type  2   force =     0.00010982    0.00021201    0.00015074
     atom   23 type  2   force =     0.00305509   -0.00036777   -0.00012066
     atom   24 type  1   force =     0.02195140   -0.05236409   -0.00035640
     atom   25 type  1   force =     0.02220372    0.05252671   -0.00034572
     atom   26 type  1   force =     0.00138644   -0.00014315   -0.00005191
     atom   27 type  3   force =    -0.00000124   -0.00017601    0.00013737
     atom   28 type  3   force =    -0.00001644    0.00033572   -0.00010200
     atom   29 type  3   force =    -0.00000061   -0.00005150    0.00002908
     atom   30 type  3   force =     0.00001906   -0.00004156    0.00007327
     atom   31 type  1   force =     0.00013061   -0.00000960    0.00001877
     atom   32 type  3   force =     0.00059636    0.00000882   -0.00003097

     Total force =     0.001847     Total SCF correction =     0.000330
     SCF correction compared to forces is large: reduce conv_thr to get better values

     bfgs converged in  22 scf cycles and  21 bfgs steps
     (criteria: energy < 0.10E-03, force < 0.10E-02)

     End of BFGS Geometry Optimization

     Final energy   =   -2322.2917811039 Ry
Begin final coordinates

ATOMIC_POSITIONS (crystal)
O0       0.000000000   0.000000000   0.378022904    0   0   1
O0       0.000000000   0.500000000   0.399006207    0   0   1
Mn1      0.250000000   0.500000000   0.450223689    0   0   1
Mn1      0.000000000   0.000000000   0.449049622    0   0   1
O0       0.250000000   0.800000000   0.448879294    0   0   1
O0       0.250000000   0.200000000   0.450161614    0   0   1
O0       0.000000000   0.500000000   0.496530124    0   0   1
O0       0.000000000   0.000000000   0.523852808    0   0   1
Mn1      0.250000000   0.000000000   0.573084753    0   0   1
Mn1      0.000000000   0.500000000   0.566255606    0   0   1
O0       0.250000000   0.700000000   0.576370911    0   0   1
O0       0.250000000   0.300000000   0.576472155    0   0   1
O0       0.000000000   0.000000000   0.616872131    0   0   1
O0       0.500000000   0.000000000   0.378340557    0   0   1
O0       0.500000000   0.500000000   0.399134208    0   0   1
Mn1      0.750000000   0.500000000   0.450228482    0   0   1
Mn1      0.500000000   0.000000000   0.449509153    0   0   1
O0       0.750000000   0.800000000   0.448849745    0   0   1
O0       0.750000000   0.200000000   0.450188293    0   0   1
O0       0.500000000   0.500000000   0.496477817    0   0   1
O0       0.500000000   0.000000000   0.523854528    0   0   1
Mn1      0.750000000   0.000000000   0.573375971    0   0   1
Mn1      0.500000000   0.500000000   0.578776587    0   0   1
O0       0.750000000   0.700000000   0.574682322    0   0   1
O0       0.750000000   0.300000000   0.574774636    0   0   1
O0       0.500000000   0.000000000   0.616759514    0   0   1
H2       0.000043364   0.646130913   0.382499974
H2       0.500091278   0.646378459   0.382687078
H2       0.161356755   0.036689578   0.366189602
H2       0.661016384   0.036823761   0.366349380
O0       0.515389014   0.500422161   0.647471006
H2       0.357532815   0.500240248   0.662959328
End final coordinates

     General routines

     Parallel routines

   This run was terminated on:   9:26:23   3Apr2014

   JOB DONE.
Running PBS batch system epilogue script
Job id: 320676.audhumbla.fysik.dtu.dk
Username: zhonxu
Groupname: campgst
Jobname: MnO2/Eads-2-layers/OH-relax-surf
Sessionid: 12682
Queuename: verylong
Accounting:
This job has allocated the following 16 nodes:
d008 d008 d008 d008 d008 d008 d008 d008 d002 d002 d002 d002 d002 d002 d002 d002
Finished epilogue job 320676.audhumbla.fysik.dtu.dk for zhonxu