     Program PWSCF v.5.0.2 (svn rev. 9656) starts on 30May2014 at  4:12:25

     Current dimensions of program PWSCF are:
     Max number of different atomic species (ntypx) = 10
     Max number of k-points (npk) =  40000
     Max angular momentum in pseudopotentials (lmaxx) =  3
     Reading input from pwscf.in
Warning: card &CELL ignored
Warning: card / ignored

     Subspace diagonalization in iterative solution of the eigenvalue problem:
     a serial algorithm will be used

     bravais-lattice index     =            0
     lattice parameter (alat)  =      12.0187  a.u.
     unit-cell volume          =    7280.5819 (a.u.)^3
     number of atoms/cell      =           33
     number of atomic types    =            3
     number of electrons       =       245.00
     number of Kohn-Sham states=          367
     kinetic-energy cutoff     =      40.0000  Ry
     charge density cutoff     =     500.0000  Ry
     convergence threshold     =      1.0E-06
     mixing beta               =       0.7000
     number of iterations used =            8  plain     mixing
     Exchange-correlation      = SLA  PW   PBE  PBE ( 1 4 3 4 0)
     EXX-fraction              =        0.00
     nstep                     =           50

     celldm(1)=  12.018658  celldm(2)=   0.000000  celldm(3)=   0.000000
     celldm(4)=   0.000000  celldm(5)=   0.000000  celldm(6)=   0.000000

     crystal axes: (cart. coord. in units of alat)
               a(1) = (   1.000000   0.000000   0.000000 )
               a(2) = (   0.000000   1.009517   0.000000 )
               a(3) = (   0.000000   0.000000   4.154171 )

     reciprocal axes: (cart. coord. in units 2 pi/alat)
               b(1) = (  1.000000  0.000000  0.000000 )
               b(2) = (  0.000000  0.990572  0.000000 )
               b(3) = (  0.000000  0.000000  0.240722 )

     PseudoPot. # 1 for O  read from file:
     /home/camp/zhonxu/pseudo/o_pbe_v1.01.uspp.F.UPF
     MD5 check sum: 2bcb18d16ea4b960afae9ec6d52f22d2
     Pseudo is Ultrasoft + core correction, Zval =  6.0
     Generated by new atomic code, or converted to UPF format
     Using radial grid of  737 points,  5 beta functions with:
                l(1) =   0
                l(2) =   0
                l(3) =   1
                l(4) =   1
                l(5) =   2
     Q(r) pseudized with  8 coefficients,  rinner =    0.900   0.900   0.900
                                                       0.900   0.900

     PseudoPot. # 2 for Ir read from file:
     /home/camp/zhonxu/pseudo/ir_pbe_v1.uspp.F.UPF
     MD5 check sum: abf987a9674477536ede83817f8f8b70
     Pseudo is Ultrasoft + core correction, Zval = 15.0
     Generated by new atomic code, or converted to UPF format
     Using radial grid of  983 points,  7 beta functions with:
                l(1) =   0
                l(2) =   0
                l(3) =   1
                l(4) =   1
                l(5) =   1
                l(6) =   2
                l(7) =   2
     Q(r) pseudized with  8 coefficients,  rinner =    1.350   1.350   1.350
                                                       1.350   1.350

     PseudoPot. # 3 for H  read from file:
     /home/camp/zhonxu/pseudo/h_pbe_v1.uspp.F.UPF
     MD5 check sum: 3408e3ff4ec8b0a4e358431e7e038a48
     Pseudo is Ultrasoft, Zval =  1.0
     Generated by new atomic code, or converted to UPF format
     Using radial grid of  615 points,  2 beta functions with:
                l(1) =   0
                l(2) =   0
     Q(r) pseudized with  8 coefficients,  rinner =    0.700

     atomic species   valence    mass     pseudopotential
        O0             6.00    15.99940     O ( 1.00)
        Ir1           15.00   192.22000     Ir( 1.00)
        H2             1.00     1.00794     H ( 1.00)

     Simplified LDA+U calculation (l_max = 2) with parameters (eV):
     atomic species    L          U    alpha       J0     beta
        Ir1            2     8.0000   0.0000   0.0000   0.0000

     No symmetry found

   Cartesian axes

     site n.     atom                  positions (alat units)
         1           O0  tau(   1) = (   0.0000000   0.0000000   1.5694875  )
         2           O0  tau(   2) = (   0.0000000   0.5047586   1.6702677  )
         3           Ir1 tau(   3) = (   0.2500000   0.5047586   1.8805934  )
         4           Ir1 tau(   4) = (   0.0000000   0.0000000   1.8807595  )
         5           O0  tau(   5) = (   0.2500000   0.8177090   1.8801779  )
         6           O0  tau(   6) = (   0.2500000   0.1918083   1.8787655  )
         7           O0  tau(   7) = (   0.0000000   0.5047586   2.0695666  )
         8           O0  tau(   8) = (   0.0000000   0.0000000   2.1948564  )
         9           Ir1 tau(   9) = (   0.2500000   0.0000000   2.3901025  )
        10           Ir1 tau(  10) = (   0.0000000   0.5047586   2.3742751  )
        11           O0  tau(  11) = (   0.2500000   0.6965669   2.3856575  )
        12           O0  tau(  12) = (   0.2500000   0.3129503   2.3949628  )
        13           O0  tau(  13) = (   0.0000000   0.0000000   2.5754200  )
        14           O0  tau(  14) = (   0.5000000   0.0000000   1.5694875  )
        15           O0  tau(  15) = (   0.5000000   0.5047586   1.6704338  )
        16           Ir1 tau(  16) = (   0.7500000   0.5047586   1.8805934  )
        17           Ir1 tau(  17) = (   0.5000000   0.0000000   1.8805518  )
        18           O0  tau(  18) = (   0.7500000   0.8177090   1.8801364  )
        19           O0  tau(  19) = (   0.7500000   0.1918083   1.8788486  )
        20           O0  tau(  20) = (   0.5000000   0.5047586   2.0759640  )
        21           O0  tau(  21) = (   0.5000000   0.0000000   2.1945241  )
        22           Ir1 tau(  22) = (   0.7500000   0.0000000   2.3900609  )
        23           Ir1 tau(  23) = (   0.5000000   0.5047586   2.3998648  )
        24           O0  tau(  24) = (   0.7500000   0.6965669   2.3856575  )
        25           O0  tau(  25) = (   0.7500000   0.3129503   2.3949628  )
        26           O0  tau(  26) = (   0.5000000   0.0000000   2.5728445  )
        27           H2  tau(  27) = (   0.0000400   0.6420328   1.5957418  )
        28           H2  tau(  28) = (   0.4999400   0.6424971   1.5965311  )
        29           H2  tau(  29) = (   0.1432100   0.0360095   1.5217560  )
        30           H2  tau(  30) = (   0.6436700   0.0339703   1.5215899  )
        31           O0  tau(  31) = (   0.4997900   0.5432313   2.6993805  )
        32           O0  tau(  32) = (   0.5001800   0.3480815   2.8224271  )
        33           H2  tau(  33) = (   0.4999800   0.4114489   2.9642920  )

     number of k points=    10  Methfessel-Paxton smearing, width (Ry)=  0.0100
                       cart. coord. in units 2pi/alat
        k(    1) = (   0.0000000   0.0000000   0.0000000), wk =   0.1250000
        k(    2) = (   0.0000000   0.2476431   0.0000000), wk =   0.2500000
        k(    3) = (   0.0000000  -0.4952862   0.0000000), wk =   0.1250000
        k(    4) = (   0.2500000   0.0000000   0.0000000), wk =   0.2500000
        k(    5) = (   0.2500000   0.2476431   0.0000000), wk =   0.2500000
        k(    6) = (   0.2500000  -0.4952862   0.0000000), wk =   0.2500000
        k(    7) = (  -0.5000000   0.0000000   0.0000000), wk =   0.1250000
        k(    8) = (  -0.5000000   0.2476431   0.0000000), wk =   0.2500000
        k(    9) = (  -0.5000000  -0.4952862   0.0000000), wk =   0.1250000
        k(   10) = (  -0.2500000   0.2476431   0.0000000), wk =   0.2500000

     Largest allocated arrays     est. size (Mb)     dimensions
     Largest temporary arrays     est. size (Mb)     dimensions

     Check: negative/imaginary core charge=   -0.000003    0.000000

     Initial potential from superposition of free atoms
     Check: negative starting charge=   -3.336869

     starting charge  240.99967, renormalised to  245.00000

     negative rho (up, down):  0.339E+01 0.000E+00
     Number of +U iterations with fixed ns =  0
     Starting occupations:
 --- enter write_ns ---
 LDA+U parameters:
U( 2)     =  8.00000000
alpha( 2) =  0.00000000
atom    3   Tr[ns(na)] =   7.00000
    eigenvalues:
  0.700  0.700  0.700  0.700  0.700
    eigenvectors:
  1.000  0.000  0.000  0.000  0.000
  0.000  1.000  0.000  0.000  0.000
  0.000  0.000  1.000  0.000  0.000
  0.000  0.000  0.000  1.000  0.000
  0.000  0.000  0.000  0.000  1.000
    occupations:
  0.700  0.000  0.000  0.000  0.000
  0.000  0.700  0.000  0.000  0.000
  0.000  0.000  0.700  0.000  0.000
  0.000  0.000  0.000  0.700  0.000
  0.000  0.000  0.000  0.000  0.700
atom    4   Tr[ns(na)] =   7.00000
    eigenvalues:
  0.700  0.700  0.700  0.700  0.700
    eigenvectors:
  1.000  0.000  0.000  0.000  0.000
  0.000  1.000  0.000  0.000  0.000
  0.000  0.000  1.000  0.000  0.000
  0.000  0.000  0.000  1.000  0.000
  0.000  0.000  0.000  0.000  1.000
    occupations:
  0.700  0.000  0.000  0.000  0.000
  0.000  0.700  0.000  0.000  0.000
  0.000  0.000  0.700  0.000  0.000
  0.000  0.000  0.000  0.700  0.000
  0.000  0.000  0.000  0.000  0.700
atom    9   Tr[ns(na)] =   7.00000
    eigenvalues:
  0.700  0.700  0.700  0.700  0.700
    eigenvectors:
  1.000  0.000  0.000  0.000  0.000
  0.000  1.000  0.000  0.000  0.000
  0.000  0.000  1.000  0.000  0.000
  0.000  0.000  0.000  1.000  0.000
  0.000  0.000  0.000  0.000  1.000
    occupations:
  0.700  0.000  0.000  0.000  0.000
  0.000  0.700  0.000  0.000  0.000
  0.000  0.000  0.700  0.000  0.000
  0.000  0.000  0.000  0.700  0.000
  0.000  0.000  0.000  0.000  0.700
atom   10   Tr[ns(na)] =   7.00000
    eigenvalues:
  0.700  0.700  0.700  0.700  0.700
    eigenvectors:
  1.000  0.000  0.000  0.000  0.000
  0.000  1.000  0.000  0.000  0.000
  0.000  0.000  1.000  0.000  0.000
  0.000  0.000  0.000  1.000  0.000
  0.000  0.000  0.000  0.000  1.000
    occupations:
  0.700  0.000  0.000  0.000  0.000
  0.000  0.700  0.000  0.000  0.000
  0.000  0.000  0.700  0.000  0.000
  0.000  0.000  0.000  0.700  0.000
  0.000  0.000  0.000  0.000  0.700
atom   16   Tr[ns(na)] =   7.00000
    eigenvalues:
  0.700  0.700  0.700  0.700  0.700
    eigenvectors:
  1.000  0.000  0.000  0.000  0.000
  0.000  1.000  0.000  0.000  0.000
  0.000  0.000  1.000  0.000  0.000
  0.000  0.000  0.000  1.000  0.000
  0.000  0.000  0.000  0.000  1.000
    occupations:
  0.700  0.000  0.000  0.000  0.000
  0.000  0.700  0.000  0.000  0.000
  0.000  0.000  0.700  0.000  0.000
  0.000  0.000  0.000  0.700  0.000
  0.000  0.000  0.000  0.000  0.700
atom   17   Tr[ns(na)] =   7.00000
    eigenvalues:
  0.700  0.700  0.700  0.700  0.700
    eigenvectors:
  1.000  0.000  0.000  0.000  0.000
  0.000  1.000  0.000  0.000  0.000
  0.000  0.000  1.000  0.000  0.000
  0.000  0.000  0.000  1.000  0.000
  0.000  0.000  0.000  0.000  1.000
    occupations:
  0.700  0.000  0.000  0.000  0.000
  0.000  0.700  0.000  0.000  0.000
  0.000  0.000  0.700  0.000  0.000
  0.000  0.000  0.000  0.700  0.000
  0.000  0.000  0.000  0.000  0.700
atom   22   Tr[ns(na)] =   7.00000
    eigenvalues:
  0.700  0.700  0.700  0.700  0.700
    eigenvectors:
  1.000  0.000  0.000  0.000  0.000
  0.000  1.000  0.000  0.000  0.000
[...]
  0.000  0.956 -0.000  0.000 -0.009
  0.007 -0.000  0.963 -0.000 -0.000
  0.040  0.000 -0.000  0.984  0.000
 -0.000 -0.009 -0.000  0.000  0.616
atom   16   Tr[ns(na)] =   8.25002
    eigenvalues:
  0.608  0.635  0.920  0.975  0.986
    eigenvectors:
  0.005  0.177  0.004  0.000  0.814
  0.977  0.022  0.000  0.000  0.000
  0.000  0.000  0.990  0.006  0.004
  0.017  0.801  0.000  0.000  0.181
  0.000  0.000  0.006  0.993  0.001
    occupations:
  0.922  0.005  0.003 -0.135  0.001
  0.005  0.608 -0.000  0.002 -0.005
  0.003 -0.000  0.921 -0.004 -0.004
 -0.135  0.002 -0.004  0.699 -0.000
  0.001 -0.005 -0.004 -0.000  0.975
atom   17   Tr[ns(na)] =   8.25838
    eigenvalues:
  0.620  0.674  0.904  0.943  0.988
    eigenvectors:
  0.000  0.989  0.000  0.000  0.011
  0.000  0.000  0.075  0.925  0.000
  0.000  0.000  0.925  0.075  0.000
  0.000  0.011  0.000  0.000  0.989
  0.999  0.000  0.000  0.000  0.000
    occupations:
  0.677 -0.003 -0.000  0.032  0.001
 -0.003  0.940  0.010  0.000 -0.002
 -0.000  0.010  0.907 -0.000  0.001
  0.032  0.000 -0.000  0.984  0.000
  0.001 -0.002  0.001  0.000  0.620
atom   22   Tr[ns(na)] =   8.25625
    eigenvalues:
  0.657  0.673  0.889  0.923  0.987
    eigenvectors:
  0.000  0.139  0.000  0.000  0.861
  1.000  0.000  0.000  0.000  0.000
  0.000  0.000  0.991  0.008  0.000
  0.000  0.861  0.000  0.000  0.139
  0.000  0.000  0.008  0.992  0.000
    occupations:
  0.943  0.001 -0.000 -0.109  0.000
  0.001  0.657  0.001 -0.001 -0.000
 -0.000  0.001  0.889 -0.004  0.003
 -0.109 -0.001 -0.004  0.716  0.001
  0.000 -0.000  0.003  0.001  0.923
atom   23   Tr[ns(na)] =   8.26351
    eigenvalues:
  0.622  0.666  0.892  0.964  0.987
    eigenvectors:
  0.000  0.992  0.000  0.003  0.006
  0.001  0.000  0.998  0.000  0.000
  0.000  0.002  0.000  0.996  0.001
  0.000  0.006  0.000  0.001  0.993
  0.999  0.000  0.001  0.000  0.000
    occupations:
  0.668 -0.000  0.014  0.025 -0.000
 -0.000  0.892 -0.001 -0.000 -0.010
  0.014 -0.001  0.964 -0.002  0.000
  0.025 -0.000 -0.002  0.985 -0.000
 -0.000 -0.010  0.000 -0.000  0.623
N of occupied +U levels =  65.9887522
 --- exit write_ns ---

     Threshold (ethr) on eigenvalues was too large:
     Diagonalizing with lowered threshold

     Davidson diagonalization with overlap
     ethr =  1.95E-08,  avg # of iterations =  1.3

[...]

     total energy              =   -2136.44563522 Ry
     Harris-Foulkes estimate   =   -2136.44563522 Ry
     estimated scf accuracy    <       0.00000002 Ry

     iteration # 16     ecut=    40.00 Ry     beta=0.70
     Davidson diagonalization with overlap
     ethr =  6.93E-12,  avg # of iterations =  1.0

     negative rho (up, down):  0.314E+01 0.000E+00

     End of self-consistent calculation
 --- enter write_ns ---
 LDA+U parameters:
U( 2)     =  8.00000000
alpha( 2) =  0.00000000
atom    3   Tr[ns(na)] =   8.24982
    eigenvalues:
  0.608  0.635  0.920  0.975  0.986
    eigenvectors:
  0.005  0.177  0.003  0.000  0.814
  0.977  0.023  0.000  0.000  0.000
  0.000  0.000  0.987  0.010  0.003
  0.018  0.800  0.000  0.000  0.181
  0.000  0.000  0.010  0.990  0.001
    occupations:
  0.922 -0.005  0.002 -0.135 -0.001
 -0.005  0.608 -0.001 -0.002 -0.005
  0.002 -0.001  0.921 -0.004  0.005
 -0.135 -0.002 -0.004  0.699 -0.000
 -0.001 -0.005  0.005 -0.000  0.975
atom    4   Tr[ns(na)] =   8.25906
    eigenvalues:
  0.620  0.674  0.903  0.944  0.988
    eigenvectors:
  0.000  0.989  0.000  0.000  0.011
  0.000  0.000  0.085  0.915  0.000
  0.000  0.000  0.915  0.085  0.000
  0.000  0.011  0.000  0.000  0.989
  1.000  0.000  0.000  0.000  0.000
    occupations:
  0.677 -0.003 -0.001  0.032  0.001
 -0.003  0.941  0.012  0.000 -0.002
 -0.001  0.012  0.907 -0.000  0.001
  0.032  0.000 -0.000  0.984  0.000
  0.001 -0.002  0.001  0.000  0.621
atom    9   Tr[ns(na)] =   8.25599
    eigenvalues:
  0.657  0.673  0.889  0.923  0.987
    eigenvectors:
  0.000  0.138  0.000  0.000  0.861
  0.998  0.002  0.000  0.000  0.000
  0.000  0.000  0.990  0.009  0.000
  0.002  0.859  0.000  0.000  0.139
  0.000  0.000  0.009  0.991  0.000
    occupations:
  0.943 -0.000 -0.000 -0.109 -0.001
 -0.000  0.657  0.000  0.001 -0.000
 -0.000  0.000  0.889 -0.005 -0.003
 -0.109  0.001 -0.005  0.716  0.001
 -0.001 -0.000 -0.003  0.001  0.922
atom   10   Tr[ns(na)] =   8.19492
    eigenvalues:
  0.574  0.616  0.957  0.963  0.988
    eigenvectors:
  0.990  0.000  0.000  0.000  0.010
  0.000  0.001  0.998  0.001  0.000
  0.000  0.000  0.001  0.998  0.000
  0.010  0.000  0.000  0.000  0.990
  0.000  0.999  0.001  0.000  0.000
    occupations:
  0.578  0.000  0.007  0.040 -0.000
  0.000  0.956 -0.000  0.000 -0.009
  0.007 -0.000  0.963 -0.000 -0.000
  0.040  0.000 -0.000  0.984  0.000
 -0.000 -0.009 -0.000  0.000  0.616
atom   16   Tr[ns(na)] =   8.24980
    eigenvalues:
  0.608  0.635  0.920  0.975  0.986
    eigenvectors:
  0.005  0.177  0.004  0.000  0.814
  0.977  0.022  0.000  0.000  0.000
  0.000  0.000  0.990  0.006  0.004
  0.017  0.801  0.000  0.000  0.181
  0.000  0.000  0.006  0.993  0.001
    occupations:
  0.922  0.005  0.003 -0.135  0.001
  0.005  0.608 -0.000  0.002 -0.005
  0.003 -0.000  0.921 -0.004 -0.004
 -0.135  0.002 -0.004  0.699 -0.000
  0.001 -0.005 -0.004 -0.000  0.975
atom   17   Tr[ns(na)] =   8.25818
    eigenvalues:
  0.620  0.674  0.904  0.943  0.988
    eigenvectors:
  0.000  0.989  0.000  0.000  0.011
  0.000  0.000  0.075  0.925  0.000
  0.000  0.000  0.925  0.075  0.000
  0.000  0.011  0.000  0.000  0.989
  0.999  0.000  0.000  0.000  0.000
    occupations:
  0.677 -0.003 -0.000  0.032  0.001
 -0.003  0.940  0.010  0.000 -0.002
 -0.000  0.010  0.907 -0.000  0.001
  0.032  0.000 -0.000  0.984  0.000
  0.001 -0.002  0.001  0.000  0.620
atom   22   Tr[ns(na)] =   8.25599
    eigenvalues:
  0.657  0.673  0.888  0.923  0.987
    eigenvectors:
  0.000  0.139  0.000  0.000  0.861
  1.000  0.000  0.000  0.000  0.000
  0.000  0.000  0.991  0.008  0.000
  0.000  0.861  0.000  0.000  0.139
  0.000  0.000  0.008  0.992  0.000
    occupations:
  0.943  0.001 -0.000 -0.109  0.000
  0.001  0.657  0.001 -0.001 -0.000
 -0.000  0.001  0.889 -0.004  0.003
 -0.109 -0.001 -0.004  0.716  0.001
  0.000 -0.000  0.003  0.001  0.923
atom   23   Tr[ns(na)] =   8.26413
    eigenvalues:
  0.622  0.666  0.893  0.964  0.987
    eigenvectors:
  0.000  0.992  0.000  0.003  0.006
  0.001  0.000  0.998  0.000  0.000
  0.000  0.002  0.000  0.996  0.001
  0.000  0.006  0.000  0.001  0.993
  0.999  0.000  0.001  0.000  0.000
    occupations:
  0.668 -0.000  0.014  0.025 -0.000
 -0.000  0.892 -0.001 -0.000 -0.010
  0.014 -0.001  0.964 -0.002  0.000
  0.025 -0.000 -0.002  0.985 -0.000
 -0.000 -0.010  0.000 -0.000  0.623
N of occupied +U levels =  65.9878977
 --- exit write_ns ---

[...]

          k = 0.2500-0.4953 0.0000 ( 31088 PWs)   bands (ev):

[...]

          k =-0.2500 0.2476 0.0000 ( 31099 PWs)   bands (ev):

   -49.7654 -49.5979 -49.5927 -49.5914 -49.5862 -49.5594 -49.5515 -49.5266
   -49.5180 -49.4725 -49.4666 -49.4476 -49.3369 -49.3266 -49.2531 -49.2493
   -49.2396 -49.2359 -49.1813 -49.1687 -49.1568 -49.1458 -49.1114 -49.1010
   -23.7676 -20.8743 -20.7120 -20.6430 -20.5054 -20.2594 -20.2458 -20.2268
   -19.9832 -19.9408 -19.7027 -19.6480 -19.5107 -19.4690 -19.4034 -19.3351
   -19.2412 -18.5642 -18.3767 -17.4066 -10.6413 -10.4491 -10.2227 -10.1077
    -9.9200  -9.8243  -9.6168  -9.5891  -9.5275  -9.0459  -8.6486  -8.5902
    -8.4536  -8.4254  -8.2352  -8.1764  -7.9829  -7.9397  -7.8718  -7.6440
    -7.4635  -7.3310  -7.1967  -7.0898  -7.0366  -6.9513  -6.8244  -6.8018
    -6.6505  -6.4810  -6.4354  -6.2809  -6.2010  -6.1310  -6.0998  -5.9580
    -5.9318  -5.8022  -5.7317  -5.6635  -5.5571  -5.4679  -5.2710  -5.1912
    -4.8443  -4.6892  -4.5413  -4.4130  -4.3148  -4.2455  -4.1035  -4.0448
    -3.8849  -3.7958  -3.6193  -3.5206  -3.4974  -3.3713  -3.2374  -3.1409
    -3.0159  -2.9341  -2.8959  -2.7844  -2.7056  -2.6759  -2.6087  -2.5988
    -2.3732  -2.3191  -2.2374  -2.1044  -1.8181  -1.5211  -1.3196  -1.2794
    -1.1063  -1.0636  -0.8384  -0.6775  -0.4844  -0.4071  -0.2015   0.5934
     1.5899   1.6192   1.8726   2.1760   2.3845   2.7869   2.9418   3.1550
     3.3159   3.4698   3.5224   3.6768   3.7741   3.9426   3.9655   4.0526
     4.2875   4.5290   4.7487   5.2574   5.4413   5.7628   6.0767   6.1161
     6.2076   6.4032   6.5719   6.6297   6.7358   7.0398   7.1477   7.3150
     7.5122   7.6863   7.8462   7.9160   7.9782   8.2350   8.3069   8.3698
     8.3798   8.4700   8.7449   8.8189   8.9164   9.0874   9.1461   9.2483
     9.2698   9.4398   9.5709   9.6267   9.7353   9.8115   9.8823  10.0005
    10.0611  10.1490  10.2075  10.3279  10.3496  10.3889  10.4209  10.4401
    10.4456  10.4831  10.4845  10.5107  10.5748  10.5921  10.6486  10.6520
    10.7077  10.7464  10.8558  10.9691  11.0396  11.0807  11.2046  11.2415
    11.3198  11.3976  11.4741  11.5770  11.7286  11.7659  11.8416  11.8939
    11.9291  12.0857  12.1292  12.2095  12.3525  12.5148  12.5214  12.5645
    12.6138  12.6955  12.8284  12.8818  13.0174  13.0599  13.0997  13.2230
    13.2766  13.3492  13.4084  13.5685  13.6651  13.7462  13.8167  13.9009
    13.9261  14.0355  14.0784  14.2066  14.2624  14.3159  14.3756  14.4568
    14.4799  14.5603  14.6658  14.7764  14.8427  14.8938  15.1027  15.1380
    15.1595  15.2476  15.3783  15.4251  15.5655  15.6038  15.6604  15.6838
    15.7303  15.7928  15.8640  15.9404  15.9767  16.0392  16.0837  16.1214
    16.2225  16.2750  16.3515  16.4213  16.4800  16.5429  16.5763  16.6673
    16.7177  16.7609  16.8045  16.8735  16.9668  17.0478  17.1967  17.2590
    17.2909  17.3447  17.3851  17.4380  17.4985  17.6019  17.6427  17.6875
    17.7477  17.8225  17.8587  17.8890  17.9268  18.0079  18.0660  18.1597
    18.2270  18.3090  18.4023  18.5134  18.6013  18.6911  18.7530  18.7917
    18.8112  18.8903  19.0410  19.0598  19.1432  19.2319  19.3033  19.3808
    19.3956  19.4928  19.5796  19.6375  19.7089  19.7630  19.8231  19.8802
    19.9616  20.0239  20.1535  20.2921  20.3280  20.3893  20.4427  20.5382
    20.6790  20.7036  20.7650  20.7999  20.8382  20.8894  20.9640  21.0501
    21.1114  21.1424  21.1847  21.2410  21.2947  21.3202  21.3665  21.4660
    21.5178  21.5886  21.6786  21.7151  21.7214  21.8434  21.8984  21.9445
    21.9989  22.0477  22.0954  22.1674  22.2417  22.3342  22.4139

     the Fermi energy is    -0.8942 ev

!    total energy              =   -2136.44563522 Ry
     Harris-Foulkes estimate   =   -2136.44563522 Ry
     estimated scf accuracy    <          2.5E-09 Ry

     The total energy is the sum of the following terms:

     one-electron contribution =  -23183.01453831 Ry
     hartree contribution      =   11644.97724845 Ry
     xc contribution           =    -584.29588239 Ry
     ewald contribution        =    9983.06197797 Ry
     Hubbard energy            =       2.82560999 Ry
     smearing contrib. (-TS)   =      -0.00005093 Ry

     convergence has been achieved in  16 iterations

     Forces acting on atoms (Ry/au):

     negative rho (up, down):  0.314E+01 0.000E+00
     atom    1 type  1   force =    -0.00708435   -0.01199951    0.00006717
     atom    2 type  1   force =     0.00008376    0.00263342   -0.00063878
     atom    3 type  2   force =     0.03010068    0.00605415    0.00005330
     atom    4 type  2   force =     0.00820997    0.00697048    0.00016547
     atom    5 type  1   force =    -0.00551528   -0.01827909   -0.00033665
     atom    6 type  1   force =     0.00644050    0.01807820   -0.00011183
     atom    7 type  1   force =    -0.00045268   -0.00451147   -0.00020276
     atom    8 type  1   force =    -0.00303276    0.00082284   -0.00005992
     atom    9 type  2   force =     0.00581961    0.00030163    0.00017044
     atom   10 type  2   force =    -0.00014027    0.00090419    0.00003142
     atom   11 type  1   force =    -0.00058835    0.02322587    0.00018971
     atom   12 type  1   force =     0.00599275   -0.01803280    0.00023093
     atom   13 type  1   force =    -0.00074308   -0.00271486   -0.00014249
     atom   14 type  1   force =    -0.00656327   -0.01209116    0.00016955
     atom   15 type  1   force =     0.00005822    0.00264694   -0.00028079
     atom   16 type  2   force =    -0.02970623    0.00591486    0.00003894
     atom   17 type  2   force =     0.00805362    0.00743557    0.00013570
     atom   18 type  1   force =    -0.00454509   -0.01903188   -0.00032359
     atom   19 type  1   force =     0.00714060    0.01744577   -0.00011970
     atom   20 type  1   force =    -0.00030832   -0.00756746    0.00062894
     atom   21 type  1   force =    -0.00312279    0.00152371   -0.00018493
     atom   22 type  2   force =    -0.00360607   -0.00020593    0.00022112
     atom   23 type  2   force =    -0.00051178    0.00417136   -0.00031657
     atom   24 type  1   force =     0.00014462    0.02297642    0.00022040
     atom   25 type  1   force =    -0.00502526   -0.01819564    0.00028570
     atom   26 type  1   force =    -0.00090212   -0.00972007    0.00056214
     atom   27 type  3   force =     0.00001545    0.00049067    0.00029383
     atom   28 type  3   force =     0.00002347    0.00046980    0.00070356
     atom   29 type  3   force =    -0.00011805    0.00021629    0.00026300
     atom   30 type  3   force =    -0.00026385    0.00033452    0.00012273
     atom   31 type  1   force =    -0.00019572   -0.00043385   -0.00012832
     atom   32 type  1   force =     0.00033971    0.00079447   -0.00094735
     atom   33 type  3   force =     0.00000238   -0.00062744   -0.00076038

     Total force =     0.002501     Total SCF correction =     0.000105

     entering subroutine stress ...

     negative rho (up, down):  0.314E+01 0.000E+00
          total   stress  (Ry/bohr**3)                   (kbar)     P=  -16.50
  -0.00014140   0.00000893   0.00000369        -20.80      1.31      0.54
   0.00000893  -0.00014454   0.00000426          1.31    -21.26      0.63
   0.00000369   0.00000426  -0.00005053          0.54      0.63     -7.43

     bfgs converged in   9 scf cycles and   8 bfgs steps
     (criteria: energy < 0.10E-03, force < 0.10E-02)

     End of BFGS Geometry Optimization

     Final energy   =   -2136.4456352179 Ry
Begin final coordinates

ATOMIC_POSITIONS (crystal)
O0       0.000000000   0.000000000   0.378328340    0   0   1
O0       0.000000000   0.500000000   0.403141397    0   0   1
Ir1      0.250000000   0.500000000   0.453074706    0   0   1
Ir1      0.000000000   0.000000000   0.452861456    0   0   1
O0       0.250000000   0.810000000   0.453000666    0   0   1
O0       0.250000000   0.190000000   0.452441624    0   0   1
O0       0.000000000   0.500000000   0.499137059    0   0   1
O0       0.000000000   0.000000000   0.528152607    0   0   1
Ir1      0.250000000   0.000000000   0.574630047    0   0   1
Ir1      0.000000000   0.500000000   0.571778372    0   0   1
O0       0.250000000   0.690000000   0.573594638    0   0   1
O0       0.250000000   0.310000000   0.575785888    0   0   1
O0       0.000000000   0.000000000   0.619310989    0   0   1
O0       0.500000000   0.000000000   0.378144979    0   0   1
O0       0.500000000   0.500000000   0.402897557    0   0   1
Ir1      0.750000000   0.500000000   0.453071885    0   0   1
Ir1      0.500000000   0.000000000   0.452650899    0   0   1
O0       0.750000000   0.810000000   0.452994692    0   0   1
O0       0.750000000   0.190000000   0.452460718    0   0   1
O0       0.500000000   0.500000000   0.500060958    0   0   1
O0       0.500000000   0.000000000   0.528079943    0   0   1
Ir1      0.750000000   0.000000000   0.574631536    0   0   1
Ir1      0.500000000   0.500000000   0.576830347    0   0   1
O0       0.750000000   0.690000000   0.573604040    0   0   1
O0       0.750000000   0.310000000   0.575799645    0   0   1
O0       0.500000000   0.000000000   0.618904877    0   0   1
H2      -0.000154916   0.633880751   0.384582094
H2       0.499770821   0.635353509   0.384928489
H2       0.143083299   0.036328837   0.366827551
H2       0.643616005   0.034657073   0.366704939
O0       0.499333624   0.535235276   0.649503582
O0       0.500646097   0.346143743   0.678664667
H2       0.500000123   0.407802830   0.712988810
End final coordinates

     General routines

     Parallel routines
     Hubbard U routines

   This run was terminated on:  16:30:56  30May2014

   JOB DONE.
Running PBS batch system epilogue script
Job id: 373289.audhumbla.fysik.dtu.dk
Username: zhonxu
Groupname: campgst
Jobname: IrO2/Eads-2-layers/OOH-U-8.0
Sessionid: 15018
Queuename: verylong
Accounting:
This job has allocated the following 16 nodes:
b100 b100 b100 b100 b100 b100 b100 b100 b092 b092 b092 b092 b092 b092 b092 b092
Finished epilogue job 373289.audhumbla.fysik.dtu.dk for zhonxu