     Program PWSCF v.5.0.2 (svn rev. 9656) starts on  4May2014 at 21:23:47

     Current dimensions of program PWSCF are:
     Max number of different atomic species (ntypx) = 10
     Max number of k-points (npk) =  40000
     Max angular momentum in pseudopotentials (lmaxx) =  3
     Reading input from pwscf.in
Warning: card &CELL ignored
Warning: card / ignored

     Subspace diagonalization in iterative solution of the eigenvalue problem:
     a serial algorithm will be used

     bravais-lattice index     =            0
     lattice parameter (alat)  =      10.9604  a.u.
     unit-cell volume          =    6350.6732 (a.u.)^3
     number of atoms/cell      =           31
     number of atomic types    =            3
     number of electrons       =       230.00 (up: 122.00, down: 108.00)
     number of Kohn-Sham states=          333
     kinetic-energy cutoff     =      40.0000  Ry
     charge density cutoff     =     500.0000  Ry
     convergence threshold     =      1.0E-06
     mixing beta               =       0.7000
     number of iterations used =            8  plain     mixing
     Exchange-correlation      = SLA  PW   PBE  PBE ( 1 4 3 4 0)
     EXX-fraction              =        0.00
     nstep                     =           50

     celldm(1)=  10.960412  celldm(2)=   0.000000  celldm(3)=   0.000000
     celldm(4)=   0.000000  celldm(5)=   0.000000  celldm(6)=   0.000000

     crystal axes: (cart. coord. in units of alat)
               a(1) = (   1.000000   0.000000   0.000000 )
               a(2) = (   0.000000   1.067975   0.000000 )
               a(3) = (   0.000000   0.000000   4.516251 )

     reciprocal axes: (cart. coord. in units 2 pi/alat)
               b(1) = (  1.000000  0.000000  0.000000 )
               b(2) = (  0.000000  0.936351  0.000000 )
               b(3) = (  0.000000  0.000000  0.221423 )

     PseudoPot. # 1 for O  read from file:
     /home/camp/zhonxu/pseudo/o_pbe_v1.01.uspp.F.UPF
     MD5 check sum: 2bcb18d16ea4b960afae9ec6d52f22d2
     Pseudo is Ultrasoft + core correction, Zval =  6.0
     Generated by new atomic code, or converted to UPF format
     Using radial grid of  737 points,  5 beta functions with:
                l(1) =   0
                l(2) =   0
                l(3) =   1
                l(4) =   1
                l(5) =   2
     Q(r) pseudized with  8 coefficients,  rinner =    0.900   0.900   0.900
                                                       0.900   0.900

     PseudoPot. # 2 for Cr read from file:
     /home/camp/zhonxu/pseudo/cr_pbe_v1.uspp.F.UPF
     MD5 check sum: 68b6f918d1762dccfb11451fe85b0e0e
     Pseudo is Ultrasoft + core correction, Zval = 14.0
     Generated by new atomic code, or converted to UPF format
     Using radial grid of  857 points,  6 beta functions with:
                l(1) =   0
                l(2) =   0
                l(3) =   1
                l(4) =   1
                l(5) =   2
                l(6) =   2
     Q(r) pseudized with  6 coefficients,  rinner =    1.000   1.000   1.000
                                                       1.000   1.000

     PseudoPot. # 3 for H  read from file:
     /home/camp/zhonxu/pseudo/h_pbe_v1.uspp.F.UPF
     MD5 check sum: 3408e3ff4ec8b0a4e358431e7e038a48
     Pseudo is Ultrasoft, Zval =  1.0
     Generated by new atomic code, or converted to UPF format
     Using radial grid of  615 points,  2 beta functions with:
                l(1) =   0
                l(2) =   0
     Q(r) pseudized with  8 coefficients,  rinner =    0.700

     atomic species   valence    mass     pseudopotential
        O0             6.00    15.99940     O ( 1.00)
        Cr1           14.00    51.99600     Cr( 1.00)
        H2             1.00     1.00794     H ( 1.00)

     Starting magnetic structure
     atomic species   magnetization
        O0           0.000
        Cr1          0.600
        H2           0.000

     Simplified LDA+U calculation (l_max = 2) with parameters (eV):
     atomic species    L          U    alpha       J0     beta
        Cr1            2     2.5000   0.0000   0.0000   0.0000

     No symmetry found

   Cartesian axes

     site n.     atom                  positions (alat units)
         1           O0  tau(   1) = (   0.0000000   0.0000000   1.7030331  )
         2           O0  tau(   2) = (   0.0000000   0.5339875   1.8028422  )
         3           Cr1 tau(   3) = (   0.2500000   0.5339875   2.0350227  )
         4           Cr1 tau(   4) = (   0.0000000   0.0000000   2.0223320  )
         5           O0  tau(   5) = (   0.2500000   0.8543801   2.0287902  )
         6           O0  tau(   6) = (   0.2500000   0.2135950   2.0292419  )
         7           O0  tau(   7) = (   0.0000000   0.5339875   2.2445767  )
         8           O0  tau(   8) = (   0.0000000   0.0000000   2.3628573  )
         9           Cr1 tau(   9) = (   0.2500000   0.0000000   2.5580045  )
        10           Cr1 tau(  10) = (   0.0000000   0.5339875   2.5485656  )
        11           O0  tau(  11) = (   0.2500000   0.7475825   2.5953991  )
        12           O0  tau(  12) = (   0.2500000   0.3203925   2.5951281  )
        13           O0  tau(  13) = (   0.0000000   0.0000000   2.7889204  )
        14           O0  tau(  14) = (   0.5000000   0.0000000   1.7055170  )
        15           O0  tau(  15) = (   0.5000000   0.5339875   1.8012615  )
        16           Cr1 tau(  16) = (   0.7500000   0.5339875   2.0359259  )
        17           Cr1 tau(  17) = (   0.5000000   0.0000000   2.0265773  )
        18           O0  tau(  18) = (   0.7500000   0.8543801   2.0288354  )
        19           O0  tau(  19) = (   0.7500000   0.2135950   2.0296032  )
        20           O0  tau(  20) = (   0.5000000   0.5339875   2.2364023  )
        21           O0  tau(  21) = (   0.5000000   0.0000000   2.3615024  )
        22           Cr1 tau(  22) = (   0.7500000   0.0000000   2.6337872  )
        23           Cr1 tau(  23) = (   0.5000000   0.5339875   2.6580395  )
        24           O0  tau(  24) = (   0.7500000   0.7475825   2.5992379  )
        25           O0  tau(  25) = (   0.7500000   0.3203925   2.5991024  )
        26           O0  tau(  26) = (   0.5000000   0.0000000   2.7868881  )
        27           H2  tau(  27) = (  -0.0008000   0.6785059   1.7121107  )
        28           H2  tau(  28) = (   0.4997900   0.6815710   1.7150915  )
        29           H2  tau(  29) = (   0.1566700   0.0342393   1.6437347  )
        30           H2  tau(  30) = (   0.6553000   0.0356063   1.6443670  )
        31           O0  tau(  31) = (   0.4989300   0.5335603   2.9283823  )

     number of k points=    20  Methfessel-Paxton smearing, width (Ry)=  0.0100
                       cart. coord. in units 2pi/alat
        k(    1) = (   0.0000000   0.0000000   0.0000000), wk =   0.0625000
        k(    2) = (   0.0000000   0.2340879   0.0000000), wk =   0.1250000
        k(    3) = (   0.0000000  -0.4681757   0.0000000), wk =   0.0625000
        k(    4) = (   0.2500000   0.0000000   0.0000000), wk =   0.1250000
        k(    5) = (   0.2500000   0.2340879   0.0000000), wk =   0.1250000
        k(    6) = (   0.2500000  -0.4681757   0.0000000), wk =   0.1250000
        k(    7) = (  -0.5000000   0.0000000   0.0000000), wk =   0.0625000
        k(    8) = (  -0.5000000   0.2340879   0.0000000), wk =   0.1250000
        k(    9) = (  -0.5000000  -0.4681757   0.0000000), wk =   0.0625000
        k(   10) = (  -0.2500000   0.2340879   0.0000000), wk =   0.1250000
        k(   11) = (   0.0000000   0.0000000   0.0000000), wk =   0.0625000
        k(   12) = (   0.0000000   0.2340879   0.0000000), wk =   0.1250000
        k(   13) = (   0.0000000  -0.4681757   0.0000000), wk =   0.0625000
        k(   14) = (   0.2500000   0.0000000   0.0000000), wk =   0.1250000
        k(   15) = (   0.2500000   0.2340879   0.0000000), wk =   0.1250000
        k(   16) = (   0.2500000  -0.4681757   0.0000000), wk =   0.1250000
        k(   17) = (  -0.5000000   0.0000000   0.0000000), wk =   0.0625000
        k(   18) = (  -0.5000000   0.2340879   0.0000000), wk =   0.1250000
        k(   19) = (  -0.5000000  -0.4681757   0.0000000), wk =   0.0625000
        k(   20) = (  -0.2500000   0.2340879   0.0000000), wk =   0.1250000

     Largest allocated arrays     est. size (Mb)     dimensions
     Largest temporary arrays     est. size (Mb)     dimensions

     Check: negative/imaginary core charge=   -0.000012    0.000000

     Initial potential from superposition of free atoms
     Check: negative starting charge=(component1):   -0.001547
     Check: negative starting charge=(component2):   -0.000494

     starting charge  221.99984, renormalised to  230.00000

     negative rho (up, down):  0.160E-02 0.512E-03
     Number of +U iterations with fixed ns =  0
     Starting occupations:
 --- enter write_ns ---
 LDA+U parameters:
U( 2)     =  2.50000000
alpha( 2) =  0.00000000
atom    3   Tr[ns(na)] (up, down, total) =   5.00000  0.00000  5.00000
   spin  1
    eigenvalues:
  1.000  1.000  1.000  1.000  1.000
    eigenvectors:
  1.000  0.000  0.000  0.000  0.000
  0.000  1.000  0.000  0.000  0.000
  0.000  0.000  1.000  0.000  0.000
  0.000  0.000  0.000  1.000  0.000
  0.000  0.000  0.000  0.000  1.000
    occupations:
  1.000  0.000  0.000  0.000  0.000
  0.000  1.000  0.000  0.000  0.000
  0.000  0.000  1.000  0.000  0.000
  0.000  0.000  0.000  1.000  0.000
  0.000  0.000  0.000  0.000  1.000
   spin  2
    eigenvalues:
  0.000  0.000  0.000  0.000  0.000
    eigenvectors:
  1.000  0.000  0.000  0.000  0.000
  0.000  1.000  0.000  0.000  0.000
  0.000  0.000  1.000  0.000  0.000
  0.000  0.000  0.000  1.000  0.000
  0.000  0.000  0.000  0.000  1.000
    occupations:
  0.000  0.000  0.000  0.000  0.000
  0.000  0.000  0.000  0.000  0.000
  0.000  0.000  0.000  0.000  0.000
  0.000  0.000  0.000  0.000  0.000
  0.000  0.000  0.000  0.000  0.000
atomic mag. moment =     5.000000
atom    4   Tr[ns(na)] (up, down, total) =   5.00000  0.00000  5.00000
   spin  1
    eigenvalues:
  1.000  1.000  1.000  1.000  1.000
    eigenvectors:
  1.000  0.000  0.000  0.000  0.000
  0.000  1.000  0.000  0.000  0.000
  0.000  0.000  1.000  0.000  0.000
  0.000  0.000  0.000  1.000  0.000
  0.000  0.000  0.000  0.000  1.000
    occupations:
  1.000  0.000  0.000  0.000  0.000
  0.000  1.000  0.000  0.000  0.000
  0.000  0.000  1.000  0.000  0.000
  0.000  0.000  0.000  1.000  0.000
  0.000  0.000  0.000  0.000  1.000
   spin  2
    eigenvalues:
  0.000  0.000  0.000  0.000  0.000
    eigenvectors:
  1.000  0.000  0.000  0.000  0.000
  0.000  1.000  0.000  0.000  0.000
  0.000  0.000  1.000  0.000  0.000
  0.000  0.000  0.000  1.000  0.000
  0.000  0.000  0.000  0.000  1.000
    occupations:
  0.000  0.000  0.000  0.000  0.000
  0.000  0.000  0.000  0.000  0.000
  0.000  0.000  0.000  0.000  0.000
  0.000  0.000  0.000  0.000  0.000
  0.000  0.000  0.000  0.000  0.000
atomic mag. moment =     5.000000
atom    9   Tr[ns(na)] (up, down, total) =   5.00000  0.00000  5.00000
   spin  1
    eigenvalues:
  1.000  1.000  1.000  1.000  1.000
    eigenvectors:
  1.000  0.000  0.000  0.000  0.000
[...]
  0.213  0.001  0.002  0.130  0.654
  0.000  0.920  0.078  0.002  0.000
    occupations:
  0.168  0.002 -0.004  0.110  0.001
  0.002  0.359  0.001 -0.014  0.011
 -0.004  0.001  0.152  0.007 -0.007
  0.110 -0.014  0.007  0.320 -0.001
  0.001  0.011 -0.007 -0.001  0.129
atomic mag. moment =     2.402791
atom    4   Tr[ns(na)] (up, down, total) =   3.48201  1.17305  4.65506
   spin  1
    eigenvalues:
  0.485  0.530  0.594  0.887  0.985
    eigenvectors:
  0.003  0.991  0.000  0.001  0.005
  0.000  0.001  0.020  0.978  0.000
  0.000  0.000  0.980  0.020  0.000
  0.000  0.005  0.000  0.000  0.995
  0.997  0.003  0.000  0.000  0.000
    occupations:
  0.533 -0.011 -0.001  0.031  0.003
 -0.011  0.881  0.041  0.002 -0.000
 -0.001  0.041  0.600  0.002 -0.000
  0.031  0.002  0.002  0.983 -0.000
  0.003 -0.000 -0.000 -0.000  0.486
   spin  2
    eigenvalues:
  0.106  0.134  0.171  0.371  0.391
    eigenvectors:
  0.003  0.003  0.000  0.004  0.990
  0.002  0.946  0.049  0.000  0.003
  0.000  0.049  0.951  0.000  0.000
  0.995  0.003  0.000  0.000  0.002
  0.000  0.000  0.000  0.996  0.004
    occupations:
  0.389  0.013  0.003 -0.014  0.001
  0.013  0.136 -0.008  0.001 -0.000
  0.003 -0.008  0.169  0.000 -0.000
 -0.014  0.001  0.000  0.107  0.000
  0.001 -0.000 -0.000  0.000  0.371
atomic mag. moment =     2.308962
atom    9   Tr[ns(na)] (up, down, total) =   3.49051  1.20335  4.69385
   spin  1
    eigenvalues:
  0.501  0.507  0.631  0.868  0.983
    eigenvectors:
  0.049  0.126  0.000  0.000  0.826
  0.729  0.271  0.000  0.000  0.000
  0.000  0.000  0.987  0.013  0.000
  0.222  0.604  0.000  0.000  0.174
  0.000  0.000  0.013  0.987  0.000
    occupations:
  0.900  0.003 -0.000 -0.181 -0.000
  0.003  0.503  0.001  0.002 -0.001
 -0.000  0.001  0.634 -0.001 -0.027
 -0.181  0.002 -0.001  0.589  0.002
 -0.000 -0.001 -0.027  0.002  0.865
   spin  2
    eigenvalues:
  0.122  0.148  0.172  0.381  0.382
    eigenvectors:
  0.813  0.000  0.000  0.014  0.173
  0.000  0.000  0.000  0.925  0.075
  0.000  0.055  0.945  0.000  0.000
  0.187  0.000  0.000  0.061  0.752
  0.000  0.945  0.055  0.000  0.000
    occupations:
  0.170  0.000 -0.000  0.102 -0.000
  0.000  0.381 -0.000  0.000  0.000
 -0.000 -0.000  0.170  0.000  0.005
  0.102  0.000  0.000  0.333 -0.000
 -0.000  0.000  0.005 -0.000  0.149
atomic mag. moment =     2.287159
atom   10   Tr[ns(na)] (up, down, total) =   3.58774  1.03995  4.62769
   spin  1
    eigenvalues:
  0.467  0.490  0.734  0.916  0.981
    eigenvectors:
  0.000  0.992  0.000  0.000  0.008
  0.000  0.001  0.000  0.974  0.025
  0.000  0.000  0.999  0.000  0.000
  0.000  0.007  0.000  0.025  0.967
  1.000  0.000  0.000  0.000  0.000
    occupations:
  0.494 -0.012 -0.000  0.042 -0.000
 -0.012  0.917 -0.003 -0.009  0.001
 -0.000 -0.003  0.734  0.000  0.004
  0.042 -0.009  0.000  0.976  0.000
 -0.000  0.001  0.004  0.000  0.467
   spin  2
    eigenvalues:
  0.093  0.147  0.158  0.294  0.349
    eigenvectors:
  0.007  0.000  0.000  0.993  0.000
  0.001  0.999  0.000  0.000  0.000
  0.000  0.000  1.000  0.000  0.000
  0.992  0.001  0.000  0.007  0.000
  0.000  0.000  0.000  0.000  1.000
    occupations:
  0.292  0.000 -0.000 -0.017 -0.000
  0.000  0.147  0.000  0.002 -0.000
 -0.000  0.000  0.158 -0.000  0.004
 -0.017  0.002 -0.000  0.094  0.000
 -0.000 -0.000  0.004  0.000  0.349
atomic mag. moment =     2.547781
atom   16   Tr[ns(na)] (up, down, total) =   3.52665  1.13288  4.65952
   spin  1
    eigenvalues:
  0.470  0.519  0.654  0.902  0.982
    eigenvectors:
  0.034  0.182  0.002  0.000  0.782
  0.891  0.107  0.000  0.000  0.002
  0.000  0.000  0.962  0.036  0.003
  0.074  0.711  0.001  0.000  0.213
  0.000  0.000  0.035  0.964  0.000
    occupations:
  0.879  0.025  0.015 -0.192  0.004
  0.025  0.476  0.004  0.004 -0.006
  0.015  0.004  0.664 -0.006 -0.046
 -0.192  0.004 -0.006  0.614 -0.001
  0.004 -0.006 -0.046 -0.001  0.893
   spin  2
    eigenvalues:
  0.109  0.127  0.156  0.355  0.385
    eigenvectors:
  0.763  0.004  0.017  0.053  0.164
  0.001  0.002  0.000  0.808  0.188
  0.023  0.094  0.883  0.000  0.000
  0.213  0.001  0.002  0.137  0.648
  0.000  0.900  0.097  0.002  0.000
    occupations:
  0.168 -0.002 -0.003  0.110 -0.001
 -0.002  0.360 -0.001  0.015  0.011
 -0.003 -0.001  0.153  0.007  0.008
  0.110  0.015  0.007  0.322  0.001
 -0.001  0.011  0.008  0.001  0.131
atomic mag. moment =     2.393770
atom   17   Tr[ns(na)] (up, down, total) =   3.48633  1.16697  4.65330
   spin  1
    eigenvalues:
  0.484  0.532  0.609  0.875  0.986
    eigenvectors:
  0.002  0.991  0.000  0.001  0.004
  0.000  0.001  0.022  0.977  0.000
  0.000  0.001  0.977  0.022  0.000
  0.000  0.004  0.000  0.000  0.996
  0.997  0.003  0.000  0.000  0.000
    occupations:
  0.535 -0.012 -0.003  0.030  0.002
 -0.012  0.869  0.039  0.001 -0.000
 -0.003  0.039  0.615  0.000  0.001
  0.030  0.001  0.000  0.984 -0.000
  0.002 -0.000  0.001 -0.000  0.484
   spin  2
    eigenvalues:
  0.105  0.133  0.171  0.368  0.390
    eigenvectors:
  0.003  0.003  0.000  0.003  0.991
  0.003  0.939  0.055  0.000  0.003
  0.000  0.055  0.945  0.000  0.000
  0.994  0.003  0.000  0.000  0.003
  0.000  0.000  0.000  0.997  0.003
    occupations:
  0.389  0.015  0.003 -0.015  0.001
  0.015  0.136 -0.008  0.001 -0.000
  0.003 -0.008  0.168  0.000  0.000
 -0.015  0.001  0.000  0.106  0.000
  0.001 -0.000  0.000  0.000  0.368
atomic mag. moment =     2.319361
atom   22   Tr[ns(na)] (up, down, total) =   3.14186  1.66100  4.80286
   spin  1
    eigenvalues:
  0.501  0.548  0.563  0.641  0.889
    eigenvectors:
  0.963  0.004  0.033  0.000  0.000
  0.003  0.996  0.001  0.000  0.000
  0.000  0.000  0.000  0.068  0.932
  0.033  0.000  0.966  0.000  0.000
  0.000  0.000  0.000  0.931  0.068
    occupations:
  0.503 -0.003  0.001 -0.011  0.002
 -0.003  0.548  0.000 -0.001 -0.000
  0.001  0.000  0.872 -0.000  0.063
 -0.011 -0.001 -0.000  0.561 -0.001
  0.002 -0.000  0.063 -0.001  0.658
   spin  2
    eigenvalues:
  0.199  0.266  0.291  0.451  0.453
    eigenvectors:
  0.000  0.000  0.982  0.012  0.005
  0.000  0.000  0.000  0.217  0.783
  0.985  0.015  0.000  0.000  0.000
  0.000  0.000  0.017  0.770  0.212
  0.015  0.985  0.000  0.000  0.000
    occupations:
  0.294 -0.002 -0.000  0.021 -0.000
 -0.002  0.453 -0.000 -0.001  0.000
 -0.000 -0.000  0.200  0.000 -0.008
  0.021 -0.001  0.000  0.449  0.000
 -0.000  0.000 -0.008  0.000  0.265
atomic mag. moment =     1.480864
atom   23   Tr[ns(na)] (up, down, total) =   3.15415  1.65202  4.80617
   spin  1
    eigenvalues:
  0.489  0.547  0.547  0.586  0.985
    eigenvectors:
  0.000  0.000  0.005  0.993  0.001
  0.000  0.002  0.992  0.005  0.000
  0.000  0.997  0.002  0.000  0.000
  0.000  0.000  0.000  0.001  0.998
  1.000  0.000  0.000  0.000  0.000
    occupations:
  0.586  0.003 -0.000  0.015 -0.000
  0.003  0.547 -0.000 -0.004 -0.000
 -0.000 -0.000  0.547 -0.000  0.001
  0.015 -0.004 -0.000  0.985 -0.000
 -0.000 -0.000  0.001 -0.000  0.489
   spin  2
    eigenvalues:
  0.105  0.333  0.338  0.390  0.485
    eigenvectors:
  0.002  0.000  0.001  0.000  0.997
  0.000  0.000  0.999  0.000  0.001
  0.000  0.999  0.000  0.000  0.000
  0.998  0.000  0.000  0.000  0.002
  0.000  0.000  0.000  1.000  0.000
    occupations:
  0.484  0.005  0.000 -0.017 -0.000
  0.005  0.338  0.000  0.002  0.000
  0.000  0.000  0.333 -0.000 -0.001
 -0.017  0.002 -0.000  0.106  0.000
 -0.000  0.000 -0.001  0.000  0.390
atomic mag. moment =     1.502124
N of occupied +U levels =  37.5570322
 --- exit write_ns ---

 ------ SPIN UP ------------

[...]

 ------ SPIN DOWN ----------

[...]

          k = 0.2500-0.4682 0.0000 ( 27150 PWs)   bands (ev):

[...]

          k =-0.2500 0.2341 0.0000 ( 27132 PWs)   bands (ev):

   -74.2288 -74.0994 -72.7742 -72.7612 -72.7437 -72.6908 -72.6230 -72.6017
   -46.3245 -45.9119 -45.3185 -45.2765 -45.1695 -45.1177 -44.4578 -44.3569
   -44.3373 -44.3188 -44.2660 -44.2447 -44.2037 -44.1539 -44.0684 -44.0206
   -44.0168 -43.9850 -43.8815 -43.8603 -43.8566 -43.7494 -43.7474 -43.6150
   -21.3060 -20.8876 -20.7256 -20.6763 -20.5575 -20.2862 -20.1874 -20.1483
   -20.0738 -19.9506 -19.9402 -19.8317 -19.7650 -19.7452 -19.7013 -19.6403
   -19.4766 -19.3992 -19.3027  -8.7833  -8.5522  -8.2689  -8.1547  -8.0323
    -7.7787  -7.6747  -7.5966  -7.5143  -7.4379  -7.3251  -7.2334  -7.1872
    -7.0564  -6.9880  -6.9547  -6.8055  -6.7486  -6.5812  -6.5416  -6.4775
    -6.4261  -6.3155  -6.1248  -6.0453  -5.9923  -5.8197  -5.7575  -5.6830
    -5.6101  -5.5247  -5.4804  -5.3894  -5.3838  -5.2378  -5.1677  -5.1029
    -5.0383  -4.8640  -4.7717  -4.6351  -4.5694  -4.4408  -4.3899  -4.2935
    -4.1997  -4.0984  -4.0634  -4.0118  -3.9485  -3.8436  -3.7023  -3.6730
    -3.5475  -3.4410  -3.3056  -3.1115  -0.3253  -0.1842  -0.0828  -0.0087
     0.1057   0.2054   0.3329   0.4480   0.5922   0.6514   0.7180   0.7905
     0.8220   0.9019   0.9831   1.0166   1.0769   1.1640   1.2092   1.3076
     1.3842   1.4359   1.4911   1.5641   1.5967   1.6393   1.6903   1.8831
     2.1591   2.2893   2.4122   2.6224   2.7014   2.7476   2.8754   3.0005
     3.0554   3.2455   3.5264   3.6288   3.8048   4.2560   4.4527   4.9429
     5.4301   5.6725   5.7552   6.0757   6.2789   6.4432   6.5134   6.6753
     6.7967   6.9531   7.0450   7.3447   7.4862   7.7877   7.8825   8.0053
     8.3075   8.3462   8.4274   8.5690   8.7231   8.8407   9.0056   9.0751
     9.2516   9.2725   9.4375   9.5692   9.7272   9.8047   9.9228  10.1264
    10.1647  10.2357  10.3258  10.4319  10.5032  10.6480  10.7359  10.8447
    10.9167  11.0144  11.1986  11.2300  11.2970  11.3577  11.5343  11.6159
    11.6610  11.7636  11.8351  11.9108  12.0275  12.0898  12.1801  12.2704
    12.3629  12.4272  12.5255  12.6496  12.7247  12.8000  12.8493  12.9081
    12.9636  12.9947  13.0854  13.1355  13.2114  13.2887  13.3272  13.4166
    13.4797  13.5693  13.6823  13.7721  13.8481  13.9198  13.9785  14.0577
    14.1220  14.2473  14.3474  14.4360  14.4610  14.5074  14.6138  14.6982
    14.7589  14.8306  14.9296  14.9856  15.0342  15.1547  15.2388  15.3517
    15.4017  15.4823  15.5568  15.6496  15.7605  15.8410  15.9524  16.0218
    16.0836  16.1433  16.2043  16.2649  16.3702  16.4348  16.4948  16.5276
    16.6170  16.7592  16.8034  16.8436  16.9206  17.0461  17.0680  17.1081
    17.1902  17.2232  17.3764  17.4496  17.4824  17.5245  17.6008  17.6821
    17.7069  17.7557  17.7955  17.9008  17.9666  18.0328  18.1279  18.2366
    18.2661  18.3228  18.3917  18.4163  18.5831  18.6881  18.7662  18.8133
    18.8654  18.9311  18.9910  19.0286  19.0648  19.2378  19.3304  19.3804
    19.4345  19.4969  19.5878  19.6541  19.6877  19.7646  19.8086  19.8778
    19.9645  20.0432  20.1134  20.1829  20.3049  20.3706  20.4566  20.5251
    20.6283  20.7028  20.7665  20.8357  20.9191  21.0199  21.0895  21.1480
    21.2215  21.2564  21.3369  21.4175  21.4976

     the spin up/dw Fermi energies are    -1.9335   -2.9251 ev

!    total energy              =   -2024.51188837 Ry
     Harris-Foulkes estimate   =   -2024.51188837 Ry
     estimated scf accuracy    <          3.5E-09 Ry

     The total energy is the sum of the following terms:

     one-electron contribution =  -23796.03197027 Ry
     hartree contribution      =   11915.43420464 Ry
     xc contribution           =    -321.82196266 Ry
     ewald contribution        =   10176.61534932 Ry
     Hubbard energy            =       1.29240658 Ry
     smearing contrib. (-TS)   =       0.00008403 Ry

     total magnetization       =    14.00 Bohr mag/cell
     absolute magnetization    =    20.96 Bohr mag/cell

     convergence has been achieved in  21 iterations

     Forces acting on atoms (Ry/au):

     negative rho (up, down):  0.502E-02 0.181E-02
     atom    1 type  1   force =    -0.00304103   -0.01096056    0.00018911
     atom    2 type  1   force =    -0.00102117    0.00607787   -0.00004413
     atom    3 type  2   force =     0.05540409   -0.00087189    0.00005747
     atom    4 type  2   force =    -0.00077777    0.00719123   -0.00084932
     atom    5 type  1   force =    -0.00310952    0.00841564    0.00000083
     atom    6 type  1   force =    -0.00158628   -0.00659484   -0.00003910
     atom    7 type  1   force =     0.00271127   -0.00198494   -0.00008487
     atom    8 type  1   force =    -0.01422551   -0.00097965    0.00036079
     atom    9 type  2   force =     0.01971481    0.00105817   -0.00054241
     atom   10 type  2   force =     0.00156686   -0.00006473    0.00010033
     atom   11 type  1   force =    -0.00322952   -0.05484270   -0.00008151
     atom   12 type  1   force =    -0.00224800    0.05396454   -0.00012483
     atom   13 type  1   force =    -0.04294962    0.00019125   -0.00050801
     atom   14 type  1   force =    -0.00652732   -0.01196532    0.00044673
     atom   15 type  1   force =     0.00027123    0.00577482   -0.00039188
     atom   16 type  2   force =    -0.06036359   -0.00063882    0.00014247
     atom   17 type  2   force =     0.00816230    0.00705819   -0.00018862
     atom   18 type  1   force =     0.00405909    0.00878415    0.00005326
     atom   19 type  1   force =     0.00586762   -0.00711366    0.00013588
     atom   20 type  1   force =     0.00237054   -0.00233735    0.00062383
     atom   21 type  1   force =     0.01063155    0.00021887    0.00082295
     atom   22 type  2   force =     0.01900730   -0.00024076   -0.00014734
     atom   23 type  2   force =    -0.00166528    0.00017876    0.00053844
     atom   24 type  1   force =    -0.00748986   -0.05874807   -0.00005238
     atom   25 type  1   force =    -0.00634209    0.05898751   -0.00005571
     atom   26 type  1   force =     0.02502463   -0.00017797   -0.00009605
     atom   27 type  3   force =    -0.00002488   -0.00008603   -0.00012889
     atom   28 type  3   force =     0.00000052    0.00010913   -0.00029981
     atom   29 type  3   force =    -0.00022057   -0.00019989   -0.00006681
     atom   30 type  3   force =    -0.00029418   -0.00021129   -0.00005676
     atom   31 type  1   force =     0.00032439    0.00000835    0.00028633

     Total force =     0.001962     Total SCF correction =     0.000088

     bfgs converged in  13 scf cycles and  12 bfgs steps
     (criteria: energy < 0.10E-03, force < 0.10E-02)

     End of BFGS Geometry Optimization

     Final energy   =   -2024.5118883656 Ry
Begin final coordinates

ATOMIC_POSITIONS (crystal)
O0       0.000000000   0.000000000   0.376679508    0   0   1
O0       0.000000000   0.500000000   0.398288789    0   0   1
Cr1      0.250000000   0.500000000   0.449915329    0   0   1
Cr1      0.000000000   0.000000000   0.448191806    0   0   1
O0       0.250000000   0.800000000   0.448784203    0   0   1
O0       0.250000000   0.200000000   0.448896109    0   0   1
O0       0.000000000   0.500000000   0.497249320    0   0   1
O0       0.000000000   0.000000000   0.522907711    0   0   1
Cr1      0.250000000   0.000000000   0.567963344    0   0   1
Cr1      0.000000000   0.500000000   0.564884399    0   0   1
O0       0.250000000   0.700000000   0.574782788    0   0   1
O0       0.250000000   0.300000000   0.574767019    0   0   1
O0       0.000000000   0.000000000   0.617754688    0   0   1
O0       0.500000000   0.000000000   0.376635828    0   0   1
O0       0.500000000   0.500000000   0.398121914    0   0   1
Cr1      0.750000000   0.500000000   0.450126973    0   0   1
Cr1      0.500000000   0.000000000   0.448341519    0   0   1
O0       0.750000000   0.800000000   0.448789566    0   0   1
O0       0.750000000   0.200000000   0.448862701    0   0   1
O0       0.500000000   0.500000000   0.496297287    0   0   1
O0       0.500000000   0.000000000   0.522899879    0   0   1
Cr1      0.750000000   0.000000000   0.582709093    0   0   1
Cr1      0.500000000   0.500000000   0.589350057    0   0   1
O0       0.750000000   0.700000000   0.576602774    0   0   1
O0       0.750000000   0.300000000   0.576614640    0   0   1
O0       0.500000000   0.000000000   0.617659163    0   0   1
H2      -0.000947196   0.635466564   0.378311962
H2       0.499668935   0.638740947   0.379345429
H2       0.158029285   0.029893822   0.363973009
H2       0.657014099   0.031783316   0.363761659
O0       0.494590592   0.499813382   0.649361533
End final coordinates

     General routines

     Parallel routines
     Hubbard U routines

   This run was terminated on:   0: 2:45   6May2014

   JOB DONE.
Running PBS batch system epilogue script
Job id: 340710.audhumbla.fysik.dtu.dk
Username: zhonxu
Groupname: campgst
Jobname: CrO2/Eads-2-layers/O-U-2.5
Sessionid: 31924
Queuename: verylong
Accounting:
This job has allocated the following 16 nodes:
b053 b053 b053 b053 b053 b053 b053 b053 b040 b040 b040 b040 b040 b040 b040 b040
Finished epilogue job 340710.audhumbla.fysik.dtu.dk for zhonxu