     Program PWSCF v.5.0.2 (svn rev. 9656) starts on  6May2014 at 15:29: 4

     Current dimensions of program PWSCF are:
     Max number of different atomic species (ntypx) = 10
     Max number of k-points (npk) =  40000
     Max angular momentum in pseudopotentials (lmaxx) =  3
     Reading input from pwscf.in
Warning: card &CELL ignored
Warning: card / ignored

     Subspace diagonalization in iterative solution of the eigenvalue problem:
     a serial algorithm will be used

     Found symmetry operation: I + ( -0.5000  0.0000  0.0000)
     This is a supercell, fractional translations are disabled

     bravais-lattice index     =            0
     lattice parameter (alat)  =      11.2250  a.u.
     unit-cell volume          =    7005.5484 (a.u.)^3
     number of atoms/cell      =           30
     number of atomic types    =            3
     number of electrons       =       208.00
     number of Kohn-Sham states=          300
     kinetic-energy cutoff     =      40.0000  Ry
     charge density cutoff     =     500.0000  Ry
     convergence threshold     =      1.0E-06
     mixing beta               =       0.7000
     number of iterations used =            8  plain     mixing
     Exchange-correlation      = SLA  PW   PBE  PBE ( 1 4 3 4 0)
     EXX-fraction              =        0.00
     nstep                     =           50

     celldm(1)=  11.224973  celldm(2)=   0.000000  celldm(3)=   0.000000
     celldm(4)=   0.000000  celldm(5)=   0.000000  celldm(6)=   0.000000

     crystal axes: (cart. coord. in units of alat)
               a(1) = (   1.000000   0.000000   0.000000 )
               a(2) = (   0.000000   1.107086   0.000000 )
               a(3) = (   0.000000   0.000000   4.474090 )

     reciprocal axes: (cart. coord. in units 2 pi/alat)
               b(1) = (  1.000000  0.000000  0.000000 )
               b(2) = (  0.000000  0.903272  0.000000 )
               b(3) = (  0.000000  0.000000  0.223509 )

     PseudoPot. # 1 for O  read from file:
     /home/camp/zhonxu/pseudo/o_pbe_v1.01.uspp.F.UPF
     MD5 check sum: 2bcb18d16ea4b960afae9ec6d52f22d2
     Pseudo is Ultrasoft + core correction, Zval =  6.0
     Generated by new atomic code, or converted to UPF format
     Using radial grid of  737 points,  5 beta functions with:
                l(1) =   0
                l(2) =   0
                l(3) =   1
                l(4) =   1
                l(5) =   2
     Q(r) pseudized with  8 coefficients,  rinner =    0.900   0.900   0.900
                                                       0.900   0.900

     PseudoPot. # 2 for Ti read from file:
     /home/camp/zhonxu/pseudo/ti_pbe_v1.uspp.F.UPF
     MD5 check sum: bcc8f6961b3b91f0cac3ca967d22d0fb
     Pseudo is Ultrasoft + core correction, Zval = 12.0
     Generated by new atomic code, or converted to UPF format
     Using radial grid of  851 points,  6 beta functions with:
                l(1) =   0
                l(2) =   0
                l(3) =   1
                l(4) =   1
                l(5) =   2
                l(6) =   2
     Q(r) pseudized with  6 coefficients,  rinner =    1.000   1.000   1.000
                                                       1.000   1.000

     PseudoPot. # 3 for H  read from file:
     /home/camp/zhonxu/pseudo/h_pbe_v1.uspp.F.UPF
     MD5 check sum: 3408e3ff4ec8b0a4e358431e7e038a48
     Pseudo is Ultrasoft, Zval =  1.0
     Generated by new atomic code, or converted to UPF format
     Using radial grid of  615 points,  2 beta functions with:
                l(1) =   0
                l(2) =   0
     Q(r) pseudized with  8 coefficients,  rinner =    0.700

     atomic species   valence    mass     pseudopotential
        O0             6.00    15.99940     O ( 1.00)
        Ti1           12.00    47.88000     Ti( 1.00)
        H2             1.00     1.00794     H ( 1.00)

     Simplified LDA+U calculation (l_max = 2) with parameters (eV):
     atomic species    L          U    alpha       J0     beta
        Ti1            2     6.0000   0.0000   0.0000   0.0000

     No symmetry found

   Cartesian axes

     site n.     atom                  positions (alat units)
         1           O0  tau(   1) = (   0.0000000   0.0000000   1.6989461  )
         2           O0  tau(   2) = (   0.0000000   0.5535432   1.7901728  )
         3           Ti1 tau(   3) = (   0.2500000   0.5535432   2.0162933  )
         4           Ti1 tau(   4) = (   0.0000000   0.0000000   2.0248388  )
         5           O0  tau(   5) = (   0.2500000   0.8967400   2.0178145  )
         6           O0  tau(   6) = (   0.2500000   0.2103464   2.0226912  )
         7           O0  tau(   7) = (   0.0000000   0.5535432   2.2326603  )
         8           O0  tau(   8) = (   0.0000000   0.0000000   2.3559662  )
         9           Ti1 tau(   9) = (   0.2500000   0.0000000   2.5995804  )
        10           Ti1 tau(  10) = (   0.0000000   0.5535432   2.5483968  )
        11           O0  tau(  11) = (   0.2500000   0.7638896   2.5964932  )
        12           O0  tau(  12) = (   0.2500000   0.3431968   2.5965380  )
        13           O0  tau(  13) = (   0.0000000   0.0000000   2.7842708  )
        14           O0  tau(  14) = (   0.5000000   0.0000000   1.6989461  )
        15           O0  tau(  15) = (   0.5000000   0.5535432   1.7901728  )
        16           Ti1 tau(  16) = (   0.7500000   0.5535432   2.0162933  )
        17           Ti1 tau(  17) = (   0.5000000   0.0000000   2.0248388  )
        18           O0  tau(  18) = (   0.7500000   0.8967400   2.0178145  )
        19           O0  tau(  19) = (   0.7500000   0.2103464   2.0226912  )
        20           O0  tau(  20) = (   0.5000000   0.5535432   2.2326603  )
        21           O0  tau(  21) = (   0.5000000   0.0000000   2.3559662  )
        22           Ti1 tau(  22) = (   0.7500000   0.0000000   2.5995804  )
        23           Ti1 tau(  23) = (   0.5000000   0.5535432   2.5483968  )
        24           O0  tau(  24) = (   0.7500000   0.7638896   2.5964932  )
        25           O0  tau(  25) = (   0.7500000   0.3431968   2.5965380  )
        26           O0  tau(  26) = (   0.5000000   0.0000000   2.7842708  )
        27           H2  tau(  27) = (  -0.0005400   0.6991915   1.7063283  )
        28           H2  tau(  28) = (   0.4994600   0.6991915   1.7063283  )
        29           H2  tau(  29) = (   0.1501800   0.0252084   1.6321479  )
        30           H2  tau(  30) = (   0.6501800   0.0252084   1.6321479  )

     number of k points=    10  Methfessel-Paxton smearing, width (Ry)=  0.0100
                       cart. coord. in units 2pi/alat
        k(    1) = (   0.0000000   0.0000000   0.0000000), wk =   0.1250000
        k(    2) = (   0.0000000   0.2258180   0.0000000), wk =   0.2500000
        k(    3) = (   0.0000000  -0.4516359   0.0000000), wk =   0.1250000
        k(    4) = (   0.2500000   0.0000000   0.0000000), wk =   0.2500000
        k(    5) = (   0.2500000   0.2258180   0.0000000), wk =   0.2500000
        k(    6) = (   0.2500000  -0.4516359   0.0000000), wk =   0.2500000
        k(    7) = (  -0.5000000   0.0000000   0.0000000), wk =   0.1250000
        k(    8) = (  -0.5000000   0.2258180   0.0000000), wk =   0.2500000
        k(    9) = (  -0.5000000  -0.4516359   0.0000000), wk =   0.1250000
        k(   10) = (  -0.2500000   0.2258180   0.0000000), wk =   0.2500000

     Largest allocated arrays     est. size (Mb)     dimensions
     Largest temporary arrays     est. size (Mb)     dimensions

     Check: negative/imaginary core charge=   -0.000005    0.000000

     Initial potential from superposition of free atoms
     Check: negative starting charge=   -0.102816

     starting charge  199.99958, renormalised to  208.00000

     negative rho (up, down):  0.107E+00 0.000E+00
     Number of +U iterations with fixed ns =  0
     Starting occupations:
 --- enter write_ns ---
 LDA+U parameters:
U( 2)     =  6.00000000
alpha( 2) =  0.00000000
atom    3   Tr[ns(na)] =   2.00000
    eigenvalues:
  0.200  0.200  0.200  0.200  0.200
    eigenvectors:
  1.000  0.000  0.000  0.000  0.000
  0.000  1.000  0.000  0.000  0.000
  0.000  0.000  1.000  0.000  0.000
  0.000  0.000  0.000  1.000  0.000
  0.000  0.000  0.000  0.000  1.000
    occupations:
  0.200  0.000  0.000  0.000  0.000
  0.000  0.200  0.000  0.000  0.000
  0.000  0.000  0.200  0.000  0.000
  0.000  0.000  0.000  0.200  0.000
  0.000  0.000  0.000  0.000  0.200
atom    4   Tr[ns(na)] =   2.00000
    eigenvalues:
  0.200  0.200  0.200  0.200  0.200
    eigenvectors:
  1.000  0.000  0.000  0.000  0.000
  0.000  1.000  0.000  0.000  0.000
  0.000  0.000  1.000  0.000  0.000
  0.000  0.000  0.000  1.000  0.000
  0.000  0.000  0.000  0.000  1.000
    occupations:
  0.200  0.000  0.000  0.000  0.000
  0.000  0.200  0.000  0.000  0.000
  0.000  0.000  0.200  0.000  0.000
  0.000  0.000  0.000  0.200  0.000
  0.000  0.000  0.000  0.000  0.200
atom    9   Tr[ns(na)] =   2.00000
    eigenvalues:
  0.200  0.200  0.200  0.200  0.200
    eigenvectors:
  1.000  0.000  0.000  0.000  0.000
  0.000  1.000  0.000  0.000  0.000
  0.000  0.000  1.000  0.000  0.000
  0.000  0.000  0.000  1.000  0.000
  0.000  0.000  0.000  0.000  1.000
    occupations:
  0.200  0.000  0.000  0.000  0.000
  0.000  0.200  0.000  0.000  0.000
  0.000  0.000  0.200  0.000  0.000
  0.000  0.000  0.000  0.200  0.000
  0.000  0.000  0.000  0.000  0.200
atom   10   Tr[ns(na)] =   2.00000
    eigenvalues:
  0.200  0.200  0.200  0.200  0.200
    eigenvectors:
  1.000  0.000  0.000  0.000  0.000
  0.000  1.000  0.000  0.000  0.000
  0.000  0.000  1.000  0.000  0.000
  0.000  0.000  0.000  1.000  0.000
  0.000  0.000  0.000  0.000  1.000
    occupations:
  0.200  0.000  0.000  0.000  0.000
  0.000  0.200  0.000  0.000  0.000
  0.000  0.000  0.200  0.000  0.000
  0.000  0.000  0.000  0.200  0.000
  0.000  0.000  0.000  0.000  0.200
atom   16   Tr[ns(na)] =   2.00000
    eigenvalues:
  0.200  0.200  0.200  0.200  0.200
    eigenvectors:
  1.000  0.000  0.000  0.000  0.000
  0.000  1.000  0.000  0.000  0.000
  0.000  0.000  1.000  0.000  0.000
  0.000  0.000  0.000  1.000  0.000
  0.000  0.000  0.000  0.000  1.000
    occupations:
  0.200  0.000  0.000  0.000  0.000
  0.000  0.200  0.000  0.000  0.000
  0.000  0.000  0.200  0.000  0.000
  0.000  0.000  0.000  0.200  0.000
  0.000  0.000  0.000  0.000  0.200
atom   17   Tr[ns(na)] =   2.00000
    eigenvalues:
  0.200  0.200  0.200  0.200  0.200
    eigenvectors:
  1.000  0.000  0.000  0.000  0.000
  0.000  1.000  0.000  0.000  0.000
  0.000  0.000  1.000  0.000  0.000
  0.000  0.000  0.000  1.000  0.000
  0.000  0.000  0.000  0.000  1.000
    occupations:
  0.200  0.000  0.000  0.000  0.000
  0.000  0.200  0.000  0.000  0.000
  0.000  0.000  0.200  0.000  0.000
  0.000  0.000  0.000  0.200  0.000
  0.000  0.000  0.000  0.000  0.200
atom   22   Tr[ns(na)] =   2.00000
    eigenvalues:
  0.200  0.200  0.200  0.200  0.200
    eigenvectors:
  1.000  0.000  0.000  0.000  0.000
  0.000  1.000  0.000  0.000  0.000
  0.000  0.000  1.000  0.000  0.000
  0.000  0.000  0.000  1.000  0.000
  0.000  0.000  0.000  0.000  1.000
    occupations:
[...]
atom    4   Tr[ns(na)] =   2.70710
    eigenvalues:
  0.130  0.160  0.182  0.428  0.454
    eigenvectors:
  0.007  0.003  0.000  0.000  0.990
  0.002  0.931  0.063  0.000  0.003
  0.001  0.062  0.937  0.000  0.000
  0.990  0.003  0.000  0.000  0.006
  0.000  0.000  0.000  1.000  0.000
    occupations:
  0.451  0.017  0.004 -0.026 -0.000
  0.017  0.162 -0.005 -0.000 -0.003
  0.004 -0.005  0.181  0.001 -0.000
 -0.026 -0.000  0.001  0.132 -0.000
 -0.000 -0.003 -0.000 -0.000  0.428
atom    9   Tr[ns(na)] =   2.70867
    eigenvalues:
  0.138  0.181  0.193  0.377  0.465
    eigenvectors:
  0.000  0.000  0.909  0.091  0.000
  0.000  0.000  0.000  0.000  1.000
  1.000  0.000  0.000  0.000  0.000
  0.000  0.000  0.091  0.909  0.000
  0.000  1.000  0.000  0.000  0.000
    occupations:
  0.209 -0.000  0.000  0.053 -0.000
 -0.000  0.465 -0.000  0.000 -0.000
  0.000 -0.000  0.138  0.000 -0.000
  0.053  0.000  0.000  0.360 -0.000
 -0.000 -0.000 -0.000 -0.000  0.181
atom   10   Tr[ns(na)] =   2.61180
    eigenvalues:
  0.140  0.178  0.193  0.321  0.473
    eigenvectors:
  0.027  0.000  0.000  0.973  0.000
  0.000  0.000  1.000  0.000  0.000
  0.000  1.000  0.000  0.000  0.000
  0.973  0.000  0.000  0.027  0.000
  0.000  0.000  0.000  0.000  1.000
    occupations:
  0.316 -0.000 -0.000 -0.029 -0.000
 -0.000  0.193 -0.000 -0.000  0.000
 -0.000 -0.000  0.178 -0.000  0.000
 -0.029 -0.000 -0.000  0.145 -0.000
 -0.000  0.000  0.000 -0.000  0.473
atom   16   Tr[ns(na)] =   2.57763
    eigenvalues:
  0.125  0.144  0.169  0.423  0.428
    eigenvectors:
  0.771  0.000  0.026  0.000  0.202
  0.000  0.002  0.000  0.998  0.000
  0.030  0.000  0.970  0.000  0.000
  0.199  0.000  0.004  0.000  0.797
  0.000  0.998  0.000  0.002  0.000
    occupations:
  0.188 -0.000 -0.004  0.121 -0.000
 -0.000  0.422  0.000 -0.000  0.013
 -0.004  0.000  0.168  0.008  0.000
  0.121 -0.000  0.008  0.367 -0.000
 -0.000  0.013  0.000 -0.000  0.144
atom   17   Tr[ns(na)] =   2.70710
    eigenvalues:
  0.130  0.160  0.182  0.428  0.454
    eigenvectors:
  0.007  0.003  0.000  0.000  0.990
  0.002  0.931  0.063  0.000  0.003
  0.001  0.062  0.937  0.000  0.000
  0.990  0.003  0.000  0.000  0.006
  0.000  0.000  0.000  1.000  0.000
    occupations:
  0.451  0.017  0.004 -0.026 -0.000
  0.017  0.162 -0.005 -0.000 -0.003
  0.004 -0.005  0.181  0.001 -0.000
 -0.026 -0.000  0.001  0.132 -0.000
 -0.000 -0.003 -0.000 -0.000  0.428
atom   22   Tr[ns(na)] =   2.70867
    eigenvalues:
  0.138  0.181  0.193  0.377  0.465
    eigenvectors:
  0.000  0.000  0.909  0.091  0.000
  0.000  0.000  0.000  0.000  1.000
  1.000  0.000  0.000  0.000  0.000
  0.000  0.000  0.091  0.909  0.000
  0.000  1.000  0.000  0.000  0.000
    occupations:
  0.209 -0.000  0.000  0.053 -0.000
 -0.000  0.465 -0.000  0.000 -0.000
  0.000 -0.000  0.138  0.000 -0.000
  0.053  0.000  0.000  0.360 -0.000
 -0.000 -0.000 -0.000 -0.000  0.181
atom   23   Tr[ns(na)] =   2.61180
    eigenvalues:
  0.140  0.178  0.193  0.321  0.473
    eigenvectors:
  0.027  0.000  0.000  0.973  0.000
  0.000  0.000  1.000  0.000  0.000
  0.000  1.000  0.000  0.000  0.000
  0.973  0.000  0.000  0.027  0.000
  0.000  0.000  0.000  0.000  1.000
    occupations:
  0.316 -0.000 -0.000 -0.029 -0.000
 -0.000  0.193 -0.000 -0.000  0.000
 -0.000 -0.000  0.178 -0.000  0.000
 -0.029 -0.000 -0.000  0.145 -0.000
 -0.000  0.000  0.000 -0.000  0.473
N of occupied +U levels =  21.2103915
 --- exit write_ns ---

     Threshold (ethr) on eigenvalues was too large:
     Diagonalizing with lowered threshold

     Davidson diagonalization with overlap
     ethr =  3.59E-09,  avg # of iterations =  2.8

[...]

     total energy              =   -1531.64886564 Ry
     Harris-Foulkes estimate   =   -1531.64886565 Ry
     estimated scf accuracy    <       0.00000003 Ry

     iteration #  7     ecut=    40.00 Ry     beta=0.70
     Davidson diagonalization with overlap
     ethr =  1.56E-11,  avg # of iterations =  1.3

     negative rho (up, down):  0.107E+00 0.000E+00

     End of self-consistent calculation
 --- enter write_ns ---
 LDA+U parameters:
U( 2)     =  6.00000000
alpha( 2) =  0.00000000
atom    3   Tr[ns(na)] =   2.57830
    eigenvalues:
  0.125  0.144  0.169  0.423  0.428
    eigenvectors:
  0.771  0.000  0.026  0.000  0.202
  0.000  0.002  0.000  0.998  0.000
  0.029  0.000  0.970  0.000  0.000
  0.199  0.000  0.004  0.000  0.797
  0.000  0.998  0.000  0.002  0.000
    occupations:
  0.188 -0.000 -0.004  0.122 -0.000
 -0.000  0.422  0.000 -0.000  0.013
 -0.004  0.000  0.168  0.008  0.000
  0.122 -0.000  0.008  0.367 -0.000
 -0.000  0.013  0.000 -0.000  0.145
atom    4   Tr[ns(na)] =   2.70687
    eigenvalues:
  0.130  0.160  0.182  0.428  0.454
    eigenvectors:
  0.007  0.003  0.000  0.000  0.990
  0.002  0.931  0.063  0.000  0.003
  0.001  0.062  0.937  0.000  0.000
  0.990  0.003  0.000  0.000  0.006
  0.000  0.000  0.000  1.000  0.000
    occupations:
  0.451  0.017  0.004 -0.026 -0.000
  0.017  0.162 -0.005 -0.000 -0.003
  0.004 -0.005  0.181  0.001 -0.000
 -0.026 -0.000  0.001  0.132 -0.000
 -0.000 -0.003 -0.000 -0.000  0.428
atom    9   Tr[ns(na)] =   2.70872
    eigenvalues:
  0.138  0.181  0.193  0.377  0.465
    eigenvectors:
  0.000  0.000  0.909  0.091  0.000
  0.000  0.000  0.000  0.000  1.000
  1.000  0.000  0.000  0.000  0.000
  0.000  0.000  0.091  0.909  0.000
  0.000  1.000  0.000  0.000  0.000
    occupations:
  0.209 -0.000  0.000  0.053 -0.000
 -0.000  0.465 -0.000  0.000 -0.000
  0.000 -0.000  0.138  0.000 -0.000
  0.053  0.000  0.000  0.360 -0.000
 -0.000 -0.000 -0.000 -0.000  0.181
atom   10   Tr[ns(na)] =   2.61147
    eigenvalues:
  0.140  0.178  0.193  0.321  0.473
    eigenvectors:
  0.027  0.000  0.000  0.973  0.000
  0.000  0.000  1.000  0.000  0.000
  0.000  1.000  0.000  0.000  0.000
  0.973  0.000  0.000  0.027  0.000
  0.000  0.000  0.000  0.000  1.000
    occupations:
  0.316 -0.000 -0.000 -0.029 -0.000
 -0.000  0.193 -0.000 -0.000  0.000
 -0.000 -0.000  0.178 -0.000  0.000
 -0.029 -0.000 -0.000  0.145 -0.000
 -0.000  0.000  0.000 -0.000  0.473
atom   16   Tr[ns(na)] =   2.57830
    eigenvalues:
  0.125  0.144  0.169  0.423  0.428
    eigenvectors:
  0.771  0.000  0.026  0.000  0.202
  0.000  0.002  0.000  0.998  0.000
  0.029  0.000  0.970  0.000  0.000
  0.199  0.000  0.004  0.000  0.797
  0.000  0.998  0.000  0.002  0.000
    occupations:
  0.188 -0.000 -0.004  0.122 -0.000
 -0.000  0.422  0.000 -0.000  0.013
 -0.004  0.000  0.168  0.008  0.000
  0.122 -0.000  0.008  0.367 -0.000
 -0.000  0.013  0.000 -0.000  0.145
atom   17   Tr[ns(na)] =   2.70687
    eigenvalues:
  0.130  0.160  0.182  0.428  0.454
    eigenvectors:
  0.007  0.003  0.000  0.000  0.990
  0.002  0.931  0.063  0.000  0.003
  0.001  0.062  0.937  0.000  0.000
  0.990  0.003  0.000  0.000  0.006
  0.000  0.000  0.000  1.000  0.000
    occupations:
  0.451  0.017  0.004 -0.026 -0.000
  0.017  0.162 -0.005 -0.000 -0.003
  0.004 -0.005  0.181  0.001 -0.000
 -0.026 -0.000  0.001  0.132 -0.000
 -0.000 -0.003 -0.000 -0.000  0.428
atom   22   Tr[ns(na)] =   2.70872
    eigenvalues:
  0.138  0.181  0.193  0.377  0.465
    eigenvectors:
  0.000  0.000  0.909  0.091  0.000
  0.000  0.000  0.000  0.000  1.000
  1.000  0.000  0.000  0.000  0.000
  0.000  0.000  0.091  0.909  0.000
  0.000  1.000  0.000  0.000  0.000
    occupations:
  0.209 -0.000  0.000  0.053 -0.000
 -0.000  0.465 -0.000  0.000 -0.000
  0.000 -0.000  0.138  0.000 -0.000
  0.053  0.000  0.000  0.360 -0.000
 -0.000 -0.000 -0.000 -0.000  0.181
atom   23   Tr[ns(na)] =   2.61147
    eigenvalues:
  0.140  0.178  0.193  0.321  0.473
    eigenvectors:
  0.027  0.000  0.000  0.973  0.000
  0.000  0.000  1.000  0.000  0.000
  0.000  1.000  0.000  0.000  0.000
  0.973  0.000  0.000  0.027  0.000
  0.000  0.000  0.000  0.000  1.000
    occupations:
  0.316 -0.000 -0.000 -0.029 -0.000
 -0.000  0.193 -0.000 -0.000  0.000
 -0.000 -0.000  0.178 -0.000  0.000
 -0.029 -0.000 -0.000  0.145 -0.000
 -0.000  0.000  0.000 -0.000  0.473
N of occupied +U levels =  21.2107307
 --- exit write_ns ---

[...]

          k = 0.2500-0.4516 0.0000 ( 29882 PWs)   bands (ev):

[...]

          k =-0.2500 0.2258 0.0000 ( 29912 PWs)   bands (ev):

   -62.1305 -62.1062 -61.7829 -61.7576 -60.4437 -60.4164 -59.9214 -59.8951
   -38.5483 -38.3226 -38.2883 -38.2588 -38.1563 -38.1356 -38.0971 -38.0805
   -38.0508 -37.9022 -37.8419 -37.7758 -36.9465 -36.7445 -36.6754 -36.6454
   -36.4590 -36.4372 -36.2625 -36.2413 -36.1965 -36.0908 -36.0273 -35.9011
   -22.2631 -22.0440 -20.9744 -20.7605 -20.4164 -20.2985 -20.0399 -19.8396
   -19.7838 -19.7229 -19.5710 -19.4780 -19.4083 -19.2147 -18.6153 -18.3039
   -17.9402 -17.8991  -9.8609  -9.6213  -8.1115  -7.9221  -7.8695  -7.8204
    -7.8026  -7.7009  -7.4094  -7.3813  -7.2789  -7.2787  -7.0745  -7.0566
    -6.9906  -6.8197  -6.7331  -6.7271  -6.4798  -6.4520  -6.1030  -6.0265
    -5.9762  -5.8038  -5.7643  -5.6516  -5.6264  -5.5028  -5.3606  -5.3403
    -5.3055  -5.1779  -5.1480  -5.0883  -5.0240  -4.9853  -4.8470  -4.7273
    -4.6562  -4.5161  -4.4079  -4.3606  -3.9271  -3.6658  -3.4642  -3.3682
    -3.3169  -3.2482  -3.1059  -2.9847  -2.9673  -2.8096  -2.7721  -2.6260
    -0.8456  -0.5754  -0.4575  -0.4356  -0.3778  -0.3362  -0.1801  -0.1575
     0.1029   0.1316   0.1406   0.1868   0.3903   0.5439   0.7426   0.7801
     1.1149   1.1352   1.1411   1.1868   1.2888   1.3205   1.5773   1.5974
     1.6490   1.6971   1.8018   1.8810   1.9298   2.1655   2.1953   2.3985
     2.6685   2.7880   2.9343   2.9669   3.2675   3.2916   3.4115   3.6940
     3.7573   4.0032   4.1975   4.6044   4.9672   4.9928   5.2729   5.7183
     5.7263   5.8690   6.0019   6.1245   6.2151   6.5206   6.5354   6.8294
     6.8948   7.1112   7.2685   7.3905   7.4689   7.6248   7.6346   7.8293
     7.9033   8.0334   8.0494   8.2336   8.4705   8.4710   8.5872   8.6213
     8.7988   8.9789   9.2208   9.2776   9.3269   9.4000   9.4277   9.4782
     9.4922   9.6319   9.7980   9.9875  10.0222  10.0528  10.2387  10.3476
    10.4477  10.5742  10.5809  10.7127  10.7552  10.9055  10.9144  10.9737
    11.0275  11.2093  11.2877  11.3032  11.3337  11.4683  11.4926  11.5540
    11.6201  11.7278  11.8786  11.9187  11.9552  11.9619  12.1040  12.2098
    12.2954  12.3567  12.5005  12.5763  12.5987  12.6302  12.7288  12.8339
    12.8772  12.9698  12.9880  13.1949  13.2070  13.2944  13.3036  13.4188
    13.5085  13.5316  13.6447  13.6498  13.7191  13.7224  13.8328  13.9767
    14.0148  14.1617  14.1868  14.2823  14.2828  14.4512  14.5429  14.5746
    14.6162  14.6209  14.7090  14.9096  14.9246  14.9967  15.0754  15.2021
    15.3191  15.3351  15.4699  15.4961  15.6273  15.6623  15.6947  15.7169
    15.8352  15.8723  15.9541  15.9855  16.0327  16.1255  16.2371  16.3040
    16.4042  16.5295  16.5963  16.6519  16.7040  16.8365  16.8394  16.8680
    16.8822  17.0114  17.0781  17.1008  17.1859  17.2329  17.3013  17.3594
    17.4084  17.4933  17.5086  17.6246  17.6918  17.7759  17.7876  17.9330
    18.0387  18.1277  18.2005  18.2144

     the Fermi energy is    -1.0608 ev

!    total energy              =   -1531.64886565 Ry
     Harris-Foulkes estimate   =   -1531.64886565 Ry
     estimated scf accuracy    <          8.0E-09 Ry

     The total energy is the sum of the following terms:

     one-electron contribution =  -18202.81934755 Ry
     hartree contribution      =    9112.51267890 Ry
     xc contribution           =    -269.62508462 Ry
     ewald contribution        =    7825.15324360 Ry
     Hubbard energy            =       3.12920264 Ry
     smearing contrib. (-TS)   =       0.00044138 Ry

     convergence has been achieved in   7 iterations

     Forces acting on atoms (Ry/au):

     negative rho (up, down):  0.107E+00 0.000E+00
     atom    1 type  1   force =    -0.00375976   -0.01744401   -0.00030387
     atom    2 type  1   force =     0.00003764    0.02266461    0.00020743
     atom    3 type  2   force =     0.00012022   -0.01070140    0.00015009
     atom    4 type  2   force =     0.00133361    0.00988514    0.00013950
     atom    5 type  1   force =     0.00257205   -0.10821981    0.00045859
     atom    6 type  1   force =    -0.00110216    0.10539531    0.00043945
     atom    7 type  1   force =    -0.00003837    0.00057964    0.00028960
     atom    8 type  1   force =     0.00066493   -0.00159235   -0.00060275
     atom    9 type  2   force =    -0.00006347    0.00014238    0.00022602
     atom   10 type  2   force =    -0.00002164   -0.00052531   -0.00056129
     atom   11 type  1   force =     0.00001597   -0.04298335    0.00009053
     atom   12 type  1   force =     0.00001279    0.04317164    0.00008074
     atom   13 type  1   force =     0.00006460   -0.00008037    0.00013147
     atom   14 type  1   force =    -0.00375976   -0.01744401   -0.00030390
     atom   15 type  1   force =     0.00003764    0.02266461    0.00020742
     atom   16 type  2   force =     0.00012024   -0.01070140    0.00015009
     atom   17 type  2   force =     0.00133360    0.00988514    0.00013953
     atom   18 type  1   force =     0.00257207   -0.10821981    0.00045858
     atom   19 type  1   force =    -0.00110214    0.10539531    0.00043945
     atom   20 type  1   force =    -0.00003838    0.00057964    0.00028962
     atom   21 type  1   force =     0.00066493   -0.00159235   -0.00060268
     atom   22 type  2   force =    -0.00006347    0.00014238    0.00022602
     atom   23 type  2   force =    -0.00002164   -0.00052531   -0.00056128
     atom   24 type  1   force =     0.00001596   -0.04298335    0.00009053
     atom   25 type  1   force =     0.00001278    0.04317164    0.00008074
     atom   26 type  1   force =     0.00006460   -0.00008037    0.00013146
     atom   27 type  3   force =     0.00000051   -0.00041974   -0.00064828
     atom   28 type  3   force =     0.00000051   -0.00041974   -0.00064829
     atom   29 type  3   force =     0.00016306    0.00012762   -0.00009724
     atom   30 type  3   force =     0.00016307    0.00012761   -0.00009726

     Total force =     0.002037     Total SCF correction =     0.000410
     SCF correction compared to forces is large: reduce conv_thr to get better values

     bfgs converged in  13 scf cycles and  12 bfgs steps
     (criteria: energy < 0.10E-03, force < 0.10E-02)

     End of BFGS Geometry Optimization

     Final energy   =   -1531.6488656452 Ry
Begin final coordinates

ATOMIC_POSITIONS (crystal)
O0       0.000000000   0.000000000   0.377818890    0   0   1
O0       0.000000000   0.500000000   0.398095869    0   0   1
Ti1      0.250000000   0.500000000   0.449798444    0   0   1
Ti1      0.000000000   0.000000000   0.451663510    0   0   1
O0       0.250000000   0.810000000   0.450316812    0   0   1
O0       0.250000000   0.190000000   0.451366922    0   0   1
O0       0.000000000   0.500000000   0.498743356    0   0   1
O0       0.000000000   0.000000000   0.527817945    0   0   1
Ti1      0.250000000   0.000000000   0.581829861    0   0   1
Ti1      0.000000000   0.500000000   0.571515400    0   0   1
O0       0.250000000   0.690000000   0.581823659    0   0   1
O0       0.250000000   0.310000000   0.581869887    0   0   1
O0       0.000000000   0.000000000   0.624857449    0   0   1
O0       0.500000000   0.000000000   0.377818892    0   0   1
O0       0.500000000   0.500000000   0.398095870    0   0   1
Ti1      0.750000000   0.500000000   0.449798444    0   0   1
Ti1      0.500000000   0.000000000   0.451663509    0   0   1
O0       0.750000000   0.810000000   0.450316812    0   0   1
O0       0.750000000   0.190000000   0.451366923    0   0   1
O0       0.500000000   0.500000000   0.498743356    0   0   1
O0       0.500000000   0.000000000   0.527817940    0   0   1
Ti1      0.750000000   0.000000000   0.581829860    0   0   1
Ti1      0.500000000   0.500000000   0.571515399    0   0   1
O0       0.750000000   0.690000000   0.581823659    0   0   1
O0       0.750000000   0.310000000   0.581869887    0   0   1
O0       0.500000000   0.000000000   0.624857450    0   0   1
H2      -0.000238625   0.632861127   0.379890998
H2       0.499761373   0.632861131   0.379891001
H2       0.152430946   0.023549900   0.364160996
H2       0.652430947   0.023549907   0.364161000
End final coordinates

     General routines

     Parallel routines
     Hubbard U routines

   This run was terminated on:  21:35:55   6May2014

   JOB DONE.
Running PBS batch system epilogue script
Job id: 340820.audhumbla.fysik.dtu.dk
Username: zhonxu
Groupname: campgst
Jobname: TiO2/Eads-2-layers/bare-U-6.0
Sessionid: 25120
Queuename: verylong
Accounting:
This job has allocated the following 16 nodes:
c089 c089 c089 c089 c089 c089 c089 c089 c001 c001 c001 c001 c001 c001 c001 c001
Finished epilogue job 340820.audhumbla.fysik.dtu.dk for zhonxu