     Program PWSCF v.5.0.2 (svn rev. 9656) starts on 30Apr2014 at  2:54:30

     Current dimensions of program PWSCF are:
     Max number of different atomic species (ntypx) = 10
     Max number of k-points (npk) =  40000
     Max angular momentum in pseudopotentials (lmaxx) =  3
     Reading input from pwscf.in
Warning: card &CELL ignored
Warning: card / ignored

     Subspace diagonalization in iterative solution of the eigenvalue problem:
     a serial algorithm will be used

     bravais-lattice index     =            0
     lattice parameter (alat)  =      11.2250  a.u.
     unit-cell volume          =    7005.5484 (a.u.)^3
     number of atoms/cell      =           32
     number of atomic types    =            3
     number of electrons       =       215.00
     number of Kohn-Sham states=          310
     kinetic-energy cutoff     =      40.0000  Ry
     charge density cutoff     =     500.0000  Ry
     convergence threshold     =      1.0E-06
     mixing beta               =       0.7000
     number of iterations used =            8  plain     mixing
     Exchange-correlation      = SLA  PW   PBE  PBE ( 1 4 3 4 0)
     EXX-fraction              =        0.00
     nstep                     =           50

     celldm(1)=  11.224973  celldm(2)=   0.000000  celldm(3)=   0.000000
     celldm(4)=   0.000000  celldm(5)=   0.000000  celldm(6)=   0.000000

     crystal axes: (cart. coord. in units of alat)
               a(1) = (   1.000000   0.000000   0.000000 )
               a(2) = (   0.000000   1.107086   0.000000 )
               a(3) = (   0.000000   0.000000   4.474090 )

     reciprocal axes: (cart. coord. in units 2 pi/alat)
               b(1) = (  1.000000  0.000000  0.000000 )
               b(2) = (  0.000000  0.903272  0.000000 )
               b(3) = (  0.000000  0.000000  0.223509 )

     PseudoPot. # 1 for O  read from file:
     /home/camp/zhonxu/pseudo/o_pbe_v1.01.uspp.F.UPF
     MD5 check sum: 2bcb18d16ea4b960afae9ec6d52f22d2
     Pseudo is Ultrasoft + core correction, Zval =  6.0
     Generated by new atomic code, or converted to UPF format
     Using radial grid of  737 points,  5 beta functions with:
                l(1) =   0
                l(2) =   0
                l(3) =   1
                l(4) =   1
                l(5) =   2
     Q(r) pseudized with  8 coefficients,  rinner =    0.900   0.900   0.900
                                                       0.900   0.900

     PseudoPot. # 2 for Ti read from file:
     /home/camp/zhonxu/pseudo/ti_pbe_v1.uspp.F.UPF
     MD5 check sum: bcc8f6961b3b91f0cac3ca967d22d0fb
     Pseudo is Ultrasoft + core correction, Zval = 12.0
     Generated by new atomic code, or converted to UPF format
     Using radial grid of  851 points,  6 beta functions with:
                l(1) =   0
                l(2) =   0
                l(3) =   1
                l(4) =   1
                l(5) =   2
                l(6) =   2
     Q(r) pseudized with  6 coefficients,  rinner =    1.000   1.000   1.000
                                                       1.000   1.000

     PseudoPot. # 3 for H  read from file:
     /home/camp/zhonxu/pseudo/h_pbe_v1.uspp.F.UPF
     MD5 check sum: 3408e3ff4ec8b0a4e358431e7e038a48
     Pseudo is Ultrasoft, Zval =  1.0
     Generated by new atomic code, or converted to UPF format
     Using radial grid of  615 points,  2 beta functions with:
                l(1) =   0
                l(2) =   0
     Q(r) pseudized with  8 coefficients,  rinner =    0.700

     atomic species   valence    mass     pseudopotential
        O0             6.00    15.99940     O ( 1.00)
        Ti1           12.00    47.88000     Ti( 1.00)
        H2             1.00     1.00794     H ( 1.00)

     Simplified LDA+U calculation (l_max = 2) with parameters (eV):
     atomic species    L          U    alpha       J0     beta
        Ti1            2     1.5000   0.0000   0.0000   0.0000

     No symmetry found

   Cartesian axes

     site n.     atom                  positions (alat units)
         1           O0  tau(   1) = (   0.0000000   0.0000000   1.6864186  )
         2           O0  tau(   2) = (   0.0000000   0.5535432   1.7740213  )
         3           Ti1 tau(   3) = (   0.2500000   0.5535432   2.0074793  )
         4           Ti1 tau(   4) = (   0.0000000   0.0000000   2.0324447  )
         5           O0  tau(   5) = (   0.2500000   0.8967400   2.0044817  )
         6           O0  tau(   6) = (   0.2500000   0.2103464   2.0092242  )
         7           O0  tau(   7) = (   0.0000000   0.5535432   2.2196854  )
         8           O0  tau(   8) = (   0.0000000   0.0000000   2.3507315  )
         9           Ti1 tau(   9) = (   0.2500000   0.0000000   2.6021753  )
        10           Ti1 tau(  10) = (   0.0000000   0.5535432   2.5345718  )
        11           O0  tau(  11) = (   0.2500000   0.7638896   2.5931377  )
        12           O0  tau(  12) = (   0.2500000   0.3431968   2.5930482  )
        13           O0  tau(  13) = (   0.0000000   0.0000000   2.7844945  )
        14           O0  tau(  14) = (   0.5000000   0.0000000   1.6873582  )
        15           O0  tau(  15) = (   0.5000000   0.5535432   1.7709789  )
        16           Ti1 tau(  16) = (   0.7500000   0.5535432   2.0079715  )
        17           Ti1 tau(  17) = (   0.5000000   0.0000000   2.0352187  )
        18           O0  tau(  18) = (   0.7500000   0.8967400   2.0040790  )
        19           O0  tau(  19) = (   0.7500000   0.2103464   2.0094479  )
        20           O0  tau(  20) = (   0.5000000   0.5535432   2.1971360  )
        21           O0  tau(  21) = (   0.5000000   0.0000000   2.3514026  )
        22           Ti1 tau(  22) = (   0.7500000   0.0000000   2.6024885  )
        23           Ti1 tau(  23) = (   0.5000000   0.5535432   2.6568935  )
        24           O0  tau(  24) = (   0.7500000   0.7638896   2.5904532  )
        25           O0  tau(  25) = (   0.7500000   0.3431968   2.5901848  )
        26           O0  tau(  26) = (   0.5000000   0.0000000   2.7844945  )
        27           H2  tau(  27) = (  -0.0007700   0.6889399   1.6773810  )
        28           H2  tau(  28) = (   0.4993300   0.6850208   1.6695513  )
        29           H2  tau(  29) = (   0.1496500   0.0435638   1.6275396  )
        30           H2  tau(  30) = (   0.6495100   0.0435638   1.6281213  )
        31           O0  tau(  31) = (   0.5047900   0.5534214   2.9586261  )
        32           H2  tau(  32) = (   0.3766100   0.5530007   3.0621118  )

     number of k points=    10  Methfessel-Paxton smearing, width (Ry)=  0.0100
                       cart. coord. in units 2pi/alat
        k(    1) = (   0.0000000   0.0000000   0.0000000), wk =   0.1250000
        k(    2) = (   0.0000000   0.2258180   0.0000000), wk =   0.2500000
        k(    3) = (   0.0000000  -0.4516359   0.0000000), wk =   0.1250000
        k(    4) = (   0.2500000   0.0000000   0.0000000), wk =   0.2500000
        k(    5) = (   0.2500000   0.2258180   0.0000000), wk =   0.2500000
        k(    6) = (   0.2500000  -0.4516359   0.0000000), wk =   0.2500000
        k(    7) = (  -0.5000000   0.0000000   0.0000000), wk =   0.1250000
        k(    8) = (  -0.5000000   0.2258180   0.0000000), wk =   0.2500000
        k(    9) = (  -0.5000000  -0.4516359   0.0000000), wk =   0.1250000
        k(   10) = (  -0.2500000   0.2258180   0.0000000), wk =   0.2500000

     Largest allocated arrays     est. size (Mb)     dimensions
     Largest temporary arrays     est. size (Mb)     dimensions

     Check: negative/imaginary core charge=   -0.000006    0.000000

     Initial potential from superposition of free atoms
     Check: negative starting charge=   -0.102331

     starting charge  206.99957, renormalised to  215.00000

     negative rho (up, down):  0.106E+00 0.000E+00
     Number of +U iterations with fixed ns =  0
     Starting occupations:
 --- enter write_ns ---
 LDA+U parameters:
U( 2)     =  1.50000000
alpha( 2) =  0.00000000
atom    3   Tr[ns(na)] =   2.00000
    eigenvalues:
  0.200  0.200  0.200  0.200  0.200
    eigenvectors:
  1.000  0.000  0.000  0.000  0.000
  0.000  1.000  0.000  0.000  0.000
  0.000  0.000  1.000  0.000  0.000
  0.000  0.000  0.000  1.000  0.000
  0.000  0.000  0.000  0.000  1.000
    occupations:
  0.200  0.000  0.000  0.000  0.000
  0.000  0.200  0.000  0.000  0.000
  0.000  0.000  0.200  0.000  0.000
  0.000  0.000  0.000  0.200  0.000
  0.000  0.000  0.000  0.000  0.200
atom    4   Tr[ns(na)] =   2.00000
    eigenvalues:
  0.200  0.200  0.200  0.200  0.200
    eigenvectors:
  1.000  0.000  0.000  0.000  0.000
  0.000  1.000  0.000  0.000  0.000
  0.000  0.000  1.000  0.000  0.000
  0.000  0.000  0.000  1.000  0.000
  0.000  0.000  0.000  0.000  1.000
    occupations:
  0.200  0.000  0.000  0.000  0.000
  0.000  0.200  0.000  0.000  0.000
  0.000  0.000  0.200  0.000  0.000
  0.000  0.000  0.000  0.200  0.000
  0.000  0.000  0.000  0.000  0.200
atom    9   Tr[ns(na)] =   2.00000
    eigenvalues:
  0.200  0.200  0.200  0.200  0.200
    eigenvectors:
  1.000  0.000  0.000  0.000  0.000
  0.000  1.000  0.000  0.000  0.000
  0.000  0.000  1.000  0.000  0.000
  0.000  0.000  0.000  1.000  0.000
  0.000  0.000  0.000  0.000  1.000
    occupations:
  0.200  0.000  0.000  0.000  0.000
  0.000  0.200  0.000  0.000  0.000
  0.000  0.000  0.200  0.000  0.000
  0.000  0.000  0.000  0.200  0.000
  0.000  0.000  0.000  0.000  0.200
atom   10   Tr[ns(na)] =   2.00000
    eigenvalues:
  0.200  0.200  0.200  0.200  0.200
    eigenvectors:
  1.000  0.000  0.000  0.000  0.000
  0.000  1.000  0.000  0.000  0.000
  0.000  0.000  1.000  0.000  0.000
  0.000  0.000  0.000  1.000  0.000
  0.000  0.000  0.000  0.000  1.000
    occupations:
  0.200  0.000  0.000  0.000  0.000
  0.000  0.200  0.000  0.000  0.000
  0.000  0.000  0.200  0.000  0.000
  0.000  0.000  0.000  0.200  0.000
  0.000  0.000  0.000  0.000  0.200
atom   16   Tr[ns(na)] =   2.00000
    eigenvalues:
  0.200  0.200  0.200  0.200  0.200
    eigenvectors:
  1.000  0.000  0.000  0.000  0.000
  0.000  1.000  0.000  0.000  0.000
  0.000  0.000  1.000  0.000  0.000
  0.000  0.000  0.000  1.000  0.000
  0.000  0.000  0.000  0.000  1.000
    occupations:
  0.200  0.000  0.000  0.000  0.000
  0.000  0.200  0.000  0.000  0.000
  0.000  0.000  0.200  0.000  0.000
  0.000  0.000  0.000  0.200  0.000
  0.000  0.000  0.000  0.000  0.200
atom   17   Tr[ns(na)] =   2.00000
    eigenvalues:
  0.200  0.200  0.200  0.200  0.200
    eigenvectors:
  1.000  0.000  0.000  0.000  0.000
  0.000  1.000  0.000  0.000  0.000
  0.000  0.000  1.000  0.000  0.000
  0.000  0.000  0.000  1.000  0.000
  0.000  0.000  0.000  0.000  1.000
    occupations:
  0.200  0.000  0.000  0.000  0.000
  0.000  0.200  0.000  0.000  0.000
  0.000  0.000  0.200  0.000  0.000
  0.000  0.000  0.000  0.200  0.000
  0.000  0.000  0.000  0.000  0.200
atom   22   Tr[ns(na)] =   2.00000
    eigenvalues:
  0.200  0.200  0.200  0.200  0.200
    eigenvectors:
  1.000  0.000  0.000  0.000  0.000
  0.000  1.000  0.000  0.000  0.000
  0.000  0.000  1.000  0.000  0.000
  0.000  0.000  0.000  1.000  0.000
  0.000  0.000  0.000  0.000  1.000
[...]
  0.010  0.417  0.003 -0.021  0.011
 -0.004  0.003  0.199  0.007 -0.016
  0.074 -0.021  0.007  0.359 -0.001
  0.002  0.011 -0.016 -0.001  0.204
atom    4   Tr[ns(na)] =   2.91192
    eigenvalues:
  0.173  0.213  0.228  0.415  0.426
    eigenvectors:
  0.006  0.002  0.000  0.000  0.992
  0.000  0.892  0.105  0.000  0.002
  0.000  0.105  0.895  0.000  0.000
  0.993  0.001  0.000  0.000  0.006
  0.000  0.000  0.000  1.000  0.000
    occupations:
  0.424  0.010  0.004 -0.019 -0.000
  0.010  0.215 -0.004 -0.000 -0.002
  0.004 -0.004  0.227  0.000 -0.000
 -0.019 -0.000  0.000  0.175 -0.000
 -0.000 -0.002 -0.000 -0.000  0.415
atom    9   Tr[ns(na)] =   2.89297
    eigenvalues:
  0.180  0.221  0.239  0.380  0.427
    eigenvectors:
  0.000  0.000  0.923  0.077  0.000
  0.000  0.000  0.000  0.000  1.000
  0.998  0.002  0.000  0.000  0.000
  0.000  0.000  0.077  0.923  0.000
  0.002  0.998  0.000  0.000  0.000
    occupations:
  0.250 -0.000 -0.000  0.038  0.000
 -0.000  0.427  0.000  0.000 -0.000
 -0.000  0.000  0.180  0.000  0.002
  0.038  0.000  0.000  0.369 -0.000
  0.000 -0.000  0.002 -0.000  0.221
atom   10   Tr[ns(na)] =   2.82557
    eigenvalues:
  0.177  0.236  0.239  0.334  0.428
    eigenvectors:
  0.017  0.000  0.000  0.983  0.000
  0.000  0.001  0.999  0.000  0.000
  0.000  0.999  0.001  0.000  0.000
  0.983  0.000  0.000  0.017  0.000
  0.000  0.000  0.000  0.000  1.000
    occupations:
  0.331  0.001 -0.000 -0.020 -0.000
  0.001  0.239 -0.000  0.000 -0.000
 -0.000 -0.000  0.236 -0.000 -0.000
 -0.020  0.000 -0.000  0.179  0.000
 -0.000 -0.000 -0.000  0.000  0.428
atom   16   Tr[ns(na)] =   2.82285
    eigenvalues:
  0.184  0.196  0.219  0.386  0.426
    eigenvectors:
  0.081  0.683  0.055  0.168  0.012
  0.004  0.003  0.003  0.177  0.814
  0.563  0.007  0.429  0.001  0.000
  0.023  0.143  0.009  0.653  0.172
  0.329  0.164  0.504  0.001  0.002
    occupations:
  0.231 -0.010 -0.004  0.074 -0.002
 -0.010  0.417 -0.003  0.021  0.011
 -0.004 -0.003  0.199  0.006  0.015
  0.074  0.021  0.006  0.360  0.001
 -0.002  0.011  0.015  0.001  0.204
atom   17   Tr[ns(na)] =   2.90549
    eigenvalues:
  0.172  0.213  0.228  0.412  0.427
    eigenvectors:
  0.006  0.002  0.000  0.000  0.992
  0.000  0.904  0.094  0.000  0.002
  0.000  0.094  0.906  0.000  0.000
  0.994  0.001  0.000  0.000  0.006
  0.000  0.000  0.000  1.000  0.000
    occupations:
  0.425  0.009  0.004 -0.019 -0.000
  0.009  0.215 -0.004 -0.000 -0.002
  0.004 -0.004  0.227  0.000 -0.000
 -0.019 -0.000  0.000  0.174 -0.000
 -0.000 -0.002 -0.000 -0.000  0.412
atom   22   Tr[ns(na)] =   2.89244
    eigenvalues:
  0.180  0.221  0.239  0.380  0.426
    eigenvectors:
  0.000  0.000  0.924  0.076  0.000
  0.000  0.000  0.000  0.000  1.000
  0.998  0.002  0.000  0.000  0.000
  0.000  0.000  0.076  0.924  0.000
  0.002  0.998  0.000  0.000  0.000
    occupations:
  0.250 -0.000 -0.000  0.037  0.000
 -0.000  0.426  0.000 -0.000 -0.000
 -0.000  0.000  0.180 -0.000 -0.002
  0.037 -0.000 -0.000  0.369 -0.000
  0.000 -0.000 -0.002 -0.000  0.221
atom   23   Tr[ns(na)] =   2.85847
    eigenvalues:
  0.158  0.229  0.262  0.377  0.403
    eigenvectors:
  0.011  0.037  0.000  0.952  0.000
  0.001  0.960  0.000  0.038  0.000
  0.000  0.000  1.000  0.000  0.000
  0.987  0.003  0.000  0.009  0.000
  0.000  0.000  0.000  0.000  1.000
    occupations:
  0.369  0.029  0.000 -0.022 -0.000
  0.029  0.235 -0.000 -0.000 -0.000
  0.000 -0.000  0.262 -0.000 -0.000
 -0.022 -0.000 -0.000  0.160 -0.000
 -0.000 -0.000 -0.000 -0.000  0.403
N of occupied +U levels =  22.9317655
 --- exit write_ns ---

     Threshold (ethr) on eigenvalues was too large:
     Diagonalizing with lowered threshold

     Davidson diagonalization with overlap
     ethr =  1.83E-08,  avg # of iterations =  2.0

[...]

     total energy              =   -1567.46006879 Ry
     Harris-Foulkes estimate   =   -1567.46006879 Ry
     estimated scf accuracy    <       0.00000001 Ry

     iteration # 10     ecut=    40.00 Ry     beta=0.70
     Davidson diagonalization with overlap
     ethr =  5.26E-12,  avg # of iterations =  1.1

     negative rho (up, down):  0.103E+00 0.000E+00

     End of self-consistent calculation
 --- enter write_ns ---
 LDA+U parameters:
U( 2)     =  1.50000000
alpha( 2) =  0.00000000
atom    3   Tr[ns(na)] =   2.82218
    eigenvalues:
  0.184  0.196  0.218  0.386  0.426
    eigenvectors:
  0.090  0.673  0.054  0.170  0.012
  0.004  0.003  0.003  0.174  0.816
  0.555  0.009  0.435  0.001  0.000
  0.025  0.143  0.009  0.655  0.169
  0.326  0.172  0.499  0.000  0.002
    occupations:
  0.231  0.010 -0.004  0.074  0.002
  0.010  0.417  0.003 -0.021  0.011
 -0.004  0.003  0.199  0.007 -0.016
  0.074 -0.021  0.007  0.360 -0.001
  0.002  0.011 -0.016 -0.001  0.204
atom    4   Tr[ns(na)] =   2.91125
    eigenvalues:
  0.173  0.213  0.228  0.415  0.426
    eigenvectors:
  0.006  0.002  0.000  0.000  0.992
  0.000  0.892  0.106  0.000  0.002
  0.000  0.105  0.894  0.000  0.000
  0.993  0.001  0.000  0.000  0.006
  0.000  0.000  0.000  1.000  0.000
    occupations:
  0.424  0.010  0.004 -0.019 -0.000
  0.010  0.215 -0.004 -0.000 -0.002
  0.004 -0.004  0.226  0.000 -0.000
 -0.019 -0.000  0.000  0.175 -0.000
 -0.000 -0.002 -0.000 -0.000  0.415
atom    9   Tr[ns(na)] =   2.89292
    eigenvalues:
  0.180  0.221  0.239  0.380  0.427
    eigenvectors:
  0.000  0.000  0.923  0.077  0.000
  0.000  0.000  0.000  0.000  1.000
  0.998  0.002  0.000  0.000  0.000
  0.000  0.000  0.077  0.923  0.000
  0.002  0.998  0.000  0.000  0.000
    occupations:
  0.250 -0.000 -0.000  0.038  0.000
 -0.000  0.427  0.000  0.000 -0.000
 -0.000  0.000  0.180  0.000  0.002
  0.038  0.000  0.000  0.369 -0.000
  0.000 -0.000  0.002 -0.000  0.220
atom   10   Tr[ns(na)] =   2.82523
    eigenvalues:
  0.177  0.236  0.239  0.334  0.428
    eigenvectors:
  0.017  0.000  0.000  0.983  0.000
  0.000  0.001  0.999  0.000  0.000
  0.000  0.999  0.001  0.000  0.000
  0.983  0.000  0.000  0.017  0.000
  0.000  0.000  0.000  0.000  1.000
    occupations:
  0.331  0.001 -0.000 -0.020 -0.000
  0.001  0.239 -0.000  0.000 -0.000
 -0.000 -0.000  0.236 -0.000 -0.000
 -0.020  0.000 -0.000  0.179  0.000
 -0.000 -0.000 -0.000  0.000  0.428
atom   16   Tr[ns(na)] =   2.82298
    eigenvalues:
  0.184  0.196  0.219  0.386  0.426
    eigenvectors:
  0.081  0.683  0.055  0.168  0.012
  0.004  0.003  0.003  0.177  0.813
  0.563  0.007  0.429  0.001  0.000
  0.023  0.143  0.009  0.653  0.172
  0.329  0.164  0.505  0.001  0.002
    occupations:
  0.231 -0.010 -0.004  0.074 -0.002
 -0.010  0.417 -0.003  0.021  0.011
 -0.004 -0.003  0.199  0.006  0.015
  0.074  0.021  0.006  0.360  0.001
 -0.002  0.011  0.015  0.001  0.204
atom   17   Tr[ns(na)] =   2.90456
    eigenvalues:
  0.172  0.213  0.228  0.412  0.427
    eigenvectors:
  0.006  0.002  0.000  0.000  0.992
  0.000  0.903  0.094  0.000  0.002
  0.000  0.094  0.905  0.000  0.000
  0.994  0.001  0.000  0.000  0.006
  0.000  0.000  0.000  1.000  0.000
    occupations:
  0.425  0.010  0.004 -0.019 -0.000
  0.010  0.215 -0.004 -0.000 -0.002
  0.004 -0.004  0.227  0.000 -0.000
 -0.019 -0.000  0.000  0.174 -0.000
 -0.000 -0.002 -0.000 -0.000  0.412
atom   22   Tr[ns(na)] =   2.89226
    eigenvalues:
  0.180  0.221  0.239  0.380  0.426
    eigenvectors:
  0.000  0.000  0.924  0.076  0.000
  0.000  0.000  0.000  0.000  1.000
  0.998  0.002  0.000  0.000  0.000
  0.000  0.000  0.076  0.924  0.000
  0.002  0.998  0.000  0.000  0.000
    occupations:
  0.250 -0.000 -0.000  0.037  0.000
 -0.000  0.426  0.000 -0.000 -0.000
 -0.000  0.000  0.180 -0.000 -0.002
  0.037 -0.000 -0.000  0.369 -0.000
  0.000 -0.000 -0.002 -0.000  0.221
atom   23   Tr[ns(na)] =   2.85890
    eigenvalues:
  0.158  0.229  0.262  0.377  0.403
    eigenvectors:
  0.011  0.037  0.000  0.952  0.000
  0.001  0.960  0.000  0.038  0.000
  0.000  0.000  1.000  0.000  0.000
  0.987  0.003  0.000  0.009  0.000
  0.000  0.000  0.000  0.000  1.000
    occupations:
  0.369  0.029  0.000 -0.022 -0.000
  0.029  0.235 -0.000 -0.000 -0.000
  0.000 -0.000  0.262 -0.000 -0.000
 -0.022 -0.000 -0.000  0.160 -0.000
 -0.000 -0.000 -0.000 -0.000  0.403
N of occupied +U levels =  22.9302823
 --- exit write_ns ---

[...]

          k = 0.2500-0.4516 0.0000 ( 29882 PWs)   bands (ev):

[...]

          k =-0.2500 0.2258 0.0000 ( 29912 PWs)   bands (ev):

   -60.2820 -60.2546 -60.0429 -59.6369 -59.3362 -59.3078 -58.9716 -58.9407
   -36.7542 -36.5309 -36.4839 -36.4403 -36.4172 -36.4139 -36.3876 -36.2933
   -36.2087 -35.9448 -35.8837 -35.8754 -35.8284 -35.6531 -35.5795 -35.5681
   -35.4548 -35.4354 -35.3896 -35.2608 -35.2335 -35.2187 -35.1454 -35.0635
   -21.4039 -21.1632 -20.4969 -20.4209 -20.1253 -19.7544 -19.6099 -19.5594
   -19.4962 -19.3682 -19.2861 -19.1975 -19.1179 -19.0861 -19.0503 -18.7045
   -18.4556 -18.1483 -18.1203  -9.1973  -8.9253  -8.3247  -7.7926  -7.6392
    -7.4615  -7.2487  -7.1902  -7.0595  -6.8802  -6.7478  -6.6986  -6.6680
    -6.6202  -6.4693  -6.4296  -6.3476  -6.2469  -6.1427  -6.0814  -5.9719
    -5.9314  -5.7363  -5.6046  -5.4184  -5.3371  -5.2701  -5.1706  -5.0827
    -5.0276  -5.0009  -4.8655  -4.8330  -4.7465  -4.7024  -4.6208  -4.5858
    -4.5003  -4.4305  -4.3310  -4.2542  -4.2058  -4.1264  -4.0261  -3.8783
    -3.7716  -3.6789  -3.5376  -3.4853  -3.4405  -3.3098  -3.2316  -3.1891
    -3.0560  -2.9526  -2.8376  -2.6937  -0.4694  -0.3709  -0.3288  -0.1673
     0.0577   0.1059   0.2216   0.3304   0.3697   0.4835   0.5651   0.6623
     0.7885   0.8779   0.9203   0.9771   1.0972   1.2147   1.2441   1.3527
     1.4559   1.6054   1.6174   1.7356   1.9199   2.0865   2.1834   2.3566
     2.3950   2.6342   2.7082   3.1362   3.1849   3.3160   3.5162   3.6184
     3.7097   3.7608   3.8455   4.0366   4.1167   4.3569   4.4223   4.5900
     5.0195   5.2528   5.2731   5.5587   5.8195   5.8592   6.0816   6.1904
     6.2993   6.4461   6.5355   6.8490   6.9546   7.2791   7.3517   7.4660
     7.6392   7.8104   7.8945   7.9893   8.0761   8.1263   8.2046   8.3822
     8.5082   8.5835   8.7677   8.8374   8.9418   9.0996   9.2480   9.3083
     9.4151   9.5364   9.5700   9.6148   9.7804   9.8947  10.0257  10.0664
    10.1553  10.2539  10.3862  10.4735  10.5903  10.6506  10.7569  10.8042
    10.9559  10.9816  11.0343  11.1344  11.2825  11.3039  11.4099  11.4773
    11.4886  11.5729  11.6551  11.7465  11.8368  11.9544  11.9828  12.0439
    12.1346  12.1877  12.2161  12.3474  12.4005  12.4527  12.5170  12.5945
    12.7204  12.8214  12.8631  12.8910  12.9803  13.0128  13.0577  13.1408
    13.3467  13.3883  13.5007  13.6118  13.6384  13.6956  13.8302  13.8702
    13.9066  13.9687  14.1324  14.1703  14.2159  14.2821  14.4391  14.4778
    14.5317  14.5794  14.6460  14.6743  14.7411  14.8665  14.9619  14.9846
    15.0486  15.2025  15.2672  15.3052  15.3524  15.4118  15.4991  15.5659
    15.6229  15.6657  15.7852  15.8417  15.8675  15.9544  16.0301  16.0777
    16.2203  16.2561  16.3451  16.3795  16.4332  16.4935  16.6252  16.6962
    16.7513  16.7865  16.8216  16.8441  16.9485  17.0304  17.0600  17.1237
    17.2030  17.3047  17.3484  17.3769  17.4724  17.5123  17.6223  17.7270
    17.7848  17.8647  17.9241  17.9456  18.0809  18.1055  18.2275  18.2820
    18.3889  18.4360  18.4757  18.5460  18.6110  18.7002

     the Fermi energy is    -2.7134 ev

!    total energy              =   -1567.46006879 Ry
     Harris-Foulkes estimate   =   -1567.46006879 Ry
     estimated scf accuracy    <          5.0E-09 Ry

     The total energy is the sum of the following terms:

     one-electron contribution =  -18620.52640508 Ry
     hartree contribution      =    9329.45106344 Ry
     xc contribution           =    -277.54000458 Ry
     ewald contribution        =    8000.29643710 Ry
     Hubbard energy            =       0.85821646 Ry
     smearing contrib. (-TS)   =       0.00062387 Ry

     convergence has been achieved in  10 iterations

     Forces acting on atoms (Ry/au):

     negative rho (up, down):  0.103E+00 0.000E+00
     atom    1 type  1   force =    -0.00128247   -0.01066314   -0.00017001
     atom    2 type  1   force =     0.00003642    0.01593826    0.00032689
     atom    3 type  2   force =     0.06100251   -0.00962569   -0.00069413
     atom    4 type  2   force =    -0.00314630    0.00480101    0.00003873
     atom    5 type  1   force =    -0.00286914   -0.07020074    0.00031035
     atom    6 type  1   force =    -0.00490062    0.07183482    0.00000011
     atom    7 type  1   force =     0.00128998    0.00085469   -0.00011459
     atom    8 type  1   force =     0.00244502   -0.00116234    0.00087592
     atom    9 type  2   force =    -0.00028987   -0.00004275   -0.00087770
     atom   10 type  2   force =    -0.00448296    0.00019430    0.00048941
     atom   11 type  1   force =    -0.01706440   -0.02357371   -0.00006957
     atom   12 type  1   force =    -0.01729184    0.02345914   -0.00005351
     atom   13 type  1   force =     0.00139926    0.00011612   -0.00076540
     atom   14 type  1   force =    -0.00204632   -0.01021386   -0.00029029
     atom   15 type  1   force =     0.00008164    0.01228529    0.00025362
     atom   16 type  2   force =    -0.06095680   -0.00980003   -0.00069356
     atom   17 type  2   force =    -0.00283108    0.00416232   -0.00018333
     atom   18 type  1   force =     0.00698999   -0.06966970    0.00038731
     atom   19 type  1   force =     0.00561669    0.07209588   -0.00005198
     atom   20 type  1   force =    -0.00068793    0.00013666    0.00045511
     atom   21 type  1   force =     0.00140253   -0.00093589    0.00094763
     atom   22 type  2   force =    -0.00046935   -0.00001822   -0.00086088
     atom   23 type  2   force =    -0.00137852    0.00008212   -0.00047232
     atom   24 type  1   force =     0.01952512   -0.02184560   -0.00005203
     atom   25 type  1   force =     0.01911657    0.02179074   -0.00009664
     atom   26 type  1   force =    -0.00085606    0.00005663   -0.00076190
     atom   27 type  3   force =     0.00004383    0.00022721    0.00068152
     atom   28 type  3   force =     0.00007261    0.00056992    0.00093300
     atom   29 type  3   force =     0.00029337   -0.00051446   -0.00013869
     atom   30 type  3   force =     0.00026187   -0.00031281   -0.00017627
     atom   31 type  1   force =     0.00002999    0.00001645    0.00096386
     atom   32 type  3   force =     0.00094625   -0.00004263   -0.00014065

     Total force =     0.003273     Total SCF correction =     0.000160

     bfgs converged in   8 scf cycles and   7 bfgs steps
     (criteria: energy < 0.10E-03, force < 0.10E-02)

     End of BFGS Geometry Optimization

     Final energy   =   -1567.4600687886 Ry
Begin final coordinates

ATOMIC_POSITIONS (crystal)
O0       0.000000000   0.000000000   0.377433023    0   0   1
O0       0.000000000   0.500000000   0.396266744    0   0   1
Ti1      0.250000000   0.500000000   0.448566844    0   0   1
Ti1      0.000000000   0.000000000   0.452616433    0   0   1
O0       0.250000000   0.810000000   0.448505490    0   0   1
O0       0.250000000   0.190000000   0.449382212    0   0   1
O0       0.000000000   0.500000000   0.496123640    0   0   1
O0       0.000000000   0.000000000   0.525480895    0   0   1
Ti1      0.250000000   0.000000000   0.581442497    0   0   1
Ti1      0.000000000   0.500000000   0.566631668    0   0   1
O0       0.250000000   0.690000000   0.579466102    0   0   1
O0       0.250000000   0.310000000   0.579455634    0   0   1
O0       0.000000000   0.000000000   0.622678137    0   0   1
O0       0.500000000   0.000000000   0.377717846    0   0   1
O0       0.500000000   0.500000000   0.395666827    0   0   1
Ti1      0.750000000   0.500000000   0.448667077    0   0   1
Ti1      0.500000000   0.000000000   0.453112287    0   0   1
O0       0.750000000   0.810000000   0.448448786    0   0   1
O0       0.750000000   0.190000000   0.449417052    0   0   1
O0       0.500000000   0.500000000   0.491369303    0   0   1
O0       0.500000000   0.000000000   0.525579899    0   0   1
Ti1      0.750000000   0.000000000   0.581529380    0   0   1
Ti1      0.500000000   0.500000000   0.593816964    0   0   1
O0       0.750000000   0.690000000   0.578982138    0   0   1
O0       0.750000000   0.310000000   0.578904545    0   0   1
O0       0.500000000   0.000000000   0.622677584    0   0   1
H2      -0.000717356   0.623473751   0.375005958
H2       0.499448279   0.620103810   0.373347541
H2       0.148930990   0.038984696   0.363909102
H2       0.648541104   0.039169105   0.364054068
O0       0.505955574   0.499913345   0.661537427
H2       0.376964269   0.499469772   0.684456896
End final coordinates

     General routines

     Parallel routines
     Hubbard U routines

   This run was terminated on:   8:17: 5  30Apr2014

   JOB DONE.