     Program PWSCF v.5.0.2 (svn rev. 9656) starts on 17Apr2014 at  9:53:58

     Current dimensions of program PWSCF are:
     Max number of different atomic species (ntypx) = 10
     Max number of k-points (npk) =  40000
     Max angular momentum in pseudopotentials (lmaxx) =  3
     Reading input from pwscf.in
Warning: card &CELL ignored
Warning: card / ignored

     Subspace diagonalization in iterative solution of the eigenvalue problem:
     a serial algorithm will be used

     bravais-lattice index     =            0
     lattice parameter (alat)  =      12.2076  a.u.
     unit-cell volume          =   10244.9005 (a.u.)^3
     number of atoms/cell      =           49
     number of atomic types    =            2
     number of electrons       =       454.00
     number of Kohn-Sham states=          681
     kinetic-energy cutoff     =      40.0000  Ry
     charge density cutoff     =     500.0000  Ry
     convergence threshold     =      1.0E-06
     mixing beta               =       0.3000
     number of iterations used =            8  plain     mixing
     Exchange-correlation      = SLA  PW   PBE  PBE ( 1 4 3 4 0)
     EXX-fraction              =        0.00
     nstep                     =           50

     celldm(1)=  12.207631  celldm(2)=   0.000000  celldm(3)=   0.000000
     celldm(4)=   0.000000  celldm(5)=   0.000000  celldm(6)=   0.000000

     crystal axes: (cart. coord. in units of alat)
               a(1) = (   1.000000   0.000000   0.000000 )
               a(2) = (   0.000000   1.004836   0.000000 )
               a(3) = (   0.000000   0.000000   5.604262 )

     reciprocal axes: (cart. coord. in units 2 pi/alat)
               b(1) = (  1.000000  0.000000  0.000000 )
               b(2) = (  0.000000  0.995187  0.000000 )
               b(3) = (  0.000000  0.000000  0.178436 )

     PseudoPot. # 1 for O  read from file:
     /home/camp/zhonxu/pseudo/o_pbe_v1.01.uspp.F.UPF
     MD5 check sum: 2bcb18d16ea4b960afae9ec6d52f22d2
     Pseudo is Ultrasoft + core correction, Zval =  6.0
     Generated by new atomic code, or converted to UPF format
     Using radial grid of  737 points,  5 beta functions with:
                l(1) =   0
                l(2) =   0
                l(3) =   1
                l(4) =   1
                l(5) =   2
     Q(r) pseudized with  8 coefficients,  rinner =    0.900   0.900   0.900
                                                       0.900   0.900

     PseudoPot. # 2 for Pt read from file:
     /home/camp/zhonxu/pseudo/pt_pbe_v1.uspp.F.UPF
     MD5 check sum: 4c71d6ad5ef119f1eb26a4d0b7884226
     Pseudo is Ultrasoft + core correction, Zval = 16.0
     Generated by new atomic code, or converted to UPF format
     Using radial grid of  985 points,  6 beta functions with:
                l(1) =   0
                l(2) =   0
                l(3) =   1
                l(4) =   1
                l(5) =   2
                l(6) =   2
     Q(r) pseudized with  8 coefficients,  rinner =    1.300   1.300   1.300
                                                       1.300   1.300

     atomic species   valence    mass     pseudopotential
        O0             6.00    15.99940     O ( 1.00)
        Pt1           16.00   195.08000     Pt( 1.00)

      4 Sym. Ops. (no inversion) found

   Cartesian axes

     site n.     atom                  positions (alat units)
         1           O0  tau(   1) = (   0.0000000   0.5024180   1.8575886  )
         2           Pt1 tau(   2) = (   0.2500000   0.5024180   2.0485258  )
         3           Pt1 tau(   3) = (   0.0000000   0.0000000   2.0485258  )
         4           O0  tau(   4) = (   0.2500000   0.8139171   2.0485258  )
         5           O0  tau(   5) = (   0.2500000   0.1909188   2.0485258  )
         6           O0  tau(   6) = (   0.0000000   0.5024180   2.2394070  )
         7           O0  tau(   7) = (   0.0000000   0.0000000   2.3600107  )
         8           Pt1 tau(   8) = (   0.2500000   0.0000000   2.5509479  )
         9           Pt1 tau(   9) = (   0.0000000   0.5024180   2.5509479  )
        10           O0  tau(  10) = (   0.2500000   0.6933368   2.5509479  )
        11           O0  tau(  11) = (   0.2500000   0.3114991   2.5509479  )
        12           O0  tau(  12) = (   0.0000000   0.0000000   2.7418291  )
        13           O0  tau(  13) = (   0.0000000   0.5024180   2.8577252  )
        14           Pt1 tau(  14) = (   0.2500000   0.5024180   3.0464207  )
        15           Pt1 tau(  15) = (   0.0000000   0.0000000   3.0519689  )
        16           O0  tau(  16) = (   0.2500000   0.8129525   3.0573490  )
        17           O0  tau(  17) = (   0.2500000   0.1918835   3.0573490  )
        18           O0  tau(  18) = (   0.0000000   0.5024180   3.2388711  )
        19           O0  tau(  19) = (   0.0000000   0.0000000   3.3644626  )
        20           Pt1 tau(  20) = (   0.2500000   0.0000000   3.5576415  )
        21           Pt1 tau(  21) = (   0.0000000   0.5024180   3.5547273  )
        22           O0  tau(  22) = (   0.2500000   0.6920004   3.5920516  )
        23           O0  tau(  23) = (   0.2500000   0.3128356   3.5920516  )
        24           O0  tau(  24) = (   0.0000000   0.0000000   3.7444315  )
        25           O0  tau(  25) = (   0.5000000   0.5024180   1.8575886  )
        26           Pt1 tau(  26) = (   0.7500000   0.5024180   2.0485258  )
        27           Pt1 tau(  27) = (   0.5000000   0.0000000   2.0485258  )
        28           O0  tau(  28) = (   0.7500000   0.8139171   2.0485258  )
        29           O0  tau(  29) = (   0.7500000   0.1909188   2.0485258  )
        30           O0  tau(  30) = (   0.5000000   0.5024180   2.2394070  )
        31           O0  tau(  31) = (   0.5000000   0.0000000   2.3600107  )
        32           Pt1 tau(  32) = (   0.7500000   0.0000000   2.5509479  )
        33           Pt1 tau(  33) = (   0.5000000   0.5024180   2.5509479  )
        34           O0  tau(  34) = (   0.7500000   0.6933368   2.5509479  )
        35           O0  tau(  35) = (   0.7500000   0.3114991   2.5509479  )
        36           O0  tau(  36) = (   0.5000000   0.0000000   2.7418291  )
        37           O0  tau(  37) = (   0.5000000   0.5024180   2.8577252  )
        38           Pt1 tau(  38) = (   0.7500000   0.5024180   3.0464207  )
        39           Pt1 tau(  39) = (   0.5000000   0.0000000   3.0519689  )
        40           O0  tau(  40) = (   0.7500000   0.8129525   3.0573490  )
        41           O0  tau(  41) = (   0.7500000   0.1918835   3.0573490  )
        42           O0  tau(  42) = (   0.5000000   0.5024180   3.2388711  )
        43           O0  tau(  43) = (   0.5000000   0.0000000   3.3644626  )
        44           Pt1 tau(  44) = (   0.7500000   0.0000000   3.5576415  )
        45           Pt1 tau(  45) = (   0.5000000   0.5024180   3.5547273  )
        46           O0  tau(  46) = (   0.7500000   0.6920004   3.5920516  )
        47           O0  tau(  47) = (   0.7500000   0.3128356   3.5920516  )
        48           O0  tau(  48) = (   0.5000000   0.0000000   3.7444315  )
        49           O0  tau(  49) = (   0.5000000   0.5024180   3.8391996  )

     number of k points=     9  Methfessel-Paxton smearing, width (Ry)=  0.0100
                       cart. coord. in units 2pi/alat
        k(    1) = (   0.0000000   0.0000000   0.0000000), wk =   0.1250000
        k(    2) = (   0.0000000   0.2487968   0.0000000), wk =   0.2500000
        k(    3) = (   0.0000000  -0.4975937   0.0000000), wk =   0.1250000
        k(    4) = (   0.2500000   0.0000000   0.0000000), wk =   0.2500000
        k(    5) = (   0.2500000   0.2487968   0.0000000), wk =   0.5000000
        k(    6) = (   0.2500000  -0.4975937   0.0000000), wk =   0.2500000
        k(    7) = (  -0.5000000   0.0000000   0.0000000), wk =   0.1250000
        k(    8) = (  -0.5000000   0.2487968   0.0000000), wk =   0.2500000
        k(    9) = (  -0.5000000  -0.4975937   0.0000000), wk =   0.1250000

     Largest allocated arrays     est. size (Mb)     dimensions
     Largest temporary arrays     est. size (Mb)     dimensions

     Check: negative/imaginary core charge=   -0.000003    0.000000

     Initial potential from superposition of free atoms
     Check: negative starting charge=   -3.073612

     starting charge  445.99977, renormalised to  454.00000

     negative rho (up, down):  0.313E+01 0.000E+00
     Starting wfc are  324 randomized atomic wfcs

     Self-consistent Calculation

     iteration #  1     ecut=    40.00 Ry     beta=0.30
     Davidson diagonalization with overlap
     ethr =  1.00E-02,  avg # of iterations =  6.7

     negative rho (up, down):  0.308E+01 0.000E+00

     total energy              =   -4372.33425916 Ry
     Harris-Foulkes estimate   =   -4403.35869781 Ry
     estimated scf accuracy    <      65.30429314 Ry

[...]

     End of self-consistent calculation

          k = 0.0000 0.0000 0.0000 ( 43825 PWs)   bands (ev):

   -54.7598 -54.7462 -54.5621 -54.5603 -54.5244 -54.5051 -54.5046 -54.4755
   -54.4700 -54.4495 -54.4398 -54.4214 -54.3936 -54.3877 -54.3851 -54.3842
   -54.3625 -54.3514 -54.3480 -54.3068 -54.3016 -54.2967 -54.2664 -54.2632
   -54.2603 -54.2461 -54.2442 -54.2412 -54.2393 -54.1558 -54.1477 -54.1339
   -54.1314 -54.1313 -54.1242 -54.1017 -54.0453 -54.0282 -54.0209 -53.9872
   -53.9796 -53.8167 -53.7503 -53.7414 -53.5531 -53.5497 -53.5443 -53.4154
   -20.3224 -20.0611 -19.8514 -19.7092 -19.6753 -19.3726 -19.2051 -19.1409
   -19.1019 -19.0983 -19.0547 -19.0478 -19.0436 -18.9944 -18.9517 -18.8999
   -18.8889 -18.8535 -18.8123 -18.7529 -18.6775 -18.6325 -18.6107 -18.5215
   -18.4675 -18.4286 -18.3685 -18.2338 -17.5225 -17.4220 -17.4113 -17.3546
   -16.9705  -9.2402  -9.2196  -9.1795  -8.8750  -8.8494  -8.7653  -7.9974
    -7.9241  -7.8483  -7.8401  -7.7972  -7.7921  -7.7706  -7.6909  -7.6850
    -7.6610  -7.6594  -7.6436  -7.6006  -7.5965  -7.5171  -7.4952  -7.4360
    -7.3234  -7.2958  -7.2491  -7.2277  -7.1245  -7.1046  -7.0385  -7.0298
    -7.0127  -7.0116  -6.7565  -6.6341  -6.6233  -6.5849  -6.4864  -6.3024
    -6.0619  -5.8767  -5.6522  -5.6282  -5.5966  -5.5705  -5.4975  -5.4841
    -5.4499  -5.3938  -5.3369  -5.2960  -5.1763  -5.0371  -4.9504  -4.9242
    -4.9038  -4.7960  -4.7719  -4.6775  -4.5683  -4.5092  -4.4017  -4.3310
    -4.3038  -4.2606  -4.2314  -4.2203  -4.1793  -4.0353  -4.0063  -4.0045
    -3.9311  -3.9272  -3.9237  -3.9125  -3.8520  -3.7475  -3.6855  -3.5756
    -3.5533  -3.4859  -3.4699  -3.4537  -3.4238  -3.4038  -3.3924  -3.3771
    -3.3464  -3.3421  -3.3173  -3.2815  -3.2780  -3.2032  -3.1927  -3.1637
    -3.1269  -3.1168  -3.0806  -3.0712  -3.0465  -3.0171  -2.9122  -2.8960
    -2.8643  -2.8638  -2.8430  -2.8283  -2.7701  -2.7548  -2.6234  -2.6156
    -2.5371  -2.5027  -2.4560  -2.4144  -2.2089  -2.1432  -2.0939  -2.0366
    -1.9063  -1.8265  -1.5362  -1.5280  -1.5244  -1.4884  -1.3884  -1.3539
    -1.3402  -1.3236  -1.1826  -1.0784  -0.9785  -0.8332  -0.8234  -0.6587
    -0.6250  -0.6111  -0.5654  -0.3828  -0.3779  -0.3439  -0.2780  -0.1765
    -0.1498  -0.1098  -0.0135   0.0844   0.1158   0.1507   0.1761   0.3213
[...]
O0       0.250000000   0.810000000   0.365530000    0   0   0
O0       0.250000000   0.190000000   0.365530000    0   0   0
O0       0.000000000   0.500000000   0.399590000    0   0   0
O0       0.000000000   0.000000000   0.421110000    0   0   0
Pt1      0.250000000   0.000000000   0.455180000    0   0   0
Pt1      0.000000000   0.500000000   0.455180000    0   0   0
O0       0.250000000   0.690000000   0.455180000    0   0   0
O0       0.250000000   0.310000000   0.455180000    0   0   0
O0       0.000000000   0.000000000   0.489240000    0   0   0
O0       0.000000000   0.500000000   0.510526180
Pt1      0.250939881   0.500000000   0.544183403
Pt1      0.000000000   0.000000000   0.544550252
O0       0.250215494   0.809258971   0.544397272
O0       0.250215494   0.190741029   0.544397272
O0       0.000000000   0.500000000   0.577976687
O0       0.000000000   0.000000000   0.599847878
Pt1      0.249978510   0.000000000   0.634117737
Pt1      0.000000000   0.500000000   0.634288614
O0       0.249076762   0.690061403   0.635655177
O0       0.249076762   0.309938597   0.635655177
O0       0.000000000   0.000000000   0.667381672
O0       0.500000000   0.500000000   0.331460000    0   0   0
Pt1      0.750000000   0.500000000   0.365530000    0   0   0
Pt1      0.500000000   0.000000000   0.365530000    0   0   0
O0       0.750000000   0.810000000   0.365530000    0   0   0
O0       0.750000000   0.190000000   0.365530000    0   0   0
O0       0.500000000   0.500000000   0.399590000    0   0   0
O0       0.500000000   0.000000000   0.421110000    0   0   0
Pt1      0.750000000   0.000000000   0.455180000    0   0   0
Pt1      0.500000000   0.500000000   0.455180000    0   0   0
O0       0.750000000   0.690000000   0.455180000    0   0   0
O0       0.750000000   0.310000000   0.455180000    0   0   0
O0       0.500000000   0.000000000   0.489240000    0   0   0
O0       0.500000000   0.500000000   0.509850445
Pt1      0.749060119   0.500000000   0.544183403
Pt1      0.500000000   0.000000000   0.544542058
O0       0.749784506   0.809258971   0.544397272
O0       0.749784506   0.190741029   0.544397272
O0       0.500000000   0.500000000   0.578888500
O0       0.500000000   0.000000000   0.599854268
Pt1      0.750021490  -0.000000000   0.634117737
Pt1      0.500000000   0.500000000   0.636998177
O0       0.750923238   0.690061403   0.635655177
O0       0.750923238   0.309938597   0.635655177
O0       0.500000000   0.000000000   0.667380539
O0       0.500000000   0.500000000   0.687250430

     Check: negative starting charge=   -3.072640
     NEW-OLD atomic charge density approx. for the potential

     Check: negative/imaginary core charge=   -0.000003    0.000000
     Check: negative starting charge=   -3.072658

[...]

     Self-consistent Calculation

[...]

     Threshold (ethr) on eigenvalues was too large:
     Diagonalizing with lowered threshold

     Davidson diagonalization with overlap
     ethr =  8.31E-08,  avg # of iterations =  1.0

[...]

     total energy              =   -4391.19410450 Ry
     Harris-Foulkes estimate   =   -4391.19410451 Ry
     estimated scf accuracy    <       0.00000006 Ry

     iteration # 17     ecut=    40.00 Ry     beta=0.30
     Davidson diagonalization with overlap
     ethr =  6.89E-12,  avg # of iterations =  1.0

     negative rho (up, down):  0.316E+01 0.000E+00

     End of self-consistent calculation

[...]

          k = 0.2500-0.4976 0.0000 ( 43762 PWs)   bands (ev):

[...]

          k =-0.5000-0.4976 0.0000 ( 43684 PWs)   bands (ev):

   -54.9768 -54.9441 -54.7160 -54.4790 -54.4713 -54.4614 -54.4539 -54.4348
   -54.4347 -54.3967 -54.3967 -54.3715 -54.3704 -54.3329 -54.3329 -54.3265
   -54.3189 -54.3188 -54.3176 -54.3120 -54.3115 -54.2232 -54.2231 -54.2049
   -54.2048 -54.2017 -54.1989 -54.1882 -54.1858 -54.0912 -54.0912 -54.0751
   -54.0751 -54.0552 -54.0549 -54.0476 -54.0476 -54.0203 -54.0190 -53.9377
   -53.9377 -53.8524 -53.6930 -53.6889 -53.5423 -53.4947 -53.4911 -53.3538
   -19.5279 -19.4971 -19.4878 -19.4506 -19.2825 -19.2792 -19.2543 -19.2266
   -19.1052 -19.1010 -19.0994 -19.0825 -19.0181 -19.0052 -19.0002 -18.9963
   -18.8144 -18.7988 -18.7935 -18.7892 -18.7545 -18.7485 -18.7418 -18.6963
   -18.6447 -18.6353 -18.6162 -18.5048 -17.5190 -17.4870 -17.4056 -17.4014
   -17.2145  -8.2325  -8.2199  -8.2165  -8.1997  -7.7305  -7.6662  -7.6611
    -7.6450  -7.6429  -7.5887  -7.5879  -7.5330  -7.4997  -7.4948  -7.4896
    -7.4116  -7.2329  -7.2233  -7.2207  -7.2136  -7.1542  -7.1486  -7.1390
    -7.1365  -7.1339  -7.0606  -7.0603  -7.0184  -6.9059  -6.8868  -6.8826
    -6.8796  -6.8438  -6.7807  -6.7797  -6.7716  -6.6175  -6.6161  -6.6128
    -6.5996  -6.2146  -6.1513  -6.1391  -6.1274  -5.7858  -5.7664  -5.7531
    -5.7213  -5.5244  -5.4794  -5.4786  -5.4547  -5.4308  -5.4220  -5.4174
    -5.4109  -5.4106  -5.3671  -5.3106  -5.3099  -5.2958  -5.2708  -5.2522
    -5.2179  -5.0715  -4.9996  -4.9198  -4.8464  -4.8357  -4.8060  -4.7885
    -4.7635  -4.6583  -4.4040  -4.3837  -4.3121  -4.1180  -4.0150  -3.8300
    -3.7850  -3.7476  -3.6742  -3.6417  -3.6267  -3.6132  -3.5905  -3.4593
    -3.4529  -3.4345  -3.3850  -3.3565  -3.3509  -3.2959  -3.0997  -3.0344
    -2.9592  -2.7572  -2.2740  -2.2485  -2.2307  -2.1406  -2.1193  -2.0967
    -2.0966  -2.0779  -2.0553  -2.0257  -1.9917  -1.9783  -1.9778  -1.9217
    -1.9156  -1.8539  -1.8031  -1.7858  -1.6829  -1.6588  -1.6354  -1.5903
    -1.5852  -1.5778  -1.4834  -1.2373  -1.1669  -1.1627  -1.1139  -1.0803
    -0.8745  -0.8717  -0.8584  -0.8518  -0.8033  -0.7471  -0.7029  -0.6902
    -0.6871  -0.6681  -0.5950  -0.5886  -0.5885  -0.5199  -0.5171  -0.5047
    -0.5022  -0.3371  -0.3115  -0.1448   0.2653   0.2703   0.3806   0.5636
     0.7446   0.7786   0.7846   0.7897   0.9256   0.9264   1.0632   1.2452
     1.2467   1.2989   1.3108   1.8863   2.0099   2.0883   2.0901   2.3013
     2.4336   2.4546   2.4864   2.8451   2.9466   2.9554   3.0037   3.1504
     3.1698   3.1762   3.2314   3.2492   5.6952   5.6954   6.2049   7.1062
     7.1864   7.2030   7.2453   7.4582   7.6312   7.7627   7.8404   7.9003
     8.0207   8.0694   8.0854   8.2433   8.2842   8.2856   8.3196   8.3553
     8.5101   8.5560   8.5757   8.6463   8.6783   8.7209   8.7488   8.7753
     9.0934   9.0973   9.1022   9.3029   9.3083   9.3170   9.3340   9.4524
     9.8963   9.9085   9.9296  10.0170  10.0201  10.0350  10.0455  10.3525
    10.4795  10.4866  10.4887  10.5040  10.5107  10.5367  10.5583  10.5599
    10.6332  10.6490  10.6547  10.8121  11.0388  11.0569  11.0663  11.0850
    11.5491  11.5507  11.5564  11.6732  11.7509  11.7620  11.9646  12.0284
    12.3017  12.3238  12.3240  12.7491  12.7763  12.8006  12.8623  12.9161
    13.0704  13.0960  13.0966  13.0984  13.1954  13.2439  13.3682  13.3811
    13.5235  13.5399  13.5846  13.7193  13.7841  13.8661  13.9669  14.0023
    14.0156  14.0903  14.0975  14.1295  14.1393  14.1665  14.2152  14.2470
    14.3323  14.3582  14.3747  14.4549  14.4614  14.5249  14.6538  14.6817
    14.7110  14.7299  14.8863  14.9560  15.0453  15.0594  15.0697  15.1067
    15.2158  15.2446  15.2549  15.2765  15.3662  15.3684  15.3835  15.4013
    15.4263  15.4320  15.4467  15.4744  15.5844  15.5847  15.5935  15.6112
    15.6477  15.6608  15.6710  15.6927  15.7141  15.7405  15.7599  15.8028
    15.8637  15.8664  15.8794  15.9783  16.0001  16.0230  16.0504  16.0949
    16.1152  16.1473  16.1504  16.1542  16.2780  16.2999  16.3068  16.3952
    16.4369  16.4587  16.4597  16.4904  16.5265  16.5475  16.5601  16.5774
    16.6276  16.6383  16.6572  16.6575  16.7964  16.8433  16.8778  16.9110
    17.0445  17.0991  17.1172  17.1215  17.1543  17.2468  17.2523  17.2827
    17.3042  17.3812  17.3830  17.4309  17.5239  17.5251  17.5647  17.5750
    17.6291  17.6502  17.6791  17.6815  17.7759  17.7812  17.7926  17.7966
    17.8429  17.8483  17.8576  17.8600  17.8996  17.9484  17.9495  18.1055
    18.1087  18.2143  18.2477  18.3062  18.3387  18.3398  18.3880  18.4018
    18.4065  18.4474  18.4779  18.4865  18.5333  18.5409  18.5459  18.6151
[...]
    23.0851  23.0944  23.1519  23.1789  23.2123  23.2260  23.2378  23.3349
    23.3736  23.3910  23.4465  23.4680  23.5006  23.5046  23.5762  23.6086
    23.6781  23.6965  23.7463  23.7635  23.8925  23.9081  23.9108  23.9296
    24.0557  24.0805  24.1004  24.1044  24.1568  24.2009  24.2271  24.2998
    24.3354  24.3790  24.3805  24.4866  24.5199  24.5268  24.5606  24.6735
    24.7159  24.7159  24.7298  24.9237  25.0184  25.0715  25.0920  25.1174
    25.1267  25.1337  25.1464  25.1545  25.1625  25.1768  25.2056  25.3399
    25.3658  25.3991  25.4511  25.4744  25.4954  25.4980  25.5491  25.6013
    25.7076  25.7150  25.7549  25.7945  25.8168  25.8481  25.8524  25.8746
    26.0426  26.0638  26.0739  26.1225  26.2544  26.2699  26.2767  26.3122
    26.3288  26.3709  26.3713  26.4641  26.5848  26.6072  26.6091  26.6555
    26.8777  26.9118  26.9394  26.9541  26.9845  27.0062  27.0431  27.0628
    27.2268  27.2528  27.2736  27.3788  27.5061  27.5834  27.6168  27.7948
    27.8099  27.8259  27.8556  27.9218  27.9451  27.9732  28.0129  28.0969
    28.0989

     the Fermi energy is    -0.0432 ev

!    total energy              =   -4391.19410450 Ry
     Harris-Foulkes estimate   =   -4391.19410451 Ry
     estimated scf accuracy    <          9.1E-09 Ry

     The total energy is the sum of the following terms:

     one-electron contribution =  -82221.61014450 Ry
     hartree contribution      =   41204.46291988 Ry
     xc contribution           =   -1103.26795103 Ry
     ewald contribution        =   37729.22281650 Ry
     smearing contrib. (-TS)   =      -0.00174535 Ry

     convergence has been achieved in  17 iterations

     Forces acting on atoms (Ry/au):

     negative rho (up, down):  0.316E+01 0.000E+00
     atom    1 type  1   force =     0.00000000    0.00000000    0.01499451
     atom    2 type  2   force =     0.00232018   -0.00000000   -0.00528177
     atom    3 type  2   force =     0.00000000    0.00000000    0.00538766
     atom    4 type  1   force =    -0.00007525   -0.00047898   -0.02901088
     atom    5 type  1   force =    -0.00007525    0.00047898   -0.02901088
     atom    6 type  1   force =     0.00000000    0.00000000    0.01097221
     atom    7 type  1   force =     0.00000000    0.00000000    0.02261380
     atom    8 type  2   force =     0.00034956    0.00000000    0.01606644
     atom    9 type  2   force =     0.00000000    0.00000000   -0.01363551
     atom   10 type  1   force =     0.00031968    0.00590078   -0.00001341
     atom   11 type  1   force =     0.00031968   -0.00590078   -0.00001341
     atom   12 type  1   force =     0.00000000    0.00000000    0.01121790
     atom   13 type  1   force =     0.00000000    0.00000000    0.00027917
     atom   14 type  2   force =     0.00002494    0.00000000    0.00036424
     atom   15 type  2   force =     0.00000000    0.00000000   -0.00021425
     atom   16 type  1   force =    -0.00001552    0.00003381   -0.00030136
     atom   17 type  1   force =    -0.00001552   -0.00003381   -0.00030136
     atom   18 type  1   force =     0.00000000    0.00000000    0.00009254
     atom   19 type  1   force =     0.00000000    0.00000000   -0.00014913
     atom   20 type  2   force =    -0.00001773    0.00000000   -0.00005742
     atom   21 type  2   force =     0.00000000    0.00000000    0.00022134
     atom   22 type  1   force =     0.00017746    0.00017386    0.00014111
     atom   23 type  1   force =     0.00017746   -0.00017386    0.00014111
     atom   24 type  1   force =     0.00000000    0.00000000    0.00040439
     atom   25 type  1   force =     0.00000000    0.00000000    0.01358470
     atom   26 type  2   force =    -0.00232018    0.00000000   -0.00528177
     atom   27 type  2   force =     0.00000000    0.00000000    0.00546818
     atom   28 type  1   force =     0.00007525   -0.00047898   -0.02901088
     atom   29 type  1   force =     0.00007525    0.00047898   -0.02901088
     atom   30 type  1   force =     0.00000000    0.00000000    0.00418697
     atom   31 type  1   force =     0.00000000    0.00000000    0.02352415
     atom   32 type  2   force =    -0.00034956    0.00000000    0.01606644
     atom   33 type  2   force =     0.00000000    0.00000000   -0.01464126
     atom   34 type  1   force =    -0.00031968    0.00590078   -0.00001341
     atom   35 type  1   force =    -0.00031968   -0.00590078   -0.00001341
     atom   36 type  1   force =     0.00000000    0.00000000    0.01044972
     atom   37 type  1   force =     0.00000000    0.00000000    0.00038819
     atom   38 type  2   force =    -0.00002494    0.00000000    0.00036424
     atom   39 type  2   force =     0.00000000    0.00000000    0.00005564
     atom   40 type  1   force =     0.00001552    0.00003381   -0.00030136
     atom   41 type  1   force =     0.00001552   -0.00003381   -0.00030136
     atom   42 type  1   force =     0.00000000    0.00000000    0.00063943
     atom   43 type  1   force =     0.00000000    0.00000000   -0.00007847
     atom   44 type  2   force =     0.00001773    0.00000000   -0.00005742
     atom   45 type  2   force =     0.00000000    0.00000000    0.00010949
     atom   46 type  1   force =    -0.00017746    0.00017386    0.00014111
     atom   47 type  1   force =    -0.00017746   -0.00017386    0.00014111
     atom   48 type  1   force =     0.00000000    0.00000000   -0.00057549
     atom   49 type  1   force =     0.00000000    0.00000000   -0.00074069

     Total force =     0.001672     Total SCF correction =     0.000218
     SCF correction compared to forces is large: reduce conv_thr to get better values

     bfgs converged in  22 scf cycles and  21 bfgs steps
     (criteria: energy < 0.10E-03, force < 0.10E-02)

     End of BFGS Geometry Optimization

     Final energy   =   -4391.1941044978 Ry
Begin final coordinates

ATOMIC_POSITIONS (crystal)
O0       0.000000000   0.500000000   0.331460000    0   0   0
Pt1      0.250000000   0.500000000   0.365530000    0   0   0
Pt1      0.000000000   0.000000000   0.365530000    0   0   0
O0       0.250000000   0.810000000   0.365530000    0   0   0
O0       0.250000000   0.190000000   0.365530000    0   0   0
O0       0.000000000   0.500000000   0.399590000    0   0   0
O0       0.000000000   0.000000000   0.421110000    0   0   0
Pt1      0.250000000   0.000000000   0.455180000    0   0   0
Pt1      0.000000000   0.500000000   0.455180000    0   0   0
O0       0.250000000   0.690000000   0.455180000    0   0   0
O0       0.250000000   0.310000000   0.455180000    0   0   0
O0       0.000000000   0.000000000   0.489240000    0   0   0
O0       0.000000000   0.500000000   0.510526180
Pt1      0.250939881   0.500000000   0.544183403
Pt1      0.000000000   0.000000000   0.544550252
O0       0.250215494   0.809258971   0.544397272
O0       0.250215494   0.190741029   0.544397272
O0       0.000000000   0.500000000   0.577976687
O0       0.000000000   0.000000000   0.599847878
Pt1      0.249978510   0.000000000   0.634117737
Pt1      0.000000000   0.500000000   0.634288614
O0       0.249076762   0.690061403   0.635655177
O0       0.249076762   0.309938597   0.635655177
O0       0.000000000   0.000000000   0.667381672
O0       0.500000000   0.500000000   0.331460000    0   0   0
Pt1      0.750000000   0.500000000   0.365530000    0   0   0
Pt1      0.500000000   0.000000000   0.365530000    0   0   0
O0       0.750000000   0.810000000   0.365530000    0   0   0
O0       0.750000000   0.190000000   0.365530000    0   0   0
O0       0.500000000   0.500000000   0.399590000    0   0   0
O0       0.500000000   0.000000000   0.421110000    0   0   0
Pt1      0.750000000   0.000000000   0.455180000    0   0   0
Pt1      0.500000000   0.500000000   0.455180000    0   0   0
O0       0.750000000   0.690000000   0.455180000    0   0   0
O0       0.750000000   0.310000000   0.455180000    0   0   0
O0       0.500000000   0.000000000   0.489240000    0   0   0
O0       0.500000000   0.500000000   0.509850445
Pt1      0.749060119   0.500000000   0.544183403
Pt1      0.500000000   0.000000000   0.544542058
O0       0.749784506   0.809258971   0.544397272
O0       0.749784506   0.190741029   0.544397272
O0       0.500000000   0.500000000   0.578888500
O0       0.500000000   0.000000000   0.599854268
Pt1      0.750021490  -0.000000000   0.634117737
Pt1      0.500000000   0.500000000   0.636998177
O0       0.750923238   0.690061403   0.635655177
O0       0.750923238   0.309938597   0.635655177
O0       0.500000000   0.000000000   0.667380539
O0       0.500000000   0.500000000   0.687250430
End final coordinates

     General routines

     Parallel routines

   This run was terminated on:   7:14:45  19Apr2014

   JOB DONE.