     Program PWSCF v.5.0.2 (svn rev. 9656) starts on  5Jun2014 at 19:11:47

     Current dimensions of program PWSCF are:
     Max number of different atomic species (ntypx) = 10
     Max number of k-points (npk) =  40000
     Max angular momentum in pseudopotentials (lmaxx) =  3
     Reading input from pwscf.in
Warning: card &CELL ignored
Warning: card / ignored

     Subspace diagonalization in iterative solution of the eigenvalue problem:
     a serial algorithm will be used

     bravais-lattice index     =            0
     lattice parameter (alat)  =      11.7919  a.u.
     unit-cell volume          =    7123.6633 (a.u.)^3
     number of atoms/cell      =           33
     number of atomic types    =            3
     number of electrons       =       253.00
     number of Kohn-Sham states=          367
     kinetic-energy cutoff     =      40.0000  Ry
     charge density cutoff     =     500.0000  Ry
     convergence threshold     =      1.0E-06
     mixing beta               =       0.3000
     number of iterations used =            8  plain     mixing
     Exchange-correlation      = SLA  PW   PBE  PBE ( 1 4 3 4 0)
     EXX-fraction              =        0.00
     nstep                     =           50

     celldm(1)=  11.791891  celldm(2)=   0.000000  celldm(3)=   0.000000
     celldm(4)=   0.000000  celldm(5)=   0.000000  celldm(6)=   0.000000

     crystal axes: (cart. coord. in units of alat)
               a(1) = (   1.000000   0.000000   0.000000 )
               a(2) = (   0.000000   1.026665   0.000000 )
               a(3) = (   0.000000   0.000000   4.231793 )

     reciprocal axes: (cart. coord. in units 2 pi/alat)
               b(1) = (  1.000000  0.000000  0.000000 )
               b(2) = (  0.000000  0.974028  0.000000 )
               b(3) = (  0.000000  0.000000  0.236306 )

     PseudoPot. # 1 for O  read from file:
     /home/camp/zhonxu/pseudo/o_pbe_v1.01.uspp.F.UPF
     MD5 check sum: 2bcb18d16ea4b960afae9ec6d52f22d2
     Pseudo is Ultrasoft + core correction, Zval =  6.0
     Generated by new atomic code, or converted to UPF format
     Using radial grid of  737 points,  5 beta functions with:
                l(1) =   0
                l(2) =   0
                l(3) =   1
                l(4) =   1
                l(5) =   2
     Q(r) pseudized with  8 coefficients,  rinner =    0.900   0.900   0.900
                                                       0.900   0.900

     PseudoPot. # 2 for Ru read from file:
     /home/camp/zhonxu/pseudo/ru_pbe_v1.uspp.F.UPF
     MD5 check sum: df00be1c11b23341d9806d8f1dfa10cf
     Pseudo is Ultrasoft + core correction, Zval = 16.0
     Generated by new atomic code, or converted to UPF format
     Using radial grid of  967 points,  6 beta functions with:
                l(1) =   0
                l(2) =   0
                l(3) =   1
                l(4) =   1
                l(5) =   2
                l(6) =   2
     Q(r) pseudized with  8 coefficients,  rinner =    1.300   1.300   1.300
                                                       1.300   1.300

     PseudoPot. # 3 for H  read from file:
     /home/camp/zhonxu/pseudo/h_pbe_v1.uspp.F.UPF
     MD5 check sum: 3408e3ff4ec8b0a4e358431e7e038a48
     Pseudo is Ultrasoft, Zval =  1.0
     Generated by new atomic code, or converted to UPF format
     Using radial grid of  615 points,  2 beta functions with:
                l(1) =   0
                l(2) =   0
     Q(r) pseudized with  8 coefficients,  rinner =    0.700

     atomic species   valence    mass     pseudopotential
        O0             6.00    15.99940     O ( 1.00)
        Ru1           16.00   101.07000     Ru( 1.00)
        H2             1.00     1.00794     H ( 1.00)

     Simplified LDA+U calculation (l_max = 2) with parameters (eV):
     atomic species    L          U    alpha       J0     beta
        Ru1            2     0.0000   0.0000   0.0000   0.0000

     No symmetry found

   Cartesian axes

     site n.     atom                  positions (alat units)
         1           O0  tau(   1) = (   0.0000000   0.0000000   1.5976288  )
         2           O0  tau(   2) = (   0.0000000   0.5133323   1.7135376  )
         3           Ru1 tau(   3) = (   0.2500000   0.5133323   1.9265237  )
         4           Ru1 tau(   4) = (   0.0000000   0.0000000   1.9104429  )
         5           O0  tau(   5) = (   0.2500000   0.8315984   1.9133628  )
         6           O0  tau(   6) = (   0.2500000   0.1950663   1.9137014  )
         7           O0  tau(   7) = (   0.0000000   0.5133323   2.1143307  )
         8           O0  tau(   8) = (   0.0000000   0.0000000   2.2232570  )
         9           Ru1 tau(   9) = (   0.2500000   0.0000000   2.4362008  )
        10           Ru1 tau(  10) = (   0.0000000   0.5133323   2.4139839  )
        11           O0  tau(  11) = (   0.2500000   0.7083986   2.4352275  )
        12           O0  tau(  12) = (   0.2500000   0.3182660   2.4428024  )
        13           O0  tau(  13) = (   0.0000000   0.0000000   2.6141054  )
        14           O0  tau(  14) = (   0.5000000   0.0000000   1.5980943  )
        15           O0  tau(  15) = (   0.5000000   0.5133323   1.7110408  )
        16           Ru1 tau(  16) = (   0.7500000   0.5133323   1.9265660  )
        17           Ru1 tau(  17) = (   0.5000000   0.0000000   1.9113316  )
        18           O0  tau(  18) = (   0.7500000   0.8315984   1.9134475  )
        19           O0  tau(  19) = (   0.7500000   0.1950663   1.9137014  )
        20           O0  tau(  20) = (   0.5000000   0.5133323   2.1248255  )
        21           O0  tau(  21) = (   0.5000000   0.0000000   2.2236379  )
        22           Ru1 tau(  22) = (   0.7500000   0.0000000   2.4362855  )
        23           Ru1 tau(  23) = (   0.5000000   0.5133323   2.4472458  )
        24           O0  tau(  24) = (   0.7500000   0.7083986   2.4352698  )
        25           O0  tau(  25) = (   0.7500000   0.3182660   2.4426755  )
        26           O0  tau(  26) = (   0.5000000   0.0000000   2.6042453  )
        27           H2  tau(  27) = (  -0.0003700   0.6408749   1.6195494  )
        28           H2  tau(  28) = (   0.4997300   0.6446633   1.6222578  )
        29           H2  tau(  29) = (   0.1462300   0.0299786   1.5449853  )
        30           H2  tau(  30) = (   0.6457400   0.0313441   1.5450699  )
        31           O0  tau(  31) = (   0.5000700   0.5415759   2.7547279  )
        32           O0  tau(  32) = (   0.4999900   0.3417972   2.8749108  )
        33           H2  tau(  33) = (   0.4999600   0.4009947   3.0215847  )

     number of k points=    10  Methfessel-Paxton smearing, width (Ry)=  0.0100
                       cart. coord. in units 2pi/alat
        k(    1) = (   0.0000000   0.0000000   0.0000000), wk =   0.1250000
        k(    2) = (   0.0000000   0.2435070   0.0000000), wk =   0.2500000
        k(    3) = (   0.0000000  -0.4870139   0.0000000), wk =   0.1250000
        k(    4) = (   0.2500000   0.0000000   0.0000000), wk =   0.2500000
        k(    5) = (   0.2500000   0.2435070   0.0000000), wk =   0.2500000
        k(    6) = (   0.2500000  -0.4870139   0.0000000), wk =   0.2500000
        k(    7) = (  -0.5000000   0.0000000   0.0000000), wk =   0.1250000
        k(    8) = (  -0.5000000   0.2435070   0.0000000), wk =   0.2500000
        k(    9) = (  -0.5000000  -0.4870139   0.0000000), wk =   0.1250000
        k(   10) = (  -0.2500000   0.2435070   0.0000000), wk =   0.2500000

     Largest allocated arrays     est. size (Mb)     dimensions
     Largest temporary arrays     est. size (Mb)     dimensions

     Check: negative/imaginary core charge=   -0.000003    0.000000

     Initial potential from superposition of free atoms
     Check: negative starting charge=   -0.523679

     starting charge  244.99980, renormalised to  253.00000

     negative rho (up, down):  0.541E+00 0.000E+00
     Number of +U iterations with fixed ns =  0
     Starting occupations:
 --- enter write_ns ---
 LDA+U parameters:
U( 2)     =  0.00000000
alpha( 2) =  0.00000000
atom    3   Tr[ns(na)] =   6.00000
    eigenvalues:
  0.600  0.600  0.600  0.600  0.600
    eigenvectors:
  1.000  0.000  0.000  0.000  0.000
  0.000  1.000  0.000  0.000  0.000
  0.000  0.000  1.000  0.000  0.000
  0.000  0.000  0.000  1.000  0.000
  0.000  0.000  0.000  0.000  1.000
    occupations:
  0.600  0.000  0.000  0.000  0.000
  0.000  0.600  0.000  0.000  0.000
  0.000  0.000  0.600  0.000  0.000
  0.000  0.000  0.000  0.600  0.000
  0.000  0.000  0.000  0.000  0.600
atom    4   Tr[ns(na)] =   6.00000
    eigenvalues:
  0.600  0.600  0.600  0.600  0.600
    eigenvectors:
  1.000  0.000  0.000  0.000  0.000
  0.000  1.000  0.000  0.000  0.000
  0.000  0.000  1.000  0.000  0.000
  0.000  0.000  0.000  1.000  0.000
  0.000  0.000  0.000  0.000  1.000
    occupations:
  0.600  0.000  0.000  0.000  0.000
  0.000  0.600  0.000  0.000  0.000
  0.000  0.000  0.600  0.000  0.000
  0.000  0.000  0.000  0.600  0.000
  0.000  0.000  0.000  0.000  0.600
atom    9   Tr[ns(na)] =   6.00000
    eigenvalues:
  0.600  0.600  0.600  0.600  0.600
    eigenvectors:
  1.000  0.000  0.000  0.000  0.000
  0.000  1.000  0.000  0.000  0.000
  0.000  0.000  1.000  0.000  0.000
  0.000  0.000  0.000  1.000  0.000
  0.000  0.000  0.000  0.000  1.000
    occupations:
  0.600  0.000  0.000  0.000  0.000
  0.000  0.600  0.000  0.000  0.000
  0.000  0.000  0.600  0.000  0.000
  0.000  0.000  0.000  0.600  0.000
  0.000  0.000  0.000  0.000  0.600
atom   10   Tr[ns(na)] =   6.00000
    eigenvalues:
  0.600  0.600  0.600  0.600  0.600
    eigenvectors:
  1.000  0.000  0.000  0.000  0.000
  0.000  1.000  0.000  0.000  0.000
  0.000  0.000  1.000  0.000  0.000
  0.000  0.000  0.000  1.000  0.000
  0.000  0.000  0.000  0.000  1.000
    occupations:
  0.600  0.000  0.000  0.000  0.000
  0.000  0.600  0.000  0.000  0.000
  0.000  0.000  0.600  0.000  0.000
  0.000  0.000  0.000  0.600  0.000
  0.000  0.000  0.000  0.000  0.600
atom   16   Tr[ns(na)] =   6.00000
    eigenvalues:
  0.600  0.600  0.600  0.600  0.600
    eigenvectors:
  1.000  0.000  0.000  0.000  0.000
  0.000  1.000  0.000  0.000  0.000
  0.000  0.000  1.000  0.000  0.000
  0.000  0.000  0.000  1.000  0.000
  0.000  0.000  0.000  0.000  1.000
    occupations:
  0.600  0.000  0.000  0.000  0.000
  0.000  0.600  0.000  0.000  0.000
  0.000  0.000  0.600  0.000  0.000
  0.000  0.000  0.000  0.600  0.000
  0.000  0.000  0.000  0.000  0.600
atom   17   Tr[ns(na)] =   6.00000
    eigenvalues:
  0.600  0.600  0.600  0.600  0.600
    eigenvectors:
  1.000  0.000  0.000  0.000  0.000
  0.000  1.000  0.000  0.000  0.000
  0.000  0.000  1.000  0.000  0.000
  0.000  0.000  0.000  1.000  0.000
  0.000  0.000  0.000  0.000  1.000
    occupations:
  0.600  0.000  0.000  0.000  0.000
  0.000  0.600  0.000  0.000  0.000
  0.000  0.000  0.600  0.000  0.000
  0.000  0.000  0.000  0.600  0.000
  0.000  0.000  0.000  0.000  0.600
atom   22   Tr[ns(na)] =   6.00000
    eigenvalues:
  0.600  0.600  0.600  0.600  0.600
    eigenvectors:
  1.000  0.000  0.000  0.000  0.000
  0.000  1.000  0.000  0.000  0.000
  0.000  0.000  1.000  0.000  0.000
[...]
  1.000  0.000  0.000  0.000  0.000
    occupations:
  0.566  0.000  0.001  0.034  0.000
  0.000  0.812  0.000  0.000 -0.006
  0.001  0.000  0.733 -0.001  0.000
  0.034  0.000 -0.001  0.922 -0.000
  0.000 -0.006  0.000 -0.000  0.546
atom   16   Tr[ns(na)] =   7.14073
    eigenvalues:
  0.531  0.574  0.721  0.801  0.943
    eigenvectors:
  0.001  0.192  0.004  0.000  0.802
  0.997  0.002  0.000  0.000  0.000
  0.000  0.000  0.976  0.017  0.007
  0.002  0.805  0.003  0.000  0.191
  0.000  0.000  0.017  0.983  0.000
    occupations:
  0.871  0.005  0.017 -0.145 -0.000
  0.005  0.532  0.000 -0.000 -0.001
  0.017  0.000  0.723 -0.005 -0.011
 -0.145 -0.000 -0.005  0.645  0.000
 -0.000 -0.001 -0.011  0.000  0.800
atom   17   Tr[ns(na)] =   7.13373
    eigenvalues:
  0.559  0.603  0.694  0.770  0.941
    eigenvectors:
  0.000  0.991  0.000  0.000  0.008
  0.000  0.000  0.023  0.977  0.000
  0.000  0.000  0.977  0.023  0.000
  0.000  0.008  0.000  0.000  0.992
  1.000  0.000  0.000  0.000  0.000
    occupations:
  0.605 -0.001  0.000  0.031  0.001
 -0.001  0.768  0.011 -0.001 -0.001
  0.000  0.011  0.696  0.001  0.000
  0.031 -0.001  0.001  0.938 -0.000
  0.001 -0.001  0.000 -0.000  0.559
atom   22   Tr[ns(na)] =   7.10648
    eigenvalues:
  0.587  0.605  0.765  0.795  0.801
    eigenvectors:
  0.000  0.159  0.002  0.824  0.015
  0.999  0.001  0.000  0.000  0.000
  0.000  0.000  0.996  0.003  0.001
  0.001  0.839  0.001  0.156  0.003
  0.000  0.000  0.001  0.017  0.982
    occupations:
  0.765  0.003 -0.002 -0.070  0.001
  0.003  0.587  0.001 -0.002  0.000
 -0.002  0.001  0.765 -0.002  0.001
 -0.070 -0.002 -0.002  0.635  0.000
  0.001  0.000  0.001  0.000  0.800
atom   23   Tr[ns(na)] =   7.16401
    eigenvalues:
  0.556  0.595  0.723  0.787  0.920
    eigenvectors:
  0.000  0.997  0.000  0.000  0.003
  0.001  0.000  0.999  0.000  0.000
  0.000  0.000  0.000  1.000  0.000
  0.000  0.003  0.000  0.000  0.997
  0.999  0.000  0.001  0.000  0.000
    occupations:
  0.596  0.000  0.003  0.018 -0.000
  0.000  0.723  0.000  0.000 -0.004
  0.003  0.000  0.787 -0.001 -0.000
  0.018  0.000 -0.001  0.919 -0.000
 -0.000 -0.004 -0.000 -0.000  0.557
N of occupied +U levels =  57.0917439
 --- exit write_ns ---

[...]

     total energy              =   -2196.74587523 Ry
     Harris-Foulkes estimate   =   -2196.74587604 Ry
     estimated scf accuracy    <       0.00000806 Ry

     iteration #  6     ecut=    40.00 Ry     beta=0.30
     Davidson diagonalization with overlap
     ethr =  3.18E-09,  avg # of iterations =  1.0

     negative rho (up, down):  0.581E+00 0.000E+00

     End of self-consistent calculation
 --- enter write_ns ---
 LDA+U parameters:
U( 2)     =  0.00000000
alpha( 2) =  0.00000000
atom    3   Tr[ns(na)] =   7.14548
    eigenvalues:
  0.531  0.574  0.722  0.802  0.943
    eigenvectors:
  0.001  0.192  0.004  0.000  0.802
  0.997  0.003  0.000  0.000  0.000
  0.000  0.000  0.974  0.019  0.007
  0.002  0.805  0.003  0.000  0.191
  0.000  0.000  0.019  0.981  0.000
    occupations:
  0.871 -0.005  0.017 -0.145 -0.000
 -0.005  0.532 -0.000  0.000 -0.001
  0.017 -0.000  0.725 -0.005  0.011
 -0.145  0.000 -0.005  0.645 -0.000
 -0.000 -0.001  0.011 -0.000  0.801
atom    4   Tr[ns(na)] =   7.13801
    eigenvalues:
  0.559  0.601  0.690  0.776  0.942
    eigenvectors:
  0.000  0.991  0.000  0.000  0.009
  0.000  0.000  0.019  0.981  0.000
  0.000  0.000  0.981  0.019  0.000
  0.000  0.008  0.000  0.000  0.991
  1.000  0.000  0.000  0.000  0.000
    occupations:
  0.604 -0.001  0.000  0.031  0.001
 -0.001  0.775  0.012 -0.001 -0.000
  0.000  0.012  0.692  0.001  0.000
  0.031 -0.001  0.001  0.939 -0.000
  0.001 -0.000  0.000 -0.000  0.559
atom    9   Tr[ns(na)] =   7.10925
    eigenvalues:
  0.587  0.605  0.765  0.796  0.802
    eigenvectors:
  0.000  0.159  0.003  0.717  0.121
  0.995  0.004  0.000  0.000  0.000
  0.000  0.000  0.994  0.003  0.002
  0.004  0.837  0.002  0.134  0.023
  0.000  0.000  0.000  0.145  0.854
    occupations:
  0.766 -0.003 -0.003 -0.070  0.002
 -0.003  0.587  0.001  0.002  0.000
 -0.003  0.001  0.765 -0.002 -0.001
 -0.070  0.002 -0.002  0.636 -0.001
  0.002  0.000 -0.001 -0.001  0.801
atom   10   Tr[ns(na)] =   7.15556
    eigenvalues:
  0.546  0.563  0.732  0.812  0.925
    eigenvectors:
  0.000  0.991  0.000  0.000  0.009
  0.000  0.000  0.000  1.000  0.000
  0.000  0.000  1.000  0.000  0.000
  0.000  0.009  0.000  0.000  0.991
  1.000  0.000  0.000  0.000  0.000
    occupations:
  0.566  0.000  0.001  0.034  0.000
  0.000  0.812  0.000  0.000 -0.006
  0.001  0.000  0.732 -0.001  0.000
  0.034  0.000 -0.001  0.922 -0.000
  0.000 -0.006  0.000 -0.000  0.546
atom   16   Tr[ns(na)] =   7.14552
    eigenvalues:
  0.531  0.574  0.722  0.802  0.943
    eigenvectors:
  0.001  0.192  0.004  0.000  0.802
  0.997  0.002  0.000  0.000  0.000
  0.000  0.000  0.976  0.017  0.007
  0.002  0.805  0.003  0.000  0.191
  0.000  0.000  0.017  0.983  0.000
    occupations:
  0.871  0.005  0.017 -0.145 -0.000
  0.005  0.532  0.000 -0.000 -0.001
  0.017  0.000  0.724 -0.005 -0.010
 -0.145 -0.000 -0.005  0.645  0.000
 -0.000 -0.001 -0.010  0.000  0.801
atom   17   Tr[ns(na)] =   7.13430
    eigenvalues:
  0.559  0.603  0.694  0.770  0.941
    eigenvectors:
  0.000  0.991  0.000  0.000  0.008
  0.000  0.000  0.023  0.976  0.000
  0.000  0.000  0.976  0.023  0.000
  0.000  0.008  0.000  0.000  0.992
  1.000  0.000  0.000  0.000  0.000
    occupations:
  0.605 -0.001  0.000  0.031  0.001
 -0.001  0.768  0.011 -0.001 -0.001
  0.000  0.011  0.696  0.001  0.000
  0.031 -0.001  0.001  0.938 -0.000
  0.001 -0.001  0.000 -0.000  0.559
atom   22   Tr[ns(na)] =   7.10994
    eigenvalues:
  0.587  0.605  0.766  0.796  0.801
    eigenvectors:
  0.000  0.159  0.002  0.822  0.017
  0.999  0.001  0.000  0.000  0.000
  0.000  0.000  0.996  0.003  0.001
  0.001  0.840  0.001  0.155  0.003
  0.000  0.000  0.002  0.020  0.979
    occupations:
  0.766  0.003 -0.002 -0.070  0.001
  0.003  0.587  0.001 -0.002  0.000
 -0.002  0.001  0.766 -0.002  0.001
 -0.070 -0.002 -0.002  0.636  0.000
  0.001  0.000  0.001  0.000  0.801
atom   23   Tr[ns(na)] =   7.15525
    eigenvalues:
  0.556  0.594  0.722  0.786  0.919
    eigenvectors:
  0.000  0.997  0.000  0.000  0.003
  0.001  0.000  0.999  0.000  0.000
  0.000  0.000  0.000  1.000  0.000
  0.000  0.003  0.000  0.000  0.997
  0.999  0.000  0.001  0.000  0.000
    occupations:
  0.595  0.000  0.003  0.018 -0.000
  0.000  0.722  0.000  0.000 -0.004
  0.003  0.000  0.786 -0.001 -0.000
  0.018  0.000 -0.001  0.918 -0.000
 -0.000 -0.004 -0.000 -0.000  0.556
N of occupied +U levels =  57.0933084
 --- exit write_ns ---

[...]

          k = 0.2500-0.4870 0.0000 ( 30468 PWs)   bands (ev):

[...]

          k =-0.2500 0.2435 0.0000 ( 30434 PWs)   bands (ev):

   -74.3907 -74.3829 -74.0981 -74.0851 -74.0540 -73.8299 -73.8216 -73.8145
   -44.5382 -44.4057 -44.3308 -44.3225 -44.3175 -44.3016 -44.2725 -44.2553
   -44.2376 -44.1191 -44.1022 -44.0652 -44.0123 -43.9938 -43.9452 -43.8854
   -43.8821 -43.7912 -43.7636 -43.7541 -43.6833 -43.6702 -43.6620 -43.6593
   -23.1048 -20.5657 -20.1347 -20.0353 -19.9721 -19.7781 -19.4989 -19.4361
   -19.3516 -19.2481 -19.2114 -19.1698 -19.0425 -19.0201 -18.8795 -18.8582
   -18.8138 -18.7845 -18.4408 -16.9155  -8.6902  -8.4014  -8.1607  -8.1294
    -8.0949  -7.8227  -7.7653  -7.5816  -7.5035  -7.4104  -7.3431  -7.2777
    -7.2137  -7.1491  -7.1269  -7.0349  -6.9445  -6.8492  -6.7769  -6.5382
    -6.3744  -6.3283  -6.1910  -6.0775  -6.0336  -5.7288  -5.5508  -5.4581
    -5.3479  -5.2201  -5.1169  -5.0571  -5.0055  -4.9171  -4.8658  -4.8014
    -4.7368  -4.6239  -4.5798  -4.4751  -4.4342  -4.3872  -4.2767  -4.0946
    -4.0118  -3.8218  -3.7231  -3.7106  -3.5857  -3.5270  -3.4462  -3.3617
    -3.1659  -3.1109  -2.9695  -2.7480  -2.7007  -2.3997  -1.9926  -1.7524
    -1.5009  -1.4089  -1.3113  -1.2527  -1.1656  -1.0281  -1.0048  -0.9757
    -0.9550  -0.9362  -0.8136  -0.7627  -0.7149  -0.6067  -0.4953  -0.2586
    -0.1672  -0.0848   0.0758   0.2318   0.2993   0.3944   0.5605   1.1389
     1.8008   1.8849   2.0208   2.0625   2.5559   2.8947   2.9653   3.2062
     3.3884   3.5024   3.5837   3.6206   3.7271   3.8662   3.9939   4.1085
     4.3404   4.4817   4.7585   5.2777   5.6576   5.8291   6.1041   6.1386
     6.2346   6.5436   6.6119   6.7581   6.9008   7.1369   7.1690   7.4633
     7.6366   7.7804   7.9587   8.0772   8.1551   8.4403   8.4834   8.5787
     8.6459   8.7256   8.9210   9.0089   9.1122   9.2638   9.3570   9.4268
     9.5926   9.6829   9.7197   9.8683  10.0305  10.1117  10.1647  10.2513
    10.2911  10.4410  10.5140  10.6212  10.6395  10.7863  10.8315  10.9407
    11.0072  11.1499  11.2642  11.3590  11.3972  11.5419  11.5963  11.7027
    11.7674  11.8674  11.9720  12.0185  12.0447  12.0952  12.1750  12.2519
    12.3707  12.3928  12.5037  12.6086  12.6573  12.7511  12.8001  12.8520
    12.9186  12.9774  13.0462  13.1458  13.1741  13.3061  13.3684  13.4445
    13.5355  13.6452  13.7374  13.8088  13.9095  13.9614  14.0106  14.1394
    14.1871  14.2837  14.4005  14.4543  14.5636  14.6452  14.7085  14.7458
    14.8178  14.8713  14.9585  15.0454  15.1558  15.1902  15.2886  15.3003
    15.4131  15.4626  15.5375  15.6160  15.7175  15.7819  15.8271  15.8813
    15.9468  15.9890  16.0601  16.1272  16.1717  16.2127  16.2909  16.3124
    16.3978  16.4211  16.5624  16.6303  16.7056  16.7400  16.7991  16.8863
    16.9362  16.9656  17.0335  17.1144  17.2500  17.3182  17.3423  17.4742
    17.4934  17.5427  17.5737  17.6650  17.7391  17.7801  17.8128  17.9199
    18.0007  18.0117  18.0758  18.1048  18.1865  18.2421  18.3289  18.3831
    18.4590  18.4941  18.6289  18.6768  18.7749  18.8699  18.8858  18.9548
    19.0504  19.1371  19.2184  19.2686  19.3067  19.4249  19.4921  19.5832
    19.6186  19.7015  19.7804  19.8223  19.8824  19.9621  20.0038  20.1102
    20.1952  20.2217  20.3151  20.4830  20.5156  20.5756  20.6537  20.7156
    20.8542  20.8971  20.9446  20.9676  21.0384  21.0663  21.1310  21.2390
    21.3068  21.3446  21.4287  21.4491  21.5149  21.5576  21.6171  21.6551
    21.7259  21.8016  21.8404  21.9264  21.9643  22.0297  22.0630  22.1332
    22.2060  22.2818  22.3240  22.4160  22.4701  22.5134  22.6115

     the Fermi energy is    -0.4404 ev

!    total energy              =   -2196.74587509 Ry
     Harris-Foulkes estimate   =   -2196.74587570 Ry
     estimated scf accuracy    <       0.00000074 Ry

     The total energy is the sum of the following terms:

     one-electron contribution =  -25578.19170426 Ry
     hartree contribution      =   12816.75561286 Ry
     xc contribution           =    -345.44598066 Ry
     ewald contribution        =   10910.13596480 Ry
     Hubbard energy            =       0.00000000 Ry
     smearing contrib. (-TS)   =       0.00023215 Ry

     convergence has been achieved in   6 iterations

     Forces acting on atoms (Ry/au):

     negative rho (up, down):  0.581E+00 0.000E+00
     atom    1 type  1   force =    -0.00461966   -0.01044880   -0.00008723
     atom    2 type  1   force =    -0.00010741    0.00743928    0.00017603
     atom    3 type  2   force =     0.03634958   -0.00060557   -0.00024099
     atom    4 type  2   force =     0.00420155    0.00608758   -0.00000427
     atom    5 type  1   force =     0.00176751   -0.02811900    0.00006426
     atom    6 type  1   force =     0.00143438    0.02994485    0.00005182
     atom    7 type  1   force =     0.00033548   -0.00512189   -0.00076953
     atom    8 type  1   force =    -0.00014372    0.00000505    0.00013991
     atom    9 type  2   force =    -0.01332122    0.00003117    0.00010943
     atom   10 type  2   force =     0.00007227    0.00151659   -0.00061242
     atom   11 type  1   force =    -0.01198071    0.00808669    0.00001946
     atom   12 type  1   force =    -0.00577857   -0.00455518    0.00055660
     atom   13 type  1   force =    -0.00152309   -0.00173051   -0.00023849
     atom   14 type  1   force =    -0.00538475   -0.01118367   -0.00005745
     atom   15 type  1   force =    -0.00007293    0.00655068    0.00014097
     atom   16 type  2   force =    -0.03677390   -0.00070324   -0.00032670
     atom   17 type  2   force =     0.00396783    0.00636071   -0.00000267
     atom   18 type  1   force =     0.00020437   -0.02845520    0.00002325
     atom   19 type  1   force =    -0.00007761    0.03008806    0.00000661
     atom   20 type  1   force =     0.00008297   -0.00435638   -0.00076541
     atom   21 type  1   force =    -0.00023761    0.00037748    0.00005531
     atom   22 type  2   force =     0.01530472   -0.00039867    0.00007103
     atom   23 type  2   force =     0.00008930    0.00146248   -0.00001335
     atom   24 type  1   force =     0.01169329    0.00798105    0.00003623
     atom   25 type  1   force =     0.00587851   -0.00449242    0.00053844
     atom   26 type  1   force =    -0.00184076   -0.00714070    0.00006592
     atom   27 type  3   force =    -0.00000672    0.00001529    0.00037648
     atom   28 type  3   force =    -0.00000243   -0.00002626    0.00015112
     atom   29 type  3   force =     0.00021363   -0.00000377    0.00038722
     atom   30 type  3   force =     0.00026145    0.00000958    0.00045015
     atom   31 type  1   force =     0.00009032    0.00032787   -0.00004329
     atom   32 type  1   force =    -0.00006984    0.00019861    0.00027987
     atom   33 type  3   force =    -0.00000625    0.00085825   -0.00053829

     Total force =     0.002095     Total SCF correction =     0.001490
     SCF correction compared to forces is large: reduce conv_thr to get better values

     entering subroutine stress ...

     negative rho (up, down):  0.581E+00 0.000E+00
          total   stress  (Ry/bohr**3)                   (kbar)     P=   -6.59
  -0.00005295   0.00000124   0.00000265         -7.79      0.18      0.39
   0.00000124  -0.00004063   0.00000385          0.18     -5.98      0.57
   0.00000265   0.00000385  -0.00004089          0.39      0.57     -6.01

     bfgs converged in   2 scf cycles and   1 bfgs steps
     (criteria: energy < 0.10E-03, force < 0.10E-02)

     End of BFGS Geometry Optimization

     Final energy   =   -2196.7458750949 Ry
Begin final coordinates

ATOMIC_POSITIONS (crystal)
O0       0.000000000   0.000000000   0.377526013    0   0   1
O0       0.000000000   0.500000000   0.404926781    0   0   1
Ru1      0.250000000   0.500000000   0.455244818    0   0   1
Ru1      0.000000000   0.000000000   0.451449277    0   0   1
O0       0.250000000   0.810000000   0.452144113    0   0   1
O0       0.250000000   0.190000000   0.452223828    0   0   1
O0       0.000000000   0.500000000   0.499613494    0   0   1
O0       0.000000000   0.000000000   0.525376240    0   0   1
Ru1      0.250000000   0.000000000   0.575687576    0   0   1
Ru1      0.000000000   0.500000000   0.570422516    0   0   1
O0       0.250000000   0.690000000   0.575462146    0   0   1
O0       0.250000000   0.310000000   0.577264876    0   0   1
O0       0.000000000   0.000000000   0.617722970    0   0   1
O0       0.500000000   0.000000000   0.377634081    0   0   1
O0       0.500000000   0.500000000   0.404332816    0   0   1
Ru1      0.750000000   0.500000000   0.455251039    0   0   1
Ru1      0.500000000   0.000000000   0.451660790    0   0   1
O0       0.750000000   0.810000000   0.452163551    0   0   1
O0       0.750000000   0.190000000   0.452223122    0   0   1
O0       0.500000000   0.500000000   0.502091250    0   0   1
O0       0.500000000   0.000000000   0.525461655    0   0   1
Ru1      0.750000000   0.000000000   0.575708473    0   0   1
Ru1      0.500000000   0.500000000   0.578301961    0   0   1
O0       0.750000000   0.690000000   0.575472409    0   0   1
O0       0.750000000   0.310000000   0.577234357    0   0   1
O0       0.500000000   0.000000000   0.615402971    0   0   1
H2      -0.000370381   0.624233943   0.382717676
H2       0.499730423   0.627906770   0.383355051
H2       0.146255799   0.029201326   0.365097368
H2       0.645757373   0.030529734   0.365119951
O0       0.500079481   0.527506772   0.650959212
O0       0.499985322   0.332952159   0.679352079
H2       0.499959843   0.390672668   0.714015541
End final coordinates

     General routines

     Parallel routines
     Hubbard U routines

   This run was terminated on:  22: 0:41   5Jun2014

   JOB DONE.
Running PBS batch system epilogue script
Job id: 381400.audhumbla.fysik.dtu.dk
Username: zhonxu
Groupname: campgst
Jobname: RuO2/Eads-2-layers/OOH-U-0.0
Sessionid: 25962
Queuename: verylong
Accounting:
This job has allocated the following 16 nodes:
a103 a103 a103 a103 a103 a103 a103 a103 a096 a096 a096 a096 a096 a096 a096 a096
Finished epilogue job 381400.audhumbla.fysik.dtu.dk for zhonxu