     Program PWSCF v.5.0.2 (svn rev. 9656) starts on  7Apr2014 at 20:32:37

     Current dimensions of program PWSCF are:
     Max number of different atomic species (ntypx) = 10
     Max number of k-points (npk) =  40000
     Max angular momentum in pseudopotentials (lmaxx) =  3
     Reading input from pwscf.in
Warning: card &CELL ignored
Warning: card / ignored

     Subspace diagonalization in iterative solution of the eigenvalue problem:
     a serial algorithm will be used

     bravais-lattice index     =            0
     lattice parameter (alat)  =      12.0187  a.u.
     unit-cell volume          =    7280.5819 (a.u.)^3
     number of atoms/cell      =           31
     number of atomic types    =            3
     number of electrons       =       238.00
     number of Kohn-Sham states=          357
     kinetic-energy cutoff     =      40.0000  Ry
     charge density cutoff     =     500.0000  Ry
     convergence threshold     =      1.0E-06
     mixing beta               =       0.3000
     number of iterations used =            8  plain     mixing
     Exchange-correlation      = SLA  PW   PBE  PBE ( 1 4 3 4 0)
     EXX-fraction              =        0.00
     nstep                     =           50

     celldm(1)=  12.018658  celldm(2)=   0.000000  celldm(3)=   0.000000
     celldm(4)=   0.000000  celldm(5)=   0.000000  celldm(6)=   0.000000

     crystal axes: (cart. coord. in units of alat)
               a(1) = (   1.000000   0.000000   0.000000 )
               a(2) = (   0.000000   1.009517   0.000000 )
               a(3) = (   0.000000   0.000000   4.154171 )

     reciprocal axes: (cart. coord. in units 2 pi/alat)
               b(1) = (  1.000000  0.000000  0.000000 )
               b(2) = (  0.000000  0.990572  0.000000 )
               b(3) = (  0.000000  0.000000  0.240722 )

     PseudoPot. # 1 for O  read from file:
     /home/camp/zhonxu/pseudo/o_pbe_v1.01.uspp.F.UPF
     MD5 check sum: 2bcb18d16ea4b960afae9ec6d52f22d2
     Pseudo is Ultrasoft + core correction, Zval =  6.0
     Generated by new atomic code, or converted to UPF format
     Using radial grid of  737 points,  5 beta functions with:
                l(1) =   0
                l(2) =   0
                l(3) =   1
                l(4) =   1
                l(5) =   2
     Q(r) pseudized with  8 coefficients,  rinner =    0.900   0.900   0.900
                                                       0.900   0.900

     PseudoPot. # 2 for Ir read from file:
     /home/camp/zhonxu/pseudo/ir_pbe_v1.uspp.F.UPF
     MD5 check sum: abf987a9674477536ede83817f8f8b70
     Pseudo is Ultrasoft + core correction, Zval = 15.0
     Generated by new atomic code, or converted to UPF format
     Using radial grid of  983 points,  7 beta functions with:
                l(1) =   0
                l(2) =   0
                l(3) =   1
                l(4) =   1
                l(5) =   1
                l(6) =   2
                l(7) =   2
     Q(r) pseudized with  8 coefficients,  rinner =    1.350   1.350   1.350
                                                       1.350   1.350

     PseudoPot. # 3 for H  read from file:
     /home/camp/zhonxu/pseudo/h_pbe_v1.uspp.F.UPF
     MD5 check sum: 3408e3ff4ec8b0a4e358431e7e038a48
     Pseudo is Ultrasoft, Zval =  1.0
     Generated by new atomic code, or converted to UPF format
     Using radial grid of  615 points,  2 beta functions with:
                l(1) =   0
                l(2) =   0
     Q(r) pseudized with  8 coefficients,  rinner =    0.700

     atomic species   valence    mass     pseudopotential
        O0             6.00    15.99940     O ( 1.00)
        Ir1           15.00   192.22000     Ir( 1.00)
        H2             1.00     1.00794     H ( 1.00)

     Starting magnetic structure
     atomic species   magnetization
        O0           0.000
        Ir1          0.000
        H2           0.000

     No symmetry found

   Cartesian axes

     site n.     atom                  positions (alat units)
         1           O0  tau(   1) = (   0.0000000   0.0000000   1.5732262  )
         2           O0  tau(   2) = (   0.0000000   0.5047586   1.6698522  )
         3           Ir1 tau(   3) = (   0.2500000   0.5047586   1.8782255  )
         4           Ir1 tau(   4) = (   0.0000000   0.0000000   1.8842075  )
         5           O0  tau(   5) = (   0.2500000   0.8177090   1.8820058  )
         6           O0  tau(   6) = (   0.2500000   0.1918083   1.8805103  )
         7           O0  tau(   7) = (   0.0000000   0.5047586   2.0704805  )
         8           O0  tau(   8) = (   0.0000000   0.0000000   2.1996337  )
         9           Ir1 tau(   9) = (   0.2500000   0.0000000   2.3950459  )
        10           Ir1 tau(  10) = (   0.0000000   0.5047586   2.3772245  )
        11           O0  tau(  11) = (   0.2500000   0.6965669   2.3867791  )
        12           O0  tau(  12) = (   0.2500000   0.3129503   2.3868622  )
        13           O0  tau(  13) = (   0.0000000   0.0000000   2.5802389  )
        14           O0  tau(  14) = (   0.5000000   0.0000000   1.5728939  )
        15           O0  tau(  15) = (   0.5000000   0.5047586   1.6661135  )
        16           Ir1 tau(  16) = (   0.7500000   0.5047586   1.8781839  )
        17           Ir1 tau(  17) = (   0.5000000   0.0000000   1.8839998  )
        18           O0  tau(  18) = (   0.7500000   0.8177090   1.8820473  )
        19           O0  tau(  19) = (   0.7500000   0.1918083   1.8805518  )
        20           O0  tau(  20) = (   0.5000000   0.5047586   2.0728484  )
        21           O0  tau(  21) = (   0.5000000   0.0000000   2.1993429  )
        22           Ir1 tau(  22) = (   0.7500000   0.0000000   2.3950875  )
        23           Ir1 tau(  23) = (   0.5000000   0.5047586   2.3984524  )
        24           O0  tau(  24) = (   0.7500000   0.6965669   2.3868207  )
        25           O0  tau(  25) = (   0.7500000   0.3129503   2.3868622  )
        26           O0  tau(  26) = (   0.5000000   0.0000000   2.5790342  )
        27           H2  tau(  27) = (  -0.0000600   0.6410031   1.5936647  )
        28           H2  tau(  28) = (   0.4999400   0.6427899   1.5931662  )
        29           H2  tau(  29) = (   0.1435300   0.0338794   1.5249132  )
        30           H2  tau(  30) = (   0.6435300   0.0340712   1.5248301  )
        31           O0  tau(  31) = (   0.4999900   0.5041428   2.6768649  )

     number of k points=    20  Methfessel-Paxton smearing, width (Ry)=  0.0100
                       cart. coord. in units 2pi/alat
        k(    1) = (   0.0000000   0.0000000   0.0000000), wk =   0.0625000
        k(    2) = (   0.0000000   0.2476431   0.0000000), wk =   0.1250000
        k(    3) = (   0.0000000  -0.4952862   0.0000000), wk =   0.0625000
        k(    4) = (   0.2500000   0.0000000   0.0000000), wk =   0.1250000
        k(    5) = (   0.2500000   0.2476431   0.0000000), wk =   0.1250000
        k(    6) = (   0.2500000  -0.4952862   0.0000000), wk =   0.1250000
        k(    7) = (  -0.5000000   0.0000000   0.0000000), wk =   0.0625000
        k(    8) = (  -0.5000000   0.2476431   0.0000000), wk =   0.1250000
        k(    9) = (  -0.5000000  -0.4952862   0.0000000), wk =   0.0625000
        k(   10) = (  -0.2500000   0.2476431   0.0000000), wk =   0.1250000
        k(   11) = (   0.0000000   0.0000000   0.0000000), wk =   0.0625000
        k(   12) = (   0.0000000   0.2476431   0.0000000), wk =   0.1250000
        k(   13) = (   0.0000000  -0.4952862   0.0000000), wk =   0.0625000
        k(   14) = (   0.2500000   0.0000000   0.0000000), wk =   0.1250000
        k(   15) = (   0.2500000   0.2476431   0.0000000), wk =   0.1250000
        k(   16) = (   0.2500000  -0.4952862   0.0000000), wk =   0.1250000
        k(   17) = (  -0.5000000   0.0000000   0.0000000), wk =   0.0625000
        k(   18) = (  -0.5000000   0.2476431   0.0000000), wk =   0.1250000
        k(   19) = (  -0.5000000  -0.4952862   0.0000000), wk =   0.0625000
        k(   20) = (  -0.2500000   0.2476431   0.0000000), wk =   0.1250000

     Largest allocated arrays     est. size (Mb)     dimensions
     Largest temporary arrays     est. size (Mb)     dimensions

     Check: negative/imaginary core charge=   -0.000003    0.000000

     Initial potential from superposition of free atoms
     Check: negative starting charge=(component1):   -1.666725
     Check: negative starting charge=(component2):   -1.666725

     starting charge  233.99968, renormalised to  238.00000

     negative rho (up, down):  0.170E+01 0.170E+01
     Starting wfc are  176 randomized atomic wfcs

     Self-consistent Calculation

     iteration #  1     ecut=    40.00 Ry     beta=0.30
     Davidson diagonalization with overlap
     ethr =  1.00E-02,  avg # of iterations =  9.6

     negative rho (up, down):  0.159E+01 0.159E+01

     total energy              =   -2096.82801917 Ry
     Harris-Foulkes estimate   =   -2111.55364872 Ry
     estimated scf accuracy    <      31.05836863 Ry

     total magnetization       =     0.00 Bohr mag/cell
     absolute magnetization    =     0.01 Bohr mag/cell

[...]

     End of self-consistent calculation

 ------ SPIN UP ------------

          k = 0.0000 0.0000 0.0000 ( 31045 PWs)   bands (ev):

   -52.4692 -52.1801 -52.0696 -51.5250 -51.5186 -51.3980 -51.3743 -51.3425
   -51.3332 -51.2955 -51.2715 -51.1797 -51.1522 -51.1490 -51.1304 -51.1258
   -51.1236 -51.1010 -51.0140 -51.0119 -51.0018 -50.9993 -50.9823 -50.8021
   -21.9160 -21.5739 -21.3435 -21.3158 -20.6709 -20.6650 -20.6083 -20.5452
   -20.4909 -20.4350 -20.2978 -20.2046 -19.9961 -19.9735 -19.9088 -19.7372
   -18.9449 -18.8642 -18.7854 -10.5774 -10.4780  -9.9786  -9.1913  -9.0802
    -9.0367  -8.9467  -8.9406  -8.9143  -8.8700  -8.7805  -8.6811  -8.6035
    -8.3729  -8.3515  -8.2600  -8.2239  -8.1307  -7.9365  -7.8264  -7.5076
    -7.3987  -7.2506  -7.2456  -6.7734  -6.7154  -6.6156  -6.2926  -5.9989
    -5.9791  -5.8598  -5.8398  -5.7101  -5.6815  -5.5795  -5.4943  -5.4639
    -5.3063  -5.2498  -5.1870  -5.1033  -5.0410  -4.8292  -4.8202  -4.7860
    -4.6247  -4.4370  -4.3792  -4.2500  -4.2138  -4.0903  -4.0353  -3.8844
    -3.7751  -3.7212  -3.6066  -3.3882  -3.3761  -3.3584  -3.1509  -3.1271
    -2.8941  -2.8331  -2.7698  -2.6278  -2.4926  -2.4028  -2.2292  -2.0805
    -1.9518  -1.8612  -1.8509  -1.7179  -1.6905  -1.2361  -1.0975  -0.8736
    -0.8289  -0.6746  -0.6371  -0.3681  -0.1076   0.6322   0.9527   1.0242
     1.1288   1.1917   1.3585   1.7813   2.0258   2.2922   2.6188   2.8045
     2.9012   2.9647   3.0955   3.5019   3.7117   4.0383   4.4474   4.9651
     5.1270   5.8609   5.9851   6.0876   6.1425   6.7184   6.8493   7.0670
     7.4338   7.5798   7.6681   7.6733   7.6865   7.7567   7.7706   7.9688
     8.0039   8.0565   8.1516   8.1650   8.2151   8.2667   8.4162   8.4735
     8.5027   8.5651   8.5651   8.5655   8.5662   8.6364   8.7109   8.7179
     8.7424   8.7439   8.7584   8.7914   8.9789   9.0254   9.1495   9.2231
     9.2669   9.2912   9.3904   9.4801   9.5529   9.8439   9.8825   9.9110
    10.0655  10.2093  10.2884  10.3046  10.4567  10.5502  10.6132  10.6758
[...]
     atom   18 type  1   force =    -0.00188649   -0.01693820   -0.00023856
     atom   19 type  1   force =     0.00240106    0.01518461   -0.00020532
     atom   20 type  1   force =    -0.00009433   -0.00487921    0.01300767
     atom   21 type  1   force =    -0.00319809   -0.00045664   -0.00453545
     atom   22 type  2   force =    -0.00463225    0.00044168   -0.00419298
     atom   23 type  2   force =    -0.00007544    0.00012041    0.00374889
     atom   24 type  1   force =     0.00101646    0.00601799    0.00052746
     atom   25 type  1   force =     0.00165810   -0.00657299    0.00052331
     atom   26 type  1   force =    -0.00095766   -0.00011430   -0.00316673
     atom   27 type  3   force =    -0.00000569    0.00062219   -0.00123225
     atom   28 type  3   force =    -0.00002201    0.00159870   -0.00023333
     atom   29 type  3   force =     0.00051412    0.00027263   -0.00006242
     atom   30 type  3   force =     0.00040582    0.00061618   -0.00037127
     atom   31 type  1   force =    -0.00000040    0.00007736    0.00367170

     Total force =     0.025958     Total SCF correction =     0.003169
     SCF correction compared to forces is large: reduce conv_thr to get better values

     BFGS Geometry Optimization

     number of scf cycles    =   1
     number of bfgs steps    =   0

     energy   new            =   -2106.1633970005 Ry

     new trust radius        =       0.0150639999 bohr
     new conv_thr            =       0.0000010000 Ry

ATOMIC_POSITIONS (crystal)
O0       0.000000000   0.000000000   0.378723607    0   0   1
O0       0.000000000   0.500000000   0.402036314    0   0   1
Ir1      0.250000000   0.500000000   0.452280485    0   0   1
Ir1      0.000000000   0.000000000   0.453547758    0   0   1
O0       0.250000000   0.810000000   0.453035501    0   0   1
O0       0.250000000   0.190000000   0.452676267    0   0   1
O0       0.000000000   0.500000000   0.498384117    0   0   1
O0       0.000000000   0.000000000   0.529422641    0   0   1
Ir1      0.250000000   0.000000000   0.576459671    0   0   1
Ir1      0.000000000   0.500000000   0.571948283    0   0   1
O0       0.250000000   0.690000000   0.574561183    0   0   1
O0       0.250000000   0.310000000   0.574580509    0   0   1
O0       0.000000000   0.000000000   0.621032524    0   0   1
O0       0.500000000   0.000000000   0.378635779    0   0   1
O0       0.500000000   0.500000000   0.401137190    0   0   1
Ir1      0.750000000   0.500000000   0.452277080    0   0   1
Ir1      0.500000000   0.000000000   0.453496069    0   0   1
O0       0.750000000   0.810000000   0.453045222    0   0   1
O0       0.750000000   0.190000000   0.452685888    0   0   1
O0       0.500000000   0.500000000   0.499240531    0   0   1
O0       0.500000000   0.000000000   0.529339159    0   0   1
Ir1      0.750000000   0.000000000   0.576466019    0   0   1
Ir1      0.500000000   0.500000000   0.577435087    0   0   1
O0       0.750000000   0.690000000   0.574570564    0   0   1
O0       0.750000000   0.310000000   0.574580481    0   0   1
O0       0.500000000   0.000000000   0.620766574    0   0   1
H2      -0.000060474   0.635011281   0.383605319
H2       0.499938168   0.636861765   0.383505327
H2       0.143572777   0.033582470   0.367078750
H2       0.643563766   0.033800786   0.367052564
O0       0.499989967   0.499396376   0.644453540

     Check: negative starting charge=(component1):   -3.333451
     NEW-OLD atomic charge density approx. for the potential

     Check: negative/imaginary core charge=   -0.000003    0.000000
     Check: negative starting charge=(component1):   -3.332719

[...]

     Total force =     0.018839     Total SCF correction =     0.001975
     SCF correction compared to forces is large: reduce conv_thr to get better values

[...]

     energy   old            =   -2106.1633970005 Ry
     energy   new            =   -2106.1639630097 Ry

     CASE: energy  _new < energy  _old

[...]

     Total force =     0.013661     Total SCF correction =     0.000428

[...]

     Threshold (ethr) on eigenvalues was too large:
     Diagonalizing with lowered threshold

     Davidson diagonalization with overlap
     ethr =  8.57E-08,  avg # of iterations =  1.0

[...]

     number of scf cycles    =  12
     number of bfgs steps    =  11

     energy   old            =   -2106.1657148292 Ry
     energy   new            =   -2106.1657300458 Ry

     CASE: energy  _new < energy  _old

     new trust radius        =       0.0028598939 bohr
     new conv_thr            =       0.0000000100 Ry

ATOMIC_POSITIONS (crystal)
O0       0.000000000   0.000000000   0.378084330    0   0   1
O0       0.000000000   0.500000000   0.403157122    0   0   1
Ir1      0.250000000   0.500000000   0.453291435    0   0   1
Ir1      0.000000000   0.000000000   0.452862101    0   0   1
O0       0.250000000   0.810000000   0.452868221    0   0   1
O0       0.250000000   0.190000000   0.452538772    0   0   1
O0       0.000000000   0.500000000   0.498829619    0   0   1
O0       0.000000000   0.000000000   0.528340597    0   0   1
Ir1      0.250000000   0.000000000   0.575294975    0   0   1
Ir1      0.000000000   0.500000000   0.571979921    0   0   1
O0       0.250000000   0.690000000   0.574767062    0   0   1
O0       0.250000000   0.310000000   0.574800871    0   0   1
O0       0.000000000   0.000000000   0.619675985    0   0   1
O0       0.500000000   0.000000000   0.377999934    0   0   1
O0       0.500000000   0.500000000   0.402604044    0   0   1
Ir1      0.750000000   0.500000000   0.453295106    0   0   1
Ir1      0.500000000   0.000000000   0.452829950    0   0   1
O0       0.750000000   0.810000000   0.452881668    0   0   1
O0       0.750000000   0.190000000   0.452547843    0   0   1
O0       0.500000000   0.500000000   0.500753421    0   0   1
O0       0.500000000   0.000000000   0.528257472    0   0   1
Ir1      0.750000000   0.000000000   0.575294088    0   0   1
Ir1      0.500000000   0.500000000   0.578668269    0   0   1
O0       0.750000000   0.690000000   0.574763206    0   0   1
O0       0.750000000   0.310000000   0.574796128    0   0   1
O0       0.500000000   0.000000000   0.619483023    0   0   1
H2      -0.000072117   0.633399739   0.384125593
H2       0.499965051   0.635925113   0.384612790
H2       0.143615100   0.033970729   0.366548364
H2       0.643292184   0.034988979   0.366441699
O0       0.500013204   0.499507057   0.645666390

     Check: negative starting charge=(component1):   -3.336509
     NEW-OLD atomic charge density approx. for the potential

     Check: negative/imaginary core charge=   -0.000003    0.000000
     Check: negative starting charge=(component1):   -3.336631

[...]

     Self-consistent Calculation

[...]

     Threshold (ethr) on eigenvalues was too large:
     Diagonalizing with lowered threshold

     Davidson diagonalization with overlap
     ethr =  9.45E-09,  avg # of iterations =  2.0

[...]

     total energy              =   -2106.16573818 Ry
     Harris-Foulkes estimate   =   -2106.16573819 Ry
     estimated scf accuracy    <       0.00000004 Ry

[...]

     iteration # 17     ecut=    40.00 Ry     beta=0.30
     Davidson diagonalization with overlap
     ethr =  1.17E-11,  avg # of iterations =  1.0

     negative rho (up, down):  0.156E+01 0.156E+01

     End of self-consistent calculation

 ------ SPIN UP ------------

[...]

 ------ SPIN DOWN ----------

[...]

          k = 0.2500-0.4953 0.0000 ( 31088 PWs)   bands (ev):

[...]

          k =-0.2500 0.2476 0.0000 ( 31099 PWs)   bands (ev):

   -52.5011 -52.2060 -52.0864 -51.4929 -51.4884 -51.3792 -51.3462 -51.3426
   -51.3320 -51.3041 -51.2691 -51.1712 -51.1634 -51.1564 -51.1532 -51.1290
   -51.1268 -51.0964 -51.0296 -51.0025 -50.9920 -50.9805 -50.9700 -50.8246
   -21.7622 -21.3737 -21.3533 -21.2061 -20.9108 -20.7644 -20.7130 -20.5676
   -20.4489 -20.4095 -20.2770 -20.2317 -20.1506 -20.1291 -19.9383 -19.7688
   -18.9483 -18.8990 -18.8326  -9.9699  -9.9317  -9.7819  -9.4495  -9.2317
    -9.0221  -8.9894  -8.8816  -8.8502  -8.8158  -8.7278  -8.6469  -8.5507
    -8.4155  -8.2544  -8.1738  -8.0581  -7.8942  -7.8329  -7.5863  -7.5545
    -7.3581  -7.2702  -7.1071  -6.8316  -6.6863  -6.5811  -6.4939  -6.4629
    -6.3828  -6.3116  -6.2325  -6.1850  -6.1376  -6.0109  -5.9091  -5.7922
    -5.6356  -5.5656  -5.4474  -5.2366  -5.1843  -5.0279  -4.9522  -4.8455
    -4.7530  -4.5726  -4.4902  -4.3811  -4.3117  -4.2767  -4.1594  -3.8874
    -3.6259  -3.5439  -3.4303  -3.2979  -3.1370  -2.7766  -2.7440  -2.7013
    -2.6135  -2.5258  -2.5101  -2.4270  -2.3780  -2.3244  -2.2777  -2.1491
    -1.9777  -1.7703  -1.6809  -1.5246  -1.3359  -1.1980  -1.0234  -0.9511
    -0.8773  -0.7412  -0.6588  -0.4495  -0.2480   0.4549   0.6500   0.9941
     1.3617   1.4540   1.8166   1.9280   2.2893   2.4287   2.4788   2.6474
     2.7975   3.0242   3.0580   3.5224   3.5992   4.5091   4.8931   5.3527
     5.3746   5.5231   5.6120   6.1774   6.4663   6.5243   6.7029   6.8024
     6.9190   6.9661   7.2107   7.2802   7.3410   7.3669   7.5478   7.6435
     7.8306   7.8812   7.9530   8.0409   8.1816   8.2375   8.3588   8.4442
     8.5596   8.5717   8.5761   8.5960   8.5966   8.7100   8.7428   8.7454
     8.7470   8.8298   8.9183   8.9430   9.0526   9.0952   9.2458   9.3999
     9.4569   9.6033   9.6500   9.7430   9.7911   9.8813  10.0084  10.1242
    10.1593  10.2634  10.4074  10.4774  10.5206  10.5889  10.6714  10.8583
    10.9123  10.9544  11.0561  11.1101  11.1797  11.3146  11.4356  11.5700
    11.6330  11.6618  11.7464  11.8209  11.8520  12.0291  12.0548  12.1818
    12.2480  12.2743  12.4021  12.4798  12.5578  12.6670  12.6894  12.7353
    12.8021  12.8688  12.9206  12.9649  13.0488  13.0720  13.1683  13.2252
    13.2776  13.4005  13.4525  13.4924  13.6127  13.7945  13.8954  13.9218
    13.9937  14.0733  14.1821  14.2172  14.2738  14.4095  14.4543  14.5990
    14.6623  14.7434  14.7929  14.9281  15.0285  15.0784  15.1953  15.2616
    15.3516  15.4099  15.5449  15.6176  15.6645  15.7432  15.8214  15.8438
    15.9394  15.9960  16.0421  16.1382  16.1519  16.2237  16.3194  16.3441
    16.4147  16.4308  16.5376  16.5881  16.6474  16.6969  16.7437  16.7907
    16.8658  17.0128  17.1519  17.2082  17.2613  17.3164  17.3628  17.4829
    17.5101  17.5534  17.6032  17.6769  17.7370  17.8101  17.8814  17.9270
    17.9787  18.0400  18.1028  18.1884  18.2054  18.2569  18.3916  18.4254
    18.5378  18.6111  18.6373  18.7272  18.7837  18.9108  19.0055  19.0394
    19.0646  19.1099  19.1915  19.2197  19.2693  19.3530  19.3941  19.4778
    19.5921  19.6307  19.6779  19.7223  19.8470  19.9339  19.9754  20.0708
    20.1802  20.2811  20.3083  20.3674  20.4334  20.4849  20.5840  20.6963
    20.7176  20.7624  20.8079  20.8223  20.8476  20.9371  21.0656  21.1355
    21.2120  21.2885  21.3735  21.4277  21.4826  21.5354  21.5841  21.6845
    21.7541  21.8000  21.8607  21.8814  21.9320

     the Fermi energy is    -1.0585 ev

!    total energy              =   -2106.16573818 Ry
     Harris-Foulkes estimate   =   -2106.16573819 Ry
     estimated scf accuracy    <          9.6E-09 Ry

     The total energy is the sum of the following terms:

     one-electron contribution =  -22669.85426434 Ry
     hartree contribution      =   11375.07267187 Ry
     xc contribution           =    -576.24879361 Ry
     ewald contribution        =    9764.86462621 Ry
     smearing contrib. (-TS)   =       0.00002170 Ry

     total magnetization       =     0.00 Bohr mag/cell
     absolute magnetization    =     0.00 Bohr mag/cell

     convergence has been achieved in  17 iterations

     Forces acting on atoms (Ry/au):

     negative rho (up, down):  0.156E+01 0.156E+01
     atom    1 type  1   force =    -0.00708886   -0.01392311   -0.00014838
     atom    2 type  1   force =     0.00006501    0.00465933    0.00009070
     atom    3 type  2   force =     0.03880149    0.00675150   -0.00032722
     atom    4 type  2   force =     0.00950559    0.00864337    0.00001996
     atom    5 type  1   force =    -0.00205805   -0.01703950   -0.00003472
     atom    6 type  1   force =     0.00359728    0.01476226   -0.00000959
     atom    7 type  1   force =    -0.00025397   -0.00169800   -0.00044192
     atom    8 type  1   force =    -0.00334598   -0.00076404    0.00024117
     atom    9 type  2   force =     0.00684699    0.00065350    0.00028238
     atom   10 type  2   force =     0.00001280   -0.00101996   -0.00024682
     atom   11 type  1   force =     0.00033249    0.00383270   -0.00011012
     atom   12 type  1   force =    -0.00006199   -0.00429637   -0.00009598
     atom   13 type  1   force =    -0.00100049    0.00002934    0.00026734
     atom   14 type  1   force =    -0.00739602   -0.01431902   -0.00020661
     atom   15 type  1   force =     0.00013432    0.00560960    0.00017124
     atom   16 type  2   force =    -0.03907112    0.00583323   -0.00034151
     atom   17 type  2   force =     0.00945979    0.00878876    0.00001326
     atom   18 type  1   force =    -0.00213133   -0.01661283   -0.00003572
     atom   19 type  1   force =     0.00267994    0.01519201   -0.00000761
     atom   20 type  1   force =    -0.00015460   -0.00493614   -0.00085161
     atom   21 type  1   force =    -0.00327056   -0.00051969    0.00033053
     atom   22 type  2   force =    -0.00426064    0.00048534    0.00029125
     atom   23 type  2   force =    -0.00006948    0.00022870    0.00048613
     atom   24 type  1   force =    -0.00035753    0.00382871   -0.00010811
     atom   25 type  1   force =     0.00035194   -0.00437336   -0.00010267
     atom   26 type  1   force =    -0.00095064   -0.00013682    0.00028957
     atom   27 type  3   force =     0.00000636    0.00013616    0.00051202
     atom   28 type  3   force =     0.00001749    0.00008901    0.00055213
     atom   29 type  3   force =    -0.00016293   -0.00001749   -0.00064442
     atom   30 type  3   force =    -0.00017888    0.00012126   -0.00063065
     atom   31 type  1   force =     0.00000157    0.00001156    0.00079600

     Total force =     0.002047     Total SCF correction =     0.000140

     bfgs converged in  13 scf cycles and  12 bfgs steps
     (criteria: energy < 0.10E-03, force < 0.10E-02)

     End of BFGS Geometry Optimization

     Final energy   =   -2106.1657381807 Ry
Begin final coordinates

ATOMIC_POSITIONS (crystal)
O0       0.000000000   0.000000000   0.378084330    0   0   1
O0       0.000000000   0.500000000   0.403157122    0   0   1
Ir1      0.250000000   0.500000000   0.453291435    0   0   1
Ir1      0.000000000   0.000000000   0.452862101    0   0   1
O0       0.250000000   0.810000000   0.452868221    0   0   1
O0       0.250000000   0.190000000   0.452538772    0   0   1
O0       0.000000000   0.500000000   0.498829619    0   0   1
O0       0.000000000   0.000000000   0.528340597    0   0   1
Ir1      0.250000000   0.000000000   0.575294975    0   0   1
Ir1      0.000000000   0.500000000   0.571979921    0   0   1
O0       0.250000000   0.690000000   0.574767062    0   0   1
O0       0.250000000   0.310000000   0.574800871    0   0   1
O0       0.000000000   0.000000000   0.619675985    0   0   1
O0       0.500000000   0.000000000   0.377999934    0   0   1
O0       0.500000000   0.500000000   0.402604044    0   0   1
Ir1      0.750000000   0.500000000   0.453295106    0   0   1
Ir1      0.500000000   0.000000000   0.452829950    0   0   1
O0       0.750000000   0.810000000   0.452881668    0   0   1
O0       0.750000000   0.190000000   0.452547843    0   0   1
O0       0.500000000   0.500000000   0.500753421    0   0   1
O0       0.500000000   0.000000000   0.528257472    0   0   1
Ir1      0.750000000   0.000000000   0.575294088    0   0   1
Ir1      0.500000000   0.500000000   0.578668269    0   0   1
O0       0.750000000   0.690000000   0.574763206    0   0   1
O0       0.750000000   0.310000000   0.574796128    0   0   1
O0       0.500000000   0.000000000   0.619483023    0   0   1
H2      -0.000072117   0.633399739   0.384125593
H2       0.499965051   0.635925113   0.384612790
H2       0.143615100   0.033970729   0.366548364
H2       0.643292184   0.034988979   0.366441699
O0       0.500013204   0.499507057   0.645666390
End final coordinates

     General routines

     Parallel routines

   This run was terminated on:   5:57:42   9Apr2014

   JOB DONE.
Running PBS batch system epilogue script
Job id: 329690.audhumbla.fysik.dtu.dk
Username: zhonxu
Groupname: campgst
Jobname: IrO2/Eads-2-layers/O-relax-surf
Sessionid: 17870
Queuename: verylong
Accounting:
This job has allocated the following 16 nodes:
b064 b064 b064 b064 b064 b064 b064 b064 b056 b056 b056 b056 b056 b056 b056 b056
Finished epilogue job 329690.audhumbla.fysik.dtu.dk for zhonxu