     Program PWSCF v.5.0.2 (svn rev. 9656) starts on 10May2014 at 18:23:39

     Current dimensions of program PWSCF are:
     Max number of different atomic species (ntypx) = 10
     Max number of k-points (npk) =  40000
     Max angular momentum in pseudopotentials (lmaxx) =  3
     Reading input from pwscf.in
Warning: card &CELL ignored
Warning: card / ignored

     Subspace diagonalization in iterative solution of the eigenvalue problem:
     a serial algorithm will be used

     bravais-lattice index     =            0
     lattice parameter (alat)  =      10.7336  a.u.
     unit-cell volume          =    8441.1435 (a.u.)^3
     number of atoms/cell      =           49
     number of atomic types    =            2
     number of electrons       =       438.00 (up: 242.00, down: 196.00)
     number of Kohn-Sham states=          633
     kinetic-energy cutoff     =      40.0000  Ry
     charge density cutoff     =     500.0000  Ry
     convergence threshold     =      1.0E-06
     mixing beta               =       0.3000
     number of iterations used =            8  plain     mixing
     Exchange-correlation      = SLA  PW   PBE  PBE ( 1 4 3 4 0)
     EXX-fraction              =        0.00
     nstep                     =           50

     celldm(1)=  10.733644  celldm(2)=   0.000000  celldm(3)=   0.000000
     celldm(4)=   0.000000  celldm(5)=   0.000000  celldm(6)=   0.000000

     crystal axes: (cart. coord. in units of alat)
               a(1) = (   1.000000   0.000000   0.000000 )
               a(2) = (   0.000000   1.085558   0.000000 )
               a(3) = (   0.000000   0.000000   6.287913 )

     reciprocal axes: (cart. coord. in units 2 pi/alat)
               b(1) = (  1.000000  0.000000  0.000000 )
               b(2) = (  0.000000  0.921185  0.000000 )
               b(3) = (  0.000000  0.000000  0.159035 )

     PseudoPot. # 1 for O  read from file:
     /home/camp/zhonxu/pseudo/o_pbe_v1.01.uspp.F.UPF
     MD5 check sum: 2bcb18d16ea4b960afae9ec6d52f22d2
     Pseudo is Ultrasoft + core correction, Zval =  6.0
     Generated by new atomic code, or converted to UPF format
     Using radial grid of  737 points,  5 beta functions with:
                l(1) =   0
                l(2) =   0
                l(3) =   1
                l(4) =   1
                l(5) =   2
     Q(r) pseudized with  8 coefficients,  rinner =    0.900   0.900   0.900
                                                       0.900   0.900

     PseudoPot. # 2 for Mn read from file:
     /home/camp/zhonxu/pseudo/mn_pbe_v1.uspp.F.UPF
     MD5 check sum: 5fd7c7b5c956fd19902447332617373a
     Pseudo is Ultrasoft + core correction, Zval = 15.0
     Generated by new atomic code, or converted to UPF format
     Using radial grid of  859 points,  6 beta functions with:
                l(1) =   0
                l(2) =   0
                l(3) =   1
                l(4) =   1
                l(5) =   2
                l(6) =   2
     Q(r) pseudized with  6 coefficients,  rinner =    1.150   1.150   1.150
                                                       1.150   1.150

     atomic species   valence    mass     pseudopotential
        O0             6.00    15.99940     O ( 1.00)
        Mn1           15.00    54.93800     Mn( 1.00)

     Starting magnetic structure
     atomic species   magnetization
        O0           0.000
        Mn1          0.600

      4 Sym. Ops. (no inversion) found

   Cartesian axes

     site n.     atom                  positions (alat units)
         1           O0  tau(   1) = (   0.0000000   0.5427791   2.1126758  )
         2           Mn1 tau(   2) = (   0.2500000   0.5427791   2.3297975  )
         3           Mn1 tau(   3) = (   0.0000000   0.0000000   2.3297975  )
         4           O0  tau(   4) = (   0.2500000   0.8684466   2.3297975  )
         5           O0  tau(   5) = (   0.2500000   0.2171117   2.3297975  )
         6           O0  tau(   6) = (   0.0000000   0.5427791   2.5469191  )
         7           O0  tau(   7) = (   0.0000000   0.0000000   2.6554485  )
         8           Mn1 tau(   8) = (   0.2500000   0.0000000   2.8725701  )
         9           Mn1 tau(   9) = (   0.0000000   0.5427791   2.8725701  )
        10           O0  tau(  10) = (   0.2500000   0.7598908   2.8725701  )
        11           O0  tau(  11) = (   0.2500000   0.3256675   2.8725701  )
        12           O0  tau(  12) = (   0.0000000   0.0000000   3.0896918  )
        13           O0  tau(  13) = (   0.0000000   0.5427791   3.2125576  )
        14           Mn1 tau(  14) = (   0.2567200   0.5427791   3.4288618  )
        15           Mn1 tau(  15) = (   0.0000000   0.0000000   3.4377277  )
        16           O0  tau(  16) = (   0.2503200   0.8732231   3.4296163  )
        17           O0  tau(  17) = (   0.2503200   0.2123352   3.4296163  )
        18           O0  tau(  18) = (   0.0000000   0.5427791   3.6484357  )
        19           O0  tau(  19) = (   0.0000000   0.0000000   3.7716159  )
        20           Mn1 tau(  20) = (   0.2510800   0.0000000   4.0031997  )
        21           Mn1 tau(  21) = (   0.0000000   0.5427791   3.9635230  )
        22           O0  tau(  22) = (   0.2517000   0.7483405   4.0155869  )
        23           O0  tau(  23) = (   0.2517000   0.3372178   4.0155869  )
        24           O0  tau(  24) = (   0.0000000   0.0000000   4.2027152  )
        25           O0  tau(  25) = (   0.5000000   0.5427791   2.1126758  )
        26           Mn1 tau(  26) = (   0.7500000   0.5427791   2.3297975  )
        27           Mn1 tau(  27) = (   0.5000000   0.0000000   2.3297975  )
        28           O0  tau(  28) = (   0.7500000   0.8684466   2.3297975  )
        29           O0  tau(  29) = (   0.7500000   0.2171117   2.3297975  )
        30           O0  tau(  30) = (   0.5000000   0.5427791   2.5469191  )
        31           O0  tau(  31) = (   0.5000000   0.0000000   2.6554485  )
        32           Mn1 tau(  32) = (   0.7500000   0.0000000   2.8725701  )
        33           Mn1 tau(  33) = (   0.5000000   0.5427791   2.8725701  )
        34           O0  tau(  34) = (   0.7500000   0.7598908   2.8725701  )
        35           O0  tau(  35) = (   0.7500000   0.3256675   2.8725701  )
        36           O0  tau(  36) = (   0.5000000   0.0000000   3.0896918  )
        37           O0  tau(  37) = (   0.5000000   0.5427791   3.2096022  )
        38           Mn1 tau(  38) = (   0.7432800   0.5427791   3.4288618  )
        39           Mn1 tau(  39) = (   0.5000000   0.0000000   3.4396141  )
        40           O0  tau(  40) = (   0.7496800   0.8732231   3.4296163  )
        41           O0  tau(  41) = (   0.7496800   0.2123352   3.4296163  )
        42           O0  tau(  42) = (   0.5000000   0.5427791   3.6401985  )
        43           O0  tau(  43) = (   0.5000000   0.0000000   3.7724333  )
        44           Mn1 tau(  44) = (   0.7489200   0.0000000   4.0031997  )
        45           Mn1 tau(  45) = (   0.5000000   0.5427791   4.0830562  )
        46           O0  tau(  46) = (   0.7483000   0.7483405   4.0155869  )
        47           O0  tau(  47) = (   0.7483000   0.3372178   4.0155869  )
        48           O0  tau(  48) = (   0.5000000   0.0000000   4.2043501  )
        49           O0  tau(  49) = (   0.5000000   0.5427791   4.3615479  )

     number of k points=    18  Methfessel-Paxton smearing, width (Ry)=  0.0100
                       cart. coord. in units 2pi/alat
        k(    1) = (   0.0000000   0.0000000   0.0000000), wk =   0.0625000
        k(    2) = (   0.0000000   0.2302962   0.0000000), wk =   0.1250000
        k(    3) = (   0.0000000  -0.4605925   0.0000000), wk =   0.0625000
        k(    4) = (   0.2500000   0.0000000   0.0000000), wk =   0.1250000
        k(    5) = (   0.2500000   0.2302962   0.0000000), wk =   0.2500000
        k(    6) = (   0.2500000  -0.4605925   0.0000000), wk =   0.1250000
        k(    7) = (  -0.5000000   0.0000000   0.0000000), wk =   0.0625000
        k(    8) = (  -0.5000000   0.2302962   0.0000000), wk =   0.1250000
        k(    9) = (  -0.5000000  -0.4605925   0.0000000), wk =   0.0625000
        k(   10) = (   0.0000000   0.0000000   0.0000000), wk =   0.0625000
        k(   11) = (   0.0000000   0.2302962   0.0000000), wk =   0.1250000
        k(   12) = (   0.0000000  -0.4605925   0.0000000), wk =   0.0625000
        k(   13) = (   0.2500000   0.0000000   0.0000000), wk =   0.1250000
        k(   14) = (   0.2500000   0.2302962   0.0000000), wk =   0.2500000
        k(   15) = (   0.2500000  -0.4605925   0.0000000), wk =   0.1250000
        k(   16) = (  -0.5000000   0.0000000   0.0000000), wk =   0.0625000
        k(   17) = (  -0.5000000   0.2302962   0.0000000), wk =   0.1250000
        k(   18) = (  -0.5000000  -0.4605925   0.0000000), wk =   0.0625000

     Largest allocated arrays     est. size (Mb)     dimensions
     Largest temporary arrays     est. size (Mb)     dimensions

     Check: negative/imaginary core charge=   -0.000029    0.000000

     Initial potential from superposition of free atoms
     Check: negative starting charge=(component1):   -0.000993
     Check: negative starting charge=(component2):   -0.000244

     starting charge  421.99982, renormalised to  438.00000

     negative rho (up, down):  0.103E-02 0.253E-03
     Starting wfc are  340 randomized atomic wfcs

     Self-consistent Calculation

     iteration #  1     ecut=    40.00 Ry     beta=0.30
     Davidson diagonalization with overlap
     ethr =  1.00E-02,  avg # of iterations =  5.5

     negative rho (up, down):  0.104E-02 0.685E-03

     total energy              =   -4428.97039454 Ry
     Harris-Foulkes estimate   =   -4466.88832354 Ry
     estimated scf accuracy    <      99.32816617 Ry

     total magnetization       =    46.00 Bohr mag/cell
     absolute magnetization    =    60.15 Bohr mag/cell

[...]

     End of self-consistent calculation

 ------ SPIN UP ------------

          k = 0.0000 0.0000 0.0000 ( 36065 PWs)   bands (ev):

   -82.8269 -82.7667 -82.6630 -82.6525 -82.6349 -82.6123 -82.5859 -82.5751
   -82.5495 -82.5392 -82.5293 -82.5183 -82.2714 -82.2708 -82.2612 -82.2604
   -51.5928 -51.5065 -51.4991 -51.4948 -51.4926 -51.4643 -51.4276 -51.4250
   -51.4138 -51.3844 -51.3766 -51.3606 -51.3420 -51.3117 -51.3104 -51.3024
   -51.3015 -51.3004 -51.2900 -51.2758 -51.2630 -51.2623 -51.2506 -51.2405
   -51.2147 -51.2016 -51.1824 -51.1779 -51.1610 -51.1604 -51.1539 -51.1498
   -51.1427 -51.1415 -51.1300 -51.1243 -51.0301 -51.0098 -51.0011 -50.9931
   -50.9853 -50.9767 -50.9054 -50.8892 -50.8772 -50.8718 -50.8581 -50.8523
   -20.5666 -20.3281 -20.0766 -19.8470 -19.4395 -19.2173 -19.1803 -19.0924
   -18.9864 -18.9855 -18.9143 -18.8822 -18.8292 -18.7733 -18.7617 -18.7583
   -18.7190 -18.6993 -18.6694 -18.6667 -18.6438 -18.5697 -18.5134 -18.5055
   -18.4839 -18.4434 -18.3728 -18.2280 -18.0777 -17.8446 -17.7538 -17.4426
   -17.3372  -8.6028  -8.5120  -8.4446  -8.3656  -7.9546  -7.8453  -7.5878
    -7.4694  -7.3274  -7.2894  -7.2884  -7.2295  -7.2117  -7.1655  -7.1181
    -7.0997  -7.0421  -7.0364  -7.0287  -6.9717  -6.9274  -6.8669  -6.8456
[...]
Mn1      0.250000000   0.000000000   0.456840000    0   0   0
Mn1      0.000000000   0.500000000   0.456840000    0   0   0
O0       0.250000000   0.700000000   0.456840000    0   0   0
O0       0.250000000   0.300000000   0.456840000    0   0   0
O0       0.000000000   0.000000000   0.491370000    0   0   0
O0       0.000000000   0.500000000   0.510892555
Mn1      0.256775725   0.500000000   0.545317667
Mn1      0.000000000   0.000000000   0.546728032
O0       0.250330789   0.804399168   0.545447357
O0       0.250330789   0.195600832   0.545447357
O0       0.000000000   0.500000000   0.580195442
O0       0.000000000   0.000000000   0.599836908
Mn1      0.251026933   0.000000000   0.636660537
Mn1      0.000000000   0.500000000   0.630297056
O0       0.251447585   0.689435902   0.638638428
O0       0.251447585   0.310564098   0.638638428
O0       0.000000000   0.000000000   0.668389631
O0       0.500000000   0.500000000   0.335990000    0   0   0
Mn1      0.750000000   0.500000000   0.370520000    0   0   0
Mn1      0.500000000   0.000000000   0.370520000    0   0   0
O0       0.750000000   0.800000000   0.370520000    0   0   0
O0       0.750000000   0.200000000   0.370520000    0   0   0
O0       0.500000000   0.500000000   0.405050000    0   0   0
O0       0.500000000   0.000000000   0.422310000    0   0   0
Mn1      0.750000000   0.000000000   0.456840000    0   0   0
Mn1      0.500000000   0.500000000   0.456840000    0   0   0
O0       0.750000000   0.700000000   0.456840000    0   0   0
O0       0.750000000   0.300000000   0.456840000    0   0   0
O0       0.500000000   0.000000000   0.491370000    0   0   0
O0       0.500000000   0.500000000   0.510439529
Mn1      0.743224275   0.500000000   0.545317667
Mn1      0.500000000   0.000000000   0.547034552
O0       0.749669211   0.804399168   0.545447357
O0       0.749669211   0.195600832   0.545447357
O0       0.500000000   0.500000000   0.578956742
O0       0.500000000   0.000000000   0.599940559
Mn1      0.748973067   0.000000000   0.636660537
Mn1      0.500000000   0.500000000   0.649341177
O0       0.748552415   0.689435902   0.638638428
O0       0.748552415   0.310564098   0.638638428
O0       0.500000000   0.000000000   0.668639010
O0       0.500000000   0.500000000   0.693641319

     Check: negative starting charge=(component1):   -0.001224
     NEW-OLD atomic charge density approx. for the potential

     Check: negative/imaginary core charge=   -0.000029    0.000000
     Check: negative starting charge=(component1):   -0.001224

[...]

     Self-consistent Calculation

[...]

     Threshold (ethr) on eigenvalues was too large:
     Diagonalizing with lowered threshold

     Davidson diagonalization with overlap
     ethr =  6.12E-08,  avg # of iterations =  1.0

[...]

     total energy              =   -4471.49559640 Ry
     Harris-Foulkes estimate   =   -4471.49559641 Ry
     estimated scf accuracy    <       0.00000001 Ry

[...]

     iteration # 17     ecut=    40.00 Ry     beta=0.30
     Davidson diagonalization with overlap
     ethr =  2.93E-12,  avg # of iterations =  1.0

     negative rho (up, down):  0.311E-02 0.169E-02

     End of self-consistent calculation

 ------ SPIN UP ------------

[...]

 ------ SPIN DOWN ----------

[...]

          k = 0.2500-0.4606 0.0000 ( 36102 PWs)   bands (ev):

[...]

          k =-0.5000-0.4606 0.0000 ( 36040 PWs)   bands (ev):

   -80.6969 -79.3495 -79.3322 -79.3197 -79.2797 -79.2705 -79.2657 -79.2612
   -79.2089 -79.2089 -79.1906 -79.1906 -79.1409 -79.1403 -78.9883 -78.9844
   -49.8547 -49.3214 -49.2253 -48.3276 -48.2148 -48.1929 -48.1907 -48.1824
   -48.1640 -48.1227 -48.1100 -48.1075 -48.0813 -48.0812 -48.0810 -48.0789
   -48.0767 -48.0618 -48.0564 -48.0564 -48.0469 -48.0418 -48.0418 -48.0409
   -48.0257 -48.0126 -48.0084 -48.0072 -48.0039 -47.9944 -47.9910 -47.9874
   -47.9630 -47.9629 -47.9331 -47.9327 -47.9286 -47.9283 -47.9219 -47.9209
   -47.8306 -47.8306 -47.8099 -47.8070 -47.7429 -47.7408 -47.5666 -47.5616
   -19.5335 -19.4840 -19.4838 -19.4617 -19.3953 -19.3445 -19.2108 -19.1985
   -19.1797 -19.1038 -19.0146 -18.9970 -18.9101 -18.9084 -18.9001 -18.8346
   -18.5414 -18.5091 -18.5071 -18.4220 -18.4208 -18.4133 -18.2730 -18.2284
   -18.2157 -18.1858 -18.1796 -18.0995 -17.9445 -17.6759 -17.6331 -17.2752
   -17.2706  -6.9854  -6.9395  -6.9311  -6.8446  -6.7393  -6.6630  -6.5843
    -6.5651  -6.5266  -6.4650  -6.4599  -6.4411  -6.4391  -6.4166  -6.3974
    -6.3534  -6.3204  -6.2573  -6.2465  -6.2413  -6.2026  -6.1364  -6.1253
    -6.1249  -6.1145  -6.0887  -6.0514  -5.9665  -5.8628  -5.7173  -5.6739
    -5.6710  -5.5937  -5.5860  -5.5806  -5.5157  -5.4533  -5.4213  -5.3975
    -5.3284  -5.1852  -5.1472  -5.0082  -4.9001  -4.8235  -4.8103  -4.7568
    -4.7477  -4.7323  -4.7300  -4.6890  -4.6843  -4.6150  -4.5514  -4.5173
    -4.4983  -4.4069  -4.3749  -4.2597  -4.2444  -4.1982  -4.1480  -4.1067
    -4.0310  -3.9983  -3.9645  -3.9583  -3.9304  -3.8456  -3.8358  -3.6149
    -3.5417  -3.4369  -3.3182  -3.2729  -3.2152  -3.1399  -3.0594  -2.9126
    -2.7043  -2.5742  -2.4951  -2.4855  -2.4110  -2.3762  -2.3617  -2.3212
    -2.2738  -2.1359  -2.0934  -2.0768  -1.9727  -1.8694  -1.8391  -1.8203
    -1.7135  -1.7094  -1.6961  -1.6871  -0.1886   0.1329   0.2074   0.2110
     0.2142   0.2578   0.2739   0.3432   0.4290   0.4716   0.4750   0.4841
     0.5084   0.5279   0.5642   0.6811   0.6991   0.7745   0.8057   0.8168
     0.8784   0.9378   0.9507   0.9587   0.9659   1.0541   1.0878   1.0963
     1.1085   1.1469   1.1618   1.1638   1.1904   1.2058   1.2387   1.2632
     1.2883   1.3396   1.3471   1.3476   1.3718   1.4344   1.4501   1.4543
     1.4925   1.5720   1.5983   1.6145   1.6221   1.9461   2.0162   2.0193
     2.1613   2.1630   2.1777   2.1846   2.2750   2.2752   2.3393   2.4583
     2.5737   2.5877   2.6577   2.6965   3.1504   3.2412   3.2503   3.2607
     3.4166   3.4652   3.5247   3.6205   3.7652   3.8408   3.9624   4.0183
     4.0912   4.1002   4.1655   4.1712   6.3209   6.3216   7.1679   7.4179
     7.4183   7.5537   7.5580   7.6830   7.7174   7.7402   7.7533   7.8993
     8.0019   8.0478   8.0734   8.2857   8.4436   8.5011   8.5273   8.7946
     9.0050   9.0797   9.0801   9.3858   9.6570   9.6913   9.7600   9.9270
    10.2596  10.2845  10.4218  10.4339  10.4633  10.5330  10.5927  10.6987
    11.0737  11.1234  11.1414  11.2253  11.2948  11.3214  11.4148  11.5059
    11.9856  11.9943  12.0202  12.2029  12.2264  12.2272  12.3121  12.4625
    12.9621  12.9795  12.9863  13.0031  13.3449  13.3731  13.4296  13.4863
    13.7982  13.8153  13.8292  13.8997  14.0816  14.3017  14.3059  14.3152
    14.3330  14.3811  14.4814  14.5106  14.5253  14.5650  14.6170  14.6301
    14.6402  14.7020  14.7411  14.8291  14.9623  14.9759  14.9828  14.9859
    15.0339  15.0766  15.1155  15.1376  15.1812  15.2030  15.2039  15.2242
    15.2532  15.3407  15.4652  15.4654  15.4717  15.4734  15.5418  15.5491
    15.5554  15.5905  15.6696  15.6870  15.7059  15.7535  15.8933  15.9005
    15.9543  15.9621  16.0042  16.0560  16.0601  16.1301  16.1761  16.1821
    16.2063  16.3095  16.3214  16.4024  16.4385  16.4503  16.5278  16.5634
    16.6189  16.6466  16.6545  16.6697  16.7274  16.7661  16.7800  16.8072
    16.8337  16.8738  16.8799  16.8916  16.9293  16.9571  16.9600  16.9842
    17.0591  17.0598  17.0956  17.0979  17.1737  17.2173  17.2418  17.2673
    17.3572  17.3680  17.3755  17.4117  17.5556  17.5766  17.5880  17.5978
    17.6134  17.6277  17.6583  17.7094  17.7244  17.7511  17.7762  17.8342
    17.9343  17.9732  18.0360  18.0828  18.1377  18.1492  18.1710  18.1862
    18.2676  18.3147  18.3439  18.3494  18.4310  18.4407  18.5486  18.5595
    18.5761  18.6610  18.6869  18.7808  18.8323  18.8947  18.9129  18.9866
    19.0212  19.0567  19.0741  19.1141  19.1295  19.1559  19.1806  19.2602
    19.3630  19.4867  19.5212  19.5432  19.7192  19.7232  19.7679  19.7763
[...]
    22.4440  22.5602  22.6259  23.1089  23.1643  23.1834  23.1986  23.2639
    23.3032  23.3238  23.3317  23.5090  23.5150  23.5426  23.6516  23.6698
    23.8542  23.9216  23.9602  24.0368  24.2236  24.2415  24.3144  24.4542
    24.4695  24.5517  24.5788  24.6082  24.6153  24.6401  24.7400  24.8045
    24.8458  24.8522  24.8537  24.8953  24.9056  24.9116  24.9757  24.9825
    25.0634  25.0814  25.1046  25.1082  25.1724  25.1972  25.2143  25.2197
    25.4723  25.4737  25.4843  25.5248  25.6143  25.6242  25.6518  25.6722
    25.6750  25.6818  25.6820  25.9194  25.9318  26.0086  26.0161  26.0465
    26.0504  26.1033  26.1142  26.1336  26.1648  26.1880  26.2740  26.2783
    26.3397  26.3561  26.3576  26.4086  26.4257  26.4549  26.4697  26.5437
    26.5635  26.5998  26.6516  26.6517  26.6544  26.7129  26.7392  26.8205
    26.8603  26.9001  26.9111  26.9144  26.9479  27.0575  27.0950  27.2359
    27.2476  27.2549  27.2754  27.3326  27.4467  27.5656  27.5950  27.6230
    27.7405  27.7535  27.7586  27.7768  27.8279  27.8305  27.8462  27.9170
    27.9203

     the spin up/dw Fermi energies are    -0.5027   -0.7583 ev

!    total energy              =   -4471.49559641 Ry
     Harris-Foulkes estimate   =   -4471.49559640 Ry
     estimated scf accuracy    <          7.1E-09 Ry

     The total energy is the sum of the following terms:

     one-electron contribution =  -92008.49711760 Ry
     hartree contribution      =   46048.72900776 Ry
     xc contribution           =    -654.79077717 Ry
     ewald contribution        =   42143.06404614 Ry
     smearing contrib. (-TS)   =      -0.00075554 Ry

     total magnetization       =    46.00 Bohr mag/cell
     absolute magnetization    =    47.84 Bohr mag/cell

     convergence has been achieved in  17 iterations

     Forces acting on atoms (Ry/au):

     negative rho (up, down):  0.311E-02 0.169E-02
     atom    1 type  1   force =     0.00000000    0.00000000    0.05024711
     atom    2 type  2   force =    -0.00079066    0.00000000   -0.08424346
     atom    3 type  2   force =     0.00000000    0.00000000    0.05077316
     atom    4 type  1   force =    -0.00005178    0.05149420   -0.04366868
     atom    5 type  1   force =    -0.00005178   -0.05149420   -0.04366868
     atom    6 type  1   force =     0.00000000    0.00000000    0.00659492
     atom    7 type  1   force =     0.00000000    0.00000000    0.00570971
     atom    8 type  2   force =     0.00066028    0.00000000    0.03409479
     atom    9 type  2   force =     0.00000000    0.00000000    0.02349126
     atom   10 type  1   force =     0.00083583   -0.03134616    0.00256078
     atom   11 type  1   force =     0.00083583    0.03134616    0.00256078
     atom   12 type  1   force =     0.00000000    0.00000000    0.00370163
     atom   13 type  1   force =     0.00000000    0.00000000   -0.00016628
     atom   14 type  2   force =     0.00010109    0.00000000    0.00001542
     atom   15 type  2   force =     0.00000000    0.00000000    0.00018387
     atom   16 type  1   force =     0.00000729   -0.00001575    0.00043373
     atom   17 type  1   force =     0.00000729    0.00001575    0.00043373
     atom   18 type  1   force =     0.00000000    0.00000000   -0.00060927
     atom   19 type  1   force =     0.00000000    0.00000000    0.00031199
     atom   20 type  2   force =    -0.00005975    0.00000000    0.00022404
     atom   21 type  2   force =     0.00000000    0.00000000   -0.00086715
     atom   22 type  1   force =    -0.00067836   -0.00001994    0.00053644
     atom   23 type  1   force =    -0.00067836    0.00001994    0.00053644
     atom   24 type  1   force =     0.00000000    0.00000000    0.00045135
     atom   25 type  1   force =     0.00000000    0.00000000    0.05068727
     atom   26 type  2   force =     0.00079066    0.00000000   -0.08424346
     atom   27 type  2   force =     0.00000000    0.00000000    0.05071909
     atom   28 type  1   force =     0.00005178    0.05149420   -0.04366868
     atom   29 type  1   force =     0.00005178   -0.05149420   -0.04366868
     atom   30 type  1   force =     0.00000000    0.00000000    0.00832455
     atom   31 type  1   force =     0.00000000    0.00000000    0.00573347
     atom   32 type  2   force =    -0.00066028    0.00000000    0.03409479
     atom   33 type  2   force =     0.00000000    0.00000000   -0.00000268
     atom   34 type  1   force =    -0.00083583   -0.03134616    0.00256078
     atom   35 type  1   force =    -0.00083583    0.03134616    0.00256078
     atom   36 type  1   force =     0.00000000    0.00000000    0.00418855
     atom   37 type  1   force =     0.00000000    0.00000000    0.00020161
     atom   38 type  2   force =    -0.00010109    0.00000000    0.00001542
     atom   39 type  2   force =     0.00000000    0.00000000    0.00033302
     atom   40 type  1   force =    -0.00000729   -0.00001575    0.00043373
     atom   41 type  1   force =    -0.00000729    0.00001575    0.00043373
     atom   42 type  1   force =     0.00000000    0.00000000    0.00079588
     atom   43 type  1   force =     0.00000000    0.00000000    0.00015409
     atom   44 type  2   force =     0.00005975    0.00000000    0.00022404
     atom   45 type  2   force =     0.00000000    0.00000000   -0.00031363
     atom   46 type  1   force =     0.00067836   -0.00001994    0.00053644
     atom   47 type  1   force =     0.00067836    0.00001994    0.00053644
     atom   48 type  1   force =     0.00000000    0.00000000   -0.00000576
     atom   49 type  1   force =     0.00000000    0.00000000   -0.00026841

     Total force =     0.002518     Total SCF correction =     0.000317
     SCF correction compared to forces is large: reduce conv_thr to get better values

     bfgs converged in   3 scf cycles and   2 bfgs steps
     (criteria: energy < 0.10E-03, force < 0.10E-02)

     End of BFGS Geometry Optimization

     Final energy   =   -4471.4955964102 Ry
Begin final coordinates

ATOMIC_POSITIONS (crystal)
O0       0.000000000   0.500000000   0.335990000    0   0   0
Mn1      0.250000000   0.500000000   0.370520000    0   0   0
Mn1      0.000000000   0.000000000   0.370520000    0   0   0
O0       0.250000000   0.800000000   0.370520000    0   0   0
O0       0.250000000   0.200000000   0.370520000    0   0   0
O0       0.000000000   0.500000000   0.405050000    0   0   0
O0       0.000000000   0.000000000   0.422310000    0   0   0
Mn1      0.250000000   0.000000000   0.456840000    0   0   0
Mn1      0.000000000   0.500000000   0.456840000    0   0   0
O0       0.250000000   0.700000000   0.456840000    0   0   0
O0       0.250000000   0.300000000   0.456840000    0   0   0
O0       0.000000000   0.000000000   0.491370000    0   0   0
O0       0.000000000   0.500000000   0.510892555
Mn1      0.256775725   0.500000000   0.545317667
Mn1      0.000000000   0.000000000   0.546728032
O0       0.250330789   0.804399168   0.545447357
O0       0.250330789   0.195600832   0.545447357
O0       0.000000000   0.500000000   0.580195442
O0       0.000000000   0.000000000   0.599836908
Mn1      0.251026933   0.000000000   0.636660537
Mn1      0.000000000   0.500000000   0.630297056
O0       0.251447585   0.689435902   0.638638428
O0       0.251447585   0.310564098   0.638638428
O0       0.000000000   0.000000000   0.668389631
O0       0.500000000   0.500000000   0.335990000    0   0   0
Mn1      0.750000000   0.500000000   0.370520000    0   0   0
Mn1      0.500000000   0.000000000   0.370520000    0   0   0
O0       0.750000000   0.800000000   0.370520000    0   0   0
O0       0.750000000   0.200000000   0.370520000    0   0   0
O0       0.500000000   0.500000000   0.405050000    0   0   0
O0       0.500000000   0.000000000   0.422310000    0   0   0
Mn1      0.750000000   0.000000000   0.456840000    0   0   0
Mn1      0.500000000   0.500000000   0.456840000    0   0   0
O0       0.750000000   0.700000000   0.456840000    0   0   0
O0       0.750000000   0.300000000   0.456840000    0   0   0
O0       0.500000000   0.000000000   0.491370000    0   0   0
O0       0.500000000   0.500000000   0.510439529
Mn1      0.743224275   0.500000000   0.545317667
Mn1      0.500000000   0.000000000   0.547034552
O0       0.749669211   0.804399168   0.545447357
O0       0.749669211   0.195600832   0.545447357
O0       0.500000000   0.500000000   0.578956742
O0       0.500000000   0.000000000   0.599940559
Mn1      0.748973067   0.000000000   0.636660537
Mn1      0.500000000   0.500000000   0.649341177
O0       0.748552415   0.689435902   0.638638428
O0       0.748552415   0.310564098   0.638638428
O0       0.500000000   0.000000000   0.668639010
O0       0.500000000   0.500000000   0.693641319
End final coordinates

     General routines

     Parallel routines

   This run was terminated on:   3:29:20  11May2014

   JOB DONE.