     Program PWSCF v.5.0.2 (svn rev. 9656) starts on 23Jan2014 at 20:56:36

     Current dimensions of program PWSCF are:
     Max number of different atomic species (ntypx) = 10
     Max number of k-points (npk) =  40000
     Max angular momentum in pseudopotentials (lmaxx) =  3
     Reading input from IrO2-v-0.8.in

     Subspace diagonalization in iterative solution of the eigenvalue problem:
     a serial algorithm will be used

     bravais-lattice index     =            0
     lattice parameter (alat)  =       8.0383  a.u.
     unit-cell volume          =     334.7174 (a.u.)^3
     number of atoms/cell      =            6
     number of atomic types    =            2
     number of electrons       =        54.00
     number of Kohn-Sham states=           78
     kinetic-energy cutoff     =      40.0000  Ry
     charge density cutoff     =     500.0000  Ry
     convergence threshold     =      1.0E-06
     mixing beta               =       0.7000
     number of iterations used =            8  plain     mixing
     Exchange-correlation      = SLA  PW   PBE  PBE ( 1 4 3 4 0)
     EXX-fraction              =        0.00
     nstep                     =           50

     celldm(1)=   8.038301  celldm(2)=   0.000000  celldm(3)=   0.000000
     celldm(4)=   0.000000  celldm(5)=   0.000000  celldm(6)=   0.000000

     crystal axes: (cart. coord. in units of alat)
               a(1) = (   1.000000   0.000000   0.000000 )
               a(2) = (   0.000000   1.000000   0.000000 )
               a(3) = (   0.000000   0.000000   0.644444 )

     reciprocal axes: (cart. coord. in units 2 pi/alat)
               b(1) = (  1.000000  0.000000  0.000000 )
               b(2) = (  0.000000  1.000000  0.000000 )
               b(3) = (  0.000000  0.000000  1.551724 )

     PseudoPot. # 1 for Ir read from file:
     /home/camp/zhonxu/pseudo/ir_pbe_v1.uspp.F.UPF
     MD5 check sum: abf987a9674477536ede83817f8f8b70
     Pseudo is Ultrasoft + core correction, Zval = 15.0
     Generated by new atomic code, or converted to UPF format
     Using radial grid of  983 points,  7 beta functions with:
                l(1) =   0
                l(2) =   0
                l(3) =   1
                l(4) =   1
                l(5) =   1
                l(6) =   2
                l(7) =   2
     Q(r) pseudized with  8 coefficients,  rinner =    1.350   1.350   1.350
                                                       1.350   1.350

     PseudoPot. # 2 for O  read from file:
     /home/camp/zhonxu/pseudo/o_pbe_v1.01.uspp.F.UPF
     MD5 check sum: 2bcb18d16ea4b960afae9ec6d52f22d2
     Pseudo is Ultrasoft + core correction, Zval =  6.0
     Generated by new atomic code, or converted to UPF format
     Using radial grid of  737 points,  5 beta functions with:
                l(1) =   0
                l(2) =   0
                l(3) =   1
                l(4) =   1
                l(5) =   2
     Q(r) pseudized with  8 coefficients,  rinner =    0.900   0.900   0.900
                                                       0.900   0.900

     atomic species   valence    mass     pseudopotential
        Ir0           15.00   192.22000     Ir( 1.00)
        O1             6.00    15.99940     O ( 1.00)

     Starting magnetic structure
     atomic species   magnetization
        Ir0          0.600
        O1           0.000

     16 Sym. Ops., with inversion, found ( 8 have fractional translation)

   Cartesian axes

     site n.     atom                  positions (alat units)
         1           Ir0 tau(   1) = (   0.0000000   0.0000000   0.0000000  )
         2           Ir0 tau(   2) = (   0.5000000   0.5000000   0.3222222  )
         3           O1  tau(   3) = (   0.3050000   0.3050000   0.0000000  )
         4           O1  tau(   4) = (  -0.3050000  -0.3050000   0.0000000  )
         5           O1  tau(   5) = (   0.8050000   0.1950000   0.3222222  )
         6           O1  tau(   6) = (   0.1950000   0.8050000   0.3222222  )

     number of k points=    36  Methfessel-Paxton smearing, width (Ry)=  0.0100
                       cart. coord. in units 2pi/alat
        k(    1) = (   0.0000000   0.0000000   0.0000000), wk =   0.0080000
        k(    2) = (   0.0000000   0.0000000   0.3103448), wk =   0.0160000
        k(    3) = (   0.0000000   0.0000000   0.6206897), wk =   0.0160000
        k(    4) = (   0.0000000   0.2000000   0.0000000), wk =   0.0320000
        k(    5) = (   0.0000000   0.2000000   0.3103448), wk =   0.0640000
        k(    6) = (   0.0000000   0.2000000   0.6206897), wk =   0.0640000
        k(    7) = (   0.0000000   0.4000000   0.0000000), wk =   0.0320000
        k(    8) = (   0.0000000   0.4000000   0.3103448), wk =   0.0640000
        k(    9) = (   0.0000000   0.4000000   0.6206897), wk =   0.0640000
        k(   10) = (   0.2000000   0.2000000   0.0000000), wk =   0.0320000
        k(   11) = (   0.2000000   0.2000000   0.3103448), wk =   0.0640000
        k(   12) = (   0.2000000   0.2000000   0.6206897), wk =   0.0640000
        k(   13) = (   0.2000000   0.4000000   0.0000000), wk =   0.0640000
        k(   14) = (   0.2000000   0.4000000   0.3103448), wk =   0.1280000
        k(   15) = (   0.2000000   0.4000000   0.6206897), wk =   0.1280000
        k(   16) = (   0.4000000   0.4000000   0.0000000), wk =   0.0320000
        k(   17) = (   0.4000000   0.4000000   0.3103448), wk =   0.0640000
        k(   18) = (   0.4000000   0.4000000   0.6206897), wk =   0.0640000
        k(   19) = (   0.0000000   0.0000000   0.0000000), wk =   0.0080000
        k(   20) = (   0.0000000   0.0000000   0.3103448), wk =   0.0160000
        k(   21) = (   0.0000000   0.0000000   0.6206897), wk =   0.0160000
        k(   22) = (   0.0000000   0.2000000   0.0000000), wk =   0.0320000
        k(   23) = (   0.0000000   0.2000000   0.3103448), wk =   0.0640000
        k(   24) = (   0.0000000   0.2000000   0.6206897), wk =   0.0640000
        k(   25) = (   0.0000000   0.4000000   0.0000000), wk =   0.0320000
        k(   26) = (   0.0000000   0.4000000   0.3103448), wk =   0.0640000
        k(   27) = (   0.0000000   0.4000000   0.6206897), wk =   0.0640000
        k(   28) = (   0.2000000   0.2000000   0.0000000), wk =   0.0320000
        k(   29) = (   0.2000000   0.2000000   0.3103448), wk =   0.0640000
        k(   30) = (   0.2000000   0.2000000   0.6206897), wk =   0.0640000
        k(   31) = (   0.2000000   0.4000000   0.0000000), wk =   0.0640000
        k(   32) = (   0.2000000   0.4000000   0.3103448), wk =   0.1280000
        k(   33) = (   0.2000000   0.4000000   0.6206897), wk =   0.1280000
        k(   34) = (   0.4000000   0.4000000   0.0000000), wk =   0.0320000
        k(   35) = (   0.4000000   0.4000000   0.3103448), wk =   0.0640000
        k(   36) = (   0.4000000   0.4000000   0.6206897), wk =   0.0640000

     Largest allocated arrays     est. size (Mb)     dimensions
     Largest temporary arrays     est. size (Mb)     dimensions

     Check: negative/imaginary core charge=   -0.000004    0.000000

     Initial potential from superposition of free atoms
     Check: negative starting charge=(component1):   -0.664641
     Check: negative starting charge=(component2):   -0.164524

     starting charge   52.99993, renormalised to   54.00000

     negative rho (up, down):  0.677E+00 0.168E+00
     Starting wfc are   40 randomized atomic wfcs

     Self-consistent Calculation

     iteration #  1     ecut=    40.00 Ry     beta=0.70
     Davidson diagonalization with overlap
     ethr =  1.00E-02,  avg # of iterations =  5.1

     negative rho (up, down):  0.488E+00 0.260E+00

     total energy              =    -498.56755930 Ry
     Harris-Foulkes estimate   =    -500.40226351 Ry
     estimated scf accuracy    <       4.75952993 Ry

     total magnetization       =     3.27 Bohr mag/cell
     absolute magnetization    =     3.98 Bohr mag/cell

[...]

     End of self-consistent calculation

 ------ SPIN UP ------------

          k = 0.0000 0.0000 0.0000 (  1447 PWs)   bands (ev):

   -30.6734 -30.6734 -30.4897 -30.4897 -30.3810 -30.3337  -3.7121  -2.1639
    -0.0795  -0.0795   7.5831   7.5891   9.2001   9.9507   9.9507  13.5453
    13.5453  14.3091  15.7883  16.0474  16.0474  16.4045  16.5624  17.1476
    17.6457  17.6457  17.9567  22.6456  22.6867  26.1725  26.7708  26.7708
    28.8496  29.5764  29.5764  29.9959  29.9982  34.0964  34.5094  36.0046
    37.0134  37.4401  39.2056  39.2056  41.0307  42.3549  42.4101  42.4101
    43.7610  43.7610  45.1218  49.8858  49.8858  50.0643  50.5045  50.6747
    53.4302  54.5786  54.5786  54.6733  55.2153  55.4098  55.4098  56.2910
    56.3945  57.7504  57.7579  57.7579  61.3179  62.8085  63.6581  63.6581
    64.5047  65.2863  65.2863  65.4412  65.5121  65.7882

[...]

 ------ SPIN DOWN ----------

[...]

     the Fermi energy is    20.6347 ev

!    total energy              =    -500.77192089 Ry
     Harris-Foulkes estimate   =    -500.77192006 Ry
     estimated scf accuracy    <       0.00000088 Ry

     The total energy is the sum of the following terms:

     one-electron contribution =     -59.73477724 Ry
     hartree contribution      =      78.50179191 Ry
     xc contribution           =    -140.06627331 Ry
     ewald contribution        =    -379.47274301 Ry
     smearing contrib. (-TS)   =       0.00008076 Ry

[...]

     convergence has been achieved in   8 iterations

     Forces acting on atoms (Ry/au):

     negative rho (up, down):  0.390E+00 0.390E+00
     atom    1 type  1   force =     0.00000000    0.00000000    0.00000000
     atom    2 type  1   force =     0.00000000    0.00000000   -0.00000000
     atom    3 type  2   force =    -0.09586319   -0.09586319    0.00000000
     atom    4 type  2   force =     0.09586319    0.09586319    0.00000000
     atom    5 type  2   force =    -0.09586319    0.09586319    0.00000000
     atom    6 type  2   force =     0.09586319   -0.09586319    0.00000000

     Total force =     0.271142     Total SCF correction =     0.000305

     entering subroutine stress ...

     negative rho (up, down):  0.390E+00 0.390E+00
          total   stress  (Ry/bohr**3)                   (kbar)     P= 1583.59
   0.00849800   0.00000000   0.00000000       1250.10      0.00      0.00
   0.00000000   0.00849800   0.00000000          0.00   1250.10      0.00
   0.00000000   0.00000000   0.01529915          0.00      0.00   2250.58

     Volume is kept fixed: isostatic pressure set to zero

     BFGS Geometry Optimization

     number of scf cycles    =   1
     number of bfgs steps    =   0

     enthalpy new            =    -500.7719208918 Ry

     new trust radius        =       0.4147631671 bohr
     new conv_thr            =       0.0000010000 Ry

     new unit-cell volume =    334.71740 a.u.^3 (    49.60000 Ang^3 )

CELL_PARAMETERS (alat=  8.03830103)
   0.946257561   0.000000000   0.000000000
   0.000000000   0.946257561   0.000000000
   0.000000000   0.000000000   0.719725282

ATOMIC_POSITIONS (crystal)
Ir0      0.000000000   0.000000000   0.000000000    0   0   0
Ir0      0.500000000   0.500000000   0.500000000    0   0   0
O1       0.293074197   0.293074197   0.000000000    1   1   0
[...]
        k(   32) = (   0.2113589   0.4227179   0.2778838), wk =   0.1280000
        k(   33) = (   0.2113589   0.4227179   0.5557676), wk =   0.1280000
        k(   34) = (   0.4227179   0.4227179   0.0000000), wk =   0.0320000
        k(   35) = (   0.4227179   0.4227179   0.2778838), wk =   0.0640000
        k(   36) = (   0.4227179   0.4227179   0.5557676), wk =   0.0640000

     Check: negative/imaginary core charge=   -0.000003    0.000000
     Check: negative starting charge=(component1):   -0.828954

[...]

     enthalpy old            =    -500.7719208918 Ry
     enthalpy new            =    -500.6744800415 Ry

     CASE: enthalpy_new > enthalpy_old

[...]

     CASE: enthalpy_new < enthalpy_old

[...]

     Threshold (ethr) on eigenvalues was too large:
     Diagonalizing with lowered threshold

     Davidson diagonalization with overlap
     ethr =  6.31E-10,  avg # of iterations =  2.0

[...]

     Total force =     0.000018     Total SCF correction =     0.000007
     SCF correction compared to forces is large: reduce conv_thr to get better values

[...]

     number of scf cycles    =   7
     number of bfgs steps    =   5

     enthalpy old            =    -500.8822898489 Ry
     enthalpy new            =    -500.8822923299 Ry

     CASE: enthalpy_new < enthalpy_old

     new trust radius        =       0.0003361732 bohr
     new conv_thr            =       0.0000000100 Ry

     new unit-cell volume =    334.71740 a.u.^3 (    49.60000 Ang^3 )

[...]

ATOMIC_POSITIONS (crystal)
Ir0      0.000000000   0.000000000   0.000000000    0   0   0
Ir0      0.500000000   0.500000000   0.500000000    0   0   0
O1       0.314848223   0.314848223   0.000000000    1   1   0
O1      -0.314848223  -0.314848223   0.000000000    1   1   0
O1       0.814848223   0.185151777   0.500000000    1   1   0
O1       0.185151777   0.814848223   0.500000000    1   1   0

     Check: negative starting charge=(component1):   -0.829468
     NEW-OLD atomic charge density approx. for the potential
     NEW k-points:
        k(    1) = (   0.0000000   0.0000000   0.0000000), wk =   0.0080000
        k(    2) = (   0.0000000   0.0000000   0.2785534), wk =   0.0160000
        k(    3) = (   0.0000000   0.0000000   0.5571067), wk =   0.0160000
        k(    4) = (   0.0000000   0.2111048   0.0000000), wk =   0.0320000
        k(    5) = (   0.0000000   0.2111048   0.2785534), wk =   0.0640000
        k(    6) = (   0.0000000   0.2111048   0.5571067), wk =   0.0640000
        k(    7) = (   0.0000000   0.4222095   0.0000000), wk =   0.0320000
        k(    8) = (   0.0000000   0.4222095   0.2785534), wk =   0.0640000
        k(    9) = (   0.0000000   0.4222095   0.5571067), wk =   0.0640000
        k(   10) = (   0.2111048   0.2111048   0.0000000), wk =   0.0320000
        k(   11) = (   0.2111048   0.2111048   0.2785534), wk =   0.0640000
        k(   12) = (   0.2111048   0.2111048   0.5571067), wk =   0.0640000
        k(   13) = (   0.2111048   0.4222095   0.0000000), wk =   0.0640000
        k(   14) = (   0.2111048   0.4222095   0.2785534), wk =   0.1280000
        k(   15) = (   0.2111048   0.4222095   0.5571067), wk =   0.1280000
        k(   16) = (   0.4222095   0.4222095   0.0000000), wk =   0.0320000
        k(   17) = (   0.4222095   0.4222095   0.2785534), wk =   0.0640000
        k(   18) = (   0.4222095   0.4222095   0.5571067), wk =   0.0640000
        k(   19) = (   0.0000000   0.0000000   0.0000000), wk =   0.0080000
        k(   20) = (   0.0000000   0.0000000   0.2785534), wk =   0.0160000
        k(   21) = (   0.0000000   0.0000000   0.5571067), wk =   0.0160000
        k(   22) = (   0.0000000   0.2111048   0.0000000), wk =   0.0320000
        k(   23) = (   0.0000000   0.2111048   0.2785534), wk =   0.0640000
        k(   24) = (   0.0000000   0.2111048   0.5571067), wk =   0.0640000
        k(   25) = (   0.0000000   0.4222095   0.0000000), wk =   0.0320000
        k(   26) = (   0.0000000   0.4222095   0.2785534), wk =   0.0640000
        k(   27) = (   0.0000000   0.4222095   0.5571067), wk =   0.0640000
        k(   28) = (   0.2111048   0.2111048   0.0000000), wk =   0.0320000
        k(   29) = (   0.2111048   0.2111048   0.2785534), wk =   0.0640000
        k(   30) = (   0.2111048   0.2111048   0.5571067), wk =   0.0640000
        k(   31) = (   0.2111048   0.4222095   0.0000000), wk =   0.0640000
        k(   32) = (   0.2111048   0.4222095   0.2785534), wk =   0.1280000
        k(   33) = (   0.2111048   0.4222095   0.5571067), wk =   0.1280000
        k(   34) = (   0.4222095   0.4222095   0.0000000), wk =   0.0320000
        k(   35) = (   0.4222095   0.4222095   0.2785534), wk =   0.0640000
        k(   36) = (   0.4222095   0.4222095   0.5571067), wk =   0.0640000

     Check: negative/imaginary core charge=   -0.000003    0.000000
     Check: negative starting charge=(component1):   -0.829469

[...]

     Threshold (ethr) on eigenvalues was too large:
     Diagonalizing with lowered threshold

     Davidson diagonalization with overlap
     ethr =  5.59E-11,  avg # of iterations =  2.0

[...]

     Total force =     0.000004     Total SCF correction =     0.000000
     SCF correction compared to forces is large: reduce conv_thr to get better values

[...]

     Volume is kept fixed: isostatic pressure set to zero

     bfgs converged in   8 scf cycles and   6 bfgs steps
     (criteria: energy < 0.10E-03, force < 0.10E-02, cell < 0.50E+00)

     End of BFGS Geometry Optimization

     Final enthalpy =    -500.8822924285 Ry
Begin final coordinates
     new unit-cell volume =    334.71740 a.u.^3 (    49.60000 Ang^3 )

CELL_PARAMETERS (alat=  8.03830103)
   0.947396862   0.000000000   0.000000000
   0.000000000   0.947396862   0.000000000
   0.000000000   0.000000000   0.717995298

ATOMIC_POSITIONS (crystal)
Ir0      0.000000000   0.000000000   0.000000000    0   0   0
Ir0      0.500000000   0.500000000   0.500000000    0   0   0
O1       0.314848223   0.314848223   0.000000000    1   1   0
O1      -0.314848223  -0.314848223   0.000000000    1   1   0
O1       0.814848223   0.185151777   0.500000000    1   1   0
O1       0.185151777   0.814848223   0.500000000    1   1   0
End final coordinates

     A final scf calculation at the relaxed structure.
     The G-vectors are recalculated for the final unit cell
     Results may differ from those at the preceding step.

     bravais-lattice index     =            0
     lattice parameter (alat)  =       8.0383  a.u.
     unit-cell volume          =     334.7174 (a.u.)^3
     number of atoms/cell      =            6
     number of atomic types    =            2
     number of electrons       =        54.00
     number of Kohn-Sham states=           78
     kinetic-energy cutoff     =      40.0000  Ry
     charge density cutoff     =     500.0000  Ry
     convergence threshold     =      1.0E-08
     mixing beta               =       0.7000
     number of iterations used =            8  plain     mixing
     Exchange-correlation      = SLA  PW   PBE  PBE ( 1 4 3 4 0)
     EXX-fraction              =        0.00

     celldm(1)=   8.038301  celldm(2)=   0.000000  celldm(3)=   0.000000
     celldm(4)=   0.000000  celldm(5)=   0.000000  celldm(6)=   0.000000

     crystal axes: (cart. coord. in units of alat)
               a(1) = (   0.947397   0.000000   0.000000 )
               a(2) = (   0.000000   0.947397   0.000000 )
               a(3) = (   0.000000   0.000000   0.717995 )

     reciprocal axes: (cart. coord. in units 2 pi/alat)
               b(1) = (  1.055524  0.000000  0.000000 )
               b(2) = (  0.000000  1.055524  0.000000 )
               b(3) = (  0.000000  0.000000  1.392767 )

     PseudoPot. # 1 for Ir read from file:
     /home/camp/zhonxu/pseudo/ir_pbe_v1.uspp.F.UPF
     MD5 check sum: abf987a9674477536ede83817f8f8b70
     Pseudo is Ultrasoft + core correction, Zval = 15.0
     Generated by new atomic code, or converted to UPF format
     Using radial grid of  983 points,  7 beta functions with:
                l(1) =   0
                l(2) =   0
                l(3) =   1
                l(4) =   1
                l(5) =   1
                l(6) =   2
                l(7) =   2
     Q(r) pseudized with  8 coefficients,  rinner =    1.350   1.350   1.350
                                                       1.350   1.350

     PseudoPot. # 2 for O  read from file:
     /home/camp/zhonxu/pseudo/o_pbe_v1.01.uspp.F.UPF
     MD5 check sum: 2bcb18d16ea4b960afae9ec6d52f22d2
     Pseudo is Ultrasoft + core correction, Zval =  6.0
     Generated by new atomic code, or converted to UPF format
     Using radial grid of  737 points,  5 beta functions with:
                l(1) =   0
                l(2) =   0
                l(3) =   1
                l(4) =   1
                l(5) =   2
     Q(r) pseudized with  8 coefficients,  rinner =    0.900   0.900   0.900
                                                       0.900   0.900

     atomic species   valence    mass     pseudopotential
        Ir0           15.00   192.22000     Ir( 1.00)
        O1             6.00    15.99940     O ( 1.00)

     Starting magnetic structure
     atomic species   magnetization
        Ir0          0.600
        O1           0.000

     16 Sym. Ops., with inversion, found ( 8 have fractional translation)

   Cartesian axes

     site n.     atom                  positions (alat units)
         1           Ir0 tau(   1) = (   0.0000000   0.0000000   0.0000000  )
         2           Ir0 tau(   2) = (   0.4736984   0.4736984   0.3589976  )
         3           O1  tau(   3) = (   0.2982862   0.2982862   0.0000000  )
         4           O1  tau(   4) = (  -0.2982862  -0.2982862   0.0000000  )
         5           O1  tau(   5) = (   0.7719846   0.1754122   0.3589976  )
         6           O1  tau(   6) = (   0.1754122   0.7719846   0.3589976  )

     number of k points=    36  Methfessel-Paxton smearing, width (Ry)=  0.0100
                       cart. coord. in units 2pi/alat
        k(    1) = (   0.0000000   0.0000000   0.0000000), wk =   0.0080000
        k(    2) = (   0.0000000   0.0000000   0.2785534), wk =   0.0160000
        k(    3) = (   0.0000000   0.0000000   0.5571067), wk =   0.0160000
        k(    4) = (   0.0000000   0.2111048   0.0000000), wk =   0.0320000
        k(    5) = (   0.0000000   0.2111048   0.2785534), wk =   0.0640000
        k(    6) = (   0.0000000   0.2111048   0.5571067), wk =   0.0640000
        k(    7) = (   0.0000000   0.4222095   0.0000000), wk =   0.0320000
        k(    8) = (   0.0000000   0.4222095   0.2785534), wk =   0.0640000
        k(    9) = (   0.0000000   0.4222095   0.5571067), wk =   0.0640000
        k(   10) = (   0.2111048   0.2111048   0.0000000), wk =   0.0320000
        k(   11) = (   0.2111048   0.2111048   0.2785534), wk =   0.0640000
        k(   12) = (   0.2111048   0.2111048   0.5571067), wk =   0.0640000
        k(   13) = (   0.2111048   0.4222095   0.0000000), wk =   0.0640000
        k(   14) = (   0.2111048   0.4222095   0.2785534), wk =   0.1280000
        k(   15) = (   0.2111048   0.4222095   0.5571067), wk =   0.1280000
        k(   16) = (   0.4222095   0.4222095   0.0000000), wk =   0.0320000
        k(   17) = (   0.4222095   0.4222095   0.2785534), wk =   0.0640000
        k(   18) = (   0.4222095   0.4222095   0.5571067), wk =   0.0640000
        k(   19) = (   0.0000000   0.0000000   0.0000000), wk =   0.0080000
        k(   20) = (   0.0000000   0.0000000   0.2785534), wk =   0.0160000
        k(   21) = (   0.0000000   0.0000000   0.5571067), wk =   0.0160000
        k(   22) = (   0.0000000   0.2111048   0.0000000), wk =   0.0320000
        k(   23) = (   0.0000000   0.2111048   0.2785534), wk =   0.0640000
        k(   24) = (   0.0000000   0.2111048   0.5571067), wk =   0.0640000
        k(   25) = (   0.0000000   0.4222095   0.0000000), wk =   0.0320000
        k(   26) = (   0.0000000   0.4222095   0.2785534), wk =   0.0640000
        k(   27) = (   0.0000000   0.4222095   0.5571067), wk =   0.0640000
        k(   28) = (   0.2111048   0.2111048   0.0000000), wk =   0.0320000
        k(   29) = (   0.2111048   0.2111048   0.2785534), wk =   0.0640000
        k(   30) = (   0.2111048   0.2111048   0.5571067), wk =   0.0640000
        k(   31) = (   0.2111048   0.4222095   0.0000000), wk =   0.0640000
        k(   32) = (   0.2111048   0.4222095   0.2785534), wk =   0.1280000
        k(   33) = (   0.2111048   0.4222095   0.5571067), wk =   0.1280000
        k(   34) = (   0.4222095   0.4222095   0.0000000), wk =   0.0320000
        k(   35) = (   0.4222095   0.4222095   0.2785534), wk =   0.0640000
        k(   36) = (   0.4222095   0.4222095   0.5571067), wk =   0.0640000

     Largest allocated arrays     est. size (Mb)     dimensions
     Largest temporary arrays     est. size (Mb)     dimensions

     Check: negative/imaginary core charge=   -0.000004    0.000000

     Initial potential from superposition of free atoms
     Check: negative starting charge=(component1):   -0.667071
     Check: negative starting charge=(component2):   -0.165127

     starting charge   52.99993, renormalised to   54.00000

     negative rho (up, down):  0.680E+00 0.168E+00
     Starting wfc are   40 randomized atomic wfcs

     Self-consistent Calculation

[...]

     total energy              =    -500.88392736 Ry
     Harris-Foulkes estimate   =    -500.88392729 Ry
     estimated scf accuracy    <       0.00000004 Ry

[...]

     iteration # 11     ecut=    40.00 Ry     beta=0.70
     Davidson diagonalization with overlap
     ethr =  7.79E-11,  avg # of iterations =  2.0

     negative rho (up, down):  0.388E+00 0.388E+00

     End of self-consistent calculation

 ------ SPIN UP ------------

[...]

 ------ SPIN DOWN ----------

[...]

          k = 0.4222 0.4222 0.5571 (  1441 PWs)   bands (ev):

   -30.9023 -30.8952 -30.7461 -30.7378 -30.3044 -30.3042  -1.5285  -1.4614
    -0.8761  -0.8579   9.2902   9.4925   9.7255   9.9738  11.0608  11.5176
    13.8851  14.0097  14.1405  14.6011  15.5717  15.9888  17.6536  17.8521
    18.1430  19.0950  19.6812  20.5370  23.2340  23.6156  25.5100  25.9138
    29.6516  29.8407  29.8409  29.9526  31.9099  32.9151  33.4798  33.8312
    35.6773  36.6224  37.9343  38.0891  41.8174  42.4056  43.5189  43.7190
    44.5051  44.9618  47.0263  48.5112  49.9636  50.7064  50.8341  51.2502
    51.7849  53.4794  55.2367  55.6273  55.6563  56.5106  57.4290  57.4815
    58.2181  58.6387  59.0504  59.7410  59.9333  60.7042  61.4541  61.8597
    62.7032  63.0612  63.9323  64.3310  65.0417  65.4996

     the Fermi energy is    20.5310 ev

!    total energy              =    -500.88392739 Ry
     Harris-Foulkes estimate   =    -500.88392739 Ry
     estimated scf accuracy    <          2.4E-09 Ry

     The total energy is the sum of the following terms:

     one-electron contribution =     -49.63165418 Ry
     hartree contribution      =      73.40362484 Ry
     xc contribution           =    -139.80888308 Ry
     ewald contribution        =    -384.84637719 Ry
     smearing contrib. (-TS)   =      -0.00063779 Ry

     total magnetization       =    -0.00 Bohr mag/cell
     absolute magnetization    =     0.00 Bohr mag/cell

     convergence has been achieved in  11 iterations

     Forces acting on atoms (Ry/au):

     negative rho (up, down):  0.388E+00 0.388E+00
     atom    1 type  1   force =     0.00000000    0.00000000    0.00000000
     atom    2 type  1   force =     0.00000000    0.00000000   -0.00000000
     atom    3 type  2   force =     0.00016003    0.00016003    0.00000000
     atom    4 type  2   force =    -0.00016003   -0.00016003   -0.00000000
     atom    5 type  2   force =     0.00016003   -0.00016003    0.00000000
     atom    6 type  2   force =    -0.00016003    0.00016003    0.00000000

     Total force =     0.000453     Total SCF correction =     0.000014

     entering subroutine stress ...

     negative rho (up, down):  0.388E+00 0.388E+00
          total   stress  (Ry/bohr**3)                   (kbar)     P= 1346.38
   0.00913051   0.00000000   0.00000000       1343.14      0.00      0.00
   0.00000000   0.00913051   0.00000000          0.00   1343.14      0.00
   0.00000000   0.00000000   0.00919651          0.00      0.00   1352.85

     General routines

     Parallel routines

   This run was terminated on:  21:17:55  23Jan2014

   JOB DONE.
Running PBS batch system epilogue script
Job id: 251181.audhumbla.fysik.dtu.dk
Username: zhonxu
Groupname: campgst
Jobname: IrO2/coarse-EOS/IrO2-v-0.8
Sessionid: 12796
Queuename: verylong
Accounting:
This job has allocated the following 4 nodes:
q025 q025 q025 q025
Finished epilogue job 251181.audhumbla.fysik.dtu.dk for zhonxu