     Program PWSCF v.5.0.2 (svn rev. 9656) starts on 29Apr2014 at  5:36:40

     Current dimensions of program PWSCF are:
     Max number of different atomic species (ntypx) = 10
     Max number of k-points (npk) =  40000
     Max angular momentum in pseudopotentials (lmaxx) =  3
     Reading input from pwscf.in
Warning: card &CELL ignored
Warning: card / ignored

     Subspace diagonalization in iterative solution of the eigenvalue problem:
     a serial algorithm will be used

     bravais-lattice index     =            0
     lattice parameter (alat)  =      12.0187  a.u.
     unit-cell volume          =    7280.5819 (a.u.)^3
     number of atoms/cell      =           32
     number of atomic types    =            3
     number of electrons       =       239.00
     number of Kohn-Sham states=          358
     kinetic-energy cutoff     =      40.0000  Ry
     charge density cutoff     =     500.0000  Ry
     convergence threshold     =      1.0E-06
     mixing beta               =       0.7000
     number of iterations used =            8  plain     mixing
     Exchange-correlation      = SLA  PW   PBE  PBE ( 1 4 3 4 0)
     EXX-fraction              =        0.00
     nstep                     =           50

     celldm(1)=  12.018658  celldm(2)=   0.000000  celldm(3)=   0.000000
     celldm(4)=   0.000000  celldm(5)=   0.000000  celldm(6)=   0.000000

     crystal axes: (cart. coord. in units of alat)
               a(1) = (   1.000000   0.000000   0.000000 )
               a(2) = (   0.000000   1.009517   0.000000 )
               a(3) = (   0.000000   0.000000   4.154171 )

     reciprocal axes: (cart. coord. in units 2 pi/alat)
               b(1) = (  1.000000  0.000000  0.000000 )
               b(2) = (  0.000000  0.990572  0.000000 )
               b(3) = (  0.000000  0.000000  0.240722 )

     PseudoPot. # 1 for O  read from file:
     /home/camp/zhonxu/pseudo/o_pbe_v1.01.uspp.F.UPF
     MD5 check sum: 2bcb18d16ea4b960afae9ec6d52f22d2
     Pseudo is Ultrasoft + core correction, Zval =  6.0
     Generated by new atomic code, or converted to UPF format
     Using radial grid of  737 points,  5 beta functions with:
                l(1) =   0
                l(2) =   0
                l(3) =   1
                l(4) =   1
                l(5) =   2
     Q(r) pseudized with  8 coefficients,  rinner =    0.900   0.900   0.900
                                                       0.900   0.900

     PseudoPot. # 2 for Ir read from file:
     /home/camp/zhonxu/pseudo/ir_pbe_v1.uspp.F.UPF
     MD5 check sum: abf987a9674477536ede83817f8f8b70
     Pseudo is Ultrasoft + core correction, Zval = 15.0
     Generated by new atomic code, or converted to UPF format
     Using radial grid of  983 points,  7 beta functions with:
                l(1) =   0
                l(2) =   0
                l(3) =   1
                l(4) =   1
                l(5) =   1
                l(6) =   2
                l(7) =   2
     Q(r) pseudized with  8 coefficients,  rinner =    1.350   1.350   1.350
                                                       1.350   1.350

     PseudoPot. # 3 for H  read from file:
     /home/camp/zhonxu/pseudo/h_pbe_v1.uspp.F.UPF
     MD5 check sum: 3408e3ff4ec8b0a4e358431e7e038a48
     Pseudo is Ultrasoft, Zval =  1.0
     Generated by new atomic code, or converted to UPF format
     Using radial grid of  615 points,  2 beta functions with:
                l(1) =   0
                l(2) =   0
     Q(r) pseudized with  8 coefficients,  rinner =    0.700

     atomic species   valence    mass     pseudopotential
        O0             6.00    15.99940     O ( 1.00)
        Ir1           15.00   192.22000     Ir( 1.00)
        H2             1.00     1.00794     H ( 1.00)

     Simplified LDA+U calculation (l_max = 2) with parameters (eV):
     atomic species    L          U    alpha       J0     beta
        Ir1            2     3.0000   0.0000   0.0000   0.0000

     No symmetry found

   Cartesian axes

     site n.     atom                  positions (alat units)
         1           O0  tau(   1) = (   0.0000000   0.0000000   1.5715230  )
         2           O0  tau(   2) = (   0.0000000   0.5047586   1.6723863  )
         3           Ir1 tau(   3) = (   0.2500000   0.5047586   1.8804272  )
         4           Ir1 tau(   4) = (   0.0000000   0.0000000   1.8823796  )
         5           O0  tau(   5) = (   0.2500000   0.8177090   1.8809672  )
         6           O0  tau(   6) = (   0.2500000   0.1918083   1.8797625  )
         7           O0  tau(   7) = (   0.0000000   0.5047586   2.0697743  )
         8           O0  tau(   8) = (   0.0000000   0.0000000   2.1967673  )
         9           Ir1 tau(   9) = (   0.2500000   0.0000000   2.3926365  )
        10           Ir1 tau(  10) = (   0.0000000   0.5047586   2.3747736  )
        11           O0  tau(  11) = (   0.2500000   0.6965669   2.3923873  )
        12           O0  tau(  12) = (   0.2500000   0.3129503   2.3927196  )
        13           O0  tau(  13) = (   0.0000000   0.0000000   2.5779541  )
        14           O0  tau(  14) = (   0.5000000   0.0000000   1.5704845  )
        15           O0  tau(  15) = (   0.5000000   0.5047586   1.6698107  )
        16           Ir1 tau(  16) = (   0.7500000   0.5047586   1.8805103  )
        17           Ir1 tau(  17) = (   0.5000000   0.0000000   1.8817565  )
        18           O0  tau(  18) = (   0.7500000   0.8177090   1.8810503  )
        19           O0  tau(  19) = (   0.7500000   0.1918083   1.8797625  )
        20           O0  tau(  20) = (   0.5000000   0.5047586   2.0748424  )
        21           O0  tau(  21) = (   0.5000000   0.0000000   2.1964350  )
        22           Ir1 tau(  22) = (   0.7500000   0.0000000   2.3925119  )
        23           Ir1 tau(  23) = (   0.5000000   0.5047586   2.3910995  )
        24           O0  tau(  24) = (   0.7500000   0.6965669   2.3896040  )
        25           O0  tau(  25) = (   0.7500000   0.3129503   2.3900194  )
        26           O0  tau(  26) = (   0.5000000   0.0000000   2.5760847  )
        27           H2  tau(  27) = (  -0.0000400   0.6399431   1.5942048  )
        28           H2  tau(  28) = (   0.5000100   0.6429817   1.5968219  )
        29           H2  tau(  29) = (   0.1437000   0.0339904   1.5235839  )
        30           H2  tau(  30) = (   0.6431700   0.0357369   1.5224622  )
        31           O0  tau(  31) = (   0.5156900   0.5047586   2.6944786  )
        32           H2  tau(  32) = (   0.3744100   0.5050918   2.7575805  )

     number of k points=    10  Methfessel-Paxton smearing, width (Ry)=  0.0100
                       cart. coord. in units 2pi/alat
        k(    1) = (   0.0000000   0.0000000   0.0000000), wk =   0.1250000
        k(    2) = (   0.0000000   0.2476431   0.0000000), wk =   0.2500000
        k(    3) = (   0.0000000  -0.4952862   0.0000000), wk =   0.1250000
        k(    4) = (   0.2500000   0.0000000   0.0000000), wk =   0.2500000
        k(    5) = (   0.2500000   0.2476431   0.0000000), wk =   0.2500000
        k(    6) = (   0.2500000  -0.4952862   0.0000000), wk =   0.2500000
        k(    7) = (  -0.5000000   0.0000000   0.0000000), wk =   0.1250000
        k(    8) = (  -0.5000000   0.2476431   0.0000000), wk =   0.2500000
        k(    9) = (  -0.5000000  -0.4952862   0.0000000), wk =   0.1250000
        k(   10) = (  -0.2500000   0.2476431   0.0000000), wk =   0.2500000

     Largest allocated arrays     est. size (Mb)     dimensions
     Largest temporary arrays     est. size (Mb)     dimensions

     Check: negative/imaginary core charge=   -0.000003    0.000000

     Initial potential from superposition of free atoms
     Check: negative starting charge=   -3.334647

     starting charge  234.99967, renormalised to  239.00000

     negative rho (up, down):  0.339E+01 0.000E+00
     Number of +U iterations with fixed ns =  0
     Starting occupations:
 --- enter write_ns ---
 LDA+U parameters:
U( 2)     =  3.00000000
alpha( 2) =  0.00000000
atom    3   Tr[ns(na)] =   7.00000
    eigenvalues:
  0.700  0.700  0.700  0.700  0.700
    eigenvectors:
  1.000  0.000  0.000  0.000  0.000
  0.000  1.000  0.000  0.000  0.000
  0.000  0.000  1.000  0.000  0.000
  0.000  0.000  0.000  1.000  0.000
  0.000  0.000  0.000  0.000  1.000
    occupations:
  0.700  0.000  0.000  0.000  0.000
  0.000  0.700  0.000  0.000  0.000
  0.000  0.000  0.700  0.000  0.000
  0.000  0.000  0.000  0.700  0.000
  0.000  0.000  0.000  0.000  0.700
atom    4   Tr[ns(na)] =   7.00000
    eigenvalues:
  0.700  0.700  0.700  0.700  0.700
    eigenvectors:
  1.000  0.000  0.000  0.000  0.000
  0.000  1.000  0.000  0.000  0.000
  0.000  0.000  1.000  0.000  0.000
  0.000  0.000  0.000  1.000  0.000
  0.000  0.000  0.000  0.000  1.000
    occupations:
  0.700  0.000  0.000  0.000  0.000
  0.000  0.700  0.000  0.000  0.000
  0.000  0.000  0.700  0.000  0.000
  0.000  0.000  0.000  0.700  0.000
  0.000  0.000  0.000  0.000  0.700
atom    9   Tr[ns(na)] =   7.00000
    eigenvalues:
  0.700  0.700  0.700  0.700  0.700
    eigenvectors:
  1.000  0.000  0.000  0.000  0.000
  0.000  1.000  0.000  0.000  0.000
  0.000  0.000  1.000  0.000  0.000
  0.000  0.000  0.000  1.000  0.000
  0.000  0.000  0.000  0.000  1.000
    occupations:
  0.700  0.000  0.000  0.000  0.000
  0.000  0.700  0.000  0.000  0.000
  0.000  0.000  0.700  0.000  0.000
  0.000  0.000  0.000  0.700  0.000
  0.000  0.000  0.000  0.000  0.700
atom   10   Tr[ns(na)] =   7.00000
    eigenvalues:
  0.700  0.700  0.700  0.700  0.700
    eigenvectors:
  1.000  0.000  0.000  0.000  0.000
  0.000  1.000  0.000  0.000  0.000
  0.000  0.000  1.000  0.000  0.000
  0.000  0.000  0.000  1.000  0.000
  0.000  0.000  0.000  0.000  1.000
    occupations:
  0.700  0.000  0.000  0.000  0.000
  0.000  0.700  0.000  0.000  0.000
  0.000  0.000  0.700  0.000  0.000
  0.000  0.000  0.000  0.700  0.000
  0.000  0.000  0.000  0.000  0.700
atom   16   Tr[ns(na)] =   7.00000
    eigenvalues:
  0.700  0.700  0.700  0.700  0.700
    eigenvectors:
  1.000  0.000  0.000  0.000  0.000
  0.000  1.000  0.000  0.000  0.000
  0.000  0.000  1.000  0.000  0.000
  0.000  0.000  0.000  1.000  0.000
  0.000  0.000  0.000  0.000  1.000
    occupations:
  0.700  0.000  0.000  0.000  0.000
  0.000  0.700  0.000  0.000  0.000
  0.000  0.000  0.700  0.000  0.000
  0.000  0.000  0.000  0.700  0.000
  0.000  0.000  0.000  0.000  0.700
atom   17   Tr[ns(na)] =   7.00000
    eigenvalues:
  0.700  0.700  0.700  0.700  0.700
    eigenvectors:
  1.000  0.000  0.000  0.000  0.000
  0.000  1.000  0.000  0.000  0.000
  0.000  0.000  1.000  0.000  0.000
  0.000  0.000  0.000  1.000  0.000
  0.000  0.000  0.000  0.000  1.000
    occupations:
  0.700  0.000  0.000  0.000  0.000
  0.000  0.700  0.000  0.000  0.000
  0.000  0.000  0.700  0.000  0.000
  0.000  0.000  0.000  0.700  0.000
  0.000  0.000  0.000  0.000  0.700
atom   22   Tr[ns(na)] =   7.00000
    eigenvalues:
  0.700  0.700  0.700  0.700  0.700
    eigenvectors:
  1.000  0.000  0.000  0.000  0.000
  0.000  1.000  0.000  0.000  0.000
  0.000  0.000  1.000  0.000  0.000
  0.000  0.000  0.000  1.000  0.000
[...]
  0.001  0.858  0.000  0.000  0.141
  0.000  0.000  0.001  0.999  0.000
    occupations:
  0.937 -0.000  0.000 -0.110 -0.000
 -0.000  0.652  0.000  0.000 -0.000
  0.000  0.000  0.853 -0.000 -0.001
 -0.110  0.000 -0.000  0.710  0.001
 -0.000 -0.000 -0.001  0.001  0.896
atom   10   Tr[ns(na)] =   8.08897
    eigenvalues:
  0.591  0.609  0.924  0.938  0.983
    eigenvectors:
  0.992  0.000  0.000  0.000  0.008
  0.000  0.000  1.000  0.000  0.000
  0.000  0.000  0.000  1.000  0.000
  0.008  0.000  0.000  0.000  0.992
  0.000  1.000  0.000  0.000  0.000
    occupations:
  0.594 -0.004  0.001  0.034 -0.000
 -0.004  0.924 -0.000  0.000 -0.000
  0.001 -0.000  0.938 -0.000  0.002
  0.034  0.000 -0.000  0.980 -0.000
 -0.000 -0.000  0.002 -0.000  0.609
atom   16   Tr[ns(na)] =   8.13177
    eigenvalues:
  0.604  0.631  0.888  0.963  0.979
    eigenvectors:
  0.003  0.182  0.003  0.001  0.811
  0.991  0.008  0.000  0.000  0.000
  0.000  0.000  0.977  0.020  0.003
  0.006  0.809  0.000  0.000  0.184
  0.000  0.000  0.019  0.979  0.002
    occupations:
  0.914  0.006  0.004 -0.135  0.001
  0.006  0.605  0.001 -0.000 -0.005
  0.004  0.001  0.890 -0.004 -0.010
 -0.135 -0.000 -0.004  0.695  0.000
  0.001 -0.005 -0.010  0.000  0.962
atom   17   Tr[ns(na)] =   8.11428
    eigenvalues:
  0.618  0.665  0.873  0.918  0.983
    eigenvectors:
  0.000  0.989  0.000  0.000  0.010
  0.000  0.000  0.079  0.921  0.000
  0.000  0.000  0.921  0.079  0.000
  0.000  0.010  0.000  0.000  0.990
  1.000  0.000  0.000  0.000  0.000
    occupations:
  0.669 -0.003 -0.001  0.032  0.001
 -0.003  0.915  0.012  0.000 -0.002
 -0.001  0.012  0.877 -0.000  0.000
  0.032  0.000 -0.000  0.979  0.000
  0.001 -0.002  0.000  0.000  0.618
atom   22   Tr[ns(na)] =   8.09029
    eigenvalues:
  0.652  0.667  0.846  0.899  0.981
    eigenvectors:
  0.000  0.140  0.000  0.000  0.860
  1.000  0.000  0.000  0.000  0.000
  0.000  0.000  1.000  0.000  0.000
  0.000  0.860  0.000  0.000  0.140
  0.000  0.000  0.000  1.000  0.000
    occupations:
  0.937  0.001 -0.000 -0.109 -0.000
  0.001  0.652  0.000 -0.000 -0.000
 -0.000  0.000  0.846 -0.000  0.001
 -0.109 -0.000 -0.000  0.711  0.001
 -0.000 -0.000  0.001  0.001  0.899
atom   23   Tr[ns(na)] =   8.09629
    eigenvalues:
  0.622  0.671  0.846  0.927  0.982
    eigenvectors:
  0.000  0.989  0.000  0.000  0.011
  0.000  0.000  0.000  0.999  0.000
  0.000  0.000  1.000  0.000  0.000
  0.000  0.011  0.000  0.000  0.989
  1.000  0.000  0.000  0.000  0.000
    occupations:
  0.675  0.006  0.000  0.032 -0.000
  0.006  0.927 -0.000 -0.000 -0.000
  0.000 -0.000  0.846  0.000 -0.001
  0.032 -0.000  0.000  0.979 -0.000
 -0.000 -0.000 -0.001 -0.000  0.622
N of occupied +U levels =  64.8637788
 --- exit write_ns ---

     Threshold (ethr) on eigenvalues was too large:
     Diagonalizing with lowered threshold

     Davidson diagonalization with overlap
     ethr =  2.24E-08,  avg # of iterations =  1.9

[...]

     total energy              =   -2106.26423354 Ry
     Harris-Foulkes estimate   =   -2106.26423355 Ry
     estimated scf accuracy    <       0.00000009 Ry

     iteration # 14     ecut=    40.00 Ry     beta=0.70
     Davidson diagonalization with overlap
     ethr =  7.78E-12,  avg # of iterations =  1.0

     negative rho (up, down):  0.313E+01 0.000E+00

     End of self-consistent calculation
 --- enter write_ns ---
 LDA+U parameters:
U( 2)     =  3.00000000
alpha( 2) =  0.00000000
atom    3   Tr[ns(na)] =   8.13171
    eigenvalues:
  0.604  0.631  0.889  0.963  0.979
    eigenvectors:
  0.002  0.182  0.003  0.000  0.812
  0.993  0.007  0.000  0.000  0.000
  0.000  0.000  0.974  0.024  0.003
  0.005  0.811  0.000  0.000  0.184
  0.000  0.000  0.023  0.975  0.001
    occupations:
  0.915 -0.006  0.004 -0.135 -0.002
 -0.006  0.604 -0.001  0.000 -0.005
  0.004 -0.001  0.891 -0.004  0.011
 -0.135  0.000 -0.004  0.695 -0.000
 -0.002 -0.005  0.011 -0.000  0.961
atom    4   Tr[ns(na)] =   8.11297
    eigenvalues:
  0.619  0.666  0.866  0.923  0.983
    eigenvectors:
  0.000  0.989  0.000  0.000  0.010
  0.000  0.000  0.039  0.961  0.000
  0.000  0.000  0.961  0.039  0.000
  0.000  0.010  0.000  0.000  0.990
  1.000  0.000  0.000  0.000  0.000
    occupations:
  0.670 -0.003 -0.000  0.032  0.001
 -0.003  0.920  0.011  0.000 -0.001
 -0.000  0.011  0.868 -0.000  0.001
  0.032  0.000 -0.000  0.979  0.000
  0.001 -0.001  0.001  0.000  0.619
atom    9   Tr[ns(na)] =   8.09638
    eigenvalues:
  0.652  0.666  0.853  0.896  0.981
    eigenvectors:
  0.000  0.141  0.000  0.000  0.859
  0.999  0.001  0.000  0.000  0.000
  0.000  0.000  0.999  0.001  0.000
  0.001  0.858  0.000  0.000  0.141
  0.000  0.000  0.001  0.999  0.000
    occupations:
  0.937 -0.000  0.000 -0.110 -0.000
 -0.000  0.652  0.000  0.000 -0.000
  0.000  0.000  0.853 -0.000 -0.001
 -0.110  0.000 -0.000  0.710  0.001
 -0.000 -0.000 -0.001  0.001  0.896
atom   10   Tr[ns(na)] =   8.09041
    eigenvalues:
  0.591  0.609  0.924  0.938  0.983
    eigenvectors:
  0.992  0.000  0.000  0.000  0.008
  0.000  0.000  1.000  0.000  0.000
  0.000  0.000  0.000  1.000  0.000
  0.008  0.000  0.000  0.000  0.992
  0.000  1.000  0.000  0.000  0.000
    occupations:
  0.595 -0.004  0.001  0.034 -0.000
 -0.004  0.924 -0.000  0.000 -0.000
  0.001 -0.000  0.938 -0.000  0.002
  0.034  0.000 -0.000  0.980 -0.000
 -0.000 -0.000  0.002 -0.000  0.609
atom   16   Tr[ns(na)] =   8.13134
    eigenvalues:
  0.604  0.631  0.888  0.963  0.979
    eigenvectors:
  0.003  0.182  0.003  0.001  0.811
  0.991  0.008  0.000  0.000  0.000
  0.000  0.000  0.977  0.020  0.003
  0.006  0.809  0.000  0.000  0.184
  0.000  0.000  0.019  0.979  0.002
    occupations:
  0.914  0.006  0.004 -0.135  0.002
  0.006  0.605  0.001 -0.000 -0.005
  0.004  0.001  0.890 -0.004 -0.010
 -0.135 -0.000 -0.004  0.695  0.000
  0.002 -0.005 -0.010  0.000  0.961
atom   17   Tr[ns(na)] =   8.11351
    eigenvalues:
  0.618  0.665  0.873  0.918  0.983
    eigenvectors:
  0.000  0.989  0.000  0.000  0.010
  0.000  0.000  0.078  0.922  0.000
  0.000  0.000  0.922  0.078  0.000
  0.000  0.010  0.000  0.000  0.990
  1.000  0.000  0.000  0.000  0.000
    occupations:
  0.669 -0.003 -0.001  0.032  0.001
 -0.003  0.914  0.012  0.000 -0.002
 -0.001  0.012  0.877 -0.000  0.000
  0.032  0.000 -0.000  0.979  0.000
  0.001 -0.002  0.000  0.000  0.618
atom   22   Tr[ns(na)] =   8.09126
    eigenvalues:
  0.652  0.667  0.847  0.899  0.981
    eigenvectors:
  0.000  0.140  0.000  0.000  0.860
  1.000  0.000  0.000  0.000  0.000
  0.000  0.000  1.000  0.000  0.000
  0.000  0.860  0.000  0.000  0.140
  0.000  0.000  0.000  1.000  0.000
    occupations:
  0.937  0.001 -0.000 -0.109 -0.000
  0.001  0.652  0.000 -0.000 -0.000
 -0.000  0.000  0.847 -0.000  0.001
 -0.109 -0.000 -0.000  0.711  0.001
 -0.000 -0.000  0.001  0.001  0.899
atom   23   Tr[ns(na)] =   8.09619
    eigenvalues:
  0.622  0.671  0.846  0.927  0.982
    eigenvectors:
  0.000  0.989  0.000  0.000  0.011
  0.000  0.000  0.000  0.999  0.000
  0.000  0.000  1.000  0.000  0.000
  0.000  0.011  0.000  0.000  0.989
  1.000  0.000  0.000  0.000  0.000
    occupations:
  0.674  0.006  0.000  0.032 -0.000
  0.006  0.927 -0.000 -0.000 -0.000
  0.000 -0.000  0.846  0.000 -0.001
  0.032 -0.000  0.000  0.979 -0.000
 -0.000 -0.000 -0.001 -0.000  0.622
N of occupied +U levels =  64.8637830
 --- exit write_ns ---

[...]

          k = 0.2500-0.4953 0.0000 ( 31088 PWs)   bands (ev):

[...]

          k =-0.2500 0.2476 0.0000 ( 31099 PWs)   bands (ev):

   -50.8579 -50.8155 -50.7989 -50.7847 -50.7056 -50.6942 -50.6636 -50.6555
   -50.6323 -50.6147 -50.5838 -50.5685 -50.5571 -50.5034 -50.4495 -50.4205
   -50.4143 -50.4063 -50.3410 -50.3373 -50.3065 -50.2941 -50.2788 -50.1865
   -21.4425 -21.1057 -21.0566 -20.9934 -20.6298 -20.5364 -20.4513 -20.4075
   -20.3057 -20.2019 -20.1306 -20.0509 -19.9124 -19.8994 -19.8347 -19.7536
   -19.5648 -18.7763 -18.6558 -10.0828  -9.9856  -9.8470  -9.5283  -9.1151
    -9.0876  -9.0700  -8.9213  -8.7762  -8.7398  -8.7056  -8.6395  -8.5537
    -8.4910  -8.2368  -8.1874  -8.0627  -7.8873  -7.6587  -7.5467  -7.3939
    -7.3345  -7.2133  -7.1649  -6.8844  -6.7733  -6.6844  -6.5168  -6.4026
    -6.3007  -6.2504  -6.2091  -6.0816  -5.9929  -5.9534  -5.8740  -5.7913
    -5.6535  -5.6124  -5.4504  -5.2677  -5.1372  -5.0434  -4.8884  -4.7926
    -4.6566  -4.5810  -4.4905  -4.2916  -4.2223  -4.1161  -3.9274  -3.7150
    -3.6330  -3.4456  -3.3459  -3.2507  -3.1232  -3.0256  -2.9858  -2.9223
    -2.8697  -2.7800  -2.6747  -2.6453  -2.5972  -2.5447  -2.4440  -2.2801
    -2.2582  -2.1610  -1.7915  -1.6055  -1.4053  -1.2126  -1.0034  -0.9867
    -0.9201  -0.7057  -0.5834  -0.3686  -0.0046   0.9975   1.0223   1.3231
     1.6558   1.7811   2.2002   2.3342   2.7006   2.7480   2.8755   2.9584
     3.1639   3.3168   3.3754   3.7133   3.8395   4.3027   4.8384   5.2587
     5.4663   5.6254   5.7106   6.0099   6.2816   6.5479   6.6457   6.6692
     6.7414   6.9296   7.1329   7.2140   7.3744   7.4586   7.5784   7.6928
     7.9208   8.0377   8.0978   8.1559   8.2628   8.4775   8.5029   8.5689
     8.7989   8.8555   8.9095   8.9730   9.0842   9.0994   9.1819   9.2526
     9.2552   9.2734   9.2888   9.2939   9.3670   9.4250   9.4590   9.4639
     9.5686   9.6051   9.7220   9.7683   9.8306   9.9891  10.0825  10.1502
    10.2248  10.3387  10.3754  10.4586  10.5221  10.5431  10.6136  10.8129
    10.8398  10.9823  11.0027  11.1211  11.1604  11.2384  11.4016  11.5233
    11.5616  11.6685  11.7174  11.7843  11.8238  11.9672  12.1735  12.1953
    12.2428  12.3499  12.3726  12.4176  12.5550  12.6367  12.6532  12.7262
    12.7852  12.8250  12.9312  12.9972  13.0549  13.1608  13.2094  13.2463
    13.3092  13.4070  13.4959  13.6538  13.6878  13.8013  13.8928  13.9249
    14.0012  14.0633  14.1464  14.2272  14.3162  14.3957  14.4758  14.5291
    14.6973  14.7562  14.7779  14.9317  15.0416  15.1816  15.2307  15.3163
    15.4273  15.4647  15.5144  15.5906  15.6238  15.7578  15.7971  15.8671
    15.9139  15.9432  15.9867  16.0790  16.1317  16.1861  16.2307  16.3089
    16.3713  16.4073  16.4259  16.5186  16.5459  16.6520  16.7148  16.7538
    16.8065  16.8873  17.0881  17.1332  17.1646  17.2989  17.3318  17.4201
    17.4641  17.5377  17.5523  17.6125  17.6893  17.7065  17.7473  17.8456
    17.9217  17.9520  17.9907  18.1209  18.2114  18.2542  18.3005  18.3747
    18.4728  18.5905  18.6462  18.6828  18.7758  18.8562  18.9015  18.9701
    19.0335  19.0974  19.1497  19.2225  19.2852  19.3296  19.3889  19.5582
    19.5832  19.6321  19.7099  19.7564  19.8551  19.9455  20.0347  20.0691
    20.1225  20.2280  20.3704  20.3887  20.4687  20.5903  20.6391  20.7086
    20.7607  20.7854  20.8945  20.9194  20.9496  21.0101  21.0702  21.1486
    21.1963  21.3004  21.3138  21.3751  21.4353  21.4614  21.5107  21.5929
    21.6975  21.7458  21.8205  21.8445  21.8830  21.9748

     the Fermi energy is    -0.9999 ev

!    total energy              =   -2106.26423354 Ry
     Harris-Foulkes estimate   =   -2106.26423355 Ry
     estimated scf accuracy    <          9.3E-09 Ry

     The total energy is the sum of the following terms:

     one-electron contribution =  -22767.69867882 Ry
     hartree contribution      =   11428.44491152 Ry
     xc contribution           =    -577.18177036 Ry
     ewald contribution        =    9809.01423270 Ry
     Hubbard energy            =       1.15768718 Ry
     smearing contrib. (-TS)   =      -0.00061576 Ry

     convergence has been achieved in  14 iterations

     Forces acting on atoms (Ry/au):

     negative rho (up, down):  0.313E+01 0.000E+00
     atom    1 type  1   force =    -0.00712183   -0.01300602   -0.00010591
     atom    2 type  1   force =     0.00035659    0.00386755   -0.00016961
     atom    3 type  2   force =     0.03200812    0.00749966    0.00000756
     atom    4 type  2   force =     0.00915587    0.00812726   -0.00002332
     atom    5 type  1   force =    -0.00360785   -0.01617665   -0.00006889
     atom    6 type  1   force =     0.00516073    0.01372604    0.00001605
     atom    7 type  1   force =     0.00164564   -0.00203682   -0.00013400
     atom    8 type  1   force =    -0.00252313   -0.00067185   -0.00005755
     atom    9 type  2   force =     0.00773277    0.00023023   -0.00000933
     atom   10 type  2   force =    -0.00771021   -0.00125262   -0.00078618
     atom   11 type  1   force =    -0.00426686    0.01243560    0.00017151
     atom   12 type  1   force =    -0.00407833   -0.01230571    0.00015472
     atom   13 type  1   force =    -0.00121630   -0.00012633    0.00001712
     atom   14 type  1   force =    -0.00796717   -0.01396313   -0.00007382
     atom   15 type  1   force =     0.00032958    0.00480751   -0.00027131
     atom   16 type  2   force =    -0.03288736    0.00663714   -0.00008625
     atom   17 type  2   force =     0.00952357    0.00842923   -0.00012868
     atom   18 type  1   force =    -0.00332629   -0.01579469   -0.00004816
     atom   19 type  1   force =     0.00433990    0.01463842    0.00002455
     atom   20 type  1   force =    -0.00134146   -0.00526673    0.00090646
     atom   21 type  1   force =    -0.00407975   -0.00058618   -0.00001139
     atom   22 type  2   force =    -0.00499780    0.00053080   -0.00006420
     atom   23 type  2   force =     0.00278179   -0.00024559    0.00020086
     atom   24 type  1   force =     0.00568369    0.01627392    0.00004962
     atom   25 type  1   force =     0.00642290   -0.01639818    0.00004926
     atom   26 type  1   force =    -0.00089855   -0.00021691    0.00005904
     atom   27 type  3   force =    -0.00000808    0.00016871    0.00025045
     atom   28 type  3   force =     0.00001946    0.00032901    0.00042168
     atom   29 type  3   force =     0.00010287    0.00002490    0.00019409
     atom   30 type  3   force =    -0.00008543    0.00032961    0.00011633
     atom   31 type  1   force =     0.00017937   -0.00004168   -0.00012495
     atom   32 type  3   force =     0.00067354    0.00003350   -0.00047575

     Total force =     0.001734     Total SCF correction =     0.000089

     bfgs converged in   8 scf cycles and   7 bfgs steps
     (criteria: energy < 0.10E-03, force < 0.10E-02)

     End of BFGS Geometry Optimization

     Final energy   =   -2106.2642335405 Ry
Begin final coordinates

ATOMIC_POSITIONS (crystal)
O0       0.000000000   0.000000000   0.378600316    0   0   1
O0       0.000000000   0.500000000   0.403070084    0   0   1
Ir1      0.250000000   0.500000000   0.452878302    0   0   1
Ir1      0.000000000   0.000000000   0.453201086    0   0   1
O0       0.250000000   0.810000000   0.452988031    0   0   1
O0       0.250000000   0.190000000   0.452610018    0   0   1
O0       0.000000000   0.500000000   0.498896472    0   0   1
O0       0.000000000   0.000000000   0.528676666    0   0   1
Ir1      0.250000000   0.000000000   0.575614879    0   0   1
Ir1      0.000000000   0.500000000   0.571802552    0   0   1
O0       0.250000000   0.690000000   0.575526426    0   0   1
O0       0.250000000   0.310000000   0.575591018    0   0   1
O0       0.000000000   0.000000000   0.620218241    0   0   1
O0       0.500000000   0.000000000   0.378259158    0   0   1
O0       0.500000000   0.500000000   0.402339046    0   0   1
Ir1      0.750000000   0.500000000   0.452887898    0   0   1
Ir1      0.500000000   0.000000000   0.452970081    0   0   1
O0       0.750000000   0.810000000   0.453004141    0   0   1
O0       0.750000000   0.190000000   0.452595864    0   0   1
O0       0.500000000   0.500000000   0.499683234    0   0   1
O0       0.500000000   0.000000000   0.528639707    0   0   1
Ir1      0.750000000   0.000000000   0.575560557    0   0   1
Ir1      0.500000000   0.500000000   0.575127949    0   0   1
O0       0.750000000   0.690000000   0.574782210    0   0   1
O0       0.750000000   0.310000000   0.574875453    0   0   1
O0       0.500000000   0.000000000   0.619859727    0   0   1
H2      -0.000143098   0.633031535   0.383987315
H2       0.499947648   0.636456319   0.384694922
H2       0.143604536   0.033735704   0.366983231
H2       0.642929851   0.036103251   0.366660420
O0       0.516291497   0.499889242   0.648064380
H2       0.375656233   0.500380588   0.663630615
End final coordinates

     General routines

     Parallel routines
     Hubbard U routines

   This run was terminated on:  13:40:10  29Apr2014

   JOB DONE.
Running PBS batch system epilogue script
Job id: 340422.audhumbla.fysik.dtu.dk
Username: zhonxu
Groupname: campgst
Jobname: IrO2/Eads-2-layers/OH-U-3.0
Sessionid: 19337
Queuename: verylong
Accounting:
This job has allocated the following 16 nodes:
b043 b043 b043 b043 b043 b043 b043 b043 b042 b042 b042 b042 b042 b042 b042 b042
Finished epilogue job 340422.audhumbla.fysik.dtu.dk for zhonxu