     Program PWSCF v.5.0.2 (svn rev. 9656) starts on  6Jun2014 at  1:16: 8

     Current dimensions of program PWSCF are:
     Max number of different atomic species (ntypx) = 10
     Max number of k-points (npk) =  40000
     Max angular momentum in pseudopotentials (lmaxx) =  3
     Reading input from pwscf.in
Warning: card &CELL ignored
Warning: card / ignored

     Subspace diagonalization in iterative solution of the eigenvalue problem:
     a serial algorithm will be used

     bravais-lattice index     =            0
     lattice parameter (alat)  =      10.7336  a.u.
     unit-cell volume          =    6184.1966 (a.u.)^3
     number of atoms/cell      =           33
     number of atomic types    =            3
     number of electrons       =       245.00 (up: 134.00, down: 111.00)
     number of Kohn-Sham states=          355
     kinetic-energy cutoff     =      40.0000  Ry
     charge density cutoff     =     500.0000  Ry
     convergence threshold     =      1.0E-06
     mixing beta               =       0.7000
     number of iterations used =            8  plain     mixing
     Exchange-correlation      = SLA  PW   PBE  PBE ( 1 4 3 4 0)
     EXX-fraction              =        0.00
     nstep                     =           50

     celldm(1)=  10.733644  celldm(2)=   0.000000  celldm(3)=   0.000000
     celldm(4)=   0.000000  celldm(5)=   0.000000  celldm(6)=   0.000000

     crystal axes: (cart. coord. in units of alat)
               a(1) = (   1.000000   0.000000   0.000000 )
               a(2) = (   0.000000   1.085558   0.000000 )
               a(3) = (   0.000000   0.000000   4.606685 )

     reciprocal axes: (cart. coord. in units 2 pi/alat)
               b(1) = (  1.000000  0.000000  0.000000 )
               b(2) = (  0.000000  0.921185  0.000000 )
               b(3) = (  0.000000  0.000000  0.217076 )

     PseudoPot. # 1 for O  read from file:
     /home/camp/zhonxu/pseudo/o_pbe_v1.01.uspp.F.UPF
     MD5 check sum: 2bcb18d16ea4b960afae9ec6d52f22d2
     Pseudo is Ultrasoft + core correction, Zval =  6.0
     Generated by new atomic code, or converted to UPF format
     Using radial grid of  737 points,  5 beta functions with:
                l(1) =   0
                l(2) =   0
                l(3) =   1
                l(4) =   1
                l(5) =   2
     Q(r) pseudized with  8 coefficients,  rinner =    0.900   0.900   0.900
                                                       0.900   0.900

     PseudoPot. # 2 for Mn read from file:
     /home/camp/zhonxu/pseudo/mn_pbe_v1.uspp.F.UPF
     MD5 check sum: 5fd7c7b5c956fd19902447332617373a
     Pseudo is Ultrasoft + core correction, Zval = 15.0
     Generated by new atomic code, or converted to UPF format
     Using radial grid of  859 points,  6 beta functions with:
                l(1) =   0
                l(2) =   0
                l(3) =   1
                l(4) =   1
                l(5) =   2
                l(6) =   2
     Q(r) pseudized with  6 coefficients,  rinner =    1.150   1.150   1.150
                                                       1.150   1.150

     PseudoPot. # 3 for H  read from file:
     /home/camp/zhonxu/pseudo/h_pbe_v1.uspp.F.UPF
     MD5 check sum: 3408e3ff4ec8b0a4e358431e7e038a48
     Pseudo is Ultrasoft, Zval =  1.0
     Generated by new atomic code, or converted to UPF format
     Using radial grid of  615 points,  2 beta functions with:
                l(1) =   0
                l(2) =   0
     Q(r) pseudized with  8 coefficients,  rinner =    0.700

     atomic species   valence    mass     pseudopotential
        O0             6.00    15.99940     O ( 1.00)
        Mn1           15.00    54.93800     Mn( 1.00)
        H2             1.00     1.00794     H ( 1.00)

     Starting magnetic structure
     atomic species   magnetization
        O0           0.000
        Mn1          0.600
        H2           0.000

     Simplified LDA+U calculation (l_max = 2) with parameters (eV):
     atomic species    L          U    alpha       J0     beta
        Mn1            2     4.5000   0.0000   0.0000   0.0000

     No symmetry found

   Cartesian axes

     site n.     atom                  positions (alat units)
         1           O0  tau(   1) = (   0.0000000   0.0000000   1.7223013  )
         2           O0  tau(   2) = (   0.0000000   0.5427791   1.8146193  )
         3           Mn1 tau(   3) = (   0.2500000   0.5427791   2.0564703  )
         4           Mn1 tau(   4) = (   0.0000000   0.0000000   2.0560557  )
         5           O0  tau(   5) = (   0.2500000   0.8684466   2.0558253  )
         6           O0  tau(   6) = (   0.2500000   0.2171117   2.0648544  )
         7           O0  tau(   7) = (   0.0000000   0.5427791   2.2748732  )
         8           O0  tau(   8) = (   0.0000000   0.0000000   2.4138108  )
         9           Mn1 tau(   9) = (   0.2500000   0.0000000   2.6388474  )
        10           Mn1 tau(  10) = (   0.0000000   0.5427791   2.6287127  )
        11           O0  tau(  11) = (   0.2500000   0.7598908   2.6806300  )
        12           O0  tau(  12) = (   0.2500000   0.3256675   2.6847761  )
        13           O0  tau(  13) = (   0.0000000   0.0000000   2.8592773  )
        14           O0  tau(  14) = (   0.5000000   0.0000000   1.7217946  )
        15           O0  tau(  15) = (   0.5000000   0.5427791   1.8136519  )
        16           Mn1 tau(  16) = (   0.7500000   0.5427791   2.0564703  )
        17           Mn1 tau(  17) = (   0.5000000   0.0000000   2.0553186  )
        18           O0  tau(  18) = (   0.7500000   0.8684466   2.0561017  )
        19           O0  tau(  19) = (   0.7500000   0.2171117   2.0649005  )
        20           O0  tau(  20) = (   0.5000000   0.5427791   2.2804012  )
        21           O0  tau(  21) = (   0.5000000   0.0000000   2.4135344  )
        22           Mn1 tau(  22) = (   0.7500000   0.0000000   2.6388013  )
        23           Mn1 tau(  23) = (   0.5000000   0.5427791   2.6355306  )
        24           O0  tau(  24) = (   0.7500000   0.7598908   2.6807222  )
        25           O0  tau(  25) = (   0.7500000   0.3256675   2.6847300  )
        26           O0  tau(  26) = (   0.5000000   0.0000000   2.8588627  )
        27           H2  tau(  27) = (   0.0004600   0.7019871   1.7401292  )
        28           H2  tau(  28) = (   0.5004800   0.7026276   1.7404056  )
        29           H2  tau(  29) = (   0.1612400   0.0465813   1.6733323  )
        30           H2  tau(  30) = (   0.6609800   0.0476994   1.6731480  )
        31           O0  tau(  31) = (   0.4988400   0.5941803   3.0813656  )
        32           O0  tau(  32) = (   0.5032800   0.3975206   3.2139920  )
        33           H2  tau(  33) = (   0.4983300   0.4581165   3.3782204  )

     number of k points=    20  Methfessel-Paxton smearing, width (Ry)=  0.0100
                       cart. coord. in units 2pi/alat
        k(    1) = (   0.0000000   0.0000000   0.0000000), wk =   0.0625000
        k(    2) = (   0.0000000   0.2302962   0.0000000), wk =   0.1250000
        k(    3) = (   0.0000000  -0.4605925   0.0000000), wk =   0.0625000
        k(    4) = (   0.2500000   0.0000000   0.0000000), wk =   0.1250000
        k(    5) = (   0.2500000   0.2302962   0.0000000), wk =   0.1250000
        k(    6) = (   0.2500000  -0.4605925   0.0000000), wk =   0.1250000
        k(    7) = (  -0.5000000   0.0000000   0.0000000), wk =   0.0625000
        k(    8) = (  -0.5000000   0.2302962   0.0000000), wk =   0.1250000
        k(    9) = (  -0.5000000  -0.4605925   0.0000000), wk =   0.0625000
        k(   10) = (  -0.2500000   0.2302962   0.0000000), wk =   0.1250000
        k(   11) = (   0.0000000   0.0000000   0.0000000), wk =   0.0625000
        k(   12) = (   0.0000000   0.2302962   0.0000000), wk =   0.1250000
        k(   13) = (   0.0000000  -0.4605925   0.0000000), wk =   0.0625000
        k(   14) = (   0.2500000   0.0000000   0.0000000), wk =   0.1250000
        k(   15) = (   0.2500000   0.2302962   0.0000000), wk =   0.1250000
        k(   16) = (   0.2500000  -0.4605925   0.0000000), wk =   0.1250000
        k(   17) = (  -0.5000000   0.0000000   0.0000000), wk =   0.0625000
        k(   18) = (  -0.5000000   0.2302962   0.0000000), wk =   0.1250000
        k(   19) = (  -0.5000000  -0.4605925   0.0000000), wk =   0.0625000
        k(   20) = (  -0.2500000   0.2302962   0.0000000), wk =   0.1250000

     Largest allocated arrays     est. size (Mb)     dimensions
     Largest temporary arrays     est. size (Mb)     dimensions

     Check: negative/imaginary core charge=   -0.000023    0.000000

     Initial potential from superposition of free atoms
     Check: negative starting charge=(component1):   -0.000611
     Check: negative starting charge=(component2):   -0.000340

     starting charge  236.99986, renormalised to  245.00000

     negative rho (up, down):  0.631E-03 0.352E-03
     Number of +U iterations with fixed ns =  0
     Starting occupations:
 --- enter write_ns ---
 LDA+U parameters:
U( 2)     =  4.50000000
alpha( 2) =  0.00000000
atom    3   Tr[ns(na)] (up, down, total) =   5.00000  0.00000  5.00000
   spin  1
    eigenvalues:
  1.000  1.000  1.000  1.000  1.000
    eigenvectors:
  1.000  0.000  0.000  0.000  0.000
  0.000  1.000  0.000  0.000  0.000
  0.000  0.000  1.000  0.000  0.000
  0.000  0.000  0.000  1.000  0.000
  0.000  0.000  0.000  0.000  1.000
    occupations:
  1.000  0.000  0.000  0.000  0.000
  0.000  1.000  0.000  0.000  0.000
  0.000  0.000  1.000  0.000  0.000
  0.000  0.000  0.000  1.000  0.000
  0.000  0.000  0.000  0.000  1.000
   spin  2
    eigenvalues:
  0.000  0.000  0.000  0.000  0.000
    eigenvectors:
  1.000  0.000  0.000  0.000  0.000
  0.000  1.000  0.000  0.000  0.000
  0.000  0.000  1.000  0.000  0.000
  0.000  0.000  0.000  1.000  0.000
  0.000  0.000  0.000  0.000  1.000
    occupations:
  0.000  0.000  0.000  0.000  0.000
  0.000  0.000  0.000  0.000  0.000
  0.000  0.000  0.000  0.000  0.000
  0.000  0.000  0.000  0.000  0.000
  0.000  0.000  0.000  0.000  0.000
atomic mag. moment =     5.000000
atom    4   Tr[ns(na)] (up, down, total) =   5.00000  0.00000  5.00000
   spin  1
    eigenvalues:
  1.000  1.000  1.000  1.000  1.000
    eigenvectors:
  1.000  0.000  0.000  0.000  0.000
  0.000  1.000  0.000  0.000  0.000
  0.000  0.000  1.000  0.000  0.000
  0.000  0.000  0.000  1.000  0.000
  0.000  0.000  0.000  0.000  1.000
    occupations:
  1.000  0.000  0.000  0.000  0.000
  0.000  1.000  0.000  0.000  0.000
  0.000  0.000  1.000  0.000  0.000
  0.000  0.000  0.000  1.000  0.000
  0.000  0.000  0.000  0.000  1.000
   spin  2
    eigenvalues:
  0.000  0.000  0.000  0.000  0.000
    eigenvectors:
  1.000  0.000  0.000  0.000  0.000
  0.000  1.000  0.000  0.000  0.000
  0.000  0.000  1.000  0.000  0.000
  0.000  0.000  0.000  1.000  0.000
  0.000  0.000  0.000  0.000  1.000
    occupations:
  0.000  0.000  0.000  0.000  0.000
  0.000  0.000  0.000  0.000  0.000
  0.000  0.000  0.000  0.000  0.000
  0.000  0.000  0.000  0.000  0.000
  0.000  0.000  0.000  0.000  0.000
atomic mag. moment =     5.000000
[...]
  0.090  0.115  0.129  0.350  0.371
    eigenvectors:
  0.004  0.003  0.000  0.994  0.000
  0.001  0.786  0.210  0.002  0.000
  0.001  0.209  0.790  0.001  0.000
  0.994  0.003  0.000  0.003  0.000
  0.000  0.000  0.000  0.000  1.000
    occupations:
  0.348  0.011  0.005 -0.015  0.000
  0.011  0.119 -0.005  0.000 -0.004
  0.005 -0.005  0.126  0.001  0.000
 -0.015  0.000  0.001  0.091 -0.000
  0.000 -0.004  0.000 -0.000  0.371
atomic mag. moment =     3.286515
atom    9   Tr[ns(na)] (up, down, total) =   4.32710  1.10260  5.42970
   spin  1
    eigenvalues:
  0.680  0.686  0.977  0.985  0.999
    eigenvectors:
  0.217  0.003  0.000  0.000  0.779
  0.015  0.985  0.000  0.000  0.000
  0.000  0.000  0.016  0.984  0.000
  0.768  0.011  0.000  0.000  0.221
  0.000  0.000  0.984  0.016  0.000
    occupations:
  0.929  0.000 -0.000 -0.132  0.000
  0.000  0.686  0.000  0.001  0.000
 -0.000  0.000  0.985 -0.001 -0.001
 -0.132  0.001 -0.001  0.751  0.000
  0.000  0.000 -0.001  0.000  0.977
   spin  2
    eigenvalues:
  0.106  0.122  0.125  0.366  0.385
    eigenvectors:
  0.813  0.000  0.000  0.187  0.000
  0.000  0.000  0.000  0.000  1.000
  0.000  0.000  1.000  0.000  0.000
  0.187  0.000  0.000  0.813  0.000
  0.000  1.000  0.000  0.000  0.000
    occupations:
  0.154  0.000  0.001  0.101 -0.000
  0.000  0.385 -0.000  0.000 -0.000
  0.001 -0.000  0.125  0.001  0.000
  0.101  0.000  0.001  0.317 -0.000
 -0.000 -0.000  0.000 -0.000  0.122
atomic mag. moment =     3.224496
atom   10   Tr[ns(na)] (up, down, total) =   4.58601  0.73673  5.32274
   spin  1
    eigenvalues:
  0.657  0.937  0.995  0.998  0.999
    eigenvectors:
  0.000  0.951  0.000  0.049  0.000
  0.000  0.000  1.000  0.000  0.000
  0.000  0.000  0.000  0.001  0.999
  0.000  0.049  0.000  0.950  0.001
  1.000  0.000  0.000  0.000  0.000
    occupations:
  0.940  0.000  0.000  0.013  0.000
  0.000  0.995  0.000 -0.000 -0.001
  0.000  0.000  0.999 -0.000 -0.000
  0.013 -0.000 -0.000  0.995 -0.000
  0.000 -0.001 -0.000 -0.000  0.657
   spin  2
    eigenvalues:
  0.076  0.086  0.093  0.159  0.322
    eigenvectors:
  0.031  0.000  0.000  0.969  0.000
  0.000  0.000  1.000  0.000  0.000
  0.001  0.999  0.000  0.000  0.000
  0.968  0.001  0.000  0.031  0.000
  0.000  0.000  0.000  0.000  1.000
    occupations:
  0.157  0.000 -0.000 -0.015 -0.000
  0.000  0.093 -0.000 -0.000  0.001
 -0.000 -0.000  0.086 -0.000  0.000
 -0.015 -0.000 -0.000  0.078  0.000
 -0.000  0.001  0.000  0.000  0.322
atomic mag. moment =     3.849287
atom   16   Tr[ns(na)] (up, down, total) =   4.36504  1.03613  5.40118
   spin  1
    eigenvalues:
  0.664  0.700  0.998  0.998  1.004
    eigenvectors:
  0.248  0.000  0.026  0.703  0.023
  0.000  0.999  0.001  0.000  0.000
  0.000  0.000  0.001  0.027  0.972
  0.752  0.000  0.009  0.235  0.005
  0.000  0.001  0.964  0.035  0.000
    occupations:
  0.915 -0.005 -0.003 -0.144 -0.000
 -0.005  0.701 -0.001  0.003 -0.008
 -0.003 -0.001  1.004 -0.004  0.000
 -0.144  0.003 -0.004  0.747  0.000
 -0.000 -0.008  0.000  0.000  0.998
   spin  2
    eigenvalues:
  0.087  0.113  0.131  0.343  0.362
    eigenvectors:
  0.774  0.000  0.004  0.004  0.217
  0.000  0.002  0.000  0.983  0.015
  0.005  0.003  0.993  0.000  0.000
  0.221  0.000  0.001  0.011  0.768
  0.000  0.996  0.003  0.002  0.000
    occupations:
  0.148  0.001 -0.002  0.114  0.000
  0.001  0.343  0.000 -0.003  0.010
 -0.002  0.000  0.131  0.003 -0.001
  0.114 -0.003  0.003  0.301 -0.000
  0.000  0.010 -0.001 -0.000  0.114
atomic mag. moment =     3.328906
atom   17   Tr[ns(na)] (up, down, total) =   4.34178  1.05365  5.39543
   spin  1
    eigenvalues:
  0.639  0.697  0.996  1.005  1.005
    eigenvectors:
  0.000  0.998  0.001  0.001  0.000
  0.000  0.001  0.000  0.990  0.009
  0.000  0.000  0.000  0.009  0.990
  0.000  0.001  0.999  0.000  0.000
  1.000  0.000  0.000  0.000  0.000
    occupations:
  0.698 -0.009 -0.005  0.007 -0.000
 -0.009  1.004 -0.000  0.000  0.001
 -0.005 -0.000  1.005  0.000  0.000
  0.007  0.000  0.000  0.996  0.000
 -0.000  0.001  0.000  0.000  0.639
   spin  2
    eigenvalues:
  0.090  0.115  0.129  0.349  0.371
    eigenvectors:
  0.004  0.003  0.000  0.994  0.000
  0.002  0.775  0.220  0.002  0.000
  0.001  0.219  0.779  0.001  0.000
  0.994  0.003  0.000  0.003  0.000
  0.000  0.000  0.000  0.000  1.000
    occupations:
  0.347  0.011  0.005 -0.015  0.000
  0.011  0.119 -0.006  0.000 -0.004
  0.005 -0.006  0.126  0.001  0.000
 -0.015  0.000  0.001  0.090 -0.000
  0.000 -0.004  0.000 -0.000  0.371
atomic mag. moment =     3.288139
atom   22   Tr[ns(na)] (up, down, total) =   4.32726  1.10232  5.42958
   spin  1
    eigenvalues:
  0.680  0.686  0.977  0.985  0.999
    eigenvectors:
  0.221  0.000  0.000  0.000  0.779
  0.001  0.999  0.000  0.000  0.000
  0.000  0.000  0.018  0.982  0.000
  0.778  0.001  0.000  0.000  0.221
  0.000  0.000  0.982  0.018  0.000
    occupations:
  0.929  0.001 -0.000 -0.132 -0.000
  0.001  0.686  0.000 -0.000  0.000
 -0.000  0.000  0.985 -0.001  0.001
 -0.132 -0.000 -0.001  0.751 -0.000
 -0.000  0.000  0.001 -0.000  0.977
   spin  2
    eigenvalues:
  0.106  0.122  0.125  0.366  0.385
    eigenvectors:
  0.813  0.000  0.000  0.187  0.000
  0.000  0.000  0.000  0.000  1.000
  0.000  0.000  0.999  0.000  0.000
  0.187  0.000  0.000  0.813  0.000
  0.000  1.000  0.000  0.000  0.000
    occupations:
  0.154 -0.000  0.001  0.101  0.000
 -0.000  0.385 -0.000 -0.000 -0.000
  0.001 -0.000  0.125  0.001 -0.000
  0.101 -0.000  0.001  0.317  0.000
  0.000 -0.000 -0.000  0.000  0.122
atomic mag. moment =     3.224946
atom   23   Tr[ns(na)] (up, down, total) =   4.55623  0.76713  5.32336
   spin  1
    eigenvalues:
  0.660  0.901  0.998  0.998  1.000
    eigenvectors:
  0.000  0.981  0.019  0.000  0.000
  0.000  0.000  0.001  0.998  0.000
  0.000  0.000  0.000  0.000  0.999
  0.000  0.019  0.979  0.001  0.001
  1.000  0.000  0.000  0.000  0.000
    occupations:
  0.903 -0.000  0.001  0.013 -0.000
 -0.000  0.998  0.000 -0.000 -0.001
  0.001  0.000  1.000 -0.000  0.000
  0.013 -0.000 -0.000  0.996 -0.000
 -0.000 -0.001  0.000 -0.000  0.660
   spin  2
    eigenvalues:
  0.079  0.085  0.093  0.177  0.333
    eigenvectors:
  0.022  0.000  0.000  0.978  0.000
  0.000  0.000  1.000  0.000  0.000
  0.002  0.998  0.000  0.000  0.000
  0.976  0.002  0.000  0.022  0.000
  0.000  0.000  0.000  0.000  1.000
    occupations:
  0.175  0.000 -0.001 -0.014  0.000
  0.000  0.093 -0.000  0.000  0.001
 -0.001 -0.000  0.085 -0.000  0.000
 -0.014  0.000 -0.000  0.081 -0.000
  0.000  0.001  0.000 -0.000  0.333
atomic mag. moment =     3.789104
N of occupied +U levels =  43.0988573
 --- exit write_ns ---

 ------ SPIN UP ------------

[...]

 ------ SPIN DOWN ----------

[...]

          k = 0.2500-0.4606 0.0000 ( 26462 PWs)   bands (ev):

[...]

          k =-0.2500 0.2303 0.0000 ( 26396 PWs)   bands (ev):

   -79.4212 -79.4134 -79.3551 -79.3452 -79.3268 -79.3186 -78.5492 -78.4235
   -48.3331 -48.2983 -48.2750 -48.2636 -48.2273 -48.2160 -48.2019 -48.1815
   -48.1642 -48.1621 -48.1540 -48.1326 -48.1163 -48.1152 -48.0210 -48.0027
   -47.9703 -47.9609 -47.6586 -47.5144 -47.4857 -47.3743 -46.9899 -46.8420
   -25.9476 -20.7449 -20.3044 -20.1261 -19.9021 -19.4450 -19.3926 -19.3381
   -19.2752 -19.0752 -19.0587 -18.9829 -18.8747 -18.7830 -18.7569 -18.7350
   -18.7070 -18.5634 -18.5094 -17.7032  -9.8706  -8.1302  -7.9382  -7.8959
    -7.7086  -7.4520  -7.3801  -7.2534  -7.0047  -6.7907  -6.6512  -6.5060
    -6.4513  -6.2572  -6.2295  -6.1031  -6.0649  -5.9244  -5.8952  -5.8025
    -5.7281  -5.6302  -5.4531  -5.4285  -5.3538  -5.2696  -5.1524  -5.0973
    -4.8225  -4.7856  -4.7404  -4.6411  -4.4823  -4.4332  -4.3795  -4.2415
    -4.1643  -4.1065  -4.0615  -3.9616  -3.7759  -3.7562  -3.6320  -3.5327
    -3.4869  -3.3851  -3.2411  -3.1869  -3.0609  -2.9740  -2.9366  -2.8489
    -2.7847  -2.6873  -2.6538  -2.5248  -2.2793  -2.2455  -1.9129   1.5025
     1.5278   1.5348   1.6229   1.6539   1.7766   1.7874   1.8294   1.8532
     1.8611   1.9361   2.0021   2.1110   2.1760   2.2635   2.2961   2.3331
     2.3657   2.4667   2.4900   2.6005   2.6069   2.7002   2.7158   2.7336
     2.7734   2.8519   2.9103   2.9500   3.1327   3.1985   3.2501   3.3188
     3.3781   3.3932   3.5124   3.6289   3.7409   3.8588   3.9462   3.9837
     4.0491   4.3678   4.4962   4.8736   5.2256   5.5490   5.7070   6.0884
     6.2397   6.3719   6.5122   6.6008   6.8465   6.9884   7.1744   7.4884
     7.6124   7.7934   7.9821   8.0595   8.2575   8.3537   8.4724   8.7292
     8.7674   9.0010   9.1614   9.2904   9.3996   9.5640   9.5898   9.6953
     9.8191   9.9208  10.0285  10.1232  10.2012  10.3740  10.4640  10.5426
    10.6414  10.8083  10.8767  10.9052  11.1320  11.1748  11.2603  11.3291
    11.5079  11.5718  11.7412  11.7976  11.9216  11.9928  12.0497  12.0742
    12.1745  12.2596  12.3663  12.4074  12.4873  12.5470  12.6398  12.7126
    12.8800  12.9423  13.0011  13.1161  13.2031  13.2648  13.3716  13.4411
    13.5129  13.5364  13.6035  13.6640  13.8868  14.0102  14.0236  14.0948
    14.2269  14.3330  14.3660  14.4090  14.4290  14.4794  14.5701  14.7098
    14.7764  14.8151  14.8936  14.9334  15.0425  15.0738  15.1622  15.2251
    15.2824  15.3717  15.4720  15.5552  15.6412  15.6912  15.7575  15.8235
    15.9106  16.0133  16.0701  16.1208  16.1927  16.2851  16.3363  16.4405
    16.4843  16.5906  16.6712  16.7487  16.8261  16.9401  17.0146  17.0571
    17.1304  17.1818  17.2781  17.3687  17.4123  17.5138  17.5512  17.6281
    17.6956  17.7548  17.8267  17.9166  17.9868  18.0209  18.0572  18.1394
    18.2454  18.2951  18.3556  18.4155  18.5119  18.5959  18.6808  18.7316
    18.7792  18.8647  18.9607  19.0338  19.0808  19.1209  19.2412  19.2737
    19.3703  19.4777  19.5628  19.6041  19.6760  19.7539  19.8095  19.9042
    19.9837  20.0786  20.1211  20.2012  20.2732  20.3793  20.4499  20.5103
    20.5981  20.6621  20.7508  20.7837  20.8947  20.9635  21.0268  21.1125
    21.2186  21.2934  21.3523  21.4625  21.5022  21.5831  21.6600  21.6984
    21.8686  21.9319  21.9850  22.0239  22.1322  22.1963  22.2176  22.2938
    22.3302  22.4222  22.4815  22.5181  22.6477  22.6902  22.7971  22.8959
    22.9637  23.0341  23.1156

     the spin up/dw Fermi energies are    -1.3694    0.1155 ev

!    total energy              =   -2352.54013993 Ry
     Harris-Foulkes estimate   =   -2352.54013993 Ry
     estimated scf accuracy    <          2.2E-09 Ry

     The total energy is the sum of the following terms:

     one-electron contribution =  -26296.94161397 Ry
     hartree contribution      =   13177.22575950 Ry
     xc contribution           =    -356.53595728 Ry
     ewald contribution        =   11122.21538624 Ry
     Hubbard energy            =       1.49668453 Ry
     smearing contrib. (-TS)   =      -0.00039894 Ry

     total magnetization       =    23.00 Bohr mag/cell
     absolute magnetization    =    33.26 Bohr mag/cell

     convergence has been achieved in  15 iterations

     Forces acting on atoms (Ry/au):

     negative rho (up, down):  0.172E-02 0.129E-02
     atom    1 type  1   force =    -0.00506630   -0.01478238    0.00018195
     atom    2 type  1   force =     0.00038278    0.00963222   -0.00001394
     atom    3 type  2   force =     0.00095738   -0.00031153   -0.00019991
     atom    4 type  2   force =     0.00659011    0.01107324   -0.00050624
     atom    5 type  1   force =     0.00215542    0.01545462   -0.00063336
     atom    6 type  1   force =    -0.00186707   -0.01990786   -0.00003711
     atom    7 type  1   force =     0.00005454    0.00038328   -0.00048013
     atom    8 type  1   force =    -0.00132689   -0.00123175   -0.00046435
     atom    9 type  2   force =     0.00059328    0.00162722    0.00056953
     atom   10 type  2   force =    -0.00015171   -0.00238737   -0.00054522
     atom   11 type  1   force =    -0.00547449   -0.02673489    0.00009869
     atom   12 type  1   force =    -0.00474000    0.02815757   -0.00038931
     atom   13 type  1   force =    -0.00040657   -0.00084357    0.00045952
     atom   14 type  1   force =    -0.00513366   -0.01464280    0.00041202
     atom   15 type  1   force =     0.00046319    0.00954995    0.00001447
     atom   16 type  2   force =    -0.00228147   -0.00025848   -0.00017508
     atom   17 type  2   force =     0.00657486    0.01098354   -0.00053519
     atom   18 type  1   force =     0.00174250    0.01546282   -0.00067438
     atom   19 type  1   force =    -0.00251294   -0.01993573   -0.00009988
     atom   20 type  1   force =     0.00002785    0.00081075    0.00042305
     atom   21 type  1   force =    -0.00142206   -0.00122383   -0.00048326
     atom   22 type  2   force =     0.00095236    0.00171345    0.00056826
     atom   23 type  2   force =     0.00005247   -0.00297047   -0.00001670
     atom   24 type  1   force =     0.00558334   -0.02656945    0.00008614
     atom   25 type  1   force =     0.00471314    0.02814964   -0.00038286
     atom   26 type  1   force =    -0.00037372   -0.00173811    0.00042858
     atom   27 type  3   force =     0.00002248    0.00056355    0.00096721
     atom   28 type  3   force =     0.00002706    0.00041678    0.00085434
     atom   29 type  3   force =     0.00000874   -0.00032329    0.00001381
     atom   30 type  3   force =    -0.00007793   -0.00050005   -0.00001714
     atom   31 type  1   force =    -0.00012318    0.00046076    0.00028303
     atom   32 type  1   force =     0.00006298    0.00021603   -0.00010289
     atom   33 type  3   force =    -0.00000648   -0.00029387    0.00039637

     Total force =     0.002707     Total SCF correction =     0.000105

     entering subroutine stress ...

     negative rho (up, down):  0.172E-02 0.129E-02
          total   stress  (Ry/bohr**3)                   (kbar)     P=   23.68
   0.00026445  -0.00000303   0.00000419         38.90     -0.45      0.62
  -0.00000303   0.00027011   0.00000596         -0.45     39.73      0.88
   0.00000419   0.00000596  -0.00005169          0.62      0.88     -7.60

     bfgs converged in   5 scf cycles and   4 bfgs steps
     (criteria: energy < 0.10E-03, force < 0.10E-02)

     End of BFGS Geometry Optimization

     Final energy   =   -2352.5401399270 Ry
Begin final coordinates

ATOMIC_POSITIONS (crystal)
O0       0.000000000   0.000000000   0.373784137    0   0   1
O0       0.000000000   0.500000000   0.393779383    0   0   1
Mn1      0.250000000   0.500000000   0.446390802    0   0   1
Mn1      0.000000000   0.000000000   0.446330652    0   0   1
O0       0.250000000   0.800000000   0.446152913    0   0   1
O0       0.250000000   0.200000000   0.448209681    0   0   1
O0       0.000000000   0.500000000   0.493798218    0   0   1
O0       0.000000000   0.000000000   0.524090207    0   0   1
Mn1      0.250000000   0.000000000   0.572854106    0   0   1
Mn1      0.000000000   0.500000000   0.570499491    0   0   1
O0       0.250000000   0.700000000   0.581914338    0   0   1
O0       0.250000000   0.300000000   0.582699807    0   0   1
O0       0.000000000   0.000000000   0.620697766    0   0   1
O0       0.500000000   0.000000000   0.373697982    0   0   1
O0       0.500000000   0.500000000   0.393890023    0   0   1
Mn1      0.750000000   0.500000000   0.446384911    0   0   1
Mn1      0.500000000   0.000000000   0.446232629    0   0   1
O0       0.750000000   0.800000000   0.446204800    0   0   1
O0       0.750000000   0.200000000   0.448202796    0   0   1
O0       0.500000000   0.500000000   0.494845199    0   0   1
O0       0.500000000   0.000000000   0.524054956    0   0   1
Mn1      0.750000000   0.000000000   0.572843499    0   0   1
Mn1      0.500000000   0.500000000   0.572196430    0   0   1
O0       0.750000000   0.700000000   0.581930492    0   0   1
O0       0.750000000   0.300000000   0.582690335    0   0   1
O0       0.500000000   0.000000000   0.620610106    0   0   1
H2       0.000477964   0.647360019   0.377927867
H2       0.500517638   0.647185859   0.378000112
H2       0.161483584   0.042763564   0.363247823
H2       0.661199024   0.043672904   0.363178907
O0       0.498753122   0.547683800   0.668987323
O0       0.503326228   0.366183591   0.697662952
H2       0.498328410   0.422002032   0.733309358
End final coordinates

     General routines

     Parallel routines
     Hubbard U routines

   This run was terminated on:  10:14: 7   6Jun2014

   JOB DONE.
Running PBS batch system epilogue script
Job id: 381435.audhumbla.fysik.dtu.dk
Username: zhonxu
Groupname: campgst
Jobname: MnO2/Eads-2-layers/OOH-U-4.5
Sessionid: 19054
Queuename: verylong
Accounting:
This job has allocated the following 16 nodes:
d079 d079 d079 d079 d079 d079 d079 d079 d026 d026 d026 d026 d026 d026 d026 d026
Finished epilogue job 381435.audhumbla.fysik.dtu.dk for zhonxu