     Program PWSCF v.5.0.2 (svn rev. 9656) starts on 30May2014 at 23: 2:24

     Current dimensions of program PWSCF are:
     Max number of different atomic species (ntypx) = 10
     Max number of k-points (npk) =  40000
     Max angular momentum in pseudopotentials (lmaxx) =  3
     Reading input from pwscf.in
Warning: card &CELL ignored
Warning: card / ignored

     Subspace diagonalization in iterative solution of the eigenvalue problem:
     a serial algorithm will be used

     bravais-lattice index     =            0
     lattice parameter (alat)  =      11.7919  a.u.
     unit-cell volume          =    7123.6633 (a.u.)^3
     number of atoms/cell      =           33
     number of atomic types    =            3
     number of electrons       =       253.00
     number of Kohn-Sham states=          367
     kinetic-energy cutoff     =      40.0000  Ry
     charge density cutoff     =     500.0000  Ry
     convergence threshold     =      1.0E-06
     mixing beta               =       0.7000
     number of iterations used =            8  plain     mixing
     Exchange-correlation      = SLA  PW   PBE  PBE ( 1 4 3 4 0)
     EXX-fraction              =        0.00
     nstep                     =           50

     celldm(1)=  11.791891  celldm(2)=   0.000000  celldm(3)=   0.000000
     celldm(4)=   0.000000  celldm(5)=   0.000000  celldm(6)=   0.000000

     crystal axes: (cart. coord. in units of alat)
               a(1) = (   1.000000   0.000000   0.000000 )
               a(2) = (   0.000000   1.026665   0.000000 )
               a(3) = (   0.000000   0.000000   4.231793 )

     reciprocal axes: (cart. coord. in units 2 pi/alat)
               b(1) = (  1.000000  0.000000  0.000000 )
               b(2) = (  0.000000  0.974028  0.000000 )
               b(3) = (  0.000000  0.000000  0.236306 )

     PseudoPot. # 1 for O  read from file:
     /home/camp/zhonxu/pseudo/o_pbe_v1.01.uspp.F.UPF
     MD5 check sum: 2bcb18d16ea4b960afae9ec6d52f22d2
     Pseudo is Ultrasoft + core correction, Zval =  6.0
     Generated by new atomic code, or converted to UPF format
     Using radial grid of  737 points,  5 beta functions with:
                l(1) =   0
                l(2) =   0
                l(3) =   1
                l(4) =   1
                l(5) =   2
     Q(r) pseudized with  8 coefficients,  rinner =    0.900   0.900   0.900
                                                       0.900   0.900

     PseudoPot. # 2 for Ru read from file:
     /home/camp/zhonxu/pseudo/ru_pbe_v1.uspp.F.UPF
     MD5 check sum: df00be1c11b23341d9806d8f1dfa10cf
     Pseudo is Ultrasoft + core correction, Zval = 16.0
     Generated by new atomic code, or converted to UPF format
     Using radial grid of  967 points,  6 beta functions with:
                l(1) =   0
                l(2) =   0
                l(3) =   1
                l(4) =   1
                l(5) =   2
                l(6) =   2
     Q(r) pseudized with  8 coefficients,  rinner =    1.300   1.300   1.300
                                                       1.300   1.300

     PseudoPot. # 3 for H  read from file:
     /home/camp/zhonxu/pseudo/h_pbe_v1.uspp.F.UPF
     MD5 check sum: 3408e3ff4ec8b0a4e358431e7e038a48
     Pseudo is Ultrasoft, Zval =  1.0
     Generated by new atomic code, or converted to UPF format
     Using radial grid of  615 points,  2 beta functions with:
                l(1) =   0
                l(2) =   0
     Q(r) pseudized with  8 coefficients,  rinner =    0.700

     atomic species   valence    mass     pseudopotential
        O0             6.00    15.99940     O ( 1.00)
        Ru1           16.00   101.07000     Ru( 1.00)
        H2             1.00     1.00794     H ( 1.00)

     Simplified LDA+U calculation (l_max = 2) with parameters (eV):
     atomic species    L          U    alpha       J0     beta
        Ru1            2     4.0000   0.0000   0.0000   0.0000

     No symmetry found

   Cartesian axes

     site n.     atom                  positions (alat units)
         1           O0  tau(   1) = (   0.0000000   0.0000000   1.5976288  )
         2           O0  tau(   2) = (   0.0000000   0.5133323   1.7135376  )
         3           Ru1 tau(   3) = (   0.2500000   0.5133323   1.9265237  )
         4           Ru1 tau(   4) = (   0.0000000   0.0000000   1.9104429  )
         5           O0  tau(   5) = (   0.2500000   0.8315984   1.9133628  )
         6           O0  tau(   6) = (   0.2500000   0.1950663   1.9137014  )
         7           O0  tau(   7) = (   0.0000000   0.5133323   2.1143307  )
         8           O0  tau(   8) = (   0.0000000   0.0000000   2.2232570  )
         9           Ru1 tau(   9) = (   0.2500000   0.0000000   2.4362008  )
        10           Ru1 tau(  10) = (   0.0000000   0.5133323   2.4139839  )
        11           O0  tau(  11) = (   0.2500000   0.7083986   2.4352275  )
        12           O0  tau(  12) = (   0.2500000   0.3182660   2.4428024  )
        13           O0  tau(  13) = (   0.0000000   0.0000000   2.6141054  )
        14           O0  tau(  14) = (   0.5000000   0.0000000   1.5980943  )
        15           O0  tau(  15) = (   0.5000000   0.5133323   1.7110408  )
        16           Ru1 tau(  16) = (   0.7500000   0.5133323   1.9265660  )
        17           Ru1 tau(  17) = (   0.5000000   0.0000000   1.9113316  )
        18           O0  tau(  18) = (   0.7500000   0.8315984   1.9134475  )
        19           O0  tau(  19) = (   0.7500000   0.1950663   1.9137014  )
        20           O0  tau(  20) = (   0.5000000   0.5133323   2.1248255  )
        21           O0  tau(  21) = (   0.5000000   0.0000000   2.2236379  )
        22           Ru1 tau(  22) = (   0.7500000   0.0000000   2.4362855  )
        23           Ru1 tau(  23) = (   0.5000000   0.5133323   2.4472458  )
        24           O0  tau(  24) = (   0.7500000   0.7083986   2.4352698  )
        25           O0  tau(  25) = (   0.7500000   0.3182660   2.4426755  )
        26           O0  tau(  26) = (   0.5000000   0.0000000   2.6042453  )
        27           H2  tau(  27) = (  -0.0003700   0.6408749   1.6195494  )
        28           H2  tau(  28) = (   0.4997300   0.6446633   1.6222578  )
        29           H2  tau(  29) = (   0.1462300   0.0299786   1.5449853  )
        30           H2  tau(  30) = (   0.6457400   0.0313441   1.5450699  )
        31           O0  tau(  31) = (   0.5000700   0.5415759   2.7547279  )
        32           O0  tau(  32) = (   0.4999900   0.3417972   2.8749108  )
        33           H2  tau(  33) = (   0.4999600   0.4009947   3.0215847  )

     number of k points=    10  Methfessel-Paxton smearing, width (Ry)=  0.0100
                       cart. coord. in units 2pi/alat
        k(    1) = (   0.0000000   0.0000000   0.0000000), wk =   0.1250000
        k(    2) = (   0.0000000   0.2435070   0.0000000), wk =   0.2500000
        k(    3) = (   0.0000000  -0.4870139   0.0000000), wk =   0.1250000
        k(    4) = (   0.2500000   0.0000000   0.0000000), wk =   0.2500000
        k(    5) = (   0.2500000   0.2435070   0.0000000), wk =   0.2500000
        k(    6) = (   0.2500000  -0.4870139   0.0000000), wk =   0.2500000
        k(    7) = (  -0.5000000   0.0000000   0.0000000), wk =   0.1250000
        k(    8) = (  -0.5000000   0.2435070   0.0000000), wk =   0.2500000
        k(    9) = (  -0.5000000  -0.4870139   0.0000000), wk =   0.1250000
        k(   10) = (  -0.2500000   0.2435070   0.0000000), wk =   0.2500000

     Largest allocated arrays     est. size (Mb)     dimensions
     Largest temporary arrays     est. size (Mb)     dimensions

     Check: negative/imaginary core charge=   -0.000003    0.000000

     Initial potential from superposition of free atoms
     Check: negative starting charge=   -0.523679

     starting charge  244.99980, renormalised to  253.00000

     negative rho (up, down):  0.541E+00 0.000E+00
     Number of +U iterations with fixed ns =  0
     Starting occupations:
 --- enter write_ns ---
 LDA+U parameters:
U( 2)     =  4.00000000
alpha( 2) =  0.00000000
atom    3   Tr[ns(na)] =   6.00000
    eigenvalues:
  0.600  0.600  0.600  0.600  0.600
    eigenvectors:
  1.000  0.000  0.000  0.000  0.000
  0.000  1.000  0.000  0.000  0.000
  0.000  0.000  1.000  0.000  0.000
  0.000  0.000  0.000  1.000  0.000
  0.000  0.000  0.000  0.000  1.000
    occupations:
  0.600  0.000  0.000  0.000  0.000
  0.000  0.600  0.000  0.000  0.000
  0.000  0.000  0.600  0.000  0.000
  0.000  0.000  0.000  0.600  0.000
  0.000  0.000  0.000  0.000  0.600
atom    4   Tr[ns(na)] =   6.00000
    eigenvalues:
  0.600  0.600  0.600  0.600  0.600
    eigenvectors:
  1.000  0.000  0.000  0.000  0.000
  0.000  1.000  0.000  0.000  0.000
  0.000  0.000  1.000  0.000  0.000
  0.000  0.000  0.000  1.000  0.000
  0.000  0.000  0.000  0.000  1.000
    occupations:
  0.600  0.000  0.000  0.000  0.000
  0.000  0.600  0.000  0.000  0.000
  0.000  0.000  0.600  0.000  0.000
  0.000  0.000  0.000  0.600  0.000
  0.000  0.000  0.000  0.000  0.600
atom    9   Tr[ns(na)] =   6.00000
    eigenvalues:
  0.600  0.600  0.600  0.600  0.600
    eigenvectors:
  1.000  0.000  0.000  0.000  0.000
  0.000  1.000  0.000  0.000  0.000
  0.000  0.000  1.000  0.000  0.000
  0.000  0.000  0.000  1.000  0.000
  0.000  0.000  0.000  0.000  1.000
    occupations:
  0.600  0.000  0.000  0.000  0.000
  0.000  0.600  0.000  0.000  0.000
  0.000  0.000  0.600  0.000  0.000
  0.000  0.000  0.000  0.600  0.000
  0.000  0.000  0.000  0.000  0.600
atom   10   Tr[ns(na)] =   6.00000
    eigenvalues:
  0.600  0.600  0.600  0.600  0.600
    eigenvectors:
  1.000  0.000  0.000  0.000  0.000
  0.000  1.000  0.000  0.000  0.000
  0.000  0.000  1.000  0.000  0.000
  0.000  0.000  0.000  1.000  0.000
  0.000  0.000  0.000  0.000  1.000
    occupations:
  0.600  0.000  0.000  0.000  0.000
  0.000  0.600  0.000  0.000  0.000
  0.000  0.000  0.600  0.000  0.000
  0.000  0.000  0.000  0.600  0.000
  0.000  0.000  0.000  0.000  0.600
atom   16   Tr[ns(na)] =   6.00000
    eigenvalues:
  0.600  0.600  0.600  0.600  0.600
    eigenvectors:
  1.000  0.000  0.000  0.000  0.000
  0.000  1.000  0.000  0.000  0.000
  0.000  0.000  1.000  0.000  0.000
  0.000  0.000  0.000  1.000  0.000
  0.000  0.000  0.000  0.000  1.000
    occupations:
  0.600  0.000  0.000  0.000  0.000
  0.000  0.600  0.000  0.000  0.000
  0.000  0.000  0.600  0.000  0.000
  0.000  0.000  0.000  0.600  0.000
  0.000  0.000  0.000  0.000  0.600
atom   17   Tr[ns(na)] =   6.00000
    eigenvalues:
  0.600  0.600  0.600  0.600  0.600
    eigenvectors:
  1.000  0.000  0.000  0.000  0.000
  0.000  1.000  0.000  0.000  0.000
  0.000  0.000  1.000  0.000  0.000
  0.000  0.000  0.000  1.000  0.000
  0.000  0.000  0.000  0.000  1.000
    occupations:
  0.600  0.000  0.000  0.000  0.000
  0.000  0.600  0.000  0.000  0.000
  0.000  0.000  0.600  0.000  0.000
  0.000  0.000  0.000  0.600  0.000
  0.000  0.000  0.000  0.000  0.600
atom   22   Tr[ns(na)] =   6.00000
    eigenvalues:
  0.600  0.600  0.600  0.600  0.600
    eigenvectors:
  1.000  0.000  0.000  0.000  0.000
  0.000  1.000  0.000  0.000  0.000
  0.000  0.000  1.000  0.000  0.000
[...]
  0.000  0.865  0.001 -0.000 -0.007
  0.002  0.001  0.723 -0.001 -0.000
  0.053 -0.000 -0.001  0.970 -0.000
  0.000 -0.007 -0.000 -0.000  0.534
atom   16   Tr[ns(na)] =   7.23089
    eigenvalues:
  0.512  0.560  0.703  0.864  0.976
    eigenvectors:
  0.002  0.179  0.006  0.000  0.814
  0.995  0.005  0.000  0.000  0.000
  0.000  0.001  0.957  0.031  0.010
  0.004  0.815  0.006  0.000  0.176
  0.000  0.000  0.031  0.969  0.000
    occupations:
  0.899  0.006  0.026 -0.159  0.004
  0.006  0.513  0.002  0.001 -0.002
  0.026  0.002  0.711 -0.007 -0.028
 -0.159  0.001 -0.007  0.634 -0.001
  0.004 -0.002 -0.028 -0.001  0.859
atom   17   Tr[ns(na)] =   7.22502
    eigenvalues:
  0.553  0.605  0.663  0.810  0.981
    eigenvectors:
  0.001  0.987  0.000  0.000  0.012
  0.000  0.000  0.018  0.982  0.000
  0.000  0.000  0.982  0.018  0.000
  0.000  0.012  0.000  0.000  0.988
  0.999  0.001  0.000  0.000  0.000
    occupations:
  0.609 -0.000  0.000  0.041  0.002
 -0.000  0.808  0.020 -0.001 -0.001
  0.000  0.020  0.666  0.002  0.000
  0.041 -0.001  0.002  0.977  0.000
  0.002 -0.001  0.000  0.000  0.553
atom   22   Tr[ns(na)] =   7.23319
    eigenvalues:
  0.572  0.594  0.783  0.828  0.841
    eigenvectors:
  0.000  0.160  0.002  0.801  0.037
  0.999  0.001  0.000  0.000  0.000
  0.000  0.000  0.991  0.006  0.003
  0.001  0.839  0.002  0.151  0.007
  0.000  0.000  0.004  0.042  0.953
    occupations:
  0.791  0.005 -0.004 -0.086  0.003
  0.005  0.572  0.002 -0.003  0.000
 -0.004  0.002  0.783 -0.003  0.004
 -0.086 -0.003 -0.003  0.631 -0.001
  0.003  0.000  0.004 -0.001  0.840
atom   23   Tr[ns(na)] =   7.26304
    eigenvalues:
  0.544  0.585  0.703  0.836  0.963
    eigenvectors:
  0.000  0.996  0.000  0.001  0.003
  0.001  0.000  0.998  0.000  0.000
  0.000  0.001  0.000  0.999  0.000
  0.000  0.003  0.000  0.000  0.997
  0.999  0.000  0.001  0.000  0.000
    occupations:
  0.586  0.000  0.006  0.021  0.000
  0.000  0.703  0.003  0.001 -0.006
  0.006  0.003  0.836 -0.003 -0.000
  0.021  0.001 -0.003  0.962 -0.000
  0.000 -0.006 -0.000 -0.000  0.544
N of occupied +U levels =  57.8975417
 --- exit write_ns ---

     Threshold (ethr) on eigenvalues was too large:
     Diagonalizing with lowered threshold

     Davidson diagonalization with overlap
     ethr =  1.13E-08,  avg # of iterations =  2.9

[...]

     total energy              =   -2194.61542654 Ry
     Harris-Foulkes estimate   =   -2194.61542654 Ry
     estimated scf accuracy    <       0.00000001 Ry

     iteration # 20     ecut=    40.00 Ry     beta=0.70
     Davidson diagonalization with overlap
     ethr =  5.12E-12,  avg # of iterations =  1.0

     negative rho (up, down):  0.573E+00 0.000E+00

     End of self-consistent calculation
 --- enter write_ns ---
 LDA+U parameters:
U( 2)     =  4.00000000
alpha( 2) =  0.00000000
atom    3   Tr[ns(na)] =   7.23203
    eigenvalues:
  0.512  0.559  0.705  0.863  0.976
    eigenvectors:
  0.002  0.179  0.005  0.000  0.814
  0.995  0.005  0.000  0.000  0.000
  0.000  0.001  0.957  0.032  0.010
  0.003  0.814  0.006  0.000  0.177
  0.000  0.000  0.032  0.968  0.000
    occupations:
  0.899 -0.006  0.026 -0.159 -0.004
 -0.006  0.512 -0.002 -0.001 -0.002
  0.026 -0.002  0.713 -0.006  0.028
 -0.159 -0.001 -0.006  0.634  0.001
 -0.004 -0.002  0.028  0.001  0.858
atom    4   Tr[ns(na)] =   7.22783
    eigenvalues:
  0.553  0.604  0.657  0.818  0.981
    eigenvectors:
  0.001  0.986  0.000  0.000  0.013
  0.000  0.000  0.015  0.985  0.000
  0.000  0.000  0.984  0.015  0.000
  0.000  0.013  0.000  0.000  0.987
  0.999  0.001  0.000  0.000  0.000
    occupations:
  0.609 -0.001  0.001  0.042  0.001
 -0.001  0.815  0.020 -0.001 -0.001
  0.001  0.020  0.660  0.001  0.000
  0.042 -0.001  0.001  0.977  0.000
  0.001 -0.001  0.000  0.000  0.553
atom    9   Tr[ns(na)] =   7.23458
    eigenvalues:
  0.570  0.593  0.778  0.832  0.844
    eigenvectors:
  0.000  0.159  0.006  0.580  0.255
  0.997  0.003  0.000  0.000  0.000
  0.000  0.001  0.990  0.004  0.005
  0.003  0.838  0.004  0.107  0.048
  0.000  0.000  0.001  0.308  0.691
    occupations:
  0.797 -0.004 -0.007 -0.088  0.005
 -0.004  0.571  0.001  0.003  0.001
 -0.007  0.001  0.779 -0.002 -0.002
 -0.088  0.003 -0.002  0.631 -0.003
  0.005  0.001 -0.002 -0.003  0.840
atom   10   Tr[ns(na)] =   7.25248
    eigenvalues:
  0.528  0.534  0.723  0.865  0.976
    eigenvectors:
  0.986  0.000  0.000  0.000  0.014
  0.000  0.000  0.000  1.000  0.000
  0.000  0.000  1.000  0.000  0.000
  0.014  0.000  0.000  0.000  0.986
  0.000  1.000  0.000  0.000  0.000
    occupations:
  0.534  0.000  0.002  0.053  0.000
  0.000  0.865  0.001 -0.000 -0.007
  0.002  0.001  0.723 -0.001 -0.000
  0.053 -0.000 -0.001  0.970 -0.000
  0.000 -0.007 -0.000 -0.000  0.534
atom   16   Tr[ns(na)] =   7.23138
    eigenvalues:
  0.512  0.560  0.703  0.864  0.976
    eigenvectors:
  0.002  0.179  0.006  0.000  0.814
  0.995  0.005  0.000  0.000  0.000
  0.000  0.001  0.957  0.031  0.010
  0.004  0.815  0.006  0.000  0.176
  0.000  0.000  0.031  0.968  0.000
    occupations:
  0.899  0.006  0.026 -0.159  0.004
  0.006  0.513  0.002  0.001 -0.002
  0.026  0.002  0.711 -0.007 -0.028
 -0.159  0.001 -0.007  0.634 -0.001
  0.004 -0.002 -0.028 -0.001  0.859
atom   17   Tr[ns(na)] =   7.22539
    eigenvalues:
  0.553  0.605  0.663  0.810  0.981
    eigenvectors:
  0.001  0.987  0.000  0.000  0.012
  0.000  0.000  0.018  0.982  0.000
  0.000  0.000  0.982  0.018  0.000
  0.000  0.012  0.000  0.000  0.988
  0.999  0.001  0.000  0.000  0.000
    occupations:
  0.609 -0.000  0.000  0.041  0.002
 -0.000  0.808  0.020 -0.001 -0.001
  0.000  0.020  0.666  0.002  0.000
  0.041 -0.001  0.002  0.977  0.000
  0.002 -0.001  0.000  0.000  0.553
atom   22   Tr[ns(na)] =   7.23267
    eigenvalues:
  0.572  0.594  0.783  0.827  0.841
    eigenvectors:
  0.000  0.160  0.002  0.803  0.035
  0.999  0.001  0.000  0.000  0.000
  0.000  0.000  0.991  0.006  0.003
  0.001  0.839  0.002  0.151  0.007
  0.000  0.000  0.005  0.040  0.955
    occupations:
  0.790  0.005 -0.004 -0.086  0.003
  0.005  0.572  0.002 -0.003  0.000
 -0.004  0.002  0.783 -0.003  0.004
 -0.086 -0.003 -0.003  0.631 -0.001
  0.003  0.000  0.004 -0.001  0.840
atom   23   Tr[ns(na)] =   7.26243
    eigenvalues:
  0.544  0.584  0.703  0.836  0.963
    eigenvectors:
  0.000  0.996  0.000  0.001  0.003
  0.001  0.000  0.998  0.001  0.000
  0.000  0.001  0.001  0.999  0.000
  0.000  0.003  0.000  0.000  0.997
  0.999  0.000  0.001  0.000  0.000
    occupations:
  0.586  0.000  0.006  0.021  0.000
  0.000  0.703  0.003  0.001 -0.006
  0.006  0.003  0.836 -0.003 -0.000
  0.021  0.001 -0.003  0.962 -0.000
  0.000 -0.006 -0.000 -0.000  0.544
N of occupied +U levels =  57.8987980
 --- exit write_ns ---

[...]

          k = 0.2500-0.4870 0.0000 ( 30468 PWs)   bands (ev):

[...]

          k =-0.2500 0.2435 0.0000 ( 30434 PWs)   bands (ev):

   -73.6268 -73.6041 -73.4882 -73.4798 -73.2961 -73.1602 -73.0983 -73.0893
   -43.8089 -43.8075 -43.7864 -43.6543 -43.5887 -43.5842 -43.5783 -43.5745
   -43.5624 -43.5293 -43.4462 -43.4152 -43.3696 -43.3216 -43.3131 -43.2971
   -43.2381 -43.0691 -43.0446 -43.0187 -42.9932 -42.9831 -42.9001 -42.8876
   -23.3861 -20.3621 -19.9881 -19.8765 -19.7968 -19.6204 -19.4483 -19.3776
   -19.2419 -19.1917 -19.1710 -19.0308 -18.9144 -18.8456 -18.8163 -18.7949
   -18.6574 -18.6101 -18.4775 -17.0614  -8.8897  -8.6572  -8.3570  -8.3401
    -8.1843  -8.0470  -8.0178  -7.7146  -7.6398  -7.4036  -7.3590  -7.2794
    -7.2386  -7.1272  -7.0643  -6.9916  -6.9726  -6.9296  -6.8407  -6.5708
    -6.4674  -6.3321  -6.0688  -6.0038  -5.8679  -5.8000  -5.6330  -5.5129
    -5.4654  -5.2804  -5.2027  -5.1259  -5.0221  -4.9361  -4.9197  -4.8190
    -4.6846  -4.6326  -4.5963  -4.4618  -4.4332  -4.3597  -4.3407  -4.1665
    -4.0583  -3.8181  -3.7183  -3.6640  -3.5880  -3.5235  -3.4331  -3.3855
    -3.1768  -3.0810  -3.0571  -2.7565  -2.6747  -2.4128  -2.2550  -2.1270
    -1.9074  -1.8530  -1.8077  -1.7219  -1.6394  -1.5962  -1.5437  -1.4671
    -1.4128  -1.3378  -1.2286  -1.1390  -0.9849  -0.7472  -0.6564  -0.4457
    -0.2874  -0.1795   0.0286   0.1399   0.2248   0.3348   0.5562   1.5148
     2.1343   2.2562   2.3866   2.4297   2.9460   3.2083   3.2840   3.4820
     3.7024   3.7847   3.8956   3.9583   4.0487   4.1019   4.2285   4.3369
     4.3509   4.6278   4.7773   5.1982   5.6320   5.7753   6.0443   6.0983
     6.1552   6.4877   6.5303   6.6893   6.9263   7.0728   7.1320   7.4528
     7.6123   7.7172   7.9309   8.0944   8.1493   8.3703   8.4273   8.5724
     8.6878   8.8046   8.9575   9.0580   9.1059   9.2812   9.4097   9.4504
     9.6153   9.6959   9.7855   9.8644  10.0646  10.0817  10.1842  10.2867
    10.3213  10.4189  10.5108  10.6255  10.6854  10.7524  10.8532  10.9755
    11.0351  11.1751  11.2634  11.3849  11.4153  11.5662  11.6311  11.7187
    11.8279  11.8855  11.9769  12.0436  12.0869  12.1546  12.2325  12.2627
    12.3818  12.4558  12.5161  12.6307  12.7576  12.7819  12.8522  12.8995
    12.9675  13.0106  13.1361  13.2522  13.3099  13.3821  13.4255  13.4878
    13.5822  13.7073  13.8308  13.8682  13.9398  13.9939  14.0618  14.1810
    14.2787  14.3304  14.4579  14.5081  14.6043  14.6953  14.7609  14.8335
    14.9139  14.9872  15.0782  15.1739  15.2385  15.2871  15.3563  15.4031
    15.5009  15.5247  15.6052  15.6715  15.7006  15.8197  15.8649  15.9230
    15.9504  16.0421  16.0984  16.1215  16.1918  16.2379  16.2680  16.3064
    16.3967  16.4654  16.5672  16.6256  16.7039  16.7631  16.7939  16.9171
    16.9505  17.0041  17.0657  17.1669  17.2682  17.3388  17.3919  17.4586
    17.5157  17.5577  17.6061  17.7004  17.7699  17.8128  17.8633  17.8986
    17.9815  18.0449  18.0677  18.1311  18.2092  18.2884  18.3201  18.4068
    18.4443  18.5117  18.6206  18.7260  18.7846  18.8646  18.8804  18.9697
    19.0453  19.1269  19.2162  19.2651  19.3120  19.4073  19.5056  19.6129
    19.6672  19.7315  19.8087  19.8717  19.9100  19.9739  20.0441  20.1715
    20.2422  20.3039  20.3641  20.5039  20.5751  20.6122  20.6604  20.7481
    20.8905  20.9373  20.9659  21.0496  21.0754  21.1348  21.2041  21.2614
    21.3105  21.3630  21.4339  21.5019  21.5352  21.5817  21.6034  21.6939
    21.7687  21.8386  21.9232  21.9326  21.9570  22.0689  22.1119  22.1556
    22.2211  22.3296  22.3747  22.4369  22.4706  22.5306  22.6484

     the Fermi energy is    -0.6436 ev

!    total energy              =   -2194.61542654 Ry
     Harris-Foulkes estimate   =   -2194.61542654 Ry
     estimated scf accuracy    <          3.5E-09 Ry

     The total energy is the sum of the following terms:

     one-electron contribution =  -25670.58458070 Ry
     hartree contribution      =   12866.35342916 Ry
     xc contribution           =    -345.68739494 Ry
     ewald contribution        =   10953.23870691 Ry
     Hubbard energy            =       2.06535149 Ry
     smearing contrib. (-TS)   =      -0.00093847 Ry

     convergence has been achieved in  20 iterations

     Forces acting on atoms (Ry/au):

     negative rho (up, down):  0.573E+00 0.000E+00
     atom    1 type  1   force =    -0.00361572   -0.00761087   -0.00016905
     atom    2 type  1   force =    -0.00040915    0.00380570   -0.00010751
     atom    3 type  2   force =     0.03551673    0.00273432   -0.00046999
     atom    4 type  2   force =     0.00243931    0.00449061    0.00039090
     atom    5 type  1   force =     0.00072314   -0.03524217    0.00061727
     atom    6 type  1   force =     0.00334846    0.03649944    0.00044041
     atom    7 type  1   force =     0.00024525   -0.00608286    0.00060795
     atom    8 type  1   force =    -0.00053854    0.00080343    0.00003987
     atom    9 type  2   force =    -0.01385379    0.00014106    0.00049716
     atom   10 type  2   force =     0.00000386    0.00211144   -0.00040515
     atom   11 type  1   force =    -0.01009291    0.02083833   -0.00010853
     atom   12 type  1   force =    -0.00333798   -0.01730359    0.00043981
     atom   13 type  1   force =    -0.00261500   -0.00216156   -0.00048837
     atom   14 type  1   force =    -0.00489345   -0.00897473   -0.00043899
     atom   15 type  1   force =    -0.00020859    0.00327745   -0.00077112
     atom   16 type  2   force =    -0.03631997    0.00285374   -0.00050540
     atom   17 type  2   force =     0.00241616    0.00486939    0.00007893
     atom   18 type  1   force =    -0.00022560   -0.03536796    0.00052527
     atom   19 type  1   force =     0.00182620    0.03683560    0.00049472
     atom   20 type  1   force =     0.00024814   -0.00479226    0.00000275
     atom   21 type  1   force =     0.00083473    0.00071932   -0.00000455
     atom   22 type  2   force =     0.01634290   -0.00149459    0.00050188
     atom   23 type  2   force =     0.00031303    0.00058323    0.00057947
     atom   24 type  1   force =     0.01016895    0.02106990   -0.00005100
     atom   25 type  1   force =     0.00290992   -0.01681233    0.00024937
     atom   26 type  1   force =    -0.00124092   -0.00680686   -0.00059580
     atom   27 type  3   force =     0.00002030    0.00005608   -0.00052345
     atom   28 type  3   force =     0.00003533    0.00051542   -0.00009204
     atom   29 type  3   force =    -0.00004684   -0.00006225   -0.00084145
     atom   30 type  3   force =     0.00015999    0.00006360   -0.00045411
     atom   31 type  1   force =     0.00029229   -0.00016064   -0.00034531
     atom   32 type  1   force =    -0.00048053    0.00035721    0.00059164
     atom   33 type  3   force =     0.00003430    0.00024739    0.00031442

     Total force =     0.002719     Total SCF correction =     0.000201

     entering subroutine stress ...

     negative rho (up, down):  0.573E+00 0.000E+00
          total   stress  (Ry/bohr**3)                   (kbar)     P=   -6.49
  -0.00004352   0.00000409   0.00000210         -6.40      0.60      0.31
   0.00000409  -0.00005283   0.00000066          0.60     -7.77      0.10
   0.00000210   0.00000066  -0.00003600          0.31      0.10     -5.30

     bfgs converged in  16 scf cycles and  15 bfgs steps
     (criteria: energy < 0.10E-03, force < 0.10E-02)

     End of BFGS Geometry Optimization

     Final energy   =   -2194.6154265391 Ry
Begin final coordinates

ATOMIC_POSITIONS (crystal)
O0       0.000000000   0.000000000   0.379345500    0   0   1
O0       0.000000000   0.500000000   0.404966764    0   0   1
Ru1      0.250000000   0.500000000   0.454430099    0   0   1
Ru1      0.000000000   0.000000000   0.452845252    0   0   1
O0       0.250000000   0.810000000   0.452881683    0   0   1
O0       0.250000000   0.190000000   0.452828583    0   0   1
O0       0.000000000   0.500000000   0.499957330    0   0   1
O0       0.000000000   0.000000000   0.525554161    0   0   1
Ru1      0.250000000   0.000000000   0.576163275    0   0   1
Ru1      0.000000000   0.500000000   0.569551312    0   0   1
O0       0.250000000   0.690000000   0.574579465    0   0   1
O0       0.250000000   0.310000000   0.576659829    0   0   1
O0       0.000000000   0.000000000   0.618009009    0   0   1
O0       0.500000000   0.000000000   0.379260340    0   0   1
O0       0.500000000   0.500000000   0.403859795    0   0   1
Ru1      0.750000000   0.500000000   0.454429881    0   0   1
Ru1      0.500000000   0.000000000   0.452839448    0   0   1
O0       0.750000000   0.810000000   0.452879740    0   0   1
O0       0.750000000   0.190000000   0.452840745    0   0   1
O0       0.500000000   0.500000000   0.501309145    0   0   1
O0       0.500000000   0.000000000   0.525622374    0   0   1
Ru1      0.750000000   0.000000000   0.576373405    0   0   1
Ru1      0.500000000   0.500000000   0.577351017    0   0   1
O0       0.750000000   0.690000000   0.574696523    0   0   1
O0       0.750000000   0.310000000   0.576648714    0   0   1
O0       0.500000000   0.000000000   0.615897478    0   0   1
H2      -0.000713764   0.613501874   0.379822202
H2       0.499445902   0.625530981   0.382237099
H2       0.147298866   0.026342170   0.367167375
H2       0.646634818   0.027871314   0.366906631
O0       0.500845155   0.528741688   0.649452814
O0       0.499060210   0.337157665   0.678381665
H2       0.499874168   0.396707769   0.712871346
End final coordinates

     General routines

     Parallel routines
     Hubbard U routines

   This run was terminated on:   4: 1:41   1Jun2014

   JOB DONE.
Running PBS batch system epilogue script
Job id: 373298.audhumbla.fysik.dtu.dk
Username: zhonxu
Groupname: campgst
Jobname: RuO2/Eads-2-layers/OOH-U-4.0
Sessionid: 5916
Queuename: verylong
Accounting:
This job has allocated the following 16 nodes:
b031 b031 b031 b031 b031 b031 b031 b031 b005 b005 b005 b005 b005 b005 b005 b005
Finished epilogue job 373298.audhumbla.fysik.dtu.dk for zhonxu