     Program PWSCF v.5.0.2 (svn rev. 9656) starts on 28May2014 at  2:54:45

     Current dimensions of program PWSCF are:
     Max number of different atomic species (ntypx) = 10
     Max number of k-points (npk) =  40000
     Max angular momentum in pseudopotentials (lmaxx) =  3
     Reading input from pwscf.in
Warning: card &CELL ignored
Warning: card / ignored

     Subspace diagonalization in iterative solution of the eigenvalue problem:
     a serial algorithm will be used

     bravais-lattice index     =            0
     lattice parameter (alat)  =      10.3179  a.u.
     unit-cell volume          =    6964.3238 (a.u.)^3
     number of atoms/cell      =           33
     number of atomic types    =            3
     number of electrons       =       237.00
     number of Kohn-Sham states=          355
     kinetic-energy cutoff     =      40.0000  Ry
     charge density cutoff     =     500.0000  Ry
     convergence threshold     =      1.0E-06
     mixing beta               =       0.7000
     number of iterations used =            8  plain     mixing
     Exchange-correlation      = SLA  PW   PBE  PBE ( 1 4 3 4 0)
     EXX-fraction              =        0.00
     nstep                     =           50

     celldm(1)=  10.317905  celldm(2)=   0.000000  celldm(3)=   0.000000
     celldm(4)=   0.000000  celldm(5)=   0.000000  celldm(6)=   0.000000

     crystal axes: (cart. coord. in units of alat)
               a(1) = (   1.000000   0.000000   0.000000 )
               a(2) = (   0.000000   1.282117   0.000000 )
               a(3) = (   0.000000   0.000000   4.945120 )

     reciprocal axes: (cart. coord. in units 2 pi/alat)
               b(1) = (  1.000000  0.000000  0.000000 )
               b(2) = (  0.000000  0.779960  0.000000 )
               b(3) = (  0.000000  0.000000  0.202220 )

     PseudoPot. # 1 for O  read from file:
     /home/camp/zhonxu/pseudo/o_pbe_v1.01.uspp.F.UPF
     MD5 check sum: 2bcb18d16ea4b960afae9ec6d52f22d2
     Pseudo is Ultrasoft + core correction, Zval =  6.0
     Generated by new atomic code, or converted to UPF format
     Using radial grid of  737 points,  5 beta functions with:
                l(1) =   0
                l(2) =   0
                l(3) =   1
                l(4) =   1
                l(5) =   2
     Q(r) pseudized with  8 coefficients,  rinner =    0.900   0.900   0.900
                                                       0.900   0.900

     PseudoPot. # 2 for Mo read from file:
     /home/camp/zhonxu/pseudo/mo_pbe_v1.uspp.F.UPF
     MD5 check sum: 30c4dcd161f5d35cd49bb5239c51a633
     Pseudo is Ultrasoft + core correction, Zval = 14.0
     Generated by new atomic code, or converted to UPF format
     Using radial grid of  889 points,  6 beta functions with:
                l(1) =   0
                l(2) =   0
                l(3) =   1
                l(4) =   1
                l(5) =   2
                l(6) =   2
     Q(r) pseudized with  6 coefficients,  rinner =    1.000   1.000   1.000
                                                       1.000   1.000

     PseudoPot. # 3 for H  read from file:
     /home/camp/zhonxu/pseudo/h_pbe_v1.uspp.F.UPF
     MD5 check sum: 3408e3ff4ec8b0a4e358431e7e038a48
     Pseudo is Ultrasoft, Zval =  1.0
     Generated by new atomic code, or converted to UPF format
     Using radial grid of  615 points,  2 beta functions with:
                l(1) =   0
                l(2) =   0
     Q(r) pseudized with  8 coefficients,  rinner =    0.700

     atomic species   valence    mass     pseudopotential
        O0             6.00    15.99940     O ( 1.00)
        Mo1           14.00    95.94000     Mo( 1.00)
        H2             1.00     1.00794     H ( 1.00)

     Simplified LDA+U calculation (l_max = 2) with parameters (eV):
     atomic species    L          U    alpha       J0     beta
        Mo1            2     4.0000   0.0000   0.0000   0.0000

     No symmetry found

   Cartesian axes

     site n.     atom                  positions (alat units)
         1           O0  tau(   1) = (   0.0000000   0.0000000   1.8345407  )
         2           O0  tau(   2) = (   0.0000000   0.6410583   1.8924976  )
         3           Mo1 tau(   3) = (   0.2500000   0.6410583   2.1781772  )
         4           Mo1 tau(   4) = (   0.0000000   0.0000000   2.1929631  )
         5           O0  tau(   5) = (   0.2500000   1.0000510   2.1897982  )
         6           O0  tau(   6) = (   0.2500000   0.2820657   2.1891553  )
         7           O0  tau(   7) = (   0.0000000   0.6410583   2.4607413  )
         8           O0  tau(   8) = (   0.0000000   0.0000000   2.5556382  )
         9           Mo1 tau(   9) = (   0.2500000   0.0000000   2.8453728  )
        10           Mo1 tau(  10) = (   0.0000000   0.6410583   2.7952787  )
        11           O0  tau(  11) = (   0.2500000   0.9231240   2.8196582  )
        12           O0  tau(  12) = (   0.2500000   0.3589927   2.8248011  )
        13           O0  tau(  13) = (   0.0000000   0.0000000   3.0952003  )
        14           O0  tau(  14) = (   0.5000000   0.0000000   1.8353814  )
        15           O0  tau(  15) = (   0.5000000   0.6410583   1.8936349  )
        16           Mo1 tau(  16) = (   0.7500000   0.6410583   2.1781277  )
        17           Mo1 tau(  17) = (   0.5000000   0.0000000   2.1954851  )
        18           O0  tau(  18) = (   0.7500000   1.0000510   2.1899960  )
        19           O0  tau(  19) = (   0.7500000   0.2820657   2.1890564  )
        20           O0  tau(  20) = (   0.5000000   0.6410583   2.4612853  )
        21           O0  tau(  21) = (   0.5000000   0.0000000   2.5539074  )
        22           Mo1 tau(  22) = (   0.7500000   0.0000000   2.8439387  )
        23           Mo1 tau(  23) = (   0.5000000   0.6410583   2.8209934  )
        24           O0  tau(  24) = (   0.7500000   0.9231240   2.8195098  )
        25           O0  tau(  25) = (   0.7500000   0.3589927   2.8246033  )
        26           O0  tau(  26) = (   0.5000000   0.0000000   3.0932717  )
        27           H2  tau(  27) = (  -0.0005800   0.7846554   1.7836060  )
        28           H2  tau(  28) = (   0.4995100   0.7915788   1.7940402  )
        29           H2  tau(  29) = (   0.1672700   0.0232576   1.7642706  )
        30           H2  tau(  30) = (   0.6659000   0.0248346   1.7633310  )
        31           O0  tau(  31) = (   0.5002100   0.6666879   3.1760530  )
        32           O0  tau(  32) = (   0.4999400   0.4570233   3.3393409  )
        33           H2  tau(  33) = (   0.5000100   0.5446560   3.4973869  )

     number of k points=    10  Methfessel-Paxton smearing, width (Ry)=  0.0100
                       cart. coord. in units 2pi/alat
        k(    1) = (   0.0000000   0.0000000   0.0000000), wk =   0.1250000
        k(    2) = (   0.0000000   0.1949901   0.0000000), wk =   0.2500000
        k(    3) = (   0.0000000  -0.3899801   0.0000000), wk =   0.1250000
        k(    4) = (   0.2500000   0.0000000   0.0000000), wk =   0.2500000
        k(    5) = (   0.2500000   0.1949901   0.0000000), wk =   0.2500000
        k(    6) = (   0.2500000  -0.3899801   0.0000000), wk =   0.2500000
        k(    7) = (  -0.5000000   0.0000000   0.0000000), wk =   0.1250000
        k(    8) = (  -0.5000000   0.1949901   0.0000000), wk =   0.2500000
        k(    9) = (  -0.5000000  -0.3899801   0.0000000), wk =   0.1250000
        k(   10) = (  -0.2500000   0.1949901   0.0000000), wk =   0.2500000

     Largest allocated arrays     est. size (Mb)     dimensions
     Largest temporary arrays     est. size (Mb)     dimensions

     Check: negative/imaginary core charge=   -0.000003    0.000000

     Initial potential from superposition of free atoms
     Check: negative starting charge=   -0.002157

     starting charge  236.99142, renormalised to  237.00000

     negative rho (up, down):  0.216E-02 0.000E+00
     Number of +U iterations with fixed ns =  0
     Starting occupations:
 --- enter write_ns ---
 LDA+U parameters:
U( 2)     =  4.00000000
alpha( 2) =  0.00000000
atom    3   Tr[ns(na)] =   5.00000
    eigenvalues:
  0.500  0.500  0.500  0.500  0.500
    eigenvectors:
  1.000  0.000  0.000  0.000  0.000
  0.000  1.000  0.000  0.000  0.000
  0.000  0.000  1.000  0.000  0.000
  0.000  0.000  0.000  1.000  0.000
  0.000  0.000  0.000  0.000  1.000
    occupations:
  0.500  0.000  0.000  0.000  0.000
  0.000  0.500  0.000  0.000  0.000
  0.000  0.000  0.500  0.000  0.000
  0.000  0.000  0.000  0.500  0.000
  0.000  0.000  0.000  0.000  0.500
atom    4   Tr[ns(na)] =   5.00000
    eigenvalues:
  0.500  0.500  0.500  0.500  0.500
    eigenvectors:
  1.000  0.000  0.000  0.000  0.000
  0.000  1.000  0.000  0.000  0.000
  0.000  0.000  1.000  0.000  0.000
  0.000  0.000  0.000  1.000  0.000
  0.000  0.000  0.000  0.000  1.000
    occupations:
  0.500  0.000  0.000  0.000  0.000
  0.000  0.500  0.000  0.000  0.000
  0.000  0.000  0.500  0.000  0.000
  0.000  0.000  0.000  0.500  0.000
  0.000  0.000  0.000  0.000  0.500
atom    9   Tr[ns(na)] =   5.00000
    eigenvalues:
  0.500  0.500  0.500  0.500  0.500
    eigenvectors:
  1.000  0.000  0.000  0.000  0.000
  0.000  1.000  0.000  0.000  0.000
  0.000  0.000  1.000  0.000  0.000
  0.000  0.000  0.000  1.000  0.000
  0.000  0.000  0.000  0.000  1.000
    occupations:
  0.500  0.000  0.000  0.000  0.000
  0.000  0.500  0.000  0.000  0.000
  0.000  0.000  0.500  0.000  0.000
  0.000  0.000  0.000  0.500  0.000
  0.000  0.000  0.000  0.000  0.500
atom   10   Tr[ns(na)] =   5.00000
    eigenvalues:
  0.500  0.500  0.500  0.500  0.500
    eigenvectors:
  1.000  0.000  0.000  0.000  0.000
  0.000  1.000  0.000  0.000  0.000
  0.000  0.000  1.000  0.000  0.000
  0.000  0.000  0.000  1.000  0.000
  0.000  0.000  0.000  0.000  1.000
    occupations:
  0.500  0.000  0.000  0.000  0.000
  0.000  0.500  0.000  0.000  0.000
  0.000  0.000  0.500  0.000  0.000
  0.000  0.000  0.000  0.500  0.000
  0.000  0.000  0.000  0.000  0.500
atom   16   Tr[ns(na)] =   5.00000
    eigenvalues:
  0.500  0.500  0.500  0.500  0.500
    eigenvectors:
  1.000  0.000  0.000  0.000  0.000
  0.000  1.000  0.000  0.000  0.000
  0.000  0.000  1.000  0.000  0.000
  0.000  0.000  0.000  1.000  0.000
  0.000  0.000  0.000  0.000  1.000
    occupations:
  0.500  0.000  0.000  0.000  0.000
  0.000  0.500  0.000  0.000  0.000
  0.000  0.000  0.500  0.000  0.000
  0.000  0.000  0.000  0.500  0.000
  0.000  0.000  0.000  0.000  0.500
atom   17   Tr[ns(na)] =   5.00000
    eigenvalues:
  0.500  0.500  0.500  0.500  0.500
    eigenvectors:
  1.000  0.000  0.000  0.000  0.000
  0.000  1.000  0.000  0.000  0.000
  0.000  0.000  1.000  0.000  0.000
  0.000  0.000  0.000  1.000  0.000
  0.000  0.000  0.000  0.000  1.000
    occupations:
  0.500  0.000  0.000  0.000  0.000
  0.000  0.500  0.000  0.000  0.000
  0.000  0.000  0.500  0.000  0.000
  0.000  0.000  0.000  0.500  0.000
  0.000  0.000  0.000  0.000  0.500
atom   22   Tr[ns(na)] =   5.00000
    eigenvalues:
  0.500  0.500  0.500  0.500  0.500
    eigenvectors:
  1.000  0.000  0.000  0.000  0.000
  0.000  1.000  0.000  0.000  0.000
  0.000  0.000  1.000  0.000  0.000
[...]
  0.000  0.000  0.000  0.006  0.994
  0.000  0.000  1.000  0.000  0.000
    occupations:
  0.481  0.000 -0.004  0.003 -0.000
  0.000  0.722 -0.002  0.001 -0.001
 -0.004 -0.002  0.443 -0.001 -0.000
  0.003  0.001 -0.001  0.733 -0.000
 -0.000 -0.001 -0.000 -0.000  0.512
atom   16   Tr[ns(na)] =   5.83295
    eigenvalues:
  0.457  0.508  0.568  0.619  0.764
    eigenvectors:
  0.012  0.000  0.319  0.000  0.668
  0.000  0.997  0.000  0.003  0.000
  0.983  0.000  0.002  0.004  0.011
  0.000  0.000  0.679  0.000  0.321
  0.004  0.003  0.000  0.993  0.000
    occupations:
  0.698 -0.000  0.029 -0.091 -0.001
 -0.000  0.508  0.001 -0.000 -0.006
  0.029  0.001  0.461 -0.013 -0.010
 -0.091 -0.000 -0.013  0.631  0.001
 -0.001 -0.006 -0.010  0.001  0.619
atom   17   Tr[ns(na)] =   5.83633
    eigenvalues:
  0.425  0.521  0.587  0.628  0.758
    eigenvectors:
  0.000  0.000  0.990  0.010  0.000
  0.000  0.000  0.010  0.989  0.000
  1.000  0.000  0.000  0.000  0.000
  0.000  0.000  0.000  0.000  0.999
  0.000  1.000  0.000  0.000  0.000
    occupations:
  0.587  0.004  0.001 -0.003  0.000
  0.004  0.628  0.003 -0.002 -0.001
  0.001  0.003  0.425 -0.003  0.000
 -0.003 -0.002 -0.003  0.757  0.000
  0.000 -0.001  0.000  0.000  0.521
atom   22   Tr[ns(na)] =   5.83951
    eigenvalues:
  0.465  0.531  0.593  0.599  0.731
    eigenvectors:
  0.000  0.000  0.174  0.052  0.774
  0.000  0.000  0.240  0.759  0.000
  0.154  0.846  0.000  0.000  0.000
  0.000  0.000  0.586  0.189  0.226
  0.846  0.154  0.000  0.000  0.000
    occupations:
  0.701  0.002  0.001 -0.057 -0.002
  0.002  0.598  0.000  0.002 -0.000
  0.001  0.000  0.521 -0.000 -0.024
 -0.057  0.002 -0.000  0.626  0.002
 -0.002 -0.000 -0.024  0.002  0.475
atom   23   Tr[ns(na)] =   5.85987
    eigenvalues:
  0.496  0.522  0.537  0.589  0.786
    eigenvectors:
  0.003  0.000  0.000  0.986  0.011
  0.000  0.070  0.930  0.000  0.000
  0.996  0.000  0.000  0.003  0.000
  0.001  0.000  0.000  0.011  0.988
  0.000  0.930  0.070  0.000  0.000
    occupations:
  0.591 -0.000  0.005 -0.021  0.000
 -0.000  0.536 -0.000 -0.000 -0.004
  0.005 -0.000  0.496  0.006  0.000
 -0.021 -0.000  0.006  0.784 -0.000
  0.000 -0.004  0.000 -0.000  0.523
N of occupied +U levels =  46.6466475
 --- exit write_ns ---

     Threshold (ethr) on eigenvalues was too large:
     Diagonalizing with lowered threshold

     Davidson diagonalization with overlap
     ethr =  4.62E-09,  avg # of iterations =  3.0

[...]

     total energy              =   -1762.94139768 Ry
     Harris-Foulkes estimate   =   -1762.94139768 Ry
     estimated scf accuracy    <       0.00000002 Ry

     iteration # 12     ecut=    40.00 Ry     beta=0.70
     Davidson diagonalization with overlap
     ethr =  9.29E-12,  avg # of iterations =  1.0

     negative rho (up, down):  0.333E-02 0.000E+00

     End of self-consistent calculation
 --- enter write_ns ---
 LDA+U parameters:
U( 2)     =  4.00000000
alpha( 2) =  0.00000000
atom    3   Tr[ns(na)] =   5.83449
    eigenvalues:
  0.459  0.508  0.568  0.619  0.764
    eigenvectors:
  0.012  0.000  0.319  0.000  0.668
  0.000  0.997  0.000  0.002  0.000
  0.984  0.000  0.002  0.003  0.010
  0.000  0.000  0.678  0.000  0.321
  0.004  0.002  0.000  0.994  0.000
    occupations:
  0.697  0.000  0.028 -0.091  0.001
  0.000  0.508 -0.001  0.000 -0.005
  0.028 -0.001  0.463 -0.013  0.010
 -0.091  0.000 -0.013  0.631 -0.001
  0.001 -0.005  0.010 -0.001  0.618
atom    4   Tr[ns(na)] =   5.82160
    eigenvalues:
  0.403  0.521  0.582  0.654  0.751
    eigenvectors:
  0.000  0.000  0.996  0.004  0.000
  0.000  0.000  0.004  0.996  0.000
  1.000  0.000  0.000  0.000  0.000
  0.000  0.000  0.000  0.000  1.000
  0.000  1.000  0.000  0.000  0.000
    occupations:
  0.582  0.004  0.001  0.000  0.000
  0.004  0.654  0.004 -0.002  0.000
  0.001  0.004  0.403  0.000  0.001
  0.000 -0.002  0.000  0.751  0.000
  0.000  0.000  0.001  0.000  0.521
atom    9   Tr[ns(na)] =   5.84016
    eigenvalues:
  0.469  0.534  0.594  0.602  0.720
    eigenvectors:
  0.000  0.000  0.198  0.020  0.781
  0.000  0.000  0.100  0.900  0.000
  0.154  0.846  0.000  0.000  0.000
  0.000  0.000  0.701  0.080  0.218
  0.846  0.154  0.000  0.000  0.000
    occupations:
  0.693 -0.002  0.001 -0.052 -0.001
 -0.002  0.601 -0.001 -0.002 -0.000
  0.001 -0.001  0.524 -0.001  0.023
 -0.052 -0.002 -0.001  0.623 -0.000
 -0.001 -0.000  0.023 -0.000  0.479
atom   10   Tr[ns(na)] =   5.78264
    eigenvalues:
  0.443  0.482  0.512  0.722  0.733
    eigenvectors:
  0.009  0.991  0.000  0.000  0.000
  0.000  0.000  0.000  0.994  0.006
  0.991  0.009  0.000  0.000  0.000
  0.000  0.000  0.000  0.006  0.994
  0.000  0.000  1.000  0.000  0.000
    occupations:
  0.481  0.000 -0.004  0.003 -0.000
  0.000  0.722 -0.002  0.001 -0.001
 -0.004 -0.002  0.443 -0.001 -0.000
  0.003  0.001 -0.001  0.733 -0.000
 -0.000 -0.001 -0.000 -0.000  0.512
atom   16   Tr[ns(na)] =   5.83358
    eigenvalues:
  0.457  0.508  0.568  0.620  0.764
    eigenvectors:
  0.012  0.000  0.319  0.000  0.668
  0.000  0.997  0.000  0.003  0.000
  0.983  0.000  0.002  0.004  0.011
  0.000  0.000  0.679  0.000  0.321
  0.004  0.003  0.000  0.993  0.000
    occupations:
  0.698 -0.000  0.029 -0.091 -0.001
 -0.000  0.508  0.001 -0.000 -0.006
  0.029  0.001  0.461 -0.013 -0.010
 -0.091 -0.000 -0.013  0.631  0.001
 -0.001 -0.006 -0.010  0.001  0.619
atom   17   Tr[ns(na)] =   5.83617
    eigenvalues:
  0.425  0.521  0.587  0.628  0.758
    eigenvectors:
  0.000  0.000  0.990  0.010  0.000
  0.000  0.000  0.010  0.989  0.000
  1.000  0.000  0.000  0.000  0.000
  0.000  0.000  0.000  0.000  0.999
  0.000  1.000  0.000  0.000  0.000
    occupations:
  0.587  0.004  0.001 -0.003  0.000
  0.004  0.628  0.003 -0.002 -0.001
  0.001  0.003  0.425 -0.003  0.000
 -0.003 -0.002 -0.003  0.757  0.000
  0.000 -0.001  0.000  0.000  0.521
atom   22   Tr[ns(na)] =   5.83858
    eigenvalues:
  0.465  0.531  0.593  0.599  0.732
    eigenvectors:
  0.000  0.000  0.173  0.053  0.774
  0.000  0.000  0.245  0.755  0.000
  0.154  0.846  0.000  0.000  0.000
  0.000  0.000  0.582  0.192  0.226
  0.846  0.154  0.000  0.000  0.000
    occupations:
  0.701  0.002  0.001 -0.057 -0.002
  0.002  0.598  0.000  0.002 -0.000
  0.001  0.000  0.521 -0.000 -0.024
 -0.057  0.002 -0.000  0.626  0.002
 -0.002 -0.000 -0.024  0.002  0.475
atom   23   Tr[ns(na)] =   5.85958
    eigenvalues:
  0.496  0.522  0.537  0.589  0.786
    eigenvectors:
  0.003  0.000  0.000  0.986  0.011
  0.000  0.072  0.928  0.000  0.000
  0.996  0.000  0.000  0.003  0.000
  0.001  0.000  0.000  0.011  0.988
  0.000  0.928  0.072  0.000  0.000
    occupations:
  0.591 -0.000  0.005 -0.021  0.000
 -0.000  0.536 -0.000 -0.000 -0.004
  0.005 -0.000  0.496  0.006  0.000
 -0.021 -0.000  0.006  0.784 -0.000
  0.000 -0.004  0.000 -0.000  0.523
N of occupied +U levels =  46.6468109
 --- exit write_ns ---

[...]

          k = 0.2500-0.3900 0.0000 ( 29726 PWs)   bands (ev):

[...]

          k =-0.2500 0.1950 0.0000 ( 29746 PWs)   bands (ev):

   -62.0334 -61.9401 -61.9042 -61.6856 -61.6763 -61.6046 -61.5941 -61.5505
   -36.6234 -36.4456 -36.3670 -36.3497 -36.1220 -36.0399 -36.0263 -36.0050
   -35.9885 -35.9643 -35.9203 -35.9146 -35.9075 -35.9010 -35.8593 -35.8357
   -35.8157 -35.7202 -35.7138 -35.7100 -35.6823 -35.2588 -35.2466 -35.2285
   -22.9112 -20.2424 -19.9827 -19.4375 -19.3304 -19.2050 -19.0789 -19.0401
   -18.9338 -18.8875 -18.7573 -18.6571 -18.5254 -18.4668 -18.3986 -18.3214
   -18.1806 -17.8530 -17.6902 -16.5696  -8.3826  -8.2071  -8.1211  -7.8567
    -7.5404  -7.3699  -7.3063  -7.1838  -7.0547  -7.0326  -6.9687  -6.8971
    -6.7810  -6.6052  -6.4338  -6.3332  -6.0880  -6.0067  -5.9732  -5.8541
    -5.6971  -5.6398  -5.5480  -5.3862  -5.3605  -5.2122  -4.9538  -4.9265
    -4.8717  -4.6860  -4.6276  -4.5672  -4.4018  -4.2713  -4.1563  -4.1017
    -4.0412  -3.9986  -3.9652  -3.9008  -3.8200  -3.7457  -3.7220  -3.5477
    -3.4314  -3.3711  -3.2507  -3.1428  -3.0377  -3.0151  -2.9367  -2.8158
    -2.7146  -2.6682  -2.5255  -2.4179  -2.3364  -2.1158  -1.5725  -1.4182
    -1.3352  -1.2961  -0.3182  -0.2032  -0.1303   0.0441   0.6593   0.6883
     1.0127   1.0962   1.2074   1.3062   1.4857   1.5478   1.7448   1.8723
     1.9445   1.9835   2.1148   2.1519   2.2161   2.2892   2.7013   2.9101
     3.6759   3.7760   4.0642   4.1542   4.2483   4.3541   4.4270   4.5425
     4.7419   4.8181   4.8988   4.9617   5.1718   5.2255   5.3307   5.5590
     5.9081   6.0771   6.1782   6.2432   6.3649   6.4689   6.5101   6.6131
     6.7237   6.9561   7.0101   7.2725   7.3388   7.4238   7.7282   7.7766
     8.0812   8.2328   8.4529   8.4875   8.6463   8.7273   8.8606   8.9658
     9.0053   9.2003   9.2413   9.3907   9.4951   9.6192   9.6971   9.7762
     9.8312   9.9467   9.9760  10.0884  10.2401  10.4291  10.5350  10.6112
    10.6988  10.8042  10.9262  10.9523  11.0382  11.1435  11.2930  11.3883
    11.5023  11.6850  11.7577  11.8507  11.9173  11.9440  12.0150  12.1783
    12.1949  12.2557  12.3571  12.3663  12.4512  12.5588  12.6212  12.8204
    12.9100  12.9872  13.0427  13.1673  13.2024  13.2774  13.4103  13.4457
    13.5363  13.5662  13.6421  13.7097  13.7694  13.8521  13.8993  13.9491
    14.0521  14.0850  14.1348  14.2072  14.2594  14.2993  14.3660  14.3843
    14.4867  14.5215  14.6171  14.7593  14.7810  14.8836  14.9148  15.0701
    15.1385  15.2441  15.3096  15.4410  15.4789  15.5119  15.6390  15.6950
    15.8064  15.8859  15.9263  16.0193  16.0959  16.1718  16.2734  16.3015
    16.3456  16.4383  16.5156  16.5659  16.6024  16.6365  16.7396  16.7682
    16.8540  16.9167  16.9652  17.0881  17.1085  17.2134  17.2828  17.3106
    17.3421  17.4048  17.5142  17.5923  17.6881  17.7545  17.8022  17.9066
    18.0576  18.1098  18.1429  18.2016  18.2335  18.3698  18.4106  18.4978
    18.5825  18.6136  18.6952  18.7825  18.9237  18.9472  19.0316  19.0706
    19.2082  19.2581  19.3895  19.4147  19.4408  19.5438  19.6100  19.7015
    19.8153  19.9046  19.9851  20.0460  20.1177  20.1707  20.2111  20.2577
    20.2824  20.3388  20.4396  20.4774  20.4953  20.5528  20.6028  20.6784
    20.7647  20.8347  20.8887  20.9591  21.0080  21.1016  21.1426  21.2365
    21.2869  21.3682  21.4087  21.4697  21.5331  21.5614  21.6089  21.6248
    21.6563  21.7425  21.8094  21.8734  21.8961  21.9514  21.9930  22.0781
    22.1377  22.2028  22.2964

     the Fermi energy is     0.4423 ev

!    total energy              =   -1762.94139768 Ry
     Harris-Foulkes estimate   =   -1762.94139768 Ry
     estimated scf accuracy    <          5.7E-09 Ry

     The total energy is the sum of the following terms:

     one-electron contribution =  -22651.22450886 Ry
     hartree contribution      =   11355.79459463 Ry
     xc contribution           =    -301.59149634 Ry
     ewald contribution        =    9831.35249174 Ry
     Hubbard energy            =       2.72712826 Ry
     smearing contrib. (-TS)   =       0.00039290 Ry

     convergence has been achieved in  12 iterations

     Forces acting on atoms (Ry/au):

     negative rho (up, down):  0.333E-02 0.000E+00
     atom    1 type  1   force =    -0.00127398   -0.00498844    0.00052786
     atom    2 type  1   force =    -0.00015833    0.00747902    0.00020040
     atom    3 type  2   force =     0.00844714   -0.00832831   -0.00013640
     atom    4 type  2   force =     0.00235632    0.00416736    0.00050763
     atom    5 type  1   force =    -0.00054544   -0.01522303   -0.00010843
     atom    6 type  1   force =    -0.00248863    0.01363062   -0.00008677
     atom    7 type  1   force =     0.00020382    0.00026144   -0.00026626
     atom    8 type  1   force =     0.00326215    0.00184729   -0.00058981
     atom    9 type  2   force =    -0.00338204   -0.00298700   -0.00005819
     atom   10 type  2   force =    -0.00001156    0.00267423   -0.00056475
     atom   11 type  1   force =    -0.01458128   -0.01263147    0.00011407
     atom   12 type  1   force =    -0.01115105    0.01761866    0.00013505
     atom   13 type  1   force =     0.00039502   -0.00151028   -0.00009654
     atom   14 type  1   force =    -0.00197791   -0.00568375    0.00051736
     atom   15 type  1   force =     0.00004486    0.01045650   -0.00009431
     atom   16 type  2   force =    -0.00888585   -0.00817226   -0.00013443
     atom   17 type  2   force =    -0.00336192    0.00378889    0.00049720
     atom   18 type  1   force =     0.00341713   -0.01534436   -0.00011245
     atom   19 type  1   force =     0.00230072    0.01321419   -0.00008261
     atom   20 type  1   force =     0.00000715   -0.00020617   -0.00043892
     atom   21 type  1   force =     0.00378196    0.00268982   -0.00043341
     atom   22 type  2   force =    -0.00047975   -0.00370471   -0.00034356
     atom   23 type  2   force =     0.00030559    0.00230774    0.00053626
     atom   24 type  1   force =     0.01432433   -0.01163626    0.00007053
     atom   25 type  1   force =     0.01105419    0.01749111    0.00005609
     atom   26 type  1   force =    -0.00120887   -0.00677438   -0.00034763
     atom   27 type  3   force =    -0.00000548   -0.00004142    0.00002923
     atom   28 type  3   force =    -0.00000018   -0.00034158   -0.00052597
     atom   29 type  3   force =    -0.00018321   -0.00013160    0.00009759
     atom   30 type  3   force =    -0.00023268   -0.00014381    0.00006178
     atom   31 type  1   force =     0.00005070    0.00012045    0.00015680
     atom   32 type  1   force =    -0.00003558    0.00042390    0.00024125
     atom   33 type  3   force =     0.00001266   -0.00032237    0.00067133

     Total force =     0.002060     Total SCF correction =     0.000165

     entering subroutine stress ...

     negative rho (up, down):  0.333E-02 0.000E+00
          total   stress  (Ry/bohr**3)                   (kbar)     P=   -6.40
  -0.00003074  -0.00000100   0.00000095         -4.52     -0.15      0.14
  -0.00000100  -0.00006357  -0.00000158         -0.15     -9.35     -0.23
   0.00000095  -0.00000158  -0.00003611          0.14     -0.23     -5.31

     bfgs converged in  12 scf cycles and  11 bfgs steps
     (criteria: energy < 0.10E-03, force < 0.10E-02)

     End of BFGS Geometry Optimization

     Final energy   =   -1762.9413976801 Ry
Begin final coordinates

ATOMIC_POSITIONS (crystal)
O0       0.000000000   0.000000000   0.371020152    0   0   1
O0       0.000000000   0.500000000   0.382954045    0   0   1
Mo1      0.250000000   0.500000000   0.440549600    0   0   1
Mo1      0.000000000   0.000000000   0.443059841    0   0   1
O0       0.250000000   0.780000000   0.443137652    0   0   1
O0       0.250000000   0.220000000   0.442940414    0   0   1
O0       0.000000000   0.500000000   0.497590819    0   0   1
O0       0.000000000   0.000000000   0.516832160    0   0   1
Mo1      0.250000000   0.000000000   0.575313211    0   0   1
Mo1      0.000000000   0.500000000   0.565759197    0   0   1
O0       0.250000000   0.720000000   0.570921897    0   0   1
O0       0.250000000   0.280000000   0.571842591    0   0   1
O0       0.000000000   0.000000000   0.625437855    0   0   1
O0       0.500000000   0.000000000   0.371350437    0   0   1
O0       0.500000000   0.500000000   0.382578399    0   0   1
Mo1      0.750000000   0.500000000   0.440538227    0   0   1
Mo1      0.500000000   0.000000000   0.443665845    0   0   1
O0       0.750000000   0.780000000   0.443206508    0   0   1
O0       0.750000000   0.220000000   0.442929550    0   0   1
O0       0.500000000   0.500000000   0.498677039    0   0   1
O0       0.500000000   0.000000000   0.516006977    0   0   1
Mo1      0.750000000   0.000000000   0.574670526    0   0   1
Mo1      0.500000000   0.500000000   0.569945983    0   0   1
O0       0.750000000   0.720000000   0.570825620    0   0   1
O0       0.750000000   0.280000000   0.571746196    0   0   1
O0       0.500000000   0.000000000   0.625159518    0   0   1
H2      -0.000585190   0.610366958   0.360428192
H2       0.499493475   0.614933512   0.361596441
H2       0.167143822   0.017513220   0.356628115
H2       0.665418861   0.019071017   0.356453621
O0       0.500267387   0.516982900   0.641748513
O0       0.499825381   0.356203140   0.675295419
H2       0.500067782   0.426601335   0.706939439
End final coordinates

     General routines

     Parallel routines
     Hubbard U routines

   This run was terminated on:  15:38:46  28May2014

   JOB DONE.
Running PBS batch system epilogue script
Job id: 373264.audhumbla.fysik.dtu.dk
Username: zhonxu
Groupname: campgst
Jobname: MoO2/Eads-2-layers/OOH-U-4.0
Sessionid: 7676
Queuename: verylong
Accounting:
This job has allocated the following 16 nodes:
b087 b087 b087 b087 b087 b087 b087 b087 b066 b066 b066 b066 b066 b066 b066 b066
Finished epilogue job 373264.audhumbla.fysik.dtu.dk for zhonxu