     Program PWSCF v.5.0.2 (svn rev. 9656) starts on 11Feb2014 at  6:44:39

     Current dimensions of program PWSCF are:
     Max number of different atomic species (ntypx) = 10
     Max number of k-points (npk) =  40000
     Max angular momentum in pseudopotentials (lmaxx) =  3
     Reading input from alpha_0.15/alpha_0.15.in
Warning: card &IONS ignored
Warning: card / ignored
Warning: card &CELL ignored
Warning: card / ignored

     Subspace diagonalization in iterative solution of the eigenvalue problem:
     a serial algorithm will be used

     bravais-lattice index     =            0
     lattice parameter (alat)  =      17.1587  a.u.
     unit-cell volume          =    3538.5507 (a.u.)^3
     number of atoms/cell      =           48
     number of atomic types    =            3
     number of electrons       =       432.00
     number of Kohn-Sham states=          624
     kinetic-energy cutoff     =      40.0000  Ry
     charge density cutoff     =     500.0000  Ry
     convergence threshold     =      1.0E-06
     mixing beta               =       0.7000
     number of iterations used =            8  plain     mixing
     Exchange-correlation      = SLA  PW   PBE  PBE ( 1 4 3 4 0)
     EXX-fraction              =        0.00

     celldm(1)=  17.158713  celldm(2)=   0.000000  celldm(3)=   0.000000
     celldm(4)=   0.000000  celldm(5)=   0.000000  celldm(6)=   0.000000

     crystal axes: (cart. coord. in units of alat)
               a(1) = (   1.000000   0.000000   0.000000 )
               a(2) = (   0.000000   1.000000   0.000000 )
               a(3) = (   0.000000   0.000000   0.700441 )

     reciprocal axes: (cart. coord. in units 2 pi/alat)
               b(1) = (  1.000000  0.000000  0.000000 )
               b(2) = (  0.000000  1.000000  0.000000 )
               b(3) = (  0.000000  0.000000  1.427673 )

     PseudoPot. # 1 for Ir read from file:
     /home/camp/zhonxu/pseudo/ir_pbe_v1.uspp.F.UPF
     MD5 check sum: abf987a9674477536ede83817f8f8b70
     Pseudo is Ultrasoft + core correction, Zval = 15.0
     Generated by new atomic code, or converted to UPF format
     Using radial grid of  983 points,  7 beta functions with:
                l(1) =   0
                l(2) =   0
                l(3) =   1
                l(4) =   1
                l(5) =   1
                l(6) =   2
                l(7) =   2
     Q(r) pseudized with  8 coefficients,  rinner =    1.350   1.350   1.350
                                                       1.350   1.350

     PseudoPot. # 2 for O  read from file:
     /home/camp/zhonxu/pseudo/o_pbe_v1.01.uspp.F.UPF
     MD5 check sum: 2bcb18d16ea4b960afae9ec6d52f22d2
     Pseudo is Ultrasoft + core correction, Zval =  6.0
     Generated by new atomic code, or converted to UPF format
     Using radial grid of  737 points,  5 beta functions with:
                l(1) =   0
                l(2) =   0
                l(3) =   1
                l(4) =   1
                l(5) =   2
     Q(r) pseudized with  8 coefficients,  rinner =    0.900   0.900   0.900
                                                       0.900   0.900

     PseudoPot. # 3 for O  read from file:
     /home/camp/zhonxu/pseudo/o_pbe_v1.01.uspp.F.UPF
     MD5 check sum: 2bcb18d16ea4b960afae9ec6d52f22d2
     Pseudo is Ultrasoft + core correction, Zval =  6.0
     Generated by new atomic code, or converted to UPF format
     Using radial grid of  737 points,  5 beta functions with:
                l(1) =   0
                l(2) =   0
                l(3) =   1
                l(4) =   1
                l(5) =   2
     Q(r) pseudized with  8 coefficients,  rinner =    0.900   0.900   0.900
                                                       0.900   0.900

     atomic species   valence    mass     pseudopotential
        Ir0           15.00   192.22000     Ir( 1.00)
        O1             6.00    15.99940     O ( 1.00)
        O2             6.00    15.99940     O ( 1.00)

     Starting magnetic structure
     atomic species   magnetization
        Ir0          0.000
        O1           0.000
        O2           0.000

     Simplified LDA+U calculation (l_max = 2) with parameters (eV):
     atomic species    L          U    alpha       J0     beta
        Ir0            2     0.0000   0.0000   0.0000   0.0000
        O1             1     0.0000   0.1500   0.0000   0.0000
        O2             1     0.0000   0.0000   0.0000   0.0000

      4 Sym. Ops. (no inversion) found

   Cartesian axes

     site n.     atom                  positions (alat units)
         1           Ir0 tau(   1) = (  -0.1550000  -0.1550000   0.0000000  )
         2           Ir0 tau(   2) = (   0.0950000   0.0950000   0.1751101  )
         3           Ir0 tau(   3) = (  -0.1550000  -0.1550000   0.3502203  )
         4           Ir0 tau(   4) = (   0.0950000   0.0950000   0.5253304  )
         5           Ir0 tau(   5) = (  -0.1550000   0.3450000   0.0000000  )
         6           Ir0 tau(   6) = (   0.0950000   0.5950000   0.1751101  )
         7           Ir0 tau(   7) = (  -0.1550000   0.3450000   0.3502203  )
         8           Ir0 tau(   8) = (   0.0950000   0.5950000   0.5253304  )
         9           Ir0 tau(   9) = (   0.3450000  -0.1550000   0.0000000  )
        10           Ir0 tau(  10) = (   0.5950000   0.0950000   0.1751101  )
        11           Ir0 tau(  11) = (   0.3450000  -0.1550000   0.3502203  )
        12           Ir0 tau(  12) = (   0.5950000   0.0950000   0.5253304  )
        13           Ir0 tau(  13) = (   0.3450000   0.3450000   0.0000000  )
        14           Ir0 tau(  14) = (   0.5950000   0.5950000   0.1751101  )
        15           Ir0 tau(  15) = (   0.3450000   0.3450000   0.3502203  )
        16           Ir0 tau(  16) = (   0.5950000   0.5950000   0.5253304  )
        17           O1  tau(  17) = (   0.0000000   0.0000000   0.0000000  )
        18           O2  tau(  18) = (  -0.3100000  -0.3100000   0.0000000  )
        19           O2  tau(  19) = (   0.2500000  -0.0600000   0.1751101  )
        20           O2  tau(  20) = (  -0.0600000   0.2500000   0.1751101  )
        21           O2  tau(  21) = (   0.0000000   0.0000000   0.3502203  )
        22           O2  tau(  22) = (  -0.3100000  -0.3100000   0.3502203  )
        23           O2  tau(  23) = (   0.2500000  -0.0600000   0.5253304  )
        24           O2  tau(  24) = (  -0.0600000   0.2500000   0.5253304  )
        25           O2  tau(  25) = (   0.0000000   0.5000000   0.0000000  )
        26           O2  tau(  26) = (  -0.3100000   0.1900000   0.0000000  )
        27           O2  tau(  27) = (   0.2500000   0.4400000   0.1751101  )
        28           O2  tau(  28) = (  -0.0600000   0.7500000   0.1751101  )
        29           O2  tau(  29) = (   0.0000000   0.5000000   0.3502203  )
        30           O2  tau(  30) = (  -0.3100000   0.1900000   0.3502203  )
        31           O2  tau(  31) = (   0.2500000   0.4400000   0.5253304  )
        32           O2  tau(  32) = (  -0.0600000   0.7500000   0.5253304  )
        33           O2  tau(  33) = (   0.5000000   0.0000000   0.0000000  )
        34           O2  tau(  34) = (   0.1900000  -0.3100000   0.0000000  )
        35           O2  tau(  35) = (   0.7500000  -0.0600000   0.1751101  )
        36           O2  tau(  36) = (   0.4400000   0.2500000   0.1751101  )
        37           O2  tau(  37) = (   0.5000000   0.0000000   0.3502203  )
        38           O2  tau(  38) = (   0.1900000  -0.3100000   0.3502203  )
        39           O2  tau(  39) = (   0.7500000  -0.0600000   0.5253304  )
        40           O2  tau(  40) = (   0.4400000   0.2500000   0.5253304  )
        41           O2  tau(  41) = (   0.5000000   0.5000000   0.0000000  )
        42           O2  tau(  42) = (   0.1900000   0.1900000   0.0000000  )
        43           O2  tau(  43) = (   0.7500000   0.4400000   0.1751101  )
        44           O2  tau(  44) = (   0.4400000   0.7500000   0.1751101  )
        45           O2  tau(  45) = (   0.5000000   0.5000000   0.3502203  )
        46           O2  tau(  46) = (   0.1900000   0.1900000   0.3502203  )
        47           O2  tau(  47) = (   0.7500000   0.4400000   0.5253304  )
        48           O2  tau(  48) = (   0.4400000   0.7500000   0.5253304  )

     number of k points=    42  Methfessel-Paxton smearing, width (Ry)=  0.0100
                       cart. coord. in units 2pi/alat
        k(    1) = (   0.0000000   0.0000000   0.0000000), wk =   0.0156250
        k(    2) = (   0.0000000   0.0000000   0.3569182), wk =   0.0312500
        k(    3) = (   0.0000000   0.0000000  -0.7138365), wk =   0.0156250
        k(    4) = (   0.0000000   0.2500000   0.0000000), wk =   0.0625000
        k(    5) = (   0.0000000   0.2500000   0.3569182), wk =   0.1250000
        k(    6) = (   0.0000000   0.2500000  -0.7138365), wk =   0.0625000
        k(    7) = (   0.0000000  -0.5000000   0.0000000), wk =   0.0312500
        k(    8) = (   0.0000000  -0.5000000   0.3569182), wk =   0.0625000
        k(    9) = (   0.0000000  -0.5000000  -0.7138365), wk =   0.0312500
        k(   10) = (   0.2500000   0.2500000   0.0000000), wk =   0.0312500
        k(   11) = (   0.2500000   0.2500000   0.3569182), wk =   0.0625000
        k(   12) = (   0.2500000   0.2500000  -0.7138365), wk =   0.0312500
        k(   13) = (   0.2500000  -0.5000000   0.0000000), wk =   0.0625000
        k(   14) = (   0.2500000  -0.5000000   0.3569182), wk =   0.1250000
        k(   15) = (   0.2500000  -0.5000000  -0.7138365), wk =   0.0625000
        k(   16) = (  -0.5000000  -0.5000000   0.0000000), wk =   0.0156250
        k(   17) = (  -0.5000000  -0.5000000   0.3569182), wk =   0.0312500
        k(   18) = (  -0.5000000  -0.5000000  -0.7138365), wk =   0.0156250
        k(   19) = (   0.2500000  -0.2500000   0.0000000), wk =   0.0312500
        k(   20) = (   0.2500000  -0.2500000   0.3569182), wk =   0.0625000
        k(   21) = (   0.2500000  -0.2500000  -0.7138365), wk =   0.0312500
        k(   22) = (   0.0000000   0.0000000   0.0000000), wk =   0.0156250
        k(   23) = (   0.0000000   0.0000000   0.3569182), wk =   0.0312500
        k(   24) = (   0.0000000   0.0000000  -0.7138365), wk =   0.0156250
        k(   25) = (   0.0000000   0.2500000   0.0000000), wk =   0.0625000
        k(   26) = (   0.0000000   0.2500000   0.3569182), wk =   0.1250000
        k(   27) = (   0.0000000   0.2500000  -0.7138365), wk =   0.0625000
        k(   28) = (   0.0000000  -0.5000000   0.0000000), wk =   0.0312500
        k(   29) = (   0.0000000  -0.5000000   0.3569182), wk =   0.0625000
        k(   30) = (   0.0000000  -0.5000000  -0.7138365), wk =   0.0312500
        k(   31) = (   0.2500000   0.2500000   0.0000000), wk =   0.0312500
        k(   32) = (   0.2500000   0.2500000   0.3569182), wk =   0.0625000
        k(   33) = (   0.2500000   0.2500000  -0.7138365), wk =   0.0312500
        k(   34) = (   0.2500000  -0.5000000   0.0000000), wk =   0.0625000
        k(   35) = (   0.2500000  -0.5000000   0.3569182), wk =   0.1250000
        k(   36) = (   0.2500000  -0.5000000  -0.7138365), wk =   0.0625000
[...]
    eigenvectors:
  0.000  1.000  0.000
  0.500  0.000  0.500
  0.500  0.000  0.500
    occupations:
  0.884 -0.000 -0.000
 -0.000  0.900 -0.021
 -0.000 -0.021  0.900
   spin  2
    eigenvalues:
  0.879  0.884  0.921
    eigenvectors:
  0.000  1.000  0.000
  0.500  0.000  0.500
  0.500  0.000  0.500
    occupations:
  0.884 -0.000 -0.000
 -0.000  0.900 -0.021
 -0.000 -0.021  0.900
atomic mag. moment =     0.000000
atom   42   Tr[ns(na)] (up, down, total) =   2.68379  2.68379  5.36758
   spin  1
    eigenvalues:
  0.879  0.884  0.921
    eigenvectors:
  0.000  1.000  0.000
  0.500  0.000  0.500
  0.500  0.000  0.500
    occupations:
  0.884 -0.000 -0.000
 -0.000  0.900 -0.021
 -0.000 -0.021  0.900
   spin  2
    eigenvalues:
  0.879  0.884  0.921
    eigenvectors:
  0.000  1.000  0.000
  0.500  0.000  0.500
  0.500  0.000  0.500
    occupations:
  0.884 -0.000 -0.000
 -0.000  0.900 -0.021
 -0.000 -0.021  0.900
atomic mag. moment =    -0.000000
atom   43   Tr[ns(na)] (up, down, total) =   2.68353  2.68353  5.36706
   spin  1
    eigenvalues:
  0.879  0.884  0.921
    eigenvectors:
  0.000  1.000  0.000
  0.500  0.000  0.500
  0.500  0.000  0.500
    occupations:
  0.884 -0.000 -0.000
 -0.000  0.900  0.021
 -0.000  0.021  0.900
   spin  2
    eigenvalues:
  0.879  0.884  0.921
    eigenvectors:
  0.000  1.000  0.000
  0.500  0.000  0.500
  0.500  0.000  0.500
    occupations:
  0.884 -0.000 -0.000
 -0.000  0.900  0.021
 -0.000  0.021  0.900
atomic mag. moment =     0.000000
atom   44   Tr[ns(na)] (up, down, total) =   2.68353  2.68353  5.36706
   spin  1
    eigenvalues:
  0.879  0.884  0.921
    eigenvectors:
  0.000  1.000  0.000
  0.500  0.000  0.500
  0.500  0.000  0.500
    occupations:
  0.884 -0.000 -0.000
 -0.000  0.900  0.021
 -0.000  0.021  0.900
   spin  2
    eigenvalues:
  0.879  0.884  0.921
    eigenvectors:
  0.000  1.000  0.000
  0.500  0.000  0.500
  0.500  0.000  0.500
    occupations:
  0.884 -0.000 -0.000
 -0.000  0.900  0.021
 -0.000  0.021  0.900
atomic mag. moment =     0.000000
atom   45   Tr[ns(na)] (up, down, total) =   2.68356  2.68356  5.36713
   spin  1
    eigenvalues:
  0.879  0.884  0.921
    eigenvectors:
  0.000  1.000  0.000
  0.500  0.000  0.500
  0.500  0.000  0.500
    occupations:
  0.884 -0.000 -0.000
 -0.000  0.900 -0.021
 -0.000 -0.021  0.900
   spin  2
    eigenvalues:
  0.879  0.884  0.921
    eigenvectors:
  0.000  1.000  0.000
  0.500  0.000  0.500
  0.500  0.000  0.500
    occupations:
  0.884 -0.000 -0.000
 -0.000  0.900 -0.021
 -0.000 -0.021  0.900
atomic mag. moment =     0.000000
atom   46   Tr[ns(na)] (up, down, total) =   2.68362  2.68362  5.36723
   spin  1
    eigenvalues:
  0.879  0.884  0.921
    eigenvectors:
  0.000  1.000  0.000
  0.500  0.000  0.500
  0.500  0.000  0.500
    occupations:
  0.884 -0.000 -0.000
 -0.000  0.900 -0.021
 -0.000 -0.021  0.900
   spin  2
    eigenvalues:
  0.879  0.884  0.921
    eigenvectors:
  0.000  1.000  0.000
  0.500  0.000  0.500
  0.500  0.000  0.500
    occupations:
  0.884 -0.000 -0.000
 -0.000  0.900 -0.021
 -0.000 -0.021  0.900
atomic mag. moment =     0.000000
atom   47   Tr[ns(na)] (up, down, total) =   2.68353  2.68353  5.36706
   spin  1
    eigenvalues:
  0.879  0.884  0.921
    eigenvectors:
  0.000  1.000  0.000
  0.500  0.000  0.500
  0.500  0.000  0.500
    occupations:
  0.884  0.000  0.000
  0.000  0.900  0.021
  0.000  0.021  0.900
   spin  2
    eigenvalues:
  0.879  0.884  0.921
    eigenvectors:
  0.000  1.000  0.000
  0.500  0.000  0.500
  0.500  0.000  0.500
    occupations:
  0.884  0.000  0.000
  0.000  0.900  0.021
  0.000  0.021  0.900
atomic mag. moment =     0.000000
atom   48   Tr[ns(na)] (up, down, total) =   2.68353  2.68353  5.36706
   spin  1
    eigenvalues:
  0.879  0.884  0.921
    eigenvectors:
  0.000  1.000  0.000
  0.500  0.000  0.500
  0.500  0.000  0.500
    occupations:
  0.884  0.000  0.000
  0.000  0.900  0.021
  0.000  0.021  0.900
   spin  2
    eigenvalues:
  0.879  0.884  0.921
    eigenvectors:
  0.000  1.000  0.000
  0.500  0.000  0.500
  0.500  0.000  0.500
    occupations:
  0.884  0.000  0.000
  0.000  0.900  0.021
  0.000  0.021  0.900
atomic mag. moment =     0.000000
N of occupied +U levels = 300.4431619
 --- exit write_ns ---

 ------ SPIN UP ------------

          k = 0.0000 0.0000 0.0000 ( 15109 PWs)   bands (ev):

   -36.8050 -36.8045 -36.8042 -36.8041 -36.7955 -36.7952 -36.7952 -36.7950
   -36.7892 -36.7890 -36.7881 -36.7881 -36.7871 -36.7867 -36.7867 -36.7866
   -36.7809 -36.7804 -36.7801 -36.7800 -36.7719 -36.7714 -36.7714 -36.7711
   -36.6999 -36.6930 -36.6925 -36.6924 -36.6923 -36.6922 -36.6922 -36.6852
   -36.5434 -36.5431 -36.5429 -36.5426 -36.5413 -36.5413 -36.5410 -36.5407
   -36.5280 -36.5277 -36.5276 -36.5275 -36.5275 -36.5274 -36.5273 -36.5272
    -7.4310  -6.7719  -6.7667  -6.6527  -6.6436  -6.6434  -6.6429  -6.2750
    -6.1548  -6.1448  -6.1448  -6.1447  -6.0420  -6.0372  -5.9163  -5.9114
    -5.8521  -5.8477  -5.7534  -5.7488  -5.6317  -5.6220  -5.6218  -5.6217
    -5.5724  -5.5653  -5.5650  -5.5650  -5.3502  -5.3457  -5.2172  -5.2131
     3.9817   4.1142   4.1195   4.2291   5.1663   5.1664   5.1684   5.1750
     5.3471   5.3474   5.3483   5.3552   5.4970   5.4975   5.5251   5.5276
     5.6675   5.6707   5.7478   5.7510   5.8556   5.8556   5.8560   5.8618
     5.9533   5.9545   5.9628   5.9862   5.9866   5.9867   5.9926   6.3215
     6.3240   6.3993   6.4011   6.7833   6.7845   7.0734   7.0740   7.0741
     7.0800   7.5598   7.5601   7.5627   7.5678   7.5890   7.5891   7.5902
     7.5973   7.9972   8.0000   8.0241   8.0274   8.2384   8.2387   8.2399
     8.2424   8.2832   8.2873   8.4828   8.4831   8.4847   8.4908   8.5267
     8.5274   8.5275   8.5323   8.5465   8.5814   8.5828   8.5831   8.5891
     8.7958   8.7958   9.3281   9.3322   9.4179   9.4204   9.6463   9.6469
    10.0398  10.1070  10.1078  10.3132  10.3134  10.3139  10.3197  10.3585
    10.3593  10.5083  10.5085  10.5085  10.5158  10.7253  10.7264  10.8972
    10.8977  10.8983  10.8985  11.0772  11.1808  11.1811  11.2190  11.2283
    11.2285  11.2640  11.2641  11.4333  11.4957  11.7141  11.7147  11.7992
    11.7998  11.8271  11.8284  11.8285  11.8290  12.0150  12.0157  12.0163
    12.0163  12.2581  12.2592  12.2592  12.2597  12.3432  12.3443  12.8454
    12.8463  13.1579  13.1586  13.2996  13.3003  13.3005  13.3018  13.7721
    13.7729  13.8449  13.8453  14.1007  14.1007  14.1009  14.1018  14.2377
    14.6585  14.6606  14.6608  14.6609  14.7578  15.7964  15.7968  15.8425
    15.8429  15.9484  15.9500  16.1903  16.1908  16.6239  16.6243  17.0451
    17.0463  17.0463  17.0465  17.1905  17.1909  17.1909  17.1912  17.6601
    17.7139  17.7139  17.7274  17.7274  17.9927  17.9927  17.9932  17.9933
    19.0880  20.5830  20.5856  20.5856  20.5870  22.0934  22.0936  22.2193
    22.2200  22.6151  22.6164  22.7935  22.7946  22.8785  22.8791  22.9728
    22.9729  22.9743  22.9748  23.1519  23.1519  23.1553  23.1555  23.1556
    23.1558  23.1560  23.1562  23.1563  23.1564  23.1565  23.1567  23.1571
    23.1574  23.1575  23.1576  23.3071  23.3075  23.4717  23.4730  23.4732
    23.4736  23.8935  23.8953  23.8969  23.8974  25.1477  25.1478  25.2138
    25.7894  25.7895  25.8519  25.8527  25.8774  25.8779  26.2876  26.2879
    26.5738  26.6960  26.6967  26.6971  26.6975  26.8530  26.8722  26.8728
    26.8742  26.8751  27.4243  27.4245  27.4248  27.4252  27.5678  27.5689
    27.8770  27.8771  28.4214  28.4219  28.4226  28.4231  28.6487  28.6488
    28.8775  28.9078  28.9093  28.9096  28.9107  28.9285  29.8831  29.9353
    29.9357  30.1966  30.1985  30.3914  30.3920  30.3936  30.3938  31.0077
    31.0085  31.0105  31.0109  31.1564  31.1565  31.1581  31.1581  31.1604
    31.1608  31.5925  31.5928  31.9646  32.2830  32.2833  32.4901  32.4908
    32.4910  32.4921  32.8329  32.8329  32.8724  32.8726  33.6486  33.6501
    33.6508  33.6511  34.4013  34.4033  34.4136  34.4142  34.4918  34.4926
    34.9058  34.9061  35.1720  35.1722  35.4341  35.4353  35.4355  35.4366
    35.6121  35.6131  35.9418  35.9427  36.2585  36.2588  36.4706  36.4718
    36.4719  36.4724  36.5268  36.9261  36.9263  37.4473  37.4474  37.4478
    37.4489  37.8269  37.8282  37.9175  37.9180  37.9182  37.9192  38.3848
    38.3856  38.3866  38.3871  38.5683  38.5686  38.8062  38.8069  38.8312
    38.8317  38.8320  38.8325  39.5897  39.5899  39.5906  39.6306  39.6323
    39.6489  39.6492  39.6499  39.6505  39.6707  39.7320  39.7332  40.1735
    40.1744  40.1749  40.1754  40.2150  40.2161  40.2731  40.2737  40.3984
    40.3989  40.3991  40.3994  40.4111  40.4125  40.5947  41.0564  41.5289
    41.6479  41.7918  41.7926  41.8385  41.8389  42.0823  42.0830  42.6021
    42.6028  42.6528  42.6530  42.6531  42.6537  42.6572  42.6574  42.6582
    42.6585  43.3595  43.3599  43.6943  43.6964  43.6969  43.6970  43.7640
[...]
    45.3087  45.6762  45.6774  45.6783  45.6788  45.9542  45.9555  46.0035
    46.0035  46.1792  46.1799  46.3100  46.8259  46.8263  47.3182  47.3185
    47.3443  47.3462  47.3475  47.3476  47.4937  47.4943  47.4957  47.4964
    47.7118  47.7131  47.7140  47.7143  47.7394  47.7405  47.7406  47.7410
    48.0104  48.0637  48.0641  48.0941  48.0948  48.1679  48.1679  48.3265
    48.3271  48.5728  48.5741  48.5754  48.5755  48.8215  48.8234  48.8237
    48.8241  48.8525  48.8536  48.9786  48.9901  48.9905  49.0160  49.0165
    49.2144  49.2156  49.2159  49.2161  49.5435  49.5450  49.5532  49.5544
    49.7832  49.7832  50.0112  50.0119  50.2300  50.2310  50.2321  50.2322
    50.5392  50.5406  50.7130  50.7133  50.7375  50.7377  50.8663  50.8691
    50.8695  50.8697  50.9170  50.9174  50.9180  50.9180  51.2340  51.7298
    51.8972  51.8978  51.9047  51.9061  52.0759  52.0762  52.2757  52.2758
    52.2759  52.2762  52.5417  52.5420  52.7420  52.7425  52.7425  52.7431
    52.9967  52.9973  53.0371  53.0379  53.0380  53.0381  53.0435  53.0437
    53.3750  53.3764  53.5041  53.5044  53.5047  53.5049  53.5178  53.5184

[...]

          k =-0.5000-0.5000 0.0000 ( 15136 PWs)   bands (ev):

[...]

 ------ SPIN DOWN ----------

[...]

          k =-0.5000-0.5000-0.7138 ( 15112 PWs)   bands (ev):

[...]

          k = 0.2500-0.2500-0.7138 ( 15148 PWs)   bands (ev):

   -36.7868 -36.7864 -36.7863 -36.7862 -36.7860 -36.7859 -36.7854 -36.7853
   -36.7851 -36.7851 -36.7850 -36.7850 -36.7848 -36.7847 -36.7841 -36.7841
   -36.7479 -36.7479 -36.7446 -36.7445 -36.7442 -36.7441 -36.7441 -36.7440
   -36.7425 -36.7425 -36.7407 -36.7404 -36.7403 -36.7403 -36.7392 -36.7392
   -36.5358 -36.5358 -36.5352 -36.5350 -36.5350 -36.5349 -36.5349 -36.5349
   -36.5346 -36.5346 -36.5346 -36.5345 -36.5344 -36.5342 -36.5341 -36.5341
    -6.8127  -6.8066  -6.5042  -6.4972  -6.4968  -6.4966  -6.4252  -6.4163
    -6.2465  -6.2464  -6.0643  -6.0474  -6.0472  -6.0471  -5.9882  -5.9846
    -5.8292  -5.8158  -5.8157  -5.8155  -5.6926  -5.6922  -5.6375  -5.6349
    -5.6349  -5.6347  -5.6260  -5.6260  -5.5964  -5.5874  -5.5146  -5.5067
     4.7437   4.7498   4.7684   4.7805   5.1189   5.1192   5.1314   5.1314
     5.1319   5.1321   5.1407   5.1407   5.7813   5.7826   5.7846   5.7847
     5.7916   5.7935   5.8999   5.9022   6.0060   6.0060   6.0062   6.0109
     6.0232   6.0264   6.1822   6.1825   6.1825   6.1989   6.2830   6.2838
     6.3768   6.3769   6.3778   6.3903   6.7498   6.7519   6.8880   6.8912
     7.0143   7.0145   7.0146   7.0162   7.0582   7.0587   7.5432   7.5506
     7.6458   7.6520   7.6928   7.6929   7.6962   7.6980   8.0371   8.0375
     8.0404   8.0448   8.1535   8.1558   8.5775   8.5776   8.5779   8.5801
     8.6288   8.6296   8.6742   8.6743   8.8361   8.8369   8.8661   8.8669
     8.9247   8.9248   8.9256   8.9287   9.1416   9.1445   9.2910   9.2954
     9.3407   9.3435   9.3613   9.3651   9.7054   9.7055   9.7068   9.7074
     9.9036   9.9054  10.3527  10.3532  10.3535  10.3596  10.6310  10.6333
    11.3415  11.3418  11.5688  11.5694  11.5697  11.5715  11.7900  11.7903
    11.8101  11.8103  12.0673  12.0679  12.1986  12.1989  12.1991  12.1992
    12.2388  12.2392  12.2957  12.2961  12.3188  12.3190  12.3194  12.3194
    12.4617  12.4633  12.6505  12.6513  12.6515  12.6518  12.7211  12.7227
    13.0674  13.0678  13.1664  13.1667  13.3024  13.3027  13.3028  13.3042
    13.3752  13.3759  13.6402  13.6403  13.6405  13.6417  14.0385  14.0390
    15.4997  15.5028  15.5029  15.5037  15.5684  15.5690  15.9035  15.9038
    15.9039  15.9040  15.9233  15.9234  16.1067  16.1070  16.4663  16.4673
    16.5735  16.5747  16.5827  16.5837  16.8996  16.9000  16.9003  16.9003
    17.1862  17.1863  17.7990  17.7991  17.7992  17.7996  17.8816  17.8818
    20.0013  20.0026  21.1204  21.1227  21.1228  21.1245  21.9017  21.9037
    22.6439  22.6467  22.6470  22.6482  23.0146  23.0165  23.0967  23.0989
    23.1559  23.1559  23.1561  23.1563  23.1563  23.1564  23.1566  23.1566
    23.1567  23.1568  23.1568  23.1569  23.1569  23.1569  23.1599  23.1599
    23.7424  23.7449  23.8713  23.8730  23.8820  23.8824  24.1238  24.1250
    24.1253  24.1269  24.5278  24.5283  24.5297  24.5301  24.7054  24.7056
    25.4703  25.4705  25.8054  25.8071  25.8072  25.8079  26.0613  26.0618
    26.1384  26.1384  26.6035  26.6047  26.6052  26.6063  26.8552  26.8585
    27.4332  27.4354  27.5914  27.5916  27.8043  27.8054  27.8066  27.8070
    28.0775  28.0782  28.1632  28.1668  28.1669  28.1670  28.2825  28.2838
    28.5174  28.5183  28.6371  28.6374  28.6486  28.6490  28.6502  28.6504
    28.9666  28.9684  29.5728  29.5733  29.5739  29.5740  29.7012  29.7029
    29.9188  29.9201  30.7066  30.7073  30.7077  30.7084  32.0106  32.0113
    32.0282  32.0292  32.0295  32.0308  32.6921  32.6935  33.1252  33.1263
    33.1274  33.1278  33.3664  33.3672  33.4467  33.4486  33.5151  33.5155
    34.4371  34.4383  34.4396  34.4396  34.6327  34.6328  35.0806  35.0809
    35.3141  35.3173  35.6598  35.6607  35.6609  35.6616  35.7239  35.7260
    35.7546  35.7564  35.9435  35.9444  35.9448  35.9455  36.0416  36.0416
    36.3844  36.3859  36.9010  36.9010  36.9021  36.9022  37.0116  37.0119
    37.0128  37.0129  37.0973  37.0982  37.6380  37.6386  38.4931  38.4949
    38.4952  38.4956  38.5738  38.5740  38.6792  38.6806  38.7438  38.7454
    38.7455  38.7462  38.8897  38.8901  39.0004  39.0014  39.0181  39.0191
    39.2389  39.2396  39.2972  39.2983  39.4059  39.4066  39.7148  39.7151
    39.7154  39.7164  39.8670  39.8672  39.9596  39.9612  39.9616  39.9620
    40.3515  40.3521  40.7325  40.7345  40.7351  40.7356  41.2126  41.2131
    41.5761  41.5789  41.9067  41.9067  42.0029  42.0038  42.3926  42.3936
    42.4115  42.4120  42.4122  42.4122  42.5690  42.5702  43.2626  43.2645
    43.2648  43.2651  43.3591  43.3598  43.3600  43.3608  43.5435  43.5438
[...]
    45.8233  45.8237  45.9241  45.9243  46.0802  46.0805  46.0809  46.0810
    46.5113  46.5115  46.5909  46.5925  46.5935  46.5939  46.6700  46.6722
    46.8378  46.8380  47.1307  47.1309  47.1611  47.1630  47.1631  47.1633
    47.3731  47.3762  47.6745  47.6750  47.7979  47.7984  47.7993  47.8001
    48.1579  48.1588  48.3540  48.3545  48.4949  48.4951  48.4954  48.4960
    48.6325  48.6348  48.8328  48.8340  48.9982  48.9989  48.9991  49.0001
    49.2886  49.2902  49.3301  49.3313  49.3315  49.3316  49.6087  49.6089
    49.7451  49.7461  49.8026  49.8031  49.8040  49.8040  49.8524  49.8527
    50.0254  50.0257  50.3328  50.3344  50.3348  50.3355  50.5257  50.5271
    50.6048  50.6058  51.0009  51.0014  51.0018  51.0024  51.0844  51.0848
    51.1460  51.1471  51.1473  51.1480  51.2988  51.2990  51.4713  51.4722
    51.5146  51.5159  51.7256  51.7262  51.7264  51.7269  52.1881  52.1891
    52.1894  52.1895  52.2490  52.2492  52.5476  52.5497  52.6626  52.6637
    52.7670  52.7671  52.8551  52.8560  52.8562  52.8569  53.2099  53.2107
    53.4817  53.4831  53.7327  53.7333  53.7333  53.7340  53.8134  53.8138

     the Fermi energy is    13.5808 ev

!    total energy              =   -4010.15484187 Ry
     Harris-Foulkes estimate   =   -4010.15484245 Ry
     estimated scf accuracy    <       0.00000060 Ry

     The total energy is the sum of the following terms:

     one-electron contribution =    -827.28746118 Ry
     hartree contribution      =     708.74464181 Ry
     xc contribution           =   -1105.22943222 Ry
     ewald contribution        =   -2786.44204143 Ry
     Hubbard energy            =       0.05906394 Ry
     smearing contrib. (-TS)   =       0.00038720 Ry

     total magnetization       =     0.00 Bohr mag/cell
     absolute magnetization    =     0.00 Bohr mag/cell

     convergence has been achieved in  10 iterations

     Writing output data file pwscf.save

     General routines

     Parallel routines
     Hubbard U routines

   This run was terminated on:  11:47:58  11Feb2014

   JOB DONE.