     Program PWSCF v.5.0.2 (svn rev. 9656) starts on 10Feb2014 at 14: 3:11

     Current dimensions of program PWSCF are:
     Max number of different atomic species (ntypx) = 10
     Max number of k-points (npk) =  40000
     Max angular momentum in pseudopotentials (lmaxx) =  3
     Reading input from alpha_-0.15/alpha_-0.15.in
Warning: card &IONS ignored
Warning: card / ignored
Warning: card &CELL ignored
Warning: card / ignored

     Subspace diagonalization in iterative solution of the eigenvalue problem:
     a serial algorithm will be used

     bravais-lattice index     =            0
     lattice parameter (alat)  =      17.1587  a.u.
     unit-cell volume          =    3538.5507 (a.u.)^3
     number of atoms/cell      =           48
     number of atomic types    =            3
     number of electrons       =       432.00
     number of Kohn-Sham states=          624
     kinetic-energy cutoff     =      40.0000  Ry
     charge density cutoff     =     500.0000  Ry
     convergence threshold     =      1.0E-06
     mixing beta               =       0.7000
     number of iterations used =            8  plain     mixing
     Exchange-correlation      = SLA  PW   PBE  PBE ( 1 4 3 4 0)
     EXX-fraction              =        0.00

     celldm(1)=  17.158713  celldm(2)=   0.000000  celldm(3)=   0.000000
     celldm(4)=   0.000000  celldm(5)=   0.000000  celldm(6)=   0.000000

     crystal axes: (cart. coord. in units of alat)
               a(1) = (   1.000000   0.000000   0.000000 )
               a(2) = (   0.000000   1.000000   0.000000 )
               a(3) = (   0.000000   0.000000   0.700441 )

     reciprocal axes: (cart. coord. in units 2 pi/alat)
               b(1) = (  1.000000  0.000000  0.000000 )
               b(2) = (  0.000000  1.000000  0.000000 )
               b(3) = (  0.000000  0.000000  1.427673 )

     PseudoPot. # 1 for Ir read from file:
     /home/camp/zhonxu/pseudo/ir_pbe_v1.uspp.F.UPF
     MD5 check sum: abf987a9674477536ede83817f8f8b70
     Pseudo is Ultrasoft + core correction, Zval = 15.0
     Generated by new atomic code, or converted to UPF format
     Using radial grid of  983 points,  7 beta functions with:
                l(1) =   0
                l(2) =   0
                l(3) =   1
                l(4) =   1
                l(5) =   1
                l(6) =   2
                l(7) =   2
     Q(r) pseudized with  8 coefficients,  rinner =    1.350   1.350   1.350
                                                       1.350   1.350

     PseudoPot. # 2 for O  read from file:
     /home/camp/zhonxu/pseudo/o_pbe_v1.01.uspp.F.UPF
     MD5 check sum: 2bcb18d16ea4b960afae9ec6d52f22d2
     Pseudo is Ultrasoft + core correction, Zval =  6.0
     Generated by new atomic code, or converted to UPF format
     Using radial grid of  737 points,  5 beta functions with:
                l(1) =   0
                l(2) =   0
                l(3) =   1
                l(4) =   1
                l(5) =   2
     Q(r) pseudized with  8 coefficients,  rinner =    0.900   0.900   0.900
                                                       0.900   0.900

     PseudoPot. # 3 for O  read from file:
     /home/camp/zhonxu/pseudo/o_pbe_v1.01.uspp.F.UPF
     MD5 check sum: 2bcb18d16ea4b960afae9ec6d52f22d2
     Pseudo is Ultrasoft + core correction, Zval =  6.0
     Generated by new atomic code, or converted to UPF format
     Using radial grid of  737 points,  5 beta functions with:
                l(1) =   0
                l(2) =   0
                l(3) =   1
                l(4) =   1
                l(5) =   2
     Q(r) pseudized with  8 coefficients,  rinner =    0.900   0.900   0.900
                                                       0.900   0.900

     atomic species   valence    mass     pseudopotential
        Ir0           15.00   192.22000     Ir( 1.00)
        O1             6.00    15.99940     O ( 1.00)
        O2             6.00    15.99940     O ( 1.00)

     Starting magnetic structure
     atomic species   magnetization
        Ir0          0.000
        O1           0.000
        O2           0.000

     Simplified LDA+U calculation (l_max = 2) with parameters (eV):
     atomic species    L          U    alpha       J0     beta
        Ir0            2     0.0000   0.0000   0.0000   0.0000
        O1             1     0.0000  -0.1500   0.0000   0.0000
        O2             1     0.0000   0.0000   0.0000   0.0000

      4 Sym. Ops. (no inversion) found

   Cartesian axes

     site n.     atom                  positions (alat units)
         1           Ir0 tau(   1) = (  -0.1550000  -0.1550000   0.0000000  )
         2           Ir0 tau(   2) = (   0.0950000   0.0950000   0.1751101  )
         3           Ir0 tau(   3) = (  -0.1550000  -0.1550000   0.3502203  )
         4           Ir0 tau(   4) = (   0.0950000   0.0950000   0.5253304  )
         5           Ir0 tau(   5) = (  -0.1550000   0.3450000   0.0000000  )
         6           Ir0 tau(   6) = (   0.0950000   0.5950000   0.1751101  )
         7           Ir0 tau(   7) = (  -0.1550000   0.3450000   0.3502203  )
         8           Ir0 tau(   8) = (   0.0950000   0.5950000   0.5253304  )
         9           Ir0 tau(   9) = (   0.3450000  -0.1550000   0.0000000  )
        10           Ir0 tau(  10) = (   0.5950000   0.0950000   0.1751101  )
        11           Ir0 tau(  11) = (   0.3450000  -0.1550000   0.3502203  )
        12           Ir0 tau(  12) = (   0.5950000   0.0950000   0.5253304  )
        13           Ir0 tau(  13) = (   0.3450000   0.3450000   0.0000000  )
        14           Ir0 tau(  14) = (   0.5950000   0.5950000   0.1751101  )
        15           Ir0 tau(  15) = (   0.3450000   0.3450000   0.3502203  )
        16           Ir0 tau(  16) = (   0.5950000   0.5950000   0.5253304  )
        17           O1  tau(  17) = (   0.0000000   0.0000000   0.0000000  )
        18           O2  tau(  18) = (  -0.3100000  -0.3100000   0.0000000  )
        19           O2  tau(  19) = (   0.2500000  -0.0600000   0.1751101  )
        20           O2  tau(  20) = (  -0.0600000   0.2500000   0.1751101  )
        21           O2  tau(  21) = (   0.0000000   0.0000000   0.3502203  )
        22           O2  tau(  22) = (  -0.3100000  -0.3100000   0.3502203  )
        23           O2  tau(  23) = (   0.2500000  -0.0600000   0.5253304  )
        24           O2  tau(  24) = (  -0.0600000   0.2500000   0.5253304  )
        25           O2  tau(  25) = (   0.0000000   0.5000000   0.0000000  )
        26           O2  tau(  26) = (  -0.3100000   0.1900000   0.0000000  )
        27           O2  tau(  27) = (   0.2500000   0.4400000   0.1751101  )
        28           O2  tau(  28) = (  -0.0600000   0.7500000   0.1751101  )
        29           O2  tau(  29) = (   0.0000000   0.5000000   0.3502203  )
        30           O2  tau(  30) = (  -0.3100000   0.1900000   0.3502203  )
        31           O2  tau(  31) = (   0.2500000   0.4400000   0.5253304  )
        32           O2  tau(  32) = (  -0.0600000   0.7500000   0.5253304  )
        33           O2  tau(  33) = (   0.5000000   0.0000000   0.0000000  )
        34           O2  tau(  34) = (   0.1900000  -0.3100000   0.0000000  )
        35           O2  tau(  35) = (   0.7500000  -0.0600000   0.1751101  )
        36           O2  tau(  36) = (   0.4400000   0.2500000   0.1751101  )
        37           O2  tau(  37) = (   0.5000000   0.0000000   0.3502203  )
        38           O2  tau(  38) = (   0.1900000  -0.3100000   0.3502203  )
        39           O2  tau(  39) = (   0.7500000  -0.0600000   0.5253304  )
        40           O2  tau(  40) = (   0.4400000   0.2500000   0.5253304  )
        41           O2  tau(  41) = (   0.5000000   0.5000000   0.0000000  )
        42           O2  tau(  42) = (   0.1900000   0.1900000   0.0000000  )
        43           O2  tau(  43) = (   0.7500000   0.4400000   0.1751101  )
        44           O2  tau(  44) = (   0.4400000   0.7500000   0.1751101  )
        45           O2  tau(  45) = (   0.5000000   0.5000000   0.3502203  )
        46           O2  tau(  46) = (   0.1900000   0.1900000   0.3502203  )
        47           O2  tau(  47) = (   0.7500000   0.4400000   0.5253304  )
        48           O2  tau(  48) = (   0.4400000   0.7500000   0.5253304  )

     number of k points=    42  Methfessel-Paxton smearing, width (Ry)=  0.0100
                       cart. coord. in units 2pi/alat
        k(    1) = (   0.0000000   0.0000000   0.0000000), wk =   0.0156250
        k(    2) = (   0.0000000   0.0000000   0.3569182), wk =   0.0312500
        k(    3) = (   0.0000000   0.0000000  -0.7138365), wk =   0.0156250
        k(    4) = (   0.0000000   0.2500000   0.0000000), wk =   0.0625000
        k(    5) = (   0.0000000   0.2500000   0.3569182), wk =   0.1250000
        k(    6) = (   0.0000000   0.2500000  -0.7138365), wk =   0.0625000
        k(    7) = (   0.0000000  -0.5000000   0.0000000), wk =   0.0312500
        k(    8) = (   0.0000000  -0.5000000   0.3569182), wk =   0.0625000
        k(    9) = (   0.0000000  -0.5000000  -0.7138365), wk =   0.0312500
        k(   10) = (   0.2500000   0.2500000   0.0000000), wk =   0.0312500
        k(   11) = (   0.2500000   0.2500000   0.3569182), wk =   0.0625000
        k(   12) = (   0.2500000   0.2500000  -0.7138365), wk =   0.0312500
        k(   13) = (   0.2500000  -0.5000000   0.0000000), wk =   0.0625000
        k(   14) = (   0.2500000  -0.5000000   0.3569182), wk =   0.1250000
        k(   15) = (   0.2500000  -0.5000000  -0.7138365), wk =   0.0625000
        k(   16) = (  -0.5000000  -0.5000000   0.0000000), wk =   0.0156250
        k(   17) = (  -0.5000000  -0.5000000   0.3569182), wk =   0.0312500
        k(   18) = (  -0.5000000  -0.5000000  -0.7138365), wk =   0.0156250
        k(   19) = (   0.2500000  -0.2500000   0.0000000), wk =   0.0312500
        k(   20) = (   0.2500000  -0.2500000   0.3569182), wk =   0.0625000
        k(   21) = (   0.2500000  -0.2500000  -0.7138365), wk =   0.0312500
        k(   22) = (   0.0000000   0.0000000   0.0000000), wk =   0.0156250
        k(   23) = (   0.0000000   0.0000000   0.3569182), wk =   0.0312500
        k(   24) = (   0.0000000   0.0000000  -0.7138365), wk =   0.0156250
        k(   25) = (   0.0000000   0.2500000   0.0000000), wk =   0.0625000
        k(   26) = (   0.0000000   0.2500000   0.3569182), wk =   0.1250000
        k(   27) = (   0.0000000   0.2500000  -0.7138365), wk =   0.0625000
        k(   28) = (   0.0000000  -0.5000000   0.0000000), wk =   0.0312500
        k(   29) = (   0.0000000  -0.5000000   0.3569182), wk =   0.0625000
        k(   30) = (   0.0000000  -0.5000000  -0.7138365), wk =   0.0312500
        k(   31) = (   0.2500000   0.2500000   0.0000000), wk =   0.0312500
        k(   32) = (   0.2500000   0.2500000   0.3569182), wk =   0.0625000
        k(   33) = (   0.2500000   0.2500000  -0.7138365), wk =   0.0312500
        k(   34) = (   0.2500000  -0.5000000   0.0000000), wk =   0.0625000
        k(   35) = (   0.2500000  -0.5000000   0.3569182), wk =   0.1250000
        k(   36) = (   0.2500000  -0.5000000  -0.7138365), wk =   0.0625000
[...]
    eigenvectors:
  0.000  1.000  0.000
  0.500  0.000  0.500
  0.500  0.000  0.500
    occupations:
  0.884 -0.000 -0.000
 -0.000  0.900 -0.021
 -0.000 -0.021  0.900
   spin  2
    eigenvalues:
  0.879  0.884  0.921
    eigenvectors:
  0.000  1.000  0.000
  0.500  0.000  0.500
  0.500  0.000  0.500
    occupations:
  0.884 -0.000 -0.000
 -0.000  0.900 -0.021
 -0.000 -0.021  0.900
atomic mag. moment =     0.000000
atom   42   Tr[ns(na)] (up, down, total) =   2.68337  2.68337  5.36673
   spin  1
    eigenvalues:
  0.879  0.884  0.920
    eigenvectors:
  0.000  1.000  0.000
  0.500  0.000  0.500
  0.500  0.000  0.500
    occupations:
  0.884 -0.000 -0.000
 -0.000  0.900 -0.021
 -0.000 -0.021  0.900
   spin  2
    eigenvalues:
  0.879  0.884  0.920
    eigenvectors:
  0.000  1.000  0.000
  0.500  0.000  0.500
  0.500  0.000  0.500
    occupations:
  0.884 -0.000 -0.000
 -0.000  0.900 -0.021
 -0.000 -0.021  0.900
atomic mag. moment =    -0.000000
atom   43   Tr[ns(na)] (up, down, total) =   2.68355  2.68355  5.36709
   spin  1
    eigenvalues:
  0.879  0.884  0.921
    eigenvectors:
  0.000  1.000  0.000
  0.500  0.000  0.500
  0.500  0.000  0.500
    occupations:
  0.884  0.000  0.000
  0.000  0.900  0.021
  0.000  0.021  0.900
   spin  2
    eigenvalues:
  0.879  0.884  0.921
    eigenvectors:
  0.000  1.000  0.000
  0.500  0.000  0.500
  0.500  0.000  0.500
    occupations:
  0.884  0.000  0.000
  0.000  0.900  0.021
  0.000  0.021  0.900
atomic mag. moment =     0.000000
atom   44   Tr[ns(na)] (up, down, total) =   2.68355  2.68355  5.36709
   spin  1
    eigenvalues:
  0.879  0.884  0.921
    eigenvectors:
  0.000  1.000  0.000
  0.500  0.000  0.500
  0.500  0.000  0.500
    occupations:
  0.884  0.000  0.000
  0.000  0.900  0.021
  0.000  0.021  0.900
   spin  2
    eigenvalues:
  0.879  0.884  0.921
    eigenvectors:
  0.000  1.000  0.000
  0.500  0.000  0.500
  0.500  0.000  0.500
    occupations:
  0.884  0.000  0.000
  0.000  0.900  0.021
  0.000  0.021  0.900
atomic mag. moment =     0.000000
atom   45   Tr[ns(na)] (up, down, total) =   2.68354  2.68354  5.36708
   spin  1
    eigenvalues:
  0.879  0.884  0.920
    eigenvectors:
  0.000  1.000  0.000
  0.500  0.000  0.500
  0.500  0.000  0.500
    occupations:
  0.884 -0.000 -0.000
 -0.000  0.900 -0.021
 -0.000 -0.021  0.900
   spin  2
    eigenvalues:
  0.879  0.884  0.920
    eigenvectors:
  0.000  1.000  0.000
  0.500  0.000  0.500
  0.500  0.000  0.500
    occupations:
  0.884 -0.000 -0.000
 -0.000  0.900 -0.021
 -0.000 -0.021  0.900
atomic mag. moment =     0.000000
atom   46   Tr[ns(na)] (up, down, total) =   2.68350  2.68350  5.36699
   spin  1
    eigenvalues:
  0.879  0.884  0.920
    eigenvectors:
  0.000  1.000  0.000
  0.500  0.000  0.500
  0.500  0.000  0.500
    occupations:
  0.884 -0.000 -0.000
 -0.000  0.900 -0.021
 -0.000 -0.021  0.900
   spin  2
    eigenvalues:
  0.879  0.884  0.920
    eigenvectors:
  0.000  1.000  0.000
  0.500  0.000  0.500
  0.500  0.000  0.500
    occupations:
  0.884 -0.000 -0.000
 -0.000  0.900 -0.021
 -0.000 -0.021  0.900
atomic mag. moment =     0.000000
atom   47   Tr[ns(na)] (up, down, total) =   2.68355  2.68355  5.36709
   spin  1
    eigenvalues:
  0.879  0.884  0.921
    eigenvectors:
  0.000  1.000  0.000
  0.500  0.000  0.500
  0.500  0.000  0.500
    occupations:
  0.884 -0.000 -0.000
 -0.000  0.900  0.021
 -0.000  0.021  0.900
   spin  2
    eigenvalues:
  0.879  0.884  0.921
    eigenvectors:
  0.000  1.000  0.000
  0.500  0.000  0.500
  0.500  0.000  0.500
    occupations:
  0.884 -0.000 -0.000
 -0.000  0.900  0.021
 -0.000  0.021  0.900
atomic mag. moment =     0.000000
atom   48   Tr[ns(na)] (up, down, total) =   2.68355  2.68355  5.36709
   spin  1
    eigenvalues:
  0.879  0.884  0.921
    eigenvectors:
  0.000  1.000  0.000
  0.500  0.000  0.500
  0.500  0.000  0.500
    occupations:
  0.884 -0.000 -0.000
 -0.000  0.900  0.021
 -0.000  0.021  0.900
   spin  2
    eigenvalues:
  0.879  0.884  0.921
    eigenvectors:
  0.000  1.000  0.000
  0.500  0.000  0.500
  0.500  0.000  0.500
    occupations:
  0.884 -0.000 -0.000
 -0.000  0.900  0.021
 -0.000  0.021  0.900
atomic mag. moment =     0.000000
N of occupied +U levels = 300.4441646
 --- exit write_ns ---

 ------ SPIN UP ------------

          k = 0.0000 0.0000 0.0000 ( 15109 PWs)   bands (ev):

   -36.8079 -36.8078 -36.8076 -36.8073 -36.7988 -36.7987 -36.7986 -36.7986
   -36.7926 -36.7926 -36.7917 -36.7916 -36.7906 -36.7904 -36.7903 -36.7901
   -36.7841 -36.7841 -36.7837 -36.7835 -36.7755 -36.7752 -36.7752 -36.7748
   -36.7034 -36.6960 -36.6960 -36.6958 -36.6958 -36.6958 -36.6955 -36.6885
   -36.5465 -36.5462 -36.5461 -36.5460 -36.5447 -36.5444 -36.5441 -36.5441
   -36.5315 -36.5312 -36.5312 -36.5311 -36.5310 -36.5310 -36.5308 -36.5302
    -7.4295  -6.7701  -6.7661  -6.6473  -6.6469  -6.6466  -6.6383  -6.2736
    -6.1478  -6.1478  -6.1478  -6.1397  -6.0406  -6.0359  -5.9143  -5.9101
    -5.8505  -5.8460  -5.7516  -5.7472  -5.6250  -5.6249  -5.6247  -5.6166
    -5.5681  -5.5681  -5.5679  -5.5566  -5.3492  -5.3438  -5.2160  -5.2106
     3.9720   4.1060   4.1115   4.2227   5.1534   5.1610   5.1633   5.1633
     5.3351   5.3432   5.3442   5.3444   5.4898   5.4902   5.5156   5.5171
     5.6613   5.6648   5.7418   5.7452   5.8467   5.8526   5.8529   5.8530
     5.9445   5.9460   5.9545   5.9775   5.9834   5.9835   5.9838   6.3152
     6.3178   6.3903   6.3918   6.7769   6.7779   7.0644   7.0706   7.0707
     7.0712   7.5489   7.5542   7.5569   7.5571   7.5780   7.5860   7.5868
     7.5869   7.9913   7.9944   8.0187   8.0213   8.2306   8.2341   8.2355
     8.2358   8.2773   8.2810   8.4730   8.4796   8.4804   8.4805   8.5164
     8.5243   8.5244   8.5250   8.5390   8.5732   8.5770   8.5771   8.5785
     8.7882   8.7882   9.3214   9.3254   9.4128   9.4154   9.6398   9.6403
    10.0337  10.1009  10.1016  10.3034  10.3098  10.3105  10.3106  10.3525
    10.3534  10.4989  10.5057  10.5057  10.5059  10.7196  10.7205  10.8952
    10.8953  10.8959  10.8964  11.0751  11.1787  11.1790  11.2153  11.2262
    11.2263  11.2618  11.2619  11.4289  11.4932  11.7120  11.7125  11.7970
    11.7974  11.8253  11.8257  11.8258  11.8271  12.0126  12.0126  12.0132
    12.0139  12.2554  12.2559  12.2559  12.2569  12.3397  12.3407  12.8419
    12.8427  13.1544  13.1551  13.2959  13.2972  13.2973  13.2980  13.7686
    13.7695  13.8415  13.8419  14.0968  14.0978  14.0979  14.0980  14.2356
    14.6573  14.6574  14.6576  14.6596  14.7543  15.7939  15.7942  15.8399
    15.8403  15.9460  15.9476  16.1874  16.1879  16.6211  16.6215  17.0429
    17.0430  17.0431  17.0442  17.1877  17.1879  17.1879  17.1882  17.6604
    17.7110  17.7110  17.7245  17.7245  17.9899  17.9899  17.9903  17.9903
    19.0852  20.5842  20.5856  20.5856  20.5881  22.0935  22.0937  22.2202
    22.2209  22.6150  22.6162  22.7940  22.7951  22.8789  22.8795  22.9733
    22.9737  22.9751  22.9752  23.1485  23.1486  23.1520  23.1521  23.1523
    23.1524  23.1524  23.1528  23.1528  23.1528  23.1530  23.1533  23.1537
    23.1538  23.1540  23.1542  23.3066  23.3070  23.4720  23.4723  23.4726
    23.4738  23.8945  23.8949  23.8966  23.8983  25.1485  25.1486  25.2134
    25.7895  25.7896  25.8520  25.8528  25.8772  25.8777  26.2882  26.2885
    26.5746  26.6965  26.6969  26.6973  26.6979  26.8529  26.8726  26.8736
    26.8750  26.8755  27.4243  27.4247  27.4250  27.4252  27.5683  27.5695
    27.8770  27.8772  28.4213  28.4219  28.4225  28.4229  28.6485  28.6486
    28.8777  28.9080  28.9092  28.9095  28.9109  28.9287  29.8826  29.9356
    29.9359  30.1970  30.1988  30.3913  30.3916  30.3931  30.3936  31.0083
    31.0087  31.0107  31.0114  31.1565  31.1565  31.1578  31.1581  31.1600
    31.1609  31.5924  31.5926  31.9652  32.2826  32.2829  32.4897  32.4908
    32.4909  32.4916  32.8333  32.8333  32.8723  32.8725  33.6490  33.6492
    33.6499  33.6513  34.4014  34.4034  34.4134  34.4140  34.4918  34.4925
    34.9056  34.9058  35.1721  35.1723  35.4343  35.4355  35.4356  35.4368
    35.6121  35.6131  35.9421  35.9430  36.2584  36.2587  36.4707  36.4713
    36.4713  36.4725  36.5272  36.9259  36.9260  37.4467  37.4478  37.4481
    37.4483  37.8267  37.8280  37.9170  37.9179  37.9181  37.9186  38.3849
    38.3854  38.3864  38.3871  38.5683  38.5686  38.8062  38.8070  38.8313
    38.8317  38.8320  38.8325  39.5898  39.5900  39.5903  39.6306  39.6320
    39.6487  39.6493  39.6500  39.6507  39.6701  39.7319  39.7331  40.1742
    40.1747  40.1751  40.1759  40.2152  40.2162  40.2727  40.2733  40.3987
    40.3987  40.3990  40.3997  40.4114  40.4129  40.5946  41.0567  41.5285
    41.6477  41.7915  41.7923  41.8382  41.8386  42.0821  42.0828  42.6026
    42.6033  42.6527  42.6533  42.6534  42.6538  42.6574  42.6577  42.6585
    42.6586  43.3594  43.3598  43.6955  43.6956  43.6960  43.6981  43.7639
[...]
    45.3088  45.6763  45.6768  45.6776  45.6788  45.9539  45.9553  46.0030
    46.0030  46.1791  46.1797  46.3101  46.8262  46.8265  47.3186  47.3188
    47.3452  47.3452  47.3466  47.3483  47.4938  47.4945  47.4958  47.4964
    47.7121  47.7124  47.7132  47.7145  47.7400  47.7403  47.7405  47.7416
    48.0109  48.0640  48.0644  48.0935  48.0941  48.1674  48.1674  48.3266
    48.3272  48.5732  48.5733  48.5744  48.5758  48.8221  48.8225  48.8227
    48.8246  48.8527  48.8538  48.9777  48.9895  48.9897  49.0158  49.0164
    49.2154  49.2156  49.2158  49.2170  49.5442  49.5457  49.5531  49.5543
    49.7834  49.7834  50.0112  50.0119  50.2301  50.2302  50.2312  50.2322
    50.5391  50.5404  50.7131  50.7134  50.7379  50.7382  50.8673  50.8676
    50.8679  50.8706  50.9175  50.9175  50.9180  50.9185  51.2335  51.7293
    51.8967  51.8972  51.9043  51.9058  52.0762  52.0764  52.2753  52.2756
    52.2756  52.2758  52.5418  52.5421  52.7422  52.7428  52.7428  52.7432
    52.9967  52.9974  53.0372  53.0372  53.0373  53.0377  53.0433  53.0436
    53.3752  53.3766  53.5044  53.5047  53.5049  53.5052  53.5180  53.5186

[...]

          k =-0.5000-0.5000 0.0000 ( 15136 PWs)   bands (ev):

[...]

 ------ SPIN DOWN ----------

[...]

          k =-0.5000-0.5000-0.7138 ( 15112 PWs)   bands (ev):

[...]

          k = 0.2500-0.2500-0.7138 ( 15148 PWs)   bands (ev):

   -36.7901 -36.7898 -36.7895 -36.7893 -36.7892 -36.7892 -36.7891 -36.7891
   -36.7889 -36.7889 -36.7885 -36.7883 -36.7882 -36.7881 -36.7878 -36.7877
   -36.7514 -36.7513 -36.7480 -36.7480 -36.7477 -36.7476 -36.7476 -36.7475
   -36.7459 -36.7457 -36.7440 -36.7440 -36.7440 -36.7438 -36.7425 -36.7425
   -36.5389 -36.5388 -36.5388 -36.5385 -36.5384 -36.5384 -36.5383 -36.5382
   -36.5382 -36.5381 -36.5380 -36.5380 -36.5379 -36.5379 -36.5373 -36.5368
    -6.8105  -6.8055  -6.5008  -6.5006  -6.5002  -6.4953  -6.4200  -6.4116
    -6.2494  -6.2493  -6.0509  -6.0508  -6.0505  -6.0376  -5.9877  -5.9830
    -5.8190  -5.8187  -5.8187  -5.8049  -5.6950  -5.6947  -5.6378  -5.6377
    -5.6377  -5.6357  -5.6289  -5.6288  -5.5908  -5.5809  -5.5101  -5.4978
     4.7263   4.7399   4.7586   4.7647   5.1159   5.1162   5.1282   5.1285
     5.1289   5.1289   5.1378   5.1379   5.7672   5.7727   5.7784   5.7798
     5.7813   5.7815   5.8938   5.8966   5.9975   6.0028   6.0030   6.0031
     6.0134   6.0172   6.1635   6.1793   6.1793   6.1794   6.2792   6.2801
     6.3603   6.3730   6.3737   6.3738   6.7444   6.7463   6.8801   6.8837
     7.0097   7.0114   7.0115   7.0117   7.0550   7.0554   7.5312   7.5400
     7.6357   7.6417   7.6847   7.6877   7.6899   7.6900   8.0269   8.0305
     8.0335   8.0339   8.1477   8.1502   8.5718   8.5743   8.5745   8.5746
     8.6254   8.6261   8.6710   8.6711   8.8322   8.8332   8.8629   8.8637
     8.9180   8.9211   8.9220   8.9221   9.1344   9.1374   9.2831   9.2879
     9.3313   9.3341   9.3547   9.3580   9.7005   9.7011   9.7023   9.7025
     9.8971   9.8988  10.3437  10.3498  10.3501  10.3505  10.6261  10.6283
    11.3383  11.3386  11.5649  11.5666  11.5670  11.5675  11.7880  11.7882
    11.8080  11.8083  12.0644  12.0649  12.1960  12.1961  12.1963  12.1966
    12.2360  12.2364  12.2929  12.2933  12.3160  12.3160  12.3163  12.3166
    12.4577  12.4594  12.6474  12.6478  12.6480  12.6487  12.7170  12.7185
    13.0644  13.0647  13.1628  13.1632  13.2983  13.2997  13.2999  13.3001
    13.3719  13.3726  13.6362  13.6374  13.6375  13.6377  14.0351  14.0356
    15.4984  15.4994  15.4994  15.5023  15.5658  15.5664  15.9007  15.9007
    15.9009  15.9011  15.9204  15.9206  16.1042  16.1045  16.4644  16.4652
    16.5706  16.5717  16.5797  16.5809  16.8968  16.8969  16.8971  16.8975
    17.1832  17.1832  17.7962  17.7966  17.7967  17.7967  17.8787  17.8789
    20.0015  20.0028  21.1215  21.1231  21.1232  21.1255  21.9017  21.9037
    22.6452  22.6463  22.6466  22.6494  23.0149  23.0167  23.0973  23.0995
    23.1527  23.1527  23.1528  23.1528  23.1529  23.1529  23.1530  23.1531
    23.1531  23.1532  23.1534  23.1534  23.1535  23.1536  23.1565  23.1565
    23.7420  23.7444  23.8715  23.8732  23.8827  23.8830  24.1241  24.1256
    24.1259  24.1271  24.5275  24.5279  24.5293  24.5297  24.7054  24.7055
    25.4701  25.4703  25.8065  25.8072  25.8072  25.8089  26.0622  26.0626
    26.1380  26.1380  26.6035  26.6045  26.6050  26.6062  26.8563  26.8595
    27.4336  27.4358  27.5911  27.5913  27.8051  27.8054  27.8067  27.8077
    28.0775  28.0782  28.1650  28.1651  28.1651  28.1687  28.2826  28.2839
    28.5169  28.5178  28.6373  28.6374  28.6490  28.6492  28.6503  28.6509
    28.9674  28.9692  29.5729  29.5730  29.5736  29.5741  29.7013  29.7029
    29.9188  29.9201  30.7060  30.7067  30.7071  30.7078  32.0105  32.0111
    32.0282  32.0294  32.0297  32.0306  32.6923  32.6937  33.1257  33.1261
    33.1271  33.1283  33.3662  33.3669  33.4467  33.4485  33.5151  33.5155
    34.4377  34.4377  34.4389  34.4401  34.6319  34.6320  35.0792  35.0795
    35.3154  35.3185  35.6596  35.6602  35.6604  35.6613  35.7242  35.7262
    35.7553  35.7571  35.9436  35.9442  35.9446  35.9455  36.0417  36.0417
    36.3842  36.3857  36.9010  36.9011  36.9021  36.9022  37.0116  37.0118
    37.0126  37.0129  37.0980  37.0989  37.6377  37.6383  38.4941  38.4945
    38.4947  38.4965  38.5740  38.5741  38.6786  38.6799  38.7447  38.7454
    38.7454  38.7470  38.8891  38.8895  39.0003  39.0012  39.0183  39.0193
    39.2387  39.2394  39.2976  39.2987  39.4055  39.4063  39.7144  39.7153
    39.7157  39.7160  39.8668  39.8670  39.9604  39.9608  39.9613  39.9628
    40.3509  40.3515  40.7333  40.7337  40.7343  40.7362  41.2126  41.2131
    41.5771  41.5798  41.9068  41.9069  42.0032  42.0041  42.3927  42.3937
    42.4114  42.4115  42.4117  42.4122  42.5695  42.5707  43.2633  43.2636
    43.2639  43.2657  43.3586  43.3593  43.3596  43.3603  43.5438  43.5441
[...]
    45.8223  45.8227  45.9246  45.9248  46.0802  46.0803  46.0807  46.0810
    46.5110  46.5112  46.5914  46.5917  46.5927  46.5943  46.6705  46.6726
    46.8379  46.8381  47.1298  47.1300  47.1620  47.1622  47.1623  47.1641
    47.3739  47.3770  47.6739  47.6744  47.7984  47.7991  47.8000  47.8006
    48.1582  48.1591  48.3531  48.3537  48.4947  48.4953  48.4955  48.4957
    48.6331  48.6353  48.8324  48.8335  48.9977  48.9987  48.9988  48.9995
    49.2879  49.2895  49.3305  49.3305  49.3308  49.3319  49.6099  49.6101
    49.7446  49.7455  49.8027  49.8028  49.8037  49.8041  49.8519  49.8523
    50.0247  50.0250  50.3331  50.3337  50.3342  50.3357  50.5267  50.5281
    50.6045  50.6055  51.0009  51.0014  51.0019  51.0024  51.0835  51.0839
    51.1465  51.1472  51.1474  51.1485  51.2982  51.2984  51.4708  51.4716
    51.5147  51.5161  51.7254  51.7259  51.7261  51.7267  52.1887  52.1888
    52.1891  52.1901  52.2493  52.2496  52.5478  52.5498  52.6626  52.6637
    52.7669  52.7670  52.8549  52.8556  52.8558  52.8567  53.2097  53.2104
    53.4818  53.4832  53.7325  53.7331  53.7331  53.7337  53.8129  53.8133

     the Fermi energy is    13.5774 ev

!    total energy              =   -4010.27318377 Ry
     Harris-Foulkes estimate   =   -4010.27318404 Ry
     estimated scf accuracy    <       0.00000029 Ry

     The total energy is the sum of the following terms:

     one-electron contribution =    -827.27428218 Ry
     hartree contribution      =     708.73270395 Ry
     xc contribution           =   -1105.23067506 Ry
     ewald contribution        =   -2786.44204143 Ry
     Hubbard energy            =      -0.05927624 Ry
     smearing contrib. (-TS)   =       0.00038719 Ry

     total magnetization       =     0.00 Bohr mag/cell
     absolute magnetization    =     0.00 Bohr mag/cell

     convergence has been achieved in  10 iterations

     Writing output data file pwscf.save

     General routines

     Parallel routines
     Hubbard U routines

   This run was terminated on:  19: 0:19  10Feb2014

   JOB DONE.