     Program PWSCF v.5.0.2 (svn rev. 9656) starts on 10Feb2014 at 19: 4:43

     Current dimensions of program PWSCF are:
     Max number of different atomic species (ntypx) = 10
     Max number of k-points (npk) =  40000
     Max angular momentum in pseudopotentials (lmaxx) =  3
     Reading input from alpha_-0.07/alpha_-0.07.in
Warning: card &IONS ignored
Warning: card / ignored
Warning: card &CELL ignored
Warning: card / ignored

     Subspace diagonalization in iterative solution of the eigenvalue problem:
     a serial algorithm will be used

     bravais-lattice index     =            0
     lattice parameter (alat)  =      17.1587  a.u.
     unit-cell volume          =    3538.5507 (a.u.)^3
     number of atoms/cell      =           48
     number of atomic types    =            3
     number of electrons       =       432.00
     number of Kohn-Sham states=          624
     kinetic-energy cutoff     =      40.0000  Ry
     charge density cutoff     =     500.0000  Ry
     convergence threshold     =      1.0E-06
     mixing beta               =       0.7000
     number of iterations used =            8  plain     mixing
     Exchange-correlation      = SLA  PW   PBE  PBE ( 1 4 3 4 0)
     EXX-fraction              =        0.00

     celldm(1)=  17.158713  celldm(2)=   0.000000  celldm(3)=   0.000000
     celldm(4)=   0.000000  celldm(5)=   0.000000  celldm(6)=   0.000000

     crystal axes: (cart. coord. in units of alat)
               a(1) = (   1.000000   0.000000   0.000000 )
               a(2) = (   0.000000   1.000000   0.000000 )
               a(3) = (   0.000000   0.000000   0.700441 )

     reciprocal axes: (cart. coord. in units 2 pi/alat)
               b(1) = (  1.000000  0.000000  0.000000 )
               b(2) = (  0.000000  1.000000  0.000000 )
               b(3) = (  0.000000  0.000000  1.427673 )

     PseudoPot. # 1 for Ir read from file:
     /home/camp/zhonxu/pseudo/ir_pbe_v1.uspp.F.UPF
     MD5 check sum: abf987a9674477536ede83817f8f8b70
     Pseudo is Ultrasoft + core correction, Zval = 15.0
     Generated by new atomic code, or converted to UPF format
     Using radial grid of  983 points,  7 beta functions with:
                l(1) =   0
                l(2) =   0
                l(3) =   1
                l(4) =   1
                l(5) =   1
                l(6) =   2
                l(7) =   2
     Q(r) pseudized with  8 coefficients,  rinner =    1.350   1.350   1.350
                                                       1.350   1.350

     PseudoPot. # 2 for O  read from file:
     /home/camp/zhonxu/pseudo/o_pbe_v1.01.uspp.F.UPF
     MD5 check sum: 2bcb18d16ea4b960afae9ec6d52f22d2
     Pseudo is Ultrasoft + core correction, Zval =  6.0
     Generated by new atomic code, or converted to UPF format
     Using radial grid of  737 points,  5 beta functions with:
                l(1) =   0
                l(2) =   0
                l(3) =   1
                l(4) =   1
                l(5) =   2
     Q(r) pseudized with  8 coefficients,  rinner =    0.900   0.900   0.900
                                                       0.900   0.900

     PseudoPot. # 3 for O  read from file:
     /home/camp/zhonxu/pseudo/o_pbe_v1.01.uspp.F.UPF
     MD5 check sum: 2bcb18d16ea4b960afae9ec6d52f22d2
     Pseudo is Ultrasoft + core correction, Zval =  6.0
     Generated by new atomic code, or converted to UPF format
     Using radial grid of  737 points,  5 beta functions with:
                l(1) =   0
                l(2) =   0
                l(3) =   1
                l(4) =   1
                l(5) =   2
     Q(r) pseudized with  8 coefficients,  rinner =    0.900   0.900   0.900
                                                       0.900   0.900

     atomic species   valence    mass     pseudopotential
        Ir0           15.00   192.22000     Ir( 1.00)
        O1             6.00    15.99940     O ( 1.00)
        O2             6.00    15.99940     O ( 1.00)

     Starting magnetic structure
     atomic species   magnetization
        Ir0          0.000
        O1           0.000
        O2           0.000

     Simplified LDA+U calculation (l_max = 2) with parameters (eV):
     atomic species    L          U    alpha       J0     beta
        Ir0            2     0.0000   0.0000   0.0000   0.0000
        O1             1     0.0000  -0.0700   0.0000   0.0000
        O2             1     0.0000   0.0000   0.0000   0.0000

      4 Sym. Ops. (no inversion) found

   Cartesian axes

     site n.     atom                  positions (alat units)
         1           Ir0 tau(   1) = (  -0.1550000  -0.1550000   0.0000000  )
         2           Ir0 tau(   2) = (   0.0950000   0.0950000   0.1751101  )
         3           Ir0 tau(   3) = (  -0.1550000  -0.1550000   0.3502203  )
         4           Ir0 tau(   4) = (   0.0950000   0.0950000   0.5253304  )
         5           Ir0 tau(   5) = (  -0.1550000   0.3450000   0.0000000  )
         6           Ir0 tau(   6) = (   0.0950000   0.5950000   0.1751101  )
         7           Ir0 tau(   7) = (  -0.1550000   0.3450000   0.3502203  )
         8           Ir0 tau(   8) = (   0.0950000   0.5950000   0.5253304  )
         9           Ir0 tau(   9) = (   0.3450000  -0.1550000   0.0000000  )
        10           Ir0 tau(  10) = (   0.5950000   0.0950000   0.1751101  )
        11           Ir0 tau(  11) = (   0.3450000  -0.1550000   0.3502203  )
        12           Ir0 tau(  12) = (   0.5950000   0.0950000   0.5253304  )
        13           Ir0 tau(  13) = (   0.3450000   0.3450000   0.0000000  )
        14           Ir0 tau(  14) = (   0.5950000   0.5950000   0.1751101  )
        15           Ir0 tau(  15) = (   0.3450000   0.3450000   0.3502203  )
        16           Ir0 tau(  16) = (   0.5950000   0.5950000   0.5253304  )
        17           O1  tau(  17) = (   0.0000000   0.0000000   0.0000000  )
        18           O2  tau(  18) = (  -0.3100000  -0.3100000   0.0000000  )
        19           O2  tau(  19) = (   0.2500000  -0.0600000   0.1751101  )
        20           O2  tau(  20) = (  -0.0600000   0.2500000   0.1751101  )
        21           O2  tau(  21) = (   0.0000000   0.0000000   0.3502203  )
        22           O2  tau(  22) = (  -0.3100000  -0.3100000   0.3502203  )
        23           O2  tau(  23) = (   0.2500000  -0.0600000   0.5253304  )
        24           O2  tau(  24) = (  -0.0600000   0.2500000   0.5253304  )
        25           O2  tau(  25) = (   0.0000000   0.5000000   0.0000000  )
        26           O2  tau(  26) = (  -0.3100000   0.1900000   0.0000000  )
        27           O2  tau(  27) = (   0.2500000   0.4400000   0.1751101  )
        28           O2  tau(  28) = (  -0.0600000   0.7500000   0.1751101  )
        29           O2  tau(  29) = (   0.0000000   0.5000000   0.3502203  )
        30           O2  tau(  30) = (  -0.3100000   0.1900000   0.3502203  )
        31           O2  tau(  31) = (   0.2500000   0.4400000   0.5253304  )
        32           O2  tau(  32) = (  -0.0600000   0.7500000   0.5253304  )
        33           O2  tau(  33) = (   0.5000000   0.0000000   0.0000000  )
        34           O2  tau(  34) = (   0.1900000  -0.3100000   0.0000000  )
        35           O2  tau(  35) = (   0.7500000  -0.0600000   0.1751101  )
        36           O2  tau(  36) = (   0.4400000   0.2500000   0.1751101  )
        37           O2  tau(  37) = (   0.5000000   0.0000000   0.3502203  )
        38           O2  tau(  38) = (   0.1900000  -0.3100000   0.3502203  )
        39           O2  tau(  39) = (   0.7500000  -0.0600000   0.5253304  )
        40           O2  tau(  40) = (   0.4400000   0.2500000   0.5253304  )
        41           O2  tau(  41) = (   0.5000000   0.5000000   0.0000000  )
        42           O2  tau(  42) = (   0.1900000   0.1900000   0.0000000  )
        43           O2  tau(  43) = (   0.7500000   0.4400000   0.1751101  )
        44           O2  tau(  44) = (   0.4400000   0.7500000   0.1751101  )
        45           O2  tau(  45) = (   0.5000000   0.5000000   0.3502203  )
        46           O2  tau(  46) = (   0.1900000   0.1900000   0.3502203  )
        47           O2  tau(  47) = (   0.7500000   0.4400000   0.5253304  )
        48           O2  tau(  48) = (   0.4400000   0.7500000   0.5253304  )

     number of k points=    42  Methfessel-Paxton smearing, width (Ry)=  0.0100
                       cart. coord. in units 2pi/alat
        k(    1) = (   0.0000000   0.0000000   0.0000000), wk =   0.0156250
        k(    2) = (   0.0000000   0.0000000   0.3569182), wk =   0.0312500
        k(    3) = (   0.0000000   0.0000000  -0.7138365), wk =   0.0156250
        k(    4) = (   0.0000000   0.2500000   0.0000000), wk =   0.0625000
        k(    5) = (   0.0000000   0.2500000   0.3569182), wk =   0.1250000
        k(    6) = (   0.0000000   0.2500000  -0.7138365), wk =   0.0625000
        k(    7) = (   0.0000000  -0.5000000   0.0000000), wk =   0.0312500
        k(    8) = (   0.0000000  -0.5000000   0.3569182), wk =   0.0625000
        k(    9) = (   0.0000000  -0.5000000  -0.7138365), wk =   0.0312500
        k(   10) = (   0.2500000   0.2500000   0.0000000), wk =   0.0312500
        k(   11) = (   0.2500000   0.2500000   0.3569182), wk =   0.0625000
        k(   12) = (   0.2500000   0.2500000  -0.7138365), wk =   0.0312500
        k(   13) = (   0.2500000  -0.5000000   0.0000000), wk =   0.0625000
        k(   14) = (   0.2500000  -0.5000000   0.3569182), wk =   0.1250000
        k(   15) = (   0.2500000  -0.5000000  -0.7138365), wk =   0.0625000
        k(   16) = (  -0.5000000  -0.5000000   0.0000000), wk =   0.0156250
        k(   17) = (  -0.5000000  -0.5000000   0.3569182), wk =   0.0312500
        k(   18) = (  -0.5000000  -0.5000000  -0.7138365), wk =   0.0156250
        k(   19) = (   0.2500000  -0.2500000   0.0000000), wk =   0.0312500
        k(   20) = (   0.2500000  -0.2500000   0.3569182), wk =   0.0625000
        k(   21) = (   0.2500000  -0.2500000  -0.7138365), wk =   0.0312500
        k(   22) = (   0.0000000   0.0000000   0.0000000), wk =   0.0156250
        k(   23) = (   0.0000000   0.0000000   0.3569182), wk =   0.0312500
        k(   24) = (   0.0000000   0.0000000  -0.7138365), wk =   0.0156250
        k(   25) = (   0.0000000   0.2500000   0.0000000), wk =   0.0625000
        k(   26) = (   0.0000000   0.2500000   0.3569182), wk =   0.1250000
        k(   27) = (   0.0000000   0.2500000  -0.7138365), wk =   0.0625000
        k(   28) = (   0.0000000  -0.5000000   0.0000000), wk =   0.0312500
        k(   29) = (   0.0000000  -0.5000000   0.3569182), wk =   0.0625000
        k(   30) = (   0.0000000  -0.5000000  -0.7138365), wk =   0.0312500
        k(   31) = (   0.2500000   0.2500000   0.0000000), wk =   0.0312500
        k(   32) = (   0.2500000   0.2500000   0.3569182), wk =   0.0625000
        k(   33) = (   0.2500000   0.2500000  -0.7138365), wk =   0.0312500
        k(   34) = (   0.2500000  -0.5000000   0.0000000), wk =   0.0625000
        k(   35) = (   0.2500000  -0.5000000   0.3569182), wk =   0.1250000
        k(   36) = (   0.2500000  -0.5000000  -0.7138365), wk =   0.0625000
[...]
    eigenvectors:
  0.000  1.000  0.000
  0.500  0.000  0.500
  0.500  0.000  0.500
    occupations:
  0.884 -0.000 -0.000
 -0.000  0.900 -0.021
 -0.000 -0.021  0.900
   spin  2
    eigenvalues:
  0.879  0.884  0.921
    eigenvectors:
  0.000  1.000  0.000
  0.500  0.000  0.500
  0.500  0.000  0.500
    occupations:
  0.884 -0.000 -0.000
 -0.000  0.900 -0.021
 -0.000 -0.021  0.900
atomic mag. moment =     0.000000
atom   42   Tr[ns(na)] (up, down, total) =   2.68351  2.68351  5.36702
   spin  1
    eigenvalues:
  0.879  0.884  0.921
    eigenvectors:
  0.000  1.000  0.000
  0.500  0.000  0.500
  0.500  0.000  0.500
    occupations:
  0.884 -0.000 -0.000
 -0.000  0.900 -0.021
 -0.000 -0.021  0.900
   spin  2
    eigenvalues:
  0.879  0.884  0.921
    eigenvectors:
  0.000  1.000  0.000
  0.500  0.000  0.500
  0.500  0.000  0.500
    occupations:
  0.884 -0.000 -0.000
 -0.000  0.900 -0.021
 -0.000 -0.021  0.900
atomic mag. moment =    -0.000000
atom   43   Tr[ns(na)] (up, down, total) =   2.68354  2.68354  5.36708
   spin  1
    eigenvalues:
  0.879  0.884  0.921
    eigenvectors:
  0.000  1.000  0.000
  0.500  0.000  0.500
  0.500  0.000  0.500
    occupations:
  0.884  0.000  0.000
  0.000  0.900  0.021
  0.000  0.021  0.900
   spin  2
    eigenvalues:
  0.879  0.884  0.921
    eigenvectors:
  0.000  1.000  0.000
  0.500  0.000  0.500
  0.500  0.000  0.500
    occupations:
  0.884  0.000  0.000
  0.000  0.900  0.021
  0.000  0.021  0.900
atomic mag. moment =     0.000000
atom   44   Tr[ns(na)] (up, down, total) =   2.68354  2.68354  5.36708
   spin  1
    eigenvalues:
  0.879  0.884  0.921
    eigenvectors:
  0.000  1.000  0.000
  0.500  0.000  0.500
  0.500  0.000  0.500
    occupations:
  0.884  0.000  0.000
  0.000  0.900  0.021
  0.000  0.021  0.900
   spin  2
    eigenvalues:
  0.879  0.884  0.921
    eigenvectors:
  0.000  1.000  0.000
  0.500  0.000  0.500
  0.500  0.000  0.500
    occupations:
  0.884  0.000  0.000
  0.000  0.900  0.021
  0.000  0.021  0.900
atomic mag. moment =     0.000000
atom   45   Tr[ns(na)] (up, down, total) =   2.68350  2.68350  5.36700
   spin  1
    eigenvalues:
  0.879  0.884  0.921
    eigenvectors:
  0.000  1.000  0.000
  0.500  0.000  0.500
  0.500  0.000  0.500
    occupations:
  0.884 -0.000 -0.000
 -0.000  0.900 -0.021
 -0.000 -0.021  0.900
   spin  2
    eigenvalues:
  0.879  0.884  0.921
    eigenvectors:
  0.000  1.000  0.000
  0.500  0.000  0.500
  0.500  0.000  0.500
    occupations:
  0.884 -0.000 -0.000
 -0.000  0.900 -0.021
 -0.000 -0.021  0.900
atomic mag. moment =     0.000000
atom   46   Tr[ns(na)] (up, down, total) =   2.68360  2.68360  5.36719
   spin  1
    eigenvalues:
  0.879  0.884  0.921
    eigenvectors:
  0.000  1.000  0.000
  0.500  0.000  0.500
  0.500  0.000  0.500
    occupations:
  0.884 -0.000 -0.000
 -0.000  0.900 -0.021
 -0.000 -0.021  0.900
   spin  2
    eigenvalues:
  0.879  0.884  0.921
    eigenvectors:
  0.000  1.000  0.000
  0.500  0.000  0.500
  0.500  0.000  0.500
    occupations:
  0.884 -0.000 -0.000
 -0.000  0.900 -0.021
 -0.000 -0.021  0.900
atomic mag. moment =     0.000000
atom   47   Tr[ns(na)] (up, down, total) =   2.68354  2.68354  5.36708
   spin  1
    eigenvalues:
  0.879  0.884  0.921
    eigenvectors:
  0.000  1.000  0.000
  0.500  0.000  0.500
  0.500  0.000  0.500
    occupations:
  0.884 -0.000 -0.000
 -0.000  0.900  0.021
 -0.000  0.021  0.900
   spin  2
    eigenvalues:
  0.879  0.884  0.921
    eigenvectors:
  0.000  1.000  0.000
  0.500  0.000  0.500
  0.500  0.000  0.500
    occupations:
  0.884 -0.000 -0.000
 -0.000  0.900  0.021
 -0.000  0.021  0.900
atomic mag. moment =     0.000000
atom   48   Tr[ns(na)] (up, down, total) =   2.68354  2.68354  5.36708
   spin  1
    eigenvalues:
  0.879  0.884  0.921
    eigenvectors:
  0.000  1.000  0.000
  0.500  0.000  0.500
  0.500  0.000  0.500
    occupations:
  0.884 -0.000 -0.000
 -0.000  0.900  0.021
 -0.000  0.021  0.900
   spin  2
    eigenvalues:
  0.879  0.884  0.921
    eigenvectors:
  0.000  1.000  0.000
  0.500  0.000  0.500
  0.500  0.000  0.500
    occupations:
  0.884 -0.000 -0.000
 -0.000  0.900  0.021
 -0.000  0.021  0.900
atomic mag. moment =     0.000000
N of occupied +U levels = 300.4439118
 --- exit write_ns ---

 ------ SPIN UP ------------

          k = 0.0000 0.0000 0.0000 ( 15109 PWs)   bands (ev):

   -36.8069 -36.8069 -36.8069 -36.8065 -36.7979 -36.7978 -36.7977 -36.7975
   -36.7918 -36.7915 -36.7909 -36.7906 -36.7897 -36.7895 -36.7894 -36.7891
   -36.7833 -36.7830 -36.7829 -36.7825 -36.7744 -36.7743 -36.7741 -36.7739
   -36.7025 -36.6952 -36.6951 -36.6949 -36.6949 -36.6949 -36.6945 -36.6876
   -36.5456 -36.5454 -36.5453 -36.5450 -36.5438 -36.5435 -36.5434 -36.5431
   -36.5305 -36.5303 -36.5303 -36.5302 -36.5300 -36.5299 -36.5299 -36.5296
    -7.4298  -6.7692  -6.7672  -6.6462  -6.6459  -6.6458  -6.6419  -6.2737
    -6.1470  -6.1470  -6.1469  -6.1431  -6.0397  -6.0375  -5.9135  -5.9115
    -5.8497  -5.8476  -5.7508  -5.7488  -5.6241  -5.6240  -5.6240  -5.6201
    -5.5673  -5.5673  -5.5672  -5.5625  -5.3482  -5.3459  -5.2152  -5.2129
     3.9748   4.1096   4.1122   4.2243   5.1596   5.1630   5.1641   5.1641
     5.3409   5.3445   5.3451   5.3452   5.4920   5.4923   5.5183   5.5192
     5.6640   5.6655   5.7444   5.7458   5.8507   5.8536   5.8536   5.8537
     5.9477   5.9480   5.9560   5.9814   5.9842   5.9843   5.9845   6.3176
     6.3187   6.3930   6.3937   6.7788   6.7794   7.0686   7.0715   7.0716
     7.0719   7.5539   7.5565   7.5578   7.5579   7.5835   7.5869   7.5873
     7.5875   7.9937   7.9952   8.0208   8.0221   8.2342   8.2357   8.2364
     8.2365   8.2797   8.2817   8.4777   8.4809   8.4810   8.4812   8.5217
     8.5251   8.5252   8.5255   8.5406   8.5765   8.5785   8.5785   8.5793
     8.7901   8.7902   9.3242   9.3261   9.4148   9.4161   9.6417   9.6419
    10.0353  10.1027  10.1031  10.3079  10.3109  10.3113  10.3113  10.3543
    10.3547  10.5033  10.5063  10.5064  10.5067  10.7213  10.7218  10.8960
    10.8962  10.8964  10.8966  11.0756  11.1792  11.1795  11.2162  11.2267
    11.2269  11.2623  11.2625  11.4300  11.4939  11.7126  11.7130  11.7976
    11.7980  11.8262  11.8264  11.8265  11.8272  12.0136  12.0137  12.0137
    12.0142  12.2565  12.2567  12.2569  12.2574  12.3408  12.3415  12.8430
    12.8436  13.1556  13.1558  13.2975  13.2980  13.2982  13.2984  13.7698
    13.7702  13.8426  13.8426  14.0981  14.0986  14.0986  14.0987  14.2362
    14.6582  14.6583  14.6584  14.6594  14.7552  15.7946  15.7949  15.8406
    15.8410  15.9471  15.9478  16.1884  16.1884  16.6221  16.6221  17.0438
    17.0439  17.0440  17.0445  17.1886  17.1887  17.1887  17.1888  17.6603
    17.7117  17.7118  17.7252  17.7253  17.9907  17.9908  17.9909  17.9910
    19.0860  20.5849  20.5855  20.5856  20.5868  22.0935  22.0936  22.2201
    22.2204  22.6154  22.6159  22.7942  22.7947  22.8790  22.8792  22.9737
    22.9739  22.9745  22.9745  23.1493  23.1496  23.1529  23.1531  23.1532
    23.1533  23.1534  23.1535  23.1536  23.1539  23.1539  23.1543  23.1546
    23.1548  23.1550  23.1551  23.3068  23.3071  23.4724  23.4726  23.4726
    23.4733  23.8953  23.8954  23.8962  23.8970  25.1483  25.1484  25.2135
    25.7895  25.7896  25.8522  25.8526  25.8774  25.8776  26.2881  26.2883
    26.5744  26.6968  26.6970  26.6972  26.6974  26.8530  26.8732  26.8737
    26.8744  26.8746  27.4246  27.4247  27.4248  27.4249  27.5685  27.5690
    27.8771  27.8771  28.4218  28.4221  28.4223  28.4226  28.6485  28.6486
    28.8777  28.9087  28.9093  28.9094  28.9101  28.9287  29.8827  29.9356
    29.9358  30.1974  30.1982  30.3920  30.3921  30.3928  30.3931  31.0089
    31.0091  31.0102  31.0105  31.1569  31.1569  31.1576  31.1577  31.1602
    31.1606  31.5924  31.5926  31.9650  32.2828  32.2829  32.4903  32.4908
    32.4909  32.4912  32.8332  32.8332  32.8724  32.8724  33.6495  33.6496
    33.6500  33.6506  34.4019  34.4028  34.4137  34.4139  34.4920  34.4923
    34.9057  34.9058  35.1721  35.1723  35.4350  35.4355  35.4355  35.4361
    35.6123  35.6129  35.9423  35.9427  36.2585  36.2586  36.4712  36.4714
    36.4715  36.4720  36.5271  36.9260  36.9261  37.4473  37.4478  37.4479
    37.4480  37.8271  37.8278  37.9175  37.9180  37.9181  37.9183  38.3855
    38.3857  38.3862  38.3865  38.5683  38.5685  38.8064  38.8068  38.8316
    38.8318  38.8319  38.8321  39.5898  39.5899  39.5904  39.6311  39.6318
    39.6492  39.6494  39.6498  39.6501  39.6703  39.7322  39.7328  40.1745
    40.1747  40.1749  40.1753  40.2154  40.2159  40.2730  40.2732  40.3989
    40.3989  40.3991  40.3993  40.4116  40.4123  40.5946  41.0566  41.5286
    41.6478  41.7918  41.7921  41.8384  41.8386  42.0824  42.0827  42.6027
    42.6030  42.6530  42.6532  42.6533  42.6534  42.6577  42.6578  42.6582
    42.6583  43.3596  43.3597  43.6959  43.6959  43.6961  43.6971  43.7640
[...]
    45.3085  45.6769  45.6772  45.6775  45.6781  45.9544  45.9549  46.0031
    46.0032  46.1793  46.1796  46.3101  46.8262  46.8263  47.3185  47.3187
    47.3458  47.3458  47.3465  47.3473  47.4945  47.4948  47.4954  47.4957
    47.7127  47.7128  47.7131  47.7138  47.7402  47.7404  47.7405  47.7410
    48.0108  48.0640  48.0642  48.0938  48.0941  48.1675  48.1676  48.3267
    48.3270  48.5738  48.5738  48.5744  48.5750  48.8226  48.8228  48.8229
    48.8238  48.8529  48.8534  48.9779  48.9897  48.9899  49.0160  49.0162
    49.2156  49.2156  49.2158  49.2163  49.5444  49.5450  49.5534  49.5540
    49.7834  49.7834  50.0114  50.0117  50.2307  50.2307  50.2312  50.2316
    50.5395  50.5401  50.7132  50.7133  50.7379  50.7380  50.8680  50.8681
    50.8682  50.8695  50.9176  50.9176  50.9179  50.9181  51.2336  51.7295
    51.8970  51.8972  51.9047  51.9055  52.0762  52.0763  52.2755  52.2756
    52.2757  52.2758  52.5419  52.5420  52.7425  52.7427  52.7427  52.7429
    52.9969  52.9972  53.0374  53.0374  53.0375  53.0377  53.0434  53.0434
    53.3756  53.3762  53.5046  53.5047  53.5048  53.5049  53.5181  53.5184

[...]

          k =-0.5000-0.5000 0.0000 ( 15136 PWs)   bands (ev):

[...]

 ------ SPIN DOWN ----------

[...]

          k =-0.5000-0.5000-0.7138 ( 15112 PWs)   bands (ev):

[...]

          k = 0.2500-0.2500-0.7138 ( 15148 PWs)   bands (ev):

   -36.7892 -36.7889 -36.7889 -36.7887 -36.7881 -36.7881 -36.7879 -36.7879
   -36.7878 -36.7878 -36.7876 -36.7874 -36.7873 -36.7872 -36.7870 -36.7870
   -36.7504 -36.7504 -36.7470 -36.7470 -36.7468 -36.7467 -36.7467 -36.7467
   -36.7450 -36.7450 -36.7430 -36.7430 -36.7430 -36.7429 -36.7417 -36.7417
   -36.5377 -36.5376 -36.5376 -36.5376 -36.5376 -36.5376 -36.5375 -36.5374
   -36.5374 -36.5374 -36.5371 -36.5369 -36.5369 -36.5368 -36.5366 -36.5364
    -6.8094  -6.8071  -6.4998  -6.4995  -6.4994  -6.4968  -6.4190  -6.4152
    -6.2486  -6.2485  -6.0501  -6.0498  -6.0496  -6.0431  -5.9868  -5.9849
    -5.8181  -5.8180  -5.8178  -5.8115  -5.6942  -5.6941  -5.6370  -5.6369
    -5.6369  -5.6359  -5.6281  -5.6281  -5.5898  -5.5855  -5.5092  -5.5044
     4.7353   4.7409   4.7620   4.7657   5.1168   5.1169   5.1293   5.1294
     5.1296   5.1296   5.1386   5.1386   5.7744   5.7774   5.7798   5.7810
     5.7822   5.7823   5.8962   5.8975   6.0012   6.0037   6.0038   6.0039
     6.0169   6.0187   6.1725   6.1801   6.1802   6.1803   6.2805   6.2809
     6.3682   6.3743   6.3746   6.3746   6.7464   6.7473   6.8831   6.8848
     7.0114   7.0123   7.0123   7.0124   7.0559   7.0561   7.5368   7.5409
     7.6399   7.6428   7.6883   7.6896   7.6907   7.6908   8.0314   8.0331
     8.0346   8.0347   8.1499   8.1511   8.5742   8.5752   8.5753   8.5754
     8.6265   8.6269   8.6719   8.6719   8.8335   8.8340   8.8640   8.8643
     8.9209   8.9224   8.9227   8.9227   9.1370   9.1386   9.2864   9.2888
     9.3344   9.3358   9.3572   9.3589   9.7024   9.7026   9.7031   9.7032
     9.8992   9.9001  10.3479  10.3509  10.3509  10.3510  10.6279  10.6290
    11.3392  11.3394  11.5666  11.5675  11.5676  11.5678  11.7887  11.7888
    11.8087  11.8088  12.0653  12.0655  12.1968  12.1968  12.1969  12.1971
    12.2368  12.2369  12.2937  12.2938  12.3168  12.3169  12.3170  12.3171
    12.4593  12.4601  12.6487  12.6488  12.6489  12.6492  12.7185  12.7193
    13.0652  13.0654  13.1637  13.1640  13.3000  13.3006  13.3006  13.3008
    13.3730  13.3733  13.6376  13.6382  13.6382  13.6384  14.0361  14.0364
    15.4999  15.5003  15.5003  15.5017  15.5666  15.5669  15.9015  15.9016
    15.9017  15.9017  15.9212  15.9213  16.1049  16.1050  16.4651  16.4655
    16.5717  16.5723  16.5808  16.5814  16.8978  16.8978  16.8979  16.8980
    17.1840  17.1841  17.7971  17.7972  17.7973  17.7973  17.8796  17.8796
    20.0018  20.0024  21.1222  21.1230  21.1232  21.1242  21.9023  21.9031
    22.6460  22.6464  22.6468  22.6480  23.0153  23.0161  23.0978  23.0987
    23.1535  23.1536  23.1536  23.1537  23.1538  23.1539  23.1540  23.1540
    23.1541  23.1541  23.1542  23.1542  23.1545  23.1545  23.1574  23.1574
    23.7428  23.7439  23.8719  23.8727  23.8826  23.8828  24.1248  24.1255
    24.1258  24.1263  24.5282  24.5284  24.5290  24.5292  24.7054  24.7055
    25.4702  25.4703  25.8068  25.8072  25.8072  25.8079  26.0621  26.0623
    26.1381  26.1381  26.6042  26.6047  26.6050  26.6055  26.8569  26.8583
    27.4341  27.4350  27.5912  27.5913  27.8056  27.8058  27.8063  27.8068
    28.0777  28.0780  28.1656  28.1656  28.1656  28.1672  28.2829  28.2835
    28.5173  28.5177  28.6373  28.6374  28.6494  28.6495  28.6500  28.6502
    28.9677  28.9685  29.5732  29.5732  29.5735  29.5738  29.7017  29.7024
    29.9192  29.9198  30.7066  30.7070  30.7071  30.7075  32.0107  32.0110
    32.0288  32.0295  32.0295  32.0300  32.6926  32.6932  33.1263  33.1264
    33.1270  33.1274  33.3665  33.3668  33.4472  33.4480  33.5152  33.5154
    34.4382  34.4382  34.4388  34.4393  34.6321  34.6322  35.0796  35.0798
    35.3160  35.3173  35.6601  35.6604  35.6605  35.6609  35.7247  35.7256
    35.7556  35.7564  35.9441  35.9444  35.9445  35.9450  36.0417  36.0417
    36.3847  36.3853  36.9014  36.9014  36.9019  36.9019  37.0120  37.0120
    37.0124  37.0126  37.0980  37.0984  37.6380  37.6382  38.4945  38.4946
    38.4948  38.4956  38.5740  38.5740  38.6791  38.6797  38.7451  38.7454
    38.7454  38.7462  38.8894  38.8895  39.0006  39.0010  39.0185  39.0189
    39.2389  39.2392  39.2978  39.2983  39.4059  39.4062  39.7149  39.7153
    39.7156  39.7157  39.8669  39.8670  39.9609  39.9610  39.9612  39.9620
    40.3513  40.3515  40.7339  40.7341  40.7343  40.7352  41.2128  41.2130
    41.5776  41.5788  41.9068  41.9069  42.0034  42.0038  42.3930  42.3934
    42.4117  42.4117  42.4118  42.4120  42.5697  42.5702  43.2638  43.2640
    43.2640  43.2649  43.3592  43.3595  43.3597  43.3599  43.5438  43.5439
[...]
    45.8227  45.8229  45.9245  45.9246  46.0804  46.0805  46.0807  46.0808
    46.5111  46.5112  46.5921  46.5922  46.5927  46.5934  46.6709  46.6719
    46.8379  46.8380  47.1301  47.1302  47.1623  47.1624  47.1624  47.1633
    47.3745  47.3759  47.6742  47.6744  47.7989  47.7992  47.7996  47.7998
    48.1584  48.1588  48.3535  48.3538  48.4950  48.4953  48.4954  48.4955
    48.6336  48.6346  48.8328  48.8333  48.9983  48.9988  48.9988  48.9991
    49.2886  49.2892  49.3308  49.3308  49.3309  49.3315  49.6097  49.6098
    49.7450  49.7454  49.8031  49.8031  49.8035  49.8037  49.8521  49.8523
    50.0250  50.0251  50.3338  50.3340  50.3342  50.3349  50.5268  50.5275
    50.6048  50.6053  51.0013  51.0015  51.0018  51.0020  51.0839  51.0840
    51.1469  51.1472  51.1473  51.1478  51.2984  51.2985  51.4712  51.4716
    51.5151  51.5157  51.7258  51.7260  51.7261  51.7264  52.1889  52.1890
    52.1891  52.1896  52.2493  52.2494  52.5483  52.5492  52.6629  52.6634
    52.7670  52.7670  52.8554  52.8558  52.8558  52.8563  53.2099  53.2103
    53.4822  53.4828  53.7329  53.7332  53.7332  53.7334  53.8131  53.8133

     the Fermi energy is    13.5783 ev

!    total energy              =   -4010.24158431 Ry
     Harris-Foulkes estimate   =   -4010.24158481 Ry
     estimated scf accuracy    <       0.00000054 Ry

     The total energy is the sum of the following terms:

     one-electron contribution =    -827.27759245 Ry
     hartree contribution      =     708.73560504 Ry
     xc contribution           =   -1105.23030606 Ry
     ewald contribution        =   -2786.44204143 Ry
     Hubbard energy            =      -0.02763658 Ry
     smearing contrib. (-TS)   =       0.00038718 Ry

     total magnetization       =     0.00 Bohr mag/cell
     absolute magnetization    =     0.00 Bohr mag/cell

     convergence has been achieved in   7 iterations

     Writing output data file pwscf.save

     General routines

     Parallel routines
     Hubbard U routines

   This run was terminated on:  22:49:29  10Feb2014

   JOB DONE.