     Program PWSCF v.5.0.2 (svn rev. 9656) starts on 10Feb2014 at 22:54: 3

     Current dimensions of program PWSCF are:
     Max number of different atomic species (ntypx) = 10
     Max number of k-points (npk) =  40000
     Max angular momentum in pseudopotentials (lmaxx) =  3
     Reading input from alpha_0/alpha_0.in
Warning: card &IONS ignored
Warning: card / ignored
Warning: card &CELL ignored
Warning: card / ignored

     Subspace diagonalization in iterative solution of the eigenvalue problem:
     a serial algorithm will be used

     bravais-lattice index     =            0
     lattice parameter (alat)  =      17.1587  a.u.
     unit-cell volume          =    3538.5507 (a.u.)^3
     number of atoms/cell      =           48
     number of atomic types    =            3
     number of electrons       =       432.00
     number of Kohn-Sham states=          624
     kinetic-energy cutoff     =      40.0000  Ry
     charge density cutoff     =     500.0000  Ry
     convergence threshold     =      1.0E-06
     mixing beta               =       0.7000
     number of iterations used =            8  plain     mixing
     Exchange-correlation      = SLA  PW   PBE  PBE ( 1 4 3 4 0)
     EXX-fraction              =        0.00

     celldm(1)=  17.158713  celldm(2)=   0.000000  celldm(3)=   0.000000
     celldm(4)=   0.000000  celldm(5)=   0.000000  celldm(6)=   0.000000

     crystal axes: (cart. coord. in units of alat)
               a(1) = (   1.000000   0.000000   0.000000 )
               a(2) = (   0.000000   1.000000   0.000000 )
               a(3) = (   0.000000   0.000000   0.700441 )

     reciprocal axes: (cart. coord. in units 2 pi/alat)
               b(1) = (  1.000000  0.000000  0.000000 )
               b(2) = (  0.000000  1.000000  0.000000 )
               b(3) = (  0.000000  0.000000  1.427673 )

     PseudoPot. # 1 for Ir read from file:
     /home/camp/zhonxu/pseudo/ir_pbe_v1.uspp.F.UPF
     MD5 check sum: abf987a9674477536ede83817f8f8b70
     Pseudo is Ultrasoft + core correction, Zval = 15.0
     Generated by new atomic code, or converted to UPF format
     Using radial grid of  983 points,  7 beta functions with:
                l(1) =   0
                l(2) =   0
                l(3) =   1
                l(4) =   1
                l(5) =   1
                l(6) =   2
                l(7) =   2
     Q(r) pseudized with  8 coefficients,  rinner =    1.350   1.350   1.350
                                                       1.350   1.350

     PseudoPot. # 2 for O  read from file:
     /home/camp/zhonxu/pseudo/o_pbe_v1.01.uspp.F.UPF
     MD5 check sum: 2bcb18d16ea4b960afae9ec6d52f22d2
     Pseudo is Ultrasoft + core correction, Zval =  6.0
     Generated by new atomic code, or converted to UPF format
     Using radial grid of  737 points,  5 beta functions with:
                l(1) =   0
                l(2) =   0
                l(3) =   1
                l(4) =   1
                l(5) =   2
     Q(r) pseudized with  8 coefficients,  rinner =    0.900   0.900   0.900
                                                       0.900   0.900

     PseudoPot. # 3 for O  read from file:
     /home/camp/zhonxu/pseudo/o_pbe_v1.01.uspp.F.UPF
     MD5 check sum: 2bcb18d16ea4b960afae9ec6d52f22d2
     Pseudo is Ultrasoft + core correction, Zval =  6.0
     Generated by new atomic code, or converted to UPF format
     Using radial grid of  737 points,  5 beta functions with:
                l(1) =   0
                l(2) =   0
                l(3) =   1
                l(4) =   1
                l(5) =   2
     Q(r) pseudized with  8 coefficients,  rinner =    0.900   0.900   0.900
                                                       0.900   0.900

     atomic species   valence    mass     pseudopotential
        Ir0           15.00   192.22000     Ir( 1.00)
        O1             6.00    15.99940     O ( 1.00)
        O2             6.00    15.99940     O ( 1.00)

     Starting magnetic structure
     atomic species   magnetization
        Ir0          0.000
        O1           0.000
        O2           0.000

     Simplified LDA+U calculation (l_max = 2) with parameters (eV):
     atomic species    L          U    alpha       J0     beta
        Ir0            2     0.0000   0.0000   0.0000   0.0000
        O1             1     0.0000   0.0000   0.0000   0.0000
        O2             1     0.0000   0.0000   0.0000   0.0000

      4 Sym. Ops. (no inversion) found

   Cartesian axes

     site n.     atom                  positions (alat units)
         1           Ir0 tau(   1) = (  -0.1550000  -0.1550000   0.0000000  )
         2           Ir0 tau(   2) = (   0.0950000   0.0950000   0.1751101  )
         3           Ir0 tau(   3) = (  -0.1550000  -0.1550000   0.3502203  )
         4           Ir0 tau(   4) = (   0.0950000   0.0950000   0.5253304  )
         5           Ir0 tau(   5) = (  -0.1550000   0.3450000   0.0000000  )
         6           Ir0 tau(   6) = (   0.0950000   0.5950000   0.1751101  )
         7           Ir0 tau(   7) = (  -0.1550000   0.3450000   0.3502203  )
         8           Ir0 tau(   8) = (   0.0950000   0.5950000   0.5253304  )
         9           Ir0 tau(   9) = (   0.3450000  -0.1550000   0.0000000  )
        10           Ir0 tau(  10) = (   0.5950000   0.0950000   0.1751101  )
        11           Ir0 tau(  11) = (   0.3450000  -0.1550000   0.3502203  )
        12           Ir0 tau(  12) = (   0.5950000   0.0950000   0.5253304  )
        13           Ir0 tau(  13) = (   0.3450000   0.3450000   0.0000000  )
        14           Ir0 tau(  14) = (   0.5950000   0.5950000   0.1751101  )
        15           Ir0 tau(  15) = (   0.3450000   0.3450000   0.3502203  )
        16           Ir0 tau(  16) = (   0.5950000   0.5950000   0.5253304  )
        17           O1  tau(  17) = (   0.0000000   0.0000000   0.0000000  )
        18           O2  tau(  18) = (  -0.3100000  -0.3100000   0.0000000  )
        19           O2  tau(  19) = (   0.2500000  -0.0600000   0.1751101  )
        20           O2  tau(  20) = (  -0.0600000   0.2500000   0.1751101  )
        21           O2  tau(  21) = (   0.0000000   0.0000000   0.3502203  )
        22           O2  tau(  22) = (  -0.3100000  -0.3100000   0.3502203  )
        23           O2  tau(  23) = (   0.2500000  -0.0600000   0.5253304  )
        24           O2  tau(  24) = (  -0.0600000   0.2500000   0.5253304  )
        25           O2  tau(  25) = (   0.0000000   0.5000000   0.0000000  )
        26           O2  tau(  26) = (  -0.3100000   0.1900000   0.0000000  )
        27           O2  tau(  27) = (   0.2500000   0.4400000   0.1751101  )
        28           O2  tau(  28) = (  -0.0600000   0.7500000   0.1751101  )
        29           O2  tau(  29) = (   0.0000000   0.5000000   0.3502203  )
        30           O2  tau(  30) = (  -0.3100000   0.1900000   0.3502203  )
        31           O2  tau(  31) = (   0.2500000   0.4400000   0.5253304  )
        32           O2  tau(  32) = (  -0.0600000   0.7500000   0.5253304  )
        33           O2  tau(  33) = (   0.5000000   0.0000000   0.0000000  )
        34           O2  tau(  34) = (   0.1900000  -0.3100000   0.0000000  )
        35           O2  tau(  35) = (   0.7500000  -0.0600000   0.1751101  )
        36           O2  tau(  36) = (   0.4400000   0.2500000   0.1751101  )
        37           O2  tau(  37) = (   0.5000000   0.0000000   0.3502203  )
        38           O2  tau(  38) = (   0.1900000  -0.3100000   0.3502203  )
        39           O2  tau(  39) = (   0.7500000  -0.0600000   0.5253304  )
        40           O2  tau(  40) = (   0.4400000   0.2500000   0.5253304  )
        41           O2  tau(  41) = (   0.5000000   0.5000000   0.0000000  )
        42           O2  tau(  42) = (   0.1900000   0.1900000   0.0000000  )
        43           O2  tau(  43) = (   0.7500000   0.4400000   0.1751101  )
        44           O2  tau(  44) = (   0.4400000   0.7500000   0.1751101  )
        45           O2  tau(  45) = (   0.5000000   0.5000000   0.3502203  )
        46           O2  tau(  46) = (   0.1900000   0.1900000   0.3502203  )
        47           O2  tau(  47) = (   0.7500000   0.4400000   0.5253304  )
        48           O2  tau(  48) = (   0.4400000   0.7500000   0.5253304  )

     number of k points=    42  Methfessel-Paxton smearing, width (Ry)=  0.0100
                       cart. coord. in units 2pi/alat
        k(    1) = (   0.0000000   0.0000000   0.0000000), wk =   0.0156250
        k(    2) = (   0.0000000   0.0000000   0.3569182), wk =   0.0312500
        k(    3) = (   0.0000000   0.0000000  -0.7138365), wk =   0.0156250
        k(    4) = (   0.0000000   0.2500000   0.0000000), wk =   0.0625000
        k(    5) = (   0.0000000   0.2500000   0.3569182), wk =   0.1250000
        k(    6) = (   0.0000000   0.2500000  -0.7138365), wk =   0.0625000
        k(    7) = (   0.0000000  -0.5000000   0.0000000), wk =   0.0312500
        k(    8) = (   0.0000000  -0.5000000   0.3569182), wk =   0.0625000
        k(    9) = (   0.0000000  -0.5000000  -0.7138365), wk =   0.0312500
        k(   10) = (   0.2500000   0.2500000   0.0000000), wk =   0.0312500
        k(   11) = (   0.2500000   0.2500000   0.3569182), wk =   0.0625000
        k(   12) = (   0.2500000   0.2500000  -0.7138365), wk =   0.0312500
        k(   13) = (   0.2500000  -0.5000000   0.0000000), wk =   0.0625000
        k(   14) = (   0.2500000  -0.5000000   0.3569182), wk =   0.1250000
        k(   15) = (   0.2500000  -0.5000000  -0.7138365), wk =   0.0625000
        k(   16) = (  -0.5000000  -0.5000000   0.0000000), wk =   0.0156250
        k(   17) = (  -0.5000000  -0.5000000   0.3569182), wk =   0.0312500
        k(   18) = (  -0.5000000  -0.5000000  -0.7138365), wk =   0.0156250
        k(   19) = (   0.2500000  -0.2500000   0.0000000), wk =   0.0312500
        k(   20) = (   0.2500000  -0.2500000   0.3569182), wk =   0.0625000
        k(   21) = (   0.2500000  -0.2500000  -0.7138365), wk =   0.0312500
        k(   22) = (   0.0000000   0.0000000   0.0000000), wk =   0.0156250
        k(   23) = (   0.0000000   0.0000000   0.3569182), wk =   0.0312500
        k(   24) = (   0.0000000   0.0000000  -0.7138365), wk =   0.0156250
        k(   25) = (   0.0000000   0.2500000   0.0000000), wk =   0.0625000
        k(   26) = (   0.0000000   0.2500000   0.3569182), wk =   0.1250000
        k(   27) = (   0.0000000   0.2500000  -0.7138365), wk =   0.0625000
        k(   28) = (   0.0000000  -0.5000000   0.0000000), wk =   0.0312500
        k(   29) = (   0.0000000  -0.5000000   0.3569182), wk =   0.0625000
        k(   30) = (   0.0000000  -0.5000000  -0.7138365), wk =   0.0312500
        k(   31) = (   0.2500000   0.2500000   0.0000000), wk =   0.0312500
        k(   32) = (   0.2500000   0.2500000   0.3569182), wk =   0.0625000
        k(   33) = (   0.2500000   0.2500000  -0.7138365), wk =   0.0312500
        k(   34) = (   0.2500000  -0.5000000   0.0000000), wk =   0.0625000
        k(   35) = (   0.2500000  -0.5000000   0.3569182), wk =   0.1250000
        k(   36) = (   0.2500000  -0.5000000  -0.7138365), wk =   0.0625000
[...]
    eigenvectors:
  0.000  1.000  0.000
  0.500  0.000  0.500
  0.500  0.000  0.500
    occupations:
  0.884 -0.000 -0.000
 -0.000  0.900 -0.021
 -0.000 -0.021  0.900
   spin  2
    eigenvalues:
  0.879  0.884  0.921
    eigenvectors:
  0.000  1.000  0.000
  0.500  0.000  0.500
  0.500  0.000  0.500
    occupations:
  0.884 -0.000 -0.000
 -0.000  0.900 -0.021
 -0.000 -0.021  0.900
atomic mag. moment =     0.000000
atom   42   Tr[ns(na)] (up, down, total) =   2.68357  2.68357  5.36713
   spin  1
    eigenvalues:
  0.879  0.884  0.921
    eigenvectors:
  0.000  1.000  0.000
  0.500  0.000  0.500
  0.500  0.000  0.500
    occupations:
  0.884 -0.000 -0.000
 -0.000  0.900 -0.021
 -0.000 -0.021  0.900
   spin  2
    eigenvalues:
  0.879  0.884  0.921
    eigenvectors:
  0.000  1.000  0.000
  0.500  0.000  0.500
  0.500  0.000  0.500
    occupations:
  0.884 -0.000 -0.000
 -0.000  0.900 -0.021
 -0.000 -0.021  0.900
atomic mag. moment =    -0.000000
atom   43   Tr[ns(na)] (up, down, total) =   2.68354  2.68354  5.36708
   spin  1
    eigenvalues:
  0.879  0.884  0.921
    eigenvectors:
  0.000  1.000  0.000
  0.500  0.000  0.500
  0.500  0.000  0.500
    occupations:
  0.884  0.000 -0.000
  0.000  0.900  0.021
 -0.000  0.021  0.900
   spin  2
    eigenvalues:
  0.879  0.884  0.921
    eigenvectors:
  0.000  1.000  0.000
  0.500  0.000  0.500
  0.500  0.000  0.500
    occupations:
  0.884  0.000 -0.000
  0.000  0.900  0.021
 -0.000  0.021  0.900
atomic mag. moment =     0.000000
atom   44   Tr[ns(na)] (up, down, total) =   2.68354  2.68354  5.36708
   spin  1
    eigenvalues:
  0.879  0.884  0.921
    eigenvectors:
  0.000  1.000  0.000
  0.500  0.000  0.500
  0.500  0.000  0.500
    occupations:
  0.884 -0.000  0.000
 -0.000  0.900  0.021
  0.000  0.021  0.900
   spin  2
    eigenvalues:
  0.879  0.884  0.921
    eigenvectors:
  0.000  1.000  0.000
  0.500  0.000  0.500
  0.500  0.000  0.500
    occupations:
  0.884 -0.000  0.000
 -0.000  0.900  0.021
  0.000  0.021  0.900
atomic mag. moment =     0.000000
atom   45   Tr[ns(na)] (up, down, total) =   2.68356  2.68356  5.36712
   spin  1
    eigenvalues:
  0.879  0.884  0.921
    eigenvectors:
  0.000  1.000  0.000
  0.500  0.000  0.500
  0.500  0.000  0.500
    occupations:
  0.884 -0.000 -0.000
 -0.000  0.900 -0.021
 -0.000 -0.021  0.900
   spin  2
    eigenvalues:
  0.879  0.884  0.921
    eigenvectors:
  0.000  1.000  0.000
  0.500  0.000  0.500
  0.500  0.000  0.500
    occupations:
  0.884 -0.000 -0.000
 -0.000  0.900 -0.021
 -0.000 -0.021  0.900
atomic mag. moment =     0.000000
atom   46   Tr[ns(na)] (up, down, total) =   2.68356  2.68356  5.36711
   spin  1
    eigenvalues:
  0.879  0.884  0.921
    eigenvectors:
  0.000  1.000  0.000
  0.500  0.000  0.500
  0.500  0.000  0.500
    occupations:
  0.884 -0.000 -0.000
 -0.000  0.900 -0.021
 -0.000 -0.021  0.900
   spin  2
    eigenvalues:
  0.879  0.884  0.921
    eigenvectors:
  0.000  1.000  0.000
  0.500  0.000  0.500
  0.500  0.000  0.500
    occupations:
  0.884 -0.000 -0.000
 -0.000  0.900 -0.021
 -0.000 -0.021  0.900
atomic mag. moment =     0.000000
atom   47   Tr[ns(na)] (up, down, total) =   2.68354  2.68354  5.36708
   spin  1
    eigenvalues:
  0.879  0.884  0.921
    eigenvectors:
  0.000  1.000  0.000
  0.500  0.000  0.500
  0.500  0.000  0.500
    occupations:
  0.884 -0.000  0.000
 -0.000  0.900  0.021
  0.000  0.021  0.900
   spin  2
    eigenvalues:
  0.879  0.884  0.921
    eigenvectors:
  0.000  1.000  0.000
  0.500  0.000  0.500
  0.500  0.000  0.500
    occupations:
  0.884 -0.000  0.000
 -0.000  0.900  0.021
  0.000  0.021  0.900
atomic mag. moment =     0.000000
atom   48   Tr[ns(na)] (up, down, total) =   2.68354  2.68354  5.36708
   spin  1
    eigenvalues:
  0.879  0.884  0.921
    eigenvectors:
  0.000  1.000  0.000
  0.500  0.000  0.500
  0.500  0.000  0.500
    occupations:
  0.884  0.000 -0.000
  0.000  0.900  0.021
 -0.000  0.021  0.900
   spin  2
    eigenvalues:
  0.879  0.884  0.921
    eigenvectors:
  0.000  1.000  0.000
  0.500  0.000  0.500
  0.500  0.000  0.500
    occupations:
  0.884  0.000 -0.000
  0.000  0.900  0.021
 -0.000  0.021  0.900
atomic mag. moment =     0.000000
N of occupied +U levels = 300.4436892
 --- exit write_ns ---

 ------ SPIN UP ------------

          k = 0.0000 0.0000 0.0000 ( 15109 PWs)   bands (ev):

   -36.8060 -36.8060 -36.8060 -36.8060 -36.7969 -36.7969 -36.7969 -36.7968
   -36.7908 -36.7907 -36.7899 -36.7899 -36.7886 -36.7886 -36.7885 -36.7885
   -36.7822 -36.7822 -36.7819 -36.7819 -36.7733 -36.7733 -36.7733 -36.7732
   -36.7016 -36.6942 -36.6942 -36.6941 -36.6940 -36.6940 -36.6940 -36.6868
   -36.5446 -36.5446 -36.5445 -36.5445 -36.5428 -36.5428 -36.5427 -36.5426
   -36.5295 -36.5295 -36.5292 -36.5292 -36.5291 -36.5291 -36.5291 -36.5291
    -7.4301  -6.7684  -6.7684  -6.6452  -6.6452  -6.6451  -6.6451  -6.2740
    -6.1464  -6.1463  -6.1463  -6.1463  -6.0389  -6.0389  -5.9129  -5.9129
    -5.8491  -5.8491  -5.7502  -5.7502  -5.6234  -5.6234  -5.6234  -5.6234
    -5.5666  -5.5666  -5.5666  -5.5666  -5.3475  -5.3475  -5.2146  -5.2146
     3.9771   4.1128   4.1128   4.2258   5.1647   5.1648   5.1648   5.1648
     5.3457   5.3457   5.3458   5.3458   5.4939   5.4939   5.5211   5.5211
     5.6661   5.6662   5.7465   5.7465   5.8542   5.8543   5.8543   5.8543
     5.9500   5.9500   5.9577   5.9850   5.9850   5.9850   5.9850   6.3196
     6.3196   6.3955   6.3955   6.7806   6.7806   7.0723   7.0723   7.0723
     7.0723   7.5584   7.5584   7.5585   7.5585   7.5879   7.5879   7.5879
     7.5880   7.9958   7.9958   8.0227   8.0227   8.2371   8.2371   8.2371
     8.2371   8.2821   8.2821   8.4816   8.4816   8.4821   8.4821   8.5258
     8.5259   8.5259   8.5259   8.5423   8.5799   8.5799   8.5799   8.5799
     8.7919   8.7919   9.3267   9.3267   9.4166   9.4166   9.6433   9.6433
    10.0367  10.1043  10.1043  10.3118  10.3118  10.3119  10.3119  10.3558
    10.3558  10.5070  10.5070  10.5071  10.5072  10.7229  10.7229  10.8968
    10.8968  10.8968  10.8969  11.0761  11.1799  11.1799  11.2171  11.2274
    11.2274  11.2629  11.2630  11.4311  11.4945  11.7134  11.7134  11.7984
    11.7984  11.8271  11.8271  11.8271  11.8272  12.0144  12.0144  12.0145
    12.0145  12.2575  12.2575  12.2576  12.2576  12.3420  12.3420  12.8441
    12.8441  13.1565  13.1565  13.2988  13.2988  13.2988  13.2989  13.7708
    13.7708  13.8434  13.8434  14.0993  14.0993  14.0993  14.0993  14.2367
    14.6591  14.6591  14.6591  14.6591  14.7560  15.7953  15.7953  15.8414
    15.8414  15.9480  15.9480  16.1891  16.1891  16.6227  16.6227  17.0446
    17.0447  17.0447  17.0447  17.1894  17.1894  17.1894  17.1894  17.6603
    17.7125  17.7125  17.7259  17.7259  17.9915  17.9915  17.9915  17.9916
    19.0866  20.5855  20.5856  20.5856  20.5856  22.0935  22.0936  22.2201
    22.2201  22.6157  22.6157  22.7943  22.7943  22.8790  22.8790  22.9740
    22.9740  22.9740  22.9740  23.1503  23.1503  23.1540  23.1540  23.1541
    23.1541  23.1544  23.1544  23.1545  23.1545  23.1548  23.1551  23.1556
    23.1556  23.1557  23.1558  23.3070  23.3071  23.4727  23.4728  23.4728
    23.4728  23.8959  23.8959  23.8959  23.8959  25.1481  25.1481  25.2136
    25.7895  25.7895  25.8523  25.8523  25.8775  25.8775  26.2881  26.2881
    26.5742  26.6970  26.6970  26.6970  26.6970  26.8531  26.8738  26.8738
    26.8738  26.8738  27.4247  27.4247  27.4247  27.4247  27.5686  27.5686
    27.8770  27.8771  28.4222  28.4222  28.4222  28.4222  28.6486  28.6486
    28.8776  28.9094  28.9094  28.9094  28.9094  28.9286  29.8828  29.9356
    29.9356  30.1977  30.1977  30.3925  30.3926  30.3926  30.3926  31.0096
    31.0096  31.0096  31.0096  31.1573  31.1573  31.1573  31.1573  31.1604
    31.1604  31.5926  31.5926  31.9649  32.2830  32.2830  32.4909  32.4909
    32.4909  32.4909  32.8331  32.8331  32.8724  32.8724  33.6500  33.6500
    33.6500  33.6500  34.4023  34.4023  34.4138  34.4138  34.4922  34.4922
    34.9058  34.9058  35.1722  35.1722  35.4355  35.4355  35.4355  35.4355
    35.6126  35.6126  35.9424  35.9424  36.2586  36.2586  36.4716  36.4716
    36.4716  36.4716  36.5270  36.9261  36.9261  37.4478  37.4478  37.4478
    37.4478  37.8275  37.8275  37.9180  37.9181  37.9181  37.9181  38.3860
    38.3860  38.3860  38.3860  38.5684  38.5684  38.8066  38.8066  38.8318
    38.8318  38.8319  38.8319  39.5899  39.5899  39.5904  39.6315  39.6315
    39.6496  39.6496  39.6496  39.6496  39.6704  39.7325  39.7325  40.1748
    40.1748  40.1748  40.1748  40.2156  40.2156  40.2732  40.2732  40.3990
    40.3990  40.3990  40.3990  40.4119  40.4119  40.5947  41.0566  41.5287
    41.6478  41.7920  41.7920  41.8386  41.8386  42.0826  42.0826  42.6027
    42.6027  42.6532  42.6532  42.6532  42.6532  42.6579  42.6579  42.6580
    42.6580  43.3596  43.3596  43.6962  43.6962  43.6962  43.6962  43.7641
[...]
    45.3083  45.6775  45.6775  45.6775  45.6775  45.9547  45.9547  46.0033
    46.0033  46.1795  46.1795  46.3101  46.8262  46.8262  47.3185  47.3185
    47.3463  47.3463  47.3464  47.3464  47.4951  47.4951  47.4951  47.4951
    47.7132  47.7132  47.7132  47.7132  47.7405  47.7405  47.7405  47.7405
    48.0107  48.0640  48.0640  48.0941  48.0941  48.1676  48.1676  48.3269
    48.3269  48.5743  48.5743  48.5743  48.5744  48.8231  48.8231  48.8231
    48.8231  48.8531  48.8531  48.9782  48.9899  48.9900  49.0162  49.0162
    49.2157  49.2157  49.2157  49.2157  49.5445  49.5446  49.5537  49.5537
    49.7833  49.7833  50.0115  50.0115  50.2311  50.2311  50.2311  50.2312
    50.5398  50.5398  50.7132  50.7132  50.7378  50.7378  50.8685  50.8685
    50.8685  50.8685  50.9177  50.9177  50.9177  50.9177  51.2338  51.7296
    51.8972  51.8972  51.9052  51.9052  52.0762  52.0762  52.2757  52.2757
    52.2757  52.2757  52.5419  52.5419  52.7426  52.7426  52.7426  52.7426
    52.9970  52.9970  53.0376  53.0376  53.0376  53.0376  53.0434  53.0434
    53.3758  53.3758  53.5047  53.5047  53.5047  53.5047  53.5182  53.5182

[...]

          k =-0.5000-0.5000 0.0000 ( 15136 PWs)   bands (ev):

[...]

 ------ SPIN DOWN ----------

[...]

          k =-0.5000-0.5000-0.7138 ( 15112 PWs)   bands (ev):

[...]

          k = 0.2500-0.2500-0.7138 ( 15148 PWs)   bands (ev):

   -36.7880 -36.7879 -36.7879 -36.7878 -36.7873 -36.7873 -36.7871 -36.7871
   -36.7871 -36.7871 -36.7869 -36.7869 -36.7865 -36.7864 -36.7860 -36.7860
   -36.7496 -36.7496 -36.7462 -36.7462 -36.7459 -36.7458 -36.7458 -36.7458
   -36.7441 -36.7441 -36.7422 -36.7422 -36.7421 -36.7421 -36.7409 -36.7408
   -36.5369 -36.5369 -36.5368 -36.5368 -36.5366 -36.5365 -36.5364 -36.5364
   -36.5364 -36.5364 -36.5364 -36.5363 -36.5361 -36.5361 -36.5360 -36.5360
    -6.8086  -6.8086  -6.4988  -6.4988  -6.4987  -6.4987  -6.4182  -6.4182
    -6.2479  -6.2479  -6.0491  -6.0491  -6.0490  -6.0489  -5.9862  -5.9862
    -5.8173  -5.8173  -5.8172  -5.8172  -5.6936  -5.6936  -5.6363  -5.6363
    -5.6363  -5.6363  -5.6275  -5.6275  -5.5892  -5.5892  -5.5085  -5.5085
     4.7417   4.7418   4.7665   4.7665   5.1176   5.1176   5.1301   5.1302
     5.1302   5.1302   5.1392   5.1392   5.7794   5.7794   5.7829   5.7830
     5.7830   5.7830   5.8982   5.8982   6.0045   6.0045   6.0045   6.0045
     6.0199   6.0199   6.1808   6.1808   6.1809   6.1809   6.2815   6.2815
     6.3752   6.3753   6.3753   6.3753   6.7481   6.7481   6.8858   6.8858
     7.0130   7.0130   7.0130   7.0130   7.0568   7.0568   7.5415   7.5415
     7.6437   7.6437   7.6914   7.6914   7.6914   7.6914   8.0354   8.0354
     8.0355   8.0355   8.1518   8.1518   8.5760   8.5760   8.5761   8.5761
     8.6275   8.6275   8.6726   8.6726   8.8346   8.8346   8.8649   8.8649
     8.9233   8.9233   8.9234   8.9234   9.1395   9.1395   9.2894   9.2894
     9.3373   9.3373   9.3596   9.3596   9.7039   9.7039   9.7039   9.7039
     9.9011   9.9011  10.3516  10.3516  10.3516  10.3516  10.6296  10.6296
    11.3400  11.3400  11.5681  11.5682  11.5682  11.5682  11.7892  11.7892
    11.8092  11.8092  12.0661  12.0661  12.1976  12.1976  12.1976  12.1976
    12.2376  12.2376  12.2945  12.2945  12.3177  12.3177  12.3177  12.3177
    12.4605  12.4605  12.6496  12.6496  12.6497  12.6497  12.7198  12.7198
    13.0661  13.0661  13.1647  13.1648  13.3013  13.3013  13.3013  13.3013
    13.3739  13.3739  13.6389  13.6389  13.6389  13.6390  14.0370  14.0370
    15.5011  15.5011  15.5011  15.5011  15.5674  15.5674  15.9023  15.9023
    15.9024  15.9024  15.9219  15.9219  16.1056  16.1056  16.4658  16.4658
    16.5726  16.5726  16.5817  16.5817  16.8986  16.8986  16.8986  16.8986
    17.1847  17.1847  17.7978  17.7979  17.7979  17.7979  17.8802  17.8802
    20.0020  20.0020  21.1229  21.1229  21.1230  21.1230  21.9027  21.9027
    22.6466  22.6466  22.6467  22.6467  23.0157  23.0157  23.0981  23.0981
    23.1546  23.1546  23.1547  23.1547  23.1548  23.1548  23.1549  23.1549
    23.1549  23.1549  23.1550  23.1550  23.1550  23.1550  23.1582  23.1583
    23.7434  23.7434  23.8722  23.8723  23.8825  23.8825  24.1254  24.1254
    24.1255  24.1255  24.5288  24.5288  24.5288  24.5288  24.7054  24.7054
    25.4703  25.4703  25.8071  25.8072  25.8072  25.8072  26.0620  26.0620
    26.1382  26.1382  26.6049  26.6049  26.6049  26.6049  26.8573  26.8573
    27.4345  27.4345  27.5913  27.5913  27.8060  27.8060  27.8060  27.8060
    28.0779  28.0779  28.1660  28.1660  28.1660  28.1660  28.2832  28.2832
    28.5176  28.5176  28.6374  28.6374  28.6497  28.6497  28.6497  28.6497
    28.9679  28.9679  29.5735  29.5735  29.5735  29.5735  29.7020  29.7020
    29.9194  29.9195  30.7072  30.7072  30.7072  30.7072  32.0109  32.0109
    32.0294  32.0294  32.0294  32.0295  32.6929  32.6929  33.1267  33.1267
    33.1267  33.1268  33.3667  33.3667  33.4476  33.4477  33.5153  33.5153
    34.4386  34.4386  34.4386  34.4386  34.6324  34.6324  35.0800  35.0800
    35.3164  35.3164  35.6606  35.6606  35.6606  35.6606  35.7250  35.7251
    35.7558  35.7558  35.9445  35.9445  35.9445  35.9445  36.0417  36.0417
    36.3851  36.3851  36.9016  36.9016  36.9016  36.9016  37.0123  37.0123
    37.0123  37.0123  37.0981  37.0981  37.6382  37.6382  38.4948  38.4948
    38.4948  38.4948  38.5740  38.5740  38.6796  38.6796  38.7454  38.7454
    38.7454  38.7454  38.8896  38.8896  39.0008  39.0008  39.0186  39.0187
    39.2391  39.2391  39.2980  39.2980  39.4061  39.4061  39.7154  39.7154
    39.7154  39.7154  39.8670  39.8670  39.9612  39.9612  39.9612  39.9612
    40.3515  40.3515  40.7344  40.7344  40.7344  40.7344  41.2129  41.2129
    41.5780  41.5780  41.9068  41.9068  42.0035  42.0035  42.3932  42.3932
    42.4118  42.4118  42.4118  42.4118  42.5699  42.5699  43.2642  43.2642
    43.2642  43.2642  43.3597  43.3597  43.3597  43.3597  43.5438  43.5438
[...]
    45.8230  45.8230  45.9244  45.9244  46.0806  46.0806  46.0806  46.0806
    46.5112  46.5112  46.5926  46.5926  46.5926  46.5926  46.6713  46.6713
    46.8379  46.8379  47.1304  47.1304  47.1626  47.1626  47.1626  47.1626
    47.3750  47.3751  47.6744  47.6745  47.7992  47.7992  47.7992  47.7992
    48.1585  48.1585  48.3538  48.3538  48.4953  48.4953  48.4953  48.4953
    48.6339  48.6339  48.8332  48.8332  48.9989  48.9989  48.9989  48.9989
    49.2891  49.2891  49.3310  49.3310  49.3310  49.3310  49.6094  49.6094
    49.7453  49.7453  49.8034  49.8034  49.8034  49.8034  49.8523  49.8523
    50.0252  50.0252  50.3343  50.3343  50.3343  50.3343  50.5269  50.5269
    50.6051  50.6051  51.0016  51.0016  51.0016  51.0016  51.0842  51.0842
    51.1472  51.1472  51.1473  51.1473  51.2986  51.2986  51.4715  51.4715
    51.5153  51.5153  51.7261  51.7261  51.7262  51.7262  52.1891  52.1891
    52.1891  52.1891  52.2493  52.2493  52.5487  52.5487  52.6631  52.6632
    52.7670  52.7670  52.8559  52.8559  52.8559  52.8559  53.2102  53.2102
    53.4824  53.4824  53.7332  53.7332  53.7332  53.7332  53.8133  53.8133

     the Fermi energy is    13.5791 ev

!    total energy              =   -4010.21395986 Ry
     Harris-Foulkes estimate   =   -4010.21396002 Ry
     estimated scf accuracy    <       0.00000016 Ry

     The total energy is the sum of the following terms:

     one-electron contribution =    -827.28029747 Ry
     hartree contribution      =     708.73801579 Ry
     xc contribution           =   -1105.23002395 Ry
     ewald contribution        =   -2786.44204143 Ry
     Hubbard energy            =       0.00000000 Ry
     smearing contrib. (-TS)   =       0.00038721 Ry

     total magnetization       =     0.00 Bohr mag/cell
     absolute magnetization    =     0.00 Bohr mag/cell

     convergence has been achieved in   7 iterations

     Writing output data file pwscf.save

     General routines

     Parallel routines
     Hubbard U routines

   This run was terminated on:   2:33: 5  11Feb2014

   JOB DONE.