     Program PWSCF v.5.0.2 (svn rev. 9656) starts on 11Feb2014 at  2:37:12

     Current dimensions of program PWSCF are:
     Max number of different atomic species (ntypx) = 10
     Max number of k-points (npk) =  40000
     Max angular momentum in pseudopotentials (lmaxx) =  3
     Reading input from alpha_0.07/alpha_0.07.in
Warning: card &IONS ignored
Warning: card / ignored
Warning: card &CELL ignored
Warning: card / ignored

     Subspace diagonalization in iterative solution of the eigenvalue problem:
     a serial algorithm will be used

     bravais-lattice index     =            0
     lattice parameter (alat)  =      17.1587  a.u.
     unit-cell volume          =    3538.5507 (a.u.)^3
     number of atoms/cell      =           48
     number of atomic types    =            3
     number of electrons       =       432.00
     number of Kohn-Sham states=          624
     kinetic-energy cutoff     =      40.0000  Ry
     charge density cutoff     =     500.0000  Ry
     convergence threshold     =      1.0E-06
     mixing beta               =       0.7000
     number of iterations used =            8  plain     mixing
     Exchange-correlation      = SLA  PW   PBE  PBE ( 1 4 3 4 0)
     EXX-fraction              =        0.00

     celldm(1)=  17.158713  celldm(2)=   0.000000  celldm(3)=   0.000000
     celldm(4)=   0.000000  celldm(5)=   0.000000  celldm(6)=   0.000000

     crystal axes: (cart. coord. in units of alat)
               a(1) = (   1.000000   0.000000   0.000000 )
               a(2) = (   0.000000   1.000000   0.000000 )
               a(3) = (   0.000000   0.000000   0.700441 )

     reciprocal axes: (cart. coord. in units 2 pi/alat)
               b(1) = (  1.000000  0.000000  0.000000 )
               b(2) = (  0.000000  1.000000  0.000000 )
               b(3) = (  0.000000  0.000000  1.427673 )

     PseudoPot. # 1 for Ir read from file:
     /home/camp/zhonxu/pseudo/ir_pbe_v1.uspp.F.UPF
     MD5 check sum: abf987a9674477536ede83817f8f8b70
     Pseudo is Ultrasoft + core correction, Zval = 15.0
     Generated by new atomic code, or converted to UPF format
     Using radial grid of  983 points,  7 beta functions with:
                l(1) =   0
                l(2) =   0
                l(3) =   1
                l(4) =   1
                l(5) =   1
                l(6) =   2
                l(7) =   2
     Q(r) pseudized with  8 coefficients,  rinner =    1.350   1.350   1.350
                                                       1.350   1.350

     PseudoPot. # 2 for O  read from file:
     /home/camp/zhonxu/pseudo/o_pbe_v1.01.uspp.F.UPF
     MD5 check sum: 2bcb18d16ea4b960afae9ec6d52f22d2
     Pseudo is Ultrasoft + core correction, Zval =  6.0
     Generated by new atomic code, or converted to UPF format
     Using radial grid of  737 points,  5 beta functions with:
                l(1) =   0
                l(2) =   0
                l(3) =   1
                l(4) =   1
                l(5) =   2
     Q(r) pseudized with  8 coefficients,  rinner =    0.900   0.900   0.900
                                                       0.900   0.900

     PseudoPot. # 3 for O  read from file:
     /home/camp/zhonxu/pseudo/o_pbe_v1.01.uspp.F.UPF
     MD5 check sum: 2bcb18d16ea4b960afae9ec6d52f22d2
     Pseudo is Ultrasoft + core correction, Zval =  6.0
     Generated by new atomic code, or converted to UPF format
     Using radial grid of  737 points,  5 beta functions with:
                l(1) =   0
                l(2) =   0
                l(3) =   1
                l(4) =   1
                l(5) =   2
     Q(r) pseudized with  8 coefficients,  rinner =    0.900   0.900   0.900
                                                       0.900   0.900

     atomic species   valence    mass     pseudopotential
        Ir0           15.00   192.22000     Ir( 1.00)
        O1             6.00    15.99940     O ( 1.00)
        O2             6.00    15.99940     O ( 1.00)

     Starting magnetic structure
     atomic species   magnetization
        Ir0          0.000
        O1           0.000
        O2           0.000

     Simplified LDA+U calculation (l_max = 2) with parameters (eV):
     atomic species    L          U    alpha       J0     beta
        Ir0            2     0.0000   0.0000   0.0000   0.0000
        O1             1     0.0000   0.0700   0.0000   0.0000
        O2             1     0.0000   0.0000   0.0000   0.0000

      4 Sym. Ops. (no inversion) found

   Cartesian axes

     site n.     atom                  positions (alat units)
         1           Ir0 tau(   1) = (  -0.1550000  -0.1550000   0.0000000  )
         2           Ir0 tau(   2) = (   0.0950000   0.0950000   0.1751101  )
         3           Ir0 tau(   3) = (  -0.1550000  -0.1550000   0.3502203  )
         4           Ir0 tau(   4) = (   0.0950000   0.0950000   0.5253304  )
         5           Ir0 tau(   5) = (  -0.1550000   0.3450000   0.0000000  )
         6           Ir0 tau(   6) = (   0.0950000   0.5950000   0.1751101  )
         7           Ir0 tau(   7) = (  -0.1550000   0.3450000   0.3502203  )
         8           Ir0 tau(   8) = (   0.0950000   0.5950000   0.5253304  )
         9           Ir0 tau(   9) = (   0.3450000  -0.1550000   0.0000000  )
        10           Ir0 tau(  10) = (   0.5950000   0.0950000   0.1751101  )
        11           Ir0 tau(  11) = (   0.3450000  -0.1550000   0.3502203  )
        12           Ir0 tau(  12) = (   0.5950000   0.0950000   0.5253304  )
        13           Ir0 tau(  13) = (   0.3450000   0.3450000   0.0000000  )
        14           Ir0 tau(  14) = (   0.5950000   0.5950000   0.1751101  )
        15           Ir0 tau(  15) = (   0.3450000   0.3450000   0.3502203  )
        16           Ir0 tau(  16) = (   0.5950000   0.5950000   0.5253304  )
        17           O1  tau(  17) = (   0.0000000   0.0000000   0.0000000  )
        18           O2  tau(  18) = (  -0.3100000  -0.3100000   0.0000000  )
        19           O2  tau(  19) = (   0.2500000  -0.0600000   0.1751101  )
        20           O2  tau(  20) = (  -0.0600000   0.2500000   0.1751101  )
        21           O2  tau(  21) = (   0.0000000   0.0000000   0.3502203  )
        22           O2  tau(  22) = (  -0.3100000  -0.3100000   0.3502203  )
        23           O2  tau(  23) = (   0.2500000  -0.0600000   0.5253304  )
        24           O2  tau(  24) = (  -0.0600000   0.2500000   0.5253304  )
        25           O2  tau(  25) = (   0.0000000   0.5000000   0.0000000  )
        26           O2  tau(  26) = (  -0.3100000   0.1900000   0.0000000  )
        27           O2  tau(  27) = (   0.2500000   0.4400000   0.1751101  )
        28           O2  tau(  28) = (  -0.0600000   0.7500000   0.1751101  )
        29           O2  tau(  29) = (   0.0000000   0.5000000   0.3502203  )
        30           O2  tau(  30) = (  -0.3100000   0.1900000   0.3502203  )
        31           O2  tau(  31) = (   0.2500000   0.4400000   0.5253304  )
        32           O2  tau(  32) = (  -0.0600000   0.7500000   0.5253304  )
        33           O2  tau(  33) = (   0.5000000   0.0000000   0.0000000  )
        34           O2  tau(  34) = (   0.1900000  -0.3100000   0.0000000  )
        35           O2  tau(  35) = (   0.7500000  -0.0600000   0.1751101  )
        36           O2  tau(  36) = (   0.4400000   0.2500000   0.1751101  )
        37           O2  tau(  37) = (   0.5000000   0.0000000   0.3502203  )
        38           O2  tau(  38) = (   0.1900000  -0.3100000   0.3502203  )
        39           O2  tau(  39) = (   0.7500000  -0.0600000   0.5253304  )
        40           O2  tau(  40) = (   0.4400000   0.2500000   0.5253304  )
        41           O2  tau(  41) = (   0.5000000   0.5000000   0.0000000  )
        42           O2  tau(  42) = (   0.1900000   0.1900000   0.0000000  )
        43           O2  tau(  43) = (   0.7500000   0.4400000   0.1751101  )
        44           O2  tau(  44) = (   0.4400000   0.7500000   0.1751101  )
        45           O2  tau(  45) = (   0.5000000   0.5000000   0.3502203  )
        46           O2  tau(  46) = (   0.1900000   0.1900000   0.3502203  )
        47           O2  tau(  47) = (   0.7500000   0.4400000   0.5253304  )
        48           O2  tau(  48) = (   0.4400000   0.7500000   0.5253304  )

     number of k points=    42  Methfessel-Paxton smearing, width (Ry)=  0.0100
                       cart. coord. in units 2pi/alat
        k(    1) = (   0.0000000   0.0000000   0.0000000), wk =   0.0156250
        k(    2) = (   0.0000000   0.0000000   0.3569182), wk =   0.0312500
        k(    3) = (   0.0000000   0.0000000  -0.7138365), wk =   0.0156250
        k(    4) = (   0.0000000   0.2500000   0.0000000), wk =   0.0625000
        k(    5) = (   0.0000000   0.2500000   0.3569182), wk =   0.1250000
        k(    6) = (   0.0000000   0.2500000  -0.7138365), wk =   0.0625000
        k(    7) = (   0.0000000  -0.5000000   0.0000000), wk =   0.0312500
        k(    8) = (   0.0000000  -0.5000000   0.3569182), wk =   0.0625000
        k(    9) = (   0.0000000  -0.5000000  -0.7138365), wk =   0.0312500
        k(   10) = (   0.2500000   0.2500000   0.0000000), wk =   0.0312500
        k(   11) = (   0.2500000   0.2500000   0.3569182), wk =   0.0625000
        k(   12) = (   0.2500000   0.2500000  -0.7138365), wk =   0.0312500
        k(   13) = (   0.2500000  -0.5000000   0.0000000), wk =   0.0625000
        k(   14) = (   0.2500000  -0.5000000   0.3569182), wk =   0.1250000
        k(   15) = (   0.2500000  -0.5000000  -0.7138365), wk =   0.0625000
        k(   16) = (  -0.5000000  -0.5000000   0.0000000), wk =   0.0156250
        k(   17) = (  -0.5000000  -0.5000000   0.3569182), wk =   0.0312500
        k(   18) = (  -0.5000000  -0.5000000  -0.7138365), wk =   0.0156250
        k(   19) = (   0.2500000  -0.2500000   0.0000000), wk =   0.0312500
        k(   20) = (   0.2500000  -0.2500000   0.3569182), wk =   0.0625000
        k(   21) = (   0.2500000  -0.2500000  -0.7138365), wk =   0.0312500
        k(   22) = (   0.0000000   0.0000000   0.0000000), wk =   0.0156250
        k(   23) = (   0.0000000   0.0000000   0.3569182), wk =   0.0312500
        k(   24) = (   0.0000000   0.0000000  -0.7138365), wk =   0.0156250
        k(   25) = (   0.0000000   0.2500000   0.0000000), wk =   0.0625000
        k(   26) = (   0.0000000   0.2500000   0.3569182), wk =   0.1250000
        k(   27) = (   0.0000000   0.2500000  -0.7138365), wk =   0.0625000
        k(   28) = (   0.0000000  -0.5000000   0.0000000), wk =   0.0312500
        k(   29) = (   0.0000000  -0.5000000   0.3569182), wk =   0.0625000
        k(   30) = (   0.0000000  -0.5000000  -0.7138365), wk =   0.0312500
        k(   31) = (   0.2500000   0.2500000   0.0000000), wk =   0.0312500
        k(   32) = (   0.2500000   0.2500000   0.3569182), wk =   0.0625000
        k(   33) = (   0.2500000   0.2500000  -0.7138365), wk =   0.0312500
        k(   34) = (   0.2500000  -0.5000000   0.0000000), wk =   0.0625000
        k(   35) = (   0.2500000  -0.5000000   0.3569182), wk =   0.1250000
        k(   36) = (   0.2500000  -0.5000000  -0.7138365), wk =   0.0625000
[...]
    eigenvectors:
  0.000  1.000  0.000
  0.500  0.000  0.500
  0.500  0.000  0.500
    occupations:
  0.884 -0.000 -0.000
 -0.000  0.900 -0.021
 -0.000 -0.021  0.900
   spin  2
    eigenvalues:
  0.879  0.884  0.921
    eigenvectors:
  0.000  1.000  0.000
  0.500  0.000  0.500
  0.500  0.000  0.500
    occupations:
  0.884 -0.000 -0.000
 -0.000  0.900 -0.021
 -0.000 -0.021  0.900
atomic mag. moment =     0.000000
atom   42   Tr[ns(na)] (up, down, total) =   2.68354  2.68354  5.36708
   spin  1
    eigenvalues:
  0.879  0.884  0.921
    eigenvectors:
  0.000  1.000  0.000
  0.500  0.000  0.500
  0.500  0.000  0.500
    occupations:
  0.884 -0.000 -0.000
 -0.000  0.900 -0.021
 -0.000 -0.021  0.900
   spin  2
    eigenvalues:
  0.879  0.884  0.921
    eigenvectors:
  0.000  1.000  0.000
  0.500  0.000  0.500
  0.500  0.000  0.500
    occupations:
  0.884 -0.000 -0.000
 -0.000  0.900 -0.021
 -0.000 -0.021  0.900
atomic mag. moment =    -0.000000
atom   43   Tr[ns(na)] (up, down, total) =   2.68358  2.68358  5.36715
   spin  1
    eigenvalues:
  0.879  0.884  0.921
    eigenvectors:
  0.000  1.000  0.000
  0.500  0.000  0.500
  0.500  0.000  0.500
    occupations:
  0.884 -0.000 -0.000
 -0.000  0.900  0.021
 -0.000  0.021  0.900
   spin  2
    eigenvalues:
  0.879  0.884  0.921
    eigenvectors:
  0.000  1.000  0.000
  0.500  0.000  0.500
  0.500  0.000  0.500
    occupations:
  0.884 -0.000 -0.000
 -0.000  0.900  0.021
 -0.000  0.021  0.900
atomic mag. moment =     0.000000
atom   44   Tr[ns(na)] (up, down, total) =   2.68358  2.68358  5.36715
   spin  1
    eigenvalues:
  0.879  0.884  0.921
    eigenvectors:
  0.000  1.000  0.000
  0.500  0.000  0.500
  0.500  0.000  0.500
    occupations:
  0.884 -0.000 -0.000
 -0.000  0.900  0.021
 -0.000  0.021  0.900
   spin  2
    eigenvalues:
  0.879  0.884  0.921
    eigenvectors:
  0.000  1.000  0.000
  0.500  0.000  0.500
  0.500  0.000  0.500
    occupations:
  0.884 -0.000 -0.000
 -0.000  0.900  0.021
 -0.000  0.021  0.900
atomic mag. moment =     0.000000
atom   45   Tr[ns(na)] (up, down, total) =   2.68354  2.68354  5.36708
   spin  1
    eigenvalues:
  0.879  0.884  0.921
    eigenvectors:
  0.000  1.000  0.000
  0.500  0.000  0.500
  0.500  0.000  0.500
    occupations:
  0.884 -0.000 -0.000
 -0.000  0.900 -0.021
 -0.000 -0.021  0.900
   spin  2
    eigenvalues:
  0.879  0.884  0.921
    eigenvectors:
  0.000  1.000  0.000
  0.500  0.000  0.500
  0.500  0.000  0.500
    occupations:
  0.884 -0.000 -0.000
 -0.000  0.900 -0.021
 -0.000 -0.021  0.900
atomic mag. moment =     0.000000
atom   46   Tr[ns(na)] (up, down, total) =   2.68347  2.68347  5.36694
   spin  1
    eigenvalues:
  0.879  0.884  0.921
    eigenvectors:
  0.000  1.000  0.000
  0.500  0.000  0.500
  0.500  0.000  0.500
    occupations:
  0.884 -0.000 -0.000
 -0.000  0.900 -0.021
 -0.000 -0.021  0.900
   spin  2
    eigenvalues:
  0.879  0.884  0.921
    eigenvectors:
  0.000  1.000  0.000
  0.500  0.000  0.500
  0.500  0.000  0.500
    occupations:
  0.884 -0.000 -0.000
 -0.000  0.900 -0.021
 -0.000 -0.021  0.900
atomic mag. moment =     0.000000
atom   47   Tr[ns(na)] (up, down, total) =   2.68358  2.68358  5.36715
   spin  1
    eigenvalues:
  0.879  0.884  0.921
    eigenvectors:
  0.000  1.000  0.000
  0.500  0.000  0.500
  0.500  0.000  0.500
    occupations:
  0.884  0.000  0.000
  0.000  0.900  0.021
  0.000  0.021  0.900
   spin  2
    eigenvalues:
  0.879  0.884  0.921
    eigenvectors:
  0.000  1.000  0.000
  0.500  0.000  0.500
  0.500  0.000  0.500
    occupations:
  0.884  0.000  0.000
  0.000  0.900  0.021
  0.000  0.021  0.900
atomic mag. moment =     0.000000
atom   48   Tr[ns(na)] (up, down, total) =   2.68358  2.68358  5.36715
   spin  1
    eigenvalues:
  0.879  0.884  0.921
    eigenvectors:
  0.000  1.000  0.000
  0.500  0.000  0.500
  0.500  0.000  0.500
    occupations:
  0.884  0.000  0.000
  0.000  0.900  0.021
  0.000  0.021  0.900
   spin  2
    eigenvalues:
  0.879  0.884  0.921
    eigenvectors:
  0.000  1.000  0.000
  0.500  0.000  0.500
  0.500  0.000  0.500
    occupations:
  0.884  0.000  0.000
  0.000  0.900  0.021
  0.000  0.021  0.900
atomic mag. moment =     0.000000
N of occupied +U levels = 300.4434324
 --- exit write_ns ---

 ------ SPIN UP ------------

          k = 0.0000 0.0000 0.0000 ( 15109 PWs)   bands (ev):

   -36.8056 -36.8055 -36.8053 -36.8051 -36.7964 -36.7963 -36.7961 -36.7960
   -36.7901 -36.7900 -36.7892 -36.7891 -36.7881 -36.7880 -36.7877 -36.7876
   -36.7817 -36.7815 -36.7812 -36.7810 -36.7728 -36.7726 -36.7724 -36.7722
   -36.7009 -36.6937 -36.6936 -36.6934 -36.6934 -36.6933 -36.6931 -36.6862
   -36.5442 -36.5440 -36.5438 -36.5437 -36.5423 -36.5422 -36.5419 -36.5418
   -36.5289 -36.5288 -36.5287 -36.5286 -36.5285 -36.5284 -36.5283 -36.5280
    -7.4304  -6.7698  -6.7675  -6.6484  -6.6445  -6.6444  -6.6439  -6.2743
    -6.1498  -6.1457  -6.1456  -6.1455  -6.0403  -6.0381  -5.9143  -5.9122
    -5.8504  -5.8484  -5.7516  -5.7495  -5.6269  -5.6228  -5.6227  -5.6225
    -5.5695  -5.5659  -5.5659  -5.5657  -5.3487  -5.3466  -5.2159  -5.2139
     3.9793   4.1135   4.1160   4.2273   5.1654   5.1655   5.1664   5.1698
     5.3464   5.3465   5.3468   5.3505   5.4955   5.4957   5.5230   5.5240
     5.6668   5.6683   5.7471   5.7486   5.8548   5.8550   5.8550   5.8579
     5.9518   5.9521   5.9599   5.9855   5.9857   5.9858   5.9887   6.3206
     6.3217   6.3973   6.3981   6.7819   6.7825   7.0727   7.0730   7.0732
     7.0761   7.5590   7.5592   7.5606   7.5630   7.5884   7.5886   7.5889
     7.5924   7.9965   7.9978   8.0234   8.0249   8.2376   8.2378   8.2385
     8.2398   8.2826   8.2845   8.4821   8.4824   8.4833   8.4861   8.5262
     8.5265   8.5267   8.5294   8.5442   8.5805   8.5813   8.5815   8.5840
     8.7937   8.7938   9.3274   9.3294   9.4172   9.4184   9.6448   9.6450
    10.0382  10.1056  10.1060  10.3125  10.3126  10.3128  10.3159  10.3571
    10.3575  10.5077  10.5078  10.5080  10.5112  10.7241  10.7246  10.8971
    10.8971  10.8974  10.8975  11.0766  11.1802  11.1804  11.2180  11.2277
    11.2279  11.2633  11.2634  11.4321  11.4950  11.7136  11.7139  11.7987
    11.7990  11.8270  11.8276  11.8278  11.8279  12.0147  12.0149  12.0152
    12.0154  12.2577  12.2582  12.2583  12.2587  12.3425  12.3431  12.8447
    12.8451  13.1572  13.1575  13.2993  13.2994  13.2995  13.3002  13.7714
    13.7718  13.8441  13.8443  14.0998  14.0999  14.1000  14.1006  14.2371
    14.6588  14.6598  14.6599  14.6599  14.7568  15.7958  15.7960  15.8419
    15.8421  15.9482  15.9489  16.1896  16.1898  16.6233  16.6234  17.0449
    17.0452  17.0455  17.0456  17.1899  17.1901  17.1901  17.1902  17.6602
    17.7131  17.7131  17.7266  17.7266  17.9920  17.9922  17.9922  17.9924
    19.0872  20.5844  20.5855  20.5857  20.5863  22.0935  22.0936  22.2198
    22.2201  22.6154  22.6160  22.7940  22.7945  22.8788  22.8790  22.9735
    22.9735  22.9742  22.9743  23.1509  23.1509  23.1544  23.1545  23.1548
    23.1548  23.1549  23.1551  23.1552  23.1552  23.1555  23.1557  23.1563
    23.1563  23.1564  23.1566  23.3071  23.3073  23.4723  23.4729  23.4730
    23.4731  23.8949  23.8958  23.8963  23.8966  25.1480  25.1480  25.2137
    25.7894  25.7895  25.8521  25.8525  25.8775  25.8777  26.2879  26.2880
    26.5740  26.6966  26.6968  26.6971  26.6972  26.8530  26.8730  26.8734
    26.8740  26.8744  27.4245  27.4246  27.4248  27.4249  27.5683  27.5687
    27.8770  27.8771  28.4219  28.4221  28.4224  28.4226  28.6486  28.6487
    28.8776  28.9086  28.9094  28.9095  28.9099  28.9285  29.8829  29.9355
    29.9357  30.1972  30.1981  30.3920  30.3924  30.3930  30.3930  31.0087
    31.0090  31.0101  31.0103  31.1569  31.1569  31.1577  31.1577  31.1604
    31.1606  31.5925  31.5927  31.9648  32.2830  32.2831  32.4905  32.4908
    32.4910  32.4914  32.8331  32.8331  32.8724  32.8725  33.6494  33.6501
    33.6504  33.6504  34.4019  34.4028  34.4137  34.4140  34.4920  34.4923
    34.9058  34.9059  35.1721  35.1722  35.4349  35.4354  35.4354  35.4360
    35.6124  35.6128  35.9421  35.9425  36.2585  36.2587  36.4711  36.4717
    36.4717  36.4719  36.5269  36.9261  36.9262  37.4476  37.4476  37.4478
    37.4482  37.8272  37.8278  37.9178  37.9180  37.9182  37.9186  38.3855
    38.3858  38.3862  38.3865  38.5684  38.5685  38.8064  38.8067  38.8315
    38.8318  38.8319  38.8321  39.5898  39.5899  39.5905  39.6311  39.6319
    39.6492  39.6494  39.6498  39.6500  39.6705  39.7323  39.7329  40.1742
    40.1746  40.1748  40.1751  40.2154  40.2158  40.2731  40.2734  40.3987
    40.3990  40.3991  40.3992  40.4115  40.4122  40.5947  41.0565  41.5288
    41.6479  41.7919  41.7923  41.8385  41.8387  42.0825  42.0828  42.6025
    42.6028  42.6530  42.6531  42.6532  42.6535  42.6576  42.6577  42.6581
    42.6582  43.3596  43.3597  43.6954  43.6963  43.6965  43.6966  43.7640
[...]
    45.3084  45.6769  45.6775  45.6778  45.6780  45.9545  45.9551  46.0034
    46.0034  46.1794  46.1797  46.3101  46.8261  46.8263  47.3184  47.3185
    47.3454  47.3462  47.3469  47.3470  47.4944  47.4948  47.4954  47.4956
    47.7126  47.7131  47.7136  47.7136  47.7400  47.7405  47.7406  47.7407
    48.0105  48.0639  48.0641  48.0941  48.0944  48.1677  48.1678  48.3267
    48.3270  48.5737  48.5742  48.5747  48.5749  48.8224  48.8232  48.8234
    48.8235  48.8528  48.8534  48.9783  48.9900  48.9902  49.0161  49.0163
    49.2151  49.2157  49.2158  49.2159  49.5441  49.5448  49.5535  49.5540
    49.7833  49.7833  50.0114  50.0117  50.2307  50.2310  50.2316  50.2316
    50.5396  50.5402  50.7131  50.7133  50.7377  50.7378  50.8675  50.8687
    50.8690  50.8690  50.9174  50.9176  50.9179  50.9179  51.2339  51.7296
    51.8972  51.8974  51.9049  51.9056  52.0761  52.0762  52.2757  52.2758
    52.2758  52.2759  52.5418  52.5419  52.7424  52.7426  52.7426  52.7428
    52.9969  52.9972  53.0374  53.0377  53.0378  53.0378  53.0435  53.0435
    53.3755  53.3761  53.5045  53.5046  53.5047  53.5048  53.5180  53.5183

[...]

          k =-0.5000-0.5000 0.0000 ( 15136 PWs)   bands (ev):

[...]

 ------ SPIN DOWN ----------

[...]

          k =-0.5000-0.5000-0.7138 ( 15112 PWs)   bands (ev):

[...]

          k = 0.2500-0.2500-0.7138 ( 15148 PWs)   bands (ev):

   -36.7876 -36.7873 -36.7871 -36.7871 -36.7869 -36.7868 -36.7865 -36.7865
   -36.7863 -36.7863 -36.7862 -36.7862 -36.7860 -36.7856 -36.7851 -36.7851
   -36.7489 -36.7488 -36.7456 -36.7455 -36.7455 -36.7451 -36.7450 -36.7449
   -36.7435 -36.7433 -36.7417 -36.7414 -36.7414 -36.7413 -36.7402 -36.7401
   -36.5365 -36.5364 -36.5362 -36.5362 -36.5362 -36.5360 -36.5360 -36.5357
   -36.5357 -36.5356 -36.5356 -36.5354 -36.5353 -36.5352 -36.5352 -36.5352
    -6.8103  -6.8076  -6.5010  -6.4980  -6.4978  -6.4976  -6.4214  -6.4172
    -6.2472  -6.2471  -6.0558  -6.0482  -6.0480  -6.0480  -5.9872  -5.9854
    -5.8228  -5.8165  -5.8165  -5.8163  -5.6931  -5.6929  -5.6368  -5.6357
    -5.6355  -5.6354  -5.6268  -5.6267  -5.5926  -5.5882  -5.5117  -5.5076
     4.7427   4.7462   4.7675   4.7726   5.1182   5.1183   5.1306   5.1307
     5.1311   5.1311   5.1399   5.1399   5.7804   5.7814   5.7836   5.7837
     5.7872   5.7877   5.8990   5.9001   6.0051   6.0053   6.0054   6.0076
     6.0214   6.0230   6.1815   6.1816   6.1816   6.1894   6.2822   6.2826
     6.3758   6.3761   6.3765   6.3825   6.7489   6.7499   6.8868   6.8883
     7.0136   7.0138   7.0138   7.0145   7.0575   7.0577   7.5423   7.5460
     7.6447   7.6477   7.6921   7.6921   7.6935   7.6945   8.0362   8.0363
     8.0379   8.0398   8.1526   8.1537   8.5768   8.5769   8.5769   8.5779
     8.6281   8.6285   8.6734   8.6734   8.8354   8.8357   8.8654   8.8658
     8.9240   8.9241   8.9244   8.9258   9.1405   9.1419   9.2902   9.2923
     9.3390   9.3403   9.3604   9.3621   9.7045   9.7047   9.7053   9.7055
     9.9023   9.9032  10.3522  10.3524  10.3525  10.3553  10.6303  10.6313
    11.3407  11.3408  11.5685  11.5687  11.5689  11.5696  11.7895  11.7897
    11.8095  11.8096  12.0666  12.0670  12.1981  12.1981  12.1983  12.1983
    12.2380  12.2384  12.2949  12.2953  12.3182  12.3182  12.3184  12.3185
    12.4611  12.4618  12.6501  12.6503  12.6505  12.6506  12.7204  12.7211
    13.0667  13.0669  13.1656  13.1656  13.3018  13.3019  13.3020  13.3027
    13.3745  13.3748  13.6394  13.6395  13.6397  13.6403  14.0377  14.0379
    15.5005  15.5018  15.5018  15.5023  15.5678  15.5681  15.9028  15.9029
    15.9031  15.9032  15.9225  15.9226  16.1061  16.1062  16.4660  16.4665
    16.5730  16.5736  16.5821  16.5826  16.8989  16.8992  16.8994  16.8995
    17.1854  17.1854  17.7983  17.7985  17.7986  17.7988  17.8808  17.8809
    20.0017  20.0024  21.1218  21.1228  21.1230  21.1238  21.9022  21.9032
    22.6453  22.6467  22.6469  22.6474  23.0152  23.0161  23.0975  23.0985
    23.1549  23.1551  23.1552  23.1552  23.1554  23.1554  23.1555  23.1556
    23.1557  23.1557  23.1557  23.1557  23.1559  23.1560  23.1588  23.1590
    23.7429  23.7442  23.8718  23.8726  23.8823  23.8825  24.1246  24.1252
    24.1254  24.1262  24.5285  24.5286  24.5291  24.5294  24.7054  24.7055
    25.4703  25.4704  25.8064  25.8071  25.8072  25.8075  26.0617  26.0619
    26.1383  26.1383  26.6042  26.6048  26.6050  26.6056  26.8563  26.8579
    27.4339  27.4350  27.5914  27.5915  27.8052  27.8057  27.8063  27.8065
    28.0777  28.0780  28.1647  28.1664  28.1664  28.1665  28.2829  28.2835
    28.5175  28.5180  28.6373  28.6374  28.6492  28.6494  28.6499  28.6500
    28.9673  28.9682  29.5731  29.5734  29.5737  29.5737  29.7016  29.7024
    29.9191  29.9198  30.7070  30.7073  30.7075  30.7077  32.0108  32.0111
    32.0288  32.0293  32.0294  32.0301  32.6926  32.6932  33.1260  33.1265
    33.1270  33.1272  33.3666  33.3670  33.4472  33.4481  33.5152  33.5154
    34.4379  34.4385  34.4390  34.4391  34.6325  34.6326  35.0803  35.0804
    35.3153  35.3168  35.6602  35.6606  35.6607  35.6610  35.7245  35.7255
    35.7552  35.7561  35.9440  35.9445  35.9447  35.9450  36.0416  36.0417
    36.3847  36.3855  36.9013  36.9013  36.9018  36.9019  37.0120  37.0121
    37.0125  37.0126  37.0977  37.0982  37.6381  37.6384  38.4940  38.4949
    38.4950  38.4952  38.5739  38.5740  38.6794  38.6800  38.7447  38.7455
    38.7455  38.7457  38.8897  38.8898  39.0006  39.0011  39.0184  39.0188
    39.2390  39.2393  39.2976  39.2981  39.4060  39.4063  39.7151  39.7152
    39.7154  39.7159  39.8670  39.8671  39.9604  39.9612  39.9614  39.9616
    40.3515  40.3518  40.7335  40.7344  40.7348  40.7350  41.2128  41.2130
    41.5771  41.5784  41.9067  41.9068  42.0032  42.0037  42.3929  42.3934
    42.4117  42.4119  42.4120  42.4120  42.5695  42.5701  43.2635  43.2643
    43.2645  43.2646  43.3595  43.3597  43.3598  43.3603  43.5436  43.5438
[...]
    45.8231  45.8233  45.9243  45.9244  46.0804  46.0805  46.0808  46.0808
    46.5113  46.5114  46.5918  46.5926  46.5931  46.5932  46.6707  46.6718
    46.8379  46.8380  47.1305  47.1306  47.1619  47.1628  47.1629  47.1629
    47.3741  47.3756  47.6744  47.6747  47.7986  47.7989  47.7993  47.7996
    48.1583  48.1587  48.3539  48.3542  48.4951  48.4952  48.4953  48.4956
    48.6333  48.6344  48.8330  48.8336  48.9985  48.9989  48.9990  48.9995
    49.2888  49.2896  49.3306  49.3312  49.3313  49.3313  49.6091  49.6092
    49.7452  49.7457  49.8030  49.8032  49.8037  49.8037  49.8523  49.8525
    50.0253  50.0254  50.3335  50.3343  50.3346  50.3349  50.5263  50.5270
    50.6049  50.6054  51.0013  51.0015  51.0017  51.0020  51.0843  51.0845
    51.1467  51.1472  51.1473  51.1476  51.2987  51.2988  51.4714  51.4718
    51.5150  51.5156  51.7259  51.7262  51.7262  51.7265  52.1887  52.1891
    52.1893  52.1893  52.2491  52.2493  52.5482  52.5492  52.6629  52.6634
    52.7670  52.7670  52.8555  52.8559  52.8560  52.8564  53.2101  53.2105
    53.4821  53.4828  53.7330  53.7333  53.7333  53.7336  53.8134  53.8135

     the Fermi energy is    13.5799 ev

!    total energy              =   -4010.18635773 Ry
     Harris-Foulkes estimate   =   -4010.18635852 Ry
     estimated scf accuracy    <       0.00000084 Ry

     The total energy is the sum of the following terms:

     one-electron contribution =    -827.28436713 Ry
     hartree contribution      =     708.74169565 Ry
     xc contribution           =   -1105.22962223 Ry
     ewald contribution        =   -2786.44204143 Ry
     Hubbard energy            =       0.02759019 Ry
     smearing contrib. (-TS)   =       0.00038723 Ry

     total magnetization       =     0.00 Bohr mag/cell
     absolute magnetization    =     0.00 Bohr mag/cell

     convergence has been achieved in   8 iterations

     Writing output data file pwscf.save

     General routines

     Parallel routines
     Hubbard U routines

   This run was terminated on:   6:41: 2  11Feb2014

   JOB DONE.