     Program PWSCF v.5.0.2 (svn rev. 9656) starts on  9Feb2014 at  0:42: 2

     Current dimensions of program PWSCF are:
     Max number of different atomic species (ntypx) = 10
     Max number of k-points (npk) =  40000
     Max angular momentum in pseudopotentials (lmaxx) =  3
     Reading input from ReO2-2-pert.in
Warning: card &IONS ignored
Warning: card / ignored
Warning: card &CELL ignored
Warning: card / ignored

     Subspace diagonalization in iterative solution of the eigenvalue problem:
     a serial algorithm will be used

     bravais-lattice index     =            0
     lattice parameter (alat)  =      18.7083  a.u.
     unit-cell volume          =    3545.1269 (a.u.)^3
     number of atoms/cell      =           48
     number of atomic types    =            3
     number of electrons       =       432.00
     number of Kohn-Sham states=          648
     kinetic-energy cutoff     =      40.0000  Ry
     charge density cutoff     =     500.0000  Ry
     convergence threshold     =      1.0E-06
     mixing beta               =       0.7000
     number of iterations used =            8  plain     mixing
     Exchange-correlation      = SLA  PW   PBE  PBE ( 1 4 3 4 0)
     EXX-fraction              =        0.00

     celldm(1)=  18.708289  celldm(2)=   0.000000  celldm(3)=   0.000000
     celldm(4)=   0.000000  celldm(5)=   0.000000  celldm(6)=   0.000000

     crystal axes: (cart. coord. in units of alat)
               a(1) = (   1.000000   0.000000   0.000000 )
               a(2) = (   0.000000   1.000000   0.000000 )
               a(3) = (   0.000000   0.000000   0.541414 )

     reciprocal axes: (cart. coord. in units 2 pi/alat)
               b(1) = (  1.000000  0.000000  0.000000 )
               b(2) = (  0.000000  1.000000  0.000000 )
               b(3) = (  0.000000  0.000000  1.847015 )

     PseudoPot. # 1 for Re read from file:
     /home/camp/zhonxu/pseudo/re_pbe_v1.uspp.F.UPF
     MD5 check sum: 6f5a5dcaf9c96c20d0ffdde0de57afc6
     Pseudo is Ultrasoft + core correction, Zval = 15.0
     Generated by new atomic code, or converted to UPF format
     Using radial grid of  981 points,  8 beta functions with:
                l(1) =   0
                l(2) =   0
                l(3) =   1
                l(4) =   1
                l(5) =   2
                l(6) =   2
                l(7) =   3
                l(8) =   3
     Q(r) pseudized with  8 coefficients,  rinner =    1.000   1.000   1.000
                                                       1.000   1.000   1.000
                                                       1.000

     PseudoPot. # 2 for O  read from file:
     /home/camp/zhonxu/pseudo/o_pbe_v1.01.uspp.F.UPF
     MD5 check sum: 2bcb18d16ea4b960afae9ec6d52f22d2
     Pseudo is Ultrasoft + core correction, Zval =  6.0
     Generated by new atomic code, or converted to UPF format
     Using radial grid of  737 points,  5 beta functions with:
                l(1) =   0
                l(2) =   0
                l(3) =   1
                l(4) =   1
                l(5) =   2
     Q(r) pseudized with  8 coefficients,  rinner =    0.900   0.900   0.900
                                                       0.900   0.900

     PseudoPot. # 3 for O  read from file:
     /home/camp/zhonxu/pseudo/o_pbe_v1.01.uspp.F.UPF
     MD5 check sum: 2bcb18d16ea4b960afae9ec6d52f22d2
     Pseudo is Ultrasoft + core correction, Zval =  6.0
     Generated by new atomic code, or converted to UPF format
     Using radial grid of  737 points,  5 beta functions with:
                l(1) =   0
                l(2) =   0
                l(3) =   1
                l(4) =   1
                l(5) =   2
     Q(r) pseudized with  8 coefficients,  rinner =    0.900   0.900   0.900
                                                       0.900   0.900

     atomic species   valence    mass     pseudopotential
        Re0           15.00   186.20700     Re( 1.00)
        O1             6.00    15.99940     O ( 1.00)
        O2             6.00    15.99940     O ( 1.00)

     Starting magnetic structure
     atomic species   magnetization
        Re0          0.000
        O1           0.000
        O2           0.000

     Simplified LDA+U calculation (l_max = 2) with parameters (eV):
     atomic species    L          U    alpha       J0     beta
        Re0            2     0.0000   0.0000   0.0000   0.0000
        O1             1     0.0000   0.0000   0.0000   0.0000
        O2             1     0.0000   0.0000   0.0000   0.0000

      4 Sym. Ops. (no inversion) found

   Cartesian axes

     site n.     atom                  positions (alat units)
         1           Re0 tau(   1) = (  -0.1400000  -0.1400000   0.0000000  )
         2           Re0 tau(   2) = (   0.1100000   0.1100000   0.1353535  )
         3           Re0 tau(   3) = (  -0.1400000  -0.1400000   0.2707071  )
         4           Re0 tau(   4) = (   0.1100000   0.1100000   0.4060606  )
         5           Re0 tau(   5) = (  -0.1400000   0.3600000   0.0000000  )
         6           Re0 tau(   6) = (   0.1100000   0.6100000   0.1353535  )
         7           Re0 tau(   7) = (  -0.1400000   0.3600000   0.2707071  )
         8           Re0 tau(   8) = (   0.1100000   0.6100000   0.4060606  )
         9           Re0 tau(   9) = (   0.3600000  -0.1400000   0.0000000  )
        10           Re0 tau(  10) = (   0.6100000   0.1100000   0.1353535  )
        11           Re0 tau(  11) = (   0.3600000  -0.1400000   0.2707071  )
        12           Re0 tau(  12) = (   0.6100000   0.1100000   0.4060606  )
        13           Re0 tau(  13) = (   0.3600000   0.3600000   0.0000000  )
        14           Re0 tau(  14) = (   0.6100000   0.6100000   0.1353535  )
        15           Re0 tau(  15) = (   0.3600000   0.3600000   0.2707071  )
        16           Re0 tau(  16) = (   0.6100000   0.6100000   0.4060606  )
        17           O1  tau(  17) = (   0.0000000   0.0000000   0.0000000  )
        18           O2  tau(  18) = (  -0.2800000  -0.2800000   0.0000000  )
        19           O2  tau(  19) = (   0.2500000  -0.0300000   0.1353535  )
        20           O2  tau(  20) = (  -0.0300000   0.2500000   0.1353535  )
        21           O2  tau(  21) = (   0.0000000   0.0000000   0.2707071  )
        22           O2  tau(  22) = (  -0.2800000  -0.2800000   0.2707071  )
        23           O2  tau(  23) = (   0.2500000  -0.0300000   0.4060606  )
        24           O2  tau(  24) = (  -0.0300000   0.2500000   0.4060606  )
        25           O2  tau(  25) = (   0.0000000   0.5000000   0.0000000  )
        26           O2  tau(  26) = (  -0.2800000   0.2200000   0.0000000  )
        27           O2  tau(  27) = (   0.2500000   0.4700000   0.1353535  )
        28           O2  tau(  28) = (  -0.0300000   0.7500000   0.1353535  )
        29           O2  tau(  29) = (   0.0000000   0.5000000   0.2707071  )
        30           O2  tau(  30) = (  -0.2800000   0.2200000   0.2707071  )
        31           O2  tau(  31) = (   0.2500000   0.4700000   0.4060606  )
        32           O2  tau(  32) = (  -0.0300000   0.7500000   0.4060606  )
        33           O2  tau(  33) = (   0.5000000   0.0000000   0.0000000  )
        34           O2  tau(  34) = (   0.2200000  -0.2800000   0.0000000  )
        35           O2  tau(  35) = (   0.7500000  -0.0300000   0.1353535  )
        36           O2  tau(  36) = (   0.4700000   0.2500000   0.1353535  )
        37           O2  tau(  37) = (   0.5000000   0.0000000   0.2707071  )
        38           O2  tau(  38) = (   0.2200000  -0.2800000   0.2707071  )
        39           O2  tau(  39) = (   0.7500000  -0.0300000   0.4060606  )
        40           O2  tau(  40) = (   0.4700000   0.2500000   0.4060606  )
        41           O2  tau(  41) = (   0.5000000   0.5000000   0.0000000  )
        42           O2  tau(  42) = (   0.2200000   0.2200000   0.0000000  )
        43           O2  tau(  43) = (   0.7500000   0.4700000   0.1353535  )
        44           O2  tau(  44) = (   0.4700000   0.7500000   0.1353535  )
        45           O2  tau(  45) = (   0.5000000   0.5000000   0.2707071  )
        46           O2  tau(  46) = (   0.2200000   0.2200000   0.2707071  )
        47           O2  tau(  47) = (   0.7500000   0.4700000   0.4060606  )
        48           O2  tau(  48) = (   0.4700000   0.7500000   0.4060606  )

     number of k points=    42  Methfessel-Paxton smearing, width (Ry)=  0.0100
                       cart. coord. in units 2pi/alat
        k(    1) = (   0.0000000   0.0000000   0.0000000), wk =   0.0156250
        k(    2) = (   0.0000000   0.0000000   0.4617537), wk =   0.0312500
        k(    3) = (   0.0000000   0.0000000  -0.9235075), wk =   0.0156250
        k(    4) = (   0.0000000   0.2500000   0.0000000), wk =   0.0625000
        k(    5) = (   0.0000000   0.2500000   0.4617537), wk =   0.1250000
        k(    6) = (   0.0000000   0.2500000  -0.9235075), wk =   0.0625000
        k(    7) = (   0.0000000  -0.5000000   0.0000000), wk =   0.0312500
        k(    8) = (   0.0000000  -0.5000000   0.4617537), wk =   0.0625000
        k(    9) = (   0.0000000  -0.5000000  -0.9235075), wk =   0.0312500
        k(   10) = (   0.2500000   0.2500000   0.0000000), wk =   0.0312500
        k(   11) = (   0.2500000   0.2500000   0.4617537), wk =   0.0625000
        k(   12) = (   0.2500000   0.2500000  -0.9235075), wk =   0.0312500
        k(   13) = (   0.2500000  -0.5000000   0.0000000), wk =   0.0625000
        k(   14) = (   0.2500000  -0.5000000   0.4617537), wk =   0.1250000
        k(   15) = (   0.2500000  -0.5000000  -0.9235075), wk =   0.0625000
        k(   16) = (  -0.5000000  -0.5000000   0.0000000), wk =   0.0156250
        k(   17) = (  -0.5000000  -0.5000000   0.4617537), wk =   0.0312500
        k(   18) = (  -0.5000000  -0.5000000  -0.9235075), wk =   0.0156250
        k(   19) = (   0.2500000  -0.2500000   0.0000000), wk =   0.0312500
        k(   20) = (   0.2500000  -0.2500000   0.4617537), wk =   0.0625000
        k(   21) = (   0.2500000  -0.2500000  -0.9235075), wk =   0.0312500
        k(   22) = (   0.0000000   0.0000000   0.0000000), wk =   0.0156250
        k(   23) = (   0.0000000   0.0000000   0.4617537), wk =   0.0312500
        k(   24) = (   0.0000000   0.0000000  -0.9235075), wk =   0.0156250
        k(   25) = (   0.0000000   0.2500000   0.0000000), wk =   0.0625000
        k(   26) = (   0.0000000   0.2500000   0.4617537), wk =   0.1250000
        k(   27) = (   0.0000000   0.2500000  -0.9235075), wk =   0.0625000
        k(   28) = (   0.0000000  -0.5000000   0.0000000), wk =   0.0312500
        k(   29) = (   0.0000000  -0.5000000   0.4617537), wk =   0.0625000
        k(   30) = (   0.0000000  -0.5000000  -0.9235075), wk =   0.0312500
        k(   31) = (   0.2500000   0.2500000   0.0000000), wk =   0.0312500
        k(   32) = (   0.2500000   0.2500000   0.4617537), wk =   0.0625000
        k(   33) = (   0.2500000   0.2500000  -0.9235075), wk =   0.0312500
        k(   34) = (   0.2500000  -0.5000000   0.0000000), wk =   0.0625000
        k(   35) = (   0.2500000  -0.5000000   0.4617537), wk =   0.1250000
[...]
    eigenvectors:
  0.000  1.000  0.000
  0.500  0.000  0.500
  0.500  0.000  0.500
    occupations:
  0.908 -0.000 -0.000
 -0.000  0.907 -0.003
 -0.000 -0.003  0.907
   spin  2
    eigenvalues:
  0.904  0.908  0.911
    eigenvectors:
  0.000  1.000  0.000
  0.500  0.000  0.500
  0.500  0.000  0.500
    occupations:
  0.908 -0.000 -0.000
 -0.000  0.907 -0.003
 -0.000 -0.003  0.907
atomic mag. moment =     0.000000
atom   42   Tr[ns(na)] (up, down, total) =   2.72339  2.72339  5.44678
   spin  1
    eigenvalues:
  0.904  0.908  0.911
    eigenvectors:
  0.000  1.000  0.000
  0.500  0.000  0.500
  0.500  0.000  0.500
    occupations:
  0.908 -0.000 -0.000
 -0.000  0.907 -0.003
 -0.000 -0.003  0.907
   spin  2
    eigenvalues:
  0.904  0.908  0.911
    eigenvectors:
  0.000  1.000  0.000
  0.500  0.000  0.500
  0.500  0.000  0.500
    occupations:
  0.908 -0.000 -0.000
 -0.000  0.907 -0.003
 -0.000 -0.003  0.907
atomic mag. moment =     0.000000
atom   43   Tr[ns(na)] (up, down, total) =   2.72341  2.72341  5.44683
   spin  1
    eigenvalues:
  0.904  0.908  0.911
    eigenvectors:
  0.000  1.000  0.000
  0.500  0.000  0.500
  0.500  0.000  0.500
    occupations:
  0.908  0.000 -0.000
  0.000  0.907  0.003
 -0.000  0.003  0.907
   spin  2
    eigenvalues:
  0.904  0.908  0.911
    eigenvectors:
  0.000  1.000  0.000
  0.500  0.000  0.500
  0.500  0.000  0.500
    occupations:
  0.908  0.000 -0.000
  0.000  0.907  0.003
 -0.000  0.003  0.907
atomic mag. moment =    -0.000000
atom   44   Tr[ns(na)] (up, down, total) =   2.72341  2.72341  5.44683
   spin  1
    eigenvalues:
  0.904  0.908  0.911
    eigenvectors:
  0.000  1.000  0.000
  0.500  0.000  0.500
  0.500  0.000  0.500
    occupations:
  0.908 -0.000  0.000
 -0.000  0.907  0.003
  0.000  0.003  0.907
   spin  2
    eigenvalues:
  0.904  0.908  0.911
    eigenvectors:
  0.000  1.000  0.000
  0.500  0.000  0.500
  0.500  0.000  0.500
    occupations:
  0.908 -0.000  0.000
 -0.000  0.907  0.003
  0.000  0.003  0.907
atomic mag. moment =    -0.000000
atom   45   Tr[ns(na)] (up, down, total) =   2.72340  2.72340  5.44679
   spin  1
    eigenvalues:
  0.904  0.908  0.911
    eigenvectors:
  0.000  1.000  0.000
  0.500  0.000  0.500
  0.500  0.000  0.500
    occupations:
  0.908 -0.000 -0.000
 -0.000  0.907 -0.003
 -0.000 -0.003  0.907
   spin  2
    eigenvalues:
  0.904  0.908  0.911
    eigenvectors:
  0.000  1.000  0.000
  0.500  0.000  0.500
  0.500  0.000  0.500
    occupations:
  0.908 -0.000 -0.000
 -0.000  0.907 -0.003
 -0.000 -0.003  0.907
atomic mag. moment =     0.000000
atom   46   Tr[ns(na)] (up, down, total) =   2.72340  2.72340  5.44680
   spin  1
    eigenvalues:
  0.904  0.908  0.911
    eigenvectors:
  0.000  1.000  0.000
  0.500  0.000  0.500
  0.500  0.000  0.500
    occupations:
  0.908 -0.000 -0.000
 -0.000  0.907 -0.003
 -0.000 -0.003  0.907
   spin  2
    eigenvalues:
  0.904  0.908  0.911
    eigenvectors:
  0.000  1.000  0.000
  0.500  0.000  0.500
  0.500  0.000  0.500
    occupations:
  0.908 -0.000 -0.000
 -0.000  0.907 -0.003
 -0.000 -0.003  0.907
atomic mag. moment =     0.000000
atom   47   Tr[ns(na)] (up, down, total) =   2.72341  2.72341  5.44683
   spin  1
    eigenvalues:
  0.904  0.908  0.911
    eigenvectors:
  0.000  1.000  0.000
  0.500  0.000  0.500
  0.500  0.000  0.500
    occupations:
  0.908 -0.000  0.000
 -0.000  0.907  0.003
  0.000  0.003  0.907
   spin  2
    eigenvalues:
  0.904  0.908  0.911
    eigenvectors:
  0.000  1.000  0.000
  0.500  0.000  0.500
  0.500  0.000  0.500
    occupations:
  0.908 -0.000  0.000
 -0.000  0.907  0.003
  0.000  0.003  0.907
atomic mag. moment =    -0.000000
atom   48   Tr[ns(na)] (up, down, total) =   2.72341  2.72341  5.44683
   spin  1
    eigenvalues:
  0.904  0.908  0.911
    eigenvectors:
  0.000  1.000  0.000
  0.500  0.000  0.500
  0.500  0.000  0.500
    occupations:
  0.908  0.000 -0.000
  0.000  0.907  0.003
 -0.000  0.003  0.907
   spin  2
    eigenvalues:
  0.904  0.908  0.911
    eigenvectors:
  0.000  1.000  0.000
  0.500  0.000  0.500
  0.500  0.000  0.500
    occupations:
  0.908  0.000 -0.000
  0.000  0.907  0.003
 -0.000  0.003  0.907
atomic mag. moment =    -0.000000
N of occupied +U levels = 278.5176963
 --- exit write_ns ---

 ------ SPIN UP ------------

          k = 0.0000 0.0000 0.0000 ( 15161 PWs)   bands (ev):

   -67.0597 -67.0590 -67.0590 -67.0589 -67.0589 -67.0589 -67.0588 -67.0581
   -67.0037 -67.0037 -67.0037 -67.0036 -67.0036 -67.0036 -67.0036 -67.0035
   -29.2648 -29.2648 -29.2647 -29.2647 -29.2634 -29.2633 -29.2632 -29.2632
   -29.0403 -29.0403 -29.0355 -29.0355 -29.0108 -29.0108 -29.0107 -29.0107
   -28.9797 -28.9797 -28.9796 -28.9796 -28.9543 -28.9542 -28.9500 -28.9500
   -28.8931 -28.8930 -28.8926 -28.8925 -28.8915 -28.8915 -28.8914 -28.8914
   -28.8693 -28.8692 -28.8688 -28.8687 -28.8687 -28.8686 -28.8686 -28.8686
   -28.3971 -28.3905 -28.3904 -28.3904 -28.3904 -28.3903 -28.3903 -28.3833
    -6.7973  -6.2246  -6.2246  -5.9983  -5.9983  -5.9982  -5.9982  -5.7335
    -5.7058  -5.7058  -5.7057  -5.7056  -5.3235  -5.3234  -5.3234  -5.3233
    -5.3173  -5.3173  -5.2684  -5.2684  -5.0948  -5.0947  -5.0322  -5.0322
    -5.0186  -5.0185  -4.9371  -4.9370  -4.5590  -4.5590  -4.5589  -4.5587
     4.5610   4.8134   4.8134   5.0709   5.5185   5.5185   5.5185   5.5186
     5.7537   5.7538   5.7538   5.7539   6.0504   6.0504   6.0504   6.0505
     6.1411   6.3211   6.3211   6.3509   6.3509   6.5899   6.5899   7.0122
     7.0122   7.0123   7.0124   7.1508   7.1509   7.2478   7.2478   7.2849
     7.2849   7.2862   7.2862   7.3345   7.3345   7.7508   7.7509   7.7509
     7.7509   8.2109   8.2110   8.2110   8.2111   8.5496   8.5497   8.6683
     8.6683   8.6755   8.6755   8.7046   8.7046   8.8853   8.8854   8.8854
     8.8855   8.9468   8.9468   9.2056   9.2056   9.2057   9.2057   9.2635
     9.2636   9.4226   9.4226   9.4227   9.4227   9.8379   9.8379   9.9666
     9.9666  10.1942  10.1942  10.5212  10.5212  10.5213  10.5214  10.6466
    10.6466  10.6467  10.6468  10.6767  10.8172  10.8337  10.8337  10.8846
    10.8846  10.9013  10.9013  10.9233  10.9233  10.9234  10.9234  11.0126
    11.0612  11.0612  11.4118  11.6915  11.8493  11.8494  11.8494  11.8494
    12.4046  12.4046  12.4046  12.4047  13.2021  13.7887  13.7888  14.3727
    14.3727  14.4599  14.4600  14.7583  14.7584  14.7747  14.7748  14.8088
    14.8088  15.3806  15.3806  15.3807  15.3807  15.3844  15.3844  15.3844
    15.3845  15.7283  15.7284  15.7284  15.7285  15.9407  15.9408  16.9079
    17.0559  17.0559  17.0559  17.0560  17.2008  17.3991  17.3992  17.4207
    17.4208  17.8058  17.8059  17.8059  17.8059  18.0413  18.0414  18.1579
    18.1580  18.1581  18.1581  18.3599  18.6856  18.6857  18.7552  18.7553
    18.7553  18.7553  18.8785  18.8785  18.8955  18.8955  19.2233  19.2234
    19.3168  19.3168  19.6217  19.6218  21.3616  21.3616  21.3616  21.3617
    21.4497  21.4497  21.4497  21.4498  21.5520  22.8849  22.8849  22.9227
    22.9227  23.0929  23.0929  23.4545  23.4545  23.4545  23.4546  23.5187
    23.5188  23.7565  23.7565  24.4044  24.4044  24.6296  24.6296  24.6296
    24.6297  25.3388  25.6734  25.6734  25.7373  25.9305  25.9305  25.9306
    25.9306  25.9622  25.9622  25.9622  25.9623  26.2455  26.3708  26.3708
    26.3708  26.3709  26.6417  26.6418  27.4466  27.4466  27.6435  27.6435
    28.0538  28.0538  28.2760  28.2760  28.2760  28.2760  28.4120  28.4120
    28.5705  28.5705  28.6713  28.6713  28.6713  28.6713  29.0149  29.0149
    29.0150  29.0150  29.4638  29.4638  29.6224  29.6224  29.8156  29.8156
    30.5230  30.6090  30.6090  31.2126  31.2126  31.2126  31.2127  32.2447
    32.2447  32.2448  32.2448  32.7967  32.7967  32.8423  32.8423  32.8424
    32.8424  32.8499  32.8499  32.9896  32.9896  33.1953  33.1954  33.8237
    34.0027  34.0028  34.1070  34.1070  34.2538  34.2538  34.8704  34.8704
    34.8704  34.8704  34.9497  35.0858  35.0858  35.0858  35.0858  35.3184
    35.3184  35.9374  35.9374  35.9374  35.9374  36.0655  36.0655  36.0990
    36.0990  36.1432  36.4278  36.4278  36.4278  36.4278  36.4999  36.4999
    36.7615  36.7615  37.3584  37.3584  37.3584  37.3584  37.4411  37.4411
    37.5129  37.5129  37.5293  37.9761  37.9761  37.9821  38.4421  38.4422
    38.5566  38.5567  38.5567  38.5567  38.7382  38.7382  38.7382  38.7382
    38.7693  38.7693  39.4201  39.4201  39.4201  39.4201  39.7550  39.7550
    39.9088  39.9089  40.1545  40.1545  40.1545  40.1545  40.5725  40.9996
    40.9996  41.1660  41.1661  41.1881  41.1881  42.1107  42.1108  42.1108
    42.1108  42.6573  42.6573  42.7748  42.7748  42.7748  42.7748  43.3280
    43.3280  43.3281  43.3281  43.3458  43.3458  43.3458  43.3458  43.5749
    43.8317  43.8318  43.8989  43.8989  44.0120  44.0121  44.2922  44.2922
    44.2922  44.2922  44.3320  44.4837  44.4837  44.7056  44.7056  44.9411
[...]
    47.6047  47.6047  47.6463  47.6463  48.0317  48.0317  48.2175  48.2176
    48.2176  48.2176  48.3676  48.3676  48.3729  48.3729  48.3729  48.3730
    48.9301  48.9301  48.9302  48.9302  49.0717  49.0717  49.2806  49.2807
    49.3905  49.3905  49.4766  49.4766  49.7698  49.7698  50.0861  50.0861
    50.1830  50.1830  50.1830  50.1830  50.7630  50.7630  50.7630  50.7630
    50.8812  50.8812  50.8812  50.8812  51.0952  51.0952  51.2645  51.2645
    51.4493  51.4493  51.4515  51.5411  51.5411  51.5411  51.5411  51.7697
    51.9088  52.1513  52.1513  52.1513  52.1514  52.3195  52.3195  52.3762
    52.3762  52.4641  52.4641  52.4641  52.4641  52.7841  52.8445  52.8445
    52.8445  52.8446  53.2686  53.3565  53.3565  53.4345  53.4345  53.4345
    53.4346  53.6461  53.6461  54.4447  54.4447  54.4586  54.4586  54.4586
    54.4586  54.4608  54.4608  54.7757  54.7757  54.7757  54.7758  54.8585
    54.8585  54.9475  54.9475  54.9475  54.9475  55.2185  55.2185  55.6172
    55.6172  55.6535  55.8060  55.8060  55.8522  55.8522  55.8584  55.8584
    55.8584  55.8584  56.1375  56.1376  56.2198  56.2198  56.2747  56.2747

[...]

          k =-0.5000-0.5000 0.0000 ( 15164 PWs)   bands (ev):

[...]

 ------ SPIN DOWN ----------

[...]

          k =-0.5000-0.5000-0.9235 ( 15168 PWs)   bands (ev):

[...]

          k = 0.2500-0.2500-0.9235 ( 15156 PWs)   bands (ev):

   -67.0319 -67.0318 -67.0317 -67.0315 -67.0315 -67.0315 -67.0314 -67.0313
   -67.0312 -67.0312 -67.0312 -67.0311 -67.0311 -67.0310 -67.0308 -67.0307
   -28.9682 -28.9681 -28.9656 -28.9655 -28.9610 -28.9609 -28.9592 -28.9591
   -28.9591 -28.9590 -28.9575 -28.9574 -28.9416 -28.9415 -28.9415 -28.9415
   -28.9384 -28.9383 -28.9383 -28.9381 -28.9208 -28.9208 -28.9192 -28.9191
   -28.9191 -28.9190 -28.9177 -28.9176 -28.9108 -28.9107 -28.9089 -28.9088
   -28.8421 -28.8421 -28.8388 -28.8388 -28.8384 -28.8383 -28.8383 -28.8382
   -28.8375 -28.8374 -28.8351 -28.8350 -28.8350 -28.8350 -28.8346 -28.8345
    -6.0358  -6.0358  -5.8227  -5.8227  -5.8226  -5.8226  -5.7193  -5.7193
    -5.5958  -5.5958  -5.5304  -5.5303  -5.5303  -5.5303  -5.3469  -5.3469
    -5.1469  -5.1469  -5.1446  -5.1446  -5.1305  -5.1305  -5.1304  -5.1303
    -5.1222  -5.1222  -5.1221  -5.1221  -5.1052  -5.1052  -5.0988  -5.0988
     5.8090   5.8090   5.8090   5.8090   5.8235   5.8235   5.8326   5.8326
     5.9556   5.9556   5.9803   5.9803   5.9804   5.9804   6.0103   6.0103
     6.7573   6.7573   6.8013   6.8013   7.0376   7.0376   7.0396   7.0396
     7.0397   7.0397   7.1903   7.1903   7.2989   7.2989   7.2989   7.2989
     7.3051   7.3051   7.6118   7.6118   7.6119   7.6119   7.9091   7.9091
     7.9237   7.9237   7.9238   7.9238   7.9414   7.9415   8.1858   8.1858
     8.1858   8.1859   8.4513   8.4513   8.4612   8.4612   8.4844   8.4844
     9.0380   9.0380   9.0381   9.0381   9.1559   9.1559   9.2199   9.2199
     9.3101   9.3101   9.3101   9.3101   9.3131   9.3131   9.3372   9.3372
     9.4343   9.4343   9.6370   9.6371   9.6371   9.6371   9.9595   9.9595
    10.1712  10.1712  10.4375  10.4375  10.5090  10.5091  10.5092  10.5092
    10.7898  10.7898  11.0706  11.0706  11.0707  11.0707  11.4054  11.4054
    13.2223  13.2224  13.2590  13.2590  13.2590  13.2591  13.4167  13.4167
    13.4777  13.4777  13.5739  13.5739  13.5756  13.5756  13.5756  13.5756
    13.6650  13.6650  13.8694  13.8694  14.0135  14.0135  14.0135  14.0136
    14.3529  14.3529  14.4519  14.4519  14.6929  14.6930  14.7008  14.7008
    14.7009  14.7009  15.2222  15.2223  15.2615  15.2615  15.2615  15.2615
    15.5118  15.5118  15.8429  15.8429  15.8429  15.8430  16.3614  16.3615
    17.1409  17.1410  17.1410  17.1410  17.7840  17.7840  17.8963  17.8964
    17.9278  17.9278  17.9279  17.9280  18.5390  18.5390  18.7568  18.7568
    18.8104  18.8105  19.0747  19.0747  19.4325  19.4326  19.4326  19.4326
    19.7380  19.7380  20.4339  20.4339  20.4340  20.4340  20.9323  20.9323
    21.2235  21.2236  22.3347  22.3347  22.3347  22.3347  22.8995  22.8995
    23.7039  23.7039  23.7039  23.7039  23.8184  23.8184  23.9128  23.9128
    24.4671  24.4672  25.0584  25.0584  25.1935  25.1935  25.1936  25.1936
    25.3367  25.3367  25.3927  25.3927  25.3927  25.3928  25.7335  25.7335
    26.8586  26.8587  27.4333  27.4333  27.4333  27.4333  27.6144  27.6144
    28.4014  28.4014  28.4014  28.4014  28.4394  28.4394  28.5919  28.5919
    28.8644  28.8644  28.8644  28.8644  28.9048  28.9048  28.9412  28.9412
    28.9666  28.9666  28.9666  28.9666  29.1982  29.1982  29.4350  29.4350
    29.6411  29.6411  29.6411  29.6411  29.8410  29.8411  29.9316  29.9316
    30.5035  30.5035  30.7816  30.7816  30.7816  30.7816  30.8955  30.8955
    30.9040  30.9040  30.9998  30.9998  31.9315  31.9316  31.9316  31.9316
    32.2817  32.2817  32.4622  32.4622  32.4622  32.4622  33.5189  33.5189
    33.5190  33.5190  33.6013  33.6013  33.6914  33.6914  34.3471  34.3472
    34.6697  34.6697  35.0407  35.0407  35.2621  35.2621  35.2621  35.2621
    36.0159  36.0159  36.4385  36.4385  36.4385  36.4385  36.4545  36.4545
    36.4883  36.4883  36.4883  36.4883  36.9507  36.9507  37.0034  37.0034
    37.0034  37.0034  37.4164  37.4164  37.5409  37.5409  37.6907  37.6907
    38.0673  38.0673  38.0673  38.0673  38.3119  38.3119  38.3357  38.3357
    38.7242  38.7242  38.8512  38.8512  39.0154  39.0154  39.2043  39.2043
    39.2043  39.2043  39.3468  39.3468  39.3545  39.3545  39.3545  39.3545
    39.7239  39.7239  39.8369  39.8369  40.1315  40.1315  40.2658  40.2658
    40.2658  40.2658  41.0237  41.0237  41.0237  41.0237  41.4223  41.4223
    41.5628  41.5628  41.9599  41.9599  41.9599  41.9599  42.0142  42.0142
    42.5351  42.5351  43.1428  43.1428  43.1428  43.1428  43.2988  43.2988
    43.4077  43.4077  43.4077  43.4077  43.4471  43.4471  43.5336  43.5336
    43.8369  43.8369  43.9983  43.9983  43.9984  43.9984  44.0751  44.0751
[...]
    48.2092  48.2092  48.2985  48.2985  48.4110  48.4111  48.4111  48.4111
    48.6447  48.6447  48.8334  48.8334  48.9447  48.9448  48.9448  48.9448
    49.0193  49.0193  49.1057  49.1057  49.1778  49.1778  49.1779  49.1779
    49.2070  49.2071  49.2912  49.2912  49.5972  49.5973  49.5973  49.5973
    49.6750  49.6750  49.7894  49.7894  49.7894  49.7894  49.9176  49.9176
    50.0934  50.0934  50.4780  50.4780  50.4780  50.4780  50.8704  50.8704
    50.8833  50.8833  50.8834  50.8834  51.1962  51.1962  51.7392  51.7392
    51.7393  51.7393  51.7425  51.7426  52.0856  52.0856  52.1361  52.1361
    52.1361  52.1361  52.3431  52.3431  52.3610  52.3610  52.3754  52.3754
    52.8627  52.8627  52.9411  52.9412  52.9412  52.9412  53.2448  53.2449
    53.2449  53.2449  53.4181  53.4181  53.6408  53.6408  53.8039  53.8039
    53.8039  53.8039  53.9103  53.9104  54.3200  54.3200  54.5985  54.5985
    54.9999  54.9999  54.9999  54.9999  55.1314  55.1314  55.2317  55.2317
    55.2317  55.2317  55.4321  55.4322  55.4660  55.4660  55.5072  55.5072
    56.0937  56.0937  56.0937  56.0937  56.2177  56.2177  56.4327  56.4327

     the Fermi energy is    14.7606 ev

!    total energy              =   -4148.32858584 Ry
     Harris-Foulkes estimate   =   -4148.32858598 Ry
     estimated scf accuracy    <       0.00000018 Ry

     The total energy is the sum of the following terms:

     one-electron contribution =   -1009.78035553 Ry
     hartree contribution      =     745.82429494 Ry
     xc contribution           =   -1140.45002178 Ry
     ewald contribution        =   -2743.92224506 Ry
     Hubbard energy            =       0.00000000 Ry
     smearing contrib. (-TS)   =      -0.00025840 Ry

     total magnetization       =     0.00 Bohr mag/cell
     absolute magnetization    =     0.00 Bohr mag/cell

     convergence has been achieved in  15 iterations

     Writing output data file pwscf.save

     General routines

     Parallel routines
     Hubbard U routines

   This run was terminated on:   8:54:23   9Feb2014

   JOB DONE.