     Program PWSCF v.5.0.2 (svn rev. 9656) starts on 27Apr2014 at  8: 6:53

     Current dimensions of program PWSCF are:
     Max number of different atomic species (ntypx) = 10
     Max number of k-points (npk) =  40000
     Max angular momentum in pseudopotentials (lmaxx) =  3
     Reading input from pwscf.in
Warning: card &CELL ignored
Warning: card / ignored

     Subspace diagonalization in iterative solution of the eigenvalue problem:
     a serial algorithm will be used

     bravais-lattice index     =            0
     lattice parameter (alat)  =      11.7919  a.u.
     unit-cell volume          =    7123.6633 (a.u.)^3
     number of atoms/cell      =           32
     number of atomic types    =            3
     number of electrons       =       247.00
     number of Kohn-Sham states=          358
     kinetic-energy cutoff     =      40.0000  Ry
     charge density cutoff     =     500.0000  Ry
     convergence threshold     =      1.0E-06
     mixing beta               =       0.7000
     number of iterations used =            8  plain     mixing
     Exchange-correlation      = SLA  PW   PBE  PBE ( 1 4 3 4 0)
     EXX-fraction              =        0.00
     nstep                     =           50

     celldm(1)=  11.791891  celldm(2)=   0.000000  celldm(3)=   0.000000
     celldm(4)=   0.000000  celldm(5)=   0.000000  celldm(6)=   0.000000

     crystal axes: (cart. coord. in units of alat)
               a(1) = (   1.000000   0.000000   0.000000 )
               a(2) = (   0.000000   1.026665   0.000000 )
               a(3) = (   0.000000   0.000000   4.231793 )

     reciprocal axes: (cart. coord. in units 2 pi/alat)
               b(1) = (  1.000000  0.000000  0.000000 )
               b(2) = (  0.000000  0.974028  0.000000 )
               b(3) = (  0.000000  0.000000  0.236306 )

     PseudoPot. # 1 for O  read from file:
     /home/camp/zhonxu/pseudo/o_pbe_v1.01.uspp.F.UPF
     MD5 check sum: 2bcb18d16ea4b960afae9ec6d52f22d2
     Pseudo is Ultrasoft + core correction, Zval =  6.0
     Generated by new atomic code, or converted to UPF format
     Using radial grid of  737 points,  5 beta functions with:
                l(1) =   0
                l(2) =   0
                l(3) =   1
                l(4) =   1
                l(5) =   2
     Q(r) pseudized with  8 coefficients,  rinner =    0.900   0.900   0.900
                                                       0.900   0.900

     PseudoPot. # 2 for Ru read from file:
     /home/camp/zhonxu/pseudo/ru_pbe_v1.uspp.F.UPF
     MD5 check sum: df00be1c11b23341d9806d8f1dfa10cf
     Pseudo is Ultrasoft + core correction, Zval = 16.0
     Generated by new atomic code, or converted to UPF format
     Using radial grid of  967 points,  6 beta functions with:
                l(1) =   0
                l(2) =   0
                l(3) =   1
                l(4) =   1
                l(5) =   2
                l(6) =   2
     Q(r) pseudized with  8 coefficients,  rinner =    1.300   1.300   1.300
                                                       1.300   1.300

     PseudoPot. # 3 for H  read from file:
     /home/camp/zhonxu/pseudo/h_pbe_v1.uspp.F.UPF
     MD5 check sum: 3408e3ff4ec8b0a4e358431e7e038a48
     Pseudo is Ultrasoft, Zval =  1.0
     Generated by new atomic code, or converted to UPF format
     Using radial grid of  615 points,  2 beta functions with:
                l(1) =   0
                l(2) =   0
     Q(r) pseudized with  8 coefficients,  rinner =    0.700

     atomic species   valence    mass     pseudopotential
        O0             6.00    15.99940     O ( 1.00)
        Ru1           16.00   101.07000     Ru( 1.00)
        H2             1.00     1.00794     H ( 1.00)

     Simplified LDA+U calculation (l_max = 2) with parameters (eV):
     atomic species    L          U    alpha       J0     beta
        Ru1            2     4.5000   0.0000   0.0000   0.0000

     No symmetry found

   Cartesian axes

     site n.     atom                  positions (alat units)
         1           O0  tau(   1) = (   0.0000000   0.0000000   1.6035109  )
         2           O0  tau(   2) = (   0.0000000   0.5133323   1.7058780  )
         3           Ru1 tau(   3) = (   0.2500000   0.5133323   1.9200491  )
         4           Ru1 tau(   4) = (   0.0000000   0.0000000   1.9171714  )
         5           O0  tau(   5) = (   0.2500000   0.8315984   1.9169175  )
         6           O0  tau(   6) = (   0.2500000   0.1950663   1.9164520  )
         7           O0  tau(   7) = (   0.0000000   0.5133323   2.1053593  )
         8           O0  tau(   8) = (   0.0000000   0.0000000   2.2310435  )
         9           Ru1 tau(   9) = (   0.2500000   0.0000000   2.4441566  )
        10           Ru1 tau(  10) = (   0.0000000   0.5133323   2.4052664  )
        11           O0  tau(  11) = (   0.2500000   0.7083986   2.4364547  )
        12           O0  tau(  12) = (   0.2500000   0.3182660   2.4361585  )
        13           O0  tau(  13) = (   0.0000000   0.0000000   2.6233307  )
        14           O0  tau(  14) = (   0.5000000   0.0000000   1.6045689  )
        15           O0  tau(  15) = (   0.5000000   0.5133323   1.7057934  )
        16           Ru1 tau(  16) = (   0.7500000   0.5133323   1.9200914  )
        17           Ru1 tau(  17) = (   0.5000000   0.0000000   1.9176369  )
        18           O0  tau(  18) = (   0.7500000   0.8315984   1.9167059  )
        19           O0  tau(  19) = (   0.7500000   0.1950663   1.9164520  )
        20           O0  tau(  20) = (   0.5000000   0.5133323   2.1229635  )
        21           O0  tau(  21) = (   0.5000000   0.0000000   2.2303664  )
        22           Ru1 tau(  22) = (   0.7500000   0.0000000   2.4441143  )
        23           Ru1 tau(  23) = (   0.5000000   0.5133323   2.4370472  )
        24           O0  tau(  24) = (   0.7500000   0.7083986   2.4343812  )
        25           O0  tau(  25) = (   0.7500000   0.3182660   2.4338310  )
        26           O0  tau(  26) = (   0.5000000   0.0000000   2.6134283  )
        27           H2  tau(  27) = (  -0.0002400   0.6455975   1.6183222  )
        28           H2  tau(  28) = (   0.4995500   0.6408954   1.6119322  )
        29           H2  tau(  29) = (   0.1457200   0.0328533   1.5514599  )
        30           H2  tau(  30) = (   0.6465200   0.0301223   1.5527294  )
        31           O0  tau(  31) = (   0.5138700   0.5107965   2.7447408  )
        32           H2  tau(  32) = (   0.3716000   0.5093694   2.8125765  )

     number of k points=    10  Methfessel-Paxton smearing, width (Ry)=  0.0100
                       cart. coord. in units 2pi/alat
        k(    1) = (   0.0000000   0.0000000   0.0000000), wk =   0.1250000
        k(    2) = (   0.0000000   0.2435070   0.0000000), wk =   0.2500000
        k(    3) = (   0.0000000  -0.4870139   0.0000000), wk =   0.1250000
        k(    4) = (   0.2500000   0.0000000   0.0000000), wk =   0.2500000
        k(    5) = (   0.2500000   0.2435070   0.0000000), wk =   0.2500000
        k(    6) = (   0.2500000  -0.4870139   0.0000000), wk =   0.2500000
        k(    7) = (  -0.5000000   0.0000000   0.0000000), wk =   0.1250000
        k(    8) = (  -0.5000000   0.2435070   0.0000000), wk =   0.2500000
        k(    9) = (  -0.5000000  -0.4870139   0.0000000), wk =   0.1250000
        k(   10) = (  -0.2500000   0.2435070   0.0000000), wk =   0.2500000

     Largest allocated arrays     est. size (Mb)     dimensions
     Largest temporary arrays     est. size (Mb)     dimensions

     Check: negative/imaginary core charge=   -0.000003    0.000000

     Initial potential from superposition of free atoms
     Check: negative starting charge=   -0.522051

     starting charge  238.99980, renormalised to  247.00000

     negative rho (up, down):  0.540E+00 0.000E+00
     Number of +U iterations with fixed ns =  0
     Starting occupations:
 --- enter write_ns ---
 LDA+U parameters:
U( 2)     =  4.50000000
alpha( 2) =  0.00000000
atom    3   Tr[ns(na)] =   6.00000
    eigenvalues:
  0.600  0.600  0.600  0.600  0.600
    eigenvectors:
  1.000  0.000  0.000  0.000  0.000
  0.000  1.000  0.000  0.000  0.000
  0.000  0.000  1.000  0.000  0.000
  0.000  0.000  0.000  1.000  0.000
  0.000  0.000  0.000  0.000  1.000
    occupations:
  0.600  0.000  0.000  0.000  0.000
  0.000  0.600  0.000  0.000  0.000
  0.000  0.000  0.600  0.000  0.000
  0.000  0.000  0.000  0.600  0.000
  0.000  0.000  0.000  0.000  0.600
atom    4   Tr[ns(na)] =   6.00000
    eigenvalues:
  0.600  0.600  0.600  0.600  0.600
    eigenvectors:
  1.000  0.000  0.000  0.000  0.000
  0.000  1.000  0.000  0.000  0.000
  0.000  0.000  1.000  0.000  0.000
  0.000  0.000  0.000  1.000  0.000
  0.000  0.000  0.000  0.000  1.000
    occupations:
  0.600  0.000  0.000  0.000  0.000
  0.000  0.600  0.000  0.000  0.000
  0.000  0.000  0.600  0.000  0.000
  0.000  0.000  0.000  0.600  0.000
  0.000  0.000  0.000  0.000  0.600
atom    9   Tr[ns(na)] =   6.00000
    eigenvalues:
  0.600  0.600  0.600  0.600  0.600
    eigenvectors:
  1.000  0.000  0.000  0.000  0.000
  0.000  1.000  0.000  0.000  0.000
  0.000  0.000  1.000  0.000  0.000
  0.000  0.000  0.000  1.000  0.000
  0.000  0.000  0.000  0.000  1.000
    occupations:
  0.600  0.000  0.000  0.000  0.000
  0.000  0.600  0.000  0.000  0.000
  0.000  0.000  0.600  0.000  0.000
  0.000  0.000  0.000  0.600  0.000
  0.000  0.000  0.000  0.000  0.600
atom   10   Tr[ns(na)] =   6.00000
    eigenvalues:
  0.600  0.600  0.600  0.600  0.600
    eigenvectors:
  1.000  0.000  0.000  0.000  0.000
  0.000  1.000  0.000  0.000  0.000
  0.000  0.000  1.000  0.000  0.000
  0.000  0.000  0.000  1.000  0.000
  0.000  0.000  0.000  0.000  1.000
    occupations:
  0.600  0.000  0.000  0.000  0.000
  0.000  0.600  0.000  0.000  0.000
  0.000  0.000  0.600  0.000  0.000
  0.000  0.000  0.000  0.600  0.000
  0.000  0.000  0.000  0.000  0.600
atom   16   Tr[ns(na)] =   6.00000
    eigenvalues:
  0.600  0.600  0.600  0.600  0.600
    eigenvectors:
  1.000  0.000  0.000  0.000  0.000
  0.000  1.000  0.000  0.000  0.000
  0.000  0.000  1.000  0.000  0.000
  0.000  0.000  0.000  1.000  0.000
  0.000  0.000  0.000  0.000  1.000
    occupations:
  0.600  0.000  0.000  0.000  0.000
  0.000  0.600  0.000  0.000  0.000
  0.000  0.000  0.600  0.000  0.000
  0.000  0.000  0.000  0.600  0.000
  0.000  0.000  0.000  0.000  0.600
atom   17   Tr[ns(na)] =   6.00000
    eigenvalues:
  0.600  0.600  0.600  0.600  0.600
    eigenvectors:
  1.000  0.000  0.000  0.000  0.000
  0.000  1.000  0.000  0.000  0.000
  0.000  0.000  1.000  0.000  0.000
  0.000  0.000  0.000  1.000  0.000
  0.000  0.000  0.000  0.000  1.000
    occupations:
  0.600  0.000  0.000  0.000  0.000
  0.000  0.600  0.000  0.000  0.000
  0.000  0.000  0.600  0.000  0.000
  0.000  0.000  0.000  0.600  0.000
  0.000  0.000  0.000  0.000  0.600
atom   22   Tr[ns(na)] =   6.00000
    eigenvalues:
  0.600  0.600  0.600  0.600  0.600
    eigenvectors:
  1.000  0.000  0.000  0.000  0.000
  0.000  1.000  0.000  0.000  0.000
  0.000  0.000  1.000  0.000  0.000
  0.000  0.000  0.000  1.000  0.000
  0.000  0.000  0.000  0.000  1.000
[...]
  0.008  0.846  0.003  0.140  0.004
  0.000  0.000  0.001  0.026  0.974
    occupations:
  0.783 -0.004 -0.004 -0.078  0.005
 -0.004  0.575  0.002  0.003  0.000
 -0.004  0.002  0.786  0.001  0.001
 -0.078  0.003  0.001  0.626 -0.002
  0.005  0.000  0.001 -0.002  0.848
atom   10   Tr[ns(na)] =   7.26182
    eigenvalues:
  0.526  0.531  0.758  0.836  0.980
    eigenvectors:
  0.987  0.000  0.000  0.000  0.013
  0.000  0.000  0.000  0.999  0.000
  0.000  0.000  1.000  0.000  0.000
  0.013  0.000  0.000  0.000  0.987
  0.000  1.000  0.000  0.000  0.000
    occupations:
  0.532 -0.005  0.001  0.051 -0.000
 -0.005  0.836  0.001  0.003  0.000
  0.001  0.001  0.758 -0.001  0.002
  0.051  0.003 -0.001  0.974  0.000
 -0.000  0.000  0.002  0.000  0.531
atom   16   Tr[ns(na)] =   7.24072
    eigenvalues:
  0.508  0.552  0.687  0.897  0.977
    eigenvectors:
  0.000  0.180  0.008  0.001  0.811
  0.999  0.000  0.000  0.000  0.000
  0.000  0.002  0.955  0.027  0.015
  0.000  0.818  0.009  0.000  0.173
  0.000  0.000  0.028  0.972  0.000
    occupations:
  0.898 -0.006  0.034 -0.160 -0.004
 -0.006  0.508 -0.004  0.003 -0.006
  0.034 -0.004  0.696 -0.009  0.034
 -0.160  0.003 -0.009  0.627  0.000
 -0.004 -0.006  0.034  0.000  0.891
atom   17   Tr[ns(na)] =   7.23080
    eigenvalues:
  0.553  0.608  0.652  0.819  0.984
    eigenvectors:
  0.001  0.986  0.000  0.000  0.013
  0.000  0.000  0.015  0.985  0.000
  0.000  0.000  0.985  0.015  0.000
  0.000  0.013  0.000  0.000  0.987
  0.999  0.001  0.000  0.000  0.000
    occupations:
  0.613 -0.001  0.000  0.043  0.002
 -0.001  0.817  0.020 -0.001 -0.002
  0.000  0.020  0.654  0.001  0.000
  0.043 -0.001  0.001  0.979  0.000
  0.002 -0.002  0.000  0.000  0.553
atom   22   Tr[ns(na)] =   7.25310
    eigenvalues:
  0.562  0.587  0.737  0.846  0.896
    eigenvectors:
  0.000  0.147  0.000  0.015  0.837
  1.000  0.000  0.000  0.000  0.000
  0.000  0.000  0.999  0.001  0.000
  0.000  0.852  0.000  0.002  0.145
  0.000  0.000  0.001  0.982  0.017
    occupations:
  0.850  0.004 -0.002 -0.109  0.005
  0.004  0.562  0.001 -0.002  0.000
 -0.002  0.001  0.737  0.001 -0.003
 -0.109 -0.002  0.001  0.632 -0.004
  0.005  0.000 -0.003 -0.004  0.847
atom   23   Tr[ns(na)] =   7.22741
    eigenvalues:
  0.551  0.610  0.629  0.850  0.973
    eigenvectors:
  0.000  0.980  0.005  0.001  0.015
  0.000  0.001  0.000  0.999  0.000
  0.000  0.005  0.994  0.000  0.000
  0.000  0.015  0.000  0.000  0.985
  1.000  0.000  0.000  0.000  0.000
    occupations:
  0.616  0.006 -0.001  0.044  0.000
  0.006  0.850  0.004 -0.002  0.000
 -0.001  0.004  0.629  0.001 -0.001
  0.044 -0.002  0.001  0.968 -0.000
  0.000  0.000 -0.001 -0.000  0.551
N of occupied +U levels =  57.9264099
 --- exit write_ns ---

     Threshold (ethr) on eigenvalues was too large:
     Diagonalizing with lowered threshold

     Davidson diagonalization with overlap
     ethr =  1.44E-08,  avg # of iterations =  2.9

[...]

     total energy              =   -2162.34320143 Ry
     Harris-Foulkes estimate   =   -2162.34320144 Ry
     estimated scf accuracy    <       0.00000002 Ry

     iteration # 21     ecut=    40.00 Ry     beta=0.70
     Davidson diagonalization with overlap
     ethr =  9.96E-12,  avg # of iterations =  1.0

     negative rho (up, down):  0.574E+00 0.000E+00

     End of self-consistent calculation
 --- enter write_ns ---
 LDA+U parameters:
U( 2)     =  4.50000000
alpha( 2) =  0.00000000
atom    3   Tr[ns(na)] =   7.23735
    eigenvalues:
  0.509  0.553  0.681  0.898  0.977
    eigenvectors:
  0.000  0.180  0.009  0.001  0.811
  0.999  0.000  0.000  0.000  0.000
  0.000  0.003  0.961  0.019  0.017
  0.000  0.818  0.010  0.000  0.172
  0.000  0.000  0.020  0.979  0.000
    occupations:
  0.899  0.006  0.036 -0.160  0.003
  0.006  0.509  0.004 -0.003 -0.007
  0.036  0.004  0.690 -0.010 -0.030
 -0.160 -0.003 -0.010  0.628 -0.000
  0.003 -0.007 -0.030 -0.000  0.893
atom    4   Tr[ns(na)] =   7.23751
    eigenvalues:
  0.552  0.604  0.661  0.818  0.983
    eigenvectors:
  0.002  0.985  0.000  0.000  0.013
  0.000  0.000  0.032  0.968  0.000
  0.000  0.000  0.968  0.032  0.000
  0.000  0.013  0.000  0.000  0.987
  0.998  0.002  0.000  0.000  0.000
    occupations:
  0.609  0.000 -0.000  0.043  0.002
  0.000  0.813  0.028 -0.001 -0.001
 -0.000  0.028  0.666  0.001 -0.000
  0.043 -0.001  0.001  0.978  0.000
  0.002 -0.001 -0.000  0.000  0.552
atom    9   Tr[ns(na)] =   7.23843
    eigenvalues:
  0.575  0.594  0.786  0.815  0.849
    eigenvectors:
  0.000  0.147  0.014  0.817  0.022
  0.992  0.007  0.000  0.000  0.000
  0.000  0.000  0.983  0.017  0.000
  0.008  0.846  0.003  0.140  0.004
  0.000  0.000  0.000  0.025  0.974
    occupations:
  0.783 -0.004 -0.004 -0.078  0.005
 -0.004  0.575  0.002  0.003  0.000
 -0.004  0.002  0.787  0.001  0.001
 -0.078  0.003  0.001  0.627 -0.002
  0.005  0.000  0.001 -0.002  0.848
atom   10   Tr[ns(na)] =   7.26369
    eigenvalues:
  0.526  0.531  0.758  0.837  0.980
    eigenvectors:
  0.987  0.000  0.000  0.000  0.013
  0.000  0.000  0.000  0.999  0.000
  0.000  0.000  1.000  0.000  0.000
  0.013  0.000  0.000  0.000  0.987
  0.000  1.000  0.000  0.000  0.000
    occupations:
  0.532 -0.005  0.001  0.051 -0.000
 -0.005  0.837  0.001  0.003  0.000
  0.001  0.001  0.758 -0.001  0.002
  0.051  0.003 -0.001  0.974  0.000
 -0.000  0.000  0.002  0.000  0.531
atom   16   Tr[ns(na)] =   7.23977
    eigenvalues:
  0.508  0.552  0.686  0.897  0.977
    eigenvectors:
  0.000  0.180  0.008  0.001  0.811
  0.999  0.000  0.000  0.000  0.000
  0.000  0.002  0.955  0.027  0.015
  0.000  0.818  0.009  0.000  0.173
  0.000  0.000  0.028  0.972  0.000
    occupations:
  0.898 -0.006  0.034 -0.160 -0.004
 -0.006  0.508 -0.004  0.003 -0.006
  0.034 -0.004  0.696 -0.009  0.034
 -0.160  0.003 -0.009  0.627  0.000
 -0.004 -0.006  0.034  0.000  0.891
atom   17   Tr[ns(na)] =   7.23067
    eigenvalues:
  0.553  0.608  0.651  0.819  0.984
    eigenvectors:
  0.001  0.986  0.000  0.000  0.013
  0.000  0.000  0.015  0.985  0.000
  0.000  0.000  0.985  0.015  0.000
  0.000  0.013  0.000  0.000  0.987
  0.999  0.001  0.000  0.000  0.000
    occupations:
  0.613 -0.001  0.000  0.043  0.002
 -0.001  0.817  0.020 -0.001 -0.002
  0.000  0.020  0.654  0.001  0.000
  0.043 -0.001  0.001  0.979  0.000
  0.002 -0.002  0.000  0.000  0.553
atom   22   Tr[ns(na)] =   7.25094
    eigenvalues:
  0.561  0.587  0.736  0.846  0.896
    eigenvectors:
  0.000  0.147  0.000  0.015  0.838
  1.000  0.000  0.000  0.000  0.000
  0.000  0.000  0.999  0.001  0.000
  0.000  0.852  0.000  0.002  0.145
  0.000  0.000  0.001  0.982  0.017
    occupations:
  0.850  0.004 -0.002 -0.109  0.005
  0.004  0.562  0.001 -0.002  0.000
 -0.002  0.001  0.736  0.001 -0.003
 -0.109 -0.002  0.001  0.632 -0.004
  0.005  0.000 -0.003 -0.004  0.846
atom   23   Tr[ns(na)] =   7.22866
    eigenvalues:
  0.551  0.611  0.629  0.851  0.973
    eigenvectors:
  0.000  0.980  0.005  0.001  0.015
  0.000  0.001  0.000  0.999  0.000
  0.000  0.005  0.995  0.000  0.000
  0.000  0.015  0.000  0.000  0.985
  1.000  0.000  0.000  0.000  0.000
    occupations:
  0.616  0.006 -0.001  0.044  0.000
  0.006  0.850  0.004 -0.002  0.000
 -0.001  0.004  0.629  0.001 -0.001
  0.044 -0.002  0.001  0.968 -0.000
  0.000  0.000 -0.001 -0.000  0.551
N of occupied +U levels =  57.9270265
 --- exit write_ns ---

[...]

          k = 0.2500-0.4870 0.0000 ( 30468 PWs)   bands (ev):

[...]

          k =-0.2500 0.2435 0.0000 ( 30434 PWs)   bands (ev):

   -74.0935 -73.9560 -73.9119 -73.8825 -73.8565 -73.6284 -73.4328 -73.4117
   -44.2491 -44.2416 -44.2290 -44.1779 -44.0481 -44.0415 -44.0283 -43.9863
   -43.9018 -43.8850 -43.8230 -43.7787 -43.7757 -43.7511 -43.6980 -43.6657
   -43.6412 -43.6158 -43.5643 -43.4767 -43.4324 -43.3869 -43.2402 -43.1384
   -20.8278 -20.4056 -20.3332 -20.2180 -20.1390 -19.9490 -19.8441 -19.8268
   -19.7031 -19.6729 -19.6360 -19.3912 -19.3541 -19.3502 -19.2869 -19.2127
   -19.1525 -19.0923 -18.8675  -9.3223  -8.9298  -8.8734  -8.6691  -8.5590
    -8.4730  -8.4175  -8.2652  -7.9818  -7.8582  -7.7591  -7.7203  -7.6115
    -7.5477  -7.4961  -7.4690  -7.3626  -7.2909  -7.0232  -6.8851  -6.7666
    -6.5222  -6.4710  -6.3082  -6.1566  -6.0546  -6.0078  -5.8481  -5.7245
    -5.6511  -5.5818  -5.4982  -5.4745  -5.3332  -5.1674  -5.1101  -5.0816
    -5.0113  -4.9351  -4.8642  -4.8209  -4.6306  -4.5057  -4.3834  -4.2473
    -4.1623  -4.1388  -4.0659  -3.9147  -3.8551  -3.6800  -3.5929  -3.5022
    -3.2211  -3.1764  -3.0775  -2.8695  -2.6526  -2.4745  -2.4389  -2.3838
    -2.3559  -2.2135  -2.1603  -2.0843  -2.0615  -1.9499  -1.8708  -1.8371
    -1.6633  -1.5885  -1.3288  -1.1475  -0.9830  -0.6565  -0.5686  -0.4907
    -0.3480  -0.3186  -0.1664   0.1308   0.9804   1.6830   1.8434   1.8884
     2.0659   2.5019   2.7789   2.9667   3.2467   3.3357   3.4309   3.4988
     3.5770   3.6350   3.8887   3.9626   4.0788   4.4388   4.7034   5.1404
     5.5832   5.7021   5.7952   6.0918   6.3796   6.4977   6.6020   6.6608
     6.8504   6.9789   7.0231   7.2607   7.5275   7.7051   7.8793   7.9523
     8.0798   8.2880   8.3649   8.4967   8.5698   8.6094   8.7385   8.8240
     8.9403   9.1239   9.2091   9.3565   9.4403   9.5681   9.6640   9.8654
     9.9541  10.0409  10.1172  10.1492  10.2205  10.3351  10.3768  10.4614
    10.5432  10.6541  10.7491  10.9000  10.9155  10.9735  11.1181  11.3099
    11.3801  11.4254  11.5778  11.5880  11.6487  11.8059  11.8602  11.8838
    11.9794  12.0557  12.1113  12.1830  12.2712  12.3830  12.4148  12.5272
    12.5696  12.6300  12.7338  12.7736  12.7807  12.8914  12.9681  13.0118
    13.1013  13.1615  13.2126  13.3332  13.4021  13.4883  13.6298  13.6752
    13.7431  13.8415  13.9442  14.0516  14.1090  14.2136  14.2556  14.3429
    14.4096  14.5558  14.5902  14.6303  14.7041  14.7924  14.9147  14.9406
    15.0003  15.1454  15.1684  15.2438  15.3298  15.4080  15.5336  15.5673
    15.6282  15.7233  15.7783  15.8374  15.8670  15.8978  15.9463  16.0372
    16.0901  16.1494  16.2201  16.2791  16.3116  16.3656  16.4878  16.5371
    16.6287  16.7015  16.7491  16.8258  16.8870  16.9068  16.9593  17.0750
    17.1608  17.2119  17.3105  17.3730  17.4598  17.4774  17.5065  17.5498
    17.6321  17.6703  17.7504  17.8030  17.8624  17.9295  17.9938  18.0580
    18.1354  18.1809  18.2298  18.2987  18.3327  18.4438  18.5588  18.6135
    18.6854  18.7848  18.8338  18.8841  18.9515  19.0234  19.1039  19.1856
    19.2142  19.3006  19.4179  19.4525  19.5047  19.6634  19.7196  19.7559
    19.7836  19.8632  19.9705  20.0043  20.1226  20.2391  20.2957  20.3886
    20.4327  20.5532  20.6446  20.7230  20.7639  20.8337  20.8873  20.9557
    20.9854  21.0429  21.1208  21.2231  21.2616  21.3154  21.3269  21.3963
    21.4492  21.4944  21.5551  21.6047  21.6726  21.7503  21.8458  21.9130
    21.9501  21.9835  22.0016  22.0676  22.1404  22.2433

     the Fermi energy is    -1.1310 ev

!    total energy              =   -2162.34320143 Ry
     Harris-Foulkes estimate   =   -2162.34320144 Ry
     estimated scf accuracy    <          8.9E-09 Ry

     The total energy is the sum of the following terms:

     one-electron contribution =  -25274.23368912 Ry
     hartree contribution      =   12662.21923333 Ry
     xc contribution           =    -338.66338901 Ry
     ewald contribution        =   10786.03241087 Ry
     Hubbard energy            =       2.30142461 Ry
     smearing contrib. (-TS)   =       0.00080789 Ry

     convergence has been achieved in  21 iterations

     Forces acting on atoms (Ry/au):

     negative rho (up, down):  0.574E+00 0.000E+00
     atom    1 type  1   force =    -0.00555861   -0.00920279   -0.00036522
     atom    2 type  1   force =     0.00070306    0.00387728   -0.00036146
     atom    3 type  2   force =     0.01721132    0.00240710   -0.00009362
     atom    4 type  2   force =     0.00198614    0.00535222   -0.00000694
     atom    5 type  1   force =     0.00093330   -0.03951923    0.00055236
     atom    6 type  1   force =     0.00286923    0.04049869    0.00049455
     atom    7 type  1   force =     0.00216011   -0.00251562   -0.00073099
     atom    8 type  1   force =     0.00873792   -0.00243845   -0.00025709
     atom    9 type  2   force =    -0.01671010    0.00240768   -0.00018115
     atom   10 type  2   force =    -0.00665614   -0.00091119   -0.00062466
     atom   11 type  1   force =    -0.01103896    0.01451765    0.00001543
     atom   12 type  1   force =    -0.01228812   -0.01534896   -0.00003616
     atom   13 type  1   force =     0.00893826   -0.00029362    0.00023826
     atom   14 type  1   force =    -0.00382034   -0.00716610   -0.00015607
     atom   15 type  1   force =     0.00001999    0.00286267    0.00009879
     atom   16 type  2   force =    -0.01796120    0.00514558   -0.00016326
     atom   17 type  2   force =     0.00274300    0.00448232    0.00005351
     atom   18 type  1   force =    -0.00065460   -0.03912610    0.00059765
     atom   19 type  1   force =     0.00372579    0.03745742    0.00051106
     atom   20 type  1   force =    -0.00307154   -0.00329059    0.00069154
     atom   21 type  1   force =    -0.00910301   -0.00016792   -0.00052655
     atom   22 type  2   force =     0.01219573    0.00200148    0.00015276
     atom   23 type  2   force =     0.00366228    0.00102940    0.00019770
     atom   24 type  1   force =     0.01352982    0.02068102    0.00015376
     atom   25 type  1   force =     0.01438752   -0.02118873    0.00010495
     atom   26 type  1   force =    -0.00743629   -0.00138946    0.00019749
     atom   27 type  3   force =     0.00003484    0.00038413    0.00003076
     atom   28 type  3   force =     0.00001820   -0.00011202   -0.00023458
     atom   29 type  3   force =     0.00009031   -0.00002256   -0.00030593
     atom   30 type  3   force =    -0.00002122   -0.00005462   -0.00030947
     atom   31 type  1   force =     0.00001441   -0.00019424    0.00003110
     atom   32 type  3   force =     0.00035889   -0.00016246    0.00023150

     Total force =     0.002036     Total SCF correction =     0.000185

     bfgs converged in  18 scf cycles and  17 bfgs steps
     (criteria: energy < 0.10E-03, force < 0.10E-02)

     End of BFGS Geometry Optimization

     Final energy   =   -2162.3432014286 Ry
Begin final coordinates

ATOMIC_POSITIONS (crystal)
O0       0.000000000   0.000000000   0.380424752    0   0   1
O0       0.000000000   0.500000000   0.402245388    0   0   1
Ru1      0.250000000   0.500000000   0.453254996    0   0   1
Ru1      0.000000000   0.000000000   0.454003537    0   0   1
O0       0.250000000   0.810000000   0.453564135    0   0   1
O0       0.250000000   0.190000000   0.453325610    0   0   1
O0       0.000000000   0.500000000   0.498475426    0   0   1
O0       0.000000000   0.000000000   0.526765740    0   0   1
Ru1      0.250000000   0.000000000   0.578576325    0   0   1
Ru1      0.000000000   0.500000000   0.568326127    0   0   1
O0       0.250000000   0.690000000   0.575524021    0   0   1
O0       0.250000000   0.310000000   0.575626163    0   0   1
O0       0.000000000   0.000000000   0.619771452    0   0   1
O0       0.500000000   0.000000000   0.380562605    0   0   1
O0       0.500000000   0.500000000   0.404021127    0   0   1
Ru1      0.750000000   0.500000000   0.453257166    0   0   1
Ru1      0.500000000   0.000000000   0.454048307    0   0   1
O0       0.750000000   0.810000000   0.453556572    0   0   1
O0       0.750000000   0.190000000   0.453402062    0   0   1
O0       0.500000000   0.500000000   0.502013084    0   0   1
O0       0.500000000   0.000000000   0.526722669    0   0   1
Ru1      0.750000000   0.000000000   0.576465012    0   0   1
Ru1      0.500000000   0.500000000   0.575162638    0   0   1
O0       0.750000000   0.690000000   0.574031841    0   0   1
O0       0.750000000   0.310000000   0.573880218    0   0   1
O0       0.500000000   0.000000000   0.617750176    0   0   1
H2      -0.000457799   0.627858930   0.381447396
H2       0.499266293   0.611724402   0.378420704
H2       0.145684213   0.031124195   0.367907810
H2       0.646996825   0.025924016   0.368116902
O0       0.516225498   0.498068968   0.647314325
H2       0.375056753   0.494113203   0.663855714
End final coordinates

     General routines

     Parallel routines
     Hubbard U routines

   This run was terminated on:   9:13:21  28Apr2014

   JOB DONE.
Running PBS batch system epilogue script
Job id: 340459.audhumbla.fysik.dtu.dk
Username: zhonxu
Groupname: campgst
Jobname: RuO2/Eads-2-layers/OH-U-4.5
Sessionid: 12038
Queuename: verylong
Accounting:
This job has allocated the following 16 nodes:
a011 a011 a011 a011 a011 a011 a011 a011 a003 a003 a003 a003 a003 a003 a003 a003
Finished epilogue job 340459.audhumbla.fysik.dtu.dk for zhonxu