     Program PWSCF v.5.0.2 (svn rev. 9656) starts on 24Jan2014 at 14:51:51

     Current dimensions of program PWSCF are:
     Max number of different atomic species (ntypx) = 10
     Max number of k-points (npk) =  40000
     Max angular momentum in pseudopotentials (lmaxx) =  3
     Reading input from CrO2-v-1.10.in

     Subspace diagonalization in iterative solution of the eigenvalue problem:
     a serial algorithm will be used

     bravais-lattice index     =            0
     lattice parameter (alat)  =       8.7328  a.u.
     unit-cell volume          =     429.1853 (a.u.)^3
     number of atoms/cell      =            6
     number of atomic types    =            2
     number of electrons       =        52.00
     number of Kohn-Sham states=           75
     kinetic-energy cutoff     =      40.0000  Ry
     charge density cutoff     =     500.0000  Ry
     convergence threshold     =      1.0E-06
     mixing beta               =       0.3000
     number of iterations used =            8  plain     mixing
     Exchange-correlation      = SLA  PW   PBE  PBE ( 1 4 3 4 0)
     EXX-fraction              =        0.00
     nstep                     =           50

     celldm(1)=   8.732792  celldm(2)=   0.000000  celldm(3)=   0.000000
     celldm(4)=   0.000000  celldm(5)=   0.000000  celldm(6)=   0.000000

     crystal axes: (cart. coord. in units of alat)
               a(1) = (   1.000000   0.000000   0.000000 )
               a(2) = (   0.000000   1.000000   0.000000 )
               a(3) = (   0.000000   0.000000   0.644444 )

     reciprocal axes: (cart. coord. in units 2 pi/alat)
               b(1) = (  1.000000  0.000000  0.000000 )
               b(2) = (  0.000000  1.000000  0.000000 )
               b(3) = (  0.000000  0.000000  1.551724 )

     PseudoPot. # 1 for Cr read from file:
     /home/camp/zhonxu/pseudo/cr_pbe_v1.uspp.F.UPF
     MD5 check sum: 68b6f918d1762dccfb11451fe85b0e0e
     Pseudo is Ultrasoft + core correction, Zval = 14.0
     Generated by new atomic code, or converted to UPF format
     Using radial grid of  857 points,  6 beta functions with:
                l(1) =   0
                l(2) =   0
                l(3) =   1
                l(4) =   1
                l(5) =   2
                l(6) =   2
     Q(r) pseudized with  6 coefficients,  rinner =    1.000   1.000   1.000
                                                       1.000   1.000

     PseudoPot. # 2 for O  read from file:
     /home/camp/zhonxu/pseudo/o_pbe_v1.01.uspp.F.UPF
     MD5 check sum: 2bcb18d16ea4b960afae9ec6d52f22d2
     Pseudo is Ultrasoft + core correction, Zval =  6.0
     Generated by new atomic code, or converted to UPF format
     Using radial grid of  737 points,  5 beta functions with:
                l(1) =   0
                l(2) =   0
                l(3) =   1
                l(4) =   1
                l(5) =   2
     Q(r) pseudized with  8 coefficients,  rinner =    0.900   0.900   0.900
                                                       0.900   0.900

     atomic species   valence    mass     pseudopotential
        Cr0           14.00    51.99600     Cr( 1.00)
        O1             6.00    15.99940     O ( 1.00)

     Starting magnetic structure
     atomic species   magnetization
        Cr0          0.000
        O1           0.000

      8 Sym. Ops., with inversion, found
          (note:  8 additional sym.ops. were found but ignored
           their fractional translations are incommensurate with FFT grid)

   Cartesian axes

     site n.     atom                  positions (alat units)
         1           Cr0 tau(   1) = (   0.0000000   0.0000000   0.0000000  )
         2           Cr0 tau(   2) = (   0.5000000   0.5000000   0.3222222  )
         3           O1  tau(   3) = (   0.3050000   0.3050000   0.0000000  )
         4           O1  tau(   4) = (  -0.3050000  -0.3050000   0.0000000  )
         5           O1  tau(   5) = (   0.8050000   0.1950000   0.3222222  )
         6           O1  tau(   6) = (   0.1950000   0.8050000   0.3222222  )

     number of k points=    54  Methfessel-Paxton smearing, width (Ry)=  0.0100
                       cart. coord. in units 2pi/alat
        k(    1) = (   0.0000000   0.0000000   0.0000000), wk =   0.0080000
        k(    2) = (   0.0000000   0.0000000   0.3103448), wk =   0.0160000
        k(    3) = (   0.0000000   0.0000000   0.6206897), wk =   0.0160000
        k(    4) = (   0.0000000   0.2000000   0.0000000), wk =   0.0320000
        k(    5) = (   0.0000000   0.2000000   0.3103448), wk =   0.0640000
        k(    6) = (   0.0000000   0.2000000   0.6206897), wk =   0.0640000
        k(    7) = (   0.0000000   0.4000000   0.0000000), wk =   0.0320000
        k(    8) = (   0.0000000   0.4000000   0.3103448), wk =   0.0640000
        k(    9) = (   0.0000000   0.4000000   0.6206897), wk =   0.0640000
        k(   10) = (   0.2000000   0.2000000   0.0000000), wk =   0.0160000
        k(   11) = (   0.2000000   0.2000000   0.3103448), wk =   0.0320000
        k(   12) = (   0.2000000   0.2000000   0.6206897), wk =   0.0320000
        k(   13) = (   0.2000000   0.4000000   0.0000000), wk =   0.0320000
        k(   14) = (   0.2000000   0.4000000   0.3103448), wk =   0.0640000
        k(   15) = (   0.2000000   0.4000000   0.6206897), wk =   0.0640000
        k(   16) = (   0.4000000   0.4000000   0.0000000), wk =   0.0160000
        k(   17) = (   0.4000000   0.4000000   0.3103448), wk =   0.0320000
        k(   18) = (   0.4000000   0.4000000   0.6206897), wk =   0.0320000
        k(   19) = (  -0.2000000   0.2000000   0.0000000), wk =   0.0160000
        k(   20) = (  -0.2000000   0.2000000  -0.3103448), wk =   0.0320000
        k(   21) = (  -0.2000000   0.2000000  -0.6206897), wk =   0.0320000
        k(   22) = (  -0.2000000   0.4000000   0.0000000), wk =   0.0320000
        k(   23) = (  -0.2000000   0.4000000  -0.3103448), wk =   0.0640000
        k(   24) = (  -0.2000000   0.4000000  -0.6206897), wk =   0.0640000
        k(   25) = (  -0.4000000   0.4000000   0.0000000), wk =   0.0160000
        k(   26) = (  -0.4000000   0.4000000  -0.3103448), wk =   0.0320000
        k(   27) = (  -0.4000000   0.4000000  -0.6206897), wk =   0.0320000
        k(   28) = (   0.0000000   0.0000000   0.0000000), wk =   0.0080000
        k(   29) = (   0.0000000   0.0000000   0.3103448), wk =   0.0160000
        k(   30) = (   0.0000000   0.0000000   0.6206897), wk =   0.0160000
        k(   31) = (   0.0000000   0.2000000   0.0000000), wk =   0.0320000
        k(   32) = (   0.0000000   0.2000000   0.3103448), wk =   0.0640000
        k(   33) = (   0.0000000   0.2000000   0.6206897), wk =   0.0640000
        k(   34) = (   0.0000000   0.4000000   0.0000000), wk =   0.0320000
        k(   35) = (   0.0000000   0.4000000   0.3103448), wk =   0.0640000
        k(   36) = (   0.0000000   0.4000000   0.6206897), wk =   0.0640000
        k(   37) = (   0.2000000   0.2000000   0.0000000), wk =   0.0160000
        k(   38) = (   0.2000000   0.2000000   0.3103448), wk =   0.0320000
        k(   39) = (   0.2000000   0.2000000   0.6206897), wk =   0.0320000
        k(   40) = (   0.2000000   0.4000000   0.0000000), wk =   0.0320000
        k(   41) = (   0.2000000   0.4000000   0.3103448), wk =   0.0640000
        k(   42) = (   0.2000000   0.4000000   0.6206897), wk =   0.0640000
        k(   43) = (   0.4000000   0.4000000   0.0000000), wk =   0.0160000
        k(   44) = (   0.4000000   0.4000000   0.3103448), wk =   0.0320000
        k(   45) = (   0.4000000   0.4000000   0.6206897), wk =   0.0320000
        k(   46) = (  -0.2000000   0.2000000   0.0000000), wk =   0.0160000
        k(   47) = (  -0.2000000   0.2000000  -0.3103448), wk =   0.0320000
        k(   48) = (  -0.2000000   0.2000000  -0.6206897), wk =   0.0320000
        k(   49) = (  -0.2000000   0.4000000   0.0000000), wk =   0.0320000
        k(   50) = (  -0.2000000   0.4000000  -0.3103448), wk =   0.0640000
        k(   51) = (  -0.2000000   0.4000000  -0.6206897), wk =   0.0640000
        k(   52) = (  -0.4000000   0.4000000   0.0000000), wk =   0.0160000
        k(   53) = (  -0.4000000   0.4000000  -0.3103448), wk =   0.0320000
        k(   54) = (  -0.4000000   0.4000000  -0.6206897), wk =   0.0320000

     Largest allocated arrays     est. size (Mb)     dimensions
     Largest temporary arrays     est. size (Mb)     dimensions

     Check: negative/imaginary core charge=   -0.000031    0.000000

     Initial potential from superposition of free atoms

     starting charge   49.99997, renormalised to   52.00000
     Starting wfc are   36 randomized atomic wfcs

     Self-consistent Calculation

     iteration #  1     ecut=    40.00 Ry     beta=0.30
     Davidson diagonalization with overlap
     ethr =  1.00E-02,  avg # of iterations =  5.1

     total energy              =    -480.47540144 Ry
     Harris-Foulkes estimate   =    -481.40326220 Ry
     estimated scf accuracy    <       1.97542434 Ry

     total magnetization       =     0.00 Bohr mag/cell
     absolute magnetization    =     0.00 Bohr mag/cell

[...]

     End of self-consistent calculation

 ------ SPIN UP ------------

          k = 0.0000 0.0000 0.0000 (  1859 PWs)   bands (ev):

   -63.5955 -63.5926 -34.9406 -34.9314 -34.8394 -34.8393 -34.8027 -34.8027
   -10.2252  -8.8304  -8.5135  -8.5135   2.0953   2.8669   3.4632   4.2297
     4.2297   5.2943   5.2943   5.8310   7.2620   7.6401   7.6401   7.9619
     8.5252   8.7377   8.8588   8.8589   9.0158  10.3618  10.7037  12.5567
    12.5567  13.3019  15.7210  19.5371  19.5371  22.6120  22.6260  23.5901
    25.0295  26.4378  26.4378  27.5120  28.1426  30.7696  32.2476  32.2477
    32.2766  33.3711  33.3711  33.7461  34.0406  34.0406  34.3740  35.6811
    37.0983  37.6800  39.9734  40.3108  40.3108  40.5705  40.5705  42.3644
    43.7310  44.3468  44.3468  45.6885  47.0247  47.1051  47.1051  47.2677
    47.8601  49.0452  49.5357

[...]

          k =-0.2000 0.2000 0.0000 (  1827 PWs)   bands (ev):

[...]

 ------ SPIN DOWN ----------

[...]

     the Fermi energy is     9.1914 ev

!    total energy              =    -481.04168796 Ry
     Harris-Foulkes estimate   =    -481.04168755 Ry
     estimated scf accuracy    <       0.00000006 Ry

     The total energy is the sum of the following terms:

     one-electron contribution =    -223.42964285 Ry
     hartree contribution      =     134.67019401 Ry
     xc contribution           =     -73.76105295 Ry
     ewald contribution        =    -318.52100319 Ry
     smearing contrib. (-TS)   =      -0.00018299 Ry

[...]

     convergence has been achieved in  13 iterations

     Forces acting on atoms (Ry/au):

     atom    1 type  1   force =     0.00000000    0.00000000    0.00000000
     atom    2 type  1   force =     0.00000000    0.00000000    0.00000000
     atom    3 type  2   force =    -0.00507683   -0.00507683    0.00000000
     atom    4 type  2   force =     0.00507683    0.00507683    0.00000000
     atom    5 type  2   force =    -0.00508665    0.00508665    0.00000000
     atom    6 type  2   force =     0.00508665   -0.00508665   -0.00000000

[...]
        k(    4) = (  -0.0000028   0.1942373   0.0000000), wk =   0.0320000
        k(    5) = (  -0.0000028   0.1942373   0.3290328), wk =   0.0640000
        k(    6) = (  -0.0000028   0.1942373   0.6580657), wk =   0.0640000
        k(    7) = (  -0.0000055   0.3884746   0.0000000), wk =   0.0320000
        k(    8) = (  -0.0000055   0.3884746   0.3290328), wk =   0.0640000
        k(    9) = (  -0.0000055   0.3884746   0.6580657), wk =   0.0640000
        k(   10) = (   0.1942345   0.1942345   0.0000000), wk =   0.0160000
        k(   11) = (   0.1942345   0.1942345   0.3290328), wk =   0.0320000
        k(   12) = (   0.1942345   0.1942345   0.6580657), wk =   0.0320000
        k(   13) = (   0.1942318   0.3884718   0.0000000), wk =   0.0320000
        k(   14) = (   0.1942318   0.3884718   0.3290328), wk =   0.0640000
        k(   15) = (   0.1942318   0.3884718   0.6580657), wk =   0.0640000
        k(   16) = (   0.3884691   0.3884691   0.0000000), wk =   0.0160000
        k(   17) = (   0.3884691   0.3884691   0.3290328), wk =   0.0320000
        k(   18) = (   0.3884691   0.3884691   0.6580657), wk =   0.0320000
        k(   19) = (  -0.1942401   0.1942401   0.0000000), wk =   0.0160000
        k(   20) = (  -0.1942401   0.1942401  -0.3290328), wk =   0.0320000
        k(   21) = (  -0.1942401   0.1942401  -0.6580657), wk =   0.0320000
        k(   22) = (  -0.1942428   0.3884774   0.0000000), wk =   0.0320000
        k(   23) = (  -0.1942428   0.3884774  -0.3290328), wk =   0.0640000
        k(   24) = (  -0.1942428   0.3884774  -0.6580657), wk =   0.0640000
        k(   25) = (  -0.3884801   0.3884801   0.0000000), wk =   0.0160000
        k(   26) = (  -0.3884801   0.3884801  -0.3290328), wk =   0.0320000
        k(   27) = (  -0.3884801   0.3884801  -0.6580657), wk =   0.0320000
        k(   28) = (   0.0000000   0.0000000   0.0000000), wk =   0.0080000
        k(   29) = (   0.0000000   0.0000000   0.3290328), wk =   0.0160000
        k(   30) = (   0.0000000   0.0000000   0.6580657), wk =   0.0160000
        k(   31) = (  -0.0000028   0.1942373   0.0000000), wk =   0.0320000
        k(   32) = (  -0.0000028   0.1942373   0.3290328), wk =   0.0640000
        k(   33) = (  -0.0000028   0.1942373   0.6580657), wk =   0.0640000
        k(   34) = (  -0.0000055   0.3884746   0.0000000), wk =   0.0320000
        k(   35) = (  -0.0000055   0.3884746   0.3290328), wk =   0.0640000
        k(   36) = (  -0.0000055   0.3884746   0.6580657), wk =   0.0640000
        k(   37) = (   0.1942345   0.1942345   0.0000000), wk =   0.0160000
        k(   38) = (   0.1942345   0.1942345   0.3290328), wk =   0.0320000
        k(   39) = (   0.1942345   0.1942345   0.6580657), wk =   0.0320000
        k(   40) = (   0.1942318   0.3884718   0.0000000), wk =   0.0320000
        k(   41) = (   0.1942318   0.3884718   0.3290328), wk =   0.0640000
        k(   42) = (   0.1942318   0.3884718   0.6580657), wk =   0.0640000
        k(   43) = (   0.3884691   0.3884691   0.0000000), wk =   0.0160000
        k(   44) = (   0.3884691   0.3884691   0.3290328), wk =   0.0320000
        k(   45) = (   0.3884691   0.3884691   0.6580657), wk =   0.0320000
        k(   46) = (  -0.1942401   0.1942401   0.0000000), wk =   0.0160000
        k(   47) = (  -0.1942401   0.1942401  -0.3290328), wk =   0.0320000
        k(   48) = (  -0.1942401   0.1942401  -0.6580657), wk =   0.0320000
        k(   49) = (  -0.1942428   0.3884774   0.0000000), wk =   0.0320000
        k(   50) = (  -0.1942428   0.3884774  -0.3290328), wk =   0.0640000
        k(   51) = (  -0.1942428   0.3884774  -0.6580657), wk =   0.0640000
        k(   52) = (  -0.3884801   0.3884801   0.0000000), wk =   0.0160000
        k(   53) = (  -0.3884801   0.3884801  -0.3290328), wk =   0.0320000
        k(   54) = (  -0.3884801   0.3884801  -0.6580657), wk =   0.0320000

[...]

     Threshold (ethr) on eigenvalues was too large:
     Diagonalizing with lowered threshold

     Davidson diagonalization with overlap
     ethr =  5.14E-08,  avg # of iterations =  1.0

[...]

     Volume is kept fixed: isostatic pressure set to zero

     bfgs converged in   5 scf cycles and   4 bfgs steps
     (criteria: energy < 0.10E-03, force < 0.10E-02, cell < 0.50E+00)

     End of BFGS Geometry Optimization

     Final enthalpy =    -481.0585060309 Ry
Begin final coordinates
     new unit-cell volume =    429.18531 a.u.^3 (    63.59870 Ang^3 )

CELL_PARAMETERS (alat=  8.73279209)
   1.029668348   0.000014597   0.000000000
   0.000014597   1.029668348   0.000000000
   0.000000000   0.000000000   0.607842075

ATOMIC_POSITIONS (crystal)
Cr0      0.000000000   0.000000000   0.000000000    0   0   0
Cr0      0.500000000   0.500000000   0.500000000    0   0   0
O1       0.303009197   0.303009197   0.000000000    1   1   0
O1      -0.303009197  -0.303009197   0.000000000    1   1   0
O1       0.803003062   0.196996938   0.500000000    1   1   0
O1       0.196996938   0.803003062   0.500000000    1   1   0
End final coordinates

     A final scf calculation at the relaxed structure.
     The G-vectors are recalculated for the final unit cell
     Results may differ from those at the preceding step.

     bravais-lattice index     =            0
     lattice parameter (alat)  =       8.7328  a.u.
     unit-cell volume          =     429.1853 (a.u.)^3
     number of atoms/cell      =            6
     number of atomic types    =            2
     number of electrons       =        52.00
     number of Kohn-Sham states=           75
     kinetic-energy cutoff     =      40.0000  Ry
     charge density cutoff     =     500.0000  Ry
     convergence threshold     =      1.0E-08
     mixing beta               =       0.3000
     number of iterations used =            8  plain     mixing
     Exchange-correlation      = SLA  PW   PBE  PBE ( 1 4 3 4 0)
     EXX-fraction              =        0.00

     celldm(1)=   8.732792  celldm(2)=   0.000000  celldm(3)=   0.000000
     celldm(4)=   0.000000  celldm(5)=   0.000000  celldm(6)=   0.000000

     crystal axes: (cart. coord. in units of alat)
               a(1) = (   1.029668   0.000015   0.000000 )
               a(2) = (   0.000015   1.029668   0.000000 )
               a(3) = (   0.000000   0.000000   0.607842 )

     reciprocal axes: (cart. coord. in units 2 pi/alat)
               b(1) = (  0.971187 -0.000014  0.000000 )
               b(2) = ( -0.000014  0.971187  0.000000 )
               b(3) = (  0.000000  0.000000  1.645164 )

     PseudoPot. # 1 for Cr read from file:
     /home/camp/zhonxu/pseudo/cr_pbe_v1.uspp.F.UPF
     MD5 check sum: 68b6f918d1762dccfb11451fe85b0e0e
     Pseudo is Ultrasoft + core correction, Zval = 14.0
     Generated by new atomic code, or converted to UPF format
     Using radial grid of  857 points,  6 beta functions with:
                l(1) =   0
                l(2) =   0
                l(3) =   1
                l(4) =   1
                l(5) =   2
                l(6) =   2
     Q(r) pseudized with  6 coefficients,  rinner =    1.000   1.000   1.000
                                                       1.000   1.000

     PseudoPot. # 2 for O  read from file:
     /home/camp/zhonxu/pseudo/o_pbe_v1.01.uspp.F.UPF
     MD5 check sum: 2bcb18d16ea4b960afae9ec6d52f22d2
     Pseudo is Ultrasoft + core correction, Zval =  6.0
     Generated by new atomic code, or converted to UPF format
     Using radial grid of  737 points,  5 beta functions with:
                l(1) =   0
                l(2) =   0
                l(3) =   1
                l(4) =   1
                l(5) =   2
     Q(r) pseudized with  8 coefficients,  rinner =    0.900   0.900   0.900
                                                       0.900   0.900

     atomic species   valence    mass     pseudopotential
        Cr0           14.00    51.99600     Cr( 1.00)
        O1             6.00    15.99940     O ( 1.00)

     Starting magnetic structure
     atomic species   magnetization
        Cr0          0.000
        O1           0.000

      8 Sym. Ops., with inversion, found
          (note:  8 additional sym.ops. were found but ignored
           their fractional translations are incommensurate with FFT grid)

   Cartesian axes

     site n.     atom                  positions (alat units)
         1           Cr0 tau(   1) = (   0.0000000   0.0000000   0.0000000  )
         2           Cr0 tau(   2) = (   0.5148415   0.5148415   0.3039210  )
         3           O1  tau(   3) = (   0.3120034   0.3120034   0.0000000  )
         4           O1  tau(   4) = (  -0.3120034  -0.3120034   0.0000000  )
         5           O1  tau(   5) = (   0.8268297   0.2028532   0.3039210  )
         6           O1  tau(   6) = (   0.2028532   0.8268297   0.3039210  )

     number of k points=    54  Methfessel-Paxton smearing, width (Ry)=  0.0100
                       cart. coord. in units 2pi/alat
        k(    1) = (   0.0000000   0.0000000   0.0000000), wk =   0.0080000
        k(    2) = (   0.0000000   0.0000000   0.3290328), wk =   0.0160000
        k(    3) = (   0.0000000   0.0000000   0.6580657), wk =   0.0160000
        k(    4) = (  -0.0000028   0.1942373   0.0000000), wk =   0.0320000
        k(    5) = (  -0.0000028   0.1942373   0.3290328), wk =   0.0640000
        k(    6) = (  -0.0000028   0.1942373   0.6580657), wk =   0.0640000
        k(    7) = (  -0.0000055   0.3884746   0.0000000), wk =   0.0320000
        k(    8) = (  -0.0000055   0.3884746   0.3290328), wk =   0.0640000
        k(    9) = (  -0.0000055   0.3884746   0.6580657), wk =   0.0640000
        k(   10) = (   0.1942345   0.1942345   0.0000000), wk =   0.0160000
        k(   11) = (   0.1942345   0.1942345   0.3290328), wk =   0.0320000
        k(   12) = (   0.1942345   0.1942345   0.6580657), wk =   0.0320000
        k(   13) = (   0.1942318   0.3884718   0.0000000), wk =   0.0320000
        k(   14) = (   0.1942318   0.3884718   0.3290328), wk =   0.0640000
        k(   15) = (   0.1942318   0.3884718   0.6580657), wk =   0.0640000
        k(   16) = (   0.3884691   0.3884691   0.0000000), wk =   0.0160000
        k(   17) = (   0.3884691   0.3884691   0.3290328), wk =   0.0320000
        k(   18) = (   0.3884691   0.3884691   0.6580657), wk =   0.0320000
        k(   19) = (  -0.1942401   0.1942401   0.0000000), wk =   0.0160000
        k(   20) = (  -0.1942401   0.1942401  -0.3290328), wk =   0.0320000
        k(   21) = (  -0.1942401   0.1942401  -0.6580657), wk =   0.0320000
        k(   22) = (  -0.1942428   0.3884774   0.0000000), wk =   0.0320000
        k(   23) = (  -0.1942428   0.3884774  -0.3290328), wk =   0.0640000
        k(   24) = (  -0.1942428   0.3884774  -0.6580657), wk =   0.0640000
        k(   25) = (  -0.3884801   0.3884801   0.0000000), wk =   0.0160000
        k(   26) = (  -0.3884801   0.3884801  -0.3290328), wk =   0.0320000
        k(   27) = (  -0.3884801   0.3884801  -0.6580657), wk =   0.0320000
        k(   28) = (   0.0000000   0.0000000   0.0000000), wk =   0.0080000
        k(   29) = (   0.0000000   0.0000000   0.3290328), wk =   0.0160000
        k(   30) = (   0.0000000   0.0000000   0.6580657), wk =   0.0160000
        k(   31) = (  -0.0000028   0.1942373   0.0000000), wk =   0.0320000
        k(   32) = (  -0.0000028   0.1942373   0.3290328), wk =   0.0640000
        k(   33) = (  -0.0000028   0.1942373   0.6580657), wk =   0.0640000
        k(   34) = (  -0.0000055   0.3884746   0.0000000), wk =   0.0320000
        k(   35) = (  -0.0000055   0.3884746   0.3290328), wk =   0.0640000
        k(   36) = (  -0.0000055   0.3884746   0.6580657), wk =   0.0640000
        k(   37) = (   0.1942345   0.1942345   0.0000000), wk =   0.0160000
        k(   38) = (   0.1942345   0.1942345   0.3290328), wk =   0.0320000
        k(   39) = (   0.1942345   0.1942345   0.6580657), wk =   0.0320000
        k(   40) = (   0.1942318   0.3884718   0.0000000), wk =   0.0320000
        k(   41) = (   0.1942318   0.3884718   0.3290328), wk =   0.0640000
        k(   42) = (   0.1942318   0.3884718   0.6580657), wk =   0.0640000
        k(   43) = (   0.3884691   0.3884691   0.0000000), wk =   0.0160000
        k(   44) = (   0.3884691   0.3884691   0.3290328), wk =   0.0320000
        k(   45) = (   0.3884691   0.3884691   0.6580657), wk =   0.0320000
        k(   46) = (  -0.1942401   0.1942401   0.0000000), wk =   0.0160000
        k(   47) = (  -0.1942401   0.1942401  -0.3290328), wk =   0.0320000
        k(   48) = (  -0.1942401   0.1942401  -0.6580657), wk =   0.0320000
        k(   49) = (  -0.1942428   0.3884774   0.0000000), wk =   0.0320000
        k(   50) = (  -0.1942428   0.3884774  -0.3290328), wk =   0.0640000
        k(   51) = (  -0.1942428   0.3884774  -0.6580657), wk =   0.0640000
        k(   52) = (  -0.3884801   0.3884801   0.0000000), wk =   0.0160000
        k(   53) = (  -0.3884801   0.3884801  -0.3290328), wk =   0.0320000
        k(   54) = (  -0.3884801   0.3884801  -0.6580657), wk =   0.0320000

     Largest allocated arrays     est. size (Mb)     dimensions
     Largest temporary arrays     est. size (Mb)     dimensions

     Check: negative/imaginary core charge=   -0.000031    0.000000

     Initial potential from superposition of free atoms

     starting charge   49.99997, renormalised to   52.00000
     Starting wfc are   36 randomized atomic wfcs

     Self-consistent Calculation

[...]

     total energy              =    -481.05846540 Ry
     Harris-Foulkes estimate   =    -481.05846502 Ry
     estimated scf accuracy    <       0.00000006 Ry

[...]

     iteration # 13     ecut=    40.00 Ry     beta=0.30
     Davidson diagonalization with overlap
     ethr =  1.06E-10,  avg # of iterations =  1.0

     End of self-consistent calculation

 ------ SPIN UP ------------

[...]

 ------ SPIN DOWN ----------

[...]

          k = 0.3885 0.3885 0.6581 (  1843 PWs)   bands (ev):

[...]

          k =-0.3885 0.3885-0.6581 (  1843 PWs)   bands (ev):

   -63.6021 -63.6020 -35.1175 -35.1173 -34.8490 -34.8488 -34.8141 -34.8139
    -8.9690  -8.8887  -8.8455  -8.7729   3.0873   3.2019   3.3633   3.4373
     4.2111   4.4546   4.8619   4.9692   6.3846   6.4901   6.7229   7.0261
     8.9686   9.3340   9.5482   9.5970   9.6668   9.8634  11.2833  11.7171
    12.2433  12.6529  19.9251  20.4075  20.9025  21.3206  23.4960  23.5736
    24.4837  24.5788  25.4986  25.5031  26.7570  27.0863  29.3685  30.9906
    31.0367  31.8187  32.7525  33.6075  36.0497  36.1829  37.7077  38.2767
    40.4587  40.6594  40.8819  41.3966  42.2293  42.2366  43.7408  44.1437
    44.8655  44.9837  45.2258  45.7635  46.0100  46.2643  47.1860  47.8768
    47.9546  48.6635  51.1634

     the Fermi energy is     9.2044 ev

!    total energy              =    -481.05846578 Ry
     Harris-Foulkes estimate   =    -481.05846541 Ry
     estimated scf accuracy    <          2.9E-09 Ry

     The total energy is the sum of the following terms:

     one-electron contribution =    -229.13361430 Ry
     hartree contribution      =     137.41344309 Ry
     xc contribution           =     -73.79379154 Ry
     ewald contribution        =    -315.54445968 Ry
     smearing contrib. (-TS)   =      -0.00004335 Ry

     total magnetization       =     0.00 Bohr mag/cell
     absolute magnetization    =     0.00 Bohr mag/cell

     convergence has been achieved in  13 iterations

     Forces acting on atoms (Ry/au):

     atom    1 type  1   force =     0.00000000    0.00000000    0.00000000
     atom    2 type  1   force =     0.00000000    0.00000000    0.00000000
     atom    3 type  2   force =    -0.00040676   -0.00040676   -0.00000000
     atom    4 type  2   force =     0.00040676    0.00040676   -0.00000000
     atom    5 type  2   force =    -0.00039643    0.00039643   -0.00000000
     atom    6 type  2   force =     0.00039643   -0.00039643   -0.00000000

     Total force =     0.001136     Total SCF correction =     0.000087

     entering subroutine stress ...

          total   stress  (Ry/bohr**3)                   (kbar)     P= -236.82
  -0.00160650  -0.00000020   0.00000000       -236.32     -0.03      0.00
  -0.00000020  -0.00160650   0.00000000         -0.03   -236.32      0.00
   0.00000000   0.00000000  -0.00161666          0.00      0.00   -237.82

     General routines

     Parallel routines

   This run was terminated on:  15:27:27  24Jan2014

   JOB DONE.
Running PBS batch system epilogue script
Job id: 252008.audhumbla.fysik.dtu.dk
Username: zhonxu
Groupname: campgst
Jobname: CrO2/fine-EOS/non-mag/CrO2-v-1.10
Sessionid: 5926
Queuename: verylong
Accounting:
This job has allocated the following 4 nodes:
q080 q080 q080 q080
Finished epilogue job 252008.audhumbla.fysik.dtu.dk for zhonxu