     Program PWSCF v.5.0.2 (svn rev. 9656) starts on 27Feb2014 at 19:56:17

     Current dimensions of program PWSCF are:
     Max number of different atomic species (ntypx) = 10
     Max number of k-points (npk) =  40000
     Max angular momentum in pseudopotentials (lmaxx) =  3
     Reading input from bare.in
Warning: card &CELL ignored
Warning: card / ignored

     Subspace diagonalization in iterative solution of the eigenvalue problem:
     a serial algorithm will be used

     Found symmetry operation: I + ( -0.5000  0.0000  0.0000)
     This is a supercell, fractional translations are disabled

     bravais-lattice index     =            0
     lattice parameter (alat)  =      10.7336  a.u.
     unit-cell volume          =    6184.1966 (a.u.)^3
     number of atoms/cell      =           30
     number of atomic types    =            3
     number of electrons       =       232.00
     number of Kohn-Sham states=          336
     kinetic-energy cutoff     =      40.0000  Ry
     charge density cutoff     =     500.0000  Ry
     convergence threshold     =      1.0E-06
     mixing beta               =       0.3000
     number of iterations used =            8  plain     mixing
     Exchange-correlation      = SLA  PW   PBE  PBE ( 1 4 3 4 0)
     EXX-fraction              =        0.00
     nstep                     =           50

     celldm(1)=  10.733644  celldm(2)=   0.000000  celldm(3)=   0.000000
     celldm(4)=   0.000000  celldm(5)=   0.000000  celldm(6)=   0.000000

     crystal axes: (cart. coord. in units of alat)
               a(1) = (   1.000000   0.000000   0.000000 )
               a(2) = (   0.000000   1.085558   0.000000 )
               a(3) = (   0.000000   0.000000   4.606685 )

     reciprocal axes: (cart. coord. in units 2 pi/alat)
               b(1) = (  1.000000  0.000000  0.000000 )
               b(2) = (  0.000000  0.921185  0.000000 )
               b(3) = (  0.000000  0.000000  0.217076 )

     PseudoPot. # 1 for O  read from file:
     /home/camp/zhonxu/pseudo/o_pbe_v1.01.uspp.F.UPF
     MD5 check sum: 2bcb18d16ea4b960afae9ec6d52f22d2
     Pseudo is Ultrasoft + core correction, Zval =  6.0
     Generated by new atomic code, or converted to UPF format
     Using radial grid of  737 points,  5 beta functions with:
                l(1) =   0
                l(2) =   0
                l(3) =   1
                l(4) =   1
                l(5) =   2
     Q(r) pseudized with  8 coefficients,  rinner =    0.900   0.900   0.900
                                                       0.900   0.900

     PseudoPot. # 2 for Mn read from file:
     /home/camp/zhonxu/pseudo/mn_pbe_v1.uspp.F.UPF
     MD5 check sum: 5fd7c7b5c956fd19902447332617373a
     Pseudo is Ultrasoft + core correction, Zval = 15.0
     Generated by new atomic code, or converted to UPF format
     Using radial grid of  859 points,  6 beta functions with:
                l(1) =   0
                l(2) =   0
                l(3) =   1
                l(4) =   1
                l(5) =   2
                l(6) =   2
     Q(r) pseudized with  6 coefficients,  rinner =    1.150   1.150   1.150
                                                       1.150   1.150

     PseudoPot. # 3 for H  read from file:
     /home/camp/zhonxu/pseudo/h_pbe_v1.uspp.F.UPF
     MD5 check sum: 3408e3ff4ec8b0a4e358431e7e038a48
     Pseudo is Ultrasoft, Zval =  1.0
     Generated by new atomic code, or converted to UPF format
     Using radial grid of  615 points,  2 beta functions with:
                l(1) =   0
                l(2) =   0
     Q(r) pseudized with  8 coefficients,  rinner =    0.700

     atomic species   valence    mass     pseudopotential
        O0             6.00    15.99940     O ( 1.00)
        Mn1           15.00    54.93800     Mn( 1.00)
        H2             1.00     1.00794     H ( 1.00)

     Starting magnetic structure
     atomic species   magnetization
        O0           0.000
        Mn1          0.600
        H2           0.000

     No symmetry found

   Cartesian axes

     site n.     atom                  positions (alat units)
         1           O0  tau(   1) = (   0.0000000   0.0000000   1.7440910  )
         2           O0  tau(   2) = (   0.0000000   0.5427791   1.8348887  )
         3           Mn1 tau(   3) = (   0.2500000   0.5427791   2.0695072  )
         4           Mn1 tau(   4) = (   0.0000000   0.0000000   2.0719487  )
         5           O0  tau(   5) = (   0.2500000   0.8684466   2.0695533  )
         6           O0  tau(   6) = (   0.2500000   0.2171117   2.0770161  )
         7           O0  tau(   7) = (   0.0000000   0.5427791   2.2881405  )
         8           O0  tau(   8) = (   0.0000000   0.0000000   2.4167130  )
         9           Mn1 tau(   9) = (   0.2500000   0.0000000   2.6452046  )
        10           Mn1 tau(  10) = (   0.0000000   0.5427791   2.6189465  )
        11           O0  tau(  11) = (   0.2500000   0.7598908   2.6694358  )
        12           O0  tau(  12) = (   0.2500000   0.3256675   2.6696661  )
        13           O0  tau(  13) = (   0.0000000   0.0000000   2.8462864  )
        14           O0  tau(  14) = (   0.5000000   0.0000000   1.7440910  )
        15           O0  tau(  15) = (   0.5000000   0.5427791   1.8348887  )
        16           Mn1 tau(  16) = (   0.7500000   0.5427791   2.0695072  )
        17           Mn1 tau(  17) = (   0.5000000   0.0000000   2.0719487  )
        18           O0  tau(  18) = (   0.7500000   0.8684466   2.0695533  )
        19           O0  tau(  19) = (   0.7500000   0.2171117   2.0770161  )
        20           O0  tau(  20) = (   0.5000000   0.5427791   2.2881405  )
        21           O0  tau(  21) = (   0.5000000   0.0000000   2.4167130  )
        22           Mn1 tau(  22) = (   0.7500000   0.0000000   2.6452046  )
        23           Mn1 tau(  23) = (   0.5000000   0.5427791   2.6189465  )
        24           O0  tau(  24) = (   0.7500000   0.7598908   2.6694358  )
        25           O0  tau(  25) = (   0.7500000   0.3256675   2.6696661  )
        26           O0  tau(  26) = (   0.5000000   0.0000000   2.8462864  )
        27           H2  tau(  27) = (  -0.0000900   0.7018026   1.7591088  )
        28           H2  tau(  28) = (   0.4999100   0.7018026   1.7591088  )
        29           H2  tau(  29) = (   0.1616900   0.0388738   1.6898703  )
        30           H2  tau(  30) = (   0.6616900   0.0388738   1.6898703  )

     number of k points=    20  Methfessel-Paxton smearing, width (Ry)=  0.0100
                       cart. coord. in units 2pi/alat
        k(    1) = (   0.0000000   0.0000000   0.0000000), wk =   0.0625000
        k(    2) = (   0.0000000   0.2302962   0.0000000), wk =   0.1250000
        k(    3) = (   0.0000000  -0.4605925   0.0000000), wk =   0.0625000
        k(    4) = (   0.2500000   0.0000000   0.0000000), wk =   0.1250000
        k(    5) = (   0.2500000   0.2302962   0.0000000), wk =   0.1250000
        k(    6) = (   0.2500000  -0.4605925   0.0000000), wk =   0.1250000
        k(    7) = (  -0.5000000   0.0000000   0.0000000), wk =   0.0625000
        k(    8) = (  -0.5000000   0.2302962   0.0000000), wk =   0.1250000
        k(    9) = (  -0.5000000  -0.4605925   0.0000000), wk =   0.0625000
        k(   10) = (  -0.2500000   0.2302962   0.0000000), wk =   0.1250000
        k(   11) = (   0.0000000   0.0000000   0.0000000), wk =   0.0625000
        k(   12) = (   0.0000000   0.2302962   0.0000000), wk =   0.1250000
        k(   13) = (   0.0000000  -0.4605925   0.0000000), wk =   0.0625000
        k(   14) = (   0.2500000   0.0000000   0.0000000), wk =   0.1250000
        k(   15) = (   0.2500000   0.2302962   0.0000000), wk =   0.1250000
        k(   16) = (   0.2500000  -0.4605925   0.0000000), wk =   0.1250000
        k(   17) = (  -0.5000000   0.0000000   0.0000000), wk =   0.0625000
        k(   18) = (  -0.5000000   0.2302962   0.0000000), wk =   0.1250000
        k(   19) = (  -0.5000000  -0.4605925   0.0000000), wk =   0.0625000
        k(   20) = (  -0.2500000   0.2302962   0.0000000), wk =   0.1250000

     Largest allocated arrays     est. size (Mb)     dimensions
     Largest temporary arrays     est. size (Mb)     dimensions

     Check: negative/imaginary core charge=   -0.000022    0.000000

     Initial potential from superposition of free atoms
     Check: negative starting charge=(component1):   -0.000776
     Check: negative starting charge=(component2):   -0.000381

     starting charge  223.99987, renormalised to  232.00000

     negative rho (up, down):  0.804E-03 0.395E-03
     Starting wfc are  180 randomized atomic wfcs

     Self-consistent Calculation

     iteration #  1     ecut=    40.00 Ry     beta=0.30
     Davidson diagonalization with overlap
     ethr =  1.00E-02,  avg # of iterations =  5.8

     negative rho (up, down):  0.773E-03 0.561E-03

     total energy              =   -2264.81392470 Ry
     Harris-Foulkes estimate   =   -2287.29300984 Ry
     estimated scf accuracy    <      54.42004629 Ry

     total magnetization       =    31.69 Bohr mag/cell
     absolute magnetization    =    34.69 Bohr mag/cell

[...]

     total energy              =   -2288.93934952 Ry
     Harris-Foulkes estimate   =   -2288.93934899 Ry
     estimated scf accuracy    <       0.00000120 Ry

[...]

     iteration # 26     ecut=    40.00 Ry     beta=0.30
     Davidson diagonalization with overlap
     ethr =  5.15E-10,  avg # of iterations =  2.0

     negative rho (up, down):  0.231E-02 0.130E-02

     End of self-consistent calculation

 ------ SPIN UP ------------

          k = 0.0000 0.0000 0.0000 ( 26393 PWs)   bands (ev):

   -84.2603 -84.2505 -83.9595 -83.9495 -83.9015 -83.8912 -83.6090 -83.5986
   -53.1051 -52.9901 -52.8941 -52.8763 -52.8701 -52.8597 -52.7774 -52.7713
   -52.6575 -52.6538 -52.6187 -52.6094 -52.6025 -52.6010 -52.5857 -52.5819
   -52.3937 -52.3845 -52.3540 -52.3477 -52.3460 -52.2233 -52.1970 -52.1775
   -22.2290 -21.5555 -21.4024 -21.1760 -20.6473 -20.4671 -20.4623 -20.2978
   -20.2833 -20.1766 -20.0574 -19.9678 -19.9240 -19.9024 -19.8861 -19.3924
   -19.0831 -18.9506 -10.1098  -9.8784  -9.6261  -9.5451  -9.2353  -8.6555
    -8.6286  -8.6207  -8.5797  -8.4125  -8.2447  -8.2331  -8.0879  -7.9756
    -7.9566  -7.8328  -7.7782  -7.6123  -7.5853  -7.5248  -7.2812  -7.2644
    -7.1885  -6.9256  -6.8936  -6.8570  -6.7882  -6.2351  -6.1862  -6.1502
    -6.0120  -5.9241  -5.9063  -5.8276  -5.6997  -5.4939  -5.4658  -5.3243
    -5.2632  -5.1983  -5.1641  -5.0212  -4.9174  -4.8970  -4.7448  -4.7390
    -4.7024  -4.6879  -4.6223  -4.5695  -4.4873  -4.3499  -4.2108  -4.1390
    -4.1218  -4.0737  -3.9319  -3.9074  -3.8882  -3.6845  -3.5254  -3.4309
    -3.3864  -3.2041  -3.0832  -3.0473  -2.9333  -2.8756  -2.7110  -2.7050
    -2.6758  -2.6244  -2.5701  -2.4617  -2.3625  -2.1796  -2.0451  -1.8458
    -1.7923  -1.6137  -0.8919  -0.5505  -0.4315  -0.3879  -0.2090  -0.1771
    -0.1439   0.1494   0.3726   0.4232   0.6790   0.9579   1.0557   1.3929
     2.8748   3.5264   3.6426   4.1671   4.6238   5.4046   5.8881   6.0693
     6.4075   6.8778   7.0202   7.0683   7.0945   7.1520   7.4811   7.5358
     7.6516   7.8231   8.0973   8.1214   8.1268   8.1541   8.1927   8.3075
     8.3633   8.4923   8.7176   8.8126   8.8672   8.8997   9.0607   9.1043
     9.2249   9.3341   9.3456   9.4174   9.5335   9.5669   9.7762   9.9725
    10.1358  10.2009  10.2355  10.3547  10.4039  10.5700  10.8768  10.9444
    10.9643  10.9930  11.1587  11.2192  11.2689  11.3803  11.5491  11.7786
    11.8248  11.8363  11.8796  11.9928  12.1175  12.2023  12.2146  12.2554
    12.2947  12.3444  12.4047  12.4275  12.4676  12.4980  12.5965  12.6329
    12.7135  12.7674  12.8737  13.0120  13.0217  13.1211  13.1241  13.1899
    13.2235  13.2255  13.3477  13.4472  13.5205  13.6759  13.7551  13.8007
    13.8431  13.8648  14.0804  14.0952  14.1546  14.2656  14.2863  14.3455
    14.3900  14.5737  14.6972  14.7802  14.8150  14.9806  15.0306  15.1099
    15.2136  15.2745  15.3072  15.3596  15.4976  15.6066  15.7287  15.7898
    15.9294  16.0318  16.0611  16.0876  16.4079  16.4164  16.5771  16.6325
    16.7367  16.7428  16.7667  17.0890  17.2095  17.2568  17.3004  17.3997
    17.4914  17.6538  17.7445  17.8087  17.8534  18.1229  18.1733  18.3111
    18.3121  18.3508  18.4529  18.5132  18.5989  18.6391  18.8102  18.9171
    18.9474  19.0580  19.2310  19.2821  19.3070  19.3659  19.4244  19.5519
    19.5599  19.6300  19.6790  19.7003  19.7713  19.8201  19.8554  20.0634
    20.0793  20.1177  20.2450  20.2525  20.4901  20.6043  20.7005  20.7232
    20.7894  20.8633  20.9805  21.0778  21.2728  21.2833  21.3074  21.3666
    21.3930  21.4067  21.4267  21.5149  21.6894  21.9377  22.1143  22.1305
    22.2460  22.2691  22.3265  22.3372  22.3429  22.3696  22.4503  22.4563

[...]

          k =-0.5000 0.0000 0.0000 ( 26466 PWs)   bands (ev):

[...]

 ------ SPIN DOWN ----------

[...]

          k = 0.2500-0.4606 0.0000 ( 26462 PWs)   bands (ev):

[...]

          k =-0.2500 0.2303 0.0000 ( 26396 PWs)   bands (ev):

   -80.7873 -80.7793 -80.6367 -80.6283 -80.5693 -80.5609 -80.1478 -80.1394
   -49.6810 -49.5947 -49.5865 -49.5830 -49.5554 -49.5244 -49.5214 -49.5136
   -49.5107 -49.4940 -49.4516 -49.4227 -49.3944 -49.3773 -49.2194 -49.2001
   -49.1815 -49.1791 -49.1725 -49.1184 -48.9605 -48.9433 -48.7253 -48.7171
   -21.9861 -21.5762 -21.0997 -20.8633 -20.5362 -20.5341 -20.2732 -20.2262
   -20.1582 -20.0520 -20.0293 -19.9238 -19.8809 -19.8204 -19.5365 -19.3271
   -18.9755 -18.8631  -9.5727  -9.2896  -8.7636  -8.6050  -8.5191  -8.2018
    -8.0186  -7.9248  -7.8688  -7.8388  -7.6963  -7.5943  -7.4408  -7.4249
    -7.1864  -7.1792  -7.0606  -7.0514  -6.9132  -6.7550  -6.6168  -6.5643
    -6.5128  -6.4710  -6.2001  -6.0044  -5.9662  -5.8702  -5.6723  -5.6326
    -5.5935  -5.5836  -5.4310  -5.4082  -5.2365  -5.2034  -5.0109  -4.9365
    -4.8186  -4.7229  -4.5815  -4.3947  -4.2943  -4.2112  -4.1375  -3.9838
    -3.7795  -3.7175  -3.6668  -3.4172  -3.2630  -3.1807  -3.0600  -2.8101
    -1.4098  -1.2090  -1.1725  -1.1226  -1.0840  -1.0066  -0.9336  -0.9124
    -0.8088  -0.8033  -0.6019  -0.5983  -0.5844  -0.3895  -0.3319  -0.2324
    -0.2091  -0.1981  -0.0708  -0.0668   0.1287   0.1364   0.2383   0.3877
     0.4389   0.6969   0.7929   1.1627   1.2239   1.2446   1.3384   1.3902
     1.7574   1.7706   2.1085   2.2056   2.2501   2.4603   2.6032   2.6154
     3.5303   4.1609   4.3182   4.7710   5.2342   5.5031   5.5534   6.0123
     6.1870   6.3978   6.4322   6.5009   6.6663   6.8340   6.8857   7.1887
     7.3795   7.6526   7.6697   7.8514   8.0729   8.2826   8.3900   8.5349
     8.5834   8.7950   8.8823   8.9882   9.0684   9.1802   9.2796   9.4708
     9.5493   9.7157   9.9058   9.9761  10.0207  10.1992  10.2235  10.3674
    10.4625  10.5935  10.6611  10.7544  10.8269  11.0423  11.0587  11.1524
    11.3354  11.4172  11.4766  11.5424  11.6238  11.7231  11.7349  11.9003
    11.9645  12.0660  12.1999  12.2732  12.3270  12.3618  12.4536  12.5837
    12.7036  12.8479  12.8935  12.9428  12.9677  12.9827  13.0694  13.1484
    13.2833  13.3388  13.3729  13.4405  13.6389  13.6725  13.7363  13.7873
    13.8381  13.9277  14.0488  14.0994  14.2663  14.2959  14.3143  14.3766
    14.4100  14.5830  14.6262  14.6693  14.7412  14.7870  14.8756  14.9685
    15.0548  15.1092  15.1185  15.2279  15.3706  15.5332  15.5773  15.6135
    15.6476  15.8270  15.9049  15.9585  15.9701  16.1280  16.2326  16.2428
    16.3518  16.4568  16.5302  16.5922  16.5923  16.7071  16.8594  16.9842
    17.0091  17.0445  17.1504  17.1710  17.2888  17.3684  17.3723  17.4812
    17.4972  17.6044  17.6578  17.6834  17.8593  17.8956  17.9015  18.1135
    18.1375  18.1453  18.2342  18.3254  18.3989  18.4030  18.4879  18.5765
    18.6449  18.7477  18.8300  18.8436  18.9658  19.0558  19.1829  19.2190
    19.2703  19.3364  19.4608  19.4866  19.6028  19.6172  19.7639  19.8271
    19.8609  19.9655  19.9926  20.0579  20.1314  20.2673  20.2815  20.3136
    20.3494  20.4778  20.5689  20.6382  20.6727  20.7881  20.9176  20.9655
    21.0456  21.1308  21.2081  21.3123  21.3817  21.4161  21.4996  21.5043
    21.5725  21.6431  21.7518  21.8183  21.8285  21.9672  21.9835  22.0809

     the Fermi energy is    -1.8526 ev

!    total energy              =   -2288.93935002 Ry
     Harris-Foulkes estimate   =   -2288.93934981 Ry
     estimated scf accuracy    <       0.00000072 Ry

     The total energy is the sum of the following terms:

     one-electron contribution =  -25978.46844027 Ry
     hartree contribution      =   13004.50488550 Ry
     xc contribution           =    -341.14267537 Ry
     ewald contribution        =   11026.16724079 Ry
     smearing contrib. (-TS)   =      -0.00036068 Ry

     total magnetization       =    24.00 Bohr mag/cell
     absolute magnetization    =    24.93 Bohr mag/cell

     convergence has been achieved in  26 iterations

     Forces acting on atoms (Ry/au):

     negative rho (up, down):  0.231E-02 0.130E-02
     atom    1 type  1   force =    -0.00435452   -0.01587842    0.00016910
     atom    2 type  1   force =     0.00019705    0.01382409    0.00034153
     atom    3 type  2   force =    -0.00034287   -0.00454590   -0.00020919
     atom    4 type  2   force =     0.00414007    0.01052468    0.00039996
     atom    5 type  1   force =     0.00360244    0.00524146    0.00006690
     atom    6 type  1   force =    -0.00276171   -0.00768985   -0.00026513
     atom    7 type  1   force =    -0.00004857    0.00081917   -0.00095401
     atom    8 type  1   force =    -0.00034854   -0.00196080   -0.00090495
     atom    9 type  2   force =     0.00031373    0.00038730    0.00042667
     atom   10 type  2   force =    -0.00009285   -0.00049866   -0.00007921
     atom   11 type  1   force =     0.00003722   -0.06735307    0.00026287
     atom   12 type  1   force =     0.00004279    0.06739041    0.00024926
     atom   13 type  1   force =    -0.00023617   -0.00018354    0.00052696
     atom   14 type  1   force =    -0.00435187   -0.01587816    0.00017949
     atom   15 type  1   force =     0.00020136    0.01382629    0.00034522
     atom   16 type  2   force =    -0.00036502   -0.00454598   -0.00020405
     atom   17 type  2   force =     0.00416009    0.01052353    0.00042936
     atom   18 type  1   force =     0.00357959    0.00524178    0.00007200
     atom   19 type  1   force =    -0.00278471   -0.00769007   -0.00025979
     atom   20 type  1   force =    -0.00003688    0.00081908   -0.00096184
     atom   21 type  1   force =    -0.00029198   -0.00196057   -0.00092665
     atom   22 type  2   force =     0.00047996    0.00038742    0.00041336
     atom   23 type  2   force =    -0.00003773   -0.00049788   -0.00011219
     atom   24 type  1   force =     0.00006297   -0.06732318    0.00025443
     atom   25 type  1   force =     0.00006887    0.06736030    0.00024077
     atom   26 type  1   force =    -0.00017565   -0.00018353    0.00062307
     atom   27 type  3   force =     0.00008231   -0.00018858    0.00043106
     atom   28 type  3   force =     0.00008237   -0.00018851    0.00043128
     atom   29 type  3   force =    -0.00040976    0.00011088   -0.00049329
     atom   30 type  3   force =    -0.00041200    0.00011031   -0.00049299

     Total force =     0.002643     Total SCF correction =     0.002652
     SCF correction compared to forces is large: reduce conv_thr to get better values

     BFGS Geometry Optimization

     bfgs converged in   1 scf cycles and   0 bfgs steps
     (criteria: energy < 0.10E-03, force < 0.10E-02)

     End of BFGS Geometry Optimization

     Final energy   =   -2288.9393500245 Ry
Begin final coordinates

ATOMIC_POSITIONS (crystal)
O0       0.000000000   0.000000000   0.378600000    0   0   1
O0       0.000000000   0.500000000   0.398310000    0   0   1
Mn1      0.250000000   0.500000000   0.449240000    0   0   1
Mn1      0.000000000   0.000000000   0.449770000    0   0   1
O0       0.250000000   0.800000000   0.449250000    0   0   1
O0       0.250000000   0.200000000   0.450870000    0   0   1
O0       0.000000000   0.500000000   0.496700000    0   0   1
O0       0.000000000   0.000000000   0.524610000    0   0   1
Mn1      0.250000000   0.000000000   0.574210000    0   0   1
Mn1      0.000000000   0.500000000   0.568510000    0   0   1
O0       0.250000000   0.700000000   0.579470000    0   0   1
O0       0.250000000   0.300000000   0.579520000    0   0   1
O0       0.000000000   0.000000000   0.617860000    0   0   1
O0       0.500000000   0.000000000   0.378600000    0   0   1
O0       0.500000000   0.500000000   0.398310000    0   0   1
Mn1      0.750000000   0.500000000   0.449240000    0   0   1
Mn1      0.500000000   0.000000000   0.449770000    0   0   1
O0       0.750000000   0.800000000   0.449250000    0   0   1
O0       0.750000000   0.200000000   0.450870000    0   0   1
O0       0.500000000   0.500000000   0.496700000    0   0   1
O0       0.500000000   0.000000000   0.524610000    0   0   1
Mn1      0.750000000   0.000000000   0.574210000    0   0   1
Mn1      0.500000000   0.500000000   0.568510000    0   0   1
O0       0.750000000   0.700000000   0.579470000    0   0   1
O0       0.750000000   0.300000000   0.579520000    0   0   1
O0       0.500000000   0.000000000   0.617860000    0   0   1
H2      -0.000090000   0.646490000   0.381860000
H2       0.499910000   0.646490000   0.381860000
H2       0.161690000   0.035810000   0.366830000
H2       0.661690000   0.035810000   0.366830000
End final coordinates

     General routines

     Parallel routines

   This run was terminated on:  22:44:22  27Feb2014

   JOB DONE.
Running PBS batch system epilogue script
Job id: 278714.audhumbla.fysik.dtu.dk
Username: zhonxu
Groupname: campgst
Jobname: MnO2/bare
Sessionid: 31154
Queuename: verylong
Accounting:
This job has allocated the following 16 nodes:
c021 c021 c021 c021 c021 c021 c021 c021 c008 c008 c008 c008 c008 c008 c008 c008
Finished epilogue job 278714.audhumbla.fysik.dtu.dk for zhonxu