     Program PWSCF v.5.0.2 (svn rev. 9656) starts on 17Sep2014 at 14:12:48

     Current dimensions of program PWSCF are:
     Max number of different atomic species (ntypx) = 10
     Max number of k-points (npk) =  40000
     Max angular momentum in pseudopotentials (lmaxx) =  3
     Reading input from pwscf.in
Warning: card &CELL ignored
Warning: card / ignored

     Subspace diagonalization in iterative solution of the eigenvalue problem:
     a serial algorithm will be used

     bravais-lattice index     =            0
     lattice parameter (alat)  =      10.7336  a.u.
     unit-cell volume          =    6184.1966 (a.u.)^3
     number of atoms/cell      =           33
     number of atomic types    =            3
     number of electrons       =       245.00 (up: 134.00, down: 111.00)
     number of Kohn-Sham states=          367
     kinetic-energy cutoff     =      40.0000  Ry
     charge density cutoff     =     500.0000  Ry
     convergence threshold     =      1.0E-06
     mixing beta               =       0.7000
     number of iterations used =            8  plain     mixing
     Exchange-correlation      = SLA  PW   PBE  PBE ( 1 4 3 4 0)
     EXX-fraction              =        0.00
     nstep                     =           50

     celldm(1)=  10.733644  celldm(2)=   0.000000  celldm(3)=   0.000000
     celldm(4)=   0.000000  celldm(5)=   0.000000  celldm(6)=   0.000000

     crystal axes: (cart. coord. in units of alat)
               a(1) = (   1.000000   0.000000   0.000000 )
               a(2) = (   0.000000   1.085558   0.000000 )
               a(3) = (   0.000000   0.000000   4.606685 )

     reciprocal axes: (cart. coord. in units 2 pi/alat)
               b(1) = (  1.000000  0.000000  0.000000 )
               b(2) = (  0.000000  0.921185  0.000000 )
               b(3) = (  0.000000  0.000000  0.217076 )

     PseudoPot. # 1 for O  read from file:
     /home-research/zhongnanxu/pseudopotentials/gbrv_espresso_pseudo_v1.01/o_pbe_v1.01.uspp.F.UPF
     MD5 check sum: 2bcb18d16ea4b960afae9ec6d52f22d2
     Pseudo is Ultrasoft + core correction, Zval =  6.0
     Generated by new atomic code, or converted to UPF format
     Using radial grid of  737 points,  5 beta functions with:
                l(1) =   0
                l(2) =   0
                l(3) =   1
                l(4) =   1
                l(5) =   2
     Q(r) pseudized with  8 coefficients,  rinner =    0.900   0.900   0.900
                                                       0.900   0.900

     PseudoPot. # 2 for Mn read from file:
     /home-research/zhongnanxu/pseudopotentials/gbrv_espresso_pseudo_v1.01/mn_pbe_v1.uspp.F.UPF
     MD5 check sum: 5fd7c7b5c956fd19902447332617373a
     Pseudo is Ultrasoft + core correction, Zval = 15.0
     Generated by new atomic code, or converted to UPF format
     Using radial grid of  859 points,  6 beta functions with:
                l(1) =   0
                l(2) =   0
                l(3) =   1
                l(4) =   1
                l(5) =   2
                l(6) =   2
     Q(r) pseudized with  6 coefficients,  rinner =    1.150   1.150   1.150
                                                       1.150   1.150

     PseudoPot. # 3 for H  read from file:
     /home-research/zhongnanxu/pseudopotentials/gbrv_espresso_pseudo_v1.01/h_pbe_v1.uspp.F.UPF
     MD5 check sum: 3408e3ff4ec8b0a4e358431e7e038a48
     Pseudo is Ultrasoft, Zval =  1.0
     Generated by new atomic code, or converted to UPF format
     Using radial grid of  615 points,  2 beta functions with:
                l(1) =   0
                l(2) =   0
     Q(r) pseudized with  8 coefficients,  rinner =    0.700

     atomic species   valence    mass     pseudopotential
        O0             6.00    15.99940     O ( 1.00)
        Mn1           15.00    54.93800     Mn( 1.00)
        H2             1.00     1.00794     H ( 1.00)

     Starting magnetic structure
     atomic species   magnetization
        O0           0.000
        Mn1          0.600
        H2           0.000

     Simplified LDA+U calculation (l_max = 2) with parameters (eV):
     atomic species    L          U    alpha       J0     beta
        Mn1            2     2.0000   0.0000   0.0000   0.0000

     No symmetry found

   Cartesian axes

     site n.     atom                  positions (alat units)
         1           O0  tau(   1) = (   0.0000000   0.0000000   1.7437224  )
         2           O0  tau(   2) = (   0.0000000   0.5427791   1.8429044  )
         3           Mn1 tau(   3) = (   0.2500000   0.5427791   2.0790891  )
         4           Mn1 tau(   4) = (   0.0000000   0.0000000   2.0720409  )
         5           O0  tau(   5) = (   0.2500000   0.8684466   2.0701982  )
         6           O0  tau(   6) = (   0.2500000   0.2171117   2.0775689  )
         7           O0  tau(   7) = (   0.0000000   0.5427791   2.2916415  )
         8           O0  tau(   8) = (   0.0000000   0.0000000   2.4165748  )
         9           Mn1 tau(   9) = (   0.2500000   0.0000000   2.6429013  )
        10           Mn1 tau(  10) = (   0.0000000   0.5427791   2.6202364  )
        11           O0  tau(  11) = (   0.2500000   0.7598908   2.6530821  )
        12           O0  tau(  12) = (   0.2500000   0.3256675   2.6691594  )
        13           O0  tau(  13) = (   0.0000000   0.0000000   2.8472538  )
        14           O0  tau(  14) = (   0.5000000   0.0000000   1.7445516  )
        15           O0  tau(  15) = (   0.5000000   0.5427791   1.8431808  )
        16           Mn1 tau(  16) = (   0.7500000   0.5427791   2.0791352  )
        17           Mn1 tau(  17) = (   0.5000000   0.0000000   2.0732386  )
        18           O0  tau(  18) = (   0.7500000   0.8684466   2.0702443  )
        19           O0  tau(  19) = (   0.7500000   0.2171117   2.0776150  )
        20           O0  tau(  20) = (   0.5000000   0.5427791   2.2991504  )
        21           O0  tau(  21) = (   0.5000000   0.0000000   2.4162063  )
        22           Mn1 tau(  22) = (   0.7500000   0.0000000   2.6429474  )
        23           Mn1 tau(  23) = (   0.5000000   0.5427791   2.6555697  )
        24           O0  tau(  24) = (   0.7500000   0.7598908   2.6530360  )
        25           O0  tau(  25) = (   0.7500000   0.3256675   2.6692055  )
        26           O0  tau(  26) = (   0.5000000   0.0000000   2.8451348  )
        27           H2  tau(  27) = (   0.0001200   0.7023996   1.7685525  )
        28           H2  tau(  28) = (   0.5001300   0.7024539   1.7688749  )
        29           H2  tau(  29) = (   0.1617300   0.0395469   1.6903309  )
        30           H2  tau(  30) = (   0.6616200   0.0396554   1.6909759  )
        31           O0  tau(  31) = (   0.4997000   0.5889697   2.9894622  )
        32           O0  tau(  32) = (   0.5006400   0.3801951   3.1245302  )
        33           H2  tau(  33) = (   0.4997200   0.4495948   3.2842900  )

     number of k points=    20  Methfessel-Paxton smearing, width (Ry)=  0.0100
                       cart. coord. in units 2pi/alat
        k(    1) = (   0.0000000   0.0000000   0.0000000), wk =   0.0625000
        k(    2) = (   0.0000000   0.2302962   0.0000000), wk =   0.1250000
        k(    3) = (   0.0000000  -0.4605925   0.0000000), wk =   0.0625000
        k(    4) = (   0.2500000   0.0000000   0.0000000), wk =   0.1250000
        k(    5) = (   0.2500000   0.2302962   0.0000000), wk =   0.1250000
        k(    6) = (   0.2500000  -0.4605925   0.0000000), wk =   0.1250000
        k(    7) = (  -0.5000000   0.0000000   0.0000000), wk =   0.0625000
        k(    8) = (  -0.5000000   0.2302962   0.0000000), wk =   0.1250000
        k(    9) = (  -0.5000000  -0.4605925   0.0000000), wk =   0.0625000
        k(   10) = (  -0.2500000   0.2302962   0.0000000), wk =   0.1250000
        k(   11) = (   0.0000000   0.0000000   0.0000000), wk =   0.0625000
        k(   12) = (   0.0000000   0.2302962   0.0000000), wk =   0.1250000
        k(   13) = (   0.0000000  -0.4605925   0.0000000), wk =   0.0625000
        k(   14) = (   0.2500000   0.0000000   0.0000000), wk =   0.1250000
        k(   15) = (   0.2500000   0.2302962   0.0000000), wk =   0.1250000
        k(   16) = (   0.2500000  -0.4605925   0.0000000), wk =   0.1250000
        k(   17) = (  -0.5000000   0.0000000   0.0000000), wk =   0.0625000
        k(   18) = (  -0.5000000   0.2302962   0.0000000), wk =   0.1250000
        k(   19) = (  -0.5000000  -0.4605925   0.0000000), wk =   0.0625000
        k(   20) = (  -0.2500000   0.2302962   0.0000000), wk =   0.1250000

     Largest allocated arrays     est. size (Mb)     dimensions
     Largest temporary arrays     est. size (Mb)     dimensions

     Check: negative/imaginary core charge=   -0.000022    0.000000

     Initial potential from superposition of free atoms
     Check: negative starting charge=(component1):   -0.000638
     Check: negative starting charge=(component2):   -0.000356

     starting charge  236.99986, renormalised to  245.00000

     negative rho (up, down):  0.660E-03 0.368E-03
     Number of +U iterations with fixed ns =  0
     Starting occupations:
 --- enter write_ns ---
 LDA+U parameters:
U( 2)     =  2.00000000
alpha( 2) =  0.00000000
atom    3   Tr[ns(na)] (up, down, total) =   5.00000  0.00000  5.00000
   spin  1
    eigenvalues:
  1.000  1.000  1.000  1.000  1.000
    eigenvectors:
  1.000  0.000  0.000  0.000  0.000
  0.000  1.000  0.000  0.000  0.000
  0.000  0.000  1.000  0.000  0.000
  0.000  0.000  0.000  1.000  0.000
  0.000  0.000  0.000  0.000  1.000
    occupations:
  1.000  0.000  0.000  0.000  0.000
  0.000  1.000  0.000  0.000  0.000
  0.000  0.000  1.000  0.000  0.000
  0.000  0.000  0.000  1.000  0.000
  0.000  0.000  0.000  0.000  1.000
   spin  2
    eigenvalues:
  0.000  0.000  0.000  0.000  0.000
    eigenvectors:
  1.000  0.000  0.000  0.000  0.000
  0.000  1.000  0.000  0.000  0.000
  0.000  0.000  1.000  0.000  0.000
  0.000  0.000  0.000  1.000  0.000
  0.000  0.000  0.000  0.000  1.000
    occupations:
  0.000  0.000  0.000  0.000  0.000
  0.000  0.000  0.000  0.000  0.000
  0.000  0.000  0.000  0.000  0.000
  0.000  0.000  0.000  0.000  0.000
  0.000  0.000  0.000  0.000  0.000
atomic mag. moment =     5.000000
atom    4   Tr[ns(na)] (up, down, total) =   5.00000  0.00000  5.00000
   spin  1
    eigenvalues:
  1.000  1.000  1.000  1.000  1.000
    eigenvectors:
  1.000  0.000  0.000  0.000  0.000
  0.000  1.000  0.000  0.000  0.000
  0.000  0.000  1.000  0.000  0.000
  0.000  0.000  0.000  1.000  0.000
  0.000  0.000  0.000  0.000  1.000
    occupations:
  1.000  0.000  0.000  0.000  0.000
  0.000  1.000  0.000  0.000  0.000
  0.000  0.000  1.000  0.000  0.000
  0.000  0.000  0.000  1.000  0.000
  0.000  0.000  0.000  0.000  1.000
   spin  2
    eigenvalues:
  0.000  0.000  0.000  0.000  0.000
    eigenvectors:
  1.000  0.000  0.000  0.000  0.000
  0.000  1.000  0.000  0.000  0.000
  0.000  0.000  1.000  0.000  0.000
  0.000  0.000  0.000  1.000  0.000
  0.000  0.000  0.000  0.000  1.000
    occupations:
  0.000  0.000  0.000  0.000  0.000
  0.000  0.000  0.000  0.000  0.000
  0.000  0.000  0.000  0.000  0.000
[...]
atom    4   Tr[ns(na)] (up, down, total) =   4.19240  1.28522  5.47762
   spin  1
    eigenvalues:
  0.574  0.623  0.992  1.000  1.003
    eigenvectors:
  0.000  0.999  0.000  0.000  0.001
  0.000  0.001  0.000  0.010  0.989
  0.000  0.000  0.001  0.989  0.010
  0.000  0.000  0.999  0.001  0.000
  1.000  0.000  0.000  0.000  0.000
    occupations:
  0.624 -0.011 -0.005  0.005  0.000
 -0.011  1.003  0.000  0.000  0.000
 -0.005  0.000  1.000  0.000  0.000
  0.005  0.000  0.000  0.992  0.000
  0.000  0.000  0.000  0.000  0.574
   spin  2
    eigenvalues:
  0.118  0.165  0.198  0.399  0.404
    eigenvectors:
  0.002  0.004  0.000  0.002  0.992
  0.001  0.932  0.063  0.000  0.004
  0.000  0.063  0.937  0.000  0.001
  0.997  0.001  0.000  0.000  0.002
  0.000  0.000  0.000  0.998  0.002
    occupations:
  0.403  0.015  0.005 -0.012  0.000
  0.015  0.168 -0.008  0.000 -0.002
  0.005 -0.008  0.196  0.001  0.000
 -0.012  0.000  0.001  0.119  0.000
  0.000 -0.002  0.000  0.000  0.399
atomic mag. moment =     2.907189
atom    9   Tr[ns(na)] (up, down, total) =   4.14565  1.38499  5.53064
   spin  1
    eigenvalues:
  0.618  0.625  0.940  0.968  0.994
    eigenvectors:
  0.204  0.002  0.000  0.000  0.794
  0.007  0.993  0.000  0.000  0.000
  0.000  0.000  0.009  0.991  0.000
  0.789  0.005  0.000  0.000  0.206
  0.000  0.000  0.991  0.009  0.000
    occupations:
  0.917  0.000  0.000 -0.152  0.000
  0.000  0.625  0.000  0.001  0.000
  0.000  0.000  0.968 -0.001 -0.003
 -0.152  0.001 -0.001  0.695  0.000
  0.000  0.000 -0.003  0.000  0.940
   spin  2
    eigenvalues:
  0.165  0.184  0.193  0.405  0.438
    eigenvectors:
  0.828  0.000  0.000  0.172  0.000
  0.000  0.000  0.000  0.000  1.000
  0.000  0.993  0.006  0.000  0.000
  0.172  0.000  0.000  0.827  0.000
  0.000  0.006  0.994  0.000  0.000
    occupations:
  0.206  0.000  0.001  0.091  0.000
  0.000  0.438  0.000  0.000  0.000
  0.001  0.000  0.184  0.003  0.001
  0.091  0.000  0.003  0.363  0.000
  0.000  0.000  0.001  0.000  0.193
atomic mag. moment =     2.760663
atom   10   Tr[ns(na)] (up, down, total) =   4.46521  0.93342  5.39864
   spin  1
    eigenvalues:
  0.588  0.903  0.985  0.992  0.998
    eigenvectors:
  0.000  0.981  0.000  0.016  0.002
  0.000  0.000  1.000  0.000  0.000
  0.000  0.001  0.000  0.026  0.974
  0.000  0.018  0.000  0.958  0.024
  1.000  0.000  0.000  0.000  0.000
    occupations:
  0.905  0.000  0.003  0.012  0.000
  0.000  0.985  0.000  0.000 -0.002
  0.003  0.000  0.997  0.001  0.000
  0.012  0.000  0.001  0.990  0.000
  0.000 -0.002  0.000  0.000  0.588
   spin  2
    eigenvalues:
  0.103  0.124  0.132  0.207  0.367
    eigenvectors:
  0.018  0.000  0.000  0.982  0.000
  0.000  0.000  1.000  0.000  0.000
  0.004  0.996  0.000  0.000  0.000
  0.978  0.004  0.000  0.018  0.000
  0.000  0.000  0.000  0.000  1.000
    occupations:
  0.205  0.000  0.000 -0.014  0.000
  0.000  0.132  0.000  0.000  0.003
  0.000  0.000  0.124 -0.001  0.000
 -0.014  0.000 -0.001  0.105  0.000
  0.000  0.003  0.000  0.000  0.367
atomic mag. moment =     3.531790
atom   16   Tr[ns(na)] (up, down, total) =   4.22515  1.25005  5.47520
   spin  1
    eigenvalues:
  0.595  0.635  0.995  0.995  1.005
    eigenvectors:
  0.219  0.035  0.044  0.695  0.007
  0.202  0.795  0.001  0.002  0.000
  0.000  0.000  0.000  0.008  0.992
  0.579  0.169  0.015  0.236  0.001
  0.000  0.000  0.940  0.059  0.000
    occupations:
  0.895 -0.024 -0.004 -0.170 -0.001
 -0.024  0.628 -0.002 -0.005 -0.009
 -0.004 -0.002  1.005 -0.005  0.000
 -0.170 -0.005 -0.005  0.703  0.000
 -0.001 -0.009  0.000  0.000  0.995
   spin  2
    eigenvalues:
  0.119  0.159  0.196  0.382  0.394
    eigenvectors:
  0.773  0.000  0.002  0.038  0.187
  0.001  0.003  0.000  0.860  0.136
  0.002  0.005  0.992  0.000  0.000
  0.224  0.000  0.000  0.099  0.676
  0.000  0.992  0.005  0.002  0.000
    occupations:
  0.181  0.004 -0.001  0.114  0.001
  0.004  0.383  0.000 -0.006  0.011
 -0.001  0.000  0.195  0.005 -0.003
  0.114 -0.006  0.005  0.331 -0.001
  0.001  0.011 -0.003 -0.001  0.160
atomic mag. moment =     2.975107
atom   17   Tr[ns(na)] (up, down, total) =   4.19102  1.28689  5.47791
   spin  1
    eigenvalues:
  0.574  0.621  0.991  1.001  1.003
    eigenvectors:
  0.000  0.999  0.000  0.000  0.001
  0.000  0.001  0.000  0.019  0.980
  0.000  0.000  0.001  0.980  0.019
  0.000  0.000  0.999  0.001  0.000
  1.000  0.000  0.000  0.000  0.000
    occupations:
  0.622 -0.012 -0.005  0.004  0.000
 -0.012  1.003  0.000  0.000  0.001
 -0.005  0.000  1.001  0.000  0.000
  0.004  0.000  0.000  0.991  0.000
  0.000  0.001  0.000  0.000  0.574
   spin  2
    eigenvalues:
  0.118  0.165  0.199  0.401  0.405
    eigenvectors:
  0.002  0.004  0.000  0.003  0.991
  0.001  0.926  0.069  0.000  0.004
  0.000  0.069  0.931  0.000  0.001
  0.997  0.001  0.000  0.000  0.002
  0.000  0.000  0.000  0.997  0.003
    occupations:
  0.403  0.015  0.005 -0.012  0.000
  0.015  0.168 -0.008  0.001 -0.002
  0.005 -0.008  0.197  0.001  0.000
 -0.012  0.001  0.001  0.118  0.000
  0.000 -0.002  0.000  0.000  0.400
atomic mag. moment =     2.904130
atom   22   Tr[ns(na)] (up, down, total) =   4.14549  1.38524  5.53073
   spin  1
    eigenvalues:
  0.618  0.625  0.940  0.968  0.994
    eigenvectors:
  0.205  0.000  0.000  0.000  0.794
  0.002  0.998  0.000  0.000  0.000
  0.000  0.000  0.009  0.991  0.000
  0.793  0.001  0.000  0.000  0.206
  0.000  0.000  0.991  0.009  0.000
    occupations:
  0.917  0.001  0.000 -0.152  0.000
  0.001  0.625  0.000  0.000  0.000
  0.000  0.000  0.968 -0.001  0.003
 -0.152  0.000 -0.001  0.695  0.000
  0.000  0.000  0.003  0.000  0.940
   spin  2
    eigenvalues:
  0.165  0.184  0.193  0.405  0.438
    eigenvectors:
  0.828  0.000  0.000  0.172  0.000
  0.000  0.000  0.000  0.000  1.000
  0.000  0.992  0.008  0.000  0.000
  0.172  0.000  0.000  0.827  0.000
  0.000  0.008  0.992  0.000  0.000
    occupations:
  0.206 -0.001  0.001  0.090  0.000
 -0.001  0.438  0.000 -0.001  0.000
  0.001  0.000  0.185  0.003 -0.001
  0.090 -0.001  0.003  0.364  0.000
  0.000  0.000 -0.001  0.000  0.193
atomic mag. moment =     2.760248
atom   23   Tr[ns(na)] (up, down, total) =   4.26161  1.17771  5.43931
   spin  1
    eigenvalues:
  0.617  0.652  0.994  0.997  1.002
    eigenvectors:
  0.000  0.997  0.000  0.001  0.002
  0.000  0.000  1.000  0.000  0.000
  0.000  0.002  0.000  0.004  0.994
  0.000  0.001  0.000  0.995  0.004
  1.000  0.000  0.000  0.000  0.000
    occupations:
  0.653  0.000  0.015  0.009  0.000
  0.000  0.994  0.000  0.000 -0.003
  0.015  0.000  1.001 -0.001  0.000
  0.009  0.000 -0.001  0.997  0.000
  0.000 -0.003  0.000  0.000  0.617
   spin  2
    eigenvalues:
  0.122  0.162  0.163  0.328  0.403
    eigenvectors:
  0.003  0.000  0.001  0.996  0.000
  0.000  0.998  0.002  0.000  0.000
  0.001  0.002  0.996  0.001  0.000
  0.996  0.000  0.001  0.003  0.000
  0.000  0.000  0.000  0.000  1.000
    occupations:
  0.327  0.000 -0.006 -0.011  0.000
  0.000  0.162  0.000  0.000  0.003
 -0.006  0.000  0.164 -0.001  0.000
 -0.011  0.000 -0.001  0.122  0.000
  0.000  0.003  0.000  0.000  0.403
atomic mag. moment =     3.083901
N of occupied +U levels =  43.8052839
 --- exit write_ns ---

 ------ SPIN UP ------------

[...]

 ------ SPIN DOWN ----------

[...]

          k = 0.2500-0.4606 0.0000 ( 26462 PWs)   bands (ev):

[...]

          k =-0.2500 0.2303 0.0000 ( 26396 PWs)   bands (ev):

   -79.8359 -79.8278 -79.6984 -79.6462 -79.6362 -79.5913 -79.5830 -78.7357
   -48.7284 -48.6498 -48.6475 -48.6301 -48.6056 -48.5979 -48.5464 -48.5243
   -48.5050 -48.4947 -48.4723 -48.4692 -48.4522 -48.4510 -48.4476 -48.3913
   -48.3853 -48.2540 -48.2429 -48.2080 -48.1906 -47.8586 -47.6932 -47.1107
   -25.4831 -21.0007 -20.5410 -20.1850 -19.9598 -19.5375 -19.4800 -19.3831
   -19.2897 -19.1893 -19.1139 -19.0482 -19.0211 -18.9052 -18.8845 -18.7082
   -18.5459 -18.3427 -18.1795 -17.8546  -9.7822  -8.4809  -8.2203  -8.1671
    -7.7042  -7.5835  -7.5607  -7.3881  -7.1927  -6.9927  -6.8491  -6.7952
    -6.7707  -6.5712  -6.5443  -6.3751  -6.3378  -6.2184  -6.1408  -6.0965
    -6.0492  -5.8190  -5.7838  -5.6022  -5.5407  -5.5206  -5.4343  -5.2681
    -4.9724  -4.9223  -4.8906  -4.7330  -4.6485  -4.6000  -4.5771  -4.4403
    -4.3762  -4.2622  -4.2289  -4.0514  -3.9708  -3.8383  -3.7708  -3.6492
    -3.5232  -3.4661  -3.3267  -3.2748  -3.1789  -2.9922  -2.8792  -2.8582
    -2.7864  -2.5862  -2.4600  -2.4003  -2.3236  -2.1726  -1.8897   0.2310
     0.3165   0.3390   0.3612   0.4561   0.4923   0.5610   0.6292   0.7008
     0.7570   0.8150   0.8873   1.0033   1.0480   1.1112   1.1169   1.1818
     1.3181   1.3594   1.4622   1.5161   1.6184   1.6380   1.8122   1.8922
     1.9450   2.0015   2.2480   2.3213   2.3542   2.4947   2.5870   2.8241
     2.9262   3.0152   3.1432   3.1989   3.2527   3.4476   3.6229   3.6765
     3.9708   4.1657   4.3676   4.8251   5.3000   5.5518   5.7378   6.0757
     6.2623   6.3430   6.4543   6.5306   6.8564   6.9693   7.1840   7.5234
     7.6222   7.7926   7.9613   8.1851   8.3431   8.3958   8.5198   8.7061
     8.8159   8.9933   9.2020   9.3023   9.4921   9.6293   9.6833   9.8585
     9.9341  10.0349  10.1041  10.2073  10.2402  10.4633  10.5281  10.6023
    10.6994  10.8767  10.9389  11.0121  11.1243  11.2756  11.3486  11.4384
    11.5621  11.6828  11.7653  11.8434  11.9472  12.0394  12.1421  12.2317
    12.2541  12.3512  12.4931  12.5064  12.5405  12.6189  12.7685  12.8467
    12.9185  12.9977  13.0966  13.1940  13.2655  13.3588  13.4879  13.5098
    13.6100  13.6503  13.6714  13.7754  13.9588  14.0355  14.1095  14.1844
    14.3012  14.3750  14.3951  14.4647  14.4973  14.5867  14.7021  14.7683
    14.8512  14.9210  14.9787  15.0194  15.1809  15.2834  15.3113  15.3388
    15.4438  15.4629  15.5694  15.6630  15.7043  15.7745  15.8394  15.9214
    16.0310  16.1117  16.1901  16.2492  16.2944  16.3441  16.4464  16.4741
    16.5457  16.5876  16.6935  16.7522  16.8769  16.9413  17.0004  17.0535
    17.1670  17.2211  17.3054  17.3506  17.4166  17.5626  17.5988  17.6531
    17.7073  17.7896  17.8670  17.9290  17.9879  18.0195  18.0717  18.1832
    18.2589  18.3162  18.3960  18.4579  18.5612  18.6290  18.6927  18.7490
    18.8003  18.8490  18.9523  19.0109  19.0668  19.1225  19.1956  19.2246
    19.4032  19.4720  19.5797  19.6255  19.6899  19.7143  19.8204  19.8731
    19.9889  20.0248  20.0823  20.2557  20.2819  20.3538  20.4356  20.4903
    20.5892  20.6958  20.7706  20.8635  20.9136  20.9858  21.0365  21.1816
    21.2185  21.2632  21.2971  21.4115  21.4582  21.5640  21.6363  21.7286
    21.8490  21.9225  21.9983  22.0570  22.1029  22.1956  22.2485  22.3226
    22.4002  22.4656  22.5722  22.6314  22.6720  22.7370  22.7735  22.8701
    22.9810  23.0256  23.1123  23.2174  23.3296  23.3918  23.4649  23.5303
    23.6265  23.6612  23.6915  23.7313  23.7734  23.8186  23.8661

     the spin up/dw Fermi energies are    -1.2196   -0.9663 ev

!    total energy              =   -2353.45376817 Ry
     Harris-Foulkes estimate   =   -2353.45376818 Ry
     estimated scf accuracy    <          7.6E-09 Ry

     The total energy is the sum of the following terms:

     one-electron contribution =  -27044.77650820 Ry
     hartree contribution      =   13549.70161722 Ry
     xc contribution           =    -356.19613787 Ry
     ewald contribution        =   11497.02448244 Ry
     Hubbard energy            =       0.79346616 Ry
     smearing contrib. (-TS)   =      -0.00068792 Ry

     total magnetization       =    23.00 Bohr mag/cell
     absolute magnetization    =    27.84 Bohr mag/cell

     convergence has been achieved in  15 iterations

     Forces acting on atoms (Ry/au):

     negative rho (up, down):  0.203E-02 0.133E-02
     atom    1 type  1   force =    -0.00530921   -0.01640673    0.00008145
     atom    2 type  1   force =     0.00029244    0.01320309    0.00039136
     atom    3 type  2   force =    -0.00033263   -0.00369835    0.00016827
     atom    4 type  2   force =     0.00580858    0.01220338    0.00001106
     atom    5 type  1   force =     0.00346558    0.00983253   -0.00014743
     atom    6 type  1   force =    -0.00164360   -0.01356748   -0.00007554
     atom    7 type  1   force =     0.00000253   -0.00084271    0.00014350
     atom    8 type  1   force =    -0.00099375    0.00004474   -0.00005033
     atom    9 type  2   force =     0.00412120    0.00187004    0.00064999
     atom   10 type  2   force =    -0.00008477   -0.00413461    0.00061874
     atom   11 type  1   force =    -0.00410876   -0.04495623   -0.00008231
     atom   12 type  1   force =     0.00074797    0.05142731   -0.00019326
     atom   13 type  1   force =    -0.00032589   -0.00219035    0.00029719
     atom   14 type  1   force =    -0.00482794   -0.01568204    0.00034455
     atom   15 type  1   force =     0.00032777    0.01261879    0.00012258
     atom   16 type  2   force =    -0.00061816   -0.00363148    0.00019109
     atom   17 type  2   force =     0.00559319    0.01219763    0.00018450
     atom   18 type  1   force =     0.00227261    0.00983641   -0.00016772
     atom   19 type  1   force =    -0.00349823   -0.01355627   -0.00009891
     atom   20 type  1   force =     0.00000644   -0.00025794    0.00043795
     atom   21 type  1   force =    -0.00093882   -0.00000388   -0.00031508
     atom   22 type  2   force =    -0.00296809    0.00183368    0.00064932
     atom   23 type  2   force =    -0.00001955   -0.00811040   -0.00027712
     atom   24 type  1   force =     0.00425232   -0.04494984   -0.00007151
     atom   25 type  1   force =    -0.00068348    0.05148848   -0.00020468
     atom   26 type  1   force =    -0.00032513   -0.00458247   -0.00004901
     atom   27 type  3   force =     0.00000405   -0.00035184   -0.00031241
     atom   28 type  3   force =     0.00000551   -0.00022507   -0.00044566
     atom   29 type  3   force =    -0.00003403   -0.00007244   -0.00016490
     atom   30 type  3   force =    -0.00018809   -0.00018776   -0.00031040
     atom   31 type  1   force =    -0.00011704    0.00026727   -0.00023013
     atom   32 type  1   force =     0.00015176    0.00004718   -0.00024241
     atom   33 type  3   force =    -0.00003478    0.00053739   -0.00085273

     Total force =     0.002032     Total SCF correction =     0.000479
     SCF correction compared to forces is large: reduce conv_thr to get better values

     bfgs converged in  29 scf cycles and  28 bfgs steps
     (criteria: energy < 0.10E-03, force < 0.10E-02)

     End of BFGS Geometry Optimization

     Final energy   =   -2353.4537681730 Ry
Begin final coordinates

ATOMIC_POSITIONS (crystal)
O0       0.000000000   0.000000000   0.377699130    0   0   1
O0       0.000000000   0.500000000   0.398462033    0   0   1
Mn1      0.250000000   0.500000000   0.449916750    0   0   1
Mn1      0.000000000   0.000000000   0.449238409    0   0   1
O0       0.250000000   0.800000000   0.448860311    0   0   1
O0       0.250000000   0.200000000   0.450500894    0   0   1
O0       0.000000000   0.500000000   0.495801343    0   0   1
O0       0.000000000   0.000000000   0.524801393    0   0   1
Mn1      0.250000000   0.000000000   0.573830980    0   0   1
Mn1      0.000000000   0.500000000   0.570560729    0   0   1
O0       0.250000000   0.700000000   0.578486733    0   0   1
O0       0.250000000   0.300000000   0.580274596    0   0   1
O0       0.000000000   0.000000000   0.619043439    0   0   1
O0       0.500000000   0.000000000   0.377604159    0   0   1
O0       0.500000000   0.500000000   0.398390666    0   0   1
Mn1      0.750000000   0.500000000   0.449916995    0   0   1
Mn1      0.500000000   0.000000000   0.449045002    0   0   1
O0       0.750000000   0.800000000   0.448880067    0   0   1
O0       0.750000000   0.200000000   0.450472634    0   0   1
O0       0.500000000   0.500000000   0.498732763    0   0   1
O0       0.500000000   0.000000000   0.524800608    0   0   1
Mn1      0.750000000   0.000000000   0.573838797    0   0   1
Mn1      0.500000000   0.500000000   0.572268643    0   0   1
O0       0.750000000   0.700000000   0.578477694    0   0   1
O0       0.750000000   0.300000000   0.580283966    0   0   1
O0       0.500000000   0.000000000   0.618867587    0   0   1
H2       0.000216103   0.647979994   0.382715282
H2       0.500242330   0.647204840   0.382434002
H2       0.161876841   0.037898859   0.366472513
H2       0.661888282   0.038519548   0.366474397
O0       0.499700000   0.552719624   0.651436519    0   1   1
O0       0.500640000   0.370909227   0.682097653    0   1   1
H2       0.499720000   0.437250831   0.716643311    0   1   1
End final coordinates

     General routines

     Parallel routines
     Hubbard U routines

   This run was terminated on:  21: 9:37  20Sep2014

   JOB DONE.