     Program PWSCF v.5.0.2 (svn rev. 9656) starts on  8May2014 at 23:46:55

     Current dimensions of program PWSCF are:
     Max number of different atomic species (ntypx) = 10
     Max number of k-points (npk) =  40000
     Max angular momentum in pseudopotentials (lmaxx) =  3
     Reading input from pwscf.in
Warning: card &CELL ignored
Warning: card / ignored

     Subspace diagonalization in iterative solution of the eigenvalue problem:
     a serial algorithm will be used

     bravais-lattice index     =            0
     lattice parameter (alat)  =      11.1872  a.u.
     unit-cell volume          =    7531.8600 (a.u.)^3
     number of atoms/cell      =           30
     number of atomic types    =            3
     number of electrons       =       216.00
     number of Kohn-Sham states=          324
     kinetic-energy cutoff     =      40.0000  Ry
     charge density cutoff     =     500.0000  Ry
     convergence threshold     =      1.0E-06
     mixing beta               =       0.7000
     number of iterations used =            8  plain     mixing
     Exchange-correlation      = SLA  PW   PBE  PBE ( 1 4 3 4 0)
     EXX-fraction              =        0.00
     nstep                     =           50

     celldm(1)=  11.187179  celldm(2)=   0.000000  celldm(3)=   0.000000
     celldm(4)=   0.000000  celldm(5)=   0.000000  celldm(6)=   0.000000

     crystal axes: (cart. coord. in units of alat)
               a(1) = (   1.000000   0.000000   0.000000 )
               a(2) = (   0.000000   1.180104   0.000000 )
               a(3) = (   0.000000   0.000000   4.558482 )

     reciprocal axes: (cart. coord. in units 2 pi/alat)
               b(1) = (  1.000000  0.000000  0.000000 )
               b(2) = (  0.000000  0.847383  0.000000 )
               b(3) = (  0.000000  0.000000  0.219371 )

     PseudoPot. # 1 for O  read from file:
     /home/camp/zhonxu/pseudo/o_pbe_v1.01.uspp.F.UPF
     MD5 check sum: 2bcb18d16ea4b960afae9ec6d52f22d2
     Pseudo is Ultrasoft + core correction, Zval =  6.0
     Generated by new atomic code, or converted to UPF format
     Using radial grid of  737 points,  5 beta functions with:
                l(1) =   0
                l(2) =   0
                l(3) =   1
                l(4) =   1
                l(5) =   2
     Q(r) pseudized with  8 coefficients,  rinner =    0.900   0.900   0.900
                                                       0.900   0.900

     PseudoPot. # 2 for Nb read from file:
     /home/camp/zhonxu/pseudo/nb_pbe_v1.uspp.F.UPF
     MD5 check sum: 573aab8a2fa660278ed4a62cd769473f
     Pseudo is Ultrasoft + core correction, Zval = 13.0
     Generated by new atomic code, or converted to UPF format
     Using radial grid of  887 points,  6 beta functions with:
                l(1) =   0
                l(2) =   0
                l(3) =   1
                l(4) =   1
                l(5) =   2
                l(6) =   2
     Q(r) pseudized with  6 coefficients,  rinner =    1.000   1.000   1.000
                                                       1.000   1.000

     PseudoPot. # 3 for H  read from file:
     /home/camp/zhonxu/pseudo/h_pbe_v1.uspp.F.UPF
     MD5 check sum: 3408e3ff4ec8b0a4e358431e7e038a48
     Pseudo is Ultrasoft, Zval =  1.0
     Generated by new atomic code, or converted to UPF format
     Using radial grid of  615 points,  2 beta functions with:
                l(1) =   0
                l(2) =   0
     Q(r) pseudized with  8 coefficients,  rinner =    0.700

     atomic species   valence    mass     pseudopotential
        O0             6.00    15.99940     O ( 1.00)
        Nb1           13.00    92.90640     Nb( 1.00)
        H2             1.00     1.00794     H ( 1.00)

     Simplified LDA+U calculation (l_max = 2) with parameters (eV):
     atomic species    L          U    alpha       J0     beta
        Nb1            2     1.5000   0.0000   0.0000   0.0000

     No symmetry found

   Cartesian axes

     site n.     atom                  positions (alat units)
         1           O0  tau(   1) = (   0.0000000   0.0000000   1.7080633  )
         2           O0  tau(   2) = (   0.0000000   0.5900519   1.7583889  )
         3           Nb1 tau(   3) = (   0.2500000   0.5900519   2.0066439  )
         4           Nb1 tau(   4) = (   0.0000000   0.0000000   2.0401487  )
         5           O0  tau(   5) = (   0.2500000   0.9322821   2.0429294  )
         6           O0  tau(   6) = (   0.2500000   0.2478218   2.0431118  )
         7           O0  tau(   7) = (   0.0000000   0.5900519   2.2709903  )
         8           O0  tau(   8) = (   0.0000000   0.0000000   2.3999042  )
         9           Nb1 tau(   9) = (   0.2500000   0.0000000   2.6489340  )
        10           Nb1 tau(  10) = (   0.0000000   0.5900519   2.5868019  )
        11           O0  tau(  11) = (   0.2500000   0.8378738   2.6444667  )
        12           O0  tau(  12) = (   0.2500000   0.3422301   2.6445123  )
        13           O0  tau(  13) = (   0.0000000   0.0000000   2.8518777  )
        14           O0  tau(  14) = (   0.5000000   0.0000000   1.7080633  )
        15           O0  tau(  15) = (   0.5000000   0.5900519   1.7583889  )
        16           Nb1 tau(  16) = (   0.7500000   0.5900519   2.0066439  )
        17           Nb1 tau(  17) = (   0.5000000   0.0000000   2.0401487  )
        18           O0  tau(  18) = (   0.7500000   0.9322821   2.0429294  )
        19           O0  tau(  19) = (   0.7500000   0.2478218   2.0431118  )
        20           O0  tau(  20) = (   0.5000000   0.5900519   2.2709903  )
        21           O0  tau(  21) = (   0.5000000   0.0000000   2.3999497  )
        22           Nb1 tau(  22) = (   0.7500000   0.0000000   2.6489340  )
        23           Nb1 tau(  23) = (   0.5000000   0.5900519   2.5867563  )
        24           O0  tau(  24) = (   0.7500000   0.8378738   2.6444667  )
        25           O0  tau(  25) = (   0.7500000   0.3422301   2.6445123  )
        26           O0  tau(  26) = (   0.5000000   0.0000000   2.8518777  )
        27           H2  tau(  27) = (  -0.0004200   0.5934860   1.5928705  )
        28           H2  tau(  28) = (   0.4995800   0.5932146   1.5928249  )
        29           H2  tau(  29) = (   0.1513000  -0.0014397   1.6372701  )
        30           H2  tau(  30) = (   0.6512900  -0.0014397   1.6372701  )

     number of k points=    10  Methfessel-Paxton smearing, width (Ry)=  0.0100
                       cart. coord. in units 2pi/alat
        k(    1) = (   0.0000000   0.0000000   0.0000000), wk =   0.1250000
        k(    2) = (   0.0000000   0.2118458   0.0000000), wk =   0.2500000
        k(    3) = (   0.0000000  -0.4236915   0.0000000), wk =   0.1250000
        k(    4) = (   0.2500000   0.0000000   0.0000000), wk =   0.2500000
        k(    5) = (   0.2500000   0.2118458   0.0000000), wk =   0.2500000
        k(    6) = (   0.2500000  -0.4236915   0.0000000), wk =   0.2500000
        k(    7) = (  -0.5000000   0.0000000   0.0000000), wk =   0.1250000
        k(    8) = (  -0.5000000   0.2118458   0.0000000), wk =   0.2500000
        k(    9) = (  -0.5000000  -0.4236915   0.0000000), wk =   0.1250000
        k(   10) = (  -0.2500000   0.2118458   0.0000000), wk =   0.2500000

     Largest allocated arrays     est. size (Mb)     dimensions
     Largest temporary arrays     est. size (Mb)     dimensions

     Check: negative/imaginary core charge=   -0.000003    0.000000

     Initial potential from superposition of free atoms
     Check: negative starting charge=   -0.003843

     starting charge  215.97807, renormalised to  216.00000

     negative rho (up, down):  0.384E-02 0.000E+00
     Number of +U iterations with fixed ns =  0
     Starting occupations:
 --- enter write_ns ---
 LDA+U parameters:
U( 2)     =  1.50000000
alpha( 2) =  0.00000000
atom    3   Tr[ns(na)] =   3.00000
    eigenvalues:
  0.300  0.300  0.300  0.300  0.300
    eigenvectors:
  1.000  0.000  0.000  0.000  0.000
  0.000  1.000  0.000  0.000  0.000
  0.000  0.000  1.000  0.000  0.000
  0.000  0.000  0.000  1.000  0.000
  0.000  0.000  0.000  0.000  1.000
    occupations:
  0.300  0.000  0.000  0.000  0.000
  0.000  0.300  0.000  0.000  0.000
  0.000  0.000  0.300  0.000  0.000
  0.000  0.000  0.000  0.300  0.000
  0.000  0.000  0.000  0.000  0.300
atom    4   Tr[ns(na)] =   3.00000
    eigenvalues:
  0.300  0.300  0.300  0.300  0.300
    eigenvectors:
  1.000  0.000  0.000  0.000  0.000
  0.000  1.000  0.000  0.000  0.000
  0.000  0.000  1.000  0.000  0.000
  0.000  0.000  0.000  1.000  0.000
  0.000  0.000  0.000  0.000  1.000
    occupations:
  0.300  0.000  0.000  0.000  0.000
  0.000  0.300  0.000  0.000  0.000
  0.000  0.000  0.300  0.000  0.000
  0.000  0.000  0.000  0.300  0.000
  0.000  0.000  0.000  0.000  0.300
atom    9   Tr[ns(na)] =   3.00000
    eigenvalues:
  0.300  0.300  0.300  0.300  0.300
    eigenvectors:
  1.000  0.000  0.000  0.000  0.000
  0.000  1.000  0.000  0.000  0.000
  0.000  0.000  1.000  0.000  0.000
  0.000  0.000  0.000  1.000  0.000
  0.000  0.000  0.000  0.000  1.000
    occupations:
  0.300  0.000  0.000  0.000  0.000
  0.000  0.300  0.000  0.000  0.000
  0.000  0.000  0.300  0.000  0.000
  0.000  0.000  0.000  0.300  0.000
  0.000  0.000  0.000  0.000  0.300
atom   10   Tr[ns(na)] =   3.00000
    eigenvalues:
  0.300  0.300  0.300  0.300  0.300
    eigenvectors:
  1.000  0.000  0.000  0.000  0.000
  0.000  1.000  0.000  0.000  0.000
  0.000  0.000  1.000  0.000  0.000
  0.000  0.000  0.000  1.000  0.000
  0.000  0.000  0.000  0.000  1.000
    occupations:
  0.300  0.000  0.000  0.000  0.000
  0.000  0.300  0.000  0.000  0.000
  0.000  0.000  0.300  0.000  0.000
  0.000  0.000  0.000  0.300  0.000
  0.000  0.000  0.000  0.000  0.300
atom   16   Tr[ns(na)] =   3.00000
    eigenvalues:
  0.300  0.300  0.300  0.300  0.300
    eigenvectors:
  1.000  0.000  0.000  0.000  0.000
  0.000  1.000  0.000  0.000  0.000
  0.000  0.000  1.000  0.000  0.000
  0.000  0.000  0.000  1.000  0.000
  0.000  0.000  0.000  0.000  1.000
    occupations:
  0.300  0.000  0.000  0.000  0.000
  0.000  0.300  0.000  0.000  0.000
  0.000  0.000  0.300  0.000  0.000
  0.000  0.000  0.000  0.300  0.000
  0.000  0.000  0.000  0.000  0.300
atom   17   Tr[ns(na)] =   3.00000
    eigenvalues:
  0.300  0.300  0.300  0.300  0.300
    eigenvectors:
  1.000  0.000  0.000  0.000  0.000
  0.000  1.000  0.000  0.000  0.000
  0.000  0.000  1.000  0.000  0.000
  0.000  0.000  0.000  1.000  0.000
  0.000  0.000  0.000  0.000  1.000
    occupations:
  0.300  0.000  0.000  0.000  0.000
  0.000  0.300  0.000  0.000  0.000
  0.000  0.000  0.300  0.000  0.000
  0.000  0.000  0.000  0.300  0.000
  0.000  0.000  0.000  0.000  0.300
atom   22   Tr[ns(na)] =   3.00000
    eigenvalues:
  0.300  0.300  0.300  0.300  0.300
    eigenvectors:
  1.000  0.000  0.000  0.000  0.000
  0.000  1.000  0.000  0.000  0.000
  0.000  0.000  1.000  0.000  0.000
  0.000  0.000  0.000  1.000  0.000
  0.000  0.000  0.000  0.000  1.000
    occupations:
  0.300  0.000  0.000  0.000  0.000
  0.000  0.300  0.000  0.000  0.000
  0.000  0.000  0.300  0.000  0.000
  0.000  0.000  0.000  0.300  0.000
[...]
  0.000  0.000  0.000  0.580  0.420
  0.989  0.011  0.000  0.000  0.000
    occupations:
  0.658  0.000  0.001 -0.083 -0.000
  0.000  0.501  0.000  0.000  0.000
  0.001  0.000  0.428 -0.000 -0.004
 -0.083  0.000 -0.000  0.631  0.000
 -0.000  0.000 -0.004  0.000  0.387
atom    4   Tr[ns(na)] =   5.24545
    eigenvalues:
  0.416  0.451  0.548  0.578  0.630
    eigenvectors:
  0.000  0.005  0.000  0.995  0.000
  0.000  0.994  0.000  0.005  0.001
  1.000  0.000  0.000  0.000  0.000
  0.000  0.001  0.000  0.000  0.999
  0.000  0.000  1.000  0.000  0.000
    occupations:
  0.577  0.009 -0.000  0.000 -0.000
  0.009  0.452  0.000 -0.005 -0.000
 -0.000  0.000  0.416  0.000  0.001
  0.000 -0.005  0.000  0.629  0.000
 -0.000 -0.000  0.001  0.000  0.548
atom    9   Tr[ns(na)] =   5.28877
    eigenvalues:
  0.456  0.468  0.514  0.601  0.606
    eigenvectors:
  0.884  0.000  0.000  0.116  0.000
  0.000  0.000  0.000  0.000  1.000
  0.000  0.000  1.000  0.000  0.000
  0.116  0.000  0.000  0.884  0.000
  0.000  1.000  0.000  0.000  0.000
    occupations:
  0.472 -0.000 -0.000  0.046  0.000
 -0.000  0.606  0.000 -0.000  0.000
 -0.000  0.000  0.514  0.000  0.000
  0.046 -0.000  0.000  0.584 -0.000
  0.000  0.000  0.000 -0.000  0.468
atom   10   Tr[ns(na)] =   5.13990
    eigenvalues:
  0.394  0.499  0.512  0.519  0.646
    eigenvectors:
  0.000  0.996  0.000  0.000  0.004
  0.000  0.000  1.000  0.000  0.000
  1.000  0.000  0.000  0.000  0.000
  0.000  0.004  0.000  0.000  0.996
  0.000  0.000  0.000  1.000  0.000
    occupations:
  0.500  0.000  0.000 -0.009  0.000
  0.000  0.512 -0.000 -0.000 -0.000
  0.000 -0.000  0.394 -0.000  0.000
 -0.009 -0.000 -0.000  0.645 -0.000
  0.000 -0.000  0.000 -0.000  0.519
atom   16   Tr[ns(na)] =   5.20919
    eigenvalues:
  0.387  0.428  0.501  0.560  0.729
    eigenvectors:
  0.000  0.000  0.000  0.420  0.580
  0.000  0.000  1.000  0.000  0.000
  0.011  0.989  0.000  0.000  0.000
  0.000  0.000  0.000  0.580  0.420
  0.989  0.011  0.000  0.000  0.000
    occupations:
  0.658  0.000  0.001 -0.083  0.000
  0.000  0.501  0.000  0.000  0.000
  0.001  0.000  0.428 -0.000 -0.004
 -0.083  0.000 -0.000  0.631 -0.000
  0.000  0.000 -0.004 -0.000  0.387
atom   17   Tr[ns(na)] =   5.24549
    eigenvalues:
  0.416  0.451  0.548  0.578  0.630
    eigenvectors:
  0.000  0.005  0.000  0.995  0.000
  0.000  0.995  0.000  0.005  0.001
  1.000  0.000  0.000  0.000  0.000
  0.000  0.001  0.000  0.000  0.999
  0.000  0.000  1.000  0.000  0.000
    occupations:
  0.577  0.009 -0.000  0.000 -0.000
  0.009  0.452  0.000 -0.005 -0.000
 -0.000  0.000  0.416  0.000  0.001
  0.000 -0.005  0.000  0.629  0.000
 -0.000 -0.000  0.001  0.000  0.548
atom   22   Tr[ns(na)] =   5.28877
    eigenvalues:
  0.456  0.468  0.514  0.601  0.606
    eigenvectors:
  0.884  0.000  0.000  0.116  0.000
  0.000  0.000  0.000  0.000  1.000
  0.000  0.000  1.000  0.000  0.000
  0.116  0.000  0.000  0.884  0.000
  0.000  1.000  0.000  0.000  0.000
    occupations:
  0.472 -0.000 -0.000  0.046  0.000
 -0.000  0.606  0.000 -0.000  0.000
 -0.000  0.000  0.514  0.000  0.000
  0.046 -0.000  0.000  0.584 -0.000
  0.000  0.000  0.000 -0.000  0.468
atom   23   Tr[ns(na)] =   5.13993
    eigenvalues:
  0.394  0.499  0.512  0.519  0.646
    eigenvectors:
  0.000  0.996  0.000  0.000  0.004
  0.000  0.000  1.000  0.000  0.000
  1.000  0.000  0.000  0.000  0.000
  0.000  0.004  0.000  0.000  0.996
  0.000  0.000  0.000  1.000  0.000
    occupations:
  0.500  0.000  0.000 -0.009  0.000
  0.000  0.512 -0.000 -0.000  0.000
  0.000 -0.000  0.394 -0.000  0.000
 -0.009 -0.000 -0.000  0.645 -0.000
  0.000  0.000  0.000 -0.000  0.519
N of occupied +U levels =  41.7666725
 --- exit write_ns ---

     Threshold (ethr) on eigenvalues was too large:
     Diagonalizing with lowered threshold

     Davidson diagonalization with overlap
     ethr =  1.37E-08,  avg # of iterations =  2.3

[...]

     total energy              =   -1529.14260623 Ry
     Harris-Foulkes estimate   =   -1529.14260623 Ry
     estimated scf accuracy    <       0.00000002 Ry

     iteration # 11     ecut=    40.00 Ry     beta=0.70
     Davidson diagonalization with overlap
     ethr =  9.76E-12,  avg # of iterations =  1.0

     negative rho (up, down):  0.358E-02 0.000E+00

     End of self-consistent calculation
 --- enter write_ns ---
 LDA+U parameters:
U( 2)     =  1.50000000
alpha( 2) =  0.00000000
atom    3   Tr[ns(na)] =   5.21044
    eigenvalues:
  0.387  0.429  0.501  0.560  0.729
    eigenvectors:
  0.000  0.000  0.000  0.420  0.580
  0.000  0.000  1.000  0.000  0.000
  0.011  0.989  0.000  0.000  0.000
  0.000  0.000  0.000  0.580  0.420
  0.989  0.011  0.000  0.000  0.000
    occupations:
  0.658  0.000  0.001 -0.083 -0.000
  0.000  0.501  0.000  0.000  0.000
  0.001  0.000  0.428 -0.000 -0.004
 -0.083  0.000 -0.000  0.631  0.000
 -0.000  0.000 -0.004  0.000  0.387
atom    4   Tr[ns(na)] =   5.24551
    eigenvalues:
  0.416  0.451  0.548  0.578  0.630
    eigenvectors:
  0.000  0.005  0.000  0.995  0.000
  0.000  0.995  0.000  0.005  0.001
  1.000  0.000  0.000  0.000  0.000
  0.000  0.001  0.000  0.000  0.999
  0.000  0.000  1.000  0.000  0.000
    occupations:
  0.577  0.009 -0.000  0.000 -0.000
  0.009  0.452  0.000 -0.005 -0.000
 -0.000  0.000  0.416  0.000  0.001
  0.000 -0.005  0.000  0.630  0.000
 -0.000 -0.000  0.001  0.000  0.548
atom    9   Tr[ns(na)] =   5.28909
    eigenvalues:
  0.456  0.468  0.514  0.601  0.606
    eigenvectors:
  0.884  0.000  0.000  0.116  0.000
  0.000  0.000  0.000  0.000  1.000
  0.000  0.000  1.000  0.000  0.000
  0.116  0.000  0.000  0.884  0.000
  0.000  1.000  0.000  0.000  0.000
    occupations:
  0.472 -0.000 -0.000  0.046  0.000
 -0.000  0.606  0.000 -0.000  0.000
 -0.000  0.000  0.514  0.000  0.000
  0.046 -0.000  0.000  0.584 -0.000
  0.000  0.000  0.000 -0.000  0.468
atom   10   Tr[ns(na)] =   5.13870
    eigenvalues:
  0.394  0.499  0.511  0.519  0.646
    eigenvectors:
  0.000  0.996  0.000  0.000  0.004
  0.000  0.000  1.000  0.000  0.000
  1.000  0.000  0.000  0.000  0.000
  0.000  0.004  0.000  0.000  0.996
  0.000  0.000  0.000  1.000  0.000
    occupations:
  0.500  0.000  0.000 -0.009  0.000
  0.000  0.511 -0.000 -0.000 -0.000
  0.000 -0.000  0.394 -0.000  0.000
 -0.009 -0.000 -0.000  0.645 -0.000
  0.000 -0.000  0.000 -0.000  0.519
atom   16   Tr[ns(na)] =   5.21044
    eigenvalues:
  0.387  0.429  0.501  0.560  0.729
    eigenvectors:
  0.000  0.000  0.000  0.420  0.580
  0.000  0.000  1.000  0.000  0.000
  0.011  0.989  0.000  0.000  0.000
  0.000  0.000  0.000  0.580  0.420
  0.989  0.011  0.000  0.000  0.000
    occupations:
  0.658  0.000  0.001 -0.083  0.000
  0.000  0.501  0.000  0.000  0.000
  0.001  0.000  0.428 -0.000 -0.004
 -0.083  0.000 -0.000  0.631 -0.000
  0.000  0.000 -0.004 -0.000  0.387
atom   17   Tr[ns(na)] =   5.24558
    eigenvalues:
  0.416  0.451  0.548  0.578  0.630
    eigenvectors:
  0.000  0.005  0.000  0.995  0.000
  0.000  0.995  0.000  0.005  0.001
  1.000  0.000  0.000  0.000  0.000
  0.000  0.001  0.000  0.000  0.999
  0.000  0.000  1.000  0.000  0.000
    occupations:
  0.577  0.009 -0.000  0.000 -0.000
  0.009  0.452  0.000 -0.005 -0.000
 -0.000  0.000  0.416  0.000  0.001
  0.000 -0.005  0.000  0.629  0.000
 -0.000 -0.000  0.001  0.000  0.548
atom   22   Tr[ns(na)] =   5.28909
    eigenvalues:
  0.456  0.468  0.514  0.601  0.606
    eigenvectors:
  0.884  0.000  0.000  0.116  0.000
  0.000  0.000  0.000  0.000  1.000
  0.000  0.000  1.000  0.000  0.000
  0.116  0.000  0.000  0.884  0.000
  0.000  1.000  0.000  0.000  0.000
    occupations:
  0.472 -0.000 -0.000  0.046  0.000
 -0.000  0.606  0.000 -0.000  0.000
 -0.000  0.000  0.514  0.000  0.000
  0.046 -0.000  0.000  0.584 -0.000
  0.000  0.000  0.000 -0.000  0.468
atom   23   Tr[ns(na)] =   5.13859
    eigenvalues:
  0.394  0.499  0.511  0.519  0.646
    eigenvectors:
  0.000  0.996  0.000  0.000  0.004
  0.000  0.000  1.000  0.000  0.000
  1.000  0.000  0.000  0.000  0.000
  0.000  0.004  0.000  0.000  0.996
  0.000  0.000  0.000  1.000  0.000
    occupations:
  0.499  0.000  0.000 -0.009  0.000
  0.000  0.511 -0.000 -0.000  0.000
  0.000 -0.000  0.394 -0.000  0.000
 -0.009 -0.000 -0.000  0.645 -0.000
  0.000  0.000  0.000 -0.000  0.519
N of occupied +U levels =  41.7674320
 --- exit write_ns ---

[...]

          k = 0.2500-0.4237 0.0000 ( 32188 PWs)   bands (ev):

[...]

          k =-0.2500 0.2118 0.0000 ( 32165 PWs)   bands (ev):

   -56.1838 -56.1194 -55.7713 -55.7153 -55.6283 -55.6171 -55.5736 -55.5623
   -33.0114 -32.3811 -32.2843 -32.2569 -32.2241 -32.2135 -32.1896 -32.1659
   -32.1427 -32.0660 -32.0549 -32.0159 -31.9685 -31.9584 -31.8893 -31.7954
   -31.6824 -31.6693 -31.6119 -31.5924 -31.5554 -31.4735 -31.4002 -31.3141
   -20.4061 -20.2873 -19.2571 -18.9752 -18.9214 -18.8190 -18.7301 -18.7015
   -18.6707 -18.6327 -18.6055 -18.5745 -18.1068 -18.0793 -18.0135 -17.9882
   -17.8752 -17.7320  -8.8436  -8.5838  -7.4867  -6.9278  -6.7476  -6.6219
    -6.5190  -6.4103  -6.3370  -6.1595  -6.1365  -6.1041  -6.0922  -5.8722
    -5.8694  -5.8271  -5.8097  -5.5315  -5.5305  -5.4362  -5.1146  -5.0993
    -5.0266  -4.9379  -4.8228  -4.6516  -4.5036  -4.3831  -4.3170  -4.3021
    -4.2487  -4.1737  -3.9766  -3.9685  -3.9520  -3.8925  -3.8524  -3.8258
    -3.5950  -3.5553  -3.5106  -3.4920  -3.3842  -3.3032  -3.1656  -3.1401
    -3.0658  -2.9840  -2.8603  -2.7316  -2.6672  -2.5564  -2.4945  -2.1799
    -0.3660   0.3562   0.4773   0.9706   1.0379   1.3238   1.5757   1.7162
     1.7393   1.8609   2.1056   2.1666   2.2990   2.3903   2.3952   2.5124
     2.6110   2.6786   2.7376   2.8082   2.8502   2.9345   2.9922   3.0558
     3.2501   3.3656   3.6276   4.2416   4.5146   4.5628   4.6909   4.8483
     4.9664   5.1104   5.1174   5.2113   5.3133   5.3803   5.5461   5.6617
     5.7742   5.8857   5.9668   6.0247   6.2365   6.3173   6.4008   6.5061
     6.5423   6.6212   6.6820   6.8224   6.9513   7.0136   7.2123   7.2473
     7.3697   7.5257   7.7259   7.8116   7.9256   7.9452   8.1337   8.1584
     8.2774   8.3263   8.4451   8.6641   8.7115   8.8565   9.0323   9.0619
     9.0805   9.2121   9.3209   9.4398   9.5689   9.5883   9.6528   9.7740
     9.8783   9.9551  10.0030  10.1606  10.2061  10.3578  10.4214  10.6063
    10.7206  10.7546  10.9195  10.9623  11.0236  11.0748  11.1611  11.2287
    11.2526  11.3849  11.4667  11.4730  11.5259  11.5463  11.7422  11.8589
    11.9158  12.0531  12.0989  12.1788  12.2329  12.3295  12.4542  12.4757
    12.6456  12.6778  12.7211  12.7801  12.8671  12.8790  12.9115  12.9576
    13.0546  13.0833  13.1928  13.2547  13.3072  13.4103  13.4845  13.4918
    13.6692  13.7022  13.7645  13.9041  13.9283  13.9522  13.9696  14.0724
    14.1075  14.2728  14.3157  14.4066  14.4989  14.6124  14.6500  14.8600
    14.8939  14.9145  15.0602  15.1329  15.1872  15.2334  15.2512  15.3639
    15.3853  15.4034  15.4869  15.5204  15.5936  15.7233  15.7852  15.7930
    15.8231  15.8891  16.0340  16.0391  16.0746  16.2529  16.2636  16.3951
    16.4430  16.5928  16.5966  16.6583  16.7449  16.7454  16.7814  16.8810
    16.9801  16.9936  17.0357  17.2303  17.2700  17.2791  17.3797  17.4188
    17.4680  17.5472  17.6339  17.6816  17.7174  17.8532  17.8742  17.9907
    18.0312  18.0581  18.0895  18.2385  18.3291  18.4212  18.5045  18.5937
    18.6176  18.7035  18.7374  18.7885  18.8660  18.9120  18.9346  19.0397
    19.1733  19.1748  19.2832  19.2973  19.3328  19.3736  19.4237  19.5436
    19.5462  19.5995  19.6459  19.7143

     the Fermi energy is     1.0263 ev

!    total energy              =   -1529.14260623 Ry
     Harris-Foulkes estimate   =   -1529.14260623 Ry
     estimated scf accuracy    <          1.1E-09 Ry

     The total energy is the sum of the following terms:

     one-electron contribution =  -18306.81485645 Ry
     hartree contribution      =    9180.06400663 Ry
     xc contribution           =    -279.68224779 Ry
     ewald contribution        =    7876.22586969 Ry
     Hubbard energy            =       1.06589494 Ry
     smearing contrib. (-TS)   =      -0.00127324 Ry

     convergence has been achieved in  11 iterations

     Forces acting on atoms (Ry/au):

     negative rho (up, down):  0.358E-02 0.000E+00
     atom    1 type  1   force =     0.00019564   -0.00044194   -0.00068816
     atom    2 type  1   force =    -0.00092076    0.00063621   -0.00012940
     atom    3 type  2   force =     0.00135928   -0.00042062   -0.00039885
     atom    4 type  2   force =    -0.00385542    0.00035239   -0.00037887
     atom    5 type  1   force =     0.00037710   -0.02621750   -0.00004205
     atom    6 type  1   force =     0.00052729    0.02596445   -0.00000373
     atom    7 type  1   force =     0.00003341    0.00011200    0.00033826
     atom    8 type  1   force =     0.00169636   -0.00001972    0.00005440
     atom    9 type  2   force =    -0.00023952    0.00001952    0.00037315
     atom   10 type  2   force =     0.00007956   -0.00000511    0.00033390
     atom   11 type  1   force =     0.00003314   -0.04453286    0.00008229
     atom   12 type  1   force =     0.00004188    0.04452229    0.00008645
     atom   13 type  1   force =     0.00034587   -0.00000148    0.00070221
     atom   14 type  1   force =     0.00018828   -0.00043011   -0.00069123
     atom   15 type  1   force =    -0.00092095    0.00060101   -0.00017252
     atom   16 type  2   force =     0.00135827   -0.00042302   -0.00039916
     atom   17 type  2   force =    -0.00386024    0.00035022   -0.00039206
     atom   18 type  1   force =     0.00040755   -0.02621704   -0.00004228
     atom   19 type  1   force =     0.00052817    0.02596519   -0.00000322
     atom   20 type  1   force =     0.00003323    0.00010610    0.00039234
     atom   21 type  1   force =     0.00169755   -0.00002028    0.00017103
     atom   22 type  2   force =    -0.00021714    0.00001963    0.00037326
     atom   23 type  2   force =     0.00007963   -0.00000684    0.00027581
     atom   24 type  1   force =     0.00001686   -0.04453292    0.00008228
     atom   25 type  1   force =     0.00002213    0.04452228    0.00008643
     atom   26 type  1   force =     0.00034580   -0.00000139    0.00068971
     atom   27 type  3   force =    -0.00002002   -0.00024630   -0.00043572
     atom   28 type  3   force =    -0.00001990   -0.00024515   -0.00040889
     atom   29 type  3   force =     0.00034130    0.00029705    0.00007544
     atom   30 type  3   force =     0.00034568    0.00029395    0.00006917

     Total force =     0.002069     Total SCF correction =     0.000109

     bfgs converged in   6 scf cycles and   5 bfgs steps
     (criteria: energy < 0.10E-03, force < 0.10E-02)

     End of BFGS Geometry Optimization

     Final energy   =   -1529.1426062288 Ry
Begin final coordinates

ATOMIC_POSITIONS (crystal)
O0       0.000000000   0.000000000   0.374853509    0   0   1
O0       0.000000000   0.500000000   0.385562876    0   0   1
Nb1      0.250000000   0.500000000   0.440150964    0   0   1
Nb1      0.000000000   0.000000000   0.447651292    0   0   1
O0       0.250000000   0.790000000   0.447927492    0   0   1
O0       0.250000000   0.210000000   0.447917160    0   0   1
O0       0.000000000   0.500000000   0.498117161    0   0   1
O0       0.000000000   0.000000000   0.526371965    0   0   1
Nb1      0.250000000   0.000000000   0.581089351    0   0   1
Nb1      0.000000000   0.500000000   0.567390412    0   0   1
O0       0.250000000   0.710000000   0.580630217    0   0   1
O0       0.250000000   0.290000000   0.580628744    0   0   1
O0       0.000000000   0.000000000   0.625468122    0   0   1
O0       0.500000000   0.000000000   0.374853786    0   0   1
O0       0.500000000   0.500000000   0.385564770    0   0   1
Nb1      0.750000000   0.500000000   0.440151012    0   0   1
Nb1      0.500000000   0.000000000   0.447652431    0   0   1
O0       0.750000000   0.790000000   0.447927411    0   0   1
O0       0.750000000   0.210000000   0.447917260    0   0   1
O0       0.500000000   0.500000000   0.498116100    0   0   1
O0       0.500000000   0.000000000   0.526364558    0   0   1
Nb1      0.750000000   0.000000000   0.581089342    0   0   1
Nb1      0.500000000   0.500000000   0.567392836    0   0   1
O0       0.750000000   0.710000000   0.580630221    0   0   1
O0       0.750000000   0.290000000   0.580628767    0   0   1
O0       0.500000000   0.000000000   0.625468295    0   0   1
H2      -0.000463895   0.502590368   0.349253802
H2       0.499536226   0.502361477   0.349254096
H2       0.151011775  -0.000780970   0.359232971
H2       0.651010098  -0.000785655   0.359233076
End final coordinates

     General routines

     Parallel routines
     Hubbard U routines

   This run was terminated on:   3:54: 2   9May2014

   JOB DONE.