     Program PWSCF v.5.0.2 (svn rev. 9656) starts on  9May2014 at 19:21:19

     Current dimensions of program PWSCF are:
     Max number of different atomic species (ntypx) = 10
     Max number of k-points (npk) =  40000
     Max angular momentum in pseudopotentials (lmaxx) =  3
     Reading input from pwscf.in
Warning: card &CELL ignored
Warning: card / ignored

     Subspace diagonalization in iterative solution of the eigenvalue problem:
     a serial algorithm will be used

     bravais-lattice index     =            0
     lattice parameter (alat)  =      10.9604  a.u.
     unit-cell volume          =    6350.6732 (a.u.)^3
     number of atoms/cell      =           30
     number of atomic types    =            3
     number of electrons       =       224.00 (up: 120.00, down: 104.00)
     number of Kohn-Sham states=          324
     kinetic-energy cutoff     =      40.0000  Ry
     charge density cutoff     =     500.0000  Ry
     convergence threshold     =      1.0E-06
     mixing beta               =       0.7000
     number of iterations used =            8  plain     mixing
     Exchange-correlation      = SLA  PW   PBE  PBE ( 1 4 3 4 0)
     EXX-fraction              =        0.00
     nstep                     =           50

     celldm(1)=  10.960412  celldm(2)=   0.000000  celldm(3)=   0.000000
     celldm(4)=   0.000000  celldm(5)=   0.000000  celldm(6)=   0.000000

     crystal axes: (cart. coord. in units of alat)
               a(1) = (   1.000000   0.000000   0.000000 )
               a(2) = (   0.000000   1.067975   0.000000 )
               a(3) = (   0.000000   0.000000   4.516251 )

     reciprocal axes: (cart. coord. in units 2 pi/alat)
               b(1) = (  1.000000  0.000000  0.000000 )
               b(2) = (  0.000000  0.936351  0.000000 )
               b(3) = (  0.000000  0.000000  0.221423 )

     PseudoPot. # 1 for O  read from file:
     /home/camp/zhonxu/pseudo/o_pbe_v1.01.uspp.F.UPF
     MD5 check sum: 2bcb18d16ea4b960afae9ec6d52f22d2
     Pseudo is Ultrasoft + core correction, Zval =  6.0
     Generated by new atomic code, or converted to UPF format
     Using radial grid of  737 points,  5 beta functions with:
                l(1) =   0
                l(2) =   0
                l(3) =   1
                l(4) =   1
                l(5) =   2
     Q(r) pseudized with  8 coefficients,  rinner =    0.900   0.900   0.900
                                                       0.900   0.900

     PseudoPot. # 2 for Cr read from file:
     /home/camp/zhonxu/pseudo/cr_pbe_v1.uspp.F.UPF
     MD5 check sum: 68b6f918d1762dccfb11451fe85b0e0e
     Pseudo is Ultrasoft + core correction, Zval = 14.0
     Generated by new atomic code, or converted to UPF format
     Using radial grid of  857 points,  6 beta functions with:
                l(1) =   0
                l(2) =   0
                l(3) =   1
                l(4) =   1
                l(5) =   2
                l(6) =   2
     Q(r) pseudized with  6 coefficients,  rinner =    1.000   1.000   1.000
                                                       1.000   1.000

     PseudoPot. # 3 for H  read from file:
     /home/camp/zhonxu/pseudo/h_pbe_v1.uspp.F.UPF
     MD5 check sum: 3408e3ff4ec8b0a4e358431e7e038a48
     Pseudo is Ultrasoft, Zval =  1.0
     Generated by new atomic code, or converted to UPF format
     Using radial grid of  615 points,  2 beta functions with:
                l(1) =   0
                l(2) =   0
     Q(r) pseudized with  8 coefficients,  rinner =    0.700

     atomic species   valence    mass     pseudopotential
        O0             6.00    15.99940     O ( 1.00)
        Cr1           14.00    51.99600     Cr( 1.00)
        H2             1.00     1.00794     H ( 1.00)

     Starting magnetic structure
     atomic species   magnetization
        O0           0.000
        Cr1          0.600
        H2           0.000

     Simplified LDA+U calculation (l_max = 2) with parameters (eV):
     atomic species    L          U    alpha       J0     beta
        Cr1            2     2.5000   0.0000   0.0000   0.0000

     No symmetry found

   Cartesian axes

     site n.     atom                  positions (alat units)
         1           O0  tau(   1) = (   0.0000000   0.0000000   1.7181625  )
         2           O0  tau(   2) = (   0.0000000   0.5339875   1.8008551  )
         3           Cr1 tau(   3) = (   0.2500000   0.5339875   2.0300096  )
         4           Cr1 tau(   4) = (   0.0000000   0.0000000   2.0413454  )
         5           O0  tau(   5) = (   0.2500000   0.8543801   2.0369195  )
         6           O0  tau(   6) = (   0.2500000   0.2135950   2.0378227  )
         7           O0  tau(   7) = (   0.0000000   0.5339875   2.2471058  )
         8           O0  tau(   8) = (   0.0000000   0.0000000   2.3700833  )
         9           Cr1 tau(   9) = (   0.2500000   0.0000000   2.6079543  )
        10           Cr1 tau(  10) = (   0.0000000   0.5339875   2.5535334  )
        11           O0  tau(  11) = (   0.2500000   0.7475825   2.5983798  )
        12           O0  tau(  12) = (   0.2500000   0.3203925   2.5982895  )
        13           O0  tau(  13) = (   0.0000000   0.0000000   2.7910882  )
        14           O0  tau(  14) = (   0.5000000   0.0000000   1.7181625  )
        15           O0  tau(  15) = (   0.5000000   0.5339875   1.8008551  )
        16           Cr1 tau(  16) = (   0.7500000   0.5339875   2.0300096  )
        17           Cr1 tau(  17) = (   0.5000000   0.0000000   2.0413454  )
        18           O0  tau(  18) = (   0.7500000   0.8543801   2.0369195  )
        19           O0  tau(  19) = (   0.7500000   0.2135950   2.0378227  )
        20           O0  tau(  20) = (   0.5000000   0.5339875   2.2471058  )
        21           O0  tau(  21) = (   0.5000000   0.0000000   2.3700833  )
        22           Cr1 tau(  22) = (   0.7500000   0.0000000   2.6079543  )
        23           Cr1 tau(  23) = (   0.5000000   0.5339875   2.5535334  )
        24           O0  tau(  24) = (   0.7500000   0.7475825   2.5983798  )
        25           O0  tau(  25) = (   0.7500000   0.3203925   2.5982895  )
        26           O0  tau(  26) = (   0.5000000   0.0000000   2.7910882  )
        27           H2  tau(  27) = (  -0.0006900   0.6851274   1.7196980  )
        28           H2  tau(  28) = (   0.4993100   0.6851274   1.7196980  )
        29           H2  tau(  29) = (   0.1573400   0.0316548   1.6594512  )
        30           H2  tau(  30) = (   0.6573500   0.0316548   1.6594512  )

     number of k points=    20  Methfessel-Paxton smearing, width (Ry)=  0.0100
                       cart. coord. in units 2pi/alat
        k(    1) = (   0.0000000   0.0000000   0.0000000), wk =   0.0625000
        k(    2) = (   0.0000000   0.2340879   0.0000000), wk =   0.1250000
        k(    3) = (   0.0000000  -0.4681757   0.0000000), wk =   0.0625000
        k(    4) = (   0.2500000   0.0000000   0.0000000), wk =   0.1250000
        k(    5) = (   0.2500000   0.2340879   0.0000000), wk =   0.1250000
        k(    6) = (   0.2500000  -0.4681757   0.0000000), wk =   0.1250000
        k(    7) = (  -0.5000000   0.0000000   0.0000000), wk =   0.0625000
        k(    8) = (  -0.5000000   0.2340879   0.0000000), wk =   0.1250000
        k(    9) = (  -0.5000000  -0.4681757   0.0000000), wk =   0.0625000
        k(   10) = (  -0.2500000   0.2340879   0.0000000), wk =   0.1250000
        k(   11) = (   0.0000000   0.0000000   0.0000000), wk =   0.0625000
        k(   12) = (   0.0000000   0.2340879   0.0000000), wk =   0.1250000
        k(   13) = (   0.0000000  -0.4681757   0.0000000), wk =   0.0625000
        k(   14) = (   0.2500000   0.0000000   0.0000000), wk =   0.1250000
        k(   15) = (   0.2500000   0.2340879   0.0000000), wk =   0.1250000
        k(   16) = (   0.2500000  -0.4681757   0.0000000), wk =   0.1250000
        k(   17) = (  -0.5000000   0.0000000   0.0000000), wk =   0.0625000
        k(   18) = (  -0.5000000   0.2340879   0.0000000), wk =   0.1250000
        k(   19) = (  -0.5000000  -0.4681757   0.0000000), wk =   0.0625000
        k(   20) = (  -0.2500000   0.2340879   0.0000000), wk =   0.1250000

     Largest allocated arrays     est. size (Mb)     dimensions
     Largest temporary arrays     est. size (Mb)     dimensions

     Check: negative/imaginary core charge=   -0.000012    0.000000

     Initial potential from superposition of free atoms
     Check: negative starting charge=(component1):   -0.001590
     Check: negative starting charge=(component2):   -0.000511

     starting charge  215.99984, renormalised to  224.00000

     negative rho (up, down):  0.165E-02 0.530E-03
     Number of +U iterations with fixed ns =  0
     Starting occupations:
 --- enter write_ns ---
 LDA+U parameters:
U( 2)     =  2.50000000
alpha( 2) =  0.00000000
atom    3   Tr[ns(na)] (up, down, total) =   5.00000  0.00000  5.00000
   spin  1
    eigenvalues:
  1.000  1.000  1.000  1.000  1.000
    eigenvectors:
  1.000  0.000  0.000  0.000  0.000
  0.000  1.000  0.000  0.000  0.000
  0.000  0.000  1.000  0.000  0.000
  0.000  0.000  0.000  1.000  0.000
  0.000  0.000  0.000  0.000  1.000
    occupations:
  1.000  0.000  0.000  0.000  0.000
  0.000  1.000  0.000  0.000  0.000
  0.000  0.000  1.000  0.000  0.000
  0.000  0.000  0.000  1.000  0.000
  0.000  0.000  0.000  0.000  1.000
   spin  2
    eigenvalues:
  0.000  0.000  0.000  0.000  0.000
    eigenvectors:
  1.000  0.000  0.000  0.000  0.000
  0.000  1.000  0.000  0.000  0.000
  0.000  0.000  1.000  0.000  0.000
  0.000  0.000  0.000  1.000  0.000
  0.000  0.000  0.000  0.000  1.000
    occupations:
  0.000  0.000  0.000  0.000  0.000
  0.000  0.000  0.000  0.000  0.000
  0.000  0.000  0.000  0.000  0.000
  0.000  0.000  0.000  0.000  0.000
  0.000  0.000  0.000  0.000  0.000
atomic mag. moment =     5.000000
atom    4   Tr[ns(na)] (up, down, total) =   5.00000  0.00000  5.00000
   spin  1
    eigenvalues:
  1.000  1.000  1.000  1.000  1.000
    eigenvectors:
  1.000  0.000  0.000  0.000  0.000
  0.000  1.000  0.000  0.000  0.000
  0.000  0.000  1.000  0.000  0.000
  0.000  0.000  0.000  1.000  0.000
  0.000  0.000  0.000  0.000  1.000
    occupations:
  1.000  0.000  0.000  0.000  0.000
  0.000  1.000  0.000  0.000  0.000
  0.000  0.000  1.000  0.000  0.000
  0.000  0.000  0.000  1.000  0.000
  0.000  0.000  0.000  0.000  1.000
   spin  2
    eigenvalues:
  0.000  0.000  0.000  0.000  0.000
    eigenvectors:
  1.000  0.000  0.000  0.000  0.000
  0.000  1.000  0.000  0.000  0.000
  0.000  0.000  1.000  0.000  0.000
  0.000  0.000  0.000  1.000  0.000
  0.000  0.000  0.000  0.000  1.000
    occupations:
  0.000  0.000  0.000  0.000  0.000
  0.000  0.000  0.000  0.000  0.000
  0.000  0.000  0.000  0.000  0.000
  0.000  0.000  0.000  0.000  0.000
  0.000  0.000  0.000  0.000  0.000
atomic mag. moment =     5.000000
atom    9   Tr[ns(na)] (up, down, total) =   5.00000  0.00000  5.00000
   spin  1
    eigenvalues:
  1.000  1.000  1.000  1.000  1.000
    eigenvectors:
  1.000  0.000  0.000  0.000  0.000
  0.000  1.000  0.000  0.000  0.000
  0.000  0.000  1.000  0.000  0.000
[...]
   spin  2
    eigenvalues:
  0.096  0.119  0.146  0.338  0.369
    eigenvectors:
  0.755  0.000  0.020  0.000  0.225
  0.000  0.002  0.000  0.998  0.000
  0.022  0.000  0.977  0.000  0.000
  0.222  0.000  0.003  0.000  0.775
  0.000  0.998  0.000  0.002  0.000
    occupations:
  0.159 -0.000 -0.004  0.113 -0.000
 -0.000  0.338 -0.000 -0.000  0.011
 -0.004 -0.000  0.145  0.008  0.000
  0.113 -0.000  0.008  0.308 -0.000
 -0.000  0.011  0.000 -0.000  0.119
atomic mag. moment =     2.510087
atom    4   Tr[ns(na)] (up, down, total) =   3.47546  1.18482  4.66028
   spin  1
    eigenvalues:
  0.485  0.534  0.618  0.853  0.985
    eigenvectors:
  0.001  0.994  0.000  0.001  0.004
  0.000  0.001  0.013  0.986  0.000
  0.000  0.000  0.986  0.013  0.000
  0.000  0.004  0.000  0.000  0.996
  0.999  0.001  0.000  0.000  0.000
    occupations:
  0.536 -0.010 -0.003  0.028  0.002
 -0.010  0.850  0.027  0.001  0.000
 -0.003  0.027  0.621  0.001  0.000
  0.028  0.001  0.001  0.983  0.000
  0.002  0.000  0.000  0.000  0.485
   spin  2
    eigenvalues:
  0.106  0.137  0.174  0.370  0.398
    eigenvectors:
  0.003  0.003  0.000  0.001  0.994
  0.001  0.957  0.039  0.000  0.003
  0.000  0.038  0.961  0.000  0.000
  0.996  0.002  0.000  0.000  0.003
  0.000  0.000  0.000  0.999  0.001
    occupations:
  0.396  0.014  0.003 -0.015  0.001
  0.014  0.139 -0.007  0.000 -0.000
  0.003 -0.007  0.172  0.000 -0.000
 -0.015  0.000  0.000  0.107 -0.000
  0.001 -0.000 -0.000 -0.000  0.370
atomic mag. moment =     2.290636
atom    9   Tr[ns(na)] (up, down, total) =   3.43467  1.28983  4.72450
   spin  1
    eigenvalues:
  0.528  0.539  0.691  0.829  0.848
    eigenvectors:
  0.001  0.165  0.001  0.821  0.012
  0.995  0.005  0.000  0.000  0.000
  0.000  0.000  0.999  0.001  0.000
  0.004  0.830  0.000  0.163  0.003
  0.000  0.000  0.000  0.015  0.985
    occupations:
  0.781  0.001 -0.004 -0.108  0.002
  0.001  0.528  0.002  0.000  0.000
 -0.004  0.002  0.691  0.001 -0.000
 -0.108  0.000  0.001  0.587 -0.001
  0.002  0.000 -0.000 -0.001  0.847
   spin  2
    eigenvalues:
  0.160  0.166  0.167  0.397  0.399
    eigenvectors:
  0.845  0.001  0.000  0.001  0.152
  0.000  0.000  0.000  0.992  0.008
  0.002  0.998  0.000  0.000  0.000
  0.153  0.000  0.000  0.007  0.840
  0.000  0.000  1.000  0.000  0.000
    occupations:
  0.197 -0.000  0.000  0.086 -0.000
 -0.000  0.397 -0.000 -0.000  0.000
  0.000 -0.000  0.166  0.000  0.000
  0.086 -0.000  0.000  0.363  0.000
 -0.000  0.000  0.000  0.000  0.167
atomic mag. moment =     2.144844
atom   10   Tr[ns(na)] (up, down, total) =   3.62429  1.00142  4.62571
   spin  1
    eigenvalues:
  0.463  0.473  0.806  0.902  0.979
    eigenvectors:
  0.998  0.000  0.000  0.000  0.002
  0.000  0.000  0.000  1.000  0.000
  0.000  0.000  1.000  0.000  0.000
  0.002  0.000  0.000  0.000  0.998
  0.000  1.000  0.000  0.000  0.000
    occupations:
  0.465  0.000  0.001  0.023 -0.000
  0.000  0.902 -0.002 -0.000 -0.001
  0.001 -0.002  0.806 -0.001 -0.000
  0.023 -0.000 -0.001  0.978  0.000
 -0.000 -0.001 -0.000  0.000  0.473
   spin  2
    eigenvalues:
  0.096  0.136  0.142  0.280  0.347
    eigenvectors:
  0.008  0.000  0.000  0.992  0.000
  0.000  1.000  0.000  0.000  0.000
  0.000  0.000  1.000  0.000  0.000
  0.992  0.000  0.000  0.008  0.000
  0.000  0.000  0.000  0.000  1.000
    occupations:
  0.279 -0.000 -0.000 -0.016 -0.000
 -0.000  0.136  0.000 -0.000  0.000
 -0.000  0.000  0.142  0.000  0.000
 -0.016 -0.000  0.000  0.097 -0.000
 -0.000  0.000  0.000 -0.000  0.347
atomic mag. moment =     2.622870
atom   16   Tr[ns(na)] (up, down, total) =   3.57842  1.06833  4.64675
   spin  1
    eigenvalues:
  0.457  0.502  0.701  0.938  0.981
    eigenvectors:
  0.000  0.224  0.003  0.000  0.773
  0.999  0.000  0.000  0.001  0.000
  0.000  0.000  0.996  0.000  0.004
  0.000  0.776  0.001  0.000  0.223
  0.001  0.000  0.000  0.999  0.000
    occupations:
  0.873 -0.000  0.015 -0.199 -0.000
 -0.000  0.457  0.000 -0.000 -0.011
  0.015  0.000  0.702 -0.007  0.002
 -0.199 -0.000 -0.007  0.609 -0.000
 -0.000 -0.011  0.002 -0.000  0.938
   spin  2
    eigenvalues:
  0.096  0.119  0.146  0.338  0.369
    eigenvectors:
  0.755  0.000  0.020  0.000  0.225
  0.000  0.002  0.000  0.998  0.000
  0.022  0.000  0.977  0.000  0.000
  0.222  0.000  0.003  0.000  0.775
  0.000  0.998  0.000  0.002  0.000
    occupations:
  0.159 -0.000 -0.004  0.113 -0.000
 -0.000  0.338 -0.000 -0.000  0.011
 -0.004 -0.000  0.145  0.008  0.000
  0.113 -0.000  0.008  0.308 -0.000
 -0.000  0.011  0.000 -0.000  0.119
atomic mag. moment =     2.510092
atom   17   Tr[ns(na)] (up, down, total) =   3.47544  1.18482  4.66026
   spin  1
    eigenvalues:
  0.485  0.534  0.618  0.853  0.985
    eigenvectors:
  0.001  0.994  0.000  0.001  0.004
  0.000  0.001  0.013  0.986  0.000
  0.000  0.000  0.986  0.013  0.000
  0.000  0.004  0.000  0.000  0.996
  0.999  0.001  0.000  0.000  0.000
    occupations:
  0.536 -0.010 -0.003  0.028  0.002
 -0.010  0.850  0.027  0.001  0.000
 -0.003  0.027  0.621  0.001  0.000
  0.028  0.001  0.001  0.983  0.000
  0.002  0.000  0.000  0.000  0.485
   spin  2
    eigenvalues:
  0.106  0.137  0.174  0.370  0.398
    eigenvectors:
  0.003  0.003  0.000  0.001  0.994
  0.001  0.957  0.039  0.000  0.003
  0.000  0.038  0.961  0.000  0.000
  0.996  0.002  0.000  0.000  0.003
  0.000  0.000  0.000  0.999  0.001
    occupations:
  0.396  0.014  0.003 -0.015  0.001
  0.014  0.139 -0.007  0.000 -0.000
  0.003 -0.007  0.172  0.000 -0.000
 -0.015  0.000  0.000  0.107 -0.000
  0.001 -0.000 -0.000 -0.000  0.370
atomic mag. moment =     2.290619
atom   22   Tr[ns(na)] (up, down, total) =   3.43482  1.28963  4.72445
   spin  1
    eigenvalues:
  0.528  0.539  0.691  0.829  0.848
    eigenvectors:
  0.001  0.165  0.001  0.821  0.013
  0.995  0.005  0.000  0.000  0.000
  0.000  0.000  0.999  0.001  0.000
  0.004  0.830  0.000  0.163  0.003
  0.000  0.000  0.000  0.015  0.985
    occupations:
  0.781  0.001 -0.004 -0.108  0.002
  0.001  0.528  0.002  0.000  0.000
 -0.004  0.002  0.691  0.001 -0.000
 -0.108  0.000  0.001  0.587 -0.001
  0.002  0.000 -0.000 -0.001  0.847
   spin  2
    eigenvalues:
  0.160  0.166  0.167  0.397  0.399
    eigenvectors:
  0.845  0.001  0.000  0.001  0.153
  0.000  0.000  0.000  0.992  0.008
  0.002  0.998  0.000  0.000  0.000
  0.153  0.000  0.000  0.007  0.840
  0.000  0.000  1.000  0.000  0.000
    occupations:
  0.197 -0.000  0.000  0.086 -0.000
 -0.000  0.397 -0.000 -0.000  0.000
  0.000 -0.000  0.166  0.000  0.000
  0.086 -0.000  0.000  0.362  0.000
 -0.000  0.000  0.000  0.000  0.167
atomic mag. moment =     2.145190
atom   23   Tr[ns(na)] (up, down, total) =   3.62430  1.00142  4.62572
   spin  1
    eigenvalues:
  0.463  0.473  0.806  0.902  0.979
    eigenvectors:
  0.998  0.000  0.000  0.000  0.002
  0.000  0.000  0.000  1.000  0.000
  0.000  0.000  1.000  0.000  0.000
  0.002  0.000  0.000  0.000  0.998
  0.000  1.000  0.000  0.000  0.000
    occupations:
  0.465  0.000  0.001  0.023 -0.000
  0.000  0.902 -0.002 -0.000 -0.001
  0.001 -0.002  0.806 -0.001 -0.000
  0.023 -0.000 -0.001  0.978  0.000
 -0.000 -0.001 -0.000  0.000  0.473
   spin  2
    eigenvalues:
  0.096  0.136  0.142  0.280  0.347
    eigenvectors:
  0.008  0.000  0.000  0.992  0.000
  0.000  1.000  0.000  0.000  0.000
  0.000  0.000  1.000  0.000  0.000
  0.992  0.000  0.000  0.008  0.000
  0.000  0.000  0.000  0.000  1.000
    occupations:
  0.279 -0.000 -0.000 -0.016 -0.000
 -0.000  0.136  0.000 -0.000  0.000
 -0.000  0.000  0.142  0.000  0.000
 -0.016 -0.000  0.000  0.097 -0.000
 -0.000  0.000  0.000 -0.000  0.347
atomic mag. moment =     2.622874
N of occupied +U levels =  37.3144258
 --- exit write_ns ---

 ------ SPIN UP ------------

[...]

 ------ SPIN DOWN ----------

[...]

          k = 0.2500-0.4682 0.0000 ( 27150 PWs)   bands (ev):

[...]

          k =-0.2500 0.2341 0.0000 ( 27132 PWs)   bands (ev):

   -72.9637 -72.9520 -72.7396 -72.7283 -72.4394 -72.4285 -72.3452 -72.3339
   -44.4018 -44.3908 -44.3340 -44.3217 -44.3144 -44.3106 -44.2974 -44.1701
   -44.1314 -44.1074 -44.0037 -43.9977 -43.9766 -43.9620 -43.8911 -43.8899
   -43.8703 -43.7557 -43.6587 -43.6363 -43.6099 -43.5997 -43.5185 -43.4669
   -21.2712 -20.7760 -20.7697 -20.5521 -20.3086 -20.3055 -20.0391 -20.0131
   -19.9810 -19.8463 -19.8157 -19.6906 -19.6390 -19.6364 -19.5041 -19.4930
   -19.3735 -19.2666  -8.7619  -8.5174  -8.1586  -7.9858  -7.9549  -7.5957
    -7.4571  -7.3972  -7.3730  -7.3390  -7.1972  -7.1284  -6.9994  -6.9478
    -6.8128  -6.7759  -6.6350  -6.5196  -6.5086  -6.4106  -6.3821  -6.2347
    -6.0999  -5.9266  -5.8351  -5.7884  -5.5448  -5.4174  -5.3706  -5.3352
    -5.2888  -5.1427  -5.1024  -5.0951  -4.9984  -4.9490  -4.8576  -4.6112
    -4.5842  -4.4909  -4.3444  -4.2694  -4.1646  -4.1560  -4.0458  -3.9859
    -3.9365  -3.7870  -3.7112  -3.6562  -3.4772  -3.2490  -3.2455  -2.9774
     0.2915   0.4235   0.4631   0.6201   0.6249   0.6852   0.7790   0.8065
     0.8147   0.9382   0.9729   1.0116   1.0508   1.0958   1.1685   1.2970
     1.3246   1.3547   1.4654   1.5120   1.5781   1.6788   1.7385   1.8244
     1.8466   1.9027   2.0387   2.2904   2.3665   2.4427   2.6930   2.7303
     2.8950   3.0045   3.0776   3.1619   3.2599   3.5975   3.6390   3.6828
     3.8427   3.9804   4.2856   4.7511   5.2746   5.6779   5.7950   5.8997
     5.9749   6.1391   6.3335   6.4509   6.6790   6.8227   6.8416   7.2041
     7.3736   7.5566   7.7383   7.9534   7.9732   8.2098   8.2928   8.4247
     8.6029   8.7251   8.9425   8.9658   9.2200   9.2369   9.2478   9.4120
     9.4913   9.6828   9.7900   9.8610  10.0416  10.0671  10.2418  10.2496
    10.4082  10.4691  10.6159  10.7102  10.7777  10.9420  11.0350  11.0938
    11.1627  11.3266  11.4930  11.5357  11.5986  11.6137  11.7826  11.8252
    11.8841  12.0004  12.0757  12.1505  12.2796  12.3041  12.3939  12.5650
    12.6680  12.6977  12.8007  12.9175  12.9277  12.9728  12.9927  13.0984
    13.1002  13.1942  13.2533  13.3109  13.5250  13.6451  13.6866  13.7637
    13.8452  13.8960  13.9535  14.0147  14.0913  14.2657  14.3205  14.4243
    14.5172  14.5222  14.5785  14.6637  14.7544  14.8418  14.8792  15.0324
    15.1372  15.2672  15.3114  15.4080  15.4344  15.4619  15.5797  15.5955
    15.7563  15.7993  15.8749  15.9414  15.9997  16.0689  16.1509  16.1668
    16.2516  16.2741  16.3901  16.5595  16.5889  16.6355  16.7994  16.8409
    16.8695  16.9355  16.9953  17.1024  17.1886  17.2103  17.3798  17.3928
    17.4263  17.4334  17.5462  17.6284  17.6456  17.7239  17.7539  17.8498
    17.9251  18.0069  18.0361  18.1558  18.2274  18.2874  18.3579  18.3685
    18.4328  18.6141  18.6267  18.7541  18.7840  18.8651  18.9428  19.0343
    19.1066  19.1536  19.2868  19.3357  19.3898  19.4207  19.5021  19.5839
    19.6314  19.6556  19.7608  19.7960  19.8376  19.9519  20.1062  20.1120
    20.2371  20.3449  20.4068  20.4715  20.5061  20.6614  20.6800  20.8210
    20.8423  20.9110  21.0903  21.1074

     the spin up/dw Fermi energies are    -1.8387   -2.8245 ev

!    total energy              =   -1992.42043140 Ry
     Harris-Foulkes estimate   =   -1992.42043140 Ry
     estimated scf accuracy    <          5.4E-09 Ry

     The total energy is the sum of the following terms:

     one-electron contribution =  -23425.26492115 Ry
     hartree contribution      =   11729.60855954 Ry
     xc contribution           =    -315.17122056 Ry
     ewald contribution        =   10017.18340279 Ry
     Hubbard energy            =       1.22245778 Ry
     smearing contrib. (-TS)   =       0.00129020 Ry

     total magnetization       =    16.00 Bohr mag/cell
     absolute magnetization    =    22.77 Bohr mag/cell

     convergence has been achieved in  16 iterations

     Forces acting on atoms (Ry/au):

     negative rho (up, down):  0.539E-02 0.187E-02
     atom    1 type  1   force =    -0.00507681   -0.01337580    0.00030111
     atom    2 type  1   force =     0.00002207    0.01032952   -0.00047868
     atom    3 type  2   force =    -0.00022363   -0.00216897    0.00020548
     atom    4 type  2   force =     0.00339486    0.00697028    0.00006372
     atom    5 type  1   force =     0.00178631    0.00599765    0.00039320
     atom    6 type  1   force =     0.00043897   -0.00587559    0.00041953
     atom    7 type  1   force =    -0.00006828   -0.00157045    0.00096368
     atom    8 type  1   force =    -0.00036137   -0.00018851   -0.00016405
     atom    9 type  2   force =     0.00072259   -0.00059315    0.00052099
     atom   10 type  2   force =     0.00001712   -0.00044622   -0.00047868
     atom   11 type  1   force =    -0.00034020   -0.04860847   -0.00034904
     atom   12 type  1   force =     0.00047513    0.04913979   -0.00036458
     atom   13 type  1   force =    -0.00077086    0.00026553   -0.00026472
     atom   14 type  1   force =    -0.00507175   -0.01337533    0.00030010
     atom   15 type  1   force =     0.00002166    0.01033145   -0.00047955
     atom   16 type  2   force =    -0.00022247   -0.00216955    0.00020602
     atom   17 type  2   force =     0.00339405    0.00697061    0.00006550
     atom   18 type  1   force =     0.00178258    0.00599877    0.00039296
     atom   19 type  1   force =     0.00043524   -0.00587646    0.00041892
     atom   20 type  1   force =    -0.00006703   -0.00157061    0.00096150
     atom   21 type  1   force =    -0.00037646   -0.00018903   -0.00016589
     atom   22 type  2   force =     0.00072300   -0.00059308    0.00049625
     atom   23 type  2   force =     0.00002435   -0.00044587   -0.00047759
     atom   24 type  1   force =    -0.00033759   -0.04861708   -0.00035149
     atom   25 type  1   force =     0.00047719    0.04914843   -0.00036701
     atom   26 type  1   force =    -0.00081533    0.00026679   -0.00026430
     atom   27 type  3   force =    -0.00000571    0.00008960   -0.00094479
     atom   28 type  3   force =    -0.00000578    0.00008771   -0.00094374
     atom   29 type  3   force =     0.00001587    0.00003425    0.00019180
     atom   30 type  3   force =     0.00001230    0.00003380    0.00019334

     Total force =     0.002609     Total SCF correction =     0.000260

     bfgs converged in  12 scf cycles and  11 bfgs steps
     (criteria: energy < 0.10E-03, force < 0.10E-02)

     End of BFGS Geometry Optimization

     Final energy   =   -1992.4204313958 Ry
Begin final coordinates

ATOMIC_POSITIONS (crystal)
O0       0.000000000   0.000000000   0.379725053    0   0   1
O0       0.000000000   0.500000000   0.397676348    0   0   1
Cr1      0.250000000   0.500000000   0.448887476    0   0   1
Cr1      0.000000000   0.000000000   0.451887177    0   0   1
O0       0.250000000   0.800000000   0.450649921    0   0   1
O0       0.250000000   0.200000000   0.450752304    0   0   1
O0       0.000000000   0.500000000   0.497265194    0   0   1
O0       0.000000000   0.000000000   0.525339904    0   0   1
Cr1      0.250000000   0.000000000   0.578429258    0   0   1
Cr1      0.000000000   0.500000000   0.566243428    0   0   1
O0       0.250000000   0.700000000   0.575675252    0   0   1
O0       0.250000000   0.300000000   0.575748315    0   0   1
O0       0.000000000   0.000000000   0.620153341    0   0   1
O0       0.500000000   0.000000000   0.379725168    0   0   1
O0       0.500000000   0.500000000   0.397676343    0   0   1
Cr1      0.750000000   0.500000000   0.448887440    0   0   1
Cr1      0.500000000   0.000000000   0.451887075    0   0   1
O0       0.750000000   0.800000000   0.450649972    0   0   1
O0       0.750000000   0.200000000   0.450752369    0   0   1
O0       0.500000000   0.500000000   0.497265079    0   0   1
O0       0.500000000   0.000000000   0.525339804    0   0   1
Cr1      0.750000000   0.000000000   0.578424092    0   0   1
Cr1      0.500000000   0.500000000   0.566243206    0   0   1
O0       0.750000000   0.700000000   0.575674720    0   0   1
O0       0.750000000   0.300000000   0.575747782    0   0   1
O0       0.500000000   0.000000000   0.620153411    0   0   1
H2      -0.000579307   0.640766735   0.379603077
H2       0.499420530   0.640766880   0.379603046
H2       0.157791551   0.029862118   0.366997219
H2       0.657792064   0.029861118   0.366997225
End final coordinates

     General routines

     Parallel routines
     Hubbard U routines

   This run was terminated on:  15:28:23  10May2014

   JOB DONE.
Running PBS batch system epilogue script
Job id: 340915.audhumbla.fysik.dtu.dk
Username: zhonxu
Groupname: campgst
Jobname: CrO2/Eads-2-layers/bare-U-2.5
Sessionid: 1828
Queuename: verylong
Accounting:
This job has allocated the following 16 nodes:
b048 b048 b048 b048 b048 b048 b048 b048 b042 b042 b042 b042 b042 b042 b042 b042
Finished epilogue job 340915.audhumbla.fysik.dtu.dk for zhonxu