     Program PWSCF v.5.0.2 (svn rev. 9656) starts on  8May2014 at 23:16:49

     Current dimensions of program PWSCF are:
     Max number of different atomic species (ntypx) = 10
     Max number of k-points (npk) =  40000
     Max angular momentum in pseudopotentials (lmaxx) =  3
     Reading input from pwscf.in
Warning: card &CELL ignored
Warning: card / ignored

     Subspace diagonalization in iterative solution of the eigenvalue problem:
     a serial algorithm will be used

     bravais-lattice index     =            0
     lattice parameter (alat)  =      11.7541  a.u.
     unit-cell volume          =    7139.8207 (a.u.)^3
     number of atoms/cell      =           30
     number of atomic types    =            3
     number of electrons       =       232.00
     number of Kohn-Sham states=          348
     kinetic-energy cutoff     =      40.0000  Ry
     charge density cutoff     =     500.0000  Ry
     convergence threshold     =      1.0E-06
     mixing beta               =       0.7000
     number of iterations used =            8  plain     mixing
     Exchange-correlation      = SLA  PW   PBE  PBE ( 1 4 3 4 0)
     EXX-fraction              =        0.00
     nstep                     =           50

     celldm(1)=  11.754097  celldm(2)=   0.000000  celldm(3)=   0.000000
     celldm(4)=   0.000000  celldm(5)=   0.000000  celldm(6)=   0.000000

     crystal axes: (cart. coord. in units of alat)
               a(1) = (   1.000000   0.000000   0.000000 )
               a(2) = (   0.000000   1.034513   0.000000 )
               a(3) = (   0.000000   0.000000   4.249947 )

     reciprocal axes: (cart. coord. in units 2 pi/alat)
               b(1) = (  1.000000  0.000000  0.000000 )
               b(2) = (  0.000000  0.966638  0.000000 )
               b(3) = (  0.000000  0.000000  0.235297 )

     PseudoPot. # 1 for O  read from file:
     /home/camp/zhonxu/pseudo/o_pbe_v1.01.uspp.F.UPF
     MD5 check sum: 2bcb18d16ea4b960afae9ec6d52f22d2
     Pseudo is Ultrasoft + core correction, Zval =  6.0
     Generated by new atomic code, or converted to UPF format
     Using radial grid of  737 points,  5 beta functions with:
                l(1) =   0
                l(2) =   0
                l(3) =   1
                l(4) =   1
                l(5) =   2
     Q(r) pseudized with  8 coefficients,  rinner =    0.900   0.900   0.900
                                                       0.900   0.900

     PseudoPot. # 2 for Rh read from file:
     /home/camp/zhonxu/pseudo/rh_pbe_v1.uspp.F.UPF
     MD5 check sum: 37b626987ad0dd8ec6bf4cc9ef289918
     Pseudo is Ultrasoft + core correction, Zval = 15.0
     Generated by new atomic code, or converted to UPF format
     Using radial grid of  969 points,  7 beta functions with:
                l(1) =   0
                l(2) =   0
                l(3) =   1
                l(4) =   1
                l(5) =   2
                l(6) =   2
                l(7) =   2
     Q(r) pseudized with  6 coefficients,  rinner =    1.050   1.050   1.050
                                                       1.050   1.050

     PseudoPot. # 3 for H  read from file:
     /home/camp/zhonxu/pseudo/h_pbe_v1.uspp.F.UPF
     MD5 check sum: 3408e3ff4ec8b0a4e358431e7e038a48
     Pseudo is Ultrasoft, Zval =  1.0
     Generated by new atomic code, or converted to UPF format
     Using radial grid of  615 points,  2 beta functions with:
                l(1) =   0
                l(2) =   0
     Q(r) pseudized with  8 coefficients,  rinner =    0.700

     atomic species   valence    mass     pseudopotential
        O0             6.00    15.99940     O ( 1.00)
        Rh1           15.00   102.90550     Rh( 1.00)
        H2             1.00     1.00794     H ( 1.00)

     Simplified LDA+U calculation (l_max = 2) with parameters (eV):
     atomic species    L          U    alpha       J0     beta
        Rh1            2     2.0000   0.0000   0.0000   0.0000

     No symmetry found

   Cartesian axes

     site n.     atom                  positions (alat units)
         1           O0  tau(   1) = (   0.0000000   0.0000000   1.6092425  )
         2           O0  tau(   2) = (   0.0000000   0.5172566   1.7020614  )
         3           Rh1 tau(   3) = (   0.2500000   0.5172566   1.9209336  )
         4           Rh1 tau(   4) = (   0.0000000   0.0000000   1.9260761  )
         5           O0  tau(   5) = (   0.2500000   0.8379556   1.9243336  )
         6           O0  tau(   6) = (   0.2500000   0.1965575   1.9234411  )
         7           O0  tau(   7) = (   0.0000000   0.5172566   2.1185137  )
         8           O0  tau(   8) = (   0.0000000   0.0000000   2.2473721  )
         9           Rh1 tau(   9) = (   0.2500000   0.0000000   2.4498821  )
        10           Rh1 tau(  10) = (   0.0000000   0.5172566   2.4276124  )
        11           O0  tau(  11) = (   0.2500000   0.7138141   2.4560020  )
        12           O0  tau(  12) = (   0.2500000   0.3206991   2.4560870  )
        13           O0  tau(  13) = (   0.0000000   0.0000000   2.6421072  )
        14           O0  tau(  14) = (   0.5000000   0.0000000   1.6092425  )
        15           O0  tau(  15) = (   0.5000000   0.5172566   1.7020614  )
        16           Rh1 tau(  16) = (   0.7500000   0.5172566   1.9209336  )
        17           Rh1 tau(  17) = (   0.5000000   0.0000000   1.9260761  )
        18           O0  tau(  18) = (   0.7500000   0.8379556   1.9243336  )
        19           O0  tau(  19) = (   0.7500000   0.1965575   1.9234411  )
        20           O0  tau(  20) = (   0.5000000   0.5172566   2.1185137  )
        21           O0  tau(  21) = (   0.5000000   0.0000000   2.2473721  )
        22           Rh1 tau(  22) = (   0.7500000   0.0000000   2.4498821  )
        23           Rh1 tau(  23) = (   0.5000000   0.5172566   2.4276124  )
        24           O0  tau(  24) = (   0.7500000   0.7138141   2.4560020  )
        25           O0  tau(  25) = (   0.7500000   0.3206991   2.4560870  )
        26           O0  tau(  26) = (   0.5000000   0.0000000   2.6421072  )
        27           H2  tau(  27) = (  -0.0000700   0.6610229   1.6318947  )
        28           H2  tau(  28) = (   0.4999300   0.6610125   1.6318947  )
        29           H2  tau(  29) = (   0.1484400   0.0336527   1.5632581  )
        30           H2  tau(  30) = (   0.6484400   0.0336527   1.5632581  )

     number of k points=    10  Methfessel-Paxton smearing, width (Ry)=  0.0100
                       cart. coord. in units 2pi/alat
        k(    1) = (   0.0000000   0.0000000   0.0000000), wk =   0.1250000
        k(    2) = (   0.0000000   0.2416596   0.0000000), wk =   0.2500000
        k(    3) = (   0.0000000  -0.4833191   0.0000000), wk =   0.1250000
        k(    4) = (   0.2500000   0.0000000   0.0000000), wk =   0.2500000
        k(    5) = (   0.2500000   0.2416596   0.0000000), wk =   0.2500000
        k(    6) = (   0.2500000  -0.4833191   0.0000000), wk =   0.2500000
        k(    7) = (  -0.5000000   0.0000000   0.0000000), wk =   0.1250000
        k(    8) = (  -0.5000000   0.2416596   0.0000000), wk =   0.2500000
        k(    9) = (  -0.5000000  -0.4833191   0.0000000), wk =   0.1250000
        k(   10) = (  -0.2500000   0.2416596   0.0000000), wk =   0.2500000

     Largest allocated arrays     est. size (Mb)     dimensions
     Largest temporary arrays     est. size (Mb)     dimensions

     Check: negative/imaginary core charge=   -0.000002    0.000000

     Initial potential from superposition of free atoms
     Check: negative starting charge=   -0.642992

     starting charge  227.99915, renormalised to  232.00000

     negative rho (up, down):  0.654E+00 0.000E+00
     Number of +U iterations with fixed ns =  0
     Starting occupations:
 --- enter write_ns ---
 LDA+U parameters:
U( 2)     =  2.00000000
alpha( 2) =  0.00000000
atom    3   Tr[ns(na)] =   7.00000
    eigenvalues:
  0.700  0.700  0.700  0.700  0.700
    eigenvectors:
  1.000  0.000  0.000  0.000  0.000
  0.000  1.000  0.000  0.000  0.000
  0.000  0.000  1.000  0.000  0.000
  0.000  0.000  0.000  1.000  0.000
  0.000  0.000  0.000  0.000  1.000
    occupations:
  0.700  0.000  0.000  0.000  0.000
  0.000  0.700  0.000  0.000  0.000
  0.000  0.000  0.700  0.000  0.000
  0.000  0.000  0.000  0.700  0.000
  0.000  0.000  0.000  0.000  0.700
atom    4   Tr[ns(na)] =   7.00000
    eigenvalues:
  0.700  0.700  0.700  0.700  0.700
    eigenvectors:
  1.000  0.000  0.000  0.000  0.000
  0.000  1.000  0.000  0.000  0.000
  0.000  0.000  1.000  0.000  0.000
  0.000  0.000  0.000  1.000  0.000
  0.000  0.000  0.000  0.000  1.000
    occupations:
  0.700  0.000  0.000  0.000  0.000
  0.000  0.700  0.000  0.000  0.000
  0.000  0.000  0.700  0.000  0.000
  0.000  0.000  0.000  0.700  0.000
  0.000  0.000  0.000  0.000  0.700
atom    9   Tr[ns(na)] =   7.00000
    eigenvalues:
  0.700  0.700  0.700  0.700  0.700
    eigenvectors:
  1.000  0.000  0.000  0.000  0.000
  0.000  1.000  0.000  0.000  0.000
  0.000  0.000  1.000  0.000  0.000
  0.000  0.000  0.000  1.000  0.000
  0.000  0.000  0.000  0.000  1.000
    occupations:
  0.700  0.000  0.000  0.000  0.000
  0.000  0.700  0.000  0.000  0.000
  0.000  0.000  0.700  0.000  0.000
  0.000  0.000  0.000  0.700  0.000
  0.000  0.000  0.000  0.000  0.700
atom   10   Tr[ns(na)] =   7.00000
    eigenvalues:
  0.700  0.700  0.700  0.700  0.700
    eigenvectors:
  1.000  0.000  0.000  0.000  0.000
  0.000  1.000  0.000  0.000  0.000
  0.000  0.000  1.000  0.000  0.000
  0.000  0.000  0.000  1.000  0.000
  0.000  0.000  0.000  0.000  1.000
    occupations:
  0.700  0.000  0.000  0.000  0.000
  0.000  0.700  0.000  0.000  0.000
  0.000  0.000  0.700  0.000  0.000
  0.000  0.000  0.000  0.700  0.000
  0.000  0.000  0.000  0.000  0.700
atom   16   Tr[ns(na)] =   7.00000
    eigenvalues:
  0.700  0.700  0.700  0.700  0.700
    eigenvectors:
  1.000  0.000  0.000  0.000  0.000
  0.000  1.000  0.000  0.000  0.000
  0.000  0.000  1.000  0.000  0.000
  0.000  0.000  0.000  1.000  0.000
  0.000  0.000  0.000  0.000  1.000
    occupations:
  0.700  0.000  0.000  0.000  0.000
  0.000  0.700  0.000  0.000  0.000
  0.000  0.000  0.700  0.000  0.000
  0.000  0.000  0.000  0.700  0.000
  0.000  0.000  0.000  0.000  0.700
atom   17   Tr[ns(na)] =   7.00000
    eigenvalues:
  0.700  0.700  0.700  0.700  0.700
    eigenvectors:
  1.000  0.000  0.000  0.000  0.000
  0.000  1.000  0.000  0.000  0.000
  0.000  0.000  1.000  0.000  0.000
  0.000  0.000  0.000  1.000  0.000
  0.000  0.000  0.000  0.000  1.000
    occupations:
  0.700  0.000  0.000  0.000  0.000
  0.000  0.700  0.000  0.000  0.000
  0.000  0.000  0.700  0.000  0.000
  0.000  0.000  0.000  0.700  0.000
  0.000  0.000  0.000  0.000  0.700
atom   22   Tr[ns(na)] =   7.00000
    eigenvalues:
  0.700  0.700  0.700  0.700  0.700
    eigenvectors:
  1.000  0.000  0.000  0.000  0.000
  0.000  1.000  0.000  0.000  0.000
  0.000  0.000  1.000  0.000  0.000
  0.000  0.000  0.000  1.000  0.000
  0.000  0.000  0.000  0.000  1.000
    occupations:
  0.700  0.000  0.000  0.000  0.000
  0.000  0.700  0.000  0.000  0.000
  0.000  0.000  0.700  0.000  0.000
[...]
  0.001 -0.001  0.001  0.000  0.602
atom    9   Tr[ns(na)] =   7.99232
    eigenvalues:
  0.636  0.649  0.853  0.881  0.977
    eigenvectors:
  0.000  0.155  0.000  0.000  0.845
  0.999  0.001  0.000  0.000  0.000
  0.000  0.000  1.000  0.000  0.000
  0.001  0.844  0.000  0.000  0.155
  0.000  0.000  0.000  1.000  0.000
    occupations:
  0.926  0.000 -0.000 -0.119 -0.001
  0.000  0.636  0.000  0.000 -0.000
 -0.000  0.000  0.853 -0.000 -0.000
 -0.119  0.000 -0.000  0.699  0.001
 -0.001 -0.000 -0.000  0.001  0.881
atom   10   Tr[ns(na)] =   7.99859
    eigenvalues:
  0.596  0.603  0.913  0.916  0.972
    eigenvectors:
  0.000  0.995  0.000  0.000  0.005
  0.000  0.000  0.002  0.998  0.000
  0.000  0.000  0.998  0.002  0.000
  0.000  0.005  0.000  0.000  0.995
  1.000  0.000  0.000  0.000  0.000
    occupations:
  0.605  0.000  0.002  0.025 -0.000
  0.000  0.916 -0.000  0.000 -0.001
  0.002 -0.000  0.913  0.000  0.000
  0.025  0.000  0.000  0.970  0.000
 -0.000 -0.001  0.000  0.000  0.596
atom   16   Tr[ns(na)] =   8.01665
    eigenvalues:
  0.586  0.604  0.896  0.956  0.966
    eigenvectors:
  0.000  0.209  0.003  0.000  0.788
  1.000  0.000  0.000  0.000  0.000
  0.000  0.000  0.997  0.000  0.003
  0.000  0.790  0.000  0.000  0.209
  0.000  0.000  0.000  0.999  0.000
    occupations:
  0.890 -0.000  0.002 -0.147 -0.000
 -0.000  0.586 -0.000 -0.000 -0.007
  0.002 -0.000  0.896 -0.005  0.001
 -0.147 -0.000 -0.005  0.680 -0.000
 -0.000 -0.007  0.001 -0.000  0.956
atom   17   Tr[ns(na)] =   7.99899
    eigenvalues:
  0.602  0.650  0.861  0.912  0.974
    eigenvectors:
  0.001  0.992  0.000  0.000  0.007
  0.000  0.000  0.050  0.949  0.000
  0.000  0.000  0.950  0.050  0.000
  0.000  0.007  0.000  0.000  0.993
  0.999  0.001  0.000  0.000  0.000
    occupations:
  0.653 -0.004 -0.001  0.027  0.001
 -0.004  0.909  0.011  0.001 -0.001
 -0.001  0.011  0.863 -0.001  0.001
  0.027  0.001 -0.001  0.972  0.000
  0.001 -0.001  0.001  0.000  0.602
atom   22   Tr[ns(na)] =   7.99200
    eigenvalues:
  0.636  0.649  0.853  0.881  0.977
    eigenvectors:
  0.000  0.155  0.000  0.000  0.845
  0.999  0.001  0.000  0.000  0.000
  0.000  0.000  1.000  0.000  0.000
  0.001  0.844  0.000  0.000  0.155
  0.000  0.000  0.000  1.000  0.000
    occupations:
  0.926  0.000 -0.000 -0.119 -0.001
  0.000  0.636  0.000  0.000 -0.000
 -0.000  0.000  0.853 -0.000 -0.000
 -0.119  0.000 -0.000  0.699  0.001
 -0.001 -0.000 -0.000  0.001  0.881
atom   23   Tr[ns(na)] =   7.99821
    eigenvalues:
  0.596  0.603  0.913  0.916  0.972
    eigenvectors:
  0.000  0.995  0.000  0.000  0.005
  0.000  0.000  0.002  0.998  0.000
  0.000  0.000  0.998  0.002  0.000
  0.000  0.005  0.000  0.000  0.995
  1.000  0.000  0.000  0.000  0.000
    occupations:
  0.605  0.000  0.002  0.025 -0.000
  0.000  0.916 -0.000  0.000 -0.001
  0.002 -0.000  0.913  0.000  0.000
  0.025  0.000  0.000  0.970  0.000
 -0.000 -0.001  0.000  0.000  0.596
N of occupied +U levels =  64.0123099
 --- exit write_ns ---

     Threshold (ethr) on eigenvalues was too large:
     Diagonalizing with lowered threshold

     Davidson diagonalization with overlap
     ethr =  3.46E-08,  avg # of iterations =  2.8

[...]

     total energy              =   -1947.43711931 Ry
     Harris-Foulkes estimate   =   -1947.43711931 Ry
     estimated scf accuracy    <       0.00000001 Ry

     iteration # 15     ecut=    40.00 Ry     beta=0.70
     Davidson diagonalization with overlap
     ethr =  5.47E-12,  avg # of iterations =  1.0

     negative rho (up, down):  0.689E+00 0.000E+00

     End of self-consistent calculation
 --- enter write_ns ---
 LDA+U parameters:
U( 2)     =  2.00000000
alpha( 2) =  0.00000000
atom    3   Tr[ns(na)] =   8.01529
    eigenvalues:
  0.586  0.604  0.896  0.956  0.966
    eigenvectors:
  0.000  0.210  0.003  0.000  0.788
  1.000  0.000  0.000  0.000  0.000
  0.000  0.000  0.997  0.000  0.003
  0.000  0.790  0.000  0.000  0.209
  0.000  0.000  0.000  0.999  0.000
    occupations:
  0.890 -0.000  0.002 -0.147 -0.000
 -0.000  0.586 -0.000 -0.000 -0.007
  0.002 -0.000  0.896 -0.005  0.001
 -0.147 -0.000 -0.005  0.680 -0.000
 -0.000 -0.007  0.001 -0.000  0.956
atom    4   Tr[ns(na)] =   7.99784
    eigenvalues:
  0.602  0.650  0.860  0.911  0.974
    eigenvectors:
  0.001  0.992  0.000  0.000  0.007
  0.000  0.000  0.050  0.950  0.000
  0.000  0.000  0.950  0.050  0.000
  0.000  0.007  0.000  0.000  0.993
  0.999  0.001  0.000  0.000  0.000
    occupations:
  0.653 -0.004 -0.001  0.027  0.001
 -0.004  0.909  0.011  0.001 -0.001
 -0.001  0.011  0.863 -0.001  0.001
  0.027  0.001 -0.001  0.972  0.000
  0.001 -0.001  0.001  0.000  0.602
atom    9   Tr[ns(na)] =   7.99313
    eigenvalues:
  0.636  0.649  0.854  0.882  0.977
    eigenvectors:
  0.000  0.155  0.000  0.000  0.845
  0.999  0.001  0.000  0.000  0.000
  0.000  0.000  1.000  0.000  0.000
  0.001  0.844  0.000  0.000  0.155
  0.000  0.000  0.000  1.000  0.000
    occupations:
  0.926  0.000 -0.000 -0.119 -0.001
  0.000  0.636  0.000  0.000 -0.000
 -0.000  0.000  0.854 -0.000 -0.000
 -0.119  0.000 -0.000  0.699  0.001
 -0.001 -0.000 -0.000  0.001  0.882
atom   10   Tr[ns(na)] =   7.99996
    eigenvalues:
  0.596  0.603  0.913  0.917  0.972
    eigenvectors:
  0.000  0.995  0.000  0.000  0.005
  0.000  0.000  0.002  0.998  0.000
  0.000  0.000  0.998  0.002  0.000
  0.000  0.005  0.000  0.000  0.995
  1.000  0.000  0.000  0.000  0.000
    occupations:
  0.605  0.000  0.002  0.025 -0.000
  0.000  0.916 -0.000  0.000 -0.001
  0.002 -0.000  0.913  0.000  0.000
  0.025  0.000  0.000  0.970  0.000
 -0.000 -0.001  0.000  0.000  0.596
atom   16   Tr[ns(na)] =   8.01532
    eigenvalues:
  0.586  0.604  0.896  0.956  0.966
    eigenvectors:
  0.000  0.210  0.003  0.000  0.788
  1.000  0.000  0.000  0.000  0.000
  0.000  0.000  0.997  0.000  0.003
  0.000  0.790  0.000  0.000  0.209
  0.000  0.000  0.000  0.999  0.000
    occupations:
  0.890 -0.000  0.002 -0.147 -0.000
 -0.000  0.586 -0.000 -0.000 -0.007
  0.002 -0.000  0.896 -0.005  0.001
 -0.147 -0.000 -0.005  0.680 -0.000
 -0.000 -0.007  0.001 -0.000  0.956
atom   17   Tr[ns(na)] =   7.99784
    eigenvalues:
  0.602  0.650  0.860  0.911  0.974
    eigenvectors:
  0.001  0.992  0.000  0.000  0.007
  0.000  0.000  0.050  0.950  0.000
  0.000  0.000  0.950  0.050  0.000
  0.000  0.007  0.000  0.000  0.993
  0.999  0.001  0.000  0.000  0.000
    occupations:
  0.653 -0.004 -0.001  0.027  0.001
 -0.004  0.909  0.011  0.001 -0.001
 -0.001  0.011  0.863 -0.001  0.001
  0.027  0.001 -0.001  0.972  0.000
  0.001 -0.001  0.001  0.000  0.602
atom   22   Tr[ns(na)] =   7.99310
    eigenvalues:
  0.636  0.649  0.854  0.882  0.977
    eigenvectors:
  0.000  0.155  0.000  0.000  0.845
  0.999  0.001  0.000  0.000  0.000
  0.000  0.000  1.000  0.000  0.000
  0.001  0.844  0.000  0.000  0.155
  0.000  0.000  0.000  1.000  0.000
    occupations:
  0.926  0.000 -0.000 -0.119 -0.001
  0.000  0.636  0.000  0.000 -0.000
 -0.000  0.000  0.854 -0.000 -0.000
 -0.119  0.000 -0.000  0.699  0.001
 -0.001 -0.000 -0.000  0.001  0.882
atom   23   Tr[ns(na)] =   7.99991
    eigenvalues:
  0.596  0.603  0.913  0.916  0.972
    eigenvectors:
  0.000  0.995  0.000  0.000  0.005
  0.000  0.000  0.002  0.998  0.000
  0.000  0.000  0.998  0.002  0.000
  0.000  0.005  0.000  0.000  0.995
  1.000  0.000  0.000  0.000  0.000
    occupations:
  0.605  0.000  0.002  0.025 -0.000
  0.000  0.916 -0.000  0.000 -0.001
  0.002 -0.000  0.913  0.000  0.000
  0.025  0.000  0.000  0.970  0.000
 -0.000 -0.001  0.000  0.000  0.596
N of occupied +U levels =  64.0123943
 --- exit write_ns ---

[...]

          k = 0.2500-0.4833 0.0000 ( 30510 PWs)   bands (ev):

[...]

          k =-0.2500 0.2417 0.0000 ( 30481 PWs)   bands (ev):

   -49.1539 -49.1159 -49.1062 -49.1041 -49.0990 -49.0723 -48.9827 -48.9770
   -48.9748 -48.9623 -48.9597 -48.9539 -48.8962 -48.8795 -48.8108 -48.8055
   -48.7968 -48.7442 -48.7330 -48.7195 -48.6897 -48.6769 -48.6684 -48.6558
   -21.4281 -21.1460 -20.9302 -20.8206 -20.5748 -20.4750 -20.3680 -20.3655
   -20.2218 -20.1816 -20.0777 -20.0338 -19.9977 -19.8825 -19.8122 -19.7593
   -18.9606 -18.8527  -9.6995  -9.5047  -9.4631  -9.2453  -8.8731  -8.7840
    -8.6887  -8.6543  -8.6256  -8.5027  -8.4894  -8.4024  -8.4009  -8.2200
    -8.0814  -8.0808  -7.8812  -7.8150  -7.5012  -7.4079  -7.3050  -7.2420
    -7.0736  -6.8161  -6.8142  -6.6377  -6.6318  -6.3811  -6.3534  -6.2343
    -6.2199  -6.1412  -6.0569  -5.9905  -5.8869  -5.8423  -5.7838  -5.7198
    -5.5146  -5.4021  -5.3292  -5.1894  -5.0682  -4.8968  -4.8496  -4.7983
    -4.6534  -4.5518  -4.4368  -4.3138  -4.0563  -3.9844  -3.8782  -3.7303
    -3.6819  -3.5705  -3.5551  -3.4830  -3.3865  -3.3472  -3.2461  -3.2058
    -3.1605  -3.0461  -2.9656  -2.9061  -2.8046  -2.7707  -2.5341  -2.3415
    -2.0672  -1.9959  -1.9549  -1.8715  -1.8418  -1.6413  -1.4706  -1.4170
    -1.0157  -0.7467  -0.3440  -0.1757   0.3648   0.4902   0.5425   0.8504
     1.0586   1.3250   1.4818   1.5581   1.7295   1.7754   1.8829   2.0992
     3.6212   3.9695   4.5056   4.9013   5.2776   5.4379   5.5073   5.7585
     5.9601   6.2177   6.3409   6.4009   6.4113   6.6635   6.8066   6.9594
     7.1969   7.3528   7.4342   7.6201   7.6969   7.8491   8.0234   8.0347
     8.0797   8.2428   8.3846   8.3974   8.6289   8.7610   8.8089   8.8760
     8.9010   9.1795   9.3348   9.4187   9.5350   9.6388   9.6719   9.7172
     9.8494   9.9056  10.1239  10.1604  10.2556  10.2834  10.3468  10.5022
    10.5842  10.6416  10.7718  10.8256  10.8699  10.9890  11.0175  11.1783
    11.3150  11.3175  11.4193  11.4588  11.5045  11.5866  11.6926  11.7097
    11.8139  12.0010  12.0979  12.1326  12.1543  12.2146  12.2350  12.3629
    12.4280  12.5084  12.5830  12.6052  12.7042  12.7809  12.8819  12.9945
    13.0391  13.1015  13.2205  13.2239  13.3189  13.3632  13.4320  13.5376
    13.6386  13.6998  13.7921  13.8348  13.8514  14.0562  14.0754  14.1154
    14.1666  14.2677  14.3659  14.4658  14.5544  14.5717  14.6526  14.7131
    14.7858  15.0456  15.2233  15.2919  15.3583  15.4190  15.4686  15.4858
    15.5285  15.6154  15.6860  15.7010  15.7882  15.7964  15.9606  15.9914
    16.0585  16.0683  16.1848  16.2740  16.3213  16.3620  16.3936  16.4851
    16.5342  16.5667  16.6043  16.6241  16.7262  16.8134  16.9821  16.9823
    17.1319  17.2072  17.2231  17.3233  17.3280  17.4207  17.4890  17.5322
    17.5695  17.6256  17.7431  17.7678  17.8729  17.8841  18.0555  18.0659
    18.0967  18.1489  18.2449  18.3496  18.4143  18.4848  18.5002  18.6573
    18.7146  18.8573  18.8670  18.9184  18.9789  19.0300  19.0635  19.1367
    19.2059  19.2184  19.3010  19.4532  19.4608  19.5559  19.6649  19.7220
    19.7446  19.9038  19.9059  20.0327  20.1349  20.2174  20.3004  20.3334
    20.4575  20.5380  20.6088  20.6543  20.6670  20.7422  20.8333  20.8948
    20.9375  21.0230  21.1081  21.1216  21.1714  21.2515  21.3186  21.3520
    21.3977  21.4375  21.5601  21.6401  21.6648  21.7194  21.7946  21.8422
    21.8524  21.9162  22.0072  22.1040

     the Fermi energy is    -1.8519 ev

!    total energy              =   -1947.43711931 Ry
     Harris-Foulkes estimate   =   -1947.43711931 Ry
     estimated scf accuracy    <          5.2E-09 Ry

     The total energy is the sum of the following terms:

     one-electron contribution =  -22611.65770361 Ry
     hartree contribution      =   11351.94156606 Ry
     xc contribution           =    -365.11349728 Ry
     ewald contribution        =    9676.59466693 Ry
     Hubbard energy            =       0.79908252 Ry
     smearing contrib. (-TS)   =      -0.00123393 Ry

     convergence has been achieved in  15 iterations

     Forces acting on atoms (Ry/au):

     negative rho (up, down):  0.689E+00 0.000E+00
     atom    1 type  1   force =    -0.00676102   -0.01328310    0.00012074
     atom    2 type  1   force =     0.00010825    0.00507318   -0.00042304
     atom    3 type  2   force =    -0.00013401    0.00446056   -0.00034096
     atom    4 type  2   force =     0.00831019    0.00882270   -0.00008930
     atom    5 type  1   force =    -0.00153286   -0.02992850    0.00001619
     atom    6 type  1   force =     0.00263631    0.02688880    0.00000573
     atom    7 type  1   force =    -0.00028012   -0.00066057    0.00044671
     atom    8 type  1   force =    -0.00290285   -0.00063358   -0.00009198
     atom    9 type  2   force =     0.00124248   -0.00018670   -0.00033463
     atom   10 type  2   force =     0.00002309   -0.00187633    0.00025379
     atom   11 type  1   force =    -0.00014451    0.00728909    0.00012417
     atom   12 type  1   force =     0.00031483   -0.00663364    0.00014324
     atom   13 type  1   force =    -0.00074215   -0.00003737   -0.00024244
     atom   14 type  1   force =    -0.00676207   -0.01328325    0.00013381
     atom   15 type  1   force =     0.00009894    0.00507294   -0.00041509
     atom   16 type  2   force =    -0.00014657    0.00446155   -0.00034257
     atom   17 type  2   force =     0.00829838    0.00882212   -0.00009071
     atom   18 type  1   force =    -0.00153606   -0.02992543    0.00001648
     atom   19 type  1   force =     0.00263298    0.02688554    0.00000609
     atom   20 type  1   force =    -0.00028994   -0.00066016    0.00045789
     atom   21 type  1   force =    -0.00289681   -0.00063354   -0.00010582
     atom   22 type  2   force =     0.00123749   -0.00018703   -0.00033286
     atom   23 type  2   force =     0.00002488   -0.00187629    0.00023781
     atom   24 type  1   force =    -0.00016286    0.00729321    0.00012548
     atom   25 type  1   force =     0.00029655   -0.00663764    0.00014447
     atom   26 type  1   force =    -0.00073281   -0.00003734   -0.00026163
     atom   27 type  3   force =     0.00001264    0.00042563    0.00048624
     atom   28 type  3   force =     0.00001278    0.00042686    0.00048663
     atom   29 type  3   force =    -0.00011143    0.00027933   -0.00006529
     atom   30 type  3   force =    -0.00011373    0.00027897   -0.00006916

     Total force =     0.001623     Total SCF correction =     0.000182
     SCF correction compared to forces is large: reduce conv_thr to get better values

     bfgs converged in   9 scf cycles and   8 bfgs steps
     (criteria: energy < 0.10E-03, force < 0.10E-02)

     End of BFGS Geometry Optimization

     Final energy   =   -1947.4371193080 Ry
Begin final coordinates

ATOMIC_POSITIONS (crystal)
O0       0.000000000   0.000000000   0.378733403    0   0   1
O0       0.000000000   0.500000000   0.401109243    0   0   1
Rh1      0.250000000   0.500000000   0.452364309    0   0   1
Rh1      0.000000000   0.000000000   0.453145422    0   0   1
O0       0.250000000   0.810000000   0.452812881    0   0   1
O0       0.250000000   0.190000000   0.452628941    0   0   1
O0       0.000000000   0.500000000   0.498994743    0   0   1
O0       0.000000000   0.000000000   0.528653253    0   0   1
Rh1      0.250000000   0.000000000   0.576100795    0   0   1
Rh1      0.000000000   0.500000000   0.571283199    0   0   1
O0       0.250000000   0.690000000   0.577097563    0   0   1
O0       0.250000000   0.310000000   0.577111149    0   0   1
O0       0.000000000   0.000000000   0.621459670    0   0   1
O0       0.500000000   0.000000000   0.378732729    0   0   1
O0       0.500000000   0.500000000   0.401108836    0   0   1
Rh1      0.750000000   0.500000000   0.452364349    0   0   1
Rh1      0.500000000   0.000000000   0.453145513    0   0   1
O0       0.750000000   0.810000000   0.452812957    0   0   1
O0       0.750000000   0.190000000   0.452629016    0   0   1
O0       0.500000000   0.500000000   0.498994878    0   0   1
O0       0.500000000   0.000000000   0.528654281    0   0   1
Rh1      0.750000000   0.000000000   0.576100749    0   0   1
Rh1      0.500000000   0.500000000   0.571283416    0   0   1
O0       0.750000000   0.690000000   0.577097401    0   0   1
O0       0.750000000   0.310000000   0.577110999    0   0   1
O0       0.500000000   0.000000000   0.621460838    0   0   1
H2      -0.000160293   0.638344844   0.384405728
H2       0.499839565   0.638345023   0.384405446
H2       0.148426549   0.033381989   0.368028729
H2       0.648428556   0.033382187   0.368029564
End final coordinates

     General routines

     Parallel routines
     Hubbard U routines

   This run was terminated on:  10:12:14   9May2014

   JOB DONE.
Running PBS batch system epilogue script
Job id: 340829.audhumbla.fysik.dtu.dk
Username: zhonxu
Groupname: campgst
Jobname: RhO2/Eads-2-layers/bare-U-2.0
Sessionid: 16356
Queuename: verylong
Accounting:
This job has allocated the following 16 nodes:
b035 b035 b035 b035 b035 b035 b035 b035 b013 b013 b013 b013 b013 b013 b013 b013
Finished epilogue job 340829.audhumbla.fysik.dtu.dk for zhonxu