     Program PWSCF v.5.0.2 (svn rev. 9656) starts on 27Mar2014 at 19:20:53

     Current dimensions of program PWSCF are:
     Max number of different atomic species (ntypx) = 10
     Max number of k-points (npk) =  40000
     Max angular momentum in pseudopotentials (lmaxx) =  3
     Reading input from pwscf.in
Warning: card &CELL ignored
Warning: card / ignored

     Subspace diagonalization in iterative solution of the eigenvalue problem:
     a serial algorithm will be used

     bravais-lattice index     =            0
     lattice parameter (alat)  =      11.7919  a.u.
     unit-cell volume          =    7123.6633 (a.u.)^3
     number of atoms/cell      =           31
     number of atomic types    =            3
     number of electrons       =       246.00 (up: 123.00, down: 123.00)
     number of Kohn-Sham states=          357
     kinetic-energy cutoff     =      40.0000  Ry
     charge density cutoff     =     500.0000  Ry
     convergence threshold     =      1.0E-06
     mixing beta               =       0.3000
     number of iterations used =            8  plain     mixing
     Exchange-correlation      = SLA  PW   PBE  PBE ( 1 4 3 4 0)
     EXX-fraction              =        0.00
     nstep                     =           50

     celldm(1)=  11.791891  celldm(2)=   0.000000  celldm(3)=   0.000000
     celldm(4)=   0.000000  celldm(5)=   0.000000  celldm(6)=   0.000000

     crystal axes: (cart. coord. in units of alat)
               a(1) = (   1.000000   0.000000   0.000000 )
               a(2) = (   0.000000   1.026665   0.000000 )
               a(3) = (   0.000000   0.000000   4.231793 )

     reciprocal axes: (cart. coord. in units 2 pi/alat)
               b(1) = (  1.000000  0.000000  0.000000 )
               b(2) = (  0.000000  0.974028  0.000000 )
               b(3) = (  0.000000  0.000000  0.236306 )

     PseudoPot. # 1 for O  read from file:
     /home/camp/zhonxu/pseudo/o_pbe_v1.01.uspp.F.UPF
     MD5 check sum: 2bcb18d16ea4b960afae9ec6d52f22d2
     Pseudo is Ultrasoft + core correction, Zval =  6.0
     Generated by new atomic code, or converted to UPF format
     Using radial grid of  737 points,  5 beta functions with:
                l(1) =   0
                l(2) =   0
                l(3) =   1
                l(4) =   1
                l(5) =   2
     Q(r) pseudized with  8 coefficients,  rinner =    0.900   0.900   0.900
                                                       0.900   0.900

     PseudoPot. # 2 for Ru read from file:
     /home/camp/zhonxu/pseudo/ru_pbe_v1.uspp.F.UPF
     MD5 check sum: df00be1c11b23341d9806d8f1dfa10cf
     Pseudo is Ultrasoft + core correction, Zval = 16.0
     Generated by new atomic code, or converted to UPF format
     Using radial grid of  967 points,  6 beta functions with:
                l(1) =   0
                l(2) =   0
                l(3) =   1
                l(4) =   1
                l(5) =   2
                l(6) =   2
     Q(r) pseudized with  8 coefficients,  rinner =    1.300   1.300   1.300
                                                       1.300   1.300

     PseudoPot. # 3 for H  read from file:
     /home/camp/zhonxu/pseudo/h_pbe_v1.uspp.F.UPF
     MD5 check sum: 3408e3ff4ec8b0a4e358431e7e038a48
     Pseudo is Ultrasoft, Zval =  1.0
     Generated by new atomic code, or converted to UPF format
     Using radial grid of  615 points,  2 beta functions with:
                l(1) =   0
                l(2) =   0
     Q(r) pseudized with  8 coefficients,  rinner =    0.700

     atomic species   valence    mass     pseudopotential
        O0             6.00    15.99940     O ( 1.00)
        Ru1           16.00   101.07000     Ru( 1.00)
        H2             1.00     1.00794     H ( 1.00)

     Starting magnetic structure
     atomic species   magnetization
        O0           0.000
        Ru1          0.000
        H2           0.000

     No symmetry found

   Cartesian axes

     site n.     atom                  positions (alat units)
         1           O0  tau(   1) = (   0.0000000   0.0000000   1.6080390  )
         2           O0  tau(   2) = (   0.0000000   0.5133323   1.7023233  )
         3           Ru1 tau(   3) = (   0.2500000   0.5133323   1.9175523  )
         4           Ru1 tau(   4) = (   0.0000000   0.0000000   1.9215302  )
         5           O0  tau(   5) = (   0.2500000   0.8315984   1.9195836  )
         6           O0  tau(   6) = (   0.2500000   0.1950663   1.9193297  )
         7           O0  tau(   7) = (   0.0000000   0.5133323   2.1106490  )
         8           O0  tau(   8) = (   0.0000000   0.0000000   2.2345136  )
         9           Ru1 tau(   9) = (   0.2500000   0.0000000   2.4487269  )
        10           Ru1 tau(  10) = (   0.0000000   0.5133323   2.4113179  )
        11           O0  tau(  11) = (   0.2500000   0.7083986   2.4387399  )
        12           O0  tau(  12) = (   0.2500000   0.3182660   2.4402210  )
        13           O0  tau(  13) = (   0.0000000   0.0000000   2.6238385  )
        14           O0  tau(  14) = (   0.5000000   0.0000000   1.6080390  )
        15           O0  tau(  15) = (   0.5000000   0.5133323   1.7023233  )
        16           Ru1 tau(  16) = (   0.7500000   0.5133323   1.9175523  )
        17           Ru1 tau(  17) = (   0.5000000   0.0000000   1.9215302  )
        18           O0  tau(  18) = (   0.7500000   0.8315984   1.9195836  )
        19           O0  tau(  19) = (   0.7500000   0.1950663   1.9193297  )
        20           O0  tau(  20) = (   0.5000000   0.5133323   2.1106490  )
        21           O0  tau(  21) = (   0.5000000   0.0000000   2.2345136  )
        22           Ru1 tau(  22) = (   0.7500000   0.0000000   2.4487269  )
        23           Ru1 tau(  23) = (   0.5000000   0.5133323   2.4113179  )
        24           O0  tau(  24) = (   0.7500000   0.7083986   2.4387399  )
        25           O0  tau(  25) = (   0.7500000   0.3182660   2.4401787  )
        26           O0  tau(  26) = (   0.5000000   0.0000000   2.6238385  )
        27           H2  tau(  27) = (  -0.0004100   0.6466653   1.6162063  )
        28           H2  tau(  28) = (   0.4995900   0.6466653   1.6162063  )
        29           H2  tau(  29) = (   0.1464700   0.0296706   1.5559879  )
        30           H2  tau(  30) = (   0.6464700   0.0296706   1.5559879  )
        31           O0  tau(  31) = (   0.4999100   0.5125213   2.6909124  )

     number of k points=    20  Methfessel-Paxton smearing, width (Ry)=  0.0100
                       cart. coord. in units 2pi/alat
        k(    1) = (   0.0000000   0.0000000   0.0000000), wk =   0.0625000
        k(    2) = (   0.0000000   0.2435070   0.0000000), wk =   0.1250000
        k(    3) = (   0.0000000  -0.4870139   0.0000000), wk =   0.0625000
        k(    4) = (   0.2500000   0.0000000   0.0000000), wk =   0.1250000
        k(    5) = (   0.2500000   0.2435070   0.0000000), wk =   0.1250000
        k(    6) = (   0.2500000  -0.4870139   0.0000000), wk =   0.1250000
        k(    7) = (  -0.5000000   0.0000000   0.0000000), wk =   0.0625000
        k(    8) = (  -0.5000000   0.2435070   0.0000000), wk =   0.1250000
        k(    9) = (  -0.5000000  -0.4870139   0.0000000), wk =   0.0625000
        k(   10) = (  -0.2500000   0.2435070   0.0000000), wk =   0.1250000
        k(   11) = (   0.0000000   0.0000000   0.0000000), wk =   0.0625000
        k(   12) = (   0.0000000   0.2435070   0.0000000), wk =   0.1250000
        k(   13) = (   0.0000000  -0.4870139   0.0000000), wk =   0.0625000
        k(   14) = (   0.2500000   0.0000000   0.0000000), wk =   0.1250000
        k(   15) = (   0.2500000   0.2435070   0.0000000), wk =   0.1250000
        k(   16) = (   0.2500000  -0.4870139   0.0000000), wk =   0.1250000
        k(   17) = (  -0.5000000   0.0000000   0.0000000), wk =   0.0625000
        k(   18) = (  -0.5000000   0.2435070   0.0000000), wk =   0.1250000
        k(   19) = (  -0.5000000  -0.4870139   0.0000000), wk =   0.0625000
        k(   20) = (  -0.2500000   0.2435070   0.0000000), wk =   0.1250000

     Largest allocated arrays     est. size (Mb)     dimensions
     Largest temporary arrays     est. size (Mb)     dimensions

     Check: negative/imaginary core charge=   -0.000003    0.000000

     Initial potential from superposition of free atoms
     Check: negative starting charge=(component1):   -0.260941
     Check: negative starting charge=(component2):   -0.260941

     starting charge  237.99981, renormalised to  246.00000

     negative rho (up, down):  0.270E+00 0.270E+00
     Starting wfc are  184 randomized atomic wfcs

     Self-consistent Calculation

     iteration #  1     ecut=    40.00 Ry     beta=0.30
     Davidson diagonalization with overlap
     ethr =  1.00E-02,  avg # of iterations =  6.3

     negative rho (up, down):  0.288E+00 0.288E+00

     total energy              =   -2140.96146036 Ry
     Harris-Foulkes estimate   =   -2167.55214128 Ry
     estimated scf accuracy    <      54.00859574 Ry

     total magnetization       =    -0.00 Bohr mag/cell
     absolute magnetization    =     0.01 Bohr mag/cell

[...]

     End of self-consistent calculation

 ------ SPIN UP ------------

          k = 0.0000 0.0000 0.0000 ( 30363 PWs)   bands (ev):

   -75.5334 -75.1583 -75.1477 -74.8241 -74.7908 -74.6626 -74.4330 -74.4224
   -45.9845 -45.4079 -45.2923 -45.1864 -45.1139 -45.1106 -45.1087 -45.0510
   -45.0282 -45.0059 -45.0035 -44.9226 -44.8021 -44.6582 -44.6352 -44.6125
   -44.5860 -44.5713 -44.5535 -44.4618 -44.4338 -44.3574 -44.3222 -44.2254
   -21.3934 -20.8838 -20.8067 -20.7024 -20.6512 -20.4143 -20.1979 -19.9634
   -19.9099 -19.8960 -19.8737 -19.8559 -19.8068 -19.5434 -19.3716 -19.3714
   -19.2953 -19.1518 -18.4179  -9.5381  -9.4167  -9.3805  -8.6834  -8.5644
    -8.4161  -8.4006  -8.2190  -8.0802  -8.0528  -8.0322  -8.0247  -8.0047
    -7.9167  -7.8183  -7.7658  -7.6397  -7.5436  -7.5088  -7.2555  -7.1495
    -6.9828  -6.7563  -6.3984  -6.3304  -6.0091  -5.9689  -5.8768  -5.7817
    -5.5695  -5.4828  -5.4280  -5.4103  -5.2257  -5.1990  -5.1308  -5.0785
    -4.9460  -4.9144  -4.8433  -4.6615  -4.6000  -4.5664  -4.4661  -4.4416
    -4.3161  -4.2129  -4.1495  -3.9427  -3.9380  -3.8482  -3.6320  -3.5214
    -3.5153  -3.1642  -3.0765  -2.9429  -2.7870  -2.7565  -2.4780  -2.2858
    -2.2636  -2.0542  -1.9956  -1.8839  -1.8538  -1.7010  -1.6960  -1.5630
    -1.4604  -1.3855  -1.3684  -1.2949  -1.2291  -0.8307  -0.7819  -0.5338
    -0.3355  -0.2887  -0.2096   0.0735   0.1673   0.9477   1.2152   1.6090
     1.6507   1.8538   1.9815   2.0241   2.2185   2.7039   3.1225   3.1390
     3.1585   3.1794   3.2583   3.4376   4.2600   4.3039   4.3519   4.8932
     5.2465   5.9919   6.2098   6.2634   6.3867   6.8721   7.1005   7.2793
     7.5921   7.8564   7.9253   8.0510   8.0706   8.0904   8.0984   8.1223
     8.2644   8.3216   8.3845   8.4652   8.5416   8.5610   8.6831   8.7399
     8.7693   8.8046   8.9759   9.2324   9.2440   9.3028   9.3477   9.4608
     9.5287   9.6134   9.8559   9.9598   9.9747  10.1121  10.1553  10.3263
    10.6047  10.7291  10.8343  10.9946  11.1494  11.1773  11.2391  11.2624
[...]
     atom    6 type  1   force =     0.00005294    0.03071164   -0.00129212
     atom    7 type  1   force =     0.00005390   -0.00068501   -0.00392627
     atom    8 type  1   force =    -0.00017595   -0.00122832    0.00169717
     atom    9 type  2   force =     0.01023643    0.00192002    0.00967956
     atom   10 type  2   force =     0.00006715   -0.00078396   -0.00456757
     atom   11 type  1   force =    -0.03306457    0.02426826   -0.03227737
     atom   12 type  1   force =    -0.03524379   -0.02587742   -0.03278041
     atom   13 type  1   force =    -0.00154076   -0.00100927   -0.00447910
     atom   14 type  1   force =    -0.00545697   -0.01164689    0.00128820
     atom   15 type  1   force =    -0.00010825    0.01237952    0.00703394
     atom   16 type  2   force =     0.00250364   -0.00224624   -0.02570216
     atom   17 type  2   force =     0.00345043    0.00651869   -0.00066995
     atom   18 type  1   force =     0.00090824   -0.02993044   -0.00099632
     atom   19 type  1   force =     0.00140718    0.02987840   -0.00146425
     atom   20 type  1   force =    -0.00009939   -0.00066646   -0.00961740
     atom   21 type  1   force =    -0.00027221   -0.00151394    0.00127832
     atom   22 type  2   force =    -0.00832151    0.00257980    0.00976966
     atom   23 type  2   force =     0.00056329    0.00336469    0.18029728
     atom   24 type  1   force =     0.03300197    0.02395774   -0.03215733
     atom   25 type  1   force =     0.03515599   -0.02586631   -0.03281977
     atom   26 type  1   force =    -0.00165214   -0.00109752   -0.01244718
     atom   27 type  3   force =    -0.00005625   -0.00098037    0.00298395
     atom   28 type  3   force =    -0.00002754   -0.00114502   -0.00155349
     atom   29 type  3   force =    -0.00054153    0.00078103   -0.00069628
     atom   30 type  3   force =     0.00077228    0.00021813   -0.00086983
     atom   31 type  1   force =    -0.00000778   -0.00006008    0.00692335

     Total force =     0.006924     Total SCF correction =     0.000129

     BFGS Geometry Optimization

     number of scf cycles    =   1
     number of bfgs steps    =   0

     energy   new            =   -2163.3985796986 Ry

     new trust radius        =       0.0069236163 bohr
     new conv_thr            =       0.0000010000 Ry

ATOMIC_POSITIONS (crystal)
O0       0.000000000   0.000000000   0.379990000    0   0   0
O0       0.000000000   0.500000000   0.402270000    0   0   0
Ru1      0.250000000   0.500000000   0.453130000    0   0   0
Ru1      0.000000000   0.000000000   0.454070000    0   0   0
O0       0.250000000   0.810000000   0.453610000    0   0   0
O0       0.250000000   0.190000000   0.453550000    0   0   0
O0       0.000000000   0.500000000   0.498760000    0   0   0
O0       0.000000000   0.000000000   0.528030000    0   0   0
Ru1      0.250000000   0.000000000   0.578650000    0   0   0
Ru1      0.000000000   0.500000000   0.569810000    0   0   0
O0       0.250000000   0.690000000   0.576290000    0   0   0
O0       0.250000000   0.310000000   0.576640000    0   0   0
O0       0.000000000   0.000000000   0.620030000    0   0   0
O0       0.500000000   0.000000000   0.379990000    0   0   0
O0       0.500000000   0.500000000   0.402270000    0   0   0
Ru1      0.750000000   0.500000000   0.453130000    0   0   0
Ru1      0.500000000   0.000000000   0.454070000    0   0   0
O0       0.750000000   0.810000000   0.453610000    0   0   0
O0       0.750000000   0.190000000   0.453550000    0   0   0
O0       0.500000000   0.500000000   0.498760000    0   0   0
O0       0.500000000   0.000000000   0.528030000    0   0   0
Ru1      0.750000000   0.000000000   0.578650000    0   0   0
Ru1      0.500000000   0.500000000   0.569810000    0   0   0
O0       0.750000000   0.690000000   0.576290000    0   0   0
O0       0.750000000   0.310000000   0.576630000    0   0   0
O0       0.500000000   0.000000000   0.620030000    0   0   0
H2      -0.000410000   0.629870000   0.381920000    0   0   0
H2       0.499590000   0.629870000   0.381920000    0   0   0
H2       0.146470000   0.028900000   0.367690000    0   0   0
H2       0.646470000   0.028900000   0.367690000    0   0   0
O0       0.499909340   0.499205037   0.636018742

     Check: negative starting charge=(component1):   -0.521882
     NEW-OLD atomic charge density approx. for the potential

     Check: negative/imaginary core charge=   -0.000003    0.000000
     Check: negative starting charge=(component1):   -0.521884

[...]

     Total force =     0.002923     Total SCF correction =     0.000841
     SCF correction compared to forces is large: reduce conv_thr to get better values

     number of scf cycles    =   2
     number of bfgs steps    =   1

     energy   old            =   -2163.3985796986 Ry
     energy   new            =   -2163.3986143511 Ry

     CASE: energy  _new < energy  _old

     new trust radius        =       0.0050581574 bohr
     new conv_thr            =       0.0000000100 Ry

ATOMIC_POSITIONS (crystal)
O0       0.000000000   0.000000000   0.379990000    0   0   0
O0       0.000000000   0.500000000   0.402270000    0   0   0
Ru1      0.250000000   0.500000000   0.453130000    0   0   0
Ru1      0.000000000   0.000000000   0.454070000    0   0   0
O0       0.250000000   0.810000000   0.453610000    0   0   0
O0       0.250000000   0.190000000   0.453550000    0   0   0
O0       0.000000000   0.500000000   0.498760000    0   0   0
O0       0.000000000   0.000000000   0.528030000    0   0   0
Ru1      0.250000000   0.000000000   0.578650000    0   0   0
Ru1      0.000000000   0.500000000   0.569810000    0   0   0
O0       0.250000000   0.690000000   0.576290000    0   0   0
O0       0.250000000   0.310000000   0.576640000    0   0   0
O0       0.000000000   0.000000000   0.620030000    0   0   0
O0       0.500000000   0.000000000   0.379990000    0   0   0
O0       0.500000000   0.500000000   0.402270000    0   0   0
Ru1      0.750000000   0.500000000   0.453130000    0   0   0
Ru1      0.500000000   0.000000000   0.454070000    0   0   0
O0       0.750000000   0.810000000   0.453610000    0   0   0
O0       0.750000000   0.190000000   0.453550000    0   0   0
O0       0.500000000   0.500000000   0.498760000    0   0   0
O0       0.500000000   0.000000000   0.528030000    0   0   0
Ru1      0.750000000   0.000000000   0.578650000    0   0   0
Ru1      0.500000000   0.500000000   0.569810000    0   0   0
O0       0.750000000   0.690000000   0.576290000    0   0   0
O0       0.750000000   0.310000000   0.576630000    0   0   0
O0       0.500000000   0.000000000   0.620030000    0   0   0
H2      -0.000410000   0.629870000   0.381920000    0   0   0
H2       0.499590000   0.629870000   0.381920000    0   0   0
H2       0.146470000   0.028900000   0.367690000    0   0   0
H2       0.646470000   0.028900000   0.367690000    0   0   0
O0       0.499905741   0.499196100   0.636120080

     Check: negative starting charge=(component1):   -0.521884
     NEW-OLD atomic charge density approx. for the potential

     Check: negative/imaginary core charge=   -0.000003    0.000000
     Check: negative starting charge=(component1):   -0.521886

[...]

     Self-consistent Calculation

[...]

     total energy              =   -2163.39862098 Ry
     Harris-Foulkes estimate   =   -2163.39862098 Ry
     estimated scf accuracy    <       0.00000003 Ry

[...]

     iteration # 25     ecut=    40.00 Ry     beta=0.30
     Davidson diagonalization with overlap
     ethr =  5.28E-12,  avg # of iterations =  1.0

     negative rho (up, down):  0.291E+00 0.291E+00

     End of self-consistent calculation

 ------ SPIN UP ------------

[...]

 ------ SPIN DOWN ----------

[...]

          k = 0.2500-0.4870 0.0000 ( 30468 PWs)   bands (ev):

[...]

          k =-0.2500 0.2435 0.0000 ( 30434 PWs)   bands (ev):

   -75.5247 -75.1632 -75.1557 -74.8296 -74.7977 -74.6694 -74.4380 -74.4302
   -45.9643 -45.3978 -45.2726 -45.1772 -45.1424 -45.1230 -45.1172 -45.0543
   -45.0334 -45.0176 -45.0082 -44.9291 -44.7847 -44.6667 -44.6466 -44.6315
   -44.5966 -44.5764 -44.5666 -44.4479 -44.4412 -44.3737 -44.3193 -44.2510
   -21.2595 -20.8198 -20.7555 -20.6755 -20.5568 -20.4166 -20.1351 -20.1129
   -20.0559 -19.9298 -19.8327 -19.7533 -19.7252 -19.5751 -19.5481 -19.4999
   -19.4570 -19.2304 -18.3805  -9.3617  -8.8810  -8.8257  -8.8165  -8.4790
    -8.4626  -8.3418  -8.2549  -8.2467  -8.0780  -7.9948  -7.9864  -7.9223
    -7.8034  -7.7250  -7.6953  -7.5790  -7.5443  -7.2024  -7.0738  -7.0234
    -6.8773  -6.7934  -6.4573  -6.3183  -6.2605  -6.1178  -5.9692  -5.8950
    -5.8125  -5.7633  -5.6935  -5.6147  -5.5167  -5.4046  -5.3215  -5.2946
    -5.2384  -5.1119  -5.0480  -4.9230  -4.8387  -4.6588  -4.5759  -4.5318
    -4.4611  -4.3438  -4.2416  -4.1856  -3.9883  -3.8652  -3.8228  -3.5094
    -3.4222  -3.3719  -3.0996  -3.0650  -2.3522  -2.2768  -2.0815  -2.0154
    -1.9823  -1.8852  -1.7894  -1.7310  -1.7193  -1.6844  -1.5912  -1.5544
    -1.4249  -1.3639  -1.2768  -1.1521  -1.0115  -0.8546  -0.6811  -0.5911
    -0.4814  -0.4616  -0.3281  -0.1099   0.3784   0.9541   1.1875   1.2319
     1.5815   1.8126   2.1435   2.3524   2.5929   2.6951   2.7793   2.8540
     2.9921   3.1975   3.2656   3.7848   4.0701   4.8111   4.8397   5.3366
     5.5443   5.6198   5.7800   6.4276   6.6353   6.6663   6.6826   6.7938
     6.8999   7.0375   7.1862   7.3998   7.5922   7.7415   7.8648   8.0290
     8.0999   8.2571   8.2942   8.3953   8.5185   8.5722   8.7286   8.7551
     8.9860   9.1373   9.1494   9.2432   9.4939   9.6536   9.7663   9.8241
     9.9339  10.0387  10.0858  10.1274  10.2521  10.3294  10.4409  10.4727
    10.6149  10.6690  10.7059  10.9026  10.9902  11.0984  11.1785  11.2668
    11.3581  11.3953  11.4567  11.6374  11.7061  11.7429  11.8159  11.9084
    11.9530  12.0013  12.0462  12.1614  12.2125  12.3065  12.3443  12.4309
    12.4801  12.5640  12.6262  12.6990  12.8302  12.9243  12.9804  13.0350
    13.0809  13.1560  13.2633  13.3221  13.3899  13.4441  13.4880  13.6018
    13.7656  13.8301  13.9208  13.9542  14.0492  14.1042  14.1829  14.2421
    14.3640  14.4217  14.4486  14.5273  14.6223  14.7472  14.7832  14.8373
    14.8934  14.9588  15.0874  15.2924  15.3763  15.4659  15.5364  15.6293
    15.6440  15.7163  15.8152  15.8287  15.9137  15.9689  16.0188  16.1135
    16.2160  16.2333  16.3417  16.4090  16.4544  16.5210  16.5630  16.6401
    16.6851  16.7409  16.7829  16.8099  16.8397  16.9494  16.9770  17.0468
    17.1308  17.2259  17.3017  17.3942  17.4294  17.4940  17.5472  17.6848
    17.6974  17.7491  17.8241  17.8782  17.9084  17.9904  18.1159  18.1417
    18.2262  18.2452  18.3490  18.4021  18.4895  18.5043  18.6113  18.6890
    18.7135  18.8371  18.8879  19.0099  19.0727  19.1586  19.1790  19.2235
    19.3096  19.3328  19.4042  19.4668  19.5180  19.5684  19.6331  19.7893
    19.8531  19.8787  19.9256  20.0376  20.1084  20.1971  20.2559  20.3363
    20.4621  20.5181  20.5830  20.6520  20.7494  20.8130  20.8477  20.8741
    20.9662  20.9967  21.0836  21.1544  21.1814  21.2187  21.2840  21.3806
    21.4748  21.5327  21.6008  21.6382  21.7082  21.7795  21.8757  21.9780
    22.0167  22.0464  22.0910  22.1466  22.1787

     the spin up/dw Fermi energies are    -1.1838   -1.1839 ev

!    total energy              =   -2163.39862098 Ry
     Harris-Foulkes estimate   =   -2163.39862098 Ry
     estimated scf accuracy    <          6.0E-09 Ry

     The total energy is the sum of the following terms:

     one-electron contribution =  -25209.69806686 Ry
     hartree contribution      =   12623.48321340 Ry
     xc contribution           =    -337.61194902 Ry
     ewald contribution        =   10760.42964903 Ry
     smearing contrib. (-TS)   =      -0.00146753 Ry

     total magnetization       =    -0.00 Bohr mag/cell
     absolute magnetization    =     0.00 Bohr mag/cell

     convergence has been achieved in  25 iterations

     Forces acting on atoms (Ry/au):

     negative rho (up, down):  0.291E+00 0.291E+00
     atom    1 type  1   force =    -0.00481701   -0.01190261   -0.00064259
     atom    2 type  1   force =    -0.00006638    0.00786314    0.00240675
     atom    3 type  2   force =    -0.00294047   -0.00369891   -0.02571723
     atom    4 type  2   force =     0.00347509    0.00554172    0.00262850
     atom    5 type  1   force =     0.00300475   -0.02952738   -0.00108935
     atom    6 type  1   force =     0.00010779    0.03066294   -0.00130667
     atom    7 type  1   force =     0.00008491   -0.00070191   -0.00403812
     atom    8 type  1   force =    -0.00020129   -0.00122877    0.00170805
     atom    9 type  2   force =     0.01019176    0.00192385    0.00994805
     atom   10 type  2   force =     0.00006197   -0.00078242   -0.00439011
     atom   11 type  1   force =    -0.03278914    0.02409251   -0.03216123
     atom   12 type  1   force =    -0.03496562   -0.02571010   -0.03267512
     atom   13 type  1   force =    -0.00157888   -0.00101534   -0.00473810
     atom   14 type  1   force =    -0.00536461   -0.01162421    0.00144090
     atom   15 type  1   force =    -0.00014746    0.01242023    0.00702891
     atom   16 type  2   force =     0.00236680   -0.00225623   -0.02555725
     atom   17 type  2   force =     0.00345259    0.00651395   -0.00069849
     atom   18 type  1   force =     0.00084506   -0.02985061   -0.00101123
     atom   19 type  1   force =     0.00133998    0.02979611   -0.00147482
     atom   20 type  1   force =    -0.00014396   -0.00068336   -0.00950089
     atom   21 type  1   force =    -0.00026164   -0.00151457    0.00119033
     atom   22 type  2   force =    -0.00828772    0.00258337    0.01005845
     atom   23 type  2   force =     0.00056103    0.00332582    0.18654417
     atom   24 type  1   force =     0.03270928    0.02380138   -0.03203159
     atom   25 type  1   force =     0.03486284   -0.02572066   -0.03270910
     atom   26 type  1   force =    -0.00163044   -0.00109962   -0.01265130
     atom   27 type  3   force =    -0.00006275   -0.00099648    0.00296880
     atom   28 type  3   force =    -0.00003462   -0.00116370   -0.00155097
     atom   29 type  3   force =    -0.00053598    0.00077612   -0.00069879
     atom   30 type  3   force =     0.00077062    0.00021454   -0.00087278
     atom   31 type  1   force =    -0.00000652   -0.00003880   -0.00040718

     Total force =     0.000409     Total SCF correction =     0.000032

     bfgs converged in   3 scf cycles and   2 bfgs steps
     (criteria: energy < 0.10E-03, force < 0.10E-02)

     End of BFGS Geometry Optimization

     Final energy   =   -2163.3986209807 Ry
Begin final coordinates

ATOMIC_POSITIONS (crystal)
O0       0.000000000   0.000000000   0.379990000    0   0   0
O0       0.000000000   0.500000000   0.402270000    0   0   0
Ru1      0.250000000   0.500000000   0.453130000    0   0   0
Ru1      0.000000000   0.000000000   0.454070000    0   0   0
O0       0.250000000   0.810000000   0.453610000    0   0   0
O0       0.250000000   0.190000000   0.453550000    0   0   0
O0       0.000000000   0.500000000   0.498760000    0   0   0
O0       0.000000000   0.000000000   0.528030000    0   0   0
Ru1      0.250000000   0.000000000   0.578650000    0   0   0
Ru1      0.000000000   0.500000000   0.569810000    0   0   0
O0       0.250000000   0.690000000   0.576290000    0   0   0
O0       0.250000000   0.310000000   0.576640000    0   0   0
O0       0.000000000   0.000000000   0.620030000    0   0   0
O0       0.500000000   0.000000000   0.379990000    0   0   0
O0       0.500000000   0.500000000   0.402270000    0   0   0
Ru1      0.750000000   0.500000000   0.453130000    0   0   0
Ru1      0.500000000   0.000000000   0.454070000    0   0   0
O0       0.750000000   0.810000000   0.453610000    0   0   0
O0       0.750000000   0.190000000   0.453550000    0   0   0
O0       0.500000000   0.500000000   0.498760000    0   0   0
O0       0.500000000   0.000000000   0.528030000    0   0   0
Ru1      0.750000000   0.000000000   0.578650000    0   0   0
Ru1      0.500000000   0.500000000   0.569810000    0   0   0
O0       0.750000000   0.690000000   0.576290000    0   0   0
O0       0.750000000   0.310000000   0.576630000    0   0   0
O0       0.500000000   0.000000000   0.620030000    0   0   0
H2      -0.000410000   0.629870000   0.381920000    0   0   0
H2       0.499590000   0.629870000   0.381920000    0   0   0
H2       0.146470000   0.028900000   0.367690000    0   0   0
H2       0.646470000   0.028900000   0.367690000    0   0   0
O0       0.499905741   0.499196100   0.636120080
End final coordinates

     General routines

     Parallel routines

   This run was terminated on:   2:39: 7  28Mar2014

   JOB DONE.