     Program PWSCF v.5.0.2 (svn rev. 9656) starts on 30Apr2014 at  4:20:57

     Current dimensions of program PWSCF are:
     Max number of different atomic species (ntypx) = 10
     Max number of k-points (npk) =  40000
     Max angular momentum in pseudopotentials (lmaxx) =  3
     Reading input from pwscf.in
Warning: card &CELL ignored
Warning: card / ignored

     Subspace diagonalization in iterative solution of the eigenvalue problem:
     a serial algorithm will be used

     bravais-lattice index     =            0
     lattice parameter (alat)  =      11.7541  a.u.
     unit-cell volume          =    7139.8207 (a.u.)^3
     number of atoms/cell      =           31
     number of atomic types    =            3
     number of electrons       =       238.00
     number of Kohn-Sham states=          357
     kinetic-energy cutoff     =      40.0000  Ry
     charge density cutoff     =     500.0000  Ry
     convergence threshold     =      1.0E-06
     mixing beta               =       0.7000
     number of iterations used =            8  plain     mixing
     Exchange-correlation      = SLA  PW   PBE  PBE ( 1 4 3 4 0)
     EXX-fraction              =        0.00
     nstep                     =           50

     celldm(1)=  11.754097  celldm(2)=   0.000000  celldm(3)=   0.000000
     celldm(4)=   0.000000  celldm(5)=   0.000000  celldm(6)=   0.000000

     crystal axes: (cart. coord. in units of alat)
               a(1) = (   1.000000   0.000000   0.000000 )
               a(2) = (   0.000000   1.034513   0.000000 )
               a(3) = (   0.000000   0.000000   4.249947 )

     reciprocal axes: (cart. coord. in units 2 pi/alat)
               b(1) = (  1.000000  0.000000  0.000000 )
               b(2) = (  0.000000  0.966638  0.000000 )
               b(3) = (  0.000000  0.000000  0.235297 )

     PseudoPot. # 1 for O  read from file:
     /home/camp/zhonxu/pseudo/o_pbe_v1.01.uspp.F.UPF
     MD5 check sum: 2bcb18d16ea4b960afae9ec6d52f22d2
     Pseudo is Ultrasoft + core correction, Zval =  6.0
     Generated by new atomic code, or converted to UPF format
     Using radial grid of  737 points,  5 beta functions with:
                l(1) =   0
                l(2) =   0
                l(3) =   1
                l(4) =   1
                l(5) =   2
     Q(r) pseudized with  8 coefficients,  rinner =    0.900   0.900   0.900
                                                       0.900   0.900

     PseudoPot. # 2 for Rh read from file:
     /home/camp/zhonxu/pseudo/rh_pbe_v1.uspp.F.UPF
     MD5 check sum: 37b626987ad0dd8ec6bf4cc9ef289918
     Pseudo is Ultrasoft + core correction, Zval = 15.0
     Generated by new atomic code, or converted to UPF format
     Using radial grid of  969 points,  7 beta functions with:
                l(1) =   0
                l(2) =   0
                l(3) =   1
                l(4) =   1
                l(5) =   2
                l(6) =   2
                l(7) =   2
     Q(r) pseudized with  6 coefficients,  rinner =    1.050   1.050   1.050
                                                       1.050   1.050

     PseudoPot. # 3 for H  read from file:
     /home/camp/zhonxu/pseudo/h_pbe_v1.uspp.F.UPF
     MD5 check sum: 3408e3ff4ec8b0a4e358431e7e038a48
     Pseudo is Ultrasoft, Zval =  1.0
     Generated by new atomic code, or converted to UPF format
     Using radial grid of  615 points,  2 beta functions with:
                l(1) =   0
                l(2) =   0
     Q(r) pseudized with  8 coefficients,  rinner =    0.700

     atomic species   valence    mass     pseudopotential
        O0             6.00    15.99940     O ( 1.00)
        Rh1           15.00   102.90550     Rh( 1.00)
        H2             1.00     1.00794     H ( 1.00)

     Simplified LDA+U calculation (l_max = 2) with parameters (eV):
     atomic species    L          U    alpha       J0     beta
        Rh1            2     5.0000   0.0000   0.0000   0.0000

     No symmetry found

   Cartesian axes

     site n.     atom                  positions (alat units)
         1           O0  tau(   1) = (   0.0000000   0.0000000   1.6064375  )
         2           O0  tau(   2) = (   0.0000000   0.5172566   1.7091588  )
         3           Rh1 tau(   3) = (   0.2500000   0.5172566   1.9262886  )
         4           Rh1 tau(   4) = (   0.0000000   0.0000000   1.9228036  )
         5           O0  tau(   5) = (   0.2500000   0.8379556   1.9220386  )
         6           O0  tau(   6) = (   0.2500000   0.1965575   1.9215286  )
         7           O0  tau(   7) = (   0.0000000   0.5172566   2.1200437  )
         8           O0  tau(   8) = (   0.0000000   0.0000000   2.2432071  )
         9           Rh1 tau(   9) = (   0.2500000   0.0000000   2.4439746  )
        10           Rh1 tau(  10) = (   0.0000000   0.5172566   2.4253174  )
        11           O0  tau(  11) = (   0.2500000   0.7138141   2.4432947  )
        12           O0  tau(  12) = (   0.2500000   0.3206991   2.4432097  )
        13           O0  tau(  13) = (   0.0000000   0.0000000   2.6356898  )
        14           O0  tau(  14) = (   0.5000000   0.0000000   1.6064375  )
        15           O0  tau(  15) = (   0.5000000   0.5172566   1.7079263  )
        16           Rh1 tau(  16) = (   0.7500000   0.5172566   1.9262886  )
        17           Rh1 tau(  17) = (   0.5000000   0.0000000   1.9227611  )
        18           O0  tau(  18) = (   0.7500000   0.8379556   1.9219536  )
        19           O0  tau(  19) = (   0.7500000   0.1965575   1.9216136  )
        20           O0  tau(  20) = (   0.5000000   0.5172566   2.1284161  )
        21           O0  tau(  21) = (   0.5000000   0.0000000   2.2423572  )
        22           Rh1 tau(  22) = (   0.7500000   0.0000000   2.4439321  )
        23           Rh1 tau(  23) = (   0.5000000   0.5172566   2.4652244  )
        24           O0  tau(  24) = (   0.7500000   0.7138141   2.4431672  )
        25           O0  tau(  25) = (   0.7500000   0.3206991   2.4432097  )
        26           O0  tau(  26) = (   0.5000000   0.0000000   2.6354348  )
        27           H2  tau(  27) = (  -0.0000700   0.6590056   1.6354222  )
        28           H2  tau(  28) = (   0.4999300   0.6605366   1.6368247  )
        29           H2  tau(  29) = (   0.1480800   0.0354838   1.5606656  )
        30           H2  tau(  30) = (   0.6481100   0.0354321   1.5605806  )
        31           O0  tau(  31) = (   0.5000800   0.5160462   2.7479734  )

     number of k points=    10  Methfessel-Paxton smearing, width (Ry)=  0.0100
                       cart. coord. in units 2pi/alat
        k(    1) = (   0.0000000   0.0000000   0.0000000), wk =   0.1250000
        k(    2) = (   0.0000000   0.2416596   0.0000000), wk =   0.2500000
        k(    3) = (   0.0000000  -0.4833191   0.0000000), wk =   0.1250000
        k(    4) = (   0.2500000   0.0000000   0.0000000), wk =   0.2500000
        k(    5) = (   0.2500000   0.2416596   0.0000000), wk =   0.2500000
        k(    6) = (   0.2500000  -0.4833191   0.0000000), wk =   0.2500000
        k(    7) = (  -0.5000000   0.0000000   0.0000000), wk =   0.1250000
        k(    8) = (  -0.5000000   0.2416596   0.0000000), wk =   0.2500000
        k(    9) = (  -0.5000000  -0.4833191   0.0000000), wk =   0.1250000
        k(   10) = (  -0.2500000   0.2416596   0.0000000), wk =   0.2500000

     Largest allocated arrays     est. size (Mb)     dimensions
     Largest temporary arrays     est. size (Mb)     dimensions

     Check: negative/imaginary core charge=   -0.000003    0.000000

     Initial potential from superposition of free atoms
     Check: negative starting charge=   -0.645358

     starting charge  233.99915, renormalised to  238.00000

     negative rho (up, down):  0.656E+00 0.000E+00
     Number of +U iterations with fixed ns =  0
     Starting occupations:
 --- enter write_ns ---
 LDA+U parameters:
U( 2)     =  5.00000000
alpha( 2) =  0.00000000
atom    3   Tr[ns(na)] =   7.00000
    eigenvalues:
  0.700  0.700  0.700  0.700  0.700
    eigenvectors:
  1.000  0.000  0.000  0.000  0.000
  0.000  1.000  0.000  0.000  0.000
  0.000  0.000  1.000  0.000  0.000
  0.000  0.000  0.000  1.000  0.000
  0.000  0.000  0.000  0.000  1.000
    occupations:
  0.700  0.000  0.000  0.000  0.000
  0.000  0.700  0.000  0.000  0.000
  0.000  0.000  0.700  0.000  0.000
  0.000  0.000  0.000  0.700  0.000
  0.000  0.000  0.000  0.000  0.700
atom    4   Tr[ns(na)] =   7.00000
    eigenvalues:
  0.700  0.700  0.700  0.700  0.700
    eigenvectors:
  1.000  0.000  0.000  0.000  0.000
  0.000  1.000  0.000  0.000  0.000
  0.000  0.000  1.000  0.000  0.000
  0.000  0.000  0.000  1.000  0.000
  0.000  0.000  0.000  0.000  1.000
    occupations:
  0.700  0.000  0.000  0.000  0.000
  0.000  0.700  0.000  0.000  0.000
  0.000  0.000  0.700  0.000  0.000
  0.000  0.000  0.000  0.700  0.000
  0.000  0.000  0.000  0.000  0.700
atom    9   Tr[ns(na)] =   7.00000
    eigenvalues:
  0.700  0.700  0.700  0.700  0.700
    eigenvectors:
  1.000  0.000  0.000  0.000  0.000
  0.000  1.000  0.000  0.000  0.000
  0.000  0.000  1.000  0.000  0.000
  0.000  0.000  0.000  1.000  0.000
  0.000  0.000  0.000  0.000  1.000
    occupations:
  0.700  0.000  0.000  0.000  0.000
  0.000  0.700  0.000  0.000  0.000
  0.000  0.000  0.700  0.000  0.000
  0.000  0.000  0.000  0.700  0.000
  0.000  0.000  0.000  0.000  0.700
atom   10   Tr[ns(na)] =   7.00000
    eigenvalues:
  0.700  0.700  0.700  0.700  0.700
    eigenvectors:
  1.000  0.000  0.000  0.000  0.000
  0.000  1.000  0.000  0.000  0.000
  0.000  0.000  1.000  0.000  0.000
  0.000  0.000  0.000  1.000  0.000
  0.000  0.000  0.000  0.000  1.000
    occupations:
  0.700  0.000  0.000  0.000  0.000
  0.000  0.700  0.000  0.000  0.000
  0.000  0.000  0.700  0.000  0.000
  0.000  0.000  0.000  0.700  0.000
  0.000  0.000  0.000  0.000  0.700
atom   16   Tr[ns(na)] =   7.00000
    eigenvalues:
  0.700  0.700  0.700  0.700  0.700
    eigenvectors:
  1.000  0.000  0.000  0.000  0.000
  0.000  1.000  0.000  0.000  0.000
  0.000  0.000  1.000  0.000  0.000
  0.000  0.000  0.000  1.000  0.000
  0.000  0.000  0.000  0.000  1.000
    occupations:
  0.700  0.000  0.000  0.000  0.000
  0.000  0.700  0.000  0.000  0.000
  0.000  0.000  0.700  0.000  0.000
  0.000  0.000  0.000  0.700  0.000
  0.000  0.000  0.000  0.000  0.700
atom   17   Tr[ns(na)] =   7.00000
    eigenvalues:
  0.700  0.700  0.700  0.700  0.700
    eigenvectors:
  1.000  0.000  0.000  0.000  0.000
  0.000  1.000  0.000  0.000  0.000
  0.000  0.000  1.000  0.000  0.000
  0.000  0.000  0.000  1.000  0.000
  0.000  0.000  0.000  0.000  1.000
    occupations:
  0.700  0.000  0.000  0.000  0.000
  0.000  0.700  0.000  0.000  0.000
  0.000  0.000  0.700  0.000  0.000
  0.000  0.000  0.000  0.700  0.000
  0.000  0.000  0.000  0.000  0.700
atom   22   Tr[ns(na)] =   7.00000
    eigenvalues:
  0.700  0.700  0.700  0.700  0.700
    eigenvectors:
  1.000  0.000  0.000  0.000  0.000
  0.000  1.000  0.000  0.000  0.000
  0.000  0.000  1.000  0.000  0.000
  0.000  0.000  0.000  1.000  0.000
  0.000  0.000  0.000  0.000  1.000
    occupations:
  0.700  0.000  0.000  0.000  0.000
[...]
    eigenvectors:
  0.006  0.146  0.000  0.000  0.848
  0.966  0.034  0.000  0.000  0.000
  0.000  0.000  0.930  0.070  0.000
  0.029  0.820  0.000  0.000  0.152
  0.000  0.000  0.070  0.930  0.000
    occupations:
  0.928  0.002 -0.000 -0.121 -0.000
  0.002  0.635  0.001  0.001 -0.000
 -0.000  0.001  0.876  0.000 -0.009
 -0.121  0.001  0.000  0.693  0.001
 -0.000 -0.000 -0.009  0.001  0.905
atom   10   Tr[ns(na)] =   8.05490
    eigenvalues:
  0.585  0.591  0.933  0.940  0.979
    eigenvectors:
  0.991  0.000  0.000  0.000  0.009
  0.000  0.000  0.000  1.000  0.000
  0.000  0.000  1.000  0.000  0.000
  0.009  0.000  0.000  0.000  0.991
  0.000  1.000  0.000  0.000  0.000
    occupations:
  0.588  0.000  0.001  0.037 -0.000
  0.000  0.940 -0.000 -0.000 -0.000
  0.001 -0.000  0.933  0.000  0.000
  0.037 -0.000  0.000  0.975 -0.000
 -0.000 -0.000  0.000 -0.000  0.591
atom   16   Tr[ns(na)] =   8.06825
    eigenvalues:
  0.581  0.602  0.909  0.964  0.978
    eigenvectors:
  0.009  0.192  0.002  0.000  0.796
  0.960  0.040  0.000  0.000  0.000
  0.000  0.000  0.984  0.014  0.002
  0.031  0.768  0.000  0.000  0.201
  0.000  0.000  0.014  0.985  0.001
    occupations:
  0.902  0.005  0.002 -0.151  0.001
  0.005  0.582  0.000  0.002 -0.006
  0.002  0.000  0.910 -0.004 -0.006
 -0.151  0.002 -0.004  0.677  0.000
  0.001 -0.006 -0.006  0.000  0.963
atom   17   Tr[ns(na)] =   8.07261
    eigenvalues:
  0.599  0.650  0.880  0.927  0.980
    eigenvectors:
  0.001  0.991  0.000  0.000  0.008
  0.000  0.000  0.077  0.922  0.000
  0.000  0.000  0.923  0.077  0.000
  0.000  0.008  0.000  0.000  0.992
  0.999  0.001  0.000  0.000  0.000
    occupations:
  0.652 -0.004 -0.001  0.029  0.002
 -0.004  0.924  0.013  0.001 -0.001
 -0.001  0.013  0.884 -0.000  0.001
  0.029  0.001 -0.000  0.977  0.000
  0.002 -0.001  0.001  0.000  0.599
atom   22   Tr[ns(na)] =   8.07302
    eigenvalues:
  0.635  0.642  0.873  0.907  0.979
    eigenvectors:
  0.000  0.151  0.000  0.000  0.848
  0.998  0.002  0.000  0.000  0.000
  0.000  0.000  0.935  0.065  0.000
  0.002  0.846  0.000  0.000  0.152
  0.000  0.000  0.065  0.935  0.000
    occupations:
  0.928 -0.001  0.000 -0.121 -0.000
 -0.001  0.635  0.001 -0.000 -0.000
  0.000  0.001  0.875 -0.000  0.008
 -0.121 -0.000 -0.000  0.693  0.001
 -0.000 -0.000  0.008  0.001  0.905
atom   23   Tr[ns(na)] =   8.06138
    eigenvalues:
  0.639  0.703  0.829  0.877  0.982
    eigenvectors:
  0.000  0.993  0.000  0.000  0.007
  0.000  0.000  0.000  1.000  0.000
  0.000  0.000  1.000  0.000  0.000
  0.000  0.007  0.000  0.000  0.993
  1.000  0.000  0.000  0.000  0.000
    occupations:
  0.705  0.000 -0.001  0.023 -0.000
  0.000  0.877 -0.000  0.000  0.000
 -0.001 -0.000  0.829  0.001  0.000
  0.023  0.000  0.001  0.980  0.000
 -0.000  0.000  0.000  0.000  0.639
N of occupied +U levels =  64.5462417
 --- exit write_ns ---

     Threshold (ethr) on eigenvalues was too large:
     Diagonalizing with lowered threshold

     Davidson diagonalization with overlap
     ethr =  9.87E-09,  avg # of iterations =  3.7

[...]

     total energy              =   -1978.30259177 Ry
     Harris-Foulkes estimate   =   -1978.30259177 Ry
     estimated scf accuracy    <       0.00000005 Ry

     iteration # 18     ecut=    40.00 Ry     beta=0.70
     Davidson diagonalization with overlap
     ethr =  1.01E-11,  avg # of iterations =  1.0

     negative rho (up, down):  0.689E+00 0.000E+00

     End of self-consistent calculation
 --- enter write_ns ---
 LDA+U parameters:
U( 2)     =  5.00000000
alpha( 2) =  0.00000000
atom    3   Tr[ns(na)] =   8.06839
    eigenvalues:
  0.581  0.602  0.909  0.964  0.978
    eigenvectors:
  0.010  0.191  0.002  0.000  0.796
  0.956  0.044  0.000  0.000  0.000
  0.000  0.000  0.978  0.020  0.002
  0.034  0.765  0.000  0.000  0.201
  0.000  0.000  0.020  0.979  0.001
    occupations:
  0.902 -0.005  0.002 -0.151 -0.001
 -0.005  0.582 -0.001 -0.002 -0.006
  0.002 -0.001  0.910 -0.004  0.008
 -0.151 -0.002 -0.004  0.677 -0.000
 -0.001 -0.006  0.008 -0.000  0.962
atom    4   Tr[ns(na)] =   8.07395
    eigenvalues:
  0.599  0.650  0.879  0.930  0.979
    eigenvectors:
  0.001  0.991  0.000  0.000  0.008
  0.000  0.000  0.056  0.943  0.000
  0.000  0.000  0.944  0.056  0.000
  0.000  0.008  0.000  0.000  0.992
  0.999  0.001  0.000  0.000  0.000
    occupations:
  0.652 -0.004 -0.001  0.029  0.001
 -0.004  0.927  0.012  0.001 -0.001
 -0.001  0.012  0.882 -0.001  0.001
  0.029  0.001 -0.001  0.977  0.000
  0.001 -0.001  0.001  0.000  0.599
atom    9   Tr[ns(na)] =   8.07383
    eigenvalues:
  0.635  0.642  0.873  0.907  0.979
    eigenvectors:
  0.006  0.146  0.000  0.000  0.848
  0.966  0.034  0.000  0.000  0.000
  0.000  0.000  0.930  0.070  0.000
  0.028  0.820  0.000  0.000  0.152
  0.000  0.000  0.070  0.930  0.000
    occupations:
  0.928  0.002 -0.000 -0.121 -0.000
  0.002  0.635  0.001  0.001 -0.000
 -0.000  0.001  0.876  0.000 -0.009
 -0.121  0.001  0.000  0.693  0.001
 -0.000 -0.000 -0.009  0.001  0.905
atom   10   Tr[ns(na)] =   8.05486
    eigenvalues:
  0.585  0.591  0.933  0.940  0.979
    eigenvectors:
  0.991  0.000  0.000  0.000  0.009
  0.000  0.000  0.000  1.000  0.000
  0.000  0.000  1.000  0.000  0.000
  0.009  0.000  0.000  0.000  0.991
  0.000  1.000  0.000  0.000  0.000
    occupations:
  0.588  0.000  0.001  0.037 -0.000
  0.000  0.940 -0.000 -0.000 -0.000
  0.001 -0.000  0.933  0.000  0.000
  0.037 -0.000  0.000  0.975 -0.000
 -0.000 -0.000  0.000 -0.000  0.591
atom   16   Tr[ns(na)] =   8.06835
    eigenvalues:
  0.581  0.602  0.909  0.963  0.978
    eigenvectors:
  0.010  0.192  0.002  0.000  0.796
  0.959  0.041  0.000  0.000  0.000
  0.000  0.000  0.983  0.014  0.002
  0.031  0.768  0.000  0.000  0.201
  0.000  0.000  0.014  0.985  0.001
    occupations:
  0.902  0.005  0.002 -0.151  0.001
  0.005  0.582  0.000  0.002 -0.006
  0.002  0.000  0.910 -0.004 -0.006
 -0.151  0.002 -0.004  0.677  0.000
  0.001 -0.006 -0.006  0.000  0.963
atom   17   Tr[ns(na)] =   8.07255
    eigenvalues:
  0.599  0.650  0.880  0.927  0.980
    eigenvectors:
  0.001  0.991  0.000  0.000  0.008
  0.000  0.000  0.077  0.923  0.000
  0.000  0.000  0.923  0.077  0.000
  0.000  0.008  0.000  0.000  0.992
  0.999  0.001  0.000  0.000  0.000
    occupations:
  0.652 -0.004 -0.001  0.029  0.002
 -0.004  0.924  0.013  0.001 -0.001
 -0.001  0.013  0.884 -0.000  0.001
  0.029  0.001 -0.000  0.977  0.000
  0.002 -0.001  0.001  0.000  0.599
atom   22   Tr[ns(na)] =   8.07383
    eigenvalues:
  0.635  0.642  0.873  0.907  0.979
    eigenvectors:
  0.000  0.151  0.000  0.000  0.848
  0.998  0.002  0.000  0.000  0.000
  0.000  0.000  0.935  0.065  0.000
  0.002  0.846  0.000  0.000  0.152
  0.000  0.000  0.065  0.935  0.000
    occupations:
  0.928 -0.001  0.000 -0.121 -0.000
 -0.001  0.635  0.001 -0.000 -0.000
  0.000  0.001  0.876 -0.000  0.008
 -0.121 -0.000 -0.000  0.693  0.001
 -0.000 -0.000  0.008  0.001  0.905
atom   23   Tr[ns(na)] =   8.06097
    eigenvalues:
  0.639  0.703  0.829  0.877  0.982
    eigenvectors:
  0.000  0.993  0.000  0.000  0.007
  0.000  0.000  0.000  1.000  0.000
  0.000  0.000  1.000  0.000  0.000
  0.000  0.007  0.000  0.000  0.993
  1.000  0.000  0.000  0.000  0.000
    occupations:
  0.705  0.000 -0.001  0.023 -0.000
  0.000  0.877 -0.000  0.000  0.000
 -0.001 -0.000  0.829  0.001  0.000
  0.023  0.000  0.001  0.980  0.000
 -0.000  0.000  0.000  0.000  0.639
N of occupied +U levels =  64.5467141
 --- exit write_ns ---

[...]

          k = 0.2500-0.4833 0.0000 ( 30510 PWs)   bands (ev):

[...]

          k =-0.2500 0.2417 0.0000 ( 30481 PWs)   bands (ev):

   -50.0514 -49.7210 -49.6438 -48.9359 -48.9183 -48.9155 -48.9121 -48.9007
   -48.8762 -48.8612 -48.8473 -48.8295 -48.7471 -48.7441 -48.7356 -48.6068
   -48.5886 -48.5834 -48.5636 -48.4982 -48.4868 -48.4846 -48.4803 -48.4691
   -21.5231 -21.2341 -21.2057 -21.0752 -20.7811 -20.7012 -20.6265 -20.5966
   -20.4636 -20.3975 -20.3182 -20.2858 -20.2788 -20.1165 -20.0606 -20.0576
   -19.4988 -19.3218 -19.1948 -10.3762 -10.2580 -10.0446  -9.8344  -9.6571
    -9.5478  -9.5220  -9.4321  -9.1933  -9.0590  -8.9826  -8.9206  -8.7947
    -8.6699  -8.5722  -8.4400  -8.3296  -8.3076  -8.1265  -7.8731  -7.7769
    -7.6918  -7.6026  -7.4281  -7.4002  -7.3199  -7.2066  -7.0873  -7.0622
    -6.8913  -6.8375  -6.7216  -6.6546  -6.6063  -6.5363  -6.4576  -6.3634
    -6.2807  -6.2358  -6.1567  -6.0256  -5.9754  -5.6863  -5.4709  -5.4089
    -5.3203  -5.1497  -5.0741  -4.9556  -4.9354  -4.7622  -4.7061  -4.6020
    -4.4729  -4.3500  -4.3269  -4.1548  -4.0629  -3.9090  -3.8719  -3.8066
    -3.7803  -3.7155  -3.6362  -3.5539  -3.5267  -3.4600  -3.3768  -3.3239
    -3.1883  -2.8539  -2.7210  -2.6415  -2.5652  -2.3900  -2.2527  -2.1575
    -2.1275  -1.9891  -1.9202  -1.8084  -0.9780  -0.6821  -0.4132  -0.0234
     0.2020   0.4644   0.6591   0.9164   1.1277   1.2834   1.3447   1.4854
     1.5571   1.7221   1.7660   2.1384   3.4984   4.4527   4.5779   5.0491
     5.3120   5.3250   5.4827   6.0669   6.3746   6.4023   6.4428   6.5350
     6.6543   6.7778   6.9214   7.1359   7.2995   7.4823   7.6129   7.7117
     7.8741   8.0059   8.0871   8.1702   8.2542   8.3359   8.4459   8.5274
     8.7626   8.8572   8.8864   9.0040   9.2211   9.3989   9.4954   9.5663
     9.6423   9.7634   9.8076   9.8710   9.9397  10.1065  10.1622  10.2521
    10.3351  10.4232  10.4533  10.6149  10.7408  10.8002  10.8457  10.9620
    10.9927  11.1178  11.1759  11.2432  11.3541  11.4708  11.5076  11.5605
    11.5920  11.7352  11.7593  11.8028  11.8746  12.0309  12.1457  12.1980
    12.2485  12.2960  12.3468  12.4527  12.5078  12.6284  12.6814  12.7454
    12.7999  12.8565  12.9665  13.0563  13.1025  13.1579  13.1970  13.2833
    13.3446  13.4294  13.5267  13.5695  13.7454  13.8078  13.8629  13.8989
    13.9365  14.1380  14.1885  14.2119  14.2844  14.3716  14.4073  14.4990
    14.6069  14.6407  14.7371  14.8113  15.0180  15.1448  15.2955  15.3185
    15.3706  15.4359  15.5027  15.5289  15.5844  15.6565  15.7204  15.7766
    15.8730  15.9361  16.0242  16.0539  16.1291  16.2020  16.2759  16.3404
    16.3930  16.4243  16.4685  16.5024  16.5800  16.6266  16.6646  16.7390
    16.8081  16.8930  16.9973  17.0524  17.1271  17.2092  17.2510  17.3335
    17.3913  17.4916  17.5384  17.5929  17.6351  17.7405  17.8072  17.8477
    17.9326  18.0169  18.0774  18.1528  18.1623  18.2923  18.3127  18.3957
    18.4564  18.5678  18.6540  18.7132  18.8123  18.8513  18.8987  18.9604
    19.0165  19.0632  19.1219  19.2102  19.2664  19.2965  19.3472  19.4858
    19.5458  19.6163  19.6826  19.7424  19.7918  19.9009  20.0283  20.0679
    20.2005  20.2625  20.2815  20.3423  20.5173  20.5664  20.6198  20.6796
    20.7144  20.7882  20.8658  20.9182  20.9432  21.0381  21.0952  21.2004
    21.2927  21.3393  21.3621  21.4019  21.4430  21.5319  21.6732  21.7462
    21.7722  21.8397  21.8821  21.9161  21.9466  22.0520  22.1022  22.1815
    22.2162  22.3144  22.4057  22.4625  22.5450

     the Fermi energy is    -2.2732 ev

!    total energy              =   -1978.30259177 Ry
     Harris-Foulkes estimate   =   -1978.30259177 Ry
     estimated scf accuracy    <          8.1E-09 Ry

     The total energy is the sum of the following terms:

     one-electron contribution =  -23301.30620291 Ry
     hartree contribution      =   11698.32227461 Ry
     xc contribution           =    -372.14049072 Ry
     ewald contribution        =    9994.89355517 Ry
     Hubbard energy            =       1.92863146 Ry
     smearing contrib. (-TS)   =      -0.00035937 Ry

     convergence has been achieved in  18 iterations

     Forces acting on atoms (Ry/au):

     negative rho (up, down):  0.689E+00 0.000E+00
     atom    1 type  1   force =    -0.00727715   -0.01221985   -0.00005907
     atom    2 type  1   force =     0.00006427    0.00350540    0.00076768
     atom    3 type  2   force =     0.03653036    0.00812100   -0.00084870
     atom    4 type  2   force =     0.00860277    0.00906330    0.00008807
     atom    5 type  1   force =    -0.00315665   -0.02889752    0.00022360
     atom    6 type  1   force =     0.00369178    0.02559039    0.00029209
     atom    7 type  1   force =    -0.00031668   -0.00207081    0.00014495
     atom    8 type  1   force =    -0.00312804   -0.00108256   -0.00021104
     atom    9 type  2   force =     0.00258722    0.00040182   -0.00032384
     atom   10 type  2   force =    -0.00003724   -0.00116190   -0.00072791
     atom   11 type  1   force =     0.00085692    0.01188042   -0.00052429
     atom   12 type  1   force =     0.00030388   -0.01261776   -0.00060812
     atom   13 type  1   force =    -0.00073378    0.00009502    0.00038091
     atom   14 type  1   force =    -0.00658927   -0.01220085    0.00022242
     atom   15 type  1   force =     0.00011886    0.00305801    0.00004042
     atom   16 type  2   force =    -0.03679456    0.00671586   -0.00083472
     atom   17 type  2   force =     0.00835370    0.00924373   -0.00035482
     atom   18 type  1   force =    -0.00239536   -0.02852050    0.00022266
     atom   19 type  1   force =     0.00425297    0.02611947    0.00029257
     atom   20 type  1   force =    -0.00018862   -0.00488353    0.00042742
     atom   21 type  1   force =    -0.00299744   -0.00068801   -0.00011102
     atom   22 type  2   force =     0.00000819    0.00060495   -0.00030077
     atom   23 type  2   force =    -0.00011433    0.00118813    0.00049260
     atom   24 type  1   force =    -0.00127421    0.01195323   -0.00051943
     atom   25 type  1   force =     0.00055044   -0.01266768   -0.00061407
     atom   26 type  1   force =    -0.00068524   -0.00001613   -0.00002949
     atom   27 type  3   force =    -0.00001492   -0.00049560    0.00085136
     atom   28 type  3   force =    -0.00000870   -0.00016935    0.00070600
     atom   29 type  3   force =     0.00001245    0.00014313    0.00016081
     atom   30 type  3   force =    -0.00020712    0.00021800    0.00011030
     atom   31 type  1   force =    -0.00001447   -0.00020982    0.00064343

     Total force =     0.002690     Total SCF correction =     0.000217

     bfgs converged in   8 scf cycles and   7 bfgs steps
     (criteria: energy < 0.10E-03, force < 0.10E-02)

     End of BFGS Geometry Optimization

     Final energy   =   -1978.3025917655 Ry
Begin final coordinates

ATOMIC_POSITIONS (crystal)
O0       0.000000000   0.000000000   0.378223478    0   0   1
O0       0.000000000   0.500000000   0.402458502    0   0   1
Rh1      0.250000000   0.500000000   0.453380146    0   0   1
Rh1      0.000000000   0.000000000   0.452421374    0   0   1
O0       0.250000000   0.810000000   0.452463395    0   0   1
O0       0.250000000   0.190000000   0.452210947    0   0   1
O0       0.000000000   0.500000000   0.499600183    0   0   1
O0       0.000000000   0.000000000   0.527582926    0   0   1
Rh1      0.250000000   0.000000000   0.574665799    0   0   1
Rh1      0.000000000   0.500000000   0.570964082    0   0   1
O0       0.250000000   0.690000000   0.574733748    0   0   1
O0       0.250000000   0.310000000   0.574673992    0   0   1
O0       0.000000000   0.000000000   0.619874188    0   0   1
O0       0.500000000   0.000000000   0.378118963    0   0   1
O0       0.500000000   0.500000000   0.402321906    0   0   1
Rh1      0.750000000   0.500000000   0.453382409    0   0   1
Rh1      0.500000000   0.000000000   0.452310991    0   0   1
O0       0.750000000   0.810000000   0.452436168    0   0   1
O0       0.750000000   0.190000000   0.452225616    0   0   1
O0       0.500000000   0.500000000   0.501609986    0   0   1
O0       0.500000000   0.000000000   0.527478484    0   0   1
Rh1      0.750000000   0.000000000   0.574662405    0   0   1
Rh1      0.500000000   0.500000000   0.579048426    0   0   1
O0       0.750000000   0.690000000   0.574698473    0   0   1
O0       0.750000000   0.310000000   0.574695972    0   0   1
O0       0.500000000   0.000000000   0.619993687    0   0   1
H2      -0.000177367   0.636428637   0.384961189
H2       0.499804432   0.637639400   0.385371440
H2       0.147922115   0.034567787   0.367358546
H2       0.647996237   0.034728718   0.367297634
O0       0.500064984   0.498465554   0.645594945
End final coordinates

     General routines

     Parallel routines
     Hubbard U routines

   This run was terminated on:  14:39:59  30Apr2014

   JOB DONE.
Running PBS batch system epilogue script
Job id: 340545.audhumbla.fysik.dtu.dk
Username: zhonxu
Groupname: campgst
Jobname: RhO2/Eads-2-layers/O-U-5.0
Sessionid: 12710
Queuename: verylong
Accounting:
This job has allocated the following 16 nodes:
c140 c140 c140 c140 c140 c140 c140 c140 c112 c112 c112 c112 c112 c112 c112 c112
Finished epilogue job 340545.audhumbla.fysik.dtu.dk for zhonxu