     Program PWSCF v.5.0.2 (svn rev. 9656) starts on  1Jun2014 at 22:35:52

     Current dimensions of program PWSCF are:
     Max number of different atomic species (ntypx) = 10
     Max number of k-points (npk) =  40000
     Max angular momentum in pseudopotentials (lmaxx) =  3
     Reading input from pwscf.in
Warning: card &CELL ignored
Warning: card / ignored

     Subspace diagonalization in iterative solution of the eigenvalue problem:
     a serial algorithm will be used

     bravais-lattice index     =            0
     lattice parameter (alat)  =      10.9604  a.u.
     unit-cell volume          =    6350.6732 (a.u.)^3
     number of atoms/cell      =           33
     number of atomic types    =            3
     number of electrons       =       237.00 (up: 126.00, down: 111.00)
     number of Kohn-Sham states=          343
     kinetic-energy cutoff     =      40.0000  Ry
     charge density cutoff     =     500.0000  Ry
     convergence threshold     =      1.0E-06
     mixing beta               =       0.7000
     number of iterations used =            8  plain     mixing
     Exchange-correlation      = SLA  PW   PBE  PBE ( 1 4 3 4 0)
     EXX-fraction              =        0.00
     nstep                     =           50

     celldm(1)=  10.960412  celldm(2)=   0.000000  celldm(3)=   0.000000
     celldm(4)=   0.000000  celldm(5)=   0.000000  celldm(6)=   0.000000

     crystal axes: (cart. coord. in units of alat)
               a(1) = (   1.000000   0.000000   0.000000 )
               a(2) = (   0.000000   1.067975   0.000000 )
               a(3) = (   0.000000   0.000000   4.516251 )

     reciprocal axes: (cart. coord. in units 2 pi/alat)
               b(1) = (  1.000000  0.000000  0.000000 )
               b(2) = (  0.000000  0.936351  0.000000 )
               b(3) = (  0.000000  0.000000  0.221423 )

     PseudoPot. # 1 for O  read from file:
     /home/camp/zhonxu/pseudo/o_pbe_v1.01.uspp.F.UPF
     MD5 check sum: 2bcb18d16ea4b960afae9ec6d52f22d2
     Pseudo is Ultrasoft + core correction, Zval =  6.0
     Generated by new atomic code, or converted to UPF format
     Using radial grid of  737 points,  5 beta functions with:
                l(1) =   0
                l(2) =   0
                l(3) =   1
                l(4) =   1
                l(5) =   2
     Q(r) pseudized with  8 coefficients,  rinner =    0.900   0.900   0.900
                                                       0.900   0.900

     PseudoPot. # 2 for Cr read from file:
     /home/camp/zhonxu/pseudo/cr_pbe_v1.uspp.F.UPF
     MD5 check sum: 68b6f918d1762dccfb11451fe85b0e0e
     Pseudo is Ultrasoft + core correction, Zval = 14.0
     Generated by new atomic code, or converted to UPF format
     Using radial grid of  857 points,  6 beta functions with:
                l(1) =   0
                l(2) =   0
                l(3) =   1
                l(4) =   1
                l(5) =   2
                l(6) =   2
     Q(r) pseudized with  6 coefficients,  rinner =    1.000   1.000   1.000
                                                       1.000   1.000

     PseudoPot. # 3 for H  read from file:
     /home/camp/zhonxu/pseudo/h_pbe_v1.uspp.F.UPF
     MD5 check sum: 3408e3ff4ec8b0a4e358431e7e038a48
     Pseudo is Ultrasoft, Zval =  1.0
     Generated by new atomic code, or converted to UPF format
     Using radial grid of  615 points,  2 beta functions with:
                l(1) =   0
                l(2) =   0
     Q(r) pseudized with  8 coefficients,  rinner =    0.700

     atomic species   valence    mass     pseudopotential
        O0             6.00    15.99940     O ( 1.00)
        Cr1           14.00    51.99600     Cr( 1.00)
        H2             1.00     1.00794     H ( 1.00)

     Starting magnetic structure
     atomic species   magnetization
        O0           0.000
        Cr1          0.600
        H2           0.000

     Simplified LDA+U calculation (l_max = 2) with parameters (eV):
     atomic species    L          U    alpha       J0     beta
        Cr1            2     0.0000   0.0000   0.0000   0.0000

     No symmetry found

   Cartesian axes

     site n.     atom                  positions (alat units)
         1           O0  tau(   1) = (   0.0000000   0.0000000   1.7057880  )
         2           O0  tau(   2) = (   0.0000000   0.5339875   1.8101134  )
         3           Cr1 tau(   3) = (   0.2500000   0.5339875   2.0412099  )
         4           Cr1 tau(   4) = (   0.0000000   0.0000000   2.0263515  )
         5           O0  tau(   5) = (   0.2500000   0.8543801   2.0311839  )
         6           O0  tau(   6) = (   0.2500000   0.2135950   2.0319065  )
         7           O0  tau(   7) = (   0.0000000   0.5339875   2.2504478  )
         8           O0  tau(   8) = (   0.0000000   0.0000000   2.3617283  )
         9           Cr1 tau(   9) = (   0.2500000   0.0000000   2.5571464  )
        10           Cr1 tau(  10) = (   0.0000000   0.5339875   2.5545270  )
        11           O0  tau(  11) = (   0.2500000   0.7475825   2.5883086  )
        12           O0  tau(  12) = (   0.2500000   0.3203925   2.5986508  )
        13           O0  tau(  13) = (   0.0000000   0.0000000   2.7891463  )
        14           O0  tau(  14) = (   0.5000000   0.0000000   1.7052460  )
        15           O0  tau(  15) = (   0.5000000   0.5339875   1.8091650  )
        16           Cr1 tau(  16) = (   0.7500000   0.5339875   2.0419325  )
        17           Cr1 tau(  17) = (   0.5000000   0.0000000   2.0263063  )
        18           O0  tau(  18) = (   0.7500000   0.8543801   2.0310484  )
        19           O0  tau(  19) = (   0.7500000   0.2135950   2.0321774  )
        20           O0  tau(  20) = (   0.5000000   0.5339875   2.2541963  )
        21           O0  tau(  21) = (   0.5000000   0.0000000   2.3617283  )
        22           Cr1 tau(  22) = (   0.7500000   0.0000000   2.6331549  )
        23           Cr1 tau(  23) = (   0.5000000   0.5339875   2.6097156  )
        24           O0  tau(  24) = (   0.7500000   0.7475825   2.5944507  )
        25           O0  tau(  25) = (   0.7500000   0.3203925   2.6044767  )
        26           O0  tau(  26) = (   0.5000000   0.0000000   2.7840880  )
        27           H2  tau(  27) = (  -0.0006600   0.6808768   1.7228142  )
        28           H2  tau(  28) = (   0.4998000   0.6828846   1.7250724  )
        29           H2  tau(  29) = (   0.1568300   0.0328936   1.6463090  )
        30           H2  tau(  30) = (   0.6565800   0.0331499   1.6456315  )
        31           O0  tau(  31) = (   0.4998600   0.5715162   2.9254467  )
        32           O0  tau(  32) = (   0.5002200   0.3713883   3.0709603  )
        33           H2  tau(  33) = (   0.4998900   0.4494573   3.2222096  )

     number of k points=    20  Methfessel-Paxton smearing, width (Ry)=  0.0100
                       cart. coord. in units 2pi/alat
        k(    1) = (   0.0000000   0.0000000   0.0000000), wk =   0.0625000
        k(    2) = (   0.0000000   0.2340879   0.0000000), wk =   0.1250000
        k(    3) = (   0.0000000  -0.4681757   0.0000000), wk =   0.0625000
        k(    4) = (   0.2500000   0.0000000   0.0000000), wk =   0.1250000
        k(    5) = (   0.2500000   0.2340879   0.0000000), wk =   0.1250000
        k(    6) = (   0.2500000  -0.4681757   0.0000000), wk =   0.1250000
        k(    7) = (  -0.5000000   0.0000000   0.0000000), wk =   0.0625000
        k(    8) = (  -0.5000000   0.2340879   0.0000000), wk =   0.1250000
        k(    9) = (  -0.5000000  -0.4681757   0.0000000), wk =   0.0625000
        k(   10) = (  -0.2500000   0.2340879   0.0000000), wk =   0.1250000
        k(   11) = (   0.0000000   0.0000000   0.0000000), wk =   0.0625000
        k(   12) = (   0.0000000   0.2340879   0.0000000), wk =   0.1250000
        k(   13) = (   0.0000000  -0.4681757   0.0000000), wk =   0.0625000
        k(   14) = (   0.2500000   0.0000000   0.0000000), wk =   0.1250000
        k(   15) = (   0.2500000   0.2340879   0.0000000), wk =   0.1250000
        k(   16) = (   0.2500000  -0.4681757   0.0000000), wk =   0.1250000
        k(   17) = (  -0.5000000   0.0000000   0.0000000), wk =   0.0625000
        k(   18) = (  -0.5000000   0.2340879   0.0000000), wk =   0.1250000
        k(   19) = (  -0.5000000  -0.4681757   0.0000000), wk =   0.0625000
        k(   20) = (  -0.2500000   0.2340879   0.0000000), wk =   0.1250000

     Largest allocated arrays     est. size (Mb)     dimensions
     Largest temporary arrays     est. size (Mb)     dimensions

     Check: negative/imaginary core charge=   -0.000012    0.000000

     Initial potential from superposition of free atoms
     Check: negative starting charge=(component1):   -0.001299
     Check: negative starting charge=(component2):   -0.000449

     starting charge  228.99983, renormalised to  237.00000

     negative rho (up, down):  0.134E-02 0.465E-03
     Number of +U iterations with fixed ns =  0
     Starting occupations:
 --- enter write_ns ---
 LDA+U parameters:
U( 2)     =  0.00000000
alpha( 2) =  0.00000000
atom    3   Tr[ns(na)] (up, down, total) =   5.00000  0.00000  5.00000
   spin  1
    eigenvalues:
  1.000  1.000  1.000  1.000  1.000
    eigenvectors:
  1.000  0.000  0.000  0.000  0.000
  0.000  1.000  0.000  0.000  0.000
  0.000  0.000  1.000  0.000  0.000
  0.000  0.000  0.000  1.000  0.000
  0.000  0.000  0.000  0.000  1.000
    occupations:
  1.000  0.000  0.000  0.000  0.000
  0.000  1.000  0.000  0.000  0.000
  0.000  0.000  1.000  0.000  0.000
  0.000  0.000  0.000  1.000  0.000
  0.000  0.000  0.000  0.000  1.000
   spin  2
    eigenvalues:
  0.000  0.000  0.000  0.000  0.000
    eigenvectors:
  1.000  0.000  0.000  0.000  0.000
  0.000  1.000  0.000  0.000  0.000
  0.000  0.000  1.000  0.000  0.000
  0.000  0.000  0.000  1.000  0.000
  0.000  0.000  0.000  0.000  1.000
    occupations:
  0.000  0.000  0.000  0.000  0.000
  0.000  0.000  0.000  0.000  0.000
  0.000  0.000  0.000  0.000  0.000
  0.000  0.000  0.000  0.000  0.000
  0.000  0.000  0.000  0.000  0.000
atomic mag. moment =     5.000000
atom    4   Tr[ns(na)] (up, down, total) =   5.00000  0.00000  5.00000
   spin  1
    eigenvalues:
  1.000  1.000  1.000  1.000  1.000
    eigenvectors:
  1.000  0.000  0.000  0.000  0.000
  0.000  1.000  0.000  0.000  0.000
  0.000  0.000  1.000  0.000  0.000
  0.000  0.000  0.000  1.000  0.000
  0.000  0.000  0.000  0.000  1.000
    occupations:
  1.000  0.000  0.000  0.000  0.000
  0.000  1.000  0.000  0.000  0.000
  0.000  0.000  1.000  0.000  0.000
  0.000  0.000  0.000  1.000  0.000
  0.000  0.000  0.000  0.000  1.000
   spin  2
    eigenvalues:
  0.000  0.000  0.000  0.000  0.000
    eigenvectors:
  1.000  0.000  0.000  0.000  0.000
  0.000  1.000  0.000  0.000  0.000
  0.000  0.000  1.000  0.000  0.000
  0.000  0.000  0.000  1.000  0.000
  0.000  0.000  0.000  0.000  1.000
    occupations:
  0.000  0.000  0.000  0.000  0.000
  0.000  0.000  0.000  0.000  0.000
  0.000  0.000  0.000  0.000  0.000
  0.000  0.000  0.000  0.000  0.000
  0.000  0.000  0.000  0.000  0.000
atomic mag. moment =     5.000000
[...]
  0.001  0.376 -0.001  0.007  0.011
 -0.004 -0.001  0.202  0.007  0.008
  0.107  0.007  0.007  0.336  0.000
 -0.001  0.011  0.008  0.000  0.168
atomic mag. moment =     2.161260
atom   17   Tr[ns(na)] (up, down, total) =   3.36744  1.34228  4.70972
   spin  1
    eigenvalues:
  0.478  0.519  0.611  0.793  0.966
    eigenvectors:
  0.001  0.995  0.001  0.001  0.003
  0.000  0.001  0.015  0.984  0.000
  0.001  0.001  0.984  0.014  0.000
  0.000  0.003  0.000  0.000  0.997
  0.999  0.001  0.001  0.000  0.000
    occupations:
  0.521 -0.010 -0.003  0.023  0.001
 -0.010  0.790  0.022  0.001 -0.000
 -0.003  0.022  0.614  0.001  0.003
  0.023  0.001  0.001  0.965 -0.000
  0.001 -0.000  0.003 -0.000  0.478
   spin  2
    eigenvalues:
  0.134  0.179  0.233  0.386  0.411
    eigenvectors:
  0.002  0.006  0.000  0.000  0.991
  0.001  0.954  0.039  0.000  0.006
  0.000  0.039  0.961  0.000  0.000
  0.996  0.002  0.000  0.000  0.002
  0.000  0.000  0.000  1.000  0.000
    occupations:
  0.409  0.018  0.004 -0.013  0.001
  0.018  0.182 -0.010  0.001 -0.000
  0.004 -0.010  0.231  0.001 -0.000
 -0.013  0.001  0.001  0.134  0.000
  0.001 -0.000 -0.000  0.000  0.386
atomic mag. moment =     2.025154
atom   22   Tr[ns(na)] (up, down, total) =   2.88521  1.98406  4.86928
   spin  1
    eigenvalues:
  0.505  0.527  0.543  0.612  0.698
    eigenvectors:
  0.952  0.001  0.047  0.000  0.000
  0.001  0.999  0.000  0.000  0.000
  0.000  0.000  0.000  0.020  0.980
  0.047  0.000  0.953  0.000  0.000
  0.000  0.000  0.000  0.980  0.020
    occupations:
  0.506 -0.001  0.001  0.008  0.000
 -0.001  0.527  0.001  0.000 -0.000
  0.001  0.001  0.696 -0.002  0.012
  0.008  0.000 -0.002  0.541 -0.000
  0.000 -0.000  0.012 -0.000  0.614
   spin  2
    eigenvalues:
  0.301  0.359  0.369  0.475  0.480
    eigenvectors:
  0.000  0.004  0.995  0.000  0.000
  0.000  0.000  0.000  0.001  0.999
  0.997  0.003  0.000  0.000  0.000
  0.000  0.000  0.000  0.999  0.001
  0.003  0.992  0.004  0.000  0.000
    occupations:
  0.369 -0.002 -0.000  0.001 -0.001
 -0.002  0.480  0.000 -0.000  0.001
 -0.000  0.000  0.301  0.002 -0.003
  0.001 -0.000  0.002  0.475  0.001
 -0.001  0.001 -0.003  0.001  0.359
atomic mag. moment =     0.901150
atom   23   Tr[ns(na)] (up, down, total) =   3.41255  1.29277  4.70532
   spin  1
    eigenvalues:
  0.470  0.496  0.643  0.858  0.946
    eigenvectors:
  0.000  0.995  0.005  0.000  0.000
  0.001  0.005  0.991  0.000  0.003
  0.000  0.000  0.000  0.999  0.000
  0.000  0.000  0.003  0.000  0.996
  0.999  0.000  0.001  0.000  0.000
    occupations:
  0.496  0.010  0.006 -0.004 -0.001
  0.010  0.643  0.001  0.018 -0.005
  0.006  0.001  0.858 -0.001 -0.006
 -0.004  0.018 -0.001  0.944 -0.001
 -0.001 -0.005 -0.006 -0.001  0.470
   spin  2
    eigenvalues:
  0.130  0.152  0.246  0.379  0.386
    eigenvectors:
  0.002  0.000  0.000  0.994  0.004
  0.001  0.000  0.999  0.000  0.000
  0.007  0.993  0.000  0.000  0.000
  0.990  0.007  0.001  0.002  0.000
  0.000  0.000  0.000  0.004  0.996
    occupations:
  0.378  0.000  0.001 -0.011 -0.000
  0.000  0.246 -0.001 -0.004  0.001
  0.001 -0.001  0.152  0.002 -0.003
 -0.011 -0.004  0.002  0.131  0.000
 -0.000  0.001 -0.003  0.000  0.385
atomic mag. moment =     2.119778
N of occupied +U levels =  37.8661610
 --- exit write_ns ---

 ------ SPIN UP ------------

          k = 0.0000 0.0000 0.0000 ( 27003 PWs)   bands (ev):

   -74.8791 -74.6041 -74.4913 -74.4634 -74.4377 -74.4327 -74.4282 -74.4160
   -46.2808 -46.1614 -46.1548 -46.0945 -45.9251 -45.8694 -45.8476 -45.8353
   -45.8256 -45.8194 -45.8187 -45.8179 -45.7642 -45.7452 -45.7374 -45.7347
   -45.7258 -45.7253 -45.7109 -45.7018 -45.6980 -45.6675 -45.6507 -45.6407
   -23.8955 -20.8942 -20.4087 -20.1372 -20.0014 -19.9164 -19.4358 -19.3885
   -19.3054 -19.2696 -19.1383 -19.1218 -19.0075 -18.9601 -18.8294 -18.8114
   -18.7562 -18.6133 -18.5261 -17.3047  -9.0377  -8.7257  -8.4834  -8.3692
    -8.2152  -8.0935  -7.6165  -7.5063  -7.3914  -7.3367  -7.2769  -7.2149
    -7.1865  -7.1545  -7.0927  -6.6652  -6.5506  -6.5231  -6.4608  -6.4412
    -6.4030  -6.3506  -6.2497  -6.0736  -5.9890  -5.8233  -5.6478  -5.5879
    -5.3888  -5.2878  -5.1725  -4.9549  -4.8697  -4.8004  -4.6843  -4.5907
    -4.4544  -4.4050  -4.3407  -4.2780  -4.2427  -4.1469  -3.9556  -3.8499
    -3.8008  -3.6817  -3.5949  -3.5194  -3.4731  -3.4085  -3.3566  -3.2399
    -3.1364  -3.1129  -3.0120  -2.8463  -2.7365  -2.4934  -2.4126  -2.1340
    -2.1099  -2.0671  -2.0048  -1.9223  -1.7145  -1.6810  -1.5671  -1.5484
    -1.5071  -1.4401  -1.2746  -1.2005  -1.0301  -1.0024  -0.9057  -0.7256
    -0.6109  -0.5481  -0.4645  -0.4079  -0.1725  -0.0513   0.1114   0.2227
     0.9166   1.1315   1.3963   1.7810   1.8077   1.9702   2.0019   2.1161
     2.2386   2.2888   2.5615   2.6053   2.7698   2.7946   2.8739   3.1714
     3.5493   3.7071   3.8680   4.3522   4.9446   5.5665   6.0238   6.5027
     6.7842   7.0517   7.2340   7.3058   7.4596   7.4851   7.5027   7.6171
     7.6428   7.7589   7.8743   8.0785   8.1609   8.2121   8.2923   8.5311
     8.6796   8.7487   8.8878   8.9755   9.0430   9.2610   9.3891   9.4752
     9.6272   9.7819   9.8914   9.9271  10.0449  10.1155  10.1920  10.4544
    10.5078  10.6080  10.6362  10.8356  10.8477  10.9553  11.0076  11.0821
    11.1694  11.4265  11.4428  11.5284  11.6306  11.6911  11.7668  11.7895
    11.8559  11.9457  11.9862  12.0703  12.1247  12.1925  12.2158  12.2959
    12.3280  12.4308  12.4769  12.6375  12.6995  12.7925  12.8213  12.9231
    12.9810  13.0134  13.1469  13.2292  13.2728  13.3485  13.4696  13.5334
    13.5601  13.5695  13.6459  13.6881  13.7083  13.8736  13.9026  14.0737
    14.1871  14.3191  14.3319  14.4318  14.4522  14.4799  14.7814  14.8157
    14.9332  14.9920  15.0773  15.1219  15.1487  15.2355  15.2715  15.3344
    15.3695  15.5046  15.5866  15.7295  15.7530  15.8456  15.9500  16.1286
    16.2059  16.4810  16.5370  16.6715  16.6946  16.7593  16.8384  16.9220
    16.9938  17.0935  17.2642  17.3642  17.3912  17.4990  17.5973  17.6506
    17.6989  17.7500  17.8845  18.0227  18.1794  18.2695  18.3185  18.4265
    18.4516  18.5714  18.6201  18.7037  18.7869  18.9553  19.0370  19.0619
    19.1577  19.1868  19.2543  19.2814  19.4597  19.4652  19.5545  19.6349
    19.6777  19.7167  19.7461  19.7603  19.9505  19.9904  20.0555  20.1101
    20.1476  20.3511  20.3916  20.4961  20.5386  20.5805  20.6701  20.8053
    20.8495  20.9167  20.9522  21.0456  21.1466  21.2093  21.2271  21.3510
    21.3632  21.3804  21.4695  21.5545  21.5834  21.6295  21.6930  21.7400
    21.8322  21.9106  21.9208  22.0216  22.1523  22.1791  22.2411

[...]

          k =-0.5000 0.0000 0.0000 ( 27158 PWs)   bands (ev):

[...]

 ------ SPIN DOWN ----------

[...]

          k = 0.2500-0.4682 0.0000 ( 27150 PWs)   bands (ev):

[...]

          k =-0.2500 0.2341 0.0000 ( 27132 PWs)   bands (ev):

   -73.8340 -72.2266 -72.1843 -72.1598 -72.1516 -72.0730 -72.0622 -72.0240
   -45.4868 -45.1272 -44.9203 -43.9276 -43.7918 -43.7597 -43.7538 -43.7242
   -43.6787 -43.6399 -43.6212 -43.5279 -43.4836 -43.4497 -43.4037 -43.4021
   -43.3879 -43.3603 -43.3590 -43.2636 -43.2306 -43.2279 -43.2012 -43.1264
   -23.9638 -20.7113 -20.2223 -20.1682 -20.0469 -19.8947 -19.5582 -19.4756
   -19.4174 -19.3502 -19.2303 -19.1695 -19.0241 -19.0094 -18.9791 -18.8864
   -18.8249 -18.7588 -18.6416 -17.4195  -9.0049  -8.3271  -8.0460  -7.6889
    -7.6504  -7.5688  -7.4989  -7.1667  -7.1042  -7.0770  -6.9833  -6.9054
    -6.8693  -6.7151  -6.6140  -6.5137  -6.3845  -6.3551  -6.2484  -6.2043
    -6.0297  -5.9377  -5.8584  -5.8096  -5.7424  -5.5010  -5.3484  -5.2788
    -5.1950  -5.0702  -4.9149  -4.8517  -4.8083  -4.7507  -4.7248  -4.6494
    -4.5258  -4.4950  -4.3487  -4.3212  -4.1672  -4.0393  -3.9060  -3.8323
    -3.7241  -3.6021  -3.5784  -3.4875  -3.4273  -3.3732  -3.3111  -3.1710
    -3.0447  -2.9921  -2.8624  -2.7088  -2.5836  -2.3305  -1.9398  -0.3394
    -0.0582  -0.0400   0.2028   0.2309   0.3262   0.4085   0.4861   0.5224
     0.6117   0.6969   0.7020   0.8138   0.8975   0.9855   1.0349   1.0735
     1.1194   1.1615   1.2516   1.2905   1.3436   1.5234   1.5787   1.8489
     1.9166   2.2648   2.3449   2.5180   2.8341   3.0003   3.0492   3.1236
     3.2310   3.3177   3.4143   3.5005   3.5519   3.7753   3.9400   4.0013
     4.1456   4.2129   4.3747   4.8873   5.3893   5.5275   5.8405   6.0420
     6.2150   6.2848   6.3597   6.5413   6.8146   6.9362   7.1484   7.4965
     7.5701   7.7040   7.9271   8.0747   8.3320   8.3805   8.4863   8.6209
     8.7833   8.9231   9.1652   9.2440   9.4349   9.5152   9.5951   9.7700
     9.9175   9.9628  10.0526  10.1177  10.1760  10.3846  10.4744  10.4991
    10.6258  10.6937  10.8307  10.9343  11.0531  11.1641  11.2747  11.3269
    11.3906  11.5349  11.6582  11.7560  11.8351  11.9129  12.0530  12.0974
    12.1864  12.3322  12.3562  12.4064  12.4809  12.5598  12.7011  12.7332
    12.8621  12.8694  13.0143  13.0740  13.1893  13.2785  13.3494  13.4183
    13.4914  13.5388  13.6003  13.6894  13.7798  13.8443  13.9411  14.0084
    14.1202  14.1599  14.2466  14.2990  14.3413  14.4564  14.4776  14.5733
    14.7510  14.8196  14.8820  14.9753  15.0842  15.1364  15.2234  15.2743
    15.3853  15.4632  15.5707  15.6530  15.6946  15.7678  15.8572  15.9246
    15.9579  15.9914  16.0555  16.1389  16.2072  16.2368  16.3331  16.3855
    16.4574  16.5101  16.6037  16.7129  16.7867  16.8304  16.9067  16.9928
    17.0477  17.1174  17.1905  17.2430  17.3283  17.3661  17.4592  17.4754
    17.5448  17.5954  17.7286  17.7696  17.8059  17.8890  17.9448  18.0099
    18.0694  18.1698  18.2274  18.2929  18.3936  18.4677  18.5157  18.5753
    18.5966  18.6916  18.7701  18.8548  18.9149  18.9950  19.0155  19.0757
    19.1585  19.2909  19.3817  19.4235  19.4468  19.5178  19.5697  19.6643
    19.7056  19.7983  19.8501  19.9377  19.9924  20.1506  20.2067  20.2937
    20.3206  20.4028  20.5172  20.5776  20.6906  20.8208  20.8702  20.9456
    21.0290  21.1097  21.1609  21.2321  21.2838  21.3530  21.4103  21.5015
    21.5954  21.6826  21.8109  21.8508  21.9329  21.9725  22.0327

     the spin up/dw Fermi energies are    -0.8922   -1.8189 ev

!    total energy              =   -2059.11491421 Ry
     Harris-Foulkes estimate   =   -2059.11491486 Ry
     estimated scf accuracy    <       0.00000076 Ry

     The total energy is the sum of the following terms:

     one-electron contribution =  -24604.70483792 Ry
     hartree contribution      =   12327.91896416 Ry
     xc contribution           =    -329.61507333 Ry
     ewald contribution        =   10547.28542805 Ry
     Hubbard energy            =       0.00000000 Ry
     smearing contrib. (-TS)   =       0.00060483 Ry

     total magnetization       =    15.00 Bohr mag/cell
     absolute magnetization    =    17.54 Bohr mag/cell

     convergence has been achieved in  61 iterations

     Forces acting on atoms (Ry/au):

     negative rho (up, down):  0.439E-02 0.162E-02
     atom    1 type  1   force =    -0.00292853   -0.01259986   -0.00014814
     atom    2 type  1   force =    -0.00059352    0.00824132   -0.00038603
     atom    3 type  2   force =     0.04847188   -0.00453744   -0.00006868
     atom    4 type  2   force =    -0.00391273    0.00835435    0.00003502
     atom    5 type  1   force =     0.00015359    0.01075377    0.00011740
     atom    6 type  1   force =    -0.00273738   -0.00786347    0.00017928
     atom    7 type  1   force =    -0.00013645   -0.00460780   -0.00039975
     atom    8 type  1   force =    -0.00674816    0.00278097    0.00063489
     atom    9 type  2   force =     0.00534822   -0.00235446   -0.00021566
     atom   10 type  2   force =     0.00605269    0.00294550   -0.00062686
     atom   11 type  1   force =    -0.02642160   -0.02798157   -0.00001771
     atom   12 type  1   force =    -0.01840991    0.03462089   -0.00045014
     atom   13 type  1   force =    -0.04820221   -0.00333470   -0.00037990
     atom   14 type  1   force =    -0.00475901   -0.01284995   -0.00006775
     atom   15 type  1   force =     0.00039581    0.00781657    0.00066330
     atom   16 type  2   force =    -0.05070633   -0.00394502   -0.00012130
     atom   17 type  2   force =     0.00476847    0.00791093    0.00023941
     atom   18 type  1   force =     0.00566672    0.00960005    0.00001265
     atom   19 type  1   force =     0.00275935   -0.00767882    0.00021765
     atom   20 type  1   force =     0.00181905   -0.00352629    0.00095579
     atom   21 type  1   force =     0.00322423    0.00398154   -0.00082674
     atom   22 type  2   force =     0.01769202   -0.00560599   -0.00024217
     atom   23 type  2   force =    -0.00440351   -0.00412182    0.00023607
     atom   24 type  1   force =     0.02132522   -0.02113273    0.00050842
     atom   25 type  1   force =     0.01371897    0.03380105   -0.00005194
     atom   26 type  1   force =     0.03878701   -0.00858447    0.00056143
     atom   27 type  3   force =    -0.00000344   -0.00004685    0.00008420
     atom   28 type  3   force =     0.00001852   -0.00007516    0.00007266
     atom   29 type  3   force =     0.00021750    0.00002355    0.00023593
     atom   30 type  3   force =     0.00019418    0.00009925    0.00031037
     atom   31 type  1   force =    -0.00070429   -0.00016824   -0.00094393
     atom   32 type  1   force =    -0.00019411    0.00067487   -0.00042015
     atom   33 type  3   force =     0.00024773   -0.00058995    0.00030234

     Total force =     0.002698     Total SCF correction =     0.002073
     SCF correction compared to forces is large: reduce conv_thr to get better values

     entering subroutine stress ...

     negative rho (up, down):  0.439E-02 0.162E-02
          total   stress  (Ry/bohr**3)                   (kbar)     P=    1.92
  -0.00001359  -0.00000100   0.00000400         -2.00     -0.15      0.59
  -0.00000100   0.00008977   0.00000304         -0.15     13.21      0.45
   0.00000400   0.00000304  -0.00003695          0.59      0.45     -5.44

     BFGS Geometry Optimization

     bfgs converged in   1 scf cycles and   0 bfgs steps
     (criteria: energy < 0.10E-03, force < 0.10E-02)

     End of BFGS Geometry Optimization

     Final energy   =   -2059.1149142081 Ry
Begin final coordinates

ATOMIC_POSITIONS (crystal)
O0       0.000000000   0.000000000   0.377700000    0   0   1
O0       0.000000000   0.500000000   0.400800000    0   0   1
Cr1      0.250000000   0.500000000   0.451970000    0   0   1
Cr1      0.000000000   0.000000000   0.448680000    0   0   1
O0       0.250000000   0.800000000   0.449750000    0   0   1
O0       0.250000000   0.200000000   0.449910000    0   0   1
O0       0.000000000   0.500000000   0.498300000    0   0   1
O0       0.000000000   0.000000000   0.522940000    0   0   1
Cr1      0.250000000   0.000000000   0.566210000    0   0   1
Cr1      0.000000000   0.500000000   0.565630000    0   0   1
O0       0.250000000   0.700000000   0.573110000    0   0   1
O0       0.250000000   0.300000000   0.575400000    0   0   1
O0       0.000000000   0.000000000   0.617580000    0   0   1
O0       0.500000000   0.000000000   0.377580000    0   0   1
O0       0.500000000   0.500000000   0.400590000    0   0   1
Cr1      0.750000000   0.500000000   0.452130000    0   0   1
Cr1      0.500000000   0.000000000   0.448670000    0   0   1
O0       0.750000000   0.800000000   0.449720000    0   0   1
O0       0.750000000   0.200000000   0.449970000    0   0   1
O0       0.500000000   0.500000000   0.499130000    0   0   1
O0       0.500000000   0.000000000   0.522940000    0   0   1
Cr1      0.750000000   0.000000000   0.583040000    0   0   1
Cr1      0.500000000   0.500000000   0.577850000    0   0   1
O0       0.750000000   0.700000000   0.574470000    0   0   1
O0       0.750000000   0.300000000   0.576690000    0   0   1
O0       0.500000000   0.000000000   0.616460000    0   0   1
H2      -0.000660000   0.637540000   0.381470000
H2       0.499800000   0.639420000   0.381970000
H2       0.156830000   0.030800000   0.364530000
H2       0.656580000   0.031040000   0.364380000
O0       0.499860000   0.535140000   0.647760000
O0       0.500220000   0.347750000   0.679980000
H2       0.499890000   0.420850000   0.713470000
End final coordinates

     General routines

     Parallel routines
     Hubbard U routines

   This run was terminated on:   3:29:29   2Jun2014

   JOB DONE.
Running PBS batch system epilogue script
Job id: 373409.audhumbla.fysik.dtu.dk
Username: zhonxu
Groupname: campgst
Jobname: CrO2/Eads-2-layers/OOH-U-0.0
Sessionid: 31636
Queuename: verylong
Accounting:
This job has allocated the following 16 nodes:
d059 d059 d059 d059 d059 d059 d059 d059 d005 d005 d005 d005 d005 d005 d005 d005
Finished epilogue job 373409.audhumbla.fysik.dtu.dk for zhonxu