     Program PWSCF v.5.0.2 (svn rev. 9656) starts on 10May2014 at 10:49:27

     Current dimensions of program PWSCF are:
     Max number of different atomic species (ntypx) = 10
     Max number of k-points (npk) =  40000
     Max angular momentum in pseudopotentials (lmaxx) =  3
     Reading input from pwscf.in
Warning: card &CELL ignored
Warning: card / ignored

     Subspace diagonalization in iterative solution of the eigenvalue problem:
     a serial algorithm will be used

     bravais-lattice index     =            0
     lattice parameter (alat)  =      11.1872  a.u.
     unit-cell volume          =    7531.8600 (a.u.)^3
     number of atoms/cell      =           33
     number of atomic types    =            3
     number of electrons       =       229.00
     number of Kohn-Sham states=          343
     kinetic-energy cutoff     =      40.0000  Ry
     charge density cutoff     =     500.0000  Ry
     convergence threshold     =      1.0E-06
     mixing beta               =       0.7000
     number of iterations used =            8  plain     mixing
     Exchange-correlation      = SLA  PW   PBE  PBE ( 1 4 3 4 0)
     EXX-fraction              =        0.00
     nstep                     =           50

     celldm(1)=  11.187179  celldm(2)=   0.000000  celldm(3)=   0.000000
     celldm(4)=   0.000000  celldm(5)=   0.000000  celldm(6)=   0.000000

     crystal axes: (cart. coord. in units of alat)
               a(1) = (   1.000000   0.000000   0.000000 )
               a(2) = (   0.000000   1.180104   0.000000 )
               a(3) = (   0.000000   0.000000   4.558482 )

     reciprocal axes: (cart. coord. in units 2 pi/alat)
               b(1) = (  1.000000  0.000000  0.000000 )
               b(2) = (  0.000000  0.847383  0.000000 )
               b(3) = (  0.000000  0.000000  0.219371 )

     PseudoPot. # 1 for O  read from file:
     /home/camp/zhonxu/pseudo/o_pbe_v1.01.uspp.F.UPF
     MD5 check sum: 2bcb18d16ea4b960afae9ec6d52f22d2
     Pseudo is Ultrasoft + core correction, Zval =  6.0
     Generated by new atomic code, or converted to UPF format
     Using radial grid of  737 points,  5 beta functions with:
                l(1) =   0
                l(2) =   0
                l(3) =   1
                l(4) =   1
                l(5) =   2
     Q(r) pseudized with  8 coefficients,  rinner =    0.900   0.900   0.900
                                                       0.900   0.900

     PseudoPot. # 2 for Nb read from file:
     /home/camp/zhonxu/pseudo/nb_pbe_v1.uspp.F.UPF
     MD5 check sum: 573aab8a2fa660278ed4a62cd769473f
     Pseudo is Ultrasoft + core correction, Zval = 13.0
     Generated by new atomic code, or converted to UPF format
     Using radial grid of  887 points,  6 beta functions with:
                l(1) =   0
                l(2) =   0
                l(3) =   1
                l(4) =   1
                l(5) =   2
                l(6) =   2
     Q(r) pseudized with  6 coefficients,  rinner =    1.000   1.000   1.000
                                                       1.000   1.000

     PseudoPot. # 3 for H  read from file:
     /home/camp/zhonxu/pseudo/h_pbe_v1.uspp.F.UPF
     MD5 check sum: 3408e3ff4ec8b0a4e358431e7e038a48
     Pseudo is Ultrasoft, Zval =  1.0
     Generated by new atomic code, or converted to UPF format
     Using radial grid of  615 points,  2 beta functions with:
                l(1) =   0
                l(2) =   0
     Q(r) pseudized with  8 coefficients,  rinner =    0.700

     atomic species   valence    mass     pseudopotential
        O0             6.00    15.99940     O ( 1.00)
        Nb1           13.00    92.90640     Nb( 1.00)
        H2             1.00     1.00794     H ( 1.00)

     No symmetry found

   Cartesian axes

     site n.     atom                  positions (alat units)
         1           O0  tau(   1) = (   0.0000000   0.0000000   1.7080633  )
         2           O0  tau(   2) = (   0.0000000   0.5900519   1.7583889  )
         3           Nb1 tau(   3) = (   0.2500000   0.5900519   2.0066439  )
         4           Nb1 tau(   4) = (   0.0000000   0.0000000   2.0401487  )
         5           O0  tau(   5) = (   0.2500000   0.9322821   2.0429294  )
         6           O0  tau(   6) = (   0.2500000   0.2478218   2.0431118  )
         7           O0  tau(   7) = (   0.0000000   0.5900519   2.2709903  )
         8           O0  tau(   8) = (   0.0000000   0.0000000   2.3999042  )
         9           Nb1 tau(   9) = (   0.2500000   0.0000000   2.6489340  )
        10           Nb1 tau(  10) = (   0.0000000   0.5900519   2.5868019  )
        11           O0  tau(  11) = (   0.2500000   0.8378738   2.6444667  )
        12           O0  tau(  12) = (   0.2500000   0.3422301   2.6445123  )
        13           O0  tau(  13) = (   0.0000000   0.0000000   2.8518777  )
        14           O0  tau(  14) = (   0.5000000   0.0000000   1.7080633  )
        15           O0  tau(  15) = (   0.5000000   0.5900519   1.7583889  )
        16           Nb1 tau(  16) = (   0.7500000   0.5900519   2.0066439  )
        17           Nb1 tau(  17) = (   0.5000000   0.0000000   2.0401487  )
        18           O0  tau(  18) = (   0.7500000   0.9322821   2.0429294  )
        19           O0  tau(  19) = (   0.7500000   0.2478218   2.0431118  )
        20           O0  tau(  20) = (   0.5000000   0.5900519   2.2709903  )
        21           O0  tau(  21) = (   0.5000000   0.0000000   2.3999497  )
        22           Nb1 tau(  22) = (   0.7500000   0.0000000   2.6489340  )
        23           Nb1 tau(  23) = (   0.5000000   0.5900519   2.5867563  )
        24           O0  tau(  24) = (   0.7500000   0.8378738   2.6444667  )
        25           O0  tau(  25) = (   0.7500000   0.3422301   2.6445123  )
        26           O0  tau(  26) = (   0.5000000   0.0000000   2.8518777  )
        27           H2  tau(  27) = (  -0.0004200   0.5934860   1.5928705  )
        28           H2  tau(  28) = (   0.4995800   0.5932146   1.5928249  )
        29           H2  tau(  29) = (   0.1513000  -0.0014397   1.6372701  )
        30           H2  tau(  30) = (   0.6512900  -0.0014397   1.6372701  )
        31           O0  tau(  31) = (   0.5000000   0.5900519   2.9341583  )
        32           O0  tau(  32) = (   0.5000000   0.3932578   3.0687703  )
        33           H2  tau(  33) = (   0.5000000   0.4432824   3.2268584  )

     number of k points=    10  Methfessel-Paxton smearing, width (Ry)=  0.0100
                       cart. coord. in units 2pi/alat
        k(    1) = (   0.0000000   0.0000000   0.0000000), wk =   0.1250000
        k(    2) = (   0.0000000   0.2118458   0.0000000), wk =   0.2500000
        k(    3) = (   0.0000000  -0.4236915   0.0000000), wk =   0.1250000
        k(    4) = (   0.2500000   0.0000000   0.0000000), wk =   0.2500000
        k(    5) = (   0.2500000   0.2118458   0.0000000), wk =   0.2500000
        k(    6) = (   0.2500000  -0.4236915   0.0000000), wk =   0.2500000
        k(    7) = (  -0.5000000   0.0000000   0.0000000), wk =   0.1250000
        k(    8) = (  -0.5000000   0.2118458   0.0000000), wk =   0.2500000
        k(    9) = (  -0.5000000  -0.4236915   0.0000000), wk =   0.1250000
        k(   10) = (  -0.2500000   0.2118458   0.0000000), wk =   0.2500000

     Largest allocated arrays     est. size (Mb)     dimensions
     Largest temporary arrays     est. size (Mb)     dimensions

     Check: negative/imaginary core charge=   -0.000003    0.000000

     Initial potential from superposition of free atoms
     Check: negative starting charge=   -0.003359

     starting charge  228.97806, renormalised to  229.00000

     negative rho (up, down):  0.336E-02 0.000E+00
     Starting wfc are  189 randomized atomic wfcs

     Self-consistent Calculation

     iteration #  1     ecut=    40.00 Ry     beta=0.70
     Davidson diagonalization with overlap
     ethr =  1.00E-02,  avg # of iterations =  6.0

     negative rho (up, down):  0.322E-02 0.000E+00

     total energy              =   -1588.54626441 Ry
     Harris-Foulkes estimate   =   -1599.38321536 Ry
     estimated scf accuracy    <      13.80926345 Ry

[...]

     End of self-consistent calculation

          k = 0.0000 0.0000 0.0000 ( 32167 PWs)   bands (ev):

   -56.2458 -56.1572 -55.7143 -55.6741 -55.5968 -55.5950 -55.5197 -55.4454
   -33.1209 -32.4428 -32.3481 -32.2468 -32.2301 -32.2122 -32.1788 -32.1257
   -32.0986 -32.0911 -31.9877 -31.9578 -31.8862 -31.8821 -31.8392 -31.6999
   -31.6887 -31.6463 -31.5515 -31.4603 -31.4348 -31.3566 -31.2977 -31.2505
   -22.3230 -20.4732 -20.2992 -19.2610 -18.9661 -18.8881 -18.8229 -18.6721
   -18.5767 -18.5278 -18.3981 -18.3913 -18.1369 -18.0384 -17.9773 -17.7249
   -17.6246 -17.5609 -17.3788 -15.5308  -8.9237  -8.5902  -7.6517  -7.6237
    -7.1502  -7.0419  -6.7220  -6.5033  -6.2546  -6.1188  -6.0868  -6.0443
    -5.9550  -5.8917  -5.7988  -5.7740  -5.6399  -5.5686  -5.5104  -5.3043
    -5.1195  -5.1000  -5.0362  -4.9933  -4.9725  -4.9704  -4.8404  -4.7584
    -4.6367  -4.4182  -4.3323  -4.1881  -4.0367  -3.9904  -3.9432  -3.7075
    -3.6274  -3.6034  -3.5594  -3.4985  -3.3204  -3.2774  -3.2058  -3.1896
    -3.1508  -2.9811  -2.9719  -2.8734  -2.7479  -2.7234  -2.6985  -2.6629
    -2.5966  -2.5151  -2.4515  -2.4344  -1.9772  -1.2279  -0.5323  -0.1594
    -0.0223   0.0024   1.3148   1.5824   1.5889   1.6389   1.6414   1.6568
     1.7720   1.9432   1.9574   2.0123   2.4791   2.5458   2.5682   2.7291
     2.8005   2.9635   3.0667   3.3204   3.3561   3.7299   3.8088   3.8342
     3.8543   3.9436   4.0846   4.4579   4.5646   4.8064   4.8923   5.1592
     5.2972   5.3568   5.4066   5.5422   5.8236   5.8331   5.8920   5.9537
     6.1022   6.2289   6.3187   6.4157   6.4203   6.4568   6.6723   6.8652
     6.8735   7.0145   7.0969   7.2361   7.3136   7.3656   7.3877   7.5259
     7.7751   7.8800   7.9567   8.1321   8.1675   8.1890   8.3512   8.3989
     8.4607   8.6442   8.6704   8.8834   8.8959   8.9215   9.0143   9.0533
     9.1206   9.3305   9.5152   9.5348   9.5970   9.6305   9.6607   9.8487
     9.8837   9.9596  10.1470  10.1700  10.2693  10.3412  10.3501  10.5680
    10.6969  10.7563  10.9438  11.0087  11.0381  11.1055  11.2010  11.2267
    11.2799  11.2962  11.3200  11.4189  11.4785  11.5752  11.6592  11.6633
    11.7001  11.7685  11.8219  11.8681  11.9887  12.1161  12.2858  12.4027
    12.4152  12.4341  12.4501  12.4591  12.5321  12.6041  12.6956  12.7954
    12.8252  13.0210  13.0509  13.1583  13.3676  13.3895  13.4729  13.6076
    13.6799  13.6888  13.7715  13.8285  13.8765  13.9976  14.0123  14.0951
    14.1228  14.2744  14.3249  14.3831  14.5227  14.5241  14.7577  14.8760
    14.9263  14.9836  15.1674  15.2141  15.2588  15.3073  15.4062  15.4583
    15.6007  15.6429  15.7521  15.8057  15.8616  15.9174  15.9958  16.0331
    16.0944  16.1642  16.1730  16.2042  16.3111  16.4136  16.5427  16.5653
    16.6305  16.6775  16.7476  16.8525  16.8946  17.0275  17.1246  17.2498
    17.3227  17.3889  17.4368  17.5035  17.5932  17.6290  17.7557  17.8421
    17.9314  18.0807  18.1736  18.2228  18.2682  18.3711  18.3932  18.4577
[...]
     atom   17 type  2   force =    -0.00346471    0.00034622    0.00288965
     atom   18 type  1   force =     0.00008987   -0.02561378   -0.00185413
     atom   19 type  1   force =    -0.00011639    0.02557479   -0.00232478
     atom   20 type  1   force =     0.00016181   -0.00570115   -0.06400798
     atom   21 type  1   force =     0.00173536   -0.00012964   -0.00278611
     atom   22 type  2   force =    -0.00887167    0.00208449    0.01275979
     atom   23 type  2   force =     0.00009831    0.00168306    0.14816515
     atom   24 type  1   force =     0.02331130   -0.02232608   -0.02544491
     atom   25 type  1   force =     0.02509999    0.02360372   -0.02894617
     atom   26 type  1   force =     0.00037272   -0.01204368   -0.01997175
     atom   27 type  3   force =    -0.00002878   -0.00014220   -0.00134539
     atom   28 type  3   force =    -0.00005796   -0.00040131    0.00262224
     atom   29 type  3   force =     0.00008262    0.00042066    0.00004079
     atom   30 type  3   force =     0.00006584    0.00042061    0.00004098
     atom   31 type  1   force =    -0.00000093    0.03212976    0.00006696
     atom   32 type  1   force =     0.00000024   -0.04563925   -0.00002010
     atom   33 type  3   force =    -0.00000157    0.02565767   -0.00031109

     Total force =     0.184442     Total SCF correction =     0.002559

     BFGS Geometry Optimization

     number of scf cycles    =   1
     number of bfgs steps    =   0

     energy   new            =   -1595.6763300772 Ry

     new trust radius        =       0.1481651489 bohr
     new conv_thr            =       0.0000010000 Ry

ATOMIC_POSITIONS (crystal)
O0       0.000000000   0.000000000   0.374699598    0   0   1
O0       0.000000000   0.500000000   0.385633287    0   0   1
Nb1      0.250000000   0.500000000   0.440340856    0   0   1
Nb1      0.000000000   0.000000000   0.447555540    0   0   1
O0       0.250000000   0.790000000   0.448124340    0   0   1
O0       0.250000000   0.210000000   0.448154674    0   0   1
O0       0.000000000   0.500000000   0.498417951    0   0   1
O0       0.000000000   0.000000000   0.526436644    0   0   1
Nb1      0.250000000   0.000000000   0.581350506    0   0   1
Nb1      0.000000000   0.500000000   0.567694875    0   0   1
O0       0.250000000   0.710000000   0.579621550    0   0   1
O0       0.250000000   0.290000000   0.579562860    0   0   1
O0       0.000000000   0.000000000   0.625489295    0   0   1
O0       0.500000000   0.000000000   0.374680197    0   0   1
O0       0.500000000   0.500000000   0.385799651    0   0   1
Nb1      0.750000000   0.500000000   0.440344364    0   0   1
Nb1      0.500000000   0.000000000   0.447606664    0   0   1
O0       0.750000000   0.790000000   0.448123642    0   0   1
O0       0.750000000   0.210000000   0.448154413    0   0   1
O0       0.500000000   0.500000000   0.496934857    0   0   1
O0       0.500000000   0.000000000   0.526425367    0   0   1
Nb1      0.750000000   0.000000000   0.581350209    0   0   1
Nb1      0.500000000   0.500000000   0.570365395    0   0   1
O0       0.750000000   0.710000000   0.579621046    0   0   1
O0       0.750000000   0.290000000   0.579562390    0   0   1
O0       0.500000000   0.000000000   0.625228371    0   0   1
H2      -0.000422573   0.502899229   0.349403618
H2       0.499574819   0.502649602   0.349471420
H2       0.151307385  -0.001188137   0.359170800
H2       0.651295885  -0.001188141   0.359170804
O0       0.500000000   0.502433698   0.643671313    0   1   1
O0       0.500000000   0.329783014   0.673199606    0   1   1
H2       0.500000000   0.377573463   0.707873900    0   1   1

     Check: negative starting charge=   -0.003359
     NEW-OLD atomic charge density approx. for the potential

     Check: negative/imaginary core charge=   -0.000003    0.000000
     Check: negative starting charge=   -0.003362

[...]

     energy   old            =   -1595.6763300772 Ry
     energy   new            =   -1595.6982423282 Ry

     CASE: energy  _new < energy  _old

[...]

     Threshold (ethr) on eigenvalues was too large:
     Diagonalizing with lowered threshold

     Davidson diagonalization with overlap
     ethr =  6.95E-08,  avg # of iterations =  1.8

[...]

     Total force =     0.004093     Total SCF correction =     0.000404

[...]

     Total force =     0.002705     Total SCF correction =     0.000356
     SCF correction compared to forces is large: reduce conv_thr to get better values

     number of scf cycles    =  35
     number of bfgs steps    =  34

     energy   old            =   -1595.7243267770 Ry
     energy   new            =   -1595.7243497414 Ry

     CASE: energy  _new < energy  _old

     new trust radius        =       0.0117816319 bohr
     new conv_thr            =       0.0000000100 Ry

ATOMIC_POSITIONS (crystal)
O0       0.000000000   0.000000000   0.372102132    0   0   1
O0       0.000000000   0.500000000   0.388810262    0   0   1
Nb1      0.250000000   0.500000000   0.444404452    0   0   1
Nb1      0.000000000   0.000000000   0.444762394    0   0   1
O0       0.250000000   0.790000000   0.447151344    0   0   1
O0       0.250000000   0.210000000   0.447117542    0   0   1
O0       0.000000000   0.500000000   0.499953329    0   0   1
O0       0.000000000   0.000000000   0.523268249    0   0   1
Nb1      0.250000000   0.000000000   0.577352406    0   0   1
Nb1      0.000000000   0.500000000   0.569416961    0   0   1
O0       0.250000000   0.710000000   0.575458754    0   0   1
O0       0.250000000   0.290000000   0.575955820    0   0   1
O0       0.000000000   0.000000000   0.621790154    0   0   1
O0       0.500000000   0.000000000   0.372365467    0   0   1
O0       0.500000000   0.500000000   0.390238492    0   0   1
Nb1      0.750000000   0.500000000   0.444439261    0   0   1
Nb1      0.500000000   0.000000000   0.445277539    0   0   1
O0       0.750000000   0.790000000   0.447138006    0   0   1
O0       0.750000000   0.210000000   0.447115759    0   0   1
O0       0.500000000   0.500000000   0.498787982    0   0   1
O0       0.500000000   0.000000000   0.523101310    0   0   1
Nb1      0.750000000   0.000000000   0.577350413    0   0   1
Nb1      0.500000000   0.500000000   0.576272294    0   0   1
O0       0.750000000   0.710000000   0.575445832    0   0   1
O0       0.750000000   0.290000000   0.575947686    0   0   1
O0       0.500000000   0.000000000   0.621533640    0   0   1
H2      -0.000524414   0.504905604   0.352548350
H2       0.499435488   0.501175779   0.354031275
H2       0.150771819   0.000695110   0.356326018
H2       0.650389586   0.000506124   0.356461710
O0       0.500000000   0.509332528   0.649056896    0   1   1
O0       0.500000000   0.347688941   0.683458803    0   1   1
H2       0.500000000   0.419958335   0.714799466    0   1   1

     Check: negative starting charge=   -0.003308
     NEW-OLD atomic charge density approx. for the potential

     Check: negative/imaginary core charge=   -0.000003    0.000000
     Check: negative starting charge=   -0.003307

[...]

     Self-consistent Calculation

[...]

     Threshold (ethr) on eigenvalues was too large:
     Diagonalizing with lowered threshold

     Davidson diagonalization with overlap
     ethr =  1.02E-08,  avg # of iterations =  2.0

[...]

     total energy              =   -1595.72435808 Ry
     Harris-Foulkes estimate   =   -1595.72435809 Ry
     estimated scf accuracy    <       0.00000003 Ry

     iteration # 10     ecut=    40.00 Ry     beta=0.70
     Davidson diagonalization with overlap
     ethr =  1.47E-11,  avg # of iterations =  2.0

     negative rho (up, down):  0.331E-02 0.000E+00

     End of self-consistent calculation

[...]

          k = 0.2500-0.4237 0.0000 ( 32188 PWs)   bands (ev):

[...]

          k =-0.2500 0.2118 0.0000 ( 32165 PWs)   bands (ev):

   -56.0339 -55.9703 -55.6081 -55.5941 -55.5521 -55.5506 -55.5388 -55.4281
   -32.8406 -32.2327 -32.1392 -32.1187 -32.0939 -32.0926 -32.0606 -32.0199
   -32.0189 -31.9341 -31.9180 -31.8960 -31.8452 -31.8200 -31.7396 -31.6363
   -31.6313 -31.5438 -31.5116 -31.5085 -31.4520 -31.4359 -31.3961 -31.3641
   -22.3108 -20.3077 -20.0169 -19.1262 -18.8304 -18.7852 -18.6553 -18.5634
   -18.4789 -18.4745 -18.4249 -18.3673 -17.9798 -17.8711 -17.8551 -17.7794
   -17.7710 -17.6402 -17.5059 -16.1722  -8.7315  -8.3671  -7.7530  -7.3712
    -6.7669  -6.5664  -6.4821  -6.4009  -6.2883  -6.2666  -6.1402  -6.0622
    -5.9458  -5.9314  -5.8029  -5.7268  -5.6258  -5.5987  -5.4083  -5.3865
    -5.3351  -5.2683  -5.0614  -4.9220  -4.7903  -4.7486  -4.5156  -4.4825
    -4.3980  -4.3061  -4.1371  -4.0651  -4.0283  -3.9635  -3.8217  -3.7792
    -3.7261  -3.7002  -3.6689  -3.6124  -3.5078  -3.4247  -3.3669  -3.3039
    -3.2442  -3.1017  -3.0071  -2.9274  -2.8696  -2.8410  -2.7148  -2.6305
    -2.5490  -2.5136  -2.3763  -2.3445  -2.1225  -1.9308  -0.9104   0.1885
     0.7921   0.8341   1.0294   1.1829   1.4258   1.7145   1.8888   1.9280
     2.0425   2.2058   2.2799   2.3585   2.4829   2.5864   2.7129   2.7623
     2.8163   2.9098   2.9720   3.0880   3.1454   3.1880   3.2298   3.4536
     3.7088   4.1299   4.3337   4.4583   4.6941   4.8208   5.0729   5.3475
     5.3658   5.4189   5.5408   5.5889   5.7007   5.7975   5.8775   5.9205
     6.0480   6.0919   6.1573   6.2507   6.4335   6.5684   6.6307   6.7596
     6.8123   6.9345   6.9667   7.1248   7.2118   7.3967   7.4584   7.5127
     7.6395   7.7774   7.8902   8.0115   8.0762   8.1418   8.3185   8.3647
     8.5119   8.6085   8.7262   8.7812   8.9483   8.9938   9.0581   9.2535
     9.3294   9.3958   9.4555   9.5543   9.6547   9.7582   9.8786   9.9418
    10.0544  10.1209  10.2124  10.3241  10.4038  10.4372  10.6087  10.7659
    10.8405  10.9849  11.0238  11.1012  11.1670  11.2020  11.3272  11.4006
    11.4773  11.5947  11.6305  11.6539  11.6796  11.8470  11.8897  11.9971
    12.1101  12.1672  12.2279  12.3198  12.4483  12.5396  12.6226  12.7029
    12.7260  12.7781  12.8830  12.9138  12.9391  13.0041  13.0612  13.1815
    13.2382  13.3259  13.3518  13.4175  13.5031  13.5776  13.6225  13.6976
    13.7581  13.8630  13.9100  13.9929  14.0358  14.1055  14.1268  14.2394
    14.3001  14.3808  14.4273  14.4672  14.6489  14.7516  14.8346  14.8783
    14.9582  15.1233  15.1526  15.2345  15.2896  15.3287  15.4093  15.4433
    15.4939  15.5615  15.5953  15.6941  15.7574  15.7949  15.8645  15.8982
    15.9863  16.0507  16.1280  16.1907  16.2795  16.3541  16.3684  16.4286
    16.5577  16.6691  16.6922  16.7455  16.7907  16.8662  16.9172  17.0287
    17.0742  17.1035  17.1827  17.2413  17.3099  17.3588  17.4502  17.4649
    17.5594  17.6097  17.6888  17.8195  17.8702  17.9200  17.9638  18.0512
    18.1160  18.2128  18.2995  18.3404  18.3956  18.5293  18.5571  18.6130
    18.6564  18.7259  18.8002  18.8668  18.9476  18.9875  19.0729  19.1005
    19.1754  19.2657  19.2974  19.3473  19.4256  19.4579  19.5054  19.6065
    19.6992  19.7414  19.7635  19.8031  19.8799  19.9180  19.9705  20.0300
    20.0670  20.1477  20.1756  20.2354  20.2796  20.3433  20.4061

     the Fermi energy is     1.1353 ev

!    total energy              =   -1595.72435808 Ry
     Harris-Foulkes estimate   =   -1595.72435808 Ry
     estimated scf accuracy    <          9.3E-09 Ry

     The total energy is the sum of the following terms:

     one-electron contribution =  -19410.39311449 Ry
     hartree contribution      =    9738.33253179 Ry
     xc contribution           =    -294.63702270 Ry
     ewald contribution        =    8370.97523063 Ry
     smearing contrib. (-TS)   =      -0.00198331 Ry

     convergence has been achieved in  10 iterations

     Forces acting on atoms (Ry/au):

     negative rho (up, down):  0.331E-02 0.000E+00
     atom    1 type  1   force =     0.00162971   -0.00024444   -0.00021472
     atom    2 type  1   force =    -0.00066638    0.00018267    0.00046207
     atom    3 type  2   force =    -0.02828690   -0.00050591    0.00017617
     atom    4 type  2   force =    -0.00467416   -0.00012601   -0.00020949
     atom    5 type  1   force =    -0.00292331   -0.01212272   -0.00006319
     atom    6 type  1   force =    -0.00266577    0.01224153   -0.00005102
     atom    7 type  1   force =     0.00000037   -0.00034203    0.00014261
     atom    8 type  1   force =     0.00180470    0.00109343    0.00023041
     atom    9 type  2   force =     0.00030838   -0.00047666    0.00011454
     atom   10 type  2   force =    -0.00000733    0.00009684    0.00015235
     atom   11 type  1   force =    -0.01502061   -0.01715601   -0.00009896
     atom   12 type  1   force =    -0.01302310    0.02029664   -0.00008492
     atom   13 type  1   force =     0.00034951   -0.00141590    0.00061797
     atom   14 type  1   force =     0.00062099   -0.00007656   -0.00014548
     atom   15 type  1   force =    -0.00065151   -0.00003732   -0.00025415
     atom   16 type  2   force =     0.02945915   -0.00051224    0.00012338
     atom   17 type  2   force =    -0.00443973    0.00010968   -0.00016638
     atom   18 type  1   force =     0.00428721   -0.01194167   -0.00005514
     atom   19 type  1   force =     0.00381267    0.01206517   -0.00003727
     atom   20 type  1   force =     0.00017420   -0.00194998   -0.00019194
     atom   21 type  1   force =     0.00185957    0.00046194    0.00027466
     atom   22 type  2   force =    -0.00079483   -0.00048029    0.00011080
     atom   23 type  2   force =    -0.00007255    0.00123944    0.00010727
     atom   24 type  1   force =     0.01523202   -0.01715762   -0.00009900
     atom   25 type  1   force =     0.01323199    0.02029384   -0.00008623
     atom   26 type  1   force =     0.00040270   -0.00417696   -0.00015157
     atom   27 type  3   force =    -0.00000486    0.00018771    0.00034179
     atom   28 type  3   force =    -0.00000369   -0.00010568   -0.00019517
     atom   29 type  3   force =     0.00004590    0.00004808   -0.00014127
     atom   30 type  3   force =     0.00001118    0.00002662   -0.00014346
     atom   31 type  1   force =    -0.00000266    0.00017185   -0.00016982
     atom   32 type  1   force =     0.00000919    0.00045433   -0.00034827
     atom   33 type  3   force =    -0.00000204   -0.00014178    0.00005344

     Total force =     0.001347     Total SCF correction =     0.000270
     SCF correction compared to forces is large: reduce conv_thr to get better values

     bfgs converged in  36 scf cycles and  35 bfgs steps
     (criteria: energy < 0.10E-03, force < 0.10E-02)

     End of BFGS Geometry Optimization

     Final energy   =   -1595.7243580763 Ry
Begin final coordinates

ATOMIC_POSITIONS (crystal)
O0       0.000000000   0.000000000   0.372102132    0   0   1
O0       0.000000000   0.500000000   0.388810262    0   0   1
Nb1      0.250000000   0.500000000   0.444404452    0   0   1
Nb1      0.000000000   0.000000000   0.444762394    0   0   1
O0       0.250000000   0.790000000   0.447151344    0   0   1
O0       0.250000000   0.210000000   0.447117542    0   0   1
O0       0.000000000   0.500000000   0.499953329    0   0   1
O0       0.000000000   0.000000000   0.523268249    0   0   1
Nb1      0.250000000   0.000000000   0.577352406    0   0   1
Nb1      0.000000000   0.500000000   0.569416961    0   0   1
O0       0.250000000   0.710000000   0.575458754    0   0   1
O0       0.250000000   0.290000000   0.575955820    0   0   1
O0       0.000000000   0.000000000   0.621790154    0   0   1
O0       0.500000000   0.000000000   0.372365467    0   0   1
O0       0.500000000   0.500000000   0.390238492    0   0   1
Nb1      0.750000000   0.500000000   0.444439261    0   0   1
Nb1      0.500000000   0.000000000   0.445277539    0   0   1
O0       0.750000000   0.790000000   0.447138006    0   0   1
O0       0.750000000   0.210000000   0.447115759    0   0   1
O0       0.500000000   0.500000000   0.498787982    0   0   1
O0       0.500000000   0.000000000   0.523101310    0   0   1
Nb1      0.750000000   0.000000000   0.577350413    0   0   1
Nb1      0.500000000   0.500000000   0.576272294    0   0   1
O0       0.750000000   0.710000000   0.575445832    0   0   1
O0       0.750000000   0.290000000   0.575947686    0   0   1
O0       0.500000000   0.000000000   0.621533640    0   0   1
H2      -0.000524414   0.504905604   0.352548350
H2       0.499435488   0.501175779   0.354031275
H2       0.150771819   0.000695110   0.356326018
H2       0.650389586   0.000506124   0.356461710
O0       0.500000000   0.509332528   0.649056896    0   1   1
O0       0.500000000   0.347688941   0.683458803    0   1   1
H2       0.500000000   0.419958335   0.714799466    0   1   1
End final coordinates

     General routines

     Parallel routines

   This run was terminated on:  15:44:58  11May2014

   JOB DONE.