     Program PWSCF v.5.0.2 (svn rev. 9656) starts on 23Jan2014 at 18:14: 3

     Current dimensions of program PWSCF are:
     Max number of different atomic species (ntypx) = 10
     Max number of k-points (npk) =  40000
     Max angular momentum in pseudopotentials (lmaxx) =  3
     Reading input from TiO2-v-1.0.in

     Subspace diagonalization in iterative solution of the eigenvalue problem:
     a serial algorithm will be used

     bravais-lattice index     =            0
     lattice parameter (alat)  =       8.6590  a.u.
     unit-cell volume          =     418.3967 (a.u.)^3
     number of atoms/cell      =            6
     number of atomic types    =            2
     number of electrons       =        48.00
     number of Kohn-Sham states=           69
     kinetic-energy cutoff     =      40.0000  Ry
     charge density cutoff     =     500.0000  Ry
     convergence threshold     =      1.0E-06
     mixing beta               =       0.7000
     number of iterations used =            8  plain     mixing
     Exchange-correlation      = SLA  PW   PBE  PBE ( 1 4 3 4 0)
     EXX-fraction              =        0.00
     nstep                     =           50

     celldm(1)=   8.658997  celldm(2)=   0.000000  celldm(3)=   0.000000
     celldm(4)=   0.000000  celldm(5)=   0.000000  celldm(6)=   0.000000

     crystal axes: (cart. coord. in units of alat)
               a(1) = (   1.000000   0.000000   0.000000 )
               a(2) = (   0.000000   1.000000   0.000000 )
               a(3) = (   0.000000   0.000000   0.644444 )

     reciprocal axes: (cart. coord. in units 2 pi/alat)
               b(1) = (  1.000000  0.000000  0.000000 )
               b(2) = (  0.000000  1.000000  0.000000 )
               b(3) = (  0.000000  0.000000  1.551724 )

     PseudoPot. # 1 for Ti read from file:
     /home/camp/zhonxu/pseudo/ti_pbe_v1.uspp.F.UPF
     MD5 check sum: bcc8f6961b3b91f0cac3ca967d22d0fb
     Pseudo is Ultrasoft + core correction, Zval = 12.0
     Generated by new atomic code, or converted to UPF format
     Using radial grid of  851 points,  6 beta functions with:
                l(1) =   0
                l(2) =   0
                l(3) =   1
                l(4) =   1
                l(5) =   2
                l(6) =   2
     Q(r) pseudized with  6 coefficients,  rinner =    1.000   1.000   1.000
                                                       1.000   1.000

     PseudoPot. # 2 for O  read from file:
     /home/camp/zhonxu/pseudo/o_pbe_v1.01.uspp.F.UPF
     MD5 check sum: 2bcb18d16ea4b960afae9ec6d52f22d2
     Pseudo is Ultrasoft + core correction, Zval =  6.0
     Generated by new atomic code, or converted to UPF format
     Using radial grid of  737 points,  5 beta functions with:
                l(1) =   0
                l(2) =   0
                l(3) =   1
                l(4) =   1
                l(5) =   2
     Q(r) pseudized with  8 coefficients,  rinner =    0.900   0.900   0.900
                                                       0.900   0.900

     atomic species   valence    mass     pseudopotential
        Ti0           12.00    47.88000     Ti( 1.00)
        O1             6.00    15.99940     O ( 1.00)

     Starting magnetic structure
     atomic species   magnetization
        Ti0          0.600
        O1           0.000

     16 Sym. Ops., with inversion, found ( 8 have fractional translation)

   Cartesian axes

     site n.     atom                  positions (alat units)
         1           Ti0 tau(   1) = (   0.0000000   0.0000000   0.0000000  )
         2           Ti0 tau(   2) = (   0.5000000   0.5000000   0.3222222  )
         3           O1  tau(   3) = (   0.3050000   0.3050000   0.0000000  )
         4           O1  tau(   4) = (  -0.3050000  -0.3050000   0.0000000  )
         5           O1  tau(   5) = (   0.8050000   0.1950000   0.3222222  )
         6           O1  tau(   6) = (   0.1950000   0.8050000   0.3222222  )

     number of k points=    36  Methfessel-Paxton smearing, width (Ry)=  0.0100
                       cart. coord. in units 2pi/alat
        k(    1) = (   0.0000000   0.0000000   0.0000000), wk =   0.0080000
        k(    2) = (   0.0000000   0.0000000   0.3103448), wk =   0.0160000
        k(    3) = (   0.0000000   0.0000000   0.6206897), wk =   0.0160000
        k(    4) = (   0.0000000   0.2000000   0.0000000), wk =   0.0320000
        k(    5) = (   0.0000000   0.2000000   0.3103448), wk =   0.0640000
        k(    6) = (   0.0000000   0.2000000   0.6206897), wk =   0.0640000
        k(    7) = (   0.0000000   0.4000000   0.0000000), wk =   0.0320000
        k(    8) = (   0.0000000   0.4000000   0.3103448), wk =   0.0640000
        k(    9) = (   0.0000000   0.4000000   0.6206897), wk =   0.0640000
        k(   10) = (   0.2000000   0.2000000   0.0000000), wk =   0.0320000
        k(   11) = (   0.2000000   0.2000000   0.3103448), wk =   0.0640000
        k(   12) = (   0.2000000   0.2000000   0.6206897), wk =   0.0640000
        k(   13) = (   0.2000000   0.4000000   0.0000000), wk =   0.0640000
        k(   14) = (   0.2000000   0.4000000   0.3103448), wk =   0.1280000
        k(   15) = (   0.2000000   0.4000000   0.6206897), wk =   0.1280000
        k(   16) = (   0.4000000   0.4000000   0.0000000), wk =   0.0320000
        k(   17) = (   0.4000000   0.4000000   0.3103448), wk =   0.0640000
        k(   18) = (   0.4000000   0.4000000   0.6206897), wk =   0.0640000
        k(   19) = (   0.0000000   0.0000000   0.0000000), wk =   0.0080000
        k(   20) = (   0.0000000   0.0000000   0.3103448), wk =   0.0160000
        k(   21) = (   0.0000000   0.0000000   0.6206897), wk =   0.0160000
        k(   22) = (   0.0000000   0.2000000   0.0000000), wk =   0.0320000
        k(   23) = (   0.0000000   0.2000000   0.3103448), wk =   0.0640000
        k(   24) = (   0.0000000   0.2000000   0.6206897), wk =   0.0640000
        k(   25) = (   0.0000000   0.4000000   0.0000000), wk =   0.0320000
        k(   26) = (   0.0000000   0.4000000   0.3103448), wk =   0.0640000
        k(   27) = (   0.0000000   0.4000000   0.6206897), wk =   0.0640000
        k(   28) = (   0.2000000   0.2000000   0.0000000), wk =   0.0320000
        k(   29) = (   0.2000000   0.2000000   0.3103448), wk =   0.0640000
        k(   30) = (   0.2000000   0.2000000   0.6206897), wk =   0.0640000
        k(   31) = (   0.2000000   0.4000000   0.0000000), wk =   0.0640000
        k(   32) = (   0.2000000   0.4000000   0.3103448), wk =   0.1280000
        k(   33) = (   0.2000000   0.4000000   0.6206897), wk =   0.1280000
        k(   34) = (   0.4000000   0.4000000   0.0000000), wk =   0.0320000
        k(   35) = (   0.4000000   0.4000000   0.3103448), wk =   0.0640000
        k(   36) = (   0.4000000   0.4000000   0.6206897), wk =   0.0640000

     Largest allocated arrays     est. size (Mb)     dimensions
     Largest temporary arrays     est. size (Mb)     dimensions

     Check: negative/imaginary core charge=   -0.000014    0.000000

     Initial potential from superposition of free atoms
     Check: negative starting charge=(component1):   -0.020433
     Check: negative starting charge=(component2):   -0.005017

     starting charge   45.99991, renormalised to   48.00000

     negative rho (up, down):  0.213E-01 0.524E-02
     Starting wfc are   36 randomized atomic wfcs

     Self-consistent Calculation

     iteration #  1     ecut=    40.00 Ry     beta=0.70
     Davidson diagonalization with overlap
     ethr =  1.00E-02,  avg # of iterations =  5.1

     negative rho (up, down):  0.162E-01 0.126E-01

     total energy              =    -365.64242119 Ry
     Harris-Foulkes estimate   =    -365.21428477 Ry
     estimated scf accuracy    <       2.58402082 Ry

     total magnetization       =     0.00 Bohr mag/cell
     absolute magnetization    =     1.77 Bohr mag/cell

[...]

     End of self-consistent calculation

 ------ SPIN UP ------------

          k = 0.0000 0.0000 0.0000 (  1819 PWs)   bands (ev):

   -47.5986 -47.5810 -23.9298 -23.9298 -23.7578 -23.7578 -23.7136 -23.6762
    -8.9799  -7.7955  -7.0301  -7.0301   3.4483   3.8604   4.2909   5.3921
     5.3921   6.6947   6.6947   7.2633   8.5482   8.8081   8.8081   9.2545
    11.1657  11.4818  11.6979  11.7920  11.7920  13.7198  13.8872  15.9767
    15.9767  16.9641  17.2279  20.9819  20.9819  23.8465  24.9528  25.9298
    27.6820  28.6894  28.7794  28.7794  30.6731  32.3097  33.3991  33.3991
    34.4022  34.9917  34.9917  35.3336  35.5349  35.5349  36.2080  38.1114
    40.8096  41.2236  41.4502  41.7333  41.7333  42.8763  43.2833  43.2833
    45.4560  45.9106  45.9106  46.3581  48.9604

[...]

 ------ SPIN DOWN ----------

[...]

     the Fermi energy is     9.3339 ev

!    total energy              =    -366.49616935 Ry
     Harris-Foulkes estimate   =    -366.49616960 Ry
     estimated scf accuracy    <       0.00000028 Ry

     The total energy is the sum of the following terms:

     one-electron contribution =    -123.98680831 Ry
     hartree contribution      =      85.76167817 Ry
     xc contribution           =     -63.35548815 Ry
     ewald contribution        =    -264.91557469 Ry
     smearing contrib. (-TS)   =       0.00002362 Ry

[...]

     convergence has been achieved in  10 iterations

     Forces acting on atoms (Ry/au):

     negative rho (up, down):  0.127E-01 0.127E-01
     atom    1 type  1   force =     0.00000000    0.00000000    0.00000000
     atom    2 type  1   force =     0.00000000    0.00000000    0.00000000
     atom    3 type  2   force =    -0.00408621   -0.00408621    0.00000000
     atom    4 type  2   force =     0.00408621    0.00408621    0.00000000
     atom    5 type  2   force =    -0.00408621    0.00408621    0.00000000
     atom    6 type  2   force =     0.00408621   -0.00408621    0.00000000

     Total force =     0.011558     Total SCF correction =     0.000170

     entering subroutine stress ...

     negative rho (up, down):  0.127E-01 0.127E-01
          total   stress  (Ry/bohr**3)                   (kbar)     P=   62.89
   0.00043511   0.00000000   0.00000000         64.01      0.00      0.00
   0.00000000   0.00043511   0.00000000          0.00     64.01      0.00
   0.00000000   0.00000000   0.00041239          0.00      0.00     60.66

     Volume is kept fixed: isostatic pressure set to zero

     BFGS Geometry Optimization

     number of scf cycles    =   1
     number of bfgs steps    =   0

     enthalpy new            =    -366.4961693525 Ry

     new trust radius        =       0.0057787676 bohr
     new conv_thr            =       0.0000010000 Ry

     new unit-cell volume =    418.39674 a.u.^3 (    62.00000 Ang^3 )

CELL_PARAMETERS (alat=  8.65899730)
   1.000189404   0.000000000   0.000000000
   0.000000000   1.000189404   0.000000000
   0.000000000   0.000000000   0.644200393

ATOMIC_POSITIONS (crystal)
Ti0      0.000000000   0.000000000   0.000000000    0   0   0
Ti0      0.500000000   0.500000000   0.500000000    0   0   0
O1       0.304528097   0.304528097   0.000000000    1   1   0
O1      -0.304528097  -0.304528097   0.000000000    1   1   0
[...]
        k(   26) = (   0.0000000   0.3999243   0.3104624), wk =   0.0640000
        k(   27) = (   0.0000000   0.3999243   0.6209248), wk =   0.0640000
        k(   28) = (   0.1999621   0.1999621   0.0000000), wk =   0.0320000
        k(   29) = (   0.1999621   0.1999621   0.3104624), wk =   0.0640000
        k(   30) = (   0.1999621   0.1999621   0.6209248), wk =   0.0640000
        k(   31) = (   0.1999621   0.3999243   0.0000000), wk =   0.0640000
        k(   32) = (   0.1999621   0.3999243   0.3104624), wk =   0.1280000
        k(   33) = (   0.1999621   0.3999243   0.6209248), wk =   0.1280000
        k(   34) = (   0.3999243   0.3999243   0.0000000), wk =   0.0320000
        k(   35) = (   0.3999243   0.3999243   0.3104624), wk =   0.0640000
        k(   36) = (   0.3999243   0.3999243   0.6209248), wk =   0.0640000

     Check: negative/imaginary core charge=   -0.000014    0.000000
     Check: negative starting charge=(component1):   -0.025451

[...]

     Threshold (ethr) on eigenvalues was too large:
     Diagonalizing with lowered threshold

     Davidson diagonalization with overlap
     ethr =  5.89E-08,  avg # of iterations =  1.0

[...]

     enthalpy old            =    -366.4961693525 Ry
     enthalpy new            =    -366.4962768039 Ry

     CASE: enthalpy_new < enthalpy_old

[...]

     Total force =     0.000980     Total SCF correction =     0.000010

[...]

     number of scf cycles    =   3
     number of bfgs steps    =   2

     enthalpy old            =    -366.4962768039 Ry
     enthalpy new            =    -366.4963264839 Ry

     CASE: enthalpy_new < enthalpy_old

     new trust radius        =       0.0011898925 bohr
     new conv_thr            =       0.0000000100 Ry

     new unit-cell volume =    418.39674 a.u.^3 (    62.00000 Ang^3 )

[...]

ATOMIC_POSITIONS (crystal)
Ti0      0.000000000   0.000000000   0.000000000    0   0   0
Ti0      0.500000000   0.500000000   0.500000000    0   0   0
O1       0.303911878   0.303911878   0.000000000    1   1   0
O1      -0.303911878  -0.303911878   0.000000000    1   1   0
O1       0.803911878   0.196088122   0.500000000    1   1   0
O1       0.196088122   0.803911878   0.500000000    1   1   0

     Check: negative starting charge=(component1):   -0.025452
     NEW-OLD atomic charge density approx. for the potential
     NEW k-points:
        k(    1) = (   0.0000000   0.0000000   0.0000000), wk =   0.0080000
        k(    2) = (   0.0000000   0.0000000   0.3106670), wk =   0.0160000
        k(    3) = (   0.0000000   0.0000000   0.6213340), wk =   0.0160000
        k(    4) = (   0.0000000   0.1998963   0.0000000), wk =   0.0320000
        k(    5) = (   0.0000000   0.1998963   0.3106670), wk =   0.0640000
        k(    6) = (   0.0000000   0.1998963   0.6213340), wk =   0.0640000
        k(    7) = (   0.0000000   0.3997925   0.0000000), wk =   0.0320000
        k(    8) = (   0.0000000   0.3997925   0.3106670), wk =   0.0640000
        k(    9) = (   0.0000000   0.3997925   0.6213340), wk =   0.0640000
        k(   10) = (   0.1998963   0.1998963   0.0000000), wk =   0.0320000
        k(   11) = (   0.1998963   0.1998963   0.3106670), wk =   0.0640000
        k(   12) = (   0.1998963   0.1998963   0.6213340), wk =   0.0640000
        k(   13) = (   0.1998963   0.3997925   0.0000000), wk =   0.0640000
        k(   14) = (   0.1998963   0.3997925   0.3106670), wk =   0.1280000
        k(   15) = (   0.1998963   0.3997925   0.6213340), wk =   0.1280000
        k(   16) = (   0.3997925   0.3997925   0.0000000), wk =   0.0320000
        k(   17) = (   0.3997925   0.3997925   0.3106670), wk =   0.0640000
        k(   18) = (   0.3997925   0.3997925   0.6213340), wk =   0.0640000
        k(   19) = (   0.0000000   0.0000000   0.0000000), wk =   0.0080000
        k(   20) = (   0.0000000   0.0000000   0.3106670), wk =   0.0160000
        k(   21) = (   0.0000000   0.0000000   0.6213340), wk =   0.0160000
        k(   22) = (   0.0000000   0.1998963   0.0000000), wk =   0.0320000
        k(   23) = (   0.0000000   0.1998963   0.3106670), wk =   0.0640000
        k(   24) = (   0.0000000   0.1998963   0.6213340), wk =   0.0640000
        k(   25) = (   0.0000000   0.3997925   0.0000000), wk =   0.0320000
        k(   26) = (   0.0000000   0.3997925   0.3106670), wk =   0.0640000
        k(   27) = (   0.0000000   0.3997925   0.6213340), wk =   0.0640000
        k(   28) = (   0.1998963   0.1998963   0.0000000), wk =   0.0320000
        k(   29) = (   0.1998963   0.1998963   0.3106670), wk =   0.0640000
        k(   30) = (   0.1998963   0.1998963   0.6213340), wk =   0.0640000
        k(   31) = (   0.1998963   0.3997925   0.0000000), wk =   0.0640000
        k(   32) = (   0.1998963   0.3997925   0.3106670), wk =   0.1280000
        k(   33) = (   0.1998963   0.3997925   0.6213340), wk =   0.1280000
        k(   34) = (   0.3997925   0.3997925   0.0000000), wk =   0.0320000
        k(   35) = (   0.3997925   0.3997925   0.3106670), wk =   0.0640000
        k(   36) = (   0.3997925   0.3997925   0.6213340), wk =   0.0640000

     Check: negative/imaginary core charge=   -0.000014    0.000000
     Check: negative starting charge=(component1):   -0.025452

[...]

     Threshold (ethr) on eigenvalues was too large:
     Diagonalizing with lowered threshold

     Davidson diagonalization with overlap
     ethr =  1.49E-09,  avg # of iterations =  1.2

[...]

     Total force =     0.000032     Total SCF correction =     0.000004
     SCF correction compared to forces is large: reduce conv_thr to get better values

[...]

     Volume is kept fixed: isostatic pressure set to zero

     bfgs converged in   4 scf cycles and   3 bfgs steps
     (criteria: energy < 0.10E-03, force < 0.10E-02, cell < 0.50E+00)

     End of BFGS Geometry Optimization

     Final enthalpy =    -366.4963279104 Ry
Begin final coordinates
     new unit-cell volume =    418.39674 a.u.^3 (    62.00000 Ang^3 )

CELL_PARAMETERS (alat=  8.65899730)
   1.000518905   0.000000000   0.000000000
   0.000000000   1.000518905   0.000000000
   0.000000000   0.000000000   0.643776154

ATOMIC_POSITIONS (crystal)
Ti0      0.000000000   0.000000000   0.000000000    0   0   0
Ti0      0.500000000   0.500000000   0.500000000    0   0   0
O1       0.303911878   0.303911878   0.000000000    1   1   0
O1      -0.303911878  -0.303911878   0.000000000    1   1   0
O1       0.803911878   0.196088122   0.500000000    1   1   0
O1       0.196088122   0.803911878   0.500000000    1   1   0
End final coordinates

     A final scf calculation at the relaxed structure.
     The G-vectors are recalculated for the final unit cell
     Results may differ from those at the preceding step.

     bravais-lattice index     =            0
     lattice parameter (alat)  =       8.6590  a.u.
     unit-cell volume          =     418.3967 (a.u.)^3
     number of atoms/cell      =            6
     number of atomic types    =            2
     number of electrons       =        48.00
     number of Kohn-Sham states=           69
     kinetic-energy cutoff     =      40.0000  Ry
     charge density cutoff     =     500.0000  Ry
     convergence threshold     =      1.0E-08
     mixing beta               =       0.7000
     number of iterations used =            8  plain     mixing
     Exchange-correlation      = SLA  PW   PBE  PBE ( 1 4 3 4 0)
     EXX-fraction              =        0.00

     celldm(1)=   8.658997  celldm(2)=   0.000000  celldm(3)=   0.000000
     celldm(4)=   0.000000  celldm(5)=   0.000000  celldm(6)=   0.000000

     crystal axes: (cart. coord. in units of alat)
               a(1) = (   1.000519   0.000000   0.000000 )
               a(2) = (   0.000000   1.000519   0.000000 )
               a(3) = (   0.000000   0.000000   0.643776 )

     reciprocal axes: (cart. coord. in units 2 pi/alat)
               b(1) = (  0.999481  0.000000  0.000000 )
               b(2) = (  0.000000  0.999481  0.000000 )
               b(3) = (  0.000000  0.000000  1.553335 )

     PseudoPot. # 1 for Ti read from file:
     /home/camp/zhonxu/pseudo/ti_pbe_v1.uspp.F.UPF
     MD5 check sum: bcc8f6961b3b91f0cac3ca967d22d0fb
     Pseudo is Ultrasoft + core correction, Zval = 12.0
     Generated by new atomic code, or converted to UPF format
     Using radial grid of  851 points,  6 beta functions with:
                l(1) =   0
                l(2) =   0
                l(3) =   1
                l(4) =   1
                l(5) =   2
                l(6) =   2
     Q(r) pseudized with  6 coefficients,  rinner =    1.000   1.000   1.000
                                                       1.000   1.000

     PseudoPot. # 2 for O  read from file:
     /home/camp/zhonxu/pseudo/o_pbe_v1.01.uspp.F.UPF
     MD5 check sum: 2bcb18d16ea4b960afae9ec6d52f22d2
     Pseudo is Ultrasoft + core correction, Zval =  6.0
     Generated by new atomic code, or converted to UPF format
     Using radial grid of  737 points,  5 beta functions with:
                l(1) =   0
                l(2) =   0
                l(3) =   1
                l(4) =   1
                l(5) =   2
     Q(r) pseudized with  8 coefficients,  rinner =    0.900   0.900   0.900
                                                       0.900   0.900

     atomic species   valence    mass     pseudopotential
        Ti0           12.00    47.88000     Ti( 1.00)
        O1             6.00    15.99940     O ( 1.00)

     Starting magnetic structure
     atomic species   magnetization
        Ti0          0.600
        O1           0.000

     16 Sym. Ops., with inversion, found ( 8 have fractional translation)

   Cartesian axes

     site n.     atom                  positions (alat units)
         1           Ti0 tau(   1) = (   0.0000000   0.0000000   0.0000000  )
         2           Ti0 tau(   2) = (   0.5002595   0.5002595   0.3218881  )
         3           O1  tau(   3) = (   0.3040696   0.3040696   0.0000000  )
         4           O1  tau(   4) = (  -0.3040696  -0.3040696   0.0000000  )
         5           O1  tau(   5) = (   0.8043290   0.1961899   0.3218881  )
         6           O1  tau(   6) = (   0.1961899   0.8043290   0.3218881  )

     number of k points=    36  Methfessel-Paxton smearing, width (Ry)=  0.0100
                       cart. coord. in units 2pi/alat
        k(    1) = (   0.0000000   0.0000000   0.0000000), wk =   0.0080000
        k(    2) = (   0.0000000   0.0000000   0.3106670), wk =   0.0160000
        k(    3) = (   0.0000000   0.0000000   0.6213340), wk =   0.0160000
        k(    4) = (   0.0000000   0.1998963   0.0000000), wk =   0.0320000
        k(    5) = (   0.0000000   0.1998963   0.3106670), wk =   0.0640000
        k(    6) = (   0.0000000   0.1998963   0.6213340), wk =   0.0640000
        k(    7) = (   0.0000000   0.3997925   0.0000000), wk =   0.0320000
        k(    8) = (   0.0000000   0.3997925   0.3106670), wk =   0.0640000
        k(    9) = (   0.0000000   0.3997925   0.6213340), wk =   0.0640000
        k(   10) = (   0.1998963   0.1998963   0.0000000), wk =   0.0320000
        k(   11) = (   0.1998963   0.1998963   0.3106670), wk =   0.0640000
        k(   12) = (   0.1998963   0.1998963   0.6213340), wk =   0.0640000
        k(   13) = (   0.1998963   0.3997925   0.0000000), wk =   0.0640000
        k(   14) = (   0.1998963   0.3997925   0.3106670), wk =   0.1280000
        k(   15) = (   0.1998963   0.3997925   0.6213340), wk =   0.1280000
        k(   16) = (   0.3997925   0.3997925   0.0000000), wk =   0.0320000
        k(   17) = (   0.3997925   0.3997925   0.3106670), wk =   0.0640000
        k(   18) = (   0.3997925   0.3997925   0.6213340), wk =   0.0640000
        k(   19) = (   0.0000000   0.0000000   0.0000000), wk =   0.0080000
        k(   20) = (   0.0000000   0.0000000   0.3106670), wk =   0.0160000
        k(   21) = (   0.0000000   0.0000000   0.6213340), wk =   0.0160000
        k(   22) = (   0.0000000   0.1998963   0.0000000), wk =   0.0320000
        k(   23) = (   0.0000000   0.1998963   0.3106670), wk =   0.0640000
        k(   24) = (   0.0000000   0.1998963   0.6213340), wk =   0.0640000
        k(   25) = (   0.0000000   0.3997925   0.0000000), wk =   0.0320000
        k(   26) = (   0.0000000   0.3997925   0.3106670), wk =   0.0640000
        k(   27) = (   0.0000000   0.3997925   0.6213340), wk =   0.0640000
        k(   28) = (   0.1998963   0.1998963   0.0000000), wk =   0.0320000
        k(   29) = (   0.1998963   0.1998963   0.3106670), wk =   0.0640000
        k(   30) = (   0.1998963   0.1998963   0.6213340), wk =   0.0640000
        k(   31) = (   0.1998963   0.3997925   0.0000000), wk =   0.0640000
        k(   32) = (   0.1998963   0.3997925   0.3106670), wk =   0.1280000
        k(   33) = (   0.1998963   0.3997925   0.6213340), wk =   0.1280000
        k(   34) = (   0.3997925   0.3997925   0.0000000), wk =   0.0320000
        k(   35) = (   0.3997925   0.3997925   0.3106670), wk =   0.0640000
        k(   36) = (   0.3997925   0.3997925   0.6213340), wk =   0.0640000

     Largest allocated arrays     est. size (Mb)     dimensions
     Largest temporary arrays     est. size (Mb)     dimensions

     Check: negative/imaginary core charge=   -0.000014    0.000000

     Initial potential from superposition of free atoms
     Check: negative starting charge=(component1):   -0.020434
     Check: negative starting charge=(component2):   -0.005018

     starting charge   45.99991, renormalised to   48.00000

     negative rho (up, down):  0.213E-01 0.524E-02
     Starting wfc are   36 randomized atomic wfcs

     Self-consistent Calculation

[...]

     total energy              =    -366.49631620 Ry
     Harris-Foulkes estimate   =    -366.49631621 Ry
     estimated scf accuracy    <       0.00000002 Ry

[...]

     iteration # 11     ecut=    40.00 Ry     beta=0.70
     Davidson diagonalization with overlap
     ethr =  4.90E-11,  avg # of iterations =  2.0

     negative rho (up, down):  0.127E-01 0.127E-01

     End of self-consistent calculation

 ------ SPIN UP ------------

[...]

 ------ SPIN DOWN ----------

[...]

          k = 0.3998 0.3998 0.6213 (  1775 PWs)   bands (ev):

   -47.5577 -47.5571 -24.1246 -24.1211 -23.8158 -23.8080 -23.7591 -23.7562
    -7.7366  -7.5994  -7.4741  -7.3323   4.3546   4.5183   4.7179   4.8506
     5.6156   5.8797   6.6755   6.7135   7.6684   7.8289   8.3529   8.5130
    11.6686  12.0773  12.3715  12.4315  12.4907  12.8030  14.6980  15.3093
    15.3235  15.9129  20.9952  21.3140  23.0839  23.7889  24.2425  24.8329
    26.5506  26.6977  27.5935  27.9742  28.8145  29.3443  32.4298  33.3580
    34.4144  34.4459  34.9157  35.6611  38.0697  38.1493  39.7870  40.5665
    41.8620  42.2696  42.7168  43.1846  43.3669  43.9423  44.0904  44.7294
    45.6076  46.3389  47.0418  47.8035  48.0821

     the Fermi energy is     9.3529 ev

!    total energy              =    -366.49631621 Ry
     Harris-Foulkes estimate   =    -366.49631621 Ry
     estimated scf accuracy    <          5.1E-10 Ry

     The total energy is the sum of the following terms:

     one-electron contribution =    -123.78945067 Ry
     hartree contribution      =      85.65439109 Ry
     xc contribution           =     -63.35056076 Ry
     ewald contribution        =    -265.01071737 Ry
     smearing contrib. (-TS)   =       0.00002150 Ry

     total magnetization       =     0.00 Bohr mag/cell
     absolute magnetization    =     0.00 Bohr mag/cell

     convergence has been achieved in  11 iterations

     Forces acting on atoms (Ry/au):

     negative rho (up, down):  0.127E-01 0.127E-01
     atom    1 type  1   force =     0.00000000    0.00000000    0.00000000
     atom    2 type  1   force =     0.00000000    0.00000000    0.00000000
     atom    3 type  2   force =     0.00000989    0.00000989    0.00000000
     atom    4 type  2   force =    -0.00000989   -0.00000989   -0.00000000
     atom    5 type  2   force =     0.00000989   -0.00000989    0.00000000
     atom    6 type  2   force =    -0.00000989    0.00000989    0.00000000

     Total force =     0.000028     Total SCF correction =     0.000005
     SCF correction compared to forces is large: reduce conv_thr to get better values

     entering subroutine stress ...

     negative rho (up, down):  0.127E-01 0.127E-01
          total   stress  (Ry/bohr**3)                   (kbar)     P=   58.85
   0.00040085   0.00000000   0.00000000         58.97      0.00      0.00
   0.00000000   0.00040085   0.00000000          0.00     58.97      0.00
   0.00000000   0.00000000   0.00039846          0.00      0.00     58.62

     General routines

     Parallel routines

   This run was terminated on:  18:27: 8  23Jan2014

   JOB DONE.