     Program PWSCF v.5.0.2 (svn rev. 9656) starts on  2May2014 at  0:26:35

     Current dimensions of program PWSCF are:
     Max number of different atomic species (ntypx) = 10
     Max number of k-points (npk) =  40000
     Max angular momentum in pseudopotentials (lmaxx) =  3
     Reading input from pwscf.in
Warning: card &CELL ignored
Warning: card / ignored

     Subspace diagonalization in iterative solution of the eigenvalue problem:
     a serial algorithm will be used

     bravais-lattice index     =            0
     lattice parameter (alat)  =      10.1289  a.u.
     unit-cell volume          =    6836.7721 (a.u.)^3
     number of atoms/cell      =           32
     number of atomic types    =            3
     number of electrons       =       239.00
     number of Kohn-Sham states=          358
     kinetic-energy cutoff     =      40.0000  Ry
     charge density cutoff     =     500.0000  Ry
     convergence threshold     =      1.0E-06
     mixing beta               =       0.7000
     number of iterations used =            8  plain     mixing
     Exchange-correlation      = SLA  PW   PBE  PBE ( 1 4 3 4 0)
     EXX-fraction              =        0.00
     nstep                     =           50

     celldm(1)=  10.128932  celldm(2)=   0.000000  celldm(3)=   0.000000
     celldm(4)=   0.000000  celldm(5)=   0.000000  celldm(6)=   0.000000

     crystal axes: (cart. coord. in units of alat)
               a(1) = (   1.000000   0.000000   0.000000 )
               a(2) = (   0.000000   1.306037   0.000000 )
               a(3) = (   0.000000   0.000000   5.037380 )

     reciprocal axes: (cart. coord. in units 2 pi/alat)
               b(1) = (  1.000000  0.000000  0.000000 )
               b(2) = (  0.000000  0.765675  0.000000 )
               b(3) = (  0.000000  0.000000  0.198516 )

     PseudoPot. # 1 for O  read from file:
     /home/camp/zhonxu/pseudo/o_pbe_v1.01.uspp.F.UPF
     MD5 check sum: 2bcb18d16ea4b960afae9ec6d52f22d2
     Pseudo is Ultrasoft + core correction, Zval =  6.0
     Generated by new atomic code, or converted to UPF format
     Using radial grid of  737 points,  5 beta functions with:
                l(1) =   0
                l(2) =   0
                l(3) =   1
                l(4) =   1
                l(5) =   2
     Q(r) pseudized with  8 coefficients,  rinner =    0.900   0.900   0.900
                                                       0.900   0.900

     PseudoPot. # 2 for Re read from file:
     /home/camp/zhonxu/pseudo/re_pbe_v1.uspp.F.UPF
     MD5 check sum: 6f5a5dcaf9c96c20d0ffdde0de57afc6
     Pseudo is Ultrasoft + core correction, Zval = 15.0
     Generated by new atomic code, or converted to UPF format
     Using radial grid of  981 points,  8 beta functions with:
                l(1) =   0
                l(2) =   0
                l(3) =   1
                l(4) =   1
                l(5) =   2
                l(6) =   2
                l(7) =   3
                l(8) =   3
     Q(r) pseudized with  8 coefficients,  rinner =    1.000   1.000   1.000
                                                       1.000   1.000   1.000
                                                       1.000

     PseudoPot. # 3 for H  read from file:
     /home/camp/zhonxu/pseudo/h_pbe_v1.uspp.F.UPF
     MD5 check sum: 3408e3ff4ec8b0a4e358431e7e038a48
     Pseudo is Ultrasoft, Zval =  1.0
     Generated by new atomic code, or converted to UPF format
     Using radial grid of  615 points,  2 beta functions with:
                l(1) =   0
                l(2) =   0
     Q(r) pseudized with  8 coefficients,  rinner =    0.700

     atomic species   valence    mass     pseudopotential
        O0             6.00    15.99940     O ( 1.00)
        Re1           15.00   186.20700     Re( 1.00)
        H2             1.00     1.00794     H ( 1.00)

     Simplified LDA+U calculation (l_max = 2) with parameters (eV):
     atomic species    L          U    alpha       J0     beta
        Re1            2     3.0000   0.0000   0.0000   0.0000

     No symmetry found

   Cartesian axes

     site n.     atom                  positions (alat units)
         1           O0  tau(   1) = (   0.0000000   0.0000000   1.8669538  )
         2           O0  tau(   2) = (   0.0000000   0.6530184   1.9246318  )
         3           Re1 tau(   3) = (   0.2500000   0.6530184   2.2252626  )
         4           Re1 tau(   4) = (   0.0000000   0.0000000   2.2335239  )
         5           O0  tau(   5) = (   0.2500000   1.0187087   2.2252626  )
         6           O0  tau(   6) = (   0.2500000   0.2873281   2.2245574  )
         7           O0  tau(   7) = (   0.0000000   0.6530184   2.5039809  )
         8           O0  tau(   8) = (   0.0000000   0.0000000   2.5944019  )
         9           Re1 tau(   9) = (   0.2500000   0.0000000   2.8956372  )
        10           Re1 tau(  10) = (   0.0000000   0.6530184   2.8532728  )
        11           O0  tau(  11) = (   0.2500000   0.9403465   2.8863684  )
        12           O0  tau(  12) = (   0.2500000   0.3656903   2.8866706  )
        13           O0  tau(  13) = (   0.0000000   0.0000000   3.1589410  )
        14           O0  tau(  14) = (   0.5000000   0.0000000   1.8671553  )
        15           O0  tau(  15) = (   0.5000000   0.6530184   1.9260926  )
        16           Re1 tau(  16) = (   0.7500000   0.6530184   2.2254138  )
        17           Re1 tau(  17) = (   0.5000000   0.0000000   2.2327683  )
        18           O0  tau(  18) = (   0.7500000   1.0187087   2.2250108  )
        19           O0  tau(  19) = (   0.7500000   0.2873281   2.2249100  )
        20           O0  tau(  20) = (   0.5000000   0.6530184   2.5136527  )
        21           O0  tau(  21) = (   0.5000000   0.0000000   2.5937470  )
        22           Re1 tau(  22) = (   0.7500000   0.0000000   2.8949319  )
        23           Re1 tau(  23) = (   0.5000000   0.6530184   2.8846557  )
        24           O0  tau(  24) = (   0.7500000   0.9403465   2.8822881  )
        25           O0  tau(  25) = (   0.7500000   0.3656903   2.8822881  )
        26           O0  tau(  26) = (   0.5000000   0.0000000   3.1556667  )
        27           H2  tau(  27) = (  -0.0003600   0.8163644   1.8395505  )
        28           H2  tau(  28) = (   0.4996200   0.8138568   1.8363769  )
        29           H2  tau(  29) = (   0.1695000   0.0302217   1.7958260  )
        30           H2  tau(  30) = (   0.6704500   0.0285761   1.7967327  )
        31           O0  tau(  31) = (   0.5277600   0.6525874   3.2436194  )
        32           H2  tau(  32) = (   0.3788200   0.6519344   3.3501096  )

     number of k points=    10  Methfessel-Paxton smearing, width (Ry)=  0.0100
                       cart. coord. in units 2pi/alat
        k(    1) = (   0.0000000   0.0000000   0.0000000), wk =   0.1250000
        k(    2) = (   0.0000000   0.1914188   0.0000000), wk =   0.2500000
        k(    3) = (   0.0000000  -0.3828376   0.0000000), wk =   0.1250000
        k(    4) = (   0.2500000   0.0000000   0.0000000), wk =   0.2500000
        k(    5) = (   0.2500000   0.1914188   0.0000000), wk =   0.2500000
        k(    6) = (   0.2500000  -0.3828376   0.0000000), wk =   0.2500000
        k(    7) = (  -0.5000000   0.0000000   0.0000000), wk =   0.1250000
        k(    8) = (  -0.5000000   0.1914188   0.0000000), wk =   0.2500000
        k(    9) = (  -0.5000000  -0.3828376   0.0000000), wk =   0.1250000
        k(   10) = (  -0.2500000   0.1914188   0.0000000), wk =   0.2500000

     Largest allocated arrays     est. size (Mb)     dimensions
     Largest temporary arrays     est. size (Mb)     dimensions

     Check: negative/imaginary core charge=   -0.000003    0.000000

     Initial potential from superposition of free atoms
     Check: negative starting charge=   -0.237247

     starting charge  234.99957, renormalised to  239.00000

     negative rho (up, down):  0.241E+00 0.000E+00
     Number of +U iterations with fixed ns =  0
     Starting occupations:
 --- enter write_ns ---
 LDA+U parameters:
U( 2)     =  3.00000000
alpha( 2) =  0.00000000
atom    3   Tr[ns(na)] =   5.00000
    eigenvalues:
  0.500  0.500  0.500  0.500  0.500
    eigenvectors:
  1.000  0.000  0.000  0.000  0.000
  0.000  1.000  0.000  0.000  0.000
  0.000  0.000  1.000  0.000  0.000
  0.000  0.000  0.000  1.000  0.000
  0.000  0.000  0.000  0.000  1.000
    occupations:
  0.500  0.000  0.000  0.000  0.000
  0.000  0.500  0.000  0.000  0.000
  0.000  0.000  0.500  0.000  0.000
  0.000  0.000  0.000  0.500  0.000
  0.000  0.000  0.000  0.000  0.500
atom    4   Tr[ns(na)] =   5.00000
    eigenvalues:
  0.500  0.500  0.500  0.500  0.500
    eigenvectors:
  1.000  0.000  0.000  0.000  0.000
  0.000  1.000  0.000  0.000  0.000
  0.000  0.000  1.000  0.000  0.000
  0.000  0.000  0.000  1.000  0.000
  0.000  0.000  0.000  0.000  1.000
    occupations:
  0.500  0.000  0.000  0.000  0.000
  0.000  0.500  0.000  0.000  0.000
  0.000  0.000  0.500  0.000  0.000
  0.000  0.000  0.000  0.500  0.000
  0.000  0.000  0.000  0.000  0.500
atom    9   Tr[ns(na)] =   5.00000
    eigenvalues:
  0.500  0.500  0.500  0.500  0.500
    eigenvectors:
  1.000  0.000  0.000  0.000  0.000
  0.000  1.000  0.000  0.000  0.000
  0.000  0.000  1.000  0.000  0.000
  0.000  0.000  0.000  1.000  0.000
  0.000  0.000  0.000  0.000  1.000
    occupations:
  0.500  0.000  0.000  0.000  0.000
  0.000  0.500  0.000  0.000  0.000
  0.000  0.000  0.500  0.000  0.000
  0.000  0.000  0.000  0.500  0.000
  0.000  0.000  0.000  0.000  0.500
atom   10   Tr[ns(na)] =   5.00000
    eigenvalues:
  0.500  0.500  0.500  0.500  0.500
    eigenvectors:
  1.000  0.000  0.000  0.000  0.000
  0.000  1.000  0.000  0.000  0.000
  0.000  0.000  1.000  0.000  0.000
  0.000  0.000  0.000  1.000  0.000
  0.000  0.000  0.000  0.000  1.000
    occupations:
  0.500  0.000  0.000  0.000  0.000
  0.000  0.500  0.000  0.000  0.000
  0.000  0.000  0.500  0.000  0.000
  0.000  0.000  0.000  0.500  0.000
  0.000  0.000  0.000  0.000  0.500
atom   16   Tr[ns(na)] =   5.00000
    eigenvalues:
  0.500  0.500  0.500  0.500  0.500
    eigenvectors:
  1.000  0.000  0.000  0.000  0.000
  0.000  1.000  0.000  0.000  0.000
  0.000  0.000  1.000  0.000  0.000
  0.000  0.000  0.000  1.000  0.000
  0.000  0.000  0.000  0.000  1.000
    occupations:
  0.500  0.000  0.000  0.000  0.000
  0.000  0.500  0.000  0.000  0.000
  0.000  0.000  0.500  0.000  0.000
  0.000  0.000  0.000  0.500  0.000
  0.000  0.000  0.000  0.000  0.500
atom   17   Tr[ns(na)] =   5.00000
    eigenvalues:
  0.500  0.500  0.500  0.500  0.500
    eigenvectors:
  1.000  0.000  0.000  0.000  0.000
  0.000  1.000  0.000  0.000  0.000
  0.000  0.000  1.000  0.000  0.000
  0.000  0.000  0.000  1.000  0.000
  0.000  0.000  0.000  0.000  1.000
    occupations:
  0.500  0.000  0.000  0.000  0.000
  0.000  0.500  0.000  0.000  0.000
  0.000  0.000  0.500  0.000  0.000
  0.000  0.000  0.000  0.500  0.000
  0.000  0.000  0.000  0.000  0.500
atom   22   Tr[ns(na)] =   5.00000
    eigenvalues:
  0.500  0.500  0.500  0.500  0.500
    eigenvectors:
  1.000  0.000  0.000  0.000  0.000
[...]
 -0.020 -0.000  0.001  0.775 -0.000
  0.001 -0.002 -0.000 -0.000  0.567
atom    9   Tr[ns(na)] =   6.55285
    eigenvalues:
  0.594  0.606  0.609  0.715  0.753
    eigenvectors:
  0.256  0.000  0.000  0.001  0.743
  0.000  0.999  0.000  0.000  0.000
  0.000  0.000  0.993  0.007  0.000
  0.744  0.000  0.000  0.000  0.256
  0.000  0.000  0.007  0.992  0.001
    occupations:
  0.712 -0.000 -0.001 -0.069  0.001
 -0.000  0.606  0.000  0.000  0.000
 -0.001  0.000  0.610  0.000 -0.009
 -0.069  0.000  0.000  0.634 -0.001
  0.001  0.000 -0.009 -0.001  0.714
atom   10   Tr[ns(na)] =   6.51877
    eigenvalues:
  0.487  0.536  0.646  0.757  0.833
    eigenvectors:
  0.998  0.000  0.000  0.002  0.000
  0.000  0.000  0.000  0.000  0.999
  0.000  0.000  1.000  0.000  0.000
  0.002  0.000  0.000  0.998  0.000
  0.000  1.000  0.000  0.000  0.000
    occupations:
  0.487 -0.008 -0.000 -0.011 -0.000
 -0.008  0.833  0.000 -0.001  0.001
 -0.000  0.000  0.646 -0.000  0.000
 -0.011 -0.001 -0.000  0.757 -0.000
 -0.000  0.001  0.000 -0.000  0.536
atom   16   Tr[ns(na)] =   6.58001
    eigenvalues:
  0.540  0.569  0.621  0.767  0.795
    eigenvectors:
  0.000  0.353  0.004  0.642  0.001
  0.999  0.000  0.000  0.000  0.001
  0.000  0.001  0.990  0.009  0.000
  0.000  0.647  0.006  0.347  0.000
  0.001  0.000  0.000  0.001  0.998
    occupations:
  0.696  0.003  0.012 -0.094 -0.001
  0.003  0.540 -0.001 -0.002 -0.008
  0.012 -0.001  0.622 -0.007  0.002
 -0.094 -0.002 -0.007  0.638  0.001
 -0.001 -0.008  0.002  0.001  0.794
atom   17   Tr[ns(na)] =   6.54556
    eigenvalues:
  0.568  0.607  0.608  0.708  0.782
    eigenvectors:
  0.000  0.025  0.961  0.001  0.013
  0.000  0.004  0.002  0.994  0.000
  0.000  0.970  0.025  0.005  0.000
  0.000  0.001  0.012  0.000  0.987
  1.000  0.000  0.000  0.000  0.000
    occupations:
  0.611  0.003  0.000 -0.020  0.000
  0.003  0.707  0.007 -0.000 -0.002
  0.000  0.007  0.607  0.001 -0.000
 -0.020 -0.000  0.001  0.780 -0.000
  0.000 -0.002 -0.000 -0.000  0.568
atom   22   Tr[ns(na)] =   6.55062
    eigenvalues:
  0.593  0.605  0.606  0.715  0.756
    eigenvectors:
  0.257  0.000  0.000  0.003  0.739
  0.000  0.952  0.048  0.000  0.000
  0.000  0.048  0.949  0.004  0.000
  0.742  0.000  0.000  0.001  0.256
  0.000  0.000  0.004  0.992  0.004
    occupations:
  0.714  0.001 -0.001 -0.071  0.002
  0.001  0.605  0.000 -0.000  0.000
 -0.001  0.000  0.606  0.001  0.007
 -0.071 -0.000  0.001  0.635 -0.001
  0.002  0.000  0.007 -0.001  0.714
atom   23   Tr[ns(na)] =   6.54554
    eigenvalues:
  0.538  0.555  0.596  0.788  0.797
    eigenvectors:
  0.000  0.000  0.994  0.005  0.001
  0.000  0.000  0.001  0.015  0.984
  0.995  0.005  0.000  0.000  0.000
  0.000  0.000  0.004  0.980  0.016
  0.005  0.995  0.000  0.000  0.000
    occupations:
  0.597  0.007 -0.001 -0.013  0.000
  0.007  0.796  0.000  0.002  0.002
 -0.001  0.000  0.538  0.001 -0.001
 -0.013  0.002  0.001  0.787 -0.000
  0.000  0.002 -0.001 -0.000  0.555
N of occupied +U levels =  52.4263095
 --- exit write_ns ---

     Threshold (ethr) on eigenvalues was too large:
     Diagonalizing with lowered threshold

     Davidson diagonalization with overlap
     ethr =  4.35E-09,  avg # of iterations =  2.1

[...]

     total energy              =   -2174.62484437 Ry
     Harris-Foulkes estimate   =   -2174.62484437 Ry
     estimated scf accuracy    <       0.00000006 Ry

     iteration # 14     ecut=    40.00 Ry     beta=0.70
     Davidson diagonalization with overlap
     ethr =  1.67E-11,  avg # of iterations =  1.0

     negative rho (up, down):  0.242E+00 0.000E+00

     End of self-consistent calculation
 --- enter write_ns ---
 LDA+U parameters:
U( 2)     =  3.00000000
alpha( 2) =  0.00000000
atom    3   Tr[ns(na)] =   6.57992
    eigenvalues:
  0.540  0.569  0.618  0.767  0.796
    eigenvectors:
  0.000  0.351  0.004  0.643  0.000
  0.999  0.000  0.000  0.000  0.001
  0.000  0.000  0.990  0.010  0.000
  0.000  0.648  0.006  0.346  0.000
  0.001  0.000  0.000  0.001  0.998
    occupations:
  0.697 -0.003  0.012 -0.094  0.001
 -0.003  0.540  0.001  0.002 -0.008
  0.012  0.001  0.619 -0.008 -0.002
 -0.094  0.002 -0.008  0.638 -0.000
  0.001 -0.008 -0.002 -0.000  0.795
atom    4   Tr[ns(na)] =   6.55366
    eigenvalues:
  0.567  0.605  0.616  0.712  0.777
    eigenvectors:
  0.000  0.985  0.000  0.001  0.014
  0.000  0.001  0.007  0.992  0.000
  0.000  0.001  0.992  0.007  0.000
  0.000  0.014  0.000  0.000  0.986
  1.000  0.000  0.000  0.000  0.000
    occupations:
  0.608  0.003  0.000 -0.020  0.001
  0.003  0.711  0.008 -0.000 -0.002
  0.000  0.008  0.616  0.001 -0.000
 -0.020 -0.000  0.001  0.775 -0.000
  0.001 -0.002 -0.000 -0.000  0.567
atom    9   Tr[ns(na)] =   6.55238
    eigenvalues:
  0.594  0.606  0.609  0.714  0.753
    eigenvectors:
  0.256  0.000  0.000  0.001  0.743
  0.000  0.999  0.000  0.000  0.000
  0.000  0.000  0.993  0.007  0.000
  0.744  0.000  0.000  0.000  0.256
  0.000  0.000  0.007  0.992  0.001
    occupations:
  0.712 -0.000 -0.001 -0.069  0.001
 -0.000  0.606  0.000  0.000  0.000
 -0.001  0.000  0.610  0.000 -0.009
 -0.069  0.000  0.000  0.634 -0.001
  0.001  0.000 -0.009 -0.001  0.714
atom   10   Tr[ns(na)] =   6.51841
    eigenvalues:
  0.487  0.536  0.646  0.757  0.833
    eigenvectors:
  0.998  0.000  0.000  0.002  0.000
  0.000  0.000  0.000  0.000  0.999
  0.000  0.000  1.000  0.000  0.000
  0.002  0.000  0.000  0.998  0.000
  0.000  1.000  0.000  0.000  0.000
    occupations:
  0.487 -0.008 -0.000 -0.011 -0.000
 -0.008  0.833  0.000 -0.001  0.001
 -0.000  0.000  0.646 -0.000  0.000
 -0.011 -0.001 -0.000  0.757 -0.000
 -0.000  0.001  0.000 -0.000  0.536
atom   16   Tr[ns(na)] =   6.58084
    eigenvalues:
  0.540  0.569  0.621  0.767  0.795
    eigenvectors:
  0.000  0.353  0.004  0.642  0.001
  0.999  0.000  0.000  0.000  0.001
  0.000  0.001  0.990  0.009  0.000
  0.000  0.647  0.006  0.347  0.000
  0.001  0.000  0.000  0.001  0.998
    occupations:
  0.696  0.003  0.012 -0.094 -0.001
  0.003  0.540 -0.001 -0.002 -0.008
  0.012 -0.001  0.622 -0.007  0.002
 -0.094 -0.002 -0.007  0.638  0.001
 -0.001 -0.008  0.002  0.001  0.794
atom   17   Tr[ns(na)] =   6.54556
    eigenvalues:
  0.568  0.607  0.608  0.708  0.782
    eigenvectors:
  0.000  0.028  0.958  0.001  0.013
  0.000  0.004  0.002  0.994  0.000
  0.000  0.967  0.028  0.005  0.000
  0.000  0.001  0.012  0.000  0.987
  1.000  0.000  0.000  0.000  0.000
    occupations:
  0.611  0.003  0.000 -0.020  0.000
  0.003  0.707  0.007 -0.000 -0.002
  0.000  0.007  0.607  0.001 -0.000
 -0.020 -0.000  0.001  0.780 -0.000
  0.000 -0.002 -0.000 -0.000  0.568
atom   22   Tr[ns(na)] =   6.55049
    eigenvalues:
  0.593  0.605  0.606  0.715  0.756
    eigenvectors:
  0.257  0.000  0.000  0.003  0.739
  0.000  0.951  0.049  0.000  0.000
  0.000  0.049  0.947  0.004  0.000
  0.742  0.000  0.000  0.001  0.256
  0.000  0.000  0.004  0.992  0.004
    occupations:
  0.714  0.001 -0.001 -0.071  0.002
  0.001  0.605  0.000 -0.000  0.000
 -0.001  0.000  0.606  0.001  0.007
 -0.071 -0.000  0.001  0.635 -0.001
  0.002  0.000  0.007 -0.001  0.714
atom   23   Tr[ns(na)] =   6.54447
    eigenvalues:
  0.538  0.555  0.596  0.788  0.797
    eigenvectors:
  0.000  0.000  0.994  0.005  0.001
  0.000  0.000  0.001  0.015  0.983
  0.995  0.005  0.000  0.000  0.000
  0.000  0.000  0.004  0.980  0.016
  0.005  0.995  0.000  0.000  0.000
    occupations:
  0.597  0.007 -0.001 -0.013  0.000
  0.007  0.796  0.000  0.002  0.002
 -0.001  0.000  0.538  0.001 -0.001
 -0.013  0.002  0.001  0.787 -0.000
  0.000  0.002 -0.001 -0.000  0.555
N of occupied +U levels =  52.4257245
 --- exit write_ns ---

[...]

          k = 0.2500-0.3828 0.0000 ( 29202 PWs)   bands (ev):

[...]

          k =-0.2500 0.1914 0.0000 ( 29229 PWs)   bands (ev):

   -81.1806 -81.0878 -80.9647 -80.9244 -80.9122 -80.5998 -80.5737 -80.5606
   -43.2509 -43.1216 -43.1102 -43.0863 -43.0048 -42.9971 -42.9608 -42.9552
   -42.9112 -42.8374 -42.8105 -42.7717 -42.7078 -42.7038 -42.6316 -42.6289
   -42.5908 -42.5709 -42.5626 -42.5173 -42.4754 -42.4555 -42.1315 -42.0440
   -20.8010 -20.3541 -20.2891 -20.1719 -20.0884 -19.8286 -19.7742 -19.7304
   -19.5730 -19.5585 -19.4247 -19.3434 -19.2731 -19.1009 -19.0659 -19.0222
   -18.9033 -18.3483 -18.0656  -9.0192  -8.7538  -8.6631  -8.6442  -8.5374
    -8.3333  -8.2998  -8.1804  -8.0710  -7.9634  -7.8568  -7.7964  -7.5617
    -7.3966  -7.3497  -7.0471  -6.8752  -6.7362  -6.6366  -6.5593  -6.5041
    -6.3794  -6.1097  -6.0163  -5.8249  -5.7593  -5.7070  -5.5299  -5.4548
    -5.3449  -5.1566  -4.9950  -4.9692  -4.8640  -4.7970  -4.7617  -4.7137
    -4.6124  -4.5645  -4.4869  -4.3735  -4.1413  -3.9685  -3.8877  -3.7973
    -3.7204  -3.6342  -3.5678  -3.3835  -3.3418  -3.2783  -3.1831  -3.0598
    -2.8316  -2.7452  -2.6651  -2.5209  -2.2398  -2.0585  -1.9741  -1.2063
    -1.0103  -0.9634  -0.8215  -0.1462  -0.0754   0.3415   0.4304   0.5667
     0.6580   0.8227   0.8950   1.1515   1.3494   1.4207   1.5345   1.5746
     1.7282   1.8449   1.8854   2.1812   2.4640   3.7237   3.7520   3.8556
     3.9066   4.0695   4.1340   4.3886   4.5680   4.6427   4.7966   4.9349
     4.9926   5.2382   5.3491   5.6419   5.8686   5.9503   6.1251   6.3165
     6.4718   6.5507   6.7272   6.8694   7.0023   7.1208   7.3000   7.5310
     7.6928   7.7641   7.9402   8.0945   8.2673   8.3780   8.4910   8.5844
     8.6523   8.7330   8.9686   9.0325   9.1300   9.3855   9.4205   9.5954
     9.6419   9.6879   9.8249   9.9019   9.9362   9.9906  10.1022  10.2099
    10.2390  10.3665  10.3998  10.4802  10.5629  10.7329  10.7672  10.8709
    11.0060  11.1176  11.1926  11.2935  11.4595  11.5730  11.6819  11.7393
    11.8185  11.9416  12.0431  12.2145  12.3417  12.4836  12.5910  12.6130
    12.6675  12.7671  12.8081  12.8913  12.9487  13.0404  13.0992  13.2295
    13.2889  13.4199  13.5090  13.6426  13.6767  13.7506  13.8244  13.8769
    13.9475  13.9639  14.0509  14.1048  14.1389  14.2539  14.3499  14.4061
    14.4943  14.5280  14.5822  14.6810  14.7102  14.7918  14.8564  14.9033
    14.9581  14.9890  15.0152  15.0926  15.1422  15.2150  15.3124  15.4324
    15.5317  15.6165  15.6464  15.7356  15.8419  15.9504  16.0742  16.1492
    16.1825  16.2409  16.3168  16.4715  16.5421  16.5863  16.6048  16.7021
    16.7853  16.8763  16.9524  17.0225  17.1140  17.2064  17.2658  17.2799
    17.3605  17.4942  17.6084  17.6599  17.7292  17.7920  17.8312  17.9505
    17.9858  18.0276  18.1299  18.1972  18.2691  18.2927  18.4054  18.4725
    18.5443  18.5881  18.6460  18.7029  18.7668  18.8610  18.9233  19.0436
    19.0949  19.2284  19.3149  19.3712  19.4823  19.5617  19.6289  19.6831
    19.7559  19.8437  19.9485  20.0224  20.1544  20.2020  20.2591  20.3335
    20.4658  20.5210  20.5907  20.6329  20.6910  20.7657  20.7970  20.8440
    20.8915  20.9568  20.9793  21.1124  21.1576  21.1963  21.2502  21.3256
    21.4032  21.4686  21.5168  21.6176  21.6568  21.7127  21.7744  21.8464
    21.9354  21.9977  22.0874  22.1358  22.2197  22.2546  22.3299  22.3451
    22.4008  22.4416  22.4973  22.5419  22.6245  22.6630  22.6998  22.7330
    22.8012  22.8507  22.8807  22.9506  22.9819  23.0832

     the Fermi energy is     0.4798 ev

!    total energy              =   -2174.62484437 Ry
     Harris-Foulkes estimate   =   -2174.62484437 Ry
     estimated scf accuracy    <          8.9E-09 Ry

     The total energy is the sum of the following terms:

     one-electron contribution =  -24297.25064451 Ry
     hartree contribution      =   12167.11817968 Ry
     xc contribution           =    -595.08507593 Ry
     ewald contribution        =   10548.68032047 Ry
     Hubbard energy            =       1.91222972 Ry
     smearing contrib. (-TS)   =       0.00014621 Ry

     convergence has been achieved in  14 iterations

     Forces acting on atoms (Ry/au):

     negative rho (up, down):  0.242E+00 0.000E+00
     atom    1 type  1   force =    -0.00621922   -0.00681553   -0.00016243
     atom    2 type  1   force =     0.00009189    0.00506058   -0.00034242
     atom    3 type  2   force =     0.03056044   -0.00372371    0.00012727
     atom    4 type  2   force =     0.00173358    0.00698556   -0.00000960
     atom    5 type  1   force =     0.00263709    0.00833927    0.00014690
     atom    6 type  1   force =     0.00110943   -0.00835466    0.00020575
     atom    7 type  1   force =     0.00354148   -0.00005862    0.00061752
     atom    8 type  1   force =     0.00330555   -0.00179639   -0.00039793
     atom    9 type  2   force =    -0.02666600    0.00192629    0.00006258
     atom   10 type  2   force =    -0.00793820   -0.00098943    0.00025218
     atom   11 type  1   force =    -0.00702949   -0.00335083   -0.00005530
     atom   12 type  1   force =    -0.00707247    0.00387787   -0.00006372
     atom   13 type  1   force =    -0.00030144   -0.00021371    0.00024160
     atom   14 type  1   force =    -0.00255880   -0.00592589    0.00011151
     atom   15 type  1   force =     0.00023425    0.00355293   -0.00052475
     atom   16 type  2   force =    -0.03126295   -0.00353390    0.00011921
     atom   17 type  2   force =     0.00136754    0.00727749   -0.00007004
     atom   18 type  1   force =     0.00102556    0.00869067    0.00016305
     atom   19 type  1   force =    -0.00078815   -0.00874191    0.00022224
     atom   20 type  1   force =    -0.00256715   -0.00177419    0.00008584
     atom   21 type  1   force =     0.00172421   -0.00153989   -0.00021640
     atom   22 type  2   force =     0.02226831    0.00196769    0.00020675
     atom   23 type  2   force =     0.00083872   -0.00061532    0.00014767
     atom   24 type  1   force =     0.01029322   -0.00173946   -0.00008915
     atom   25 type  1   force =     0.01022746    0.00175993   -0.00008209
     atom   26 type  1   force =     0.00072610   -0.00087276    0.00001169
     atom   27 type  3   force =     0.00000161    0.00035795    0.00007368
     atom   28 type  3   force =    -0.00001300    0.00033672   -0.00025578
     atom   29 type  3   force =     0.00041664    0.00014165    0.00026984
     atom   30 type  3   force =     0.00034938   -0.00010757    0.00035272
     atom   31 type  1   force =    -0.00000445   -0.00002142   -0.00073725
     atom   32 type  3   force =    -0.00003115   -0.00009943   -0.00041114

     Total force =     0.001725     Total SCF correction =     0.000241
     SCF correction compared to forces is large: reduce conv_thr to get better values

     bfgs converged in   8 scf cycles and   7 bfgs steps
     (criteria: energy < 0.10E-03, force < 0.10E-02)

     End of BFGS Geometry Optimization

     Final energy   =   -2174.6248443656 Ry
Begin final coordinates

ATOMIC_POSITIONS (crystal)
O0       0.000000000   0.000000000   0.371147578    0   0   1
O0       0.000000000   0.500000000   0.382309438    0   0   1
Re1      0.250000000   0.500000000   0.441908557    0   0   1
Re1      0.000000000   0.000000000   0.443651524    0   0   1
O0       0.250000000   0.780000000   0.442013918    0   0   1
O0       0.250000000   0.220000000   0.441778153    0   0   1
O0       0.000000000   0.500000000   0.496905873    0   0   1
O0       0.000000000   0.000000000   0.514779546    0   0   1
Re1      0.250000000   0.000000000   0.574736770    0   0   1
Re1      0.000000000   0.500000000   0.565852797    0   0   1
O0       0.250000000   0.720000000   0.572598883    0   0   1
O0       0.250000000   0.280000000   0.572704125    0   0   1
O0       0.000000000   0.000000000   0.626946444    0   0   1
O0       0.500000000   0.000000000   0.371123325    0   0   1
O0       0.500000000   0.500000000   0.382768212    0   0   1
Re1      0.750000000   0.500000000   0.441913668    0   0   1
Re1      0.500000000   0.000000000   0.443358362    0   0   1
O0       0.750000000   0.780000000   0.441936084    0   0   1
O0       0.750000000   0.220000000   0.441862291    0   0   1
O0       0.500000000   0.500000000   0.499212567    0   0   1
O0       0.500000000   0.000000000   0.514619011    0   0   1
Re1      0.750000000   0.000000000   0.574513605    0   0   1
Re1      0.500000000   0.500000000   0.572700941    0   0   1
O0       0.750000000   0.720000000   0.571844739    0   0   1
O0       0.750000000   0.280000000   0.571824975    0   0   1
O0       0.500000000   0.000000000   0.626230338    0   0   1
H2      -0.000340718   0.624687090   0.365308237
H2       0.499592534   0.622259163   0.364638482
H2       0.168582113   0.023137814   0.356620922
H2       0.669925617   0.021575385   0.356829257
O0       0.527698480   0.499594987   0.643570889
H2       0.378961226   0.499062554   0.664820488
End final coordinates

     General routines

     Parallel routines
     Hubbard U routines

   This run was terminated on:  11: 4:41   2May2014

   JOB DONE.