     Program PWSCF v.5.0.2 (svn rev. 9656) starts on 28Apr2014 at 14:34:10

     Current dimensions of program PWSCF are:
     Max number of different atomic species (ntypx) = 10
     Max number of k-points (npk) =  40000
     Max angular momentum in pseudopotentials (lmaxx) =  3
     Reading input from pwscf.in
Warning: card &CELL ignored
Warning: card / ignored

     Subspace diagonalization in iterative solution of the eigenvalue problem:
     a serial algorithm will be used

     bravais-lattice index     =            0
     lattice parameter (alat)  =      11.2250  a.u.
     unit-cell volume          =    7005.5484 (a.u.)^3
     number of atoms/cell      =           31
     number of atomic types    =            3
     number of electrons       =       214.00
     number of Kohn-Sham states=          309
     kinetic-energy cutoff     =      40.0000  Ry
     charge density cutoff     =     500.0000  Ry
     convergence threshold     =      1.0E-06
     mixing beta               =       0.7000
     number of iterations used =            8  plain     mixing
     Exchange-correlation      = SLA  PW   PBE  PBE ( 1 4 3 4 0)
     EXX-fraction              =        0.00
     nstep                     =           50

     celldm(1)=  11.224973  celldm(2)=   0.000000  celldm(3)=   0.000000
     celldm(4)=   0.000000  celldm(5)=   0.000000  celldm(6)=   0.000000

     crystal axes: (cart. coord. in units of alat)
               a(1) = (   1.000000   0.000000   0.000000 )
               a(2) = (   0.000000   1.107086   0.000000 )
               a(3) = (   0.000000   0.000000   4.474090 )

     reciprocal axes: (cart. coord. in units 2 pi/alat)
               b(1) = (  1.000000  0.000000  0.000000 )
               b(2) = (  0.000000  0.903272  0.000000 )
               b(3) = (  0.000000  0.000000  0.223509 )

     PseudoPot. # 1 for O  read from file:
     /home/camp/zhonxu/pseudo/o_pbe_v1.01.uspp.F.UPF
     MD5 check sum: 2bcb18d16ea4b960afae9ec6d52f22d2
     Pseudo is Ultrasoft + core correction, Zval =  6.0
     Generated by new atomic code, or converted to UPF format
     Using radial grid of  737 points,  5 beta functions with:
                l(1) =   0
                l(2) =   0
                l(3) =   1
                l(4) =   1
                l(5) =   2
     Q(r) pseudized with  8 coefficients,  rinner =    0.900   0.900   0.900
                                                       0.900   0.900

     PseudoPot. # 2 for Ti read from file:
     /home/camp/zhonxu/pseudo/ti_pbe_v1.uspp.F.UPF
     MD5 check sum: bcc8f6961b3b91f0cac3ca967d22d0fb
     Pseudo is Ultrasoft + core correction, Zval = 12.0
     Generated by new atomic code, or converted to UPF format
     Using radial grid of  851 points,  6 beta functions with:
                l(1) =   0
                l(2) =   0
                l(3) =   1
                l(4) =   1
                l(5) =   2
                l(6) =   2
     Q(r) pseudized with  6 coefficients,  rinner =    1.000   1.000   1.000
                                                       1.000   1.000

     PseudoPot. # 3 for H  read from file:
     /home/camp/zhonxu/pseudo/h_pbe_v1.uspp.F.UPF
     MD5 check sum: 3408e3ff4ec8b0a4e358431e7e038a48
     Pseudo is Ultrasoft, Zval =  1.0
     Generated by new atomic code, or converted to UPF format
     Using radial grid of  615 points,  2 beta functions with:
                l(1) =   0
                l(2) =   0
     Q(r) pseudized with  8 coefficients,  rinner =    0.700

     atomic species   valence    mass     pseudopotential
        O0             6.00    15.99940     O ( 1.00)
        Ti1           12.00    47.88000     Ti( 1.00)
        H2             1.00     1.00794     H ( 1.00)

     Simplified LDA+U calculation (l_max = 2) with parameters (eV):
     atomic species    L          U    alpha       J0     beta
        Ti1            2     7.0000   0.0000   0.0000   0.0000

     No symmetry found

   Cartesian axes

     site n.     atom                  positions (alat units)
         1           O0  tau(   1) = (   0.0000000   0.0000000   1.6912507  )
         2           O0  tau(   2) = (   0.0000000   0.5535432   1.7801061  )
         3           Ti1 tau(   3) = (   0.2500000   0.5535432   2.0136983  )
         4           Ti1 tau(   4) = (   0.0000000   0.0000000   2.0256889  )
         5           O0  tau(   5) = (   0.2500000   0.8967400   2.0101638  )
         6           O0  tau(   6) = (   0.2500000   0.2103464   2.0140115  )
         7           O0  tau(   7) = (   0.0000000   0.5535432   2.2264413  )
         8           O0  tau(   8) = (   0.0000000   0.0000000   2.3510894  )
         9           Ti1 tau(   9) = (   0.2500000   0.0000000   2.5997146  )
        10           Ti1 tau(  10) = (   0.0000000   0.5535432   2.5433858  )
        11           O0  tau(  11) = (   0.2500000   0.7638896   2.5969406  )
        12           O0  tau(  12) = (   0.2500000   0.3431968   2.5970301  )
        13           O0  tau(  13) = (   0.0000000   0.0000000   2.7842260  )
        14           O0  tau(  14) = (   0.5000000   0.0000000   1.6905348  )
        15           O0  tau(  15) = (   0.5000000   0.5535432   1.7767953  )
        16           Ti1 tau(  16) = (   0.7500000   0.5535432   2.0136983  )
        17           Ti1 tau(  17) = (   0.5000000   0.0000000   2.0204542  )
        18           O0  tau(  18) = (   0.7500000   0.8967400   2.0103875  )
        19           O0  tau(  19) = (   0.7500000   0.2103464   2.0134299  )
        20           O0  tau(  20) = (   0.5000000   0.5535432   2.2001336  )
        21           O0  tau(  21) = (   0.5000000   0.0000000   2.3501946  )
        22           Ti1 tau(  22) = (   0.7500000   0.0000000   2.5996698  )
        23           Ti1 tau(  23) = (   0.5000000   0.5535432   2.6765794  )
        24           O0  tau(  24) = (   0.7500000   0.7638896   2.5974328  )
        25           O0  tau(  25) = (   0.7500000   0.3431968   2.5965380  )
        26           O0  tau(  26) = (   0.5000000   0.0000000   2.7806915  )
        27           H2  tau(  27) = (  -0.0007400   0.6861389   1.6797970  )
        28           H2  tau(  28) = (   0.4994200   0.6816995   1.6713410  )
        29           H2  tau(  29) = (   0.1486600   0.0377184   1.6265106  )
        30           H2  tau(  30) = (   0.6489300   0.0363456   1.6257052  )
        31           O0  tau(  31) = (   0.4999900   0.5533882   2.9590287  )

     number of k points=    10  Methfessel-Paxton smearing, width (Ry)=  0.0100
                       cart. coord. in units 2pi/alat
        k(    1) = (   0.0000000   0.0000000   0.0000000), wk =   0.1250000
        k(    2) = (   0.0000000   0.2258180   0.0000000), wk =   0.2500000
        k(    3) = (   0.0000000  -0.4516359   0.0000000), wk =   0.1250000
        k(    4) = (   0.2500000   0.0000000   0.0000000), wk =   0.2500000
        k(    5) = (   0.2500000   0.2258180   0.0000000), wk =   0.2500000
        k(    6) = (   0.2500000  -0.4516359   0.0000000), wk =   0.2500000
        k(    7) = (  -0.5000000   0.0000000   0.0000000), wk =   0.1250000
        k(    8) = (  -0.5000000   0.2258180   0.0000000), wk =   0.2500000
        k(    9) = (  -0.5000000  -0.4516359   0.0000000), wk =   0.1250000
        k(   10) = (  -0.2500000   0.2258180   0.0000000), wk =   0.2500000

     Largest allocated arrays     est. size (Mb)     dimensions
     Largest temporary arrays     est. size (Mb)     dimensions

     Check: negative/imaginary core charge=   -0.000006    0.000000

     Initial potential from superposition of free atoms
     Check: negative starting charge=   -0.102438

     starting charge  205.99958, renormalised to  214.00000

     negative rho (up, down):  0.106E+00 0.000E+00
     Number of +U iterations with fixed ns =  0
     Starting occupations:
 --- enter write_ns ---
 LDA+U parameters:
U( 2)     =  7.00000000
alpha( 2) =  0.00000000
atom    3   Tr[ns(na)] =   2.00000
    eigenvalues:
  0.200  0.200  0.200  0.200  0.200
    eigenvectors:
  1.000  0.000  0.000  0.000  0.000
  0.000  1.000  0.000  0.000  0.000
  0.000  0.000  1.000  0.000  0.000
  0.000  0.000  0.000  1.000  0.000
  0.000  0.000  0.000  0.000  1.000
    occupations:
  0.200  0.000  0.000  0.000  0.000
  0.000  0.200  0.000  0.000  0.000
  0.000  0.000  0.200  0.000  0.000
  0.000  0.000  0.000  0.200  0.000
  0.000  0.000  0.000  0.000  0.200
atom    4   Tr[ns(na)] =   2.00000
    eigenvalues:
  0.200  0.200  0.200  0.200  0.200
    eigenvectors:
  1.000  0.000  0.000  0.000  0.000
  0.000  1.000  0.000  0.000  0.000
  0.000  0.000  1.000  0.000  0.000
  0.000  0.000  0.000  1.000  0.000
  0.000  0.000  0.000  0.000  1.000
    occupations:
  0.200  0.000  0.000  0.000  0.000
  0.000  0.200  0.000  0.000  0.000
  0.000  0.000  0.200  0.000  0.000
  0.000  0.000  0.000  0.200  0.000
  0.000  0.000  0.000  0.000  0.200
atom    9   Tr[ns(na)] =   2.00000
    eigenvalues:
  0.200  0.200  0.200  0.200  0.200
    eigenvectors:
  1.000  0.000  0.000  0.000  0.000
  0.000  1.000  0.000  0.000  0.000
  0.000  0.000  1.000  0.000  0.000
  0.000  0.000  0.000  1.000  0.000
  0.000  0.000  0.000  0.000  1.000
    occupations:
  0.200  0.000  0.000  0.000  0.000
  0.000  0.200  0.000  0.000  0.000
  0.000  0.000  0.200  0.000  0.000
  0.000  0.000  0.000  0.200  0.000
  0.000  0.000  0.000  0.000  0.200
atom   10   Tr[ns(na)] =   2.00000
    eigenvalues:
  0.200  0.200  0.200  0.200  0.200
    eigenvectors:
  1.000  0.000  0.000  0.000  0.000
  0.000  1.000  0.000  0.000  0.000
  0.000  0.000  1.000  0.000  0.000
  0.000  0.000  0.000  1.000  0.000
  0.000  0.000  0.000  0.000  1.000
    occupations:
  0.200  0.000  0.000  0.000  0.000
  0.000  0.200  0.000  0.000  0.000
  0.000  0.000  0.200  0.000  0.000
  0.000  0.000  0.000  0.200  0.000
  0.000  0.000  0.000  0.000  0.200
atom   16   Tr[ns(na)] =   2.00000
    eigenvalues:
  0.200  0.200  0.200  0.200  0.200
    eigenvectors:
  1.000  0.000  0.000  0.000  0.000
  0.000  1.000  0.000  0.000  0.000
  0.000  0.000  1.000  0.000  0.000
  0.000  0.000  0.000  1.000  0.000
  0.000  0.000  0.000  0.000  1.000
    occupations:
  0.200  0.000  0.000  0.000  0.000
  0.000  0.200  0.000  0.000  0.000
  0.000  0.000  0.200  0.000  0.000
  0.000  0.000  0.000  0.200  0.000
  0.000  0.000  0.000  0.000  0.200
atom   17   Tr[ns(na)] =   2.00000
    eigenvalues:
  0.200  0.200  0.200  0.200  0.200
    eigenvectors:
  1.000  0.000  0.000  0.000  0.000
  0.000  1.000  0.000  0.000  0.000
  0.000  0.000  1.000  0.000  0.000
  0.000  0.000  0.000  1.000  0.000
  0.000  0.000  0.000  0.000  1.000
    occupations:
  0.200  0.000  0.000  0.000  0.000
  0.000  0.200  0.000  0.000  0.000
  0.000  0.000  0.200  0.000  0.000
  0.000  0.000  0.000  0.200  0.000
  0.000  0.000  0.000  0.000  0.200
atom   22   Tr[ns(na)] =   2.00000
    eigenvalues:
  0.200  0.200  0.200  0.200  0.200
    eigenvectors:
  1.000  0.000  0.000  0.000  0.000
  0.000  1.000  0.000  0.000  0.000
  0.000  0.000  1.000  0.000  0.000
  0.000  0.000  0.000  1.000  0.000
  0.000  0.000  0.000  0.000  1.000
    occupations:
  0.200  0.000  0.000  0.000  0.000
  0.000  0.200  0.000  0.000  0.000
[...]
    eigenvalues:
  0.118  0.141  0.158  0.402  0.464
    eigenvectors:
  0.021  0.742  0.060  0.164  0.014
  0.002  0.006  0.003  0.219  0.769
  0.658  0.000  0.341  0.000  0.000
  0.006  0.153  0.010  0.616  0.215
  0.313  0.099  0.586  0.000  0.002
    occupations:
  0.189  0.016 -0.003  0.100  0.002
  0.016  0.447  0.003 -0.036  0.014
 -0.003  0.003  0.132  0.007 -0.018
  0.100 -0.036  0.007  0.371 -0.002
  0.002  0.014 -0.018 -0.002  0.145
atom    4   Tr[ns(na)] =   2.64251
    eigenvalues:
  0.125  0.146  0.157  0.446  0.447
    eigenvectors:
  0.008  0.002  0.000  0.225  0.765
  0.003  0.633  0.362  0.000  0.002
  0.002  0.360  0.638  0.000  0.000
  0.987  0.006  0.000  0.002  0.005
  0.000  0.000  0.000  0.773  0.227
    occupations:
  0.443  0.015  0.006 -0.027 -0.000
  0.015  0.151 -0.005 -0.000 -0.003
  0.006 -0.005  0.153  0.000 -0.000
 -0.027 -0.000  0.000  0.127 -0.000
 -0.000 -0.003 -0.000 -0.000  0.446
atom    9   Tr[ns(na)] =   2.61216
    eigenvalues:
  0.122  0.153  0.164  0.401  0.466
    eigenvectors:
  0.000  0.000  0.876  0.124  0.000
  0.000  0.000  0.000  0.007  0.992
  0.998  0.002  0.000  0.000  0.000
  0.000  0.000  0.123  0.869  0.007
  0.002  0.998  0.000  0.000  0.000
    occupations:
  0.194  0.003 -0.000  0.078  0.000
  0.003  0.465 -0.000 -0.007 -0.000
 -0.000 -0.000  0.122 -0.000 -0.001
  0.078 -0.007 -0.000  0.372 -0.000
  0.000 -0.000 -0.001 -0.000  0.153
atom   10   Tr[ns(na)] =   2.53388
    eigenvalues:
  0.123  0.168  0.187  0.315  0.474
    eigenvectors:
  0.022  0.000  0.000  0.978  0.000
  0.000  0.000  1.000  0.000  0.000
  0.000  1.000  0.000  0.000  0.000
  0.978  0.000  0.000  0.022  0.000
  0.000  0.000  0.000  0.000  1.000
    occupations:
  0.311 -0.000 -0.001 -0.028 -0.000
 -0.000  0.187 -0.000  0.000  0.000
 -0.001 -0.000  0.168 -0.000  0.000
 -0.028  0.000 -0.000  0.127  0.000
 -0.000  0.000  0.000  0.000  0.474
atom   16   Tr[ns(na)] =   2.56764
    eigenvalues:
  0.118  0.141  0.158  0.402  0.464
    eigenvectors:
  0.020  0.742  0.060  0.164  0.014
  0.002  0.006  0.003  0.219  0.770
  0.657  0.001  0.342  0.000  0.000
  0.006  0.152  0.010  0.616  0.215
  0.314  0.099  0.585  0.001  0.002
    occupations:
  0.189 -0.016 -0.003  0.100 -0.002
 -0.016  0.447 -0.003  0.036  0.014
 -0.003 -0.003  0.132  0.007  0.018
  0.100  0.036  0.007  0.371  0.002
 -0.002  0.014  0.018  0.002  0.145
atom   17   Tr[ns(na)] =   2.63862
    eigenvalues:
  0.124  0.147  0.158  0.442  0.449
    eigenvectors:
  0.008  0.002  0.000  0.002  0.988
  0.002  0.652  0.343  0.000  0.002
  0.002  0.342  0.656  0.000  0.000
  0.988  0.005  0.000  0.000  0.007
  0.000  0.000  0.000  0.998  0.002
    occupations:
  0.446  0.015  0.006 -0.027 -0.000
  0.015  0.151 -0.005 -0.000 -0.003
  0.006 -0.005  0.154  0.000 -0.000
 -0.027 -0.000  0.000  0.126 -0.000
 -0.000 -0.003 -0.000 -0.000  0.442
atom   22   Tr[ns(na)] =   2.61216
    eigenvalues:
  0.122  0.153  0.164  0.401  0.466
    eigenvectors:
  0.000  0.000  0.876  0.124  0.000
  0.000  0.000  0.000  0.008  0.992
  0.998  0.002  0.000  0.000  0.000
  0.000  0.000  0.124  0.869  0.008
  0.002  0.998  0.000  0.000  0.000
    occupations:
  0.194 -0.003  0.000  0.078  0.000
 -0.003  0.465 -0.000  0.007 -0.000
  0.000 -0.000  0.122 -0.000  0.001
  0.078  0.007 -0.000  0.372 -0.000
  0.000 -0.000  0.001 -0.000  0.153
atom   23   Tr[ns(na)] =   2.77673
    eigenvalues:
  0.071  0.269  0.295  0.296  0.458
    eigenvectors:
  0.003  0.000  0.000  0.000  0.997
  0.000  0.000  0.998  0.002  0.000
  0.000  1.000  0.000  0.000  0.000
  0.997  0.000  0.000  0.000  0.003
  0.000  0.000  0.002  0.998  0.000
    occupations:
  0.457 -0.000  0.000 -0.022 -0.000
 -0.000  0.295  0.000 -0.000  0.000
  0.000  0.000  0.269 -0.000 -0.000
 -0.022 -0.000 -0.000  0.072  0.000
 -0.000  0.000 -0.000  0.000  0.296
N of occupied +U levels =  20.9511919
 --- exit write_ns ---

[...]

     total energy              =   -1563.08017302 Ry
     Harris-Foulkes estimate   =   -1563.08017302 Ry
     estimated scf accuracy    <       0.00000001 Ry

     iteration # 18     ecut=    40.00 Ry     beta=0.70
     Davidson diagonalization with overlap
     ethr =  6.58E-12,  avg # of iterations =  1.0

     negative rho (up, down):  0.107E+00 0.000E+00

     End of self-consistent calculation
 --- enter write_ns ---
 LDA+U parameters:
U( 2)     =  7.00000000
alpha( 2) =  0.00000000
atom    3   Tr[ns(na)] =   2.56755
    eigenvalues:
  0.118  0.141  0.158  0.402  0.464
    eigenvectors:
  0.021  0.742  0.059  0.164  0.014
  0.002  0.006  0.003  0.219  0.769
  0.658  0.000  0.342  0.000  0.000
  0.006  0.153  0.010  0.616  0.215
  0.313  0.099  0.586  0.000  0.002
    occupations:
  0.189  0.016 -0.003  0.100  0.002
  0.016  0.447  0.003 -0.036  0.014
 -0.003  0.003  0.132  0.007 -0.018
  0.100 -0.036  0.007  0.371 -0.002
  0.002  0.014 -0.018 -0.002  0.145
atom    4   Tr[ns(na)] =   2.64313
    eigenvalues:
  0.125  0.146  0.157  0.446  0.447
    eigenvectors:
  0.008  0.002  0.000  0.212  0.778
  0.003  0.635  0.359  0.000  0.002
  0.002  0.357  0.640  0.000  0.000
  0.987  0.006  0.000  0.002  0.006
  0.000  0.000  0.000  0.787  0.213
    occupations:
  0.444  0.015  0.006 -0.027 -0.000
  0.015  0.151 -0.005 -0.000 -0.003
  0.006 -0.005  0.154  0.001 -0.000
 -0.027 -0.000  0.001  0.127 -0.000
 -0.000 -0.003 -0.000 -0.000  0.446
atom    9   Tr[ns(na)] =   2.61177
    eigenvalues:
  0.122  0.153  0.164  0.401  0.466
    eigenvectors:
  0.000  0.000  0.876  0.124  0.000
  0.000  0.000  0.000  0.007  0.992
  0.998  0.002  0.000  0.000  0.000
  0.000  0.000  0.124  0.869  0.007
  0.002  0.998  0.000  0.000  0.000
    occupations:
  0.194  0.003 -0.000  0.078  0.000
  0.003  0.465 -0.000 -0.007 -0.000
 -0.000 -0.000  0.122 -0.000 -0.001
  0.078 -0.007 -0.000  0.372 -0.000
  0.000 -0.000 -0.001 -0.000  0.153
atom   10   Tr[ns(na)] =   2.53478
    eigenvalues:
  0.123  0.168  0.187  0.315  0.474
    eigenvectors:
  0.022  0.000  0.000  0.978  0.000
  0.000  0.000  1.000  0.000  0.000
  0.000  1.000  0.000  0.000  0.000
  0.978  0.000  0.000  0.022  0.000
  0.000  0.000  0.000  0.000  1.000
    occupations:
  0.311 -0.000 -0.001 -0.028 -0.000
 -0.000  0.187 -0.000  0.000  0.000
 -0.001 -0.000  0.168 -0.000  0.000
 -0.028  0.000 -0.000  0.127  0.000
 -0.000  0.000  0.000  0.000  0.474
atom   16   Tr[ns(na)] =   2.56770
    eigenvalues:
  0.118  0.141  0.158  0.402  0.464
    eigenvectors:
  0.020  0.742  0.060  0.164  0.014
  0.002  0.006  0.003  0.219  0.770
  0.657  0.001  0.342  0.000  0.000
  0.006  0.152  0.010  0.616  0.215
  0.314  0.099  0.585  0.001  0.002
    occupations:
  0.189 -0.016 -0.003  0.100 -0.002
 -0.016  0.447 -0.003  0.036  0.014
 -0.003 -0.003  0.132  0.007  0.018
  0.100  0.036  0.007  0.371  0.002
 -0.002  0.014  0.018  0.002  0.145
atom   17   Tr[ns(na)] =   2.63920
    eigenvalues:
  0.124  0.147  0.158  0.442  0.449
    eigenvectors:
  0.008  0.002  0.000  0.002  0.988
  0.002  0.653  0.342  0.000  0.002
  0.002  0.340  0.658  0.000  0.000
  0.988  0.005  0.000  0.000  0.007
  0.000  0.000  0.000  0.998  0.002
    occupations:
  0.446  0.015  0.006 -0.027 -0.000
  0.015  0.151 -0.005 -0.000 -0.003
  0.006 -0.005  0.154  0.001 -0.000
 -0.027 -0.000  0.001  0.126 -0.000
 -0.000 -0.003 -0.000 -0.000  0.442
atom   22   Tr[ns(na)] =   2.61177
    eigenvalues:
  0.122  0.153  0.164  0.401  0.466
    eigenvectors:
  0.000  0.000  0.876  0.124  0.000
  0.000  0.000  0.000  0.007  0.992
  0.998  0.002  0.000  0.000  0.000
  0.000  0.000  0.124  0.869  0.008
  0.002  0.998  0.000  0.000  0.000
    occupations:
  0.194 -0.003  0.000  0.078  0.000
 -0.003  0.465 -0.000  0.007 -0.000
  0.000 -0.000  0.122 -0.000  0.001
  0.078  0.007 -0.000  0.372 -0.000
  0.000 -0.000  0.001 -0.000  0.153
atom   23   Tr[ns(na)] =   2.77677
    eigenvalues:
  0.071  0.269  0.295  0.296  0.458
    eigenvectors:
  0.003  0.000  0.000  0.000  0.997
  0.000  0.000  0.998  0.002  0.000
  0.000  1.000  0.000  0.000  0.000
  0.997  0.000  0.000  0.000  0.003
  0.000  0.000  0.002  0.998  0.000
    occupations:
  0.457 -0.000  0.000 -0.022 -0.000
 -0.000  0.295  0.000 -0.000  0.000
  0.000  0.000  0.269 -0.000 -0.000
 -0.022 -0.000 -0.000  0.072  0.000
 -0.000  0.000 -0.000  0.000  0.296
N of occupied +U levels =  20.9526670
 --- exit write_ns ---

[...]

          k = 0.2500-0.4516 0.0000 ( 29882 PWs)   bands (ev):

[...]

          k =-0.2500 0.2258 0.0000 ( 29912 PWs)   bands (ev):

   -62.0704 -62.0457 -61.9454 -61.2901 -61.2633 -60.8889 -60.8634 -60.0709
   -38.4201 -38.2752 -38.2274 -38.2192 -38.2150 -38.1947 -38.0998 -38.0471
   -38.0221 -37.7337 -37.5586 -37.4929 -37.4399 -37.3439 -37.3219 -37.1719
   -37.1335 -37.1126 -37.0631 -37.0027 -36.8913 -36.3913 -36.3689 -36.2668
   -22.0488 -21.8135 -20.9562 -20.7797 -20.3157 -20.2870 -20.2620 -20.1887
   -19.9730 -19.9330 -19.8176 -19.7216 -19.6691 -19.5912 -19.3438 -19.2409
   -18.9365 -18.7427 -17.9683  -9.7220  -9.4851  -8.4094  -8.2441  -7.9147
    -7.7528  -7.5625  -7.5290  -7.4832  -7.4376  -7.3100  -7.2250  -7.1855
    -6.9996  -6.9373  -6.8852  -6.8581  -6.7667  -6.5611  -6.4321  -6.3326
    -6.2352  -6.1667  -6.0891  -5.8576  -5.7750  -5.6668  -5.5645  -5.5455
    -5.4798  -5.4161  -5.3632  -5.3058  -5.1992  -5.1612  -5.0947  -5.0666
    -4.9002  -4.8505  -4.7493  -4.6315  -4.5339  -4.3661  -4.2824  -4.2257
    -4.1815  -4.1076  -4.0310  -3.9646  -3.9243  -3.7068  -3.6198  -3.5565
    -3.5357  -3.4506  -3.4263  -3.2895  -0.3979  -0.1873  -0.0607  -0.0291
     0.0223   0.0592   0.2705   0.3959   0.4315   0.5249   0.5520   0.6524
     0.7624   0.7827   0.8309   0.9922   1.1323   1.1550   1.2215   1.2359
     1.2472   1.3255   1.3674   1.4377   1.5299   1.5476   1.7884   1.8201
     1.8930   2.0556   2.2058   2.2280   2.3596   2.4098   2.4877   2.5614
     2.7575   2.7800   2.8883   2.9451   2.9881   4.1694   4.3626   4.6722
     4.7503   4.9649   5.2240   5.8812   5.9507   6.0091   6.0775   6.3792
     6.5121   6.6487   6.7463   6.9571   7.0044   7.1028   7.2647   7.4346
     7.5810   7.6291   7.7176   7.8417   7.9588   7.9913   8.1539   8.3889
     8.4747   8.5425   8.6823   8.7702   9.0342   9.0930   9.1516   9.2538
     9.3245   9.4477   9.4907   9.5552   9.6137   9.8142   9.8622   9.9391
    10.0060  10.2438  10.3470  10.3798  10.5178  10.5284  10.6346  10.7131
    10.7880  10.9191  10.9434  11.0788  11.1120  11.1886  11.2765  11.3213
    11.4227  11.4391  11.4865  11.6092  11.6438  11.7671  11.8656  11.9212
    11.9750  12.0642  12.1201  12.1478  12.2941  12.3285  12.4082  12.4706
    12.5797  12.6094  12.6787  12.7826  12.8405  12.9030  12.9860  13.0273
    13.1604  13.2064  13.2545  13.3315  13.3646  13.3986  13.5165  13.5738
    13.6338  13.7086  13.8133  13.8768  13.9508  14.0650  14.1273  14.2046
    14.2990  14.4108  14.4837  14.5275  14.6353  14.7079  14.7821  14.8760
    14.9456  15.0561  15.1368  15.2167  15.2816  15.3643  15.3881  15.5092
    15.5684  15.6317  15.6946  15.7567  15.8367  15.8998  15.9443  16.0006
    16.1466  16.1815  16.2453  16.3334  16.4312  16.5174  16.6062  16.6739
    16.6813  16.7844  16.9196  16.9627  17.0117  17.0594  17.0861  17.1536
    17.2592  17.2751  17.3557  17.4612  17.5415  17.6055  17.6907  17.7410
    17.7811  17.8253  17.8701  18.0050  18.0311  18.1416  18.1720  18.2663
    18.3686  18.4706  18.5627  18.6140  18.6586

     the Fermi energy is    -3.3590 ev

!    total energy              =   -1563.08017302 Ry
     Harris-Foulkes estimate   =   -1563.08017302 Ry
     estimated scf accuracy    <          5.1E-09 Ry

     The total energy is the sum of the following terms:

     one-electron contribution =  -18144.00764409 Ry
     hartree contribution      =    9083.52299070 Ry
     xc contribution           =    -276.32287757 Ry
     ewald contribution        =    7770.15965683 Ry
     Hubbard energy            =       3.56797685 Ry
     smearing contrib. (-TS)   =      -0.00027573 Ry

     convergence has been achieved in  18 iterations

     Forces acting on atoms (Ry/au):

     negative rho (up, down):  0.107E+00 0.000E+00
     atom    1 type  1   force =    -0.00324573   -0.01263428    0.00030216
     atom    2 type  1   force =     0.00005997    0.01298697    0.00033810
     atom    3 type  2   force =     0.05501076   -0.00455473    0.00027749
     atom    4 type  2   force =     0.00275858    0.00877288   -0.00057762
     atom    5 type  1   force =    -0.00384818   -0.06934479   -0.00038081
     atom    6 type  1   force =    -0.00565710    0.06769820   -0.00062660
     atom    7 type  1   force =     0.00001273    0.00003475    0.00063043
     atom    8 type  1   force =     0.00012260   -0.00184747   -0.00058420
     atom    9 type  2   force =     0.01216159    0.00044666    0.00088772
     atom   10 type  2   force =     0.00000336   -0.00027609    0.00043823
     atom   11 type  1   force =    -0.02478981   -0.00177286    0.00019289
     atom   12 type  1   force =    -0.02506031    0.00203968    0.00021415
     atom   13 type  1   force =     0.00000556    0.00003185   -0.00009821
     atom   14 type  1   force =    -0.00424980   -0.01272732    0.00002313
     atom   15 type  1   force =     0.00010961    0.01187798   -0.00000968
     atom   16 type  2   force =    -0.05487953   -0.00501533    0.00027990
     atom   17 type  2   force =     0.00249348    0.00845478   -0.00019890
     atom   18 type  1   force =     0.00617993   -0.06916606   -0.00035216
     atom   19 type  1   force =     0.00557188    0.06806084   -0.00057572
     atom   20 type  1   force =    -0.00008612   -0.00064262    0.00069532
     atom   21 type  1   force =     0.00016515   -0.00166620   -0.00041993
     atom   22 type  2   force =    -0.01216798    0.00008485    0.00088572
     atom   23 type  2   force =     0.00000312   -0.00022758   -0.00039347
     atom   24 type  1   force =     0.02505974   -0.00179765    0.00017503
     atom   25 type  1   force =     0.02475286    0.00196095    0.00023342
     atom   26 type  1   force =     0.00003681   -0.00016537   -0.00010902
     atom   27 type  3   force =     0.00000438   -0.00032834   -0.00025087
     atom   28 type  3   force =    -0.00000915   -0.00031563   -0.00069191
     atom   29 type  3   force =    -0.00025596    0.00008988    0.00003720
     atom   30 type  3   force =    -0.00026239   -0.00005138   -0.00051939
     atom   31 type  1   force =    -0.00000002   -0.00000658    0.00017762

     Total force =     0.002536     Total SCF correction =     0.000170

     bfgs converged in  21 scf cycles and  20 bfgs steps
     (criteria: energy < 0.10E-03, force < 0.10E-02)

     End of BFGS Geometry Optimization

     Final energy   =   -1563.0801730154 Ry
Begin final coordinates

ATOMIC_POSITIONS (crystal)
O0       0.000000000   0.000000000   0.374238311    0   0   1
O0       0.000000000   0.500000000   0.395086723    0   0   1
Ti1      0.250000000   0.500000000   0.448357387    0   0   1
Ti1      0.000000000   0.000000000   0.448834441    0   0   1
O0       0.250000000   0.810000000   0.447491673    0   0   1
O0       0.250000000   0.190000000   0.448554337    0   0   1
O0       0.000000000   0.500000000   0.497379072    0   0   1
O0       0.000000000   0.000000000   0.525934006    0   0   1
Ti1      0.250000000   0.000000000   0.579047238    0   0   1
Ti1      0.000000000   0.500000000   0.570227978    0   0   1
O0       0.250000000   0.690000000   0.583614294    0   0   1
O0       0.250000000   0.310000000   0.583595071    0   0   1
O0       0.000000000   0.000000000   0.624513448    0   0   1
O0       0.500000000   0.000000000   0.374635076    0   0   1
O0       0.500000000   0.500000000   0.394481751    0   0   1
Ti1      0.750000000   0.500000000   0.448362631    0   0   1
Ti1      0.500000000   0.000000000   0.449528229    0   0   1
O0       0.750000000   0.810000000   0.447481172    0   0   1
O0       0.750000000   0.190000000   0.448543590    0   0   1
O0       0.500000000   0.500000000   0.491743458    0   0   1
O0       0.500000000   0.000000000   0.525705402    0   0   1
Ti1      0.750000000   0.000000000   0.579044177    0   0   1
Ti1      0.500000000   0.500000000   0.606865675    0   0   1
O0       0.750000000   0.690000000   0.583624266    0   0   1
O0       0.750000000   0.310000000   0.583579349    0   0   1
O0       0.500000000   0.000000000   0.623197882    0   0   1
H2      -0.000299679   0.626426930   0.374899049
H2       0.499796711   0.627760962   0.374805656
H2       0.150593883   0.035233861   0.360989469
H2       0.650075161   0.036516513   0.361362579
O0       0.500010890   0.499902151   0.670316612
End final coordinates

     General routines

     Parallel routines
     Hubbard U routines

   This run was terminated on:  13:26:58  29Apr2014

   JOB DONE.