     Program PWSCF v.5.0.2 (svn rev. 9656) starts on  1May2014 at  5:45: 5

     Current dimensions of program PWSCF are:
     Max number of different atomic species (ntypx) = 10
     Max number of k-points (npk) =  40000
     Max angular momentum in pseudopotentials (lmaxx) =  3
     Reading input from pwscf.in
Warning: card &CELL ignored
Warning: card / ignored

     Subspace diagonalization in iterative solution of the eigenvalue problem:
     a serial algorithm will be used

     bravais-lattice index     =            0
     lattice parameter (alat)  =      11.1872  a.u.
     unit-cell volume          =    7531.8600 (a.u.)^3
     number of atoms/cell      =           32
     number of atomic types    =            3
     number of electrons       =       223.00
     number of Kohn-Sham states=          334
     kinetic-energy cutoff     =      40.0000  Ry
     charge density cutoff     =     500.0000  Ry
     convergence threshold     =      1.0E-06
     mixing beta               =       0.7000
     number of iterations used =            8  plain     mixing
     Exchange-correlation      = SLA  PW   PBE  PBE ( 1 4 3 4 0)
     EXX-fraction              =        0.00
     nstep                     =           50

     celldm(1)=  11.187179  celldm(2)=   0.000000  celldm(3)=   0.000000
     celldm(4)=   0.000000  celldm(5)=   0.000000  celldm(6)=   0.000000

     crystal axes: (cart. coord. in units of alat)
               a(1) = (   1.000000   0.000000   0.000000 )
               a(2) = (   0.000000   1.180104   0.000000 )
               a(3) = (   0.000000   0.000000   4.558482 )

     reciprocal axes: (cart. coord. in units 2 pi/alat)
               b(1) = (  1.000000  0.000000  0.000000 )
               b(2) = (  0.000000  0.847383  0.000000 )
               b(3) = (  0.000000  0.000000  0.219371 )

     PseudoPot. # 1 for O  read from file:
     /home/camp/zhonxu/pseudo/o_pbe_v1.01.uspp.F.UPF
     MD5 check sum: 2bcb18d16ea4b960afae9ec6d52f22d2
     Pseudo is Ultrasoft + core correction, Zval =  6.0
     Generated by new atomic code, or converted to UPF format
     Using radial grid of  737 points,  5 beta functions with:
                l(1) =   0
                l(2) =   0
                l(3) =   1
                l(4) =   1
                l(5) =   2
     Q(r) pseudized with  8 coefficients,  rinner =    0.900   0.900   0.900
                                                       0.900   0.900

     PseudoPot. # 2 for Nb read from file:
     /home/camp/zhonxu/pseudo/nb_pbe_v1.uspp.F.UPF
     MD5 check sum: 573aab8a2fa660278ed4a62cd769473f
     Pseudo is Ultrasoft + core correction, Zval = 13.0
     Generated by new atomic code, or converted to UPF format
     Using radial grid of  887 points,  6 beta functions with:
                l(1) =   0
                l(2) =   0
                l(3) =   1
                l(4) =   1
                l(5) =   2
                l(6) =   2
     Q(r) pseudized with  6 coefficients,  rinner =    1.000   1.000   1.000
                                                       1.000   1.000

     PseudoPot. # 3 for H  read from file:
     /home/camp/zhonxu/pseudo/h_pbe_v1.uspp.F.UPF
     MD5 check sum: 3408e3ff4ec8b0a4e358431e7e038a48
     Pseudo is Ultrasoft, Zval =  1.0
     Generated by new atomic code, or converted to UPF format
     Using radial grid of  615 points,  2 beta functions with:
                l(1) =   0
                l(2) =   0
     Q(r) pseudized with  8 coefficients,  rinner =    0.700

     atomic species   valence    mass     pseudopotential
        O0             6.00    15.99940     O ( 1.00)
        Nb1           13.00    92.90640     Nb( 1.00)
        H2             1.00     1.00794     H ( 1.00)

     Simplified LDA+U calculation (l_max = 2) with parameters (eV):
     atomic species    L          U    alpha       J0     beta
        Nb1            2     5.0000   0.0000   0.0000   0.0000

     No symmetry found

   Cartesian axes

     site n.     atom                  positions (alat units)
         1           O0  tau(   1) = (   0.0000000   0.0000000   1.6962568  )
         2           O0  tau(   2) = (   0.0000000   0.5900519   1.7738878  )
         3           Nb1 tau(   3) = (   0.2500000   0.5900519   2.0270203  )
         4           Nb1 tau(   4) = (   0.0000000   0.0000000   2.0275217  )
         5           O0  tau(   5) = (   0.2500000   0.9322821   2.0383253  )
         6           O0  tau(   6) = (   0.2500000   0.2478218   2.0383253  )
         7           O0  tau(   7) = (   0.0000000   0.5900519   2.2801984  )
         8           O0  tau(   8) = (   0.0000000   0.0000000   2.3861375  )
         9           Nb1 tau(   9) = (   0.2500000   0.0000000   2.6321588  )
        10           Nb1 tau(  10) = (   0.0000000   0.5900519   2.5957821  )
        11           O0  tau(  11) = (   0.2500000   0.8378738   2.6252299  )
        12           O0  tau(  12) = (   0.2500000   0.3422301   2.6252299  )
        13           O0  tau(  13) = (   0.0000000   0.0000000   2.8359230  )
        14           O0  tau(  14) = (   0.5000000   0.0000000   1.6977155  )
        15           O0  tau(  15) = (   0.5000000   0.5900519   1.7812725  )
        16           Nb1 tau(  16) = (   0.7500000   0.5900519   2.0271571  )
        17           Nb1 tau(  17) = (   0.5000000   0.0000000   2.0300745  )
        18           O0  tau(  18) = (   0.7500000   0.9322821   2.0383253  )
        19           O0  tau(  19) = (   0.7500000   0.2478218   2.0383709  )
        20           O0  tau(  20) = (   0.5000000   0.5900519   2.2745003  )
        21           O0  tau(  21) = (   0.5000000   0.0000000   2.3862287  )
        22           Nb1 tau(  22) = (   0.7500000   0.0000000   2.6327514  )
        23           Nb1 tau(  23) = (   0.5000000   0.5900519   2.6327970  )
        24           O0  tau(  24) = (   0.7500000   0.8378738   2.6254579  )
        25           O0  tau(  25) = (   0.7500000   0.3422301   2.6255034  )
        26           O0  tau(  26) = (   0.5000000   0.0000000   2.8354216  )
        27           H2  tau(  27) = (  -0.0004800   0.5922115   1.6084605  )
        28           H2  tau(  28) = (   0.4995300   0.5922233   1.6161643  )
        29           H2  tau(  29) = (   0.1505800   0.0006019   1.6239593  )
        30           H2  tau(  30) = (   0.6505400   0.0006019   1.6254180  )
        31           O0  tau(  31) = (   0.5024200   0.5900519   2.9584550  )
        32           H2  tau(  32) = (   0.3976800   0.5901109   3.0854543  )

     number of k points=    10  Methfessel-Paxton smearing, width (Ry)=  0.0100
                       cart. coord. in units 2pi/alat
        k(    1) = (   0.0000000   0.0000000   0.0000000), wk =   0.1250000
        k(    2) = (   0.0000000   0.2118458   0.0000000), wk =   0.2500000
        k(    3) = (   0.0000000  -0.4236915   0.0000000), wk =   0.1250000
        k(    4) = (   0.2500000   0.0000000   0.0000000), wk =   0.2500000
        k(    5) = (   0.2500000   0.2118458   0.0000000), wk =   0.2500000
        k(    6) = (   0.2500000  -0.4236915   0.0000000), wk =   0.2500000
        k(    7) = (  -0.5000000   0.0000000   0.0000000), wk =   0.1250000
        k(    8) = (  -0.5000000   0.2118458   0.0000000), wk =   0.2500000
        k(    9) = (  -0.5000000  -0.4236915   0.0000000), wk =   0.1250000
        k(   10) = (  -0.2500000   0.2118458   0.0000000), wk =   0.2500000

     Largest allocated arrays     est. size (Mb)     dimensions
     Largest temporary arrays     est. size (Mb)     dimensions

     Check: negative/imaginary core charge=   -0.000003    0.000000

     Initial potential from superposition of free atoms
     Check: negative starting charge=   -0.003641

     starting charge  222.97806, renormalised to  223.00000

     negative rho (up, down):  0.364E-02 0.000E+00
     Number of +U iterations with fixed ns =  0
     Starting occupations:
 --- enter write_ns ---
 LDA+U parameters:
U( 2)     =  5.00000000
alpha( 2) =  0.00000000
atom    3   Tr[ns(na)] =   3.00000
    eigenvalues:
  0.300  0.300  0.300  0.300  0.300
    eigenvectors:
  1.000  0.000  0.000  0.000  0.000
  0.000  1.000  0.000  0.000  0.000
  0.000  0.000  1.000  0.000  0.000
  0.000  0.000  0.000  1.000  0.000
  0.000  0.000  0.000  0.000  1.000
    occupations:
  0.300  0.000  0.000  0.000  0.000
  0.000  0.300  0.000  0.000  0.000
  0.000  0.000  0.300  0.000  0.000
  0.000  0.000  0.000  0.300  0.000
  0.000  0.000  0.000  0.000  0.300
atom    4   Tr[ns(na)] =   3.00000
    eigenvalues:
  0.300  0.300  0.300  0.300  0.300
    eigenvectors:
  1.000  0.000  0.000  0.000  0.000
  0.000  1.000  0.000  0.000  0.000
  0.000  0.000  1.000  0.000  0.000
  0.000  0.000  0.000  1.000  0.000
  0.000  0.000  0.000  0.000  1.000
    occupations:
  0.300  0.000  0.000  0.000  0.000
  0.000  0.300  0.000  0.000  0.000
  0.000  0.000  0.300  0.000  0.000
  0.000  0.000  0.000  0.300  0.000
  0.000  0.000  0.000  0.000  0.300
atom    9   Tr[ns(na)] =   3.00000
    eigenvalues:
  0.300  0.300  0.300  0.300  0.300
    eigenvectors:
  1.000  0.000  0.000  0.000  0.000
  0.000  1.000  0.000  0.000  0.000
  0.000  0.000  1.000  0.000  0.000
  0.000  0.000  0.000  1.000  0.000
  0.000  0.000  0.000  0.000  1.000
    occupations:
  0.300  0.000  0.000  0.000  0.000
  0.000  0.300  0.000  0.000  0.000
  0.000  0.000  0.300  0.000  0.000
  0.000  0.000  0.000  0.300  0.000
  0.000  0.000  0.000  0.000  0.300
atom   10   Tr[ns(na)] =   3.00000
    eigenvalues:
  0.300  0.300  0.300  0.300  0.300
    eigenvectors:
  1.000  0.000  0.000  0.000  0.000
  0.000  1.000  0.000  0.000  0.000
  0.000  0.000  1.000  0.000  0.000
  0.000  0.000  0.000  1.000  0.000
  0.000  0.000  0.000  0.000  1.000
    occupations:
  0.300  0.000  0.000  0.000  0.000
  0.000  0.300  0.000  0.000  0.000
  0.000  0.000  0.300  0.000  0.000
  0.000  0.000  0.000  0.300  0.000
  0.000  0.000  0.000  0.000  0.300
atom   16   Tr[ns(na)] =   3.00000
    eigenvalues:
  0.300  0.300  0.300  0.300  0.300
    eigenvectors:
  1.000  0.000  0.000  0.000  0.000
  0.000  1.000  0.000  0.000  0.000
  0.000  0.000  1.000  0.000  0.000
  0.000  0.000  0.000  1.000  0.000
  0.000  0.000  0.000  0.000  1.000
    occupations:
  0.300  0.000  0.000  0.000  0.000
  0.000  0.300  0.000  0.000  0.000
  0.000  0.000  0.300  0.000  0.000
  0.000  0.000  0.000  0.300  0.000
  0.000  0.000  0.000  0.000  0.300
atom   17   Tr[ns(na)] =   3.00000
    eigenvalues:
  0.300  0.300  0.300  0.300  0.300
    eigenvectors:
  1.000  0.000  0.000  0.000  0.000
  0.000  1.000  0.000  0.000  0.000
  0.000  0.000  1.000  0.000  0.000
  0.000  0.000  0.000  1.000  0.000
  0.000  0.000  0.000  0.000  1.000
    occupations:
  0.300  0.000  0.000  0.000  0.000
  0.000  0.300  0.000  0.000  0.000
  0.000  0.000  0.300  0.000  0.000
  0.000  0.000  0.000  0.300  0.000
  0.000  0.000  0.000  0.000  0.300
atom   22   Tr[ns(na)] =   3.00000
    eigenvalues:
  0.300  0.300  0.300  0.300  0.300
    eigenvectors:
  1.000  0.000  0.000  0.000  0.000
  0.000  1.000  0.000  0.000  0.000
  0.000  0.000  1.000  0.000  0.000
  0.000  0.000  0.000  1.000  0.000
  0.000  0.000  0.000  0.000  1.000
[...]
atom    9   Tr[ns(na)] =   5.27082
    eigenvalues:
  0.449  0.461  0.480  0.622  0.623
    eigenvectors:
  0.876  0.000  0.000  0.117  0.007
  0.000  0.000  0.000  0.055  0.945
  0.000  0.181  0.819  0.000  0.000
  0.124  0.000  0.000  0.829  0.048
  0.000  0.819  0.181  0.000  0.000
    occupations:
  0.470 -0.000  0.000  0.057 -0.000
 -0.000  0.623 -0.000 -0.000  0.000
  0.000 -0.000  0.477 -0.000  0.007
  0.057 -0.000 -0.000  0.600 -0.000
 -0.000  0.000  0.007 -0.000  0.465
atom   10   Tr[ns(na)] =   5.09678
    eigenvalues:
  0.334  0.413  0.508  0.540  0.753
    eigenvectors:
  0.000  0.000  0.999  0.000  0.001
  0.000  1.000  0.000  0.000  0.000
  1.000  0.000  0.000  0.000  0.000
  0.000  0.000  0.001  0.000  0.999
  0.000  0.000  0.000  1.000  0.000
    occupations:
  0.508 -0.001 -0.000  0.007  0.000
 -0.001  0.414  0.000 -0.003  0.000
 -0.000  0.000  0.334 -0.000 -0.000
  0.007 -0.003 -0.000  0.753  0.000
  0.000  0.000 -0.000  0.000  0.540
atom   16   Tr[ns(na)] =   5.13068
    eigenvalues:
  0.342  0.348  0.515  0.592  0.768
    eigenvectors:
  0.000  0.000  0.001  0.347  0.652
  0.000  0.000  0.999  0.001  0.000
  0.571  0.429  0.000  0.000  0.000
  0.000  0.000  0.000  0.652  0.348
  0.429  0.571  0.000  0.000  0.000
    occupations:
  0.707  0.004  0.001 -0.084 -0.000
  0.004  0.516 -0.000 -0.001  0.000
  0.001 -0.000  0.345 -0.000  0.003
 -0.084 -0.001 -0.000  0.653  0.000
 -0.000  0.000  0.003  0.000  0.346
atom   17   Tr[ns(na)] =   5.18477
    eigenvalues:
  0.354  0.377  0.553  0.588  0.720
    eigenvectors:
  0.003  0.000  0.000  0.996  0.000
  0.996  0.000  0.000  0.003  0.001
  0.000  1.000  0.000  0.000  0.000
  0.001  0.000  0.000  0.001  0.999
  0.000  0.000  1.000  0.000  0.000
    occupations:
  0.588  0.013  0.000 -0.002 -0.000
  0.013  0.355 -0.000 -0.010  0.000
  0.000 -0.000  0.377 -0.000  0.001
 -0.002 -0.010 -0.000  0.719  0.000
 -0.000  0.000  0.001  0.000  0.553
atom   22   Tr[ns(na)] =   5.26883
    eigenvalues:
  0.449  0.461  0.480  0.622  0.623
    eigenvectors:
  0.877  0.000  0.000  0.119  0.004
  0.000  0.000  0.000  0.031  0.969
  0.000  0.262  0.738  0.000  0.000
  0.123  0.000  0.000  0.850  0.027
  0.000  0.738  0.262  0.000  0.000
    occupations:
  0.470  0.000  0.000  0.057 -0.000
  0.000  0.623 -0.000  0.000  0.000
  0.000 -0.000  0.475  0.000 -0.009
  0.057  0.000  0.000  0.600  0.000
 -0.000  0.000 -0.009  0.000  0.466
atom   23   Tr[ns(na)] =   5.26756
    eigenvalues:
  0.407  0.462  0.558  0.595  0.611
    eigenvectors:
  0.000  0.011  0.000  0.515  0.475
  0.000  0.986  0.000  0.013  0.001
  1.000  0.000  0.000  0.000  0.000
  0.000  0.003  0.000  0.473  0.524
  0.000  0.000  1.000  0.000  0.000
    occupations:
  0.601  0.014 -0.000  0.009  0.000
  0.014  0.464  0.000 -0.007  0.000
 -0.000  0.000  0.407  0.000  0.000
  0.009 -0.007  0.000  0.603 -0.000
  0.000  0.000  0.000 -0.000  0.558
N of occupied +U levels =  41.5399409
 --- exit write_ns ---

     Threshold (ethr) on eigenvalues was too large:
     Diagonalizing with lowered threshold

     Davidson diagonalization with overlap
     ethr =  4.25E-09,  avg # of iterations =  3.0

[...]

     total energy              =   -1560.18189434 Ry
     Harris-Foulkes estimate   =   -1560.18189434 Ry
     estimated scf accuracy    <       0.00000002 Ry

     iteration # 10     ecut=    40.00 Ry     beta=0.70
     Davidson diagonalization with overlap
     ethr =  7.11E-12,  avg # of iterations =  1.0

     negative rho (up, down):  0.350E-02 0.000E+00

     End of self-consistent calculation
 --- enter write_ns ---
 LDA+U parameters:
U( 2)     =  5.00000000
alpha( 2) =  0.00000000
atom    3   Tr[ns(na)] =   5.13072
    eigenvalues:
  0.341  0.348  0.516  0.592  0.768
    eigenvectors:
  0.000  0.000  0.001  0.346  0.653
  0.000  0.000  0.999  0.001  0.000
  0.591  0.409  0.000  0.000  0.000
  0.000  0.000  0.000  0.654  0.346
  0.409  0.591  0.000  0.000  0.000
    occupations:
  0.707 -0.005  0.001 -0.084  0.000
 -0.005  0.516  0.000  0.001  0.000
  0.001  0.000  0.344 -0.000 -0.004
 -0.084  0.001 -0.000  0.653 -0.000
  0.000  0.000 -0.004 -0.000  0.345
atom    4   Tr[ns(na)] =   5.18910
    eigenvalues:
  0.353  0.378  0.553  0.588  0.723
    eigenvectors:
  0.003  0.000  0.000  0.997  0.000
  0.996  0.000  0.000  0.003  0.001
  0.000  1.000  0.000  0.000  0.000
  0.001  0.000  0.000  0.000  0.999
  0.000  0.000  1.000  0.000  0.000
    occupations:
  0.587  0.013  0.000 -0.002 -0.000
  0.013  0.354 -0.000 -0.011  0.000
  0.000 -0.000  0.378 -0.000  0.001
 -0.002 -0.011 -0.000  0.723  0.000
 -0.000  0.000  0.001  0.000  0.553
atom    9   Tr[ns(na)] =   5.27150
    eigenvalues:
  0.449  0.462  0.480  0.622  0.623
    eigenvectors:
  0.876  0.000  0.000  0.117  0.007
  0.000  0.000  0.000  0.056  0.944
  0.000  0.178  0.822  0.000  0.000
  0.124  0.000  0.000  0.827  0.049
  0.000  0.822  0.178  0.000  0.000
    occupations:
  0.470 -0.000  0.000  0.057 -0.000
 -0.000  0.623 -0.000 -0.000  0.000
  0.000 -0.000  0.477 -0.000  0.007
  0.057 -0.000 -0.000  0.600 -0.000
 -0.000  0.000  0.007 -0.000  0.465
atom   10   Tr[ns(na)] =   5.09771
    eigenvalues:
  0.334  0.414  0.508  0.540  0.754
    eigenvectors:
  0.000  0.000  0.999  0.000  0.001
  0.000  1.000  0.000  0.000  0.000
  1.000  0.000  0.000  0.000  0.000
  0.000  0.000  0.001  0.000  0.999
  0.000  0.000  0.000  1.000  0.000
    occupations:
  0.508 -0.001 -0.000  0.007  0.000
 -0.001  0.414  0.000 -0.003  0.000
 -0.000  0.000  0.334 -0.000 -0.000
  0.007 -0.003 -0.000  0.753  0.000
  0.000  0.000 -0.000  0.000  0.540
atom   16   Tr[ns(na)] =   5.13072
    eigenvalues:
  0.342  0.348  0.515  0.592  0.768
    eigenvectors:
  0.000  0.000  0.001  0.347  0.652
  0.000  0.000  0.999  0.001  0.000
  0.568  0.432  0.000  0.000  0.000
  0.000  0.000  0.000  0.652  0.348
  0.432  0.568  0.000  0.000  0.000
    occupations:
  0.707  0.004  0.001 -0.084 -0.000
  0.004  0.516 -0.000 -0.001  0.000
  0.001 -0.000  0.345 -0.000  0.003
 -0.084 -0.001 -0.000  0.653  0.000
 -0.000  0.000  0.003  0.000  0.346
atom   17   Tr[ns(na)] =   5.18410
    eigenvalues:
  0.354  0.377  0.553  0.588  0.719
    eigenvectors:
  0.003  0.000  0.000  0.996  0.000
  0.996  0.000  0.000  0.003  0.001
  0.000  1.000  0.000  0.000  0.000
  0.001  0.000  0.000  0.001  0.999
  0.000  0.000  1.000  0.000  0.000
    occupations:
  0.588  0.013  0.000 -0.002 -0.000
  0.013  0.355 -0.000 -0.010  0.000
  0.000 -0.000  0.377 -0.000  0.001
 -0.002 -0.010 -0.000  0.719  0.000
 -0.000  0.000  0.001  0.000  0.553
atom   22   Tr[ns(na)] =   5.26950
    eigenvalues:
  0.449  0.461  0.481  0.622  0.623
    eigenvectors:
  0.877  0.000  0.000  0.119  0.004
  0.000  0.000  0.000  0.032  0.968
  0.000  0.259  0.741  0.000  0.000
  0.123  0.000  0.000  0.849  0.028
  0.000  0.741  0.259  0.000  0.000
    occupations:
  0.470  0.000  0.000  0.057 -0.000
  0.000  0.623 -0.000  0.000  0.000
  0.000 -0.000  0.475  0.000 -0.009
  0.057  0.000  0.000  0.600  0.000
 -0.000  0.000 -0.009  0.000  0.466
atom   23   Tr[ns(na)] =   5.26702
    eigenvalues:
  0.407  0.462  0.558  0.595  0.611
    eigenvectors:
  0.000  0.011  0.000  0.506  0.483
  0.000  0.986  0.000  0.013  0.001
  1.000  0.000  0.000  0.000  0.000
  0.000  0.003  0.000  0.481  0.516
  0.000  0.000  1.000  0.000  0.000
    occupations:
  0.601  0.014 -0.000  0.009  0.000
  0.014  0.464  0.000 -0.007  0.000
 -0.000  0.000  0.407  0.000  0.000
  0.009 -0.007  0.000  0.603 -0.000
  0.000  0.000  0.000 -0.000  0.558
N of occupied +U levels =  41.5403727
 --- exit write_ns ---

[...]

          k = 0.2500-0.4237 0.0000 ( 32188 PWs)   bands (ev):

[...]

          k =-0.2500 0.2118 0.0000 ( 32165 PWs)   bands (ev):

   -56.2684 -56.2003 -55.8414 -55.7837 -55.7592 -55.7518 -55.6942 -55.5659
   -33.0521 -32.4834 -32.3568 -32.3429 -32.3180 -32.3101 -32.2953 -32.2809
   -32.2736 -32.1904 -32.1432 -32.1255 -32.1009 -32.0580 -32.0305 -31.7352
   -31.7316 -31.6629 -31.6250 -31.5363 -31.5194 -31.5152 -31.4117 -31.3927
   -20.2564 -20.0964 -19.3618 -19.1647 -18.9963 -18.8850 -18.8401 -18.8286
   -18.8158 -18.7647 -18.7356 -18.7184 -18.0126 -17.9658 -17.9153 -17.9064
   -17.8840 -17.7548 -17.7266  -8.8689  -8.4404  -7.4836  -7.3759  -7.1233
    -6.9985  -6.8214  -6.5644  -6.4345  -6.3312  -6.2097  -6.1742  -6.1564
    -5.9285  -5.8808  -5.8167  -5.5791  -5.5256  -5.4714  -5.4299  -5.2766
    -5.0077  -4.9219  -4.8136  -4.6749  -4.4861  -4.4101  -4.3310  -4.2415
    -4.1796  -4.1112  -4.0879  -3.9741  -3.9023  -3.8440  -3.8135  -3.7936
    -3.7726  -3.5711  -3.5342  -3.4419  -3.4109  -3.3451  -3.1947  -3.1401
    -3.0893  -3.0173  -2.9473  -2.9077  -2.7237  -2.6673  -2.6262  -2.5054
    -2.4514  -2.3527  -2.2135  -1.9468  -0.8631   0.0580   0.2033   1.1611
     1.4355   1.6944   1.7949   1.8706   1.9348   2.0487   2.2577   2.3149
     2.3805   2.4025   2.5579   2.6087   2.7060   2.7323   2.8630   2.9086
     2.9436   3.0903   3.1168   3.2183   3.3883   3.8507   4.2161   4.3002
     4.5786   4.6825   4.8518   5.0222   5.0381   5.1263   5.2469   5.3500
     5.3961   5.5289   5.6976   5.7763   5.8172   5.9092   5.9852   6.0805
     6.3506   6.4295   6.4734   6.6004   6.6400   6.7180   6.8167   6.9361
     7.0790   7.2012   7.2505   7.3376   7.4394   7.6664   7.8669   7.9639
     8.0153   8.0717   8.2059   8.2792   8.4251   8.4990   8.6483   8.7303
     8.8356   8.9148   9.0016   9.1599   9.1944   9.3209   9.3626   9.5138
     9.5867   9.6758   9.8028   9.8306  10.0053  10.0641  10.0902  10.2543
    10.3475  10.4072  10.5411  10.7227  10.8176  10.9116  10.9669  11.0435
    11.0940  11.1403  11.2382  11.2905  11.3664  11.5101  11.5362  11.5819
    11.6171  11.7346  11.8690  11.8942  12.0154  12.0824  12.1797  12.2868
    12.4081  12.4756  12.5115  12.5634  12.6460  12.7030  12.7873  12.8256
    12.8944  12.9351  12.9978  13.0328  13.1191  13.1965  13.2598  13.3965
    13.4771  13.5173  13.6024  13.6054  13.7002  13.7908  13.8532  13.9132
    13.9790  14.0339  14.0634  14.1378  14.2532  14.3059  14.3589  14.4536
    14.5734  14.7151  14.7485  14.7817  14.8704  14.9259  15.0260  15.0962
    15.2159  15.2423  15.3061  15.3796  15.4016  15.4399  15.5253  15.6131
    15.6588  15.7717  15.8248  15.8876  15.9065  15.9545  16.0471  16.1284
    16.2019  16.2537  16.2957  16.3871  16.4650  16.5981  16.6330  16.6891
    16.7559  16.7979  16.8677  16.9666  17.0312  17.0645  17.1418  17.1876
    17.2765  17.3058  17.3379  17.4341  17.4783  17.5436  17.6355  17.7172
    17.7919  17.8606  17.9527  18.0136  18.0583  18.1330  18.1564  18.2308
    18.3425  18.4319  18.5131  18.5430  18.6100  18.6666  18.7653  18.8206
    18.8793  18.9810  19.0091  19.1034  19.1352  19.2022  19.2468  19.3040
    19.3449  19.4026  19.4687  19.5527  19.5922  19.6666  19.6972  19.7651
    19.7987  19.8714  19.9080  19.9869  20.0153  20.0670

     the Fermi energy is     1.0557 ev

!    total energy              =   -1560.18189433 Ry
     Harris-Foulkes estimate   =   -1560.18189434 Ry
     estimated scf accuracy    <          9.9E-09 Ry

     The total energy is the sum of the following terms:

     one-electron contribution =  -19014.25012442 Ry
     hartree contribution      =    9537.08750330 Ry
     xc contribution           =    -287.72124478 Ry
     ewald contribution        =    8201.26792161 Ry
     Hubbard energy            =       3.43471218 Ry
     smearing contrib. (-TS)   =      -0.00066223 Ry

     convergence has been achieved in  10 iterations

     Forces acting on atoms (Ry/au):

     negative rho (up, down):  0.350E-02 0.000E+00
     atom    1 type  1   force =     0.00153795   -0.00005384    0.00042317
     atom    2 type  1   force =    -0.00055121    0.00021942   -0.00001030
     atom    3 type  2   force =     0.03478113   -0.00015762   -0.00027875
     atom    4 type  2   force =    -0.00365677    0.00001005    0.00047445
     atom    5 type  1   force =    -0.00185505   -0.02181264   -0.00010104
     atom    6 type  1   force =    -0.00192371    0.02181882   -0.00009870
     atom    7 type  1   force =    -0.00051193    0.00002187    0.00078419
     atom    8 type  1   force =     0.00137960    0.00001438   -0.00019346
     atom    9 type  2   force =     0.00123245    0.00000373    0.00009495
     atom   10 type  2   force =     0.00080517   -0.00000771    0.00072076
     atom   11 type  1   force =    -0.00657395   -0.00217072   -0.00025635
     atom   12 type  1   force =    -0.00657360    0.00216910   -0.00025980
     atom   13 type  1   force =     0.00135240    0.00000038    0.00016963
     atom   14 type  1   force =     0.00150402   -0.00005979    0.00048444
     atom   15 type  1   force =    -0.00013330    0.00022549   -0.00052032
     atom   16 type  2   force =    -0.03181249   -0.00015666   -0.00043495
     atom   17 type  2   force =    -0.00381537    0.00001294    0.00042129
     atom   18 type  1   force =     0.00264262   -0.02197033   -0.00007699
     atom   19 type  1   force =     0.00259233    0.02197587   -0.00007053
     atom   20 type  1   force =    -0.00572853    0.00004218   -0.00053736
     atom   21 type  1   force =     0.00119763    0.00001253   -0.00010087
     atom   22 type  2   force =    -0.00210486   -0.00000394    0.00015459
     atom   23 type  2   force =     0.00406812   -0.00001228   -0.00068261
     atom   24 type  1   force =     0.00589114   -0.00383196   -0.00036538
     atom   25 type  1   force =     0.00588642    0.00384158   -0.00036372
     atom   26 type  1   force =    -0.00040338   -0.00000011    0.00023923
     atom   27 type  3   force =     0.00000301   -0.00006834    0.00048499
     atom   28 type  3   force =    -0.00000278   -0.00005592   -0.00069775
     atom   29 type  3   force =    -0.00015608   -0.00000645    0.00028877
     atom   30 type  3   force =    -0.00016863   -0.00000457    0.00033255
     atom   31 type  1   force =     0.00030124   -0.00000029    0.00003836
     atom   32 type  3   force =     0.00079643    0.00000483   -0.00006250

     Total force =     0.002355     Total SCF correction =     0.000190

     bfgs converged in  15 scf cycles and  14 bfgs steps
     (criteria: energy < 0.10E-03, force < 0.10E-02)

     End of BFGS Geometry Optimization

     Final energy   =   -1560.1818943314 Ry
Begin final coordinates

ATOMIC_POSITIONS (crystal)
O0       0.000000000   0.000000000   0.372000865    0   0   1
O0       0.000000000   0.500000000   0.388018349    0   0   1
Nb1      0.250000000   0.500000000   0.443650220    0   0   1
Nb1      0.000000000   0.000000000   0.444766557    0   0   1
O0       0.250000000   0.790000000   0.447479358    0   0   1
O0       0.250000000   0.210000000   0.447472386    0   0   1
O0       0.000000000   0.500000000   0.499522737    0   0   1
O0       0.000000000   0.000000000   0.524030431    0   0   1
Nb1      0.250000000   0.000000000   0.577624483    0   0   1
Nb1      0.000000000   0.500000000   0.568609018    0   0   1
O0       0.250000000   0.710000000   0.577327940    0   0   1
O0       0.250000000   0.290000000   0.577326786    0   0   1
O0       0.000000000   0.000000000   0.622182246    0   0   1
O0       0.500000000   0.000000000   0.372228121    0   0   1
O0       0.500000000   0.500000000   0.388458149    0   0   1
Nb1      0.750000000   0.500000000   0.443612210    0   0   1
Nb1      0.500000000   0.000000000   0.445045066    0   0   1
O0       0.750000000   0.790000000   0.447527859    0   0   1
O0       0.750000000   0.210000000   0.447519917    0   0   1
O0       0.500000000   0.500000000   0.501164432    0   0   1
O0       0.500000000   0.000000000   0.524133579    0   0   1
Nb1      0.750000000   0.000000000   0.577726482    0   0   1
Nb1      0.500000000   0.500000000   0.576947100    0   0   1
O0       0.750000000   0.710000000   0.577276044    0   0   1
O0       0.750000000   0.290000000   0.577276637    0   0   1
O0       0.500000000   0.000000000   0.622069913    0   0   1
H2      -0.000543392   0.501583942   0.351812759
H2       0.499644918   0.501656854   0.352258230
H2       0.151066654   0.000540063   0.356523284
H2       0.650858605   0.000539455   0.356658468
O0       0.501527004   0.499996158   0.648674995
H2       0.403180046   0.500066991   0.677585377
End final coordinates

     General routines

     Parallel routines
     Hubbard U routines

   This run was terminated on:  20:19:34   1May2014

   JOB DONE.
Running PBS batch system epilogue script
Job id: 340596.audhumbla.fysik.dtu.dk
Username: zhonxu
Groupname: campgst
Jobname: NbO2/Eads-2-layers/OH-U-5.0
Sessionid: 15768
Queuename: verylong
Accounting:
This job has allocated the following 16 nodes:
a112 a112 a112 a112 a112 a112 a112 a112 a005 a005 a005 a005 a005 a005 a005 a005
Finished epilogue job 340596.audhumbla.fysik.dtu.dk for zhonxu