     Program PWSCF v.5.0.2 (svn rev. 9656) starts on 28Apr2014 at  2:49: 6

     Current dimensions of program PWSCF are:
     Max number of different atomic species (ntypx) = 10
     Max number of k-points (npk) =  40000
     Max angular momentum in pseudopotentials (lmaxx) =  3
     Reading input from pwscf.in
Warning: card &CELL ignored
Warning: card / ignored

     Subspace diagonalization in iterative solution of the eigenvalue problem:
     a serial algorithm will be used

     bravais-lattice index     =            0
     lattice parameter (alat)  =      12.2076  a.u.
     unit-cell volume          =    7496.5096 (a.u.)^3
     number of atoms/cell      =           31
     number of atomic types    =            3
     number of electrons       =       246.00
     number of Kohn-Sham states=          369
     kinetic-energy cutoff     =      40.0000  Ry
     charge density cutoff     =     500.0000  Ry
     convergence threshold     =      1.0E-06
     mixing beta               =       0.7000
     number of iterations used =            8  plain     mixing
     Exchange-correlation      = SLA  PW   PBE  PBE ( 1 4 3 4 0)
     EXX-fraction              =        0.00
     nstep                     =           50

     celldm(1)=  12.207631  celldm(2)=   0.000000  celldm(3)=   0.000000
     celldm(4)=   0.000000  celldm(5)=   0.000000  celldm(6)=   0.000000

     crystal axes: (cart. coord. in units of alat)
               a(1) = (   1.000000   0.000000   0.000000 )
               a(2) = (   0.000000   1.004836   0.000000 )
               a(3) = (   0.000000   0.000000   4.100811 )

     reciprocal axes: (cart. coord. in units 2 pi/alat)
               b(1) = (  1.000000  0.000000  0.000000 )
               b(2) = (  0.000000  0.995187  0.000000 )
               b(3) = (  0.000000  0.000000  0.243854 )

     PseudoPot. # 1 for O  read from file:
     /home/camp/zhonxu/pseudo/o_pbe_v1.01.uspp.F.UPF
     MD5 check sum: 2bcb18d16ea4b960afae9ec6d52f22d2
     Pseudo is Ultrasoft + core correction, Zval =  6.0
     Generated by new atomic code, or converted to UPF format
     Using radial grid of  737 points,  5 beta functions with:
                l(1) =   0
                l(2) =   0
                l(3) =   1
                l(4) =   1
                l(5) =   2
     Q(r) pseudized with  8 coefficients,  rinner =    0.900   0.900   0.900
                                                       0.900   0.900

     PseudoPot. # 2 for Pt read from file:
     /home/camp/zhonxu/pseudo/pt_pbe_v1.uspp.F.UPF
     MD5 check sum: 4c71d6ad5ef119f1eb26a4d0b7884226
     Pseudo is Ultrasoft + core correction, Zval = 16.0
     Generated by new atomic code, or converted to UPF format
     Using radial grid of  985 points,  6 beta functions with:
                l(1) =   0
                l(2) =   0
                l(3) =   1
                l(4) =   1
                l(5) =   2
                l(6) =   2
     Q(r) pseudized with  8 coefficients,  rinner =    1.300   1.300   1.300
                                                       1.300   1.300

     PseudoPot. # 3 for H  read from file:
     /home/camp/zhonxu/pseudo/h_pbe_v1.uspp.F.UPF
     MD5 check sum: 3408e3ff4ec8b0a4e358431e7e038a48
     Pseudo is Ultrasoft, Zval =  1.0
     Generated by new atomic code, or converted to UPF format
     Using radial grid of  615 points,  2 beta functions with:
                l(1) =   0
                l(2) =   0
     Q(r) pseudized with  8 coefficients,  rinner =    0.700

     atomic species   valence    mass     pseudopotential
        O0             6.00    15.99940     O ( 1.00)
        Pt1           16.00   195.08000     Pt( 1.00)
        H2             1.00     1.00794     H ( 1.00)

     Simplified LDA+U calculation (l_max = 2) with parameters (eV):
     atomic species    L          U    alpha       J0     beta
        Pt1            2     5.5000   0.0000   0.0000   0.0000

     No symmetry found

   Cartesian axes

     site n.     atom                  positions (alat units)
         1           O0  tau(   1) = (   0.0000000   0.0000000   1.5489174  )
         2           O0  tau(   2) = (   0.0000000   0.5024180   1.6470088  )
         3           Pt1 tau(   3) = (   0.2500000   0.5024180   1.8504500  )
         4           Pt1 tau(   4) = (   0.0000000   0.0000000   1.8564782  )
         5           O0  tau(   5) = (   0.2500000   0.8139171   1.8182587  )
         6           O0  tau(   6) = (   0.2500000   0.1909188   1.8867012  )
         7           O0  tau(   7) = (   0.0000000   0.5024180   2.0373240  )
         8           O0  tau(   8) = (   0.0000000   0.0000000   2.1721997  )
         9           Pt1 tau(   9) = (   0.2500000   0.0000000   2.3623543  )
        10           Pt1 tau(  10) = (   0.0000000   0.5024180   2.3594017  )
        11           O0  tau(  11) = (   0.2500000   0.6933368   2.3215512  )
        12           O0  tau(  12) = (   0.2500000   0.3114991   2.4021322  )
        13           O0  tau(  13) = (   0.0000000   0.0000000   2.5481621  )
        14           O0  tau(  14) = (   0.5000000   0.0000000   1.5492455  )
        15           O0  tau(  15) = (   0.5000000   0.5024180   1.6439332  )
        16           Pt1 tau(  16) = (   0.7500000   0.5024180   1.8504910  )
        17           Pt1 tau(  17) = (   0.5000000   0.0000000   1.8565192  )
        18           O0  tau(  18) = (   0.7500000   0.8139171   1.8184227  )
        19           O0  tau(  19) = (   0.7500000   0.1909188   1.8866602  )
        20           O0  tau(  20) = (   0.5000000   0.5024180   2.0431061  )
        21           O0  tau(  21) = (   0.5000000   0.0000000   2.1716256  )
        22           Pt1 tau(  22) = (   0.7500000   0.0000000   2.3623953  )
        23           Pt1 tau(  23) = (   0.5000000   0.5024180   2.3697358  )
        24           O0  tau(  24) = (   0.7500000   0.6933368   2.3215102  )
        25           O0  tau(  25) = (   0.7500000   0.3114991   2.4021732  )
        26           O0  tau(  26) = (   0.5000000   0.0000000   2.5480390  )
        27           H2  tau(  27) = (   0.0001100   0.6425926   1.5814778  )
        28           H2  tau(  28) = (   0.5001800   0.6431151   1.5801656  )
        29           H2  tau(  29) = (   0.1426600   0.0364956   1.5073762  )
        30           H2  tau(  30) = (   0.6419200   0.0388771   1.5073762  )
        31           O0  tau(  31) = (   0.5000900   0.5753691   2.6428088  )

     number of k points=    10  Methfessel-Paxton smearing, width (Ry)=  0.0100
                       cart. coord. in units 2pi/alat
        k(    1) = (   0.0000000   0.0000000   0.0000000), wk =   0.1250000
        k(    2) = (   0.0000000   0.2487968   0.0000000), wk =   0.2500000
        k(    3) = (   0.0000000  -0.4975937   0.0000000), wk =   0.1250000
        k(    4) = (   0.2500000   0.0000000   0.0000000), wk =   0.2500000
        k(    5) = (   0.2500000   0.2487968   0.0000000), wk =   0.2500000
        k(    6) = (   0.2500000  -0.4975937   0.0000000), wk =   0.2500000
        k(    7) = (  -0.5000000   0.0000000   0.0000000), wk =   0.1250000
        k(    8) = (  -0.5000000   0.2487968   0.0000000), wk =   0.2500000
        k(    9) = (  -0.5000000  -0.4975937   0.0000000), wk =   0.1250000
        k(   10) = (  -0.2500000   0.2487968   0.0000000), wk =   0.2500000

     Largest allocated arrays     est. size (Mb)     dimensions
     Largest temporary arrays     est. size (Mb)     dimensions

     Check: negative/imaginary core charge=   -0.000003    0.000000

     Initial potential from superposition of free atoms
     Check: negative starting charge=   -1.533958

     starting charge  241.99985, renormalised to  246.00000

     negative rho (up, down):  0.156E+01 0.000E+00
     Number of +U iterations with fixed ns =  0
     Starting occupations:
 --- enter write_ns ---
 LDA+U parameters:
U( 2)     =  5.50000000
alpha( 2) =  0.00000000
atom    3   Tr[ns(na)] =   8.00000
    eigenvalues:
  0.800  0.800  0.800  0.800  0.800
    eigenvectors:
  1.000  0.000  0.000  0.000  0.000
  0.000  1.000  0.000  0.000  0.000
  0.000  0.000  1.000  0.000  0.000
  0.000  0.000  0.000  1.000  0.000
  0.000  0.000  0.000  0.000  1.000
    occupations:
  0.800  0.000  0.000  0.000  0.000
  0.000  0.800  0.000  0.000  0.000
  0.000  0.000  0.800  0.000  0.000
  0.000  0.000  0.000  0.800  0.000
  0.000  0.000  0.000  0.000  0.800
atom    4   Tr[ns(na)] =   8.00000
    eigenvalues:
  0.800  0.800  0.800  0.800  0.800
    eigenvectors:
  1.000  0.000  0.000  0.000  0.000
  0.000  1.000  0.000  0.000  0.000
  0.000  0.000  1.000  0.000  0.000
  0.000  0.000  0.000  1.000  0.000
  0.000  0.000  0.000  0.000  1.000
    occupations:
  0.800  0.000  0.000  0.000  0.000
  0.000  0.800  0.000  0.000  0.000
  0.000  0.000  0.800  0.000  0.000
  0.000  0.000  0.000  0.800  0.000
  0.000  0.000  0.000  0.000  0.800
atom    9   Tr[ns(na)] =   8.00000
    eigenvalues:
  0.800  0.800  0.800  0.800  0.800
    eigenvectors:
  1.000  0.000  0.000  0.000  0.000
  0.000  1.000  0.000  0.000  0.000
  0.000  0.000  1.000  0.000  0.000
  0.000  0.000  0.000  1.000  0.000
  0.000  0.000  0.000  0.000  1.000
    occupations:
  0.800  0.000  0.000  0.000  0.000
  0.000  0.800  0.000  0.000  0.000
  0.000  0.000  0.800  0.000  0.000
  0.000  0.000  0.000  0.800  0.000
  0.000  0.000  0.000  0.000  0.800
atom   10   Tr[ns(na)] =   8.00000
    eigenvalues:
  0.800  0.800  0.800  0.800  0.800
    eigenvectors:
  1.000  0.000  0.000  0.000  0.000
  0.000  1.000  0.000  0.000  0.000
  0.000  0.000  1.000  0.000  0.000
  0.000  0.000  0.000  1.000  0.000
  0.000  0.000  0.000  0.000  1.000
    occupations:
  0.800  0.000  0.000  0.000  0.000
  0.000  0.800  0.000  0.000  0.000
  0.000  0.000  0.800  0.000  0.000
  0.000  0.000  0.000  0.800  0.000
  0.000  0.000  0.000  0.000  0.800
atom   16   Tr[ns(na)] =   8.00000
    eigenvalues:
  0.800  0.800  0.800  0.800  0.800
    eigenvectors:
  1.000  0.000  0.000  0.000  0.000
  0.000  1.000  0.000  0.000  0.000
  0.000  0.000  1.000  0.000  0.000
  0.000  0.000  0.000  1.000  0.000
  0.000  0.000  0.000  0.000  1.000
    occupations:
  0.800  0.000  0.000  0.000  0.000
  0.000  0.800  0.000  0.000  0.000
  0.000  0.000  0.800  0.000  0.000
  0.000  0.000  0.000  0.800  0.000
  0.000  0.000  0.000  0.000  0.800
atom   17   Tr[ns(na)] =   8.00000
    eigenvalues:
  0.800  0.800  0.800  0.800  0.800
    eigenvectors:
  1.000  0.000  0.000  0.000  0.000
  0.000  1.000  0.000  0.000  0.000
  0.000  0.000  1.000  0.000  0.000
  0.000  0.000  0.000  1.000  0.000
  0.000  0.000  0.000  0.000  1.000
    occupations:
  0.800  0.000  0.000  0.000  0.000
  0.000  0.800  0.000  0.000  0.000
  0.000  0.000  0.800  0.000  0.000
  0.000  0.000  0.000  0.800  0.000
  0.000  0.000  0.000  0.000  0.800
atom   22   Tr[ns(na)] =   8.00000
    eigenvalues:
  0.800  0.800  0.800  0.800  0.800
    eigenvectors:
  1.000  0.000  0.000  0.000  0.000
  0.000  1.000  0.000  0.000  0.000
  0.000  0.000  1.000  0.000  0.000
  0.000  0.000  0.000  1.000  0.000
  0.000  0.000  0.000  0.000  1.000
    occupations:
  0.800  0.000  0.000  0.000  0.000
  0.000  0.800  0.000  0.000  0.000
[...]
  0.028  0.826  0.000  0.007  0.139
  0.000  0.000  0.992  0.007  0.001
    occupations:
  0.953  0.001 -0.010 -0.087  0.001
  0.001  0.719  0.001  0.002 -0.004
 -0.010  0.001  0.970 -0.027  0.001
 -0.087  0.002 -0.027  0.767 -0.000
  0.001 -0.004  0.001 -0.000  0.963
atom   10   Tr[ns(na)] =   8.80981
    eigenvalues:
  0.673  0.770  0.984  0.987  0.991
    eigenvectors:
  0.000  0.978  0.000  0.015  0.007
  0.017  0.000  0.983  0.000  0.000
  0.000  0.001  0.000  0.192  0.808
  0.000  0.022  0.000  0.793  0.185
  0.983  0.000  0.017  0.000  0.000
    occupations:
  0.775  0.000 -0.005  0.032  0.000
  0.000  0.979  0.000 -0.000 -0.040
 -0.005  0.000  0.990 -0.001 -0.000
  0.032 -0.000 -0.001  0.983 -0.000
  0.000 -0.040 -0.000 -0.000  0.678
atom   16   Tr[ns(na)] =   8.76546
    eigenvalues:
  0.703  0.714  0.987  0.988  0.991
    eigenvectors:
  0.040  0.131  0.633  0.195  0.002
  0.773  0.227  0.000  0.000  0.000
  0.001  0.005  0.003  0.064  0.928
  0.186  0.638  0.134  0.033  0.009
  0.000  0.000  0.230  0.709  0.061
    occupations:
  0.940 -0.003  0.008 -0.104  0.000
 -0.003  0.705 -0.002 -0.004 -0.004
  0.008 -0.002  0.989  0.019 -0.001
 -0.104 -0.004  0.019  0.760 -0.000
  0.000 -0.004 -0.001 -0.000  0.988
atom   17   Tr[ns(na)] =   8.75710
    eigenvalues:
  0.698  0.721  0.984  0.987  0.988
    eigenvectors:
  0.000  0.985  0.009  0.003  0.004
  0.013  0.000  0.042  0.892  0.053
  0.000  0.005  0.876  0.016  0.103
  0.000  0.009  0.072  0.078  0.840
  0.987  0.000  0.001  0.012  0.001
    occupations:
  0.725 -0.004 -0.019  0.026 -0.001
 -0.004  0.983  0.000  0.000  0.032
 -0.019  0.000  0.983  0.003  0.000
  0.026  0.000  0.003  0.985  0.000
 -0.001  0.032  0.000  0.000  0.702
atom   22   Tr[ns(na)] =   8.74482
    eigenvalues:
  0.719  0.729  0.963  0.973  0.988
    eigenvectors:
  0.001  0.132  0.001  0.011  0.855
  0.990  0.010  0.000  0.000  0.000
  0.000  0.014  0.009  0.973  0.004
  0.009  0.845  0.000  0.007  0.139
  0.000  0.000  0.990  0.009  0.001
    occupations:
  0.953 -0.000 -0.010 -0.087 -0.001
 -0.000  0.719 -0.001 -0.001 -0.004
 -0.010 -0.001  0.970 -0.027 -0.001
 -0.087 -0.001 -0.027  0.767  0.000
 -0.001 -0.004 -0.001  0.000  0.963
atom   23   Tr[ns(na)] =   8.72904
    eigenvalues:
  0.723  0.747  0.937  0.969  0.989
    eigenvectors:
  0.000  0.879  0.115  0.000  0.006
  0.021  0.000  0.000  0.979  0.000
  0.000  0.105  0.870  0.000  0.025
  0.000  0.016  0.015  0.000  0.969
  0.979  0.000  0.000  0.021  0.000
    occupations:
  0.771  0.000  0.057  0.027 -0.000
  0.000  0.963 -0.000  0.000 -0.035
  0.057 -0.000  0.918 -0.016 -0.000
  0.027  0.000 -0.016  0.984 -0.000
 -0.000 -0.035 -0.000 -0.000  0.728
N of occupied +U levels =  70.0737553
 --- exit write_ns ---

     Threshold (ethr) on eigenvalues was too large:
     Diagonalizing with lowered threshold

     Davidson diagonalization with overlap
     ethr =  3.16E-08,  avg # of iterations =  1.0

[...]

     total energy              =   -2279.29515677 Ry
     Harris-Foulkes estimate   =   -2279.29515677 Ry
     estimated scf accuracy    <       0.00000001 Ry

     iteration # 16     ecut=    40.00 Ry     beta=0.70
     Davidson diagonalization with overlap
     ethr =  4.63E-12,  avg # of iterations =  1.0

     negative rho (up, down):  0.157E+01 0.000E+00

     End of self-consistent calculation
 --- enter write_ns ---
 LDA+U parameters:
U( 2)     =  5.50000000
alpha( 2) =  0.00000000
atom    3   Tr[ns(na)] =   8.76543
    eigenvalues:
  0.703  0.714  0.987  0.988  0.991
    eigenvectors:
  0.040  0.131  0.632  0.196  0.001
  0.772  0.227  0.000  0.000  0.000
  0.001  0.005  0.004  0.064  0.927
  0.187  0.637  0.134  0.033  0.009
  0.000  0.000  0.230  0.707  0.063
    occupations:
  0.940  0.003  0.009 -0.104 -0.000
  0.003  0.705  0.002  0.004 -0.004
  0.009  0.002  0.989  0.019  0.001
 -0.104  0.004  0.019  0.760  0.000
 -0.000 -0.004  0.001  0.000  0.988
atom    4   Tr[ns(na)] =   8.75714
    eigenvalues:
  0.697  0.720  0.986  0.987  0.988
    eigenvectors:
  0.000  0.985  0.010  0.004  0.001
  0.013  0.000  0.121  0.807  0.058
  0.000  0.005  0.602  0.018  0.375
  0.000  0.009  0.265  0.160  0.565
  0.987  0.000  0.002  0.010  0.001
    occupations:
  0.724 -0.004 -0.019  0.026 -0.001
 -0.004  0.983  0.000  0.000  0.032
 -0.019  0.000  0.986  0.003 -0.000
  0.026  0.000  0.003  0.985  0.000
 -0.001  0.032 -0.000  0.000  0.700
atom    9   Tr[ns(na)] =   8.74438
    eigenvalues:
  0.719  0.729  0.963  0.973  0.988
    eigenvectors:
  0.005  0.128  0.001  0.011  0.856
  0.965  0.034  0.000  0.000  0.000
  0.001  0.013  0.005  0.977  0.004
  0.029  0.824  0.000  0.007  0.139
  0.000  0.000  0.993  0.005  0.001
    occupations:
  0.953  0.001 -0.010 -0.087  0.001
  0.001  0.719  0.001  0.002 -0.004
 -0.010  0.001  0.970 -0.027  0.001
 -0.087  0.002 -0.027  0.767 -0.000
  0.001 -0.004  0.001 -0.000  0.963
atom   10   Tr[ns(na)] =   8.80966
    eigenvalues:
  0.673  0.770  0.984  0.987  0.991
    eigenvectors:
  0.000  0.978  0.000  0.015  0.007
  0.017  0.000  0.983  0.000  0.000
  0.000  0.001  0.000  0.192  0.807
  0.000  0.022  0.000  0.793  0.186
  0.983  0.000  0.017  0.000  0.000
    occupations:
  0.775  0.000 -0.005  0.032  0.000
  0.000  0.979  0.000 -0.000 -0.040
 -0.005  0.000  0.990 -0.001 -0.000
  0.032 -0.000 -0.001  0.983 -0.000
  0.000 -0.040 -0.000 -0.000  0.678
atom   16   Tr[ns(na)] =   8.76542
    eigenvalues:
  0.703  0.714  0.987  0.988  0.991
    eigenvectors:
  0.040  0.131  0.634  0.194  0.002
  0.776  0.224  0.000  0.000  0.000
  0.001  0.005  0.003  0.064  0.928
  0.184  0.640  0.134  0.032  0.009
  0.000  0.000  0.229  0.710  0.061
    occupations:
  0.940 -0.003  0.008 -0.104  0.000
 -0.003  0.705 -0.002 -0.004 -0.004
  0.008 -0.002  0.989  0.019 -0.001
 -0.104 -0.004  0.019  0.760 -0.000
  0.000 -0.004 -0.001 -0.000  0.988
atom   17   Tr[ns(na)] =   8.75691
    eigenvalues:
  0.698  0.721  0.984  0.987  0.988
    eigenvectors:
  0.000  0.985  0.008  0.003  0.004
  0.013  0.000  0.041  0.894  0.052
  0.000  0.005  0.881  0.015  0.098
  0.000  0.009  0.069  0.076  0.845
  0.987  0.000  0.001  0.012  0.001
    occupations:
  0.725 -0.004 -0.019  0.026 -0.001
 -0.004  0.983  0.000  0.000  0.032
 -0.019  0.000  0.983  0.003  0.000
  0.026  0.000  0.003  0.985  0.000
 -0.001  0.032  0.000  0.000  0.702
atom   22   Tr[ns(na)] =   8.74440
    eigenvalues:
  0.719  0.729  0.963  0.973  0.988
    eigenvectors:
  0.001  0.132  0.001  0.011  0.855
  0.989  0.011  0.000  0.000  0.000
  0.000  0.014  0.007  0.975  0.004
  0.009  0.844  0.000  0.007  0.139
  0.000  0.000  0.992  0.007  0.001
    occupations:
  0.953 -0.000 -0.010 -0.087 -0.001
 -0.000  0.719 -0.001 -0.001 -0.004
 -0.010 -0.001  0.970 -0.027 -0.001
 -0.087 -0.001 -0.027  0.767  0.000
 -0.001 -0.004 -0.001  0.000  0.963
atom   23   Tr[ns(na)] =   8.72933
    eigenvalues:
  0.723  0.747  0.937  0.969  0.989
    eigenvectors:
  0.000  0.878  0.115  0.000  0.007
  0.021  0.000  0.000  0.979  0.000
  0.000  0.105  0.870  0.000  0.024
  0.000  0.016  0.014  0.000  0.969
  0.979  0.000  0.000  0.021  0.000
    occupations:
  0.771  0.000  0.057  0.027 -0.000
  0.000  0.963 -0.000  0.000 -0.036
  0.057 -0.000  0.918 -0.016 -0.000
  0.027  0.000 -0.016  0.984 -0.000
 -0.000 -0.036 -0.000 -0.000  0.728
N of occupied +U levels =  70.0726850
 --- exit write_ns ---

[...]

          k = 0.2500-0.4976 0.0000 ( 32026 PWs)   bands (ev):

[...]

          k =-0.2500 0.2488 0.0000 ( 32025 PWs)   bands (ev):

   -55.6159 -55.5701 -55.4417 -55.4047 -55.3658 -55.3509 -55.3099 -55.2772
   -55.2358 -55.2321 -55.2299 -55.1785 -55.1757 -55.0789 -55.0455 -55.0410
   -55.0398 -54.9573 -54.9200 -54.9020 -54.8971 -54.6612 -54.4275 -54.0847
   -22.2694 -22.0382 -21.3891 -21.2870 -20.9872 -20.9150 -20.8921 -20.7308
   -20.6720 -20.6088 -20.4891 -20.4005 -20.3852 -20.2156 -20.1433 -20.1289
   -19.5654 -19.2642 -19.1007 -11.1837 -11.0097 -10.8891 -10.8479 -10.4073
   -10.3701 -10.3302 -10.0692  -9.9161  -9.8189  -9.7158  -9.6802  -9.5172
    -9.3824  -9.3276  -9.2157  -9.1034  -8.9546  -8.7584  -8.6520  -8.4876
    -8.4560  -8.3557  -8.2824  -8.1394  -8.0219  -7.9293  -7.7647  -7.7501
    -7.6953  -7.5809  -7.4838  -7.4269  -7.3379  -7.2228  -7.1952  -7.1211
    -7.0148  -6.9678  -6.7984  -6.6388  -6.6031  -6.3678  -6.1606  -5.9997
    -5.8017  -5.7568  -5.6943  -5.5616  -5.4600  -5.3894  -5.2833  -5.1072
    -5.0091  -4.8524  -4.6809  -4.5540  -4.4833  -4.3442  -4.2684  -4.2049
    -4.0575  -4.0212  -3.9411  -3.8079  -3.6932  -3.6718  -3.4049  -3.3538
    -3.2634  -3.0569  -2.9216  -2.8002  -2.7645  -2.6670  -2.6307  -2.5162
    -2.3073  -2.1809  -2.0534  -1.9534  -1.7997  -1.2876  -1.1409  -0.8332
    -0.4774  -0.3321  -0.0079   0.2840   0.5184   0.6504   0.7001   0.8173
     1.0376   1.2139   1.2996   1.6497   3.0739   3.8485   4.5848   5.0118
     5.0368   5.1076   5.2963   5.6540   6.0896   6.1465   6.1791   6.3233
     6.4313   6.5192   6.6732   6.8511   6.9231   6.9749   7.1032   7.2259
     7.3578   7.4794   7.5626   7.5813   7.6961   7.8635   7.9315   8.0391
     8.1710   8.2683   8.3096   8.4568   8.5522   8.6403   8.6629   8.7876
     8.8703   9.0188   9.1319   9.2818   9.3432   9.4725   9.5366   9.6035
     9.6943   9.8733  10.0315  10.0943  10.1831  10.2451  10.3111  10.3857
    10.5221  10.5777  10.6493  10.7596  10.7889  10.9643  11.0499  11.0839
    11.1701  11.1983  11.3752  11.4589  11.4829  11.7158  11.7430  11.7797
    11.8686  11.9467  12.0017  12.0795  12.1421  12.2481  12.2775  12.3300
    12.4125  12.4528  12.5266  12.5789  12.6402  12.7391  12.8115  12.9347
    12.9735  13.0409  13.1720  13.2157  13.2411  13.4514  13.5222  13.5689
    13.6456  13.6940  13.7742  13.8680  13.9371  13.9726  14.0573  14.1278
    14.1873  14.3418  14.4162  14.5300  14.5667  14.6351  14.7700  14.8587
    14.8820  14.9491  15.1343  15.2235  15.2644  15.3314  15.4149  15.4571
    15.5336  15.5903  15.6472  15.6795  15.7565  15.7777  15.8289  15.8969
    15.9970  16.0556  16.0797  16.1584  16.1826  16.2616  16.3748  16.4470
    16.5037  16.5820  16.6569  16.7462  16.7992  16.8533  16.8930  16.9060
    16.9816  17.0328  17.0408  17.0511  17.0898  17.1016  17.1267  17.1629
    17.1872  17.2226  17.2420  17.2780  17.3194  17.3787  17.4696  17.5083
    17.5372  17.5841  17.6219  17.7354  17.7886  17.8902  17.9522  17.9676
    18.0366  18.0831  18.1409  18.2534  18.2685  18.3906  18.4947  18.5238
    18.5941  18.6287  18.6794  18.7269  18.8320  18.8723  18.9002  19.0257
    19.0535  19.1716  19.1931  19.2157  19.3109  19.3666  19.4480  19.4864
    19.6442  19.7766  19.8217  19.8804  19.9516  19.9712  19.9870  20.0746
    20.1280  20.2254  20.2474  20.3130  20.3699  20.4033  20.4984  20.5869
    20.6520  20.7053  20.7527  20.8563  20.9306  20.9588  21.0189  21.0548
    21.0730  21.2320  21.2661  21.3751  21.4015  21.4588  21.5078  21.5548
    21.6051  21.6589  21.7322  21.7862  21.8304  21.8958  22.0047  22.0921
    22.1398

     the Fermi energy is    -2.0032 ev

!    total energy              =   -2279.29515677 Ry
     Harris-Foulkes estimate   =   -2279.29515677 Ry
     estimated scf accuracy    <          4.3E-09 Ry

     The total energy is the sum of the following terms:

     one-electron contribution =  -23666.81628651 Ry
     hartree contribution      =   11875.68667957 Ry
     xc contribution           =    -572.09682176 Ry
     ewald contribution        =   10082.44941048 Ry
     Hubbard energy            =       1.48214532 Ry
     smearing contrib. (-TS)   =      -0.00028386 Ry

     convergence has been achieved in  16 iterations

     Forces acting on atoms (Ry/au):

     negative rho (up, down):  0.157E+01 0.000E+00
     atom    1 type  1   force =    -0.00879027   -0.00402686   -0.00058628
     atom    2 type  1   force =     0.00013999    0.00399670    0.00015078
     atom    3 type  2   force =     0.01632376    0.00503395    0.00007989
     atom    4 type  2   force =     0.01058110    0.00481934   -0.00043191
     atom    5 type  1   force =     0.00122786   -0.00321334    0.00017666
     atom    6 type  1   force =    -0.00013290   -0.00301281   -0.00032019
     atom    7 type  1   force =     0.00006295    0.00112544   -0.00051654
     atom    8 type  1   force =    -0.00418707    0.00240251   -0.00030641
     atom    9 type  2   force =     0.00417504   -0.00482899    0.00028090
     atom   10 type  2   force =    -0.00000486   -0.02067163   -0.00055909
     atom   11 type  1   force =    -0.00216105    0.00209884   -0.00022695
     atom   12 type  1   force =    -0.00865457    0.01517970    0.00016614
     atom   13 type  1   force =    -0.00110313   -0.00863082    0.00050788
     atom   14 type  1   force =    -0.00858906   -0.00282094   -0.00065843
     atom   15 type  1   force =     0.00015231    0.00192690    0.00056841
     atom   16 type  2   force =    -0.01713661    0.00489271    0.00009827
     atom   17 type  2   force =     0.01039942    0.00497426   -0.00034511
     atom   18 type  1   force =     0.00128410   -0.00314079    0.00018840
     atom   19 type  1   force =     0.00030152   -0.00292386   -0.00032861
     atom   20 type  1   force =     0.00007899   -0.00519251    0.00033763
     atom   21 type  1   force =    -0.00404768    0.00222029    0.00006894
     atom   22 type  2   force =    -0.00046656   -0.00471925    0.00029514
     atom   23 type  2   force =    -0.00018035    0.01726794    0.00035281
     atom   24 type  1   force =     0.00228305    0.00215929   -0.00024231
     atom   25 type  1   force =     0.00877834    0.01513086    0.00017742
     atom   26 type  1   force =    -0.00106582   -0.01957779    0.00073896
     atom   27 type  3   force =    -0.00000880   -0.00017963   -0.00012530
     atom   28 type  3   force =    -0.00002114   -0.00037748   -0.00014050
     atom   29 type  3   force =     0.00035397   -0.00010903    0.00040120
     atom   30 type  3   force =     0.00041556   -0.00028452    0.00031137
     atom   31 type  1   force =    -0.00000810    0.00048149   -0.00011319

     Total force =     0.002210     Total SCF correction =     0.000166

     bfgs converged in  15 scf cycles and  14 bfgs steps
     (criteria: energy < 0.10E-03, force < 0.10E-02)

     End of BFGS Geometry Optimization

     Final energy   =   -2279.2951567657 Ry
Begin final coordinates

ATOMIC_POSITIONS (crystal)
O0       0.000000000   0.000000000   0.377697806    0   0   1
O0       0.000000000   0.500000000   0.401774495    0   0   1
Pt1      0.250000000   0.500000000   0.451200013    0   0   1
Pt1      0.000000000   0.000000000   0.452772945    0   0   1
O0       0.250000000   0.810000000   0.442491217    0   0   1
O0       0.250000000   0.190000000   0.461265179    0   0   1
O0       0.000000000   0.500000000   0.496732289    0   0   1
O0       0.000000000   0.000000000   0.529913144    0   0   1
Pt1      0.250000000   0.000000000   0.575981482    0   0   1
Pt1      0.000000000   0.500000000   0.574921738    0   0   1
O0       0.250000000   0.690000000   0.564631340    0   0   1
O0       0.250000000   0.310000000   0.586550576    0   0   1
O0       0.000000000   0.000000000   0.621441435    0   0   1
O0       0.500000000   0.000000000   0.377779613    0   0   1
O0       0.500000000   0.500000000   0.401092836    0   0   1
Pt1      0.750000000   0.500000000   0.451201539    0   0   1
Pt1      0.500000000   0.000000000   0.452772816    0   0   1
O0       0.750000000   0.810000000   0.442515157    0   0   1
O0       0.750000000   0.190000000   0.461269635    0   0   1
O0       0.500000000   0.500000000   0.498047578    0   0   1
O0       0.500000000   0.000000000   0.529747884    0   0   1
Pt1      0.750000000   0.000000000   0.575983712    0   0   1
Pt1      0.500000000   0.500000000   0.577081102    0   0   1
O0       0.750000000   0.690000000   0.564617996    0   0   1
O0       0.750000000   0.310000000   0.586553119    0   0   1
O0       0.500000000   0.000000000   0.621528172    0   0   1
H2       0.000094890   0.640773121   0.386469495
H2       0.500072694   0.641403798   0.386226127
H2       0.143265681   0.034888004   0.367791397
H2       0.643044263   0.035746799   0.367841846
O0       0.500118011   0.580783059   0.643776318
End final coordinates

     General routines

     Parallel routines
     Hubbard U routines

   This run was terminated on:  18:10:36  28Apr2014

   JOB DONE.
Running PBS batch system epilogue script
Job id: 340478.audhumbla.fysik.dtu.dk
Username: zhonxu
Groupname: campgst
Jobname: PtO2/Eads-2-layers/O-U-5.5
Sessionid: 29979
Queuename: verylong
Accounting:
This job has allocated the following 16 nodes:
a102 a102 a102 a102 a102 a102 a102 a102 a101 a101 a101 a101 a101 a101 a101 a101
Finished epilogue job 340478.audhumbla.fysik.dtu.dk for zhonxu