     Program PWSCF v.5.0.2 (svn rev. 9656) starts on  5May2014 at  1:22:27

     Current dimensions of program PWSCF are:
     Max number of different atomic species (ntypx) = 10
     Max number of k-points (npk) =  40000
     Max angular momentum in pseudopotentials (lmaxx) =  3
     Reading input from pwscf.in
Warning: card &CELL ignored
Warning: card / ignored

     Subspace diagonalization in iterative solution of the eigenvalue problem:
     a serial algorithm will be used

     bravais-lattice index     =            0
     lattice parameter (alat)  =      10.9604  a.u.
     unit-cell volume          =    6350.6732 (a.u.)^3
     number of atoms/cell      =           32
     number of atomic types    =            3
     number of electrons       =       231.00 (up: 123.00, down: 108.00)
     number of Kohn-Sham states=          334
     kinetic-energy cutoff     =      40.0000  Ry
     charge density cutoff     =     500.0000  Ry
     convergence threshold     =      1.0E-06
     mixing beta               =       0.7000
     number of iterations used =            8  plain     mixing
     Exchange-correlation      = SLA  PW   PBE  PBE ( 1 4 3 4 0)
     EXX-fraction              =        0.00
     nstep                     =           50

     celldm(1)=  10.960412  celldm(2)=   0.000000  celldm(3)=   0.000000
     celldm(4)=   0.000000  celldm(5)=   0.000000  celldm(6)=   0.000000

     crystal axes: (cart. coord. in units of alat)
               a(1) = (   1.000000   0.000000   0.000000 )
               a(2) = (   0.000000   1.067975   0.000000 )
               a(3) = (   0.000000   0.000000   4.516251 )

     reciprocal axes: (cart. coord. in units 2 pi/alat)
               b(1) = (  1.000000  0.000000  0.000000 )
               b(2) = (  0.000000  0.936351  0.000000 )
               b(3) = (  0.000000  0.000000  0.221423 )

     PseudoPot. # 1 for O  read from file:
     /home/camp/zhonxu/pseudo/o_pbe_v1.01.uspp.F.UPF
     MD5 check sum: 2bcb18d16ea4b960afae9ec6d52f22d2
     Pseudo is Ultrasoft + core correction, Zval =  6.0
     Generated by new atomic code, or converted to UPF format
     Using radial grid of  737 points,  5 beta functions with:
                l(1) =   0
                l(2) =   0
                l(3) =   1
                l(4) =   1
                l(5) =   2
     Q(r) pseudized with  8 coefficients,  rinner =    0.900   0.900   0.900
                                                       0.900   0.900

     PseudoPot. # 2 for Cr read from file:
     /home/camp/zhonxu/pseudo/cr_pbe_v1.uspp.F.UPF
     MD5 check sum: 68b6f918d1762dccfb11451fe85b0e0e
     Pseudo is Ultrasoft + core correction, Zval = 14.0
     Generated by new atomic code, or converted to UPF format
     Using radial grid of  857 points,  6 beta functions with:
                l(1) =   0
                l(2) =   0
                l(3) =   1
                l(4) =   1
                l(5) =   2
                l(6) =   2
     Q(r) pseudized with  6 coefficients,  rinner =    1.000   1.000   1.000
                                                       1.000   1.000

     PseudoPot. # 3 for H  read from file:
     /home/camp/zhonxu/pseudo/h_pbe_v1.uspp.F.UPF
     MD5 check sum: 3408e3ff4ec8b0a4e358431e7e038a48
     Pseudo is Ultrasoft, Zval =  1.0
     Generated by new atomic code, or converted to UPF format
     Using radial grid of  615 points,  2 beta functions with:
                l(1) =   0
                l(2) =   0
     Q(r) pseudized with  8 coefficients,  rinner =    0.700

     atomic species   valence    mass     pseudopotential
        O0             6.00    15.99940     O ( 1.00)
        Cr1           14.00    51.99600     Cr( 1.00)
        H2             1.00     1.00794     H ( 1.00)

     Starting magnetic structure
     atomic species   magnetization
        O0           0.000
        Cr1          0.600
        H2           0.000

     Simplified LDA+U calculation (l_max = 2) with parameters (eV):
     atomic species    L          U    alpha       J0     beta
        Cr1            2     3.5000   0.0000   0.0000   0.0000

     No symmetry found

   Cartesian axes

     site n.     atom                  positions (alat units)
         1           O0  tau(   1) = (   0.0000000   0.0000000   1.7072332  )
         2           O0  tau(   2) = (   0.0000000   0.5339875   1.8068165  )
         3           Cr1 tau(   3) = (   0.2500000   0.5339875   2.0386808  )
         4           Cr1 tau(   4) = (   0.0000000   0.0000000   2.0275709  )
         5           O0  tau(   5) = (   0.2500000   0.8543801   2.0319968  )
         6           O0  tau(   6) = (   0.2500000   0.2135950   2.0327194  )
         7           O0  tau(   7) = (   0.0000000   0.5339875   2.2464284  )
         8           O0  tau(   8) = (   0.0000000   0.0000000   2.3629476  )
         9           Cr1 tau(   9) = (   0.2500000   0.0000000   2.5576884  )
        10           Cr1 tau(  10) = (   0.0000000   0.5339875   2.5509140  )
        11           O0  tau(  11) = (   0.2500000   0.7475825   2.5906119  )
        12           O0  tau(  12) = (   0.2500000   0.3203925   2.5906119  )
        13           O0  tau(  13) = (   0.0000000   0.0000000   2.7911334  )
        14           O0  tau(  14) = (   0.5000000   0.0000000   1.7073235  )
        15           O0  tau(  15) = (   0.5000000   0.5339875   1.8079456  )
        16           Cr1 tau(  16) = (   0.7500000   0.5339875   2.0392228  )
        17           Cr1 tau(  17) = (   0.5000000   0.0000000   2.0278870  )
        18           O0  tau(  18) = (   0.7500000   0.8543801   2.0322226  )
        19           O0  tau(  19) = (   0.7500000   0.2135950   2.0329904  )
        20           O0  tau(  20) = (   0.5000000   0.5339875   2.2544673  )
        21           O0  tau(  21) = (   0.5000000   0.0000000   2.3630380  )
        22           Cr1 tau(  22) = (   0.7500000   0.0000000   2.6360002  )
        23           Cr1 tau(  23) = (   0.5000000   0.5339875   2.6018573  )
        24           O0  tau(  24) = (   0.7500000   0.7475825   2.5939087  )
        25           O0  tau(  25) = (   0.7500000   0.3203925   2.5936377  )
        26           O0  tau(  26) = (   0.5000000   0.0000000   2.7879720  )
        27           H2  tau(  27) = (  -0.0006000   0.6814001   1.7205110  )
        28           H2  tau(  28) = (   0.4996600   0.6814535   1.7215045  )
        29           H2  tau(  29) = (   0.1566500   0.0338121   1.6478896  )
        30           H2  tau(  30) = (   0.6567200   0.0335237   1.6481606  )
        31           O0  tau(  31) = (   0.5143900   0.5336458   2.9144271  )
        32           H2  tau(  32) = (   0.3645400   0.5319370   2.9931001  )

     number of k points=    20  Methfessel-Paxton smearing, width (Ry)=  0.0100
                       cart. coord. in units 2pi/alat
        k(    1) = (   0.0000000   0.0000000   0.0000000), wk =   0.0625000
        k(    2) = (   0.0000000   0.2340879   0.0000000), wk =   0.1250000
        k(    3) = (   0.0000000  -0.4681757   0.0000000), wk =   0.0625000
        k(    4) = (   0.2500000   0.0000000   0.0000000), wk =   0.1250000
        k(    5) = (   0.2500000   0.2340879   0.0000000), wk =   0.1250000
        k(    6) = (   0.2500000  -0.4681757   0.0000000), wk =   0.1250000
        k(    7) = (  -0.5000000   0.0000000   0.0000000), wk =   0.0625000
        k(    8) = (  -0.5000000   0.2340879   0.0000000), wk =   0.1250000
        k(    9) = (  -0.5000000  -0.4681757   0.0000000), wk =   0.0625000
        k(   10) = (  -0.2500000   0.2340879   0.0000000), wk =   0.1250000
        k(   11) = (   0.0000000   0.0000000   0.0000000), wk =   0.0625000
        k(   12) = (   0.0000000   0.2340879   0.0000000), wk =   0.1250000
        k(   13) = (   0.0000000  -0.4681757   0.0000000), wk =   0.0625000
        k(   14) = (   0.2500000   0.0000000   0.0000000), wk =   0.1250000
        k(   15) = (   0.2500000   0.2340879   0.0000000), wk =   0.1250000
        k(   16) = (   0.2500000  -0.4681757   0.0000000), wk =   0.1250000
        k(   17) = (  -0.5000000   0.0000000   0.0000000), wk =   0.0625000
        k(   18) = (  -0.5000000   0.2340879   0.0000000), wk =   0.1250000
        k(   19) = (  -0.5000000  -0.4681757   0.0000000), wk =   0.0625000
        k(   20) = (  -0.2500000   0.2340879   0.0000000), wk =   0.1250000

     Largest allocated arrays     est. size (Mb)     dimensions
     Largest temporary arrays     est. size (Mb)     dimensions

     Check: negative/imaginary core charge=   -0.000012    0.000000

     Initial potential from superposition of free atoms
     Check: negative starting charge=(component1):   -0.001476
     Check: negative starting charge=(component2):   -0.000504

     starting charge  222.99983, renormalised to  231.00000

     negative rho (up, down):  0.153E-02 0.522E-03
     Number of +U iterations with fixed ns =  0
     Starting occupations:
 --- enter write_ns ---
 LDA+U parameters:
U( 2)     =  3.50000000
alpha( 2) =  0.00000000
atom    3   Tr[ns(na)] (up, down, total) =   5.00000  0.00000  5.00000
   spin  1
    eigenvalues:
  1.000  1.000  1.000  1.000  1.000
    eigenvectors:
  1.000  0.000  0.000  0.000  0.000
  0.000  1.000  0.000  0.000  0.000
  0.000  0.000  1.000  0.000  0.000
  0.000  0.000  0.000  1.000  0.000
  0.000  0.000  0.000  0.000  1.000
    occupations:
  1.000  0.000  0.000  0.000  0.000
  0.000  1.000  0.000  0.000  0.000
  0.000  0.000  1.000  0.000  0.000
  0.000  0.000  0.000  1.000  0.000
  0.000  0.000  0.000  0.000  1.000
   spin  2
    eigenvalues:
  0.000  0.000  0.000  0.000  0.000
    eigenvectors:
  1.000  0.000  0.000  0.000  0.000
  0.000  1.000  0.000  0.000  0.000
  0.000  0.000  1.000  0.000  0.000
  0.000  0.000  0.000  1.000  0.000
  0.000  0.000  0.000  0.000  1.000
    occupations:
  0.000  0.000  0.000  0.000  0.000
  0.000  0.000  0.000  0.000  0.000
  0.000  0.000  0.000  0.000  0.000
  0.000  0.000  0.000  0.000  0.000
  0.000  0.000  0.000  0.000  0.000
atomic mag. moment =     5.000000
atom    4   Tr[ns(na)] (up, down, total) =   5.00000  0.00000  5.00000
   spin  1
    eigenvalues:
  1.000  1.000  1.000  1.000  1.000
    eigenvectors:
  1.000  0.000  0.000  0.000  0.000
  0.000  1.000  0.000  0.000  0.000
  0.000  0.000  1.000  0.000  0.000
  0.000  0.000  0.000  1.000  0.000
  0.000  0.000  0.000  0.000  1.000
    occupations:
  1.000  0.000  0.000  0.000  0.000
  0.000  1.000  0.000  0.000  0.000
  0.000  0.000  1.000  0.000  0.000
  0.000  0.000  0.000  1.000  0.000
  0.000  0.000  0.000  0.000  1.000
   spin  2
    eigenvalues:
  0.000  0.000  0.000  0.000  0.000
    eigenvectors:
  1.000  0.000  0.000  0.000  0.000
  0.000  1.000  0.000  0.000  0.000
  0.000  0.000  1.000  0.000  0.000
  0.000  0.000  0.000  1.000  0.000
  0.000  0.000  0.000  0.000  1.000
    occupations:
  0.000  0.000  0.000  0.000  0.000
  0.000  0.000  0.000  0.000  0.000
  0.000  0.000  0.000  0.000  0.000
  0.000  0.000  0.000  0.000  0.000
  0.000  0.000  0.000  0.000  0.000
atomic mag. moment =     5.000000
atom    9   Tr[ns(na)] (up, down, total) =   5.00000  0.00000  5.00000
   spin  1
    eigenvalues:
  1.000  1.000  1.000  1.000  1.000
[...]
 -0.003 -0.000  0.127  0.007  0.000
  0.114  0.001  0.007  0.301  0.000
 -0.000  0.010  0.000  0.000  0.109
atomic mag. moment =     2.583754
atom    4   Tr[ns(na)] (up, down, total) =   3.53253  1.10436  4.63689
   spin  1
    eigenvalues:
  0.489  0.537  0.615  0.904  0.988
    eigenvectors:
  0.002  0.991  0.000  0.001  0.005
  0.000  0.001  0.014  0.985  0.000
  0.000  0.000  0.986  0.014  0.000
  0.000  0.005  0.000  0.000  0.994
  0.997  0.002  0.000  0.000  0.000
    occupations:
  0.539 -0.012 -0.001  0.032  0.002
 -0.012  0.899  0.033  0.003 -0.000
 -0.001  0.033  0.619  0.001 -0.002
  0.032  0.003  0.001  0.986 -0.000
  0.002 -0.000 -0.002 -0.000  0.489
   spin  2
    eigenvalues:
  0.097  0.119  0.147  0.361  0.380
    eigenvectors:
  0.003  0.002  0.000  0.003  0.991
  0.002  0.947  0.049  0.000  0.002
  0.000  0.048  0.951  0.000  0.000
  0.994  0.003  0.000  0.000  0.003
  0.000  0.000  0.000  0.996  0.004
    occupations:
  0.378  0.012  0.002 -0.015  0.001
  0.012  0.121 -0.006  0.000 -0.000
  0.002 -0.006  0.146  0.000  0.000
 -0.015  0.000  0.000  0.098  0.000
  0.001 -0.000  0.000  0.000  0.361
atomic mag. moment =     2.428174
atom    9   Tr[ns(na)] (up, down, total) =   3.56829  1.10830  4.67659
   spin  1
    eigenvalues:
  0.501  0.513  0.679  0.890  0.985
    eigenvectors:
  0.027  0.160  0.000  0.000  0.814
  0.866  0.134  0.000  0.000  0.000
  0.000  0.000  0.980  0.020  0.000
  0.107  0.707  0.000  0.000  0.186
  0.000  0.000  0.020  0.980  0.000
    occupations:
  0.897  0.005 -0.001 -0.184 -0.000
  0.005  0.503  0.002  0.002 -0.000
 -0.001  0.002  0.683 -0.001 -0.029
 -0.184  0.002 -0.001  0.599  0.001
 -0.000 -0.000 -0.029  0.001  0.886
   spin  2
    eigenvalues:
  0.105  0.129  0.141  0.360  0.373
    eigenvectors:
  0.808  0.000  0.000  0.007  0.185
  0.000  0.000  0.000  0.967  0.033
  0.000  0.059  0.941  0.000  0.000
  0.192  0.000  0.000  0.026  0.782
  0.000  0.941  0.059  0.000  0.000
    occupations:
  0.157  0.000  0.000  0.105 -0.000
  0.000  0.361 -0.000  0.002  0.000
  0.000 -0.000  0.141  0.000  0.003
  0.105  0.002  0.000  0.321 -0.000
 -0.000  0.000  0.003 -0.000  0.129
atomic mag. moment =     2.459998
atom   10   Tr[ns(na)] (up, down, total) =   3.65784  0.95870  4.61654
   spin  1
    eigenvalues:
  0.478  0.497  0.798  0.898  0.987
    eigenvectors:
  0.000  0.996  0.000  0.001  0.003
  0.000  0.001  0.000  0.974  0.024
  0.001  0.000  0.999  0.000  0.000
  0.000  0.003  0.000  0.025  0.972
  0.999  0.000  0.001  0.000  0.000
    occupations:
  0.499 -0.014  0.000  0.027 -0.000
 -0.014  0.900 -0.002 -0.013  0.000
  0.000 -0.002  0.798 -0.000  0.009
  0.027 -0.013 -0.000  0.983  0.000
 -0.000  0.000  0.009  0.000  0.478
   spin  2
    eigenvalues:
  0.088  0.127  0.129  0.274  0.341
    eigenvectors:
  0.007  0.000  0.000  0.993  0.000
  0.001  0.999  0.000  0.000  0.000
  0.000  0.000  1.000  0.000  0.000
  0.992  0.001  0.000  0.007  0.000
  0.000  0.000  0.000  0.000  1.000
    occupations:
  0.273  0.000 -0.000 -0.016 -0.000
  0.000  0.127 -0.000  0.001  0.000
 -0.000 -0.000  0.129 -0.000  0.002
 -0.016  0.001 -0.000  0.089 -0.000
 -0.000  0.000  0.002 -0.000  0.341
atomic mag. moment =     2.699148
atom   16   Tr[ns(na)] (up, down, total) =   3.60113  1.02304  4.62417
   spin  1
    eigenvalues:
  0.464  0.507  0.704  0.939  0.988
    eigenvectors:
  0.002  0.223  0.002  0.000  0.773
  0.990  0.010  0.000  0.000  0.000
  0.000  0.000  0.994  0.003  0.003
  0.008  0.767  0.001  0.000  0.224
  0.000  0.000  0.003  0.996  0.000
    occupations:
  0.879 -0.000  0.013 -0.201 -0.001
 -0.000  0.465 -0.002  0.005 -0.009
  0.013 -0.002  0.706 -0.007  0.014
 -0.201  0.005 -0.007  0.614 -0.000
 -0.001 -0.009  0.014 -0.000  0.938
   spin  2
    eigenvalues:
  0.089  0.108  0.128  0.335  0.363
    eigenvectors:
  0.751  0.000  0.023  0.000  0.226
  0.000  0.002  0.000  0.997  0.000
  0.026  0.000  0.973  0.000  0.000
  0.222  0.000  0.004  0.001  0.774
  0.000  0.998  0.000  0.002  0.000
    occupations:
  0.152  0.003 -0.003  0.114  0.000
  0.003  0.334  0.000 -0.001  0.010
 -0.003  0.000  0.127  0.007 -0.000
  0.114 -0.001  0.007  0.301 -0.000
  0.000  0.010 -0.000 -0.000  0.109
atomic mag. moment =     2.578088
atom   17   Tr[ns(na)] (up, down, total) =   3.55451  1.08031  4.63481
   spin  1
    eigenvalues:
  0.483  0.533  0.652  0.899  0.988
    eigenvectors:
  0.002  0.992  0.000  0.001  0.005
  0.000  0.001  0.015  0.984  0.000
  0.000  0.000  0.985  0.015  0.000
  0.000  0.005  0.000  0.000  0.995
  0.998  0.002  0.000  0.000  0.000
    occupations:
  0.535 -0.012 -0.002  0.031  0.002
 -0.012  0.895  0.030  0.000 -0.000
 -0.002  0.030  0.655  0.000  0.002
  0.031  0.000  0.000  0.986 -0.000
  0.002 -0.000  0.002 -0.000  0.484
   spin  2
    eigenvalues:
  0.095  0.116  0.141  0.356  0.373
    eigenvectors:
  0.004  0.002  0.000  0.003  0.991
  0.004  0.934  0.060  0.000  0.003
  0.000  0.059  0.940  0.000  0.000
  0.992  0.004  0.000  0.000  0.003
  0.000  0.000  0.000  0.997  0.003
    occupations:
  0.371  0.013  0.003 -0.016  0.001
  0.013  0.118 -0.006  0.000 -0.000
  0.003 -0.006  0.139  0.000  0.000
 -0.016  0.000  0.000  0.096  0.000
  0.001 -0.000  0.000  0.000  0.356
atomic mag. moment =     2.474198
atom   22   Tr[ns(na)] (up, down, total) =   3.26035  1.51712  4.77746
   spin  1
    eigenvalues:
  0.547  0.562  0.582  0.751  0.818
    eigenvectors:
  0.779  0.000  0.221  0.000  0.000
  0.002  0.987  0.011  0.000  0.000
  0.000  0.000  0.000  0.003  0.997
  0.220  0.013  0.768  0.000  0.000
  0.000  0.000  0.000  0.996  0.003
    occupations:
  0.555  0.002 -0.002 -0.015  0.002
  0.002  0.562  0.001 -0.002  0.000
 -0.002  0.001  0.818  0.000  0.004
 -0.015 -0.002  0.000  0.574 -0.001
  0.002  0.000  0.004 -0.001  0.751
   spin  2
    eigenvalues:
  0.181  0.219  0.247  0.432  0.438
    eigenvectors:
  0.000  0.000  0.959  0.032  0.010
  0.000  0.000  0.000  0.226  0.774
  0.993  0.007  0.000  0.000  0.000
  0.000  0.000  0.041  0.742  0.217
  0.007  0.993  0.000  0.000  0.000
    occupations:
  0.255 -0.001  0.000  0.037 -0.000
 -0.001  0.437 -0.000 -0.002  0.000
  0.000 -0.000  0.181 -0.000 -0.003
  0.037 -0.002 -0.000  0.426  0.000
 -0.000  0.000 -0.003  0.000  0.218
atomic mag. moment =     1.743229
atom   23   Tr[ns(na)] (up, down, total) =   3.53843  1.08736  4.62579
   spin  1
    eigenvalues:
  0.482  0.529  0.609  0.938  0.981
    eigenvectors:
  0.000  0.994  0.000  0.000  0.006
  0.000  0.000  0.000  0.970  0.030
  0.003  0.000  0.997  0.000  0.000
  0.000  0.006  0.000  0.030  0.964
  0.997  0.000  0.003  0.000  0.000
    occupations:
  0.531  0.002 -0.001  0.035  0.000
  0.002  0.939  0.002  0.007 -0.000
 -0.001  0.002  0.609 -0.001 -0.007
  0.035  0.007 -0.001  0.977 -0.000
  0.000 -0.000 -0.007 -0.000  0.482
   spin  2
    eigenvalues:
  0.094  0.114  0.146  0.360  0.374
    eigenvectors:
  0.002  0.001  0.000  0.000  0.996
  0.004  0.995  0.000  0.000  0.001
  0.000  0.000  1.000  0.000  0.000
  0.994  0.003  0.000  0.000  0.003
  0.000  0.000  0.000  1.000  0.000
    occupations:
  0.373  0.008  0.000 -0.014 -0.000
  0.008  0.114 -0.000 -0.002  0.000
  0.000 -0.000  0.146 -0.000 -0.002
 -0.014 -0.002 -0.000  0.095 -0.000
 -0.000  0.000 -0.002 -0.000  0.360
atomic mag. moment =     2.451073
N of occupied +U levels =  37.2168809
 --- exit write_ns ---

 ------ SPIN UP ------------

[...]

 ------ SPIN DOWN ----------

[...]

          k = 0.2500-0.4682 0.0000 ( 27150 PWs)   bands (ev):

[...]

          k =-0.2500 0.2341 0.0000 ( 27132 PWs)   bands (ev):

   -73.8734 -72.5997 -72.5607 -72.4670 -72.4551 -72.3800 -72.2965 -72.2701
   -45.5066 -45.2362 -44.9179 -44.1676 -44.1213 -44.0936 -44.0591 -44.0476
   -44.0112 -44.0099 -43.9063 -43.8792 -43.8566 -43.7874 -43.7410 -43.6997
   -43.6912 -43.6787 -43.6619 -43.5777 -43.5412 -43.5343 -43.4251 -43.2965
   -21.1671 -20.8111 -20.5808 -20.5458 -20.3709 -20.3001 -20.1257 -20.0537
   -20.0135 -19.9478 -19.8388 -19.7331 -19.6738 -19.6653 -19.6373 -19.5388
   -19.4251 -19.3611 -19.3391  -8.5676  -8.3833  -8.0995  -7.9943  -7.8399
    -7.8165  -7.5311  -7.4459  -7.3672  -7.3148  -7.2258  -7.0971  -6.9937
    -6.9525  -6.8160  -6.7757  -6.6835  -6.6457  -6.5114  -6.3482  -6.3102
    -6.2330  -6.0951  -5.8975  -5.8771  -5.6957  -5.6001  -5.5671  -5.3858
    -5.3427  -5.2981  -5.2380  -5.1895  -5.1010  -5.0159  -4.9908  -4.9403
    -4.7990  -4.6950  -4.5620  -4.3839  -4.3450  -4.2499  -4.1932  -4.1082
    -4.0663  -3.9859  -3.9182  -3.8687  -3.7724  -3.6434  -3.6024  -3.5836
    -3.3759  -3.3350  -3.2200  -3.0292   0.2712   0.4537   0.4844   0.9351
     0.9880   1.0596   1.1229   1.1665   1.2183   1.2648   1.3818   1.4689
     1.5095   1.5846   1.6134   1.6637   1.7225   1.7782   1.8387   1.8987
     1.9966   2.0345   2.1200   2.1609   2.2132   2.2661   2.3868   2.4780
     2.5509   2.7651   2.9276   2.9647   3.0422   3.2085   3.3136   3.3547
     3.4072   3.6551   3.7943   3.8280   3.9280   4.0856   4.3668   4.8228
     5.3467   5.7291   5.8886   5.9041   6.1834   6.2972   6.4430   6.6026
     6.7756   6.9136   7.0408   7.3402   7.4630   7.6932   7.8936   7.9936
     8.0833   8.3219   8.4139   8.5400   8.6775   8.8272   8.9877   9.1105
     9.2572   9.3157   9.4328   9.5430   9.6097   9.7789   9.8465  10.0234
    10.1493  10.2291  10.3090  10.4174  10.5067  10.6238  10.7047  10.8302
    10.9254  11.0173  11.1138  11.2211  11.2824  11.3968  11.4673  11.5914
    11.6576  11.7436  11.8646  11.9676  12.0609  12.1247  12.1730  12.2661
    12.3700  12.3899  12.5648  12.6575  12.7218  12.8287  12.9194  12.9706
    12.9777  13.0599  13.0869  13.1548  13.2097  13.3002  13.3451  13.4258
    13.5267  13.6272  13.6918  13.7607  13.8714  13.8988  13.9650  14.0662
    14.1340  14.2057  14.3323  14.4596  14.5156  14.5969  14.6667  14.7557
    14.8033  14.8476  14.9672  15.0416  15.0810  15.2384  15.3059  15.3819
    15.4687  15.5622  15.6165  15.6794  15.7464  15.7566  15.8892  15.9954
    16.0132  16.1164  16.1978  16.2371  16.3002  16.3977  16.4722  16.5110
    16.5863  16.7237  16.7464  16.8446  16.8877  16.9451  17.0064  17.1104
    17.2018  17.2239  17.3105  17.4120  17.4442  17.5297  17.5754  17.6042
    17.7181  17.7374  17.7689  17.8546  17.9403  18.0325  18.1038  18.1632
    18.2460  18.3053  18.3635  18.3913  18.4499  18.6245  18.7297  18.7838
    18.8257  18.8972  18.9615  18.9923  19.0762  19.1569  19.2430  19.3146
    19.4056  19.4312  19.5318  19.6038  19.6418  19.6764  19.7549  19.8652
    19.8915  19.9979  20.1124  20.1855  20.2327  20.3367  20.3926  20.5131
    20.5870  20.7097  20.7487  20.8311  20.8975  20.9552  21.0509  21.1384
    21.1834  21.2432  21.3366  21.3966  21.4094  21.5323

     the spin up/dw Fermi energies are    -1.8902   -2.8434 ev

!    total energy              =   -2025.29062013 Ry
     Harris-Foulkes estimate   =   -2025.29062014 Ry
     estimated scf accuracy    <          7.4E-09 Ry

     The total energy is the sum of the following terms:

     one-electron contribution =  -24088.63499775 Ry
     hartree contribution      =   12064.04534416 Ry
     xc contribution           =    -322.97081223 Ry
     ewald contribution        =   10320.59347135 Ry
     Hubbard energy            =       1.67596196 Ry
     smearing contrib. (-TS)   =       0.00041238 Ry

     total magnetization       =    15.00 Bohr mag/cell
     absolute magnetization    =    24.10 Bohr mag/cell

     convergence has been achieved in  18 iterations

     Forces acting on atoms (Ry/au):

     negative rho (up, down):  0.522E-02 0.181E-02
     atom    1 type  1   force =    -0.00310356   -0.01085232    0.00026411
     atom    2 type  1   force =    -0.00026929    0.00564759   -0.00022825
     atom    3 type  2   force =     0.02756537   -0.00120115    0.00035755
     atom    4 type  2   force =     0.00097494    0.00703598   -0.00038431
     atom    5 type  1   force =    -0.00029509    0.00547688    0.00008214
     atom    6 type  1   force =     0.00044714   -0.00371319    0.00013560
     atom    7 type  1   force =     0.00291166   -0.00190546    0.00053136
     atom    8 type  1   force =    -0.01833665   -0.00080130    0.00047058
     atom    9 type  2   force =     0.00829490    0.00122036   -0.00019127
     atom   10 type  2   force =    -0.00348527    0.00000653    0.00030779
     atom   11 type  1   force =    -0.02505816   -0.03368726   -0.00077854
     atom   12 type  1   force =    -0.02487840    0.03284755   -0.00085190
     atom   13 type  1   force =    -0.03710733    0.00002775   -0.00012637
     atom   14 type  1   force =    -0.00721267   -0.01182693    0.00008850
     atom   15 type  1   force =     0.00056646    0.00698803   -0.00008071
     atom   16 type  2   force =    -0.02938288   -0.00035895    0.00029422
     atom   17 type  2   force =     0.00744076    0.00677020   -0.00060375
     atom   18 type  1   force =     0.00142126    0.00481057    0.00016543
     atom   19 type  1   force =     0.00233303   -0.00337544    0.00019374
     atom   20 type  1   force =     0.00081667   -0.00240130    0.00041248
     atom   21 type  1   force =     0.01423857    0.00023456    0.00072325
     atom   22 type  2   force =     0.00269460   -0.00003662   -0.00021451
     atom   23 type  2   force =    -0.00825529    0.00027968    0.00066498
     atom   24 type  1   force =     0.02581374   -0.01660976    0.00003197
     atom   25 type  1   force =     0.02618347    0.01675183    0.00004210
     atom   26 type  1   force =     0.03512772   -0.00017113    0.00013419
     atom   27 type  3   force =    -0.00004417   -0.00026803   -0.00086652
     atom   28 type  3   force =    -0.00001156   -0.00031724   -0.00076287
     atom   29 type  3   force =     0.00008664   -0.00042557    0.00031401
     atom   30 type  3   force =     0.00011835   -0.00013511    0.00024849
     atom   31 type  1   force =     0.00018410    0.00003387   -0.00071897
     atom   32 type  3   force =     0.00022093   -0.00004462    0.00034549

     Total force =     0.002598     Total SCF correction =     0.000154

     bfgs converged in  12 scf cycles and  11 bfgs steps
     (criteria: energy < 0.10E-03, force < 0.10E-02)

     End of BFGS Geometry Optimization

     Final energy   =   -2025.2906201349 Ry
Begin final coordinates

ATOMIC_POSITIONS (crystal)
O0       0.000000000   0.000000000   0.377234293    0   0   1
O0       0.000000000   0.500000000   0.398035385    0   0   1
Cr1      0.250000000   0.500000000   0.450079755    0   0   1
Cr1      0.000000000   0.000000000   0.449272109    0   0   1
O0       0.250000000   0.800000000   0.449569672    0   0   1
O0       0.250000000   0.200000000   0.449643340    0   0   1
O0       0.000000000   0.500000000   0.497147526    0   0   1
O0       0.000000000   0.000000000   0.523377984    0   0   1
Cr1      0.250000000   0.000000000   0.569531941    0   0   1
Cr1      0.000000000   0.500000000   0.565618716    0   0   1
O0       0.250000000   0.700000000   0.574337634    0   0   1
O0       0.250000000   0.300000000   0.574434296    0   0   1
O0       0.000000000   0.000000000   0.619098820    0   0   1
O0       0.500000000   0.000000000   0.377150026    0   0   1
O0       0.500000000   0.500000000   0.398577269    0   0   1
Cr1      0.750000000   0.500000000   0.450079273    0   0   1
Cr1      0.500000000   0.000000000   0.449509584    0   0   1
O0       0.750000000   0.800000000   0.449592995    0   0   1
O0       0.750000000   0.200000000   0.449624901    0   0   1
O0       0.500000000   0.500000000   0.499976205    0   0   1
O0       0.500000000   0.000000000   0.523842192    0   0   1
Cr1      0.750000000   0.000000000   0.583042590    0   0   1
Cr1      0.500000000   0.500000000   0.576139140    0   0   1
O0       0.750000000   0.700000000   0.575141104    0   0   1
O0       0.750000000   0.300000000   0.575112920    0   0   1
O0       0.500000000   0.000000000   0.618976418    0   0   1
H2      -0.000598248   0.639470612   0.379634014
H2       0.499534082   0.638920898   0.379868163
H2       0.158083116   0.029501462   0.364494957
H2       0.657359709   0.030283838   0.364290555
O0       0.515581174   0.499742859   0.646857144
H2       0.363599474   0.497934339   0.663439078
End final coordinates

     General routines

     Parallel routines
     Hubbard U routines

   This run was terminated on:  20:23:14   5May2014

   JOB DONE.
Running PBS batch system epilogue script
Job id: 340729.audhumbla.fysik.dtu.dk
Username: zhonxu
Groupname: campgst
Jobname: CrO2/Eads-2-layers/OH-U-3.5
Sessionid: 6546
Queuename: verylong
Accounting:
This job has allocated the following 16 nodes:
b022 b022 b022 b022 b022 b022 b022 b022 b010 b010 b010 b010 b010 b010 b010 b010
Finished epilogue job 340729.audhumbla.fysik.dtu.dk for zhonxu