     Program PWSCF v.5.0.2 (svn rev. 9656) starts on 24Jan2014 at 15:34:45

     Current dimensions of program PWSCF are:
     Max number of different atomic species (ntypx) = 10
     Max number of k-points (npk) =  40000
     Max angular momentum in pseudopotentials (lmaxx) =  3
     Reading input from TiO2-v-1.10.in

     Subspace diagonalization in iterative solution of the eigenvalue problem:
     a serial algorithm will be used

     bravais-lattice index     =            0
     lattice parameter (alat)  =       9.0461  a.u.
     unit-cell volume          =     477.0499 (a.u.)^3
     number of atoms/cell      =            6
     number of atomic types    =            2
     number of electrons       =        48.00
     number of Kohn-Sham states=           69
     kinetic-energy cutoff     =      40.0000  Ry
     charge density cutoff     =     500.0000  Ry
     convergence threshold     =      1.0E-06
     mixing beta               =       0.3000
     number of iterations used =            8  plain     mixing
     Exchange-correlation      = SLA  PW   PBE  PBE ( 1 4 3 4 0)
     EXX-fraction              =        0.00
     nstep                     =           50

     celldm(1)=   9.046059  celldm(2)=   0.000000  celldm(3)=   0.000000
     celldm(4)=   0.000000  celldm(5)=   0.000000  celldm(6)=   0.000000

     crystal axes: (cart. coord. in units of alat)
               a(1) = (   1.000000   0.000000   0.000000 )
               a(2) = (   0.000000   1.000000   0.000000 )
               a(3) = (   0.000000   0.000000   0.644444 )

     reciprocal axes: (cart. coord. in units 2 pi/alat)
               b(1) = (  1.000000  0.000000  0.000000 )
               b(2) = (  0.000000  1.000000  0.000000 )
               b(3) = (  0.000000  0.000000  1.551724 )

     PseudoPot. # 1 for Ti read from file:
     /home/camp/zhonxu/pseudo/ti_pbe_v1.uspp.F.UPF
     MD5 check sum: bcc8f6961b3b91f0cac3ca967d22d0fb
     Pseudo is Ultrasoft + core correction, Zval = 12.0
     Generated by new atomic code, or converted to UPF format
     Using radial grid of  851 points,  6 beta functions with:
                l(1) =   0
                l(2) =   0
                l(3) =   1
                l(4) =   1
                l(5) =   2
                l(6) =   2
     Q(r) pseudized with  6 coefficients,  rinner =    1.000   1.000   1.000
                                                       1.000   1.000

     PseudoPot. # 2 for O  read from file:
     /home/camp/zhonxu/pseudo/o_pbe_v1.01.uspp.F.UPF
     MD5 check sum: 2bcb18d16ea4b960afae9ec6d52f22d2
     Pseudo is Ultrasoft + core correction, Zval =  6.0
     Generated by new atomic code, or converted to UPF format
     Using radial grid of  737 points,  5 beta functions with:
                l(1) =   0
                l(2) =   0
                l(3) =   1
                l(4) =   1
                l(5) =   2
     Q(r) pseudized with  8 coefficients,  rinner =    0.900   0.900   0.900
                                                       0.900   0.900

     atomic species   valence    mass     pseudopotential
        Ti0           12.00    47.88000     Ti( 1.00)
        O1             6.00    15.99940     O ( 1.00)

     Starting magnetic structure
     atomic species   magnetization
        Ti0          0.600
        O1           0.000

      8 Sym. Ops., with inversion, found
          (note:  8 additional sym.ops. were found but ignored
           their fractional translations are incommensurate with FFT grid)

   Cartesian axes

     site n.     atom                  positions (alat units)
         1           Ti0 tau(   1) = (   0.0000000   0.0000000   0.0000000  )
         2           Ti0 tau(   2) = (   0.5000000   0.5000000   0.3222222  )
         3           O1  tau(   3) = (   0.3050000   0.3050000   0.0000000  )
         4           O1  tau(   4) = (  -0.3050000  -0.3050000   0.0000000  )
         5           O1  tau(   5) = (   0.8050000   0.1950000   0.3222222  )
         6           O1  tau(   6) = (   0.1950000   0.8050000   0.3222222  )

     number of k points=    54  Methfessel-Paxton smearing, width (Ry)=  0.0100
                       cart. coord. in units 2pi/alat
        k(    1) = (   0.0000000   0.0000000   0.0000000), wk =   0.0080000
        k(    2) = (   0.0000000   0.0000000   0.3103448), wk =   0.0160000
        k(    3) = (   0.0000000   0.0000000   0.6206897), wk =   0.0160000
        k(    4) = (   0.0000000   0.2000000   0.0000000), wk =   0.0320000
        k(    5) = (   0.0000000   0.2000000   0.3103448), wk =   0.0640000
        k(    6) = (   0.0000000   0.2000000   0.6206897), wk =   0.0640000
        k(    7) = (   0.0000000   0.4000000   0.0000000), wk =   0.0320000
        k(    8) = (   0.0000000   0.4000000   0.3103448), wk =   0.0640000
        k(    9) = (   0.0000000   0.4000000   0.6206897), wk =   0.0640000
        k(   10) = (   0.2000000   0.2000000   0.0000000), wk =   0.0160000
        k(   11) = (   0.2000000   0.2000000   0.3103448), wk =   0.0320000
        k(   12) = (   0.2000000   0.2000000   0.6206897), wk =   0.0320000
        k(   13) = (   0.2000000   0.4000000   0.0000000), wk =   0.0320000
        k(   14) = (   0.2000000   0.4000000   0.3103448), wk =   0.0640000
        k(   15) = (   0.2000000   0.4000000   0.6206897), wk =   0.0640000
        k(   16) = (   0.4000000   0.4000000   0.0000000), wk =   0.0160000
        k(   17) = (   0.4000000   0.4000000   0.3103448), wk =   0.0320000
        k(   18) = (   0.4000000   0.4000000   0.6206897), wk =   0.0320000
        k(   19) = (  -0.2000000   0.2000000   0.0000000), wk =   0.0160000
        k(   20) = (  -0.2000000   0.2000000  -0.3103448), wk =   0.0320000
        k(   21) = (  -0.2000000   0.2000000  -0.6206897), wk =   0.0320000
        k(   22) = (  -0.2000000   0.4000000   0.0000000), wk =   0.0320000
        k(   23) = (  -0.2000000   0.4000000  -0.3103448), wk =   0.0640000
        k(   24) = (  -0.2000000   0.4000000  -0.6206897), wk =   0.0640000
        k(   25) = (  -0.4000000   0.4000000   0.0000000), wk =   0.0160000
        k(   26) = (  -0.4000000   0.4000000  -0.3103448), wk =   0.0320000
        k(   27) = (  -0.4000000   0.4000000  -0.6206897), wk =   0.0320000
        k(   28) = (   0.0000000   0.0000000   0.0000000), wk =   0.0080000
        k(   29) = (   0.0000000   0.0000000   0.3103448), wk =   0.0160000
        k(   30) = (   0.0000000   0.0000000   0.6206897), wk =   0.0160000
        k(   31) = (   0.0000000   0.2000000   0.0000000), wk =   0.0320000
        k(   32) = (   0.0000000   0.2000000   0.3103448), wk =   0.0640000
        k(   33) = (   0.0000000   0.2000000   0.6206897), wk =   0.0640000
        k(   34) = (   0.0000000   0.4000000   0.0000000), wk =   0.0320000
        k(   35) = (   0.0000000   0.4000000   0.3103448), wk =   0.0640000
        k(   36) = (   0.0000000   0.4000000   0.6206897), wk =   0.0640000
        k(   37) = (   0.2000000   0.2000000   0.0000000), wk =   0.0160000
        k(   38) = (   0.2000000   0.2000000   0.3103448), wk =   0.0320000
        k(   39) = (   0.2000000   0.2000000   0.6206897), wk =   0.0320000
        k(   40) = (   0.2000000   0.4000000   0.0000000), wk =   0.0320000
        k(   41) = (   0.2000000   0.4000000   0.3103448), wk =   0.0640000
        k(   42) = (   0.2000000   0.4000000   0.6206897), wk =   0.0640000
        k(   43) = (   0.4000000   0.4000000   0.0000000), wk =   0.0160000
        k(   44) = (   0.4000000   0.4000000   0.3103448), wk =   0.0320000
        k(   45) = (   0.4000000   0.4000000   0.6206897), wk =   0.0320000
        k(   46) = (  -0.2000000   0.2000000   0.0000000), wk =   0.0160000
        k(   47) = (  -0.2000000   0.2000000  -0.3103448), wk =   0.0320000
        k(   48) = (  -0.2000000   0.2000000  -0.6206897), wk =   0.0320000
        k(   49) = (  -0.2000000   0.4000000   0.0000000), wk =   0.0320000
        k(   50) = (  -0.2000000   0.4000000  -0.3103448), wk =   0.0640000
        k(   51) = (  -0.2000000   0.4000000  -0.6206897), wk =   0.0640000
        k(   52) = (  -0.4000000   0.4000000   0.0000000), wk =   0.0160000
        k(   53) = (  -0.4000000   0.4000000  -0.3103448), wk =   0.0320000
        k(   54) = (  -0.4000000   0.4000000  -0.6206897), wk =   0.0320000

     Largest allocated arrays     est. size (Mb)     dimensions
     Largest temporary arrays     est. size (Mb)     dimensions

     Check: negative/imaginary core charge=   -0.000013    0.000000

     Initial potential from superposition of free atoms
     Check: negative starting charge=(component1):   -0.020141
     Check: negative starting charge=(component2):   -0.004965

     starting charge   45.99991, renormalised to   48.00000

     negative rho (up, down):  0.210E-01 0.518E-02
     Starting wfc are   36 randomized atomic wfcs

     Self-consistent Calculation

     iteration #  1     ecut=    40.00 Ry     beta=0.30
     Davidson diagonalization with overlap
     ethr =  1.00E-02,  avg # of iterations =  5.1

     negative rho (up, down):  0.189E-01 0.821E-02

     total energy              =    -365.42014753 Ry
     Harris-Foulkes estimate   =    -365.21211011 Ry
     estimated scf accuracy    <       2.64373642 Ry

     total magnetization       =     0.00 Bohr mag/cell
     absolute magnetization    =     1.86 Bohr mag/cell

[...]

     End of self-consistent calculation

 ------ SPIN UP ------------

          k = 0.0000 0.0000 0.0000 (  2023 PWs)   bands (ev):

   -49.8872 -49.8788 -26.1026 -26.1025 -26.0026 -26.0026 -25.9812 -25.9609
   -10.2219  -9.2268  -8.7471  -8.7470   2.1771   2.6856   3.2613   4.0155
     4.0155   5.0920   5.0921   5.5499   6.7065   7.0017   7.0017   7.4271
     9.0159   9.2526   9.4530   9.5211   9.5211  10.9416  11.2386  13.0206
    13.0206  13.8235  14.3813  18.2861  18.2861  21.0404  22.0131  22.7702
    23.6739  25.1775  25.1775  26.1474  26.9520  28.7689  30.1586  30.1586
    30.9031  31.5857  31.5857  31.8756  31.8757  32.0256  32.3470  34.1261
    36.1468  36.2460  37.0659  37.6045  37.6045  38.7997  38.7998  39.1067
    41.0064  41.0064  41.1521  42.2703  44.3344

[...]

          k =-0.2000 0.2000 0.0000 (  2031 PWs)   bands (ev):

[...]

 ------ SPIN DOWN ----------

[...]

     the Fermi energy is     7.4820 ev

!    total energy              =    -366.46955255 Ry
     Harris-Foulkes estimate   =    -366.46955212 Ry
     estimated scf accuracy    <          6.5E-09 Ry

     The total energy is the sum of the following terms:

     one-electron contribution =    -140.73077421 Ry
     hartree contribution      =      90.67192067 Ry
     xc contribution           =     -62.83035993 Ry
     ewald contribution        =    -253.58038441 Ry
     smearing contrib. (-TS)   =       0.00004533 Ry

[...]

     convergence has been achieved in  13 iterations

     Forces acting on atoms (Ry/au):

     negative rho (up, down):  0.122E-01 0.122E-01
     atom    1 type  1   force =     0.00000000    0.00000000    0.00000000
     atom    2 type  1   force =     0.00000000    0.00000000    0.00000000
     atom    3 type  2   force =     0.01146760    0.01146760    0.00000000
[...]
        k(    5) = (   0.0000006   0.1971076   0.3195198), wk =   0.0640000
        k(    6) = (   0.0000006   0.1971076   0.6390396), wk =   0.0640000
        k(    7) = (   0.0000013   0.3942152   0.0000000), wk =   0.0320000
        k(    8) = (   0.0000013   0.3942152   0.3195198), wk =   0.0640000
        k(    9) = (   0.0000013   0.3942152   0.6390396), wk =   0.0640000
        k(   10) = (   0.1971082   0.1971082   0.0000000), wk =   0.0160000
        k(   11) = (   0.1971082   0.1971082   0.3195198), wk =   0.0320000
        k(   12) = (   0.1971082   0.1971082   0.6390396), wk =   0.0320000
        k(   13) = (   0.1971089   0.3942158   0.0000000), wk =   0.0320000
        k(   14) = (   0.1971089   0.3942158   0.3195198), wk =   0.0640000
        k(   15) = (   0.1971089   0.3942158   0.6390396), wk =   0.0640000
        k(   16) = (   0.3942165   0.3942165   0.0000000), wk =   0.0160000
        k(   17) = (   0.3942165   0.3942165   0.3195198), wk =   0.0320000
        k(   18) = (   0.3942165   0.3942165   0.6390396), wk =   0.0320000
        k(   19) = (  -0.1971070   0.1971070   0.0000000), wk =   0.0160000
        k(   20) = (  -0.1971070   0.1971070  -0.3195198), wk =   0.0320000
        k(   21) = (  -0.1971070   0.1971070  -0.6390396), wk =   0.0320000
        k(   22) = (  -0.1971063   0.3942146   0.0000000), wk =   0.0320000
        k(   23) = (  -0.1971063   0.3942146  -0.3195198), wk =   0.0640000
        k(   24) = (  -0.1971063   0.3942146  -0.6390396), wk =   0.0640000
        k(   25) = (  -0.3942139   0.3942139   0.0000000), wk =   0.0160000
        k(   26) = (  -0.3942139   0.3942139  -0.3195198), wk =   0.0320000
        k(   27) = (  -0.3942139   0.3942139  -0.6390396), wk =   0.0320000
        k(   28) = (   0.0000000   0.0000000   0.0000000), wk =   0.0080000
        k(   29) = (   0.0000000   0.0000000   0.3195198), wk =   0.0160000
        k(   30) = (   0.0000000   0.0000000   0.6390396), wk =   0.0160000
        k(   31) = (   0.0000006   0.1971076   0.0000000), wk =   0.0320000
        k(   32) = (   0.0000006   0.1971076   0.3195198), wk =   0.0640000
        k(   33) = (   0.0000006   0.1971076   0.6390396), wk =   0.0640000
        k(   34) = (   0.0000013   0.3942152   0.0000000), wk =   0.0320000
        k(   35) = (   0.0000013   0.3942152   0.3195198), wk =   0.0640000
        k(   36) = (   0.0000013   0.3942152   0.6390396), wk =   0.0640000
        k(   37) = (   0.1971082   0.1971082   0.0000000), wk =   0.0160000
        k(   38) = (   0.1971082   0.1971082   0.3195198), wk =   0.0320000
        k(   39) = (   0.1971082   0.1971082   0.6390396), wk =   0.0320000
        k(   40) = (   0.1971089   0.3942158   0.0000000), wk =   0.0320000
        k(   41) = (   0.1971089   0.3942158   0.3195198), wk =   0.0640000
        k(   42) = (   0.1971089   0.3942158   0.6390396), wk =   0.0640000
        k(   43) = (   0.3942165   0.3942165   0.0000000), wk =   0.0160000
        k(   44) = (   0.3942165   0.3942165   0.3195198), wk =   0.0320000
        k(   45) = (   0.3942165   0.3942165   0.6390396), wk =   0.0320000
        k(   46) = (  -0.1971070   0.1971070   0.0000000), wk =   0.0160000
        k(   47) = (  -0.1971070   0.1971070  -0.3195198), wk =   0.0320000
        k(   48) = (  -0.1971070   0.1971070  -0.6390396), wk =   0.0320000
        k(   49) = (  -0.1971063   0.3942146   0.0000000), wk =   0.0320000
        k(   50) = (  -0.1971063   0.3942146  -0.3195198), wk =   0.0640000
        k(   51) = (  -0.1971063   0.3942146  -0.6390396), wk =   0.0640000
        k(   52) = (  -0.3942139   0.3942139   0.0000000), wk =   0.0160000
        k(   53) = (  -0.3942139   0.3942139  -0.3195198), wk =   0.0320000
        k(   54) = (  -0.3942139   0.3942139  -0.6390396), wk =   0.0320000

     Check: negative/imaginary core charge=   -0.000013    0.000000
     Check: negative starting charge=(component1):   -0.025304

[...]

     Volume is kept fixed: isostatic pressure set to zero

     The maximum number of steps has been reached.

     End of BFGS Geometry Optimization
Begin final coordinates
     new unit-cell volume =    477.04989 a.u.^3 (    70.69150 Ang^3 )

CELL_PARAMETERS (alat=  9.04605950)
   1.014674232  -0.000003258   0.000000000
  -0.000003258   1.014674232   0.000000000
   0.000000000   0.000000000   0.625939303

ATOMIC_POSITIONS (crystal)
Ti0      0.000000000   0.000000000   0.000000000    0   0   0
Ti0      0.500000000   0.500000000   0.500000000    0   0   0
O1       0.310778975   0.310778975   0.000000000    1   1   0
O1      -0.310778975  -0.310778975   0.000000000    1   1   0
O1       0.810779573   0.189220427   0.500000000    1   1   0
O1       0.189220427   0.810779573   0.500000000    1   1   0
End final coordinates

     A final scf calculation at the relaxed structure.
     The G-vectors are recalculated for the final unit cell
     Results may differ from those at the preceding step.

     bravais-lattice index     =            0
     lattice parameter (alat)  =       9.0461  a.u.
     unit-cell volume          =     477.0499 (a.u.)^3
     number of atoms/cell      =            6
     number of atomic types    =            2
     number of electrons       =        48.00
     number of Kohn-Sham states=           69
     kinetic-energy cutoff     =      40.0000  Ry
     charge density cutoff     =     500.0000  Ry
     convergence threshold     =      1.1E-08
     mixing beta               =       0.3000
     number of iterations used =            8  plain     mixing
     Exchange-correlation      = SLA  PW   PBE  PBE ( 1 4 3 4 0)
     EXX-fraction              =        0.00

     celldm(1)=   9.046059  celldm(2)=   0.000000  celldm(3)=   0.000000
     celldm(4)=   0.000000  celldm(5)=   0.000000  celldm(6)=   0.000000

     crystal axes: (cart. coord. in units of alat)
               a(1) = (   1.014674  -0.000003   0.000000 )
               a(2) = (  -0.000003   1.014674   0.000000 )
               a(3) = (   0.000000   0.000000   0.625939 )

     reciprocal axes: (cart. coord. in units 2 pi/alat)
               b(1) = (  0.985538  0.000003 -0.000000 )
               b(2) = (  0.000003  0.985538 -0.000000 )
               b(3) = ( -0.000000 -0.000000  1.597599 )

     PseudoPot. # 1 for Ti read from file:
     /home/camp/zhonxu/pseudo/ti_pbe_v1.uspp.F.UPF
     MD5 check sum: bcc8f6961b3b91f0cac3ca967d22d0fb
     Pseudo is Ultrasoft + core correction, Zval = 12.0
     Generated by new atomic code, or converted to UPF format
     Using radial grid of  851 points,  6 beta functions with:
                l(1) =   0
                l(2) =   0
                l(3) =   1
                l(4) =   1
                l(5) =   2
                l(6) =   2
     Q(r) pseudized with  6 coefficients,  rinner =    1.000   1.000   1.000
                                                       1.000   1.000

     PseudoPot. # 2 for O  read from file:
     /home/camp/zhonxu/pseudo/o_pbe_v1.01.uspp.F.UPF
     MD5 check sum: 2bcb18d16ea4b960afae9ec6d52f22d2
     Pseudo is Ultrasoft + core correction, Zval =  6.0
     Generated by new atomic code, or converted to UPF format
     Using radial grid of  737 points,  5 beta functions with:
                l(1) =   0
                l(2) =   0
                l(3) =   1
                l(4) =   1
                l(5) =   2
     Q(r) pseudized with  8 coefficients,  rinner =    0.900   0.900   0.900
                                                       0.900   0.900

     atomic species   valence    mass     pseudopotential
        Ti0           12.00    47.88000     Ti( 1.00)
        O1             6.00    15.99940     O ( 1.00)

     Starting magnetic structure
     atomic species   magnetization
        Ti0          0.600
        O1           0.000

      8 Sym. Ops., with inversion, found
          (note:  8 additional sym.ops. were found but ignored
           their fractional translations are incommensurate with FFT grid)

   Cartesian axes

     site n.     atom                  positions (alat units)
         1           Ti0 tau(   1) = (   0.0000000   0.0000000   0.0000000  )
         2           Ti0 tau(   2) = (   0.5073355   0.5073355   0.3129697  )
         3           O1  tau(   3) = (   0.3153384   0.3153384   0.0000000  )
         4           O1  tau(   4) = (  -0.3153384  -0.3153384   0.0000000  )
         5           O1  tau(   5) = (   0.8226765   0.1919945   0.3129697  )
         6           O1  tau(   6) = (   0.1919945   0.8226765   0.3129697  )

     number of k points=    54  Methfessel-Paxton smearing, width (Ry)=  0.0100
                       cart. coord. in units 2pi/alat
        k(    1) = (   0.0000000   0.0000000   0.0000000), wk =   0.0080000
        k(    2) = (   0.0000000   0.0000000   0.3195198), wk =   0.0160000
        k(    3) = (   0.0000000   0.0000000   0.6390396), wk =   0.0160000
        k(    4) = (   0.0000006   0.1971076   0.0000000), wk =   0.0320000
        k(    5) = (   0.0000006   0.1971076   0.3195198), wk =   0.0640000
        k(    6) = (   0.0000006   0.1971076   0.6390396), wk =   0.0640000
        k(    7) = (   0.0000013   0.3942152   0.0000000), wk =   0.0320000
        k(    8) = (   0.0000013   0.3942152   0.3195198), wk =   0.0640000
        k(    9) = (   0.0000013   0.3942152   0.6390396), wk =   0.0640000
        k(   10) = (   0.1971082   0.1971082   0.0000000), wk =   0.0160000
        k(   11) = (   0.1971082   0.1971082   0.3195198), wk =   0.0320000
        k(   12) = (   0.1971082   0.1971082   0.6390396), wk =   0.0320000
        k(   13) = (   0.1971089   0.3942158   0.0000000), wk =   0.0320000
        k(   14) = (   0.1971089   0.3942158   0.3195198), wk =   0.0640000
        k(   15) = (   0.1971089   0.3942158   0.6390396), wk =   0.0640000
        k(   16) = (   0.3942165   0.3942165   0.0000000), wk =   0.0160000
        k(   17) = (   0.3942165   0.3942165   0.3195198), wk =   0.0320000
        k(   18) = (   0.3942165   0.3942165   0.6390396), wk =   0.0320000
        k(   19) = (  -0.1971070   0.1971070   0.0000000), wk =   0.0160000
        k(   20) = (  -0.1971070   0.1971070  -0.3195198), wk =   0.0320000
        k(   21) = (  -0.1971070   0.1971070  -0.6390396), wk =   0.0320000
        k(   22) = (  -0.1971063   0.3942146   0.0000000), wk =   0.0320000
        k(   23) = (  -0.1971063   0.3942146  -0.3195198), wk =   0.0640000
        k(   24) = (  -0.1971063   0.3942146  -0.6390396), wk =   0.0640000
        k(   25) = (  -0.3942139   0.3942139   0.0000000), wk =   0.0160000
        k(   26) = (  -0.3942139   0.3942139  -0.3195198), wk =   0.0320000
        k(   27) = (  -0.3942139   0.3942139  -0.6390396), wk =   0.0320000
        k(   28) = (   0.0000000   0.0000000   0.0000000), wk =   0.0080000
        k(   29) = (   0.0000000   0.0000000   0.3195198), wk =   0.0160000
        k(   30) = (   0.0000000   0.0000000   0.6390396), wk =   0.0160000
        k(   31) = (   0.0000006   0.1971076   0.0000000), wk =   0.0320000
        k(   32) = (   0.0000006   0.1971076   0.3195198), wk =   0.0640000
        k(   33) = (   0.0000006   0.1971076   0.6390396), wk =   0.0640000
        k(   34) = (   0.0000013   0.3942152   0.0000000), wk =   0.0320000
        k(   35) = (   0.0000013   0.3942152   0.3195198), wk =   0.0640000
        k(   36) = (   0.0000013   0.3942152   0.6390396), wk =   0.0640000
        k(   37) = (   0.1971082   0.1971082   0.0000000), wk =   0.0160000
        k(   38) = (   0.1971082   0.1971082   0.3195198), wk =   0.0320000
        k(   39) = (   0.1971082   0.1971082   0.6390396), wk =   0.0320000
        k(   40) = (   0.1971089   0.3942158   0.0000000), wk =   0.0320000
        k(   41) = (   0.1971089   0.3942158   0.3195198), wk =   0.0640000
        k(   42) = (   0.1971089   0.3942158   0.6390396), wk =   0.0640000
        k(   43) = (   0.3942165   0.3942165   0.0000000), wk =   0.0160000
        k(   44) = (   0.3942165   0.3942165   0.3195198), wk =   0.0320000
        k(   45) = (   0.3942165   0.3942165   0.6390396), wk =   0.0320000
        k(   46) = (  -0.1971070   0.1971070   0.0000000), wk =   0.0160000
        k(   47) = (  -0.1971070   0.1971070  -0.3195198), wk =   0.0320000
        k(   48) = (  -0.1971070   0.1971070  -0.6390396), wk =   0.0320000
        k(   49) = (  -0.1971063   0.3942146   0.0000000), wk =   0.0320000
        k(   50) = (  -0.1971063   0.3942146  -0.3195198), wk =   0.0640000
        k(   51) = (  -0.1971063   0.3942146  -0.6390396), wk =   0.0640000
        k(   52) = (  -0.3942139   0.3942139   0.0000000), wk =   0.0160000
        k(   53) = (  -0.3942139   0.3942139  -0.3195198), wk =   0.0320000
        k(   54) = (  -0.3942139   0.3942139  -0.6390396), wk =   0.0320000

     Largest allocated arrays     est. size (Mb)     dimensions
     Largest temporary arrays     est. size (Mb)     dimensions

     Check: negative/imaginary core charge=   -0.000013    0.000000

     Initial potential from superposition of free atoms
     Check: negative starting charge=(component1):   -0.020307
     Check: negative starting charge=(component2):   -0.004998

     starting charge   45.99991, renormalised to   48.00000

     negative rho (up, down):  0.212E-01 0.521E-02
     Starting wfc are   36 randomized atomic wfcs

     Self-consistent Calculation

[...]

     total energy              =    -366.47547538 Ry
     Harris-Foulkes estimate   =    -366.47547516 Ry
     estimated scf accuracy    <       0.00000003 Ry

[...]

     iteration # 14     ecut=    40.00 Ry     beta=0.30
     Davidson diagonalization with overlap
     ethr =  6.41E-11,  avg # of iterations =  1.9

     negative rho (up, down):  0.123E-01 0.123E-01

     End of self-consistent calculation

 ------ SPIN UP ------------

[...]

 ------ SPIN DOWN ----------

[...]

          k = 0.3942 0.3942 0.6390 (  2036 PWs)   bands (ev):

[...]

          k =-0.3942 0.3942-0.6390 (  2036 PWs)   bands (ev):

   -49.7665 -49.7662 -26.1997 -26.1986 -25.9481 -25.9448 -25.9206 -25.9188
    -9.2919  -9.2348  -9.0663  -9.0042   3.0837   3.2904   3.3092   3.4693
     4.0973   4.2748   4.9205   4.9471   6.0639   6.1555   6.3224   6.5577
     9.4664   9.7295  10.1915  10.2411  10.2762  10.4507  11.8881  12.2009
    12.8455  13.1492  18.4745  18.8392  20.1021  20.6804  21.4092  21.7844
    23.1075  23.2398  24.4469  24.6722  25.6873  26.2155  28.5451  29.8829
    29.9239  30.5372  31.0039  31.9143  33.7445  33.8950  35.7136  36.3946
    37.7282  38.1109  38.5424  39.1069  39.6028  39.6993  40.2571  40.2873
    41.3654  41.7967  41.9042  42.6610  42.8537

     the Fermi energy is     7.1792 ev

!    total energy              =    -366.47547560 Ry
     Harris-Foulkes estimate   =    -366.47547539 Ry
     estimated scf accuracy    <          1.7E-09 Ry

     The total energy is the sum of the following terms:

     one-electron contribution =    -145.15468067 Ry
     hartree contribution      =      92.89313016 Ry
     xc contribution           =     -62.90446605 Ry
     ewald contribution        =    -251.30955182 Ry
     smearing contrib. (-TS)   =       0.00009278 Ry

     total magnetization       =     0.00 Bohr mag/cell
     absolute magnetization    =     0.00 Bohr mag/cell

     convergence has been achieved in  14 iterations

     Forces acting on atoms (Ry/au):

     negative rho (up, down):  0.123E-01 0.123E-01
     atom    1 type  1   force =     0.00000000    0.00000000    0.00000000
     atom    2 type  1   force =     0.00000000    0.00000000    0.00000000
     atom    3 type  2   force =     0.00102719    0.00102719    0.00000000
     atom    4 type  2   force =    -0.00102719   -0.00102719    0.00000000
     atom    5 type  2   force =     0.00102247   -0.00102247    0.00000000
     atom    6 type  2   force =    -0.00102247    0.00102247    0.00000000

     Total force =     0.002899     Total SCF correction =     0.000037

     entering subroutine stress ...

     negative rho (up, down):  0.123E-01 0.123E-01
          total   stress  (Ry/bohr**3)                   (kbar)     P= -158.14
  -0.00108746   0.00000008   0.00000000       -159.97      0.01      0.00
   0.00000008  -0.00108746   0.00000000          0.01   -159.97      0.00
   0.00000000   0.00000000  -0.00105003          0.00      0.00   -154.46

     General routines

     Parallel routines

   This run was terminated on:  18:59:28  24Jan2014

   JOB DONE.
Running PBS batch system epilogue script
Job id: 251912.audhumbla.fysik.dtu.dk
Username: zhonxu
Groupname: campgst
Jobname: TiO2/fine-EOS/ferro/TiO2-v-1.10
Sessionid: 18165
Queuename: verylong
Accounting:
This job has allocated the following 4 nodes:
q124 q124 q124 q124
Finished epilogue job 251912.audhumbla.fysik.dtu.dk for zhonxu