     Program PWSCF v.5.0.2 (svn rev. 9656) starts on 27Jan2014 at  9:39:11

     Current dimensions of program PWSCF are:
     Max number of different atomic species (ntypx) = 10
     Max number of k-points (npk) =  40000
     Max angular momentum in pseudopotentials (lmaxx) =  3
     Reading input from TiO2-v-1.10.in

     Subspace diagonalization in iterative solution of the eigenvalue problem:
     a serial algorithm will be used

     bravais-lattice index     =            0
     lattice parameter (alat)  =       9.1788  a.u.
     unit-cell volume          =     477.0500 (a.u.)^3
     number of atoms/cell      =            6
     number of atomic types    =            2
     number of electrons       =        48.00
     number of Kohn-Sham states=           69
     kinetic-energy cutoff     =      40.0000  Ry
     charge density cutoff     =     500.0000  Ry
     convergence threshold     =      7.0E-06
     mixing beta               =       0.3000
     number of iterations used =            8  plain     mixing
     Exchange-correlation      = SLA  PW   PBE  PBE ( 1 4 3 4 0)
     EXX-fraction              =        0.00
     nstep                     =           50

     celldm(1)=   9.178804  celldm(2)=   0.000000  celldm(3)=   0.000000
     celldm(4)=   0.000000  celldm(5)=   0.000000  celldm(6)=   0.000000

     crystal axes: (cart. coord. in units of alat)
               a(1) = (   1.000000  -0.000003   0.000000 )
               a(2) = (  -0.000003   1.000000   0.000000 )
               a(3) = (   0.000000   0.000000   0.616887 )

     reciprocal axes: (cart. coord. in units 2 pi/alat)
               b(1) = (  1.000000  0.000003 -0.000000 )
               b(2) = (  0.000003  1.000000 -0.000000 )
               b(3) = ( -0.000000 -0.000000  1.621043 )

     PseudoPot. # 1 for Ti read from file:
     /home/camp/zhonxu/pseudo/ti_pbe_v1.uspp.F.UPF
     MD5 check sum: bcc8f6961b3b91f0cac3ca967d22d0fb
     Pseudo is Ultrasoft + core correction, Zval = 12.0
     Generated by new atomic code, or converted to UPF format
     Using radial grid of  851 points,  6 beta functions with:
                l(1) =   0
                l(2) =   0
                l(3) =   1
                l(4) =   1
                l(5) =   2
                l(6) =   2
     Q(r) pseudized with  6 coefficients,  rinner =    1.000   1.000   1.000
                                                       1.000   1.000

     PseudoPot. # 2 for O  read from file:
     /home/camp/zhonxu/pseudo/o_pbe_v1.01.uspp.F.UPF
     MD5 check sum: 2bcb18d16ea4b960afae9ec6d52f22d2
     Pseudo is Ultrasoft + core correction, Zval =  6.0
     Generated by new atomic code, or converted to UPF format
     Using radial grid of  737 points,  5 beta functions with:
                l(1) =   0
                l(2) =   0
                l(3) =   1
                l(4) =   1
                l(5) =   2
     Q(r) pseudized with  8 coefficients,  rinner =    0.900   0.900   0.900
                                                       0.900   0.900

     atomic species   valence    mass     pseudopotential
        Ti0           12.00    47.88000     Ti( 1.00)
        O1             6.00    15.99940     O ( 1.00)

     Starting magnetic structure
     atomic species   magnetization
        Ti0          0.600
        O1           0.000

      2 Sym. Ops. (no inversion) found

   Cartesian axes

     site n.     atom                  positions (alat units)
         1           Ti0 tau(   1) = (   0.0000000   0.0000000   0.0000000  )
         2           Ti0 tau(   2) = (   0.4927684   0.4927684   0.3175611  )
         3           O1  tau(   3) = (   0.3107790   0.3107790   0.0000000  )
         4           O1  tau(   4) = (  -0.3107790  -0.3107790   0.0000000  )
         5           O1  tau(   5) = (   0.8107794   0.1892174   0.3175611  )
         6           O1  tau(   6) = (   0.1892174   0.8107794   0.3175611  )

     number of k points=    78  Methfessel-Paxton smearing, width (Ry)=  0.0100
                       cart. coord. in units 2pi/alat
        k(    1) = (   0.0000000   0.0000000   0.0000000), wk =   0.0080000
        k(    2) = (   0.0000000   0.0000000   0.3242085), wk =   0.0160000
        k(    3) = (   0.0000000   0.0000000   0.6484170), wk =   0.0160000
        k(    4) = (   0.0000006   0.2000000   0.0000000), wk =   0.0320000
        k(    5) = (   0.0000006   0.2000000   0.3242085), wk =   0.0320000
        k(    6) = (   0.0000006   0.2000000   0.6484170), wk =   0.0320000
        k(    7) = (   0.0000013   0.4000000   0.0000000), wk =   0.0320000
        k(    8) = (   0.0000013   0.4000000   0.3242085), wk =   0.0320000
        k(    9) = (   0.0000013   0.4000000   0.6484170), wk =   0.0320000
        k(   10) = (   0.2000006   0.2000006   0.0000000), wk =   0.0160000
        k(   11) = (   0.2000006   0.2000006   0.3242085), wk =   0.0160000
        k(   12) = (   0.2000006   0.2000006   0.6484170), wk =   0.0160000
        k(   13) = (   0.2000013   0.4000006   0.0000000), wk =   0.0320000
        k(   14) = (   0.2000013   0.4000006   0.3242085), wk =   0.0320000
        k(   15) = (   0.2000013   0.4000006   0.6484170), wk =   0.0320000
        k(   16) = (   0.1999987  -0.3999994   0.0000000), wk =   0.0320000
        k(   17) = (   0.1999987  -0.3999994   0.3242085), wk =   0.0320000
        k(   18) = (   0.1999987  -0.3999994   0.6484170), wk =   0.0320000
        k(   19) = (   0.1999994  -0.1999994   0.0000000), wk =   0.0160000
        k(   20) = (   0.1999994  -0.1999994   0.3242085), wk =   0.0320000
        k(   21) = (   0.1999994  -0.1999994   0.6484170), wk =   0.0320000
        k(   22) = (   0.4000013   0.4000013   0.0000000), wk =   0.0160000
        k(   23) = (   0.4000013   0.4000013   0.3242085), wk =   0.0160000
        k(   24) = (   0.4000013   0.4000013   0.6484170), wk =   0.0160000
        k(   25) = (   0.3999987  -0.3999987   0.0000000), wk =   0.0160000
        k(   26) = (   0.3999987  -0.3999987   0.3242085), wk =   0.0320000
        k(   27) = (   0.3999987  -0.3999987   0.6484170), wk =   0.0320000
        k(   28) = (   0.2000000   0.0000006  -0.3242085), wk =   0.0320000
        k(   29) = (   0.2000000   0.0000006  -0.6484170), wk =   0.0320000
        k(   30) = (   0.4000000   0.0000013  -0.3242085), wk =   0.0320000
        k(   31) = (   0.4000000   0.0000013  -0.6484170), wk =   0.0320000
        k(   32) = (   0.2000006   0.2000006  -0.3242085), wk =   0.0160000
        k(   33) = (   0.2000006   0.2000006  -0.6484170), wk =   0.0160000
        k(   34) = (   0.4000006   0.2000013  -0.3242085), wk =   0.0320000
        k(   35) = (   0.4000006   0.2000013  -0.6484170), wk =   0.0320000
        k(   36) = (  -0.3999994   0.1999987  -0.3242085), wk =   0.0320000
        k(   37) = (  -0.3999994   0.1999987  -0.6484170), wk =   0.0320000
        k(   38) = (   0.4000013   0.4000013  -0.3242085), wk =   0.0160000
        k(   39) = (   0.4000013   0.4000013  -0.6484170), wk =   0.0160000
        k(   40) = (   0.0000000   0.0000000   0.0000000), wk =   0.0080000
        k(   41) = (   0.0000000   0.0000000   0.3242085), wk =   0.0160000
        k(   42) = (   0.0000000   0.0000000   0.6484170), wk =   0.0160000
        k(   43) = (   0.0000006   0.2000000   0.0000000), wk =   0.0320000
        k(   44) = (   0.0000006   0.2000000   0.3242085), wk =   0.0320000
        k(   45) = (   0.0000006   0.2000000   0.6484170), wk =   0.0320000
        k(   46) = (   0.0000013   0.4000000   0.0000000), wk =   0.0320000
        k(   47) = (   0.0000013   0.4000000   0.3242085), wk =   0.0320000
        k(   48) = (   0.0000013   0.4000000   0.6484170), wk =   0.0320000
        k(   49) = (   0.2000006   0.2000006   0.0000000), wk =   0.0160000
        k(   50) = (   0.2000006   0.2000006   0.3242085), wk =   0.0160000
        k(   51) = (   0.2000006   0.2000006   0.6484170), wk =   0.0160000
        k(   52) = (   0.2000013   0.4000006   0.0000000), wk =   0.0320000
        k(   53) = (   0.2000013   0.4000006   0.3242085), wk =   0.0320000
        k(   54) = (   0.2000013   0.4000006   0.6484170), wk =   0.0320000
        k(   55) = (   0.1999987  -0.3999994   0.0000000), wk =   0.0320000
        k(   56) = (   0.1999987  -0.3999994   0.3242085), wk =   0.0320000
        k(   57) = (   0.1999987  -0.3999994   0.6484170), wk =   0.0320000
        k(   58) = (   0.1999994  -0.1999994   0.0000000), wk =   0.0160000
        k(   59) = (   0.1999994  -0.1999994   0.3242085), wk =   0.0320000
        k(   60) = (   0.1999994  -0.1999994   0.6484170), wk =   0.0320000
[...]
        k(   64) = (   0.3999987  -0.3999987   0.0000000), wk =   0.0160000
        k(   65) = (   0.3999987  -0.3999987   0.3242085), wk =   0.0320000
        k(   66) = (   0.3999987  -0.3999987   0.6484170), wk =   0.0320000
        k(   67) = (   0.2000000   0.0000006  -0.3242085), wk =   0.0320000
        k(   68) = (   0.2000000   0.0000006  -0.6484170), wk =   0.0320000
        k(   69) = (   0.4000000   0.0000013  -0.3242085), wk =   0.0320000
        k(   70) = (   0.4000000   0.0000013  -0.6484170), wk =   0.0320000
        k(   71) = (   0.2000006   0.2000006  -0.3242085), wk =   0.0160000
        k(   72) = (   0.2000006   0.2000006  -0.6484170), wk =   0.0160000
        k(   73) = (   0.4000006   0.2000013  -0.3242085), wk =   0.0320000
        k(   74) = (   0.4000006   0.2000013  -0.6484170), wk =   0.0320000
        k(   75) = (  -0.3999994   0.1999987  -0.3242085), wk =   0.0320000
        k(   76) = (  -0.3999994   0.1999987  -0.6484170), wk =   0.0320000
        k(   77) = (   0.4000013   0.4000013  -0.3242085), wk =   0.0160000
        k(   78) = (   0.4000013   0.4000013  -0.6484170), wk =   0.0160000

     Largest allocated arrays     est. size (Mb)     dimensions
     Largest temporary arrays     est. size (Mb)     dimensions

     Check: negative/imaginary core charge=   -0.000013    0.000000

     Initial potential from superposition of free atoms
     Check: negative starting charge=(component1):   -0.019891
     Check: negative starting charge=(component2):   -0.004893

     starting charge   45.99991, renormalised to   48.00000

     negative rho (up, down):  0.208E-01 0.511E-02
     Starting wfc are   36 randomized atomic wfcs

     Self-consistent Calculation

     iteration #  1     ecut=    40.00 Ry     beta=0.30
     Davidson diagonalization with overlap
     ethr =  1.00E-02,  avg # of iterations =  5.1

     negative rho (up, down):  0.187E-01 0.812E-02

     total energy              =    -365.43555645 Ry
     Harris-Foulkes estimate   =    -365.20384975 Ry
     estimated scf accuracy    <       2.59171745 Ry

     total magnetization       =    -0.00 Bohr mag/cell
     absolute magnetization    =     1.90 Bohr mag/cell

[...]

     End of self-consistent calculation

 ------ SPIN UP ------------

          k = 0.0000 0.0000 0.0000 (  2063 PWs)   bands (ev):

   -49.7896 -49.7783 -26.0246 -26.0184 -25.9277 -25.9254 -25.8610 -25.8402
   -10.3290  -9.4182  -8.8039  -8.7487   2.0882   2.5807   3.2233   3.8272
     3.8932   4.9422   4.9444   5.7433   6.7068   6.8142   6.8981   7.2035
[...]
        k(   49) = (   0.1982873   0.1982873  -0.0016820), wk =   0.0160000
        k(   50) = (   0.1968951   0.1968951   0.3192302), wk =   0.0160000
        k(   51) = (   0.1955028   0.1955028   0.6401423), wk =   0.0160000
        k(   52) = (   0.1955275   0.3993346  -0.0025229), wk =   0.0320000
        k(   53) = (   0.1941352   0.3979423   0.3183892), wk =   0.0320000
        k(   54) = (   0.1927429   0.3965500   0.6393013), wk =   0.0320000
        k(   55) = (   0.2065670  -0.4048543   0.0008410), wk =   0.0320000
        k(   56) = (   0.2051747  -0.4062466   0.3217531), wk =   0.0320000
        k(   57) = (   0.2037824  -0.4076388   0.6426652), wk =   0.0320000
        k(   58) = (   0.2038071  -0.2038071   0.0000000), wk =   0.0160000
        k(   59) = (   0.2024148  -0.2051993   0.3209121), wk =   0.0320000
        k(   60) = (   0.2010225  -0.2065916   0.6418242), wk =   0.0320000
[...]
        k(   64) = (   0.4076142  -0.4076142  -0.0000000), wk =   0.0160000
        k(   65) = (   0.4062219  -0.4090064   0.3209121), wk =   0.0320000
        k(   66) = (   0.4048296  -0.4103987   0.6418242), wk =   0.0320000
        k(   67) = (   0.2024395  -0.0013676  -0.3217531), wk =   0.0320000
        k(   68) = (   0.2038317   0.0000247  -0.6426652), wk =   0.0320000
        k(   69) = (   0.4034867  -0.0041275  -0.3225941), wk =   0.0320000
        k(   70) = (   0.4048790  -0.0027352  -0.6435062), wk =   0.0320000
        k(   71) = (   0.1996796   0.1996796  -0.3225941), wk =   0.0160000
        k(   72) = (   0.2010719   0.2010719  -0.6435062), wk =   0.0160000
        k(   73) = (   0.4007268   0.1969197  -0.3234351), wk =   0.0320000
        k(   74) = (   0.4021191   0.1983120  -0.6443472), wk =   0.0320000
        k(   75) = (  -0.4034620   0.2079592  -0.3200711), wk =   0.0320000
        k(   76) = (  -0.4020698   0.2093515  -0.6409833), wk =   0.0320000
        k(   77) = (   0.3979669   0.3979669  -0.3242760), wk =   0.0160000
        k(   78) = (   0.3993592   0.3993592  -0.6451882), wk =   0.0160000

     Check: negative/imaginary core charge=   -0.000013    0.000000
     Check: negative starting charge=(component1):   -0.024841

[...]

     Threshold (ethr) on eigenvalues was too large:
     Diagonalizing with lowered threshold

     Davidson diagonalization with overlap
     ethr =  1.59E-09,  avg # of iterations =  1.0

[...]

     Volume is kept fixed: isostatic pressure set to zero

     The maximum number of steps has been reached.

     End of BFGS Geometry Optimization
Begin final coordinates
     new unit-cell volume =    477.05000 a.u.^3 (    70.69152 Ang^3 )

CELL_PARAMETERS (alat=  9.17880418)
   0.994997278   0.013677103   0.004376103
   0.013677103   0.994997278   0.004376103
   0.002643327   0.002643327   0.623246510

ATOMIC_POSITIONS (crystal)
Ti0      0.000000000   0.000000000   0.000000000    0   0   0
Ti0      0.492770000   0.492770000   0.514780000    0   0   0
O1       0.275377016   0.275377016   0.000050102    1   1   0
O1      -0.344627453  -0.344627453   0.000056260    1   1   0
O1       0.783805044   0.168028451   0.514894885    1   1   0
O1       0.168028451   0.783805044   0.514894885    1   1   0
End final coordinates

     A final scf calculation at the relaxed structure.
     The G-vectors are recalculated for the final unit cell
     Results may differ from those at the preceding step.

     bravais-lattice index     =            0
     lattice parameter (alat)  =       9.1788  a.u.
     unit-cell volume          =     477.0500 (a.u.)^3
     number of atoms/cell      =            6
     number of atomic types    =            2
     number of electrons       =        48.00
     number of Kohn-Sham states=           69
     kinetic-energy cutoff     =      40.0000  Ry
     charge density cutoff     =     500.0000  Ry
     convergence threshold     =      7.0E-08
     mixing beta               =       0.3000
     number of iterations used =            8  plain     mixing
     Exchange-correlation      = SLA  PW   PBE  PBE ( 1 4 3 4 0)
     EXX-fraction              =        0.00

     celldm(1)=   9.178804  celldm(2)=   0.000000  celldm(3)=   0.000000
     celldm(4)=   0.000000  celldm(5)=   0.000000  celldm(6)=   0.000000

     crystal axes: (cart. coord. in units of alat)
               a(1) = (   0.994997   0.013677   0.004376 )
               a(2) = (   0.013677   0.994997   0.004376 )
               a(3) = (   0.002643   0.002643   0.623247 )

     reciprocal axes: (cart. coord. in units 2 pi/alat)
               b(1) = (  1.005236 -0.013799 -0.004205 )
               b(2) = ( -0.013799  1.005236 -0.004205 )
               b(3) = ( -0.006961 -0.006961  1.604561 )

     PseudoPot. # 1 for Ti read from file:
     /home/camp/zhonxu/pseudo/ti_pbe_v1.uspp.F.UPF
     MD5 check sum: bcc8f6961b3b91f0cac3ca967d22d0fb
     Pseudo is Ultrasoft + core correction, Zval = 12.0
     Generated by new atomic code, or converted to UPF format
     Using radial grid of  851 points,  6 beta functions with:
                l(1) =   0
                l(2) =   0
                l(3) =   1
                l(4) =   1
                l(5) =   2
                l(6) =   2
     Q(r) pseudized with  6 coefficients,  rinner =    1.000   1.000   1.000
                                                       1.000   1.000

     PseudoPot. # 2 for O  read from file:
     /home/camp/zhonxu/pseudo/o_pbe_v1.01.uspp.F.UPF
     MD5 check sum: 2bcb18d16ea4b960afae9ec6d52f22d2
     Pseudo is Ultrasoft + core correction, Zval =  6.0
     Generated by new atomic code, or converted to UPF format
     Using radial grid of  737 points,  5 beta functions with:
                l(1) =   0
                l(2) =   0
                l(3) =   1
                l(4) =   1
                l(5) =   2
     Q(r) pseudized with  8 coefficients,  rinner =    0.900   0.900   0.900
                                                       0.900   0.900

     atomic species   valence    mass     pseudopotential
        Ti0           12.00    47.88000     Ti( 1.00)
        O1             6.00    15.99940     O ( 1.00)

     Starting magnetic structure
     atomic species   magnetization
        Ti0          0.600
        O1           0.000

      2 Sym. Ops. (no inversion) found

   Cartesian axes

     site n.     atom                  positions (alat units)
         1           Ti0 tau(   1) = (   0.0000000   0.0000000   0.0000000  )
         2           Ti0 tau(   2) = (   0.4984052   0.4984052   0.3251477  )
         3           O1  tau(   3) = (   0.2777659   0.2777659   0.0024414  )
         4           O1  tau(   4) = (  -0.3476167  -0.3476167  -0.0029812  )
         5           O1  tau(   5) = (   0.7835431   0.1792691   0.3250718  )
         6           O1  tau(   6) = (   0.1792691   0.7835431   0.3250718  )

     number of k points=    78  Methfessel-Paxton smearing, width (Ry)=  0.0100
                       cart. coord. in units 2pi/alat
        k(    1) = (   0.0000000   0.0000000   0.0000000), wk =   0.0080000
        k(    2) = (  -0.0013923  -0.0013923   0.3209121), wk =   0.0160000
        k(    3) = (  -0.0027845  -0.0027845   0.6418242), wk =   0.0160000
        k(    4) = (  -0.0027599   0.2010472  -0.0008410), wk =   0.0320000
        k(    5) = (  -0.0041521   0.1996549   0.3200711), wk =   0.0320000
        k(    6) = (  -0.0055444   0.1982627   0.6409833), wk =   0.0320000
        k(    7) = (  -0.0055197   0.4020944  -0.0016820), wk =   0.0320000
        k(    8) = (  -0.0069120   0.4007022   0.3192302), wk =   0.0320000
        k(    9) = (  -0.0083043   0.3993099   0.6401423), wk =   0.0320000
        k(   10) = (   0.1982873   0.1982873  -0.0016820), wk =   0.0160000
        k(   11) = (   0.1968951   0.1968951   0.3192302), wk =   0.0160000
        k(   12) = (   0.1955028   0.1955028   0.6401423), wk =   0.0160000
        k(   13) = (   0.1955275   0.3993346  -0.0025229), wk =   0.0320000
        k(   14) = (   0.1941352   0.3979423   0.3183892), wk =   0.0320000
        k(   15) = (   0.1927429   0.3965500   0.6393013), wk =   0.0320000
        k(   16) = (   0.2065670  -0.4048543   0.0008410), wk =   0.0320000
        k(   17) = (   0.2051747  -0.4062466   0.3217531), wk =   0.0320000
        k(   18) = (   0.2037824  -0.4076388   0.6426652), wk =   0.0320000
        k(   19) = (   0.2038071  -0.2038071   0.0000000), wk =   0.0160000
        k(   20) = (   0.2024148  -0.2051993   0.3209121), wk =   0.0320000
        k(   21) = (   0.2010225  -0.2065916   0.6418242), wk =   0.0320000
        k(   22) = (   0.3965747   0.3965747  -0.0033639), wk =   0.0160000
        k(   23) = (   0.3951824   0.3951824   0.3175482), wk =   0.0160000
        k(   24) = (   0.3937901   0.3937901   0.6384603), wk =   0.0160000
        k(   25) = (   0.4076142  -0.4076142  -0.0000000), wk =   0.0160000
        k(   26) = (   0.4062219  -0.4090064   0.3209121), wk =   0.0320000
        k(   27) = (   0.4048296  -0.4103987   0.6418242), wk =   0.0320000
        k(   28) = (   0.2024395  -0.0013676  -0.3217531), wk =   0.0320000
        k(   29) = (   0.2038317   0.0000247  -0.6426652), wk =   0.0320000
        k(   30) = (   0.4034867  -0.0041275  -0.3225941), wk =   0.0320000
        k(   31) = (   0.4048790  -0.0027352  -0.6435062), wk =   0.0320000
        k(   32) = (   0.1996796   0.1996796  -0.3225941), wk =   0.0160000
        k(   33) = (   0.2010719   0.2010719  -0.6435062), wk =   0.0160000
        k(   34) = (   0.4007268   0.1969197  -0.3234351), wk =   0.0320000
        k(   35) = (   0.4021191   0.1983120  -0.6443472), wk =   0.0320000
        k(   36) = (  -0.4034620   0.2079592  -0.3200711), wk =   0.0320000
        k(   37) = (  -0.4020698   0.2093515  -0.6409833), wk =   0.0320000
        k(   38) = (   0.3979669   0.3979669  -0.3242760), wk =   0.0160000
        k(   39) = (   0.3993592   0.3993592  -0.6451882), wk =   0.0160000
        k(   40) = (   0.0000000   0.0000000   0.0000000), wk =   0.0080000
        k(   41) = (  -0.0013923  -0.0013923   0.3209121), wk =   0.0160000
        k(   42) = (  -0.0027845  -0.0027845   0.6418242), wk =   0.0160000
        k(   43) = (  -0.0027599   0.2010472  -0.0008410), wk =   0.0320000
        k(   44) = (  -0.0041521   0.1996549   0.3200711), wk =   0.0320000
        k(   45) = (  -0.0055444   0.1982627   0.6409833), wk =   0.0320000
        k(   46) = (  -0.0055197   0.4020944  -0.0016820), wk =   0.0320000
        k(   47) = (  -0.0069120   0.4007022   0.3192302), wk =   0.0320000
        k(   48) = (  -0.0083043   0.3993099   0.6401423), wk =   0.0320000
        k(   49) = (   0.1982873   0.1982873  -0.0016820), wk =   0.0160000
        k(   50) = (   0.1968951   0.1968951   0.3192302), wk =   0.0160000
        k(   51) = (   0.1955028   0.1955028   0.6401423), wk =   0.0160000
        k(   52) = (   0.1955275   0.3993346  -0.0025229), wk =   0.0320000
        k(   53) = (   0.1941352   0.3979423   0.3183892), wk =   0.0320000
        k(   54) = (   0.1927429   0.3965500   0.6393013), wk =   0.0320000
        k(   55) = (   0.2065670  -0.4048543   0.0008410), wk =   0.0320000
        k(   56) = (   0.2051747  -0.4062466   0.3217531), wk =   0.0320000
        k(   57) = (   0.2037824  -0.4076388   0.6426652), wk =   0.0320000
        k(   58) = (   0.2038071  -0.2038071   0.0000000), wk =   0.0160000
        k(   59) = (   0.2024148  -0.2051993   0.3209121), wk =   0.0320000
        k(   60) = (   0.2010225  -0.2065916   0.6418242), wk =   0.0320000
[...]
        k(   64) = (   0.4076142  -0.4076142  -0.0000000), wk =   0.0160000
        k(   65) = (   0.4062219  -0.4090064   0.3209121), wk =   0.0320000
        k(   66) = (   0.4048296  -0.4103987   0.6418242), wk =   0.0320000
        k(   67) = (   0.2024395  -0.0013676  -0.3217531), wk =   0.0320000
        k(   68) = (   0.2038317   0.0000247  -0.6426652), wk =   0.0320000
        k(   69) = (   0.4034867  -0.0041275  -0.3225941), wk =   0.0320000
        k(   70) = (   0.4048790  -0.0027352  -0.6435062), wk =   0.0320000
        k(   71) = (   0.1996796   0.1996796  -0.3225941), wk =   0.0160000
        k(   72) = (   0.2010719   0.2010719  -0.6435062), wk =   0.0160000
        k(   73) = (   0.4007268   0.1969197  -0.3234351), wk =   0.0320000
        k(   74) = (   0.4021191   0.1983120  -0.6443472), wk =   0.0320000
        k(   75) = (  -0.4034620   0.2079592  -0.3200711), wk =   0.0320000
        k(   76) = (  -0.4020698   0.2093515  -0.6409833), wk =   0.0320000
        k(   77) = (   0.3979669   0.3979669  -0.3242760), wk =   0.0160000
        k(   78) = (   0.3993592   0.3993592  -0.6451882), wk =   0.0160000

     Largest allocated arrays     est. size (Mb)     dimensions
     Largest temporary arrays     est. size (Mb)     dimensions

     Check: negative/imaginary core charge=   -0.000013    0.000000

     Initial potential from superposition of free atoms
     Check: negative starting charge=(component1):   -0.019937
     Check: negative starting charge=(component2):   -0.004904

     starting charge   45.99991, renormalised to   48.00000

     negative rho (up, down):  0.208E-01 0.512E-02
     Starting wfc are   36 randomized atomic wfcs

     Self-consistent Calculation

[...]

     total energy              =    -366.47994652 Ry
     Harris-Foulkes estimate   =    -366.47994605 Ry
     estimated scf accuracy    <       0.00000011 Ry

[...]

     iteration # 14     ecut=    40.00 Ry     beta=0.30
     Davidson diagonalization with overlap
     ethr =  2.25E-10,  avg # of iterations =  2.0

     negative rho (up, down):  0.121E-01 0.121E-01

     End of self-consistent calculation

 ------ SPIN UP ------------

[...]

 ------ SPIN DOWN ----------

[...]

          k =-0.4021 0.2094-0.6410 (  2042 PWs)   bands (ev):

[...]

          k = 0.3994 0.3994-0.6452 (  2033 PWs)   bands (ev):

   -49.7247 -49.5832 -26.1899 -26.0122 -25.9200 -25.8950 -25.7872 -25.7580
    -9.4491  -9.1525  -9.0926  -8.8962   3.0657   3.2072   3.3190   3.4694
     4.0276   4.2746   4.9516   5.0498   5.9829   6.1390   6.4303   6.4672
     9.6517  10.0036  10.0284  10.2906  10.4290  10.6491  11.8226  12.5687
    12.8400  12.9957  18.5088  18.8469  20.1026  20.7391  21.4559  21.5464
    22.8075  23.0937  24.4961  24.8956  25.8394  26.2250  28.7711  29.7852
    30.3357  30.7661  31.3779  31.8265  33.6110  34.2887  35.5570  36.2371
    37.3295  37.9745  38.8489  38.9203  39.1827  39.5072  39.8150  40.9047
    40.9116  41.7405  42.1730  43.2146  43.4105

     the Fermi energy is     7.4847 ev

!    total energy              =    -366.47994679 Ry
     Harris-Foulkes estimate   =    -366.47994656 Ry
     estimated scf accuracy    <       0.00000002 Ry

     The total energy is the sum of the following terms:

     one-electron contribution =    -145.80924952 Ry
     hartree contribution      =      93.29350124 Ry
     xc contribution           =     -62.95568377 Ry
     ewald contribution        =    -251.00852918 Ry
     smearing contrib. (-TS)   =       0.00001444 Ry

     total magnetization       =    -0.00 Bohr mag/cell
     absolute magnetization    =     0.00 Bohr mag/cell

     convergence has been achieved in  14 iterations

     Forces acting on atoms (Ry/au):

     negative rho (up, down):  0.121E-01 0.121E-01
     atom    1 type  1   force =     0.02672981    0.02672981   -0.00279354
     atom    2 type  1   force =    -0.02675134   -0.02675134    0.00430107
     atom    3 type  2   force =     0.00021300    0.00021300   -0.00183601
     atom    4 type  2   force =    -0.00018619   -0.00018619    0.00627111
     atom    5 type  2   force =     0.00005887   -0.00006414   -0.00297132
     atom    6 type  2   force =    -0.00006414    0.00005887   -0.00297132

     Total force =     0.000419     Total SCF correction =     0.000046
     SCF correction compared to forces is large: reduce conv_thr to get better values

     entering subroutine stress ...

     negative rho (up, down):  0.121E-01 0.121E-01
          total   stress  (Ry/bohr**3)                   (kbar)     P= -138.19
  -0.00094045   0.00000296  -0.00000082       -138.34      0.44     -0.12
   0.00000296  -0.00094045  -0.00000082          0.44   -138.34     -0.12
  -0.00000082  -0.00000082  -0.00093721         -0.12     -0.12   -137.87

     General routines

     Parallel routines

   This run was terminated on:  12:20:50  27Jan2014

   JOB DONE.
Running PBS batch system epilogue script
Job id: 254512.audhumbla.fysik.dtu.dk
Username: zhonxu
Groupname: campgst
Jobname: TiO2/fine-EOS/ferro/TiO2-v-1.10
Sessionid: 17261
Queuename: verylong
Accounting:
This job has allocated the following 4 nodes:
q141 q141 q141 q141
Finished epilogue job 254512.audhumbla.fysik.dtu.dk for zhonxu