     Program PWSCF v.5.0.2 (svn rev. 9656) starts on 15Feb2014 at  1:43:54

     Current dimensions of program PWSCF are:
     Max number of different atomic species (ntypx) = 10
     Max number of k-points (npk) =  40000
     Max angular momentum in pseudopotentials (lmaxx) =  3
     Reading input from alpha_0.15/alpha_0.15.in
Warning: card &IONS ignored
Warning: card / ignored
Warning: card &CELL ignored
Warning: card / ignored

     Subspace diagonalization in iterative solution of the eigenvalue problem:
     a serial algorithm will be used

     bravais-lattice index     =            0
     lattice parameter (alat)  =      17.2721  a.u.
     unit-cell volume          =    3202.1180 (a.u.)^3
     number of atoms/cell      =           48
     number of atomic types    =            3
     number of electrons       =       400.00
     number of Kohn-Sham states=          600
     kinetic-energy cutoff     =      40.0000  Ry
     charge density cutoff     =     500.0000  Ry
     convergence threshold     =      1.0E-06
     mixing beta               =       0.7000
     number of iterations used =            8  plain     mixing
     Exchange-correlation      = SLA  PW   PBE  PBE ( 1 4 3 4 0)
     EXX-fraction              =        0.00

     celldm(1)=  17.272097  celldm(2)=   0.000000  celldm(3)=   0.000000
     celldm(4)=   0.000000  celldm(5)=   0.000000  celldm(6)=   0.000000

     crystal axes: (cart. coord. in units of alat)
               a(1) = (   1.000000   0.000000   0.000000 )
               a(2) = (   0.000000   1.000000   0.000000 )
               a(3) = (   0.000000   0.000000   0.621444 )

     reciprocal axes: (cart. coord. in units 2 pi/alat)
               b(1) = (  1.000000  0.000000  0.000000 )
               b(2) = (  0.000000  1.000000  0.000000 )
               b(3) = (  0.000000  0.000000  1.609155 )

     PseudoPot. # 1 for V  read from file:
     /home/camp/zhonxu/pseudo/v_pbe_v1.uspp.F.UPF
     MD5 check sum: f3d00ac417565f5fd6449f790f2b64f9
     Pseudo is Ultrasoft + core correction, Zval = 13.0
     Generated by new atomic code, or converted to UPF format
     Using radial grid of  853 points,  6 beta functions with:
                l(1) =   0
                l(2) =   0
                l(3) =   1
                l(4) =   1
                l(5) =   2
                l(6) =   2
     Q(r) pseudized with  6 coefficients,  rinner =    1.100   1.100   1.100
                                                       1.100   1.100

     PseudoPot. # 2 for O  read from file:
     /home/camp/zhonxu/pseudo/o_pbe_v1.01.uspp.F.UPF
     MD5 check sum: 2bcb18d16ea4b960afae9ec6d52f22d2
     Pseudo is Ultrasoft + core correction, Zval =  6.0
     Generated by new atomic code, or converted to UPF format
     Using radial grid of  737 points,  5 beta functions with:
                l(1) =   0
                l(2) =   0
                l(3) =   1
                l(4) =   1
                l(5) =   2
     Q(r) pseudized with  8 coefficients,  rinner =    0.900   0.900   0.900
                                                       0.900   0.900

     PseudoPot. # 3 for O  read from file:
     /home/camp/zhonxu/pseudo/o_pbe_v1.01.uspp.F.UPF
     MD5 check sum: 2bcb18d16ea4b960afae9ec6d52f22d2
     Pseudo is Ultrasoft + core correction, Zval =  6.0
     Generated by new atomic code, or converted to UPF format
     Using radial grid of  737 points,  5 beta functions with:
                l(1) =   0
                l(2) =   0
                l(3) =   1
                l(4) =   1
                l(5) =   2
     Q(r) pseudized with  8 coefficients,  rinner =    0.900   0.900   0.900
                                                       0.900   0.900

     atomic species   valence    mass     pseudopotential
        V0            13.00    50.94150     V ( 1.00)
        O1             6.00    15.99940     O ( 1.00)
        O2             6.00    15.99940     O ( 1.00)

     Starting magnetic structure
     atomic species   magnetization
        V0           0.600
        O1           0.000
        O2           0.000

     Simplified LDA+U calculation (l_max = 2) with parameters (eV):
     atomic species    L          U    alpha       J0     beta
        V0             2     0.0000   0.0000   0.0000   0.0000
        O1             1     0.0000   0.1500   0.0000   0.0000
        O2             1     0.0000   0.0000   0.0000   0.0000

      4 Sym. Ops. (no inversion) found

   Cartesian axes

     site n.     atom                  positions (alat units)
         1           V0  tau(   1) = (  -0.1500000  -0.1500000   0.0000000  )
         2           V0  tau(   2) = (   0.1000000   0.1000000   0.1553611  )
         3           V0  tau(   3) = (  -0.1500000  -0.1500000   0.3107221  )
         4           V0  tau(   4) = (   0.1000000   0.1000000   0.4660832  )
         5           V0  tau(   5) = (  -0.1500000   0.3500000   0.0000000  )
         6           V0  tau(   6) = (   0.1000000   0.6000000   0.1553611  )
         7           V0  tau(   7) = (  -0.1500000   0.3500000   0.3107221  )
         8           V0  tau(   8) = (   0.1000000   0.6000000   0.4660832  )
         9           V0  tau(   9) = (   0.3500000  -0.1500000   0.0000000  )
        10           V0  tau(  10) = (   0.6000000   0.1000000   0.1553611  )
        11           V0  tau(  11) = (   0.3500000  -0.1500000   0.3107221  )
        12           V0  tau(  12) = (   0.6000000   0.1000000   0.4660832  )
        13           V0  tau(  13) = (   0.3500000   0.3500000   0.0000000  )
        14           V0  tau(  14) = (   0.6000000   0.6000000   0.1553611  )
        15           V0  tau(  15) = (   0.3500000   0.3500000   0.3107221  )
        16           V0  tau(  16) = (   0.6000000   0.6000000   0.4660832  )
        17           O1  tau(  17) = (   0.0000000   0.0000000   0.0000000  )
        18           O2  tau(  18) = (  -0.3000000  -0.3000000   0.0000000  )
        19           O2  tau(  19) = (   0.2500000  -0.0500000   0.1553611  )
        20           O2  tau(  20) = (  -0.0500000   0.2500000   0.1553611  )
        21           O2  tau(  21) = (   0.0000000   0.0000000   0.3107221  )
        22           O2  tau(  22) = (  -0.3000000  -0.3000000   0.3107221  )
        23           O2  tau(  23) = (   0.2500000  -0.0500000   0.4660832  )
        24           O2  tau(  24) = (  -0.0500000   0.2500000   0.4660832  )
        25           O2  tau(  25) = (   0.0000000   0.5000000   0.0000000  )
        26           O2  tau(  26) = (  -0.3000000   0.2000000   0.0000000  )
        27           O2  tau(  27) = (   0.2500000   0.4500000   0.1553611  )
        28           O2  tau(  28) = (  -0.0500000   0.7500000   0.1553611  )
        29           O2  tau(  29) = (   0.0000000   0.5000000   0.3107221  )
        30           O2  tau(  30) = (  -0.3000000   0.2000000   0.3107221  )
        31           O2  tau(  31) = (   0.2500000   0.4500000   0.4660832  )
        32           O2  tau(  32) = (  -0.0500000   0.7500000   0.4660832  )
        33           O2  tau(  33) = (   0.5000000   0.0000000   0.0000000  )
        34           O2  tau(  34) = (   0.2000000  -0.3000000   0.0000000  )
        35           O2  tau(  35) = (   0.7500000  -0.0500000   0.1553611  )
        36           O2  tau(  36) = (   0.4500000   0.2500000   0.1553611  )
        37           O2  tau(  37) = (   0.5000000   0.0000000   0.3107221  )
        38           O2  tau(  38) = (   0.2000000  -0.3000000   0.3107221  )
        39           O2  tau(  39) = (   0.7500000  -0.0500000   0.4660832  )
        40           O2  tau(  40) = (   0.4500000   0.2500000   0.4660832  )
        41           O2  tau(  41) = (   0.5000000   0.5000000   0.0000000  )
        42           O2  tau(  42) = (   0.2000000   0.2000000   0.0000000  )
        43           O2  tau(  43) = (   0.7500000   0.4500000   0.1553611  )
        44           O2  tau(  44) = (   0.4500000   0.7500000   0.1553611  )
        45           O2  tau(  45) = (   0.5000000   0.5000000   0.3107221  )
        46           O2  tau(  46) = (   0.2000000   0.2000000   0.3107221  )
        47           O2  tau(  47) = (   0.7500000   0.4500000   0.4660832  )
        48           O2  tau(  48) = (   0.4500000   0.7500000   0.4660832  )

     number of k points=    42  Methfessel-Paxton smearing, width (Ry)=  0.0100
                       cart. coord. in units 2pi/alat
        k(    1) = (   0.0000000   0.0000000   0.0000000), wk =   0.0156250
        k(    2) = (   0.0000000   0.0000000   0.4022887), wk =   0.0312500
        k(    3) = (   0.0000000   0.0000000  -0.8045775), wk =   0.0156250
        k(    4) = (   0.0000000   0.2500000   0.0000000), wk =   0.0625000
        k(    5) = (   0.0000000   0.2500000   0.4022887), wk =   0.1250000
        k(    6) = (   0.0000000   0.2500000  -0.8045775), wk =   0.0625000
        k(    7) = (   0.0000000  -0.5000000   0.0000000), wk =   0.0312500
        k(    8) = (   0.0000000  -0.5000000   0.4022887), wk =   0.0625000
        k(    9) = (   0.0000000  -0.5000000  -0.8045775), wk =   0.0312500
        k(   10) = (   0.2500000   0.2500000   0.0000000), wk =   0.0312500
        k(   11) = (   0.2500000   0.2500000   0.4022887), wk =   0.0625000
        k(   12) = (   0.2500000   0.2500000  -0.8045775), wk =   0.0312500
        k(   13) = (   0.2500000  -0.5000000   0.0000000), wk =   0.0625000
        k(   14) = (   0.2500000  -0.5000000   0.4022887), wk =   0.1250000
        k(   15) = (   0.2500000  -0.5000000  -0.8045775), wk =   0.0625000
        k(   16) = (  -0.5000000  -0.5000000   0.0000000), wk =   0.0156250
        k(   17) = (  -0.5000000  -0.5000000   0.4022887), wk =   0.0312500
        k(   18) = (  -0.5000000  -0.5000000  -0.8045775), wk =   0.0156250
        k(   19) = (   0.2500000  -0.2500000   0.0000000), wk =   0.0312500
        k(   20) = (   0.2500000  -0.2500000   0.4022887), wk =   0.0625000
        k(   21) = (   0.2500000  -0.2500000  -0.8045775), wk =   0.0312500
        k(   22) = (   0.0000000   0.0000000   0.0000000), wk =   0.0156250
        k(   23) = (   0.0000000   0.0000000   0.4022887), wk =   0.0312500
        k(   24) = (   0.0000000   0.0000000  -0.8045775), wk =   0.0156250
        k(   25) = (   0.0000000   0.2500000   0.0000000), wk =   0.0625000
        k(   26) = (   0.0000000   0.2500000   0.4022887), wk =   0.1250000
        k(   27) = (   0.0000000   0.2500000  -0.8045775), wk =   0.0625000
        k(   28) = (   0.0000000  -0.5000000   0.0000000), wk =   0.0312500
        k(   29) = (   0.0000000  -0.5000000   0.4022887), wk =   0.0625000
        k(   30) = (   0.0000000  -0.5000000  -0.8045775), wk =   0.0312500
        k(   31) = (   0.2500000   0.2500000   0.0000000), wk =   0.0312500
        k(   32) = (   0.2500000   0.2500000   0.4022887), wk =   0.0625000
        k(   33) = (   0.2500000   0.2500000  -0.8045775), wk =   0.0312500
        k(   34) = (   0.2500000  -0.5000000   0.0000000), wk =   0.0625000
        k(   35) = (   0.2500000  -0.5000000   0.4022887), wk =   0.1250000
        k(   36) = (   0.2500000  -0.5000000  -0.8045775), wk =   0.0625000
[...]
  0.877  0.887  0.888
    eigenvectors:
  0.000  1.000  0.000
  0.500  0.000  0.500
  0.500  0.000  0.500
    occupations:
  0.887 -0.000 -0.000
 -0.000  0.883  0.006
 -0.000  0.006  0.883
   spin  2
    eigenvalues:
  0.894  0.907  0.911
    eigenvectors:
  0.000  1.000  0.000
  0.500  0.000  0.500
  0.500  0.000  0.500
    occupations:
  0.907 -0.000 -0.000
 -0.000  0.903 -0.008
 -0.000 -0.008  0.903
atomic mag. moment =    -0.059589
atom   42   Tr[ns(na)] (up, down, total) =   2.65250  2.71196  5.36446
   spin  1
    eigenvalues:
  0.877  0.887  0.888
    eigenvectors:
  0.000  1.000  0.000
  0.500  0.000  0.500
  0.500  0.000  0.500
    occupations:
  0.887 -0.000 -0.000
 -0.000  0.883  0.005
 -0.000  0.005  0.883
   spin  2
    eigenvalues:
  0.894  0.907  0.911
    eigenvectors:
  0.000  1.000  0.000
  0.500  0.000  0.500
  0.500  0.000  0.500
    occupations:
  0.907 -0.000 -0.000
 -0.000  0.903 -0.008
 -0.000 -0.008  0.903
atomic mag. moment =    -0.059456
atom   43   Tr[ns(na)] (up, down, total) =   2.65231  2.71190  5.36421
   spin  1
    eigenvalues:
  0.877  0.887  0.888
    eigenvectors:
  0.000  1.000  0.000
  0.500  0.000  0.500
  0.500  0.000  0.500
    occupations:
  0.887  0.000  0.000
  0.000  0.883 -0.006
  0.000 -0.006  0.883
   spin  2
    eigenvalues:
  0.894  0.907  0.911
    eigenvectors:
  0.000  1.000  0.000
  0.500  0.000  0.500
  0.500  0.000  0.500
    occupations:
  0.907 -0.000 -0.000
 -0.000  0.903  0.008
 -0.000  0.008  0.903
atomic mag. moment =    -0.059588
atom   44   Tr[ns(na)] (up, down, total) =   2.65231  2.71190  5.36421
   spin  1
    eigenvalues:
  0.877  0.887  0.888
    eigenvectors:
  0.000  1.000  0.000
  0.500  0.000  0.500
  0.500  0.000  0.500
    occupations:
  0.887  0.000  0.000
  0.000  0.883 -0.006
  0.000 -0.006  0.883
   spin  2
    eigenvalues:
  0.894  0.907  0.911
    eigenvectors:
  0.000  1.000  0.000
  0.500  0.000  0.500
  0.500  0.000  0.500
    occupations:
  0.907 -0.000 -0.000
 -0.000  0.903  0.008
 -0.000  0.008  0.903
atomic mag. moment =    -0.059588
atom   45   Tr[ns(na)] (up, down, total) =   2.65232  2.71187  5.36419
   spin  1
    eigenvalues:
  0.877  0.887  0.888
    eigenvectors:
  0.000  1.000  0.000
  0.500  0.000  0.500
  0.500  0.000  0.500
    occupations:
  0.887 -0.000 -0.000
 -0.000  0.883  0.006
 -0.000  0.006  0.883
   spin  2
    eigenvalues:
  0.894  0.907  0.911
    eigenvectors:
  0.000  1.000  0.000
  0.500  0.000  0.500
  0.500  0.000  0.500
    occupations:
  0.907 -0.000 -0.000
 -0.000  0.903 -0.008
 -0.000 -0.008  0.903
atomic mag. moment =    -0.059557
atom   46   Tr[ns(na)] (up, down, total) =   2.65227  2.71173  5.36399
   spin  1
    eigenvalues:
  0.877  0.887  0.888
    eigenvectors:
  0.000  1.000  0.000
  0.500  0.000  0.500
  0.500  0.000  0.500
    occupations:
  0.887 -0.000 -0.000
 -0.000  0.883  0.005
 -0.000  0.005  0.883
   spin  2
    eigenvalues:
  0.894  0.907  0.911
    eigenvectors:
  0.000  1.000  0.000
  0.500  0.000  0.500
  0.500  0.000  0.500
    occupations:
  0.907 -0.000 -0.000
 -0.000  0.903 -0.008
 -0.000 -0.008  0.903
atomic mag. moment =    -0.059462
atom   47   Tr[ns(na)] (up, down, total) =   2.65231  2.71190  5.36421
   spin  1
    eigenvalues:
  0.877  0.887  0.888
    eigenvectors:
  0.000  1.000  0.000
  0.500  0.000  0.500
  0.500  0.000  0.500
    occupations:
  0.887 -0.000 -0.000
 -0.000  0.883 -0.006
 -0.000 -0.006  0.883
   spin  2
    eigenvalues:
  0.894  0.907  0.911
    eigenvectors:
  0.000  1.000  0.000
  0.500  0.000  0.500
  0.500  0.000  0.500
    occupations:
  0.907  0.000  0.000
  0.000  0.903  0.008
  0.000  0.008  0.903
atomic mag. moment =    -0.059588
atom   48   Tr[ns(na)] (up, down, total) =   2.65231  2.71190  5.36421
   spin  1
    eigenvalues:
  0.877  0.887  0.888
    eigenvectors:
  0.000  1.000  0.000
  0.500  0.000  0.500
  0.500  0.000  0.500
    occupations:
  0.887 -0.000 -0.000
 -0.000  0.883 -0.006
 -0.000 -0.006  0.883
   spin  2
    eigenvalues:
  0.894  0.907  0.911
    eigenvectors:
  0.000  1.000  0.000
  0.500  0.000  0.500
  0.500  0.000  0.500
    occupations:
  0.907  0.000  0.000
  0.000  0.903  0.008
  0.000  0.008  0.903
atomic mag. moment =    -0.059588
N of occupied +U levels = 243.5049659
 --- exit write_ns ---

 ------ SPIN UP ------------

          k = 0.0000 0.0000 0.0000 ( 13729 PWs)   bands (ev):

   -55.1733 -55.1695 -55.1694 -55.1694 -55.1693 -55.1683 -55.1671 -55.1633
   -55.1354 -55.1354 -55.1353 -55.1353 -55.1352 -55.1352 -55.1334 -55.1313
   -29.2537 -29.2535 -29.2533 -29.2530 -29.2506 -29.2504 -29.2500 -29.2488
   -29.0061 -29.0059 -28.9991 -28.9990 -28.9596 -28.9594 -28.9591 -28.9588
   -28.9565 -28.9564 -28.9559 -28.9555 -28.9284 -28.9283 -28.9275 -28.9274
   -28.9253 -28.9253 -28.9245 -28.9241 -28.9172 -28.9149 -28.9148 -28.9100
   -28.9097 -28.9073 -28.9073 -28.9072 -28.9071 -28.9066 -28.9056 -28.8965
   -28.8886 -28.8885 -28.8881 -28.8880 -28.8880 -28.8878 -28.8870 -28.8849
    -9.0740  -8.3073  -8.2954  -8.2950  -8.2947  -8.2785  -8.2757  -7.7769
    -7.7666  -7.7665  -7.7660  -7.6290  -7.5803  -7.5756  -7.4984  -7.4925
    -7.4801  -7.4771  -7.3710  -7.3665  -7.2942  -7.2847  -7.2809  -7.2771
    -7.2771  -7.2768  -7.1826  -7.1749  -7.1747  -7.1743  -7.1374  -7.1345
     3.1655   3.4877   3.4928   3.7657   3.9893   3.9895   3.9914   3.9979
     4.1041   4.1046   4.1063   4.1126   4.1802   4.3639   4.3640   4.3831
     4.3842   4.5590   4.5611   4.8912   4.8913   4.8917   4.8973   5.3454
     5.3474   5.4530   5.4538   5.4898   5.4929   5.5509   5.5537   5.5808
     5.5811   5.6308   5.6309   5.6313   5.6370   5.7850   5.7854   5.7893
     5.7916   5.8365   5.8367   5.8399   5.8409   6.0073   6.0077   6.0122
     6.0123   6.1215   6.1248   6.1557   6.1594   6.4671   6.4699   6.5384
     6.5386   6.8447   6.8465   6.8482   6.8490   6.8868   6.8905   6.9450
     6.9500   7.1311   7.1314   7.1324   7.1362   7.5130   7.7495   7.7496
     7.7501   7.7556   7.8174   7.8178   7.9877   7.9912   8.1779   8.1782
     8.2232   8.2271   8.4430   8.4436   8.4440   8.4497   8.7078   8.7083
     8.7514   8.7518   8.7518   8.7586   8.8828   9.0186   9.0198   9.4327
     9.9339   9.9619   9.9620  10.1027  10.1029  10.1029  10.1029  10.1668
    10.6147  10.6150  10.6308  10.6310  10.6311  10.6316  10.6334  10.6337
    10.7026  11.0207  11.0211  11.2385  11.2385  11.2389  11.2390  11.3391
    11.3395  11.4022  11.4032  11.4721  11.4723  11.4724  11.4724  11.4854
    11.4855  11.4891  11.4892  11.9220  11.9220  11.9222  11.9238  11.9882
    11.9890  12.2501  12.2503  12.2504  12.2517  12.3193  12.3201  12.7299
    12.8471  13.2585  13.2593  13.2594  13.2598  13.8963  13.8968  14.1865
    14.1876  14.4358  14.4362  14.5603  14.5605  14.5606  14.5612  14.6060
    14.6062  14.6081  14.6083  14.6736  14.6740  14.6740  14.6747  14.9795
    14.9800  14.9932  14.9937  15.7622  15.7623  15.7623  15.7627  16.1022
    17.7270  20.0891  20.0920  20.0938  20.0942  21.2951  21.2956  21.4245
    21.4252  21.6208  21.6211  22.2684  22.2686  22.2704  22.2704  22.4819
    22.4825  22.7043  22.7048  23.1075  23.1090  23.1095  23.1096  23.2460
    23.2467  24.1595  24.1596  24.1599  24.1603  24.4978  24.6668  24.6671
    25.0773  25.0775  25.2696  25.3161  25.3169  25.3813  25.5224  25.5230
    25.5231  25.5252  25.6245  25.6256  25.7612  25.7630  25.7632  25.7635
    26.9258  26.9267  26.9814  26.9835  26.9880  26.9881  26.9894  26.9896
    27.1268  27.1269  27.3320  27.4242  27.4253  27.4255  27.4264  27.5131
    27.5154  27.5166  27.5168  27.6027  27.6032  27.6045  27.6050  27.6853
    27.6856  28.3408  28.3414  28.3700  28.3702  28.9281  28.9282  28.9421
    28.9423  29.6459  29.6461  29.6475  29.6476  29.9188  29.9195  30.2743
    30.9575  31.3475  31.3480  31.7166  31.7168  32.2509  32.2525  32.2557
    32.2558  32.6086  32.6092  32.6101  32.6106  33.0036  33.0039  33.0100
    33.0105  33.0837  33.0857  33.0867  33.0871  33.1935  33.1941  33.1941
    33.1950  33.3057  33.3069  33.8190  33.8193  33.9102  34.0449  34.0458
    34.5774  34.8514  34.8524  35.2564  35.2569  35.2575  35.2586  35.5310
    35.5312  35.9157  35.9177  35.9184  35.9449  35.9454  35.9460  35.9469
    36.0168  36.4715  36.4716  37.0107  37.0118  37.2924  37.2935  37.3296
    37.3307  37.3545  37.3548  37.3549  37.3552  37.5041  37.5045  37.5711
    37.5714  37.5724  37.5728  37.7784  37.7796  37.7800  37.7805  38.2020
    38.2021  38.2035  38.2037  38.4399  38.4401  38.4404  38.4408  38.4417
    38.6593  38.6596  39.1785  39.1801  40.2838  40.2839  41.1126  41.1265
    41.1271  41.7306  41.7314  41.7403  41.7415  41.7904  41.9145  41.9147
    42.4139  42.4147  42.4151  42.4161  42.8837  42.8849  42.9229  42.9256
    42.9257  42.9259  43.0480  43.1413  43.1413  43.1430  43.1434  43.4113
    43.4121  43.4383  43.4391  43.4831  43.4836  43.4842  43.4848  43.6024
    43.6030  43.6856  43.6861  43.6871  43.6874  44.4960  44.6102  44.6121
    44.8365  44.8365  44.8637  44.8650  45.5246  45.5251  45.6596  45.6597
    45.6864  45.6872  45.6881  45.6887  45.7294  45.7847  45.7852  46.5257
    46.5260  46.5263  46.5269  46.6233  46.6243  46.6252  46.6257  46.6380
    46.6400  46.8580  46.8585  46.9703  46.9738  46.9744  46.9747  47.0768
    47.0774  47.2503  47.2508  47.4958  47.4985  47.4987  47.4997  47.6201
    47.8330  47.8339  47.8342  47.8350  47.8470  47.8477  47.9323  47.9327
    48.2891  48.2901  48.5165  48.5170  48.6132  48.6141  48.8235  48.8244
    48.8356  48.8366  48.8373  48.8380  49.3705  49.3706  49.4056  49.4065
    49.4070  49.4080  49.5882  50.0544  50.0552  50.0556  50.0560  50.0850
    50.0857  50.0922  50.0923  50.0931  50.0939  50.1917  50.1922  50.1926
    50.1927  50.2751  50.2751  50.4490  50.8301  50.8308  50.8321  50.8325
    50.8388  50.8394  51.3779  51.3782  51.5864  51.5867  52.0720  52.1406
    52.1410  52.2131  52.2139  52.2815  52.2823  52.2827  52.2830  52.3582
    52.3589  52.4896  52.5248  52.5280  52.5294  52.5297  53.2778  53.2785

[...]

          k =-0.5000-0.5000 0.0000 ( 13640 PWs)   bands (ev):

[...]

 ------ SPIN DOWN ----------

[...]

          k =-0.5000-0.5000-0.8046 ( 13712 PWs)   bands (ev):

[...]

          k = 0.2500-0.2500-0.8046 ( 13696 PWs)   bands (ev):

   -53.9971 -53.9971 -53.9955 -53.9955 -53.9955 -53.9953 -53.9946 -53.9946
   -53.9939 -53.9938 -53.9932 -53.9929 -53.9925 -53.9925 -53.9909 -53.9887
   -27.9871 -27.9871 -27.9854 -27.9854 -27.9852 -27.9852 -27.9818 -27.9818
   -27.9802 -27.9801 -27.9798 -27.9797 -27.9794 -27.9793 -27.9746 -27.9745
   -27.8247 -27.8245 -27.8210 -27.8207 -27.8148 -27.8147 -27.8125 -27.8125
   -27.8124 -27.8123 -27.8102 -27.8102 -27.7980 -27.7980 -27.7978 -27.7963
   -27.7636 -27.7636 -27.7634 -27.7627 -27.7524 -27.7524 -27.7509 -27.7508
   -27.7507 -27.7504 -27.7491 -27.7488 -27.7431 -27.7430 -27.7407 -27.7405
    -8.4399  -8.4334  -8.1650  -8.1557  -8.1555  -8.1554  -8.0066  -7.9975
    -7.8123  -7.8121  -7.7602  -7.7449  -7.7447  -7.7445  -7.4878  -7.4681
    -7.4629  -7.4621  -7.4496  -7.4477  -7.4451  -7.4388  -7.4361  -7.4320
    -7.4317  -7.4315  -7.4139  -7.4110  -7.4109  -7.4107  -7.3885  -7.3826
     4.2444   4.2499   4.2829   4.2924   4.4889   4.4890   4.4910   4.4913
     4.5416   4.5422   4.6430   4.6464   4.6959   4.6969   4.7383   4.7412
     4.8024   4.8025   4.8029   4.8090   4.8458   4.8464   4.9432   4.9434
     4.9464   4.9521   5.0306   5.0309   5.0338   5.0394   5.1622   5.1632
     5.5396   5.5425   5.7240   5.7243   5.7285   5.7330   5.9004   5.9022
     6.1181   6.1181   6.1183   6.1203   6.1980   6.1980   6.2723   6.2724
     6.2746   6.2777   6.5211   6.5263   6.5495   6.5561   6.8463   6.8498
     6.8668   6.8668   6.8720   6.8740   7.1424   7.1428   7.1441   7.1447
     7.1614   7.1625   7.1764   7.1769   7.4289   7.4291   7.4475   7.4491
     7.5867   7.5879   7.7175   7.7175   7.7186   7.7216   7.7917   7.7930
     8.0038   8.0074   8.0649   8.0683   8.2770   8.2771   8.2783   8.2796
     8.3549   8.3561   8.7048   8.7051   8.7052   8.7106   8.9608   8.9633
    11.5509  11.5509  11.7240  11.7243  11.7246  11.7247  11.8923  11.8927
    11.9526  11.9528  11.9639  11.9643  12.0907  12.0908  12.0911  12.0912
    12.1749  12.1751  12.2571  12.2572  12.2572  12.2574  12.2812  12.2815
    12.3266  12.3267  12.4433  12.4434  12.5458  12.5459  12.5831  12.5831
    12.5835  12.5835  12.6845  12.6845  12.8224  12.8225  12.8227  12.8228
    12.8570  12.8571  13.0736  13.0737  13.0738  13.0742  13.3387  13.3390
    14.0895  14.0911  14.0911  14.0916  14.2620  14.2622  14.4967  14.4969
    14.4969  14.4971  14.5105  14.5107  14.8010  14.8012  15.0868  15.0873
    15.0893  15.0896  15.0913  15.0918  15.3829  15.3832  15.3835  15.3835
    15.5780  15.5781  15.9432  15.9433  15.9434  15.9434  16.0092  16.0092
    19.8614  19.8634  20.7815  20.7855  20.7868  20.7878  21.3465  21.3490
    22.0790  22.0822  22.1760  22.1802  22.1815  22.1823  23.4086  23.4101
    23.6754  23.6780  23.7195  23.7221  24.2604  24.2628  24.2645  24.2656
    24.2825  24.2845  25.0413  25.0435  25.1077  25.1085  25.2432  25.2437
    25.2450  25.2455  25.4577  25.4583  25.4604  25.4614  25.6022  25.6036
    25.6756  25.6757  25.6858  25.6884  25.6888  25.6898  26.1867  26.1891
    26.9264  26.9278  26.9289  26.9303  27.2175  27.2189  27.2510  27.2517
    27.3524  27.3550  27.3562  27.3569  27.4158  27.4163  27.4972  27.4989
    27.8136  27.8143  27.8149  27.8152  28.2980  28.2986  28.3553  28.3557
    28.6331  28.6339  28.8375  28.8400  29.0350  29.0362  29.0374  29.0376
    29.2614  29.2621  29.6854  29.6860  29.6862  29.6870  29.7021  29.7026
    30.3640  30.3659  30.5523  30.5528  30.5529  30.5540  31.5366  31.5379
    31.7090  31.7104  31.7104  31.7118  32.1839  32.1840  32.5393  32.5394
    33.9069  33.9073  34.0683  34.0685  34.0692  34.0696  34.3155  34.3190
    34.4749  34.4752  34.7735  34.7735  35.0420  35.0445  35.0580  35.0594
    35.2131  35.2143  35.2150  35.2164  35.6760  35.6767  35.8041  35.8053
    35.8058  35.8060  36.1884  36.1893  36.1895  36.1904  36.3336  36.3355
    36.5563  36.5577  36.7118  36.7131  36.7137  36.7147  37.0890  37.0891
    37.4037  37.4052  37.8130  37.8150  37.8153  37.8156  38.2725  38.2734
    38.2736  38.2743  38.5396  38.5405  38.5988  38.5996  39.1252  39.1259
    39.2492  39.2493  39.2499  39.2511  39.2671  39.2682  39.3961  39.3970
    39.7563  39.7564  40.0941  40.0948  40.0956  40.0958  40.1550  40.1564
    40.2960  40.2971  40.2975  40.2983  40.9096  40.9098  41.1443  41.1453
    42.2313  42.2319  42.2319  42.2328  42.2421  42.2445  42.5615  42.5620
    42.8353  42.8356  42.9180  42.9188  42.9842  42.9853  42.9854  42.9865
    43.3425  43.3432  43.7441  43.7442  44.0537  44.0546  44.0549  44.0552
    44.7115  44.7129  44.7357  44.7366  44.7372  44.7380  45.1584  45.1601
    45.1614  45.1623  46.1645  46.1653  46.3372  46.3381  46.3383  46.3391
    46.3746  46.3754  46.4049  46.4070  46.4074  46.4080  46.4893  46.4894
    46.5216  46.5230  46.6865  46.6869  47.0018  47.0033  47.0044  47.0046
    47.3014  47.3024  48.0415  48.0421  48.1576  48.1591  48.1832  48.1840
    48.1851  48.1855  48.3398  48.3413  48.3425  48.3426  48.4322  48.4335
    48.8719  48.8729  48.9557  48.9572  48.9578  48.9581  49.3198  49.3208
    49.3224  49.3228  49.3760  49.3768  49.4824  49.4849  49.5324  49.5352
    49.5546  49.5555  49.5900  49.5904  49.8499  49.8499  49.8502  49.8515
    49.9297  49.9307  49.9308  49.9317  50.0180  50.0183  50.1773  50.1786
    50.1806  50.1808  50.2427  50.2430  50.3735  50.3742  50.3759  50.3772
    50.5374  50.5376  50.6848  50.6874  50.9241  50.9248  51.0229  51.0233
    51.0241  51.0246  51.2554  51.2564  51.2582  51.2589  51.3848  51.3862
    51.4975  51.4988  51.6157  51.6170  51.6175  51.6184  52.0341  52.0345
    52.0348  52.0358  52.1200  52.1200  52.5757  52.5779  52.7877  52.7887

     the Fermi energy is    10.9470 ev

!    total energy              =   -3356.32779777 Ry
     Harris-Foulkes estimate   =   -3356.32779844 Ry
     estimated scf accuracy    <       0.00000077 Ry

     The total energy is the sum of the following terms:

     one-electron contribution =   -1296.47349044 Ry
     hartree contribution      =     845.56887312 Ry
     xc contribution           =    -537.24304153 Ry
     ewald contribution        =   -2368.23960066 Ry
     Hubbard energy            =       0.05903249 Ry
     smearing contrib. (-TS)   =       0.00042927 Ry

     total magnetization       =    16.02 Bohr mag/cell
     absolute magnetization    =    19.67 Bohr mag/cell

     convergence has been achieved in  10 iterations

     Writing output data file pwscf.save

     General routines

     Parallel routines
     Hubbard U routines

   This run was terminated on:   6:14:28  15Feb2014

   JOB DONE.