     Program PWSCF v.5.0.2 (svn rev. 9656) starts on 14Feb2014 at 21:19: 2

     Current dimensions of program PWSCF are:
     Max number of different atomic species (ntypx) = 10
     Max number of k-points (npk) =  40000
     Max angular momentum in pseudopotentials (lmaxx) =  3
     Reading input from alpha_0.07/alpha_0.07.in
Warning: card &IONS ignored
Warning: card / ignored
Warning: card &CELL ignored
Warning: card / ignored

     Subspace diagonalization in iterative solution of the eigenvalue problem:
     a serial algorithm will be used

     bravais-lattice index     =            0
     lattice parameter (alat)  =      17.2721  a.u.
     unit-cell volume          =    3202.1180 (a.u.)^3
     number of atoms/cell      =           48
     number of atomic types    =            3
     number of electrons       =       400.00
     number of Kohn-Sham states=          600
     kinetic-energy cutoff     =      40.0000  Ry
     charge density cutoff     =     500.0000  Ry
     convergence threshold     =      1.0E-06
     mixing beta               =       0.7000
     number of iterations used =            8  plain     mixing
     Exchange-correlation      = SLA  PW   PBE  PBE ( 1 4 3 4 0)
     EXX-fraction              =        0.00

     celldm(1)=  17.272097  celldm(2)=   0.000000  celldm(3)=   0.000000
     celldm(4)=   0.000000  celldm(5)=   0.000000  celldm(6)=   0.000000

     crystal axes: (cart. coord. in units of alat)
               a(1) = (   1.000000   0.000000   0.000000 )
               a(2) = (   0.000000   1.000000   0.000000 )
               a(3) = (   0.000000   0.000000   0.621444 )

     reciprocal axes: (cart. coord. in units 2 pi/alat)
               b(1) = (  1.000000  0.000000  0.000000 )
               b(2) = (  0.000000  1.000000  0.000000 )
               b(3) = (  0.000000  0.000000  1.609155 )

     PseudoPot. # 1 for V  read from file:
     /home/camp/zhonxu/pseudo/v_pbe_v1.uspp.F.UPF
     MD5 check sum: f3d00ac417565f5fd6449f790f2b64f9
     Pseudo is Ultrasoft + core correction, Zval = 13.0
     Generated by new atomic code, or converted to UPF format
     Using radial grid of  853 points,  6 beta functions with:
                l(1) =   0
                l(2) =   0
                l(3) =   1
                l(4) =   1
                l(5) =   2
                l(6) =   2
     Q(r) pseudized with  6 coefficients,  rinner =    1.100   1.100   1.100
                                                       1.100   1.100

     PseudoPot. # 2 for O  read from file:
     /home/camp/zhonxu/pseudo/o_pbe_v1.01.uspp.F.UPF
     MD5 check sum: 2bcb18d16ea4b960afae9ec6d52f22d2
     Pseudo is Ultrasoft + core correction, Zval =  6.0
     Generated by new atomic code, or converted to UPF format
     Using radial grid of  737 points,  5 beta functions with:
                l(1) =   0
                l(2) =   0
                l(3) =   1
                l(4) =   1
                l(5) =   2
     Q(r) pseudized with  8 coefficients,  rinner =    0.900   0.900   0.900
                                                       0.900   0.900

     PseudoPot. # 3 for O  read from file:
     /home/camp/zhonxu/pseudo/o_pbe_v1.01.uspp.F.UPF
     MD5 check sum: 2bcb18d16ea4b960afae9ec6d52f22d2
     Pseudo is Ultrasoft + core correction, Zval =  6.0
     Generated by new atomic code, or converted to UPF format
     Using radial grid of  737 points,  5 beta functions with:
                l(1) =   0
                l(2) =   0
                l(3) =   1
                l(4) =   1
                l(5) =   2
     Q(r) pseudized with  8 coefficients,  rinner =    0.900   0.900   0.900
                                                       0.900   0.900

     atomic species   valence    mass     pseudopotential
        V0            13.00    50.94150     V ( 1.00)
        O1             6.00    15.99940     O ( 1.00)
        O2             6.00    15.99940     O ( 1.00)

     Starting magnetic structure
     atomic species   magnetization
        V0           0.600
        O1           0.000
        O2           0.000

     Simplified LDA+U calculation (l_max = 2) with parameters (eV):
     atomic species    L          U    alpha       J0     beta
        V0             2     0.0000   0.0000   0.0000   0.0000
        O1             1     0.0000   0.0700   0.0000   0.0000
        O2             1     0.0000   0.0000   0.0000   0.0000

      4 Sym. Ops. (no inversion) found

   Cartesian axes

     site n.     atom                  positions (alat units)
         1           V0  tau(   1) = (  -0.1500000  -0.1500000   0.0000000  )
         2           V0  tau(   2) = (   0.1000000   0.1000000   0.1553611  )
         3           V0  tau(   3) = (  -0.1500000  -0.1500000   0.3107221  )
         4           V0  tau(   4) = (   0.1000000   0.1000000   0.4660832  )
         5           V0  tau(   5) = (  -0.1500000   0.3500000   0.0000000  )
         6           V0  tau(   6) = (   0.1000000   0.6000000   0.1553611  )
         7           V0  tau(   7) = (  -0.1500000   0.3500000   0.3107221  )
         8           V0  tau(   8) = (   0.1000000   0.6000000   0.4660832  )
         9           V0  tau(   9) = (   0.3500000  -0.1500000   0.0000000  )
        10           V0  tau(  10) = (   0.6000000   0.1000000   0.1553611  )
        11           V0  tau(  11) = (   0.3500000  -0.1500000   0.3107221  )
        12           V0  tau(  12) = (   0.6000000   0.1000000   0.4660832  )
        13           V0  tau(  13) = (   0.3500000   0.3500000   0.0000000  )
        14           V0  tau(  14) = (   0.6000000   0.6000000   0.1553611  )
        15           V0  tau(  15) = (   0.3500000   0.3500000   0.3107221  )
        16           V0  tau(  16) = (   0.6000000   0.6000000   0.4660832  )
        17           O1  tau(  17) = (   0.0000000   0.0000000   0.0000000  )
        18           O2  tau(  18) = (  -0.3000000  -0.3000000   0.0000000  )
        19           O2  tau(  19) = (   0.2500000  -0.0500000   0.1553611  )
        20           O2  tau(  20) = (  -0.0500000   0.2500000   0.1553611  )
        21           O2  tau(  21) = (   0.0000000   0.0000000   0.3107221  )
        22           O2  tau(  22) = (  -0.3000000  -0.3000000   0.3107221  )
        23           O2  tau(  23) = (   0.2500000  -0.0500000   0.4660832  )
        24           O2  tau(  24) = (  -0.0500000   0.2500000   0.4660832  )
        25           O2  tau(  25) = (   0.0000000   0.5000000   0.0000000  )
        26           O2  tau(  26) = (  -0.3000000   0.2000000   0.0000000  )
        27           O2  tau(  27) = (   0.2500000   0.4500000   0.1553611  )
        28           O2  tau(  28) = (  -0.0500000   0.7500000   0.1553611  )
        29           O2  tau(  29) = (   0.0000000   0.5000000   0.3107221  )
        30           O2  tau(  30) = (  -0.3000000   0.2000000   0.3107221  )
        31           O2  tau(  31) = (   0.2500000   0.4500000   0.4660832  )
        32           O2  tau(  32) = (  -0.0500000   0.7500000   0.4660832  )
        33           O2  tau(  33) = (   0.5000000   0.0000000   0.0000000  )
        34           O2  tau(  34) = (   0.2000000  -0.3000000   0.0000000  )
        35           O2  tau(  35) = (   0.7500000  -0.0500000   0.1553611  )
        36           O2  tau(  36) = (   0.4500000   0.2500000   0.1553611  )
        37           O2  tau(  37) = (   0.5000000   0.0000000   0.3107221  )
        38           O2  tau(  38) = (   0.2000000  -0.3000000   0.3107221  )
        39           O2  tau(  39) = (   0.7500000  -0.0500000   0.4660832  )
        40           O2  tau(  40) = (   0.4500000   0.2500000   0.4660832  )
        41           O2  tau(  41) = (   0.5000000   0.5000000   0.0000000  )
        42           O2  tau(  42) = (   0.2000000   0.2000000   0.0000000  )
        43           O2  tau(  43) = (   0.7500000   0.4500000   0.1553611  )
        44           O2  tau(  44) = (   0.4500000   0.7500000   0.1553611  )
        45           O2  tau(  45) = (   0.5000000   0.5000000   0.3107221  )
        46           O2  tau(  46) = (   0.2000000   0.2000000   0.3107221  )
        47           O2  tau(  47) = (   0.7500000   0.4500000   0.4660832  )
        48           O2  tau(  48) = (   0.4500000   0.7500000   0.4660832  )

     number of k points=    42  Methfessel-Paxton smearing, width (Ry)=  0.0100
                       cart. coord. in units 2pi/alat
        k(    1) = (   0.0000000   0.0000000   0.0000000), wk =   0.0156250
        k(    2) = (   0.0000000   0.0000000   0.4022887), wk =   0.0312500
        k(    3) = (   0.0000000   0.0000000  -0.8045775), wk =   0.0156250
        k(    4) = (   0.0000000   0.2500000   0.0000000), wk =   0.0625000
        k(    5) = (   0.0000000   0.2500000   0.4022887), wk =   0.1250000
        k(    6) = (   0.0000000   0.2500000  -0.8045775), wk =   0.0625000
        k(    7) = (   0.0000000  -0.5000000   0.0000000), wk =   0.0312500
        k(    8) = (   0.0000000  -0.5000000   0.4022887), wk =   0.0625000
        k(    9) = (   0.0000000  -0.5000000  -0.8045775), wk =   0.0312500
        k(   10) = (   0.2500000   0.2500000   0.0000000), wk =   0.0312500
        k(   11) = (   0.2500000   0.2500000   0.4022887), wk =   0.0625000
        k(   12) = (   0.2500000   0.2500000  -0.8045775), wk =   0.0312500
        k(   13) = (   0.2500000  -0.5000000   0.0000000), wk =   0.0625000
        k(   14) = (   0.2500000  -0.5000000   0.4022887), wk =   0.1250000
        k(   15) = (   0.2500000  -0.5000000  -0.8045775), wk =   0.0625000
        k(   16) = (  -0.5000000  -0.5000000   0.0000000), wk =   0.0156250
        k(   17) = (  -0.5000000  -0.5000000   0.4022887), wk =   0.0312500
        k(   18) = (  -0.5000000  -0.5000000  -0.8045775), wk =   0.0156250
        k(   19) = (   0.2500000  -0.2500000   0.0000000), wk =   0.0312500
        k(   20) = (   0.2500000  -0.2500000   0.4022887), wk =   0.0625000
        k(   21) = (   0.2500000  -0.2500000  -0.8045775), wk =   0.0312500
        k(   22) = (   0.0000000   0.0000000   0.0000000), wk =   0.0156250
        k(   23) = (   0.0000000   0.0000000   0.4022887), wk =   0.0312500
        k(   24) = (   0.0000000   0.0000000  -0.8045775), wk =   0.0156250
        k(   25) = (   0.0000000   0.2500000   0.0000000), wk =   0.0625000
        k(   26) = (   0.0000000   0.2500000   0.4022887), wk =   0.1250000
        k(   27) = (   0.0000000   0.2500000  -0.8045775), wk =   0.0625000
        k(   28) = (   0.0000000  -0.5000000   0.0000000), wk =   0.0312500
        k(   29) = (   0.0000000  -0.5000000   0.4022887), wk =   0.0625000
        k(   30) = (   0.0000000  -0.5000000  -0.8045775), wk =   0.0312500
        k(   31) = (   0.2500000   0.2500000   0.0000000), wk =   0.0312500
        k(   32) = (   0.2500000   0.2500000   0.4022887), wk =   0.0625000
        k(   33) = (   0.2500000   0.2500000  -0.8045775), wk =   0.0312500
        k(   34) = (   0.2500000  -0.5000000   0.0000000), wk =   0.0625000
        k(   35) = (   0.2500000  -0.5000000   0.4022887), wk =   0.1250000
        k(   36) = (   0.2500000  -0.5000000  -0.8045775), wk =   0.0625000
[...]
  0.877  0.887  0.888
    eigenvectors:
  0.000  1.000  0.000
  0.500  0.000  0.500
  0.500  0.000  0.500
    occupations:
  0.887 -0.000 -0.000
 -0.000  0.883  0.006
 -0.000  0.006  0.883
   spin  2
    eigenvalues:
  0.894  0.907  0.911
    eigenvectors:
  0.000  1.000  0.000
  0.500  0.000  0.500
  0.500  0.000  0.500
    occupations:
  0.907 -0.000 -0.000
 -0.000  0.903 -0.008
 -0.000 -0.008  0.903
atomic mag. moment =    -0.059592
atom   42   Tr[ns(na)] (up, down, total) =   2.65239  2.71192  5.36431
   spin  1
    eigenvalues:
  0.877  0.887  0.888
    eigenvectors:
  0.000  1.000  0.000
  0.500  0.000  0.500
  0.500  0.000  0.500
    occupations:
  0.887 -0.000 -0.000
 -0.000  0.883  0.006
 -0.000  0.006  0.883
   spin  2
    eigenvalues:
  0.894  0.907  0.911
    eigenvectors:
  0.000  1.000  0.000
  0.500  0.000  0.500
  0.500  0.000  0.500
    occupations:
  0.907 -0.000 -0.000
 -0.000  0.903 -0.008
 -0.000 -0.008  0.903
atomic mag. moment =    -0.059533
atom   43   Tr[ns(na)] (up, down, total) =   2.65231  2.71190  5.36420
   spin  1
    eigenvalues:
  0.877  0.887  0.888
    eigenvectors:
  0.000  1.000  0.000
  0.500  0.000  0.500
  0.500  0.000  0.500
    occupations:
  0.887  0.000  0.000
  0.000  0.883 -0.006
  0.000 -0.006  0.883
   spin  2
    eigenvalues:
  0.894  0.907  0.911
    eigenvectors:
  0.000  1.000  0.000
  0.500  0.000  0.500
  0.500  0.000  0.500
    occupations:
  0.907 -0.000 -0.000
 -0.000  0.903  0.008
 -0.000  0.008  0.903
atomic mag. moment =    -0.059591
atom   44   Tr[ns(na)] (up, down, total) =   2.65231  2.71190  5.36420
   spin  1
    eigenvalues:
  0.877  0.887  0.888
    eigenvectors:
  0.000  1.000  0.000
  0.500  0.000  0.500
  0.500  0.000  0.500
    occupations:
  0.887  0.000  0.000
  0.000  0.883 -0.006
  0.000 -0.006  0.883
   spin  2
    eigenvalues:
  0.894  0.907  0.911
    eigenvectors:
  0.000  1.000  0.000
  0.500  0.000  0.500
  0.500  0.000  0.500
    occupations:
  0.907 -0.000 -0.000
 -0.000  0.903  0.008
 -0.000  0.008  0.903
atomic mag. moment =    -0.059591
atom   45   Tr[ns(na)] (up, down, total) =   2.65231  2.71188  5.36419
   spin  1
    eigenvalues:
  0.877  0.887  0.888
    eigenvectors:
  0.000  1.000  0.000
  0.500  0.000  0.500
  0.500  0.000  0.500
    occupations:
  0.887 -0.000 -0.000
 -0.000  0.883  0.006
 -0.000  0.006  0.883
   spin  2
    eigenvalues:
  0.894  0.907  0.911
    eigenvectors:
  0.000  1.000  0.000
  0.500  0.000  0.500
  0.500  0.000  0.500
    occupations:
  0.907 -0.000 -0.000
 -0.000  0.903 -0.008
 -0.000 -0.008  0.903
atomic mag. moment =    -0.059577
atom   46   Tr[ns(na)] (up, down, total) =   2.65228  2.71182  5.36410
   spin  1
    eigenvalues:
  0.877  0.887  0.888
    eigenvectors:
  0.000  1.000  0.000
  0.500  0.000  0.500
  0.500  0.000  0.500
    occupations:
  0.887 -0.000 -0.000
 -0.000  0.883  0.005
 -0.000  0.005  0.883
   spin  2
    eigenvalues:
  0.894  0.907  0.911
    eigenvectors:
  0.000  1.000  0.000
  0.500  0.000  0.500
  0.500  0.000  0.500
    occupations:
  0.907 -0.000 -0.000
 -0.000  0.903 -0.008
 -0.000 -0.008  0.903
atomic mag. moment =    -0.059534
atom   47   Tr[ns(na)] (up, down, total) =   2.65231  2.71190  5.36420
   spin  1
    eigenvalues:
  0.877  0.887  0.888
    eigenvectors:
  0.000  1.000  0.000
  0.500  0.000  0.500
  0.500  0.000  0.500
    occupations:
  0.887 -0.000 -0.000
 -0.000  0.883 -0.006
 -0.000 -0.006  0.883
   spin  2
    eigenvalues:
  0.894  0.907  0.911
    eigenvectors:
  0.000  1.000  0.000
  0.500  0.000  0.500
  0.500  0.000  0.500
    occupations:
  0.907  0.000  0.000
  0.000  0.903  0.008
  0.000  0.008  0.903
atomic mag. moment =    -0.059591
atom   48   Tr[ns(na)] (up, down, total) =   2.65231  2.71190  5.36420
   spin  1
    eigenvalues:
  0.877  0.887  0.888
    eigenvectors:
  0.000  1.000  0.000
  0.500  0.000  0.500
  0.500  0.000  0.500
    occupations:
  0.887 -0.000 -0.000
 -0.000  0.883 -0.006
 -0.000 -0.006  0.883
   spin  2
    eigenvalues:
  0.894  0.907  0.911
    eigenvectors:
  0.000  1.000  0.000
  0.500  0.000  0.500
  0.500  0.000  0.500
    occupations:
  0.907  0.000  0.000
  0.000  0.903  0.008
  0.000  0.008  0.903
atomic mag. moment =    -0.059591
N of occupied +U levels = 243.5043237
 --- exit write_ns ---

 ------ SPIN UP ------------

          k = 0.0000 0.0000 0.0000 ( 13729 PWs)   bands (ev):

   -55.1746 -55.1705 -55.1705 -55.1704 -55.1704 -55.1701 -55.1691 -55.1656
   -55.1365 -55.1364 -55.1364 -55.1363 -55.1363 -55.1363 -55.1357 -55.1345
   -29.2548 -29.2547 -29.2546 -29.2543 -29.2517 -29.2516 -29.2514 -29.2509
   -29.0073 -29.0072 -29.0003 -29.0003 -28.9606 -28.9605 -28.9604 -28.9602
   -28.9576 -28.9575 -28.9573 -28.9571 -28.9296 -28.9295 -28.9287 -28.9286
   -28.9264 -28.9264 -28.9261 -28.9259 -28.9185 -28.9162 -28.9162 -28.9113
   -28.9111 -28.9083 -28.9083 -28.9083 -28.9082 -28.9081 -28.9075 -28.8978
   -28.8897 -28.8896 -28.8891 -28.8891 -28.8890 -28.8889 -28.8887 -28.8877
    -9.0735  -8.3012  -8.2963  -8.2961  -8.2960  -8.2782  -8.2766  -7.7718
    -7.7673  -7.7673  -7.7670  -7.6283  -7.5784  -7.5763  -7.4958  -7.4933
    -7.4795  -7.4778  -7.3693  -7.3672  -7.2892  -7.2856  -7.2808  -7.2779
    -7.2779  -7.2778  -7.1795  -7.1756  -7.1755  -7.1753  -7.1369  -7.1352
     3.1630   3.4870   3.4894   3.7640   3.9884   3.9885   3.9894   3.9925
     4.1034   4.1036   4.1044   4.1074   4.1777   4.3616   4.3617   4.3806
     4.3810   4.5574   4.5584   4.8904   4.8904   4.8906   4.8932   5.3441
     5.3451   5.4511   5.4515   5.4890   5.4905   5.5501   5.5515   5.5792
     5.5793   5.6300   5.6301   5.6303   5.6328   5.7842   5.7844   5.7863
     5.7871   5.8357   5.8358   5.8372   5.8378   6.0067   6.0069   6.0090
     6.0090   6.1207   6.1223   6.1549   6.1566   6.4656   6.4669   6.5362
     6.5363   6.8439   6.8448   6.8456   6.8459   6.8862   6.8880   6.9444
     6.9467   7.1303   7.1304   7.1309   7.1326   7.5111   7.7488   7.7488
     7.7491   7.7517   7.8156   7.8158   7.9870   7.9887   8.1762   8.1764
     8.2225   8.2243   8.4424   8.4427   8.4428   8.4455   8.7064   8.7066
     8.7508   8.7509   8.7510   8.7541   8.8812   9.0173   9.0179   9.4312
     9.9329   9.9609   9.9610  10.1018  10.1019  10.1019  10.1019  10.1658
    10.6137  10.6139  10.6299  10.6300  10.6301  10.6303  10.6324  10.6326
    10.7015  11.0197  11.0199  11.2375  11.2375  11.2377  11.2377  11.3381
    11.3382  11.4013  11.4018  11.4711  11.4712  11.4713  11.4713  11.4843
    11.4843  11.4880  11.4881  11.9211  11.9211  11.9212  11.9219  11.9872
    11.9876  12.2492  12.2493  12.2493  12.2500  12.3183  12.3187  12.7288
    12.8459  13.2578  13.2582  13.2582  13.2584  13.8953  13.8955  14.1856
    14.1862  14.4347  14.4349  14.5594  14.5595  14.5595  14.5598  14.6050
    14.6051  14.6070  14.6071  14.6727  14.6729  14.6729  14.6732  14.9784
    14.9787  14.9921  14.9924  15.7612  15.7612  15.7612  15.7614  16.1010
    17.7272  20.0910  20.0924  20.0932  20.0934  21.2956  21.2958  21.4248
    21.4251  21.6211  21.6213  22.2692  22.2693  22.2701  22.2701  22.4823
    22.4825  22.7045  22.7048  23.1083  23.1089  23.1092  23.1092  23.2461
    23.2465  24.1599  24.1599  24.1601  24.1602  24.4982  24.6669  24.6671
    25.0777  25.0778  25.2694  25.3165  25.3168  25.3813  25.5230  25.5233
    25.5234  25.5243  25.6248  25.6254  25.7621  25.7630  25.7631  25.7632
    26.9261  26.9265  26.9826  26.9834  26.9880  26.9882  26.9889  26.9889
    27.1269  27.1269  27.3321  27.4248  27.4253  27.4254  27.4258  27.5143
    27.5154  27.5159  27.5161  27.6032  27.6034  27.6040  27.6042  27.6853
    27.6855  28.3408  28.3411  28.3698  28.3699  28.9280  28.9281  28.9422
    28.9423  29.6463  29.6464  29.6470  29.6471  29.9187  29.9190  30.2745
    30.9573  31.3477  31.3479  31.7166  31.7166  32.2526  32.2533  32.2548
    32.2548  32.6090  32.6093  32.6097  32.6099  33.0039  33.0040  33.0100
    33.0102  33.0846  33.0856  33.0860  33.0862  33.1938  33.1941  33.1941
    33.1945  33.3060  33.3065  33.8191  33.8193  33.9103  34.0451  34.0455
    34.5772  34.8518  34.8523  35.2569  35.2571  35.2574  35.2579  35.5311
    35.5312  35.9160  35.9179  35.9182  35.9455  35.9457  35.9460  35.9464
    36.0166  36.4714  36.4715  37.0110  37.0115  37.2927  37.2932  37.3301
    37.3306  37.3546  37.3548  37.3548  37.3550  37.5043  37.5044  37.5715
    37.5716  37.5721  37.5723  37.7791  37.7797  37.7798  37.7801  38.2024
    38.2024  38.2031  38.2032  38.4401  38.4402  38.4404  38.4406  38.4414
    38.6594  38.6595  39.1791  39.1798  40.2838  40.2838  41.1124  41.1266
    41.1269  41.7306  41.7310  41.7406  41.7411  41.7902  41.9146  41.9147
    42.4144  42.4148  42.4150  42.4154  42.8840  42.8846  42.9241  42.9253
    42.9254  42.9254  43.0482  43.1418  43.1419  43.1427  43.1428  43.4117
    43.4120  43.4385  43.4389  43.4835  43.4837  43.4840  43.4842  43.6026
    43.6029  43.6862  43.6864  43.6868  43.6870  44.4959  44.6107  44.6116
    44.8364  44.8364  44.8640  44.8647  45.5248  45.5250  45.6596  45.6597
    45.6870  45.6874  45.6878  45.6881  45.7294  45.7850  45.7852  46.5260
    46.5261  46.5263  46.5265  46.6241  46.6246  46.6250  46.6252  46.6386
    46.6395  46.8581  46.8583  46.9720  46.9736  46.9739  46.9740  47.0770
    47.0773  47.2503  47.2506  47.4969  47.4981  47.4982  47.4987  47.6200
    47.8335  47.8340  47.8341  47.8345  47.8471  47.8475  47.9324  47.9326
    48.2895  48.2899  48.5168  48.5170  48.6135  48.6139  48.8236  48.8240
    48.8363  48.8367  48.8371  48.8374  49.3705  49.3706  49.4062  49.4066
    49.4069  49.4073  49.5882  50.0549  50.0553  50.0554  50.0557  50.0852
    50.0855  50.0924  50.0925  50.0929  50.0933  50.1921  50.1923  50.1925
    50.1925  50.2752  50.2752  50.4488  50.8306  50.8310  50.8316  50.8318
    50.8391  50.8394  51.3781  51.3782  51.5864  51.5865  52.0723  52.1406
    52.1408  52.2134  52.2138  52.2820  52.2823  52.2825  52.2826  52.3585
    52.3588  52.4899  52.5265  52.5281  52.5288  52.5289  53.2782  53.2785

[...]

          k =-0.5000-0.5000 0.0000 ( 13640 PWs)   bands (ev):

[...]

 ------ SPIN DOWN ----------

[...]

          k =-0.5000-0.5000-0.8046 ( 13712 PWs)   bands (ev):

[...]

          k = 0.2500-0.2500-0.8046 ( 13696 PWs)   bands (ev):

   -53.9983 -53.9983 -53.9968 -53.9967 -53.9967 -53.9965 -53.9960 -53.9959
   -53.9951 -53.9950 -53.9945 -53.9944 -53.9942 -53.9939 -53.9927 -53.9920
   -27.9884 -27.9884 -27.9866 -27.9866 -27.9866 -27.9865 -27.9831 -27.9831
   -27.9813 -27.9813 -27.9812 -27.9811 -27.9807 -27.9807 -27.9758 -27.9758
   -27.8260 -27.8258 -27.8223 -27.8221 -27.8160 -27.8159 -27.8137 -27.8137
   -27.8137 -27.8136 -27.8115 -27.8114 -27.7992 -27.7991 -27.7990 -27.7983
   -27.7648 -27.7648 -27.7647 -27.7644 -27.7536 -27.7535 -27.7520 -27.7520
   -27.7519 -27.7518 -27.7504 -27.7503 -27.7445 -27.7444 -27.7421 -27.7420
    -8.4375  -8.4347  -8.1607  -8.1567  -8.1566  -8.1565  -8.0028  -7.9987
    -7.8131  -7.8130  -7.7527  -7.7458  -7.7458  -7.7457  -7.4763  -7.4693
    -7.4635  -7.4629  -7.4490  -7.4485  -7.4430  -7.4397  -7.4361  -7.4328
    -7.4327  -7.4325  -7.4136  -7.4118  -7.4117  -7.4117  -7.3874  -7.3838
     4.2434   4.2464   4.2818   4.2860   4.4881   4.4882   4.4892   4.4893
     4.5407   4.5410   4.6413   4.6429   4.6949   4.6954   4.7373   4.7388
     4.8016   4.8016   4.8018   4.8048   4.8434   4.8435   4.9422   4.9423
     4.9437   4.9466   5.0295   5.0297   5.0310   5.0334   5.1612   5.1616
     5.5380   5.5393   5.7230   5.7231   5.7251   5.7273   5.8994   5.9002
     6.1173   6.1173   6.1174   6.1184   6.1969   6.1970   6.2715   6.2715
     6.2726   6.2740   6.5200   6.5228   6.5482   6.5510   6.8453   6.8470
     6.8659   6.8659   6.8683   6.8692   7.1417   7.1418   7.1425   7.1427
     7.1606   7.1611   7.1755   7.1757   7.4267   7.4268   7.4455   7.4462
     7.5858   7.5864   7.7165   7.7165   7.7170   7.7184   7.7909   7.7915
     8.0028   8.0046   8.0638   8.0654   8.2761   8.2761   8.2767   8.2773
     8.3536   8.3541   8.7040   8.7042   8.7042   8.7067   8.9599   8.9610
    11.5499  11.5499  11.7232  11.7233  11.7235  11.7235  11.8915  11.8917
    11.9517  11.9517  11.9631  11.9632  12.0898  12.0899  12.0900  12.0900
    12.1739  12.1739  12.2561  12.2561  12.2561  12.2562  12.2802  12.2803
    12.3256  12.3256  12.4423  12.4423  12.5447  12.5448  12.5822  12.5822
    12.5824  12.5824  12.6834  12.6834  12.8214  12.8214  12.8215  12.8216
    12.8559  12.8560  13.0726  13.0727  13.0727  13.0729  13.3377  13.3378
    14.0892  14.0899  14.0900  14.0902  14.2609  14.2611  14.4957  14.4958
    14.4958  14.4959  14.5094  14.5095  14.8000  14.8001  15.0861  15.0862
    15.0881  15.0883  15.0902  15.0904  15.3820  15.3821  15.3822  15.3822
    15.5769  15.5770  15.9422  15.9422  15.9423  15.9423  16.0081  16.0081
    19.8622  19.8631  20.7838  20.7857  20.7863  20.7867  21.3475  21.3486
    22.0801  22.0816  22.1783  22.1803  22.1810  22.1813  23.4093  23.4100
    23.6761  23.6773  23.7200  23.7212  24.2623  24.2634  24.2641  24.2646
    24.2831  24.2841  25.0422  25.0432  25.1079  25.1083  25.2438  25.2440
    25.2446  25.2448  25.4587  25.4590  25.4600  25.4604  25.6026  25.6032
    25.6760  25.6760  25.6870  25.6882  25.6884  25.6889  26.1874  26.1885
    26.9276  26.9282  26.9287  26.9294  27.2178  27.2185  27.2513  27.2516
    27.3538  27.3550  27.3556  27.3559  27.4159  27.4161  27.4976  27.4984
    27.8141  27.8144  27.8148  27.8149  28.2981  28.2983  28.3553  28.3555
    28.6333  28.6337  28.8382  28.8394  29.0357  29.0362  29.0368  29.0369
    29.2615  29.2618  29.6856  29.6859  29.6860  29.6864  29.7023  29.7024
    30.3644  30.3653  30.5526  30.5528  30.5528  30.5534  31.5369  31.5374
    31.7097  31.7103  31.7104  31.7110  32.1837  32.1838  32.5390  32.5391
    33.9069  33.9071  34.0684  34.0685  34.0688  34.0690  34.3166  34.3182
    34.4747  34.4748  34.7736  34.7736  35.0429  35.0441  35.0583  35.0590
    35.2141  35.2146  35.2150  35.2156  35.6761  35.6764  35.8047  35.8052
    35.8054  35.8055  36.1889  36.1893  36.1894  36.1898  36.3341  36.3350
    36.5568  36.5575  36.7127  36.7133  36.7136  36.7141  37.0889  37.0889
    37.4040  37.4047  37.8140  37.8149  37.8150  37.8152  38.2730  38.2735
    38.2736  38.2739  38.5398  38.5403  38.5990  38.5994  39.1253  39.1256
    39.2496  39.2496  39.2499  39.2504  39.2675  39.2680  39.3961  39.3965
    39.7564  39.7564  40.0946  40.0949  40.0953  40.0954  40.1555  40.1561
    40.2967  40.2972  40.2974  40.2978  40.9095  40.9096  41.1446  41.1451
    42.2316  42.2319  42.2319  42.2323  42.2428  42.2439  42.5617  42.5619
    42.8356  42.8357  42.9181  42.9185  42.9847  42.9852  42.9853  42.9858
    43.3426  43.3429  43.7442  43.7443  44.0542  44.0546  44.0548  44.0549
    44.7120  44.7127  44.7363  44.7367  44.7370  44.7373  45.1590  45.1598
    45.1616  45.1620  46.1645  46.1649  46.3377  46.3381  46.3382  46.3386
    46.3748  46.3752  46.4060  46.4070  46.4072  46.4075  46.4894  46.4895
    46.5218  46.5224  46.6867  46.6869  47.0027  47.0034  47.0039  47.0040
    47.3015  47.3020  48.0415  48.0418  48.1580  48.1587  48.1839  48.1843
    48.1848  48.1850  48.3408  48.3415  48.3420  48.3421  48.4326  48.4332
    48.8720  48.8725  48.9564  48.9571  48.9574  48.9575  49.3208  49.3213
    49.3220  49.3222  49.3762  49.3766  49.4830  49.4842  49.5334  49.5347
    49.5550  49.5554  49.5902  49.5904  49.8502  49.8502  49.8503  49.8509
    49.9302  49.9307  49.9307  49.9311  50.0179  50.0181  50.1785  50.1791
    50.1800  50.1801  50.2429  50.2431  50.3737  50.3740  50.3761  50.3767
    50.5374  50.5375  50.6856  50.6868  50.9243  50.9246  51.0233  51.0235
    51.0239  51.0241  51.2565  51.2569  51.2578  51.2581  51.3851  51.3858
    51.4982  51.4988  51.6164  51.6170  51.6172  51.6176  52.0344  52.0346
    52.0347  52.0352  52.1198  52.1198  52.5765  52.5775  52.7882  52.7887

     the Fermi energy is    10.9459 ev

!    total energy              =   -3356.35929726 Ry
     Harris-Foulkes estimate   =   -3356.35929776 Ry
     estimated scf accuracy    <       0.00000055 Ry

     The total energy is the sum of the following terms:

     one-electron contribution =   -1296.46457174 Ry
     hartree contribution      =     845.55987691 Ry
     xc contribution           =    -537.24300552 Ry
     ewald contribution        =   -2368.23960066 Ry
     Hubbard energy            =       0.02757518 Ry
     smearing contrib. (-TS)   =       0.00042858 Ry

     total magnetization       =    16.02 Bohr mag/cell
     absolute magnetization    =    19.67 Bohr mag/cell

     convergence has been achieved in  10 iterations

     Writing output data file pwscf.save

     General routines

     Parallel routines
     Hubbard U routines

   This run was terminated on:   1:41:14  15Feb2014

   JOB DONE.