     Program PWSCF v.5.0.2 (svn rev. 9656) starts on 14Feb2014 at 13:43: 7

     Current dimensions of program PWSCF are:
     Max number of different atomic species (ntypx) = 10
     Max number of k-points (npk) =  40000
     Max angular momentum in pseudopotentials (lmaxx) =  3
     Reading input from alpha_-0.07/alpha_-0.07.in
Warning: card &IONS ignored
Warning: card / ignored
Warning: card &CELL ignored
Warning: card / ignored

     Subspace diagonalization in iterative solution of the eigenvalue problem:
     a serial algorithm will be used

     bravais-lattice index     =            0
     lattice parameter (alat)  =      17.2721  a.u.
     unit-cell volume          =    3202.1180 (a.u.)^3
     number of atoms/cell      =           48
     number of atomic types    =            3
     number of electrons       =       400.00
     number of Kohn-Sham states=          600
     kinetic-energy cutoff     =      40.0000  Ry
     charge density cutoff     =     500.0000  Ry
     convergence threshold     =      1.0E-06
     mixing beta               =       0.7000
     number of iterations used =            8  plain     mixing
     Exchange-correlation      = SLA  PW   PBE  PBE ( 1 4 3 4 0)
     EXX-fraction              =        0.00

     celldm(1)=  17.272097  celldm(2)=   0.000000  celldm(3)=   0.000000
     celldm(4)=   0.000000  celldm(5)=   0.000000  celldm(6)=   0.000000

     crystal axes: (cart. coord. in units of alat)
               a(1) = (   1.000000   0.000000   0.000000 )
               a(2) = (   0.000000   1.000000   0.000000 )
               a(3) = (   0.000000   0.000000   0.621444 )

     reciprocal axes: (cart. coord. in units 2 pi/alat)
               b(1) = (  1.000000  0.000000  0.000000 )
               b(2) = (  0.000000  1.000000  0.000000 )
               b(3) = (  0.000000  0.000000  1.609155 )

     PseudoPot. # 1 for V  read from file:
     /home/camp/zhonxu/pseudo/v_pbe_v1.uspp.F.UPF
     MD5 check sum: f3d00ac417565f5fd6449f790f2b64f9
     Pseudo is Ultrasoft + core correction, Zval = 13.0
     Generated by new atomic code, or converted to UPF format
     Using radial grid of  853 points,  6 beta functions with:
                l(1) =   0
                l(2) =   0
                l(3) =   1
                l(4) =   1
                l(5) =   2
                l(6) =   2
     Q(r) pseudized with  6 coefficients,  rinner =    1.100   1.100   1.100
                                                       1.100   1.100

     PseudoPot. # 2 for O  read from file:
     /home/camp/zhonxu/pseudo/o_pbe_v1.01.uspp.F.UPF
     MD5 check sum: 2bcb18d16ea4b960afae9ec6d52f22d2
     Pseudo is Ultrasoft + core correction, Zval =  6.0
     Generated by new atomic code, or converted to UPF format
     Using radial grid of  737 points,  5 beta functions with:
                l(1) =   0
                l(2) =   0
                l(3) =   1
                l(4) =   1
                l(5) =   2
     Q(r) pseudized with  8 coefficients,  rinner =    0.900   0.900   0.900
                                                       0.900   0.900

     PseudoPot. # 3 for O  read from file:
     /home/camp/zhonxu/pseudo/o_pbe_v1.01.uspp.F.UPF
     MD5 check sum: 2bcb18d16ea4b960afae9ec6d52f22d2
     Pseudo is Ultrasoft + core correction, Zval =  6.0
     Generated by new atomic code, or converted to UPF format
     Using radial grid of  737 points,  5 beta functions with:
                l(1) =   0
                l(2) =   0
                l(3) =   1
                l(4) =   1
                l(5) =   2
     Q(r) pseudized with  8 coefficients,  rinner =    0.900   0.900   0.900
                                                       0.900   0.900

     atomic species   valence    mass     pseudopotential
        V0            13.00    50.94150     V ( 1.00)
        O1             6.00    15.99940     O ( 1.00)
        O2             6.00    15.99940     O ( 1.00)

     Starting magnetic structure
     atomic species   magnetization
        V0           0.600
        O1           0.000
        O2           0.000

     Simplified LDA+U calculation (l_max = 2) with parameters (eV):
     atomic species    L          U    alpha       J0     beta
        V0             2     0.0000   0.0000   0.0000   0.0000
        O1             1     0.0000  -0.0700   0.0000   0.0000
        O2             1     0.0000   0.0000   0.0000   0.0000

      4 Sym. Ops. (no inversion) found

   Cartesian axes

     site n.     atom                  positions (alat units)
         1           V0  tau(   1) = (  -0.1500000  -0.1500000   0.0000000  )
         2           V0  tau(   2) = (   0.1000000   0.1000000   0.1553611  )
         3           V0  tau(   3) = (  -0.1500000  -0.1500000   0.3107221  )
         4           V0  tau(   4) = (   0.1000000   0.1000000   0.4660832  )
         5           V0  tau(   5) = (  -0.1500000   0.3500000   0.0000000  )
         6           V0  tau(   6) = (   0.1000000   0.6000000   0.1553611  )
         7           V0  tau(   7) = (  -0.1500000   0.3500000   0.3107221  )
         8           V0  tau(   8) = (   0.1000000   0.6000000   0.4660832  )
         9           V0  tau(   9) = (   0.3500000  -0.1500000   0.0000000  )
        10           V0  tau(  10) = (   0.6000000   0.1000000   0.1553611  )
        11           V0  tau(  11) = (   0.3500000  -0.1500000   0.3107221  )
        12           V0  tau(  12) = (   0.6000000   0.1000000   0.4660832  )
        13           V0  tau(  13) = (   0.3500000   0.3500000   0.0000000  )
        14           V0  tau(  14) = (   0.6000000   0.6000000   0.1553611  )
        15           V0  tau(  15) = (   0.3500000   0.3500000   0.3107221  )
        16           V0  tau(  16) = (   0.6000000   0.6000000   0.4660832  )
        17           O1  tau(  17) = (   0.0000000   0.0000000   0.0000000  )
        18           O2  tau(  18) = (  -0.3000000  -0.3000000   0.0000000  )
        19           O2  tau(  19) = (   0.2500000  -0.0500000   0.1553611  )
        20           O2  tau(  20) = (  -0.0500000   0.2500000   0.1553611  )
        21           O2  tau(  21) = (   0.0000000   0.0000000   0.3107221  )
        22           O2  tau(  22) = (  -0.3000000  -0.3000000   0.3107221  )
        23           O2  tau(  23) = (   0.2500000  -0.0500000   0.4660832  )
        24           O2  tau(  24) = (  -0.0500000   0.2500000   0.4660832  )
        25           O2  tau(  25) = (   0.0000000   0.5000000   0.0000000  )
        26           O2  tau(  26) = (  -0.3000000   0.2000000   0.0000000  )
        27           O2  tau(  27) = (   0.2500000   0.4500000   0.1553611  )
        28           O2  tau(  28) = (  -0.0500000   0.7500000   0.1553611  )
        29           O2  tau(  29) = (   0.0000000   0.5000000   0.3107221  )
        30           O2  tau(  30) = (  -0.3000000   0.2000000   0.3107221  )
        31           O2  tau(  31) = (   0.2500000   0.4500000   0.4660832  )
        32           O2  tau(  32) = (  -0.0500000   0.7500000   0.4660832  )
        33           O2  tau(  33) = (   0.5000000   0.0000000   0.0000000  )
        34           O2  tau(  34) = (   0.2000000  -0.3000000   0.0000000  )
        35           O2  tau(  35) = (   0.7500000  -0.0500000   0.1553611  )
        36           O2  tau(  36) = (   0.4500000   0.2500000   0.1553611  )
        37           O2  tau(  37) = (   0.5000000   0.0000000   0.3107221  )
        38           O2  tau(  38) = (   0.2000000  -0.3000000   0.3107221  )
        39           O2  tau(  39) = (   0.7500000  -0.0500000   0.4660832  )
        40           O2  tau(  40) = (   0.4500000   0.2500000   0.4660832  )
        41           O2  tau(  41) = (   0.5000000   0.5000000   0.0000000  )
        42           O2  tau(  42) = (   0.2000000   0.2000000   0.0000000  )
        43           O2  tau(  43) = (   0.7500000   0.4500000   0.1553611  )
        44           O2  tau(  44) = (   0.4500000   0.7500000   0.1553611  )
        45           O2  tau(  45) = (   0.5000000   0.5000000   0.3107221  )
        46           O2  tau(  46) = (   0.2000000   0.2000000   0.3107221  )
        47           O2  tau(  47) = (   0.7500000   0.4500000   0.4660832  )
        48           O2  tau(  48) = (   0.4500000   0.7500000   0.4660832  )

     number of k points=    42  Methfessel-Paxton smearing, width (Ry)=  0.0100
                       cart. coord. in units 2pi/alat
        k(    1) = (   0.0000000   0.0000000   0.0000000), wk =   0.0156250
        k(    2) = (   0.0000000   0.0000000   0.4022887), wk =   0.0312500
        k(    3) = (   0.0000000   0.0000000  -0.8045775), wk =   0.0156250
        k(    4) = (   0.0000000   0.2500000   0.0000000), wk =   0.0625000
        k(    5) = (   0.0000000   0.2500000   0.4022887), wk =   0.1250000
        k(    6) = (   0.0000000   0.2500000  -0.8045775), wk =   0.0625000
        k(    7) = (   0.0000000  -0.5000000   0.0000000), wk =   0.0312500
        k(    8) = (   0.0000000  -0.5000000   0.4022887), wk =   0.0625000
        k(    9) = (   0.0000000  -0.5000000  -0.8045775), wk =   0.0312500
        k(   10) = (   0.2500000   0.2500000   0.0000000), wk =   0.0312500
        k(   11) = (   0.2500000   0.2500000   0.4022887), wk =   0.0625000
        k(   12) = (   0.2500000   0.2500000  -0.8045775), wk =   0.0312500
        k(   13) = (   0.2500000  -0.5000000   0.0000000), wk =   0.0625000
        k(   14) = (   0.2500000  -0.5000000   0.4022887), wk =   0.1250000
        k(   15) = (   0.2500000  -0.5000000  -0.8045775), wk =   0.0625000
        k(   16) = (  -0.5000000  -0.5000000   0.0000000), wk =   0.0156250
        k(   17) = (  -0.5000000  -0.5000000   0.4022887), wk =   0.0312500
        k(   18) = (  -0.5000000  -0.5000000  -0.8045775), wk =   0.0156250
        k(   19) = (   0.2500000  -0.2500000   0.0000000), wk =   0.0312500
        k(   20) = (   0.2500000  -0.2500000   0.4022887), wk =   0.0625000
        k(   21) = (   0.2500000  -0.2500000  -0.8045775), wk =   0.0312500
        k(   22) = (   0.0000000   0.0000000   0.0000000), wk =   0.0156250
        k(   23) = (   0.0000000   0.0000000   0.4022887), wk =   0.0312500
        k(   24) = (   0.0000000   0.0000000  -0.8045775), wk =   0.0156250
        k(   25) = (   0.0000000   0.2500000   0.0000000), wk =   0.0625000
        k(   26) = (   0.0000000   0.2500000   0.4022887), wk =   0.1250000
        k(   27) = (   0.0000000   0.2500000  -0.8045775), wk =   0.0625000
        k(   28) = (   0.0000000  -0.5000000   0.0000000), wk =   0.0312500
        k(   29) = (   0.0000000  -0.5000000   0.4022887), wk =   0.0625000
        k(   30) = (   0.0000000  -0.5000000  -0.8045775), wk =   0.0312500
        k(   31) = (   0.2500000   0.2500000   0.0000000), wk =   0.0312500
        k(   32) = (   0.2500000   0.2500000   0.4022887), wk =   0.0625000
        k(   33) = (   0.2500000   0.2500000  -0.8045775), wk =   0.0312500
        k(   34) = (   0.2500000  -0.5000000   0.0000000), wk =   0.0625000
        k(   35) = (   0.2500000  -0.5000000   0.4022887), wk =   0.1250000
        k(   36) = (   0.2500000  -0.5000000  -0.8045775), wk =   0.0625000
[...]
  0.877  0.887  0.888
    eigenvectors:
  0.000  1.000  0.000
  0.500  0.000  0.500
  0.500  0.000  0.500
    occupations:
  0.887 -0.000 -0.000
 -0.000  0.883  0.006
 -0.000  0.006  0.883
   spin  2
    eigenvalues:
  0.894  0.907  0.911
    eigenvectors:
  0.000  1.000  0.000
  0.500  0.000  0.500
  0.500  0.000  0.500
    occupations:
  0.907 -0.000 -0.000
 -0.000  0.903 -0.008
 -0.000 -0.008  0.903
atomic mag. moment =    -0.059598
atom   42   Tr[ns(na)] (up, down, total) =   2.65221  2.71186  5.36407
   spin  1
    eigenvalues:
  0.877  0.887  0.888
    eigenvectors:
  0.000  1.000  0.000
  0.500  0.000  0.500
  0.500  0.000  0.500
    occupations:
  0.887 -0.000 -0.000
 -0.000  0.883  0.006
 -0.000  0.006  0.883
   spin  2
    eigenvalues:
  0.894  0.907  0.911
    eigenvectors:
  0.000  1.000  0.000
  0.500  0.000  0.500
  0.500  0.000  0.500
    occupations:
  0.907 -0.000 -0.000
 -0.000  0.903 -0.008
 -0.000 -0.008  0.903
atomic mag. moment =    -0.059658
atom   43   Tr[ns(na)] (up, down, total) =   2.65230  2.71189  5.36419
   spin  1
    eigenvalues:
  0.877  0.887  0.888
    eigenvectors:
  0.000  1.000  0.000
  0.500  0.000  0.500
  0.500  0.000  0.500
    occupations:
  0.887 -0.000 -0.000
 -0.000  0.883 -0.006
 -0.000 -0.006  0.883
   spin  2
    eigenvalues:
  0.894  0.907  0.911
    eigenvectors:
  0.000  1.000  0.000
  0.500  0.000  0.500
  0.500  0.000  0.500
    occupations:
  0.907  0.000  0.000
  0.000  0.903  0.008
  0.000  0.008  0.903
atomic mag. moment =    -0.059599
atom   44   Tr[ns(na)] (up, down, total) =   2.65230  2.71189  5.36419
   spin  1
    eigenvalues:
  0.877  0.887  0.888
    eigenvectors:
  0.000  1.000  0.000
  0.500  0.000  0.500
  0.500  0.000  0.500
    occupations:
  0.887 -0.000 -0.000
 -0.000  0.883 -0.006
 -0.000 -0.006  0.883
   spin  2
    eigenvalues:
  0.894  0.907  0.911
    eigenvectors:
  0.000  1.000  0.000
  0.500  0.000  0.500
  0.500  0.000  0.500
    occupations:
  0.907  0.000  0.000
  0.000  0.903  0.008
  0.000  0.008  0.903
atomic mag. moment =    -0.059599
atom   45   Tr[ns(na)] (up, down, total) =   2.65230  2.71191  5.36420
   spin  1
    eigenvalues:
  0.877  0.887  0.888
    eigenvectors:
  0.000  1.000  0.000
  0.500  0.000  0.500
  0.500  0.000  0.500
    occupations:
  0.887 -0.000 -0.000
 -0.000  0.883  0.006
 -0.000  0.006  0.883
   spin  2
    eigenvalues:
  0.894  0.907  0.911
    eigenvectors:
  0.000  1.000  0.000
  0.500  0.000  0.500
  0.500  0.000  0.500
    occupations:
  0.907 -0.000 -0.000
 -0.000  0.903 -0.008
 -0.000 -0.008  0.903
atomic mag. moment =    -0.059610
atom   46   Tr[ns(na)] (up, down, total) =   2.65232  2.71197  5.36430
   spin  1
    eigenvalues:
  0.877  0.887  0.888
    eigenvectors:
  0.000  1.000  0.000
  0.500  0.000  0.500
  0.500  0.000  0.500
    occupations:
  0.887 -0.000 -0.000
 -0.000  0.883  0.006
 -0.000  0.006  0.883
   spin  2
    eigenvalues:
  0.894  0.907  0.911
    eigenvectors:
  0.000  1.000  0.000
  0.500  0.000  0.500
  0.500  0.000  0.500
    occupations:
  0.907 -0.000 -0.000
 -0.000  0.903 -0.008
 -0.000 -0.008  0.903
atomic mag. moment =    -0.059653
atom   47   Tr[ns(na)] (up, down, total) =   2.65230  2.71189  5.36419
   spin  1
    eigenvalues:
  0.877  0.887  0.888
    eigenvectors:
  0.000  1.000  0.000
  0.500  0.000  0.500
  0.500  0.000  0.500
    occupations:
  0.887  0.000  0.000
  0.000  0.883 -0.006
  0.000 -0.006  0.883
   spin  2
    eigenvalues:
  0.894  0.907  0.911
    eigenvectors:
  0.000  1.000  0.000
  0.500  0.000  0.500
  0.500  0.000  0.500
    occupations:
  0.907 -0.000 -0.000
 -0.000  0.903  0.008
 -0.000  0.008  0.903
atomic mag. moment =    -0.059599
atom   48   Tr[ns(na)] (up, down, total) =   2.65230  2.71189  5.36419
   spin  1
    eigenvalues:
  0.877  0.887  0.888
    eigenvectors:
  0.000  1.000  0.000
  0.500  0.000  0.500
  0.500  0.000  0.500
    occupations:
  0.887  0.000  0.000
  0.000  0.883 -0.006
  0.000 -0.006  0.883
   spin  2
    eigenvalues:
  0.894  0.907  0.911
    eigenvectors:
  0.000  1.000  0.000
  0.500  0.000  0.500
  0.500  0.000  0.500
    occupations:
  0.907 -0.000 -0.000
 -0.000  0.903  0.008
 -0.000  0.008  0.903
atomic mag. moment =    -0.059599
N of occupied +U levels = 243.5032054
 --- exit write_ns ---

 ------ SPIN UP ------------

          k = 0.0000 0.0000 0.0000 ( 13729 PWs)   bands (ev):

   -55.1769 -55.1741 -55.1730 -55.1724 -55.1723 -55.1723 -55.1723 -55.1685
   -55.1402 -55.1395 -55.1383 -55.1383 -55.1382 -55.1382 -55.1382 -55.1382
   -29.2573 -29.2571 -29.2566 -29.2566 -29.2541 -29.2539 -29.2535 -29.2534
   -29.0095 -29.0094 -29.0025 -29.0024 -28.9629 -28.9628 -28.9625 -28.9624
   -28.9599 -28.9599 -28.9595 -28.9595 -28.9319 -28.9319 -28.9309 -28.9309
   -28.9287 -28.9286 -28.9283 -28.9282 -28.9208 -28.9186 -28.9185 -28.9135
   -28.9135 -28.9110 -28.9108 -28.9102 -28.9102 -28.9102 -28.9101 -28.9001
   -28.8926 -28.8921 -28.8913 -28.8912 -28.8909 -28.8909 -28.8908 -28.8908
    -9.0728  -8.2982  -8.2980  -8.2978  -8.2941  -8.2781  -8.2756  -7.7688
    -7.7686  -7.7686  -7.7646  -7.6276  -7.5775  -7.5757  -7.4949  -7.4931
    -7.4791  -7.4768  -7.3685  -7.3666  -7.2873  -7.2860  -7.2794  -7.2793
    -7.2793  -7.2739  -7.1771  -7.1770  -7.1768  -7.1725  -7.1365  -7.1339
     3.1584   3.4832   3.4856   3.7610   3.9824   3.9857   3.9866   3.9868
     4.0980   4.1010   4.1019   4.1020   4.1731   4.3570   4.3574   4.3760
     4.3762   4.5538   4.5547   4.8861   4.8888   4.8889   4.8890   5.3405
     5.3417   5.4472   5.4474   5.4862   5.4876   5.5472   5.5486   5.5763
     5.5763   5.6260   5.6285   5.6286   5.6287   5.7800   5.7804   5.7825
     5.7827   5.8322   5.8329   5.8343   5.8344   6.0033   6.0034   6.0055
     6.0057   6.1178   6.1193   6.1521   6.1535   6.4615   6.4629   6.5325
     6.5326   6.8407   6.8409   6.8417   6.8426   6.8833   6.8851   6.9413
     6.9435   7.1267   7.1283   7.1288   7.1290   7.5079   7.7446   7.7473
     7.7475   7.7476   7.8124   7.8128   7.9842   7.9859   8.1733   8.1734
     8.2196   8.2213   8.4382   8.4409   8.4410   8.4413   8.7037   8.7038
     8.7466   8.7495   8.7496   8.7497   8.8785   9.0147   9.0151   9.4288
     9.9312   9.9592   9.9593  10.1002  10.1002  10.1002  10.1002  10.1640
    10.6119  10.6120  10.6279  10.6282  10.6282  10.6284  10.6306  10.6307
    10.6996  11.0178  11.0180  11.2354  11.2355  11.2357  11.2358  11.3361
    11.3363  11.3993  11.3997  11.4691  11.4692  11.4693  11.4694  11.4823
    11.4823  11.4860  11.4861  11.9187  11.9194  11.9195  11.9196  11.9852
    11.9855  12.2469  12.2476  12.2476  12.2476  12.3163  12.3167  12.7270
    12.8437  13.2560  13.2562  13.2563  13.2565  13.8933  13.8934  14.1837
    14.1842  14.4328  14.4329  14.5573  14.5577  14.5577  14.5577  14.6031
    14.6031  14.6051  14.6051  14.6706  14.6709  14.6710  14.6712  14.9764
    14.9766  14.9901  14.9903  15.7590  15.7592  15.7592  15.7593  16.0990
    17.7276  20.0920  20.0922  20.0930  20.0944  21.2961  21.2963  21.4249
    21.4252  21.6214  21.6216  22.2696  22.2696  22.2703  22.2704  22.4826
    22.4829  22.7047  22.7049  23.1086  23.1086  23.1089  23.1096  23.2460
    23.2464  24.1602  24.1603  24.1605  24.1605  24.4988  24.6671  24.6672
    25.0782  25.0783  25.2691  25.3167  25.3171  25.3812  25.5229  25.5239
    25.5239  25.5242  25.6249  25.6254  25.7627  25.7629  25.7630  25.7638
    26.9261  26.9265  26.9831  26.9834  26.9879  26.9879  26.9885  26.9892
    27.1270  27.1270  27.3323  27.4249  27.4253  27.4254  27.4259  27.5147
    27.5148  27.5154  27.5164  27.6029  27.6032  27.6037  27.6040  27.6852
    27.6854  28.3405  28.3408  28.3694  28.3695  28.9279  28.9280  28.9424
    28.9425  29.6462  29.6463  29.6469  29.6470  29.9182  29.9185  30.2748
    30.9569  31.3477  31.3479  31.7164  31.7165  32.2532  32.2532  32.2547
    32.2554  32.6089  32.6091  32.6094  32.6097  33.0041  33.0042  33.0098
    33.0099  33.0847  33.0849  33.0853  33.0863  33.1936  33.1940  33.1940
    33.1943  33.3058  33.3064  33.8192  33.8194  33.9106  34.0449  34.0453
    34.5768  34.8520  34.8525  35.2567  35.2572  35.2575  35.2578  35.5311
    35.5312  35.9163  35.9179  35.9183  35.9455  35.9459  35.9463  35.9464
    36.0161  36.4712  36.4713  37.0109  37.0115  37.2927  37.2932  37.3302
    37.3307  37.3546  37.3547  37.3548  37.3549  37.5043  37.5045  37.5713
    37.5715  37.5719  37.5721  37.7794  37.7796  37.7797  37.7803  38.2023
    38.2024  38.2030  38.2031  38.4401  38.4404  38.4405  38.4406  38.4409
    38.6593  38.6595  39.1794  39.1801  40.2837  40.2838  41.1121  41.1265
    41.1268  41.7303  41.7306  41.7405  41.7410  41.7897  41.9146  41.9147
    42.4143  42.4147  42.4149  42.4152  42.8840  42.8845  42.9247  42.9248
    42.9248  42.9261  43.0486  43.1419  43.1421  43.1429  43.1429  43.4119
    43.4123  43.4385  43.4388  43.4833  43.4836  43.4838  43.4840  43.6026
    43.6029  43.6863  43.6864  43.6869  43.6872  44.4959  44.6107  44.6116
    44.8362  44.8362  44.8641  44.8647  45.5248  45.5250  45.6595  45.6595
    45.6870  45.6873  45.6877  45.6881  45.7294  45.7852  45.7854  46.5260
    46.5262  46.5264  46.5265  46.6245  46.6247  46.6252  46.6256  46.6387
    46.6396  46.8580  46.8583  46.9728  46.9729  46.9732  46.9749  47.0770
    47.0773  47.2501  47.2504  47.4970  47.4975  47.4976  47.4987  47.6200
    47.8334  47.8338  47.8339  47.8344  47.8472  47.8476  47.9323  47.9325
    48.2896  48.2901  48.5170  48.5173  48.6136  48.6140  48.8232  48.8237
    48.8364  48.8367  48.8371  48.8375  49.3705  49.3706  49.4061  49.4065
    49.4068  49.4072  49.5882  50.0550  50.0552  50.0554  50.0557  50.0851
    50.0853  50.0922  50.0925  50.0929  50.0931  50.1922  50.1923  50.1924
    50.1927  50.2753  50.2753  50.4484  50.8305  50.8306  50.8312  50.8315
    50.8394  50.8397  51.3783  51.3784  51.5862  51.5863  52.0727  52.1404
    52.1405  52.2136  52.2140  52.2821  52.2822  52.2824  52.2828  52.3587
    52.3590  52.4901  52.5275  52.5276  52.5283  52.5299  53.2785  53.2788

[...]

          k =-0.5000-0.5000 0.0000 ( 13640 PWs)   bands (ev):

[...]

 ------ SPIN DOWN ----------

[...]

          k =-0.5000-0.5000-0.8046 ( 13712 PWs)   bands (ev):

[...]

          k = 0.2500-0.2500-0.8046 ( 13696 PWs)   bands (ev):

   -54.0010 -54.0008 -54.0001 -53.9993 -53.9991 -53.9989 -53.9984 -53.9983
   -53.9978 -53.9974 -53.9969 -53.9967 -53.9967 -53.9965 -53.9953 -53.9950
   -27.9908 -27.9907 -27.9890 -27.9888 -27.9888 -27.9888 -27.9856 -27.9853
   -27.9837 -27.9834 -27.9834 -27.9834 -27.9829 -27.9829 -27.9781 -27.9780
   -27.8285 -27.8281 -27.8247 -27.8244 -27.8182 -27.8181 -27.8160 -27.8158
   -27.8158 -27.8158 -27.8136 -27.8136 -27.8024 -27.8012 -27.8011 -27.8010
   -27.7673 -27.7670 -27.7669 -27.7669 -27.7560 -27.7556 -27.7546 -27.7540
   -27.7540 -27.7540 -27.7526 -27.7524 -27.7470 -27.7468 -27.7446 -27.7445
    -8.4368  -8.4342  -8.1585  -8.1585  -8.1584  -8.1548  -8.0008  -7.9970
    -7.8146  -7.8145  -7.7477  -7.7476  -7.7475  -7.7412  -7.4713  -7.4681
    -7.4643  -7.4633  -7.4499  -7.4497  -7.4413  -7.4403  -7.4344  -7.4343
    -7.4342  -7.4284  -7.4132  -7.4132  -7.4131  -7.4098  -7.3857  -7.3788
     4.2376   4.2416   4.2761   4.2798   4.4856   4.4856   4.4867   4.4868
     4.5388   4.5391   4.6366   4.6383   4.6927   4.6932   4.7339   4.7356
     4.7968   4.7999   4.8001   4.8001   4.8389   4.8390   4.9358   4.9390
     4.9404   4.9405   5.0243   5.0263   5.0276   5.0278   5.1589   5.1594
     5.5336   5.5349   5.7169   5.7193   5.7212   5.7213   5.8968   5.8976
     6.1149   6.1159   6.1160   6.1160   6.1951   6.1951   6.2676   6.2690
     6.2701   6.2701   6.5148   6.5182   6.5439   6.5461   6.8418   6.8435
     6.8612   6.8620   6.8643   6.8644   7.1393   7.1395   7.1402   7.1404
     7.1587   7.1592   7.1738   7.1740   7.4225   7.4226   7.4415   7.4423
     7.5837   7.5843   7.7128   7.7143   7.7148   7.7148   7.7888   7.7894
     7.9992   8.0011   8.0605   8.0619   8.2733   8.2739   8.2745   8.2745
     8.3508   8.3513   8.7001   8.7025   8.7025   8.7027   8.9573   8.9583
    11.5482  11.5482  11.7215  11.7216  11.7217  11.7217  11.8899  11.8900
    11.9499  11.9499  11.9615  11.9616  12.0881  12.0881  12.0881  12.0882
    12.1720  12.1720  12.2540  12.2542  12.2542  12.2542  12.2784  12.2784
    12.3237  12.3238  12.4404  12.4404  12.5429  12.5429  12.5804  12.5804
    12.5806  12.5806  12.6814  12.6816  12.8195  12.8195  12.8196  12.8196
    12.8540  12.8541  13.0705  13.0708  13.0708  13.0709  13.3356  13.3358
    14.0877  14.0880  14.0880  14.0886  14.2590  14.2591  14.4936  14.4938
    14.4938  14.4939  14.5074  14.5076  14.7980  14.7982  15.0842  15.0844
    15.0860  15.0864  15.0881  15.0884  15.3800  15.3800  15.3802  15.3803
    15.5750  15.5750  15.9401  15.9402  15.9403  15.9403  16.0061  16.0061
    19.8626  19.8635  20.7850  20.7854  20.7860  20.7879  21.3480  21.3491
    22.0806  22.0820  22.1796  22.1799  22.1806  22.1826  23.4099  23.4106
    23.6761  23.6772  23.7197  23.7209  24.2630  24.2634  24.2642  24.2653
    24.2834  24.2844  25.0426  25.0436  25.1080  25.1083  25.2437  25.2439
    25.2445  25.2447  25.4587  25.4591  25.4601  25.4604  25.6025  25.6032
    25.6765  25.6765  25.6874  25.6879  25.6880  25.6892  26.1875  26.1886
    26.9279  26.9285  26.9290  26.9296  27.2176  27.2183  27.2515  27.2518
    27.3542  27.3545  27.3551  27.3562  27.4157  27.4160  27.4976  27.4984
    27.8143  27.8144  27.8147  27.8150  28.2979  28.2982  28.3551  28.3553
    28.6333  28.6337  28.8382  28.8393  29.0357  29.0357  29.0363  29.0368
    29.2612  29.2615  29.6853  29.6856  29.6857  29.6860  29.7023  29.7025
    30.3642  30.3650  30.5522  30.5527  30.5528  30.5530  31.5367  31.5372
    31.7096  31.7103  31.7103  31.7109  32.1834  32.1834  32.5385  32.5386
    33.9067  33.9069  34.0680  34.0682  34.0685  34.0686  34.3168  34.3184
    34.4743  34.4744  34.7737  34.7737  35.0434  35.0445  35.0582  35.0588
    35.2143  35.2149  35.2153  35.2158  35.6759  35.6763  35.8048  35.8049
    35.8051  35.8056  36.1887  36.1891  36.1893  36.1896  36.3342  36.3350
    36.5571  36.5577  36.7129  36.7134  36.7136  36.7143  37.0886  37.0886
    37.4039  37.4045  37.8144  37.8145  37.8147  37.8155  38.2732  38.2734
    38.2736  38.2740  38.5398  38.5402  38.5990  38.5994  39.1252  39.1255
    39.2493  39.2498  39.2501  39.2502  39.2678  39.2683  39.3956  39.3961
    39.7565  39.7565  40.0946  40.0947  40.0951  40.0954  40.1557  40.1563
    40.2969  40.2972  40.2974  40.2980  40.9092  40.9093  41.1447  41.1452
    42.2315  42.2318  42.2319  42.2321  42.2430  42.2442  42.5618  42.5620
    42.8359  42.8360  42.9181  42.9184  42.9846  42.9851  42.9852  42.9857
    43.3423  43.3426  43.7444  43.7445  44.0544  44.0545  44.0547  44.0551
    44.7122  44.7128  44.7362  44.7366  44.7368  44.7373  45.1591  45.1598
    45.1615  45.1620  46.1642  46.1645  46.3377  46.3381  46.3381  46.3386
    46.3748  46.3751  46.4065  46.4068  46.4070  46.4079  46.4895  46.4896
    46.5216  46.5222  46.6870  46.6871  47.0030  47.0031  47.0035  47.0042
    47.3013  47.3017  48.0412  48.0415  48.1579  48.1586  48.1841  48.1842
    48.1848  48.1851  48.3412  48.3413  48.3418  48.3425  48.4328  48.4334
    48.8717  48.8722  48.9565  48.9566  48.9569  48.9576  49.3211  49.3213
    49.3220  49.3224  49.3762  49.3765  49.4830  49.4841  49.5338  49.5350
    49.5553  49.5557  49.5903  49.5905  49.8499  49.8505  49.8506  49.8506
    49.9302  49.9307  49.9307  49.9311  50.0175  50.0177  50.1789  50.1790
    50.1800  50.1805  50.2432  50.2434  50.3738  50.3741  50.3758  50.3765
    50.5371  50.5372  50.6858  50.6870  50.9242  50.9245  51.0233  51.0235
    51.0239  51.0241  51.2567  51.2570  51.2578  51.2583  51.3851  51.3857
    51.4987  51.4993  51.6163  51.6168  51.6170  51.6176  52.0342  52.0346
    52.0347  52.0349  52.1195  52.1195  52.5769  52.5779  52.7885  52.7890

     the Fermi energy is    10.9440 ev

!    total energy              =   -3356.41449375 Ry
     Harris-Foulkes estimate   =   -3356.41449427 Ry
     estimated scf accuracy    <       0.00000057 Ry

     The total energy is the sum of the following terms:

     one-electron contribution =   -1296.45002453 Ry
     hartree contribution      =     845.54542192 Ry
     xc contribution           =    -537.24309672 Ry
     ewald contribution        =   -2368.23960066 Ry
     Hubbard energy            =      -0.02762119 Ry
     smearing contrib. (-TS)   =       0.00042742 Ry

     total magnetization       =    16.02 Bohr mag/cell
     absolute magnetization    =    19.66 Bohr mag/cell

     convergence has been achieved in  10 iterations

     Writing output data file pwscf.save

     General routines

     Parallel routines
     Hubbard U routines

   This run was terminated on:  18: 4:21  14Feb2014

   JOB DONE.