     Program PWSCF v.5.0.2 (svn rev. 9656) starts on 31May2014 at  3:31:52

     Current dimensions of program PWSCF are:
     Max number of different atomic species (ntypx) = 10
     Max number of k-points (npk) =  40000
     Max angular momentum in pseudopotentials (lmaxx) =  3
     Reading input from pwscf.in
Warning: card &CELL ignored
Warning: card / ignored

     Subspace diagonalization in iterative solution of the eigenvalue problem:
     a serial algorithm will be used

     bravais-lattice index     =            0
     lattice parameter (alat)  =      12.2076  a.u.
     unit-cell volume          =    7496.5096 (a.u.)^3
     number of atoms/cell      =           33
     number of atomic types    =            3
     number of electrons       =       253.00
     number of Kohn-Sham states=          379
     kinetic-energy cutoff     =      40.0000  Ry
     charge density cutoff     =     500.0000  Ry
     convergence threshold     =      1.0E-06
     mixing beta               =       0.7000
     number of iterations used =            8  plain     mixing
     Exchange-correlation      = SLA  PW   PBE  PBE ( 1 4 3 4 0)
     EXX-fraction              =        0.00
     nstep                     =           50

     celldm(1)=  12.207631  celldm(2)=   0.000000  celldm(3)=   0.000000
     celldm(4)=   0.000000  celldm(5)=   0.000000  celldm(6)=   0.000000

     crystal axes: (cart. coord. in units of alat)
               a(1) = (   1.000000   0.000000   0.000000 )
               a(2) = (   0.000000   1.004836   0.000000 )
               a(3) = (   0.000000   0.000000   4.100811 )

     reciprocal axes: (cart. coord. in units 2 pi/alat)
               b(1) = (  1.000000  0.000000  0.000000 )
               b(2) = (  0.000000  0.995187  0.000000 )
               b(3) = (  0.000000  0.000000  0.243854 )

     PseudoPot. # 1 for O  read from file:
     /home/camp/zhonxu/pseudo/o_pbe_v1.01.uspp.F.UPF
     MD5 check sum: 2bcb18d16ea4b960afae9ec6d52f22d2
     Pseudo is Ultrasoft + core correction, Zval =  6.0
     Generated by new atomic code, or converted to UPF format
     Using radial grid of  737 points,  5 beta functions with:
                l(1) =   0
                l(2) =   0
                l(3) =   1
                l(4) =   1
                l(5) =   2
     Q(r) pseudized with  8 coefficients,  rinner =    0.900   0.900   0.900
                                                       0.900   0.900

     PseudoPot. # 2 for Pt read from file:
     /home/camp/zhonxu/pseudo/pt_pbe_v1.uspp.F.UPF
     MD5 check sum: 4c71d6ad5ef119f1eb26a4d0b7884226
     Pseudo is Ultrasoft + core correction, Zval = 16.0
     Generated by new atomic code, or converted to UPF format
     Using radial grid of  985 points,  6 beta functions with:
                l(1) =   0
                l(2) =   0
                l(3) =   1
                l(4) =   1
                l(5) =   2
                l(6) =   2
     Q(r) pseudized with  8 coefficients,  rinner =    1.300   1.300   1.300
                                                       1.300   1.300

     PseudoPot. # 3 for H  read from file:
     /home/camp/zhonxu/pseudo/h_pbe_v1.uspp.F.UPF
     MD5 check sum: 3408e3ff4ec8b0a4e358431e7e038a48
     Pseudo is Ultrasoft, Zval =  1.0
     Generated by new atomic code, or converted to UPF format
     Using radial grid of  615 points,  2 beta functions with:
                l(1) =   0
                l(2) =   0
     Q(r) pseudized with  8 coefficients,  rinner =    0.700

     atomic species   valence    mass     pseudopotential
        O0             6.00    15.99940     O ( 1.00)
        Pt1           16.00   195.08000     Pt( 1.00)
        H2             1.00     1.00794     H ( 1.00)

     Simplified LDA+U calculation (l_max = 2) with parameters (eV):
     atomic species    L          U    alpha       J0     beta
        Pt1            2     0.5000   0.0000   0.0000   0.0000

     No symmetry found

   Cartesian axes

     site n.     atom                  positions (alat units)
         1           O0  tau(   1) = (   0.0000000   0.0000000   1.5494095  )
         2           O0  tau(   2) = (   0.0000000   0.5024180   1.6475009  )
         3           Pt1 tau(   3) = (   0.2500000   0.5024180   1.8504910  )
         4           Pt1 tau(   4) = (   0.0000000   0.0000000   1.8570523  )
         5           O0  tau(   5) = (   0.2500000   0.8139171   1.8187098  )
         6           O0  tau(   6) = (   0.2500000   0.1909188   1.8864142  )
         7           O0  tau(   7) = (   0.0000000   0.5024180   2.0369959  )
         8           O0  tau(   8) = (   0.0000000   0.0000000   2.1720357  )
         9           Pt1 tau(   9) = (   0.2500000   0.0000000   2.3614521  )
        10           Pt1 tau(  10) = (   0.0000000   0.5024180   2.3598528  )
        11           O0  tau(  11) = (   0.2500000   0.6933368   2.3268823  )
        12           O0  tau(  12) = (   0.2500000   0.3114991   2.4033624  )
        13           O0  tau(  13) = (   0.0000000   0.0000000   2.5482851  )
        14           O0  tau(  14) = (   0.5000000   0.0000000   1.5485073  )
        15           O0  tau(  15) = (   0.5000000   0.5024180   1.6434821  )
        16           Pt1 tau(  16) = (   0.7500000   0.5024180   1.8504910  )
        17           Pt1 tau(  17) = (   0.5000000   0.0000000   1.8561092  )
        18           O0  tau(  18) = (   0.7500000   0.8139171   1.8187918  )
        19           O0  tau(  19) = (   0.7500000   0.1909188   1.8863321  )
        20           O0  tau(  20) = (   0.5000000   0.5024180   2.0428191  )
        21           O0  tau(  21) = (   0.5000000   0.0000000   2.1708874  )
        22           Pt1 tau(  22) = (   0.7500000   0.0000000   2.3614521  )
        23           Pt1 tau(  23) = (   0.5000000   0.5024180   2.3628874  )
        24           O0  tau(  24) = (   0.7500000   0.6933368   2.3268003  )
        25           O0  tau(  25) = (   0.7500000   0.3114991   2.4034034  )
        26           O0  tau(  26) = (   0.5000000   0.0000000   2.5460296  )
        27           H2  tau(  27) = (   0.0000200   0.6429744   1.5830361  )
        28           H2  tau(  28) = (   0.5000600   0.6435874   1.5806577  )
        29           H2  tau(  29) = (   0.1433700   0.0339333   1.5082373  )
        30           H2  tau(  30) = (   0.6430800   0.0354607   1.5076632  )
        31           O0  tau(  31) = (   0.5001100   0.5589199   2.6603192  )
        32           O0  tau(  32) = (   0.4999400   0.3687346   2.7792838  )
        33           H2  tau(  33) = (   0.4999900   0.4305019   2.9192445  )

     number of k points=    10  Methfessel-Paxton smearing, width (Ry)=  0.0100
                       cart. coord. in units 2pi/alat
        k(    1) = (   0.0000000   0.0000000   0.0000000), wk =   0.1250000
        k(    2) = (   0.0000000   0.2487968   0.0000000), wk =   0.2500000
        k(    3) = (   0.0000000  -0.4975937   0.0000000), wk =   0.1250000
        k(    4) = (   0.2500000   0.0000000   0.0000000), wk =   0.2500000
        k(    5) = (   0.2500000   0.2487968   0.0000000), wk =   0.2500000
        k(    6) = (   0.2500000  -0.4975937   0.0000000), wk =   0.2500000
        k(    7) = (  -0.5000000   0.0000000   0.0000000), wk =   0.1250000
        k(    8) = (  -0.5000000   0.2487968   0.0000000), wk =   0.2500000
        k(    9) = (  -0.5000000  -0.4975937   0.0000000), wk =   0.1250000
        k(   10) = (  -0.2500000   0.2487968   0.0000000), wk =   0.2500000

     Largest allocated arrays     est. size (Mb)     dimensions
     Largest temporary arrays     est. size (Mb)     dimensions

     Check: negative/imaginary core charge=   -0.000003    0.000000

     Initial potential from superposition of free atoms
     Check: negative starting charge=   -1.535323

     starting charge  248.99983, renormalised to  253.00000

     negative rho (up, down):  0.156E+01 0.000E+00
     Number of +U iterations with fixed ns =  0
     Starting occupations:
 --- enter write_ns ---
 LDA+U parameters:
U( 2)     =  0.50000000
alpha( 2) =  0.00000000
atom    3   Tr[ns(na)] =   8.00000
    eigenvalues:
  0.800  0.800  0.800  0.800  0.800
    eigenvectors:
  1.000  0.000  0.000  0.000  0.000
  0.000  1.000  0.000  0.000  0.000
  0.000  0.000  1.000  0.000  0.000
  0.000  0.000  0.000  1.000  0.000
  0.000  0.000  0.000  0.000  1.000
    occupations:
  0.800  0.000  0.000  0.000  0.000
  0.000  0.800  0.000  0.000  0.000
  0.000  0.000  0.800  0.000  0.000
  0.000  0.000  0.000  0.800  0.000
  0.000  0.000  0.000  0.000  0.800
atom    4   Tr[ns(na)] =   8.00000
    eigenvalues:
  0.800  0.800  0.800  0.800  0.800
    eigenvectors:
  1.000  0.000  0.000  0.000  0.000
  0.000  1.000  0.000  0.000  0.000
  0.000  0.000  1.000  0.000  0.000
  0.000  0.000  0.000  1.000  0.000
  0.000  0.000  0.000  0.000  1.000
    occupations:
  0.800  0.000  0.000  0.000  0.000
  0.000  0.800  0.000  0.000  0.000
  0.000  0.000  0.800  0.000  0.000
  0.000  0.000  0.000  0.800  0.000
  0.000  0.000  0.000  0.000  0.800
atom    9   Tr[ns(na)] =   8.00000
    eigenvalues:
  0.800  0.800  0.800  0.800  0.800
    eigenvectors:
  1.000  0.000  0.000  0.000  0.000
  0.000  1.000  0.000  0.000  0.000
  0.000  0.000  1.000  0.000  0.000
  0.000  0.000  0.000  1.000  0.000
  0.000  0.000  0.000  0.000  1.000
    occupations:
  0.800  0.000  0.000  0.000  0.000
  0.000  0.800  0.000  0.000  0.000
  0.000  0.000  0.800  0.000  0.000
  0.000  0.000  0.000  0.800  0.000
  0.000  0.000  0.000  0.000  0.800
atom   10   Tr[ns(na)] =   8.00000
    eigenvalues:
  0.800  0.800  0.800  0.800  0.800
    eigenvectors:
  1.000  0.000  0.000  0.000  0.000
  0.000  1.000  0.000  0.000  0.000
  0.000  0.000  1.000  0.000  0.000
  0.000  0.000  0.000  1.000  0.000
  0.000  0.000  0.000  0.000  1.000
    occupations:
  0.800  0.000  0.000  0.000  0.000
  0.000  0.800  0.000  0.000  0.000
  0.000  0.000  0.800  0.000  0.000
  0.000  0.000  0.000  0.800  0.000
  0.000  0.000  0.000  0.000  0.800
atom   16   Tr[ns(na)] =   8.00000
    eigenvalues:
  0.800  0.800  0.800  0.800  0.800
    eigenvectors:
  1.000  0.000  0.000  0.000  0.000
  0.000  1.000  0.000  0.000  0.000
  0.000  0.000  1.000  0.000  0.000
  0.000  0.000  0.000  1.000  0.000
  0.000  0.000  0.000  0.000  1.000
    occupations:
  0.800  0.000  0.000  0.000  0.000
  0.000  0.800  0.000  0.000  0.000
  0.000  0.000  0.800  0.000  0.000
  0.000  0.000  0.000  0.800  0.000
  0.000  0.000  0.000  0.000  0.800
atom   17   Tr[ns(na)] =   8.00000
    eigenvalues:
  0.800  0.800  0.800  0.800  0.800
    eigenvectors:
  1.000  0.000  0.000  0.000  0.000
  0.000  1.000  0.000  0.000  0.000
  0.000  0.000  1.000  0.000  0.000
  0.000  0.000  0.000  1.000  0.000
  0.000  0.000  0.000  0.000  1.000
    occupations:
  0.800  0.000  0.000  0.000  0.000
  0.000  0.800  0.000  0.000  0.000
  0.000  0.000  0.800  0.000  0.000
  0.000  0.000  0.000  0.800  0.000
  0.000  0.000  0.000  0.000  0.800
atom   22   Tr[ns(na)] =   8.00000
    eigenvalues:
  0.800  0.800  0.800  0.800  0.800
    eigenvectors:
  1.000  0.000  0.000  0.000  0.000
  0.000  1.000  0.000  0.000  0.000
  0.000  0.000  1.000  0.000  0.000
[...]
  0.679  0.697  0.981  0.983  0.986
    eigenvectors:
  0.053  0.124  0.773  0.000  0.049
  0.726  0.274  0.000  0.000  0.000
  0.001  0.003  0.072  0.004  0.921
  0.220  0.600  0.154  0.000  0.026
  0.000  0.000  0.001  0.996  0.003
    occupations:
  0.930 -0.007  0.006 -0.110 -0.001
 -0.007  0.684 -0.002 -0.006 -0.002
  0.006 -0.002  0.985  0.015  0.000
 -0.110 -0.006  0.015  0.744 -0.001
 -0.001 -0.002  0.000 -0.001  0.983
atom   17   Tr[ns(na)] =   8.63763
    eigenvalues:
  0.682  0.701  0.974  0.979  0.982
    eigenvectors:
  0.000  0.987  0.006  0.002  0.006
  0.008  0.000  0.051  0.937  0.004
  0.000  0.004  0.916  0.044  0.036
  0.000  0.009  0.028  0.010  0.954
  0.992  0.000  0.000  0.007  0.000
    occupations:
  0.704 -0.005 -0.018  0.026 -0.001
 -0.005  0.977  0.001  0.000  0.026
 -0.018  0.001  0.973  0.003  0.000
  0.026  0.000  0.003  0.980  0.000
 -0.001  0.026  0.000  0.000  0.685
atom   22   Tr[ns(na)] =   8.60591
    eigenvalues:
  0.703  0.715  0.948  0.954  0.983
    eigenvectors:
  0.001  0.137  0.003  0.011  0.848
  0.997  0.003  0.000  0.000  0.000
  0.000  0.010  0.245  0.738  0.008
  0.002  0.851  0.001  0.002  0.144
  0.000  0.000  0.751  0.249  0.000
    occupations:
  0.946  0.002 -0.006 -0.092  0.000
  0.002  0.703  0.000 -0.000 -0.003
 -0.006  0.000  0.950 -0.022 -0.002
 -0.092 -0.000 -0.022  0.754  0.000
  0.000 -0.003 -0.002  0.000  0.949
atom   23   Tr[ns(na)] =   8.63004
    eigenvalues:
  0.695  0.700  0.957  0.980  0.984
    eigenvectors:
  0.000  0.962  0.000  0.030  0.008
  0.014  0.000  0.985  0.000  0.000
  0.000  0.030  0.000  0.970  0.000
  0.000  0.008  0.000  0.000  0.992
  0.985  0.000  0.014  0.000  0.000
    occupations:
  0.711  0.000  0.048  0.024 -0.000
  0.000  0.953  0.000 -0.000 -0.031
  0.048  0.000  0.972 -0.004 -0.000
  0.024 -0.000 -0.004  0.982 -0.000
 -0.000 -0.031 -0.000 -0.000  0.698
N of occupied +U levels =  69.1162643
 --- exit write_ns ---

     Threshold (ethr) on eigenvalues was too large:
     Diagonalizing with lowered threshold

     Davidson diagonalization with overlap
     ethr =  8.89E-09,  avg # of iterations =  2.0

[...]

     total energy              =   -2314.07170821 Ry
     Harris-Foulkes estimate   =   -2314.07170823 Ry
     estimated scf accuracy    <       0.00000010 Ry

     iteration # 11     ecut=    40.00 Ry     beta=0.70
     Davidson diagonalization with overlap
     ethr =  3.91E-11,  avg # of iterations =  1.0

     negative rho (up, down):  0.158E+01 0.000E+00

     End of self-consistent calculation
 --- enter write_ns ---
 LDA+U parameters:
U( 2)     =  0.50000000
alpha( 2) =  0.00000000
atom    3   Tr[ns(na)] =   8.65187
    eigenvalues:
  0.679  0.697  0.981  0.983  0.986
    eigenvectors:
  0.053  0.124  0.771  0.002  0.050
  0.726  0.274  0.000  0.000  0.000
  0.000  0.003  0.071  0.006  0.920
  0.221  0.599  0.153  0.000  0.026
  0.000  0.000  0.005  0.992  0.004
    occupations:
  0.930  0.007  0.006 -0.110  0.001
  0.007  0.684  0.002  0.006 -0.002
  0.006  0.002  0.985  0.015 -0.000
 -0.110  0.006  0.015  0.744  0.001
  0.001 -0.002 -0.000  0.001  0.983
atom    4   Tr[ns(na)] =   8.63901
    eigenvalues:
  0.683  0.701  0.974  0.980  0.982
    eigenvectors:
  0.000  0.987  0.006  0.001  0.006
  0.007  0.000  0.035  0.954  0.004
  0.000  0.004  0.937  0.030  0.029
  0.000  0.009  0.022  0.008  0.962
  0.993  0.000  0.000  0.007  0.000
    occupations:
  0.705 -0.005 -0.018  0.026 -0.001
 -0.005  0.977  0.001  0.000  0.025
 -0.018  0.001  0.973  0.003  0.000
  0.026  0.000  0.003  0.980  0.000
 -0.001  0.025  0.000  0.000  0.685
atom    9   Tr[ns(na)] =   8.60624
    eigenvalues:
  0.703  0.715  0.948  0.954  0.983
    eigenvectors:
  0.000  0.137  0.003  0.011  0.848
  1.000  0.000  0.000  0.000  0.000
  0.000  0.010  0.229  0.754  0.008
  0.000  0.853  0.001  0.002  0.144
  0.000  0.000  0.767  0.232  0.000
    occupations:
  0.946 -0.001 -0.006 -0.092 -0.000
 -0.001  0.703 -0.000  0.001 -0.003
 -0.006 -0.000  0.950 -0.022  0.002
 -0.092  0.001 -0.022  0.754 -0.000
 -0.000 -0.003  0.002 -0.000  0.949
atom   10   Tr[ns(na)] =   8.69532
    eigenvalues:
  0.657  0.760  0.972  0.977  0.981
    eigenvectors:
  0.000  0.983  0.000  0.002  0.015
  0.009  0.000  0.991  0.000  0.000
  0.000  0.001  0.000  0.647  0.351
  0.000  0.016  0.000  0.350  0.634
  0.991  0.000  0.009  0.000  0.000
    occupations:
  0.763  0.000 -0.008  0.027  0.000
  0.000  0.969 -0.000  0.000 -0.030
 -0.008 -0.000  0.978 -0.001 -0.000
  0.027  0.000 -0.001  0.976 -0.000
  0.000 -0.030 -0.000 -0.000  0.660
atom   16   Tr[ns(na)] =   8.65186
    eigenvalues:
  0.679  0.697  0.981  0.983  0.986
    eigenvectors:
  0.054  0.123  0.773  0.000  0.049
  0.722  0.277  0.000  0.000  0.000
  0.001  0.003  0.072  0.004  0.921
  0.223  0.597  0.154  0.000  0.026
  0.000  0.000  0.001  0.996  0.003
    occupations:
  0.930 -0.007  0.006 -0.110 -0.001
 -0.007  0.684 -0.002 -0.006 -0.002
  0.006 -0.002  0.985  0.015  0.000
 -0.110 -0.006  0.015  0.744 -0.001
 -0.001 -0.002  0.000 -0.001  0.983
atom   17   Tr[ns(na)] =   8.63752
    eigenvalues:
  0.682  0.701  0.974  0.979  0.982
    eigenvectors:
  0.000  0.987  0.006  0.002  0.006
  0.008  0.000  0.052  0.937  0.004
  0.000  0.004  0.915  0.044  0.037
  0.000  0.009  0.028  0.010  0.953
  0.992  0.000  0.000  0.007  0.000
    occupations:
  0.704 -0.005 -0.018  0.026 -0.001
 -0.005  0.977  0.001  0.000  0.026
 -0.018  0.001  0.973  0.003  0.000
  0.026  0.000  0.003  0.980  0.000
 -0.001  0.026  0.000  0.000  0.684
atom   22   Tr[ns(na)] =   8.60622
    eigenvalues:
  0.703  0.715  0.948  0.954  0.983
    eigenvectors:
  0.001  0.137  0.003  0.011  0.848
  0.997  0.003  0.000  0.000  0.000
  0.000  0.010  0.247  0.735  0.008
  0.002  0.851  0.001  0.002  0.144
  0.000  0.000  0.749  0.251  0.000
    occupations:
  0.946  0.002 -0.006 -0.092  0.000
  0.002  0.703  0.000 -0.000 -0.003
 -0.006  0.000  0.950 -0.022 -0.002
 -0.092 -0.000 -0.022  0.754  0.000
  0.000 -0.003 -0.002  0.000  0.949
atom   23   Tr[ns(na)] =   8.62952
    eigenvalues:
  0.695  0.700  0.956  0.980  0.984
    eigenvectors:
  0.000  0.962  0.000  0.030  0.007
  0.015  0.000  0.985  0.000  0.000
  0.000  0.030  0.000  0.970  0.000
  0.000  0.008  0.000  0.000  0.992
  0.985  0.000  0.015  0.000  0.000
    occupations:
  0.711  0.000  0.048  0.024 -0.000
  0.000  0.953  0.000 -0.000 -0.031
  0.048  0.000  0.972 -0.004 -0.000
  0.024 -0.000 -0.004  0.982 -0.000
 -0.000 -0.031 -0.000 -0.000  0.698
N of occupied +U levels =  69.1175619
 --- exit write_ns ---

[...]

          k = 0.2500-0.4976 0.0000 ( 32026 PWs)   bands (ev):

[...]

          k =-0.2500 0.2488 0.0000 ( 32025 PWs)   bands (ev):

   -55.2331 -55.2222 -55.1829 -55.1236 -55.1183 -55.0904 -55.0876 -55.0854
   -55.0724 -55.0341 -54.9478 -54.9390 -54.9351 -54.8585 -54.8530 -54.8108
   -54.8057 -54.7763 -54.7713 -54.7700 -54.7657 -54.3678 -54.1297 -53.8025
   -23.5380 -21.4006 -21.0660 -20.4997 -20.2864 -19.9930 -19.8654 -19.8258
   -19.6850 -19.6507 -19.5759 -19.5283 -19.4701 -19.4316 -19.3094 -19.2715
   -19.2199 -18.4304 -18.2924 -17.2906  -9.5237  -9.2667  -9.1541  -9.0639
    -8.7718  -8.6876  -8.6327  -8.5202  -8.4029  -8.3616  -8.3097  -8.1361
    -8.1222  -8.0455  -7.9642  -7.8810  -7.8602  -7.7546  -7.5405  -7.3147
    -7.2295  -7.0497  -7.0181  -6.9284  -6.8042  -6.6237  -6.3331  -6.2600
    -6.1352  -6.0780  -6.0346  -5.9728  -5.9099  -5.7913  -5.7094  -5.6765
    -5.6356  -5.4682  -5.4064  -5.3340  -5.2180  -5.1135  -5.0372  -4.8996
    -4.7875  -4.6754  -4.5630  -4.3827  -4.3460  -4.2383  -4.2086  -4.0532
    -4.0071  -3.9000  -3.7606  -3.6752  -3.5736  -3.4972  -3.4026  -3.3137
    -3.2572  -3.1309  -3.0204  -2.9795  -2.9372  -2.8329  -2.7517  -2.7204
    -2.6804  -2.6254  -2.3760  -2.2965  -2.0359  -1.8607  -1.7881  -1.6062
    -1.5606  -1.4843  -1.4288  -1.3167  -1.1161  -0.9828  -0.9594  -0.8167
    -0.3743  -0.1830  -0.0379   0.4045   0.5898   0.8857   1.0807   1.3646
     1.4339   1.5898   1.6232   1.9084   2.0542   2.0958   2.3878   3.4491
     3.7509   4.1145   4.5819   4.8975   5.1333   5.5889   5.7113   5.7721
     6.0113   6.1959   6.3373   6.5013   6.5441   6.7572   6.8689   6.9360
     7.0211   7.1082   7.2968   7.4716   7.6200   7.6508   7.7868   7.9019
     7.9554   8.0456   8.2168   8.2598   8.4289   8.4807   8.5596   8.6823
     8.7972   8.8258   8.9038   8.9414   9.1497   9.1897   9.3098   9.4148
     9.5369   9.5905   9.6683   9.7730   9.8606   9.9960  10.0471  10.1131
    10.2048  10.2971  10.4015  10.4943  10.5903  10.6519  10.7264  10.7761
    10.9441  10.9997  11.1196  11.2139  11.3079  11.3727  11.4364  11.5652
    11.6426  11.7259  11.8304  11.8892  11.9523  12.0272  12.0821  12.1538
    12.2438  12.2763  12.3691  12.4362  12.5727  12.6490  12.7139  12.7478
    12.8331  12.8836  12.9667  13.0059  13.1770  13.2470  13.3141  13.4134
    13.5191  13.5758  13.6370  13.6945  13.7781  13.8080  13.9176  14.0079
    14.0989  14.1541  14.2331  14.3517  14.4173  14.4502  14.5735  14.7147
    14.7525  14.7990  14.8909  14.9643  15.0617  15.1310  15.1797  15.2586
    15.3255  15.3370  15.4063  15.4463  15.5098  15.5735  15.6246  15.6653
    15.7508  15.8305  15.8574  15.8972  15.9797  16.0391  16.1148  16.1447
    16.2193  16.2771  16.3422  16.4346  16.5150  16.5849  16.7388  16.7726
    16.8170  16.9089  16.9726  16.9955  17.0071  17.0455  17.0663  17.0963
    17.1492  17.1929  17.2169  17.2227  17.2381  17.2538  17.2943  17.3217
    17.3703  17.4126  17.4651  17.4949  17.6072  17.6138  17.6785  17.7777
    17.8705  17.9613  17.9887  18.0763  18.0995  18.1516  18.2668  18.3539
    18.3806  18.3996  18.4747  18.5566  18.6087  18.6549  18.7223  18.8386
    18.9235  18.9538  19.0200  19.0997  19.1186  19.1873  19.3062  19.3730
    19.4373  19.5172  19.5624  19.6348  19.6666  19.8223  19.9643  20.0027
    20.0863  20.1457  20.1873  20.2330  20.2748  20.3141  20.3433  20.4004
    20.5088  20.5652  20.6506  20.7033  20.7426  20.7975  20.8243  20.8543
    20.9303  20.9870  21.0496  21.0717  21.1522  21.2229  21.2997  21.3322
    21.3784  21.4945  21.5050  21.5868  21.6136  21.6801  21.7769  21.8660
    21.9269  21.9799  22.0658  22.1485  22.2020  22.2740  22.3163  22.3458
    22.4181  22.4743  22.5536

     the Fermi energy is    -0.9263 ev

!    total energy              =   -2314.07170821 Ry
     Harris-Foulkes estimate   =   -2314.07170822 Ry
     estimated scf accuracy    <          8.8E-09 Ry

     The total energy is the sum of the following terms:

     one-electron contribution =  -24122.48886776 Ry
     hartree contribution      =   12110.67237482 Ry
     xc contribution           =    -579.97470621 Ry
     ewald contribution        =   10277.57420529 Ry
     Hubbard energy            =       0.14533594 Ry
     smearing contrib. (-TS)   =      -0.00005030 Ry

     convergence has been achieved in  11 iterations

     Forces acting on atoms (Ry/au):

     negative rho (up, down):  0.158E+01 0.000E+00
     atom    1 type  1   force =    -0.00761549   -0.00435700    0.00013558
     atom    2 type  1   force =     0.00012316    0.00501847    0.00038872
     atom    3 type  2   force =     0.00496730    0.00636334    0.00016102
     atom    4 type  2   force =     0.01028642    0.00358506   -0.00003260
     atom    5 type  1   force =     0.00101659   -0.00478963   -0.00029420
     atom    6 type  1   force =     0.00012022   -0.00165461    0.00007750
     atom    7 type  1   force =     0.00013869   -0.00219497   -0.00053539
     atom    8 type  1   force =    -0.00404318    0.00049165   -0.00027649
     atom    9 type  2   force =     0.00617140    0.00442546   -0.00012431
     atom   10 type  2   force =    -0.00007366   -0.02161394    0.00031777
     atom   11 type  1   force =    -0.00324608    0.00202086   -0.00024288
     atom   12 type  1   force =    -0.01324794    0.01073953    0.00012104
     atom   13 type  1   force =    -0.00114352   -0.00767654    0.00011045
     atom   14 type  1   force =    -0.00798457   -0.00420704    0.00010350
     atom   15 type  1   force =     0.00016711    0.00166098   -0.00031928
     atom   16 type  2   force =    -0.00583739    0.00646646    0.00007859
     atom   17 type  2   force =     0.01022124    0.00501012   -0.00010485
     atom   18 type  1   force =     0.00121438   -0.00482783   -0.00028301
     atom   19 type  1   force =    -0.00023920   -0.00158616    0.00009274
     atom   20 type  1   force =     0.00001031   -0.00346562    0.00070587
     atom   21 type  1   force =    -0.00392648    0.00224691   -0.00049097
     atom   22 type  2   force =    -0.00249271    0.00437111   -0.00012422
     atom   23 type  2   force =     0.00007825    0.00611708    0.00018566
     atom   24 type  1   force =     0.00328014    0.00205503   -0.00025600
     atom   25 type  1   force =     0.01331796    0.01080431    0.00009930
     atom   26 type  1   force =    -0.00110185   -0.01512643   -0.00008698
     atom   27 type  3   force =     0.00000560   -0.00018111    0.00023697
     atom   28 type  3   force =     0.00000623    0.00022839    0.00015357
     atom   29 type  3   force =    -0.00010048   -0.00005238   -0.00020552
     atom   30 type  3   force =    -0.00006998   -0.00008886   -0.00012150
     atom   31 type  1   force =     0.00003554    0.00013949   -0.00038856
     atom   32 type  1   force =    -0.00004262    0.00005552    0.00052814
     atom   33 type  3   force =     0.00000459    0.00002235    0.00039033

     Total force =     0.001674     Total SCF correction =     0.000301
     SCF correction compared to forces is large: reduce conv_thr to get better values

     entering subroutine stress ...

     negative rho (up, down):  0.158E+01 0.000E+00
          total   stress  (Ry/bohr**3)                   (kbar)     P=  -18.29
  -0.00019678   0.00000002   0.00000412        -28.95      0.00      0.61
   0.00000002  -0.00012782  -0.00000649          0.00    -18.80     -0.95
   0.00000412  -0.00000649  -0.00004848          0.61     -0.95     -7.13

     bfgs converged in   5 scf cycles and   4 bfgs steps
     (criteria: energy < 0.10E-03, force < 0.10E-02)

     End of BFGS Geometry Optimization

     Final energy   =   -2314.0717082141 Ry
Begin final coordinates

ATOMIC_POSITIONS (crystal)
O0       0.000000000   0.000000000   0.377719504    0   0   1
O0       0.000000000   0.500000000   0.401664378    0   0   1
Pt1      0.250000000   0.500000000   0.451260033    0   0   1
Pt1      0.000000000   0.000000000   0.452768680    0   0   1
O0       0.250000000   0.810000000   0.443412195    0   0   1
O0       0.250000000   0.190000000   0.460044160    0   0   1
O0       0.000000000   0.500000000   0.496765253    0   0   1
O0       0.000000000   0.000000000   0.529627202    0   0   1
Pt1      0.250000000   0.000000000   0.575811839    0   0   1
Pt1      0.000000000   0.500000000   0.575393993    0   0   1
O0       0.250000000   0.690000000   0.567343570    0   0   1
O0       0.250000000   0.310000000   0.586144280    0   0   1
O0       0.000000000   0.000000000   0.621335006    0   0   1
O0       0.500000000   0.000000000   0.377567529    0   0   1
O0       0.500000000   0.500000000   0.400956601    0   0   1
Pt1      0.750000000   0.500000000   0.451267583    0   0   1
Pt1      0.500000000   0.000000000   0.452598035    0   0   1
O0       0.750000000   0.810000000   0.443428689    0   0   1
O0       0.750000000   0.190000000   0.460021705    0   0   1
O0       0.500000000   0.500000000   0.498142277    0   0   1
O0       0.500000000   0.000000000   0.529414544    0   0   1
Pt1      0.750000000   0.000000000   0.575809993    0   0   1
Pt1      0.500000000   0.500000000   0.576235342    0   0   1
O0       0.750000000   0.690000000   0.567322689    0   0   1
O0       0.750000000   0.310000000   0.586140994    0   0   1
O0       0.500000000   0.000000000   0.620857641    0   0   1
H2       0.000024570   0.640207980   0.386068135
H2       0.500071277   0.640254095   0.385534884
H2       0.143565354   0.033804420   0.367826559
H2       0.643143987   0.035234045   0.367636111
O0       0.500144368   0.556136129   0.648850261
O0       0.499903677   0.367000708   0.677820789
H2       0.499992622   0.428634945   0.711939547
End final coordinates

     General routines

     Parallel routines
     Hubbard U routines

   This run was terminated on:   9:21: 9  31May2014

   JOB DONE.
Running PBS batch system epilogue script
Job id: 373308.audhumbla.fysik.dtu.dk
Username: zhonxu
Groupname: campgst
Jobname: PtO2/Eads-2-layers/OOH-U-0.5
Sessionid: 1845
Queuename: verylong
Accounting:
This job has allocated the following 16 nodes:
a059 a059 a059 a059 a059 a059 a059 a059 a058 a058 a058 a058 a058 a058 a058 a058
Finished epilogue job 373308.audhumbla.fysik.dtu.dk for zhonxu