     Program PWSCF v.5.0.2 (svn rev. 9656) starts on  6May2014 at  7:32:32

     Current dimensions of program PWSCF are:
     Max number of different atomic species (ntypx) = 10
     Max number of k-points (npk) =  40000
     Max angular momentum in pseudopotentials (lmaxx) =  3
     Reading input from pwscf.in
Warning: card &CELL ignored
Warning: card / ignored

     Subspace diagonalization in iterative solution of the eigenvalue problem:
     a serial algorithm will be used

     Found symmetry operation: I + ( -0.5000  0.0000  0.0000)
     This is a supercell, fractional translations are disabled

     bravais-lattice index     =            0
     lattice parameter (alat)  =      12.2076  a.u.
     unit-cell volume          =    7496.5096 (a.u.)^3
     number of atoms/cell      =           30
     number of atomic types    =            3
     number of electrons       =       240.00
     number of Kohn-Sham states=          360
     kinetic-energy cutoff     =      40.0000  Ry
     charge density cutoff     =     500.0000  Ry
     convergence threshold     =      1.0E-06
     mixing beta               =       0.7000
     number of iterations used =            8  plain     mixing
     Exchange-correlation      = SLA  PW   PBE  PBE ( 1 4 3 4 0)
     EXX-fraction              =        0.00
     nstep                     =           50

     celldm(1)=  12.207631  celldm(2)=   0.000000  celldm(3)=   0.000000
     celldm(4)=   0.000000  celldm(5)=   0.000000  celldm(6)=   0.000000

     crystal axes: (cart. coord. in units of alat)
               a(1) = (   1.000000   0.000000   0.000000 )
               a(2) = (   0.000000   1.004836   0.000000 )
               a(3) = (   0.000000   0.000000   4.100811 )

     reciprocal axes: (cart. coord. in units 2 pi/alat)
               b(1) = (  1.000000  0.000000  0.000000 )
               b(2) = (  0.000000  0.995187  0.000000 )
               b(3) = (  0.000000  0.000000  0.243854 )

     PseudoPot. # 1 for O  read from file:
     /home/camp/zhonxu/pseudo/o_pbe_v1.01.uspp.F.UPF
     MD5 check sum: 2bcb18d16ea4b960afae9ec6d52f22d2
     Pseudo is Ultrasoft + core correction, Zval =  6.0
     Generated by new atomic code, or converted to UPF format
     Using radial grid of  737 points,  5 beta functions with:
                l(1) =   0
                l(2) =   0
                l(3) =   1
                l(4) =   1
                l(5) =   2
     Q(r) pseudized with  8 coefficients,  rinner =    0.900   0.900   0.900
                                                       0.900   0.900

     PseudoPot. # 2 for Pt read from file:
     /home/camp/zhonxu/pseudo/pt_pbe_v1.uspp.F.UPF
     MD5 check sum: 4c71d6ad5ef119f1eb26a4d0b7884226
     Pseudo is Ultrasoft + core correction, Zval = 16.0
     Generated by new atomic code, or converted to UPF format
     Using radial grid of  985 points,  6 beta functions with:
                l(1) =   0
                l(2) =   0
                l(3) =   1
                l(4) =   1
                l(5) =   2
                l(6) =   2
     Q(r) pseudized with  8 coefficients,  rinner =    1.300   1.300   1.300
                                                       1.300   1.300

     PseudoPot. # 3 for H  read from file:
     /home/camp/zhonxu/pseudo/h_pbe_v1.uspp.F.UPF
     MD5 check sum: 3408e3ff4ec8b0a4e358431e7e038a48
     Pseudo is Ultrasoft, Zval =  1.0
     Generated by new atomic code, or converted to UPF format
     Using radial grid of  615 points,  2 beta functions with:
                l(1) =   0
                l(2) =   0
     Q(r) pseudized with  8 coefficients,  rinner =    0.700

     atomic species   valence    mass     pseudopotential
        O0             6.00    15.99940     O ( 1.00)
        Pt1           16.00   195.08000     Pt( 1.00)
        H2             1.00     1.00794     H ( 1.00)

     Simplified LDA+U calculation (l_max = 2) with parameters (eV):
     atomic species    L          U    alpha       J0     beta
        Pt1            2     3.5000   0.0000   0.0000   0.0000

     No symmetry found

   Cartesian axes

     site n.     atom                  positions (alat units)
         1           O0  tau(   1) = (   0.0000000   0.0000000   1.5457188  )
         2           O0  tau(   2) = (   0.0000000   0.5024180   1.6369208  )
         3           Pt1 tau(   3) = (   0.2500000   0.5024180   1.8413872  )
         4           Pt1 tau(   4) = (   0.0000000   0.0000000   1.8534436  )
         5           O0  tau(   5) = (   0.2500000   0.8139171   1.8157162  )
         6           O0  tau(   6) = (   0.2500000   0.1909188   1.8824364  )
         7           O0  tau(   7) = (   0.0000000   0.5024180   2.0315829  )
         8           O0  tau(   8) = (   0.0000000   0.0000000   2.1708464  )
         9           Pt1 tau(   9) = (   0.2500000   0.0000000   2.3625593  )
        10           Pt1 tau(  10) = (   0.0000000   0.5024180   2.3549318  )
        11           O0  tau(  11) = (   0.2500000   0.6933368   2.3911010  )
        12           O0  tau(  12) = (   0.2500000   0.3114991   2.3934384  )
        13           O0  tau(  13) = (   0.0000000   0.0000000   2.5491052  )
        14           O0  tau(  14) = (   0.5000000   0.0000000   1.5457188  )
        15           O0  tau(  15) = (   0.5000000   0.5024180   1.6369208  )
        16           Pt1 tau(  16) = (   0.7500000   0.5024180   1.8413872  )
        17           Pt1 tau(  17) = (   0.5000000   0.0000000   1.8534436  )
        18           O0  tau(  18) = (   0.7500000   0.8139171   1.8157162  )
        19           O0  tau(  19) = (   0.7500000   0.1909188   1.8824364  )
        20           O0  tau(  20) = (   0.5000000   0.5024180   2.0315829  )
        21           O0  tau(  21) = (   0.5000000   0.0000000   2.1708464  )
        22           Pt1 tau(  22) = (   0.7500000   0.0000000   2.3625593  )
        23           Pt1 tau(  23) = (   0.5000000   0.5024180   2.3549318  )
        24           O0  tau(  24) = (   0.7500000   0.6933368   2.3911010  )
        25           O0  tau(  25) = (   0.7500000   0.3114991   2.3934384  )
        26           O0  tau(  26) = (   0.5000000   0.0000000   2.5491052  )
        27           H2  tau(  27) = (  -0.0000500   0.6431553   1.5728661  )
        28           H2  tau(  28) = (   0.4999500   0.6431553   1.5728661  )
        29           H2  tau(  29) = (   0.1440700   0.0315318   1.5048747  )
        30           H2  tau(  30) = (   0.6440700   0.0315318   1.5048747  )

     number of k points=    10  Methfessel-Paxton smearing, width (Ry)=  0.0100
                       cart. coord. in units 2pi/alat
        k(    1) = (   0.0000000   0.0000000   0.0000000), wk =   0.1250000
        k(    2) = (   0.0000000   0.2487968   0.0000000), wk =   0.2500000
        k(    3) = (   0.0000000  -0.4975937   0.0000000), wk =   0.1250000
        k(    4) = (   0.2500000   0.0000000   0.0000000), wk =   0.2500000
        k(    5) = (   0.2500000   0.2487968   0.0000000), wk =   0.2500000
        k(    6) = (   0.2500000  -0.4975937   0.0000000), wk =   0.2500000
        k(    7) = (  -0.5000000   0.0000000   0.0000000), wk =   0.1250000
        k(    8) = (  -0.5000000   0.2487968   0.0000000), wk =   0.2500000
        k(    9) = (  -0.5000000  -0.4975937   0.0000000), wk =   0.1250000
        k(   10) = (  -0.2500000   0.2487968   0.0000000), wk =   0.2500000

     Largest allocated arrays     est. size (Mb)     dimensions
     Largest temporary arrays     est. size (Mb)     dimensions

     Check: negative/imaginary core charge=   -0.000003    0.000000

     Initial potential from superposition of free atoms
     Check: negative starting charge=   -1.537272

     starting charge  235.99985, renormalised to  240.00000

     negative rho (up, down):  0.156E+01 0.000E+00
     Number of +U iterations with fixed ns =  0
     Starting occupations:
 --- enter write_ns ---
 LDA+U parameters:
U( 2)     =  3.50000000
alpha( 2) =  0.00000000
atom    3   Tr[ns(na)] =   8.00000
    eigenvalues:
  0.800  0.800  0.800  0.800  0.800
    eigenvectors:
  1.000  0.000  0.000  0.000  0.000
  0.000  1.000  0.000  0.000  0.000
  0.000  0.000  1.000  0.000  0.000
  0.000  0.000  0.000  1.000  0.000
  0.000  0.000  0.000  0.000  1.000
    occupations:
  0.800  0.000  0.000  0.000  0.000
  0.000  0.800  0.000  0.000  0.000
  0.000  0.000  0.800  0.000  0.000
  0.000  0.000  0.000  0.800  0.000
  0.000  0.000  0.000  0.000  0.800
atom    4   Tr[ns(na)] =   8.00000
    eigenvalues:
  0.800  0.800  0.800  0.800  0.800
    eigenvectors:
  1.000  0.000  0.000  0.000  0.000
  0.000  1.000  0.000  0.000  0.000
  0.000  0.000  1.000  0.000  0.000
  0.000  0.000  0.000  1.000  0.000
  0.000  0.000  0.000  0.000  1.000
    occupations:
  0.800  0.000  0.000  0.000  0.000
  0.000  0.800  0.000  0.000  0.000
  0.000  0.000  0.800  0.000  0.000
  0.000  0.000  0.000  0.800  0.000
  0.000  0.000  0.000  0.000  0.800
atom    9   Tr[ns(na)] =   8.00000
    eigenvalues:
  0.800  0.800  0.800  0.800  0.800
    eigenvectors:
  1.000  0.000  0.000  0.000  0.000
  0.000  1.000  0.000  0.000  0.000
  0.000  0.000  1.000  0.000  0.000
  0.000  0.000  0.000  1.000  0.000
  0.000  0.000  0.000  0.000  1.000
    occupations:
  0.800  0.000  0.000  0.000  0.000
  0.000  0.800  0.000  0.000  0.000
  0.000  0.000  0.800  0.000  0.000
  0.000  0.000  0.000  0.800  0.000
  0.000  0.000  0.000  0.000  0.800
atom   10   Tr[ns(na)] =   8.00000
    eigenvalues:
  0.800  0.800  0.800  0.800  0.800
    eigenvectors:
  1.000  0.000  0.000  0.000  0.000
  0.000  1.000  0.000  0.000  0.000
  0.000  0.000  1.000  0.000  0.000
  0.000  0.000  0.000  1.000  0.000
  0.000  0.000  0.000  0.000  1.000
    occupations:
  0.800  0.000  0.000  0.000  0.000
  0.000  0.800  0.000  0.000  0.000
  0.000  0.000  0.800  0.000  0.000
  0.000  0.000  0.000  0.800  0.000
  0.000  0.000  0.000  0.000  0.800
atom   16   Tr[ns(na)] =   8.00000
    eigenvalues:
  0.800  0.800  0.800  0.800  0.800
    eigenvectors:
  1.000  0.000  0.000  0.000  0.000
  0.000  1.000  0.000  0.000  0.000
  0.000  0.000  1.000  0.000  0.000
  0.000  0.000  0.000  1.000  0.000
  0.000  0.000  0.000  0.000  1.000
    occupations:
  0.800  0.000  0.000  0.000  0.000
  0.000  0.800  0.000  0.000  0.000
  0.000  0.000  0.800  0.000  0.000
  0.000  0.000  0.000  0.800  0.000
  0.000  0.000  0.000  0.000  0.800
atom   17   Tr[ns(na)] =   8.00000
    eigenvalues:
  0.800  0.800  0.800  0.800  0.800
    eigenvectors:
  1.000  0.000  0.000  0.000  0.000
  0.000  1.000  0.000  0.000  0.000
  0.000  0.000  1.000  0.000  0.000
  0.000  0.000  0.000  1.000  0.000
  0.000  0.000  0.000  0.000  1.000
    occupations:
  0.800  0.000  0.000  0.000  0.000
  0.000  0.800  0.000  0.000  0.000
  0.000  0.000  0.800  0.000  0.000
  0.000  0.000  0.000  0.800  0.000
  0.000  0.000  0.000  0.000  0.800
atom   22   Tr[ns(na)] =   8.00000
    eigenvalues:
  0.800  0.800  0.800  0.800  0.800
    eigenvectors:
  1.000  0.000  0.000  0.000  0.000
  0.000  1.000  0.000  0.000  0.000
  0.000  0.000  1.000  0.000  0.000
  0.000  0.000  0.000  1.000  0.000
  0.000  0.000  0.000  0.000  1.000
    occupations:
[...]
    eigenvectors:
  0.000  0.986  0.010  0.002  0.002
  0.010  0.000  0.030  0.937  0.023
  0.000  0.004  0.766  0.007  0.223
  0.000  0.009  0.194  0.045  0.751
  0.990  0.000  0.000  0.010  0.000
    occupations:
  0.716 -0.005 -0.018  0.026 -0.001
 -0.005  0.982  0.000  0.000  0.030
 -0.018  0.000  0.982  0.004  0.000
  0.026  0.000  0.004  0.983  0.000
 -0.001  0.030  0.000  0.000  0.692
atom    9   Tr[ns(na)] =   8.68849
    eigenvalues:
  0.715  0.722  0.959  0.963  0.986
    eigenvectors:
  0.001  0.143  0.000  0.000  0.857
  0.997  0.003  0.000  0.000  0.000
  0.000  0.000  0.000  1.000  0.000
  0.003  0.854  0.000  0.000  0.143
  0.000  0.000  1.000  0.000  0.000
    occupations:
  0.948  0.000 -0.000 -0.093  0.000
  0.000  0.715  0.000  0.000 -0.000
 -0.000  0.000  0.963 -0.001 -0.000
 -0.093  0.000 -0.001  0.759  0.000
  0.000 -0.000 -0.000  0.000  0.959
atom   10   Tr[ns(na)] =   8.76246
    eigenvalues:
  0.660  0.780  0.969  0.986  0.986
    eigenvectors:
  0.000  0.981  0.000  0.001  0.019
  0.000  0.000  1.000  0.000  0.000
  0.000  0.000  0.000  0.957  0.043
  0.000  0.019  0.000  0.042  0.938
  1.000  0.000  0.000  0.000  0.000
    occupations:
  0.784  0.000  0.001  0.028  0.000
  0.000  0.969 -0.000  0.000 -0.001
  0.001 -0.000  0.986 -0.000 -0.000
  0.028  0.000 -0.000  0.982 -0.000
  0.000 -0.001 -0.000 -0.000  0.660
atom   16   Tr[ns(na)] =   8.73351
    eigenvalues:
  0.699  0.708  0.983  0.987  0.990
    eigenvectors:
  0.177  0.000  0.780  0.000  0.043
  0.000  1.000  0.000  0.000  0.000
  0.003  0.000  0.065  0.000  0.932
  0.819  0.000  0.156  0.000  0.025
  0.000  0.000  0.000  1.000  0.000
    occupations:
  0.933 -0.000  0.006 -0.109  0.000
 -0.000  0.708  0.000  0.000 -0.001
  0.006  0.000  0.988  0.016 -0.000
 -0.109  0.000  0.016  0.750  0.000
  0.000 -0.001 -0.000  0.000  0.987
atom   17   Tr[ns(na)] =   8.71012
    eigenvalues:
  0.689  0.712  0.982  0.985  0.987
    eigenvectors:
  0.000  0.986  0.010  0.002  0.002
  0.010  0.000  0.030  0.937  0.023
  0.000  0.004  0.766  0.007  0.223
  0.000  0.009  0.194  0.045  0.751
  0.990  0.000  0.000  0.010  0.000
    occupations:
  0.716 -0.005 -0.018  0.026 -0.001
 -0.005  0.982  0.000  0.000  0.030
 -0.018  0.000  0.982  0.004  0.000
  0.026  0.000  0.004  0.983  0.000
 -0.001  0.030  0.000  0.000  0.692
atom   22   Tr[ns(na)] =   8.68849
    eigenvalues:
  0.715  0.722  0.959  0.963  0.986
    eigenvectors:
  0.001  0.143  0.000  0.000  0.857
  0.997  0.003  0.000  0.000  0.000
  0.000  0.000  0.000  1.000  0.000
  0.003  0.854  0.000  0.000  0.143
  0.000  0.000  1.000  0.000  0.000
    occupations:
  0.948  0.000 -0.000 -0.093  0.000
  0.000  0.715  0.000  0.000 -0.000
 -0.000  0.000  0.963 -0.001 -0.000
 -0.093  0.000 -0.001  0.759  0.000
  0.000 -0.000 -0.000  0.000  0.959
atom   23   Tr[ns(na)] =   8.76259
    eigenvalues:
  0.661  0.780  0.969  0.986  0.986
    eigenvectors:
  0.000  0.981  0.000  0.001  0.019
  0.000  0.000  1.000  0.000  0.000
  0.000  0.000  0.000  0.957  0.043
  0.000  0.019  0.000  0.043  0.938
  1.000  0.000  0.000  0.000  0.000
    occupations:
  0.784  0.000  0.001  0.028  0.000
  0.000  0.969 -0.000  0.000 -0.001
  0.001 -0.000  0.986 -0.000 -0.000
  0.028  0.000 -0.000  0.982 -0.000
  0.000 -0.001 -0.000 -0.000  0.661
N of occupied +U levels =  69.7892800
 --- exit write_ns ---

     Threshold (ethr) on eigenvalues was too large:
     Diagonalizing with lowered threshold

     Davidson diagonalization with overlap
     ethr =  6.31E-09,  avg # of iterations =  2.0

[...]

     total energy              =   -2247.82124577 Ry
     Harris-Foulkes estimate   =   -2247.82124577 Ry
     estimated scf accuracy    <       0.00000001 Ry

     iteration # 13     ecut=    40.00 Ry     beta=0.70
     Davidson diagonalization with overlap
     ethr =  4.42E-12,  avg # of iterations =  1.0

     negative rho (up, down):  0.158E+01 0.000E+00

     End of self-consistent calculation
 --- enter write_ns ---
 LDA+U parameters:
U( 2)     =  3.50000000
alpha( 2) =  0.00000000
atom    3   Tr[ns(na)] =   8.73298
    eigenvalues:
  0.698  0.708  0.983  0.987  0.990
    eigenvectors:
  0.177  0.000  0.780  0.000  0.042
  0.000  1.000  0.000  0.000  0.000
  0.003  0.000  0.064  0.000  0.932
  0.819  0.000  0.156  0.000  0.025
  0.000  0.000  0.000  1.000  0.000
    occupations:
  0.933 -0.000  0.006 -0.109  0.000
 -0.000  0.708  0.000  0.000 -0.001
  0.006  0.000  0.988  0.016 -0.000
 -0.109  0.000  0.016  0.750  0.000
  0.000 -0.001 -0.000  0.000  0.987
atom    4   Tr[ns(na)] =   8.70966
    eigenvalues:
  0.689  0.712  0.982  0.985  0.987
    eigenvectors:
  0.000  0.986  0.010  0.002  0.002
  0.010  0.000  0.030  0.936  0.023
  0.000  0.004  0.765  0.007  0.224
  0.000  0.009  0.195  0.046  0.750
  0.990  0.000  0.000  0.010  0.000
    occupations:
  0.716 -0.005 -0.018  0.026 -0.001
 -0.005  0.982  0.000  0.000  0.030
 -0.018  0.000  0.982  0.004  0.000
  0.026  0.000  0.004  0.983  0.000
 -0.001  0.030  0.000  0.000  0.692
atom    9   Tr[ns(na)] =   8.68881
    eigenvalues:
  0.715  0.722  0.959  0.963  0.986
    eigenvectors:
  0.001  0.143  0.000  0.000  0.857
  0.997  0.003  0.000  0.000  0.000
  0.000  0.000  0.000  1.000  0.000
  0.003  0.854  0.000  0.000  0.143
  0.000  0.000  1.000  0.000  0.000
    occupations:
  0.948  0.000 -0.000 -0.093  0.000
  0.000  0.715  0.000  0.000 -0.000
 -0.000  0.000  0.963 -0.001 -0.000
 -0.093  0.000 -0.001  0.760  0.000
  0.000 -0.000 -0.000  0.000  0.959
atom   10   Tr[ns(na)] =   8.76274
    eigenvalues:
  0.661  0.780  0.969  0.986  0.986
    eigenvectors:
  0.000  0.981  0.000  0.000  0.019
  0.000  0.000  1.000  0.000  0.000
  0.000  0.000  0.000  0.958  0.042
  0.000  0.019  0.000  0.041  0.940
  1.000  0.000  0.000  0.000  0.000
    occupations:
  0.784  0.000  0.001  0.028  0.000
  0.000  0.969 -0.000  0.000 -0.001
  0.001 -0.000  0.986 -0.000 -0.000
  0.028  0.000 -0.000  0.982 -0.000
  0.000 -0.001 -0.000 -0.000  0.661
atom   16   Tr[ns(na)] =   8.73298
    eigenvalues:
  0.698  0.708  0.983  0.987  0.990
    eigenvectors:
  0.177  0.000  0.780  0.000  0.042
  0.000  1.000  0.000  0.000  0.000
  0.003  0.000  0.064  0.000  0.932
  0.819  0.000  0.156  0.000  0.025
  0.000  0.000  0.000  1.000  0.000
    occupations:
  0.933 -0.000  0.006 -0.109  0.000
 -0.000  0.708  0.000  0.000 -0.001
  0.006  0.000  0.988  0.016 -0.000
 -0.109  0.000  0.016  0.750  0.000
  0.000 -0.001 -0.000  0.000  0.987
atom   17   Tr[ns(na)] =   8.70966
    eigenvalues:
  0.689  0.712  0.982  0.985  0.987
    eigenvectors:
  0.000  0.986  0.010  0.002  0.002
  0.010  0.000  0.030  0.936  0.023
  0.000  0.004  0.765  0.007  0.224
  0.000  0.009  0.195  0.046  0.750
  0.990  0.000  0.000  0.010  0.000
    occupations:
  0.716 -0.005 -0.018  0.026 -0.001
 -0.005  0.982  0.000  0.000  0.030
 -0.018  0.000  0.982  0.004  0.000
  0.026  0.000  0.004  0.983  0.000
 -0.001  0.030  0.000  0.000  0.692
atom   22   Tr[ns(na)] =   8.68881
    eigenvalues:
  0.715  0.722  0.959  0.963  0.986
    eigenvectors:
  0.001  0.143  0.000  0.000  0.857
  0.997  0.003  0.000  0.000  0.000
  0.000  0.000  0.000  1.000  0.000
  0.003  0.854  0.000  0.000  0.143
  0.000  0.000  1.000  0.000  0.000
    occupations:
  0.948  0.000 -0.000 -0.093  0.000
  0.000  0.715  0.000  0.000 -0.000
 -0.000  0.000  0.963 -0.001 -0.000
 -0.093  0.000 -0.001  0.760  0.000
  0.000 -0.000 -0.000  0.000  0.959
atom   23   Tr[ns(na)] =   8.76270
    eigenvalues:
  0.661  0.780  0.969  0.986  0.986
    eigenvectors:
  0.000  0.981  0.000  0.000  0.019
  0.000  0.000  1.000  0.000  0.000
  0.000  0.000  0.000  0.959  0.041
  0.000  0.019  0.000  0.041  0.940
  1.000  0.000  0.000  0.000  0.000
    occupations:
  0.784  0.000  0.001  0.028  0.000
  0.000  0.969 -0.000  0.000 -0.001
  0.001 -0.000  0.986 -0.000 -0.000
  0.028  0.000 -0.000  0.982 -0.000
  0.000 -0.001 -0.000 -0.000  0.661
N of occupied +U levels =  69.7883252
 --- exit write_ns ---

[...]

          k = 0.2500-0.4976 0.0000 ( 32026 PWs)   bands (ev):

[...]

          k =-0.2500 0.2488 0.0000 ( 32025 PWs)   bands (ev):

   -55.4549 -55.4149 -55.4001 -55.3724 -55.3611 -55.3335 -55.3271 -55.3245
   -55.2517 -55.2483 -55.1488 -55.1447 -55.0755 -55.0705 -55.0610 -55.0553
   -55.0463 -55.0438 -54.8378 -54.7981 -54.4910 -54.4859 -54.2542 -54.2515
   -22.0916 -21.8911 -21.1948 -21.0757 -20.7524 -20.6252 -20.5912 -20.4794
   -20.4681 -20.4126 -20.2754 -20.2414 -20.2047 -20.0479 -19.9910 -19.9435
   -19.1382 -18.9516 -10.6346 -10.4277 -10.2607 -10.2514  -9.7368  -9.7007
    -9.5357  -9.3905  -9.3303  -9.3080  -9.2742  -9.0423  -8.9453  -8.9234
    -8.8986  -8.7514  -8.7026  -8.5208  -8.2099  -8.1484  -8.0265  -7.9851
    -7.7597  -7.5985  -7.5771  -7.4571  -7.3635  -7.1865  -7.1788  -7.1092
    -7.0162  -6.9854  -6.7563  -6.7173  -6.6757  -6.5610  -6.4819  -6.4648
    -6.3009  -6.1309  -6.0495  -5.9083  -5.8135  -5.6854  -5.5631  -5.4056
    -5.2872  -5.2224  -5.1951  -4.9508  -4.9041  -4.8019  -4.7098  -4.5177
    -4.3735  -4.3655  -4.2015  -4.1974  -3.9675  -3.9185  -3.8615  -3.7044
    -3.5963  -3.5710  -3.5365  -3.3758  -3.1824  -3.1357  -2.8226  -2.6769
    -2.6533  -2.5875  -2.4387  -2.3992  -2.3612  -2.2625  -1.8915  -1.7963
    -1.7527  -1.3916  -1.0794  -0.6817  -0.3486  -0.2856  -0.1140   0.2947
     0.5347   0.7091   0.8613   0.9618   1.2281   1.2518   1.3950   1.6093
     3.0711   3.6771   4.5573   4.9752   5.0550   5.0955   5.1971   5.4675
     5.6980   5.9444   6.0526   6.2274   6.4049   6.4900   6.5862   6.6380
     6.7618   6.8208   7.0213   7.0776   7.2631   7.3984   7.4269   7.5127
     7.5988   7.7368   7.8146   7.9758   8.0952   8.1641   8.2596   8.3094
     8.3560   8.4716   8.5407   8.6445   8.7670   8.8681   9.0291   9.1204
     9.3052   9.3412   9.4451   9.5599   9.6499   9.7628   9.8909   9.9532
    10.0948  10.1447  10.2100  10.2154  10.4238  10.5121  10.5297  10.6374
    10.6621  10.8257  10.8360  10.9778  11.1453  11.2486  11.3481  11.3888
    11.4185  11.5444  11.6526  11.7357  11.7945  11.8146  11.8845  11.9359
    11.9879  12.1582  12.2055  12.2110  12.3250  12.3477  12.4347  12.5182
    12.5778  12.6177  12.7263  12.7947  12.8887  12.8978  13.0351  13.0918
    13.1555  13.2457  13.4119  13.5042  13.6106  13.6336  13.7058  13.8111
    13.8256  13.8903  14.0231  14.0282  14.1227  14.2803  14.3607  14.4095
    14.4688  14.6109  14.6788  14.7274  14.8308  14.9240  15.0360  15.1556
    15.2189  15.2205  15.3471  15.3554  15.4451  15.5154  15.5593  15.6289
    15.6292  15.6739  15.7569  15.8184  15.8597  15.9382  16.0200  16.0392
    16.1696  16.1757  16.2282  16.3167  16.3940  16.4936  16.6087  16.7175
    16.7821  16.8275  16.8540  16.8759  16.9320  16.9604  17.0006  17.0102
    17.0147  17.0694  17.0892  17.1393  17.1457  17.1798  17.2517  17.2609
    17.3419  17.3979  17.4476  17.4596  17.4959  17.6144  17.6766  17.7426
    17.7553  17.8008  17.8297  17.8943  18.0396  18.0874  18.1172  18.1901
    18.2054  18.3543  18.3870  18.3951  18.5295  18.5861  18.6941  18.7051
    18.7297  18.8934  18.9329  19.0127  19.0241  19.1041  19.1488  19.2769
    19.3271  19.3883  19.4061  19.5601  19.6104  19.7679  19.8163  19.8360
    19.9027  19.9459  19.9791  20.0439  20.0685  20.0862  20.2480  20.2728
    20.3213  20.3356  20.5096  20.5103  20.6432  20.6949  20.7648  20.8007
    20.8077  20.9339  20.9434  21.0036  21.0371  21.2128  21.2478  21.2620
    21.3552  21.4373  21.4403  21.5294  21.5807  21.6242  21.6537  21.7687

     the Fermi energy is    -1.7323 ev

!    total energy              =   -2247.82124577 Ry
     Harris-Foulkes estimate   =   -2247.82124577 Ry
     estimated scf accuracy    <          1.5E-09 Ry

     The total energy is the sum of the following terms:

     one-electron contribution =  -22797.50937942 Ry
     hartree contribution      =   11439.50557277 Ry
     xc contribution           =    -565.14393581 Ry
     ewald contribution        =    9674.36611781 Ry
     Hubbard energy            =       0.96131269 Ry
     smearing contrib. (-TS)   =      -0.00093380 Ry

     convergence has been achieved in  13 iterations

     Forces acting on atoms (Ry/au):

     negative rho (up, down):  0.158E+01 0.000E+00
     atom    1 type  1   force =    -0.00766333   -0.00440017   -0.00019148
     atom    2 type  1   force =     0.00010540    0.00426400   -0.00024773
     atom    3 type  2   force =    -0.00046631    0.00219910   -0.00005495
     atom    4 type  2   force =     0.01014995    0.00220033    0.00005287
     atom    5 type  1   force =     0.00111845   -0.00217106    0.00011049
     atom    6 type  1   force =     0.00008092    0.00062173   -0.00008624
     atom    7 type  1   force =     0.00003422    0.00470873    0.00094798
     atom    8 type  1   force =    -0.00395055   -0.00780947    0.00057419
     atom    9 type  2   force =     0.00177115    0.00100079   -0.00031341
     atom   10 type  2   force =    -0.00003109   -0.00185898   -0.00006422
     atom   11 type  1   force =    -0.00000268   -0.00664739   -0.00014489
     atom   12 type  1   force =     0.00007966    0.00766228   -0.00008603
     atom   13 type  1   force =    -0.00108319   -0.00027818   -0.00007447
     atom   14 type  1   force =    -0.00766271   -0.00439968   -0.00019485
     atom   15 type  1   force =     0.00010539    0.00426701   -0.00024308
     atom   16 type  2   force =    -0.00047592    0.00219912   -0.00005498
     atom   17 type  2   force =     0.01014957    0.00220004    0.00004864
     atom   18 type  1   force =     0.00111531   -0.00217115    0.00011039
     atom   19 type  1   force =     0.00007801    0.00062180   -0.00008635
     atom   20 type  1   force =     0.00003419    0.00470859    0.00092282
     atom   21 type  1   force =    -0.00395069   -0.00780959    0.00057110
     atom   22 type  2   force =     0.00177554    0.00100079   -0.00031325
     atom   23 type  2   force =    -0.00003104   -0.00185875   -0.00005294
     atom   24 type  1   force =    -0.00001315   -0.00664741   -0.00014488
     atom   25 type  1   force =     0.00006927    0.00766226   -0.00008606
     atom   26 type  1   force =    -0.00108305   -0.00027803   -0.00004607
     atom   27 type  3   force =     0.00001297    0.00027426    0.00005239
     atom   28 type  3   force =     0.00001300    0.00027094    0.00005456
     atom   29 type  3   force =    -0.00013954    0.00023397   -0.00047955
     atom   30 type  3   force =    -0.00013974    0.00023410   -0.00048001

     Total force =     0.001919     Total SCF correction =     0.000087

     bfgs converged in   9 scf cycles and   8 bfgs steps
     (criteria: energy < 0.10E-03, force < 0.10E-02)

     End of BFGS Geometry Optimization

     Final energy   =   -2247.8212457692 Ry
Begin final coordinates

ATOMIC_POSITIONS (crystal)
O0       0.000000000   0.000000000   0.376810203    0   0   1
O0       0.000000000   0.500000000   0.399569147    0   0   1
Pt1      0.250000000   0.500000000   0.449073734    0   0   1
Pt1      0.000000000   0.000000000   0.451862899    0   0   1
O0       0.250000000   0.810000000   0.441956033    0   0   1
O0       0.250000000   0.190000000   0.459563027    0   0   1
O0       0.000000000   0.500000000   0.495477289    0   0   1
O0       0.000000000   0.000000000   0.529301683    0   0   1
Pt1      0.250000000   0.000000000   0.575847675    0   0   1
Pt1      0.000000000   0.500000000   0.573727048    0   0   1
O0       0.250000000   0.690000000   0.583266756    0   0   1
O0       0.250000000   0.310000000   0.583767560    0   0   1
O0       0.000000000   0.000000000   0.621378837    0   0   1
O0       0.500000000   0.000000000   0.376810753    0   0   1
O0       0.500000000   0.500000000   0.399569072    0   0   1
Pt1      0.750000000   0.500000000   0.449073738    0   0   1
Pt1      0.500000000   0.000000000   0.451863274    0   0   1
O0       0.750000000   0.810000000   0.441956065    0   0   1
O0       0.750000000   0.190000000   0.459563040    0   0   1
O0       0.500000000   0.500000000   0.495478861    0   0   1
O0       0.500000000   0.000000000   0.529301539    0   0   1
Pt1      0.750000000   0.000000000   0.575847670    0   0   1
Pt1      0.500000000   0.500000000   0.573726393    0   0   1
O0       0.750000000   0.690000000   0.583266752    0   0   1
O0       0.750000000   0.310000000   0.583767563    0   0   1
O0       0.500000000   0.000000000   0.621376989    0   0   1
H2      -0.000020097   0.640626320   0.384245326
H2       0.499979863   0.640626538   0.384245212
H2       0.144087403   0.032384655   0.367082690
H2       0.644087323   0.032384578   0.367083173
End final coordinates

     General routines

     Parallel routines
     Hubbard U routines

   This run was terminated on:  16:20:48   6May2014

   JOB DONE.