     Program PWSCF v.5.0.2 (svn rev. 9656) starts on  6May2014 at  4:11:44

     Current dimensions of program PWSCF are:
     Max number of different atomic species (ntypx) = 10
     Max number of k-points (npk) =  40000
     Max angular momentum in pseudopotentials (lmaxx) =  3
     Reading input from pwscf.in
Warning: card &CELL ignored
Warning: card / ignored

     Subspace diagonalization in iterative solution of the eigenvalue problem:
     a serial algorithm will be used

     bravais-lattice index     =            0
     lattice parameter (alat)  =      11.7919  a.u.
     unit-cell volume          =    7123.6633 (a.u.)^3
     number of atoms/cell      =           30
     number of atomic types    =            3
     number of electrons       =       240.00
     number of Kohn-Sham states=          348
     kinetic-energy cutoff     =      40.0000  Ry
     charge density cutoff     =     500.0000  Ry
     convergence threshold     =      1.0E-06
     mixing beta               =       0.7000
     number of iterations used =            8  plain     mixing
     Exchange-correlation      = SLA  PW   PBE  PBE ( 1 4 3 4 0)
     EXX-fraction              =        0.00
     nstep                     =           50

     celldm(1)=  11.791891  celldm(2)=   0.000000  celldm(3)=   0.000000
     celldm(4)=   0.000000  celldm(5)=   0.000000  celldm(6)=   0.000000

     crystal axes: (cart. coord. in units of alat)
               a(1) = (   1.000000   0.000000   0.000000 )
               a(2) = (   0.000000   1.026665   0.000000 )
               a(3) = (   0.000000   0.000000   4.231793 )

     reciprocal axes: (cart. coord. in units 2 pi/alat)
               b(1) = (  1.000000  0.000000  0.000000 )
               b(2) = (  0.000000  0.974028  0.000000 )
               b(3) = (  0.000000  0.000000  0.236306 )

     PseudoPot. # 1 for O  read from file:
     /home/camp/zhonxu/pseudo/o_pbe_v1.01.uspp.F.UPF
     MD5 check sum: 2bcb18d16ea4b960afae9ec6d52f22d2
     Pseudo is Ultrasoft + core correction, Zval =  6.0
     Generated by new atomic code, or converted to UPF format
     Using radial grid of  737 points,  5 beta functions with:
                l(1) =   0
                l(2) =   0
                l(3) =   1
                l(4) =   1
                l(5) =   2
     Q(r) pseudized with  8 coefficients,  rinner =    0.900   0.900   0.900
                                                       0.900   0.900

     PseudoPot. # 2 for Ru read from file:
     /home/camp/zhonxu/pseudo/ru_pbe_v1.uspp.F.UPF
     MD5 check sum: df00be1c11b23341d9806d8f1dfa10cf
     Pseudo is Ultrasoft + core correction, Zval = 16.0
     Generated by new atomic code, or converted to UPF format
     Using radial grid of  967 points,  6 beta functions with:
                l(1) =   0
                l(2) =   0
                l(3) =   1
                l(4) =   1
                l(5) =   2
                l(6) =   2
     Q(r) pseudized with  8 coefficients,  rinner =    1.300   1.300   1.300
                                                       1.300   1.300

     PseudoPot. # 3 for H  read from file:
     /home/camp/zhonxu/pseudo/h_pbe_v1.uspp.F.UPF
     MD5 check sum: 3408e3ff4ec8b0a4e358431e7e038a48
     Pseudo is Ultrasoft, Zval =  1.0
     Generated by new atomic code, or converted to UPF format
     Using radial grid of  615 points,  2 beta functions with:
                l(1) =   0
                l(2) =   0
     Q(r) pseudized with  8 coefficients,  rinner =    0.700

     atomic species   valence    mass     pseudopotential
        O0             6.00    15.99940     O ( 1.00)
        Ru1           16.00   101.07000     Ru( 1.00)
        H2             1.00     1.00794     H ( 1.00)

     Simplified LDA+U calculation (l_max = 2) with parameters (eV):
     atomic species    L          U    alpha       J0     beta
        Ru1            2     3.0000   0.0000   0.0000   0.0000

     No symmetry found

   Cartesian axes

     site n.     atom                  positions (alat units)
         1           O0  tau(   1) = (   0.0000000   0.0000000   1.6080390  )
         2           O0  tau(   2) = (   0.0000000   0.5133323   1.7023233  )
         3           Ru1 tau(   3) = (   0.2500000   0.5133323   1.9175523  )
         4           Ru1 tau(   4) = (   0.0000000   0.0000000   1.9215302  )
         5           O0  tau(   5) = (   0.2500000   0.8315984   1.9195836  )
         6           O0  tau(   6) = (   0.2500000   0.1950663   1.9193297  )
         7           O0  tau(   7) = (   0.0000000   0.5133323   2.1106490  )
         8           O0  tau(   8) = (   0.0000000   0.0000000   2.2345136  )
         9           Ru1 tau(   9) = (   0.2500000   0.0000000   2.4487269  )
        10           Ru1 tau(  10) = (   0.0000000   0.5133323   2.4113179  )
        11           O0  tau(  11) = (   0.2500000   0.7083986   2.4387399  )
        12           O0  tau(  12) = (   0.2500000   0.3182660   2.4402210  )
        13           O0  tau(  13) = (   0.0000000   0.0000000   2.6238385  )
        14           O0  tau(  14) = (   0.5000000   0.0000000   1.6080390  )
        15           O0  tau(  15) = (   0.5000000   0.5133323   1.7023233  )
        16           Ru1 tau(  16) = (   0.7500000   0.5133323   1.9175523  )
        17           Ru1 tau(  17) = (   0.5000000   0.0000000   1.9215302  )
        18           O0  tau(  18) = (   0.7500000   0.8315984   1.9195836  )
        19           O0  tau(  19) = (   0.7500000   0.1950663   1.9193297  )
        20           O0  tau(  20) = (   0.5000000   0.5133323   2.1106490  )
        21           O0  tau(  21) = (   0.5000000   0.0000000   2.2345136  )
        22           Ru1 tau(  22) = (   0.7500000   0.0000000   2.4487269  )
        23           Ru1 tau(  23) = (   0.5000000   0.5133323   2.4113179  )
        24           O0  tau(  24) = (   0.7500000   0.7083986   2.4387399  )
        25           O0  tau(  25) = (   0.7500000   0.3182660   2.4401787  )
        26           O0  tau(  26) = (   0.5000000   0.0000000   2.6238385  )
        27           H2  tau(  27) = (  -0.0004100   0.6466653   1.6162063  )
        28           H2  tau(  28) = (   0.4995900   0.6466653   1.6162063  )
        29           H2  tau(  29) = (   0.1464700   0.0296706   1.5559879  )
        30           H2  tau(  30) = (   0.6464700   0.0296706   1.5559879  )

     number of k points=    10  Methfessel-Paxton smearing, width (Ry)=  0.0100
                       cart. coord. in units 2pi/alat
        k(    1) = (   0.0000000   0.0000000   0.0000000), wk =   0.1250000
        k(    2) = (   0.0000000   0.2435070   0.0000000), wk =   0.2500000
        k(    3) = (   0.0000000  -0.4870139   0.0000000), wk =   0.1250000
        k(    4) = (   0.2500000   0.0000000   0.0000000), wk =   0.2500000
        k(    5) = (   0.2500000   0.2435070   0.0000000), wk =   0.2500000
        k(    6) = (   0.2500000  -0.4870139   0.0000000), wk =   0.2500000
        k(    7) = (  -0.5000000   0.0000000   0.0000000), wk =   0.1250000
        k(    8) = (  -0.5000000   0.2435070   0.0000000), wk =   0.2500000
        k(    9) = (  -0.5000000  -0.4870139   0.0000000), wk =   0.1250000
        k(   10) = (  -0.2500000   0.2435070   0.0000000), wk =   0.2500000

     Largest allocated arrays     est. size (Mb)     dimensions
     Largest temporary arrays     est. size (Mb)     dimensions

     Check: negative/imaginary core charge=   -0.000003    0.000000

     Initial potential from superposition of free atoms
     Check: negative starting charge=   -0.522083

     starting charge  231.99981, renormalised to  240.00000

     negative rho (up, down):  0.540E+00 0.000E+00
     Number of +U iterations with fixed ns =  0
     Starting occupations:
 --- enter write_ns ---
 LDA+U parameters:
U( 2)     =  3.00000000
alpha( 2) =  0.00000000
atom    3   Tr[ns(na)] =   6.00000
    eigenvalues:
  0.600  0.600  0.600  0.600  0.600
    eigenvectors:
  1.000  0.000  0.000  0.000  0.000
  0.000  1.000  0.000  0.000  0.000
  0.000  0.000  1.000  0.000  0.000
  0.000  0.000  0.000  1.000  0.000
  0.000  0.000  0.000  0.000  1.000
    occupations:
  0.600  0.000  0.000  0.000  0.000
  0.000  0.600  0.000  0.000  0.000
  0.000  0.000  0.600  0.000  0.000
  0.000  0.000  0.000  0.600  0.000
  0.000  0.000  0.000  0.000  0.600
atom    4   Tr[ns(na)] =   6.00000
    eigenvalues:
  0.600  0.600  0.600  0.600  0.600
    eigenvectors:
  1.000  0.000  0.000  0.000  0.000
  0.000  1.000  0.000  0.000  0.000
  0.000  0.000  1.000  0.000  0.000
  0.000  0.000  0.000  1.000  0.000
  0.000  0.000  0.000  0.000  1.000
    occupations:
  0.600  0.000  0.000  0.000  0.000
  0.000  0.600  0.000  0.000  0.000
  0.000  0.000  0.600  0.000  0.000
  0.000  0.000  0.000  0.600  0.000
  0.000  0.000  0.000  0.000  0.600
atom    9   Tr[ns(na)] =   6.00000
    eigenvalues:
  0.600  0.600  0.600  0.600  0.600
    eigenvectors:
  1.000  0.000  0.000  0.000  0.000
  0.000  1.000  0.000  0.000  0.000
  0.000  0.000  1.000  0.000  0.000
  0.000  0.000  0.000  1.000  0.000
  0.000  0.000  0.000  0.000  1.000
    occupations:
  0.600  0.000  0.000  0.000  0.000
  0.000  0.600  0.000  0.000  0.000
  0.000  0.000  0.600  0.000  0.000
  0.000  0.000  0.000  0.600  0.000
  0.000  0.000  0.000  0.000  0.600
atom   10   Tr[ns(na)] =   6.00000
    eigenvalues:
  0.600  0.600  0.600  0.600  0.600
    eigenvectors:
  1.000  0.000  0.000  0.000  0.000
  0.000  1.000  0.000  0.000  0.000
  0.000  0.000  1.000  0.000  0.000
  0.000  0.000  0.000  1.000  0.000
  0.000  0.000  0.000  0.000  1.000
    occupations:
  0.600  0.000  0.000  0.000  0.000
  0.000  0.600  0.000  0.000  0.000
  0.000  0.000  0.600  0.000  0.000
  0.000  0.000  0.000  0.600  0.000
  0.000  0.000  0.000  0.000  0.600
atom   16   Tr[ns(na)] =   6.00000
    eigenvalues:
  0.600  0.600  0.600  0.600  0.600
    eigenvectors:
  1.000  0.000  0.000  0.000  0.000
  0.000  1.000  0.000  0.000  0.000
  0.000  0.000  1.000  0.000  0.000
  0.000  0.000  0.000  1.000  0.000
  0.000  0.000  0.000  0.000  1.000
    occupations:
  0.600  0.000  0.000  0.000  0.000
  0.000  0.600  0.000  0.000  0.000
  0.000  0.000  0.600  0.000  0.000
  0.000  0.000  0.000  0.600  0.000
  0.000  0.000  0.000  0.000  0.600
atom   17   Tr[ns(na)] =   6.00000
    eigenvalues:
  0.600  0.600  0.600  0.600  0.600
    eigenvectors:
  1.000  0.000  0.000  0.000  0.000
  0.000  1.000  0.000  0.000  0.000
  0.000  0.000  1.000  0.000  0.000
  0.000  0.000  0.000  1.000  0.000
  0.000  0.000  0.000  0.000  1.000
    occupations:
  0.600  0.000  0.000  0.000  0.000
  0.000  0.600  0.000  0.000  0.000
  0.000  0.000  0.600  0.000  0.000
  0.000  0.000  0.000  0.600  0.000
  0.000  0.000  0.000  0.000  0.600
atom   22   Tr[ns(na)] =   6.00000
    eigenvalues:
  0.600  0.600  0.600  0.600  0.600
    eigenvectors:
  1.000  0.000  0.000  0.000  0.000
  0.000  1.000  0.000  0.000  0.000
  0.000  0.000  1.000  0.000  0.000
  0.000  0.000  0.000  1.000  0.000
  0.000  0.000  0.000  0.000  1.000
    occupations:
  0.600  0.000  0.000  0.000  0.000
  0.000  0.600  0.000  0.000  0.000
  0.000  0.000  0.600  0.000  0.000
  0.000  0.000  0.000  0.600  0.000
[...]
  0.000  0.000  0.981  0.018  0.000
  0.000  0.012  0.000  0.000  0.988
  0.999  0.001  0.000  0.000  0.000
    occupations:
  0.608 -0.001  0.000  0.040  0.001
 -0.001  0.793  0.017 -0.001 -0.001
  0.000  0.017  0.674  0.002  0.000
  0.040 -0.001  0.002  0.975  0.000
  0.001 -0.001  0.000  0.000  0.554
atom    9   Tr[ns(na)] =   7.20170
    eigenvalues:
  0.572  0.592  0.754  0.839  0.844
    eigenvectors:
  0.000  0.139  0.001  0.451  0.409
  1.000  0.000  0.000  0.000  0.000
  0.000  0.000  0.999  0.001  0.000
  0.000  0.860  0.000  0.072  0.066
  0.000  0.000  0.000  0.476  0.524
    occupations:
  0.806  0.000 -0.003 -0.086  0.002
  0.000  0.572  0.001  0.000  0.001
 -0.003  0.001  0.755  0.001  0.000
 -0.086  0.000  0.001  0.626 -0.001
  0.002  0.001  0.000 -0.001  0.841
atom   10   Tr[ns(na)] =   7.23129
    eigenvalues:
  0.530  0.535  0.761  0.833  0.957
    eigenvectors:
  0.988  0.000  0.000  0.000  0.012
  0.000  0.000  0.000  1.000  0.000
  0.000  0.000  1.000  0.000  0.000
  0.012  0.000  0.000  0.000  0.988
  0.000  1.000  0.000  0.000  0.000
    occupations:
  0.535  0.000  0.000  0.046  0.000
  0.000  0.833  0.001  0.000 -0.001
  0.000  0.001  0.761 -0.002 -0.000
  0.046  0.000 -0.002  0.952 -0.000
  0.000 -0.001 -0.000 -0.000  0.535
atom   16   Tr[ns(na)] =   7.23486
    eigenvalues:
  0.513  0.558  0.730  0.853  0.963
    eigenvectors:
  0.000  0.189  0.007  0.000  0.804
  1.000  0.000  0.000  0.000  0.000
  0.000  0.000  0.989  0.000  0.011
  0.000  0.810  0.004  0.000  0.186
  0.000  0.000  0.000  1.000  0.000
    occupations:
  0.885  0.000  0.023 -0.157 -0.000
  0.000  0.513 -0.000 -0.000 -0.004
  0.023 -0.000  0.732 -0.007  0.000
 -0.157 -0.000 -0.007  0.634  0.000
 -0.000 -0.004  0.000  0.000  0.853
atom   17   Tr[ns(na)] =   7.20902
    eigenvalues:
  0.554  0.604  0.672  0.796  0.979
    eigenvectors:
  0.001  0.988  0.000  0.000  0.012
  0.000  0.000  0.018  0.981  0.000
  0.000  0.000  0.981  0.018  0.000
  0.000  0.012  0.000  0.000  0.988
  0.999  0.001  0.000  0.000  0.000
    occupations:
  0.608 -0.001  0.000  0.040  0.001
 -0.001  0.793  0.017 -0.001 -0.001
  0.000  0.017  0.674  0.002  0.000
  0.040 -0.001  0.002  0.975  0.000
  0.001 -0.001  0.000  0.000  0.554
atom   22   Tr[ns(na)] =   7.20238
    eigenvalues:
  0.572  0.592  0.755  0.839  0.844
    eigenvectors:
  0.000  0.139  0.001  0.446  0.413
  1.000  0.000  0.000  0.000  0.000
  0.000  0.000  0.999  0.001  0.000
  0.000  0.861  0.000  0.072  0.067
  0.000  0.000  0.000  0.481  0.519
    occupations:
  0.806  0.000 -0.003 -0.086  0.002
  0.000  0.572  0.001  0.000  0.001
 -0.003  0.001  0.755  0.001  0.000
 -0.086  0.000  0.001  0.626 -0.001
  0.002  0.001  0.000 -0.001  0.841
atom   23   Tr[ns(na)] =   7.23144
    eigenvalues:
  0.530  0.535  0.761  0.833  0.957
    eigenvectors:
  0.988  0.000  0.000  0.000  0.012
  0.000  0.000  0.000  1.000  0.000
  0.000  0.000  1.000  0.000  0.000
  0.012  0.000  0.000  0.000  0.988
  0.000  1.000  0.000  0.000  0.000
    occupations:
  0.535  0.000  0.000  0.046  0.000
  0.000  0.833  0.001  0.000 -0.001
  0.000  0.001  0.761 -0.002 -0.000
  0.046  0.000 -0.002  0.952 -0.000
  0.000 -0.001 -0.000 -0.000  0.535
N of occupied +U levels =  57.7542948
 --- exit write_ns ---

[...]

     total energy              =   -2129.71495851 Ry
     Harris-Foulkes estimate   =   -2129.71495851 Ry
     estimated scf accuracy    <       0.00000003 Ry

     iteration # 17     ecut=    40.00 Ry     beta=0.70
     Davidson diagonalization with overlap
     ethr =  1.17E-11,  avg # of iterations =  1.0

     negative rho (up, down):  0.572E+00 0.000E+00

     End of self-consistent calculation
 --- enter write_ns ---
 LDA+U parameters:
U( 2)     =  3.00000000
alpha( 2) =  0.00000000
atom    3   Tr[ns(na)] =   7.23125
    eigenvalues:
  0.513  0.558  0.729  0.853  0.963
    eigenvectors:
  0.000  0.189  0.007  0.000  0.803
  1.000  0.000  0.000  0.000  0.000
  0.000  0.000  0.989  0.000  0.011
  0.000  0.810  0.004  0.000  0.186
  0.000  0.000  0.000  1.000  0.000
    occupations:
  0.885  0.000  0.023 -0.157 -0.000
  0.000  0.513 -0.000 -0.000 -0.004
  0.023 -0.000  0.731 -0.007  0.000
 -0.157 -0.000 -0.007  0.634  0.000
 -0.000 -0.004  0.000  0.000  0.853
atom    4   Tr[ns(na)] =   7.20583
    eigenvalues:
  0.554  0.604  0.671  0.795  0.979
    eigenvectors:
  0.001  0.988  0.000  0.000  0.012
  0.000  0.000  0.018  0.982  0.000
  0.000  0.000  0.982  0.018  0.000
  0.000  0.012  0.000  0.000  0.988
  0.999  0.001  0.000  0.000  0.000
    occupations:
  0.608 -0.001  0.000  0.040  0.001
 -0.001  0.793  0.017 -0.001 -0.001
  0.000  0.017  0.673  0.002  0.000
  0.040 -0.001  0.002  0.974  0.000
  0.001 -0.001  0.000  0.000  0.554
atom    9   Tr[ns(na)] =   7.20512
    eigenvalues:
  0.572  0.592  0.755  0.839  0.844
    eigenvectors:
  0.000  0.139  0.001  0.437  0.423
  1.000  0.000  0.000  0.000  0.000
  0.000  0.000  0.999  0.001  0.001
  0.000  0.861  0.000  0.070  0.069
  0.000  0.000  0.000  0.492  0.508
    occupations:
  0.807  0.000 -0.003 -0.087  0.002
  0.000  0.572  0.001  0.000  0.001
 -0.003  0.001  0.755  0.001  0.000
 -0.087  0.000  0.001  0.626 -0.001
  0.002  0.001  0.000 -0.001  0.842
atom   10   Tr[ns(na)] =   7.23493
    eigenvalues:
  0.530  0.535  0.761  0.833  0.957
    eigenvectors:
  0.988  0.000  0.000  0.000  0.012
  0.000  0.000  0.000  1.000  0.000
  0.000  0.000  1.000  0.000  0.000
  0.012  0.000  0.000  0.000  0.988
  0.000  1.000  0.000  0.000  0.000
    occupations:
  0.535  0.000  0.000  0.046  0.000
  0.000  0.833  0.001  0.000 -0.001
  0.000  0.001  0.761 -0.002 -0.000
  0.046  0.000 -0.002  0.952 -0.000
  0.000 -0.001 -0.000 -0.000  0.535
atom   16   Tr[ns(na)] =   7.23120
    eigenvalues:
  0.513  0.558  0.729  0.853  0.963
    eigenvectors:
  0.000  0.189  0.007  0.000  0.803
  1.000  0.000  0.000  0.000  0.000
  0.000  0.000  0.989  0.000  0.011
  0.000  0.810  0.004  0.000  0.186
  0.000  0.000  0.000  1.000  0.000
    occupations:
  0.885  0.000  0.023 -0.157 -0.000
  0.000  0.513 -0.000 -0.000 -0.004
  0.023 -0.000  0.731 -0.007  0.000
 -0.157 -0.000 -0.007  0.634  0.000
 -0.000 -0.004  0.000  0.000  0.853
atom   17   Tr[ns(na)] =   7.20588
    eigenvalues:
  0.554  0.604  0.671  0.795  0.979
    eigenvectors:
  0.001  0.988  0.000  0.000  0.012
  0.000  0.000  0.018  0.982  0.000
  0.000  0.000  0.982  0.018  0.000
  0.000  0.012  0.000  0.000  0.988
  0.999  0.001  0.000  0.000  0.000
    occupations:
  0.608 -0.001  0.000  0.040  0.001
 -0.001  0.793  0.017 -0.001 -0.001
  0.000  0.017  0.673  0.002  0.000
  0.040 -0.001  0.002  0.974  0.000
  0.001 -0.001  0.000  0.000  0.554
atom   22   Tr[ns(na)] =   7.20513
    eigenvalues:
  0.572  0.592  0.755  0.839  0.844
    eigenvectors:
  0.000  0.139  0.001  0.437  0.423
  1.000  0.000  0.000  0.000  0.000
  0.000  0.000  0.999  0.001  0.001
  0.000  0.861  0.000  0.070  0.069
  0.000  0.000  0.000  0.492  0.508
    occupations:
  0.807  0.000 -0.003 -0.087  0.002
  0.000  0.572  0.001  0.000  0.001
 -0.003  0.001  0.755  0.001  0.000
 -0.087  0.000  0.001  0.626 -0.001
  0.002  0.001  0.000 -0.001  0.842
atom   23   Tr[ns(na)] =   7.23489
    eigenvalues:
  0.530  0.535  0.761  0.833  0.957
    eigenvectors:
  0.988  0.000  0.000  0.000  0.012
  0.000  0.000  0.000  1.000  0.000
  0.000  0.000  1.000  0.000  0.000
  0.012  0.000  0.000  0.000  0.988
  0.000  1.000  0.000  0.000  0.000
    occupations:
  0.535  0.000  0.000  0.046  0.000
  0.000  0.833  0.001  0.000 -0.001
  0.000  0.001  0.761 -0.002 -0.000
  0.046  0.000 -0.002  0.952 -0.000
  0.000 -0.001 -0.000 -0.000  0.535
N of occupied +U levels =  57.7542344
 --- exit write_ns ---

[...]

          k = 0.2500-0.4870 0.0000 ( 30468 PWs)   bands (ev):

[...]

          k =-0.2500 0.2435 0.0000 ( 30434 PWs)   bands (ev):

   -74.1345 -74.1267 -74.0154 -74.0080 -73.8017 -73.7941 -73.6316 -73.6244
   -44.3216 -44.3141 -44.2512 -44.1596 -44.1502 -44.1457 -44.1364 -44.1187
   -44.0564 -44.0359 -43.9508 -43.8675 -43.8374 -43.8242 -43.8125 -43.8005
   -43.7739 -43.7079 -43.5999 -43.5969 -43.5750 -43.5682 -43.5471 -43.4762
   -20.8612 -20.4282 -20.3475 -20.3161 -20.1948 -20.0730 -19.7902 -19.7880
   -19.6851 -19.5805 -19.5607 -19.4302 -19.2876 -19.2331 -19.2140 -19.0735
   -19.0456 -18.8629  -9.2256  -8.7300  -8.6569  -8.5741  -8.3160  -8.2517
    -8.0986  -8.0476  -7.8751  -7.7530  -7.6678  -7.6548  -7.5255  -7.4912
    -7.4053  -7.4043  -7.3014  -7.2128  -6.8661  -6.7700  -6.7109  -6.4627
    -6.3313  -6.1859  -6.0368  -5.8845  -5.8808  -5.6522  -5.5619  -5.4783
    -5.4331  -5.3827  -5.3046  -5.1578  -5.0675  -5.0350  -4.9343  -4.8996
    -4.7663  -4.7431  -4.5953  -4.4921  -4.2757  -4.2274  -4.1293  -4.0747
    -3.9801  -3.8654  -3.7892  -3.5156  -3.4722  -3.1736  -3.1463  -2.7835
    -2.5281  -2.4511  -2.2475  -2.0459  -2.0424  -2.0200  -1.9502  -1.8698
    -1.8591  -1.7426  -1.7313  -1.6367  -1.5031  -1.3797  -1.3140  -1.1079
    -0.8254  -0.6141  -0.6014  -0.4529  -0.3829  -0.2085  -0.0921   0.1342
     0.7713   0.9412   1.6749   1.8195   1.8601   2.3821   2.4192   2.7447
     2.9495   3.2041   3.3717   3.3757   3.4524   3.5739   3.8359   3.8541
     4.0573   4.3468   4.6506   5.0835   5.5399   5.7764   5.8305   6.0025
     6.1028   6.3895   6.5410   6.5510   6.7383   6.8768   6.9553   7.1856
     7.4761   7.5333   7.7979   7.9037   7.9385   8.2204   8.2559   8.3797
     8.4598   8.5413   8.7275   8.7323   8.8380   8.9992   9.1724   9.2154
     9.2852   9.4963   9.5072   9.7762   9.7951   9.9649   9.9820  10.0533
    10.1026  10.3079  10.3231  10.4246  10.4404  10.5893  10.6495  10.7815
    10.8381  10.8968  11.0296  11.1590  11.2980  11.3328  11.4506  11.5438
    11.5889  11.6643  11.6851  11.8176  11.8924  12.0053  12.0357  12.0784
    12.1721  12.3075  12.3819  12.4653  12.5117  12.5758  12.6750  12.7015
    12.7861  12.8302  12.9195  12.9721  12.9785  13.1479  13.2223  13.3615
    13.3684  13.4654  13.5920  13.6587  13.7111  13.7698  13.8579  13.9843
    14.0108  14.0708  14.1955  14.3413  14.3541  14.4023  14.5554  14.5660
    14.5955  14.7262  14.8061  14.9004  14.9311  15.0471  15.0560  15.1580
    15.2532  15.3729  15.4997  15.5362  15.6669  15.7256  15.7577  15.8273
    15.8412  15.9307  15.9347  15.9667  16.0319  16.0924  16.1698  16.1769
    16.2948  16.4024  16.4443  16.5442  16.6029  16.7190  16.7254  16.8198
    16.8523  16.8644  17.0099  17.0310  17.1072  17.2239  17.2858  17.3915
    17.4440  17.4816  17.5022  17.5999  17.6009  17.6240  17.7227  17.7950
    17.8736  17.8864  17.9954  17.9977  18.0694  18.1519  18.1696  18.3260
    18.3266  18.4545  18.5232  18.6294  18.6338  18.7479  18.7559  18.8922
    18.9905  19.0400  19.1178  19.1783  19.2525  19.2687  19.3605  19.4225
    19.4600  19.5940  19.6444  19.7732  19.8321  19.8574  19.9202  19.9851
    20.0534  20.2150  20.2213  20.4127  20.4149  20.5740  20.6532  20.6971
    20.7699  20.7930  20.8932  20.9038  20.9975  21.0643  21.0789  21.1185
    21.2243  21.2590  21.3345  21.3722  21.3947  21.4317  21.4871  21.6369
    21.6627  21.6644  21.8047  21.8436

     the Fermi energy is    -0.9729 ev

!    total energy              =   -2129.71495851 Ry
     Harris-Foulkes estimate   =   -2129.71495851 Ry
     estimated scf accuracy    <          5.2E-09 Ry

     The total energy is the sum of the following terms:

     one-electron contribution =  -24518.80362780 Ry
     hartree contribution      =   12281.24988665 Ry
     xc contribution           =    -330.81243677 Ry
     ewald contribution        =   10437.08757190 Ry
     Hubbard energy            =       1.56259606 Ry
     smearing contrib. (-TS)   =       0.00105145 Ry

     convergence has been achieved in  17 iterations

     Forces acting on atoms (Ry/au):

     negative rho (up, down):  0.572E+00 0.000E+00
     atom    1 type  1   force =    -0.00533115   -0.01007751   -0.00005030
     atom    2 type  1   force =    -0.00017661    0.00673105   -0.00030995
     atom    3 type  2   force =    -0.00028407    0.00167949   -0.00064324
     atom    4 type  2   force =     0.00320558    0.00602199    0.00013411
     atom    5 type  1   force =     0.00110368   -0.03149462    0.00008461
     atom    6 type  1   force =     0.00171285    0.03138364    0.00015951
     atom    7 type  1   force =     0.00008789   -0.00204086    0.00033544
     atom    8 type  1   force =     0.00018143   -0.00130031   -0.00067197
     atom    9 type  2   force =     0.00081856    0.00176753    0.00029903
     atom   10 type  2   force =     0.00007804   -0.00038075   -0.00002687
     atom   11 type  1   force =    -0.00002731    0.01205683    0.00042683
     atom   12 type  1   force =     0.00001485   -0.01330988    0.00050198
     atom   13 type  1   force =    -0.00165708   -0.00060889    0.00027103
     atom   14 type  1   force =    -0.00533541   -0.01007884   -0.00005975
     atom   15 type  1   force =    -0.00016721    0.00673045   -0.00031022
     atom   16 type  2   force =    -0.00028728    0.00168218   -0.00063909
     atom   17 type  2   force =     0.00320542    0.00602214    0.00013444
     atom   18 type  1   force =     0.00111805   -0.03150064    0.00008304
     atom   19 type  1   force =     0.00172707    0.03138956    0.00015874
     atom   20 type  1   force =     0.00010111   -0.00204068    0.00034484
     atom   21 type  1   force =     0.00018076   -0.00130022   -0.00066297
     atom   22 type  2   force =     0.00081983    0.00176518    0.00030267
     atom   23 type  2   force =     0.00007930   -0.00038082   -0.00003563
     atom   24 type  1   force =    -0.00003572    0.01205761    0.00042861
     atom   25 type  1   force =     0.00000640   -0.01330553    0.00049188
     atom   26 type  1   force =    -0.00166065   -0.00060889    0.00027745
     atom   27 type  3   force =    -0.00000967   -0.00040058   -0.00085675
     atom   28 type  3   force =    -0.00000921   -0.00040076   -0.00085709
     atom   29 type  3   force =     0.00026977   -0.00002898    0.00034495
     atom   30 type  3   force =     0.00027078   -0.00002892    0.00034466

     Total force =     0.002369     Total SCF correction =     0.000180

     bfgs converged in   9 scf cycles and   8 bfgs steps
     (criteria: energy < 0.10E-03, force < 0.10E-02)

     End of BFGS Geometry Optimization

     Final energy   =   -2129.7149585085 Ry
Begin final coordinates

ATOMIC_POSITIONS (crystal)
O0       0.000000000   0.000000000   0.380642055    0   0   1
O0       0.000000000   0.500000000   0.402963980    0   0   1
Ru1      0.250000000   0.500000000   0.453308094    0   0   1
Ru1      0.000000000   0.000000000   0.454378285    0   0   1
O0       0.250000000   0.810000000   0.453805859    0   0   1
O0       0.250000000   0.190000000   0.453676374    0   0   1
O0       0.000000000   0.500000000   0.499350468    0   0   1
O0       0.000000000   0.000000000   0.527547326    0   0   1
Ru1      0.250000000   0.000000000   0.578404211    0   0   1
Ru1      0.000000000   0.500000000   0.569611366    0   0   1
O0       0.250000000   0.690000000   0.575572489    0   0   1
O0       0.250000000   0.310000000   0.575776470    0   0   1
O0       0.000000000   0.000000000   0.619867191    0   0   1
O0       0.500000000   0.000000000   0.380641911    0   0   1
O0       0.500000000   0.500000000   0.402963944    0   0   1
Ru1      0.750000000   0.500000000   0.453308058    0   0   1
Ru1      0.500000000   0.000000000   0.454378215    0   0   1
O0       0.750000000   0.810000000   0.453805973    0   0   1
O0       0.750000000   0.190000000   0.453676449    0   0   1
O0       0.500000000   0.500000000   0.499350692    0   0   1
O0       0.500000000   0.000000000   0.527547355    0   0   1
Ru1      0.750000000   0.000000000   0.578404057    0   0   1
Ru1      0.500000000   0.500000000   0.569611754    0   0   1
O0       0.750000000   0.690000000   0.575571919    0   0   1
O0       0.750000000   0.310000000   0.575777979    0   0   1
O0       0.500000000   0.000000000   0.619866999    0   0   1
H2      -0.000503026   0.626199899   0.381461713
H2       0.499496757   0.626200441   0.381461849
H2       0.146159711   0.028700016   0.368068514
H2       0.646159592   0.028700356   0.368068451
End final coordinates

     General routines

     Parallel routines
     Hubbard U routines

   This run was terminated on:  16:35:22   6May2014

   JOB DONE.
Running PBS batch system epilogue script
Job id: 340780.audhumbla.fysik.dtu.dk
Username: zhonxu
Groupname: campgst
Jobname: RuO2/Eads-2-layers/bare-U-3.0
Sessionid: 21874
Queuename: verylong
Accounting:
This job has allocated the following 16 nodes:
a123 a123 a123 a123 a123 a123 a123 a123 a012 a012 a012 a012 a012 a012 a012 a012
Finished epilogue job 340780.audhumbla.fysik.dtu.dk for zhonxu