     Program PWSCF v.5.0.2 (svn rev. 9656) starts on 16Apr2014 at 15: 7:40

     Current dimensions of program PWSCF are:
     Max number of different atomic species (ntypx) = 10
     Max number of k-points (npk) =  40000
     Max angular momentum in pseudopotentials (lmaxx) =  3
     Reading input from pwscf.in
Warning: card &CELL ignored
Warning: card / ignored

     Subspace diagonalization in iterative solution of the eigenvalue problem:
     a serial algorithm will be used

     bravais-lattice index     =            0
     lattice parameter (alat)  =      12.2076  a.u.
     unit-cell volume          =    7496.5096 (a.u.)^3
     number of atoms/cell      =           31
     number of atomic types    =            3
     number of electrons       =       246.00
     number of Kohn-Sham states=          369
     kinetic-energy cutoff     =      40.0000  Ry
     charge density cutoff     =     500.0000  Ry
     convergence threshold     =      1.0E-06
     mixing beta               =       0.3000
     number of iterations used =            8  plain     mixing
     Exchange-correlation      = SLA  PW   PBE  PBE ( 1 4 3 4 0)
     EXX-fraction              =        0.00
     nstep                     =           50

     celldm(1)=  12.207631  celldm(2)=   0.000000  celldm(3)=   0.000000
     celldm(4)=   0.000000  celldm(5)=   0.000000  celldm(6)=   0.000000

     crystal axes: (cart. coord. in units of alat)
               a(1) = (   1.000000   0.000000   0.000000 )
               a(2) = (   0.000000   1.004836   0.000000 )
               a(3) = (   0.000000   0.000000   4.100811 )

     reciprocal axes: (cart. coord. in units 2 pi/alat)
               b(1) = (  1.000000  0.000000  0.000000 )
               b(2) = (  0.000000  0.995187  0.000000 )
               b(3) = (  0.000000  0.000000  0.243854 )

     PseudoPot. # 1 for O  read from file:
     /home/camp/zhonxu/pseudo/o_pbe_v1.01.uspp.F.UPF
     MD5 check sum: 2bcb18d16ea4b960afae9ec6d52f22d2
     Pseudo is Ultrasoft + core correction, Zval =  6.0
     Generated by new atomic code, or converted to UPF format
     Using radial grid of  737 points,  5 beta functions with:
                l(1) =   0
                l(2) =   0
                l(3) =   1
                l(4) =   1
                l(5) =   2
     Q(r) pseudized with  8 coefficients,  rinner =    0.900   0.900   0.900
                                                       0.900   0.900

     PseudoPot. # 2 for Pt read from file:
     /home/camp/zhonxu/pseudo/pt_pbe_v1.uspp.F.UPF
     MD5 check sum: 4c71d6ad5ef119f1eb26a4d0b7884226
     Pseudo is Ultrasoft + core correction, Zval = 16.0
     Generated by new atomic code, or converted to UPF format
     Using radial grid of  985 points,  6 beta functions with:
                l(1) =   0
                l(2) =   0
                l(3) =   1
                l(4) =   1
                l(5) =   2
                l(6) =   2
     Q(r) pseudized with  8 coefficients,  rinner =    1.300   1.300   1.300
                                                       1.300   1.300

     PseudoPot. # 3 for H  read from file:
     /home/camp/zhonxu/pseudo/h_pbe_v1.uspp.F.UPF
     MD5 check sum: 3408e3ff4ec8b0a4e358431e7e038a48
     Pseudo is Ultrasoft, Zval =  1.0
     Generated by new atomic code, or converted to UPF format
     Using radial grid of  615 points,  2 beta functions with:
                l(1) =   0
                l(2) =   0
     Q(r) pseudized with  8 coefficients,  rinner =    0.700

     atomic species   valence    mass     pseudopotential
        O0             6.00    15.99940     O ( 1.00)
        Pt1           16.00   195.08000     Pt( 1.00)
        H2             1.00     1.00794     H ( 1.00)

     No symmetry found

   Cartesian axes

     site n.     atom                  positions (alat units)
         1           O0  tau(   1) = (   0.0000000   0.0000000   1.5468260  )
         2           O0  tau(   2) = (   0.0000000   0.5024180   1.6454095  )
         3           Pt1 tau(   3) = (   0.2500000   0.5024180   1.8493838  )
         4           Pt1 tau(   4) = (   0.0000000   0.0000000   1.8543868  )
         5           O0  tau(   5) = (   0.2500000   0.8139171   1.8186277  )
         6           O0  tau(   6) = (   0.2500000   0.1909188   1.8819443  )
         7           O0  tau(   7) = (   0.0000000   0.5024180   2.0357657  )
         8           O0  tau(   8) = (   0.0000000   0.0000000   2.1697802  )
         9           Pt1 tau(   9) = (   0.2500000   0.0000000   2.3604269  )
        10           Pt1 tau(  10) = (   0.0000000   0.5024180   2.3623133  )
        11           O0  tau(  11) = (   0.2500000   0.6933368   2.3636666  )
        12           O0  tau(  12) = (   0.2500000   0.3114991   2.3700638  )
        13           O0  tau(  13) = (   0.0000000   0.0000000   2.5468088  )
        14           O0  tau(  14) = (   0.5000000   0.0000000   1.5469490  )
        15           O0  tau(  15) = (   0.5000000   0.5024180   1.6447533  )
        16           Pt1 tau(  16) = (   0.7500000   0.5024180   1.8493838  )
        17           Pt1 tau(  17) = (   0.5000000   0.0000000   1.8541818  )
        18           O0  tau(  18) = (   0.7500000   0.8139171   1.8186688  )
        19           O0  tau(  19) = (   0.7500000   0.1909188   1.8818623  )
        20           O0  tau(  20) = (   0.5000000   0.5024180   2.0427781  )
        21           O0  tau(  21) = (   0.5000000   0.0000000   2.1694521  )
        22           Pt1 tau(  22) = (   0.7500000   0.0000000   2.3604269  )
        23           Pt1 tau(  23) = (   0.5000000   0.5024180   2.3760100  )
        24           O0  tau(  24) = (   0.7500000   0.6933368   2.3637486  )
        25           O0  tau(  25) = (   0.7500000   0.3114991   2.3701048  )
        26           O0  tau(  26) = (   0.5000000   0.0000000   2.5463577  )
        27           H2  tau(  27) = (  -0.0000200   0.6419997   1.5788123  )
        28           H2  tau(  28) = (   0.4999400   0.6406935   1.5767619  )
        29           H2  tau(  29) = (   0.1436200   0.0328481   1.5053668  )
        30           H2  tau(  30) = (   0.6434300   0.0331897   1.5052848  )
        31           O0  tau(  31) = (   0.4999900   0.5049904   2.6576127  )

     number of k points=    10  Methfessel-Paxton smearing, width (Ry)=  0.0100
                       cart. coord. in units 2pi/alat
        k(    1) = (   0.0000000   0.0000000   0.0000000), wk =   0.1250000
        k(    2) = (   0.0000000   0.2487968   0.0000000), wk =   0.2500000
        k(    3) = (   0.0000000  -0.4975937   0.0000000), wk =   0.1250000
        k(    4) = (   0.2500000   0.0000000   0.0000000), wk =   0.2500000
        k(    5) = (   0.2500000   0.2487968   0.0000000), wk =   0.2500000
        k(    6) = (   0.2500000  -0.4975937   0.0000000), wk =   0.2500000
        k(    7) = (  -0.5000000   0.0000000   0.0000000), wk =   0.1250000
        k(    8) = (  -0.5000000   0.2487968   0.0000000), wk =   0.2500000
        k(    9) = (  -0.5000000  -0.4975937   0.0000000), wk =   0.1250000
        k(   10) = (  -0.2500000   0.2487968   0.0000000), wk =   0.2500000

     Largest allocated arrays     est. size (Mb)     dimensions
     Largest temporary arrays     est. size (Mb)     dimensions

     Check: negative/imaginary core charge=   -0.000003    0.000000

     Initial potential from superposition of free atoms
     Check: negative starting charge=   -1.537950

     starting charge  241.99985, renormalised to  246.00000

     negative rho (up, down):  0.156E+01 0.000E+00
     Starting wfc are  176 randomized atomic wfcs

     Self-consistent Calculation

     iteration #  1     ecut=    40.00 Ry     beta=0.30
     Davidson diagonalization with overlap
     ethr =  1.00E-02,  avg # of iterations =  5.3

     negative rho (up, down):  0.154E+01 0.000E+00

     total energy              =   -2272.56961395 Ry
     Harris-Foulkes estimate   =   -2287.20512407 Ry
     estimated scf accuracy    <      31.04831045 Ry

[...]

     End of self-consistent calculation

          k = 0.0000 0.0000 0.0000 ( 32157 PWs)   bands (ev):

   -56.6091 -56.6062 -56.3589 -56.1303 -56.0754 -56.0335 -56.0303 -55.9466
   -55.9407 -55.8946 -55.8864 -55.7574 -55.7515 -55.7415 -55.7335 -55.7169
   -55.7112 -55.6459 -55.6405 -55.5975 -55.5910 -55.3207 -55.0089 -54.6903
   -22.1897 -21.8033 -21.5555 -21.3202 -20.6894 -20.6430 -20.6223 -20.4451
   -20.3948 -20.3816 -20.3401 -20.2356 -20.0687 -20.0202 -20.0136 -19.9264
   -19.1335 -18.9849 -18.8627 -10.7928 -10.6404 -10.2114  -9.5910  -9.4079
    -9.3718  -9.3163  -9.2965  -9.2378  -9.1179  -8.9743  -8.9729  -8.9389
    -8.8980  -8.8583  -8.5347  -8.4879  -8.4617  -7.9814  -7.9277  -7.8427
    -7.7600  -7.6782  -7.6427  -7.1321  -7.1205  -7.0230  -6.6206  -6.3842
    -6.3143  -6.2097  -6.1125  -6.0288  -5.9901  -5.9658  -5.9267  -5.7659
    -5.6408  -5.5883  -5.5363  -5.4026  -5.3493  -5.2414  -5.2112  -5.1313
    -5.1206  -5.0142  -5.0029  -4.9365  -4.8636  -4.8471  -4.8095  -4.7121
    -4.7015  -4.6221  -4.5306  -4.5058  -4.4790  -4.3774  -4.3070  -4.2713
    -4.1398  -4.0456  -3.8005  -3.5794  -3.4748  -3.0747  -2.9912  -2.9858
    -2.8686  -2.8421  -2.6097  -2.5154  -2.3992  -2.2576  -2.1441  -2.0465
    -1.8538  -1.7438  -1.7102  -1.4934  -1.3612  -1.0368  -0.6527  -0.6258
    -0.6213  -0.6014  -0.2219   0.0643   0.3484   0.7907   0.9664   1.2218
     1.2341   1.3849   1.7270   1.9761   2.2771   3.3431   4.1885   4.6806
     4.8918   5.5035   5.6021   5.6756   5.8339   6.4011   6.4332   6.5202
     6.7807   6.7925   6.8173   7.0240   7.2676   7.2976   7.3609   7.4901
     7.5393   7.6347   7.6959   7.7266   7.8712   7.9541   8.1979   8.2178
     8.2377   8.2460   8.2561   8.3667   8.4921   8.5715   8.5837   8.7589
     8.8596   8.9299   8.9471   9.0884   9.1790   9.2475   9.4518   9.5097
     9.5786   9.8102   9.8209   9.8960   9.9322   9.9944  10.1230  10.2305
    10.3878  10.4598  10.6784  10.7784  10.7838  10.8074  10.8624  10.8658
    10.9672  11.0722  11.1777  11.2951  11.3215  11.4659  11.4949  11.5678
    11.6426  11.7107  11.7755  11.8620  11.9192  11.9877  12.0629  12.0795
    12.2047  12.2254  12.2659  12.2773  12.3873  12.4849  12.5629  12.5719
    12.6758  12.7181  12.7794  13.0109  13.1451  13.2504  13.2775  13.3942
    13.4029  13.5083  13.5288  13.6760  13.7521  13.8419  13.9526  14.0526
    14.0901  14.1118  14.1912  14.3254  14.3465  14.4116  14.4769  14.5230
    14.5517  14.8093  14.8602  14.9916  15.0962  15.1932  15.3355  15.3974
    15.4335  15.4419  15.4484  15.6012  15.6337  15.7140  15.8112  15.8804
    15.8890  15.9188  15.9985  16.0690  16.0896  16.2513  16.2915  16.3284
    16.3528  16.3798  16.4050  16.4345  16.5805  16.6581  16.6820  16.7386
    16.8063  16.8553  16.9038  17.1007  17.1421  17.2418  17.2960  17.4053
    17.4755  17.6117  17.6537  17.7271  17.7795  17.8744  17.9116  17.9549
    18.0224  18.1332  18.2425  18.3660  18.4056  18.5151  18.5472  18.6205
    18.6247  18.6554  18.6801  18.7414  18.7476  18.8386  18.9266  19.0029
    19.0495  19.0794  19.1019  19.1871  19.3010  19.3065  19.3525  19.3571
    19.4705  19.5309  19.5529  19.6135  19.6900  19.7560  19.8346  19.9698
[...]
     atom   19 type  1   force =    -0.00000980   -0.00222595   -0.00006085
     atom   20 type  1   force =     0.00005249    0.00301223    0.00141026
     atom   21 type  1   force =    -0.00410344   -0.00603187    0.00018768
     atom   22 type  2   force =    -0.00213049    0.00082425   -0.00030066
     atom   23 type  2   force =    -0.00007049   -0.00161687   -0.00445919
     atom   24 type  1   force =     0.00283954    0.00012603   -0.00133958
     atom   25 type  1   force =     0.00426806    0.00049856    0.00066061
     atom   26 type  1   force =    -0.00119096   -0.00047765   -0.00010086
     atom   27 type  3   force =     0.00001956   -0.00017749    0.00162119
     atom   28 type  3   force =     0.00001751    0.00354973    0.00009590
     atom   29 type  3   force =    -0.00042123    0.00020496    0.00016403
     atom   30 type  3   force =    -0.00008553    0.00043470    0.00009609
     atom   31 type  1   force =    -0.00001920    0.00144019    0.00282560

     Total force =     0.009335     Total SCF correction =     0.003750
     SCF correction compared to forces is large: reduce conv_thr to get better values

     BFGS Geometry Optimization

     number of scf cycles    =   1
     number of bfgs steps    =   0

     energy   new            =   -2280.8425959352 Ry

     new trust radius        =       0.0044591949 bohr
     new conv_thr            =       0.0000010000 Ry

ATOMIC_POSITIONS (crystal)
O0       0.000000000   0.000000000   0.377224087    0   0   1
O0       0.000000000   0.500000000   0.401263229    0   0   1
Pt1      0.250000000   0.500000000   0.450994580    0   0   1
Pt1      0.000000000   0.000000000   0.452207255    0   0   1
O0       0.250000000   0.810000000   0.443486302    0   0   1
O0       0.250000000   0.190000000   0.458919123    0   0   1
O0       0.000000000   0.500000000   0.496466446    0   0   1
O0       0.000000000   0.000000000   0.529112908    0   0   1
Pt1      0.250000000   0.000000000   0.575594893    0   0   1
Pt1      0.000000000   0.500000000   0.575991481    0   0   1
O0       0.250000000   0.690000000   0.576362527    0   0   1
O0       0.250000000   0.310000000   0.577962956    0   0   1
O0       0.000000000   0.000000000   0.621050049    0   0   1
O0       0.500000000   0.000000000   0.377237851    0   0   1
O0       0.500000000   0.500000000   0.401002390    0   0   1
Pt1      0.750000000   0.500000000   0.450995502    0   0   1
Pt1      0.500000000   0.000000000   0.452156309    0   0   1
O0       0.750000000   0.810000000   0.443496128    0   0   1
O0       0.750000000   0.190000000   0.458898785    0   0   1
O0       0.500000000   0.500000000   0.498168171    0   0   1
O0       0.500000000   0.000000000   0.529033749    0   0   1
Pt1      0.750000000   0.000000000   0.575593994    0   0   1
Pt1      0.500000000   0.500000000   0.579310925    0   0   1
O0       0.750000000   0.690000000   0.576383241    0   0   1
O0       0.750000000   0.310000000   0.577973196    0   0   1
O0       0.500000000   0.000000000   0.620937985    0   0   1
H2      -0.000018398   0.638895531   0.385032384
H2       0.499941434   0.637899380   0.384501916
H2       0.143585495   0.032706708   0.367093277
H2       0.643422994   0.033065438   0.367071920
O0       0.499988427   0.502677407   0.648126443

     Check: negative starting charge=   -1.537950
     NEW-OLD atomic charge density approx. for the potential

     Check: negative/imaginary core charge=   -0.000003    0.000000
     Check: negative starting charge=   -1.537900

[...]

     Threshold (ethr) on eigenvalues was too large:
     Diagonalizing with lowered threshold

     Davidson diagonalization with overlap
     ethr =  8.53E-08,  avg # of iterations =  1.0

[...]

     energy   old            =   -2280.8425959352 Ry
     energy   new            =   -2280.8426599427 Ry

     CASE: energy  _new < energy  _old

[...]

     Total force =     0.006470     Total SCF correction =     0.000280

[...]

     WARNING: bfgs curvature condition failed, Theta= 0.983
     new trust radius        =       0.0131370455 bohr
     new conv_thr            =       0.0000000602 Ry

[...]

     Total force =     0.002080     Total SCF correction =     0.000232
     SCF correction compared to forces is large: reduce conv_thr to get better values

     number of scf cycles    =  29
     number of bfgs steps    =  28

     energy   old            =   -2280.8501249024 Ry
     energy   new            =   -2280.8501341605 Ry

     CASE: energy  _new < energy  _old

     new trust radius        =       0.0045845871 bohr
     new conv_thr            =       0.0000000100 Ry

ATOMIC_POSITIONS (crystal)
O0       0.000000000   0.000000000   0.377709173    0   0   1
O0       0.000000000   0.500000000   0.401625449    0   0   1
Pt1      0.250000000   0.500000000   0.451244147    0   0   1
Pt1      0.000000000   0.000000000   0.452706608    0   0   1
O0       0.250000000   0.810000000   0.443391109    0   0   1
O0       0.250000000   0.190000000   0.460083005    0   0   1
O0       0.000000000   0.500000000   0.496807561    0   0   1
O0       0.000000000   0.000000000   0.529695898    0   0   1
Pt1      0.250000000   0.000000000   0.576073000    0   0   1
Pt1      0.000000000   0.500000000   0.575345416    0   0   1
O0       0.250000000   0.690000000   0.566122817    0   0   1
O0       0.250000000   0.310000000   0.585766889    0   0   1
O0       0.000000000   0.000000000   0.621379975    0   0   1
O0       0.500000000   0.000000000   0.377787232    0   0   1
O0       0.500000000   0.500000000   0.400881364    0   0   1
Pt1      0.750000000   0.500000000   0.451248803    0   0   1
Pt1      0.500000000   0.000000000   0.452717098    0   0   1
O0       0.750000000   0.810000000   0.443429651    0   0   1
O0       0.750000000   0.190000000   0.460066965    0   0   1
O0       0.500000000   0.500000000   0.498224847    0   0   1
O0       0.500000000   0.000000000   0.529563622    0   0   1
Pt1      0.750000000   0.000000000   0.576075314    0   0   1
Pt1      0.500000000   0.500000000   0.577865685    0   0   1
O0       0.750000000   0.690000000   0.566113742    0   0   1
O0       0.750000000   0.310000000   0.585778803    0   0   1
O0       0.500000000   0.000000000   0.621352511    0   0   1
H2       0.000114090   0.639499369   0.385648388
H2       0.500177702   0.640020315   0.385327424
H2       0.142659460   0.036320888   0.367575903
H2       0.641921121   0.038688720   0.367578391
O0       0.500089510   0.572601952   0.644463209

     Check: negative starting charge=   -1.533967
     NEW-OLD atomic charge density approx. for the potential

     Check: negative/imaginary core charge=   -0.000003    0.000000
     Check: negative starting charge=   -1.533954

[...]

     Self-consistent Calculation

[...]

     Threshold (ethr) on eigenvalues was too large:
     Diagonalizing with lowered threshold

     Davidson diagonalization with overlap
     ethr =  6.03E-09,  avg # of iterations =  2.0

[...]

     total energy              =   -2280.85014106 Ry
     Harris-Foulkes estimate   =   -2280.85014106 Ry
     estimated scf accuracy    <       0.00000005 Ry

     iteration # 10     ecut=    40.00 Ry     beta=0.30
     Davidson diagonalization with overlap
     ethr =  2.11E-11,  avg # of iterations =  1.0

     negative rho (up, down):  0.158E+01 0.000E+00

     End of self-consistent calculation

[...]

          k = 0.2500-0.4976 0.0000 ( 32026 PWs)   bands (ev):

[...]

          k =-0.2500 0.2488 0.0000 ( 32025 PWs)   bands (ev):

   -56.4574 -56.3509 -56.2300 -56.0595 -56.0205 -55.9343 -55.9229 -55.9203
   -55.8975 -55.8944 -55.8490 -55.7628 -55.7583 -55.6981 -55.6574 -55.6363
   -55.6313 -55.6105 -55.5865 -55.5818 -55.5710 -55.2568 -55.0025 -54.7047
   -22.1143 -21.8049 -21.2667 -21.0711 -20.7504 -20.6123 -20.6064 -20.4364
   -20.4062 -20.3400 -20.2654 -20.2247 -20.1921 -20.0632 -20.0102 -19.9936
   -19.2474 -19.0412 -18.8389 -10.1964  -9.9503  -9.8926  -9.7510  -9.3728
    -9.3559  -9.2991  -9.0944  -9.0478  -9.0167  -8.9194  -8.8487  -8.7348
    -8.5944  -8.5632  -8.5065  -8.3491  -8.2238  -8.0451  -7.8500  -7.7682
    -7.6805  -7.5592  -7.4308  -7.0551  -6.9912  -6.9183  -6.8667  -6.7500
    -6.7059  -6.6704  -6.5997  -6.4761  -6.4096  -6.3708  -6.3196  -6.1173
    -6.0717  -5.9329  -5.8770  -5.7070  -5.6637  -5.5417  -5.4832  -5.2214
    -5.1427  -5.0604  -4.9652  -4.8943  -4.8085  -4.7253  -4.6082  -4.4075
    -4.3163  -4.2354  -4.1763  -4.0283  -3.9612  -3.8279  -3.7744  -3.6982
    -3.6661  -3.5726  -3.5055  -3.4580  -3.4318  -3.4010  -3.1443  -3.1191
    -2.9454  -2.6880  -2.5712  -2.4261  -2.3429  -2.2677  -2.1855  -2.0727
    -1.9496  -1.8159  -1.7106  -1.6208  -1.4911  -1.1290  -1.0229  -0.6656
    -0.3523  -0.1615   0.1032   0.3819   0.6056   0.7570   0.7915   0.9378
     1.1194   1.3141   1.3469   1.7475   3.0467   3.8052   4.6040   5.0122
     5.0449   5.1213   5.3380   5.6495   6.0484   6.1559   6.1828   6.3073
     6.4396   6.5346   6.6779   6.8448   6.9618   7.0123   7.1003   7.2025
     7.3642   7.4692   7.5376   7.5841   7.6694   7.8606   7.9167   8.0059
     8.1298   8.2250   8.2850   8.4278   8.5435   8.6418   8.6694   8.7412
     8.8344   8.9716   9.1292   9.2909   9.3510   9.4576   9.5249   9.5821
     9.7017   9.8649   9.9977  10.1235  10.2006  10.2619  10.3216  10.3805
    10.5280  10.5819  10.6583  10.7771  10.8123  10.9412  11.0391  11.0747
    11.1721  11.2069  11.3540  11.4459  11.4801  11.6999  11.7177  11.7726
    11.8411  11.9449  11.9779  12.0561  12.1281  12.1973  12.2515  12.3247
    12.3987  12.4513  12.5057  12.5640  12.6336  12.7298  12.8158  12.8646
    12.9157  13.0162  13.1410  13.1636  13.2132  13.4011  13.4898  13.5294
    13.6048  13.6887  13.7537  13.8435  13.8845  13.9471  14.0108  14.1133
    14.1679  14.2524  14.4077  14.4648  14.5310  14.6197  14.7236  14.7929
    14.8596  14.9296  15.0447  15.1974  15.2301  15.3212  15.3965  15.4422
    15.5178  15.5694  15.6133  15.6550  15.6873  15.7533  15.7800  15.8219
    15.8865  15.9921  16.0388  16.0888  16.1388  16.1691  16.1907  16.2038
    16.2533  16.3396  16.3896  16.4040  16.4077  16.4237  16.4577  16.4996
    16.5883  16.7320  16.7973  16.8535  16.9051  16.9176  17.0101  17.0912
    17.1273  17.1806  17.1918  17.2049  17.2465  17.2976  17.3986  17.4584
    17.5011  17.5511  17.5817  17.6171  17.7237  17.7686  17.8805  17.9429
    18.0455  18.0787  18.1245  18.2075  18.2664  18.3623  18.4553  18.4999
    18.5848  18.6128  18.6937  18.7072  18.7993  18.8246  18.8950  19.0097
    19.0284  19.1396  19.1638  19.1957  19.3134  19.3556  19.4167  19.4379
    19.6317  19.7465  19.8161  19.8773  19.9321  19.9443  19.9802  20.0524
    20.1045  20.1887  20.2310  20.2925  20.3493  20.3651  20.4876  20.5632
    20.6356  20.6788  20.7547  20.8229  20.9091  20.9752  21.0116  21.0755
    21.0828  21.2244  21.2690  21.3734  21.4191  21.4712  21.5184  21.5568
    21.6053  21.6558  21.7219  21.7811  21.8199  21.8835  21.9774  22.0900
    22.1169

     the Fermi energy is    -1.6671 ev

!    total energy              =   -2280.85014106 Ry
     Harris-Foulkes estimate   =   -2280.85014106 Ry
     estimated scf accuracy    <          6.8E-09 Ry

     The total energy is the sum of the following terms:

     one-electron contribution =  -23635.91786198 Ry
     hartree contribution      =   11857.92538297 Ry
     xc contribution           =    -572.00315566 Ry
     ewald contribution        =   10069.14575531 Ry
     smearing contrib. (-TS)   =      -0.00026170 Ry

     convergence has been achieved in  10 iterations

     Forces acting on atoms (Ry/au):

     negative rho (up, down):  0.158E+01 0.000E+00
     atom    1 type  1   force =    -0.00854236   -0.00453649    0.00018884
     atom    2 type  1   force =     0.00016112    0.00406419    0.00059004
     atom    3 type  2   force =     0.01369204    0.00690085    0.00001976
     atom    4 type  2   force =     0.01083543    0.00459193    0.00020854
     atom    5 type  1   force =     0.00119542   -0.00490345   -0.00011661
     atom    6 type  1   force =    -0.00025302   -0.00185745   -0.00015795
     atom    7 type  1   force =     0.00009698   -0.00087809   -0.00078900
     atom    8 type  1   force =    -0.00414734    0.00265422    0.00024756
     atom    9 type  2   force =     0.00543955   -0.00448029    0.00012336
     atom   10 type  2   force =    -0.00002563   -0.01658808   -0.00064966
     atom   11 type  1   force =    -0.00632592    0.00179342   -0.00014291
     atom   12 type  1   force =    -0.01014630    0.01273304   -0.00033977
     atom   13 type  1   force =    -0.00113926   -0.00816274    0.00016645
     atom   14 type  1   force =    -0.00898088   -0.00340462    0.00002291
     atom   15 type  1   force =     0.00023459    0.00165314    0.00045894
     atom   16 type  2   force =    -0.01439040    0.00683836    0.00000991
     atom   17 type  2   force =     0.01076215    0.00475340    0.00011222
     atom   18 type  1   force =     0.00121323   -0.00486201   -0.00011965
     atom   19 type  1   force =     0.00012946   -0.00177913   -0.00014762
     atom   20 type  1   force =     0.00009519   -0.00294443   -0.00019226
     atom   21 type  1   force =    -0.00400788    0.00277521    0.00015359
     atom   22 type  2   force =    -0.00161851   -0.00437173    0.00013690
     atom   23 type  2   force =    -0.00025106    0.01106366   -0.00013904
     atom   24 type  1   force =     0.00643420    0.00181587   -0.00016641
     atom   25 type  1   force =     0.01029615    0.01269846   -0.00034179
     atom   26 type  1   force =    -0.00112087   -0.01447748    0.00011530
     atom   27 type  3   force =    -0.00000438   -0.00021787    0.00023509
     atom   28 type  3   force =    -0.00002239    0.00011722   -0.00001251
     atom   29 type  3   force =     0.00011038   -0.00043461    0.00011562
     atom   30 type  3   force =     0.00025991   -0.00070182    0.00012652
     atom   31 type  1   force =     0.00002043    0.00014732    0.00028361

     Total force =     0.001810     Total SCF correction =     0.000177

     bfgs converged in  30 scf cycles and  29 bfgs steps
     (criteria: energy < 0.10E-03, force < 0.10E-02)

     End of BFGS Geometry Optimization

     Final energy   =   -2280.8501410590 Ry
Begin final coordinates

ATOMIC_POSITIONS (crystal)
O0       0.000000000   0.000000000   0.377709173    0   0   1
O0       0.000000000   0.500000000   0.401625449    0   0   1
Pt1      0.250000000   0.500000000   0.451244147    0   0   1
Pt1      0.000000000   0.000000000   0.452706608    0   0   1
O0       0.250000000   0.810000000   0.443391109    0   0   1
O0       0.250000000   0.190000000   0.460083005    0   0   1
O0       0.000000000   0.500000000   0.496807561    0   0   1
O0       0.000000000   0.000000000   0.529695898    0   0   1
Pt1      0.250000000   0.000000000   0.576073000    0   0   1
Pt1      0.000000000   0.500000000   0.575345416    0   0   1
O0       0.250000000   0.690000000   0.566122817    0   0   1
O0       0.250000000   0.310000000   0.585766889    0   0   1
O0       0.000000000   0.000000000   0.621379975    0   0   1
O0       0.500000000   0.000000000   0.377787232    0   0   1
O0       0.500000000   0.500000000   0.400881364    0   0   1
Pt1      0.750000000   0.500000000   0.451248803    0   0   1
Pt1      0.500000000   0.000000000   0.452717098    0   0   1
O0       0.750000000   0.810000000   0.443429651    0   0   1
O0       0.750000000   0.190000000   0.460066965    0   0   1
O0       0.500000000   0.500000000   0.498224847    0   0   1
O0       0.500000000   0.000000000   0.529563622    0   0   1
Pt1      0.750000000   0.000000000   0.576075314    0   0   1
Pt1      0.500000000   0.500000000   0.577865685    0   0   1
O0       0.750000000   0.690000000   0.566113742    0   0   1
O0       0.750000000   0.310000000   0.585778803    0   0   1
O0       0.500000000   0.000000000   0.621352511    0   0   1
H2       0.000114090   0.639499369   0.385648388
H2       0.500177702   0.640020315   0.385327424
H2       0.142659460   0.036320888   0.367575903
H2       0.641921121   0.038688720   0.367578391
O0       0.500089510   0.572601952   0.644463209
End final coordinates

     General routines

     Parallel routines

   This run was terminated on:  20:33: 1  17Apr2014

   JOB DONE.
Running PBS batch system epilogue script
Job id: 334999.audhumbla.fysik.dtu.dk
Username: zhonxu
Groupname: campgst
Jobname: PtO2/Eads-2-layers/O-relax-surf
Sessionid: 30525
Queuename: verylong
Accounting:
This job has allocated the following 16 nodes:
b025 b025 b025 b025 b025 b025 b025 b025 b005 b005 b005 b005 b005 b005 b005 b005
Finished epilogue job 334999.audhumbla.fysik.dtu.dk for zhonxu