     Program PWSCF v.5.0.2 (svn rev. 9656) starts on  9May2014 at  8:19:30

     Current dimensions of program PWSCF are:
     Max number of different atomic species (ntypx) = 10
     Max number of k-points (npk) =  40000
     Max angular momentum in pseudopotentials (lmaxx) =  3
     Reading input from pwscf.in
Warning: card &CELL ignored
Warning: card / ignored

     Subspace diagonalization in iterative solution of the eigenvalue problem:
     a serial algorithm will be used

     bravais-lattice index     =            0
     lattice parameter (alat)  =      10.1289  a.u.
     unit-cell volume          =    6836.7721 (a.u.)^3
     number of atoms/cell      =           30
     number of atomic types    =            3
     number of electrons       =       232.00
     number of Kohn-Sham states=          348
     kinetic-energy cutoff     =      40.0000  Ry
     charge density cutoff     =     500.0000  Ry
     convergence threshold     =      1.0E-06
     mixing beta               =       0.7000
     number of iterations used =            8  plain     mixing
     Exchange-correlation      = SLA  PW   PBE  PBE ( 1 4 3 4 0)
     EXX-fraction              =        0.00
     nstep                     =           50

     celldm(1)=  10.128932  celldm(2)=   0.000000  celldm(3)=   0.000000
     celldm(4)=   0.000000  celldm(5)=   0.000000  celldm(6)=   0.000000

     crystal axes: (cart. coord. in units of alat)
               a(1) = (   1.000000   0.000000   0.000000 )
               a(2) = (   0.000000   1.306037   0.000000 )
               a(3) = (   0.000000   0.000000   5.037380 )

     reciprocal axes: (cart. coord. in units 2 pi/alat)
               b(1) = (  1.000000  0.000000  0.000000 )
               b(2) = (  0.000000  0.765675  0.000000 )
               b(3) = (  0.000000  0.000000  0.198516 )

     PseudoPot. # 1 for O  read from file:
     /home/camp/zhonxu/pseudo/o_pbe_v1.01.uspp.F.UPF
     MD5 check sum: 2bcb18d16ea4b960afae9ec6d52f22d2
     Pseudo is Ultrasoft + core correction, Zval =  6.0
     Generated by new atomic code, or converted to UPF format
     Using radial grid of  737 points,  5 beta functions with:
                l(1) =   0
                l(2) =   0
                l(3) =   1
                l(4) =   1
                l(5) =   2
     Q(r) pseudized with  8 coefficients,  rinner =    0.900   0.900   0.900
                                                       0.900   0.900

     PseudoPot. # 2 for Re read from file:
     /home/camp/zhonxu/pseudo/re_pbe_v1.uspp.F.UPF
     MD5 check sum: 6f5a5dcaf9c96c20d0ffdde0de57afc6
     Pseudo is Ultrasoft + core correction, Zval = 15.0
     Generated by new atomic code, or converted to UPF format
     Using radial grid of  981 points,  8 beta functions with:
                l(1) =   0
                l(2) =   0
                l(3) =   1
                l(4) =   1
                l(5) =   2
                l(6) =   2
                l(7) =   3
                l(8) =   3
     Q(r) pseudized with  8 coefficients,  rinner =    1.000   1.000   1.000
                                                       1.000   1.000   1.000
                                                       1.000

     PseudoPot. # 3 for H  read from file:
     /home/camp/zhonxu/pseudo/h_pbe_v1.uspp.F.UPF
     MD5 check sum: 3408e3ff4ec8b0a4e358431e7e038a48
     Pseudo is Ultrasoft, Zval =  1.0
     Generated by new atomic code, or converted to UPF format
     Using radial grid of  615 points,  2 beta functions with:
                l(1) =   0
                l(2) =   0
     Q(r) pseudized with  8 coefficients,  rinner =    0.700

     atomic species   valence    mass     pseudopotential
        O0             6.00    15.99940     O ( 1.00)
        Re1           15.00   186.20700     Re( 1.00)
        H2             1.00     1.00794     H ( 1.00)

     Simplified LDA+U calculation (l_max = 2) with parameters (eV):
     atomic species    L          U    alpha       J0     beta
        Re1            2     7.0000   0.0000   0.0000   0.0000

     No symmetry found

   Cartesian axes

     site n.     atom                  positions (alat units)
         1           O0  tau(   1) = (   0.0000000   0.0000000   1.8688176  )
         2           O0  tau(   2) = (   0.0000000   0.6530184   1.9243296  )
         3           Re1 tau(   3) = (   0.2500000   0.6530184   2.2228951  )
         4           Re1 tau(   4) = (   0.0000000   0.0000000   2.2352367  )
         5           O0  tau(   5) = (   0.2500000   1.0187087   2.2249100  )
         6           O0  tau(   6) = (   0.2500000   0.2873281   2.2250611  )
         7           O0  tau(   7) = (   0.0000000   0.6530184   2.5071041  )
         8           O0  tau(   8) = (   0.0000000   0.0000000   2.5966183  )
         9           Re1 tau(   9) = (   0.2500000   0.0000000   2.8989619  )
        10           Re1 tau(  10) = (   0.0000000   0.6530184   2.8608793  )
        11           O0  tau(  11) = (   0.2500000   0.9403465   2.8908013  )
        12           O0  tau(  12) = (   0.2500000   0.3656903   2.8907005  )
        13           O0  tau(  13) = (   0.0000000   0.0000000   3.1620138  )
        14           O0  tau(  14) = (   0.5000000   0.0000000   1.8688176  )
        15           O0  tau(  15) = (   0.5000000   0.6530184   1.9243296  )
        16           Re1 tau(  16) = (   0.7500000   0.6530184   2.2228951  )
        17           Re1 tau(  17) = (   0.5000000   0.0000000   2.2352367  )
        18           O0  tau(  18) = (   0.7500000   1.0187087   2.2249604  )
        19           O0  tau(  19) = (   0.7500000   0.2873281   2.2250611  )
        20           O0  tau(  20) = (   0.5000000   0.6530184   2.5071041  )
        21           O0  tau(  21) = (   0.5000000   0.0000000   2.5966183  )
        22           Re1 tau(  22) = (   0.7500000   0.0000000   2.8989619  )
        23           Re1 tau(  23) = (   0.5000000   0.6530184   2.8609296  )
        24           O0  tau(  24) = (   0.7500000   0.9403465   2.8908013  )
        25           O0  tau(  25) = (   0.7500000   0.3656903   2.8907005  )
        26           O0  tau(  26) = (   0.5000000   0.0000000   3.1620138  )
        27           H2  tau(  27) = (  -0.0003800   0.8172395   1.8403061  )
        28           H2  tau(  28) = (   0.4996200   0.8172395   1.8403061  )
        29           H2  tau(  29) = (   0.1698700   0.0284977   1.7974380  )
        30           H2  tau(  30) = (   0.6698800   0.0284977   1.7974380  )

     number of k points=    10  Methfessel-Paxton smearing, width (Ry)=  0.0100
                       cart. coord. in units 2pi/alat
        k(    1) = (   0.0000000   0.0000000   0.0000000), wk =   0.1250000
        k(    2) = (   0.0000000   0.1914188   0.0000000), wk =   0.2500000
        k(    3) = (   0.0000000  -0.3828376   0.0000000), wk =   0.1250000
        k(    4) = (   0.2500000   0.0000000   0.0000000), wk =   0.2500000
        k(    5) = (   0.2500000   0.1914188   0.0000000), wk =   0.2500000
        k(    6) = (   0.2500000  -0.3828376   0.0000000), wk =   0.2500000
        k(    7) = (  -0.5000000   0.0000000   0.0000000), wk =   0.1250000
        k(    8) = (  -0.5000000   0.1914188   0.0000000), wk =   0.2500000
        k(    9) = (  -0.5000000  -0.3828376   0.0000000), wk =   0.1250000
        k(   10) = (  -0.2500000   0.1914188   0.0000000), wk =   0.2500000

     Largest allocated arrays     est. size (Mb)     dimensions
     Largest temporary arrays     est. size (Mb)     dimensions

     Check: negative/imaginary core charge=   -0.000003    0.000000

     Initial potential from superposition of free atoms
     Check: negative starting charge=   -0.237311

     starting charge  227.99958, renormalised to  232.00000

     negative rho (up, down):  0.241E+00 0.000E+00
     Number of +U iterations with fixed ns =  0
     Starting occupations:
 --- enter write_ns ---
 LDA+U parameters:
U( 2)     =  7.00000000
alpha( 2) =  0.00000000
atom    3   Tr[ns(na)] =   5.00000
    eigenvalues:
  0.500  0.500  0.500  0.500  0.500
    eigenvectors:
  1.000  0.000  0.000  0.000  0.000
  0.000  1.000  0.000  0.000  0.000
  0.000  0.000  1.000  0.000  0.000
  0.000  0.000  0.000  1.000  0.000
  0.000  0.000  0.000  0.000  1.000
    occupations:
  0.500  0.000  0.000  0.000  0.000
  0.000  0.500  0.000  0.000  0.000
  0.000  0.000  0.500  0.000  0.000
  0.000  0.000  0.000  0.500  0.000
  0.000  0.000  0.000  0.000  0.500
atom    4   Tr[ns(na)] =   5.00000
    eigenvalues:
  0.500  0.500  0.500  0.500  0.500
    eigenvectors:
  1.000  0.000  0.000  0.000  0.000
  0.000  1.000  0.000  0.000  0.000
  0.000  0.000  1.000  0.000  0.000
  0.000  0.000  0.000  1.000  0.000
  0.000  0.000  0.000  0.000  1.000
    occupations:
  0.500  0.000  0.000  0.000  0.000
  0.000  0.500  0.000  0.000  0.000
  0.000  0.000  0.500  0.000  0.000
  0.000  0.000  0.000  0.500  0.000
  0.000  0.000  0.000  0.000  0.500
atom    9   Tr[ns(na)] =   5.00000
    eigenvalues:
  0.500  0.500  0.500  0.500  0.500
    eigenvectors:
  1.000  0.000  0.000  0.000  0.000
  0.000  1.000  0.000  0.000  0.000
  0.000  0.000  1.000  0.000  0.000
  0.000  0.000  0.000  1.000  0.000
  0.000  0.000  0.000  0.000  1.000
    occupations:
  0.500  0.000  0.000  0.000  0.000
  0.000  0.500  0.000  0.000  0.000
  0.000  0.000  0.500  0.000  0.000
  0.000  0.000  0.000  0.500  0.000
  0.000  0.000  0.000  0.000  0.500
atom   10   Tr[ns(na)] =   5.00000
    eigenvalues:
  0.500  0.500  0.500  0.500  0.500
    eigenvectors:
  1.000  0.000  0.000  0.000  0.000
  0.000  1.000  0.000  0.000  0.000
  0.000  0.000  1.000  0.000  0.000
  0.000  0.000  0.000  1.000  0.000
  0.000  0.000  0.000  0.000  1.000
    occupations:
  0.500  0.000  0.000  0.000  0.000
  0.000  0.500  0.000  0.000  0.000
  0.000  0.000  0.500  0.000  0.000
  0.000  0.000  0.000  0.500  0.000
  0.000  0.000  0.000  0.000  0.500
atom   16   Tr[ns(na)] =   5.00000
    eigenvalues:
  0.500  0.500  0.500  0.500  0.500
    eigenvectors:
  1.000  0.000  0.000  0.000  0.000
  0.000  1.000  0.000  0.000  0.000
  0.000  0.000  1.000  0.000  0.000
  0.000  0.000  0.000  1.000  0.000
  0.000  0.000  0.000  0.000  1.000
    occupations:
  0.500  0.000  0.000  0.000  0.000
  0.000  0.500  0.000  0.000  0.000
  0.000  0.000  0.500  0.000  0.000
  0.000  0.000  0.000  0.500  0.000
  0.000  0.000  0.000  0.000  0.500
atom   17   Tr[ns(na)] =   5.00000
    eigenvalues:
  0.500  0.500  0.500  0.500  0.500
    eigenvectors:
  1.000  0.000  0.000  0.000  0.000
  0.000  1.000  0.000  0.000  0.000
  0.000  0.000  1.000  0.000  0.000
  0.000  0.000  0.000  1.000  0.000
  0.000  0.000  0.000  0.000  1.000
    occupations:
  0.500  0.000  0.000  0.000  0.000
  0.000  0.500  0.000  0.000  0.000
  0.000  0.000  0.500  0.000  0.000
  0.000  0.000  0.000  0.500  0.000
  0.000  0.000  0.000  0.000  0.500
atom   22   Tr[ns(na)] =   5.00000
    eigenvalues:
  0.500  0.500  0.500  0.500  0.500
    eigenvectors:
  1.000  0.000  0.000  0.000  0.000
  0.000  1.000  0.000  0.000  0.000
  0.000  0.000  1.000  0.000  0.000
  0.000  0.000  0.000  1.000  0.000
  0.000  0.000  0.000  0.000  1.000
    occupations:
[...]
  0.509  0.572  0.613  0.800  0.804
    eigenvectors:
  0.000  0.004  0.992  0.003  0.001
  0.029  0.000  0.000  0.031  0.940
  0.971  0.000  0.000  0.001  0.028
  0.000  0.000  0.003  0.965  0.032
  0.000  0.996  0.004  0.000  0.000
    occupations:
  0.613  0.002  0.001 -0.011  0.003
  0.002  0.795  0.050 -0.001 -0.001
  0.001  0.050  0.518  0.001  0.000
 -0.011 -0.001  0.001  0.799 -0.000
  0.003 -0.001  0.000 -0.000  0.573
atom    9   Tr[ns(na)] =   6.60821
    eigenvalues:
  0.445  0.581  0.583  0.821  0.873
    eigenvectors:
  0.000  0.229  0.001  0.770  0.000
  0.000  0.004  0.995  0.000  0.000
  1.000  0.000  0.000  0.000  0.000
  0.000  0.766  0.003  0.230  0.000
  0.000  0.000  0.000  0.000  1.000
    occupations:
  0.766  0.000 -0.003 -0.101  0.000
  0.000  0.583 -0.002  0.000  0.001
 -0.003 -0.002  0.445  0.002  0.002
 -0.101  0.000  0.002  0.636  0.001
  0.000  0.001  0.002  0.001  0.873
atom   10   Tr[ns(na)] =   6.46250
    eigenvalues:
  0.430  0.472  0.559  0.802  0.969
    eigenvectors:
  0.008  0.990  0.000  0.002  0.000
  0.000  0.000  0.000  0.000  1.000
  0.990  0.008  0.002  0.000  0.000
  0.000  0.002  0.000  0.998  0.000
  0.002  0.000  0.998  0.000  0.000
    occupations:
  0.472 -0.001 -0.004  0.015 -0.000
 -0.001  0.969 -0.002  0.000  0.000
 -0.004 -0.002  0.431  0.000  0.006
  0.015  0.000  0.000  0.801  0.000
 -0.000  0.000  0.006  0.000  0.559
atom   16   Tr[ns(na)] =   6.57316
    eigenvalues:
  0.446  0.535  0.574  0.788  0.944
    eigenvectors:
  0.008  0.000  0.278  0.713  0.000
  0.000  0.999  0.000  0.000  0.001
  0.991  0.000  0.001  0.008  0.000
  0.001  0.000  0.721  0.279  0.000
  0.000  0.001  0.000  0.000  0.999
    occupations:
  0.725  0.000  0.028 -0.095 -0.000
  0.000  0.535 -0.000 -0.000 -0.011
  0.028 -0.000  0.449 -0.013  0.002
 -0.095 -0.000 -0.013  0.633 -0.000
 -0.000 -0.011  0.002 -0.000  0.944
atom   17   Tr[ns(na)] =   6.59724
    eigenvalues:
  0.510  0.572  0.613  0.800  0.803
    eigenvectors:
  0.000  0.003  0.993  0.003  0.000
  0.022  0.000  0.000  0.010  0.968
  0.978  0.000  0.000  0.000  0.022
  0.000  0.000  0.003  0.987  0.010
  0.000  0.997  0.003  0.000  0.000
    occupations:
  0.613  0.001 -0.001 -0.011  0.002
  0.001  0.797  0.043 -0.001 -0.001
 -0.001  0.043  0.516  0.001  0.000
 -0.011 -0.001  0.001  0.800 -0.000
  0.002 -0.001  0.000 -0.000  0.573
atom   22   Tr[ns(na)] =   6.57814
    eigenvalues:
  0.505  0.584  0.622  0.696  0.882
    eigenvectors:
  0.000  0.103  0.000  0.896  0.001
  0.000  0.000  1.000  0.000  0.000
  1.000  0.000  0.000  0.000  0.000
  0.000  0.897  0.000  0.103  0.000
  0.000  0.000  0.000  0.001  0.999
    occupations:
  0.684  0.000  0.000 -0.034  0.004
  0.000  0.622 -0.000  0.000 -0.000
  0.000 -0.000  0.505 -0.000 -0.000
 -0.034  0.000 -0.000  0.596 -0.003
  0.004 -0.000 -0.000 -0.003  0.882
atom   23   Tr[ns(na)] =   6.46244
    eigenvalues:
  0.430  0.472  0.559  0.802  0.969
    eigenvectors:
  0.008  0.990  0.000  0.002  0.000
  0.000  0.000  0.000  0.000  1.000
  0.990  0.008  0.002  0.000  0.000
  0.000  0.002  0.000  0.998  0.000
  0.002  0.000  0.998  0.000  0.000
    occupations:
  0.472  0.001 -0.004  0.015 -0.000
  0.001  0.969 -0.000 -0.000  0.000
 -0.004 -0.000  0.430  0.000 -0.006
  0.015 -0.000  0.000  0.801 -0.000
 -0.000  0.000 -0.006 -0.000  0.559
N of occupied +U levels =  52.4812033
 --- exit write_ns ---

     Threshold (ethr) on eigenvalues was too large:
     Diagonalizing with lowered threshold

     Davidson diagonalization with overlap
     ethr =  8.57E-09,  avg # of iterations =  2.0

[...]

     total energy              =   -2138.65176850 Ry
     Harris-Foulkes estimate   =   -2138.65176850 Ry
     estimated scf accuracy    <       0.00000002 Ry

     iteration # 11     ecut=    40.00 Ry     beta=0.70
     Davidson diagonalization with overlap
     ethr =  7.16E-12,  avg # of iterations =  1.0

     negative rho (up, down):  0.233E+00 0.000E+00

     End of self-consistent calculation
 --- enter write_ns ---
 LDA+U parameters:
U( 2)     =  7.00000000
alpha( 2) =  0.00000000
atom    3   Tr[ns(na)] =   6.60320
    eigenvalues:
  0.485  0.532  0.570  0.777  0.938
    eigenvectors:
  0.009  0.000  0.282  0.709  0.000
  0.000  0.999  0.000  0.000  0.001
  0.990  0.000  0.002  0.008  0.000
  0.000  0.000  0.716  0.283  0.000
  0.000  0.001  0.000  0.000  0.999
    occupations:
  0.716 -0.000  0.024 -0.093 -0.000
 -0.000  0.532  0.000 -0.000 -0.010
  0.024  0.000  0.487 -0.011  0.002
 -0.093 -0.000 -0.011  0.628 -0.000
 -0.000 -0.010  0.002 -0.000  0.938
atom    4   Tr[ns(na)] =   6.59783
    eigenvalues:
  0.510  0.572  0.613  0.800  0.804
    eigenvectors:
  0.000  0.004  0.992  0.003  0.000
  0.029  0.000  0.000  0.026  0.944
  0.971  0.000  0.000  0.001  0.028
  0.000  0.000  0.003  0.969  0.027
  0.000  0.996  0.004  0.000  0.000
    occupations:
  0.613  0.002  0.001 -0.011  0.003
  0.002  0.796  0.050 -0.001 -0.001
  0.001  0.050  0.518  0.001  0.000
 -0.011 -0.001  0.001  0.799 -0.000
  0.003 -0.001  0.000 -0.000  0.573
atom    9   Tr[ns(na)] =   6.60805
    eigenvalues:
  0.446  0.581  0.583  0.821  0.873
    eigenvectors:
  0.000  0.229  0.001  0.770  0.000
  0.000  0.004  0.995  0.000  0.000
  1.000  0.000  0.000  0.000  0.000
  0.000  0.766  0.003  0.230  0.000
  0.000  0.000  0.000  0.000  1.000
    occupations:
  0.766  0.000 -0.003 -0.101  0.000
  0.000  0.583 -0.002  0.000  0.001
 -0.003 -0.002  0.446  0.002  0.002
 -0.101  0.000  0.002  0.636  0.001
  0.000  0.001  0.002  0.001  0.873
atom   10   Tr[ns(na)] =   6.46161
    eigenvalues:
  0.430  0.471  0.559  0.802  0.969
    eigenvectors:
  0.008  0.990  0.000  0.002  0.000
  0.000  0.000  0.000  0.000  1.000
  0.990  0.008  0.002  0.000  0.000
  0.000  0.002  0.000  0.998  0.000
  0.002  0.000  0.998  0.000  0.000
    occupations:
  0.472 -0.001 -0.004  0.015 -0.000
 -0.001  0.969 -0.002  0.000  0.000
 -0.004 -0.002  0.430  0.000  0.006
  0.015  0.000  0.000  0.801  0.000
 -0.000  0.000  0.006  0.000  0.558
atom   16   Tr[ns(na)] =   6.57348
    eigenvalues:
  0.446  0.535  0.574  0.788  0.944
    eigenvectors:
  0.008  0.000  0.278  0.713  0.000
  0.000  0.999  0.000  0.000  0.001
  0.991  0.000  0.001  0.008  0.000
  0.001  0.000  0.721  0.279  0.000
  0.000  0.001  0.000  0.000  0.999
    occupations:
  0.725  0.000  0.028 -0.095 -0.000
  0.000  0.535 -0.000 -0.000 -0.011
  0.028 -0.000  0.449 -0.013  0.002
 -0.095 -0.000 -0.013  0.633 -0.000
 -0.000 -0.011  0.002 -0.000  0.944
atom   17   Tr[ns(na)] =   6.59841
    eigenvalues:
  0.510  0.573  0.613  0.800  0.804
    eigenvectors:
  0.000  0.003  0.993  0.003  0.000
  0.022  0.000  0.000  0.008  0.970
  0.978  0.000  0.000  0.000  0.022
  0.000  0.000  0.003  0.988  0.009
  0.000  0.997  0.003  0.000  0.000
    occupations:
  0.613  0.001 -0.001 -0.011  0.002
  0.001  0.797  0.043 -0.001 -0.001
 -0.001  0.043  0.517  0.001  0.000
 -0.011 -0.001  0.001  0.800 -0.000
  0.002 -0.001  0.000 -0.000  0.573
atom   22   Tr[ns(na)] =   6.57793
    eigenvalues:
  0.505  0.584  0.622  0.696  0.882
    eigenvectors:
  0.000  0.103  0.000  0.896  0.001
  0.000  0.000  1.000  0.000  0.000
  1.000  0.000  0.000  0.000  0.000
  0.000  0.897  0.000  0.103  0.000
  0.000  0.000  0.000  0.001  0.999
    occupations:
  0.684  0.000  0.000 -0.034  0.004
  0.000  0.622 -0.000  0.000 -0.000
  0.000 -0.000  0.505 -0.000 -0.000
 -0.034  0.000 -0.000  0.596 -0.003
  0.004 -0.000 -0.000 -0.003  0.882
atom   23   Tr[ns(na)] =   6.46154
    eigenvalues:
  0.430  0.471  0.559  0.802  0.969
    eigenvectors:
  0.008  0.990  0.000  0.002  0.000
  0.000  0.000  0.000  0.000  1.000
  0.990  0.008  0.002  0.000  0.000
  0.000  0.002  0.000  0.998  0.000
  0.002  0.000  0.998  0.000  0.000
    occupations:
  0.472  0.001 -0.004  0.015 -0.000
  0.001  0.969 -0.000 -0.000  0.000
 -0.004 -0.000  0.430  0.000 -0.006
  0.015 -0.000  0.000  0.801 -0.000
 -0.000  0.000 -0.006 -0.000  0.559
N of occupied +U levels =  52.4820568
 --- exit write_ns ---

[...]

          k = 0.2500-0.3828 0.0000 ( 29202 PWs)   bands (ev):

[...]

          k =-0.2500 0.1914 0.0000 ( 29229 PWs)   bands (ev):

   -80.5664 -80.5471 -80.5289 -80.5110 -80.4217 -80.2650 -80.1331 -80.0317
   -42.8005 -42.7009 -42.6939 -42.6572 -42.6270 -42.6189 -42.6133 -42.5747
   -42.5471 -42.5048 -42.4516 -42.4473 -42.3309 -42.2969 -42.2856 -42.1768
   -42.1512 -42.1339 -42.0759 -42.0192 -41.8903 -41.6683 -41.4635 -41.4449
   -20.8762 -20.4842 -20.2845 -20.0899 -20.0067 -19.9055 -19.7810 -19.7744
   -19.6243 -19.5363 -19.3555 -19.2488 -19.1367 -19.0420 -18.9241 -18.8350
   -18.1874 -18.0007  -9.4999  -9.2383  -9.1988  -8.9681  -8.9113  -8.7935
    -8.7142  -8.2230  -8.1068  -8.0334  -7.9402  -7.8433  -7.6633  -7.4279
    -7.1350  -7.0404  -6.8777  -6.7325  -6.6847  -6.6068  -6.5151  -6.4092
    -6.2076  -5.8442  -5.6954  -5.6508  -5.6034  -5.4916  -5.3693  -5.3224
    -5.2304  -4.9876  -4.9316  -4.8381  -4.8056  -4.7987  -4.7106  -4.6110
    -4.4972  -4.4147  -4.1793  -4.0695  -3.9758  -3.8792  -3.7627  -3.6418
    -3.5829  -3.3824  -3.2349  -3.1228  -3.0915  -2.8814  -2.7599  -2.6573
    -2.5486  -2.3614  -2.3194  -1.8741  -1.5856  -1.1880  -0.9724  -0.9160
    -0.3644  -0.3304   0.0102   0.3360   0.7116   0.8082   1.0475   1.3275
     1.3925   1.4603   1.5125   1.5800   1.6657   1.8142   1.9824   2.1050
     2.3083   2.8381   3.6889   3.8515   3.9693   4.0618   4.1884   4.4610
     4.6341   4.7856   4.8400   4.9595   4.9851   5.1126   5.2439   5.4431
     5.8305   5.9944   6.1148   6.2379   6.3118   6.5753   6.6845   6.8008
     6.8258   6.9696   7.2589   7.3908   7.4339   7.6555   7.7688   7.9754
     8.1363   8.2845   8.4022   8.5051   8.6059   8.6997   8.8707   8.8881
     9.1447   9.3223   9.3926   9.4458   9.6066   9.7025   9.7531   9.8110
     9.8283   9.9680   9.9950  10.1798  10.2026  10.3400  10.3798  10.5213
    10.5453  10.6996  10.7765  10.8262  10.9172  11.0849  11.1022  11.2752
    11.3979  11.4231  11.5221  11.7308  11.7923  11.9180  12.0293  12.0900
    12.2868  12.4783  12.4821  12.5529  12.6651  12.7162  12.7250  12.8482
    12.8965  12.9553  13.0787  13.1949  13.2736  13.3171  13.5252  13.6018
    13.6353  13.6995  13.8053  13.8229  13.9232  13.9311  13.9716  14.0684
    14.1715  14.2495  14.2923  14.3769  14.4096  14.5377  14.5618  14.6504
    14.7673  14.7907  14.8380  14.8885  14.8991  14.9907  15.0591  15.1082
    15.1504  15.2551  15.3359  15.4016  15.5069  15.5723  15.6818  15.7230
    15.9162  15.9506  16.1142  16.1455  16.1848  16.2194  16.3159  16.4254
    16.5101  16.5899  16.6638  16.6979  16.7918  16.8489  16.9271  17.0079
    17.1053  17.1252  17.2194  17.3222  17.3656  17.5222  17.5357  17.6398
    17.7143  17.7444  17.8085  17.9259  17.9877  18.0589  18.1721  18.1899
    18.2467  18.3244  18.3560  18.4265  18.5591  18.6310  18.6820  18.6968
    18.7824  18.8890  18.9101  18.9607  19.0971  19.1450  19.2163  19.3155
    19.4572  19.5356  19.5955  19.6566  19.8144  19.9564  19.9840  20.0049
    20.1248  20.2107  20.2408  20.3267  20.4954  20.5207  20.5437  20.6323
    20.6859  20.7771  20.8134  20.8615  20.8724  20.9488  20.9912  21.0256
    21.1438  21.1828  21.2737  21.3079  21.4396  21.4667  21.5225  21.5857
    21.6728  21.6979  21.7546  21.8554  21.9287  21.9694  22.1258  22.1582
    22.2239  22.2475  22.2789  22.3295  22.3401  22.4712  22.4939  22.5416
    22.5476  22.5939  22.6322  22.7382

     the Fermi energy is     0.3974 ev

!    total energy              =   -2138.65176850 Ry
     Harris-Foulkes estimate   =   -2138.65176850 Ry
     estimated scf accuracy    <          8.3E-09 Ry

     The total energy is the sum of the following terms:

     one-electron contribution =  -23575.59297288 Ry
     hartree contribution      =   11805.85441419 Ry
     xc contribution           =    -587.53184743 Ry
     ewald contribution        =   10214.53992560 Ry
     Hubbard energy            =       4.07908755 Ry
     smearing contrib. (-TS)   =      -0.00037553 Ry

     convergence has been achieved in  11 iterations

     Forces acting on atoms (Ry/au):

     negative rho (up, down):  0.233E+00 0.000E+00
     atom    1 type  1   force =    -0.00523608   -0.00672581    0.00007667
     atom    2 type  1   force =     0.00026520    0.00544346   -0.00003770
     atom    3 type  2   force =    -0.00012353   -0.00245069    0.00038742
     atom    4 type  2   force =     0.01298097    0.00793797    0.00071522
     atom    5 type  1   force =     0.00037988    0.01243350   -0.00007285
     atom    6 type  1   force =     0.00100134   -0.01188440   -0.00008570
     atom    7 type  1   force =     0.00211382   -0.00138487   -0.00039967
     atom    8 type  1   force =    -0.01509069   -0.00237790   -0.00024099
     atom    9 type  2   force =    -0.00212878   -0.00064987   -0.00049164
     atom   10 type  2   force =    -0.00061462   -0.00172767    0.00034090
     atom   11 type  1   force =    -0.00048152   -0.02569436    0.00007601
     atom   12 type  1   force =     0.00020125    0.02693062    0.00002424
     atom   13 type  1   force =    -0.01161466    0.00103748   -0.00068365
     atom   14 type  1   force =    -0.00260057   -0.00538694    0.00016595
     atom   15 type  1   force =     0.00016361    0.00530058   -0.00005382
     atom   16 type  2   force =    -0.00058476   -0.00136191    0.00026034
     atom   17 type  2   force =    -0.00626635    0.00385384    0.00073310
     atom   18 type  1   force =     0.00004777    0.00781154    0.00003964
     atom   19 type  1   force =     0.00164316   -0.00935423    0.00004575
     atom   20 type  1   force =    -0.00240835   -0.00130169   -0.00044367
     atom   21 type  1   force =     0.01818890    0.00046551   -0.00035897
     atom   22 type  2   force =    -0.00036503   -0.00002797   -0.00024754
     atom   23 type  2   force =     0.00066774   -0.00156327    0.00037223
     atom   24 type  1   force =    -0.00019567   -0.02300314    0.00028577
     atom   25 type  1   force =     0.00028715    0.02504352    0.00033036
     atom   26 type  1   force =     0.01061298   -0.00088198   -0.00067344
     atom   27 type  3   force =     0.00000688   -0.00002025   -0.00002565
     atom   28 type  3   force =     0.00000248   -0.00001649   -0.00001020
     atom   29 type  3   force =    -0.00042854   -0.00020269   -0.00002961
     atom   30 type  3   force =    -0.00042400   -0.00024192    0.00000149

     Total force =     0.002001     Total SCF correction =     0.000297
     SCF correction compared to forces is large: reduce conv_thr to get better values

     bfgs converged in  27 scf cycles and  26 bfgs steps
     (criteria: energy < 0.10E-03, force < 0.10E-02)

     End of BFGS Geometry Optimization

     Final energy   =   -2138.6517684986 Ry
Begin final coordinates

ATOMIC_POSITIONS (crystal)
O0       0.000000000   0.000000000   0.372648688    0   0   1
O0       0.000000000   0.500000000   0.381904347    0   0   1
Re1      0.250000000   0.500000000   0.440691179    0   0   1
Re1      0.000000000   0.000000000   0.444670028    0   0   1
O0       0.250000000   0.780000000   0.442716538    0   0   1
O0       0.250000000   0.220000000   0.442692619    0   0   1
O0       0.000000000   0.500000000   0.496712276    0   0   1
O0       0.000000000   0.000000000   0.515922114    0   0   1
Re1      0.250000000   0.000000000   0.573895066    0   0   1
Re1      0.000000000   0.500000000   0.566357693    0   0   1
O0       0.250000000   0.720000000   0.571660728    0   0   1
O0       0.250000000   0.280000000   0.571674407    0   0   1
O0       0.000000000   0.000000000   0.628273662    0   0   1
O0       0.500000000   0.000000000   0.372693962    0   0   1
O0       0.500000000   0.500000000   0.381889653    0   0   1
Re1      0.750000000   0.500000000   0.440446879    0   0   1
Re1      0.500000000   0.000000000   0.444709072    0   0   1
O0       0.750000000   0.780000000   0.442648827    0   0   1
O0       0.750000000   0.220000000   0.442660755    0   0   1
O0       0.500000000   0.500000000   0.496712816    0   0   1
O0       0.500000000   0.000000000   0.515920580    0   0   1
Re1      0.750000000   0.000000000   0.578171865    0   0   1
Re1      0.500000000   0.500000000   0.566362326    0   0   1
O0       0.750000000   0.720000000   0.572882479    0   0   1
O0       0.750000000   0.280000000   0.572925806    0   0   1
O0       0.500000000   0.000000000   0.628262195    0   0   1
H2      -0.000634732   0.622485358   0.363867997
H2       0.499833501   0.622535875   0.363880581
H2       0.170062314   0.024378977   0.358739635
H2       0.669656278   0.023982617   0.358565222
End final coordinates

     General routines

     Parallel routines
     Hubbard U routines

   This run was terminated on:   0:35:19  11May2014

   JOB DONE.