     Program PWSCF v.5.0.2 (svn rev. 9656) starts on 28May2014 at  1:37:29

     Current dimensions of program PWSCF are:
     Max number of different atomic species (ntypx) = 10
     Max number of k-points (npk) =  40000
     Max angular momentum in pseudopotentials (lmaxx) =  3
     Reading input from pwscf.in
Warning: card &CELL ignored
Warning: card / ignored

     Subspace diagonalization in iterative solution of the eigenvalue problem:
     a serial algorithm will be used

     bravais-lattice index     =            0
     lattice parameter (alat)  =      10.3179  a.u.
     unit-cell volume          =    6964.3238 (a.u.)^3
     number of atoms/cell      =           33
     number of atomic types    =            3
     number of electrons       =       237.00
     number of Kohn-Sham states=          355
     kinetic-energy cutoff     =      40.0000  Ry
     charge density cutoff     =     500.0000  Ry
     convergence threshold     =      1.0E-06
     mixing beta               =       0.7000
     number of iterations used =            8  plain     mixing
     Exchange-correlation      = SLA  PW   PBE  PBE ( 1 4 3 4 0)
     EXX-fraction              =        0.00
     nstep                     =           50

     celldm(1)=  10.317905  celldm(2)=   0.000000  celldm(3)=   0.000000
     celldm(4)=   0.000000  celldm(5)=   0.000000  celldm(6)=   0.000000

     crystal axes: (cart. coord. in units of alat)
               a(1) = (   1.000000   0.000000   0.000000 )
               a(2) = (   0.000000   1.282117   0.000000 )
               a(3) = (   0.000000   0.000000   4.945120 )

     reciprocal axes: (cart. coord. in units 2 pi/alat)
               b(1) = (  1.000000  0.000000  0.000000 )
               b(2) = (  0.000000  0.779960  0.000000 )
               b(3) = (  0.000000  0.000000  0.202220 )

     PseudoPot. # 1 for O  read from file:
     /home/camp/zhonxu/pseudo/o_pbe_v1.01.uspp.F.UPF
     MD5 check sum: 2bcb18d16ea4b960afae9ec6d52f22d2
     Pseudo is Ultrasoft + core correction, Zval =  6.0
     Generated by new atomic code, or converted to UPF format
     Using radial grid of  737 points,  5 beta functions with:
                l(1) =   0
                l(2) =   0
                l(3) =   1
                l(4) =   1
                l(5) =   2
     Q(r) pseudized with  8 coefficients,  rinner =    0.900   0.900   0.900
                                                       0.900   0.900

     PseudoPot. # 2 for Mo read from file:
     /home/camp/zhonxu/pseudo/mo_pbe_v1.uspp.F.UPF
     MD5 check sum: 30c4dcd161f5d35cd49bb5239c51a633
     Pseudo is Ultrasoft + core correction, Zval = 14.0
     Generated by new atomic code, or converted to UPF format
     Using radial grid of  889 points,  6 beta functions with:
                l(1) =   0
                l(2) =   0
                l(3) =   1
                l(4) =   1
                l(5) =   2
                l(6) =   2
     Q(r) pseudized with  6 coefficients,  rinner =    1.000   1.000   1.000
                                                       1.000   1.000

     PseudoPot. # 3 for H  read from file:
     /home/camp/zhonxu/pseudo/h_pbe_v1.uspp.F.UPF
     MD5 check sum: 3408e3ff4ec8b0a4e358431e7e038a48
     Pseudo is Ultrasoft, Zval =  1.0
     Generated by new atomic code, or converted to UPF format
     Using radial grid of  615 points,  2 beta functions with:
                l(1) =   0
                l(2) =   0
     Q(r) pseudized with  8 coefficients,  rinner =    0.700

     atomic species   valence    mass     pseudopotential
        O0             6.00    15.99940     O ( 1.00)
        Mo1           14.00    95.94000     Mo( 1.00)
        H2             1.00     1.00794     H ( 1.00)

     Simplified LDA+U calculation (l_max = 2) with parameters (eV):
     atomic species    L          U    alpha       J0     beta
        Mo1            2     2.0000   0.0000   0.0000   0.0000

     No symmetry found

   Cartesian axes

     site n.     atom                  positions (alat units)
         1           O0  tau(   1) = (   0.0000000   0.0000000   1.8345407  )
         2           O0  tau(   2) = (   0.0000000   0.6410583   1.8924976  )
         3           Mo1 tau(   3) = (   0.2500000   0.6410583   2.1781772  )
         4           Mo1 tau(   4) = (   0.0000000   0.0000000   2.1929631  )
         5           O0  tau(   5) = (   0.2500000   1.0000510   2.1897982  )
         6           O0  tau(   6) = (   0.2500000   0.2820657   2.1891553  )
         7           O0  tau(   7) = (   0.0000000   0.6410583   2.4607413  )
         8           O0  tau(   8) = (   0.0000000   0.0000000   2.5556382  )
         9           Mo1 tau(   9) = (   0.2500000   0.0000000   2.8453728  )
        10           Mo1 tau(  10) = (   0.0000000   0.6410583   2.7952787  )
        11           O0  tau(  11) = (   0.2500000   0.9231240   2.8196582  )
        12           O0  tau(  12) = (   0.2500000   0.3589927   2.8248011  )
        13           O0  tau(  13) = (   0.0000000   0.0000000   3.0952003  )
        14           O0  tau(  14) = (   0.5000000   0.0000000   1.8353814  )
        15           O0  tau(  15) = (   0.5000000   0.6410583   1.8936349  )
        16           Mo1 tau(  16) = (   0.7500000   0.6410583   2.1781277  )
        17           Mo1 tau(  17) = (   0.5000000   0.0000000   2.1954851  )
        18           O0  tau(  18) = (   0.7500000   1.0000510   2.1899960  )
        19           O0  tau(  19) = (   0.7500000   0.2820657   2.1890564  )
        20           O0  tau(  20) = (   0.5000000   0.6410583   2.4612853  )
        21           O0  tau(  21) = (   0.5000000   0.0000000   2.5539074  )
        22           Mo1 tau(  22) = (   0.7500000   0.0000000   2.8439387  )
        23           Mo1 tau(  23) = (   0.5000000   0.6410583   2.8209934  )
        24           O0  tau(  24) = (   0.7500000   0.9231240   2.8195098  )
        25           O0  tau(  25) = (   0.7500000   0.3589927   2.8246033  )
        26           O0  tau(  26) = (   0.5000000   0.0000000   3.0932717  )
        27           H2  tau(  27) = (  -0.0005800   0.7846554   1.7836060  )
        28           H2  tau(  28) = (   0.4995100   0.7915788   1.7940402  )
        29           H2  tau(  29) = (   0.1672700   0.0232576   1.7642706  )
        30           H2  tau(  30) = (   0.6659000   0.0248346   1.7633310  )
        31           O0  tau(  31) = (   0.5002100   0.6666879   3.1760530  )
        32           O0  tau(  32) = (   0.4999400   0.4570233   3.3393409  )
        33           H2  tau(  33) = (   0.5000100   0.5446560   3.4973869  )

     number of k points=    10  Methfessel-Paxton smearing, width (Ry)=  0.0100
                       cart. coord. in units 2pi/alat
        k(    1) = (   0.0000000   0.0000000   0.0000000), wk =   0.1250000
        k(    2) = (   0.0000000   0.1949901   0.0000000), wk =   0.2500000
        k(    3) = (   0.0000000  -0.3899801   0.0000000), wk =   0.1250000
        k(    4) = (   0.2500000   0.0000000   0.0000000), wk =   0.2500000
        k(    5) = (   0.2500000   0.1949901   0.0000000), wk =   0.2500000
        k(    6) = (   0.2500000  -0.3899801   0.0000000), wk =   0.2500000
        k(    7) = (  -0.5000000   0.0000000   0.0000000), wk =   0.1250000
        k(    8) = (  -0.5000000   0.1949901   0.0000000), wk =   0.2500000
        k(    9) = (  -0.5000000  -0.3899801   0.0000000), wk =   0.1250000
        k(   10) = (  -0.2500000   0.1949901   0.0000000), wk =   0.2500000

     Largest allocated arrays     est. size (Mb)     dimensions
     Largest temporary arrays     est. size (Mb)     dimensions

     Check: negative/imaginary core charge=   -0.000003    0.000000

     Initial potential from superposition of free atoms
     Check: negative starting charge=   -0.002157

     starting charge  236.99142, renormalised to  237.00000

     negative rho (up, down):  0.216E-02 0.000E+00
     Number of +U iterations with fixed ns =  0
     Starting occupations:
 --- enter write_ns ---
 LDA+U parameters:
U( 2)     =  2.00000000
alpha( 2) =  0.00000000
atom    3   Tr[ns(na)] =   5.00000
    eigenvalues:
  0.500  0.500  0.500  0.500  0.500
    eigenvectors:
  1.000  0.000  0.000  0.000  0.000
  0.000  1.000  0.000  0.000  0.000
  0.000  0.000  1.000  0.000  0.000
  0.000  0.000  0.000  1.000  0.000
  0.000  0.000  0.000  0.000  1.000
    occupations:
  0.500  0.000  0.000  0.000  0.000
  0.000  0.500  0.000  0.000  0.000
  0.000  0.000  0.500  0.000  0.000
  0.000  0.000  0.000  0.500  0.000
  0.000  0.000  0.000  0.000  0.500
atom    4   Tr[ns(na)] =   5.00000
    eigenvalues:
  0.500  0.500  0.500  0.500  0.500
    eigenvectors:
  1.000  0.000  0.000  0.000  0.000
  0.000  1.000  0.000  0.000  0.000
  0.000  0.000  1.000  0.000  0.000
  0.000  0.000  0.000  1.000  0.000
  0.000  0.000  0.000  0.000  1.000
    occupations:
  0.500  0.000  0.000  0.000  0.000
  0.000  0.500  0.000  0.000  0.000
  0.000  0.000  0.500  0.000  0.000
  0.000  0.000  0.000  0.500  0.000
  0.000  0.000  0.000  0.000  0.500
atom    9   Tr[ns(na)] =   5.00000
    eigenvalues:
  0.500  0.500  0.500  0.500  0.500
    eigenvectors:
  1.000  0.000  0.000  0.000  0.000
  0.000  1.000  0.000  0.000  0.000
  0.000  0.000  1.000  0.000  0.000
  0.000  0.000  0.000  1.000  0.000
  0.000  0.000  0.000  0.000  1.000
    occupations:
  0.500  0.000  0.000  0.000  0.000
  0.000  0.500  0.000  0.000  0.000
  0.000  0.000  0.500  0.000  0.000
  0.000  0.000  0.000  0.500  0.000
  0.000  0.000  0.000  0.000  0.500
atom   10   Tr[ns(na)] =   5.00000
    eigenvalues:
  0.500  0.500  0.500  0.500  0.500
    eigenvectors:
  1.000  0.000  0.000  0.000  0.000
  0.000  1.000  0.000  0.000  0.000
  0.000  0.000  1.000  0.000  0.000
  0.000  0.000  0.000  1.000  0.000
  0.000  0.000  0.000  0.000  1.000
    occupations:
  0.500  0.000  0.000  0.000  0.000
  0.000  0.500  0.000  0.000  0.000
  0.000  0.000  0.500  0.000  0.000
  0.000  0.000  0.000  0.500  0.000
  0.000  0.000  0.000  0.000  0.500
atom   16   Tr[ns(na)] =   5.00000
    eigenvalues:
  0.500  0.500  0.500  0.500  0.500
    eigenvectors:
  1.000  0.000  0.000  0.000  0.000
  0.000  1.000  0.000  0.000  0.000
  0.000  0.000  1.000  0.000  0.000
  0.000  0.000  0.000  1.000  0.000
  0.000  0.000  0.000  0.000  1.000
    occupations:
  0.500  0.000  0.000  0.000  0.000
  0.000  0.500  0.000  0.000  0.000
  0.000  0.000  0.500  0.000  0.000
  0.000  0.000  0.000  0.500  0.000
  0.000  0.000  0.000  0.000  0.500
atom   17   Tr[ns(na)] =   5.00000
    eigenvalues:
  0.500  0.500  0.500  0.500  0.500
    eigenvectors:
  1.000  0.000  0.000  0.000  0.000
  0.000  1.000  0.000  0.000  0.000
  0.000  0.000  1.000  0.000  0.000
  0.000  0.000  0.000  1.000  0.000
  0.000  0.000  0.000  0.000  1.000
    occupations:
  0.500  0.000  0.000  0.000  0.000
  0.000  0.500  0.000  0.000  0.000
  0.000  0.000  0.500  0.000  0.000
  0.000  0.000  0.000  0.500  0.000
  0.000  0.000  0.000  0.000  0.500
atom   22   Tr[ns(na)] =   5.00000
    eigenvalues:
  0.500  0.500  0.500  0.500  0.500
    eigenvectors:
  1.000  0.000  0.000  0.000  0.000
  0.000  1.000  0.000  0.000  0.000
  0.000  0.000  1.000  0.000  0.000
[...]
  0.495  0.000 -0.002 -0.006  0.000
  0.000  0.641 -0.001  0.000 -0.000
 -0.002 -0.001  0.501 -0.001 -0.000
 -0.006  0.000 -0.001  0.732 -0.000
  0.000 -0.000 -0.000 -0.000  0.518
atom   16   Tr[ns(na)] =   5.82967
    eigenvalues:
  0.497  0.511  0.564  0.601  0.741
    eigenvectors:
  0.013  0.001  0.335  0.000  0.651
  0.002  0.996  0.001  0.001  0.000
  0.968  0.001  0.003  0.018  0.010
  0.000  0.001  0.659  0.001  0.339
  0.018  0.001  0.001  0.980  0.000
    occupations:
  0.679  0.002  0.022 -0.083  0.000
  0.002  0.511  0.001  0.001 -0.003
  0.022  0.001  0.502 -0.011 -0.014
 -0.083  0.001 -0.011  0.624 -0.000
  0.000 -0.003 -0.014 -0.000  0.599
atom   17   Tr[ns(na)] =   5.83068
    eigenvalues:
  0.461  0.521  0.582  0.620  0.730
    eigenvectors:
  0.000  0.000  0.989  0.010  0.001
  0.001  0.000  0.010  0.989  0.000
  0.999  0.000  0.000  0.001  0.000
  0.000  0.000  0.001  0.000  0.999
  0.000  1.000  0.000  0.000  0.000
    occupations:
  0.583  0.004  0.001 -0.005  0.000
  0.004  0.620  0.004 -0.001 -0.001
  0.001  0.004  0.461 -0.001  0.000
 -0.005 -0.001 -0.001  0.730  0.000
  0.000 -0.001  0.000  0.000  0.521
atom   22   Tr[ns(na)] =   5.82741
    eigenvalues:
  0.496  0.537  0.587  0.592  0.702
    eigenvectors:
  0.000  0.000  0.206  0.024  0.770
  0.000  0.000  0.105  0.895  0.000
  0.192  0.808  0.000  0.000  0.000
  0.000  0.000  0.689  0.081  0.230
  0.808  0.192  0.000  0.000  0.000
    occupations:
  0.675  0.001 -0.001 -0.048 -0.001
  0.001  0.592 -0.000  0.001 -0.000
 -0.001 -0.000  0.529  0.000 -0.016
 -0.048  0.001  0.000  0.613  0.001
 -0.001 -0.000 -0.016  0.001  0.504
atom   23   Tr[ns(na)] =   5.84583
    eigenvalues:
  0.520  0.525  0.548  0.580  0.750
    eigenvectors:
  0.002  0.000  0.000  0.987  0.010
  0.000  0.027  0.973  0.000  0.000
  0.997  0.000  0.000  0.003  0.000
  0.000  0.000  0.000  0.010  0.990
  0.000  0.973  0.027  0.000  0.000
    occupations:
  0.581  0.000  0.003 -0.017  0.000
  0.000  0.548  0.000 -0.000 -0.004
  0.003  0.000  0.520  0.004  0.000
 -0.017 -0.000  0.004  0.749 -0.000
  0.000 -0.004  0.000 -0.000  0.525
N of occupied +U levels =  46.5831636
 --- exit write_ns ---

     Threshold (ethr) on eigenvalues was too large:
     Diagonalizing with lowered threshold

     Davidson diagonalization with overlap
     ethr =  2.04E-09,  avg # of iterations =  3.0

[...]

     total energy              =   -1764.31780569 Ry
     Harris-Foulkes estimate   =   -1764.31780569 Ry
     estimated scf accuracy    <       0.00000002 Ry

     iteration # 12     ecut=    40.00 Ry     beta=0.70
     Davidson diagonalization with overlap
     ethr =  9.03E-12,  avg # of iterations =  1.0

     negative rho (up, down):  0.333E-02 0.000E+00

     End of self-consistent calculation
 --- enter write_ns ---
 LDA+U parameters:
U( 2)     =  2.00000000
alpha( 2) =  0.00000000
atom    3   Tr[ns(na)] =   5.82996
    eigenvalues:
  0.498  0.511  0.564  0.601  0.741
    eigenvectors:
  0.013  0.001  0.335  0.000  0.650
  0.002  0.996  0.001  0.001  0.000
  0.968  0.001  0.004  0.017  0.010
  0.000  0.001  0.659  0.001  0.340
  0.017  0.001  0.001  0.981  0.000
    occupations:
  0.678 -0.002  0.022 -0.083 -0.000
 -0.002  0.511 -0.001 -0.001 -0.003
  0.022 -0.001  0.503 -0.010  0.013
 -0.083 -0.001 -0.010  0.624  0.000
 -0.000 -0.003  0.013  0.000  0.599
atom    4   Tr[ns(na)] =   5.82051
    eigenvalues:
  0.447  0.522  0.580  0.631  0.731
    eigenvectors:
  0.000  0.000  0.993  0.006  0.001
  0.001  0.000  0.006  0.993  0.000
  0.999  0.000  0.000  0.001  0.000
  0.000  0.000  0.001  0.000  0.999
  0.000  1.000  0.000  0.000  0.000
    occupations:
  0.580  0.004  0.001 -0.004  0.000
  0.004  0.630  0.005 -0.001  0.000
  0.001  0.005  0.447  0.000  0.000
 -0.004 -0.001  0.000  0.730  0.000
  0.000  0.000  0.000  0.000  0.522
atom    9   Tr[ns(na)] =   5.82701
    eigenvalues:
  0.497  0.538  0.587  0.594  0.697
    eigenvectors:
  0.000  0.000  0.216  0.011  0.772
  0.000  0.000  0.050  0.950  0.000
  0.186  0.814  0.000  0.000  0.000
  0.000  0.000  0.733  0.039  0.228
  0.814  0.186  0.000  0.000  0.000
    occupations:
  0.672 -0.001 -0.000 -0.046 -0.002
 -0.001  0.593 -0.001 -0.001 -0.000
 -0.000 -0.001  0.531  0.000  0.016
 -0.046 -0.001  0.000  0.612  0.000
 -0.002 -0.000  0.016  0.000  0.505
atom   10   Tr[ns(na)] =   5.77195
    eigenvalues:
  0.494  0.502  0.518  0.641  0.732
    eigenvectors:
  0.891  0.108  0.000  0.000  0.001
  0.000  0.000  0.000  1.000  0.000
  0.108  0.892  0.000  0.000  0.000
  0.001  0.000  0.000  0.000  0.999
  0.000  0.000  1.000  0.000  0.000
    occupations:
  0.495  0.000 -0.002 -0.006  0.000
  0.000  0.641 -0.001  0.000 -0.000
 -0.002 -0.001  0.501 -0.001 -0.000
 -0.006  0.000 -0.001  0.732 -0.000
  0.000 -0.000 -0.000 -0.000  0.518
atom   16   Tr[ns(na)] =   5.82962
    eigenvalues:
  0.497  0.511  0.564  0.601  0.741
    eigenvectors:
  0.013  0.001  0.335  0.000  0.651
  0.002  0.996  0.001  0.001  0.000
  0.968  0.001  0.003  0.018  0.010
  0.000  0.001  0.659  0.001  0.339
  0.018  0.001  0.001  0.980  0.000
    occupations:
  0.679  0.002  0.022 -0.083  0.000
  0.002  0.511  0.001  0.001 -0.003
  0.022  0.001  0.502 -0.011 -0.014
 -0.083  0.001 -0.011  0.624 -0.000
  0.000 -0.003 -0.014 -0.000  0.599
atom   17   Tr[ns(na)] =   5.83109
    eigenvalues:
  0.461  0.521  0.582  0.620  0.730
    eigenvectors:
  0.000  0.000  0.989  0.010  0.001
  0.001  0.000  0.010  0.989  0.000
  0.999  0.000  0.000  0.001  0.000
  0.000  0.000  0.001  0.000  0.999
  0.000  1.000  0.000  0.000  0.000
    occupations:
  0.583  0.004  0.001 -0.005  0.000
  0.004  0.620  0.004 -0.001 -0.001
  0.001  0.004  0.461 -0.001  0.000
 -0.005 -0.001 -0.001  0.730  0.000
  0.000 -0.001  0.000  0.000  0.521
atom   22   Tr[ns(na)] =   5.82712
    eigenvalues:
  0.496  0.537  0.587  0.592  0.702
    eigenvectors:
  0.000  0.000  0.206  0.024  0.770
  0.000  0.000  0.105  0.895  0.000
  0.192  0.808  0.000  0.000  0.000
  0.000  0.000  0.689  0.081  0.230
  0.808  0.192  0.000  0.000  0.000
    occupations:
  0.675  0.001 -0.001 -0.048 -0.001
  0.001  0.592 -0.000  0.001 -0.000
 -0.001 -0.000  0.529  0.000 -0.016
 -0.048  0.001  0.000  0.613  0.001
 -0.001 -0.000 -0.016  0.001  0.504
atom   23   Tr[ns(na)] =   5.84589
    eigenvalues:
  0.520  0.525  0.548  0.580  0.750
    eigenvectors:
  0.002  0.000  0.000  0.987  0.010
  0.000  0.027  0.973  0.000  0.000
  0.997  0.001  0.000  0.003  0.000
  0.000  0.000  0.000  0.010  0.990
  0.000  0.973  0.027  0.000  0.000
    occupations:
  0.581  0.000  0.003 -0.017  0.000
  0.000  0.548  0.000 -0.000 -0.004
  0.003  0.000  0.520  0.004  0.000
 -0.017 -0.000  0.004  0.749 -0.000
  0.000 -0.004  0.000 -0.000  0.525
N of occupied +U levels =  46.5831535
 --- exit write_ns ---

[...]

          k = 0.2500-0.3900 0.0000 ( 29726 PWs)   bands (ev):

[...]

          k =-0.2500 0.1950 0.0000 ( 29746 PWs)   bands (ev):

   -62.0379 -61.9621 -61.9490 -61.8048 -61.7994 -61.7766 -61.7224 -61.7153
   -36.6242 -36.4099 -36.3552 -36.3375 -36.2775 -36.2629 -36.1670 -36.1405
   -36.1314 -36.0751 -36.0280 -35.9910 -35.9763 -35.9538 -35.9460 -35.9249
   -35.8466 -35.8149 -35.8128 -35.7861 -35.7662 -35.5164 -35.4423 -35.3958
   -22.8318 -20.3259 -20.0746 -19.4919 -19.3757 -19.2727 -19.0985 -19.0352
   -18.9487 -18.8444 -18.7430 -18.6348 -18.5213 -18.4528 -18.3894 -18.3427
   -18.2341 -17.7912 -17.6376 -16.5630  -8.3708  -8.2363  -8.1307  -7.7775
    -7.4542  -7.3143  -7.2950  -7.1920  -7.0207  -6.9571  -6.9131  -6.8661
    -6.7645  -6.5815  -6.4597  -6.3337  -6.0294  -5.9969  -5.8819  -5.8374
    -5.6984  -5.6319  -5.5538  -5.3933  -5.2779  -5.2396  -5.0209  -4.9730
    -4.8979  -4.7401  -4.6555  -4.5903  -4.4017  -4.2899  -4.1638  -4.1282
    -4.0681  -4.0052  -3.9648  -3.9138  -3.7923  -3.7717  -3.6909  -3.6041
    -3.4676  -3.3772  -3.2496  -3.1201  -3.0181  -3.0046  -2.9223  -2.8303
    -2.7127  -2.6862  -2.5177  -2.4124  -2.3339  -2.1387  -1.3822  -1.3060
    -1.2168  -1.1112  -0.2975  -0.0728  -0.0219   0.0981   0.5678   0.6339
     0.9702   1.0917   1.1607   1.2879   1.4591   1.5327   1.7327   1.7991
     1.9135   2.0036   2.1755   2.2441   2.2650   2.3479   2.6171   2.8404
     3.6851   3.7554   4.0452   4.1090   4.2189   4.3056   4.3836   4.4864
     4.7176   4.7973   4.9284   4.9615   5.1720   5.2294   5.3454   5.5627
     5.9060   6.0656   6.1685   6.2550   6.3466   6.4464   6.5183   6.6052
     6.7331   6.9539   7.0051   7.2734   7.3311   7.4338   7.7348   7.7837
     8.0837   8.2341   8.4540   8.4956   8.6493   8.7290   8.8685   8.9626
     9.0039   9.1981   9.2481   9.3642   9.5057   9.6146   9.6875   9.7747
     9.8249   9.9254   9.9724  10.0886  10.2210  10.4213  10.5369  10.6083
    10.7002  10.7996  10.8985  10.9442  11.0166  11.1314  11.2843  11.3781
    11.4939  11.6598  11.7345  11.8399  11.9069  11.9384  12.0163  12.1731
    12.1985  12.2584  12.3555  12.3665  12.4587  12.5505  12.6217  12.8118
    12.8970  12.9829  13.0287  13.1550  13.2018  13.2454  13.3845  13.4397
    13.5310  13.5598  13.6444  13.6955  13.7522  13.8351  13.8918  13.9535
    14.0398  14.0844  14.1271  14.2020  14.2439  14.2911  14.3655  14.3871
    14.4616  14.5222  14.6182  14.7455  14.7825  14.8786  14.9162  15.0706
    15.1371  15.2358  15.2909  15.4217  15.4775  15.4980  15.6365  15.6872
    15.7935  15.8794  15.9176  16.0137  16.0707  16.1601  16.2529  16.2875
    16.3353  16.4304  16.5080  16.5634  16.5896  16.6249  16.7270  16.7621
    16.8429  16.9189  16.9644  17.0916  17.1055  17.1940  17.2762  17.3071
    17.3386  17.3892  17.5011  17.5882  17.6778  17.7539  17.7963  17.8968
    18.0523  18.0927  18.1332  18.1958  18.2298  18.3520  18.3987  18.4888
    18.5762  18.6135  18.6843  18.7763  18.9079  18.9431  19.0193  19.0619
    19.1907  19.2447  19.3737  19.4079  19.4254  19.5383  19.6021  19.6942
    19.8195  19.8897  19.9869  20.0419  20.1101  20.1514  20.1979  20.2427
    20.2681  20.3345  20.4411  20.4697  20.4900  20.5428  20.6035  20.6797
    20.7597  20.8273  20.8801  20.9416  20.9955  21.0999  21.1382  21.2332
    21.2921  21.3603  21.4051  21.4620  21.5262  21.5473  21.6095  21.6249
    21.6626  21.7405  21.8146  21.8675  21.9000  21.9467  21.9892  22.0780
    22.1405  22.2122  22.2882

     the Fermi energy is     0.4819 ev

!    total energy              =   -1764.31780569 Ry
     Harris-Foulkes estimate   =   -1764.31780569 Ry
     estimated scf accuracy    <          6.9E-09 Ry

     The total energy is the sum of the following terms:

     one-electron contribution =  -22652.58244669 Ry
     hartree contribution      =   11355.92378770 Ry
     xc contribution           =    -301.55201352 Ry
     ewald contribution        =    9832.50543503 Ry
     Hubbard energy            =       1.38728455 Ry
     smearing contrib. (-TS)   =       0.00014724 Ry

     convergence has been achieved in  12 iterations

     Forces acting on atoms (Ry/au):

     negative rho (up, down):  0.333E-02 0.000E+00
     atom    1 type  1   force =    -0.00124204   -0.00510295    0.00012591
     atom    2 type  1   force =    -0.00012955    0.00904957    0.00049743
     atom    3 type  2   force =    -0.00617977   -0.00853630    0.00000463
     atom    4 type  2   force =     0.00092431    0.00506636   -0.00093160
     atom    5 type  1   force =     0.00005200   -0.00698432    0.00022387
     atom    6 type  1   force =    -0.00172554    0.00481154    0.00015831
     atom    7 type  1   force =     0.00031675   -0.00098438    0.00081227
     atom    8 type  1   force =     0.00280922    0.00231802    0.00029072
     atom    9 type  2   force =    -0.00333105   -0.00375902    0.00016963
     atom   10 type  2   force =    -0.00023810    0.00298687   -0.00012413
     atom   11 type  1   force =    -0.01443075   -0.02079773   -0.00005076
     atom   12 type  1   force =    -0.01142698    0.02674923   -0.00007548
     atom   13 type  1   force =     0.00008300   -0.00176414   -0.00025003
     atom   14 type  1   force =    -0.00351200   -0.00611517   -0.00027000
     atom   15 type  1   force =    -0.00000205    0.01098961    0.00032282
     atom   16 type  2   force =     0.00549947   -0.00831353   -0.00000465
     atom   17 type  2   force =    -0.00161734    0.00405242   -0.00063818
     atom   18 type  1   force =     0.00271967   -0.00746086    0.00023780
     atom   19 type  1   force =     0.00190437    0.00458845    0.00016089
     atom   20 type  1   force =     0.00018595    0.00055413   -0.00043364
     atom   21 type  1   force =     0.00358971    0.00232068    0.00092054
     atom   22 type  2   force =    -0.00065544   -0.00392355    0.00001595
     atom   23 type  2   force =     0.00040684    0.00192216    0.00006769
     atom   24 type  1   force =     0.01439524   -0.02033253   -0.00007574
     atom   25 type  1   force =     0.01134982    0.02673563   -0.00011104
     atom   26 type  1   force =    -0.00049087   -0.00661076   -0.00033946
     atom   27 type  3   force =    -0.00000655   -0.00054700   -0.00041470
     atom   28 type  3   force =    -0.00000060   -0.00057084   -0.00042416
     atom   29 type  3   force =     0.00030231   -0.00018642   -0.00011476
     atom   30 type  3   force =     0.00042665   -0.00004456   -0.00031557
     atom   31 type  1   force =     0.00007935   -0.00005649    0.00038037
     atom   32 type  1   force =    -0.00007152   -0.00058710    0.00024081
     atom   33 type  3   force =     0.00001549    0.00053296   -0.00005575

     Total force =     0.002481     Total SCF correction =     0.000272
     SCF correction compared to forces is large: reduce conv_thr to get better values

     entering subroutine stress ...

     negative rho (up, down):  0.333E-02 0.000E+00
          total   stress  (Ry/bohr**3)                   (kbar)     P=   -5.05
  -0.00000702  -0.00000062   0.00000134         -1.03     -0.09      0.20
  -0.00000062  -0.00006088  -0.00000182         -0.09     -8.96     -0.27
   0.00000134  -0.00000182  -0.00003511          0.20     -0.27     -5.17

     bfgs converged in   6 scf cycles and   5 bfgs steps
     (criteria: energy < 0.10E-03, force < 0.10E-02)

     End of BFGS Geometry Optimization

     Final energy   =   -1764.3178056874 Ry
Begin final coordinates

ATOMIC_POSITIONS (crystal)
O0       0.000000000   0.000000000   0.371119746    0   0   1
O0       0.000000000   0.500000000   0.382802612    0   0   1
Mo1      0.250000000   0.500000000   0.440477073    0   0   1
Mo1      0.000000000   0.000000000   0.443367908    0   0   1
O0       0.250000000   0.780000000   0.442923712    0   0   1
O0       0.250000000   0.220000000   0.442754250    0   0   1
O0       0.000000000   0.500000000   0.497701168    0   0   1
O0       0.000000000   0.000000000   0.516593197    0   0   1
Mo1      0.250000000   0.000000000   0.575296108    0   0   1
Mo1      0.000000000   0.500000000   0.565328851    0   0   1
O0       0.250000000   0.720000000   0.570352682    0   0   1
O0       0.250000000   0.280000000   0.571424807    0   0   1
O0       0.000000000   0.000000000   0.625703635    0   0   1
O0       0.500000000   0.000000000   0.371340738    0   0   1
O0       0.500000000   0.500000000   0.382827571    0   0   1
Mo1      0.750000000   0.500000000   0.440470223    0   0   1
Mo1      0.500000000   0.000000000   0.443942640    0   0   1
O0       0.750000000   0.780000000   0.442969635    0   0   1
O0       0.750000000   0.220000000   0.442737700    0   0   1
O0       0.500000000   0.500000000   0.498041198    0   0   1
O0       0.500000000   0.000000000   0.516035905    0   0   1
Mo1      0.750000000   0.000000000   0.574977539    0   0   1
Mo1      0.500000000   0.500000000   0.570349116    0   0   1
O0       0.750000000   0.720000000   0.570316564    0   0   1
O0       0.750000000   0.280000000   0.571376787    0   0   1
O0       0.500000000   0.000000000   0.625367707    0   0   1
H2      -0.000585881   0.611412395   0.360597153
H2       0.499511908   0.617164861   0.362616106
H2       0.167062819   0.017925839   0.356784360
H2       0.665467002   0.019223678   0.356583813
O0       0.500279400   0.519296776   0.642111353
O0       0.499885023   0.356588597   0.675269328
H2       0.500023993   0.425142255   0.707188813
End final coordinates

     General routines

     Parallel routines
     Hubbard U routines

   This run was terminated on:   7:54:58  28May2014

   JOB DONE.
Running PBS batch system epilogue script
Job id: 373260.audhumbla.fysik.dtu.dk
Username: zhonxu
Groupname: campgst
Jobname: MoO2/Eads-2-layers/OOH-U-2.0
Sessionid: 20581
Queuename: verylong
Accounting:
This job has allocated the following 16 nodes:
a027 a027 a027 a027 a027 a027 a027 a027 a018 a018 a018 a018 a018 a018 a018 a018
Finished epilogue job 373260.audhumbla.fysik.dtu.dk for zhonxu