     Program PWSCF v.5.0.2 (svn rev. 9656) starts on  6May2014 at  4: 9:28

     Current dimensions of program PWSCF are:
     Max number of different atomic species (ntypx) = 10
     Max number of k-points (npk) =  40000
     Max angular momentum in pseudopotentials (lmaxx) =  3
     Reading input from pwscf.in
Warning: card &CELL ignored
Warning: card / ignored

     Subspace diagonalization in iterative solution of the eigenvalue problem:
     a serial algorithm will be used

     bravais-lattice index     =            0
     lattice parameter (alat)  =      11.7919  a.u.
     unit-cell volume          =    7123.6633 (a.u.)^3
     number of atoms/cell      =           30
     number of atomic types    =            3
     number of electrons       =       240.00
     number of Kohn-Sham states=          348
     kinetic-energy cutoff     =      40.0000  Ry
     charge density cutoff     =     500.0000  Ry
     convergence threshold     =      1.0E-06
     mixing beta               =       0.7000
     number of iterations used =            8  plain     mixing
     Exchange-correlation      = SLA  PW   PBE  PBE ( 1 4 3 4 0)
     EXX-fraction              =        0.00
     nstep                     =           50

     celldm(1)=  11.791891  celldm(2)=   0.000000  celldm(3)=   0.000000
     celldm(4)=   0.000000  celldm(5)=   0.000000  celldm(6)=   0.000000

     crystal axes: (cart. coord. in units of alat)
               a(1) = (   1.000000   0.000000   0.000000 )
               a(2) = (   0.000000   1.026665   0.000000 )
               a(3) = (   0.000000   0.000000   4.231793 )

     reciprocal axes: (cart. coord. in units 2 pi/alat)
               b(1) = (  1.000000  0.000000  0.000000 )
               b(2) = (  0.000000  0.974028  0.000000 )
               b(3) = (  0.000000  0.000000  0.236306 )

     PseudoPot. # 1 for O  read from file:
     /home/camp/zhonxu/pseudo/o_pbe_v1.01.uspp.F.UPF
     MD5 check sum: 2bcb18d16ea4b960afae9ec6d52f22d2
     Pseudo is Ultrasoft + core correction, Zval =  6.0
     Generated by new atomic code, or converted to UPF format
     Using radial grid of  737 points,  5 beta functions with:
                l(1) =   0
                l(2) =   0
                l(3) =   1
                l(4) =   1
                l(5) =   2
     Q(r) pseudized with  8 coefficients,  rinner =    0.900   0.900   0.900
                                                       0.900   0.900

     PseudoPot. # 2 for Ru read from file:
     /home/camp/zhonxu/pseudo/ru_pbe_v1.uspp.F.UPF
     MD5 check sum: df00be1c11b23341d9806d8f1dfa10cf
     Pseudo is Ultrasoft + core correction, Zval = 16.0
     Generated by new atomic code, or converted to UPF format
     Using radial grid of  967 points,  6 beta functions with:
                l(1) =   0
                l(2) =   0
                l(3) =   1
                l(4) =   1
                l(5) =   2
                l(6) =   2
     Q(r) pseudized with  8 coefficients,  rinner =    1.300   1.300   1.300
                                                       1.300   1.300

     PseudoPot. # 3 for H  read from file:
     /home/camp/zhonxu/pseudo/h_pbe_v1.uspp.F.UPF
     MD5 check sum: 3408e3ff4ec8b0a4e358431e7e038a48
     Pseudo is Ultrasoft, Zval =  1.0
     Generated by new atomic code, or converted to UPF format
     Using radial grid of  615 points,  2 beta functions with:
                l(1) =   0
                l(2) =   0
     Q(r) pseudized with  8 coefficients,  rinner =    0.700

     atomic species   valence    mass     pseudopotential
        O0             6.00    15.99940     O ( 1.00)
        Ru1           16.00   101.07000     Ru( 1.00)
        H2             1.00     1.00794     H ( 1.00)

     Simplified LDA+U calculation (l_max = 2) with parameters (eV):
     atomic species    L          U    alpha       J0     beta
        Ru1            2     2.5000   0.0000   0.0000   0.0000

     No symmetry found

   Cartesian axes

     site n.     atom                  positions (alat units)
         1           O0  tau(   1) = (   0.0000000   0.0000000   1.6080390  )
         2           O0  tau(   2) = (   0.0000000   0.5133323   1.7023233  )
         3           Ru1 tau(   3) = (   0.2500000   0.5133323   1.9175523  )
         4           Ru1 tau(   4) = (   0.0000000   0.0000000   1.9215302  )
         5           O0  tau(   5) = (   0.2500000   0.8315984   1.9195836  )
         6           O0  tau(   6) = (   0.2500000   0.1950663   1.9193297  )
         7           O0  tau(   7) = (   0.0000000   0.5133323   2.1106490  )
         8           O0  tau(   8) = (   0.0000000   0.0000000   2.2345136  )
         9           Ru1 tau(   9) = (   0.2500000   0.0000000   2.4487269  )
        10           Ru1 tau(  10) = (   0.0000000   0.5133323   2.4113179  )
        11           O0  tau(  11) = (   0.2500000   0.7083986   2.4387399  )
        12           O0  tau(  12) = (   0.2500000   0.3182660   2.4402210  )
        13           O0  tau(  13) = (   0.0000000   0.0000000   2.6238385  )
        14           O0  tau(  14) = (   0.5000000   0.0000000   1.6080390  )
        15           O0  tau(  15) = (   0.5000000   0.5133323   1.7023233  )
        16           Ru1 tau(  16) = (   0.7500000   0.5133323   1.9175523  )
        17           Ru1 tau(  17) = (   0.5000000   0.0000000   1.9215302  )
        18           O0  tau(  18) = (   0.7500000   0.8315984   1.9195836  )
        19           O0  tau(  19) = (   0.7500000   0.1950663   1.9193297  )
        20           O0  tau(  20) = (   0.5000000   0.5133323   2.1106490  )
        21           O0  tau(  21) = (   0.5000000   0.0000000   2.2345136  )
        22           Ru1 tau(  22) = (   0.7500000   0.0000000   2.4487269  )
        23           Ru1 tau(  23) = (   0.5000000   0.5133323   2.4113179  )
        24           O0  tau(  24) = (   0.7500000   0.7083986   2.4387399  )
        25           O0  tau(  25) = (   0.7500000   0.3182660   2.4401787  )
        26           O0  tau(  26) = (   0.5000000   0.0000000   2.6238385  )
        27           H2  tau(  27) = (  -0.0004100   0.6466653   1.6162063  )
        28           H2  tau(  28) = (   0.4995900   0.6466653   1.6162063  )
        29           H2  tau(  29) = (   0.1464700   0.0296706   1.5559879  )
        30           H2  tau(  30) = (   0.6464700   0.0296706   1.5559879  )

     number of k points=    10  Methfessel-Paxton smearing, width (Ry)=  0.0100
                       cart. coord. in units 2pi/alat
        k(    1) = (   0.0000000   0.0000000   0.0000000), wk =   0.1250000
        k(    2) = (   0.0000000   0.2435070   0.0000000), wk =   0.2500000
        k(    3) = (   0.0000000  -0.4870139   0.0000000), wk =   0.1250000
        k(    4) = (   0.2500000   0.0000000   0.0000000), wk =   0.2500000
        k(    5) = (   0.2500000   0.2435070   0.0000000), wk =   0.2500000
        k(    6) = (   0.2500000  -0.4870139   0.0000000), wk =   0.2500000
        k(    7) = (  -0.5000000   0.0000000   0.0000000), wk =   0.1250000
        k(    8) = (  -0.5000000   0.2435070   0.0000000), wk =   0.2500000
        k(    9) = (  -0.5000000  -0.4870139   0.0000000), wk =   0.1250000
        k(   10) = (  -0.2500000   0.2435070   0.0000000), wk =   0.2500000

     Largest allocated arrays     est. size (Mb)     dimensions
     Largest temporary arrays     est. size (Mb)     dimensions

     Check: negative/imaginary core charge=   -0.000003    0.000000

     Initial potential from superposition of free atoms
     Check: negative starting charge=   -0.522083

     starting charge  231.99981, renormalised to  240.00000

     negative rho (up, down):  0.540E+00 0.000E+00
     Number of +U iterations with fixed ns =  0
     Starting occupations:
 --- enter write_ns ---
 LDA+U parameters:
U( 2)     =  2.50000000
alpha( 2) =  0.00000000
atom    3   Tr[ns(na)] =   6.00000
    eigenvalues:
  0.600  0.600  0.600  0.600  0.600
    eigenvectors:
  1.000  0.000  0.000  0.000  0.000
  0.000  1.000  0.000  0.000  0.000
  0.000  0.000  1.000  0.000  0.000
  0.000  0.000  0.000  1.000  0.000
  0.000  0.000  0.000  0.000  1.000
    occupations:
  0.600  0.000  0.000  0.000  0.000
  0.000  0.600  0.000  0.000  0.000
  0.000  0.000  0.600  0.000  0.000
  0.000  0.000  0.000  0.600  0.000
  0.000  0.000  0.000  0.000  0.600
atom    4   Tr[ns(na)] =   6.00000
    eigenvalues:
  0.600  0.600  0.600  0.600  0.600
    eigenvectors:
  1.000  0.000  0.000  0.000  0.000
  0.000  1.000  0.000  0.000  0.000
  0.000  0.000  1.000  0.000  0.000
  0.000  0.000  0.000  1.000  0.000
  0.000  0.000  0.000  0.000  1.000
    occupations:
  0.600  0.000  0.000  0.000  0.000
  0.000  0.600  0.000  0.000  0.000
  0.000  0.000  0.600  0.000  0.000
  0.000  0.000  0.000  0.600  0.000
  0.000  0.000  0.000  0.000  0.600
atom    9   Tr[ns(na)] =   6.00000
    eigenvalues:
  0.600  0.600  0.600  0.600  0.600
    eigenvectors:
  1.000  0.000  0.000  0.000  0.000
  0.000  1.000  0.000  0.000  0.000
  0.000  0.000  1.000  0.000  0.000
  0.000  0.000  0.000  1.000  0.000
  0.000  0.000  0.000  0.000  1.000
    occupations:
  0.600  0.000  0.000  0.000  0.000
  0.000  0.600  0.000  0.000  0.000
  0.000  0.000  0.600  0.000  0.000
  0.000  0.000  0.000  0.600  0.000
  0.000  0.000  0.000  0.000  0.600
atom   10   Tr[ns(na)] =   6.00000
    eigenvalues:
  0.600  0.600  0.600  0.600  0.600
    eigenvectors:
  1.000  0.000  0.000  0.000  0.000
  0.000  1.000  0.000  0.000  0.000
  0.000  0.000  1.000  0.000  0.000
  0.000  0.000  0.000  1.000  0.000
  0.000  0.000  0.000  0.000  1.000
    occupations:
  0.600  0.000  0.000  0.000  0.000
  0.000  0.600  0.000  0.000  0.000
  0.000  0.000  0.600  0.000  0.000
  0.000  0.000  0.000  0.600  0.000
  0.000  0.000  0.000  0.000  0.600
atom   16   Tr[ns(na)] =   6.00000
    eigenvalues:
  0.600  0.600  0.600  0.600  0.600
    eigenvectors:
  1.000  0.000  0.000  0.000  0.000
  0.000  1.000  0.000  0.000  0.000
  0.000  0.000  1.000  0.000  0.000
  0.000  0.000  0.000  1.000  0.000
  0.000  0.000  0.000  0.000  1.000
    occupations:
  0.600  0.000  0.000  0.000  0.000
  0.000  0.600  0.000  0.000  0.000
  0.000  0.000  0.600  0.000  0.000
  0.000  0.000  0.000  0.600  0.000
  0.000  0.000  0.000  0.000  0.600
atom   17   Tr[ns(na)] =   6.00000
    eigenvalues:
  0.600  0.600  0.600  0.600  0.600
    eigenvectors:
  1.000  0.000  0.000  0.000  0.000
  0.000  1.000  0.000  0.000  0.000
  0.000  0.000  1.000  0.000  0.000
  0.000  0.000  0.000  1.000  0.000
  0.000  0.000  0.000  0.000  1.000
    occupations:
  0.600  0.000  0.000  0.000  0.000
  0.000  0.600  0.000  0.000  0.000
  0.000  0.000  0.600  0.000  0.000
  0.000  0.000  0.000  0.600  0.000
  0.000  0.000  0.000  0.000  0.600
atom   22   Tr[ns(na)] =   6.00000
    eigenvalues:
  0.600  0.600  0.600  0.600  0.600
    eigenvectors:
  1.000  0.000  0.000  0.000  0.000
  0.000  1.000  0.000  0.000  0.000
  0.000  0.000  1.000  0.000  0.000
  0.000  0.000  0.000  1.000  0.000
  0.000  0.000  0.000  0.000  1.000
    occupations:
  0.600  0.000  0.000  0.000  0.000
  0.000  0.600  0.000  0.000  0.000
  0.000  0.000  0.600  0.000  0.000
  0.000  0.000  0.000  0.600  0.000
[...]
  0.000  0.000  0.982  0.018  0.000
  0.000  0.011  0.000  0.000  0.989
  0.999  0.001  0.000  0.000  0.000
    occupations:
  0.608 -0.001  0.000  0.040  0.001
 -0.001  0.787  0.015 -0.001 -0.001
  0.000  0.015  0.676  0.002  0.000
  0.040 -0.001  0.002  0.973  0.000
  0.001 -0.001  0.000  0.000  0.555
atom    9   Tr[ns(na)] =   7.18618
    eigenvalues:
  0.575  0.593  0.755  0.833  0.837
    eigenvectors:
  0.000  0.140  0.001  0.470  0.389
  1.000  0.000  0.000  0.000  0.000
  0.000  0.000  0.999  0.001  0.000
  0.000  0.860  0.000  0.076  0.064
  0.000  0.000  0.000  0.453  0.547
    occupations:
  0.801  0.000 -0.003 -0.084  0.002
  0.000  0.575  0.001  0.000  0.000
 -0.003  0.001  0.755  0.000  0.000
 -0.084  0.000  0.000  0.627 -0.001
  0.002  0.000  0.000 -0.001  0.835
atom   10   Tr[ns(na)] =   7.22080
    eigenvalues:
  0.535  0.537  0.760  0.827  0.952
    eigenvectors:
  0.989  0.000  0.000  0.000  0.011
  0.000  0.000  0.000  1.000  0.000
  0.000  0.000  1.000  0.000  0.000
  0.011  0.000  0.000  0.000  0.989
  0.000  1.000  0.000  0.000  0.000
    occupations:
  0.539  0.000  0.000  0.044  0.000
  0.000  0.827  0.001  0.000 -0.001
  0.000  0.001  0.760 -0.002 -0.000
  0.044  0.000 -0.002  0.947 -0.000
  0.000 -0.001 -0.000 -0.000  0.537
atom   16   Tr[ns(na)] =   7.22416
    eigenvalues:
  0.515  0.561  0.732  0.845  0.959
    eigenvectors:
  0.000  0.191  0.007  0.000  0.802
  1.000  0.000  0.000  0.000  0.000
  0.000  0.000  0.989  0.000  0.010
  0.000  0.809  0.004  0.000  0.188
  0.000  0.000  0.000  1.000  0.000
    occupations:
  0.881  0.000  0.022 -0.155 -0.000
  0.000  0.516 -0.000 -0.000 -0.004
  0.022 -0.000  0.734 -0.007  0.000
 -0.155 -0.000 -0.007  0.636  0.000
 -0.000 -0.004  0.000  0.000  0.845
atom   17   Tr[ns(na)] =   7.19830
    eigenvalues:
  0.555  0.604  0.674  0.790  0.977
    eigenvectors:
  0.001  0.988  0.000  0.000  0.011
  0.000  0.000  0.018  0.982  0.000
  0.000  0.000  0.982  0.018  0.000
  0.000  0.011  0.000  0.000  0.989
  0.999  0.001  0.000  0.000  0.000
    occupations:
  0.608 -0.001  0.000  0.040  0.001
 -0.001  0.787  0.015 -0.001 -0.001
  0.000  0.015  0.676  0.002  0.000
  0.040 -0.001  0.002  0.973  0.000
  0.001 -0.001  0.000  0.000  0.555
atom   22   Tr[ns(na)] =   7.18637
    eigenvalues:
  0.575  0.593  0.755  0.833  0.837
    eigenvectors:
  0.000  0.140  0.001  0.469  0.390
  1.000  0.000  0.000  0.000  0.000
  0.000  0.000  0.999  0.001  0.000
  0.000  0.860  0.000  0.076  0.064
  0.000  0.000  0.000  0.454  0.546
    occupations:
  0.801  0.000 -0.003 -0.084  0.002
  0.000  0.575  0.001  0.000  0.000
 -0.003  0.001  0.755  0.000  0.000
 -0.084  0.000  0.000  0.627 -0.001
  0.002  0.000  0.000 -0.001  0.835
atom   23   Tr[ns(na)] =   7.22049
    eigenvalues:
  0.535  0.537  0.760  0.827  0.952
    eigenvectors:
  0.989  0.000  0.000  0.000  0.011
  0.000  0.000  0.000  1.000  0.000
  0.000  0.000  1.000  0.000  0.000
  0.011  0.000  0.000  0.000  0.989
  0.000  1.000  0.000  0.000  0.000
    occupations:
  0.539  0.000  0.000  0.044  0.000
  0.000  0.827  0.001  0.000 -0.001
  0.000  0.001  0.760 -0.002 -0.000
  0.044  0.000 -0.002  0.947 -0.000
  0.000 -0.001 -0.000 -0.000  0.537
N of occupied +U levels =  57.6594527
 --- exit write_ns ---

[...]

     total energy              =   -2129.97642048 Ry
     Harris-Foulkes estimate   =   -2129.97642048 Ry
     estimated scf accuracy    <       0.00000004 Ry

     iteration # 18     ecut=    40.00 Ry     beta=0.70
     Davidson diagonalization with overlap
     ethr =  1.11E-11,  avg # of iterations =  1.0

     negative rho (up, down):  0.573E+00 0.000E+00

     End of self-consistent calculation
 --- enter write_ns ---
 LDA+U parameters:
U( 2)     =  2.50000000
alpha( 2) =  0.00000000
atom    3   Tr[ns(na)] =   7.22102
    eigenvalues:
  0.515  0.561  0.731  0.845  0.959
    eigenvectors:
  0.000  0.191  0.007  0.000  0.802
  1.000  0.000  0.000  0.000  0.000
  0.000  0.000  0.989  0.000  0.011
  0.000  0.809  0.004  0.000  0.188
  0.000  0.000  0.000  1.000  0.000
    occupations:
  0.881  0.000  0.022 -0.155 -0.000
  0.000  0.515 -0.000 -0.000 -0.004
  0.022 -0.000  0.733 -0.007  0.000
 -0.155 -0.000 -0.007  0.636  0.000
 -0.000 -0.004  0.000  0.000  0.845
atom    4   Tr[ns(na)] =   7.19522
    eigenvalues:
  0.555  0.604  0.673  0.789  0.977
    eigenvectors:
  0.001  0.988  0.000  0.000  0.011
  0.000  0.000  0.018  0.982  0.000
  0.000  0.000  0.982  0.018  0.000
  0.000  0.011  0.000  0.000  0.989
  0.999  0.001  0.000  0.000  0.000
    occupations:
  0.608 -0.001  0.000  0.040  0.001
 -0.001  0.787  0.015 -0.001 -0.001
  0.000  0.015  0.675  0.002  0.000
  0.040 -0.001  0.002  0.973  0.000
  0.001 -0.001  0.000  0.000  0.555
atom    9   Tr[ns(na)] =   7.18999
    eigenvalues:
  0.575  0.593  0.755  0.834  0.838
    eigenvectors:
  0.000  0.140  0.001  0.446  0.413
  1.000  0.000  0.000  0.000  0.000
  0.000  0.000  0.999  0.001  0.000
  0.000  0.860  0.000  0.072  0.067
  0.000  0.000  0.000  0.481  0.519
    occupations:
  0.802  0.000 -0.003 -0.084  0.002
  0.000  0.575  0.001  0.000  0.000
 -0.003  0.001  0.755  0.001  0.000
 -0.084  0.000  0.001  0.627 -0.001
  0.002  0.000  0.000 -0.001  0.836
atom   10   Tr[ns(na)] =   7.22342
    eigenvalues:
  0.535  0.537  0.760  0.827  0.952
    eigenvectors:
  0.988  0.001  0.000  0.000  0.011
  0.000  0.000  0.000  1.000  0.000
  0.000  0.000  1.000  0.000  0.000
  0.011  0.000  0.000  0.000  0.989
  0.001  0.999  0.000  0.000  0.000
    occupations:
  0.540  0.000 -0.000  0.044  0.000
  0.000  0.827  0.001  0.000 -0.001
 -0.000  0.001  0.760 -0.002 -0.000
  0.044  0.000 -0.002  0.947 -0.000
  0.000 -0.001 -0.000 -0.000  0.537
atom   16   Tr[ns(na)] =   7.22101
    eigenvalues:
  0.515  0.561  0.731  0.845  0.959
    eigenvectors:
  0.000  0.191  0.007  0.000  0.802
  1.000  0.000  0.000  0.000  0.000
  0.000  0.000  0.989  0.000  0.011
  0.000  0.809  0.004  0.000  0.188
  0.000  0.000  0.000  1.000  0.000
    occupations:
  0.881  0.000  0.022 -0.155 -0.000
  0.000  0.515 -0.000 -0.000 -0.004
  0.022 -0.000  0.733 -0.007  0.000
 -0.155 -0.000 -0.007  0.636  0.000
 -0.000 -0.004  0.000  0.000  0.845
atom   17   Tr[ns(na)] =   7.19525
    eigenvalues:
  0.555  0.604  0.673  0.789  0.977
    eigenvectors:
  0.001  0.988  0.000  0.000  0.011
  0.000  0.000  0.018  0.982  0.000
  0.000  0.000  0.982  0.018  0.000
  0.000  0.011  0.000  0.000  0.989
  0.999  0.001  0.000  0.000  0.000
    occupations:
  0.608 -0.001  0.000  0.040  0.001
 -0.001  0.787  0.015 -0.001 -0.001
  0.000  0.015  0.675  0.002  0.000
  0.040 -0.001  0.002  0.973  0.000
  0.001 -0.001  0.000  0.000  0.555
atom   22   Tr[ns(na)] =   7.18999
    eigenvalues:
  0.575  0.593  0.755  0.834  0.838
    eigenvectors:
  0.000  0.140  0.001  0.446  0.413
  1.000  0.000  0.000  0.000  0.000
  0.000  0.000  0.999  0.001  0.000
  0.000  0.860  0.000  0.072  0.067
  0.000  0.000  0.000  0.481  0.519
    occupations:
  0.802  0.000 -0.003 -0.084  0.002
  0.000  0.575  0.001  0.000  0.000
 -0.003  0.001  0.755  0.000  0.000
 -0.084  0.000  0.000  0.627 -0.001
  0.002  0.000  0.000 -0.001  0.836
atom   23   Tr[ns(na)] =   7.22345
    eigenvalues:
  0.535  0.537  0.760  0.827  0.952
    eigenvectors:
  0.988  0.001  0.000  0.000  0.011
  0.000  0.000  0.000  1.000  0.000
  0.000  0.000  1.000  0.000  0.000
  0.011  0.000  0.000  0.000  0.989
  0.001  0.999  0.000  0.000  0.000
    occupations:
  0.540  0.000 -0.000  0.044  0.000
  0.000  0.827  0.001  0.000 -0.001
 -0.000  0.001  0.760 -0.002 -0.000
  0.044  0.000 -0.002  0.947 -0.000
  0.000 -0.001 -0.000 -0.000  0.537
N of occupied +U levels =  57.6593476
 --- exit write_ns ---

[...]

          k = 0.2500-0.4870 0.0000 ( 30468 PWs)   bands (ev):

[...]

          k =-0.2500 0.2435 0.0000 ( 30434 PWs)   bands (ev):

   -74.2238 -74.2161 -74.0708 -74.0634 -73.8793 -73.8717 -73.7125 -73.7053
   -44.3706 -44.3658 -44.3394 -44.2290 -44.2227 -44.2189 -44.2141 -44.2101
   -44.1387 -44.1183 -44.0090 -43.9209 -43.9163 -43.8931 -43.8851 -43.8513
   -43.8332 -43.7873 -43.6870 -43.6750 -43.6533 -43.6402 -43.6192 -43.5636
   -20.8798 -20.4489 -20.3670 -20.3288 -20.1997 -20.0834 -19.7992 -19.7827
   -19.6760 -19.5761 -19.5436 -19.4473 -19.2855 -19.2280 -19.2248 -19.0792
   -19.0482 -18.8577  -9.1967  -8.6891  -8.6030  -8.5529  -8.2645  -8.2149
    -8.0545  -8.0116  -7.8845  -7.7412  -7.6605  -7.6337  -7.5165  -7.4985
    -7.3939  -7.3937  -7.2786  -7.2111  -6.8442  -6.7563  -6.7053  -6.4657
    -6.3467  -6.1660  -6.0177  -5.8706  -5.8572  -5.6291  -5.5397  -5.4565
    -5.4295  -5.3587  -5.2915  -5.1567  -5.0555  -5.0179  -4.9254  -4.8907
    -4.7540  -4.7288  -4.5808  -4.4847  -4.2640  -4.2239  -4.1199  -4.0674
    -3.9686  -3.8602  -3.7786  -3.5010  -3.4664  -3.1603  -3.1313  -2.7643
    -2.4442  -2.3988  -2.1870  -1.9696  -1.9656  -1.9184  -1.8472  -1.7932
    -1.7834  -1.6781  -1.6669  -1.5653  -1.4644  -1.3303  -1.2719  -1.0786
    -0.7874  -0.5831  -0.5802  -0.4314  -0.3664  -0.1822  -0.0668   0.1453
     0.7314   0.9047   1.6366   1.7916   1.8227   2.3552   2.3656   2.7085
     2.9091   3.1744   3.3381   3.3387   3.4244   3.5401   3.8060   3.8322
     4.0601   4.3353   4.6563   5.0877   5.5421   5.7843   5.8396   5.9965
     6.1031   6.3940   6.5469   6.5583   6.7311   6.8823   6.9620   7.1919
     7.4791   7.5382   7.7925   7.9062   7.9382   8.2209   8.2588   8.3855
     8.4493   8.5333   8.7195   8.7324   8.8389   8.9969   9.1712   9.2095
     9.2796   9.4974   9.5016   9.7745   9.7958   9.9552   9.9784  10.0496
    10.1085  10.3004  10.3312  10.4258  10.4397  10.5888  10.6535  10.7732
    10.8380  10.8980  11.0243  11.1538  11.2931  11.3263  11.4480  11.5416
    11.5909  11.6646  11.6744  11.8157  11.8884  12.0014  12.0374  12.0750
    12.1709  12.3018  12.3799  12.4642  12.5063  12.5704  12.6718  12.6929
    12.7850  12.8142  12.9204  12.9660  12.9688  13.1436  13.2196  13.3552
    13.3627  13.4625  13.5789  13.6509  13.7095  13.7664  13.8567  13.9774
    14.0038  14.0593  14.1891  14.3350  14.3511  14.3977  14.5460  14.5582
    14.5893  14.7191  14.7914  14.8908  14.9095  15.0434  15.0441  15.1410
    15.2460  15.3669  15.5042  15.5406  15.6667  15.7212  15.7582  15.8312
    15.8414  15.9261  15.9357  15.9635  16.0325  16.0920  16.1659  16.1814
    16.2936  16.3984  16.4417  16.5431  16.6035  16.7177  16.7251  16.8162
    16.8489  16.8593  17.0084  17.0294  17.0982  17.2227  17.2750  17.3849
    17.4458  17.4833  17.5004  17.5921  17.6030  17.6202  17.7241  17.7891
    17.8703  17.8843  17.9970  17.9991  18.0712  18.1536  18.1705  18.3252
    18.3261  18.4540  18.5165  18.6232  18.6318  18.7498  18.7531  18.8956
    18.9926  19.0431  19.1202  19.1758  19.2533  19.2674  19.3574  19.4227
    19.4556  19.5873  19.6326  19.7742  19.8281  19.8571  19.9226  19.9767
    20.0424  20.2145  20.2165  20.4063  20.4079  20.5699  20.6499  20.6837
    20.7660  20.7848  20.8888  20.9038  20.9930  21.0575  21.0731  21.1199
    21.2153  21.2612  21.3349  21.3711  21.3977  21.4281  21.4849  21.6394
    21.6514  21.6631  21.8010  21.8369

     the Fermi energy is    -0.9364 ev

!    total energy              =   -2129.97642048 Ry
     Harris-Foulkes estimate   =   -2129.97642048 Ry
     estimated scf accuracy    <          1.9E-09 Ry

     The total energy is the sum of the following terms:

     one-electron contribution =  -24509.72886701 Ry
     hartree contribution      =   12276.36938382 Ry
     xc contribution           =    -330.78360042 Ry
     ewald contribution        =   10432.85312695 Ry
     Hubbard energy            =       1.31258809 Ry
     smearing contrib. (-TS)   =       0.00094811 Ry

     convergence has been achieved in  18 iterations

     Forces acting on atoms (Ry/au):

     negative rho (up, down):  0.573E+00 0.000E+00
     atom    1 type  1   force =    -0.00527035   -0.01036434    0.00000411
     atom    2 type  1   force =    -0.00017003    0.00707038   -0.00027848
     atom    3 type  2   force =    -0.00028743    0.00127767   -0.00049631
     atom    4 type  2   force =     0.00328293    0.00616985    0.00014691
     atom    5 type  1   force =     0.00129911   -0.03072130    0.00011963
     atom    6 type  1   force =     0.00144918    0.03061474    0.00017181
     atom    7 type  1   force =     0.00010371   -0.00200174    0.00028616
     atom    8 type  1   force =     0.00015452   -0.00130642   -0.00059103
     atom    9 type  2   force =     0.00081594    0.00169921    0.00021515
     atom   10 type  2   force =     0.00007342   -0.00022251   -0.00004916
     atom   11 type  1   force =    -0.00002069    0.01002343    0.00035181
     atom   12 type  1   force =    -0.00000611   -0.01129463    0.00039934
     atom   13 type  1   force =    -0.00165403   -0.00061584    0.00016779
     atom   14 type  1   force =    -0.00527150   -0.01036523    0.00000393
     atom   15 type  1   force =    -0.00017043    0.00707045   -0.00027927
     atom   16 type  2   force =    -0.00028627    0.00128041   -0.00049239
     atom   17 type  2   force =     0.00328259    0.00617011    0.00014543
     atom   18 type  1   force =     0.00130526   -0.03072194    0.00011758
     atom   19 type  1   force =     0.00145480    0.03061521    0.00017034
     atom   20 type  1   force =     0.00010447   -0.00200212    0.00028678
     atom   21 type  1   force =     0.00015345   -0.00130614   -0.00060185
     atom   22 type  2   force =     0.00084909    0.00169674    0.00021639
     atom   23 type  2   force =     0.00007478   -0.00022238   -0.00005214
     atom   24 type  1   force =    -0.00001191    0.01002480    0.00035536
     atom   25 type  1   force =     0.00000283   -0.01129150    0.00039241
     atom   26 type  1   force =    -0.00165617   -0.00061650    0.00017527
     atom   27 type  3   force =    -0.00000784   -0.00032451   -0.00076562
     atom   28 type  3   force =    -0.00000766   -0.00032492   -0.00076531
     atom   29 type  3   force =     0.00020805   -0.00000536    0.00032262
     atom   30 type  3   force =     0.00020628   -0.00000562    0.00032274

     Total force =     0.002012     Total SCF correction =     0.000192

     bfgs converged in   9 scf cycles and   8 bfgs steps
     (criteria: energy < 0.10E-03, force < 0.10E-02)

     End of BFGS Geometry Optimization

     Final energy   =   -2129.9764204759 Ry
Begin final coordinates

ATOMIC_POSITIONS (crystal)
O0       0.000000000   0.000000000   0.380540516    0   0   1
O0       0.000000000   0.500000000   0.402900907    0   0   1
Ru1      0.250000000   0.500000000   0.453295279    0   0   1
Ru1      0.000000000   0.000000000   0.454331783    0   0   1
O0       0.250000000   0.810000000   0.453769393    0   0   1
O0       0.250000000   0.190000000   0.453656358    0   0   1
O0       0.000000000   0.500000000   0.499249667    0   0   1
O0       0.000000000   0.000000000   0.527636929    0   0   1
Ru1      0.250000000   0.000000000   0.578464975    0   0   1
Ru1      0.000000000   0.500000000   0.569598517    0   0   1
O0       0.250000000   0.690000000   0.575645517    0   0   1
O0       0.250000000   0.310000000   0.575866532    0   0   1
O0       0.000000000   0.000000000   0.619920649    0   0   1
O0       0.500000000   0.000000000   0.380540457    0   0   1
O0       0.500000000   0.500000000   0.402900893    0   0   1
Ru1      0.750000000   0.500000000   0.453295153    0   0   1
Ru1      0.500000000   0.000000000   0.454332158    0   0   1
O0       0.750000000   0.810000000   0.453769549    0   0   1
O0       0.750000000   0.190000000   0.453656488    0   0   1
O0       0.500000000   0.500000000   0.499249495    0   0   1
O0       0.500000000   0.000000000   0.527638011    0   0   1
Ru1      0.750000000   0.000000000   0.578465003    0   0   1
Ru1      0.500000000   0.500000000   0.569598644    0   0   1
O0       0.750000000   0.690000000   0.575644928    0   0   1
O0       0.750000000   0.310000000   0.575867778    0   0   1
O0       0.500000000   0.000000000   0.619919064    0   0   1
H2      -0.000483782   0.626711617   0.381553596
H2       0.499516103   0.626711980   0.381553663
H2       0.146192977   0.028796132   0.368003902
H2       0.646193508   0.028796548   0.368004195
End final coordinates

     General routines

     Parallel routines
     Hubbard U routines

   This run was terminated on:  14: 1:53   6May2014

   JOB DONE.
Running PBS batch system epilogue script
Job id: 340779.audhumbla.fysik.dtu.dk
Username: zhonxu
Groupname: campgst
Jobname: RuO2/Eads-2-layers/bare-U-2.5
Sessionid: 8599
Queuename: verylong
Accounting:
This job has allocated the following 16 nodes:
a039 a039 a039 a039 a039 a039 a039 a039 a007 a007 a007 a007 a007 a007 a007 a007
Finished epilogue job 340779.audhumbla.fysik.dtu.dk for zhonxu