     Program PWSCF v.5.0.2 (svn rev. 9656) starts on  9May2014 at 10:43:52

     Current dimensions of program PWSCF are:
     Max number of different atomic species (ntypx) = 10
     Max number of k-points (npk) =  40000
     Max angular momentum in pseudopotentials (lmaxx) =  3
     Reading input from pwscf.in
Warning: card &CELL ignored
Warning: card / ignored

     Subspace diagonalization in iterative solution of the eigenvalue problem:
     a serial algorithm will be used

     Found symmetry operation: I + ( -0.5000  0.0000  0.0000)
     This is a supercell, fractional translations are disabled

     bravais-lattice index     =            0
     lattice parameter (alat)  =      10.7336  a.u.
     unit-cell volume          =    6184.1966 (a.u.)^3
     number of atoms/cell      =           30
     number of atomic types    =            3
     number of electrons       =       232.00 (up: 128.00, down: 104.00)
     number of Kohn-Sham states=          336
     kinetic-energy cutoff     =      40.0000  Ry
     charge density cutoff     =     500.0000  Ry
     convergence threshold     =      1.0E-06
     mixing beta               =       0.7000
     number of iterations used =            8  plain     mixing
     Exchange-correlation      = SLA  PW   PBE  PBE ( 1 4 3 4 0)
     EXX-fraction              =        0.00
     nstep                     =           50

     celldm(1)=  10.733644  celldm(2)=   0.000000  celldm(3)=   0.000000
     celldm(4)=   0.000000  celldm(5)=   0.000000  celldm(6)=   0.000000

     crystal axes: (cart. coord. in units of alat)
               a(1) = (   1.000000   0.000000   0.000000 )
               a(2) = (   0.000000   1.085558   0.000000 )
               a(3) = (   0.000000   0.000000   4.606685 )

     reciprocal axes: (cart. coord. in units 2 pi/alat)
               b(1) = (  1.000000  0.000000  0.000000 )
               b(2) = (  0.000000  0.921185  0.000000 )
               b(3) = (  0.000000  0.000000  0.217076 )

     PseudoPot. # 1 for O  read from file:
     /home/camp/zhonxu/pseudo/o_pbe_v1.01.uspp.F.UPF
     MD5 check sum: 2bcb18d16ea4b960afae9ec6d52f22d2
     Pseudo is Ultrasoft + core correction, Zval =  6.0
     Generated by new atomic code, or converted to UPF format
     Using radial grid of  737 points,  5 beta functions with:
                l(1) =   0
                l(2) =   0
                l(3) =   1
                l(4) =   1
                l(5) =   2
     Q(r) pseudized with  8 coefficients,  rinner =    0.900   0.900   0.900
                                                       0.900   0.900

     PseudoPot. # 2 for Mn read from file:
     /home/camp/zhonxu/pseudo/mn_pbe_v1.uspp.F.UPF
     MD5 check sum: 5fd7c7b5c956fd19902447332617373a
     Pseudo is Ultrasoft + core correction, Zval = 15.0
     Generated by new atomic code, or converted to UPF format
     Using radial grid of  859 points,  6 beta functions with:
                l(1) =   0
                l(2) =   0
                l(3) =   1
                l(4) =   1
                l(5) =   2
                l(6) =   2
     Q(r) pseudized with  6 coefficients,  rinner =    1.150   1.150   1.150
                                                       1.150   1.150

     PseudoPot. # 3 for H  read from file:
     /home/camp/zhonxu/pseudo/h_pbe_v1.uspp.F.UPF
     MD5 check sum: 3408e3ff4ec8b0a4e358431e7e038a48
     Pseudo is Ultrasoft, Zval =  1.0
     Generated by new atomic code, or converted to UPF format
     Using radial grid of  615 points,  2 beta functions with:
                l(1) =   0
                l(2) =   0
     Q(r) pseudized with  8 coefficients,  rinner =    0.700

     atomic species   valence    mass     pseudopotential
        O0             6.00    15.99940     O ( 1.00)
        Mn1           15.00    54.93800     Mn( 1.00)
        H2             1.00     1.00794     H ( 1.00)

     Starting magnetic structure
     atomic species   magnetization
        O0           0.000
        Mn1          0.600
        H2           0.000

     Simplified LDA+U calculation (l_max = 2) with parameters (eV):
     atomic species    L          U    alpha       J0     beta
        Mn1            2     2.5000   0.0000   0.0000   0.0000

     No symmetry found

   Cartesian axes

     site n.     atom                  positions (alat units)
         1           O0  tau(   1) = (   0.0000000   0.0000000   1.7440910  )
         2           O0  tau(   2) = (   0.0000000   0.5427791   1.8348887  )
         3           Mn1 tau(   3) = (   0.2500000   0.5427791   2.0695072  )
         4           Mn1 tau(   4) = (   0.0000000   0.0000000   2.0719487  )
         5           O0  tau(   5) = (   0.2500000   0.8684466   2.0695533  )
         6           O0  tau(   6) = (   0.2500000   0.2171117   2.0770161  )
         7           O0  tau(   7) = (   0.0000000   0.5427791   2.2881405  )
         8           O0  tau(   8) = (   0.0000000   0.0000000   2.4167130  )
         9           Mn1 tau(   9) = (   0.2500000   0.0000000   2.6452046  )
        10           Mn1 tau(  10) = (   0.0000000   0.5427791   2.6189465  )
        11           O0  tau(  11) = (   0.2500000   0.7598908   2.6694358  )
        12           O0  tau(  12) = (   0.2500000   0.3256675   2.6696661  )
        13           O0  tau(  13) = (   0.0000000   0.0000000   2.8462864  )
        14           O0  tau(  14) = (   0.5000000   0.0000000   1.7440910  )
        15           O0  tau(  15) = (   0.5000000   0.5427791   1.8348887  )
        16           Mn1 tau(  16) = (   0.7500000   0.5427791   2.0695072  )
        17           Mn1 tau(  17) = (   0.5000000   0.0000000   2.0719487  )
        18           O0  tau(  18) = (   0.7500000   0.8684466   2.0695533  )
        19           O0  tau(  19) = (   0.7500000   0.2171117   2.0770161  )
        20           O0  tau(  20) = (   0.5000000   0.5427791   2.2881405  )
        21           O0  tau(  21) = (   0.5000000   0.0000000   2.4167130  )
        22           Mn1 tau(  22) = (   0.7500000   0.0000000   2.6452046  )
        23           Mn1 tau(  23) = (   0.5000000   0.5427791   2.6189465  )
        24           O0  tau(  24) = (   0.7500000   0.7598908   2.6694358  )
        25           O0  tau(  25) = (   0.7500000   0.3256675   2.6696661  )
        26           O0  tau(  26) = (   0.5000000   0.0000000   2.8462864  )
        27           H2  tau(  27) = (  -0.0000900   0.7018026   1.7591088  )
        28           H2  tau(  28) = (   0.4999100   0.7018026   1.7591088  )
        29           H2  tau(  29) = (   0.1616900   0.0388738   1.6898703  )
        30           H2  tau(  30) = (   0.6616900   0.0388738   1.6898703  )

     number of k points=    20  Methfessel-Paxton smearing, width (Ry)=  0.0100
                       cart. coord. in units 2pi/alat
        k(    1) = (   0.0000000   0.0000000   0.0000000), wk =   0.0625000
        k(    2) = (   0.0000000   0.2302962   0.0000000), wk =   0.1250000
        k(    3) = (   0.0000000  -0.4605925   0.0000000), wk =   0.0625000
        k(    4) = (   0.2500000   0.0000000   0.0000000), wk =   0.1250000
        k(    5) = (   0.2500000   0.2302962   0.0000000), wk =   0.1250000
        k(    6) = (   0.2500000  -0.4605925   0.0000000), wk =   0.1250000
        k(    7) = (  -0.5000000   0.0000000   0.0000000), wk =   0.0625000
        k(    8) = (  -0.5000000   0.2302962   0.0000000), wk =   0.1250000
        k(    9) = (  -0.5000000  -0.4605925   0.0000000), wk =   0.0625000
        k(   10) = (  -0.2500000   0.2302962   0.0000000), wk =   0.1250000
        k(   11) = (   0.0000000   0.0000000   0.0000000), wk =   0.0625000
        k(   12) = (   0.0000000   0.2302962   0.0000000), wk =   0.1250000
        k(   13) = (   0.0000000  -0.4605925   0.0000000), wk =   0.0625000
        k(   14) = (   0.2500000   0.0000000   0.0000000), wk =   0.1250000
        k(   15) = (   0.2500000   0.2302962   0.0000000), wk =   0.1250000
        k(   16) = (   0.2500000  -0.4605925   0.0000000), wk =   0.1250000
        k(   17) = (  -0.5000000   0.0000000   0.0000000), wk =   0.0625000
        k(   18) = (  -0.5000000   0.2302962   0.0000000), wk =   0.1250000
        k(   19) = (  -0.5000000  -0.4605925   0.0000000), wk =   0.0625000
        k(   20) = (  -0.2500000   0.2302962   0.0000000), wk =   0.1250000

     Largest allocated arrays     est. size (Mb)     dimensions
     Largest temporary arrays     est. size (Mb)     dimensions

     Check: negative/imaginary core charge=   -0.000022    0.000000

     Initial potential from superposition of free atoms
     Check: negative starting charge=(component1):   -0.000776
     Check: negative starting charge=(component2):   -0.000381

     starting charge  223.99987, renormalised to  232.00000

     negative rho (up, down):  0.804E-03 0.395E-03
     Number of +U iterations with fixed ns =  0
     Starting occupations:
 --- enter write_ns ---
 LDA+U parameters:
U( 2)     =  2.50000000
alpha( 2) =  0.00000000
atom    3   Tr[ns(na)] (up, down, total) =   5.00000  0.00000  5.00000
   spin  1
    eigenvalues:
  1.000  1.000  1.000  1.000  1.000
    eigenvectors:
  1.000  0.000  0.000  0.000  0.000
  0.000  1.000  0.000  0.000  0.000
  0.000  0.000  1.000  0.000  0.000
  0.000  0.000  0.000  1.000  0.000
  0.000  0.000  0.000  0.000  1.000
    occupations:
  1.000  0.000  0.000  0.000  0.000
  0.000  1.000  0.000  0.000  0.000
  0.000  0.000  1.000  0.000  0.000
  0.000  0.000  0.000  1.000  0.000
  0.000  0.000  0.000  0.000  1.000
   spin  2
    eigenvalues:
  0.000  0.000  0.000  0.000  0.000
    eigenvectors:
  1.000  0.000  0.000  0.000  0.000
  0.000  1.000  0.000  0.000  0.000
  0.000  0.000  1.000  0.000  0.000
  0.000  0.000  0.000  1.000  0.000
  0.000  0.000  0.000  0.000  1.000
    occupations:
  0.000  0.000  0.000  0.000  0.000
  0.000  0.000  0.000  0.000  0.000
  0.000  0.000  0.000  0.000  0.000
  0.000  0.000  0.000  0.000  0.000
  0.000  0.000  0.000  0.000  0.000
atomic mag. moment =     5.000000
atom    4   Tr[ns(na)] (up, down, total) =   5.00000  0.00000  5.00000
   spin  1
    eigenvalues:
  1.000  1.000  1.000  1.000  1.000
    eigenvectors:
  1.000  0.000  0.000  0.000  0.000
  0.000  1.000  0.000  0.000  0.000
  0.000  0.000  1.000  0.000  0.000
  0.000  0.000  0.000  1.000  0.000
  0.000  0.000  0.000  0.000  1.000
    occupations:
  1.000  0.000  0.000  0.000  0.000
  0.000  1.000  0.000  0.000  0.000
  0.000  0.000  1.000  0.000  0.000
  0.000  0.000  0.000  1.000  0.000
  0.000  0.000  0.000  0.000  1.000
   spin  2
    eigenvalues:
  0.000  0.000  0.000  0.000  0.000
    eigenvectors:
  1.000  0.000  0.000  0.000  0.000
  0.000  1.000  0.000  0.000  0.000
  0.000  0.000  1.000  0.000  0.000
  0.000  0.000  0.000  1.000  0.000
  0.000  0.000  0.000  0.000  1.000
    occupations:
  0.000  0.000  0.000  0.000  0.000
  0.000  0.000  0.000  0.000  0.000
  0.000  0.000  0.000  0.000  0.000
  0.000  0.000  0.000  0.000  0.000
  0.000  0.000  0.000  0.000  0.000
atomic mag. moment =     5.000000
atom    9   Tr[ns(na)] (up, down, total) =   5.00000  0.00000  5.00000
   spin  1
    eigenvalues:
  1.000  1.000  1.000  1.000  1.000
    eigenvectors:
[...]
  0.000  0.002  0.000  0.998  0.000
  0.003  0.000  0.997  0.000  0.000
  0.223  0.000  0.000  0.000  0.777
  0.000  0.998  0.000  0.002  0.000
    occupations:
  0.173 -0.000 -0.002  0.115 -0.000
 -0.000  0.374  0.000 -0.000  0.011
 -0.002  0.000  0.179  0.005 -0.000
  0.115 -0.000  0.005  0.325 -0.000
 -0.000  0.011 -0.000 -0.000  0.148
atomic mag. moment =     3.061319
atom    4   Tr[ns(na)] (up, down, total) =   4.22099  1.23918  5.46017
   spin  1
    eigenvalues:
  0.586  0.637  0.993  1.002  1.004
    eigenvectors:
  0.000  0.998  0.000  0.000  0.001
  0.000  0.001  0.000  0.023  0.976
  0.000  0.000  0.000  0.977  0.023
  0.000  0.000  0.999  0.000  0.000
  1.000  0.000  0.000  0.000  0.000
    occupations:
  0.637 -0.012 -0.005  0.006 -0.000
 -0.012  1.003  0.000  0.000  0.001
 -0.005  0.000  1.002  0.000  0.000
  0.006  0.000  0.000  0.993  0.000
 -0.000  0.001  0.000  0.000  0.586
   spin  2
    eigenvalues:
  0.112  0.154  0.183  0.395  0.395
    eigenvectors:
  0.002  0.004  0.000  0.702  0.291
  0.001  0.917  0.078  0.002  0.002
  0.000  0.077  0.922  0.000  0.000
  0.997  0.001  0.000  0.001  0.001
  0.000  0.000  0.000  0.294  0.706
    occupations:
  0.393  0.015  0.005 -0.013 -0.000
  0.015  0.157 -0.008  0.000 -0.003
  0.005 -0.008  0.181  0.001  0.000
 -0.013  0.000  0.001  0.112 -0.000
 -0.000 -0.003  0.000 -0.000  0.395
atomic mag. moment =     2.981808
atom    9   Tr[ns(na)] (up, down, total) =   4.18661  1.32040  5.50701
   spin  1
    eigenvalues:
  0.637  0.639  0.947  0.967  0.996
    eigenvectors:
  0.198  0.008  0.000  0.000  0.793
  0.041  0.959  0.000  0.000  0.000
  0.000  0.000  0.000  1.000  0.000
  0.760  0.033  0.000  0.000  0.207
  0.000  0.000  1.000  0.000  0.000
    occupations:
  0.922  0.000  0.000 -0.145  0.000
  0.000  0.639  0.000  0.000 -0.000
  0.000  0.000  0.967  0.000 -0.000
 -0.145  0.000  0.000  0.711  0.000
  0.000 -0.000 -0.000  0.000  0.947
   spin  2
    eigenvalues:
  0.151  0.167  0.173  0.400  0.429
    eigenvectors:
  0.825  0.000  0.000  0.175  0.000
  0.000  0.000  0.000  0.000  1.000
  0.000  1.000  0.000  0.000  0.000
  0.175  0.000  0.000  0.825  0.000
  0.000  0.000  1.000  0.000  0.000
    occupations:
  0.195 -0.000  0.000  0.094 -0.000
 -0.000  0.429 -0.000 -0.000 -0.000
  0.000 -0.000  0.167 -0.000 -0.000
  0.094 -0.000 -0.000  0.357 -0.000
 -0.000 -0.000 -0.000 -0.000  0.173
atomic mag. moment =     2.866208
atom   10   Tr[ns(na)] (up, down, total) =   4.46857  0.91199  5.38056
   spin  1
    eigenvalues:
  0.621  0.863  0.988  0.997  0.999
    eigenvectors:
  0.000  0.986  0.000  0.014  0.000
  0.000  0.000  1.000  0.000  0.000
  0.000  0.000  0.000  0.000  1.000
  0.000  0.014  0.000  0.986  0.000
  1.000  0.000  0.000  0.000  0.000
    occupations:
  0.865  0.000  0.000  0.016  0.000
  0.000  0.988  0.000  0.000 -0.000
  0.000  0.000  0.999 -0.000 -0.000
  0.016  0.000 -0.000  0.995 -0.000
  0.000 -0.000 -0.000 -0.000  0.621
   spin  2
    eigenvalues:
  0.097  0.123  0.126  0.206  0.359
    eigenvectors:
  0.022  0.000  0.000  0.978  0.000
  0.000  0.000  1.000  0.000  0.000
  0.000  1.000  0.000  0.000  0.000
  0.978  0.000  0.000  0.022  0.000
  0.000  0.000  0.000  0.000  1.000
    occupations:
  0.204 -0.000 -0.000 -0.016 -0.000
 -0.000  0.126 -0.000 -0.000  0.000
 -0.000 -0.000  0.123 -0.000  0.000
 -0.016 -0.000 -0.000  0.099 -0.000
 -0.000  0.000  0.000 -0.000  0.359
atomic mag. moment =     3.556587
atom   16   Tr[ns(na)] (up, down, total) =   4.26044  1.19912  5.45957
   spin  1
    eigenvalues:
  0.618  0.647  0.995  0.996  1.005
    eigenvectors:
  0.252  0.000  0.738  0.000  0.011
  0.000  0.999  0.000  0.001  0.000
  0.000  0.000  0.012  0.000  0.988
  0.748  0.000  0.250  0.000  0.002
  0.000  0.001  0.000  0.999  0.000
    occupations:
  0.900  0.000 -0.004 -0.164  0.000
  0.000  0.647 -0.000  0.000 -0.008
 -0.004 -0.000  1.005 -0.005  0.000
 -0.164  0.000 -0.005  0.713  0.000
  0.000 -0.008  0.000  0.000  0.996
   spin  2
    eigenvalues:
  0.111  0.148  0.179  0.375  0.386
    eigenvectors:
  0.774  0.000  0.003  0.000  0.223
  0.000  0.002  0.000  0.998  0.000
  0.003  0.000  0.997  0.000  0.000
  0.223  0.000  0.000  0.000  0.777
  0.000  0.998  0.000  0.002  0.000
    occupations:
  0.173 -0.000 -0.002  0.115 -0.000
 -0.000  0.374  0.000 -0.000  0.011
 -0.002  0.000  0.179  0.005 -0.000
  0.115 -0.000  0.005  0.325 -0.000
 -0.000  0.011 -0.000 -0.000  0.148
atomic mag. moment =     3.061320
atom   17   Tr[ns(na)] (up, down, total) =   4.22099  1.23919  5.46017
   spin  1
    eigenvalues:
  0.586  0.637  0.993  1.002  1.004
    eigenvectors:
  0.000  0.998  0.000  0.000  0.001
  0.000  0.001  0.000  0.023  0.976
  0.000  0.000  0.000  0.977  0.023
  0.000  0.000  0.999  0.000  0.000
  1.000  0.000  0.000  0.000  0.000
    occupations:
  0.637 -0.012 -0.005  0.006 -0.000
 -0.012  1.003  0.000  0.000  0.001
 -0.005  0.000  1.002  0.000  0.000
  0.006  0.000  0.000  0.993  0.000
 -0.000  0.001  0.000  0.000  0.586
   spin  2
    eigenvalues:
  0.112  0.154  0.183  0.395  0.395
    eigenvectors:
  0.002  0.004  0.000  0.700  0.294
  0.001  0.917  0.078  0.002  0.002
  0.000  0.077  0.922  0.000  0.000
  0.997  0.001  0.000  0.001  0.001
  0.000  0.000  0.000  0.296  0.704
    occupations:
  0.393  0.015  0.005 -0.013 -0.000
  0.015  0.157 -0.008  0.000 -0.003
  0.005 -0.008  0.181  0.001  0.000
 -0.013  0.000  0.001  0.112 -0.000
 -0.000 -0.003  0.000 -0.000  0.395
atomic mag. moment =     2.981799
atom   22   Tr[ns(na)] (up, down, total) =   4.18661  1.32040  5.50701
   spin  1
    eigenvalues:
  0.637  0.639  0.947  0.967  0.996
    eigenvectors:
  0.198  0.009  0.000  0.000  0.793
  0.042  0.958  0.000  0.000  0.000
  0.000  0.000  0.000  1.000  0.000
  0.760  0.033  0.000  0.000  0.207
  0.000  0.000  1.000  0.000  0.000
    occupations:
  0.922  0.000  0.000 -0.145  0.000
  0.000  0.639  0.000  0.000 -0.000
  0.000  0.000  0.967  0.000 -0.000
 -0.145  0.000  0.000  0.711  0.000
  0.000 -0.000 -0.000  0.000  0.947
   spin  2
    eigenvalues:
  0.151  0.167  0.173  0.400  0.429
    eigenvectors:
  0.825  0.000  0.000  0.175  0.000
  0.000  0.000  0.000  0.000  1.000
  0.000  1.000  0.000  0.000  0.000
  0.175  0.000  0.000  0.825  0.000
  0.000  0.000  1.000  0.000  0.000
    occupations:
  0.195 -0.000  0.000  0.094 -0.000
 -0.000  0.429 -0.000 -0.000 -0.000
  0.000 -0.000  0.167 -0.000 -0.000
  0.094 -0.000 -0.000  0.357 -0.000
 -0.000 -0.000 -0.000 -0.000  0.173
atomic mag. moment =     2.866206
atom   23   Tr[ns(na)] (up, down, total) =   4.46855  0.91202  5.38057
   spin  1
    eigenvalues:
  0.621  0.863  0.988  0.997  0.999
    eigenvectors:
  0.000  0.986  0.000  0.014  0.000
  0.000  0.000  1.000  0.000  0.000
  0.000  0.000  0.000  0.000  1.000
  0.000  0.014  0.000  0.986  0.000
  1.000  0.000  0.000  0.000  0.000
    occupations:
  0.865  0.000  0.000  0.016  0.000
  0.000  0.988  0.000  0.000 -0.000
  0.000  0.000  0.999 -0.000 -0.000
  0.016  0.000 -0.000  0.995 -0.000
  0.000 -0.000 -0.000 -0.000  0.621
   spin  2
    eigenvalues:
  0.097  0.123  0.126  0.206  0.359
    eigenvectors:
  0.022  0.000  0.000  0.978  0.000
  0.000  0.000  1.000  0.000  0.000
  0.000  1.000  0.000  0.000  0.000
  0.978  0.000  0.000  0.022  0.000
  0.000  0.000  0.000  0.000  1.000
    occupations:
  0.204 -0.000 -0.000 -0.016 -0.000
 -0.000  0.126 -0.000 -0.000  0.000
 -0.000 -0.000  0.123 -0.000  0.000
 -0.016 -0.000 -0.000  0.099 -0.000
 -0.000  0.000  0.000 -0.000  0.359
atomic mag. moment =     3.556533
N of occupied +U levels =  43.6146280
 --- exit write_ns ---

 ------ SPIN UP ------------

[...]

 ------ SPIN DOWN ----------

[...]

          k = 0.2500-0.4606 0.0000 ( 26462 PWs)   bands (ev):

[...]

          k =-0.2500 0.2303 0.0000 ( 26396 PWs)   bands (ev):

   -80.7460 -80.7381 -80.5793 -80.5709 -80.5405 -80.5322 -79.8158 -79.8075
   -49.6309 -49.5690 -49.5643 -49.5432 -49.5335 -49.4625 -49.4458 -49.4444
   -49.4348 -49.4010 -49.3974 -49.3896 -49.3840 -49.3324 -49.1878 -49.1786
   -49.1735 -49.1573 -48.9411 -48.8384 -48.7087 -48.6911 -48.2921 -48.2836
   -21.9288 -21.5108 -21.1255 -20.9057 -20.4909 -20.4773 -20.3173 -20.2466
   -20.1626 -20.0887 -20.0100 -19.9488 -19.8762 -19.8649 -19.6691 -19.5436
   -19.4143 -19.2697  -9.3909  -9.1405  -8.6478  -8.5315  -8.3885  -8.1436
    -7.8970  -7.7924  -7.6979  -7.6740  -7.5101  -7.4948  -7.2941  -7.2797
    -7.0723  -7.0551  -7.0008  -6.9410  -6.7527  -6.7246  -6.5158  -6.5057
    -6.4655  -6.3802  -6.2287  -5.9455  -5.9213  -5.8250  -5.6848  -5.5836
    -5.5387  -5.5140  -5.3369  -5.2887  -5.1622  -5.1520  -4.9977  -4.8813
    -4.7823  -4.6625  -4.6084  -4.4969  -4.3226  -4.2340  -4.1041  -4.0062
    -3.8993  -3.8126  -3.7909  -3.5899  -3.4416  -3.3224  -3.2322  -2.8883
    -0.5033  -0.4331  -0.4048  -0.2949  -0.2897  -0.1876  -0.1371  -0.0664
    -0.0476   0.0085   0.0748   0.1327   0.2485   0.2659   0.3740   0.4869
     0.5039   0.5567   0.6131   0.6884   0.8075   0.8101   0.8642   0.9665
     1.0836   1.1416   1.1533   1.3724   1.4849   1.6266   1.6482   1.6956
     1.9199   2.1203   2.1457   2.2575   2.2854   2.5142   2.6453   2.7102
     3.5990   4.1813   4.3421   4.8089   5.2800   5.5544   5.6344   6.0445
     6.2139   6.4186   6.4427   6.5387   6.6308   6.8751   6.8791   7.2325
     7.3576   7.6326   7.6932   7.8499   8.1107   8.2954   8.4155   8.5545
     8.5607   8.7166   8.7652   8.8416   9.0905   9.1786   9.2997   9.4634
     9.5440   9.6858   9.9325   9.9500  10.0454  10.1269  10.1950  10.3489
    10.4550  10.6164  10.6635  10.7153  10.8334  11.0502  11.0639  11.1123
    11.2856  11.3628  11.4798  11.5079  11.6013  11.6936  11.7053  11.8507
    11.8895  12.0218  12.1959  12.2365  12.3023  12.3538  12.4473  12.5163
    12.6779  12.8245  12.8478  12.8954  12.9140  12.9920  13.0794  13.1498
    13.2502  13.3246  13.3587  13.4535  13.5703  13.6187  13.6650  13.7398
    13.8587  13.8597  13.9719  14.0822  14.1374  14.2086  14.2734  14.3023
    14.3259  14.4437  14.4884  14.6591  14.6919  14.7222  14.7737  14.9215
    15.0001  15.0259  15.1085  15.2007  15.3667  15.4489  15.5312  15.6239
    15.6346  15.8102  15.8563  15.9538  15.9817  16.1248  16.2119  16.2581
    16.3644  16.4641  16.5368  16.5508  16.5913  16.7359  16.8285  16.9479
    17.0046  17.0513  17.1443  17.1676  17.2337  17.3366  17.3490  17.4758
    17.4804  17.6095  17.6397  17.7090  17.8863  17.9017  17.9295  18.1099
    18.1754  18.1913  18.2138  18.3340  18.3691  18.4234  18.5064  18.5853
    18.6693  18.7584  18.8196  18.8314  18.9662  19.0773  19.1915  19.2015
    19.2853  19.3196  19.4474  19.4794  19.6248  19.6375  19.7896  19.8334
    19.8894  19.9892  20.0356  20.0871  20.1229  20.2205  20.2899  20.3044
    20.3235  20.4466  20.4941  20.6140  20.6249  20.7722  20.9205  20.9515
    21.0740  21.1252  21.2315  21.2726  21.3638  21.3650  21.4705  21.5234
    21.5434  21.6333  21.7382  21.7985  21.8785  21.9315  22.0246  22.1065

     the spin up/dw Fermi energies are    -2.2346   -2.6974 ev

!    total energy              =   -2287.91813327 Ry
     Harris-Foulkes estimate   =   -2287.91813327 Ry
     estimated scf accuracy    <          2.5E-09 Ry

     The total energy is the sum of the following terms:

     one-electron contribution =  -25732.15395362 Ry
     hartree contribution      =   12881.22652047 Ry
     xc contribution           =    -341.44173200 Ry
     ewald contribution        =   10903.50401008 Ry
     Hubbard energy            =       0.94753893 Ry
     smearing contrib. (-TS)   =      -0.00051714 Ry

     total magnetization       =    24.00 Bohr mag/cell
     absolute magnetization    =    28.47 Bohr mag/cell

     convergence has been achieved in  17 iterations

     Forces acting on atoms (Ry/au):

     negative rho (up, down):  0.208E-02 0.141E-02
     atom    1 type  1   force =    -0.00593116   -0.01643677   -0.00074746
     atom    2 type  1   force =     0.00029175    0.01310929    0.00018419
     atom    3 type  2   force =    -0.00052576   -0.00298366    0.00025269
     atom    4 type  2   force =     0.00656669    0.01142039   -0.00059557
     atom    5 type  1   force =     0.00256919    0.01167749    0.00015395
     atom    6 type  1   force =    -0.00246122   -0.01544298    0.00026077
     atom    7 type  1   force =    -0.00000551    0.00074097    0.00038505
     atom    8 type  1   force =    -0.00112712   -0.00192723    0.00006374
     atom    9 type  2   force =     0.00068302    0.00051528    0.00081701
     atom   10 type  2   force =    -0.00004456   -0.00051626    0.00066643
     atom   11 type  1   force =     0.00004028   -0.05114745   -0.00034649
     atom   12 type  1   force =     0.00003727    0.05108243   -0.00035519
     atom   13 type  1   force =    -0.00035731   -0.00017159   -0.00033061
     atom   14 type  1   force =    -0.00593393   -0.01643725   -0.00075198
     atom   15 type  1   force =     0.00029201    0.01310909    0.00018286
     atom   16 type  2   force =    -0.00051477   -0.00298365    0.00025297
     atom   17 type  2   force =     0.00656821    0.01142051   -0.00060490
     atom   18 type  1   force =     0.00257134    0.01167743    0.00015403
     atom   19 type  1   force =    -0.00245903   -0.01544310    0.00026073
     atom   20 type  1   force =    -0.00000552    0.00074114    0.00037973
     atom   21 type  1   force =    -0.00112536   -0.00192728    0.00007061
     atom   22 type  2   force =     0.00065768    0.00051523    0.00081650
     atom   23 type  2   force =    -0.00004249   -0.00051647    0.00067980
     atom   24 type  1   force =     0.00002812   -0.05114669   -0.00034664
     atom   25 type  1   force =     0.00002517    0.05108164   -0.00035540
     atom   26 type  1   force =    -0.00035519   -0.00017158   -0.00035497
     atom   27 type  3   force =    -0.00000243   -0.00028458   -0.00042095
     atom   28 type  3   force =    -0.00000243   -0.00028407   -0.00042114
     atom   29 type  3   force =     0.00028060    0.00036449    0.00002501
     atom   30 type  3   force =     0.00028244    0.00036523    0.00002523

     Total force =     0.002537     Total SCF correction =     0.000188

     bfgs converged in  12 scf cycles and  11 bfgs steps
     (criteria: energy < 0.10E-03, force < 0.10E-02)

     End of BFGS Geometry Optimization

     Final energy   =   -2287.9181332664 Ry
Begin final coordinates

ATOMIC_POSITIONS (crystal)
O0       0.000000000   0.000000000   0.377292046    0   0   1
O0       0.000000000   0.500000000   0.396732146    0   0   1
Mn1      0.250000000   0.500000000   0.448310295    0   0   1
Mn1      0.000000000   0.000000000   0.448772847    0   0   1
O0       0.250000000   0.800000000   0.448629011    0   0   1
O0       0.250000000   0.200000000   0.450295998    0   0   1
O0       0.000000000   0.500000000   0.495669197    0   0   1
O0       0.000000000   0.000000000   0.525327059    0   0   1
Mn1      0.250000000   0.000000000   0.574369981    0   0   1
Mn1      0.000000000   0.500000000   0.570098955    0   0   1
O0       0.250000000   0.700000000   0.581623760    0   0   1
O0       0.250000000   0.300000000   0.581658720    0   0   1
O0       0.000000000   0.000000000   0.620021781    0   0   1
O0       0.500000000   0.000000000   0.377292816    0   0   1
O0       0.500000000   0.500000000   0.396732182    0   0   1
Mn1      0.750000000   0.500000000   0.448310292    0   0   1
Mn1      0.500000000   0.000000000   0.448773494    0   0   1
O0       0.750000000   0.800000000   0.448629100    0   0   1
O0       0.750000000   0.200000000   0.450296083    0   0   1
O0       0.500000000   0.500000000   0.495669567    0   0   1
O0       0.500000000   0.000000000   0.525326976    0   0   1
Mn1      0.750000000   0.000000000   0.574370026    0   0   1
Mn1      0.500000000   0.500000000   0.570097566    0   0   1
O0       0.750000000   0.700000000   0.581623703    0   0   1
O0       0.750000000   0.300000000   0.581658670    0   0   1
O0       0.500000000   0.000000000   0.620022472    0   0   1
H2       0.000191845   0.647634819   0.380893392
H2       0.500191805   0.647634917   0.380893530
H2       0.161790450   0.037349012   0.365914047
H2       0.661789294   0.037349227   0.365914289
End final coordinates

     General routines

     Parallel routines
     Hubbard U routines

   This run was terminated on:   3: 9:50  10May2014

   JOB DONE.
Running PBS batch system epilogue script
Job id: 340898.audhumbla.fysik.dtu.dk
Username: zhonxu
Groupname: campgst
Jobname: MnO2/Eads-2-layers/bare-U-2.5
Sessionid: 32513
Queuename: verylong
Accounting:
This job has allocated the following 16 nodes:
d081 d081 d081 d081 d081 d081 d081 d081 d019 d019 d019 d019 d019 d019 d019 d019
Finished epilogue job 340898.audhumbla.fysik.dtu.dk for zhonxu