     Program PWSCF v.5.0.2 (svn rev. 9656) starts on  1May2014 at  6:49:53

     Current dimensions of program PWSCF are:
     Max number of different atomic species (ntypx) = 10
     Max number of k-points (npk) =  40000
     Max angular momentum in pseudopotentials (lmaxx) =  3
     Reading input from pwscf.in
Warning: card &CELL ignored
Warning: card / ignored

     Subspace diagonalization in iterative solution of the eigenvalue problem:
     a serial algorithm will be used

     bravais-lattice index     =            0
     lattice parameter (alat)  =      10.1289  a.u.
     unit-cell volume          =    6836.7721 (a.u.)^3
     number of atoms/cell      =           32
     number of atomic types    =            3
     number of electrons       =       239.00
     number of Kohn-Sham states=          358
     kinetic-energy cutoff     =      40.0000  Ry
     charge density cutoff     =     500.0000  Ry
     convergence threshold     =      1.0E-06
     mixing beta               =       0.7000
     number of iterations used =            8  plain     mixing
     Exchange-correlation      = SLA  PW   PBE  PBE ( 1 4 3 4 0)
     EXX-fraction              =        0.00
     nstep                     =           50

     celldm(1)=  10.128932  celldm(2)=   0.000000  celldm(3)=   0.000000
     celldm(4)=   0.000000  celldm(5)=   0.000000  celldm(6)=   0.000000

     crystal axes: (cart. coord. in units of alat)
               a(1) = (   1.000000   0.000000   0.000000 )
               a(2) = (   0.000000   1.306037   0.000000 )
               a(3) = (   0.000000   0.000000   5.037380 )

     reciprocal axes: (cart. coord. in units 2 pi/alat)
               b(1) = (  1.000000  0.000000  0.000000 )
               b(2) = (  0.000000  0.765675  0.000000 )
               b(3) = (  0.000000  0.000000  0.198516 )

     PseudoPot. # 1 for O  read from file:
     /home/camp/zhonxu/pseudo/o_pbe_v1.01.uspp.F.UPF
     MD5 check sum: 2bcb18d16ea4b960afae9ec6d52f22d2
     Pseudo is Ultrasoft + core correction, Zval =  6.0
     Generated by new atomic code, or converted to UPF format
     Using radial grid of  737 points,  5 beta functions with:
                l(1) =   0
                l(2) =   0
                l(3) =   1
                l(4) =   1
                l(5) =   2
     Q(r) pseudized with  8 coefficients,  rinner =    0.900   0.900   0.900
                                                       0.900   0.900

     PseudoPot. # 2 for Re read from file:
     /home/camp/zhonxu/pseudo/re_pbe_v1.uspp.F.UPF
     MD5 check sum: 6f5a5dcaf9c96c20d0ffdde0de57afc6
     Pseudo is Ultrasoft + core correction, Zval = 15.0
     Generated by new atomic code, or converted to UPF format
     Using radial grid of  981 points,  8 beta functions with:
                l(1) =   0
                l(2) =   0
                l(3) =   1
                l(4) =   1
                l(5) =   2
                l(6) =   2
                l(7) =   3
                l(8) =   3
     Q(r) pseudized with  8 coefficients,  rinner =    1.000   1.000   1.000
                                                       1.000   1.000   1.000
                                                       1.000

     PseudoPot. # 3 for H  read from file:
     /home/camp/zhonxu/pseudo/h_pbe_v1.uspp.F.UPF
     MD5 check sum: 3408e3ff4ec8b0a4e358431e7e038a48
     Pseudo is Ultrasoft, Zval =  1.0
     Generated by new atomic code, or converted to UPF format
     Using radial grid of  615 points,  2 beta functions with:
                l(1) =   0
                l(2) =   0
     Q(r) pseudized with  8 coefficients,  rinner =    0.700

     atomic species   valence    mass     pseudopotential
        O0             6.00    15.99940     O ( 1.00)
        Re1           15.00   186.20700     Re( 1.00)
        H2             1.00     1.00794     H ( 1.00)

     Simplified LDA+U calculation (l_max = 2) with parameters (eV):
     atomic species    L          U    alpha       J0     beta
        Re1            2     1.5000   0.0000   0.0000   0.0000

     No symmetry found

   Cartesian axes

     site n.     atom                  positions (alat units)
         1           O0  tau(   1) = (   0.0000000   0.0000000   1.8669538  )
         2           O0  tau(   2) = (   0.0000000   0.6530184   1.9246318  )
         3           Re1 tau(   3) = (   0.2500000   0.6530184   2.2252626  )
         4           Re1 tau(   4) = (   0.0000000   0.0000000   2.2335239  )
         5           O0  tau(   5) = (   0.2500000   1.0187087   2.2252626  )
         6           O0  tau(   6) = (   0.2500000   0.2873281   2.2245574  )
         7           O0  tau(   7) = (   0.0000000   0.6530184   2.5039809  )
         8           O0  tau(   8) = (   0.0000000   0.0000000   2.5944019  )
         9           Re1 tau(   9) = (   0.2500000   0.0000000   2.8956372  )
        10           Re1 tau(  10) = (   0.0000000   0.6530184   2.8532728  )
        11           O0  tau(  11) = (   0.2500000   0.9403465   2.8863684  )
        12           O0  tau(  12) = (   0.2500000   0.3656903   2.8866706  )
        13           O0  tau(  13) = (   0.0000000   0.0000000   3.1589410  )
        14           O0  tau(  14) = (   0.5000000   0.0000000   1.8671553  )
        15           O0  tau(  15) = (   0.5000000   0.6530184   1.9260926  )
        16           Re1 tau(  16) = (   0.7500000   0.6530184   2.2254138  )
        17           Re1 tau(  17) = (   0.5000000   0.0000000   2.2327683  )
        18           O0  tau(  18) = (   0.7500000   1.0187087   2.2250108  )
        19           O0  tau(  19) = (   0.7500000   0.2873281   2.2249100  )
        20           O0  tau(  20) = (   0.5000000   0.6530184   2.5136527  )
        21           O0  tau(  21) = (   0.5000000   0.0000000   2.5937470  )
        22           Re1 tau(  22) = (   0.7500000   0.0000000   2.8949319  )
        23           Re1 tau(  23) = (   0.5000000   0.6530184   2.8846557  )
        24           O0  tau(  24) = (   0.7500000   0.9403465   2.8822881  )
        25           O0  tau(  25) = (   0.7500000   0.3656903   2.8822881  )
        26           O0  tau(  26) = (   0.5000000   0.0000000   3.1556667  )
        27           H2  tau(  27) = (  -0.0003600   0.8163644   1.8395505  )
        28           H2  tau(  28) = (   0.4996200   0.8138568   1.8363769  )
        29           H2  tau(  29) = (   0.1695000   0.0302217   1.7958260  )
        30           H2  tau(  30) = (   0.6704500   0.0285761   1.7967327  )
        31           O0  tau(  31) = (   0.5277600   0.6525874   3.2436194  )
        32           H2  tau(  32) = (   0.3788200   0.6519344   3.3501096  )

     number of k points=    10  Methfessel-Paxton smearing, width (Ry)=  0.0100
                       cart. coord. in units 2pi/alat
        k(    1) = (   0.0000000   0.0000000   0.0000000), wk =   0.1250000
        k(    2) = (   0.0000000   0.1914188   0.0000000), wk =   0.2500000
        k(    3) = (   0.0000000  -0.3828376   0.0000000), wk =   0.1250000
        k(    4) = (   0.2500000   0.0000000   0.0000000), wk =   0.2500000
        k(    5) = (   0.2500000   0.1914188   0.0000000), wk =   0.2500000
        k(    6) = (   0.2500000  -0.3828376   0.0000000), wk =   0.2500000
        k(    7) = (  -0.5000000   0.0000000   0.0000000), wk =   0.1250000
        k(    8) = (  -0.5000000   0.1914188   0.0000000), wk =   0.2500000
        k(    9) = (  -0.5000000  -0.3828376   0.0000000), wk =   0.1250000
        k(   10) = (  -0.2500000   0.1914188   0.0000000), wk =   0.2500000

     Largest allocated arrays     est. size (Mb)     dimensions
     Largest temporary arrays     est. size (Mb)     dimensions

     Check: negative/imaginary core charge=   -0.000003    0.000000

     Initial potential from superposition of free atoms
     Check: negative starting charge=   -0.237247

     starting charge  234.99957, renormalised to  239.00000

     negative rho (up, down):  0.241E+00 0.000E+00
     Number of +U iterations with fixed ns =  0
     Starting occupations:
 --- enter write_ns ---
 LDA+U parameters:
U( 2)     =  1.50000000
alpha( 2) =  0.00000000
atom    3   Tr[ns(na)] =   5.00000
    eigenvalues:
  0.500  0.500  0.500  0.500  0.500
    eigenvectors:
  1.000  0.000  0.000  0.000  0.000
  0.000  1.000  0.000  0.000  0.000
  0.000  0.000  1.000  0.000  0.000
  0.000  0.000  0.000  1.000  0.000
  0.000  0.000  0.000  0.000  1.000
    occupations:
  0.500  0.000  0.000  0.000  0.000
  0.000  0.500  0.000  0.000  0.000
  0.000  0.000  0.500  0.000  0.000
  0.000  0.000  0.000  0.500  0.000
  0.000  0.000  0.000  0.000  0.500
atom    4   Tr[ns(na)] =   5.00000
    eigenvalues:
  0.500  0.500  0.500  0.500  0.500
    eigenvectors:
  1.000  0.000  0.000  0.000  0.000
  0.000  1.000  0.000  0.000  0.000
  0.000  0.000  1.000  0.000  0.000
  0.000  0.000  0.000  1.000  0.000
  0.000  0.000  0.000  0.000  1.000
    occupations:
  0.500  0.000  0.000  0.000  0.000
  0.000  0.500  0.000  0.000  0.000
  0.000  0.000  0.500  0.000  0.000
  0.000  0.000  0.000  0.500  0.000
  0.000  0.000  0.000  0.000  0.500
atom    9   Tr[ns(na)] =   5.00000
    eigenvalues:
  0.500  0.500  0.500  0.500  0.500
    eigenvectors:
  1.000  0.000  0.000  0.000  0.000
  0.000  1.000  0.000  0.000  0.000
  0.000  0.000  1.000  0.000  0.000
  0.000  0.000  0.000  1.000  0.000
  0.000  0.000  0.000  0.000  1.000
    occupations:
  0.500  0.000  0.000  0.000  0.000
  0.000  0.500  0.000  0.000  0.000
  0.000  0.000  0.500  0.000  0.000
  0.000  0.000  0.000  0.500  0.000
  0.000  0.000  0.000  0.000  0.500
atom   10   Tr[ns(na)] =   5.00000
    eigenvalues:
  0.500  0.500  0.500  0.500  0.500
    eigenvectors:
  1.000  0.000  0.000  0.000  0.000
  0.000  1.000  0.000  0.000  0.000
  0.000  0.000  1.000  0.000  0.000
  0.000  0.000  0.000  1.000  0.000
  0.000  0.000  0.000  0.000  1.000
    occupations:
  0.500  0.000  0.000  0.000  0.000
  0.000  0.500  0.000  0.000  0.000
  0.000  0.000  0.500  0.000  0.000
  0.000  0.000  0.000  0.500  0.000
  0.000  0.000  0.000  0.000  0.500
atom   16   Tr[ns(na)] =   5.00000
    eigenvalues:
  0.500  0.500  0.500  0.500  0.500
    eigenvectors:
  1.000  0.000  0.000  0.000  0.000
  0.000  1.000  0.000  0.000  0.000
  0.000  0.000  1.000  0.000  0.000
  0.000  0.000  0.000  1.000  0.000
  0.000  0.000  0.000  0.000  1.000
    occupations:
  0.500  0.000  0.000  0.000  0.000
  0.000  0.500  0.000  0.000  0.000
  0.000  0.000  0.500  0.000  0.000
  0.000  0.000  0.000  0.500  0.000
  0.000  0.000  0.000  0.000  0.500
atom   17   Tr[ns(na)] =   5.00000
    eigenvalues:
  0.500  0.500  0.500  0.500  0.500
    eigenvectors:
  1.000  0.000  0.000  0.000  0.000
  0.000  1.000  0.000  0.000  0.000
  0.000  0.000  1.000  0.000  0.000
  0.000  0.000  0.000  1.000  0.000
  0.000  0.000  0.000  0.000  1.000
    occupations:
  0.500  0.000  0.000  0.000  0.000
  0.000  0.500  0.000  0.000  0.000
  0.000  0.000  0.500  0.000  0.000
  0.000  0.000  0.000  0.500  0.000
  0.000  0.000  0.000  0.000  0.500
atom   22   Tr[ns(na)] =   5.00000
    eigenvalues:
  0.500  0.500  0.500  0.500  0.500
    eigenvectors:
  1.000  0.000  0.000  0.000  0.000
[...]
  0.733  0.000  0.000  0.000  0.267
  0.000  0.000  0.009  0.990  0.000
    occupations:
  0.703 -0.000 -0.001 -0.067  0.001
 -0.000  0.605  0.000  0.001  0.000
 -0.001  0.000  0.618  0.000 -0.008
 -0.067  0.001  0.000  0.633 -0.001
  0.001  0.000 -0.008 -0.001  0.700
atom   10   Tr[ns(na)] =   6.48922
    eigenvalues:
  0.495  0.539  0.659  0.751  0.801
    eigenvectors:
  0.996  0.000  0.000  0.003  0.001
  0.001  0.000  0.000  0.000  0.999
  0.000  0.000  1.000  0.000  0.000
  0.003  0.000  0.000  0.997  0.000
  0.000  1.000  0.000  0.000  0.000
    occupations:
  0.496 -0.007  0.000 -0.015 -0.000
 -0.007  0.801  0.000 -0.001  0.001
  0.000  0.000  0.659 -0.000  0.001
 -0.015 -0.001 -0.000  0.750 -0.000
 -0.000  0.001  0.001 -0.000  0.539
atom   16   Tr[ns(na)] =   6.55063
    eigenvalues:
  0.541  0.570  0.645  0.759  0.761
    eigenvectors:
  0.001  0.372  0.006  0.537  0.085
  0.998  0.000  0.000  0.000  0.001
  0.000  0.000  0.989  0.010  0.000
  0.000  0.627  0.005  0.318  0.050
  0.001  0.000  0.000  0.135  0.863
    occupations:
  0.688  0.003  0.010 -0.091 -0.000
  0.003  0.541 -0.000 -0.002 -0.007
  0.010 -0.000  0.646 -0.007  0.002
 -0.091 -0.002 -0.007  0.640  0.000
 -0.000 -0.007  0.002  0.000  0.760
atom   17   Tr[ns(na)] =   6.51244
    eigenvalues:
  0.565  0.605  0.613  0.698  0.775
    eigenvectors:
  0.000  0.983  0.001  0.001  0.016
  0.000  0.001  0.004  0.995  0.000
  0.000  0.001  0.995  0.004  0.000
  0.000  0.016  0.000  0.000  0.984
  1.000  0.000  0.000  0.000  0.000
    occupations:
  0.608  0.003  0.000 -0.021  0.000
  0.003  0.698  0.006 -0.000 -0.001
  0.000  0.006  0.613  0.001 -0.000
 -0.021 -0.000  0.001  0.772 -0.000
  0.000 -0.001 -0.000 -0.000  0.565
atom   22   Tr[ns(na)] =   6.51826
    eigenvalues:
  0.593  0.604  0.615  0.701  0.746
    eigenvectors:
  0.268  0.000  0.000  0.001  0.731
  0.000  0.999  0.000  0.000  0.000
  0.000  0.000  0.994  0.005  0.000
  0.732  0.000  0.000  0.001  0.267
  0.000  0.000  0.005  0.993  0.002
    occupations:
  0.705  0.001 -0.001 -0.068  0.002
  0.001  0.604  0.000 -0.000  0.000
 -0.001  0.000  0.616  0.000  0.006
 -0.068 -0.000  0.000  0.634 -0.001
  0.002  0.000  0.006 -0.001  0.701
atom   23   Tr[ns(na)] =   6.51568
    eigenvalues:
  0.557  0.561  0.595  0.766  0.779
    eigenvectors:
  0.000  0.000  0.992  0.002  0.007
  0.000  0.000  0.001  0.995  0.003
  0.058  0.942  0.000  0.000  0.000
  0.000  0.000  0.007  0.003  0.990
  0.942  0.058  0.000  0.000  0.000
    occupations:
  0.597  0.006 -0.001 -0.015  0.000
  0.006  0.765  0.000  0.001  0.001
 -0.001  0.000  0.561  0.001 -0.001
 -0.015  0.001  0.001  0.778 -0.000
  0.000  0.001 -0.001 -0.000  0.557
N of occupied +U levels =  52.1763879
 --- exit write_ns ---

     Threshold (ethr) on eigenvalues was too large:
     Diagonalizing with lowered threshold

     Davidson diagonalization with overlap
     ethr =  3.91E-09,  avg # of iterations =  2.0

[...]

     total energy              =   -2175.58693608 Ry
     Harris-Foulkes estimate   =   -2175.58693608 Ry
     estimated scf accuracy    <       0.00000004 Ry

     iteration # 16     ecut=    40.00 Ry     beta=0.70
     Davidson diagonalization with overlap
     ethr =  5.92E-12,  avg # of iterations =  1.0

     negative rho (up, down):  0.245E+00 0.000E+00

     End of self-consistent calculation
 --- enter write_ns ---
 LDA+U parameters:
U( 2)     =  1.50000000
alpha( 2) =  0.00000000
atom    3   Tr[ns(na)] =   6.54943
    eigenvalues:
  0.541  0.570  0.643  0.760  0.761
    eigenvectors:
  0.000  0.371  0.006  0.555  0.068
  0.998  0.000  0.000  0.000  0.001
  0.000  0.000  0.989  0.010  0.000
  0.000  0.629  0.005  0.327  0.040
  0.001  0.000  0.000  0.108  0.890
    occupations:
  0.689 -0.003  0.010 -0.091  0.000
 -0.003  0.541  0.001  0.002 -0.008
  0.010  0.001  0.644 -0.007 -0.002
 -0.091  0.002 -0.007  0.640 -0.000
  0.000 -0.008 -0.002 -0.000  0.761
atom    4   Tr[ns(na)] =   6.51906
    eigenvalues:
  0.564  0.602  0.622  0.700  0.770
    eigenvectors:
  0.000  0.982  0.000  0.001  0.017
  0.000  0.001  0.006  0.993  0.000
  0.000  0.000  0.994  0.006  0.000
  0.000  0.017  0.000  0.000  0.983
  1.000  0.000  0.000  0.000  0.000
    occupations:
  0.605  0.003  0.000 -0.022  0.000
  0.003  0.700  0.006 -0.000 -0.001
  0.000  0.006  0.623  0.001 -0.000
 -0.022 -0.000  0.001  0.768 -0.000
  0.000 -0.001 -0.000 -0.000  0.564
atom    9   Tr[ns(na)] =   6.52046
    eigenvalues:
  0.593  0.605  0.617  0.701  0.744
    eigenvectors:
  0.267  0.000  0.000  0.000  0.733
  0.000  1.000  0.000  0.000  0.000
  0.000  0.000  0.991  0.009  0.000
  0.733  0.000  0.000  0.000  0.267
  0.000  0.000  0.009  0.990  0.000
    occupations:
  0.703 -0.000 -0.001 -0.067  0.001
 -0.000  0.605  0.000  0.001  0.000
 -0.001  0.000  0.618  0.000 -0.008
 -0.067  0.001  0.000  0.633 -0.001
  0.001  0.000 -0.008 -0.001  0.700
atom   10   Tr[ns(na)] =   6.48964
    eigenvalues:
  0.495  0.539  0.659  0.751  0.802
    eigenvectors:
  0.996  0.000  0.000  0.003  0.001
  0.001  0.000  0.000  0.000  0.999
  0.000  0.000  1.000  0.000  0.000
  0.003  0.000  0.000  0.997  0.000
  0.000  1.000  0.000  0.000  0.000
    occupations:
  0.496 -0.007  0.000 -0.015 -0.000
 -0.007  0.801  0.000 -0.001  0.001
  0.000  0.000  0.659 -0.000  0.001
 -0.015 -0.001 -0.000  0.750 -0.000
 -0.000  0.001  0.001 -0.000  0.539
atom   16   Tr[ns(na)] =   6.55014
    eigenvalues:
  0.541  0.570  0.645  0.759  0.761
    eigenvectors:
  0.001  0.372  0.006  0.517  0.104
  0.998  0.000  0.000  0.000  0.001
  0.000  0.000  0.989  0.010  0.001
  0.000  0.627  0.005  0.306  0.062
  0.001  0.000  0.000  0.167  0.832
    occupations:
  0.688  0.003  0.010 -0.091 -0.000
  0.003  0.541 -0.000 -0.002 -0.007
  0.010 -0.000  0.646 -0.007  0.002
 -0.091 -0.002 -0.007  0.640  0.000
 -0.000 -0.007  0.002  0.000  0.760
atom   17   Tr[ns(na)] =   6.51201
    eigenvalues:
  0.565  0.605  0.613  0.698  0.775
    eigenvectors:
  0.000  0.983  0.001  0.001  0.016
  0.000  0.001  0.004  0.995  0.000
  0.000  0.001  0.995  0.004  0.000
  0.000  0.016  0.000  0.000  0.984
  1.000  0.000  0.000  0.000  0.000
    occupations:
  0.608  0.003  0.000 -0.021  0.000
  0.003  0.698  0.006 -0.000 -0.001
  0.000  0.006  0.613  0.001 -0.000
 -0.021 -0.000  0.001  0.772 -0.000
  0.000 -0.001 -0.000 -0.000  0.565
atom   22   Tr[ns(na)] =   6.51821
    eigenvalues:
  0.593  0.604  0.615  0.701  0.746
    eigenvectors:
  0.268  0.000  0.000  0.001  0.731
  0.000  0.999  0.000  0.000  0.000
  0.000  0.000  0.994  0.005  0.000
  0.732  0.000  0.000  0.001  0.267
  0.000  0.000  0.005  0.993  0.002
    occupations:
  0.705  0.001 -0.001 -0.068  0.002
  0.001  0.604  0.000 -0.000  0.000
 -0.001  0.000  0.616  0.000  0.006
 -0.068 -0.000  0.000  0.634 -0.001
  0.002  0.000  0.006 -0.001  0.701
atom   23   Tr[ns(na)] =   6.51698
    eigenvalues:
  0.557  0.561  0.595  0.766  0.779
    eigenvectors:
  0.000  0.000  0.992  0.002  0.007
  0.000  0.000  0.001  0.995  0.004
  0.055  0.944  0.000  0.000  0.000
  0.000  0.000  0.007  0.003  0.990
  0.945  0.055  0.000  0.000  0.000
    occupations:
  0.597  0.006 -0.001 -0.015  0.000
  0.006  0.766  0.000  0.001  0.001
 -0.001  0.000  0.561  0.001 -0.001
 -0.015  0.001  0.001  0.778 -0.000
  0.000  0.001 -0.001 -0.000  0.557
N of occupied +U levels =  52.1759217
 --- exit write_ns ---

[...]

          k = 0.2500-0.3828 0.0000 ( 29202 PWs)   bands (ev):

[...]

          k =-0.2500 0.1914 0.0000 ( 29229 PWs)   bands (ev):

   -81.3402 -81.2505 -81.1194 -81.1107 -81.0708 -80.8161 -80.7768 -80.7657
   -43.4175 -43.2696 -43.2494 -43.2324 -43.1398 -43.1390 -43.1075 -43.0931
   -43.0506 -43.0328 -42.9945 -42.9333 -42.9318 -42.8258 -42.8167 -42.7985
   -42.7632 -42.7216 -42.7203 -42.7176 -42.6586 -42.6345 -42.3582 -42.3012
   -20.8193 -20.3736 -20.2913 -20.1832 -20.1002 -19.7940 -19.7413 -19.7170
   -19.5519 -19.4765 -19.4025 -19.3520 -19.2671 -19.1135 -19.0754 -19.0348
   -18.8523 -18.3126 -18.0337  -8.9948  -8.7016  -8.6248  -8.5941  -8.4372
    -8.2994  -8.2692  -8.0945  -8.0192  -7.9284  -7.7609  -7.7042  -7.4471
    -7.3397  -7.2912  -6.9878  -6.8538  -6.7218  -6.6180  -6.5210  -6.4365
    -6.3593  -6.0578  -5.9659  -5.7771  -5.7245  -5.6494  -5.5176  -5.4402
    -5.3219  -5.1034  -4.9852  -4.9616  -4.8476  -4.7655  -4.7372  -4.6734
    -4.5844  -4.5222  -4.4257  -4.3126  -4.1304  -3.9522  -3.8710  -3.7878
    -3.6953  -3.5954  -3.5478  -3.3646  -3.3207  -3.2562  -3.1491  -3.0304
    -2.8069  -2.7095  -2.6308  -2.4863  -2.1386  -1.9587  -1.8980  -1.0773
    -0.9250  -0.8492  -0.7176  -0.1079   0.0013   0.4548   0.5244   0.6190
     0.7240   0.8423   0.9509   1.1615   1.3555   1.3950   1.5509   1.6209
     1.7275   1.9121   1.9517   2.1552   2.4286   3.6845   3.7000   3.7948
     3.8357   4.0109   4.0656   4.3175   4.5099   4.6173   4.7500   4.9046
     4.9654   5.2028   5.3494   5.6206   5.8600   5.9019   6.1180   6.2862
     6.4547   6.5073   6.7033   6.8816   7.0021   7.0867   7.2981   7.5424
     7.6864   7.7789   7.9358   8.1069   8.2644   8.3496   8.4959   8.5791
     8.6290   8.7191   8.9491   9.0348   9.1217   9.3759   9.4320   9.5929
     9.6304   9.6802   9.8160   9.8863   9.9166   9.9878  10.0927  10.1902
    10.2375  10.3467  10.3833  10.4438  10.5249  10.7245  10.7541  10.8741
    11.0007  11.1117  11.1704  11.2734  11.4627  11.5450  11.6795  11.7392
    11.8170  11.9221  12.0358  12.2161  12.3379  12.4627  12.5884  12.6194
    12.6509  12.7488  12.8056  12.8806  12.9372  13.0371  13.0926  13.2251
    13.2739  13.4182  13.5032  13.6289  13.6763  13.7436  13.8276  13.8599
    13.9417  13.9534  14.0159  14.0825  14.1335  14.2438  14.3270  14.4075
    14.4914  14.5167  14.5737  14.6567  14.7095  14.7509  14.8458  14.8884
    14.9468  14.9863  15.0164  15.0839  15.1326  15.2072  15.3011  15.4404
    15.5157  15.6022  15.6499  15.7300  15.8329  15.9362  16.0707  16.1384
    16.1798  16.2361  16.3077  16.4710  16.5270  16.5828  16.6084  16.6883
    16.7835  16.8724  16.9481  17.0097  17.1089  17.2027  17.2511  17.2711
    17.3535  17.4847  17.6077  17.6588  17.7290  17.7812  17.8292  17.9410
    17.9682  18.0345  18.1222  18.1703  18.2629  18.2794  18.3971  18.4549
    18.5210  18.5787  18.6386  18.7009  18.7556  18.8585  18.9234  19.0237
    19.0812  19.2292  19.3070  19.3480  19.4796  19.5441  19.6243  19.6776
    19.7448  19.8405  19.9342  20.0177  20.1345  20.1795  20.2382  20.3068
    20.4537  20.5140  20.5791  20.6202  20.6792  20.7520  20.7731  20.8324
    20.8822  20.9597  20.9765  21.1217  21.1588  21.2028  21.2514  21.3166
    21.4007  21.4451  21.5078  21.6104  21.6464  21.6984  21.7619  21.8393
    21.9291  21.9991  22.0835  22.1174  22.2184  22.2397  22.3149  22.3511
    22.4021  22.4467  22.4882  22.5430  22.6220  22.6686  22.6938  22.7308
    22.7839  22.8404  22.8823  22.9311  22.9870  23.0740

     the Fermi energy is     0.5488 ev

!    total energy              =   -2175.58693608 Ry
     Harris-Foulkes estimate   =   -2175.58693608 Ry
     estimated scf accuracy    <          6.6E-10 Ry

     The total energy is the sum of the following terms:

     one-electron contribution =  -24262.38700115 Ry
     hartree contribution      =   12148.99298018 Ry
     xc contribution           =    -595.02152466 Ry
     ewald contribution        =   10531.86191350 Ry
     Hubbard energy            =       0.96761539 Ry
     smearing contrib. (-TS)   =      -0.00091933 Ry

     convergence has been achieved in  16 iterations

     Forces acting on atoms (Ry/au):

     negative rho (up, down):  0.245E+00 0.000E+00
     atom    1 type  1   force =    -0.00565434   -0.00708702    0.00008058
     atom    2 type  1   force =     0.00007113    0.00576538    0.00023987
     atom    3 type  2   force =     0.03056593   -0.00397230    0.00001301
     atom    4 type  2   force =     0.00175365    0.00742081    0.00041745
     atom    5 type  1   force =     0.00281655    0.01208632    0.00039760
     atom    6 type  1   force =     0.00114190   -0.01255383    0.00028869
     atom    7 type  1   force =     0.00337243    0.00011353    0.00043792
     atom    8 type  1   force =     0.00308253   -0.00167578    0.00033616
     atom    9 type  2   force =    -0.02530476    0.00177350   -0.00034998
     atom   10 type  2   force =    -0.00725547   -0.00056451   -0.00021488
     atom   11 type  1   force =    -0.00579210   -0.01064065   -0.00046696
     atom   12 type  1   force =    -0.00591655    0.01076983   -0.00039085
     atom   13 type  1   force =    -0.00057698   -0.00015788   -0.00031605
     atom   14 type  1   force =    -0.00260667   -0.00631462   -0.00005780
     atom   15 type  1   force =     0.00025452    0.00453602    0.00031297
     atom   16 type  2   force =    -0.03127960   -0.00398525    0.00005121
     atom   17 type  2   force =     0.00126257    0.00776005    0.00027391
     atom   18 type  1   force =     0.00106665    0.01259109    0.00033756
     atom   19 type  1   force =    -0.00085042   -0.01290344    0.00029194
     atom   20 type  1   force =    -0.00239893   -0.00136090   -0.00058461
     atom   21 type  1   force =     0.00184871   -0.00161753    0.00042482
     atom   22 type  2   force =     0.02124100    0.00186764   -0.00040517
     atom   23 type  2   force =    -0.00033154   -0.00054679   -0.00038742
     atom   24 type  1   force =     0.00921486   -0.00912355   -0.00045349
     atom   25 type  1   force =     0.00902262    0.00879127   -0.00047963
     atom   26 type  1   force =     0.00078988   -0.00063724   -0.00012777
     atom   27 type  3   force =     0.00000923   -0.00006108    0.00046999
     atom   28 type  3   force =    -0.00001583   -0.00016892    0.00027412
     atom   29 type  3   force =     0.00002592    0.00010054   -0.00006039
     atom   30 type  3   force =     0.00017111   -0.00007709   -0.00003446
     atom   31 type  1   force =    -0.00010663   -0.00002247    0.00019710
     atom   32 type  3   force =     0.00037861   -0.00010514   -0.00051542

     Total force =     0.001985     Total SCF correction =     0.000092

     bfgs converged in   5 scf cycles and   4 bfgs steps
     (criteria: energy < 0.10E-03, force < 0.10E-02)

     End of BFGS Geometry Optimization

     Final energy   =   -2175.5869360795 Ry
Begin final coordinates

ATOMIC_POSITIONS (crystal)
O0       0.000000000   0.000000000   0.370789558    0   0   1
O0       0.000000000   0.500000000   0.382144496    0   0   1
Re1      0.250000000   0.500000000   0.441811969    0   0   1
Re1      0.000000000   0.000000000   0.443458218    0   0   1
O0       0.250000000   0.780000000   0.441815592    0   0   1
O0       0.250000000   0.220000000   0.441649076    0   0   1
O0       0.000000000   0.500000000   0.496975383    0   0   1
O0       0.000000000   0.000000000   0.514897232    0   0   1
Re1      0.250000000   0.000000000   0.574812822    0   0   1
Re1      0.000000000   0.500000000   0.566080093    0   0   1
O0       0.250000000   0.720000000   0.572954812    0   0   1
O0       0.250000000   0.280000000   0.573030239    0   0   1
O0       0.000000000   0.000000000   0.627069830    0   0   1
O0       0.500000000   0.000000000   0.370820999    0   0   1
O0       0.500000000   0.500000000   0.382493108    0   0   1
Re1      0.750000000   0.500000000   0.441823104    0   0   1
Re1      0.500000000   0.000000000   0.443234855    0   0   1
O0       0.750000000   0.780000000   0.441756909    0   0   1
O0       0.750000000   0.220000000   0.441721834    0   0   1
O0       0.500000000   0.500000000   0.499211044    0   0   1
O0       0.500000000   0.000000000   0.514728986    0   0   1
Re1      0.750000000   0.000000000   0.574646633    0   0   1
Re1      0.500000000   0.500000000   0.572703345    0   0   1
O0       0.750000000   0.720000000   0.572158613    0   0   1
O0       0.750000000   0.280000000   0.572156224    0   0   1
O0       0.500000000   0.000000000   0.626369660    0   0   1
H2      -0.000357621   0.625000153   0.365233458
H2       0.499612668   0.622923953   0.364603360
H2       0.169133025   0.023139242   0.356497792
H2       0.670167175   0.021803681   0.356685091
O0       0.527696750   0.499654966   0.643715692
H2       0.379058835   0.499123388   0.664979972
End final coordinates

     General routines

     Parallel routines
     Hubbard U routines

   This run was terminated on:  13:11:17   1May2014

   JOB DONE.
Running PBS batch system epilogue script
Job id: 340623.audhumbla.fysik.dtu.dk
Username: zhonxu
Groupname: campgst
Jobname: ReO2/Eads-2-layers/OH-U-1.5
Sessionid: 7723
Queuename: verylong
Accounting:
This job has allocated the following 16 nodes:
a058 a058 a058 a058 a058 a058 a058 a058 a021 a021 a021 a021 a021 a021 a021 a021
Finished epilogue job 340623.audhumbla.fysik.dtu.dk for zhonxu