     Program PWSCF v.5.0.2 (svn rev. 9656) starts on  5May2014 at  1:29: 7

     Current dimensions of program PWSCF are:
     Max number of different atomic species (ntypx) = 10
     Max number of k-points (npk) =  40000
     Max angular momentum in pseudopotentials (lmaxx) =  3
     Reading input from pwscf.in
Warning: card &CELL ignored
Warning: card / ignored

     Subspace diagonalization in iterative solution of the eigenvalue problem:
     a serial algorithm will be used

     bravais-lattice index     =            0
     lattice parameter (alat)  =      10.9604  a.u.
     unit-cell volume          =    6350.6732 (a.u.)^3
     number of atoms/cell      =           32
     number of atomic types    =            3
     number of electrons       =       231.00 (up: 123.00, down: 108.00)
     number of Kohn-Sham states=          334
     kinetic-energy cutoff     =      40.0000  Ry
     charge density cutoff     =     500.0000  Ry
     convergence threshold     =      1.0E-06
     mixing beta               =       0.7000
     number of iterations used =            8  plain     mixing
     Exchange-correlation      = SLA  PW   PBE  PBE ( 1 4 3 4 0)
     EXX-fraction              =        0.00
     nstep                     =           50

     celldm(1)=  10.960412  celldm(2)=   0.000000  celldm(3)=   0.000000
     celldm(4)=   0.000000  celldm(5)=   0.000000  celldm(6)=   0.000000

     crystal axes: (cart. coord. in units of alat)
               a(1) = (   1.000000   0.000000   0.000000 )
               a(2) = (   0.000000   1.067975   0.000000 )
               a(3) = (   0.000000   0.000000   4.516251 )

     reciprocal axes: (cart. coord. in units 2 pi/alat)
               b(1) = (  1.000000  0.000000  0.000000 )
               b(2) = (  0.000000  0.936351  0.000000 )
               b(3) = (  0.000000  0.000000  0.221423 )

     PseudoPot. # 1 for O  read from file:
     /home/camp/zhonxu/pseudo/o_pbe_v1.01.uspp.F.UPF
     MD5 check sum: 2bcb18d16ea4b960afae9ec6d52f22d2
     Pseudo is Ultrasoft + core correction, Zval =  6.0
     Generated by new atomic code, or converted to UPF format
     Using radial grid of  737 points,  5 beta functions with:
                l(1) =   0
                l(2) =   0
                l(3) =   1
                l(4) =   1
                l(5) =   2
     Q(r) pseudized with  8 coefficients,  rinner =    0.900   0.900   0.900
                                                       0.900   0.900

     PseudoPot. # 2 for Cr read from file:
     /home/camp/zhonxu/pseudo/cr_pbe_v1.uspp.F.UPF
     MD5 check sum: 68b6f918d1762dccfb11451fe85b0e0e
     Pseudo is Ultrasoft + core correction, Zval = 14.0
     Generated by new atomic code, or converted to UPF format
     Using radial grid of  857 points,  6 beta functions with:
                l(1) =   0
                l(2) =   0
                l(3) =   1
                l(4) =   1
                l(5) =   2
                l(6) =   2
     Q(r) pseudized with  6 coefficients,  rinner =    1.000   1.000   1.000
                                                       1.000   1.000

     PseudoPot. # 3 for H  read from file:
     /home/camp/zhonxu/pseudo/h_pbe_v1.uspp.F.UPF
     MD5 check sum: 3408e3ff4ec8b0a4e358431e7e038a48
     Pseudo is Ultrasoft, Zval =  1.0
     Generated by new atomic code, or converted to UPF format
     Using radial grid of  615 points,  2 beta functions with:
                l(1) =   0
                l(2) =   0
     Q(r) pseudized with  8 coefficients,  rinner =    0.700

     atomic species   valence    mass     pseudopotential
        O0             6.00    15.99940     O ( 1.00)
        Cr1           14.00    51.99600     Cr( 1.00)
        H2             1.00     1.00794     H ( 1.00)

     Starting magnetic structure
     atomic species   magnetization
        O0           0.000
        Cr1          0.600
        H2           0.000

     Simplified LDA+U calculation (l_max = 2) with parameters (eV):
     atomic species    L          U    alpha       J0     beta
        Cr1            2     4.5000   0.0000   0.0000   0.0000

     No symmetry found

   Cartesian axes

     site n.     atom                  positions (alat units)
         1           O0  tau(   1) = (   0.0000000   0.0000000   1.7072332  )
         2           O0  tau(   2) = (   0.0000000   0.5339875   1.8068165  )
         3           Cr1 tau(   3) = (   0.2500000   0.5339875   2.0386808  )
         4           Cr1 tau(   4) = (   0.0000000   0.0000000   2.0275709  )
         5           O0  tau(   5) = (   0.2500000   0.8543801   2.0319968  )
         6           O0  tau(   6) = (   0.2500000   0.2135950   2.0327194  )
         7           O0  tau(   7) = (   0.0000000   0.5339875   2.2464284  )
         8           O0  tau(   8) = (   0.0000000   0.0000000   2.3629476  )
         9           Cr1 tau(   9) = (   0.2500000   0.0000000   2.5576884  )
        10           Cr1 tau(  10) = (   0.0000000   0.5339875   2.5509140  )
        11           O0  tau(  11) = (   0.2500000   0.7475825   2.5906119  )
        12           O0  tau(  12) = (   0.2500000   0.3203925   2.5906119  )
        13           O0  tau(  13) = (   0.0000000   0.0000000   2.7911334  )
        14           O0  tau(  14) = (   0.5000000   0.0000000   1.7073235  )
        15           O0  tau(  15) = (   0.5000000   0.5339875   1.8079456  )
        16           Cr1 tau(  16) = (   0.7500000   0.5339875   2.0392228  )
        17           Cr1 tau(  17) = (   0.5000000   0.0000000   2.0278870  )
        18           O0  tau(  18) = (   0.7500000   0.8543801   2.0322226  )
        19           O0  tau(  19) = (   0.7500000   0.2135950   2.0329904  )
        20           O0  tau(  20) = (   0.5000000   0.5339875   2.2544673  )
        21           O0  tau(  21) = (   0.5000000   0.0000000   2.3630380  )
        22           Cr1 tau(  22) = (   0.7500000   0.0000000   2.6360002  )
        23           Cr1 tau(  23) = (   0.5000000   0.5339875   2.6018573  )
        24           O0  tau(  24) = (   0.7500000   0.7475825   2.5939087  )
        25           O0  tau(  25) = (   0.7500000   0.3203925   2.5936377  )
        26           O0  tau(  26) = (   0.5000000   0.0000000   2.7879720  )
        27           H2  tau(  27) = (  -0.0006000   0.6814001   1.7205110  )
        28           H2  tau(  28) = (   0.4996600   0.6814535   1.7215045  )
        29           H2  tau(  29) = (   0.1566500   0.0338121   1.6478896  )
        30           H2  tau(  30) = (   0.6567200   0.0335237   1.6481606  )
        31           O0  tau(  31) = (   0.5143900   0.5336458   2.9144271  )
        32           H2  tau(  32) = (   0.3645400   0.5319370   2.9931001  )

     number of k points=    20  Methfessel-Paxton smearing, width (Ry)=  0.0100
                       cart. coord. in units 2pi/alat
        k(    1) = (   0.0000000   0.0000000   0.0000000), wk =   0.0625000
        k(    2) = (   0.0000000   0.2340879   0.0000000), wk =   0.1250000
        k(    3) = (   0.0000000  -0.4681757   0.0000000), wk =   0.0625000
        k(    4) = (   0.2500000   0.0000000   0.0000000), wk =   0.1250000
        k(    5) = (   0.2500000   0.2340879   0.0000000), wk =   0.1250000
        k(    6) = (   0.2500000  -0.4681757   0.0000000), wk =   0.1250000
        k(    7) = (  -0.5000000   0.0000000   0.0000000), wk =   0.0625000
        k(    8) = (  -0.5000000   0.2340879   0.0000000), wk =   0.1250000
        k(    9) = (  -0.5000000  -0.4681757   0.0000000), wk =   0.0625000
        k(   10) = (  -0.2500000   0.2340879   0.0000000), wk =   0.1250000
        k(   11) = (   0.0000000   0.0000000   0.0000000), wk =   0.0625000
        k(   12) = (   0.0000000   0.2340879   0.0000000), wk =   0.1250000
        k(   13) = (   0.0000000  -0.4681757   0.0000000), wk =   0.0625000
        k(   14) = (   0.2500000   0.0000000   0.0000000), wk =   0.1250000
        k(   15) = (   0.2500000   0.2340879   0.0000000), wk =   0.1250000
        k(   16) = (   0.2500000  -0.4681757   0.0000000), wk =   0.1250000
        k(   17) = (  -0.5000000   0.0000000   0.0000000), wk =   0.0625000
        k(   18) = (  -0.5000000   0.2340879   0.0000000), wk =   0.1250000
        k(   19) = (  -0.5000000  -0.4681757   0.0000000), wk =   0.0625000
        k(   20) = (  -0.2500000   0.2340879   0.0000000), wk =   0.1250000

     Largest allocated arrays     est. size (Mb)     dimensions
     Largest temporary arrays     est. size (Mb)     dimensions

     Check: negative/imaginary core charge=   -0.000012    0.000000

     Initial potential from superposition of free atoms
     Check: negative starting charge=(component1):   -0.001476
     Check: negative starting charge=(component2):   -0.000504

     starting charge  222.99983, renormalised to  231.00000

     negative rho (up, down):  0.153E-02 0.522E-03
     Number of +U iterations with fixed ns =  0
     Starting occupations:
 --- enter write_ns ---
 LDA+U parameters:
U( 2)     =  4.50000000
alpha( 2) =  0.00000000
atom    3   Tr[ns(na)] (up, down, total) =   5.00000  0.00000  5.00000
   spin  1
    eigenvalues:
  1.000  1.000  1.000  1.000  1.000
    eigenvectors:
  1.000  0.000  0.000  0.000  0.000
  0.000  1.000  0.000  0.000  0.000
  0.000  0.000  1.000  0.000  0.000
  0.000  0.000  0.000  1.000  0.000
  0.000  0.000  0.000  0.000  1.000
    occupations:
  1.000  0.000  0.000  0.000  0.000
  0.000  1.000  0.000  0.000  0.000
  0.000  0.000  1.000  0.000  0.000
  0.000  0.000  0.000  1.000  0.000
  0.000  0.000  0.000  0.000  1.000
   spin  2
    eigenvalues:
  0.000  0.000  0.000  0.000  0.000
    eigenvectors:
  1.000  0.000  0.000  0.000  0.000
  0.000  1.000  0.000  0.000  0.000
  0.000  0.000  1.000  0.000  0.000
  0.000  0.000  0.000  1.000  0.000
  0.000  0.000  0.000  0.000  1.000
    occupations:
  0.000  0.000  0.000  0.000  0.000
  0.000  0.000  0.000  0.000  0.000
  0.000  0.000  0.000  0.000  0.000
  0.000  0.000  0.000  0.000  0.000
  0.000  0.000  0.000  0.000  0.000
atomic mag. moment =     5.000000
atom    4   Tr[ns(na)] (up, down, total) =   5.00000  0.00000  5.00000
   spin  1
    eigenvalues:
  1.000  1.000  1.000  1.000  1.000
    eigenvectors:
  1.000  0.000  0.000  0.000  0.000
  0.000  1.000  0.000  0.000  0.000
  0.000  0.000  1.000  0.000  0.000
  0.000  0.000  0.000  1.000  0.000
  0.000  0.000  0.000  0.000  1.000
    occupations:
  1.000  0.000  0.000  0.000  0.000
  0.000  1.000  0.000  0.000  0.000
  0.000  0.000  1.000  0.000  0.000
  0.000  0.000  0.000  1.000  0.000
  0.000  0.000  0.000  0.000  1.000
   spin  2
    eigenvalues:
  0.000  0.000  0.000  0.000  0.000
    eigenvectors:
  1.000  0.000  0.000  0.000  0.000
  0.000  1.000  0.000  0.000  0.000
  0.000  0.000  1.000  0.000  0.000
  0.000  0.000  0.000  1.000  0.000
  0.000  0.000  0.000  0.000  1.000
    occupations:
  0.000  0.000  0.000  0.000  0.000
  0.000  0.000  0.000  0.000  0.000
  0.000  0.000  0.000  0.000  0.000
  0.000  0.000  0.000  0.000  0.000
  0.000  0.000  0.000  0.000  0.000
atomic mag. moment =     5.000000
atom    9   Tr[ns(na)] (up, down, total) =   5.00000  0.00000  5.00000
   spin  1
    eigenvalues:
  1.000  1.000  1.000  1.000  1.000
[...]
 -0.002 -0.000  0.108  0.007  0.001
  0.113  0.003  0.007  0.288  0.000
 -0.000  0.010  0.001  0.000  0.096
atomic mag. moment =     2.704482
atom    4   Tr[ns(na)] (up, down, total) =   3.60290  1.01300  4.61590
   spin  1
    eigenvalues:
  0.489  0.536  0.674  0.914  0.990
    eigenvectors:
  0.002  0.992  0.000  0.001  0.005
  0.000  0.001  0.013  0.986  0.001
  0.000  0.000  0.987  0.013  0.000
  0.000  0.005  0.000  0.000  0.995
  0.998  0.002  0.000  0.000  0.000
    occupations:
  0.539 -0.013 -0.001  0.031  0.002
 -0.013  0.911  0.027  0.003 -0.000
 -0.001  0.027  0.677  0.001 -0.002
  0.031  0.003  0.001  0.988 -0.000
  0.002 -0.000 -0.002 -0.000  0.489
   spin  2
    eigenvalues:
  0.087  0.103  0.119  0.347  0.357
    eigenvectors:
  0.004  0.001  0.000  0.008  0.986
  0.004  0.921  0.073  0.000  0.002
  0.000  0.073  0.927  0.000  0.000
  0.992  0.004  0.000  0.000  0.004
  0.000  0.000  0.000  0.992  0.008
    occupations:
  0.355  0.011  0.002 -0.017  0.001
  0.011  0.104 -0.004  0.000 -0.000
  0.002 -0.004  0.118  0.000  0.000
 -0.017  0.000  0.000  0.088  0.000
  0.001 -0.000  0.000  0.000  0.347
atomic mag. moment =     2.589904
atom    9   Tr[ns(na)] (up, down, total) =   3.62458  1.03200  4.65657
   spin  1
    eigenvalues:
  0.505  0.517  0.711  0.904  0.987
    eigenvectors:
  0.030  0.166  0.000  0.000  0.804
  0.861  0.139  0.000  0.000  0.000
  0.000  0.000  0.978  0.022  0.000
  0.110  0.695  0.000  0.000  0.196
  0.000  0.000  0.022  0.978  0.000
    occupations:
  0.895  0.005 -0.001 -0.187 -0.000
  0.005  0.507  0.003  0.002 -0.000
 -0.001  0.003  0.715 -0.001 -0.028
 -0.187  0.002 -0.001  0.608  0.001
 -0.000 -0.000 -0.028  0.001  0.899
   spin  2
    eigenvalues:
  0.093  0.113  0.122  0.343  0.362
    eigenvectors:
  0.805  0.000  0.000  0.004  0.190
  0.000  0.000  0.000  0.981  0.019
  0.000  0.093  0.907  0.000  0.000
  0.195  0.000  0.000  0.015  0.790
  0.000  0.907  0.093  0.000  0.000
    occupations:
  0.145 -0.000  0.000  0.106 -0.000
 -0.000  0.343 -0.000  0.003  0.000
  0.000 -0.000  0.121  0.000  0.002
  0.106  0.003  0.000  0.309 -0.000
 -0.000  0.000  0.002 -0.000  0.114
atomic mag. moment =     2.592582
atom   10   Tr[ns(na)] (up, down, total) =   3.70463  0.88738  4.59201
   spin  1
    eigenvalues:
  0.479  0.496  0.830  0.912  0.989
    eigenvectors:
  0.000  0.996  0.000  0.001  0.003
  0.000  0.001  0.000  0.978  0.020
  0.001  0.000  0.999  0.000  0.000
  0.000  0.003  0.000  0.021  0.976
  0.999  0.000  0.001  0.000  0.000
    occupations:
  0.498 -0.015 -0.001  0.026  0.000
 -0.015  0.913 -0.001 -0.010 -0.000
 -0.001 -0.001  0.829 -0.000  0.009
  0.026 -0.010 -0.000  0.986  0.000
  0.000 -0.000  0.009  0.000  0.479
   spin  2
    eigenvalues:
  0.080  0.111  0.113  0.256  0.328
    eigenvectors:
  0.008  0.000  0.000  0.992  0.000
  0.001  0.000  0.999  0.000  0.000
  0.000  1.000  0.000  0.000  0.000
  0.991  0.000  0.001  0.008  0.000
  0.000  0.000  0.000  0.000  1.000
    occupations:
  0.255  0.000 -0.000 -0.016 -0.000
  0.000  0.113 -0.000  0.001  0.000
 -0.000 -0.000  0.111 -0.000  0.001
 -0.016  0.001 -0.000  0.081 -0.000
 -0.000  0.000  0.001 -0.000  0.328
atomic mag. moment =     2.817246
atom   16   Tr[ns(na)] (up, down, total) =   3.65212  0.95025  4.60237
   spin  1
    eigenvalues:
  0.462  0.505  0.750  0.946  0.990
    eigenvectors:
  0.001  0.231  0.002  0.000  0.767
  0.993  0.007  0.000  0.000  0.000
  0.000  0.000  0.993  0.005  0.002
  0.006  0.763  0.000  0.000  0.231
  0.000  0.000  0.005  0.995  0.000
    occupations:
  0.877 -0.001  0.009 -0.205 -0.001
 -0.001  0.462 -0.002  0.005 -0.008
  0.009 -0.002  0.751 -0.006  0.013
 -0.205  0.005 -0.006  0.617 -0.000
 -0.001 -0.008  0.013 -0.000  0.945
   spin  2
    eigenvalues:
  0.079  0.096  0.109  0.317  0.350
    eigenvectors:
  0.746  0.001  0.028  0.001  0.225
  0.000  0.002  0.000  0.997  0.001
  0.032  0.007  0.960  0.000  0.000
  0.221  0.000  0.005  0.001  0.773
  0.000  0.991  0.007  0.002  0.000
    occupations:
  0.141  0.002 -0.002  0.113  0.000
  0.002  0.317  0.000 -0.003  0.010
 -0.002  0.000  0.108  0.007 -0.001
  0.113 -0.003  0.007  0.289 -0.000
  0.000  0.010 -0.001 -0.000  0.096
atomic mag. moment =     2.701870
atom   17   Tr[ns(na)] (up, down, total) =   3.62616  0.98739  4.61355
   spin  1
    eigenvalues:
  0.482  0.530  0.715  0.910  0.989
    eigenvectors:
  0.001  0.993  0.000  0.001  0.004
  0.000  0.001  0.015  0.984  0.000
  0.000  0.000  0.985  0.015  0.000
  0.000  0.004  0.000  0.000  0.996
  0.998  0.001  0.000  0.000  0.000
    occupations:
  0.532 -0.013 -0.002  0.029  0.002
 -0.013  0.907  0.024  0.001 -0.000
 -0.002  0.024  0.718  0.000  0.002
  0.029  0.001  0.000  0.987 -0.000
  0.002 -0.000  0.002 -0.000  0.482
   spin  2
    eigenvalues:
  0.085  0.100  0.113  0.341  0.348
    eigenvectors:
  0.005  0.002  0.000  0.012  0.981
  0.006  0.893  0.099  0.000  0.002
  0.001  0.098  0.901  0.000  0.000
  0.988  0.007  0.000  0.000  0.004
  0.000  0.000  0.000  0.988  0.012
    occupations:
  0.346  0.012  0.002 -0.017  0.001
  0.012  0.101 -0.004  0.000 -0.000
  0.002 -0.004  0.112  0.000  0.000
 -0.017  0.000  0.000  0.087  0.000
  0.001 -0.000  0.000  0.000  0.341
atomic mag. moment =     2.638774
atom   22   Tr[ns(na)] (up, down, total) =   3.40833  1.32744  4.73577
   spin  1
    eigenvalues:
  0.561  0.571  0.626  0.811  0.840
    eigenvectors:
  0.351  0.009  0.640  0.000  0.000
  0.013  0.986  0.001  0.000  0.000
  0.000  0.000  0.000  0.342  0.658
  0.637  0.005  0.359  0.000  0.000
  0.000  0.000  0.000  0.658  0.342
    occupations:
  0.603  0.001 -0.002 -0.031  0.002
  0.001  0.571  0.001 -0.002  0.000
 -0.002  0.001  0.830  0.000  0.014
 -0.031 -0.002  0.000  0.584 -0.001
  0.002  0.000  0.014 -0.001  0.821
   spin  2
    eigenvalues:
  0.148  0.171  0.192  0.405  0.411
    eigenvectors:
  0.000  0.000  0.927  0.035  0.038
  0.000  0.000  0.000  0.516  0.484
  0.985  0.015  0.000  0.000  0.000
  0.000  0.000  0.073  0.449  0.479
  0.015  0.985  0.000  0.000  0.000
    occupations:
  0.208 -0.001  0.000  0.056 -0.000
 -0.001  0.408 -0.000 -0.003  0.000
  0.000 -0.000  0.149 -0.000 -0.003
  0.056 -0.003 -0.000  0.393  0.000
 -0.000  0.000 -0.003  0.000  0.170
atomic mag. moment =     2.080892
atom   23   Tr[ns(na)] (up, down, total) =   3.60062  1.00513  4.60575
   spin  1
    eigenvalues:
  0.483  0.529  0.658  0.946  0.984
    eigenvectors:
  0.000  0.994  0.000  0.000  0.005
  0.000  0.000  0.000  0.975  0.025
  0.002  0.000  0.998  0.000  0.000
  0.000  0.005  0.000  0.025  0.970
  0.998  0.000  0.002  0.000  0.000
    occupations:
  0.532  0.003 -0.002  0.033  0.000
  0.003  0.947  0.002  0.006 -0.000
 -0.002  0.002  0.658 -0.000 -0.007
  0.033  0.006 -0.000  0.980 -0.000
  0.000 -0.000 -0.007 -0.000  0.484
   spin  2
    eigenvalues:
  0.085  0.100  0.119  0.346  0.354
    eigenvectors:
  0.003  0.001  0.000  0.000  0.996
  0.004  0.995  0.000  0.000  0.001
  0.000  0.000  1.000  0.000  0.000
  0.993  0.004  0.000  0.000  0.003
  0.000  0.000  0.000  1.000  0.000
    occupations:
  0.353  0.006  0.000 -0.016 -0.000
  0.006  0.100 -0.000 -0.001  0.000
  0.000 -0.000  0.119 -0.000 -0.002
 -0.016 -0.001 -0.000  0.086  0.000
 -0.000  0.000 -0.002  0.000  0.346
atomic mag. moment =     2.595490
N of occupied +U levels =  37.0244881
 --- exit write_ns ---

 ------ SPIN UP ------------

[...]

 ------ SPIN DOWN ----------

[...]

          k = 0.2500-0.4682 0.0000 ( 27150 PWs)   bands (ev):

[...]

          k =-0.2500 0.2341 0.0000 ( 27132 PWs)   bands (ev):

   -73.5312 -72.4536 -72.4264 -72.3641 -72.2981 -72.2855 -72.1677 -72.1487
   -45.1066 -44.9385 -44.6076 -44.0156 -43.9865 -43.9339 -43.9139 -43.8888
   -43.8869 -43.8045 -43.7487 -43.7278 -43.7036 -43.6955 -43.6094 -43.6040
   -43.5999 -43.5681 -43.5649 -43.4988 -43.4633 -43.4402 -43.3374 -43.2108
   -21.1621 -20.8286 -20.5629 -20.5298 -20.3732 -20.2991 -20.1609 -20.0809
   -20.0569 -19.9688 -19.8749 -19.7686 -19.7238 -19.7167 -19.6775 -19.5823
   -19.4942 -19.4395 -19.3998  -8.4863  -8.3344  -8.0512  -7.9531  -7.7982
    -7.7727  -7.4864  -7.3873  -7.2882  -7.2587  -7.1516  -7.0114  -6.9164
    -6.8802  -6.7713  -6.7275  -6.6216  -6.5825  -6.4694  -6.2904  -6.2468
    -6.1903  -6.0428  -5.8668  -5.8287  -5.6631  -5.5724  -5.5526  -5.3659
    -5.3379  -5.3042  -5.2261  -5.1612  -5.0932  -5.0155  -5.0001  -4.9293
    -4.8056  -4.6790  -4.5880  -4.3822  -4.3459  -4.2595  -4.2151  -4.1295
    -4.0872  -4.0039  -3.9448  -3.9037  -3.8237  -3.7011  -3.6713  -3.6342
    -3.4599  -3.3901  -3.2937  -3.1308   0.8465   1.0474   1.0978   1.3917
     1.4525   1.5331   1.6006   1.6228   1.6677   1.7214   1.8225   1.9133
     1.9586   2.0004   2.0593   2.0973   2.1528   2.1813   2.2366   2.3357
     2.4135   2.4430   2.5046   2.6007   2.6339   2.6832   2.7845   2.8286
     2.8400   2.9827   3.1237   3.1831   3.2336   3.4127   3.5101   3.5665
     3.6178   3.8136   3.8509   3.9605   4.0096   4.2077   4.3831   4.8367
     5.3585   5.7417   5.9008   5.9115   6.1890   6.3047   6.4510   6.6127
     6.7831   6.9146   7.0468   7.3468   7.4681   7.7006   7.8988   7.9793
     8.0646   8.3231   8.4240   8.5491   8.6835   8.8369   8.9778   9.0950
     9.2496   9.3056   9.4016   9.5288   9.5883   9.7618   9.8377  10.0228
    10.1536  10.2205  10.2937  10.3966  10.4881  10.6310  10.6989  10.8246
    10.9200  11.0177  11.0999  11.2048  11.2867  11.3772  11.4609  11.5937
    11.6479  11.7396  11.8487  11.9502  12.0403  12.1093  12.1682  12.2619
    12.3644  12.3836  12.5507  12.6423  12.7174  12.8244  12.9172  12.9453
    12.9740  13.0164  13.0699  13.1480  13.2034  13.2861  13.3359  13.4096
    13.5240  13.6185  13.6653  13.7342  13.8570  13.8938  13.9371  14.0521
    14.1295  14.1959  14.3052  14.4297  14.4874  14.5896  14.6571  14.7349
    14.7814  14.8297  14.9365  15.0213  15.0554  15.2011  15.2696  15.3515
    15.4266  15.5328  15.6051  15.6566  15.7183  15.7511  15.8808  15.9933
    16.0173  16.1092  16.1741  16.2313  16.2931  16.3793  16.4632  16.4973
    16.5708  16.7191  16.7340  16.8397  16.8808  16.9385  17.0044  17.1009
    17.1936  17.2140  17.3062  17.4029  17.4350  17.5278  17.5732  17.5950
    17.7157  17.7417  17.7774  17.8529  17.9348  18.0197  18.1020  18.1638
    18.2435  18.3045  18.3642  18.3898  18.4532  18.6200  18.7258  18.7778
    18.8285  18.8929  18.9693  18.9850  19.0615  19.1724  19.2341  19.3267
    19.4061  19.4258  19.5413  19.6125  19.6486  19.6822  19.7628  19.8751
    19.9019  19.9944  20.1206  20.1834  20.2337  20.3374  20.3978  20.5135
    20.5856  20.7044  20.7260  20.8374  20.8948  20.9530  21.0524  21.1390
    21.1678  21.2527  21.3327  21.3957  21.4141  21.5348

     the spin up/dw Fermi energies are    -2.0214   -2.9590 ev

!    total energy              =   -2024.82399751 Ry
     Harris-Foulkes estimate   =   -2024.82399752 Ry
     estimated scf accuracy    <          7.2E-09 Ry

     The total energy is the sum of the following terms:

     one-electron contribution =  -23988.03813923 Ry
     hartree contribution      =   12014.08223446 Ry
     xc contribution           =    -323.10485792 Ry
     ewald contribution        =   10270.19338227 Ry
     Hubbard energy            =       2.04296145 Ry
     smearing contrib. (-TS)   =       0.00042145 Ry

     total magnetization       =    15.00 Bohr mag/cell
     absolute magnetization    =    26.47 Bohr mag/cell

     convergence has been achieved in  17 iterations

     Forces acting on atoms (Ry/au):

     negative rho (up, down):  0.528E-02 0.180E-02
     atom    1 type  1   force =    -0.00311742   -0.01068518   -0.00017756
     atom    2 type  1   force =    -0.00025798    0.00535228    0.00048464
     atom    3 type  2   force =     0.02442229   -0.00007785   -0.00043036
     atom    4 type  2   force =     0.00152618    0.00643659    0.00056009
     atom    5 type  1   force =    -0.00031118    0.00686438   -0.00002940
     atom    6 type  1   force =     0.00056781   -0.00498714   -0.00004943
     atom    7 type  1   force =     0.00302534   -0.00213857   -0.00018015
     atom    8 type  1   force =    -0.01861097   -0.00060397    0.00072889
     atom    9 type  2   force =     0.00974193    0.00106221   -0.00002238
     atom   10 type  2   force =    -0.00388682   -0.00004158    0.00029897
     atom   11 type  1   force =    -0.02500338   -0.03294509   -0.00023949
     atom   12 type  1   force =    -0.02491802    0.03229258   -0.00029265
     atom   13 type  1   force =    -0.03007112    0.00003435   -0.00072677
     atom   14 type  1   force =    -0.00742571   -0.01158860   -0.00014671
     atom   15 type  1   force =     0.00048598    0.00684424    0.00066195
     atom   16 type  2   force =    -0.02585305    0.00065478   -0.00042034
     atom   17 type  2   force =     0.00751537    0.00605422    0.00029461
     atom   18 type  1   force =     0.00100432    0.00659770   -0.00002433
     atom   19 type  1   force =     0.00213551   -0.00502930   -0.00008668
     atom   20 type  1   force =    -0.00019969   -0.00269689   -0.00049449
     atom   21 type  1   force =     0.01494373    0.00027154    0.00074202
     atom   22 type  2   force =     0.00555720   -0.00008557   -0.00068066
     atom   23 type  2   force =    -0.00653598    0.00044003   -0.00019827
     atom   24 type  1   force =     0.02391715   -0.01796851    0.00046290
     atom   25 type  1   force =     0.02453346    0.01819881    0.00045574
     atom   26 type  1   force =     0.02563884   -0.00020197   -0.00049317
     atom   27 type  3   force =    -0.00005097   -0.00078852   -0.00056619
     atom   28 type  3   force =    -0.00001450   -0.00085346   -0.00044164
     atom   29 type  3   force =     0.00031846   -0.00031051    0.00033047
     atom   30 type  3   force =     0.00021841   -0.00008646    0.00026381
     atom   31 type  1   force =    -0.00002397    0.00001092   -0.00000892
     atom   32 type  3   force =     0.00072876   -0.00002547    0.00042550

     Total force =     0.002793     Total SCF correction =     0.000164

     bfgs converged in  14 scf cycles and  13 bfgs steps
     (criteria: energy < 0.10E-03, force < 0.10E-02)

     End of BFGS Geometry Optimization

     Final energy   =   -2024.8239975126 Ry
Begin final coordinates

ATOMIC_POSITIONS (crystal)
O0       0.000000000   0.000000000   0.376579904    0   0   1
O0       0.000000000   0.500000000   0.397167389    0   0   1
Cr1      0.250000000   0.500000000   0.449506900    0   0   1
Cr1      0.000000000   0.000000000   0.449233568    0   0   1
O0       0.250000000   0.800000000   0.449403084    0   0   1
O0       0.250000000   0.200000000   0.449427837    0   0   1
O0       0.000000000   0.500000000   0.496954335    0   0   1
O0       0.000000000   0.000000000   0.523886468    0   0   1
Cr1      0.250000000   0.000000000   0.570967103    0   0   1
Cr1      0.000000000   0.500000000   0.565881865    0   0   1
O0       0.250000000   0.700000000   0.574762586    0   0   1
O0       0.250000000   0.300000000   0.574881151    0   0   1
O0       0.000000000   0.000000000   0.620340050    0   0   1
O0       0.500000000   0.000000000   0.376440384    0   0   1
O0       0.500000000   0.500000000   0.397672865    0   0   1
Cr1      0.750000000   0.500000000   0.449516302    0   0   1
Cr1      0.500000000   0.000000000   0.449494293    0   0   1
O0       0.750000000   0.800000000   0.449411601    0   0   1
O0       0.750000000   0.200000000   0.449421669    0   0   1
O0       0.500000000   0.500000000   0.500091759    0   0   1
O0       0.500000000   0.000000000   0.524491571    0   0   1
Cr1      0.750000000   0.000000000   0.582937974    0   0   1
Cr1      0.500000000   0.500000000   0.576236622    0   0   1
O0       0.750000000   0.700000000   0.575304977    0   0   1
O0       0.750000000   0.300000000   0.575304833    0   0   1
O0       0.500000000   0.000000000   0.620407860    0   0   1
H2      -0.000611620   0.639397479   0.378748597
H2       0.499521474   0.638905474   0.378967649
H2       0.158292167   0.029084331   0.363900785
H2       0.657539319   0.030083911   0.363653103
O0       0.516479089   0.499701214   0.647622629
H2       0.364202986   0.497939556   0.664112285
End final coordinates

     General routines

     Parallel routines
     Hubbard U routines

   This run was terminated on:   1:25:23   6May2014

   JOB DONE.
Running PBS batch system epilogue script
Job id: 340731.audhumbla.fysik.dtu.dk
Username: zhonxu
Groupname: campgst
Jobname: CrO2/Eads-2-layers/OH-U-4.5
Sessionid: 31119
Queuename: verylong
Accounting:
This job has allocated the following 16 nodes:
b103 b103 b103 b103 b103 b103 b103 b103 b090 b090 b090 b090 b090 b090 b090 b090
Finished epilogue job 340731.audhumbla.fysik.dtu.dk for zhonxu