     Program PWSCF v.5.0.2 (svn rev. 9656) starts on  2May2014 at  0:44:12

     Current dimensions of program PWSCF are:
     Max number of different atomic species (ntypx) = 10
     Max number of k-points (npk) =  40000
     Max angular momentum in pseudopotentials (lmaxx) =  3
     Reading input from pwscf.in
Warning: card &CELL ignored
Warning: card / ignored

     Subspace diagonalization in iterative solution of the eigenvalue problem:
     a serial algorithm will be used

     bravais-lattice index     =            0
     lattice parameter (alat)  =      10.1289  a.u.
     unit-cell volume          =    6836.7721 (a.u.)^3
     number of atoms/cell      =           32
     number of atomic types    =            3
     number of electrons       =       239.00
     number of Kohn-Sham states=          358
     kinetic-energy cutoff     =      40.0000  Ry
     charge density cutoff     =     500.0000  Ry
     convergence threshold     =      1.0E-06
     mixing beta               =       0.7000
     number of iterations used =            8  plain     mixing
     Exchange-correlation      = SLA  PW   PBE  PBE ( 1 4 3 4 0)
     EXX-fraction              =        0.00
     nstep                     =           50

     celldm(1)=  10.128932  celldm(2)=   0.000000  celldm(3)=   0.000000
     celldm(4)=   0.000000  celldm(5)=   0.000000  celldm(6)=   0.000000

     crystal axes: (cart. coord. in units of alat)
               a(1) = (   1.000000   0.000000   0.000000 )
               a(2) = (   0.000000   1.306037   0.000000 )
               a(3) = (   0.000000   0.000000   5.037380 )

     reciprocal axes: (cart. coord. in units 2 pi/alat)
               b(1) = (  1.000000  0.000000  0.000000 )
               b(2) = (  0.000000  0.765675  0.000000 )
               b(3) = (  0.000000  0.000000  0.198516 )

     PseudoPot. # 1 for O  read from file:
     /home/camp/zhonxu/pseudo/o_pbe_v1.01.uspp.F.UPF
     MD5 check sum: 2bcb18d16ea4b960afae9ec6d52f22d2
     Pseudo is Ultrasoft + core correction, Zval =  6.0
     Generated by new atomic code, or converted to UPF format
     Using radial grid of  737 points,  5 beta functions with:
                l(1) =   0
                l(2) =   0
                l(3) =   1
                l(4) =   1
                l(5) =   2
     Q(r) pseudized with  8 coefficients,  rinner =    0.900   0.900   0.900
                                                       0.900   0.900

     PseudoPot. # 2 for Re read from file:
     /home/camp/zhonxu/pseudo/re_pbe_v1.uspp.F.UPF
     MD5 check sum: 6f5a5dcaf9c96c20d0ffdde0de57afc6
     Pseudo is Ultrasoft + core correction, Zval = 15.0
     Generated by new atomic code, or converted to UPF format
     Using radial grid of  981 points,  8 beta functions with:
                l(1) =   0
                l(2) =   0
                l(3) =   1
                l(4) =   1
                l(5) =   2
                l(6) =   2
                l(7) =   3
                l(8) =   3
     Q(r) pseudized with  8 coefficients,  rinner =    1.000   1.000   1.000
                                                       1.000   1.000   1.000
                                                       1.000

     PseudoPot. # 3 for H  read from file:
     /home/camp/zhonxu/pseudo/h_pbe_v1.uspp.F.UPF
     MD5 check sum: 3408e3ff4ec8b0a4e358431e7e038a48
     Pseudo is Ultrasoft, Zval =  1.0
     Generated by new atomic code, or converted to UPF format
     Using radial grid of  615 points,  2 beta functions with:
                l(1) =   0
                l(2) =   0
     Q(r) pseudized with  8 coefficients,  rinner =    0.700

     atomic species   valence    mass     pseudopotential
        O0             6.00    15.99940     O ( 1.00)
        Re1           15.00   186.20700     Re( 1.00)
        H2             1.00     1.00794     H ( 1.00)

     Simplified LDA+U calculation (l_max = 2) with parameters (eV):
     atomic species    L          U    alpha       J0     beta
        Re1            2     5.5000   0.0000   0.0000   0.0000

     No symmetry found

   Cartesian axes

     site n.     atom                  positions (alat units)
         1           O0  tau(   1) = (   0.0000000   0.0000000   1.8669538  )
         2           O0  tau(   2) = (   0.0000000   0.6530184   1.9246318  )
         3           Re1 tau(   3) = (   0.2500000   0.6530184   2.2252626  )
         4           Re1 tau(   4) = (   0.0000000   0.0000000   2.2335239  )
         5           O0  tau(   5) = (   0.2500000   1.0187087   2.2252626  )
         6           O0  tau(   6) = (   0.2500000   0.2873281   2.2245574  )
         7           O0  tau(   7) = (   0.0000000   0.6530184   2.5039809  )
         8           O0  tau(   8) = (   0.0000000   0.0000000   2.5944019  )
         9           Re1 tau(   9) = (   0.2500000   0.0000000   2.8956372  )
        10           Re1 tau(  10) = (   0.0000000   0.6530184   2.8532728  )
        11           O0  tau(  11) = (   0.2500000   0.9403465   2.8863684  )
        12           O0  tau(  12) = (   0.2500000   0.3656903   2.8866706  )
        13           O0  tau(  13) = (   0.0000000   0.0000000   3.1589410  )
        14           O0  tau(  14) = (   0.5000000   0.0000000   1.8671553  )
        15           O0  tau(  15) = (   0.5000000   0.6530184   1.9260926  )
        16           Re1 tau(  16) = (   0.7500000   0.6530184   2.2254138  )
        17           Re1 tau(  17) = (   0.5000000   0.0000000   2.2327683  )
        18           O0  tau(  18) = (   0.7500000   1.0187087   2.2250108  )
        19           O0  tau(  19) = (   0.7500000   0.2873281   2.2249100  )
        20           O0  tau(  20) = (   0.5000000   0.6530184   2.5136527  )
        21           O0  tau(  21) = (   0.5000000   0.0000000   2.5937470  )
        22           Re1 tau(  22) = (   0.7500000   0.0000000   2.8949319  )
        23           Re1 tau(  23) = (   0.5000000   0.6530184   2.8846557  )
        24           O0  tau(  24) = (   0.7500000   0.9403465   2.8822881  )
        25           O0  tau(  25) = (   0.7500000   0.3656903   2.8822881  )
        26           O0  tau(  26) = (   0.5000000   0.0000000   3.1556667  )
        27           H2  tau(  27) = (  -0.0003600   0.8163644   1.8395505  )
        28           H2  tau(  28) = (   0.4996200   0.8138568   1.8363769  )
        29           H2  tau(  29) = (   0.1695000   0.0302217   1.7958260  )
        30           H2  tau(  30) = (   0.6704500   0.0285761   1.7967327  )
        31           O0  tau(  31) = (   0.5277600   0.6525874   3.2436194  )
        32           H2  tau(  32) = (   0.3788200   0.6519344   3.3501096  )

     number of k points=    10  Methfessel-Paxton smearing, width (Ry)=  0.0100
                       cart. coord. in units 2pi/alat
        k(    1) = (   0.0000000   0.0000000   0.0000000), wk =   0.1250000
        k(    2) = (   0.0000000   0.1914188   0.0000000), wk =   0.2500000
        k(    3) = (   0.0000000  -0.3828376   0.0000000), wk =   0.1250000
        k(    4) = (   0.2500000   0.0000000   0.0000000), wk =   0.2500000
        k(    5) = (   0.2500000   0.1914188   0.0000000), wk =   0.2500000
        k(    6) = (   0.2500000  -0.3828376   0.0000000), wk =   0.2500000
        k(    7) = (  -0.5000000   0.0000000   0.0000000), wk =   0.1250000
        k(    8) = (  -0.5000000   0.1914188   0.0000000), wk =   0.2500000
        k(    9) = (  -0.5000000  -0.3828376   0.0000000), wk =   0.1250000
        k(   10) = (  -0.2500000   0.1914188   0.0000000), wk =   0.2500000

     Largest allocated arrays     est. size (Mb)     dimensions
     Largest temporary arrays     est. size (Mb)     dimensions

     Check: negative/imaginary core charge=   -0.000003    0.000000

     Initial potential from superposition of free atoms
     Check: negative starting charge=   -0.237247

     starting charge  234.99957, renormalised to  239.00000

     negative rho (up, down):  0.241E+00 0.000E+00
     Number of +U iterations with fixed ns =  0
     Starting occupations:
 --- enter write_ns ---
 LDA+U parameters:
U( 2)     =  5.50000000
alpha( 2) =  0.00000000
atom    3   Tr[ns(na)] =   5.00000
    eigenvalues:
  0.500  0.500  0.500  0.500  0.500
    eigenvectors:
  1.000  0.000  0.000  0.000  0.000
  0.000  1.000  0.000  0.000  0.000
  0.000  0.000  1.000  0.000  0.000
  0.000  0.000  0.000  1.000  0.000
  0.000  0.000  0.000  0.000  1.000
    occupations:
  0.500  0.000  0.000  0.000  0.000
  0.000  0.500  0.000  0.000  0.000
  0.000  0.000  0.500  0.000  0.000
  0.000  0.000  0.000  0.500  0.000
  0.000  0.000  0.000  0.000  0.500
atom    4   Tr[ns(na)] =   5.00000
    eigenvalues:
  0.500  0.500  0.500  0.500  0.500
    eigenvectors:
  1.000  0.000  0.000  0.000  0.000
  0.000  1.000  0.000  0.000  0.000
  0.000  0.000  1.000  0.000  0.000
  0.000  0.000  0.000  1.000  0.000
  0.000  0.000  0.000  0.000  1.000
    occupations:
  0.500  0.000  0.000  0.000  0.000
  0.000  0.500  0.000  0.000  0.000
  0.000  0.000  0.500  0.000  0.000
  0.000  0.000  0.000  0.500  0.000
  0.000  0.000  0.000  0.000  0.500
atom    9   Tr[ns(na)] =   5.00000
    eigenvalues:
  0.500  0.500  0.500  0.500  0.500
    eigenvectors:
  1.000  0.000  0.000  0.000  0.000
  0.000  1.000  0.000  0.000  0.000
  0.000  0.000  1.000  0.000  0.000
  0.000  0.000  0.000  1.000  0.000
  0.000  0.000  0.000  0.000  1.000
    occupations:
  0.500  0.000  0.000  0.000  0.000
  0.000  0.500  0.000  0.000  0.000
  0.000  0.000  0.500  0.000  0.000
  0.000  0.000  0.000  0.500  0.000
  0.000  0.000  0.000  0.000  0.500
atom   10   Tr[ns(na)] =   5.00000
    eigenvalues:
  0.500  0.500  0.500  0.500  0.500
    eigenvectors:
  1.000  0.000  0.000  0.000  0.000
  0.000  1.000  0.000  0.000  0.000
  0.000  0.000  1.000  0.000  0.000
  0.000  0.000  0.000  1.000  0.000
  0.000  0.000  0.000  0.000  1.000
    occupations:
  0.500  0.000  0.000  0.000  0.000
  0.000  0.500  0.000  0.000  0.000
  0.000  0.000  0.500  0.000  0.000
  0.000  0.000  0.000  0.500  0.000
  0.000  0.000  0.000  0.000  0.500
atom   16   Tr[ns(na)] =   5.00000
    eigenvalues:
  0.500  0.500  0.500  0.500  0.500
    eigenvectors:
  1.000  0.000  0.000  0.000  0.000
  0.000  1.000  0.000  0.000  0.000
  0.000  0.000  1.000  0.000  0.000
  0.000  0.000  0.000  1.000  0.000
  0.000  0.000  0.000  0.000  1.000
    occupations:
  0.500  0.000  0.000  0.000  0.000
  0.000  0.500  0.000  0.000  0.000
  0.000  0.000  0.500  0.000  0.000
  0.000  0.000  0.000  0.500  0.000
  0.000  0.000  0.000  0.000  0.500
atom   17   Tr[ns(na)] =   5.00000
    eigenvalues:
  0.500  0.500  0.500  0.500  0.500
    eigenvectors:
  1.000  0.000  0.000  0.000  0.000
  0.000  1.000  0.000  0.000  0.000
  0.000  0.000  1.000  0.000  0.000
  0.000  0.000  0.000  1.000  0.000
  0.000  0.000  0.000  0.000  1.000
    occupations:
  0.500  0.000  0.000  0.000  0.000
  0.000  0.500  0.000  0.000  0.000
  0.000  0.000  0.500  0.000  0.000
  0.000  0.000  0.000  0.500  0.000
  0.000  0.000  0.000  0.000  0.500
atom   22   Tr[ns(na)] =   5.00000
    eigenvalues:
  0.500  0.500  0.500  0.500  0.500
    eigenvectors:
  1.000  0.000  0.000  0.000  0.000
[...]
  0.000  0.782  0.001  0.158  0.060
  0.007  0.000  0.000  0.258  0.736
    occupations:
  0.720  0.002 -0.001 -0.066  0.004
  0.002  0.609  0.000 -0.000  0.000
 -0.001  0.000  0.582  0.001 -0.015
 -0.066 -0.000  0.001  0.630 -0.004
  0.004  0.000 -0.015 -0.004  0.760
atom   10   Tr[ns(na)] =   6.51020
    eigenvalues:
  0.472  0.532  0.537  0.777  0.937
    eigenvectors:
  0.998  0.001  0.000  0.001  0.000
  0.000  0.000  0.000  0.000  1.000
  0.001  0.971  0.028  0.000  0.000
  0.001  0.000  0.000  0.999  0.000
  0.000  0.028  0.972  0.000  0.000
    occupations:
  0.473 -0.008 -0.002  0.008  0.000
 -0.008  0.937  0.001 -0.001  0.001
 -0.002  0.001  0.532 -0.001 -0.001
  0.008 -0.001 -0.001  0.777 -0.000
  0.000  0.001 -0.001 -0.000  0.537
atom   16   Tr[ns(na)] =   6.59550
    eigenvalues:
  0.539  0.547  0.572  0.782  0.858
    eigenvectors:
  0.016  0.002  0.292  0.689  0.000
  0.020  0.971  0.008  0.001  0.001
  0.960  0.023  0.008  0.007  0.003
  0.001  0.003  0.693  0.303  0.000
  0.003  0.000  0.000  0.000  0.997
    occupations:
  0.716  0.006  0.019 -0.096  0.001
  0.006  0.547 -0.000 -0.001 -0.008
  0.019 -0.000  0.542 -0.009 -0.016
 -0.096 -0.001 -0.009  0.636 -0.000
  0.001 -0.008 -0.016 -0.000  0.857
atom   17   Tr[ns(na)] =   6.60388
    eigenvalues:
  0.570  0.591  0.612  0.736  0.793
    eigenvectors:
  0.000  0.000  0.990  0.001  0.009
  0.000  0.009  0.001  0.990  0.000
  0.000  0.991  0.000  0.009  0.000
  0.000  0.000  0.009  0.000  0.991
  0.999  0.000  0.000  0.000  0.000
    occupations:
  0.613  0.003  0.001 -0.017  0.001
  0.003  0.735  0.014 -0.001 -0.002
  0.001  0.014  0.592  0.001 -0.000
 -0.017 -0.001  0.001  0.791 -0.000
  0.001 -0.002 -0.000 -0.000  0.570
atom   22   Tr[ns(na)] =   6.60700
    eigenvalues:
  0.572  0.594  0.602  0.760  0.776
    eigenvectors:
  0.000  0.233  0.000  0.064  0.702
  0.000  0.000  1.000  0.000  0.000
  0.995  0.000  0.000  0.005  0.000
  0.000  0.767  0.000  0.018  0.215
  0.005  0.000  0.000  0.913  0.082
    occupations:
  0.732 -0.001 -0.001 -0.077  0.003
 -0.001  0.602  0.000  0.001  0.000
 -0.001  0.000  0.573  0.000  0.013
 -0.077  0.001  0.000  0.636 -0.003
  0.003  0.000  0.013 -0.003  0.760
atom   23   Tr[ns(na)] =   6.55839
    eigenvalues:
  0.457  0.546  0.585  0.787  0.904
    eigenvectors:
  0.000  0.000  0.999  0.000  0.001
  0.000  0.000  0.001  0.000  0.999
  1.000  0.000  0.000  0.000  0.000
  0.000  0.000  0.000  1.000  0.000
  0.000  1.000  0.000  0.000  0.000
    occupations:
  0.586  0.010 -0.001 -0.002  0.000
  0.010  0.903  0.001  0.002  0.002
 -0.001  0.001  0.457  0.001 -0.001
 -0.002  0.002  0.001  0.787 -0.000
  0.000  0.002 -0.001 -0.000  0.546
N of occupied +U levels =  52.6741350
 --- exit write_ns ---

     Threshold (ethr) on eigenvalues was too large:
     Diagonalizing with lowered threshold

     Davidson diagonalization with overlap
     ethr =  5.27E-09,  avg # of iterations =  2.0

[...]

     total energy              =   -2173.05344466 Ry
     Harris-Foulkes estimate   =   -2173.05344467 Ry
     estimated scf accuracy    <       0.00000002 Ry

     iteration # 15     ecut=    40.00 Ry     beta=0.70
     Davidson diagonalization with overlap
     ethr =  5.11E-12,  avg # of iterations =  1.0

     negative rho (up, down):  0.238E+00 0.000E+00

     End of self-consistent calculation
 --- enter write_ns ---
 LDA+U parameters:
U( 2)     =  5.50000000
alpha( 2) =  0.00000000
atom    3   Tr[ns(na)] =   6.59082
    eigenvalues:
  0.532  0.548  0.573  0.783  0.859
    eigenvectors:
  0.013  0.004  0.293  0.691  0.000
  0.003  0.987  0.009  0.000  0.001
  0.980  0.004  0.004  0.008  0.004
  0.000  0.005  0.694  0.301  0.000
  0.004  0.001  0.000  0.000  0.995
    occupations:
  0.718 -0.006  0.020 -0.096 -0.001
 -0.006  0.549 -0.000  0.001 -0.009
  0.020 -0.000  0.535 -0.010  0.020
 -0.096  0.001 -0.010  0.636  0.000
 -0.001 -0.009  0.020  0.000  0.858
atom    4   Tr[ns(na)] =   6.60686
    eigenvalues:
  0.570  0.603  0.612  0.726  0.792
    eigenvectors:
  0.001  0.000  0.989  0.001  0.010
  0.000  0.020  0.001  0.979  0.000
  0.000  0.980  0.000  0.020  0.000
  0.000  0.000  0.010  0.000  0.990
  0.999  0.000  0.001  0.000  0.000
    occupations:
  0.614  0.004  0.000 -0.018  0.001
  0.004  0.724  0.017 -0.001 -0.002
  0.000  0.017  0.605  0.001 -0.000
 -0.018 -0.001  0.001  0.790 -0.000
  0.001 -0.002 -0.000 -0.000  0.570
atom    9   Tr[ns(na)] =   6.60274
    eigenvalues:
  0.581  0.595  0.609  0.752  0.764
    eigenvectors:
  0.000  0.218  0.000  0.600  0.183
  0.000  0.001  0.999  0.000  0.000
  0.993  0.000  0.000  0.001  0.006
  0.000  0.782  0.001  0.163  0.055
  0.007  0.000  0.000  0.236  0.757
    occupations:
  0.720  0.002 -0.001 -0.066  0.004
  0.002  0.609  0.000 -0.000  0.000
 -0.001  0.000  0.583  0.001 -0.015
 -0.066 -0.000  0.001  0.630 -0.004
  0.004  0.000 -0.015 -0.004  0.760
atom   10   Tr[ns(na)] =   6.51115
    eigenvalues:
  0.472  0.532  0.538  0.777  0.937
    eigenvectors:
  0.998  0.001  0.000  0.001  0.000
  0.000  0.000  0.000  0.000  1.000
  0.001  0.965  0.034  0.000  0.000
  0.001  0.000  0.000  0.999  0.000
  0.000  0.034  0.965  0.000  0.000
    occupations:
  0.473 -0.008 -0.002  0.008  0.000
 -0.008  0.937  0.001 -0.001  0.001
 -0.002  0.001  0.532 -0.001 -0.001
  0.008 -0.001 -0.001  0.777 -0.000
  0.000  0.001 -0.001 -0.000  0.537
atom   16   Tr[ns(na)] =   6.59509
    eigenvalues:
  0.539  0.547  0.572  0.782  0.858
    eigenvectors:
  0.016  0.002  0.292  0.689  0.000
  0.021  0.971  0.008  0.001  0.001
  0.959  0.024  0.008  0.007  0.002
  0.001  0.003  0.693  0.303  0.000
  0.003  0.000  0.000  0.000  0.997
    occupations:
  0.716  0.006  0.019 -0.096  0.001
  0.006  0.547 -0.000 -0.001 -0.008
  0.019 -0.000  0.542 -0.009 -0.016
 -0.096 -0.001 -0.009  0.636 -0.000
  0.001 -0.008 -0.016 -0.000  0.857
atom   17   Tr[ns(na)] =   6.60315
    eigenvalues:
  0.570  0.591  0.612  0.736  0.793
    eigenvectors:
  0.000  0.000  0.990  0.001  0.009
  0.000  0.009  0.001  0.990  0.000
  0.000  0.991  0.000  0.009  0.000
  0.000  0.000  0.009  0.000  0.991
  0.999  0.000  0.000  0.000  0.000
    occupations:
  0.613  0.003  0.001 -0.017  0.001
  0.003  0.735  0.014 -0.001 -0.002
  0.001  0.014  0.592  0.001 -0.000
 -0.017 -0.001  0.001  0.791 -0.000
  0.001 -0.002 -0.000 -0.000  0.570
atom   22   Tr[ns(na)] =   6.60520
    eigenvalues:
  0.571  0.593  0.602  0.760  0.776
    eigenvectors:
  0.000  0.233  0.000  0.062  0.704
  0.000  0.000  1.000  0.000  0.000
  0.995  0.000  0.000  0.005  0.000
  0.000  0.767  0.000  0.017  0.216
  0.005  0.000  0.000  0.916  0.079
    occupations:
  0.732 -0.001 -0.001 -0.077  0.003
 -0.001  0.602  0.000  0.001  0.000
 -0.001  0.000  0.572  0.000  0.013
 -0.077  0.001  0.000  0.636 -0.003
  0.003  0.000  0.013 -0.003  0.760
atom   23   Tr[ns(na)] =   6.55899
    eigenvalues:
  0.457  0.546  0.585  0.787  0.904
    eigenvectors:
  0.000  0.000  0.999  0.000  0.001
  0.000  0.000  0.001  0.000  0.999
  1.000  0.000  0.000  0.000  0.000
  0.000  0.000  0.000  1.000  0.000
  0.000  1.000  0.000  0.000  0.000
    occupations:
  0.586  0.010 -0.001 -0.002  0.000
  0.010  0.903  0.001  0.002  0.002
 -0.001  0.001  0.457  0.001 -0.001
 -0.002  0.002  0.001  0.787 -0.000
  0.000  0.002 -0.001 -0.000  0.546
N of occupied +U levels =  52.6740107
 --- exit write_ns ---

[...]

          k = 0.2500-0.3828 0.0000 ( 29202 PWs)   bands (ev):

[...]

          k =-0.2500 0.1914 0.0000 ( 29229 PWs)   bands (ev):

   -80.9286 -80.8880 -80.7011 -80.6301 -80.4234 -80.3807 -80.3446 -80.3072
   -43.0153 -42.9160 -42.8836 -42.8535 -42.8049 -42.7718 -42.7123 -42.6377
   -42.6241 -42.6087 -42.6019 -42.5051 -42.4976 -42.4754 -42.3934 -42.3914
   -42.3801 -42.3578 -42.3170 -42.2292 -42.1847 -42.1567 -41.7403 -41.5925
   -20.7352 -20.3446 -20.3262 -20.1561 -20.0584 -19.9323 -19.8370 -19.7855
   -19.6753 -19.5282 -19.4304 -19.3585 -19.2327 -19.1242 -19.0360 -18.9687
   -18.9480 -18.4342 -18.1621  -9.0902  -9.0022  -8.8726  -8.8267  -8.7047
    -8.5401  -8.4763  -8.3495  -8.1777  -8.0298  -7.9505  -7.8154  -7.7692
    -7.4377  -7.3374  -7.1893  -6.9422  -6.7778  -6.7612  -6.6260  -6.5854
    -6.4544  -6.1700  -6.0251  -5.9368  -5.8137  -5.7708  -5.5597  -5.4779
    -5.4187  -5.2567  -5.0599  -4.9862  -4.9342  -4.8343  -4.7926  -4.7304
    -4.6512  -4.6219  -4.5572  -4.4994  -4.1921  -4.0040  -3.9334  -3.8541
    -3.7883  -3.7411  -3.5979  -3.4240  -3.3755  -3.3183  -3.2381  -3.1017
    -2.8918  -2.8356  -2.7469  -2.5367  -2.3747  -2.1819  -2.1014  -1.4948
    -1.2146  -1.1616  -1.0221  -0.2733  -0.2362   0.0008   0.1282   0.4305
     0.6646   0.7993   0.8682   1.1778   1.2866   1.4262   1.5678   1.6604
     1.7119   1.7495   1.8101   2.2570   2.5849   3.7088   3.7696   3.9506
     4.0058   4.1454   4.2676   4.4541   4.6322   4.6652   4.8774   4.9785
     5.0183   5.2660   5.3451   5.6704   5.8702   5.9930   6.1131   6.3669
     6.4809   6.5912   6.7442   6.8451   7.0061   7.1620   7.3110   7.5135
     7.6917   7.7354   7.9564   8.0636   8.2818   8.4037   8.4685   8.5819
     8.6773   8.7565   8.9794   9.0324   9.1357   9.3853   9.4226   9.5928
     9.6533   9.6986   9.8265   9.9116   9.9535   9.9889  10.0976  10.2272
    10.2466  10.3764  10.4420  10.5326  10.6090  10.7423  10.7802  10.8603
    11.0141  11.1220  11.2155  11.3249  11.4499  11.5982  11.6773  11.7482
    11.8201  11.9676  12.0560  12.2056  12.3429  12.4916  12.5801  12.6098
    12.6838  12.7862  12.8413  12.9060  12.9866  13.0150  13.1087  13.2361
    13.3187  13.4233  13.5246  13.6542  13.6783  13.7572  13.8139  13.8963
    13.9462  13.9815  14.0624  14.1328  14.1564  14.2620  14.3558  14.4000
    14.4930  14.5502  14.5836  14.6943  14.7103  14.8420  14.8627  14.9240
    14.9757  15.0059  15.0208  15.1112  15.1700  15.2249  15.3356  15.4246
    15.5449  15.6262  15.6440  15.7439  15.8616  15.9782  16.0749  16.1618
    16.1872  16.2514  16.3355  16.4774  16.5632  16.5765  16.6115  16.7231
    16.7773  16.8727  16.9513  17.0442  17.1270  17.2128  17.2708  17.2904
    17.3820  17.5045  17.6030  17.6707  17.7310  17.8102  17.8340  17.9602
    18.0058  18.0279  18.1420  18.2277  18.2814  18.3283  18.4185  18.4942
    18.5654  18.6028  18.6554  18.7080  18.7882  18.8747  18.9292  19.0570
    19.1197  19.2308  19.3216  19.4054  19.4760  19.5815  19.6337  19.6815
    19.7793  19.8485  19.9652  20.0334  20.1661  20.2336  20.2960  20.3785
    20.4703  20.5313  20.5793  20.6621  20.7040  20.7842  20.8304  20.8652
    20.9127  20.9529  20.9928  21.0941  21.1567  21.1911  21.2512  21.3382
    21.4002  21.4951  21.5283  21.6153  21.6792  21.7380  21.7890  21.8549
    21.9425  21.9884  22.0936  22.1508  22.2182  22.2717  22.3334  22.3515
    22.4068  22.4383  22.5156  22.5452  22.6252  22.6440  22.7077  22.7589
    22.8219  22.8590  22.8840  22.9654  22.9951  23.0879

     the Fermi energy is     0.3256 ev

!    total energy              =   -2173.05344466 Ry
     Harris-Foulkes estimate   =   -2173.05344467 Ry
     estimated scf accuracy    <          3.4E-09 Ry

     The total energy is the sum of the following terms:

     one-electron contribution =  -24322.43030130 Ry
     hartree contribution      =   12180.84782172 Ry
     xc contribution           =    -595.20929029 Ry
     ewald contribution        =   10560.35193449 Ry
     Hubbard energy            =       3.38677295 Ry
     smearing contrib. (-TS)   =      -0.00038225 Ry

     convergence has been achieved in  15 iterations

     Forces acting on atoms (Ry/au):

     negative rho (up, down):  0.238E+00 0.000E+00
     atom    1 type  1   force =    -0.00366923   -0.00630872    0.00020135
     atom    2 type  1   force =     0.00025026    0.00443162    0.00003757
     atom    3 type  2   force =     0.03234897   -0.00196503   -0.00023004
     atom    4 type  2   force =    -0.00086413    0.00571157    0.00014369
     atom    5 type  1   force =     0.00095669   -0.00111016   -0.00040864
     atom    6 type  1   force =     0.00039777    0.00145707   -0.00042985
     atom    7 type  1   force =     0.00331943   -0.00147004   -0.00023644
     atom    8 type  1   force =     0.00621959   -0.00194145    0.00042521
     atom    9 type  2   force =    -0.03036038    0.00172342    0.00048481
     atom   10 type  2   force =    -0.00935511   -0.00204782   -0.00018517
     atom   11 type  1   force =    -0.00932220    0.00154679    0.00023831
     atom   12 type  1   force =    -0.00919416    0.00003140    0.00022470
     atom   13 type  1   force =     0.00139066   -0.00042823    0.00001189
     atom   14 type  1   force =    -0.00313646   -0.00528283    0.00024129
     atom   15 type  1   force =     0.00035181    0.00286232    0.00019257
     atom   16 type  2   force =    -0.03204659   -0.00078482   -0.00020942
     atom   17 type  2   force =     0.00349107    0.00612859    0.00019713
     atom   18 type  1   force =     0.00152504   -0.00067583   -0.00038988
     atom   19 type  1   force =     0.00052471    0.00049520   -0.00040499
     atom   20 type  1   force =    -0.00393151   -0.00209541   -0.00029541
     atom   21 type  1   force =    -0.00045130   -0.00110267    0.00048318
     atom   22 type  2   force =     0.02424930    0.00166565   -0.00017386
     atom   23 type  2   force =     0.00342593   -0.00065671   -0.00008655
     atom   24 type  1   force =     0.01174837    0.00349100    0.00009260
     atom   25 type  1   force =     0.01240477   -0.00248381    0.00008138
     atom   26 type  1   force =    -0.00028786   -0.00097096    0.00012494
     atom   27 type  3   force =     0.00003677   -0.00023602   -0.00026694
     atom   28 type  3   force =    -0.00000471   -0.00013036    0.00010236
     atom   29 type  3   force =    -0.00018542    0.00020272    0.00009608
     atom   30 type  3   force =    -0.00013699    0.00003520    0.00013019
     atom   31 type  1   force =     0.00023176   -0.00002099    0.00015609
     atom   32 type  3   force =     0.00007316   -0.00007068   -0.00034814

     Total force =     0.001566     Total SCF correction =     0.000116

     bfgs converged in  12 scf cycles and  11 bfgs steps
     (criteria: energy < 0.10E-03, force < 0.10E-02)

     End of BFGS Geometry Optimization

     Final energy   =   -2173.0534446638 Ry
Begin final coordinates

ATOMIC_POSITIONS (crystal)
O0       0.000000000   0.000000000   0.371785476    0   0   1
O0       0.000000000   0.500000000   0.382412231    0   0   1
Re1      0.250000000   0.500000000   0.441906971    0   0   1
Re1      0.000000000   0.000000000   0.443910540    0   0   1
O0       0.250000000   0.780000000   0.442265506    0   0   1
O0       0.250000000   0.220000000   0.441989401    0   0   1
O0       0.000000000   0.500000000   0.496973322    0   0   1
O0       0.000000000   0.000000000   0.514391875    0   0   1
Re1      0.250000000   0.000000000   0.574908253    0   0   1
Re1      0.000000000   0.500000000   0.565889409    0   0   1
O0       0.250000000   0.720000000   0.572230647    0   0   1
O0       0.250000000   0.280000000   0.572328528    0   0   1
O0       0.000000000   0.000000000   0.626690570    0   0   1
O0       0.500000000   0.000000000   0.371660399    0   0   1
O0       0.500000000   0.500000000   0.382588392    0   0   1
Re1      0.750000000   0.500000000   0.441897690    0   0   1
Re1      0.500000000   0.000000000   0.443622992    0   0   1
O0       0.750000000   0.780000000   0.442197588    0   0   1
O0       0.750000000   0.220000000   0.442137998    0   0   1
O0       0.500000000   0.500000000   0.498320242    0   0   1
O0       0.500000000   0.000000000   0.514502183    0   0   1
Re1      0.750000000   0.000000000   0.574094106    0   0   1
Re1      0.500000000   0.500000000   0.573378116    0   0   1
O0       0.750000000   0.720000000   0.571288878    0   0   1
O0       0.750000000   0.280000000   0.571242691    0   0   1
O0       0.500000000   0.000000000   0.625907831    0   0   1
H2      -0.000252523   0.623249706   0.364795907
H2       0.499607795   0.622437102   0.364582101
H2       0.168304989   0.023938319   0.357069061
H2       0.669665177   0.021871047   0.357231213
O0       0.529612942   0.499592382   0.644128515
H2       0.378270510   0.498995068   0.664701367
End final coordinates

     General routines

     Parallel routines
     Hubbard U routines

   This run was terminated on:  17:58:58   2May2014

   JOB DONE.
Running PBS batch system epilogue script
Job id: 340631.audhumbla.fysik.dtu.dk
Username: zhonxu
Groupname: campgst
Jobname: ReO2/Eads-2-layers/OH-U-5.5
Sessionid: 18834
Queuename: verylong
Accounting:
This job has allocated the following 16 nodes:
c004 c004 c004 c004 c004 c004 c004 c004 c003 c003 c003 c003 c003 c003 c003 c003
Finished epilogue job 340631.audhumbla.fysik.dtu.dk for zhonxu