     Program PWSCF v.5.0.2 (svn rev. 9656) starts on 31May2014 at 14:54:56

     Current dimensions of program PWSCF are:
     Max number of different atomic species (ntypx) = 10
     Max number of k-points (npk) =  40000
     Max angular momentum in pseudopotentials (lmaxx) =  3
     Reading input from pwscf.in
Warning: card &CELL ignored
Warning: card / ignored

     Subspace diagonalization in iterative solution of the eigenvalue problem:
     a serial algorithm will be used

     bravais-lattice index     =            0
     lattice parameter (alat)  =      11.2250  a.u.
     unit-cell volume          =    7005.5484 (a.u.)^3
     number of atoms/cell      =           33
     number of atomic types    =            3
     number of electrons       =       221.00
     number of Kohn-Sham states=          319
     kinetic-energy cutoff     =      40.0000  Ry
     charge density cutoff     =     500.0000  Ry
     convergence threshold     =      1.0E-06
     mixing beta               =       0.7000
     number of iterations used =            8  plain     mixing
     Exchange-correlation      = SLA  PW   PBE  PBE ( 1 4 3 4 0)
     EXX-fraction              =        0.00
     nstep                     =           50

     celldm(1)=  11.224973  celldm(2)=   0.000000  celldm(3)=   0.000000
     celldm(4)=   0.000000  celldm(5)=   0.000000  celldm(6)=   0.000000

     crystal axes: (cart. coord. in units of alat)
               a(1) = (   1.000000   0.000000   0.000000 )
               a(2) = (   0.000000   1.107086   0.000000 )
               a(3) = (   0.000000   0.000000   4.474090 )

     reciprocal axes: (cart. coord. in units 2 pi/alat)
               b(1) = (  1.000000  0.000000  0.000000 )
               b(2) = (  0.000000  0.903272  0.000000 )
               b(3) = (  0.000000  0.000000  0.223509 )

     PseudoPot. # 1 for O  read from file:
     /home/camp/zhonxu/pseudo/o_pbe_v1.01.uspp.F.UPF
     MD5 check sum: 2bcb18d16ea4b960afae9ec6d52f22d2
     Pseudo is Ultrasoft + core correction, Zval =  6.0
     Generated by new atomic code, or converted to UPF format
     Using radial grid of  737 points,  5 beta functions with:
                l(1) =   0
                l(2) =   0
                l(3) =   1
                l(4) =   1
                l(5) =   2
     Q(r) pseudized with  8 coefficients,  rinner =    0.900   0.900   0.900
                                                       0.900   0.900

     PseudoPot. # 2 for Ti read from file:
     /home/camp/zhonxu/pseudo/ti_pbe_v1.uspp.F.UPF
     MD5 check sum: bcc8f6961b3b91f0cac3ca967d22d0fb
     Pseudo is Ultrasoft + core correction, Zval = 12.0
     Generated by new atomic code, or converted to UPF format
     Using radial grid of  851 points,  6 beta functions with:
                l(1) =   0
                l(2) =   0
                l(3) =   1
                l(4) =   1
                l(5) =   2
                l(6) =   2
     Q(r) pseudized with  6 coefficients,  rinner =    1.000   1.000   1.000
                                                       1.000   1.000

     PseudoPot. # 3 for H  read from file:
     /home/camp/zhonxu/pseudo/h_pbe_v1.uspp.F.UPF
     MD5 check sum: 3408e3ff4ec8b0a4e358431e7e038a48
     Pseudo is Ultrasoft, Zval =  1.0
     Generated by new atomic code, or converted to UPF format
     Using radial grid of  615 points,  2 beta functions with:
                l(1) =   0
                l(2) =   0
     Q(r) pseudized with  8 coefficients,  rinner =    0.700

     atomic species   valence    mass     pseudopotential
        O0             6.00    15.99940     O ( 1.00)
        Ti1           12.00    47.88000     Ti( 1.00)
        H2             1.00     1.00794     H ( 1.00)

     Simplified LDA+U calculation (l_max = 2) with parameters (eV):
     atomic species    L          U    alpha       J0     beta
        Ti1            2     2.0000   0.0000   0.0000   0.0000

     No symmetry found

   Cartesian axes

     site n.     atom                  positions (alat units)
         1           O0  tau(   1) = (   0.0000000   0.0000000   1.6912954  )
         2           O0  tau(   2) = (   0.0000000   0.5535432   1.7865040  )
         3           Ti1 tau(   3) = (   0.2500000   0.5535432   2.0182619  )
         4           Ti1 tau(   4) = (   0.0000000   0.0000000   2.0215280  )
         5           O0  tau(   5) = (   0.2500000   0.8967400   2.0132062  )
         6           O0  tau(   6) = (   0.2500000   0.2103464   2.0173223  )
         7           O0  tau(   7) = (   0.0000000   0.5535432   2.2297074  )
         8           O0  tau(   8) = (   0.0000000   0.0000000   2.3520737  )
         9           Ti1 tau(   9) = (   0.2500000   0.0000000   2.5974328  )
        10           Ti1 tau(  10) = (   0.0000000   0.5535432   2.5411040  )
        11           O0  tau(  11) = (   0.2500000   0.7638896   2.5876345  )
        12           O0  tau(  12) = (   0.2500000   0.3431968   2.5923323  )
        13           O0  tau(  13) = (   0.0000000   0.0000000   2.7826601  )
        14           O0  tau(  14) = (   0.5000000   0.0000000   1.6946510  )
        15           O0  tau(  15) = (   0.5000000   0.5535432   1.7849381  )
        16           Ti1 tau(  16) = (   0.7500000   0.5535432   2.0183066  )
        17           Ti1 tau(  17) = (   0.5000000   0.0000000   2.0277470  )
        18           O0  tau(  18) = (   0.7500000   0.8967400   2.0129377  )
        19           O0  tau(  19) = (   0.7500000   0.2103464   2.0175013  )
        20           O0  tau(  20) = (   0.5000000   0.5535432   2.2179405  )
        21           O0  tau(  21) = (   0.5000000   0.0000000   2.3528791  )
        22           Ti1 tau(  22) = (   0.7500000   0.0000000   2.5974328  )
        23           Ti1 tau(  23) = (   0.5000000   0.5535432   2.6181478  )
        24           O0  tau(  24) = (   0.7500000   0.7638896   2.5875898  )
        25           O0  tau(  25) = (   0.7500000   0.3431968   2.5922429  )
        26           O0  tau(  26) = (   0.5000000   0.0000000   2.7811837  )
        27           H2  tau(  27) = (  -0.0004600   0.6930693   1.6949194  )
        28           H2  tau(  28) = (   0.4997200   0.6918293   1.6916086  )
        29           H2  tau(  29) = (   0.1490000   0.0365781   1.6268238  )
        30           H2  tau(  30) = (   0.6482800   0.0381834   1.6297319  )
        31           O0  tau(  31) = (   0.5003100   0.5833902   2.9430115  )
        32           O0  tau(  32) = (   0.4991200   0.3876242   3.0783974  )
        33           H2  tau(  33) = (   0.5003600   0.4575034   3.2295322  )

     number of k points=    10  Methfessel-Paxton smearing, width (Ry)=  0.0100
                       cart. coord. in units 2pi/alat
        k(    1) = (   0.0000000   0.0000000   0.0000000), wk =   0.1250000
        k(    2) = (   0.0000000   0.2258180   0.0000000), wk =   0.2500000
        k(    3) = (   0.0000000  -0.4516359   0.0000000), wk =   0.1250000
        k(    4) = (   0.2500000   0.0000000   0.0000000), wk =   0.2500000
        k(    5) = (   0.2500000   0.2258180   0.0000000), wk =   0.2500000
        k(    6) = (   0.2500000  -0.4516359   0.0000000), wk =   0.2500000
        k(    7) = (  -0.5000000   0.0000000   0.0000000), wk =   0.1250000
        k(    8) = (  -0.5000000   0.2258180   0.0000000), wk =   0.2500000
        k(    9) = (  -0.5000000  -0.4516359   0.0000000), wk =   0.1250000
        k(   10) = (  -0.2500000   0.2258180   0.0000000), wk =   0.2500000

     Largest allocated arrays     est. size (Mb)     dimensions
     Largest temporary arrays     est. size (Mb)     dimensions

     Check: negative/imaginary core charge=   -0.000006    0.000000

     Initial potential from superposition of free atoms
     Check: negative starting charge=   -0.102033

     starting charge  212.99957, renormalised to  221.00000

     negative rho (up, down):  0.106E+00 0.000E+00
     Number of +U iterations with fixed ns =  0
     Starting occupations:
 --- enter write_ns ---
 LDA+U parameters:
U( 2)     =  2.00000000
alpha( 2) =  0.00000000
atom    3   Tr[ns(na)] =   2.00000
    eigenvalues:
  0.200  0.200  0.200  0.200  0.200
    eigenvectors:
  1.000  0.000  0.000  0.000  0.000
  0.000  1.000  0.000  0.000  0.000
  0.000  0.000  1.000  0.000  0.000
  0.000  0.000  0.000  1.000  0.000
  0.000  0.000  0.000  0.000  1.000
    occupations:
  0.200  0.000  0.000  0.000  0.000
  0.000  0.200  0.000  0.000  0.000
  0.000  0.000  0.200  0.000  0.000
  0.000  0.000  0.000  0.200  0.000
  0.000  0.000  0.000  0.000  0.200
atom    4   Tr[ns(na)] =   2.00000
    eigenvalues:
  0.200  0.200  0.200  0.200  0.200
    eigenvectors:
  1.000  0.000  0.000  0.000  0.000
  0.000  1.000  0.000  0.000  0.000
  0.000  0.000  1.000  0.000  0.000
  0.000  0.000  0.000  1.000  0.000
  0.000  0.000  0.000  0.000  1.000
    occupations:
  0.200  0.000  0.000  0.000  0.000
  0.000  0.200  0.000  0.000  0.000
  0.000  0.000  0.200  0.000  0.000
  0.000  0.000  0.000  0.200  0.000
  0.000  0.000  0.000  0.000  0.200
atom    9   Tr[ns(na)] =   2.00000
    eigenvalues:
  0.200  0.200  0.200  0.200  0.200
    eigenvectors:
  1.000  0.000  0.000  0.000  0.000
  0.000  1.000  0.000  0.000  0.000
  0.000  0.000  1.000  0.000  0.000
  0.000  0.000  0.000  1.000  0.000
  0.000  0.000  0.000  0.000  1.000
    occupations:
  0.200  0.000  0.000  0.000  0.000
  0.000  0.200  0.000  0.000  0.000
  0.000  0.000  0.200  0.000  0.000
  0.000  0.000  0.000  0.200  0.000
  0.000  0.000  0.000  0.000  0.200
atom   10   Tr[ns(na)] =   2.00000
    eigenvalues:
  0.200  0.200  0.200  0.200  0.200
    eigenvectors:
  1.000  0.000  0.000  0.000  0.000
  0.000  1.000  0.000  0.000  0.000
  0.000  0.000  1.000  0.000  0.000
  0.000  0.000  0.000  1.000  0.000
  0.000  0.000  0.000  0.000  1.000
    occupations:
  0.200  0.000  0.000  0.000  0.000
  0.000  0.200  0.000  0.000  0.000
  0.000  0.000  0.200  0.000  0.000
  0.000  0.000  0.000  0.200  0.000
  0.000  0.000  0.000  0.000  0.200
atom   16   Tr[ns(na)] =   2.00000
    eigenvalues:
  0.200  0.200  0.200  0.200  0.200
    eigenvectors:
  1.000  0.000  0.000  0.000  0.000
  0.000  1.000  0.000  0.000  0.000
  0.000  0.000  1.000  0.000  0.000
  0.000  0.000  0.000  1.000  0.000
  0.000  0.000  0.000  0.000  1.000
    occupations:
  0.200  0.000  0.000  0.000  0.000
  0.000  0.200  0.000  0.000  0.000
  0.000  0.000  0.200  0.000  0.000
  0.000  0.000  0.000  0.200  0.000
  0.000  0.000  0.000  0.000  0.200
atom   17   Tr[ns(na)] =   2.00000
    eigenvalues:
  0.200  0.200  0.200  0.200  0.200
    eigenvectors:
  1.000  0.000  0.000  0.000  0.000
  0.000  1.000  0.000  0.000  0.000
  0.000  0.000  1.000  0.000  0.000
  0.000  0.000  0.000  1.000  0.000
  0.000  0.000  0.000  0.000  1.000
    occupations:
  0.200  0.000  0.000  0.000  0.000
  0.000  0.200  0.000  0.000  0.000
  0.000  0.000  0.200  0.000  0.000
  0.000  0.000  0.000  0.200  0.000
  0.000  0.000  0.000  0.000  0.200
atom   22   Tr[ns(na)] =   2.00000
    eigenvalues:
  0.200  0.200  0.200  0.200  0.200
    eigenvectors:
  1.000  0.000  0.000  0.000  0.000
  0.000  1.000  0.000  0.000  0.000
  0.000  0.000  1.000  0.000  0.000
[...]
  0.001 -0.000  0.177  0.002 -0.000
  0.039 -0.001  0.002  0.364 -0.000
  0.000  0.000 -0.000 -0.000  0.218
atom   10   Tr[ns(na)] =   2.82055
    eigenvalues:
  0.179  0.223  0.236  0.338  0.434
    eigenvectors:
  0.016  0.000  0.000  0.984  0.000
  0.000  0.000  1.000  0.000  0.000
  0.000  1.000  0.000  0.000  0.000
  0.983  0.000  0.000  0.016  0.000
  0.000  0.000  0.000  0.000  1.000
    occupations:
  0.335 -0.000 -0.001 -0.020 -0.000
 -0.000  0.236 -0.000 -0.000  0.002
 -0.001 -0.000  0.223 -0.001  0.000
 -0.020 -0.000 -0.001  0.182  0.000
 -0.000  0.002  0.000  0.000  0.434
atom   16   Tr[ns(na)] =   2.78448
    eigenvalues:
  0.177  0.188  0.211  0.394  0.422
    eigenvectors:
  0.704  0.069  0.038  0.172  0.018
  0.002  0.001  0.001  0.142  0.854
  0.109  0.244  0.647  0.000  0.000
  0.170  0.013  0.006  0.685  0.126
  0.016  0.673  0.308  0.000  0.002
    occupations:
  0.221 -0.004 -0.005  0.086 -0.002
 -0.004  0.417 -0.002  0.013  0.011
 -0.005 -0.002  0.202  0.007  0.011
  0.086  0.013  0.007  0.357  0.001
 -0.002  0.011  0.011  0.001  0.196
atom   17   Tr[ns(na)] =   2.88607
    eigenvalues:
  0.169  0.206  0.224  0.414  0.430
    eigenvectors:
  0.006  0.003  0.000  0.000  0.991
  0.001  0.919  0.078  0.000  0.002
  0.000  0.077  0.922  0.000  0.000
  0.993  0.001  0.000  0.000  0.006
  0.000  0.000  0.000  1.000  0.000
    occupations:
  0.428  0.011  0.004 -0.020 -0.000
  0.011  0.208 -0.005  0.000 -0.002
  0.004 -0.005  0.223  0.001 -0.000
 -0.020  0.000  0.001  0.170 -0.000
 -0.000 -0.002 -0.000 -0.000  0.414
atom   22   Tr[ns(na)] =   2.87971
    eigenvalues:
  0.177  0.218  0.235  0.376  0.435
    eigenvectors:
  0.000  0.000  0.917  0.083  0.000
  0.000  0.000  0.000  0.000  1.000
  1.000  0.000  0.000  0.000  0.000
  0.000  0.000  0.083  0.917  0.000
  0.000  1.000  0.000  0.000  0.000
    occupations:
  0.246 -0.001  0.001  0.039 -0.000
 -0.001  0.435  0.000  0.001  0.000
  0.001  0.000  0.177  0.001  0.000
  0.039  0.001  0.001  0.364  0.000
 -0.000  0.000  0.000  0.000  0.218
atom   23   Tr[ns(na)] =   2.80156
    eigenvalues:
  0.174  0.182  0.240  0.365  0.440
    eigenvectors:
  0.001  0.006  0.000  0.993  0.000
  0.000  0.000  1.000  0.000  0.000
  0.929  0.071  0.000  0.000  0.000
  0.070  0.923  0.000  0.007  0.000
  0.000  0.000  0.000  0.000  1.000
    occupations:
  0.364 -0.000  0.002 -0.016 -0.000
 -0.000  0.240 -0.000 -0.000  0.000
  0.002 -0.000  0.175  0.002  0.000
 -0.016 -0.000  0.002  0.182 -0.000
 -0.000  0.000  0.000 -0.000  0.440
N of occupied +U levels =  22.7240441
 --- exit write_ns ---

     Threshold (ethr) on eigenvalues was too large:
     Diagonalizing with lowered threshold

     Davidson diagonalization with overlap
     ethr =  3.63E-08,  avg # of iterations =  1.3

[...]

     total energy              =   -1599.18073881 Ry
     Harris-Foulkes estimate   =   -1599.18073882 Ry
     estimated scf accuracy    <       0.00000004 Ry

     iteration # 10     ecut=    40.00 Ry     beta=0.70
     Davidson diagonalization with overlap
     ethr =  1.66E-11,  avg # of iterations =  1.0

     negative rho (up, down):  0.103E+00 0.000E+00

     End of self-consistent calculation
 --- enter write_ns ---
 LDA+U parameters:
U( 2)     =  2.00000000
alpha( 2) =  0.00000000
atom    3   Tr[ns(na)] =   2.78424
    eigenvalues:
  0.176  0.188  0.211  0.394  0.422
    eigenvectors:
  0.695  0.077  0.038  0.172  0.018
  0.002  0.001  0.001  0.142  0.854
  0.116  0.242  0.642  0.000  0.000
  0.168  0.015  0.006  0.685  0.126
  0.019  0.665  0.313  0.000  0.002
    occupations:
  0.221  0.004 -0.005  0.086  0.001
  0.004  0.417  0.002 -0.013  0.011
 -0.005  0.002  0.202  0.007 -0.011
  0.086 -0.013  0.007  0.357 -0.001
  0.001  0.011 -0.011 -0.001  0.196
atom    4   Tr[ns(na)] =   2.88810
    eigenvalues:
  0.170  0.203  0.224  0.418  0.429
    eigenvectors:
  0.006  0.003  0.000  0.000  0.991
  0.001  0.908  0.088  0.000  0.003
  0.001  0.087  0.912  0.000  0.000
  0.992  0.002  0.000  0.000  0.006
  0.000  0.000  0.000  1.000  0.000
    occupations:
  0.427  0.012  0.004 -0.020 -0.000
  0.012  0.206 -0.006  0.000 -0.002
  0.004 -0.006  0.222  0.001 -0.000
 -0.020  0.000  0.001  0.172 -0.000
 -0.000 -0.002 -0.000 -0.000  0.418
atom    9   Tr[ns(na)] =   2.87958
    eigenvalues:
  0.177  0.218  0.235  0.376  0.435
    eigenvectors:
  0.000  0.001  0.916  0.083  0.000
  0.000  0.000  0.000  0.000  1.000
  1.000  0.000  0.000  0.000  0.000
  0.000  0.000  0.083  0.916  0.000
  0.000  0.999  0.001  0.000  0.000
    occupations:
  0.246  0.000  0.001  0.039  0.000
  0.000  0.435 -0.000 -0.001  0.000
  0.001 -0.000  0.177  0.002 -0.000
  0.039 -0.001  0.002  0.364 -0.000
  0.000  0.000 -0.000 -0.000  0.218
atom   10   Tr[ns(na)] =   2.82089
    eigenvalues:
  0.179  0.223  0.236  0.338  0.434
    eigenvectors:
  0.016  0.000  0.000  0.984  0.000
  0.000  0.000  1.000  0.000  0.000
  0.000  1.000  0.000  0.000  0.000
  0.983  0.000  0.000  0.016  0.000
  0.000  0.000  0.000  0.000  1.000
    occupations:
  0.335 -0.000 -0.001 -0.020 -0.000
 -0.000  0.236 -0.000 -0.000  0.002
 -0.001 -0.000  0.223 -0.001  0.000
 -0.020 -0.000 -0.001  0.182  0.000
 -0.000  0.002  0.000  0.000  0.434
atom   16   Tr[ns(na)] =   2.78447
    eigenvalues:
  0.177  0.188  0.211  0.394  0.422
    eigenvectors:
  0.703  0.069  0.038  0.172  0.018
  0.002  0.001  0.001  0.142  0.854
  0.109  0.244  0.646  0.000  0.000
  0.170  0.013  0.006  0.685  0.126
  0.016  0.673  0.309  0.000  0.002
    occupations:
  0.221 -0.004 -0.005  0.086 -0.002
 -0.004  0.417 -0.002  0.013  0.011
 -0.005 -0.002  0.202  0.007  0.011
  0.086  0.013  0.007  0.357  0.001
 -0.002  0.011  0.011  0.001  0.196
atom   17   Tr[ns(na)] =   2.88645
    eigenvalues:
  0.169  0.206  0.224  0.414  0.430
    eigenvectors:
  0.006  0.003  0.000  0.000  0.991
  0.001  0.919  0.077  0.000  0.002
  0.000  0.077  0.922  0.000  0.000
  0.993  0.001  0.000  0.000  0.006
  0.000  0.000  0.000  1.000  0.000
    occupations:
  0.428  0.011  0.004 -0.020 -0.000
  0.011  0.208 -0.005  0.000 -0.002
  0.004 -0.005  0.223  0.001 -0.000
 -0.020  0.000  0.001  0.170 -0.000
 -0.000 -0.002 -0.000 -0.000  0.414
atom   22   Tr[ns(na)] =   2.87965
    eigenvalues:
  0.177  0.218  0.235  0.376  0.435
    eigenvectors:
  0.000  0.000  0.917  0.083  0.000
  0.000  0.000  0.000  0.000  1.000
  1.000  0.000  0.000  0.000  0.000
  0.000  0.000  0.083  0.917  0.000
  0.000  1.000  0.000  0.000  0.000
    occupations:
  0.246 -0.001  0.001  0.039 -0.000
 -0.001  0.435  0.000  0.001  0.000
  0.001  0.000  0.177  0.001  0.000
  0.039  0.001  0.001  0.364  0.000
 -0.000  0.000  0.000  0.000  0.218
atom   23   Tr[ns(na)] =   2.80097
    eigenvalues:
  0.174  0.181  0.240  0.365  0.440
    eigenvectors:
  0.001  0.006  0.000  0.993  0.000
  0.000  0.000  1.000  0.000  0.000
  0.931  0.068  0.000  0.000  0.000
  0.068  0.925  0.000  0.007  0.000
  0.000  0.000  0.000  0.000  1.000
    occupations:
  0.364 -0.000  0.002 -0.016 -0.000
 -0.000  0.240 -0.000 -0.000  0.000
  0.002 -0.000  0.175  0.002  0.000
 -0.016 -0.000  0.002  0.182 -0.000
 -0.000  0.000  0.000 -0.000  0.440
N of occupied +U levels =  22.7243402
 --- exit write_ns ---

[...]

          k = 0.2500-0.4516 0.0000 ( 29882 PWs)   bands (ev):

[...]

          k =-0.2500 0.2258 0.0000 ( 29912 PWs)   bands (ev):

   -60.1102 -60.0837 -59.8831 -59.6786 -58.9501 -58.9186 -58.5971 -58.5690
   -36.5805 -36.3502 -36.3175 -36.2391 -36.2325 -36.2298 -36.2089 -36.1789
   -36.0516 -35.9240 -35.8913 -35.8511 -35.4955 -35.2655 -35.1900 -35.1802
   -35.0523 -35.0295 -34.9889 -34.9134 -34.8908 -34.8271 -34.7559 -34.6698
   -24.7760 -21.1347 -20.9113 -20.1846 -19.6464 -19.5761 -19.1833 -19.1288
   -19.0413 -19.0061 -18.9447 -18.8899 -18.8200 -18.6962 -18.6368 -18.2343
   -17.9061 -17.7113 -17.6161 -17.5726  -9.5598  -8.8772  -8.6070  -7.9099
    -7.2895  -7.2602  -7.0914  -7.0795  -6.9894  -6.6516  -6.6448  -6.4482
    -6.4117  -6.3863  -6.3331  -6.2647  -6.2039  -6.1395  -6.0884  -5.8653
    -5.7983  -5.6921  -5.5677  -5.5166  -5.3969  -5.1295  -4.9771  -4.8908
    -4.8442  -4.8015  -4.6639  -4.6380  -4.5715  -4.5120  -4.4354  -4.3396
    -4.2664  -4.2381  -4.2060  -4.1014  -4.0759  -3.8979  -3.8616  -3.7759
    -3.7002  -3.5614  -3.3775  -3.2402  -3.0824  -2.9492  -2.9336  -2.8214
    -2.7337  -2.6876  -2.6402  -2.4352  -2.3175  -2.2091  -2.1689  -0.1931
    -0.0920   0.0190   0.1712   0.3081   0.4277   0.4851   0.5416   0.6991
     0.7495   0.8469   0.9189   1.0629   1.2325   1.3830   1.4402   1.4673
     1.5885   1.7484   1.8322   1.9088   2.0231   2.0909   2.1061   2.2837
     2.4033   2.4851   2.6824   2.7454   2.8061   2.8780   3.0884   3.5306
     3.6497   3.7043   3.7587   3.9731   4.0678   4.1278   4.2207   4.2849
     4.4869   4.6234   4.8060   4.8675   5.1571   5.2072   5.5294   5.6379
     5.6774   5.9343   6.0392   6.2139   6.4043   6.5697   6.6779   7.0172
     7.1009   7.2716   7.4931   7.5570   7.7045   7.9124   7.9845   8.1096
     8.1965   8.3341   8.4787   8.5421   8.6720   8.8005   8.9026   8.9998
     9.1094   9.2091   9.2512   9.3653   9.4827   9.6531   9.7160   9.7700
     9.8496   9.9934  10.1679  10.2646  10.3278  10.3921  10.4725  10.5329
    10.6558  10.7916  10.8987  10.9603  11.0039  11.1229  11.1980  11.2996
    11.3738  11.4342  11.5070  11.5916  11.6317  11.7360  11.8002  11.9090
    12.0024  12.1300  12.1685  12.2486  12.2775  12.3183  12.4144  12.4860
    12.5329  12.6181  12.7009  12.7849  12.8164  12.9688  12.9971  13.0534
    13.1271  13.2509  13.2852  13.3486  13.4636  13.5645  13.6521  13.7819
    13.8457  13.9357  13.9939  14.0759  14.1311  14.2183  14.2830  14.3062
    14.3424  14.4223  14.5159  14.6088  14.6479  14.7129  14.7989  14.8829
    14.9249  15.0649  15.0931  15.1863  15.2295  15.3376  15.3807  15.4160
    15.4998  15.5675  15.6421  15.6900  15.7038  15.8053  15.8728  15.9462
    16.0026  16.1327  16.1682  16.1950  16.2591  16.3400  16.4309  16.4919
    16.5167  16.5668  16.6532  16.7160  16.7767  16.8126  16.8836  16.9660
    17.0668  17.1288  17.1959  17.2549  17.3120  17.3372  17.4313  17.4723
    17.5702  17.6174  17.6816  17.8268  17.8989  17.9807  18.0478  18.0893
    18.1710  18.2169  18.3167  18.3705  18.4257  18.5084  18.5671  18.6184
    18.6591  18.7484  18.8094  18.8764  18.9594  19.0815  19.1164

     the Fermi energy is    -2.1520 ev

!    total energy              =   -1599.18073881 Ry
     Harris-Foulkes estimate   =   -1599.18073882 Ry
     estimated scf accuracy    <          6.6E-09 Ry

     The total energy is the sum of the following terms:

     one-electron contribution =  -19162.29736438 Ry
     hartree contribution      =    9604.80840763 Ry
     xc contribution           =    -284.59374255 Ry
     ewald contribution        =    8241.77166909 Ry
     Hubbard energy            =       1.13184304 Ry
     smearing contrib. (-TS)   =      -0.00155163 Ry

     convergence has been achieved in  10 iterations

     Forces acting on atoms (Ry/au):

     negative rho (up, down):  0.103E+00 0.000E+00
     atom    1 type  1   force =    -0.00069720   -0.01272590   -0.00006400
     atom    2 type  1   force =     0.00009836    0.01738015   -0.00027972
     atom    3 type  2   force =     0.05505537   -0.01098215    0.00068133
     atom    4 type  2   force =    -0.00303235    0.00732183   -0.00000659
     atom    5 type  1   force =    -0.00138714   -0.08281342    0.00025778
     atom    6 type  1   force =    -0.00546282    0.08327991    0.00028517
     atom    7 type  1   force =     0.00010993   -0.00055889    0.00091449
     atom    8 type  1   force =     0.00203280   -0.00050148   -0.00011301
     atom    9 type  2   force =    -0.00011402   -0.00034213    0.00042104
     atom   10 type  2   force =    -0.00006423    0.00077255   -0.00020553
     atom   11 type  1   force =    -0.02031314   -0.01791045   -0.00035810
     atom   12 type  1   force =    -0.01652965    0.02223481   -0.00017706
     atom   13 type  1   force =     0.00031678   -0.00196943   -0.00055261
     atom   14 type  1   force =    -0.00246072   -0.01251522    0.00009974
     atom   15 type  1   force =     0.00009185    0.01565920   -0.00047263
     atom   16 type  2   force =    -0.05484485   -0.01166448    0.00067635
     atom   17 type  2   force =    -0.00317722    0.00654725   -0.00007770
     atom   18 type  1   force =     0.00730599   -0.08269261    0.00023917
     atom   19 type  1   force =     0.00436674    0.08379091    0.00030840
     atom   20 type  1   force =    -0.00010782   -0.00011769    0.00079619
     atom   21 type  1   force =     0.00203431    0.00000827    0.00008066
     atom   22 type  2   force =    -0.00087132   -0.00024584    0.00042047
     atom   23 type  2   force =     0.00001334   -0.00305201    0.00001974
     atom   24 type  1   force =     0.02050099   -0.01786243   -0.00037048
     atom   25 type  1   force =     0.01645793    0.02198206   -0.00021236
     atom   26 type  1   force =     0.00035874   -0.00474717   -0.00055540
     atom   27 type  3   force =    -0.00000148    0.00041627   -0.00014865
     atom   28 type  3   force =    -0.00000625    0.00070645    0.00003440
     atom   29 type  3   force =     0.00020352   -0.00024779   -0.00015475
     atom   30 type  3   force =     0.00016198   -0.00022502   -0.00007779
     atom   31 type  1   force =     0.00014742    0.00052963    0.00004198
     atom   32 type  1   force =    -0.00022151   -0.00002114   -0.00055763
     atom   33 type  3   force =     0.00003565    0.00056598   -0.00089291

     Total force =     0.002660     Total SCF correction =     0.000261

     entering subroutine stress ...

     negative rho (up, down):  0.103E+00 0.000E+00
          total   stress  (Ry/bohr**3)                   (kbar)     P=    0.29
   0.00005270  -0.00000202   0.00000324          7.75     -0.30      0.48
  -0.00000202  -0.00000969   0.00000023         -0.30     -1.43      0.03
   0.00000324   0.00000023  -0.00003712          0.48      0.03     -5.46

     bfgs converged in  11 scf cycles and  10 bfgs steps
     (criteria: energy < 0.10E-03, force < 0.10E-02)

     End of BFGS Geometry Optimization

     Final energy   =   -1599.1807388117 Ry
Begin final coordinates

ATOMIC_POSITIONS (crystal)
O0       0.000000000   0.000000000   0.377503358    0   0   1
O0       0.000000000   0.500000000   0.398904536    0   0   1
Ti1      0.250000000   0.500000000   0.450860747    0   0   1
Ti1      0.000000000   0.000000000   0.451331210    0   0   1
O0       0.250000000   0.810000000   0.449703269    0   0   1
O0       0.250000000   0.190000000   0.450647839    0   0   1
O0       0.000000000   0.500000000   0.498227151    0   0   1
O0       0.000000000   0.000000000   0.525972056    0   0   1
Ti1      0.250000000   0.000000000   0.580712611    0   0   1
Ti1      0.000000000   0.500000000   0.568452895    0   0   1
O0       0.250000000   0.690000000   0.578580897    0   0   1
O0       0.250000000   0.310000000   0.579823841    0   0   1
O0       0.000000000   0.000000000   0.622636153    0   0   1
O0       0.500000000   0.000000000   0.378212265    0   0   1
O0       0.500000000   0.500000000   0.398733297    0   0   1
Ti1      0.750000000   0.500000000   0.450868533    0   0   1
Ti1      0.500000000   0.000000000   0.452990923    0   0   1
O0       0.750000000   0.810000000   0.449634596    0   0   1
O0       0.750000000   0.190000000   0.450733484    0   0   1
O0       0.500000000   0.500000000   0.496334415    0   0   1
O0       0.500000000   0.000000000   0.526154235    0   0   1
Ti1      0.750000000   0.000000000   0.580719091    0   0   1
Ti1      0.500000000   0.500000000   0.584190889    0   0   1
O0       0.750000000   0.690000000   0.578573222    0   0   1
O0       0.750000000   0.310000000   0.579793454    0   0   1
O0       0.500000000   0.000000000   0.622264314    0   0   1
H2      -0.000408164   0.627167578   0.378850269
H2       0.499650799   0.626462561   0.378435563
H2       0.150417158   0.032436797   0.363756548
H2       0.649553853   0.033696786   0.364243622
O0       0.500665287   0.530280480   0.658157008
O0       0.498669129   0.351993638   0.687682792
H2       0.500418720   0.412366145   0.721784916
End final coordinates

     General routines

     Parallel routines
     Hubbard U routines

   This run was terminated on:   0:58:28   1Jun2014

   JOB DONE.
Running PBS batch system epilogue script
Job id: 373328.audhumbla.fysik.dtu.dk
Username: zhonxu
Groupname: campgst
Jobname: TiO2/Eads-2-layers/OOH-U-2.0
Sessionid: 32710
Queuename: verylong
Accounting:
This job has allocated the following 16 nodes:
d047 d047 d047 d047 d047 d047 d047 d047 d003 d003 d003 d003 d003 d003 d003 d003
Finished epilogue job 373328.audhumbla.fysik.dtu.dk for zhonxu