     Program PWSCF v.5.0.2 (svn rev. 9656) starts on 27Feb2014 at 20:52:26

     Current dimensions of program PWSCF are:
     Max number of different atomic species (ntypx) = 10
     Max number of k-points (npk) =  40000
     Max angular momentum in pseudopotentials (lmaxx) =  3
     Reading input from slab-relax.in
Warning: card &CELL ignored
Warning: card / ignored

     Subspace diagonalization in iterative solution of the eigenvalue problem:
     a serial algorithm will be used

     Found symmetry operation: I + ( -0.5000  0.0000  0.0000)
     This is a supercell, fractional translations are disabled

     bravais-lattice index     =            0
     lattice parameter (alat)  =      11.7541  a.u.
     unit-cell volume          =    9749.5977 (a.u.)^3
     number of atoms/cell      =           48
     number of atomic types    =            2
     number of electrons       =       432.00
     number of Kohn-Sham states=          648
     kinetic-energy cutoff     =      40.0000  Ry
     charge density cutoff     =     500.0000  Ry
     convergence threshold     =      1.0E-06
     mixing beta               =       0.3000
     number of iterations used =            8  plain     mixing
     Exchange-correlation      = SLA  PW   PBE  PBE ( 1 4 3 4 0)
     EXX-fraction              =        0.00
     nstep                     =           50

     celldm(1)=  11.754097  celldm(2)=   0.000000  celldm(3)=   0.000000
     celldm(4)=   0.000000  celldm(5)=   0.000000  celldm(6)=   0.000000

     crystal axes: (cart. coord. in units of alat)
               a(1) = (   1.000000   0.000000   0.000000 )
               a(2) = (   0.000000   1.034513   0.000000 )
               a(3) = (   0.000000   0.000000   5.803406 )

     reciprocal axes: (cart. coord. in units 2 pi/alat)
               b(1) = (  1.000000  0.000000  0.000000 )
               b(2) = (  0.000000  0.966638  0.000000 )
               b(3) = (  0.000000  0.000000  0.172313 )

     PseudoPot. # 1 for O  read from file:
     /home/camp/zhonxu/pseudo/o_pbe_v1.01.uspp.F.UPF
     MD5 check sum: 2bcb18d16ea4b960afae9ec6d52f22d2
     Pseudo is Ultrasoft + core correction, Zval =  6.0
     Generated by new atomic code, or converted to UPF format
     Using radial grid of  737 points,  5 beta functions with:
                l(1) =   0
                l(2) =   0
                l(3) =   1
                l(4) =   1
                l(5) =   2
     Q(r) pseudized with  8 coefficients,  rinner =    0.900   0.900   0.900
                                                       0.900   0.900

     PseudoPot. # 2 for Rh read from file:
     /home/camp/zhonxu/pseudo/rh_pbe_v1.uspp.F.UPF
     MD5 check sum: 37b626987ad0dd8ec6bf4cc9ef289918
     Pseudo is Ultrasoft + core correction, Zval = 15.0
     Generated by new atomic code, or converted to UPF format
     Using radial grid of  969 points,  7 beta functions with:
                l(1) =   0
                l(2) =   0
                l(3) =   1
                l(4) =   1
                l(5) =   2
                l(6) =   2
                l(7) =   2
     Q(r) pseudized with  6 coefficients,  rinner =    1.050   1.050   1.050
                                                       1.050   1.050

     atomic species   valence    mass     pseudopotential
        O0             6.00    15.99940     O ( 1.00)
        Rh1           15.00   102.90550     Rh( 1.00)

      4 Sym. Ops. (no inversion) found

   Cartesian axes

     site n.     atom                  positions (alat units)
         1           O0  tau(   1) = (   0.0000000   0.5172566   1.9292842  )
         2           Rh1 tau(   2) = (   0.2500000   0.5172566   2.1258455  )
         3           Rh1 tau(   3) = (   0.0000000   0.0000000   2.1258455  )
         4           O0  tau(   4) = (   0.2500000   0.8379556   2.1258455  )
         5           O0  tau(   5) = (   0.2500000   0.1965575   2.1258455  )
         6           O0  tau(   6) = (   0.0000000   0.5172566   2.3223488  )
         7           O0  tau(   7) = (   0.0000000   0.0000000   2.4465417  )
         8           Rh1 tau(   8) = (   0.2500000   0.0000000   2.6431030  )
         9           Rh1 tau(   9) = (   0.0000000   0.5172566   2.6431030  )
        10           O0  tau(  10) = (   0.2500000   0.7138141   2.6431030  )
        11           O0  tau(  11) = (   0.2500000   0.3206991   2.6431030  )
        12           O0  tau(  12) = (   0.0000000   0.0000000   2.8396064  )
        13           O0  tau(  13) = (   0.0000000   0.5172566   2.9637992  )
        14           Rh1 tau(  14) = (   0.2500000   0.5172566   3.1603026  )
        15           Rh1 tau(  15) = (   0.0000000   0.0000000   3.1603026  )
        16           O0  tau(  16) = (   0.2500000   0.8379556   3.1603026  )
        17           O0  tau(  17) = (   0.2500000   0.1965575   3.1603026  )
        18           O0  tau(  18) = (   0.0000000   0.5172566   3.3568639  )
        19           O0  tau(  19) = (   0.0000000   0.0000000   3.4810568  )
        20           Rh1 tau(  20) = (   0.2500000   0.0000000   3.6775601  )
        21           Rh1 tau(  21) = (   0.0000000   0.5172566   3.6775601  )
        22           O0  tau(  22) = (   0.2500000   0.7138141   3.6775601  )
        23           O0  tau(  23) = (   0.2500000   0.3206991   3.6775601  )
        24           O0  tau(  24) = (   0.0000000   0.0000000   3.8741214  )
        25           O0  tau(  25) = (   0.5000000   0.5172566   1.9292842  )
        26           Rh1 tau(  26) = (   0.7500000   0.5172566   2.1258455  )
        27           Rh1 tau(  27) = (   0.5000000   0.0000000   2.1258455  )
        28           O0  tau(  28) = (   0.7500000   0.8379556   2.1258455  )
        29           O0  tau(  29) = (   0.7500000   0.1965575   2.1258455  )
        30           O0  tau(  30) = (   0.5000000   0.5172566   2.3223488  )
        31           O0  tau(  31) = (   0.5000000   0.0000000   2.4465417  )
        32           Rh1 tau(  32) = (   0.7500000   0.0000000   2.6431030  )
        33           Rh1 tau(  33) = (   0.5000000   0.5172566   2.6431030  )
        34           O0  tau(  34) = (   0.7500000   0.7138141   2.6431030  )
        35           O0  tau(  35) = (   0.7500000   0.3206991   2.6431030  )
        36           O0  tau(  36) = (   0.5000000   0.0000000   2.8396064  )
        37           O0  tau(  37) = (   0.5000000   0.5172566   2.9637992  )
        38           Rh1 tau(  38) = (   0.7500000   0.5172566   3.1603026  )
        39           Rh1 tau(  39) = (   0.5000000   0.0000000   3.1603026  )
        40           O0  tau(  40) = (   0.7500000   0.8379556   3.1603026  )
        41           O0  tau(  41) = (   0.7500000   0.1965575   3.1603026  )
        42           O0  tau(  42) = (   0.5000000   0.5172566   3.3568639  )
        43           O0  tau(  43) = (   0.5000000   0.0000000   3.4810568  )
        44           Rh1 tau(  44) = (   0.7500000   0.0000000   3.6775601  )
        45           Rh1 tau(  45) = (   0.5000000   0.5172566   3.6775601  )
        46           O0  tau(  46) = (   0.7500000   0.7138141   3.6775601  )
        47           O0  tau(  47) = (   0.7500000   0.3206991   3.6775601  )
        48           O0  tau(  48) = (   0.5000000   0.0000000   3.8741214  )

     number of k points=     9  Methfessel-Paxton smearing, width (Ry)=  0.0100
                       cart. coord. in units 2pi/alat
        k(    1) = (   0.0000000   0.0000000   0.0000000), wk =   0.1250000
        k(    2) = (   0.0000000   0.2416596   0.0000000), wk =   0.2500000
        k(    3) = (   0.0000000  -0.4833191   0.0000000), wk =   0.1250000
        k(    4) = (   0.2500000   0.0000000   0.0000000), wk =   0.2500000
        k(    5) = (   0.2500000   0.2416596   0.0000000), wk =   0.5000000
        k(    6) = (   0.2500000  -0.4833191   0.0000000), wk =   0.2500000
        k(    7) = (  -0.5000000   0.0000000   0.0000000), wk =   0.1250000
        k(    8) = (  -0.5000000   0.2416596   0.0000000), wk =   0.2500000
        k(    9) = (  -0.5000000  -0.4833191   0.0000000), wk =   0.1250000

     Largest allocated arrays     est. size (Mb)     dimensions
     Largest temporary arrays     est. size (Mb)     dimensions

     Check: negative/imaginary core charge=   -0.000003    0.000000

     Initial potential from superposition of free atoms
     Check: negative starting charge=   -1.288865

     starting charge  423.99838, renormalised to  432.00000

     negative rho (up, down):  0.131E+01 0.000E+00
     Starting wfc are  320 randomized atomic wfcs

     Self-consistent Calculation

     iteration #  1     ecut=    40.00 Ry     beta=0.30
     Davidson diagonalization with overlap
     ethr =  1.00E-02,  avg # of iterations =  5.9

     negative rho (up, down):  0.133E+01 0.000E+00

     total energy              =   -3751.33468695 Ry
     Harris-Foulkes estimate   =   -3764.21959762 Ry
     estimated scf accuracy    <      27.89366734 Ry

[...]

     End of self-consistent calculation

          k = 0.0000 0.0000 0.0000 ( 41643 PWs)   bands (ev):

   -47.7747 -47.7746 -47.7451 -47.7450 -47.7097 -47.7095 -47.7010 -47.7007
   -47.6973 -47.6972 -47.6919 -47.6919 -47.6889 -47.6888 -47.6817 -47.6817
   -47.6590 -47.6578 -47.6295 -47.6292 -47.5920 -47.5913 -47.5743 -47.5741
   -47.5725 -47.5724 -47.5288 -47.5282 -47.5138 -47.5137 -47.5129 -47.5127
   -47.4596 -47.4595 -47.3966 -47.3965 -47.3566 -47.3565 -47.3493 -47.3492
   -47.2998 -47.2997 -47.2824 -47.2823 -47.1975 -47.1973 -47.1796 -47.1794
   -19.7734 -19.5489 -19.3307 -19.2417 -19.1465 -18.9009 -18.6963 -18.6898
   -18.5816 -18.5711 -18.5455 -18.5365 -18.5129 -18.5091 -18.4762 -18.4695
   -18.4606 -18.4407 -18.4105 -18.3824 -18.2140 -18.2138 -18.1830 -18.1269
   -18.0119 -17.9835 -17.9422 -17.9039 -17.0378 -17.0378 -16.9553 -16.9519
    -8.1905  -8.1740  -8.1276  -8.1275  -7.8921  -7.8858  -7.1468  -7.1046
    -6.9633  -6.9285  -6.9270  -6.9095  -6.8969  -6.8459  -6.8166  -6.8158
    -6.7780  -6.7598  -6.6377  -6.6348  -6.6126  -6.5848  -6.5341  -6.5332
    -6.4421  -6.3985  -6.3538  -6.3457  -6.2798  -6.2453  -6.1650  -6.1465
    -6.1430  -6.0834  -6.0552  -5.8948  -5.7687  -5.5845  -5.3795  -5.3644
    -5.3163  -4.8414  -4.8319  -4.7731  -4.7729  -4.7726  -4.7500  -4.6647
    -4.6524  -4.6277  -4.4404  -4.3503  -4.3316  -4.3204  -4.1699  -4.1069
    -4.0585  -4.0557  -3.9795  -3.9433  -3.8274  -3.7525  -3.6735  -3.6038
    -3.5525  -3.5394  -3.5232  -3.4736  -3.4337  -3.4185  -3.3604  -3.2806
    -3.2739  -3.2384  -3.1787  -3.1446  -3.1297  -3.1097  -3.0089  -2.8431
    -2.8196  -2.8175  -2.7454  -2.7163  -2.5405  -2.5373  -2.5235  -2.5151
    -2.4856  -2.4078  -2.3642  -2.2509  -2.2468  -2.2361  -2.2316  -2.1891
    -2.1197  -2.1196  -2.0449  -2.0408  -1.9871  -1.9661  -1.8598  -1.8352
    -1.8028  -1.7960  -1.7721  -1.7346  -1.7094  -1.6535  -1.5920  -1.5614
    -1.5593  -1.4628  -1.4557  -1.4456  -1.4444  -1.3964  -1.3321  -1.3025
    -1.1494  -1.0497  -0.9499  -0.8605  -0.8262  -0.7565  -0.7050  -0.5625
    -0.5394  -0.5205  -0.2676  -0.1158  -0.1074   0.0344   0.0666   0.1080
     0.1140   0.1685   0.1938   0.2925   0.3484   0.3905   0.4565   0.4953
[...]
Rh1      0.250000000   0.500000000   0.366310000    0   0   0
Rh1      0.000000000   0.000000000   0.366310000    0   0   0
O0       0.250000000   0.810000000   0.366310000    0   0   0
O0       0.250000000   0.190000000   0.366310000    0   0   0
O0       0.000000000   0.500000000   0.400170000    0   0   0
O0       0.000000000   0.000000000   0.421570000    0   0   0
Rh1      0.250000000   0.000000000   0.455440000    0   0   0
Rh1      0.000000000   0.500000000   0.455440000    0   0   0
O0       0.250000000   0.690000000   0.455440000    0   0   0
O0       0.250000000   0.310000000   0.455440000    0   0   0
O0       0.000000000   0.000000000   0.489300000    0   0   0
O0       0.000000000   0.500000000   0.509594560
Rh1      0.250000000   0.500000000   0.543863902
Rh1      0.000000000   0.000000000   0.544591617
O0       0.250000000   0.806672404   0.544452348
O0       0.250000000   0.193327596   0.544452348
O0       0.000000000   0.500000000   0.578140036
O0       0.000000000   0.000000000   0.599262650
Rh1      0.250000000  -0.000000000   0.634311545
Rh1      0.000000000   0.500000000   0.631225617
O0       0.250000001   0.690038175   0.636047621
O0       0.250000001   0.309961825   0.636047621
O0       0.000000000   0.000000000   0.667534975
O0       0.500000000   0.500000000   0.332440000    0   0   0
Rh1      0.750000000   0.500000000   0.366310000    0   0   0
Rh1      0.500000000   0.000000000   0.366310000    0   0   0
O0       0.750000000   0.810000000   0.366310000    0   0   0
O0       0.750000000   0.190000000   0.366310000    0   0   0
O0       0.500000000   0.500000000   0.400170000    0   0   0
O0       0.500000000   0.000000000   0.421570000    0   0   0
Rh1      0.750000000   0.000000000   0.455440000    0   0   0
Rh1      0.500000000   0.500000000   0.455440000    0   0   0
O0       0.750000000   0.690000000   0.455440000    0   0   0
O0       0.750000000   0.310000000   0.455440000    0   0   0
O0       0.500000000   0.000000000   0.489300000    0   0   0
O0       0.500000000   0.500000000   0.509594560
Rh1      0.750000000   0.500000000   0.543863902
Rh1      0.500000000   0.000000000   0.544591617
O0       0.750000000   0.806672404   0.544452348
O0       0.750000000   0.193327596   0.544452348
O0       0.500000000   0.500000000   0.578140036
O0       0.500000000   0.000000000   0.599262650
Rh1      0.750000000   0.000000000   0.634311545
Rh1      0.500000000   0.500000000   0.631225617
O0       0.749999999   0.690038175   0.636047621
O0       0.749999999   0.309961825   0.636047621
O0       0.500000000   0.000000000   0.667534975

     Check: negative starting charge=   -1.286511
     NEW-OLD atomic charge density approx. for the potential

     Check: negative/imaginary core charge=   -0.000003    0.000000
     Check: negative starting charge=   -1.287033

[...]

     Self-consistent Calculation

[...]

     iteration #  2     ecut=    40.00 Ry     beta=0.30
     Davidson diagonalization with overlap
     c_bands:  2 eigenvalues not converged
     ethr =  1.11E-06,  avg # of iterations =  6.9

[...]

     total energy              =   -3758.13102454 Ry
     Harris-Foulkes estimate   =   -3758.13102454 Ry
     estimated scf accuracy    <       0.00000001 Ry

     iteration # 26     ecut=    40.00 Ry     beta=0.30
     Davidson diagonalization with overlap
     ethr =  2.92E-12,  avg # of iterations =  1.0

     negative rho (up, down):  0.138E+01 0.000E+00

     End of self-consistent calculation

[...]

          k = 0.2500-0.4833 0.0000 ( 41698 PWs)   bands (ev):

[...]

          k =-0.5000-0.4833 0.0000 ( 41672 PWs)   bands (ev):

   -47.8340 -47.8340 -47.8001 -47.8001 -47.7990 -47.7990 -47.7906 -47.7906
   -47.7884 -47.7884 -47.7724 -47.7724 -47.7628 -47.7628 -47.7296 -47.7296
   -47.7282 -47.7282 -47.6688 -47.6688 -47.6616 -47.6616 -47.6404 -47.6404
   -47.6363 -47.6363 -47.6051 -47.6051 -47.5906 -47.5906 -47.5386 -47.5386
   -47.5242 -47.5242 -47.4746 -47.4746 -47.4370 -47.4370 -47.4355 -47.4355
   -47.3654 -47.3654 -47.2699 -47.2699 -47.2671 -47.2671 -47.2540 -47.2540
   -19.2320 -19.2320 -19.1337 -19.1337 -18.9239 -18.9239 -18.8555 -18.8555
   -18.6966 -18.6966 -18.6586 -18.6586 -18.6192 -18.6192 -18.5500 -18.5500
   -18.5367 -18.5367 -18.4817 -18.4817 -18.4710 -18.4710 -18.4242 -18.4242
   -18.2952 -18.2952 -18.2105 -18.2105 -17.2222 -17.2222 -17.1404 -17.1404
    -7.4801  -7.4801  -7.3533  -7.3533  -7.0383  -7.0383  -6.9495  -6.9495
    -6.9435  -6.9435  -6.9213  -6.9213  -6.8325  -6.8325  -6.6843  -6.6843
    -6.6136  -6.6136  -6.5515  -6.5515  -6.4906  -6.4906  -6.4578  -6.4578
    -6.3728  -6.3728  -6.2639  -6.2639  -6.1527  -6.1527  -6.0866  -6.0866
    -6.0244  -6.0244  -5.9737  -5.9737  -5.8880  -5.8880  -5.8005  -5.8005
    -5.4514  -5.4514  -5.3681  -5.3681  -5.2105  -5.2105  -5.1845  -5.1845
    -4.8412  -4.8412  -4.7917  -4.7917  -4.7274  -4.7274  -4.6673  -4.6673
    -4.6349  -4.6349  -4.6286  -4.6286  -4.5754  -4.5754  -4.5287  -4.5287
    -4.2881  -4.2881  -4.2668  -4.2668  -4.2270  -4.2270  -4.1977  -4.1977
    -3.8769  -3.8769  -3.8334  -3.8334  -3.2385  -3.2385  -3.1753  -3.1753
    -2.9791  -2.9791  -2.9710  -2.9710  -2.8405  -2.8405  -2.6853  -2.6853
    -2.6694  -2.6694  -2.6289  -2.6289  -2.3623  -2.3623  -2.2727  -2.2727
    -1.7751  -1.7751  -1.7066  -1.7066  -1.5543  -1.5543  -1.5017  -1.5017
    -1.4257  -1.4257  -1.3896  -1.3896  -1.1574  -1.1574  -1.1332  -1.1332
    -0.8685  -0.8685  -0.8571  -0.8571  -0.7828  -0.7828  -0.7493  -0.7493
    -0.4783  -0.4783  -0.4757  -0.4757  -0.4334  -0.4334  -0.3653  -0.3653
    -0.3145  -0.3145  -0.2454  -0.2454  -0.1933  -0.1933  -0.1816  -0.1816
    -0.1136  -0.1136  -0.0813  -0.0813  -0.0587  -0.0587  -0.0219  -0.0219
     0.7074   0.7074   1.0845   1.0845   1.4039   1.4039   1.4543   1.4543
     1.6200   1.6200   1.7002   1.7002   1.8962   1.8962   1.9073   1.9073
     2.6980   2.6980   2.6989   2.6989   3.0337   3.0337   3.0740   3.0740
     3.4200   3.4200   3.4607   3.4607   3.6904   3.6904   3.6966   3.6966
     6.2594   6.2594   6.6874   6.6874   7.5697   7.5697   7.6929   7.6929
     7.8001   7.8001   7.8269   7.8269   8.0922   8.0922   8.1072   8.1072
     8.4823   8.4823   8.4900   8.4900   8.8859   8.8859   8.9132   8.9132
     8.9754   8.9754   9.0059   9.0059   9.5441   9.5441   9.5724   9.5724
     9.6397   9.6397   9.6814   9.6814  10.3673  10.3673  10.3682  10.3682
    10.4870  10.4870  10.4918  10.4918  11.1923  11.1923  11.2197  11.2197
    11.6080  11.6080  11.6149  11.6149  12.1212  12.1212  12.2053  12.2053
    12.5076  12.5076  12.5249  12.5249  12.7840  12.7840  12.8833  12.8833
    13.0286  13.0286  13.0558  13.0558  13.1573  13.1573  13.1999  13.1999
    13.4029  13.4029  13.4786  13.4786  13.6544  13.6544  13.6942  13.6942
    13.8935  13.8935  13.9973  13.9973  14.0326  14.0326  14.1344  14.1344
    14.2866  14.2866  14.3101  14.3101  14.4482  14.4482  14.4869  14.4869
    14.5246  14.5246  14.5386  14.5386  14.9739  14.9739  15.0155  15.0155
    15.0536  15.0536  15.0736  15.0736  15.1431  15.1431  15.2396  15.2396
    15.3271  15.3271  15.3854  15.3854  15.4043  15.4043  15.4074  15.4074
    15.4888  15.4888  15.5231  15.5231  15.5240  15.5240  15.5396  15.5396
    15.7821  15.7821  15.7852  15.7852  15.8773  15.8773  15.8792  15.8792
    16.0225  16.0225  16.0500  16.0500  16.1070  16.1070  16.1239  16.1239
    16.2031  16.2031  16.2190  16.2190  16.4045  16.4045  16.4305  16.4305
    16.6665  16.6665  16.6696  16.6696  16.8120  16.8120  16.8487  16.8487
    17.0382  17.0382  17.0641  17.0641  17.0928  17.0928  17.1171  17.1171
    17.3878  17.3878  17.4219  17.4219  17.5749  17.5749  17.6544  17.6544
    17.7175  17.7175  17.7312  17.7312  17.8710  17.8710  17.8721  17.8721
    17.9933  17.9933  18.0621  18.0621  18.2273  18.2273  18.2626  18.2626
    18.4279  18.4279  18.4534  18.4534  18.6740  18.6740  18.7396  18.7396
    18.8850  18.8850  18.8898  18.8898  19.1489  19.1489  19.1691  19.1691
    19.5689  19.5689  19.5897  19.5897  19.6561  19.6561  19.6861  19.6861
    19.8762  19.8762  19.9025  19.9025  19.9289  19.9289  19.9687  19.9687
[...]
    23.0872  23.0872  23.0955  23.0955  23.2815  23.2815  23.2898  23.2898
    23.3776  23.3776  23.4007  23.4007  23.5033  23.5033  23.5235  23.5235
    23.6712  23.6712  23.6985  23.6985  23.8659  23.8659  23.8674  23.8674
    23.9564  23.9564  23.9961  23.9961  24.1692  24.1692  24.2257  24.2257
    24.2619  24.2619  24.2673  24.2673  24.4037  24.4037  24.4052  24.4052
    24.4999  24.4999  24.5560  24.5560  24.7086  24.7086  24.7367  24.7367
    24.7972  24.7972  24.8130  24.8130  25.0526  25.0526  25.0866  25.0866
    25.2487  25.2487  25.2753  25.2753  25.4091  25.4091  25.5063  25.5063
    25.5359  25.5359  25.5551  25.5551  25.8419  25.8419  25.8570  25.8570
    25.9544  25.9544  25.9757  25.9757  26.1034  26.1034  26.1653  26.1653
    26.3891  26.3891  26.4379  26.4379  26.6659  26.6659  26.6850  26.6850
    26.7933  26.7933  26.8055  26.8055  26.8133  26.8133  26.8938  26.8938
    27.0414  27.0414  27.0706  27.0706  27.2184  27.2184  27.2349  27.2349
    27.3981  27.3981  27.4132  27.4132  27.5568  27.5568  27.5912  27.5912
    27.7377  27.7377  27.7430  27.7430  27.9386  27.9386  27.9646  27.9646

     the Fermi energy is    -0.0102 ev

!    total energy              =   -3758.13102454 Ry
     Harris-Foulkes estimate   =   -3758.13102454 Ry
     estimated scf accuracy    <          5.7E-09 Ry

     The total energy is the sum of the following terms:

     one-electron contribution =  -79678.36792436 Ry
     hartree contribution      =   39944.09863058 Ry
     xc contribution           =    -695.82394326 Ry
     ewald contribution        =   36671.96213673 Ry
     smearing contrib. (-TS)   =       0.00007577 Ry

     convergence has been achieved in  26 iterations

     Forces acting on atoms (Ry/au):

     negative rho (up, down):  0.138E+01 0.000E+00
     atom    1 type  1   force =     0.00000000    0.00000000    0.01185104
     atom    2 type  2   force =    -0.00000000    0.00000000   -0.02605270
     atom    3 type  2   force =     0.00000000    0.00000000    0.07705878
     atom    4 type  1   force =    -0.00000000   -0.01189379   -0.02806522
     atom    5 type  1   force =    -0.00000000    0.01189379   -0.02806522
     atom    6 type  1   force =     0.00000000    0.00000000    0.02580943
     atom    7 type  1   force =     0.00000000    0.00000000   -0.02713101
     atom    8 type  2   force =    -0.00000000    0.00000000   -0.01177525
     atom    9 type  2   force =     0.00000000    0.00000000   -0.01999640
     atom   10 type  1   force =     0.00000000    0.02099739   -0.00305764
     atom   11 type  1   force =     0.00000000   -0.02099739   -0.00305764
     atom   12 type  1   force =     0.00000000    0.00000000    0.02876539
     atom   13 type  1   force =     0.00000000    0.00000000    0.00085426
     atom   14 type  2   force =     0.00000000    0.00000000    0.00049237
     atom   15 type  2   force =     0.00000000    0.00000000   -0.00040679
     atom   16 type  1   force =     0.00000000    0.00044042    0.00078071
     atom   17 type  1   force =     0.00000000   -0.00044042    0.00078071
     atom   18 type  1   force =     0.00000000    0.00000000   -0.00009794
     atom   19 type  1   force =     0.00000000    0.00000000   -0.00010806
     atom   20 type  2   force =    -0.00000000    0.00000000    0.00017867
     atom   21 type  2   force =     0.00000000    0.00000000    0.00001380
     atom   22 type  1   force =    -0.00000000   -0.00035371    0.00040372
     atom   23 type  1   force =    -0.00000000    0.00035371    0.00040372
     atom   24 type  1   force =     0.00000000    0.00000000    0.00042128
     atom   25 type  1   force =     0.00000000    0.00000000    0.01185104
     atom   26 type  2   force =     0.00000000    0.00000000   -0.02605270
     atom   27 type  2   force =     0.00000000    0.00000000    0.07705878
     atom   28 type  1   force =     0.00000000   -0.01189379   -0.02806522
     atom   29 type  1   force =     0.00000000    0.01189379   -0.02806522
     atom   30 type  1   force =     0.00000000    0.00000000    0.02580943
     atom   31 type  1   force =     0.00000000    0.00000000   -0.02713101
     atom   32 type  2   force =     0.00000000    0.00000000   -0.01177525
     atom   33 type  2   force =     0.00000000    0.00000000   -0.01999639
     atom   34 type  1   force =    -0.00000000    0.02099739   -0.00305764
     atom   35 type  1   force =    -0.00000000   -0.02099739   -0.00305764
     atom   36 type  1   force =     0.00000000    0.00000000    0.02876539
     atom   37 type  1   force =     0.00000000    0.00000000    0.00085426
     atom   38 type  2   force =    -0.00000000    0.00000000    0.00049237
     atom   39 type  2   force =     0.00000000    0.00000000   -0.00040679
     atom   40 type  1   force =    -0.00000000    0.00044042    0.00078071
     atom   41 type  1   force =    -0.00000000   -0.00044042    0.00078071
     atom   42 type  1   force =     0.00000000    0.00000000   -0.00009794
     atom   43 type  1   force =     0.00000000    0.00000000   -0.00010805
     atom   44 type  2   force =     0.00000000    0.00000000    0.00017867
     atom   45 type  2   force =     0.00000000    0.00000000    0.00001380
     atom   46 type  1   force =     0.00000000   -0.00035371    0.00040372
     atom   47 type  1   force =     0.00000000    0.00035371    0.00040372
     atom   48 type  1   force =     0.00000000    0.00000000    0.00042128

     Total force =     0.002665     Total SCF correction =     0.000379
     SCF correction compared to forces is large: reduce conv_thr to get better values

     bfgs converged in  12 scf cycles and  11 bfgs steps
     (criteria: energy < 0.10E-03, force < 0.10E-02)

     End of BFGS Geometry Optimization

     Final energy   =   -3758.1310245353 Ry
Begin final coordinates

ATOMIC_POSITIONS (crystal)
O0       0.000000000   0.500000000   0.332440000    0   0   0
Rh1      0.250000000   0.500000000   0.366310000    0   0   0
Rh1      0.000000000   0.000000000   0.366310000    0   0   0
O0       0.250000000   0.810000000   0.366310000    0   0   0
O0       0.250000000   0.190000000   0.366310000    0   0   0
O0       0.000000000   0.500000000   0.400170000    0   0   0
O0       0.000000000   0.000000000   0.421570000    0   0   0
Rh1      0.250000000   0.000000000   0.455440000    0   0   0
Rh1      0.000000000   0.500000000   0.455440000    0   0   0
O0       0.250000000   0.690000000   0.455440000    0   0   0
O0       0.250000000   0.310000000   0.455440000    0   0   0
O0       0.000000000   0.000000000   0.489300000    0   0   0
O0       0.000000000   0.500000000   0.509594560
Rh1      0.250000000   0.500000000   0.543863902
Rh1      0.000000000   0.000000000   0.544591617
O0       0.250000000   0.806672404   0.544452348
O0       0.250000000   0.193327596   0.544452348
O0       0.000000000   0.500000000   0.578140036
O0       0.000000000   0.000000000   0.599262650
Rh1      0.250000000  -0.000000000   0.634311545
Rh1      0.000000000   0.500000000   0.631225617
O0       0.250000001   0.690038175   0.636047621
O0       0.250000001   0.309961825   0.636047621
O0       0.000000000   0.000000000   0.667534975
O0       0.500000000   0.500000000   0.332440000    0   0   0
Rh1      0.750000000   0.500000000   0.366310000    0   0   0
Rh1      0.500000000   0.000000000   0.366310000    0   0   0
O0       0.750000000   0.810000000   0.366310000    0   0   0
O0       0.750000000   0.190000000   0.366310000    0   0   0
O0       0.500000000   0.500000000   0.400170000    0   0   0
O0       0.500000000   0.000000000   0.421570000    0   0   0
Rh1      0.750000000   0.000000000   0.455440000    0   0   0
Rh1      0.500000000   0.500000000   0.455440000    0   0   0
O0       0.750000000   0.690000000   0.455440000    0   0   0
O0       0.750000000   0.310000000   0.455440000    0   0   0
O0       0.500000000   0.000000000   0.489300000    0   0   0
O0       0.500000000   0.500000000   0.509594560
Rh1      0.750000000   0.500000000   0.543863902
Rh1      0.500000000   0.000000000   0.544591617
O0       0.750000000   0.806672404   0.544452348
O0       0.750000000   0.193327596   0.544452348
O0       0.500000000   0.500000000   0.578140036
O0       0.500000000   0.000000000   0.599262650
Rh1      0.750000000   0.000000000   0.634311545
Rh1      0.500000000   0.500000000   0.631225617
O0       0.749999999   0.690038175   0.636047621
O0       0.749999999   0.309961825   0.636047621
O0       0.500000000   0.000000000   0.667534975
End final coordinates

     General routines

     Parallel routines

   This run was terminated on:  15:21:49   1Mar2014

   JOB DONE.