     Program PWSCF v.5.0.2 (svn rev. 9656) starts on 28Apr2014 at 20:25: 0

     Current dimensions of program PWSCF are:
     Max number of different atomic species (ntypx) = 10
     Max number of k-points (npk) =  40000
     Max angular momentum in pseudopotentials (lmaxx) =  3
     Reading input from pwscf.in
Warning: card &CELL ignored
Warning: card / ignored

     Subspace diagonalization in iterative solution of the eigenvalue problem:
     a serial algorithm will be used

     bravais-lattice index     =            0
     lattice parameter (alat)  =      10.3179  a.u.
     unit-cell volume          =    6964.3238 (a.u.)^3
     number of atoms/cell      =           31
     number of atomic types    =            3
     number of electrons       =       230.00
     number of Kohn-Sham states=          345
     kinetic-energy cutoff     =      40.0000  Ry
     charge density cutoff     =     500.0000  Ry
     convergence threshold     =      1.0E-06
     mixing beta               =       0.7000
     number of iterations used =            8  plain     mixing
     Exchange-correlation      = SLA  PW   PBE  PBE ( 1 4 3 4 0)
     EXX-fraction              =        0.00
     nstep                     =           50

     celldm(1)=  10.317905  celldm(2)=   0.000000  celldm(3)=   0.000000
     celldm(4)=   0.000000  celldm(5)=   0.000000  celldm(6)=   0.000000

     crystal axes: (cart. coord. in units of alat)
               a(1) = (   1.000000   0.000000   0.000000 )
               a(2) = (   0.000000   1.282117   0.000000 )
               a(3) = (   0.000000   0.000000   4.945120 )

     reciprocal axes: (cart. coord. in units 2 pi/alat)
               b(1) = (  1.000000  0.000000  0.000000 )
               b(2) = (  0.000000  0.779960  0.000000 )
               b(3) = (  0.000000  0.000000  0.202220 )

     PseudoPot. # 1 for O  read from file:
     /home/camp/zhonxu/pseudo/o_pbe_v1.01.uspp.F.UPF
     MD5 check sum: 2bcb18d16ea4b960afae9ec6d52f22d2
     Pseudo is Ultrasoft + core correction, Zval =  6.0
     Generated by new atomic code, or converted to UPF format
     Using radial grid of  737 points,  5 beta functions with:
                l(1) =   0
                l(2) =   0
                l(3) =   1
                l(4) =   1
                l(5) =   2
     Q(r) pseudized with  8 coefficients,  rinner =    0.900   0.900   0.900
                                                       0.900   0.900

     PseudoPot. # 2 for Mo read from file:
     /home/camp/zhonxu/pseudo/mo_pbe_v1.uspp.F.UPF
     MD5 check sum: 30c4dcd161f5d35cd49bb5239c51a633
     Pseudo is Ultrasoft + core correction, Zval = 14.0
     Generated by new atomic code, or converted to UPF format
     Using radial grid of  889 points,  6 beta functions with:
                l(1) =   0
                l(2) =   0
                l(3) =   1
                l(4) =   1
                l(5) =   2
                l(6) =   2
     Q(r) pseudized with  6 coefficients,  rinner =    1.000   1.000   1.000
                                                       1.000   1.000

     PseudoPot. # 3 for H  read from file:
     /home/camp/zhonxu/pseudo/h_pbe_v1.uspp.F.UPF
     MD5 check sum: 3408e3ff4ec8b0a4e358431e7e038a48
     Pseudo is Ultrasoft, Zval =  1.0
     Generated by new atomic code, or converted to UPF format
     Using radial grid of  615 points,  2 beta functions with:
                l(1) =   0
                l(2) =   0
     Q(r) pseudized with  8 coefficients,  rinner =    0.700

     atomic species   valence    mass     pseudopotential
        O0             6.00    15.99940     O ( 1.00)
        Mo1           14.00    95.94000     Mo( 1.00)
        H2             1.00     1.00794     H ( 1.00)

     Simplified LDA+U calculation (l_max = 2) with parameters (eV):
     atomic species    L          U    alpha       J0     beta
        Mo1            2     2.5000   0.0000   0.0000   0.0000

     No symmetry found

   Cartesian axes

     site n.     atom                  positions (alat units)
         1           O0  tau(   1) = (   0.0000000   0.0000000   1.8298429  )
         2           O0  tau(   2) = (   0.0000000   0.6410583   1.8994207  )
         3           Mo1 tau(   3) = (   0.2500000   0.6410583   2.1871278  )
         4           Mo1 tau(   4) = (   0.0000000   0.0000000   2.1851992  )
         5           O0  tau(   5) = (   0.2500000   1.0000510   2.1890070  )
         6           O0  tau(   6) = (   0.2500000   0.2820657   2.1893531  )
         7           O0  tau(   7) = (   0.0000000   0.6410583   2.4671700  )
         8           O0  tau(   8) = (   0.0000000   0.0000000   2.5523250  )
         9           Mo1 tau(   9) = (   0.2500000   0.0000000   2.8391419  )
        10           Mo1 tau(  10) = (   0.0000000   0.6410583   2.8013612  )
        11           O0  tau(  11) = (   0.2500000   0.9231240   2.8197571  )
        12           O0  tau(  12) = (   0.2500000   0.3589927   2.8195593  )
        13           O0  tau(  13) = (   0.0000000   0.0000000   3.0891672  )
        14           O0  tau(  14) = (   0.5000000   0.0000000   1.8327111  )
        15           O0  tau(  15) = (   0.5000000   0.6410583   1.8997669  )
        16           Mo1 tau(  16) = (   0.7500000   0.6410583   2.1871773  )
        17           Mo1 tau(  17) = (   0.5000000   0.0000000   2.1922708  )
        18           O0  tau(  18) = (   0.7500000   1.0000510   2.1898476  )
        19           O0  tau(  19) = (   0.7500000   0.2820657   2.1889575  )
        20           O0  tau(  20) = (   0.5000000   0.6410583   2.4516918  )
        21           O0  tau(  21) = (   0.5000000   0.0000000   2.5499019  )
        22           Mo1 tau(  22) = (   0.7500000   0.0000000   2.8391419  )
        23           Mo1 tau(  23) = (   0.5000000   0.6410583   2.8716808  )
        24           O0  tau(  24) = (   0.7500000   0.9231240   2.8197571  )
        25           O0  tau(  25) = (   0.7500000   0.3589927   2.8196582  )
        26           O0  tau(  26) = (   0.5000000   0.0000000   3.0881782  )
        27           H2  tau(  27) = (  -0.0006600   0.7686802   1.7727267  )
        28           H2  tau(  28) = (   0.4996400   0.7964252   1.8076887  )
        29           H2  tau(  29) = (   0.1674000   0.0210652   1.7585342  )
        30           H2  tau(  30) = (   0.6637700   0.0258988   1.7570507  )
        31           O0  tau(  31) = (   0.5000200   0.6407506   3.1806520  )

     number of k points=    10  Methfessel-Paxton smearing, width (Ry)=  0.0100
                       cart. coord. in units 2pi/alat
        k(    1) = (   0.0000000   0.0000000   0.0000000), wk =   0.1250000
        k(    2) = (   0.0000000   0.1949901   0.0000000), wk =   0.2500000
        k(    3) = (   0.0000000  -0.3899801   0.0000000), wk =   0.1250000
        k(    4) = (   0.2500000   0.0000000   0.0000000), wk =   0.2500000
        k(    5) = (   0.2500000   0.1949901   0.0000000), wk =   0.2500000
        k(    6) = (   0.2500000  -0.3899801   0.0000000), wk =   0.2500000
        k(    7) = (  -0.5000000   0.0000000   0.0000000), wk =   0.1250000
        k(    8) = (  -0.5000000   0.1949901   0.0000000), wk =   0.2500000
        k(    9) = (  -0.5000000  -0.3899801   0.0000000), wk =   0.1250000
        k(   10) = (  -0.2500000   0.1949901   0.0000000), wk =   0.2500000

     Largest allocated arrays     est. size (Mb)     dimensions
     Largest temporary arrays     est. size (Mb)     dimensions

     Check: negative/imaginary core charge=   -0.000003    0.000000

     Initial potential from superposition of free atoms
     Check: negative starting charge=   -0.002499

     starting charge  229.99143, renormalised to  230.00000

     negative rho (up, down):  0.250E-02 0.000E+00
     Number of +U iterations with fixed ns =  0
     Starting occupations:
 --- enter write_ns ---
 LDA+U parameters:
U( 2)     =  2.50000000
alpha( 2) =  0.00000000
atom    3   Tr[ns(na)] =   5.00000
    eigenvalues:
  0.500  0.500  0.500  0.500  0.500
    eigenvectors:
  1.000  0.000  0.000  0.000  0.000
  0.000  1.000  0.000  0.000  0.000
  0.000  0.000  1.000  0.000  0.000
  0.000  0.000  0.000  1.000  0.000
  0.000  0.000  0.000  0.000  1.000
    occupations:
  0.500  0.000  0.000  0.000  0.000
  0.000  0.500  0.000  0.000  0.000
  0.000  0.000  0.500  0.000  0.000
  0.000  0.000  0.000  0.500  0.000
  0.000  0.000  0.000  0.000  0.500
atom    4   Tr[ns(na)] =   5.00000
    eigenvalues:
  0.500  0.500  0.500  0.500  0.500
    eigenvectors:
  1.000  0.000  0.000  0.000  0.000
  0.000  1.000  0.000  0.000  0.000
  0.000  0.000  1.000  0.000  0.000
  0.000  0.000  0.000  1.000  0.000
  0.000  0.000  0.000  0.000  1.000
    occupations:
  0.500  0.000  0.000  0.000  0.000
  0.000  0.500  0.000  0.000  0.000
  0.000  0.000  0.500  0.000  0.000
  0.000  0.000  0.000  0.500  0.000
  0.000  0.000  0.000  0.000  0.500
atom    9   Tr[ns(na)] =   5.00000
    eigenvalues:
  0.500  0.500  0.500  0.500  0.500
    eigenvectors:
  1.000  0.000  0.000  0.000  0.000
  0.000  1.000  0.000  0.000  0.000
  0.000  0.000  1.000  0.000  0.000
  0.000  0.000  0.000  1.000  0.000
  0.000  0.000  0.000  0.000  1.000
    occupations:
  0.500  0.000  0.000  0.000  0.000
  0.000  0.500  0.000  0.000  0.000
  0.000  0.000  0.500  0.000  0.000
  0.000  0.000  0.000  0.500  0.000
  0.000  0.000  0.000  0.000  0.500
atom   10   Tr[ns(na)] =   5.00000
    eigenvalues:
  0.500  0.500  0.500  0.500  0.500
    eigenvectors:
  1.000  0.000  0.000  0.000  0.000
  0.000  1.000  0.000  0.000  0.000
  0.000  0.000  1.000  0.000  0.000
  0.000  0.000  0.000  1.000  0.000
  0.000  0.000  0.000  0.000  1.000
    occupations:
  0.500  0.000  0.000  0.000  0.000
  0.000  0.500  0.000  0.000  0.000
  0.000  0.000  0.500  0.000  0.000
  0.000  0.000  0.000  0.500  0.000
  0.000  0.000  0.000  0.000  0.500
atom   16   Tr[ns(na)] =   5.00000
    eigenvalues:
  0.500  0.500  0.500  0.500  0.500
    eigenvectors:
  1.000  0.000  0.000  0.000  0.000
  0.000  1.000  0.000  0.000  0.000
  0.000  0.000  1.000  0.000  0.000
  0.000  0.000  0.000  1.000  0.000
  0.000  0.000  0.000  0.000  1.000
    occupations:
  0.500  0.000  0.000  0.000  0.000
  0.000  0.500  0.000  0.000  0.000
  0.000  0.000  0.500  0.000  0.000
  0.000  0.000  0.000  0.500  0.000
  0.000  0.000  0.000  0.000  0.500
atom   17   Tr[ns(na)] =   5.00000
    eigenvalues:
  0.500  0.500  0.500  0.500  0.500
    eigenvectors:
  1.000  0.000  0.000  0.000  0.000
  0.000  1.000  0.000  0.000  0.000
  0.000  0.000  1.000  0.000  0.000
  0.000  0.000  0.000  1.000  0.000
  0.000  0.000  0.000  0.000  1.000
    occupations:
  0.500  0.000  0.000  0.000  0.000
  0.000  0.500  0.000  0.000  0.000
  0.000  0.000  0.500  0.000  0.000
  0.000  0.000  0.000  0.500  0.000
  0.000  0.000  0.000  0.000  0.500
atom   22   Tr[ns(na)] =   5.00000
    eigenvalues:
  0.500  0.500  0.500  0.500  0.500
    eigenvectors:
  1.000  0.000  0.000  0.000  0.000
  0.000  1.000  0.000  0.000  0.000
  0.000  0.000  1.000  0.000  0.000
  0.000  0.000  0.000  1.000  0.000
  0.000  0.000  0.000  0.000  1.000
    occupations:
  0.500  0.000  0.000  0.000  0.000
  0.000  0.500  0.000  0.000  0.000
[...]
  0.001  0.000  0.007  0.992  0.000
  0.999  0.000  0.000  0.001  0.000
  0.000  0.000  0.000  0.000  1.000
  0.000  1.000  0.000  0.000  0.000
    occupations:
  0.580  0.004  0.001 -0.002  0.000
  0.004  0.625  0.004 -0.001 -0.001
  0.001  0.004  0.440 -0.001  0.000
 -0.002 -0.001 -0.001  0.738 -0.000
  0.000 -0.001  0.000 -0.000  0.523
atom    9   Tr[ns(na)] =   5.82686
    eigenvalues:
  0.493  0.529  0.592  0.598  0.702
    eigenvectors:
  0.000  0.000  0.196  0.015  0.788
  0.000  0.000  0.074  0.926  0.000
  0.134  0.866  0.000  0.000  0.000
  0.000  0.000  0.730  0.059  0.212
  0.866  0.134  0.000  0.000  0.000
    occupations:
  0.679 -0.001 -0.001 -0.045 -0.002
 -0.001  0.597 -0.000 -0.001 -0.000
 -0.001 -0.000  0.524  0.000  0.012
 -0.045 -0.001  0.000  0.615  0.001
 -0.002 -0.000  0.012  0.001  0.498
atom   10   Tr[ns(na)] =   5.78590
    eigenvalues:
  0.498  0.505  0.519  0.653  0.720
    eigenvectors:
  0.895  0.104  0.000  0.000  0.001
  0.000  0.000  0.000  1.000  0.000
  0.104  0.896  0.000  0.000  0.000
  0.001  0.000  0.000  0.000  0.999
  0.000  0.000  1.000  0.000  0.000
    occupations:
  0.498  0.000 -0.002  0.005  0.000
  0.000  0.653  0.001 -0.000  0.000
 -0.002  0.001  0.504  0.000 -0.000
  0.005 -0.000  0.000  0.720  0.000
  0.000  0.000 -0.000  0.000  0.519
atom   16   Tr[ns(na)] =   5.83151
    eigenvalues:
  0.475  0.527  0.574  0.612  0.729
    eigenvectors:
  0.011  0.032  0.311  0.000  0.646
  0.000  0.934  0.062  0.002  0.002
  0.819  0.000  0.000  0.169  0.012
  0.001  0.032  0.621  0.006  0.340
  0.170  0.001  0.006  0.823  0.000
    occupations:
  0.671  0.013  0.023 -0.074  0.004
  0.013  0.530  0.004  0.005 -0.002
  0.023  0.004  0.501 -0.011 -0.051
 -0.074  0.005 -0.011  0.625 -0.003
  0.004 -0.002 -0.051 -0.003  0.588
atom   17   Tr[ns(na)] =   5.82688
    eigenvalues:
  0.440  0.522  0.583  0.611  0.757
    eigenvectors:
  0.000  0.000  0.967  0.030  0.003
  0.001  0.000  0.030  0.968  0.000
  0.999  0.000  0.000  0.001  0.000
  0.000  0.000  0.003  0.001  0.997
  0.000  1.000  0.000  0.000  0.000
    occupations:
  0.584  0.005  0.001 -0.009  0.000
  0.005  0.610  0.005 -0.002 -0.001
  0.001  0.005  0.440  0.001  0.000
 -0.009 -0.002  0.001  0.757 -0.000
  0.000 -0.001  0.000 -0.000  0.522
atom   22   Tr[ns(na)] =   5.82663
    eigenvalues:
  0.494  0.529  0.592  0.598  0.701
    eigenvectors:
  0.000  0.000  0.193  0.020  0.787
  0.000  0.000  0.091  0.909  0.000
  0.129  0.871  0.000  0.000  0.000
  0.000  0.000  0.715  0.072  0.213
  0.871  0.129  0.000  0.000  0.000
    occupations:
  0.678  0.001  0.000 -0.045 -0.002
  0.001  0.597 -0.001  0.002 -0.000
  0.000 -0.001  0.524 -0.000 -0.012
 -0.045  0.002 -0.000  0.615  0.001
 -0.002 -0.000 -0.012  0.001  0.498
atom   23   Tr[ns(na)] =   5.89909
    eigenvalues:
  0.515  0.524  0.538  0.624  0.748
    eigenvectors:
  0.000  0.000  0.000  0.982  0.018
  0.000  0.000  1.000  0.000  0.000
  0.000  1.000  0.000  0.000  0.000
  0.000  0.000  0.000  0.018  0.982
  1.000  0.000  0.000  0.000  0.000
    occupations:
  0.626  0.000 -0.000 -0.017 -0.000
  0.000  0.538 -0.000  0.000  0.000
 -0.000 -0.000  0.524 -0.000 -0.000
 -0.017  0.000 -0.000  0.746  0.000
 -0.000  0.000 -0.000  0.000  0.515
N of occupied +U levels =  46.6373726
 --- exit write_ns ---

     Threshold (ethr) on eigenvalues was too large:
     Diagonalizing with lowered threshold

     Davidson diagonalization with overlap
     ethr =  5.33E-09,  avg # of iterations =  2.7

[...]

     total energy              =   -1730.78046092 Ry
     Harris-Foulkes estimate   =   -1730.78046093 Ry
     estimated scf accuracy    <       0.00000004 Ry

     iteration # 11     ecut=    40.00 Ry     beta=0.70
     Davidson diagonalization with overlap
     ethr =  1.92E-11,  avg # of iterations =  1.0

     negative rho (up, down):  0.353E-02 0.000E+00

     End of self-consistent calculation
 --- enter write_ns ---
 LDA+U parameters:
U( 2)     =  2.50000000
alpha( 2) =  0.00000000
atom    3   Tr[ns(na)] =   5.83114
    eigenvalues:
  0.476  0.526  0.574  0.612  0.727
    eigenvectors:
  0.011  0.033  0.311  0.000  0.645
  0.000  0.934  0.061  0.002  0.002
  0.816  0.000  0.000  0.172  0.012
  0.001  0.032  0.620  0.007  0.341
  0.173  0.001  0.007  0.819  0.000
    occupations:
  0.670 -0.013  0.023 -0.073 -0.004
 -0.013  0.530 -0.004 -0.005 -0.002
  0.023 -0.004  0.502 -0.011  0.051
 -0.073 -0.005 -0.011  0.625  0.003
 -0.004 -0.002  0.051  0.003  0.588
atom    4   Tr[ns(na)] =   5.81057
    eigenvalues:
  0.440  0.522  0.579  0.626  0.738
    eigenvectors:
  0.000  0.000  0.992  0.007  0.000
  0.001  0.000  0.007  0.992  0.000
  0.999  0.000  0.000  0.001  0.000
  0.000  0.000  0.000  0.000  1.000
  0.000  1.000  0.000  0.000  0.000
    occupations:
  0.580  0.004  0.001 -0.002  0.000
  0.004  0.625  0.004 -0.001 -0.001
  0.001  0.004  0.440 -0.001  0.000
 -0.002 -0.001 -0.001  0.738 -0.000
  0.000 -0.001  0.000 -0.000  0.523
atom    9   Tr[ns(na)] =   5.82730
    eigenvalues:
  0.494  0.529  0.592  0.598  0.702
    eigenvectors:
  0.000  0.000  0.196  0.015  0.788
  0.000  0.000  0.074  0.926  0.000
  0.134  0.866  0.000  0.000  0.000
  0.000  0.000  0.729  0.059  0.212
  0.866  0.134  0.000  0.000  0.000
    occupations:
  0.679 -0.001 -0.001 -0.045 -0.002
 -0.001  0.597 -0.000 -0.001 -0.000
 -0.001 -0.000  0.524  0.000  0.012
 -0.045 -0.001  0.000  0.615  0.001
 -0.002 -0.000  0.012  0.001  0.498
atom   10   Tr[ns(na)] =   5.78442
    eigenvalues:
  0.497  0.504  0.519  0.652  0.720
    eigenvectors:
  0.889  0.110  0.000  0.000  0.001
  0.000  0.000  0.000  1.000  0.000
  0.110  0.890  0.000  0.000  0.000
  0.001  0.000  0.000  0.000  0.999
  0.000  0.000  1.000  0.000  0.000
    occupations:
  0.498  0.000 -0.002  0.005  0.000
  0.000  0.652  0.001 -0.000  0.000
 -0.002  0.001  0.504  0.000 -0.000
  0.005 -0.000  0.000  0.720  0.000
  0.000  0.000 -0.000  0.000  0.519
atom   16   Tr[ns(na)] =   5.83112
    eigenvalues:
  0.475  0.527  0.574  0.612  0.729
    eigenvectors:
  0.011  0.033  0.311  0.000  0.646
  0.000  0.934  0.062  0.002  0.002
  0.818  0.000  0.000  0.169  0.012
  0.001  0.032  0.621  0.006  0.340
  0.170  0.001  0.006  0.823  0.000
    occupations:
  0.671  0.013  0.023 -0.074  0.004
  0.013  0.530  0.004  0.005 -0.002
  0.023  0.004  0.501 -0.011 -0.051
 -0.074  0.005 -0.011  0.625 -0.003
  0.004 -0.002 -0.051 -0.003  0.588
atom   17   Tr[ns(na)] =   5.82728
    eigenvalues:
  0.440  0.522  0.583  0.611  0.757
    eigenvectors:
  0.000  0.000  0.967  0.030  0.003
  0.001  0.000  0.030  0.969  0.000
  0.999  0.000  0.000  0.001  0.000
  0.000  0.000  0.003  0.001  0.997
  0.000  1.000  0.000  0.000  0.000
    occupations:
  0.584  0.005  0.001 -0.009  0.000
  0.005  0.610  0.005 -0.002 -0.001
  0.001  0.005  0.440  0.001  0.000
 -0.009 -0.002  0.001  0.757 -0.000
  0.000 -0.001  0.000 -0.000  0.522
atom   22   Tr[ns(na)] =   5.82705
    eigenvalues:
  0.494  0.529  0.592  0.598  0.701
    eigenvectors:
  0.000  0.000  0.193  0.020  0.787
  0.000  0.000  0.092  0.908  0.000
  0.129  0.871  0.000  0.000  0.000
  0.000  0.000  0.715  0.072  0.213
  0.871  0.129  0.000  0.000  0.000
    occupations:
  0.678  0.001  0.000 -0.045 -0.002
  0.001  0.597 -0.001  0.002 -0.000
  0.000 -0.001  0.524 -0.000 -0.012
 -0.045  0.002 -0.000  0.615  0.001
 -0.002 -0.000 -0.012  0.001  0.498
atom   23   Tr[ns(na)] =   5.89758
    eigenvalues:
  0.515  0.524  0.538  0.624  0.748
    eigenvectors:
  0.000  0.000  0.000  0.982  0.018
  0.000  0.000  1.000  0.000  0.000
  0.000  1.000  0.000  0.000  0.000
  0.000  0.000  0.000  0.018  0.982
  1.000  0.000  0.000  0.000  0.000
    occupations:
  0.626  0.000 -0.000 -0.017 -0.000
  0.000  0.538 -0.000  0.000  0.000
 -0.000 -0.000  0.524 -0.000 -0.000
 -0.017  0.000 -0.000  0.746  0.000
 -0.000  0.000 -0.000  0.000  0.515
N of occupied +U levels =  46.6364703
 --- exit write_ns ---

[...]

          k = 0.2500-0.3900 0.0000 ( 29726 PWs)   bands (ev):

[...]

          k =-0.2500 0.1950 0.0000 ( 29746 PWs)   bands (ev):

   -62.8016 -62.7781 -62.6904 -62.4367 -62.4023 -62.3764 -62.3444 -62.3190
   -37.4665 -37.3682 -37.1542 -37.0852 -37.0098 -36.8630 -36.8030 -36.7514
   -36.7408 -36.7355 -36.7307 -36.6693 -36.6593 -36.6311 -36.5811 -36.5705
   -36.4992 -36.4905 -36.4317 -36.4308 -36.3748 -36.2121 -36.0371 -35.9983
   -20.7748 -20.5227 -20.1046 -20.0042 -19.8829 -19.7227 -19.6620 -19.5756
   -19.5187 -19.3117 -19.1831 -19.1114 -19.0416 -18.9970 -18.8936 -18.8184
   -18.4691 -18.3151 -18.2930  -8.8763  -8.6915  -8.4901  -8.1416  -7.9552
    -7.9403  -7.7925  -7.6650  -7.5814  -7.4940  -7.3726  -7.1643  -7.0581
    -6.9995  -6.7450  -6.6707  -6.5881  -6.5207  -6.3504  -6.2737  -6.0769
    -6.0126  -5.9705  -5.8940  -5.6575  -5.5688  -5.4568  -5.3540  -5.2134
    -5.1518  -5.0583  -4.9487  -4.8130  -4.7584  -4.6974  -4.6166  -4.5953
    -4.5123  -4.4144  -4.2965  -4.2603  -4.1813  -3.9814  -3.9565  -3.8878
    -3.8403  -3.7682  -3.6750  -3.5884  -3.5446  -3.4702  -3.4019  -3.2732
    -3.1405  -3.0616  -3.0083  -2.7160  -1.9253  -1.8048  -1.6799  -0.7761
    -0.7110  -0.6859  -0.5176   0.0327   0.1810   0.4860   0.5257   0.6015
     0.8459   0.8785   0.9735   1.2066   1.3087   1.4465   1.5114   1.5801
     1.6327   1.6701   1.7121   2.0947   2.2660   3.2302   3.2666   3.5205
     3.5799   3.7194   3.9243   4.1141   4.1739   4.2740   4.5463   4.6042
     4.6948   4.9593   5.2641   5.3149   5.5642   5.6608   5.7613   5.8249
     5.9562   6.0583   6.3265   6.5005   6.7760   6.9470   7.1506   7.2161
     7.2514   7.5959   7.6095   7.8154   8.0333   8.0922   8.2795   8.3501
     8.5249   8.5957   8.6783   8.8122   9.0079   9.1300   9.1927   9.3562
     9.4818   9.5244   9.6269   9.6455   9.6775   9.7424   9.9463  10.0953
    10.1409  10.2460  10.3117  10.3854  10.5409  10.5749  10.6932  10.7602
    10.8815  10.9818  11.0350  11.2194  11.3789  11.4773  11.6056  11.6708
    11.7620  11.8295  11.9330  11.9729  12.0369  12.2699  12.3341  12.4111
    12.4529  12.4966  12.5489  12.6156  12.6929  12.8433  12.9110  12.9272
    13.0458  13.1847  13.2510  13.2708  13.3410  13.4189  13.4733  13.5407
    13.5807  13.6700  13.7080  13.7756  13.8846  13.9399  14.0461  14.1165
    14.1729  14.2111  14.3245  14.4104  14.4469  14.5524  14.6110  14.6614
    14.7049  14.7710  14.8676  14.9143  14.9505  15.0207  15.1967  15.2242
    15.3458  15.4024  15.4726  15.5600  15.6212  15.7173  15.7916  15.8774
    15.9498  15.9982  16.0730  16.1500  16.1959  16.2439  16.3139  16.3773
    16.4298  16.4626  16.5726  16.6449  16.7651  16.8530  16.8872  16.9608
    17.0706  17.1324  17.2548  17.2778  17.3007  17.3961  17.4648  17.5693
    17.5911  17.6870  17.7244  17.7884  17.9137  17.9788  18.0465  18.1279
    18.1442  18.2309  18.2779  18.3619  18.4079  18.4931  18.5857  18.6492
    18.7773  18.8474  18.9391  18.9700  19.0813  19.1102  19.1594  19.2444
    19.4233  19.4673  19.5751  19.6911  19.7154  19.8190  19.8591  19.9148
    19.9660  20.0504  20.1321  20.2008  20.2736  20.2979  20.3609  20.4371
    20.4511  20.5123  20.5877  20.6529  20.6699  20.7050  20.7822  20.8935
    20.9263  21.0032  21.0555  21.1318  21.1940  21.2605  21.3166  21.3804
    21.4831  21.5398  21.5925  21.6830  21.7498  21.7803  21.8192  21.8527
    21.8803

     the Fermi energy is    -0.2793 ev

!    total energy              =   -1730.78046092 Ry
     Harris-Foulkes estimate   =   -1730.78046093 Ry
     estimated scf accuracy    <          8.1E-09 Ry

     The total energy is the sum of the following terms:

     one-electron contribution =  -22117.80628123 Ry
     hartree contribution      =   11080.86645440 Ry
     xc contribution           =    -293.73838114 Ry
     ewald contribution        =    9598.16751028 Ry
     Hubbard energy            =       1.72997170 Ry
     smearing contrib. (-TS)   =       0.00026507 Ry

     convergence has been achieved in  11 iterations

     Forces acting on atoms (Ry/au):

     negative rho (up, down):  0.353E-02 0.000E+00
     atom    1 type  1   force =     0.00047654   -0.00327107   -0.00039474
     atom    2 type  1   force =    -0.00017507    0.00630404    0.00022962
     atom    3 type  2   force =    -0.03273019   -0.00829496   -0.00000933
     atom    4 type  2   force =     0.00126873    0.00545405   -0.00025597
     atom    5 type  1   force =    -0.00447379   -0.00332998    0.00027587
     atom    6 type  1   force =    -0.00654773    0.00132889    0.00023456
     atom    7 type  1   force =     0.00024254    0.00037601    0.00030128
     atom    8 type  1   force =     0.00326223    0.00036057    0.00000707
     atom    9 type  2   force =    -0.00477636    0.00006289    0.00017894
     atom   10 type  2   force =    -0.00009173   -0.00012693   -0.00016596
     atom   11 type  1   force =    -0.01234284   -0.02925030   -0.00029328
     atom   12 type  1   force =    -0.01325024    0.02946335   -0.00030617
     atom   13 type  1   force =    -0.00011516    0.00007722    0.00021309
     atom   14 type  1   force =    -0.00411977   -0.00559840    0.00003667
     atom   15 type  1   force =     0.00005360    0.01085625    0.00052884
     atom   16 type  2   force =     0.03223214   -0.00910691   -0.00000881
     atom   17 type  2   force =    -0.00237888    0.00350789   -0.00097765
     atom   18 type  1   force =     0.00735395   -0.00218471    0.00026712
     atom   19 type  1   force =     0.00650347    0.00128236    0.00023130
     atom   20 type  1   force =     0.00003784    0.00320336   -0.00013076
     atom   21 type  1   force =     0.00340757    0.00035611    0.00006009
     atom   22 type  2   force =     0.00072458   -0.00053423    0.00018365
     atom   23 type  2   force =     0.00013626    0.00057221   -0.00075041
     atom   24 type  1   force =     0.01283901   -0.02928706   -0.00029823
     atom   25 type  1   force =     0.01283148    0.02933439   -0.00030358
     atom   26 type  1   force =    -0.00010043    0.00030448    0.00022588
     atom   27 type  3   force =     0.00001705   -0.00099299   -0.00006962
     atom   28 type  3   force =    -0.00001028   -0.00052238   -0.00007285
     atom   29 type  3   force =    -0.00017493   -0.00003192    0.00001980
     atom   30 type  3   force =    -0.00008994   -0.00027955    0.00040472
     atom   31 type  1   force =    -0.00000965   -0.00003268    0.00063882

     Total force =     0.002226     Total SCF correction =     0.000438
     SCF correction compared to forces is large: reduce conv_thr to get better values

     bfgs converged in   7 scf cycles and   6 bfgs steps
     (criteria: energy < 0.10E-03, force < 0.10E-02)

     End of BFGS Geometry Optimization

     Final energy   =   -1730.7804609194 Ry
Begin final coordinates

ATOMIC_POSITIONS (crystal)
O0       0.000000000   0.000000000   0.370141430    0   0   1
O0       0.000000000   0.500000000   0.384287753    0   0   1
Mo1      0.250000000   0.500000000   0.442230905    0   0   1
Mo1      0.000000000   0.000000000   0.441800518    0   0   1
O0       0.250000000   0.780000000   0.442661939    0   0   1
O0       0.250000000   0.220000000   0.442785084    0   0   1
O0       0.000000000   0.500000000   0.499304957    0   0   1
O0       0.000000000   0.000000000   0.516077868    0   0   1
Mo1      0.250000000   0.000000000   0.573977621    0   0   1
Mo1      0.000000000   0.500000000   0.566597606    0   0   1
O0       0.250000000   0.720000000   0.570500976    0   0   1
O0       0.250000000   0.280000000   0.570460375    0   0   1
O0       0.000000000   0.000000000   0.624384891    0   0   1
O0       0.500000000   0.000000000   0.370807516    0   0   1
O0       0.500000000   0.500000000   0.384013659    0   0   1
Mo1      0.750000000   0.500000000   0.442228644    0   0   1
Mo1      0.500000000   0.000000000   0.443127582    0   0   1
O0       0.750000000   0.780000000   0.442879837    0   0   1
O0       0.750000000   0.220000000   0.442647860    0   0   1
O0       0.500000000   0.500000000   0.496321105    0   0   1
O0       0.500000000   0.000000000   0.515599599    0   0   1
Mo1      0.750000000   0.000000000   0.573968627    0   0   1
Mo1      0.500000000   0.500000000   0.580133854    0   0   1
O0       0.750000000   0.720000000   0.570482452    0   0   1
O0       0.750000000   0.280000000   0.570496350    0   0   1
O0       0.500000000   0.000000000   0.624224736    0   0   1
H2      -0.000643155   0.598530971   0.358432620
H2       0.499638047   0.621088320   0.365377496
H2       0.167179584   0.016424507   0.355627933
H2       0.664022904   0.019873683   0.355466760
O0       0.499998118   0.499677790   0.642531450
End final coordinates

     General routines

     Parallel routines
     Hubbard U routines

   This run was terminated on:   3:20:42  29Apr2014

   JOB DONE.