     Program PWSCF v.5.0.2 (svn rev. 9656) starts on  6Jun2014 at  3:33:19

     Current dimensions of program PWSCF are:
     Max number of different atomic species (ntypx) = 10
     Max number of k-points (npk) =  40000
     Max angular momentum in pseudopotentials (lmaxx) =  3
     Reading input from pwscf.in
Warning: card &CELL ignored
Warning: card / ignored

     Subspace diagonalization in iterative solution of the eigenvalue problem:
     a serial algorithm will be used

     bravais-lattice index     =            0
     lattice parameter (alat)  =      10.7336  a.u.
     unit-cell volume          =    6184.1966 (a.u.)^3
     number of atoms/cell      =           33
     number of atomic types    =            3
     number of electrons       =       245.00 (up: 134.00, down: 111.00)
     number of Kohn-Sham states=          355
     kinetic-energy cutoff     =      40.0000  Ry
     charge density cutoff     =     500.0000  Ry
     convergence threshold     =      1.0E-06
     mixing beta               =       0.7000
     number of iterations used =            8  plain     mixing
     Exchange-correlation      = SLA  PW   PBE  PBE ( 1 4 3 4 0)
     EXX-fraction              =        0.00
     nstep                     =           50

     celldm(1)=  10.733644  celldm(2)=   0.000000  celldm(3)=   0.000000
     celldm(4)=   0.000000  celldm(5)=   0.000000  celldm(6)=   0.000000

     crystal axes: (cart. coord. in units of alat)
               a(1) = (   1.000000   0.000000   0.000000 )
               a(2) = (   0.000000   1.085558   0.000000 )
               a(3) = (   0.000000   0.000000   4.606685 )

     reciprocal axes: (cart. coord. in units 2 pi/alat)
               b(1) = (  1.000000  0.000000  0.000000 )
               b(2) = (  0.000000  0.921185  0.000000 )
               b(3) = (  0.000000  0.000000  0.217076 )

     PseudoPot. # 1 for O  read from file:
     /home/camp/zhonxu/pseudo/o_pbe_v1.01.uspp.F.UPF
     MD5 check sum: 2bcb18d16ea4b960afae9ec6d52f22d2
     Pseudo is Ultrasoft + core correction, Zval =  6.0
     Generated by new atomic code, or converted to UPF format
     Using radial grid of  737 points,  5 beta functions with:
                l(1) =   0
                l(2) =   0
                l(3) =   1
                l(4) =   1
                l(5) =   2
     Q(r) pseudized with  8 coefficients,  rinner =    0.900   0.900   0.900
                                                       0.900   0.900

     PseudoPot. # 2 for Mn read from file:
     /home/camp/zhonxu/pseudo/mn_pbe_v1.uspp.F.UPF
     MD5 check sum: 5fd7c7b5c956fd19902447332617373a
     Pseudo is Ultrasoft + core correction, Zval = 15.0
     Generated by new atomic code, or converted to UPF format
     Using radial grid of  859 points,  6 beta functions with:
                l(1) =   0
                l(2) =   0
                l(3) =   1
                l(4) =   1
                l(5) =   2
                l(6) =   2
     Q(r) pseudized with  6 coefficients,  rinner =    1.150   1.150   1.150
                                                       1.150   1.150

     PseudoPot. # 3 for H  read from file:
     /home/camp/zhonxu/pseudo/h_pbe_v1.uspp.F.UPF
     MD5 check sum: 3408e3ff4ec8b0a4e358431e7e038a48
     Pseudo is Ultrasoft, Zval =  1.0
     Generated by new atomic code, or converted to UPF format
     Using radial grid of  615 points,  2 beta functions with:
                l(1) =   0
                l(2) =   0
     Q(r) pseudized with  8 coefficients,  rinner =    0.700

     atomic species   valence    mass     pseudopotential
        O0             6.00    15.99940     O ( 1.00)
        Mn1           15.00    54.93800     Mn( 1.00)
        H2             1.00     1.00794     H ( 1.00)

     Starting magnetic structure
     atomic species   magnetization
        O0           0.000
        Mn1          0.600
        H2           0.000

     Simplified LDA+U calculation (l_max = 2) with parameters (eV):
     atomic species    L          U    alpha       J0     beta
        Mn1            2     7.5000   0.0000   0.0000   0.0000

     No symmetry found

   Cartesian axes

     site n.     atom                  positions (alat units)
         1           O0  tau(   1) = (   0.0000000   0.0000000   1.6987151  )
         2           O0  tau(   2) = (   0.0000000   0.5427791   1.7896511  )
         3           Mn1 tau(   3) = (   0.2500000   0.5427791   2.0404390  )
         4           Mn1 tau(   4) = (   0.0000000   0.0000000   2.0494681  )
         5           O0  tau(   5) = (   0.2500000   0.8684466   2.0382739  )
         6           O0  tau(   6) = (   0.2500000   0.2171117   2.0628736  )
         7           O0  tau(   7) = (   0.0000000   0.5427791   2.2680093  )
         8           O0  tau(   8) = (   0.0000000   0.0000000   2.4227017  )
         9           Mn1 tau(   9) = (   0.2500000   0.0000000   2.6517461  )
        10           Mn1 tau(  10) = (   0.0000000   0.5427791   2.6317531  )
        11           O0  tau(  11) = (   0.2500000   0.7598908   2.7015444  )
        12           O0  tau(  12) = (   0.2500000   0.3256675   2.7064735  )
        13           O0  tau(  13) = (   0.0000000   0.0000000   2.8860421  )
        14           O0  tau(  14) = (   0.5000000   0.0000000   1.6974252  )
        15           O0  tau(  15) = (   0.5000000   0.5427791   1.7916320  )
        16           Mn1 tau(  16) = (   0.7500000   0.5427791   2.0404390  )
        17           Mn1 tau(  17) = (   0.5000000   0.0000000   2.0485468  )
        18           O0  tau(  18) = (   0.7500000   0.8684466   2.0389649  )
        19           O0  tau(  19) = (   0.7500000   0.2171117   2.0626893  )
        20           O0  tau(  20) = (   0.5000000   0.5427791   2.2735373  )
        21           O0  tau(  21) = (   0.5000000   0.0000000   2.4230242  )
        22           Mn1 tau(  22) = (   0.7500000   0.0000000   2.6517461  )
        23           Mn1 tau(  23) = (   0.5000000   0.5427791   2.6511473  )
        24           O0  tau(  24) = (   0.7500000   0.7598908   2.7016365  )
        25           O0  tau(  25) = (   0.7500000   0.3256675   2.7063353  )
        26           O0  tau(  26) = (   0.5000000   0.0000000   2.8847523  )
        27           H2  tau(  27) = (   0.0007200   0.7009667   1.7142396  )
        28           H2  tau(  28) = (   0.5006800   0.7009450   1.7161284  )
        29           H2  tau(  29) = (   0.1611700   0.0544950   1.6568403  )
        30           H2  tau(  30) = (   0.6612900   0.0548424   1.6562415  )
        31           O0  tau(  31) = (   0.4997100   0.6000641   3.1243920  )
        32           O0  tau(  32) = (   0.5011700   0.3866867   3.2271211  )
        33           H2  tau(  33) = (   0.4992100   0.4234437   3.3981212  )

     number of k points=    20  Methfessel-Paxton smearing, width (Ry)=  0.0100
                       cart. coord. in units 2pi/alat
        k(    1) = (   0.0000000   0.0000000   0.0000000), wk =   0.0625000
        k(    2) = (   0.0000000   0.2302962   0.0000000), wk =   0.1250000
        k(    3) = (   0.0000000  -0.4605925   0.0000000), wk =   0.0625000
        k(    4) = (   0.2500000   0.0000000   0.0000000), wk =   0.1250000
        k(    5) = (   0.2500000   0.2302962   0.0000000), wk =   0.1250000
        k(    6) = (   0.2500000  -0.4605925   0.0000000), wk =   0.1250000
        k(    7) = (  -0.5000000   0.0000000   0.0000000), wk =   0.0625000
        k(    8) = (  -0.5000000   0.2302962   0.0000000), wk =   0.1250000
        k(    9) = (  -0.5000000  -0.4605925   0.0000000), wk =   0.0625000
        k(   10) = (  -0.2500000   0.2302962   0.0000000), wk =   0.1250000
        k(   11) = (   0.0000000   0.0000000   0.0000000), wk =   0.0625000
        k(   12) = (   0.0000000   0.2302962   0.0000000), wk =   0.1250000
        k(   13) = (   0.0000000  -0.4605925   0.0000000), wk =   0.0625000
        k(   14) = (   0.2500000   0.0000000   0.0000000), wk =   0.1250000
        k(   15) = (   0.2500000   0.2302962   0.0000000), wk =   0.1250000
        k(   16) = (   0.2500000  -0.4605925   0.0000000), wk =   0.1250000
        k(   17) = (  -0.5000000   0.0000000   0.0000000), wk =   0.0625000
        k(   18) = (  -0.5000000   0.2302962   0.0000000), wk =   0.1250000
        k(   19) = (  -0.5000000  -0.4605925   0.0000000), wk =   0.0625000
        k(   20) = (  -0.2500000   0.2302962   0.0000000), wk =   0.1250000

     Largest allocated arrays     est. size (Mb)     dimensions
     Largest temporary arrays     est. size (Mb)     dimensions

     Check: negative/imaginary core charge=   -0.000023    0.000000

     Initial potential from superposition of free atoms
     Check: negative starting charge=(component1):   -0.000588
     Check: negative starting charge=(component2):   -0.000329

     starting charge  236.99986, renormalised to  245.00000

     negative rho (up, down):  0.608E-03 0.340E-03
     Number of +U iterations with fixed ns =  0
     Starting occupations:
 --- enter write_ns ---
 LDA+U parameters:
U( 2)     =  7.50000000
alpha( 2) =  0.00000000
atom    3   Tr[ns(na)] (up, down, total) =   5.00000  0.00000  5.00000
   spin  1
    eigenvalues:
  1.000  1.000  1.000  1.000  1.000
    eigenvectors:
  1.000  0.000  0.000  0.000  0.000
  0.000  1.000  0.000  0.000  0.000
  0.000  0.000  1.000  0.000  0.000
  0.000  0.000  0.000  1.000  0.000
  0.000  0.000  0.000  0.000  1.000
    occupations:
  1.000  0.000  0.000  0.000  0.000
  0.000  1.000  0.000  0.000  0.000
  0.000  0.000  1.000  0.000  0.000
  0.000  0.000  0.000  1.000  0.000
  0.000  0.000  0.000  0.000  1.000
   spin  2
    eigenvalues:
  0.000  0.000  0.000  0.000  0.000
    eigenvectors:
  1.000  0.000  0.000  0.000  0.000
  0.000  1.000  0.000  0.000  0.000
  0.000  0.000  1.000  0.000  0.000
  0.000  0.000  0.000  1.000  0.000
  0.000  0.000  0.000  0.000  1.000
    occupations:
  0.000  0.000  0.000  0.000  0.000
  0.000  0.000  0.000  0.000  0.000
  0.000  0.000  0.000  0.000  0.000
  0.000  0.000  0.000  0.000  0.000
  0.000  0.000  0.000  0.000  0.000
atomic mag. moment =     5.000000
atom    4   Tr[ns(na)] (up, down, total) =   5.00000  0.00000  5.00000
   spin  1
    eigenvalues:
  1.000  1.000  1.000  1.000  1.000
    eigenvectors:
  1.000  0.000  0.000  0.000  0.000
  0.000  1.000  0.000  0.000  0.000
  0.000  0.000  1.000  0.000  0.000
  0.000  0.000  0.000  1.000  0.000
  0.000  0.000  0.000  0.000  1.000
    occupations:
  1.000  0.000  0.000  0.000  0.000
  0.000  1.000  0.000  0.000  0.000
  0.000  0.000  1.000  0.000  0.000
  0.000  0.000  0.000  1.000  0.000
  0.000  0.000  0.000  0.000  1.000
   spin  2
    eigenvalues:
  0.000  0.000  0.000  0.000  0.000
    eigenvectors:
  1.000  0.000  0.000  0.000  0.000
  0.000  1.000  0.000  0.000  0.000
  0.000  0.000  1.000  0.000  0.000
  0.000  0.000  0.000  1.000  0.000
  0.000  0.000  0.000  0.000  1.000
    occupations:
  0.000  0.000  0.000  0.000  0.000
  0.000  0.000  0.000  0.000  0.000
  0.000  0.000  0.000  0.000  0.000
  0.000  0.000  0.000  0.000  0.000
  0.000  0.000  0.000  0.000  0.000
atomic mag. moment =     5.000000
[...]
  0.063  0.067  0.073  0.237  0.304
    eigenvectors:
  0.009  0.000  0.000  0.990  0.000
  0.022  0.117  0.858  0.001  0.002
  0.140  0.719  0.140  0.001  0.000
  0.829  0.164  0.000  0.008  0.000
  0.000  0.000  0.002  0.000  0.998
    occupations:
  0.236  0.005  0.006 -0.015  0.000
  0.005  0.072 -0.002  0.000 -0.011
  0.006 -0.002  0.068  0.001  0.000
 -0.015  0.000  0.001  0.065 -0.000
  0.000 -0.011  0.000 -0.000  0.304
atomic mag. moment =     3.817336
atom    9   Tr[ns(na)] (up, down, total) =   4.53598  0.79262  5.32860
   spin  1
    eigenvalues:
  0.766  0.781  0.993  0.995  1.001
    eigenvectors:
  0.238  0.000  0.000  0.000  0.762
  0.001  0.999  0.000  0.000  0.000
  0.000  0.000  0.005  0.995  0.000
  0.762  0.001  0.000  0.000  0.238
  0.000  0.000  0.995  0.005  0.000
    occupations:
  0.945 -0.001 -0.000 -0.100 -0.000
 -0.001  0.781  0.000 -0.000  0.000
 -0.000  0.000  0.995 -0.000  0.000
 -0.100 -0.000 -0.000  0.822  0.000
 -0.000  0.000  0.000  0.000  0.993
   spin  2
    eigenvalues:
  0.064  0.074  0.081  0.283  0.289
    eigenvectors:
  0.802  0.000  0.000  0.002  0.196
  0.000  0.000  0.000  0.991  0.009
  0.000  0.000  1.000  0.000  0.000
  0.198  0.000  0.000  0.007  0.795
  0.000  1.000  0.000  0.000  0.000
    occupations:
  0.109  0.000  0.000  0.090 -0.000
  0.000  0.284 -0.000 -0.001 -0.000
  0.000 -0.000  0.081  0.001 -0.000
  0.090 -0.001  0.001  0.245 -0.000
 -0.000 -0.000 -0.000 -0.000  0.074
atomic mag. moment =     3.743362
atom   10   Tr[ns(na)] (up, down, total) =   4.72682  0.52801  5.25483
   spin  1
    eigenvalues:
  0.762  0.968  0.998  0.999  1.000
    eigenvectors:
  0.000  0.960  0.000  0.000  0.040
  0.000  0.000  0.998  0.002  0.000
  0.000  0.000  0.002  0.993  0.004
  0.000  0.040  0.000  0.004  0.956
  1.000  0.000  0.000  0.000  0.000
    occupations:
  0.970 -0.000  0.000  0.006  0.000
 -0.000  0.998  0.000  0.000 -0.001
  0.000  0.000  0.999 -0.000  0.000
  0.006  0.000 -0.000  0.998 -0.000
  0.000 -0.001  0.000 -0.000  0.762
   spin  2
    eigenvalues:
  0.051  0.057  0.064  0.110  0.246
    eigenvectors:
  0.046  0.000  0.000  0.954  0.000
  0.000  0.000  1.000  0.000  0.000
  0.000  1.000  0.000  0.000  0.000
  0.954  0.000  0.000  0.046  0.000
  0.000  0.000  0.000  0.000  1.000
    occupations:
  0.107  0.000 -0.000 -0.012 -0.000
  0.000  0.064 -0.000 -0.000  0.001
 -0.000 -0.000  0.057 -0.000  0.000
 -0.012 -0.000 -0.000  0.054  0.000
 -0.000  0.001  0.000  0.000  0.246
atomic mag. moment =     4.198818
atom   16   Tr[ns(na)] (up, down, total) =   4.55830  0.75527  5.31357
   spin  1
    eigenvalues:
  0.760  0.795  0.999  1.001  1.003
    eigenvectors:
  0.249  0.003  0.000  0.423  0.325
  0.009  0.990  0.001  0.000  0.000
  0.000  0.000  0.001  0.434  0.565
  0.742  0.006  0.000  0.142  0.110
  0.000  0.001  0.998  0.001  0.000
    occupations:
  0.941  0.000 -0.001 -0.105  0.000
  0.000  0.795 -0.000  0.004 -0.006
 -0.001 -0.000  1.002  0.001  0.000
 -0.105  0.004  0.001  0.821  0.000
  0.000 -0.006  0.000  0.000  0.999
   spin  2
    eigenvalues:
  0.056  0.070  0.078  0.253  0.297
    eigenvectors:
  0.771  0.000  0.000  0.001  0.228
  0.000  0.001  0.000  0.996  0.002
  0.001  0.004  0.994  0.000  0.001
  0.228  0.000  0.002  0.002  0.769
  0.000  0.995  0.004  0.001  0.000
    occupations:
  0.111  0.000 -0.003  0.101  0.000
  0.000  0.253  0.000 -0.002  0.006
 -0.003  0.000  0.078 -0.005 -0.001
  0.101 -0.002 -0.005  0.242 -0.000
  0.000  0.006 -0.001 -0.000  0.070
atomic mag. moment =     3.803035
atom   17   Tr[ns(na)] (up, down, total) =   4.56233  0.74437  5.30670
   spin  1
    eigenvalues:
  0.746  0.811  0.997  1.003  1.004
    eigenvectors:
  0.000  0.997  0.001  0.002  0.000
  0.000  0.001  0.000  0.776  0.223
  0.000  0.001  0.000  0.222  0.777
  0.000  0.001  0.999  0.000  0.000
  1.000  0.000  0.000  0.000  0.000
    occupations:
  0.812 -0.005 -0.006  0.007 -0.001
 -0.005  1.003 -0.001  0.000  0.005
 -0.006 -0.001  1.004  0.000 -0.000
  0.007  0.000  0.000  0.997 -0.000
 -0.001  0.005 -0.000 -0.000  0.746
   spin  2
    eigenvalues:
  0.063  0.067  0.073  0.237  0.304
    eigenvectors:
  0.009  0.000  0.000  0.990  0.000
  0.023  0.122  0.852  0.001  0.002
  0.143  0.710  0.145  0.001  0.000
  0.824  0.168  0.000  0.008  0.000
  0.000  0.000  0.002  0.000  0.998
    occupations:
  0.235  0.005  0.006 -0.015  0.000
  0.005  0.072 -0.002  0.000 -0.011
  0.006 -0.002  0.068  0.001  0.000
 -0.015  0.000  0.001  0.065 -0.000
  0.000 -0.011  0.000 -0.000  0.304
atomic mag. moment =     3.817965
atom   22   Tr[ns(na)] (up, down, total) =   4.53597  0.79262  5.32859
   spin  1
    eigenvalues:
  0.766  0.781  0.993  0.995  1.001
    eigenvectors:
  0.237  0.001  0.000  0.000  0.762
  0.005  0.995  0.000  0.000  0.000
  0.000  0.000  0.005  0.995  0.000
  0.758  0.004  0.000  0.000  0.238
  0.000  0.000  0.995  0.005  0.000
    occupations:
  0.945  0.001 -0.000 -0.100  0.000
  0.001  0.781  0.000  0.001  0.000
 -0.000  0.000  0.995 -0.000 -0.000
 -0.100  0.001 -0.000  0.822  0.000
  0.000  0.000 -0.000  0.000  0.993
   spin  2
    eigenvalues:
  0.064  0.074  0.081  0.284  0.289
    eigenvectors:
  0.802  0.000  0.000  0.002  0.196
  0.000  0.000  0.000  0.990  0.010
  0.000  0.000  1.000  0.000  0.000
  0.198  0.000  0.000  0.008  0.795
  0.000  1.000  0.000  0.000  0.000
    occupations:
  0.109 -0.000  0.000  0.090  0.000
 -0.000  0.284 -0.000  0.001 -0.000
  0.000 -0.000  0.081  0.001  0.000
  0.090  0.001  0.001  0.245  0.000
  0.000 -0.000  0.000  0.000  0.074
atomic mag. moment =     3.743352
atom   23   Tr[ns(na)] (up, down, total) =   4.70875  0.54632  5.25507
   spin  1
    eigenvalues:
  0.743  0.967  0.999  0.999  1.000
    eigenvectors:
  0.000  0.959  0.000  0.041  0.000
  0.000  0.000  0.000  0.000  1.000
  0.000  0.000  0.995  0.005  0.000
  0.000  0.041  0.004  0.954  0.000
  1.000  0.000  0.000  0.000  0.000
    occupations:
  0.969 -0.000  0.000  0.006 -0.000
 -0.000  1.000  0.000  0.000 -0.001
  0.000  0.000  0.999 -0.000  0.000
  0.006  0.000 -0.000  0.998  0.000
 -0.000 -0.001  0.000  0.000  0.743
   spin  2
    eigenvalues:
  0.052  0.055  0.061  0.111  0.267
    eigenvectors:
  0.000  0.050  0.000  0.950  0.000
  0.000  0.000  1.000  0.000  0.000
  0.998  0.002  0.000  0.000  0.000
  0.001  0.948  0.000  0.050  0.000
  0.000  0.000  0.000  0.000  1.000
    occupations:
  0.108  0.000 -0.000 -0.012  0.000
  0.000  0.061  0.000 -0.000  0.001
 -0.000  0.000  0.053 -0.000 -0.000
 -0.012 -0.000 -0.000  0.058 -0.000
  0.000  0.001 -0.000 -0.000  0.267
atomic mag. moment =     4.162434
N of occupied +U levels =  42.4076676
 --- exit write_ns ---

 ------ SPIN UP ------------

[...]

 ------ SPIN DOWN ----------

[...]

          k = 0.2500-0.4606 0.0000 ( 26462 PWs)   bands (ev):

[...]

          k =-0.2500 0.2303 0.0000 ( 26396 PWs)   bands (ev):

   -78.8869 -78.8834 -78.8793 -78.8755 -78.8055 -78.7969 -78.0942 -78.0478
   -47.8124 -47.7792 -47.7783 -47.7752 -47.7652 -47.7325 -47.7246 -47.7014
   -47.6827 -47.6815 -47.6628 -47.6450 -47.6213 -47.6105 -47.6039 -47.5945
   -47.4512 -47.4434 -47.1988 -47.0762 -47.0646 -46.9995 -46.5877 -46.5778
   -25.7731 -20.6830 -20.2419 -20.1745 -20.0266 -19.5876 -19.5244 -19.5163
   -19.4477 -19.2423 -19.2041 -19.1536 -19.0760 -18.9194 -18.8634 -18.8089
   -18.7455 -18.7159 -18.6044 -17.4836  -9.6829  -7.9122  -7.6999  -7.6765
    -7.5372  -7.3347  -7.3101  -7.1335  -6.9640  -6.7865  -6.5851  -6.4192
    -6.2616  -6.0990  -6.0878  -5.9615  -5.9000  -5.8962  -5.6524  -5.6199
    -5.5197  -5.4113  -5.3375  -5.1899  -5.1802  -5.0374  -4.9832  -4.8051
    -4.7727  -4.7557  -4.6614  -4.6251  -4.5513  -4.4486  -4.3099  -4.2838
    -4.1817  -4.1586  -4.0848  -4.0346  -3.8855  -3.7904  -3.6462  -3.5543
    -3.5443  -3.5132  -3.4214  -3.3689  -3.2650  -3.1149  -3.0247  -2.8785
    -2.8357  -2.7341  -2.6273  -2.6022  -2.4698  -2.4350  -2.1873   2.9246
     2.9616   3.0411   3.1015   3.1397   3.2305   3.2515   3.2861   3.3243
     3.3915   3.4011   3.4629   3.4673   3.5161   3.5233   3.5519   3.6136
     3.6465   3.7829   3.8345   3.8532   3.9239   3.9939   4.0110   4.0431
     4.1096   4.1502   4.1885   4.2488   4.2737   4.3542   4.3759   4.4067
     4.4406   4.4762   4.5172   4.5385   4.6128   4.6460   4.7121   4.7424
     4.8264   4.8548   4.9593   5.0023   5.3320   5.6516   5.7967   6.1447
     6.3119   6.4197   6.5587   6.6803   6.8157   6.9967   7.1597   7.5137
     7.6773   7.7555   7.8959   8.0701   8.2657   8.3906   8.4921   8.7373
     8.7622   8.8846   8.9698   9.1012   9.2633   9.5044   9.6182   9.6424
     9.7248   9.9093  10.0164  10.0613  10.1511  10.2753  10.2954  10.4176
    10.6190  10.7778  10.8260  10.8943  11.0713  11.1681  11.2099  11.3074
    11.4149  11.5803  11.6335  11.6722  11.7425  11.7889  11.9574  11.9941
    12.0289  12.1679  12.2815  12.3133  12.3871  12.4713  12.4971  12.6031
    12.6774  12.9469  13.0018  13.0588  13.1124  13.1764  13.3081  13.3798
    13.4453  13.4749  13.5557  13.5962  13.7182  13.8075  13.8745  13.9439
    14.0602  14.1018  14.1394  14.2637  14.3371  14.3765  14.4355  14.4543
    14.5218  14.6929  14.7705  14.7951  14.8681  14.9353  15.0253  15.1466
    15.1987  15.3447  15.3721  15.4531  15.5025  15.6264  15.6963  15.7842
    15.8308  15.8869  15.9940  16.0482  16.1464  16.2534  16.3083  16.4031
    16.5025  16.6158  16.6658  16.7091  16.8373  16.8842  17.0128  17.0425
    17.1043  17.1545  17.2411  17.2918  17.4402  17.4779  17.5291  17.6043
    17.6903  17.7165  17.8458  17.9371  17.9528  18.0057  18.1183  18.1232
    18.2333  18.2946  18.3639  18.4019  18.4660  18.5789  18.6835  18.7047
    18.7841  18.8768  18.9639  19.0264  19.0937  19.1447  19.2869  19.3083
    19.3503  19.4755  19.5364  19.6171  19.6396  19.8189  19.8966  19.9751
    20.0545  20.1161  20.1595  20.1945  20.2880  20.3485  20.4298  20.5045
    20.5674  20.5922  20.7009  20.7368  20.7844  20.9264  20.9880  21.1139
    21.1697  21.3001  21.3405  21.4076  21.4702  21.5502  21.6822  21.7507
    21.8170  21.8876  21.9656  21.9878  22.0885  22.1265  22.1868  22.2436
    22.3221  22.3880  22.4088  22.5343  22.6269  22.7071  22.7302  22.8018
    22.9061  22.9832  23.0498

     the spin up/dw Fermi energies are    -1.5412    0.1330 ev

!    total energy              =   -2351.65475384 Ry
     Harris-Foulkes estimate   =   -2351.65475385 Ry
     estimated scf accuracy    <          6.0E-09 Ry

     The total energy is the sum of the following terms:

     one-electron contribution =  -25498.17710703 Ry
     hartree contribution      =   12778.91277244 Ry
     xc contribution           =    -356.99178345 Ry
     ewald contribution        =   10722.67661957 Ry
     Hubbard energy            =       1.92538813 Ry
     smearing contrib. (-TS)   =      -0.00064350 Ry

     total magnetization       =    23.00 Bohr mag/cell
     absolute magnetization    =    40.02 Bohr mag/cell

     convergence has been achieved in  18 iterations

     Forces acting on atoms (Ry/au):

     negative rho (up, down):  0.130E-02 0.132E-02
     atom    1 type  1   force =    -0.00327792   -0.01009330    0.00006604
     atom    2 type  1   force =     0.00043993    0.00497798    0.00007220
     atom    3 type  2   force =     0.00297812    0.00226752   -0.00016358
     atom    4 type  2   force =     0.00501712    0.00858473    0.00023174
     atom    5 type  1   force =     0.00133223    0.00922116    0.00008479
     atom    6 type  1   force =    -0.00103863   -0.01506057    0.00005548
     atom    7 type  1   force =     0.00006173    0.00401417    0.00017345
     atom    8 type  1   force =    -0.00136428   -0.00319393    0.00047819
     atom    9 type  2   force =     0.00238018    0.00083664    0.00031879
     atom   10 type  2   force =    -0.00008779   -0.00175771   -0.00061834
     atom   11 type  1   force =    -0.00753878   -0.01110586   -0.00031292
     atom   12 type  1   force =    -0.00731494    0.01201264   -0.00022675
     atom   13 type  1   force =    -0.00045110   -0.00023560   -0.00029664
     atom   14 type  1   force =    -0.00350719   -0.01034895    0.00008933
     atom   15 type  1   force =     0.00045739    0.00530635    0.00036268
     atom   16 type  2   force =    -0.00448285    0.00242820   -0.00014988
     atom   17 type  2   force =     0.00513940    0.00868137    0.00023479
     atom   18 type  1   force =     0.00073999    0.00918853    0.00013045
     atom   19 type  1   force =    -0.00195434   -0.01515014    0.00007017
     atom   20 type  1   force =     0.00010302    0.00400716   -0.00008202
     atom   21 type  1   force =    -0.00127660   -0.00324465    0.00035010
     atom   22 type  2   force =    -0.00091539    0.00079629    0.00030568
     atom   23 type  2   force =    -0.00003164   -0.00185877   -0.00074999
     atom   24 type  1   force =     0.00760034   -0.01101133   -0.00031811
     atom   25 type  1   force =     0.00745823    0.01209673   -0.00021514
     atom   26 type  1   force =    -0.00044835   -0.00172844   -0.00057419
     atom   27 type  3   force =     0.00006174   -0.00005657   -0.00001623
     atom   28 type  3   force =     0.00002816   -0.00030130   -0.00012762
     atom   29 type  3   force =    -0.00006230    0.00009252   -0.00013783
     atom   30 type  3   force =    -0.00003674    0.00010411   -0.00003135
     atom   31 type  1   force =    -0.00002083    0.00038068    0.00057916
     atom   32 type  1   force =     0.00002416    0.00027844   -0.00001331
     atom   33 type  3   force =    -0.00001207   -0.00012807    0.00043084

     Total force =     0.001872     Total SCF correction =     0.000161

     entering subroutine stress ...

     negative rho (up, down):  0.130E-02 0.132E-02
          total   stress  (Ry/bohr**3)                   (kbar)     P=   42.39
   0.00047065  -0.00000109   0.00000236         69.24     -0.16      0.35
  -0.00000109   0.00043571   0.00000430         -0.16     64.10      0.63
   0.00000236   0.00000430  -0.00004196          0.35      0.63     -6.17

     bfgs converged in  27 scf cycles and  26 bfgs steps
     (criteria: energy < 0.10E-03, force < 0.10E-02)

     End of BFGS Geometry Optimization

     Final energy   =   -2351.6547538444 Ry
Begin final coordinates

ATOMIC_POSITIONS (crystal)
O0       0.000000000   0.000000000   0.368788673    0   0   1
O0       0.000000000   0.500000000   0.388638377    0   0   1
Mn1      0.250000000   0.500000000   0.443144834    0   0   1
Mn1      0.000000000   0.000000000   0.444466843    0   0   1
O0       0.250000000   0.800000000   0.441340033    0   0   1
O0       0.250000000   0.200000000   0.446822026    0   0   1
O0       0.000000000   0.500000000   0.492784337    0   0   1
O0       0.000000000   0.000000000   0.524226063    0   0   1
Mn1      0.250000000   0.000000000   0.574223422    0   0   1
Mn1      0.000000000   0.500000000   0.571261407    0   0   1
O0       0.250000000   0.700000000   0.586523504    0   0   1
O0       0.250000000   0.300000000   0.587015691    0   0   1
O0       0.000000000   0.000000000   0.625192369    0   0   1
O0       0.500000000   0.000000000   0.368692565    0   0   1
O0       0.500000000   0.500000000   0.388867422    0   0   1
Mn1      0.750000000   0.500000000   0.443147015    0   0   1
Mn1      0.500000000   0.000000000   0.444342531    0   0   1
O0       0.750000000   0.800000000   0.441334966    0   0   1
O0       0.750000000   0.200000000   0.446777709    0   0   1
O0       0.500000000   0.500000000   0.493744533    0   0   1
O0       0.500000000   0.000000000   0.524205794    0   0   1
Mn1      0.750000000   0.000000000   0.574223772    0   0   1
Mn1      0.500000000   0.500000000   0.574730734    0   0   1
O0       0.750000000   0.700000000   0.586542007    0   0   1
O0       0.750000000   0.300000000   0.587004430    0   0   1
O0       0.500000000   0.000000000   0.625014385    0   0   1
H2       0.000617185   0.648918316   0.373761627
H2       0.500682050   0.648907622   0.373971240
H2       0.160674368   0.048110828   0.358870463
H2       0.660679749   0.048007617   0.358762602
O0       0.498864432   0.538381741   0.680263202
O0       0.501610001   0.349656257   0.706056807
H2       0.499052868   0.394167603   0.742598617
End final coordinates

     General routines

     Parallel routines
     Hubbard U routines

   This run was terminated on:   1:56:15   8Jun2014

   JOB DONE.
Running PBS batch system epilogue script
Job id: 381441.audhumbla.fysik.dtu.dk
Username: zhonxu
Groupname: campgst
Jobname: MnO2/Eads-2-layers/OOH-U-7.5
Sessionid: 25769
Queuename: verylong
Accounting:
This job has allocated the following 16 nodes:
c057 c057 c057 c057 c057 c057 c057 c057 c026 c026 c026 c026 c026 c026 c026 c026
Finished epilogue job 381441.audhumbla.fysik.dtu.dk for zhonxu