     Program PWSCF v.5.0.2 (svn rev. 9656) starts on  5May2014 at 11:24:28

     Current dimensions of program PWSCF are:
     Max number of different atomic species (ntypx) = 10
     Max number of k-points (npk) =  40000
     Max angular momentum in pseudopotentials (lmaxx) =  3
     Reading input from pwscf.in
Warning: card &CELL ignored
Warning: card / ignored

     Subspace diagonalization in iterative solution of the eigenvalue problem:
     a serial algorithm will be used

     Found symmetry operation: I + ( -0.5000  0.0000  0.0000)
     This is a supercell, fractional translations are disabled

     bravais-lattice index     =            0
     lattice parameter (alat)  =      10.3179  a.u.
     unit-cell volume          =    6964.3238 (a.u.)^3
     number of atoms/cell      =           30
     number of atomic types    =            3
     number of electrons       =       224.00
     number of Kohn-Sham states=          336
     kinetic-energy cutoff     =      40.0000  Ry
     charge density cutoff     =     500.0000  Ry
     convergence threshold     =      1.0E-06
     mixing beta               =       0.7000
     number of iterations used =            8  plain     mixing
     Exchange-correlation      = SLA  PW   PBE  PBE ( 1 4 3 4 0)
     EXX-fraction              =        0.00
     nstep                     =           50

     celldm(1)=  10.317905  celldm(2)=   0.000000  celldm(3)=   0.000000
     celldm(4)=   0.000000  celldm(5)=   0.000000  celldm(6)=   0.000000

     crystal axes: (cart. coord. in units of alat)
               a(1) = (   1.000000   0.000000   0.000000 )
               a(2) = (   0.000000   1.282117   0.000000 )
               a(3) = (   0.000000   0.000000   4.945120 )

     reciprocal axes: (cart. coord. in units 2 pi/alat)
               b(1) = (  1.000000  0.000000  0.000000 )
               b(2) = (  0.000000  0.779960  0.000000 )
               b(3) = (  0.000000  0.000000  0.202220 )

     PseudoPot. # 1 for O  read from file:
     /home/camp/zhonxu/pseudo/o_pbe_v1.01.uspp.F.UPF
     MD5 check sum: 2bcb18d16ea4b960afae9ec6d52f22d2
     Pseudo is Ultrasoft + core correction, Zval =  6.0
     Generated by new atomic code, or converted to UPF format
     Using radial grid of  737 points,  5 beta functions with:
                l(1) =   0
                l(2) =   0
                l(3) =   1
                l(4) =   1
                l(5) =   2
     Q(r) pseudized with  8 coefficients,  rinner =    0.900   0.900   0.900
                                                       0.900   0.900

     PseudoPot. # 2 for Mo read from file:
     /home/camp/zhonxu/pseudo/mo_pbe_v1.uspp.F.UPF
     MD5 check sum: 30c4dcd161f5d35cd49bb5239c51a633
     Pseudo is Ultrasoft + core correction, Zval = 14.0
     Generated by new atomic code, or converted to UPF format
     Using radial grid of  889 points,  6 beta functions with:
                l(1) =   0
                l(2) =   0
                l(3) =   1
                l(4) =   1
                l(5) =   2
                l(6) =   2
     Q(r) pseudized with  6 coefficients,  rinner =    1.000   1.000   1.000
                                                       1.000   1.000

     PseudoPot. # 3 for H  read from file:
     /home/camp/zhonxu/pseudo/h_pbe_v1.uspp.F.UPF
     MD5 check sum: 3408e3ff4ec8b0a4e358431e7e038a48
     Pseudo is Ultrasoft, Zval =  1.0
     Generated by new atomic code, or converted to UPF format
     Using radial grid of  615 points,  2 beta functions with:
                l(1) =   0
                l(2) =   0
     Q(r) pseudized with  8 coefficients,  rinner =    0.700

     atomic species   valence    mass     pseudopotential
        O0             6.00    15.99940     O ( 1.00)
        Mo1           14.00    95.94000     Mo( 1.00)
        H2             1.00     1.00794     H ( 1.00)

     Simplified LDA+U calculation (l_max = 2) with parameters (eV):
     atomic species    L          U    alpha       J0     beta
        Mo1            2     2.5000   0.0000   0.0000   0.0000

     No symmetry found

   Cartesian axes

     site n.     atom                  positions (alat units)
         1           O0  tau(   1) = (   0.0000000   0.0000000   1.8465574  )
         2           O0  tau(   2) = (   0.0000000   0.6410583   1.8808271  )
         3           Mo1 tau(   3) = (   0.2500000   0.6410583   2.1650231  )
         4           Mo1 tau(   4) = (   0.0000000   0.0000000   2.2064633  )
         5           O0  tau(   5) = (   0.2500000   1.0000510   2.1927158  )
         6           O0  tau(   6) = (   0.2500000   0.2820657   2.1921224  )
         7           O0  tau(   7) = (   0.0000000   0.6410583   2.4520379  )
         8           O0  tau(   8) = (   0.0000000   0.0000000   2.5658746  )
         9           Mo1 tau(   9) = (   0.2500000   0.0000000   2.8596642  )
        10           Mo1 tau(  10) = (   0.0000000   0.6410583   2.7884050  )
        11           O0  tau(  11) = (   0.2500000   0.9231240   2.8369661  )
        12           O0  tau(  12) = (   0.2500000   0.3589927   2.8372628  )
        13           O0  tau(  13) = (   0.0000000   0.0000000   3.1104807  )
        14           O0  tau(  14) = (   0.5000000   0.0000000   1.8465574  )
        15           O0  tau(  15) = (   0.5000000   0.6410583   1.8808271  )
        16           Mo1 tau(  16) = (   0.7500000   0.6410583   2.1650231  )
        17           Mo1 tau(  17) = (   0.5000000   0.0000000   2.2064633  )
        18           O0  tau(  18) = (   0.7500000   1.0000510   2.1927158  )
        19           O0  tau(  19) = (   0.7500000   0.2820657   2.1921224  )
        20           O0  tau(  20) = (   0.5000000   0.6410583   2.4520379  )
        21           O0  tau(  21) = (   0.5000000   0.0000000   2.5658746  )
        22           Mo1 tau(  22) = (   0.7500000   0.0000000   2.8596642  )
        23           Mo1 tau(  23) = (   0.5000000   0.6410583   2.7884050  )
        24           O0  tau(  24) = (   0.7500000   0.9231240   2.8369661  )
        25           O0  tau(  25) = (   0.7500000   0.3589927   2.8372628  )
        26           O0  tau(  26) = (   0.5000000   0.0000000   3.1104807  )
        27           H2  tau(  27) = (  -0.0004900   0.7868222   1.7746059  )
        28           H2  tau(  28) = (   0.4995100   0.7868222   1.7746059  )
        29           H2  tau(  29) = (   0.1657500   0.0265270   1.7749026  )
        30           H2  tau(  30) = (   0.6657500   0.0265270   1.7749026  )

     number of k points=    10  Methfessel-Paxton smearing, width (Ry)=  0.0100
                       cart. coord. in units 2pi/alat
        k(    1) = (   0.0000000   0.0000000   0.0000000), wk =   0.1250000
        k(    2) = (   0.0000000   0.1949901   0.0000000), wk =   0.2500000
        k(    3) = (   0.0000000  -0.3899801   0.0000000), wk =   0.1250000
        k(    4) = (   0.2500000   0.0000000   0.0000000), wk =   0.2500000
        k(    5) = (   0.2500000   0.1949901   0.0000000), wk =   0.2500000
        k(    6) = (   0.2500000  -0.3899801   0.0000000), wk =   0.2500000
        k(    7) = (  -0.5000000   0.0000000   0.0000000), wk =   0.1250000
        k(    8) = (  -0.5000000   0.1949901   0.0000000), wk =   0.2500000
        k(    9) = (  -0.5000000  -0.3899801   0.0000000), wk =   0.1250000
        k(   10) = (  -0.2500000   0.1949901   0.0000000), wk =   0.2500000

     Largest allocated arrays     est. size (Mb)     dimensions
     Largest temporary arrays     est. size (Mb)     dimensions

     Check: negative/imaginary core charge=   -0.000003    0.000000

     Initial potential from superposition of free atoms
     Check: negative starting charge=   -0.002478

     starting charge  223.99143, renormalised to  224.00000

     negative rho (up, down):  0.248E-02 0.000E+00
     Number of +U iterations with fixed ns =  0
     Starting occupations:
 --- enter write_ns ---
 LDA+U parameters:
U( 2)     =  2.50000000
alpha( 2) =  0.00000000
atom    3   Tr[ns(na)] =   5.00000
    eigenvalues:
  0.500  0.500  0.500  0.500  0.500
    eigenvectors:
  1.000  0.000  0.000  0.000  0.000
  0.000  1.000  0.000  0.000  0.000
  0.000  0.000  1.000  0.000  0.000
  0.000  0.000  0.000  1.000  0.000
  0.000  0.000  0.000  0.000  1.000
    occupations:
  0.500  0.000  0.000  0.000  0.000
  0.000  0.500  0.000  0.000  0.000
  0.000  0.000  0.500  0.000  0.000
  0.000  0.000  0.000  0.500  0.000
  0.000  0.000  0.000  0.000  0.500
atom    4   Tr[ns(na)] =   5.00000
    eigenvalues:
  0.500  0.500  0.500  0.500  0.500
    eigenvectors:
  1.000  0.000  0.000  0.000  0.000
  0.000  1.000  0.000  0.000  0.000
  0.000  0.000  1.000  0.000  0.000
  0.000  0.000  0.000  1.000  0.000
  0.000  0.000  0.000  0.000  1.000
    occupations:
  0.500  0.000  0.000  0.000  0.000
  0.000  0.500  0.000  0.000  0.000
  0.000  0.000  0.500  0.000  0.000
  0.000  0.000  0.000  0.500  0.000
  0.000  0.000  0.000  0.000  0.500
atom    9   Tr[ns(na)] =   5.00000
    eigenvalues:
  0.500  0.500  0.500  0.500  0.500
    eigenvectors:
  1.000  0.000  0.000  0.000  0.000
  0.000  1.000  0.000  0.000  0.000
  0.000  0.000  1.000  0.000  0.000
  0.000  0.000  0.000  1.000  0.000
  0.000  0.000  0.000  0.000  1.000
    occupations:
  0.500  0.000  0.000  0.000  0.000
  0.000  0.500  0.000  0.000  0.000
  0.000  0.000  0.500  0.000  0.000
  0.000  0.000  0.000  0.500  0.000
  0.000  0.000  0.000  0.000  0.500
atom   10   Tr[ns(na)] =   5.00000
    eigenvalues:
  0.500  0.500  0.500  0.500  0.500
    eigenvectors:
  1.000  0.000  0.000  0.000  0.000
  0.000  1.000  0.000  0.000  0.000
  0.000  0.000  1.000  0.000  0.000
  0.000  0.000  0.000  1.000  0.000
  0.000  0.000  0.000  0.000  1.000
    occupations:
  0.500  0.000  0.000  0.000  0.000
  0.000  0.500  0.000  0.000  0.000
  0.000  0.000  0.500  0.000  0.000
  0.000  0.000  0.000  0.500  0.000
  0.000  0.000  0.000  0.000  0.500
atom   16   Tr[ns(na)] =   5.00000
    eigenvalues:
  0.500  0.500  0.500  0.500  0.500
    eigenvectors:
  1.000  0.000  0.000  0.000  0.000
  0.000  1.000  0.000  0.000  0.000
  0.000  0.000  1.000  0.000  0.000
  0.000  0.000  0.000  1.000  0.000
  0.000  0.000  0.000  0.000  1.000
    occupations:
  0.500  0.000  0.000  0.000  0.000
  0.000  0.500  0.000  0.000  0.000
  0.000  0.000  0.500  0.000  0.000
  0.000  0.000  0.000  0.500  0.000
  0.000  0.000  0.000  0.000  0.500
atom   17   Tr[ns(na)] =   5.00000
    eigenvalues:
  0.500  0.500  0.500  0.500  0.500
    eigenvectors:
  1.000  0.000  0.000  0.000  0.000
  0.000  1.000  0.000  0.000  0.000
  0.000  0.000  1.000  0.000  0.000
  0.000  0.000  0.000  1.000  0.000
  0.000  0.000  0.000  0.000  1.000
    occupations:
  0.500  0.000  0.000  0.000  0.000
  0.000  0.500  0.000  0.000  0.000
  0.000  0.000  0.500  0.000  0.000
  0.000  0.000  0.000  0.500  0.000
  0.000  0.000  0.000  0.000  0.500
atom   22   Tr[ns(na)] =   5.00000
    eigenvalues:
  0.500  0.500  0.500  0.500  0.500
    eigenvectors:
  1.000  0.000  0.000  0.000  0.000
  0.000  1.000  0.000  0.000  0.000
  0.000  0.000  1.000  0.000  0.000
  0.000  0.000  0.000  1.000  0.000
  0.000  0.000  0.000  0.000  1.000
    occupations:
[...]
  0.005  0.618  0.005 -0.001 -0.000
  0.001  0.005  0.460 -0.002  0.000
 -0.004 -0.001 -0.002  0.732  0.000
  0.000 -0.000  0.000  0.000  0.522
atom    9   Tr[ns(na)] =   5.83375
    eigenvalues:
  0.517  0.524  0.581  0.588  0.707
    eigenvectors:
  0.000  0.000  0.241  0.000  0.759
  0.000  0.000  0.000  1.000  0.000
  0.001  0.999  0.000  0.000  0.000
  0.000  0.000  0.759  0.000  0.241
  0.999  0.001  0.000  0.000  0.000
    occupations:
  0.677  0.000  0.002 -0.054 -0.002
  0.000  0.588 -0.000  0.000 -0.001
  0.002 -0.000  0.524 -0.001  0.000
 -0.054  0.000 -0.001  0.611  0.001
 -0.002 -0.001  0.000  0.001  0.517
atom   10   Tr[ns(na)] =   5.79064
    eigenvalues:
  0.494  0.499  0.505  0.645  0.752
    eigenvectors:
  0.223  0.772  0.000  0.000  0.005
  0.000  0.000  0.000  1.000  0.000
  0.776  0.224  0.000  0.000  0.000
  0.001  0.004  0.000  0.000  0.995
  0.000  0.000  1.000  0.000  0.000
    occupations:
  0.500  0.000 -0.002 -0.019 -0.000
  0.000  0.645 -0.001  0.000 -0.000
 -0.002 -0.001  0.495  0.000 -0.000
 -0.019  0.000  0.000  0.751  0.000
 -0.000 -0.000 -0.000  0.000  0.505
atom   16   Tr[ns(na)] =   5.83983
    eigenvalues:
  0.493  0.497  0.558  0.623  0.749
    eigenvectors:
  0.013  0.000  0.346  0.000  0.641
  0.002  0.997  0.000  0.000  0.000
  0.984  0.002  0.005  0.000  0.009
  0.000  0.000  0.649  0.000  0.351
  0.000  0.000  0.000  1.000  0.000
    occupations:
  0.680  0.000  0.022 -0.090  0.000
  0.000  0.497 -0.000 -0.000 -0.003
  0.022 -0.000  0.496 -0.011 -0.000
 -0.090 -0.000 -0.011  0.625  0.000
  0.000 -0.003 -0.000  0.000  0.623
atom   17   Tr[ns(na)] =   5.83138
    eigenvalues:
  0.460  0.522  0.583  0.619  0.732
    eigenvectors:
  0.000  0.000  0.983  0.016  0.001
  0.001  0.000  0.016  0.983  0.000
  0.999  0.000  0.000  0.001  0.000
  0.000  0.000  0.001  0.000  0.999
  0.000  1.000  0.000  0.000  0.000
    occupations:
  0.583  0.005  0.001 -0.005  0.000
  0.005  0.618  0.005 -0.001 -0.000
  0.001  0.005  0.460 -0.002  0.000
 -0.005 -0.001 -0.002  0.732  0.000
  0.000 -0.000  0.000  0.000  0.522
atom   22   Tr[ns(na)] =   5.83383
    eigenvalues:
  0.517  0.524  0.581  0.588  0.707
    eigenvectors:
  0.000  0.000  0.241  0.000  0.759
  0.000  0.000  0.000  1.000  0.000
  0.001  0.999  0.000  0.000  0.000
  0.000  0.000  0.759  0.000  0.241
  0.999  0.001  0.000  0.000  0.000
    occupations:
  0.677  0.000  0.002 -0.054 -0.002
  0.000  0.588 -0.000  0.000 -0.001
  0.002 -0.000  0.524 -0.001  0.000
 -0.054  0.000 -0.001  0.611  0.001
 -0.002 -0.001  0.000  0.001  0.517
atom   23   Tr[ns(na)] =   5.79053
    eigenvalues:
  0.494  0.499  0.505  0.645  0.752
    eigenvectors:
  0.223  0.772  0.000  0.000  0.005
  0.000  0.000  0.000  1.000  0.000
  0.776  0.224  0.000  0.000  0.000
  0.001  0.004  0.000  0.000  0.995
  0.000  0.000  1.000  0.000  0.000
    occupations:
  0.499  0.000 -0.002 -0.019 -0.000
  0.000  0.645 -0.001  0.000 -0.000
 -0.002 -0.001  0.495  0.000 -0.000
 -0.019  0.000  0.000  0.751  0.000
 -0.000 -0.000 -0.000  0.000  0.505
N of occupied +U levels =  46.5901784
 --- exit write_ns ---

     Threshold (ethr) on eigenvalues was too large:
     Diagonalizing with lowered threshold

     Davidson diagonalization with overlap
     ethr =  3.04E-09,  avg # of iterations =  3.0

[...]

     total energy              =   -1698.49031325 Ry
     Harris-Foulkes estimate   =   -1698.49031325 Ry
     estimated scf accuracy    <       0.00000003 Ry

     iteration # 12     ecut=    40.00 Ry     beta=0.70
     Davidson diagonalization with overlap
     ethr =  9.63E-12,  avg # of iterations =  1.0

     negative rho (up, down):  0.353E-02 0.000E+00

     End of self-consistent calculation
 --- enter write_ns ---
 LDA+U parameters:
U( 2)     =  2.50000000
alpha( 2) =  0.00000000
atom    3   Tr[ns(na)] =   5.84013
    eigenvalues:
  0.493  0.497  0.558  0.623  0.749
    eigenvectors:
  0.014  0.000  0.346  0.000  0.641
  0.002  0.997  0.000  0.000  0.000
  0.984  0.002  0.005  0.000  0.009
  0.000  0.000  0.649  0.000  0.351
  0.000  0.000  0.000  1.000  0.000
    occupations:
  0.680  0.000  0.022 -0.090  0.000
  0.000  0.497 -0.000 -0.000 -0.003
  0.022 -0.000  0.496 -0.011 -0.000
 -0.090 -0.000 -0.011  0.625  0.000
  0.000 -0.003 -0.000  0.000  0.623
atom    4   Tr[ns(na)] =   5.83114
    eigenvalues:
  0.460  0.522  0.583  0.618  0.732
    eigenvectors:
  0.000  0.000  0.982  0.017  0.001
  0.001  0.000  0.017  0.982  0.000
  0.999  0.000  0.000  0.001  0.000
  0.000  0.000  0.001  0.000  0.999
  0.000  1.000  0.000  0.000  0.000
    occupations:
  0.584  0.005  0.001 -0.005  0.000
  0.005  0.618  0.005 -0.001 -0.000
  0.001  0.005  0.460 -0.002  0.000
 -0.005 -0.001 -0.002  0.732  0.000
  0.000 -0.000  0.000  0.000  0.522
atom    9   Tr[ns(na)] =   5.83340
    eigenvalues:
  0.517  0.524  0.581  0.588  0.707
    eigenvectors:
  0.000  0.000  0.241  0.000  0.759
  0.000  0.000  0.000  1.000  0.000
  0.000  0.999  0.000  0.000  0.000
  0.000  0.000  0.759  0.000  0.241
  0.999  0.000  0.000  0.000  0.000
    occupations:
  0.677  0.000  0.002 -0.054 -0.002
  0.000  0.588 -0.000  0.000 -0.001
  0.002 -0.000  0.524 -0.001  0.000
 -0.054  0.000 -0.001  0.611  0.001
 -0.002 -0.001  0.000  0.001  0.517
atom   10   Tr[ns(na)] =   5.79037
    eigenvalues:
  0.494  0.499  0.505  0.645  0.752
    eigenvectors:
  0.225  0.770  0.000  0.000  0.005
  0.000  0.000  0.000  1.000  0.000
  0.774  0.226  0.000  0.000  0.000
  0.001  0.004  0.000  0.000  0.995
  0.000  0.000  1.000  0.000  0.000
    occupations:
  0.499  0.000 -0.002 -0.019 -0.000
  0.000  0.645 -0.001  0.000 -0.000
 -0.002 -0.001  0.495  0.000 -0.000
 -0.019  0.000  0.000  0.751  0.000
 -0.000 -0.000 -0.000  0.000  0.505
atom   16   Tr[ns(na)] =   5.84016
    eigenvalues:
  0.493  0.497  0.558  0.623  0.749
    eigenvectors:
  0.014  0.000  0.346  0.000  0.641
  0.002  0.997  0.000  0.000  0.000
  0.984  0.002  0.005  0.000  0.009
  0.000  0.000  0.649  0.000  0.351
  0.000  0.000  0.000  1.000  0.000
    occupations:
  0.680  0.000  0.022 -0.090  0.000
  0.000  0.497 -0.000 -0.000 -0.003
  0.022 -0.000  0.496 -0.011 -0.000
 -0.090 -0.000 -0.011  0.625  0.000
  0.000 -0.003 -0.000  0.000  0.623
atom   17   Tr[ns(na)] =   5.83112
    eigenvalues:
  0.460  0.522  0.583  0.618  0.732
    eigenvectors:
  0.000  0.000  0.982  0.017  0.001
  0.001  0.000  0.017  0.982  0.000
  0.999  0.000  0.000  0.001  0.000
  0.000  0.000  0.001  0.000  0.999
  0.000  1.000  0.000  0.000  0.000
    occupations:
  0.584  0.005  0.001 -0.005  0.000
  0.005  0.618  0.005 -0.001 -0.000
  0.001  0.005  0.460 -0.002  0.000
 -0.005 -0.001 -0.002  0.732  0.000
  0.000 -0.000  0.000  0.000  0.522
atom   22   Tr[ns(na)] =   5.83339
    eigenvalues:
  0.517  0.524  0.581  0.588  0.707
    eigenvectors:
  0.000  0.000  0.241  0.000  0.759
  0.000  0.000  0.000  1.000  0.000
  0.001  0.999  0.000  0.000  0.000
  0.000  0.000  0.759  0.000  0.241
  0.999  0.001  0.000  0.000  0.000
    occupations:
  0.677  0.000  0.002 -0.054 -0.002
  0.000  0.588 -0.000  0.000 -0.001
  0.002 -0.000  0.524 -0.001  0.000
 -0.054  0.000 -0.001  0.611  0.001
 -0.002 -0.001  0.000  0.001  0.517
atom   23   Tr[ns(na)] =   5.79031
    eigenvalues:
  0.494  0.499  0.505  0.645  0.752
    eigenvectors:
  0.225  0.769  0.000  0.000  0.005
  0.000  0.000  0.000  1.000  0.000
  0.773  0.226  0.000  0.000  0.000
  0.001  0.004  0.000  0.000  0.995
  0.000  0.000  1.000  0.000  0.000
    occupations:
  0.499  0.000 -0.002 -0.019 -0.000
  0.000  0.645 -0.001  0.000 -0.000
 -0.002 -0.001  0.495  0.000 -0.000
 -0.019  0.000  0.000  0.751  0.000
 -0.000 -0.000 -0.000  0.000  0.505
N of occupied +U levels =  46.5900076
 --- exit write_ns ---

[...]

          k = 0.2500-0.3900 0.0000 ( 29726 PWs)   bands (ev):

[...]

          k =-0.2500 0.1950 0.0000 ( 29746 PWs)   bands (ev):

   -62.2841 -62.2515 -62.1976 -62.1700 -62.1238 -62.0792 -62.0418 -61.9971
   -36.8298 -36.7678 -36.6892 -36.6823 -36.6078 -36.5011 -36.4760 -36.4226
   -36.3991 -36.3917 -36.3520 -36.3153 -36.2888 -36.2669 -36.2401 -36.2178
   -36.2075 -36.1261 -36.1141 -36.0522 -36.0417 -35.7828 -35.7371 -35.6937
   -20.7745 -20.5241 -19.9004 -19.6988 -19.6549 -19.5914 -19.4515 -19.3766
   -19.2565 -19.1154 -19.0450 -18.8675 -18.8070 -18.7948 -18.6549 -18.5700
   -18.1031 -17.9504  -8.8002  -8.6426  -8.0517  -7.8158  -7.6583  -7.6469
    -7.5545  -7.4700  -7.3365  -7.2659  -7.1934  -7.1223  -6.9218  -6.8882
    -6.6778  -6.3213  -6.2270  -6.1372  -6.1054  -5.9543  -5.8585  -5.8449
    -5.7172  -5.5794  -5.4508  -5.3414  -5.2688  -5.2171  -5.0199  -4.9336
    -4.7565  -4.6268  -4.5990  -4.4864  -4.4052  -4.3410  -4.3018  -4.2363
    -4.1621  -4.1365  -4.0539  -3.9061  -3.8039  -3.7002  -3.4914  -3.3576
    -3.3411  -3.2674  -3.1863  -3.0369  -2.9937  -2.7586  -2.6538  -2.4587
    -1.9498  -1.7747  -1.5528  -0.7468  -0.6102  -0.4509  -0.3233   0.1375
     0.1819   0.5228   0.7723   0.7780   0.9735   1.0782   1.1713   1.3857
     1.4852   1.5111   1.5689   1.6625   1.7981   1.8425   1.9764   2.0367
     2.3326   2.4943   3.3306   3.4722   3.7212   3.7214   3.9214   4.0699
     4.3371   4.3828   4.5565   4.6189   4.7067   4.8374   4.9452   5.1772
     5.5314   5.6846   5.7608   5.8914   5.9222   6.0906   6.3139   6.4055
     6.5564   6.6622   6.9684   6.9973   7.1072   7.2690   7.5157   7.5999
     7.9223   7.9351   8.1859   8.2804   8.2835   8.4753   8.6421   8.6554
     8.9105   8.9969   9.0678   9.2947   9.3940   9.4234   9.5044   9.5518
     9.5701   9.6041   9.8331   9.9773  10.0333  10.1839  10.2318  10.2732
    10.4758  10.4935  10.6327  10.7243  10.7351  10.9414  11.0671  11.0863
    11.0915  11.2484  11.5317  11.6051  11.6126  11.7389  11.8048  11.9114
    11.9585  12.0774  12.2708  12.3092  12.3441  12.3653  12.4493  12.6046
    12.6772  12.7512  12.8644  12.8923  12.9737  13.0810  13.1091  13.1902
    13.3227  13.4270  13.4326  13.4993  13.5107  13.6313  13.6646  13.7260
    13.8583  13.8869  13.9630  13.9866  14.1261  14.1519  14.2441  14.3479
    14.3933  14.4496  14.5044  14.5646  14.6083  14.7329  14.8404  14.8495
    14.9522  15.0452  15.0547  15.2110  15.2937  15.4044  15.4928  15.5454
    15.6438  15.6590  15.7576  15.8310  15.8915  15.9550  16.0445  16.0975
    16.1959  16.2735  16.2887  16.3410  16.3753  16.4479  16.5791  16.7024
    16.7155  16.7705  16.7734  16.8891  17.0051  17.0953  17.1814  17.1960
    17.2245  17.3097  17.3455  17.4080  17.4962  17.6796  17.6890  17.7949
    17.9013  17.9139  18.0954  18.0976  18.1827  18.2396  18.3358  18.3662
    18.4188  18.4336  18.5275  18.5606  18.6125  18.7899  18.8677  19.0127
    19.0629  19.1192  19.1414  19.2535  19.3019  19.4956  19.5678  19.5997
    19.7115  19.7775  19.8068  19.9052  19.9628  20.0683  20.1454  20.1559
    20.1974  20.2590  20.3391  20.3751  20.4087  20.4245  20.5140  20.5194
    20.6520  20.6946  20.7396  20.8189  20.9283  20.9642  21.0259  21.0692
    21.1143  21.1990  21.2126  21.2993  21.4250  21.4716  21.5535  21.6417

     the Fermi energy is     0.1129 ev

!    total energy              =   -1698.49031325 Ry
     Harris-Foulkes estimate   =   -1698.49031325 Ry
     estimated scf accuracy    <          3.0E-09 Ry

     The total energy is the sum of the following terms:

     one-electron contribution =  -21421.97044750 Ry
     hartree contribution      =   10732.74741391 Ry
     xc contribution           =    -286.62232044 Ry
     ewald contribution        =    9275.62901161 Ry
     Hubbard energy            =       1.72710316 Ry
     smearing contrib. (-TS)   =      -0.00107398 Ry

     convergence has been achieved in  12 iterations

     Forces acting on atoms (Ry/au):

     negative rho (up, down):  0.353E-02 0.000E+00
     atom    1 type  1   force =    -0.00240201   -0.00519937   -0.00032217
     atom    2 type  1   force =    -0.00005766    0.00996760    0.00021693
     atom    3 type  2   force =    -0.00028431   -0.00580319    0.00061629
     atom    4 type  2   force =    -0.00078452    0.00298183   -0.00016941
     atom    5 type  1   force =     0.00163093   -0.00670603   -0.00004247
     atom    6 type  1   force =     0.00002318    0.00435551   -0.00003063
     atom    7 type  1   force =     0.00021139    0.00062926   -0.00023911
     atom    8 type  1   force =     0.00316673    0.00077772    0.00029531
     atom    9 type  2   force =    -0.00194684   -0.00040035   -0.00006576
     atom   10 type  2   force =     0.00000102    0.00081969    0.00045478
     atom   11 type  1   force =    -0.00021090   -0.04242084    0.00014467
     atom   12 type  1   force =     0.00029548    0.04149717    0.00015476
     atom   13 type  1   force =    -0.00016560    0.00019298   -0.00041453
     atom   14 type  1   force =    -0.00240256   -0.00520045   -0.00030920
     atom   15 type  1   force =    -0.00006227    0.00995987    0.00021807
     atom   16 type  2   force =    -0.00029730   -0.00580355    0.00061727
     atom   17 type  2   force =    -0.00078193    0.00298230   -0.00017160
     atom   18 type  1   force =     0.00163565   -0.00670302   -0.00004226
     atom   19 type  1   force =     0.00002485    0.00435264   -0.00003076
     atom   20 type  1   force =     0.00020855    0.00062924   -0.00021988
     atom   21 type  1   force =     0.00316465    0.00077869    0.00028492
     atom   22 type  2   force =    -0.00197211   -0.00040051   -0.00006594
     atom   23 type  2   force =     0.00000009    0.00081942    0.00045028
     atom   24 type  1   force =    -0.00021248   -0.04242091    0.00014544
     atom   25 type  1   force =     0.00029612    0.04149732    0.00015525
     atom   26 type  1   force =    -0.00016575    0.00019195   -0.00042155
     atom   27 type  3   force =    -0.00000143   -0.00029017   -0.00075323
     atom   28 type  3   force =    -0.00000149   -0.00028556   -0.00075543
     atom   29 type  3   force =     0.00054633   -0.00039961    0.00014995
     atom   30 type  3   force =     0.00054416   -0.00039964    0.00015002

     Total force =     0.002124     Total SCF correction =     0.000232
     SCF correction compared to forces is large: reduce conv_thr to get better values

     bfgs converged in   5 scf cycles and   4 bfgs steps
     (criteria: energy < 0.10E-03, force < 0.10E-02)

     End of BFGS Geometry Optimization

     Final energy   =   -1698.4903132473 Ry
Begin final coordinates

ATOMIC_POSITIONS (crystal)
O0       0.000000000   0.000000000   0.373492019    0   0   1
O0       0.000000000   0.500000000   0.380354013    0   0   1
Mo1      0.250000000   0.500000000   0.437726771    0   0   1
Mo1      0.000000000   0.000000000   0.446097801    0   0   1
O0       0.250000000   0.780000000   0.443447044    0   0   1
O0       0.250000000   0.220000000   0.443330441    0   0   1
O0       0.000000000   0.500000000   0.496110551    0   0   1
O0       0.000000000   0.000000000   0.518461090    0   0   1
Mo1      0.250000000   0.000000000   0.578316672    0   0   1
Mo1      0.000000000   0.500000000   0.563822672    0   0   1
O0       0.250000000   0.720000000   0.573742068    0   0   1
O0       0.250000000   0.280000000   0.573803630    0   0   1
O0       0.000000000   0.000000000   0.629043982    0   0   1
O0       0.500000000   0.000000000   0.373491842    0   0   1
O0       0.500000000   0.500000000   0.380352670    0   0   1
Mo1      0.750000000   0.500000000   0.437726751    0   0   1
Mo1      0.500000000   0.000000000   0.446097874    0   0   1
O0       0.750000000   0.780000000   0.443447069    0   0   1
O0       0.750000000   0.220000000   0.443330411    0   0   1
O0       0.500000000   0.500000000   0.496110508    0   0   1
O0       0.500000000   0.000000000   0.518461897    0   0   1
Mo1      0.750000000   0.000000000   0.578316971    0   0   1
Mo1      0.500000000   0.500000000   0.563822782    0   0   1
O0       0.750000000   0.720000000   0.573742065    0   0   1
O0       0.750000000   0.280000000   0.573803602    0   0   1
O0       0.500000000   0.000000000   0.629045511    0   0   1
H2      -0.000490409   0.613353004   0.358779599
H2       0.499509543   0.613355145   0.358779143
H2       0.165951548   0.020429992   0.359011339
H2       0.665951673   0.020430093   0.359011213
End final coordinates

     General routines

     Parallel routines
     Hubbard U routines

   This run was terminated on:  15:11:19   5May2014

   JOB DONE.
Running PBS batch system epilogue script
Job id: 340745.audhumbla.fysik.dtu.dk
Username: zhonxu
Groupname: campgst
Jobname: MoO2/Eads-2-layers/bare-U-2.5
Sessionid: 13667
Queuename: verylong
Accounting:
This job has allocated the following 16 nodes:
a076 a076 a076 a076 a076 a076 a076 a076 a072 a072 a072 a072 a072 a072 a072 a072
Finished epilogue job 340745.audhumbla.fysik.dtu.dk for zhonxu