     Program PWSCF v.5.0.2 (svn rev. 9656) starts on  8May2014 at 23:40: 8

     Current dimensions of program PWSCF are:
     Max number of different atomic species (ntypx) = 10
     Max number of k-points (npk) =  40000
     Max angular momentum in pseudopotentials (lmaxx) =  3
     Reading input from pwscf.in
Warning: card &CELL ignored
Warning: card / ignored

     Subspace diagonalization in iterative solution of the eigenvalue problem:
     a serial algorithm will be used

     bravais-lattice index     =            0
     lattice parameter (alat)  =      11.1872  a.u.
     unit-cell volume          =    7531.8600 (a.u.)^3
     number of atoms/cell      =           30
     number of atomic types    =            3
     number of electrons       =       216.00
     number of Kohn-Sham states=          324
     kinetic-energy cutoff     =      40.0000  Ry
     charge density cutoff     =     500.0000  Ry
     convergence threshold     =      1.0E-06
     mixing beta               =       0.7000
     number of iterations used =            8  plain     mixing
     Exchange-correlation      = SLA  PW   PBE  PBE ( 1 4 3 4 0)
     EXX-fraction              =        0.00
     nstep                     =           50

     celldm(1)=  11.187179  celldm(2)=   0.000000  celldm(3)=   0.000000
     celldm(4)=   0.000000  celldm(5)=   0.000000  celldm(6)=   0.000000

     crystal axes: (cart. coord. in units of alat)
               a(1) = (   1.000000   0.000000   0.000000 )
               a(2) = (   0.000000   1.180104   0.000000 )
               a(3) = (   0.000000   0.000000   4.558482 )

     reciprocal axes: (cart. coord. in units 2 pi/alat)
               b(1) = (  1.000000  0.000000  0.000000 )
               b(2) = (  0.000000  0.847383  0.000000 )
               b(3) = (  0.000000  0.000000  0.219371 )

     PseudoPot. # 1 for O  read from file:
     /home/camp/zhonxu/pseudo/o_pbe_v1.01.uspp.F.UPF
     MD5 check sum: 2bcb18d16ea4b960afae9ec6d52f22d2
     Pseudo is Ultrasoft + core correction, Zval =  6.0
     Generated by new atomic code, or converted to UPF format
     Using radial grid of  737 points,  5 beta functions with:
                l(1) =   0
                l(2) =   0
                l(3) =   1
                l(4) =   1
                l(5) =   2
     Q(r) pseudized with  8 coefficients,  rinner =    0.900   0.900   0.900
                                                       0.900   0.900

     PseudoPot. # 2 for Nb read from file:
     /home/camp/zhonxu/pseudo/nb_pbe_v1.uspp.F.UPF
     MD5 check sum: 573aab8a2fa660278ed4a62cd769473f
     Pseudo is Ultrasoft + core correction, Zval = 13.0
     Generated by new atomic code, or converted to UPF format
     Using radial grid of  887 points,  6 beta functions with:
                l(1) =   0
                l(2) =   0
                l(3) =   1
                l(4) =   1
                l(5) =   2
                l(6) =   2
     Q(r) pseudized with  6 coefficients,  rinner =    1.000   1.000   1.000
                                                       1.000   1.000

     PseudoPot. # 3 for H  read from file:
     /home/camp/zhonxu/pseudo/h_pbe_v1.uspp.F.UPF
     MD5 check sum: 3408e3ff4ec8b0a4e358431e7e038a48
     Pseudo is Ultrasoft, Zval =  1.0
     Generated by new atomic code, or converted to UPF format
     Using radial grid of  615 points,  2 beta functions with:
                l(1) =   0
                l(2) =   0
     Q(r) pseudized with  8 coefficients,  rinner =    0.700

     atomic species   valence    mass     pseudopotential
        O0             6.00    15.99940     O ( 1.00)
        Nb1           13.00    92.90640     Nb( 1.00)
        H2             1.00     1.00794     H ( 1.00)

     Simplified LDA+U calculation (l_max = 2) with parameters (eV):
     atomic species    L          U    alpha       J0     beta
        Nb1            2     1.0000   0.0000   0.0000   0.0000

     No symmetry found

   Cartesian axes

     site n.     atom                  positions (alat units)
         1           O0  tau(   1) = (   0.0000000   0.0000000   1.7080633  )
         2           O0  tau(   2) = (   0.0000000   0.5900519   1.7583889  )
         3           Nb1 tau(   3) = (   0.2500000   0.5900519   2.0066439  )
         4           Nb1 tau(   4) = (   0.0000000   0.0000000   2.0401487  )
         5           O0  tau(   5) = (   0.2500000   0.9322821   2.0429294  )
         6           O0  tau(   6) = (   0.2500000   0.2478218   2.0431118  )
         7           O0  tau(   7) = (   0.0000000   0.5900519   2.2709903  )
         8           O0  tau(   8) = (   0.0000000   0.0000000   2.3999042  )
         9           Nb1 tau(   9) = (   0.2500000   0.0000000   2.6489340  )
        10           Nb1 tau(  10) = (   0.0000000   0.5900519   2.5868019  )
        11           O0  tau(  11) = (   0.2500000   0.8378738   2.6444667  )
        12           O0  tau(  12) = (   0.2500000   0.3422301   2.6445123  )
        13           O0  tau(  13) = (   0.0000000   0.0000000   2.8518777  )
        14           O0  tau(  14) = (   0.5000000   0.0000000   1.7080633  )
        15           O0  tau(  15) = (   0.5000000   0.5900519   1.7583889  )
        16           Nb1 tau(  16) = (   0.7500000   0.5900519   2.0066439  )
        17           Nb1 tau(  17) = (   0.5000000   0.0000000   2.0401487  )
        18           O0  tau(  18) = (   0.7500000   0.9322821   2.0429294  )
        19           O0  tau(  19) = (   0.7500000   0.2478218   2.0431118  )
        20           O0  tau(  20) = (   0.5000000   0.5900519   2.2709903  )
        21           O0  tau(  21) = (   0.5000000   0.0000000   2.3999497  )
        22           Nb1 tau(  22) = (   0.7500000   0.0000000   2.6489340  )
        23           Nb1 tau(  23) = (   0.5000000   0.5900519   2.5867563  )
        24           O0  tau(  24) = (   0.7500000   0.8378738   2.6444667  )
        25           O0  tau(  25) = (   0.7500000   0.3422301   2.6445123  )
        26           O0  tau(  26) = (   0.5000000   0.0000000   2.8518777  )
        27           H2  tau(  27) = (  -0.0004200   0.5934860   1.5928705  )
        28           H2  tau(  28) = (   0.4995800   0.5932146   1.5928249  )
        29           H2  tau(  29) = (   0.1513000  -0.0014397   1.6372701  )
        30           H2  tau(  30) = (   0.6512900  -0.0014397   1.6372701  )

     number of k points=    10  Methfessel-Paxton smearing, width (Ry)=  0.0100
                       cart. coord. in units 2pi/alat
        k(    1) = (   0.0000000   0.0000000   0.0000000), wk =   0.1250000
        k(    2) = (   0.0000000   0.2118458   0.0000000), wk =   0.2500000
        k(    3) = (   0.0000000  -0.4236915   0.0000000), wk =   0.1250000
        k(    4) = (   0.2500000   0.0000000   0.0000000), wk =   0.2500000
        k(    5) = (   0.2500000   0.2118458   0.0000000), wk =   0.2500000
        k(    6) = (   0.2500000  -0.4236915   0.0000000), wk =   0.2500000
        k(    7) = (  -0.5000000   0.0000000   0.0000000), wk =   0.1250000
        k(    8) = (  -0.5000000   0.2118458   0.0000000), wk =   0.2500000
        k(    9) = (  -0.5000000  -0.4236915   0.0000000), wk =   0.1250000
        k(   10) = (  -0.2500000   0.2118458   0.0000000), wk =   0.2500000

     Largest allocated arrays     est. size (Mb)     dimensions
     Largest temporary arrays     est. size (Mb)     dimensions

     Check: negative/imaginary core charge=   -0.000003    0.000000

     Initial potential from superposition of free atoms
     Check: negative starting charge=   -0.003843

     starting charge  215.97807, renormalised to  216.00000

     negative rho (up, down):  0.384E-02 0.000E+00
     Number of +U iterations with fixed ns =  0
     Starting occupations:
 --- enter write_ns ---
 LDA+U parameters:
U( 2)     =  1.00000000
alpha( 2) =  0.00000000
atom    3   Tr[ns(na)] =   3.00000
    eigenvalues:
  0.300  0.300  0.300  0.300  0.300
    eigenvectors:
  1.000  0.000  0.000  0.000  0.000
  0.000  1.000  0.000  0.000  0.000
  0.000  0.000  1.000  0.000  0.000
  0.000  0.000  0.000  1.000  0.000
  0.000  0.000  0.000  0.000  1.000
    occupations:
  0.300  0.000  0.000  0.000  0.000
  0.000  0.300  0.000  0.000  0.000
  0.000  0.000  0.300  0.000  0.000
  0.000  0.000  0.000  0.300  0.000
  0.000  0.000  0.000  0.000  0.300
atom    4   Tr[ns(na)] =   3.00000
    eigenvalues:
  0.300  0.300  0.300  0.300  0.300
    eigenvectors:
  1.000  0.000  0.000  0.000  0.000
  0.000  1.000  0.000  0.000  0.000
  0.000  0.000  1.000  0.000  0.000
  0.000  0.000  0.000  1.000  0.000
  0.000  0.000  0.000  0.000  1.000
    occupations:
  0.300  0.000  0.000  0.000  0.000
  0.000  0.300  0.000  0.000  0.000
  0.000  0.000  0.300  0.000  0.000
  0.000  0.000  0.000  0.300  0.000
  0.000  0.000  0.000  0.000  0.300
atom    9   Tr[ns(na)] =   3.00000
    eigenvalues:
  0.300  0.300  0.300  0.300  0.300
    eigenvectors:
  1.000  0.000  0.000  0.000  0.000
  0.000  1.000  0.000  0.000  0.000
  0.000  0.000  1.000  0.000  0.000
  0.000  0.000  0.000  1.000  0.000
  0.000  0.000  0.000  0.000  1.000
    occupations:
  0.300  0.000  0.000  0.000  0.000
  0.000  0.300  0.000  0.000  0.000
  0.000  0.000  0.300  0.000  0.000
  0.000  0.000  0.000  0.300  0.000
  0.000  0.000  0.000  0.000  0.300
atom   10   Tr[ns(na)] =   3.00000
    eigenvalues:
  0.300  0.300  0.300  0.300  0.300
    eigenvectors:
  1.000  0.000  0.000  0.000  0.000
  0.000  1.000  0.000  0.000  0.000
  0.000  0.000  1.000  0.000  0.000
  0.000  0.000  0.000  1.000  0.000
  0.000  0.000  0.000  0.000  1.000
    occupations:
  0.300  0.000  0.000  0.000  0.000
  0.000  0.300  0.000  0.000  0.000
  0.000  0.000  0.300  0.000  0.000
  0.000  0.000  0.000  0.300  0.000
  0.000  0.000  0.000  0.000  0.300
atom   16   Tr[ns(na)] =   3.00000
    eigenvalues:
  0.300  0.300  0.300  0.300  0.300
    eigenvectors:
  1.000  0.000  0.000  0.000  0.000
  0.000  1.000  0.000  0.000  0.000
  0.000  0.000  1.000  0.000  0.000
  0.000  0.000  0.000  1.000  0.000
  0.000  0.000  0.000  0.000  1.000
    occupations:
  0.300  0.000  0.000  0.000  0.000
  0.000  0.300  0.000  0.000  0.000
  0.000  0.000  0.300  0.000  0.000
  0.000  0.000  0.000  0.300  0.000
  0.000  0.000  0.000  0.000  0.300
atom   17   Tr[ns(na)] =   3.00000
    eigenvalues:
  0.300  0.300  0.300  0.300  0.300
    eigenvectors:
  1.000  0.000  0.000  0.000  0.000
  0.000  1.000  0.000  0.000  0.000
  0.000  0.000  1.000  0.000  0.000
  0.000  0.000  0.000  1.000  0.000
  0.000  0.000  0.000  0.000  1.000
    occupations:
  0.300  0.000  0.000  0.000  0.000
  0.000  0.300  0.000  0.000  0.000
  0.000  0.000  0.300  0.000  0.000
  0.000  0.000  0.000  0.300  0.000
  0.000  0.000  0.000  0.000  0.300
atom   22   Tr[ns(na)] =   3.00000
    eigenvalues:
  0.300  0.300  0.300  0.300  0.300
    eigenvectors:
  1.000  0.000  0.000  0.000  0.000
  0.000  1.000  0.000  0.000  0.000
  0.000  0.000  1.000  0.000  0.000
  0.000  0.000  0.000  1.000  0.000
  0.000  0.000  0.000  0.000  1.000
    occupations:
  0.300  0.000  0.000  0.000  0.000
  0.000  0.300  0.000  0.000  0.000
  0.000  0.000  0.300  0.000  0.000
  0.000  0.000  0.000  0.300  0.000
[...]
  0.000  0.995  0.000  0.005  0.001
  1.000  0.000  0.000  0.000  0.000
  0.000  0.001  0.000  0.000  0.999
  0.000  0.000  1.000  0.000  0.000
    occupations:
  0.576  0.008 -0.000 -0.000 -0.000
  0.008  0.455  0.000 -0.005 -0.000
 -0.000  0.000  0.419  0.000  0.001
 -0.000 -0.005  0.000  0.626  0.000
 -0.000 -0.000  0.001  0.000  0.547
atom    9   Tr[ns(na)] =   5.28920
    eigenvalues:
  0.457  0.469  0.515  0.599  0.604
    eigenvectors:
  0.884  0.000  0.000  0.116  0.000
  0.000  0.000  0.000  0.000  1.000
  0.000  0.000  1.000  0.000  0.000
  0.116  0.000  0.000  0.884  0.000
  0.000  1.000  0.000  0.000  0.000
    occupations:
  0.474 -0.000 -0.000  0.045  0.000
 -0.000  0.604  0.000 -0.000  0.000
 -0.000  0.000  0.515  0.000  0.000
  0.045 -0.000  0.000  0.583 -0.000
  0.000  0.000  0.000 -0.000  0.469
atom   10   Tr[ns(na)] =   5.14192
    eigenvalues:
  0.403  0.501  0.513  0.520  0.634
    eigenvectors:
  0.000  0.997  0.000  0.000  0.003
  0.000  0.000  1.000  0.000  0.000
  1.000  0.000  0.000  0.000  0.000
  0.000  0.003  0.000  0.000  0.997
  0.000  0.000  0.000  1.000  0.000
    occupations:
  0.501  0.000  0.000 -0.007  0.000
  0.000  0.513 -0.000 -0.000 -0.000
  0.000 -0.000  0.403 -0.000  0.000
 -0.007 -0.000 -0.000  0.634 -0.000
  0.000 -0.000  0.000 -0.000  0.520
atom   16   Tr[ns(na)] =   5.21337
    eigenvalues:
  0.396  0.433  0.499  0.557  0.721
    eigenvectors:
  0.000  0.000  0.000  0.421  0.579
  0.000  0.000  1.000  0.000  0.000
  0.013  0.987  0.000  0.000  0.000
  0.000  0.000  0.000  0.579  0.421
  0.987  0.013  0.000  0.000  0.000
    occupations:
  0.652  0.000  0.001 -0.081  0.000
  0.000  0.499  0.000  0.000  0.000
  0.001  0.000  0.432 -0.000 -0.004
 -0.081  0.000 -0.000  0.626 -0.000
  0.000  0.000 -0.004 -0.000  0.397
atom   17   Tr[ns(na)] =   5.24420
    eigenvalues:
  0.419  0.454  0.547  0.576  0.626
    eigenvectors:
  0.000  0.005  0.000  0.995  0.000
  0.000  0.995  0.000  0.005  0.001
  1.000  0.000  0.000  0.000  0.000
  0.000  0.001  0.000  0.000  0.999
  0.000  0.000  1.000  0.000  0.000
    occupations:
  0.576  0.008 -0.000 -0.000 -0.000
  0.008  0.455  0.000 -0.005 -0.000
 -0.000  0.000  0.419  0.000  0.001
 -0.000 -0.005  0.000  0.626  0.000
 -0.000 -0.000  0.001  0.000  0.547
atom   22   Tr[ns(na)] =   5.28920
    eigenvalues:
  0.457  0.469  0.515  0.599  0.604
    eigenvectors:
  0.884  0.000  0.000  0.116  0.000
  0.000  0.000  0.000  0.000  1.000
  0.000  0.000  1.000  0.000  0.000
  0.116  0.000  0.000  0.884  0.000
  0.000  1.000  0.000  0.000  0.000
    occupations:
  0.474 -0.000 -0.000  0.045  0.000
 -0.000  0.604  0.000 -0.000  0.000
 -0.000  0.000  0.515  0.000  0.000
  0.045 -0.000  0.000  0.583 -0.000
  0.000  0.000  0.000 -0.000  0.469
atom   23   Tr[ns(na)] =   5.14215
    eigenvalues:
  0.403  0.501  0.513  0.520  0.634
    eigenvectors:
  0.000  0.997  0.000  0.000  0.003
  0.000  0.000  1.000  0.000  0.000
  1.000  0.000  0.000  0.000  0.000
  0.000  0.003  0.000  0.000  0.997
  0.000  0.000  0.000  1.000  0.000
    occupations:
  0.501  0.000  0.000 -0.007  0.000
  0.000  0.513 -0.000 -0.000 -0.000
  0.000 -0.000  0.403 -0.000  0.000
 -0.007 -0.000 -0.000  0.634 -0.000
  0.000 -0.000  0.000 -0.000  0.520
N of occupied +U levels =  41.7776985
 --- exit write_ns ---

     Threshold (ethr) on eigenvalues was too large:
     Diagonalizing with lowered threshold

     Davidson diagonalization with overlap
     ethr =  7.35E-09,  avg # of iterations =  2.7

[...]

     total energy              =   -1529.49841024 Ry
     Harris-Foulkes estimate   =   -1529.49841025 Ry
     estimated scf accuracy    <       0.00000001 Ry

     iteration # 10     ecut=    40.00 Ry     beta=0.70
     Davidson diagonalization with overlap
     ethr =  6.63E-12,  avg # of iterations =  1.4

     negative rho (up, down):  0.357E-02 0.000E+00

     End of self-consistent calculation
 --- enter write_ns ---
 LDA+U parameters:
U( 2)     =  1.00000000
alpha( 2) =  0.00000000
atom    3   Tr[ns(na)] =   5.21466
    eigenvalues:
  0.396  0.433  0.499  0.557  0.721
    eigenvectors:
  0.000  0.000  0.000  0.421  0.579
  0.000  0.000  1.000  0.000  0.000
  0.013  0.987  0.000  0.000  0.000
  0.000  0.000  0.000  0.579  0.421
  0.987  0.013  0.000  0.000  0.000
    occupations:
  0.652  0.000  0.001 -0.081 -0.000
  0.000  0.499  0.000  0.000  0.000
  0.001  0.000  0.432 -0.000 -0.004
 -0.081  0.000 -0.000  0.626  0.000
 -0.000  0.000 -0.004  0.000  0.397
atom    4   Tr[ns(na)] =   5.24487
    eigenvalues:
  0.419  0.454  0.547  0.576  0.626
    eigenvectors:
  0.000  0.005  0.000  0.995  0.000
  0.000  0.994  0.000  0.005  0.001
  1.000  0.000  0.000  0.000  0.000
  0.000  0.001  0.000  0.000  0.999
  0.000  0.000  1.000  0.000  0.000
    occupations:
  0.576  0.008 -0.000 -0.000 -0.000
  0.008  0.455  0.000 -0.005 -0.000
 -0.000  0.000  0.419  0.000  0.001
 -0.000 -0.005  0.000  0.626  0.000
 -0.000 -0.000  0.001  0.000  0.547
atom    9   Tr[ns(na)] =   5.28914
    eigenvalues:
  0.457  0.469  0.515  0.599  0.604
    eigenvectors:
  0.884  0.000  0.000  0.116  0.000
  0.000  0.000  0.000  0.000  1.000
  0.000  0.000  1.000  0.000  0.000
  0.116  0.000  0.000  0.884  0.000
  0.000  1.000  0.000  0.000  0.000
    occupations:
  0.474 -0.000 -0.000  0.045  0.000
 -0.000  0.604  0.000 -0.000  0.000
 -0.000  0.000  0.515  0.000  0.000
  0.045 -0.000  0.000  0.583 -0.000
  0.000  0.000  0.000 -0.000  0.469
atom   10   Tr[ns(na)] =   5.14113
    eigenvalues:
  0.403  0.501  0.512  0.520  0.634
    eigenvectors:
  0.000  0.997  0.000  0.000  0.003
  0.000  0.000  1.000  0.000  0.000
  1.000  0.000  0.000  0.000  0.000
  0.000  0.003  0.000  0.000  0.997
  0.000  0.000  0.000  1.000  0.000
    occupations:
  0.501  0.000  0.000 -0.007  0.000
  0.000  0.512 -0.000 -0.000 -0.000
  0.000 -0.000  0.403 -0.000  0.000
 -0.007 -0.000 -0.000  0.634 -0.000
  0.000 -0.000  0.000 -0.000  0.520
atom   16   Tr[ns(na)] =   5.21465
    eigenvalues:
  0.396  0.433  0.499  0.557  0.721
    eigenvectors:
  0.000  0.000  0.000  0.421  0.579
  0.000  0.000  1.000  0.000  0.000
  0.013  0.987  0.000  0.000  0.000
  0.000  0.000  0.000  0.579  0.421
  0.987  0.013  0.000  0.000  0.000
    occupations:
  0.652  0.000  0.001 -0.081  0.000
  0.000  0.499  0.000  0.000  0.000
  0.001  0.000  0.432 -0.000 -0.004
 -0.081  0.000 -0.000  0.626 -0.000
  0.000  0.000 -0.004 -0.000  0.397
atom   17   Tr[ns(na)] =   5.24491
    eigenvalues:
  0.419  0.454  0.547  0.576  0.626
    eigenvectors:
  0.000  0.005  0.000  0.995  0.000
  0.000  0.994  0.000  0.005  0.001
  1.000  0.000  0.000  0.000  0.000
  0.000  0.001  0.000  0.000  0.999
  0.000  0.000  1.000  0.000  0.000
    occupations:
  0.576  0.008 -0.000 -0.000 -0.000
  0.008  0.455  0.000 -0.005 -0.000
 -0.000  0.000  0.419  0.000  0.001
 -0.000 -0.005  0.000  0.626  0.000
 -0.000 -0.000  0.001  0.000  0.547
atom   22   Tr[ns(na)] =   5.28914
    eigenvalues:
  0.457  0.469  0.515  0.599  0.604
    eigenvectors:
  0.884  0.000  0.000  0.116  0.000
  0.000  0.000  0.000  0.000  1.000
  0.000  0.000  1.000  0.000  0.000
  0.116  0.000  0.000  0.884  0.000
  0.000  1.000  0.000  0.000  0.000
    occupations:
  0.474 -0.000 -0.000  0.045  0.000
 -0.000  0.604  0.000 -0.000  0.000
 -0.000  0.000  0.515  0.000  0.000
  0.045 -0.000  0.000  0.583 -0.000
  0.000  0.000  0.000 -0.000  0.469
atom   23   Tr[ns(na)] =   5.14113
    eigenvalues:
  0.403  0.500  0.513  0.520  0.634
    eigenvectors:
  0.000  0.997  0.000  0.000  0.003
  0.000  0.000  1.000  0.000  0.000
  1.000  0.000  0.000  0.000  0.000
  0.000  0.003  0.000  0.000  0.997
  0.000  0.000  0.000  1.000  0.000
    occupations:
  0.501  0.000  0.000 -0.007  0.000
  0.000  0.513 -0.000 -0.000 -0.000
  0.000 -0.000  0.403 -0.000  0.000
 -0.007 -0.000 -0.000  0.634 -0.000
  0.000 -0.000  0.000 -0.000  0.520
N of occupied +U levels =  41.7796272
 --- exit write_ns ---

[...]

          k = 0.2500-0.4237 0.0000 ( 32188 PWs)   bands (ev):

[...]

          k =-0.2500 0.2118 0.0000 ( 32165 PWs)   bands (ev):

   -56.1877 -56.1237 -55.7522 -55.6964 -55.6503 -55.5958 -55.5778 -55.5232
   -33.0127 -32.3820 -32.2916 -32.2589 -32.2323 -32.2016 -32.1955 -32.1657
   -32.1510 -32.0440 -32.0107 -31.9938 -31.9396 -31.9309 -31.9111 -31.7756
   -31.7039 -31.6538 -31.5866 -31.5766 -31.5741 -31.4472 -31.3684 -31.3543
   -20.4090 -20.2926 -19.2441 -18.9553 -18.9226 -18.8035 -18.6984 -18.6839
   -18.6766 -18.6055 -18.5906 -18.5601 -18.1198 -18.0597 -18.0285 -17.9662
   -17.8620 -17.7237  -8.8266  -8.5854  -7.4793  -6.9045  -6.7162  -6.6138
    -6.5327  -6.3895  -6.3285  -6.1449  -6.1158  -6.0963  -6.0856  -5.8828
    -5.8535  -5.8172  -5.7983  -5.5262  -5.5191  -5.4457  -5.1187  -5.1087
    -5.0243  -4.9348  -4.8280  -4.6545  -4.5093  -4.3878  -4.3173  -4.3068
    -4.2460  -4.1684  -3.9734  -3.9644  -3.9561  -3.8861  -3.8541  -3.8140
    -3.5953  -3.5570  -3.5047  -3.4954  -3.3813  -3.2960  -3.1689  -3.1341
    -3.0674  -2.9828  -2.8569  -2.7243  -2.6687  -2.5518  -2.4918  -2.1742
    -0.2779   0.3921   0.5345   0.9602   1.0303   1.3126   1.5657   1.7044
     1.7287   1.8487   2.1146   2.1616   2.2941   2.3758   2.3890   2.5639
     2.6068   2.6743   2.7378   2.7934   2.8452   2.9613   2.9931   3.0671
     3.2428   3.3839   3.6194   4.2419   4.5172   4.5622   4.6933   4.8569
     4.9670   5.1176   5.1491   5.2253   5.3090   5.3823   5.5609   5.6764
     5.7769   5.8930   5.9707   6.0275   6.2357   6.3240   6.3956   6.5082
     6.5434   6.6366   6.6904   6.8258   6.9540   7.0181   7.2155   7.2463
     7.3768   7.5249   7.7256   7.8139   7.9234   7.9436   8.1288   8.1586
     8.2835   8.3248   8.4464   8.6642   8.7143   8.8555   9.0357   9.0579
     9.0801   9.2084   9.3202   9.4388   9.5726   9.5868   9.6538   9.7714
     9.8839   9.9504  10.0020  10.1578  10.2073  10.3498  10.4214  10.6041
    10.7279  10.7530  10.9155  10.9610  11.0217  11.0771  11.1609  11.2316
    11.2485  11.3835  11.4674  11.4758  11.5242  11.5425  11.7393  11.8553
    11.9147  12.0507  12.0989  12.1794  12.2336  12.3348  12.4538  12.4746
    12.6439  12.6818  12.7200  12.7796  12.8659  12.8791  12.9086  12.9585
    13.0589  13.0834  13.1933  13.2522  13.3076  13.4074  13.4805  13.4915
    13.6741  13.7006  13.7634  13.9040  13.9250  13.9536  13.9662  14.0712
    14.1056  14.2714  14.3144  14.4050  14.5042  14.6146  14.6526  14.8584
    14.8924  14.9161  15.0654  15.1296  15.1824  15.2281  15.2487  15.3610
    15.3829  15.4020  15.4827  15.5193  15.5930  15.7221  15.7888  15.7893
    15.8225  15.8859  16.0335  16.0391  16.0730  16.2492  16.2639  16.3930
    16.4420  16.5913  16.5939  16.6586  16.7449  16.7478  16.7811  16.8802
    16.9820  16.9906  17.0344  17.2311  17.2669  17.2777  17.3758  17.4131
    17.4640  17.5440  17.6325  17.6798  17.7137  17.8531  17.8733  17.9878
    18.0294  18.0585  18.0846  18.2350  18.3276  18.4162  18.5041  18.5926
    18.6161  18.6984  18.7374  18.7859  18.8638  18.9100  18.9344  19.0374
    19.1690  19.1727  19.2826  19.2957  19.3268  19.3728  19.4249  19.5452
    19.5454  19.5982  19.6454  19.7132

     the Fermi energy is     1.0287 ev

!    total energy              =   -1529.49841024 Ry
     Harris-Foulkes estimate   =   -1529.49841024 Ry
     estimated scf accuracy    <          2.9E-09 Ry

     The total energy is the sum of the following terms:

     one-electron contribution =  -18304.77507013 Ry
     hartree contribution      =    9179.06606484 Ry
     xc contribution           =    -279.67294329 Ry
     ewald contribution        =    7875.17203268 Ry
     Hubbard energy            =       0.71264813 Ry
     smearing contrib. (-TS)   =      -0.00114246 Ry

     convergence has been achieved in  10 iterations

     Forces acting on atoms (Ry/au):

     negative rho (up, down):  0.357E-02 0.000E+00
     atom    1 type  1   force =     0.00021131   -0.00044201   -0.00044376
     atom    2 type  1   force =    -0.00096143    0.00062750   -0.00013634
     atom    3 type  2   force =     0.00144938   -0.00041638    0.00053999
     atom    4 type  2   force =    -0.00379524    0.00036689   -0.00042432
     atom    5 type  1   force =     0.00036481   -0.02641622   -0.00000101
     atom    6 type  1   force =     0.00051290    0.02614169    0.00004615
     atom    7 type  1   force =     0.00001857    0.00011169   -0.00069754
     atom    8 type  1   force =     0.00168412   -0.00002174   -0.00008963
     atom    9 type  2   force =    -0.00023647    0.00001807    0.00033547
     atom   10 type  2   force =     0.00006535   -0.00000352    0.00029098
     atom   11 type  1   force =     0.00003538   -0.04531086    0.00011475
     atom   12 type  1   force =     0.00004360    0.04530127    0.00012198
     atom   13 type  1   force =     0.00034351    0.00000079    0.00059054
     atom   14 type  1   force =     0.00023188   -0.00043029   -0.00044672
     atom   15 type  1   force =    -0.00095982    0.00058951    0.00008842
     atom   16 type  2   force =     0.00139404   -0.00041913    0.00053890
     atom   17 type  2   force =    -0.00379973    0.00036457   -0.00043502
     atom   18 type  1   force =     0.00038899   -0.02641588   -0.00000147
     atom   19 type  1   force =     0.00050805    0.02614260    0.00004642
     atom   20 type  1   force =     0.00001857    0.00010607   -0.00068216
     atom   21 type  1   force =     0.00168549   -0.00002204    0.00002471
     atom   22 type  2   force =    -0.00021391    0.00001819    0.00033631
     atom   23 type  2   force =     0.00006616   -0.00000474    0.00020817
     atom   24 type  1   force =     0.00003955   -0.04531106    0.00011404
     atom   25 type  1   force =     0.00004440    0.04530138    0.00012126
     atom   26 type  1   force =     0.00034394    0.00000089    0.00058908
     atom   27 type  3   force =    -0.00001879   -0.00023386   -0.00028457
     atom   28 type  3   force =    -0.00001957   -0.00022878   -0.00050887
     atom   29 type  3   force =     0.00028785    0.00029412    0.00001936
     atom   30 type  3   force =     0.00026712    0.00029127    0.00002485

     Total force =     0.002054     Total SCF correction =     0.000168

     bfgs converged in   6 scf cycles and   5 bfgs steps
     (criteria: energy < 0.10E-03, force < 0.10E-02)

     End of BFGS Geometry Optimization

     Final energy   =   -1529.4984102408 Ry
Begin final coordinates

ATOMIC_POSITIONS (crystal)
O0       0.000000000   0.000000000   0.374796154    0   0   1
O0       0.000000000   0.500000000   0.385566014    0   0   1
Nb1      0.250000000   0.500000000   0.440042954    0   0   1
Nb1      0.000000000   0.000000000   0.447603192    0   0   1
O0       0.250000000   0.790000000   0.447979887    0   0   1
O0       0.250000000   0.210000000   0.447968358    0   0   1
O0       0.000000000   0.500000000   0.498358013    0   0   1
O0       0.000000000   0.000000000   0.526427869    0   0   1
Nb1      0.250000000   0.000000000   0.581090343    0   0   1
Nb1      0.000000000   0.500000000   0.567480791    0   0   1
O0       0.250000000   0.710000000   0.580481335    0   0   1
O0       0.250000000   0.290000000   0.580478343    0   0   1
O0       0.000000000   0.000000000   0.625516252    0   0   1
O0       0.500000000   0.000000000   0.374795297    0   0   1
O0       0.500000000   0.500000000   0.385565902    0   0   1
Nb1      0.750000000   0.500000000   0.440043028    0   0   1
Nb1      0.500000000   0.000000000   0.447603379    0   0   1
O0       0.750000000   0.790000000   0.447979855    0   0   1
O0       0.750000000   0.210000000   0.447968511    0   0   1
O0       0.500000000   0.500000000   0.498360529    0   0   1
O0       0.500000000   0.000000000   0.526420273    0   0   1
Nb1      0.750000000   0.000000000   0.581090248    0   0   1
Nb1      0.500000000   0.500000000   0.567486239    0   0   1
O0       0.750000000   0.710000000   0.580481483    0   0   1
O0       0.750000000   0.290000000   0.580478511    0   0   1
O0       0.500000000   0.000000000   0.625516062    0   0   1
H2      -0.000465554   0.502592700   0.349247290
H2       0.499534972   0.502363008   0.349250552
H2       0.151101217  -0.000758789   0.359206778
H2       0.651104338  -0.000763703   0.359206558
End final coordinates

     General routines

     Parallel routines
     Hubbard U routines

   This run was terminated on:   4: 8:16   9May2014

   JOB DONE.
Running PBS batch system epilogue script
Job id: 340844.audhumbla.fysik.dtu.dk
Username: zhonxu
Groupname: campgst
Jobname: NbO2/Eads-2-layers/bare-U-1.0
Sessionid: 30031
Queuename: verylong
Accounting:
This job has allocated the following 16 nodes:
a123 a123 a123 a123 a123 a123 a123 a123 a012 a012 a012 a012 a012 a012 a012 a012
Finished epilogue job 340844.audhumbla.fysik.dtu.dk for zhonxu