     Program PWSCF v.5.0.2 (svn rev. 9656) starts on 29Apr2014 at  2:28:40

     Current dimensions of program PWSCF are:
     Max number of different atomic species (ntypx) = 10
     Max number of k-points (npk) =  40000
     Max angular momentum in pseudopotentials (lmaxx) =  3
     Reading input from pwscf.in
Warning: card &CELL ignored
Warning: card / ignored

     Subspace diagonalization in iterative solution of the eigenvalue problem:
     a serial algorithm will be used

     bravais-lattice index     =            0
     lattice parameter (alat)  =      12.0187  a.u.
     unit-cell volume          =    7280.5819 (a.u.)^3
     number of atoms/cell      =           31
     number of atomic types    =            3
     number of electrons       =       238.00
     number of Kohn-Sham states=          357
     kinetic-energy cutoff     =      40.0000  Ry
     charge density cutoff     =     500.0000  Ry
     convergence threshold     =      1.0E-06
     mixing beta               =       0.7000
     number of iterations used =            8  plain     mixing
     Exchange-correlation      = SLA  PW   PBE  PBE ( 1 4 3 4 0)
     EXX-fraction              =        0.00
     nstep                     =           50

     celldm(1)=  12.018658  celldm(2)=   0.000000  celldm(3)=   0.000000
     celldm(4)=   0.000000  celldm(5)=   0.000000  celldm(6)=   0.000000

     crystal axes: (cart. coord. in units of alat)
               a(1) = (   1.000000   0.000000   0.000000 )
               a(2) = (   0.000000   1.009517   0.000000 )
               a(3) = (   0.000000   0.000000   4.154171 )

     reciprocal axes: (cart. coord. in units 2 pi/alat)
               b(1) = (  1.000000  0.000000  0.000000 )
               b(2) = (  0.000000  0.990572  0.000000 )
               b(3) = (  0.000000  0.000000  0.240722 )

     PseudoPot. # 1 for O  read from file:
     /home/camp/zhonxu/pseudo/o_pbe_v1.01.uspp.F.UPF
     MD5 check sum: 2bcb18d16ea4b960afae9ec6d52f22d2
     Pseudo is Ultrasoft + core correction, Zval =  6.0
     Generated by new atomic code, or converted to UPF format
     Using radial grid of  737 points,  5 beta functions with:
                l(1) =   0
                l(2) =   0
                l(3) =   1
                l(4) =   1
                l(5) =   2
     Q(r) pseudized with  8 coefficients,  rinner =    0.900   0.900   0.900
                                                       0.900   0.900

     PseudoPot. # 2 for Ir read from file:
     /home/camp/zhonxu/pseudo/ir_pbe_v1.uspp.F.UPF
     MD5 check sum: abf987a9674477536ede83817f8f8b70
     Pseudo is Ultrasoft + core correction, Zval = 15.0
     Generated by new atomic code, or converted to UPF format
     Using radial grid of  983 points,  7 beta functions with:
                l(1) =   0
                l(2) =   0
                l(3) =   1
                l(4) =   1
                l(5) =   1
                l(6) =   2
                l(7) =   2
     Q(r) pseudized with  8 coefficients,  rinner =    1.350   1.350   1.350
                                                       1.350   1.350

     PseudoPot. # 3 for H  read from file:
     /home/camp/zhonxu/pseudo/h_pbe_v1.uspp.F.UPF
     MD5 check sum: 3408e3ff4ec8b0a4e358431e7e038a48
     Pseudo is Ultrasoft, Zval =  1.0
     Generated by new atomic code, or converted to UPF format
     Using radial grid of  615 points,  2 beta functions with:
                l(1) =   0
                l(2) =   0
     Q(r) pseudized with  8 coefficients,  rinner =    0.700

     atomic species   valence    mass     pseudopotential
        O0             6.00    15.99940     O ( 1.00)
        Ir1           15.00   192.22000     Ir( 1.00)
        H2             1.00     1.00794     H ( 1.00)

     Simplified LDA+U calculation (l_max = 2) with parameters (eV):
     atomic species    L          U    alpha       J0     beta
        Ir1            2     0.5000   0.0000   0.0000   0.0000

     No symmetry found

   Cartesian axes

     site n.     atom                  positions (alat units)
         1           O0  tau(   1) = (   0.0000000   0.0000000   1.5706091  )
         2           O0  tau(   2) = (   0.0000000   0.5047586   1.6747957  )
         3           Ir1 tau(   3) = (   0.2500000   0.5047586   1.8830443  )
         4           Ir1 tau(   4) = (   0.0000000   0.0000000   1.8812580  )
         5           O0  tau(   5) = (   0.2500000   0.8177090   1.8812996  )
         6           O0  tau(   6) = (   0.2500000   0.1918083   1.8799287  )
         7           O0  tau(   7) = (   0.0000000   0.5047586   2.0722253  )
         8           O0  tau(   8) = (   0.0000000   0.0000000   2.1948149  )
         9           Ir1 tau(   9) = (   0.2500000   0.0000000   2.3898532  )
        10           Ir1 tau(  10) = (   0.0000000   0.5047586   2.3761029  )
        11           O0  tau(  11) = (   0.2500000   0.6965669   2.3876930  )
        12           O0  tau(  12) = (   0.2500000   0.3129503   2.3878177  )
        13           O0  tau(  13) = (   0.0000000   0.0000000   2.5742569  )
        14           O0  tau(  14) = (   0.5000000   0.0000000   1.5702768  )
        15           O0  tau(  15) = (   0.5000000   0.5047586   1.6724694  )
        16           Ir1 tau(  16) = (   0.7500000   0.5047586   1.8830859  )
        17           Ir1 tau(  17) = (   0.5000000   0.0000000   1.8811334  )
        18           O0  tau(  18) = (   0.7500000   0.8177090   1.8813411  )
        19           O0  tau(  19) = (   0.7500000   0.1918083   1.8799702  )
        20           O0  tau(  20) = (   0.5000000   0.5047586   2.0802013  )
        21           O0  tau(  21) = (   0.5000000   0.0000000   2.1944825  )
        22           Ir1 tau(  22) = (   0.7500000   0.0000000   2.3898532  )
        23           Ir1 tau(  23) = (   0.5000000   0.5047586   2.4038943  )
        24           O0  tau(  24) = (   0.7500000   0.6965669   2.3876515  )
        25           O0  tau(  25) = (   0.7500000   0.3129503   2.3878177  )
        26           O0  tau(  26) = (   0.5000000   0.0000000   2.5734260  )
        27           H2  tau(  27) = (  -0.0000700   0.6394282   1.5957418  )
        28           H2  tau(  28) = (   0.4999700   0.6419823   1.5977358  )
        29           H2  tau(  29) = (   0.1436200   0.0342933   1.5227115  )
        30           H2  tau(  30) = (   0.6432900   0.0353230   1.5222545  )
        31           O0  tau(  31) = (   0.5000100   0.5042640   2.6822238  )

     number of k points=    10  Methfessel-Paxton smearing, width (Ry)=  0.0100
                       cart. coord. in units 2pi/alat
        k(    1) = (   0.0000000   0.0000000   0.0000000), wk =   0.1250000
        k(    2) = (   0.0000000   0.2476431   0.0000000), wk =   0.2500000
        k(    3) = (   0.0000000  -0.4952862   0.0000000), wk =   0.1250000
        k(    4) = (   0.2500000   0.0000000   0.0000000), wk =   0.2500000
        k(    5) = (   0.2500000   0.2476431   0.0000000), wk =   0.2500000
        k(    6) = (   0.2500000  -0.4952862   0.0000000), wk =   0.2500000
        k(    7) = (  -0.5000000   0.0000000   0.0000000), wk =   0.1250000
        k(    8) = (  -0.5000000   0.2476431   0.0000000), wk =   0.2500000
        k(    9) = (  -0.5000000  -0.4952862   0.0000000), wk =   0.1250000
        k(   10) = (  -0.2500000   0.2476431   0.0000000), wk =   0.2500000

     Largest allocated arrays     est. size (Mb)     dimensions
     Largest temporary arrays     est. size (Mb)     dimensions

     Check: negative/imaginary core charge=   -0.000003    0.000000

     Initial potential from superposition of free atoms
     Check: negative starting charge=   -3.336659

     starting charge  233.99968, renormalised to  238.00000

     negative rho (up, down):  0.339E+01 0.000E+00
     Number of +U iterations with fixed ns =  0
     Starting occupations:
 --- enter write_ns ---
 LDA+U parameters:
U( 2)     =  0.50000000
alpha( 2) =  0.00000000
atom    3   Tr[ns(na)] =   7.00000
    eigenvalues:
  0.700  0.700  0.700  0.700  0.700
    eigenvectors:
  1.000  0.000  0.000  0.000  0.000
  0.000  1.000  0.000  0.000  0.000
  0.000  0.000  1.000  0.000  0.000
  0.000  0.000  0.000  1.000  0.000
  0.000  0.000  0.000  0.000  1.000
    occupations:
  0.700  0.000  0.000  0.000  0.000
  0.000  0.700  0.000  0.000  0.000
  0.000  0.000  0.700  0.000  0.000
  0.000  0.000  0.000  0.700  0.000
  0.000  0.000  0.000  0.000  0.700
atom    4   Tr[ns(na)] =   7.00000
    eigenvalues:
  0.700  0.700  0.700  0.700  0.700
    eigenvectors:
  1.000  0.000  0.000  0.000  0.000
  0.000  1.000  0.000  0.000  0.000
  0.000  0.000  1.000  0.000  0.000
  0.000  0.000  0.000  1.000  0.000
  0.000  0.000  0.000  0.000  1.000
    occupations:
  0.700  0.000  0.000  0.000  0.000
  0.000  0.700  0.000  0.000  0.000
  0.000  0.000  0.700  0.000  0.000
  0.000  0.000  0.000  0.700  0.000
  0.000  0.000  0.000  0.000  0.700
atom    9   Tr[ns(na)] =   7.00000
    eigenvalues:
  0.700  0.700  0.700  0.700  0.700
    eigenvectors:
  1.000  0.000  0.000  0.000  0.000
  0.000  1.000  0.000  0.000  0.000
  0.000  0.000  1.000  0.000  0.000
  0.000  0.000  0.000  1.000  0.000
  0.000  0.000  0.000  0.000  1.000
    occupations:
  0.700  0.000  0.000  0.000  0.000
  0.000  0.700  0.000  0.000  0.000
  0.000  0.000  0.700  0.000  0.000
  0.000  0.000  0.000  0.700  0.000
  0.000  0.000  0.000  0.000  0.700
atom   10   Tr[ns(na)] =   7.00000
    eigenvalues:
  0.700  0.700  0.700  0.700  0.700
    eigenvectors:
  1.000  0.000  0.000  0.000  0.000
  0.000  1.000  0.000  0.000  0.000
  0.000  0.000  1.000  0.000  0.000
  0.000  0.000  0.000  1.000  0.000
  0.000  0.000  0.000  0.000  1.000
    occupations:
  0.700  0.000  0.000  0.000  0.000
  0.000  0.700  0.000  0.000  0.000
  0.000  0.000  0.700  0.000  0.000
  0.000  0.000  0.000  0.700  0.000
  0.000  0.000  0.000  0.000  0.700
atom   16   Tr[ns(na)] =   7.00000
    eigenvalues:
  0.700  0.700  0.700  0.700  0.700
    eigenvectors:
  1.000  0.000  0.000  0.000  0.000
  0.000  1.000  0.000  0.000  0.000
  0.000  0.000  1.000  0.000  0.000
  0.000  0.000  0.000  1.000  0.000
  0.000  0.000  0.000  0.000  1.000
    occupations:
  0.700  0.000  0.000  0.000  0.000
  0.000  0.700  0.000  0.000  0.000
  0.000  0.000  0.700  0.000  0.000
  0.000  0.000  0.000  0.700  0.000
  0.000  0.000  0.000  0.000  0.700
atom   17   Tr[ns(na)] =   7.00000
    eigenvalues:
  0.700  0.700  0.700  0.700  0.700
    eigenvectors:
  1.000  0.000  0.000  0.000  0.000
  0.000  1.000  0.000  0.000  0.000
  0.000  0.000  1.000  0.000  0.000
  0.000  0.000  0.000  1.000  0.000
  0.000  0.000  0.000  0.000  1.000
    occupations:
  0.700  0.000  0.000  0.000  0.000
  0.000  0.700  0.000  0.000  0.000
  0.000  0.000  0.700  0.000  0.000
  0.000  0.000  0.000  0.700  0.000
  0.000  0.000  0.000  0.000  0.700
atom   22   Tr[ns(na)] =   7.00000
    eigenvalues:
  0.700  0.700  0.700  0.700  0.700
    eigenvectors:
  1.000  0.000  0.000  0.000  0.000
  0.000  1.000  0.000  0.000  0.000
  0.000  0.000  1.000  0.000  0.000
  0.000  0.000  0.000  1.000  0.000
  0.000  0.000  0.000  0.000  1.000
    occupations:
  0.700  0.000  0.000  0.000  0.000
[...]
atom    9   Tr[ns(na)] =   8.01171
    eigenvalues:
  0.650  0.664  0.838  0.880  0.974
    eigenvectors:
  0.000  0.141  0.000  0.000  0.859
  0.999  0.001  0.000  0.000  0.000
  0.000  0.000  0.976  0.024  0.000
  0.001  0.858  0.000  0.000  0.141
  0.000  0.000  0.024  0.976  0.000
    occupations:
  0.931  0.001 -0.000 -0.108 -0.001
  0.001  0.650  0.000  0.000 -0.000
 -0.000  0.000  0.839 -0.000 -0.006
 -0.108  0.000 -0.000  0.708  0.001
 -0.001 -0.000 -0.006  0.001  0.879
atom   10   Tr[ns(na)] =   8.01726
    eigenvalues:
  0.592  0.606  0.915  0.919  0.976
    eigenvectors:
  0.992  0.000  0.000  0.000  0.008
  0.000  0.000  0.002  0.998  0.000
  0.000  0.000  0.998  0.002  0.000
  0.008  0.000  0.000  0.000  0.992
  0.000  1.000  0.000  0.000  0.000
    occupations:
  0.595  0.000  0.001  0.035 -0.000
  0.000  0.919 -0.000  0.000 -0.000
  0.001 -0.000  0.915  0.000  0.000
  0.035  0.000  0.000  0.973 -0.000
 -0.000 -0.000  0.000 -0.000  0.606
atom   16   Tr[ns(na)] =   8.06413
    eigenvalues:
  0.605  0.631  0.873  0.952  0.971
    eigenvectors:
  0.003  0.185  0.003  0.001  0.808
  0.990  0.009  0.000  0.000  0.000
  0.000  0.000  0.986  0.011  0.003
  0.007  0.806  0.000  0.000  0.187
  0.000  0.000  0.011  0.987  0.002
    occupations:
  0.907  0.005  0.004 -0.133  0.001
  0.005  0.606  0.000  0.000 -0.005
  0.004  0.000  0.874 -0.004 -0.008
 -0.133  0.000 -0.004  0.695 -0.000
  0.001 -0.005 -0.008 -0.000  0.951
atom   17   Tr[ns(na)] =   8.03760
    eigenvalues:
  0.618  0.664  0.856  0.903  0.979
    eigenvectors:
  0.000  0.990  0.000  0.000  0.010
  0.000  0.000  0.054  0.946  0.000
  0.000  0.000  0.946  0.054  0.000
  0.000  0.010  0.000  0.000  0.990
  1.000  0.000  0.000  0.000  0.000
    occupations:
  0.667 -0.003 -0.001  0.031  0.001
 -0.003  0.900  0.011  0.000 -0.001
 -0.001  0.011  0.858 -0.000  0.000
  0.031  0.000 -0.000  0.976  0.000
  0.001 -0.001  0.000  0.000  0.618
atom   22   Tr[ns(na)] =   8.01310
    eigenvalues:
  0.650  0.665  0.838  0.880  0.975
    eigenvectors:
  0.000  0.141  0.000  0.000  0.859
  1.000  0.000  0.000  0.000  0.000
  0.000  0.000  0.978  0.022  0.000
  0.000  0.859  0.000  0.000  0.141
  0.000  0.000  0.022  0.978  0.000
    occupations:
  0.931  0.000 -0.000 -0.108 -0.000
  0.000  0.650  0.000  0.000 -0.000
 -0.000  0.000  0.839 -0.000  0.006
 -0.108  0.000 -0.000  0.708  0.000
 -0.000 -0.000  0.006  0.000  0.879
atom   23   Tr[ns(na)] =   7.98604
    eigenvalues:
  0.645  0.709  0.802  0.855  0.982
    eigenvectors:
  0.000  0.991  0.000  0.000  0.009
  0.000  0.000  0.000  1.000  0.000
  0.000  0.000  1.000  0.000  0.000
  0.000  0.009  0.000  0.000  0.991
  1.000  0.000  0.000  0.000  0.000
    occupations:
  0.712  0.000 -0.000  0.026 -0.000
  0.000  0.855 -0.000  0.000 -0.000
 -0.000 -0.000  0.802  0.000  0.000
  0.026  0.000  0.000  0.979  0.000
 -0.000 -0.000  0.000  0.000  0.645
N of occupied +U levels =  64.2295244
 --- exit write_ns ---

[...]

     total energy              =   -2105.96166524 Ry
     Harris-Foulkes estimate   =   -2105.96166571 Ry
     estimated scf accuracy    <       0.00000230 Ry

     iteration #  9     ecut=    40.00 Ry     beta=0.70
     Davidson diagonalization with overlap
     ethr =  9.67E-10,  avg # of iterations =  1.0

     negative rho (up, down):  0.312E+01 0.000E+00

     End of self-consistent calculation
 --- enter write_ns ---
 LDA+U parameters:
U( 2)     =  0.50000000
alpha( 2) =  0.00000000
atom    3   Tr[ns(na)] =   8.05858
    eigenvalues:
  0.605  0.631  0.872  0.951  0.971
    eigenvectors:
  0.003  0.185  0.003  0.001  0.808
  0.990  0.010  0.000  0.000  0.000
  0.000  0.000  0.983  0.014  0.003
  0.007  0.805  0.000  0.000  0.187
  0.000  0.000  0.014  0.984  0.001
    occupations:
  0.906 -0.005  0.004 -0.133 -0.002
 -0.005  0.605 -0.001 -0.000 -0.005
  0.004 -0.001  0.873 -0.004  0.009
 -0.133 -0.000 -0.004  0.695 -0.000
 -0.002 -0.005  0.009 -0.000  0.950
atom    4   Tr[ns(na)] =   8.03505
    eigenvalues:
  0.618  0.663  0.851  0.907  0.978
    eigenvectors:
  0.000  0.990  0.000  0.000  0.010
  0.000  0.000  0.034  0.966  0.000
  0.000  0.000  0.966  0.034  0.000
  0.000  0.010  0.000  0.000  0.990
  1.000  0.000  0.000  0.000  0.000
    occupations:
  0.666 -0.003 -0.001  0.031  0.001
 -0.003  0.905  0.010  0.000 -0.001
 -0.001  0.010  0.853 -0.000  0.000
  0.031  0.000 -0.000  0.975  0.000
  0.001 -0.001  0.000  0.000  0.618
atom    9   Tr[ns(na)] =   8.01403
    eigenvalues:
  0.650  0.664  0.838  0.880  0.975
    eigenvectors:
  0.000  0.141  0.000  0.000  0.859
  0.999  0.001  0.000  0.000  0.000
  0.000  0.000  0.976  0.024  0.000
  0.001  0.858  0.000  0.000  0.141
  0.000  0.000  0.024  0.976  0.000
    occupations:
  0.931  0.001 -0.000 -0.108 -0.001
  0.001  0.650  0.000  0.000 -0.000
 -0.000  0.000  0.839 -0.000 -0.006
 -0.108  0.000 -0.000  0.708  0.001
 -0.001 -0.000 -0.006  0.001  0.879
atom   10   Tr[ns(na)] =   8.01974
    eigenvalues:
  0.593  0.606  0.915  0.919  0.976
    eigenvectors:
  0.992  0.000  0.000  0.000  0.008
  0.000  0.000  0.001  0.999  0.000
  0.000  0.000  0.999  0.001  0.000
  0.008  0.000  0.000  0.000  0.992
  0.000  1.000  0.000  0.000  0.000
    occupations:
  0.596  0.000  0.001  0.035 -0.000
  0.000  0.919 -0.000  0.000 -0.000
  0.001 -0.000  0.915  0.000  0.000
  0.035  0.000  0.000  0.973 -0.000
 -0.000 -0.000  0.000 -0.000  0.606
atom   16   Tr[ns(na)] =   8.05832
    eigenvalues:
  0.605  0.631  0.872  0.951  0.971
    eigenvectors:
  0.003  0.185  0.003  0.001  0.808
  0.991  0.009  0.000  0.000  0.000
  0.000  0.000  0.986  0.011  0.003
  0.006  0.806  0.000  0.000  0.187
  0.000  0.000  0.011  0.987  0.002
    occupations:
  0.906  0.005  0.004 -0.133  0.001
  0.005  0.605  0.000  0.000 -0.005
  0.004  0.000  0.873 -0.004 -0.008
 -0.133  0.000 -0.004  0.695 -0.000
  0.001 -0.005 -0.008 -0.000  0.950
atom   17   Tr[ns(na)] =   8.03250
    eigenvalues:
  0.618  0.663  0.854  0.902  0.979
    eigenvectors:
  0.000  0.990  0.000  0.000  0.010
  0.000  0.000  0.052  0.948  0.000
  0.000  0.000  0.948  0.052  0.000
  0.000  0.010  0.000  0.000  0.990
  1.000  0.000  0.000  0.000  0.000
    occupations:
  0.666 -0.003 -0.001  0.031  0.001
 -0.003  0.899  0.011  0.000 -0.001
 -0.001  0.011  0.856 -0.000  0.000
  0.031  0.000 -0.000  0.976  0.000
  0.001 -0.001  0.000  0.000  0.618
atom   22   Tr[ns(na)] =   8.01350
    eigenvalues:
  0.650  0.664  0.838  0.880  0.975
    eigenvectors:
  0.000  0.141  0.000  0.000  0.859
  1.000  0.000  0.000  0.000  0.000
  0.000  0.000  0.978  0.022  0.000
  0.000  0.859  0.000  0.000  0.141
  0.000  0.000  0.022  0.978  0.000
    occupations:
  0.931  0.000 -0.000 -0.108 -0.000
  0.000  0.650  0.000  0.000 -0.000
 -0.000  0.000  0.839 -0.000  0.006
 -0.108  0.000 -0.000  0.708  0.000
 -0.000 -0.000  0.006  0.000  0.879
atom   23   Tr[ns(na)] =   7.99111
    eigenvalues:
  0.645  0.709  0.804  0.856  0.982
    eigenvectors:
  0.000  0.991  0.000  0.000  0.009
  0.000  0.000  0.000  1.000  0.000
  0.000  0.000  1.000  0.000  0.000
  0.000  0.009  0.000  0.000  0.991
  1.000  0.000  0.000  0.000  0.000
    occupations:
  0.712  0.000 -0.000  0.026 -0.000
  0.000  0.856 -0.000  0.000 -0.000
 -0.000 -0.000  0.804  0.000  0.000
  0.026  0.000  0.000  0.979  0.000
 -0.000 -0.000  0.000  0.000  0.645
N of occupied +U levels =  64.2228325
 --- exit write_ns ---

[...]

          k = 0.2500-0.4953 0.0000 ( 31088 PWs)   bands (ev):

[...]

          k =-0.2500 0.2476 0.0000 ( 31099 PWs)   bands (ev):

   -52.4469 -52.1534 -52.0334 -51.4245 -51.4200 -51.3117 -51.2771 -51.2723
   -51.2619 -51.2362 -51.2009 -51.1048 -51.1022 -51.0981 -51.0841 -51.0514
   -51.0492 -51.0180 -50.9510 -50.9248 -50.9142 -50.9124 -50.9018 -50.7603
   -21.7492 -21.3716 -21.3518 -21.2160 -20.9061 -20.7741 -20.7199 -20.5862
   -20.4561 -20.4200 -20.2885 -20.2507 -20.1614 -20.1346 -19.9513 -19.7794
   -18.9796 -18.9254 -18.8488 -10.0143  -9.9960  -9.8266  -9.4843  -9.2579
    -9.0415  -9.0297  -8.9217  -8.8937  -8.8403  -8.7833  -8.6755  -8.5830
    -8.4565  -8.2969  -8.1957  -8.1094  -7.9382  -7.8488  -7.6029  -7.5895
    -7.3792  -7.3078  -7.1450  -6.8903  -6.7368  -6.6162  -6.5431  -6.4964
    -6.4082  -6.3397  -6.2628  -6.2021  -6.1649  -6.0554  -5.9262  -5.8309
    -5.6681  -5.5994  -5.4792  -5.2764  -5.2219  -5.0614  -4.9755  -4.8828
    -4.7843  -4.5963  -4.5289  -4.4172  -4.3348  -4.3059  -4.1847  -3.9048
    -3.6515  -3.5628  -3.4563  -3.3248  -3.2374  -2.8530  -2.8327  -2.7783
    -2.7281  -2.6008  -2.5881  -2.5133  -2.4629  -2.4019  -2.3507  -2.2125
    -2.0689  -1.8170  -1.7243  -1.5706  -1.3946  -1.2426  -1.0613  -0.9882
    -0.9142  -0.7733  -0.6924  -0.4783  -0.2462   0.4572   0.6666   1.0140
     1.3679   1.4674   1.8290   1.9474   2.3010   2.4421   2.4911   2.6583
     2.8079   3.0331   3.0667   3.5268   3.6043   4.5103   4.8661   5.3383
     5.3712   5.5190   5.5896   6.1682   6.4487   6.5133   6.6849   6.7829
     6.8947   6.9587   7.1923   7.2744   7.3304   7.3500   7.5350   7.6982
     7.8167   7.8758   7.9495   8.0309   8.1656   8.2363   8.3589   8.4408
     8.5449   8.6422   8.6468   8.6663   8.6666   8.7069   8.8058   8.8201
     8.8219   8.8255   8.9179   8.9423   9.0369   9.0920   9.2427   9.3943
     9.4590   9.5941   9.6432   9.7313   9.7895   9.8796  10.0002  10.1182
    10.1573  10.2605  10.3960  10.4563  10.5029  10.5678  10.6555  10.8557
    10.9008  10.9373  11.0491  11.0890  11.1612  11.3021  11.4210  11.5557
    11.6169  11.6518  11.7389  11.8063  11.8395  12.0280  12.0517  12.1677
    12.2332  12.2562  12.3852  12.4868  12.5363  12.6501  12.6819  12.7229
    12.7884  12.8568  12.9125  12.9539  13.0401  13.0620  13.1616  13.2183
    13.2625  13.3966  13.4369  13.4916  13.6108  13.7928  13.8848  13.9069
    13.9878  14.0610  14.1725  14.2060  14.2658  14.3993  14.4394  14.5869
    14.6552  14.7386  14.7839  14.9211  15.0236  15.0742  15.1899  15.2665
    15.3490  15.4061  15.5380  15.6004  15.6527  15.7321  15.8090  15.8257
    15.9308  15.9830  16.0282  16.1239  16.1335  16.2125  16.3026  16.3313
    16.3990  16.4144  16.5237  16.5664  16.6257  16.6829  16.7296  16.7744
    16.8443  16.9949  17.1408  17.1896  17.2421  17.3015  17.3471  17.4671
    17.4929  17.5378  17.5839  17.6632  17.7189  17.7912  17.8667  17.9131
    17.9667  18.0174  18.0812  18.1796  18.1881  18.2439  18.3734  18.4283
    18.5192  18.5946  18.6221  18.7171  18.7664  18.8968  18.9881  19.0249
    19.0509  19.0991  19.1737  19.2127  19.2582  19.3393  19.3805  19.4725
    19.5843  19.6202  19.6644  19.7163  19.8428  19.9186  19.9660  20.0578
    20.1716  20.2715  20.2954  20.3576  20.4296  20.4796  20.5744  20.6888
    20.7097  20.7581  20.7967  20.8178  20.8401  20.9291  21.0542  21.1280
    21.2082  21.2773  21.3610  21.4071  21.4675  21.5228  21.5651  21.6659
    21.7426  21.7933  21.8459  21.8719  21.9171

     the Fermi energy is    -1.0976 ev

!    total energy              =   -2105.96166514 Ry
     Harris-Foulkes estimate   =   -2105.96166556 Ry
     estimated scf accuracy    <       0.00000045 Ry

     The total energy is the sum of the following terms:

     one-electron contribution =  -22670.75814752 Ry
     hartree contribution      =   11375.78444237 Ry
     xc contribution           =    -576.25468087 Ry
     ewald contribution        =    9765.06366467 Ry
     Hubbard energy            =       0.20306081 Ry
     smearing contrib. (-TS)   =      -0.00000460 Ry

     convergence has been achieved in   9 iterations

     Forces acting on atoms (Ry/au):

     negative rho (up, down):  0.312E+01 0.000E+00
     atom    1 type  1   force =    -0.00697750   -0.01373454    0.00013869
     atom    2 type  1   force =     0.00004260    0.00455740    0.00010482
     atom    3 type  2   force =     0.03867665    0.00690153    0.00018778
     atom    4 type  2   force =     0.00951348    0.00860913    0.00026691
     atom    5 type  1   force =    -0.00228604   -0.01708934   -0.00006322
     atom    6 type  1   force =     0.00394262    0.01481695   -0.00011831
     atom    7 type  1   force =    -0.00030284   -0.00174973    0.00009198
     atom    8 type  1   force =    -0.00346538   -0.00076983   -0.00006049
     atom    9 type  2   force =     0.00674607    0.00066801    0.00010995
     atom   10 type  2   force =    -0.00000682   -0.00101472   -0.00031250
     atom   11 type  1   force =     0.00131675    0.00436413   -0.00025827
     atom   12 type  1   force =     0.00091779   -0.00482770   -0.00023502
     atom   13 type  1   force =    -0.00106335    0.00002578   -0.00026531
     atom   14 type  1   force =    -0.00733709   -0.01415969   -0.00010137
     atom   15 type  1   force =     0.00017550    0.00535219    0.00011888
     atom   16 type  2   force =    -0.03889911    0.00594702    0.00011111
     atom   17 type  2   force =     0.00950607    0.00875130    0.00018100
     atom   18 type  1   force =    -0.00241437   -0.01665799   -0.00002328
     atom   19 type  1   force =     0.00295625    0.01528179   -0.00010536
     atom   20 type  1   force =    -0.00012826   -0.00495356    0.00033893
     atom   21 type  1   force =    -0.00319099   -0.00051805    0.00007554
     atom   22 type  2   force =    -0.00416294    0.00049383    0.00012694
     atom   23 type  2   force =    -0.00003163    0.00022683    0.00042178
     atom   24 type  1   force =    -0.00134663    0.00442613   -0.00023264
     atom   25 type  1   force =    -0.00062389   -0.00496316   -0.00026773
     atom   26 type  1   force =    -0.00082609   -0.00013342    0.00025822
     atom   27 type  3   force =    -0.00000218    0.00002984    0.00051655
     atom   28 type  3   force =     0.00000875    0.00003657    0.00063125
     atom   29 type  3   force =    -0.00037636   -0.00005173   -0.00042674
     atom   30 type  3   force =    -0.00038642    0.00011815   -0.00041351
     atom   31 type  1   force =     0.00002536    0.00001688   -0.00079657

     Total force =     0.001738     Total SCF correction =     0.001504
     SCF correction compared to forces is large: reduce conv_thr to get better values

     bfgs converged in   2 scf cycles and   1 bfgs steps
     (criteria: energy < 0.10E-03, force < 0.10E-02)

     End of BFGS Geometry Optimization

     Final energy   =   -2105.9616651436 Ry
Begin final coordinates

ATOMIC_POSITIONS (crystal)
O0       0.000000000   0.000000000   0.378095434    0   0   1
O0       0.000000000   0.500000000   0.403169964    0   0   1
Ir1      0.250000000   0.500000000   0.453262192    0   0   1
Ir1      0.000000000   0.000000000   0.452849888    0   0   1
O0       0.250000000   0.810000000   0.452871275    0   0   1
O0       0.250000000   0.190000000   0.452540115    0   0   1
O0       0.000000000   0.500000000   0.498876611    0   0   1
O0       0.000000000   0.000000000   0.528350066    0   0   1
Ir1      0.250000000   0.000000000   0.575276961    0   0   1
Ir1      0.000000000   0.500000000   0.571946248    0   0   1
O0       0.250000000   0.690000000   0.574763962    0   0   1
O0       0.250000000   0.310000000   0.574794474    0   0   1
O0       0.000000000   0.000000000   0.619683427    0   0   1
O0       0.500000000   0.000000000   0.378012866    0   0   1
O0       0.500000000   0.500000000   0.402611123    0   0   1
Ir1      0.750000000   0.500000000   0.453268120    0   0   1
Ir1      0.500000000   0.000000000   0.452815129    0   0   1
O0       0.750000000   0.810000000   0.452882274    0   0   1
O0       0.750000000   0.190000000   0.452550396    0   0   1
O0       0.500000000   0.500000000   0.500775494    0   0   1
O0       0.500000000   0.000000000   0.528273460    0   0   1
Ir1      0.750000000   0.000000000   0.575277070    0   0   1
Ir1      0.500000000   0.500000000   0.578655082    0   0   1
O0       0.750000000   0.690000000   0.574754724    0   0   1
O0       0.750000000   0.310000000   0.574793935    0   0   1
O0       0.500000000   0.000000000   0.619493637    0   0   1
H2      -0.000071166   0.633385103   0.384144359
H2       0.499970235   0.635906066   0.384628070
H2       0.143613193   0.033971061   0.366538182
H2       0.643275666   0.035003928   0.366429233
O0       0.500010552   0.499510257   0.645676229
End final coordinates

     General routines

     Parallel routines
     Hubbard U routines

   This run was terminated on:   4:49:59  29Apr2014

   JOB DONE.
Running PBS batch system epilogue script
Job id: 340400.audhumbla.fysik.dtu.dk
Username: zhonxu
Groupname: campgst
Jobname: IrO2/Eads-2-layers/O-U-0.5
Sessionid: 21926
Queuename: verylong
Accounting:
This job has allocated the following 16 nodes:
c102 c102 c102 c102 c102 c102 c102 c102 c067 c067 c067 c067 c067 c067 c067 c067
Finished epilogue job 340400.audhumbla.fysik.dtu.dk for zhonxu