     Program PWSCF v.5.0.2 (svn rev. 9656) starts on 28Apr2014 at 20:32:59

     Current dimensions of program PWSCF are:
     Max number of different atomic species (ntypx) = 10
     Max number of k-points (npk) =  40000
     Max angular momentum in pseudopotentials (lmaxx) =  3
     Reading input from pwscf.in
Warning: card &CELL ignored
Warning: card / ignored

     Subspace diagonalization in iterative solution of the eigenvalue problem:
     a serial algorithm will be used

     bravais-lattice index     =            0
     lattice parameter (alat)  =      10.3179  a.u.
     unit-cell volume          =    6964.3238 (a.u.)^3
     number of atoms/cell      =           31
     number of atomic types    =            3
     number of electrons       =       230.00
     number of Kohn-Sham states=          345
     kinetic-energy cutoff     =      40.0000  Ry
     charge density cutoff     =     500.0000  Ry
     convergence threshold     =      1.0E-06
     mixing beta               =       0.7000
     number of iterations used =            8  plain     mixing
     Exchange-correlation      = SLA  PW   PBE  PBE ( 1 4 3 4 0)
     EXX-fraction              =        0.00
     nstep                     =           50

     celldm(1)=  10.317905  celldm(2)=   0.000000  celldm(3)=   0.000000
     celldm(4)=   0.000000  celldm(5)=   0.000000  celldm(6)=   0.000000

     crystal axes: (cart. coord. in units of alat)
               a(1) = (   1.000000   0.000000   0.000000 )
               a(2) = (   0.000000   1.282117   0.000000 )
               a(3) = (   0.000000   0.000000   4.945120 )

     reciprocal axes: (cart. coord. in units 2 pi/alat)
               b(1) = (  1.000000  0.000000  0.000000 )
               b(2) = (  0.000000  0.779960  0.000000 )
               b(3) = (  0.000000  0.000000  0.202220 )

     PseudoPot. # 1 for O  read from file:
     /home/camp/zhonxu/pseudo/o_pbe_v1.01.uspp.F.UPF
     MD5 check sum: 2bcb18d16ea4b960afae9ec6d52f22d2
     Pseudo is Ultrasoft + core correction, Zval =  6.0
     Generated by new atomic code, or converted to UPF format
     Using radial grid of  737 points,  5 beta functions with:
                l(1) =   0
                l(2) =   0
                l(3) =   1
                l(4) =   1
                l(5) =   2
     Q(r) pseudized with  8 coefficients,  rinner =    0.900   0.900   0.900
                                                       0.900   0.900

     PseudoPot. # 2 for Mo read from file:
     /home/camp/zhonxu/pseudo/mo_pbe_v1.uspp.F.UPF
     MD5 check sum: 30c4dcd161f5d35cd49bb5239c51a633
     Pseudo is Ultrasoft + core correction, Zval = 14.0
     Generated by new atomic code, or converted to UPF format
     Using radial grid of  889 points,  6 beta functions with:
                l(1) =   0
                l(2) =   0
                l(3) =   1
                l(4) =   1
                l(5) =   2
                l(6) =   2
     Q(r) pseudized with  6 coefficients,  rinner =    1.000   1.000   1.000
                                                       1.000   1.000

     PseudoPot. # 3 for H  read from file:
     /home/camp/zhonxu/pseudo/h_pbe_v1.uspp.F.UPF
     MD5 check sum: 3408e3ff4ec8b0a4e358431e7e038a48
     Pseudo is Ultrasoft, Zval =  1.0
     Generated by new atomic code, or converted to UPF format
     Using radial grid of  615 points,  2 beta functions with:
                l(1) =   0
                l(2) =   0
     Q(r) pseudized with  8 coefficients,  rinner =    0.700

     atomic species   valence    mass     pseudopotential
        O0             6.00    15.99940     O ( 1.00)
        Mo1           14.00    95.94000     Mo( 1.00)
        H2             1.00     1.00794     H ( 1.00)

     Simplified LDA+U calculation (l_max = 2) with parameters (eV):
     atomic species    L          U    alpha       J0     beta
        Mo1            2     4.0000   0.0000   0.0000   0.0000

     No symmetry found

   Cartesian axes

     site n.     atom                  positions (alat units)
         1           O0  tau(   1) = (   0.0000000   0.0000000   1.8298429  )
         2           O0  tau(   2) = (   0.0000000   0.6410583   1.8994207  )
         3           Mo1 tau(   3) = (   0.2500000   0.6410583   2.1871278  )
         4           Mo1 tau(   4) = (   0.0000000   0.0000000   2.1851992  )
         5           O0  tau(   5) = (   0.2500000   1.0000510   2.1890070  )
         6           O0  tau(   6) = (   0.2500000   0.2820657   2.1893531  )
         7           O0  tau(   7) = (   0.0000000   0.6410583   2.4671700  )
         8           O0  tau(   8) = (   0.0000000   0.0000000   2.5523250  )
         9           Mo1 tau(   9) = (   0.2500000   0.0000000   2.8391419  )
        10           Mo1 tau(  10) = (   0.0000000   0.6410583   2.8013612  )
        11           O0  tau(  11) = (   0.2500000   0.9231240   2.8197571  )
        12           O0  tau(  12) = (   0.2500000   0.3589927   2.8195593  )
        13           O0  tau(  13) = (   0.0000000   0.0000000   3.0891672  )
        14           O0  tau(  14) = (   0.5000000   0.0000000   1.8327111  )
        15           O0  tau(  15) = (   0.5000000   0.6410583   1.8997669  )
        16           Mo1 tau(  16) = (   0.7500000   0.6410583   2.1871773  )
        17           Mo1 tau(  17) = (   0.5000000   0.0000000   2.1922708  )
        18           O0  tau(  18) = (   0.7500000   1.0000510   2.1898476  )
        19           O0  tau(  19) = (   0.7500000   0.2820657   2.1889575  )
        20           O0  tau(  20) = (   0.5000000   0.6410583   2.4516918  )
        21           O0  tau(  21) = (   0.5000000   0.0000000   2.5499019  )
        22           Mo1 tau(  22) = (   0.7500000   0.0000000   2.8391419  )
        23           Mo1 tau(  23) = (   0.5000000   0.6410583   2.8716808  )
        24           O0  tau(  24) = (   0.7500000   0.9231240   2.8197571  )
        25           O0  tau(  25) = (   0.7500000   0.3589927   2.8196582  )
        26           O0  tau(  26) = (   0.5000000   0.0000000   3.0881782  )
        27           H2  tau(  27) = (  -0.0006600   0.7686802   1.7727267  )
        28           H2  tau(  28) = (   0.4996400   0.7964252   1.8076887  )
        29           H2  tau(  29) = (   0.1674000   0.0210652   1.7585342  )
        30           H2  tau(  30) = (   0.6637700   0.0258988   1.7570507  )
        31           O0  tau(  31) = (   0.5000200   0.6407506   3.1806520  )

     number of k points=    10  Methfessel-Paxton smearing, width (Ry)=  0.0100
                       cart. coord. in units 2pi/alat
        k(    1) = (   0.0000000   0.0000000   0.0000000), wk =   0.1250000
        k(    2) = (   0.0000000   0.1949901   0.0000000), wk =   0.2500000
        k(    3) = (   0.0000000  -0.3899801   0.0000000), wk =   0.1250000
        k(    4) = (   0.2500000   0.0000000   0.0000000), wk =   0.2500000
        k(    5) = (   0.2500000   0.1949901   0.0000000), wk =   0.2500000
        k(    6) = (   0.2500000  -0.3899801   0.0000000), wk =   0.2500000
        k(    7) = (  -0.5000000   0.0000000   0.0000000), wk =   0.1250000
        k(    8) = (  -0.5000000   0.1949901   0.0000000), wk =   0.2500000
        k(    9) = (  -0.5000000  -0.3899801   0.0000000), wk =   0.1250000
        k(   10) = (  -0.2500000   0.1949901   0.0000000), wk =   0.2500000

     Largest allocated arrays     est. size (Mb)     dimensions
     Largest temporary arrays     est. size (Mb)     dimensions

     Check: negative/imaginary core charge=   -0.000003    0.000000

     Initial potential from superposition of free atoms
     Check: negative starting charge=   -0.002499

     starting charge  229.99143, renormalised to  230.00000

     negative rho (up, down):  0.250E-02 0.000E+00
     Number of +U iterations with fixed ns =  0
     Starting occupations:
 --- enter write_ns ---
 LDA+U parameters:
U( 2)     =  4.00000000
alpha( 2) =  0.00000000
atom    3   Tr[ns(na)] =   5.00000
    eigenvalues:
  0.500  0.500  0.500  0.500  0.500
    eigenvectors:
  1.000  0.000  0.000  0.000  0.000
  0.000  1.000  0.000  0.000  0.000
  0.000  0.000  1.000  0.000  0.000
  0.000  0.000  0.000  1.000  0.000
  0.000  0.000  0.000  0.000  1.000
    occupations:
  0.500  0.000  0.000  0.000  0.000
  0.000  0.500  0.000  0.000  0.000
  0.000  0.000  0.500  0.000  0.000
  0.000  0.000  0.000  0.500  0.000
  0.000  0.000  0.000  0.000  0.500
atom    4   Tr[ns(na)] =   5.00000
    eigenvalues:
  0.500  0.500  0.500  0.500  0.500
    eigenvectors:
  1.000  0.000  0.000  0.000  0.000
  0.000  1.000  0.000  0.000  0.000
  0.000  0.000  1.000  0.000  0.000
  0.000  0.000  0.000  1.000  0.000
  0.000  0.000  0.000  0.000  1.000
    occupations:
  0.500  0.000  0.000  0.000  0.000
  0.000  0.500  0.000  0.000  0.000
  0.000  0.000  0.500  0.000  0.000
  0.000  0.000  0.000  0.500  0.000
  0.000  0.000  0.000  0.000  0.500
atom    9   Tr[ns(na)] =   5.00000
    eigenvalues:
  0.500  0.500  0.500  0.500  0.500
    eigenvectors:
  1.000  0.000  0.000  0.000  0.000
  0.000  1.000  0.000  0.000  0.000
  0.000  0.000  1.000  0.000  0.000
  0.000  0.000  0.000  1.000  0.000
  0.000  0.000  0.000  0.000  1.000
    occupations:
  0.500  0.000  0.000  0.000  0.000
  0.000  0.500  0.000  0.000  0.000
  0.000  0.000  0.500  0.000  0.000
  0.000  0.000  0.000  0.500  0.000
  0.000  0.000  0.000  0.000  0.500
atom   10   Tr[ns(na)] =   5.00000
    eigenvalues:
  0.500  0.500  0.500  0.500  0.500
    eigenvectors:
  1.000  0.000  0.000  0.000  0.000
  0.000  1.000  0.000  0.000  0.000
  0.000  0.000  1.000  0.000  0.000
  0.000  0.000  0.000  1.000  0.000
  0.000  0.000  0.000  0.000  1.000
    occupations:
  0.500  0.000  0.000  0.000  0.000
  0.000  0.500  0.000  0.000  0.000
  0.000  0.000  0.500  0.000  0.000
  0.000  0.000  0.000  0.500  0.000
  0.000  0.000  0.000  0.000  0.500
atom   16   Tr[ns(na)] =   5.00000
    eigenvalues:
  0.500  0.500  0.500  0.500  0.500
    eigenvectors:
  1.000  0.000  0.000  0.000  0.000
  0.000  1.000  0.000  0.000  0.000
  0.000  0.000  1.000  0.000  0.000
  0.000  0.000  0.000  1.000  0.000
  0.000  0.000  0.000  0.000  1.000
    occupations:
  0.500  0.000  0.000  0.000  0.000
  0.000  0.500  0.000  0.000  0.000
  0.000  0.000  0.500  0.000  0.000
  0.000  0.000  0.000  0.500  0.000
  0.000  0.000  0.000  0.000  0.500
atom   17   Tr[ns(na)] =   5.00000
    eigenvalues:
  0.500  0.500  0.500  0.500  0.500
    eigenvectors:
  1.000  0.000  0.000  0.000  0.000
  0.000  1.000  0.000  0.000  0.000
  0.000  0.000  1.000  0.000  0.000
  0.000  0.000  0.000  1.000  0.000
  0.000  0.000  0.000  0.000  1.000
    occupations:
  0.500  0.000  0.000  0.000  0.000
  0.000  0.500  0.000  0.000  0.000
  0.000  0.000  0.500  0.000  0.000
  0.000  0.000  0.000  0.500  0.000
  0.000  0.000  0.000  0.000  0.500
atom   22   Tr[ns(na)] =   5.00000
    eigenvalues:
  0.500  0.500  0.500  0.500  0.500
    eigenvectors:
  1.000  0.000  0.000  0.000  0.000
  0.000  1.000  0.000  0.000  0.000
  0.000  0.000  1.000  0.000  0.000
  0.000  0.000  0.000  1.000  0.000
  0.000  0.000  0.000  0.000  1.000
    occupations:
  0.500  0.000  0.000  0.000  0.000
  0.000  0.500  0.000  0.000  0.000
[...]
  0.000 -0.001  0.001 -0.000  0.522
atom    9   Tr[ns(na)] =   5.83266
    eigenvalues:
  0.479  0.517  0.598  0.603  0.720
    eigenvectors:
  0.000  0.000  0.192  0.015  0.793
  0.000  0.000  0.066  0.934  0.000
  0.039  0.961  0.000  0.000  0.000
  0.000  0.000  0.742  0.051  0.207
  0.961  0.039  0.000  0.000  0.000
    occupations:
  0.695  0.000 -0.001 -0.049 -0.002
  0.000  0.603 -0.000 -0.002 -0.000
 -0.001 -0.000  0.515  0.000  0.007
 -0.049 -0.002  0.000  0.623  0.002
 -0.002 -0.000  0.007  0.002  0.480
atom   10   Tr[ns(na)] =   5.80150
    eigenvalues:
  0.477  0.495  0.514  0.681  0.733
    eigenvectors:
  0.022  0.977  0.000  0.000  0.001
  0.000  0.000  0.000  1.000  0.000
  0.978  0.022  0.000  0.000  0.000
  0.000  0.001  0.000  0.000  0.999
  0.000  0.000  1.000  0.000  0.000
    occupations:
  0.495  0.000 -0.003  0.009  0.000
  0.000  0.681  0.000  0.000  0.001
 -0.003  0.000  0.477  0.000 -0.000
  0.009  0.000  0.000  0.733  0.000
  0.000  0.001 -0.000  0.000  0.514
atom   16   Tr[ns(na)] =   5.83646
    eigenvalues:
  0.446  0.524  0.576  0.624  0.749
    eigenvectors:
  0.010  0.029  0.295  0.000  0.666
  0.000  0.935  0.061  0.002  0.001
  0.828  0.000  0.000  0.159  0.012
  0.001  0.034  0.640  0.005  0.320
  0.161  0.001  0.005  0.833  0.000
    occupations:
  0.688  0.014  0.027 -0.081  0.005
  0.014  0.528  0.004  0.006 -0.003
  0.027  0.004  0.478 -0.013 -0.065
 -0.081  0.006 -0.013  0.630 -0.003
  0.005 -0.003 -0.065 -0.003  0.595
atom   17   Tr[ns(na)] =   5.82858
    eigenvalues:
  0.413  0.522  0.587  0.619  0.774
    eigenvectors:
  0.000  0.000  0.971  0.027  0.002
  0.000  0.000  0.028  0.972  0.000
  1.000  0.000  0.000  0.000  0.000
  0.000  0.000  0.001  0.000  0.998
  0.000  1.000  0.000  0.000  0.000
    occupations:
  0.588  0.005  0.001 -0.007  0.000
  0.005  0.618  0.004 -0.002 -0.001
  0.001  0.004  0.413  0.001  0.000
 -0.007 -0.002  0.001  0.773 -0.000
  0.000 -0.001  0.000 -0.000  0.522
atom   22   Tr[ns(na)] =   5.83430
    eigenvalues:
  0.478  0.515  0.597  0.602  0.725
    eigenvectors:
  0.000  0.000  0.184  0.027  0.788
  0.000  0.000  0.119  0.881  0.000
  0.036  0.964  0.000  0.000  0.000
  0.000  0.000  0.697  0.092  0.211
  0.964  0.036  0.000  0.000  0.000
    occupations:
  0.698 -0.000 -0.000 -0.052 -0.002
 -0.000  0.602 -0.001  0.002  0.000
 -0.000 -0.001  0.514  0.000 -0.007
 -0.052  0.002  0.000  0.625  0.001
 -0.002  0.000 -0.007  0.001  0.479
atom   23   Tr[ns(na)] =   5.91785
    eigenvalues:
  0.513  0.516  0.534  0.630  0.767
    eigenvectors:
  0.000  0.000  0.000  0.987  0.013
  0.000  0.000  1.000  0.000  0.000
  0.000  1.000  0.000  0.000  0.000
  0.000  0.000  0.000  0.013  0.987
  0.999  0.000  0.000  0.000  0.000
    occupations:
  0.631  0.000 -0.000 -0.015  0.000
  0.000  0.534 -0.000 -0.000  0.000
 -0.000 -0.000  0.516 -0.000  0.000
 -0.015 -0.000 -0.000  0.765  0.000
  0.000  0.000  0.000  0.000  0.513
N of occupied +U levels =  46.7046642
 --- exit write_ns ---

     Threshold (ethr) on eigenvalues was too large:
     Diagonalizing with lowered threshold

     Davidson diagonalization with overlap
     ethr =  8.97E-09,  avg # of iterations =  2.8

[...]

     total energy              =   -1729.74807841 Ry
     Harris-Foulkes estimate   =   -1729.74807841 Ry
     estimated scf accuracy    <       0.00000001 Ry

     iteration # 17     ecut=    40.00 Ry     beta=0.70
     Davidson diagonalization with overlap
     ethr =  5.95E-12,  avg # of iterations =  1.0

     negative rho (up, down):  0.354E-02 0.000E+00

     End of self-consistent calculation
 --- enter write_ns ---
 LDA+U parameters:
U( 2)     =  4.00000000
alpha( 2) =  0.00000000
atom    3   Tr[ns(na)] =   5.83727
    eigenvalues:
  0.448  0.524  0.576  0.624  0.747
    eigenvectors:
  0.010  0.030  0.295  0.000  0.666
  0.000  0.935  0.061  0.002  0.001
  0.822  0.000  0.000  0.166  0.012
  0.001  0.034  0.638  0.005  0.321
  0.167  0.001  0.006  0.826  0.000
    occupations:
  0.687 -0.014  0.026 -0.081 -0.005
 -0.014  0.528 -0.004 -0.006 -0.003
  0.026 -0.004  0.480 -0.012  0.065
 -0.081 -0.006 -0.012  0.629  0.004
 -0.005 -0.003  0.065  0.004  0.594
atom    4   Tr[ns(na)] =   5.81674
    eigenvalues:
  0.421  0.522  0.582  0.628  0.755
    eigenvectors:
  0.000  0.000  0.987  0.013  0.000
  0.000  0.000  0.013  0.986  0.000
  1.000  0.000  0.000  0.000  0.000
  0.000  0.000  0.000  0.000  1.000
  0.000  1.000  0.000  0.000  0.000
    occupations:
  0.583  0.005  0.001 -0.000  0.000
  0.005  0.627  0.004 -0.003 -0.001
  0.001  0.004  0.421 -0.000  0.001
 -0.000 -0.003 -0.000  0.755 -0.000
  0.000 -0.001  0.001 -0.000  0.522
atom    9   Tr[ns(na)] =   5.83447
    eigenvalues:
  0.479  0.517  0.598  0.603  0.720
    eigenvectors:
  0.000  0.000  0.192  0.015  0.793
  0.000  0.000  0.065  0.935  0.000
  0.040  0.960  0.000  0.000  0.000
  0.000  0.000  0.743  0.050  0.207
  0.960  0.040  0.000  0.000  0.000
    occupations:
  0.695 -0.000 -0.001 -0.049 -0.002
 -0.000  0.603 -0.000 -0.002 -0.000
 -0.001 -0.000  0.516  0.000  0.007
 -0.049 -0.002  0.000  0.623  0.002
 -0.002 -0.000  0.007  0.002  0.481
atom   10   Tr[ns(na)] =   5.79955
    eigenvalues:
  0.477  0.495  0.514  0.680  0.733
    eigenvectors:
  0.021  0.977  0.000  0.000  0.001
  0.000  0.000  0.000  1.000  0.000
  0.979  0.021  0.000  0.000  0.000
  0.000  0.001  0.000  0.000  0.999
  0.000  0.000  1.000  0.000  0.000
    occupations:
  0.495  0.000 -0.003  0.009  0.000
  0.000  0.680  0.000  0.000  0.001
 -0.003  0.000  0.477  0.000 -0.000
  0.009  0.000  0.000  0.733  0.000
  0.000  0.001 -0.000  0.000  0.514
atom   16   Tr[ns(na)] =   5.83700
    eigenvalues:
  0.446  0.524  0.576  0.624  0.749
    eigenvectors:
  0.010  0.029  0.295  0.000  0.666
  0.000  0.935  0.061  0.002  0.001
  0.828  0.000  0.000  0.160  0.012
  0.001  0.034  0.639  0.005  0.320
  0.161  0.001  0.005  0.833  0.000
    occupations:
  0.688  0.014  0.027 -0.081  0.005
  0.014  0.528  0.004  0.006 -0.003
  0.027  0.004  0.478 -0.013 -0.065
 -0.081  0.006 -0.013  0.630 -0.003
  0.005 -0.003 -0.065 -0.003  0.595
atom   17   Tr[ns(na)] =   5.82809
    eigenvalues:
  0.413  0.522  0.587  0.619  0.774
    eigenvectors:
  0.000  0.000  0.971  0.028  0.002
  0.000  0.000  0.028  0.972  0.000
  1.000  0.000  0.000  0.000  0.000
  0.000  0.000  0.001  0.000  0.998
  0.000  1.000  0.000  0.000  0.000
    occupations:
  0.588  0.005  0.001 -0.007  0.000
  0.005  0.618  0.004 -0.002 -0.001
  0.001  0.004  0.413  0.001  0.000
 -0.007 -0.002  0.001  0.773 -0.000
  0.000 -0.001  0.000 -0.000  0.522
atom   22   Tr[ns(na)] =   5.83409
    eigenvalues:
  0.478  0.515  0.597  0.602  0.725
    eigenvectors:
  0.000  0.000  0.184  0.028  0.788
  0.000  0.000  0.123  0.877  0.000
  0.036  0.964  0.000  0.000  0.000
  0.000  0.000  0.693  0.095  0.212
  0.964  0.036  0.000  0.000  0.000
    occupations:
  0.698 -0.000 -0.000 -0.052 -0.002
 -0.000  0.602 -0.001  0.002  0.000
 -0.000 -0.001  0.514  0.000 -0.007
 -0.052  0.002  0.000  0.625  0.001
 -0.002  0.000 -0.007  0.001  0.479
atom   23   Tr[ns(na)] =   5.91618
    eigenvalues:
  0.513  0.516  0.534  0.630  0.766
    eigenvectors:
  0.000  0.000  0.000  0.987  0.013
  0.000  0.000  1.000  0.000  0.000
  0.000  1.000  0.000  0.000  0.000
  0.000  0.000  0.000  0.013  0.987
  0.999  0.000  0.000  0.000  0.000
    occupations:
  0.631  0.000 -0.000 -0.015  0.000
  0.000  0.534 -0.000 -0.000  0.000
 -0.000 -0.000  0.516 -0.000  0.000
 -0.015 -0.000 -0.000  0.765  0.000
  0.000  0.000  0.000  0.000  0.513
N of occupied +U levels =  46.7033987
 --- exit write_ns ---

[...]

          k = 0.2500-0.3900 0.0000 ( 29726 PWs)   bands (ev):

[...]

          k =-0.2500 0.1950 0.0000 ( 29746 PWs)   bands (ev):

   -62.7855 -62.6962 -62.6850 -62.3947 -62.3147 -62.3094 -62.2827 -62.2317
   -37.3825 -37.3678 -37.1937 -37.1162 -36.8976 -36.7805 -36.7391 -36.7008
   -36.6790 -36.6748 -36.6512 -36.6483 -36.6183 -36.5753 -36.5748 -36.5268
   -36.4779 -36.3986 -36.3877 -36.3700 -36.2951 -36.0759 -35.9349 -35.9053
   -20.7452 -20.5006 -20.1268 -20.0035 -19.8612 -19.7481 -19.6857 -19.6344
   -19.5384 -19.3550 -19.1948 -19.1847 -19.0393 -18.9924 -18.9000 -18.8185
   -18.5103 -18.3522 -18.2712  -8.8969  -8.6704  -8.5599  -8.2336  -8.0491
    -7.9675  -7.8180  -7.7709  -7.6292  -7.5237  -7.4373  -7.2100  -7.1012
    -7.0228  -6.7933  -6.7298  -6.6707  -6.5377  -6.3727  -6.2894  -6.1330
    -6.0510  -5.9687  -5.8922  -5.6360  -5.5860  -5.4465  -5.3464  -5.2199
    -5.1475  -5.0608  -4.9547  -4.8165  -4.7811  -4.7036  -4.6360  -4.5957
    -4.5348  -4.4535  -4.3419  -4.2748  -4.1781  -3.9867  -3.9562  -3.8957
    -3.8479  -3.7710  -3.6868  -3.6055  -3.5708  -3.4723  -3.3920  -3.2740
    -3.1476  -3.0695  -3.0166  -2.7150  -2.0811  -1.9913  -1.8393  -0.8742
    -0.8144  -0.7419  -0.5764   0.0347   0.2324   0.4664   0.5273   0.5901
     0.8171   0.9256   0.9978   1.2382   1.3247   1.3516   1.4343   1.5066
     1.5516   1.6735   1.7640   2.1443   2.3100   3.2208   3.3010   3.5203
     3.6019   3.7267   3.9410   4.1182   4.1792   4.2267   4.5279   4.5817
     4.6761   4.9567   5.2643   5.3174   5.5513   5.6520   5.7547   5.8201
     5.9577   6.0524   6.3237   6.4948   6.7811   6.9452   7.1482   7.2148
     7.2505   7.5945   7.6048   7.8222   8.0343   8.0900   8.2787   8.3517
     8.5282   8.6021   8.6783   8.8198   9.0078   9.1295   9.1926   9.3575
     9.4817   9.5255   9.6279   9.6484   9.6786   9.7462   9.9449  10.0976
    10.1475  10.2501  10.3123  10.3919  10.5421  10.5739  10.7019  10.7664
    10.8913  10.9862  11.0377  11.2296  11.3816  11.4846  11.6098  11.6740
    11.7651  11.8373  11.9389  11.9749  12.0342  12.2698  12.3348  12.4119
    12.4542  12.5042  12.5512  12.6322  12.7095  12.8440  12.9121  12.9363
    13.0512  13.1869  13.2519  13.2785  13.3437  13.4192  13.4762  13.5464
    13.5815  13.6775  13.7118  13.7830  13.8856  13.9459  14.0537  14.1204
    14.1774  14.2136  14.3233  14.4128  14.4532  14.5558  14.6122  14.6589
    14.7057  14.7793  14.8718  14.9174  14.9579  15.0242  15.2057  15.2318
    15.3479  15.4093  15.4834  15.5636  15.6302  15.7188  15.7951  15.8867
    15.9545  16.0081  16.0789  16.1551  16.1976  16.2489  16.3190  16.3823
    16.4308  16.4659  16.5741  16.6494  16.7709  16.8538  16.8894  16.9642
    17.0713  17.1372  17.2596  17.2801  17.3001  17.3966  17.4677  17.5685
    17.5990  17.6876  17.7264  17.7898  17.9208  17.9808  18.0589  18.1308
    18.1538  18.2362  18.2866  18.3705  18.4129  18.5003  18.5912  18.6567
    18.7829  18.8579  18.9476  18.9772  19.0819  19.1159  19.1624  19.2512
    19.4273  19.4762  19.5780  19.7000  19.7247  19.8248  19.8685  19.9266
    19.9695  20.0573  20.1413  20.2022  20.2798  20.2988  20.3635  20.4399
    20.4593  20.5161  20.5902  20.6504  20.6701  20.7038  20.7860  20.8967
    20.9325  21.0097  21.0560  21.1336  21.1986  21.2660  21.3230  21.3825
    21.4834  21.5408  21.5918  21.6854  21.7505  21.7828  21.8199  21.8495
    21.8779

     the Fermi energy is    -0.4012 ev

!    total energy              =   -1729.74807841 Ry
     Harris-Foulkes estimate   =   -1729.74807841 Ry
     estimated scf accuracy    <          7.9E-09 Ry

     The total energy is the sum of the following terms:

     one-electron contribution =  -22118.53074934 Ry
     hartree contribution      =   11081.48172432 Ry
     xc contribution           =    -293.76556682 Ry
     ewald contribution        =    9598.32870596 Ry
     Hubbard energy            =       2.73726841 Ry
     smearing contrib. (-TS)   =       0.00053907 Ry

     convergence has been achieved in  17 iterations

     Forces acting on atoms (Ry/au):

     negative rho (up, down):  0.354E-02 0.000E+00
     atom    1 type  1   force =     0.00099986   -0.00342262   -0.00030737
     atom    2 type  1   force =    -0.00012622    0.00564764    0.00039026
     atom    3 type  2   force =    -0.02000877   -0.00772222    0.00008528
     atom    4 type  2   force =     0.00075816    0.00560413   -0.00035291
     atom    5 type  1   force =    -0.00494412   -0.00588909    0.00019906
     atom    6 type  1   force =    -0.00758349    0.00383658    0.00013553
     atom    7 type  1   force =     0.00023643    0.00027024    0.00035344
     atom    8 type  1   force =     0.00338258    0.00029670   -0.00015594
     atom    9 type  2   force =    -0.01371317    0.00011039    0.00051650
     atom   10 type  2   force =    -0.00014915   -0.00037197   -0.00041800
     atom   11 type  1   force =    -0.01339742   -0.02079721   -0.00023508
     atom   12 type  1   force =    -0.01437158    0.02085532   -0.00025549
     atom   13 type  1   force =     0.00040430   -0.00002905    0.00060795
     atom   14 type  1   force =    -0.00366802   -0.00557234   -0.00012974
     atom   15 type  1   force =     0.00006636    0.01054905    0.00039494
     atom   16 type  2   force =     0.01959118   -0.00775023    0.00005156
     atom   17 type  2   force =    -0.00295309    0.00382797   -0.00092370
     atom   18 type  1   force =     0.00830821   -0.00541840    0.00016850
     atom   19 type  1   force =     0.00698425    0.00361629    0.00014793
     atom   20 type  1   force =    -0.00007168    0.00274291    0.00026197
     atom   21 type  1   force =     0.00379164    0.00029795    0.00025066
     atom   22 type  2   force =     0.00961178   -0.00017214   -0.00071203
     atom   23 type  2   force =     0.00027586    0.00067034   -0.00026457
     atom   24 type  1   force =     0.01373997   -0.02064028   -0.00034888
     atom   25 type  1   force =     0.01404296    0.02065763   -0.00036209
     atom   26 type  1   force =    -0.00081799    0.00036167    0.00032876
     atom   27 type  3   force =     0.00001981   -0.00074976   -0.00033832
     atom   28 type  3   force =    -0.00000097   -0.00065586   -0.00000691
     atom   29 type  3   force =    -0.00034263    0.00006621   -0.00012813
     atom   30 type  3   force =    -0.00006867   -0.00019513    0.00025050
     atom   31 type  1   force =     0.00000362   -0.00002472    0.00079632

     Total force =     0.002377     Total SCF correction =     0.000203

     bfgs converged in   8 scf cycles and   7 bfgs steps
     (criteria: energy < 0.10E-03, force < 0.10E-02)

     End of BFGS Geometry Optimization

     Final energy   =   -1729.7480784064 Ry
Begin final coordinates

ATOMIC_POSITIONS (crystal)
O0       0.000000000   0.000000000   0.370094282    0   0   1
O0       0.000000000   0.500000000   0.384306722    0   0   1
Mo1      0.250000000   0.500000000   0.442175937    0   0   1
Mo1      0.000000000   0.000000000   0.441619589    0   0   1
O0       0.250000000   0.780000000   0.442625920    0   0   1
O0       0.250000000   0.220000000   0.442756157    0   0   1
O0       0.000000000   0.500000000   0.499587372    0   0   1
O0       0.000000000   0.000000000   0.515935567    0   0   1
Mo1      0.250000000   0.000000000   0.573950055    0   0   1
Mo1      0.000000000   0.500000000   0.566746496    0   0   1
O0       0.250000000   0.720000000   0.570754570    0   0   1
O0       0.250000000   0.280000000   0.570726778    0   0   1
O0       0.000000000   0.000000000   0.624304809    0   0   1
O0       0.500000000   0.000000000   0.370933543    0   0   1
O0       0.500000000   0.500000000   0.383866872    0   0   1
Mo1      0.750000000   0.500000000   0.442174404    0   0   1
Mo1      0.500000000   0.000000000   0.443096983    0   0   1
O0       0.750000000   0.780000000   0.442852968    0   0   1
O0       0.750000000   0.220000000   0.442621347    0   0   1
O0       0.500000000   0.500000000   0.496615616    0   0   1
O0       0.500000000   0.000000000   0.515661841    0   0   1
Mo1      0.750000000   0.000000000   0.573731560    0   0   1
Mo1      0.500000000   0.500000000   0.579910505    0   0   1
O0       0.750000000   0.720000000   0.570722046    0   0   1
O0       0.750000000   0.280000000   0.570751195    0   0   1
O0       0.500000000   0.000000000   0.624056083    0   0   1
H2      -0.000633184   0.598304651   0.358420721
H2       0.499647731   0.621184906   0.365283721
H2       0.167134433   0.016635054   0.355560583
H2       0.663838763   0.019892030   0.355507314
O0       0.500001880   0.499643093   0.642228443
End final coordinates

     General routines

     Parallel routines
     Hubbard U routines

   This run was terminated on:   5: 7:17  29Apr2014

   JOB DONE.
Running PBS batch system epilogue script
Job id: 340373.audhumbla.fysik.dtu.dk
Username: zhonxu
Groupname: campgst
Jobname: MoO2/Eads-2-layers/O-U-4.0
Sessionid: 26282
Queuename: verylong
Accounting:
This job has allocated the following 16 nodes:
a096 a096 a096 a096 a096 a096 a096 a096 a039 a039 a039 a039 a039 a039 a039 a039
Finished epilogue job 340373.audhumbla.fysik.dtu.dk for zhonxu