     Program PWSCF v.5.0.2 (svn rev. 9656) starts on 28Apr2014 at  3:14: 9

     Current dimensions of program PWSCF are:
     Max number of different atomic species (ntypx) = 10
     Max number of k-points (npk) =  40000
     Max angular momentum in pseudopotentials (lmaxx) =  3
     Reading input from pwscf.in
Warning: card &CELL ignored
Warning: card / ignored

     Subspace diagonalization in iterative solution of the eigenvalue problem:
     a serial algorithm will be used

     bravais-lattice index     =            0
     lattice parameter (alat)  =      12.2076  a.u.
     unit-cell volume          =    7496.5096 (a.u.)^3
     number of atoms/cell      =           31
     number of atomic types    =            3
     number of electrons       =       246.00
     number of Kohn-Sham states=          369
     kinetic-energy cutoff     =      40.0000  Ry
     charge density cutoff     =     500.0000  Ry
     convergence threshold     =      1.0E-06
     mixing beta               =       0.7000
     number of iterations used =            8  plain     mixing
     Exchange-correlation      = SLA  PW   PBE  PBE ( 1 4 3 4 0)
     EXX-fraction              =        0.00
     nstep                     =           50

     celldm(1)=  12.207631  celldm(2)=   0.000000  celldm(3)=   0.000000
     celldm(4)=   0.000000  celldm(5)=   0.000000  celldm(6)=   0.000000

     crystal axes: (cart. coord. in units of alat)
               a(1) = (   1.000000   0.000000   0.000000 )
               a(2) = (   0.000000   1.004836   0.000000 )
               a(3) = (   0.000000   0.000000   4.100811 )

     reciprocal axes: (cart. coord. in units 2 pi/alat)
               b(1) = (  1.000000  0.000000  0.000000 )
               b(2) = (  0.000000  0.995187  0.000000 )
               b(3) = (  0.000000  0.000000  0.243854 )

     PseudoPot. # 1 for O  read from file:
     /home/camp/zhonxu/pseudo/o_pbe_v1.01.uspp.F.UPF
     MD5 check sum: 2bcb18d16ea4b960afae9ec6d52f22d2
     Pseudo is Ultrasoft + core correction, Zval =  6.0
     Generated by new atomic code, or converted to UPF format
     Using radial grid of  737 points,  5 beta functions with:
                l(1) =   0
                l(2) =   0
                l(3) =   1
                l(4) =   1
                l(5) =   2
     Q(r) pseudized with  8 coefficients,  rinner =    0.900   0.900   0.900
                                                       0.900   0.900

     PseudoPot. # 2 for Pt read from file:
     /home/camp/zhonxu/pseudo/pt_pbe_v1.uspp.F.UPF
     MD5 check sum: 4c71d6ad5ef119f1eb26a4d0b7884226
     Pseudo is Ultrasoft + core correction, Zval = 16.0
     Generated by new atomic code, or converted to UPF format
     Using radial grid of  985 points,  6 beta functions with:
                l(1) =   0
                l(2) =   0
                l(3) =   1
                l(4) =   1
                l(5) =   2
                l(6) =   2
     Q(r) pseudized with  8 coefficients,  rinner =    1.300   1.300   1.300
                                                       1.300   1.300

     PseudoPot. # 3 for H  read from file:
     /home/camp/zhonxu/pseudo/h_pbe_v1.uspp.F.UPF
     MD5 check sum: 3408e3ff4ec8b0a4e358431e7e038a48
     Pseudo is Ultrasoft, Zval =  1.0
     Generated by new atomic code, or converted to UPF format
     Using radial grid of  615 points,  2 beta functions with:
                l(1) =   0
                l(2) =   0
     Q(r) pseudized with  8 coefficients,  rinner =    0.700

     atomic species   valence    mass     pseudopotential
        O0             6.00    15.99940     O ( 1.00)
        Pt1           16.00   195.08000     Pt( 1.00)
        H2             1.00     1.00794     H ( 1.00)

     Simplified LDA+U calculation (l_max = 2) with parameters (eV):
     atomic species    L          U    alpha       J0     beta
        Pt1            2     8.0000   0.0000   0.0000   0.0000

     No symmetry found

   Cartesian axes

     site n.     atom                  positions (alat units)
         1           O0  tau(   1) = (   0.0000000   0.0000000   1.5489174  )
         2           O0  tau(   2) = (   0.0000000   0.5024180   1.6470088  )
         3           Pt1 tau(   3) = (   0.2500000   0.5024180   1.8504500  )
         4           Pt1 tau(   4) = (   0.0000000   0.0000000   1.8564782  )
         5           O0  tau(   5) = (   0.2500000   0.8139171   1.8182587  )
         6           O0  tau(   6) = (   0.2500000   0.1909188   1.8867012  )
         7           O0  tau(   7) = (   0.0000000   0.5024180   2.0373240  )
         8           O0  tau(   8) = (   0.0000000   0.0000000   2.1721997  )
         9           Pt1 tau(   9) = (   0.2500000   0.0000000   2.3623543  )
        10           Pt1 tau(  10) = (   0.0000000   0.5024180   2.3594017  )
        11           O0  tau(  11) = (   0.2500000   0.6933368   2.3215512  )
        12           O0  tau(  12) = (   0.2500000   0.3114991   2.4021322  )
        13           O0  tau(  13) = (   0.0000000   0.0000000   2.5481621  )
        14           O0  tau(  14) = (   0.5000000   0.0000000   1.5492455  )
        15           O0  tau(  15) = (   0.5000000   0.5024180   1.6439332  )
        16           Pt1 tau(  16) = (   0.7500000   0.5024180   1.8504910  )
        17           Pt1 tau(  17) = (   0.5000000   0.0000000   1.8565192  )
        18           O0  tau(  18) = (   0.7500000   0.8139171   1.8184227  )
        19           O0  tau(  19) = (   0.7500000   0.1909188   1.8866602  )
        20           O0  tau(  20) = (   0.5000000   0.5024180   2.0431061  )
        21           O0  tau(  21) = (   0.5000000   0.0000000   2.1716256  )
        22           Pt1 tau(  22) = (   0.7500000   0.0000000   2.3623953  )
        23           Pt1 tau(  23) = (   0.5000000   0.5024180   2.3697358  )
        24           O0  tau(  24) = (   0.7500000   0.6933368   2.3215102  )
        25           O0  tau(  25) = (   0.7500000   0.3114991   2.4021732  )
        26           O0  tau(  26) = (   0.5000000   0.0000000   2.5480390  )
        27           H2  tau(  27) = (   0.0001100   0.6425926   1.5814778  )
        28           H2  tau(  28) = (   0.5001800   0.6431151   1.5801656  )
        29           H2  tau(  29) = (   0.1426600   0.0364956   1.5073762  )
        30           H2  tau(  30) = (   0.6419200   0.0388771   1.5073762  )
        31           O0  tau(  31) = (   0.5000900   0.5753691   2.6428088  )

     number of k points=    10  Methfessel-Paxton smearing, width (Ry)=  0.0100
                       cart. coord. in units 2pi/alat
        k(    1) = (   0.0000000   0.0000000   0.0000000), wk =   0.1250000
        k(    2) = (   0.0000000   0.2487968   0.0000000), wk =   0.2500000
        k(    3) = (   0.0000000  -0.4975937   0.0000000), wk =   0.1250000
        k(    4) = (   0.2500000   0.0000000   0.0000000), wk =   0.2500000
        k(    5) = (   0.2500000   0.2487968   0.0000000), wk =   0.2500000
        k(    6) = (   0.2500000  -0.4975937   0.0000000), wk =   0.2500000
        k(    7) = (  -0.5000000   0.0000000   0.0000000), wk =   0.1250000
        k(    8) = (  -0.5000000   0.2487968   0.0000000), wk =   0.2500000
        k(    9) = (  -0.5000000  -0.4975937   0.0000000), wk =   0.1250000
        k(   10) = (  -0.2500000   0.2487968   0.0000000), wk =   0.2500000

     Largest allocated arrays     est. size (Mb)     dimensions
     Largest temporary arrays     est. size (Mb)     dimensions

     Check: negative/imaginary core charge=   -0.000003    0.000000

     Initial potential from superposition of free atoms
     Check: negative starting charge=   -1.533958

     starting charge  241.99985, renormalised to  246.00000

     negative rho (up, down):  0.156E+01 0.000E+00
     Number of +U iterations with fixed ns =  0
     Starting occupations:
 --- enter write_ns ---
 LDA+U parameters:
U( 2)     =  8.00000000
alpha( 2) =  0.00000000
atom    3   Tr[ns(na)] =   8.00000
    eigenvalues:
  0.800  0.800  0.800  0.800  0.800
    eigenvectors:
  1.000  0.000  0.000  0.000  0.000
  0.000  1.000  0.000  0.000  0.000
  0.000  0.000  1.000  0.000  0.000
  0.000  0.000  0.000  1.000  0.000
  0.000  0.000  0.000  0.000  1.000
    occupations:
  0.800  0.000  0.000  0.000  0.000
  0.000  0.800  0.000  0.000  0.000
  0.000  0.000  0.800  0.000  0.000
  0.000  0.000  0.000  0.800  0.000
  0.000  0.000  0.000  0.000  0.800
atom    4   Tr[ns(na)] =   8.00000
    eigenvalues:
  0.800  0.800  0.800  0.800  0.800
    eigenvectors:
  1.000  0.000  0.000  0.000  0.000
  0.000  1.000  0.000  0.000  0.000
  0.000  0.000  1.000  0.000  0.000
  0.000  0.000  0.000  1.000  0.000
  0.000  0.000  0.000  0.000  1.000
    occupations:
  0.800  0.000  0.000  0.000  0.000
  0.000  0.800  0.000  0.000  0.000
  0.000  0.000  0.800  0.000  0.000
  0.000  0.000  0.000  0.800  0.000
  0.000  0.000  0.000  0.000  0.800
atom    9   Tr[ns(na)] =   8.00000
    eigenvalues:
  0.800  0.800  0.800  0.800  0.800
    eigenvectors:
  1.000  0.000  0.000  0.000  0.000
  0.000  1.000  0.000  0.000  0.000
  0.000  0.000  1.000  0.000  0.000
  0.000  0.000  0.000  1.000  0.000
  0.000  0.000  0.000  0.000  1.000
    occupations:
  0.800  0.000  0.000  0.000  0.000
  0.000  0.800  0.000  0.000  0.000
  0.000  0.000  0.800  0.000  0.000
  0.000  0.000  0.000  0.800  0.000
  0.000  0.000  0.000  0.000  0.800
atom   10   Tr[ns(na)] =   8.00000
    eigenvalues:
  0.800  0.800  0.800  0.800  0.800
    eigenvectors:
  1.000  0.000  0.000  0.000  0.000
  0.000  1.000  0.000  0.000  0.000
  0.000  0.000  1.000  0.000  0.000
  0.000  0.000  0.000  1.000  0.000
  0.000  0.000  0.000  0.000  1.000
    occupations:
  0.800  0.000  0.000  0.000  0.000
  0.000  0.800  0.000  0.000  0.000
  0.000  0.000  0.800  0.000  0.000
  0.000  0.000  0.000  0.800  0.000
  0.000  0.000  0.000  0.000  0.800
atom   16   Tr[ns(na)] =   8.00000
    eigenvalues:
  0.800  0.800  0.800  0.800  0.800
    eigenvectors:
  1.000  0.000  0.000  0.000  0.000
  0.000  1.000  0.000  0.000  0.000
  0.000  0.000  1.000  0.000  0.000
  0.000  0.000  0.000  1.000  0.000
  0.000  0.000  0.000  0.000  1.000
    occupations:
  0.800  0.000  0.000  0.000  0.000
  0.000  0.800  0.000  0.000  0.000
  0.000  0.000  0.800  0.000  0.000
  0.000  0.000  0.000  0.800  0.000
  0.000  0.000  0.000  0.000  0.800
atom   17   Tr[ns(na)] =   8.00000
    eigenvalues:
  0.800  0.800  0.800  0.800  0.800
    eigenvectors:
  1.000  0.000  0.000  0.000  0.000
  0.000  1.000  0.000  0.000  0.000
  0.000  0.000  1.000  0.000  0.000
  0.000  0.000  0.000  1.000  0.000
  0.000  0.000  0.000  0.000  1.000
    occupations:
  0.800  0.000  0.000  0.000  0.000
  0.000  0.800  0.000  0.000  0.000
  0.000  0.000  0.800  0.000  0.000
  0.000  0.000  0.000  0.800  0.000
  0.000  0.000  0.000  0.000  0.800
atom   22   Tr[ns(na)] =   8.00000
    eigenvalues:
  0.800  0.800  0.800  0.800  0.800
    eigenvectors:
  1.000  0.000  0.000  0.000  0.000
  0.000  1.000  0.000  0.000  0.000
  0.000  0.000  1.000  0.000  0.000
  0.000  0.000  0.000  1.000  0.000
  0.000  0.000  0.000  0.000  1.000
    occupations:
  0.800  0.000  0.000  0.000  0.000
  0.000  0.800  0.000  0.000  0.000
[...]
 -0.019  0.000  0.988  0.003 -0.000
  0.025  0.000  0.003  0.987  0.000
 -0.001  0.034 -0.000  0.000  0.713
atom    9   Tr[ns(na)] =   8.81131
    eigenvalues:
  0.729  0.740  0.969  0.978  0.989
    eigenvectors:
  0.005  0.126  0.000  0.011  0.857
  0.961  0.039  0.000  0.000  0.000
  0.001  0.014  0.007  0.974  0.004
  0.033  0.821  0.000  0.008  0.138
  0.000  0.000  0.992  0.007  0.001
    occupations:
  0.956  0.001 -0.010 -0.084  0.001
  0.001  0.730  0.001  0.002 -0.004
 -0.010  0.001  0.974 -0.027  0.001
 -0.084  0.002 -0.027  0.776 -0.000
  0.001 -0.004  0.001 -0.000  0.969
atom   10   Tr[ns(na)] =   8.88369
    eigenvalues:
  0.677  0.797  0.987  0.989  0.992
    eigenvectors:
  0.000  0.974  0.000  0.017  0.008
  0.020  0.000  0.980  0.000  0.000
  0.000  0.001  0.000  0.195  0.805
  0.000  0.025  0.000  0.788  0.187
  0.980  0.000  0.020  0.000  0.000
    occupations:
  0.802  0.000 -0.005  0.030  0.000
  0.000  0.981  0.000 -0.000 -0.043
 -0.005  0.000  0.992 -0.001 -0.000
  0.030 -0.000 -0.001  0.985 -0.000
  0.000 -0.043 -0.000 -0.000  0.683
atom   16   Tr[ns(na)] =   8.82555
    eigenvalues:
  0.715  0.727  0.989  0.990  0.992
    eigenvectors:
  0.049  0.119  0.664  0.168  0.000
  0.723  0.276  0.000  0.000  0.000
  0.001  0.005  0.003  0.054  0.936
  0.227  0.600  0.138  0.027  0.009
  0.000  0.000  0.195  0.751  0.055
    occupations:
  0.945 -0.004  0.009 -0.099  0.000
 -0.004  0.718 -0.002 -0.004 -0.004
  0.009 -0.002  0.990  0.020 -0.001
 -0.099 -0.004  0.020  0.770 -0.000
  0.000 -0.004 -0.001 -0.000  0.990
atom   17   Tr[ns(na)] =   8.81839
    eigenvalues:
  0.711  0.733  0.987  0.989  0.990
    eigenvectors:
  0.000  0.984  0.010  0.003  0.003
  0.015  0.000  0.043  0.855  0.087
  0.000  0.006  0.837  0.006  0.151
  0.000  0.010  0.110  0.122  0.758
  0.985  0.000  0.001  0.013  0.001
    occupations:
  0.737 -0.004 -0.019  0.025 -0.001
 -0.004  0.985  0.000  0.000  0.034
 -0.019  0.000  0.986  0.003 -0.000
  0.025  0.000  0.003  0.987  0.000
 -0.001  0.034 -0.000  0.000  0.715
atom   22   Tr[ns(na)] =   8.81135
    eigenvalues:
  0.730  0.740  0.969  0.978  0.989
    eigenvectors:
  0.002  0.129  0.000  0.012  0.857
  0.986  0.014  0.000  0.000  0.000
  0.000  0.015  0.009  0.972  0.004
  0.012  0.842  0.000  0.008  0.138
  0.000  0.000  0.990  0.009  0.001
    occupations:
  0.957 -0.001 -0.010 -0.084 -0.001
 -0.001  0.730 -0.001 -0.001 -0.004
 -0.010 -0.001  0.974 -0.027 -0.001
 -0.084 -0.001 -0.027  0.776  0.000
 -0.001 -0.004 -0.001  0.000  0.969
atom   23   Tr[ns(na)] =   8.80007
    eigenvalues:
  0.734  0.756  0.946  0.974  0.990
    eigenvectors:
  0.000  0.869  0.124  0.000  0.007
  0.024  0.000  0.000  0.976  0.000
  0.000  0.113  0.861  0.000  0.026
  0.000  0.018  0.015  0.000  0.968
  0.976  0.000  0.000  0.024  0.000
    occupations:
  0.781  0.000  0.059  0.027 -0.000
  0.000  0.968 -0.000  0.000 -0.037
  0.059 -0.000  0.926 -0.015 -0.000
  0.027  0.000 -0.015  0.986 -0.000
 -0.000 -0.037 -0.000 -0.000  0.740
N of occupied +U levels =  70.5938502
 --- exit write_ns ---

     Threshold (ethr) on eigenvalues was too large:
     Diagonalizing with lowered threshold

     Davidson diagonalization with overlap
     ethr =  1.57E-08,  avg # of iterations =  1.4

[...]

     total energy              =   -2278.63548532 Ry
     Harris-Foulkes estimate   =   -2278.63548532 Ry
     estimated scf accuracy    <       0.00000003 Ry

     iteration # 16     ecut=    40.00 Ry     beta=0.70
     Davidson diagonalization with overlap
     ethr =  1.31E-11,  avg # of iterations =  1.0

     negative rho (up, down):  0.157E+01 0.000E+00

     End of self-consistent calculation
 --- enter write_ns ---
 LDA+U parameters:
U( 2)     =  8.00000000
alpha( 2) =  0.00000000
atom    3   Tr[ns(na)] =   8.82553
    eigenvalues:
  0.715  0.727  0.989  0.990  0.992
    eigenvectors:
  0.049  0.118  0.662  0.170  0.000
  0.719  0.281  0.000  0.000  0.000
  0.001  0.005  0.004  0.054  0.935
  0.231  0.596  0.138  0.027  0.009
  0.000  0.000  0.196  0.748  0.056
    occupations:
  0.945  0.004  0.009 -0.099 -0.000
  0.004  0.718  0.002  0.004 -0.004
  0.009  0.002  0.990  0.020  0.001
 -0.099  0.004  0.020  0.770  0.000
 -0.000 -0.004  0.001  0.000  0.990
atom    4   Tr[ns(na)] =   8.81764
    eigenvalues:
  0.709  0.732  0.988  0.989  0.990
    eigenvectors:
  0.000  0.984  0.012  0.003  0.000
  0.015  0.000  0.094  0.833  0.059
  0.000  0.006  0.518  0.003  0.473
  0.000  0.010  0.375  0.148  0.467
  0.985  0.000  0.001  0.012  0.001
    occupations:
  0.736 -0.004 -0.019  0.025 -0.001
 -0.004  0.985  0.000  0.000  0.034
 -0.019  0.000  0.988  0.003 -0.000
  0.025  0.000  0.003  0.987  0.000
 -0.001  0.034 -0.000  0.000  0.713
atom    9   Tr[ns(na)] =   8.81081
    eigenvalues:
  0.729  0.740  0.969  0.978  0.989
    eigenvectors:
  0.006  0.126  0.000  0.011  0.857
  0.959  0.041  0.000  0.000  0.000
  0.001  0.015  0.006  0.975  0.004
  0.034  0.819  0.000  0.008  0.138
  0.000  0.000  0.993  0.006  0.001
    occupations:
  0.956  0.001 -0.010 -0.084  0.001
  0.001  0.730  0.001  0.002 -0.004
 -0.010  0.001  0.974 -0.027  0.001
 -0.084  0.002 -0.027  0.776 -0.000
  0.001 -0.004  0.001 -0.000  0.969
atom   10   Tr[ns(na)] =   8.88375
    eigenvalues:
  0.677  0.797  0.987  0.989  0.992
    eigenvectors:
  0.000  0.974  0.000  0.017  0.008
  0.020  0.000  0.980  0.000  0.000
  0.000  0.001  0.000  0.194  0.805
  0.000  0.025  0.000  0.789  0.187
  0.980  0.000  0.020  0.000  0.000
    occupations:
  0.802  0.000 -0.005  0.030  0.000
  0.000  0.981  0.000 -0.000 -0.043
 -0.005  0.000  0.992 -0.001 -0.000
  0.030 -0.000 -0.001  0.985 -0.000
  0.000 -0.043 -0.000 -0.000  0.683
atom   16   Tr[ns(na)] =   8.82550
    eigenvalues:
  0.715  0.727  0.989  0.990  0.992
    eigenvectors:
  0.049  0.119  0.664  0.169  0.000
  0.724  0.276  0.000  0.000  0.000
  0.001  0.005  0.003  0.054  0.936
  0.226  0.600  0.138  0.027  0.009
  0.000  0.000  0.196  0.750  0.055
    occupations:
  0.945 -0.004  0.009 -0.099  0.000
 -0.004  0.718 -0.002 -0.004 -0.004
  0.009 -0.002  0.990  0.020 -0.001
 -0.099 -0.004  0.020  0.770 -0.000
  0.000 -0.004 -0.001 -0.000  0.990
atom   17   Tr[ns(na)] =   8.81802
    eigenvalues:
  0.711  0.733  0.987  0.989  0.990
    eigenvectors:
  0.000  0.984  0.010  0.003  0.003
  0.015  0.000  0.042  0.855  0.088
  0.000  0.006  0.842  0.006  0.146
  0.000  0.010  0.106  0.122  0.762
  0.985  0.000  0.001  0.013  0.001
    occupations:
  0.737 -0.004 -0.019  0.025 -0.001
 -0.004  0.985  0.000  0.000  0.034
 -0.019  0.000  0.986  0.003 -0.000
  0.025  0.000  0.003  0.987  0.000
 -0.001  0.034 -0.000  0.000  0.715
atom   22   Tr[ns(na)] =   8.81085
    eigenvalues:
  0.729  0.740  0.969  0.978  0.989
    eigenvectors:
  0.002  0.129  0.000  0.011  0.857
  0.985  0.015  0.000  0.000  0.000
  0.000  0.015  0.007  0.973  0.004
  0.013  0.841  0.000  0.008  0.138
  0.000  0.000  0.991  0.007  0.001
    occupations:
  0.956 -0.001 -0.010 -0.084 -0.001
 -0.001  0.730 -0.001 -0.001 -0.004
 -0.010 -0.001  0.974 -0.027 -0.001
 -0.084 -0.001 -0.027  0.776  0.000
 -0.001 -0.004 -0.001  0.000  0.969
atom   23   Tr[ns(na)] =   8.79971
    eigenvalues:
  0.734  0.756  0.946  0.974  0.990
    eigenvectors:
  0.000  0.869  0.125  0.000  0.007
  0.024  0.000  0.000  0.976  0.000
  0.000  0.114  0.861  0.000  0.026
  0.000  0.018  0.015  0.000  0.968
  0.976  0.000  0.000  0.024  0.000
    occupations:
  0.781  0.000  0.059  0.027 -0.000
  0.000  0.968 -0.000  0.000 -0.037
  0.059 -0.000  0.926 -0.015 -0.000
  0.027  0.000 -0.015  0.986 -0.000
 -0.000 -0.037 -0.000 -0.000  0.739
N of occupied +U levels =  70.5918032
 --- exit write_ns ---

[...]

          k = 0.2500-0.4976 0.0000 ( 32026 PWs)   bands (ev):

[...]

          k =-0.2500 0.2488 0.0000 ( 32025 PWs)   bands (ev):

   -55.2418 -55.2062 -55.1086 -55.0708 -55.0688 -55.0284 -54.9866 -54.9809
   -54.9430 -54.9387 -54.9349 -54.8496 -54.8466 -54.7873 -54.7532 -54.7454
   -54.7409 -54.6560 -54.6218 -54.5855 -54.5804 -54.2772 -54.0510 -53.6541
   -22.3485 -22.1424 -21.5038 -21.4079 -21.1786 -21.1186 -21.0646 -20.8649
   -20.8245 -20.7445 -20.5798 -20.4963 -20.4487 -20.2990 -20.2215 -20.2156
   -19.7122 -19.3848 -19.2337 -11.8070 -11.6803 -11.6589 -11.4601 -11.2244
   -11.1473 -11.0051 -10.8255 -10.6972 -10.2911 -10.1250 -10.0873  -9.9311
    -9.8041  -9.6847  -9.6713  -9.5131  -9.3949  -9.3363  -9.1606  -9.0231
    -8.8901  -8.8652  -8.8071  -8.6754  -8.5287  -8.4333  -8.3467  -8.2497
    -8.1316  -8.0491  -8.0383  -7.9384  -7.8161  -7.7171  -7.6216  -7.5402
    -7.4330  -7.3514  -7.2181  -6.9930  -6.9003  -6.6287  -6.3497  -6.2205
    -5.9791  -5.9638  -5.8645  -5.7620  -5.6419  -5.5380  -5.4616  -5.2552
    -5.1269  -4.9460  -4.7814  -4.6309  -4.6161  -4.4547  -4.4010  -4.3244
    -4.1599  -4.1070  -4.0323  -3.8793  -3.7538  -3.7521  -3.4823  -3.4274
    -3.3357  -3.1732  -3.0280  -2.9210  -2.8775  -2.7899  -2.7604  -2.6432
    -2.4457  -2.3107  -2.1783  -2.0855  -1.9280  -1.3772  -1.1977  -0.9164
    -0.5727  -0.4167  -0.0688   0.2424   0.4657   0.5914   0.6675   0.7530
     0.9902   1.1454   1.2412   1.5892   3.0828   3.8799   4.5727   5.0079
     5.0323   5.0970   5.2773   5.6638   6.0985   6.1429   6.1802   6.3273
     6.4205   6.5064   6.6738   6.8516   6.9048   6.9599   7.1051   7.2355
     7.3609   7.4785   7.5587   7.5995   7.7122   7.8606   7.9338   8.0550
     8.1825   8.2899   8.3246   8.4711   8.5561   8.6352   8.6635   8.8075
     8.8824   9.0400   9.1342   9.2764   9.3407   9.4764   9.5457   9.6121
     9.6953   9.8722  10.0436  10.0809  10.1754  10.2400  10.3054  10.3817
    10.5213  10.5742  10.6448  10.7512  10.7803  10.9733  11.0505  11.0878
    11.1690  11.1988  11.3819  11.4616  11.4830  11.7255  11.7440  11.7855
    11.8670  11.9525  12.0137  12.0870  12.1498  12.2507  12.2996  12.3394
    12.4128  12.4598  12.5332  12.5902  12.6469  12.7402  12.8064  12.9619
    13.0010  13.0530  13.1732  13.2368  13.2600  13.4675  13.5348  13.5882
    13.6604  13.7002  13.7841  13.8790  13.9567  13.9861  14.0758  14.1431
    14.1941  14.3730  14.4307  14.5511  14.5882  14.6391  14.7839  14.8732
    14.8981  14.9645  15.1521  15.2299  15.2765  15.3384  15.4146  15.4641
    15.5406  15.6006  15.6516  15.6922  15.7531  15.7813  15.8404  15.9047
    15.9933  16.0516  16.0784  16.1502  16.1967  16.2704  16.3902  16.4577
    16.5104  16.5901  16.7566  16.7926  16.8528  16.8976  16.9089  16.9979
    17.0917  17.1145  17.1511  17.1977  17.2293  17.2613  17.3167  17.3622
    17.3878  17.4133  17.4453  17.4582  17.4844  17.4967  17.5336  17.5439
    17.5640  17.5918  17.6439  17.7462  17.8058  17.9171  17.9739  18.0340
    18.0799  18.1432  18.2554  18.2738  18.3925  18.4174  18.5101  18.5345
    18.5984  18.6419  18.6748  18.7364  18.8438  18.8879  18.9074  19.0324
    19.0650  19.1835  19.2096  19.2289  19.3108  19.3773  19.4603  19.5158
    19.6517  19.7826  19.8287  19.8840  19.9605  19.9834  19.9958  20.0833
    20.1416  20.2247  20.2552  20.3272  20.3727  20.4206  20.5054  20.5972
    20.6594  20.7131  20.7545  20.8701  20.9357  20.9508  21.0157  21.0520
    21.0755  21.2364  21.2665  21.3744  21.3931  21.4505  21.5047  21.5561
    21.6035  21.6628  21.7373  21.7914  21.8334  21.9028  22.0123  22.0917
    22.1421

     the Fermi energy is    -2.1300 ev

!    total energy              =   -2278.63548531 Ry
     Harris-Foulkes estimate   =   -2278.63548532 Ry
     estimated scf accuracy    <          7.4E-09 Ry

     The total energy is the sum of the following terms:

     one-electron contribution =  -23659.92933737 Ry
     hartree contribution      =   11873.42526006 Ry
     xc contribution           =    -572.13618438 Ry
     ewald contribution        =   10077.93894716 Ry
     Hubbard energy            =       2.06620227 Ry
     smearing contrib. (-TS)   =      -0.00037305 Ry

     convergence has been achieved in  16 iterations

     Forces acting on atoms (Ry/au):

     negative rho (up, down):  0.157E+01 0.000E+00
     atom    1 type  1   force =    -0.00846611   -0.00366280   -0.00025227
     atom    2 type  1   force =     0.00012814    0.00325565   -0.00051672
     atom    3 type  2   force =     0.01602414    0.00449683    0.00019857
     atom    4 type  2   force =     0.01022978    0.00471501   -0.00031328
     atom    5 type  1   force =     0.00119692   -0.00260684   -0.00005024
     atom    6 type  1   force =    -0.00004803   -0.00303366   -0.00064938
     atom    7 type  1   force =     0.00005260    0.00161780    0.00070033
     atom    8 type  1   force =    -0.00415291    0.00222358   -0.00010476
     atom    9 type  2   force =     0.00380317   -0.00505822    0.00004550
     atom   10 type  2   force =    -0.00000840   -0.02038769   -0.00089008
     atom   11 type  1   force =    -0.00193612    0.00252427    0.00020135
     atom   12 type  1   force =    -0.00766684    0.01495263    0.00049023
     atom   13 type  1   force =    -0.00110393   -0.00876141    0.00043922
     atom   14 type  1   force =    -0.00817549   -0.00241839   -0.00019933
     atom   15 type  1   force =     0.00013332    0.00114715    0.00005779
     atom   16 type  2   force =    -0.01685997    0.00434405    0.00021026
     atom   17 type  2   force =     0.01005034    0.00485421   -0.00019282
     atom   18 type  1   force =     0.00139268   -0.00253187   -0.00002801
     atom   19 type  1   force =     0.00041695   -0.00294426   -0.00066601
     atom   20 type  1   force =     0.00007713   -0.00612776    0.00055648
     atom   21 type  1   force =    -0.00399839    0.00218550    0.00003854
     atom   22 type  2   force =    -0.00012597   -0.00496370    0.00005830
     atom   23 type  2   force =    -0.00018120    0.02016372   -0.00037972
     atom   24 type  1   force =     0.00206748    0.00258384    0.00019064
     atom   25 type  1   force =     0.00778903    0.01490451    0.00050483
     atom   26 type  1   force =    -0.00106417   -0.02162596    0.00016587
     atom   27 type  3   force =    -0.00000731    0.00028672   -0.00026870
     atom   28 type  3   force =    -0.00001942   -0.00003658   -0.00020434
     atom   29 type  3   force =     0.00022270   -0.00009310    0.00043687
     atom   30 type  3   force =     0.00023771   -0.00024066    0.00036982
     atom   31 type  1   force =    -0.00000780    0.00023744    0.00005103

     Total force =     0.002183     Total SCF correction =     0.000224
     SCF correction compared to forces is large: reduce conv_thr to get better values

     bfgs converged in  16 scf cycles and  15 bfgs steps
     (criteria: energy < 0.10E-03, force < 0.10E-02)

     End of BFGS Geometry Optimization

     Final energy   =   -2278.6354853109 Ry
Begin final coordinates

ATOMIC_POSITIONS (crystal)
O0       0.000000000   0.000000000   0.377640621    0   0   1
O0       0.000000000   0.500000000   0.401712459    0   0   1
Pt1      0.250000000   0.500000000   0.451074307    0   0   1
Pt1      0.000000000   0.000000000   0.452779064    0   0   1
O0       0.250000000   0.810000000   0.442157835    0   0   1
O0       0.250000000   0.190000000   0.461651950    0   0   1
O0       0.000000000   0.500000000   0.496453956    0   0   1
O0       0.000000000   0.000000000   0.529963147    0   0   1
Pt1      0.250000000   0.000000000   0.575995775    0   0   1
Pt1      0.000000000   0.500000000   0.575156168    0   0   1
O0       0.250000000   0.690000000   0.564248588    0   0   1
O0       0.250000000   0.310000000   0.586896362    0   0   1
O0       0.000000000   0.000000000   0.621548031    0   0   1
O0       0.500000000   0.000000000   0.377698582    0   0   1
O0       0.500000000   0.500000000   0.401034741    0   0   1
Pt1      0.750000000   0.500000000   0.451075930    0   0   1
Pt1      0.500000000   0.000000000   0.452759853    0   0   1
O0       0.750000000   0.810000000   0.442178145    0   0   1
O0       0.750000000   0.190000000   0.461659827    0   0   1
O0       0.500000000   0.500000000   0.497969978    0   0   1
O0       0.500000000   0.000000000   0.529804991    0   0   1
Pt1      0.750000000   0.000000000   0.575997926    0   0   1
Pt1      0.500000000   0.500000000   0.576946734    0   0   1
O0       0.750000000   0.690000000   0.564237102    0   0   1
O0       0.750000000   0.310000000   0.586901114    0   0   1
O0       0.500000000   0.000000000   0.621721908    0   0   1
H2       0.000087178   0.641103080   0.386624819
H2       0.500052069   0.641676570   0.386361825
H2       0.143462853   0.034934229   0.367891883
H2       0.643302682   0.035608079   0.367923873
O0       0.500116759   0.584823247   0.643602505
End final coordinates

     General routines

     Parallel routines
     Hubbard U routines

   This run was terminated on:  20:45:33  28Apr2014

   JOB DONE.