     Program PWSCF v.5.0.2 (svn rev. 9656) starts on 30May2014 at 22: 9:28

     Current dimensions of program PWSCF are:
     Max number of different atomic species (ntypx) = 10
     Max number of k-points (npk) =  40000
     Max angular momentum in pseudopotentials (lmaxx) =  3
     Reading input from pwscf.in
Warning: card &CELL ignored
Warning: card / ignored

     Subspace diagonalization in iterative solution of the eigenvalue problem:
     a serial algorithm will be used

     bravais-lattice index     =            0
     lattice parameter (alat)  =      11.7919  a.u.
     unit-cell volume          =    7123.6633 (a.u.)^3
     number of atoms/cell      =           33
     number of atomic types    =            3
     number of electrons       =       253.00
     number of Kohn-Sham states=          367
     kinetic-energy cutoff     =      40.0000  Ry
     charge density cutoff     =     500.0000  Ry
     convergence threshold     =      1.0E-06
     mixing beta               =       0.7000
     number of iterations used =            8  plain     mixing
     Exchange-correlation      = SLA  PW   PBE  PBE ( 1 4 3 4 0)
     EXX-fraction              =        0.00
     nstep                     =           50

     celldm(1)=  11.791891  celldm(2)=   0.000000  celldm(3)=   0.000000
     celldm(4)=   0.000000  celldm(5)=   0.000000  celldm(6)=   0.000000

     crystal axes: (cart. coord. in units of alat)
               a(1) = (   1.000000   0.000000   0.000000 )
               a(2) = (   0.000000   1.026665   0.000000 )
               a(3) = (   0.000000   0.000000   4.231793 )

     reciprocal axes: (cart. coord. in units 2 pi/alat)
               b(1) = (  1.000000  0.000000  0.000000 )
               b(2) = (  0.000000  0.974028  0.000000 )
               b(3) = (  0.000000  0.000000  0.236306 )

     PseudoPot. # 1 for O  read from file:
     /home/camp/zhonxu/pseudo/o_pbe_v1.01.uspp.F.UPF
     MD5 check sum: 2bcb18d16ea4b960afae9ec6d52f22d2
     Pseudo is Ultrasoft + core correction, Zval =  6.0
     Generated by new atomic code, or converted to UPF format
     Using radial grid of  737 points,  5 beta functions with:
                l(1) =   0
                l(2) =   0
                l(3) =   1
                l(4) =   1
                l(5) =   2
     Q(r) pseudized with  8 coefficients,  rinner =    0.900   0.900   0.900
                                                       0.900   0.900

     PseudoPot. # 2 for Ru read from file:
     /home/camp/zhonxu/pseudo/ru_pbe_v1.uspp.F.UPF
     MD5 check sum: df00be1c11b23341d9806d8f1dfa10cf
     Pseudo is Ultrasoft + core correction, Zval = 16.0
     Generated by new atomic code, or converted to UPF format
     Using radial grid of  967 points,  6 beta functions with:
                l(1) =   0
                l(2) =   0
                l(3) =   1
                l(4) =   1
                l(5) =   2
                l(6) =   2
     Q(r) pseudized with  8 coefficients,  rinner =    1.300   1.300   1.300
                                                       1.300   1.300

     PseudoPot. # 3 for H  read from file:
     /home/camp/zhonxu/pseudo/h_pbe_v1.uspp.F.UPF
     MD5 check sum: 3408e3ff4ec8b0a4e358431e7e038a48
     Pseudo is Ultrasoft, Zval =  1.0
     Generated by new atomic code, or converted to UPF format
     Using radial grid of  615 points,  2 beta functions with:
                l(1) =   0
                l(2) =   0
     Q(r) pseudized with  8 coefficients,  rinner =    0.700

     atomic species   valence    mass     pseudopotential
        O0             6.00    15.99940     O ( 1.00)
        Ru1           16.00   101.07000     Ru( 1.00)
        H2             1.00     1.00794     H ( 1.00)

     Simplified LDA+U calculation (l_max = 2) with parameters (eV):
     atomic species    L          U    alpha       J0     beta
        Ru1            2     3.0000   0.0000   0.0000   0.0000

     No symmetry found

   Cartesian axes

     site n.     atom                  positions (alat units)
         1           O0  tau(   1) = (   0.0000000   0.0000000   1.5976288  )
         2           O0  tau(   2) = (   0.0000000   0.5133323   1.7135376  )
         3           Ru1 tau(   3) = (   0.2500000   0.5133323   1.9265237  )
         4           Ru1 tau(   4) = (   0.0000000   0.0000000   1.9104429  )
         5           O0  tau(   5) = (   0.2500000   0.8315984   1.9133628  )
         6           O0  tau(   6) = (   0.2500000   0.1950663   1.9137014  )
         7           O0  tau(   7) = (   0.0000000   0.5133323   2.1143307  )
         8           O0  tau(   8) = (   0.0000000   0.0000000   2.2232570  )
         9           Ru1 tau(   9) = (   0.2500000   0.0000000   2.4362008  )
        10           Ru1 tau(  10) = (   0.0000000   0.5133323   2.4139839  )
        11           O0  tau(  11) = (   0.2500000   0.7083986   2.4352275  )
        12           O0  tau(  12) = (   0.2500000   0.3182660   2.4428024  )
        13           O0  tau(  13) = (   0.0000000   0.0000000   2.6141054  )
        14           O0  tau(  14) = (   0.5000000   0.0000000   1.5980943  )
        15           O0  tau(  15) = (   0.5000000   0.5133323   1.7110408  )
        16           Ru1 tau(  16) = (   0.7500000   0.5133323   1.9265660  )
        17           Ru1 tau(  17) = (   0.5000000   0.0000000   1.9113316  )
        18           O0  tau(  18) = (   0.7500000   0.8315984   1.9134475  )
        19           O0  tau(  19) = (   0.7500000   0.1950663   1.9137014  )
        20           O0  tau(  20) = (   0.5000000   0.5133323   2.1248255  )
        21           O0  tau(  21) = (   0.5000000   0.0000000   2.2236379  )
        22           Ru1 tau(  22) = (   0.7500000   0.0000000   2.4362855  )
        23           Ru1 tau(  23) = (   0.5000000   0.5133323   2.4472458  )
        24           O0  tau(  24) = (   0.7500000   0.7083986   2.4352698  )
        25           O0  tau(  25) = (   0.7500000   0.3182660   2.4426755  )
        26           O0  tau(  26) = (   0.5000000   0.0000000   2.6042453  )
        27           H2  tau(  27) = (  -0.0003700   0.6408749   1.6195494  )
        28           H2  tau(  28) = (   0.4997300   0.6446633   1.6222578  )
        29           H2  tau(  29) = (   0.1462300   0.0299786   1.5449853  )
        30           H2  tau(  30) = (   0.6457400   0.0313441   1.5450699  )
        31           O0  tau(  31) = (   0.5000700   0.5415759   2.7547279  )
        32           O0  tau(  32) = (   0.4999900   0.3417972   2.8749108  )
        33           H2  tau(  33) = (   0.4999600   0.4009947   3.0215847  )

     number of k points=    10  Methfessel-Paxton smearing, width (Ry)=  0.0100
                       cart. coord. in units 2pi/alat
        k(    1) = (   0.0000000   0.0000000   0.0000000), wk =   0.1250000
        k(    2) = (   0.0000000   0.2435070   0.0000000), wk =   0.2500000
        k(    3) = (   0.0000000  -0.4870139   0.0000000), wk =   0.1250000
        k(    4) = (   0.2500000   0.0000000   0.0000000), wk =   0.2500000
        k(    5) = (   0.2500000   0.2435070   0.0000000), wk =   0.2500000
        k(    6) = (   0.2500000  -0.4870139   0.0000000), wk =   0.2500000
        k(    7) = (  -0.5000000   0.0000000   0.0000000), wk =   0.1250000
        k(    8) = (  -0.5000000   0.2435070   0.0000000), wk =   0.2500000
        k(    9) = (  -0.5000000  -0.4870139   0.0000000), wk =   0.1250000
        k(   10) = (  -0.2500000   0.2435070   0.0000000), wk =   0.2500000

     Largest allocated arrays     est. size (Mb)     dimensions
     Largest temporary arrays     est. size (Mb)     dimensions

     Check: negative/imaginary core charge=   -0.000003    0.000000

     Initial potential from superposition of free atoms
     Check: negative starting charge=   -0.523679

     starting charge  244.99980, renormalised to  253.00000

     negative rho (up, down):  0.541E+00 0.000E+00
     Number of +U iterations with fixed ns =  0
     Starting occupations:
 --- enter write_ns ---
 LDA+U parameters:
U( 2)     =  3.00000000
alpha( 2) =  0.00000000
atom    3   Tr[ns(na)] =   6.00000
    eigenvalues:
  0.600  0.600  0.600  0.600  0.600
    eigenvectors:
  1.000  0.000  0.000  0.000  0.000
  0.000  1.000  0.000  0.000  0.000
  0.000  0.000  1.000  0.000  0.000
  0.000  0.000  0.000  1.000  0.000
  0.000  0.000  0.000  0.000  1.000
    occupations:
  0.600  0.000  0.000  0.000  0.000
  0.000  0.600  0.000  0.000  0.000
  0.000  0.000  0.600  0.000  0.000
  0.000  0.000  0.000  0.600  0.000
  0.000  0.000  0.000  0.000  0.600
atom    4   Tr[ns(na)] =   6.00000
    eigenvalues:
  0.600  0.600  0.600  0.600  0.600
    eigenvectors:
  1.000  0.000  0.000  0.000  0.000
  0.000  1.000  0.000  0.000  0.000
  0.000  0.000  1.000  0.000  0.000
  0.000  0.000  0.000  1.000  0.000
  0.000  0.000  0.000  0.000  1.000
    occupations:
  0.600  0.000  0.000  0.000  0.000
  0.000  0.600  0.000  0.000  0.000
  0.000  0.000  0.600  0.000  0.000
  0.000  0.000  0.000  0.600  0.000
  0.000  0.000  0.000  0.000  0.600
atom    9   Tr[ns(na)] =   6.00000
    eigenvalues:
  0.600  0.600  0.600  0.600  0.600
    eigenvectors:
  1.000  0.000  0.000  0.000  0.000
  0.000  1.000  0.000  0.000  0.000
  0.000  0.000  1.000  0.000  0.000
  0.000  0.000  0.000  1.000  0.000
  0.000  0.000  0.000  0.000  1.000
    occupations:
  0.600  0.000  0.000  0.000  0.000
  0.000  0.600  0.000  0.000  0.000
  0.000  0.000  0.600  0.000  0.000
  0.000  0.000  0.000  0.600  0.000
  0.000  0.000  0.000  0.000  0.600
atom   10   Tr[ns(na)] =   6.00000
    eigenvalues:
  0.600  0.600  0.600  0.600  0.600
    eigenvectors:
  1.000  0.000  0.000  0.000  0.000
  0.000  1.000  0.000  0.000  0.000
  0.000  0.000  1.000  0.000  0.000
  0.000  0.000  0.000  1.000  0.000
  0.000  0.000  0.000  0.000  1.000
    occupations:
  0.600  0.000  0.000  0.000  0.000
  0.000  0.600  0.000  0.000  0.000
  0.000  0.000  0.600  0.000  0.000
  0.000  0.000  0.000  0.600  0.000
  0.000  0.000  0.000  0.000  0.600
atom   16   Tr[ns(na)] =   6.00000
    eigenvalues:
  0.600  0.600  0.600  0.600  0.600
    eigenvectors:
  1.000  0.000  0.000  0.000  0.000
  0.000  1.000  0.000  0.000  0.000
  0.000  0.000  1.000  0.000  0.000
  0.000  0.000  0.000  1.000  0.000
  0.000  0.000  0.000  0.000  1.000
    occupations:
  0.600  0.000  0.000  0.000  0.000
  0.000  0.600  0.000  0.000  0.000
  0.000  0.000  0.600  0.000  0.000
  0.000  0.000  0.000  0.600  0.000
  0.000  0.000  0.000  0.000  0.600
atom   17   Tr[ns(na)] =   6.00000
    eigenvalues:
  0.600  0.600  0.600  0.600  0.600
    eigenvectors:
  1.000  0.000  0.000  0.000  0.000
  0.000  1.000  0.000  0.000  0.000
  0.000  0.000  1.000  0.000  0.000
  0.000  0.000  0.000  1.000  0.000
  0.000  0.000  0.000  0.000  1.000
    occupations:
  0.600  0.000  0.000  0.000  0.000
  0.000  0.600  0.000  0.000  0.000
  0.000  0.000  0.600  0.000  0.000
  0.000  0.000  0.000  0.600  0.000
  0.000  0.000  0.000  0.000  0.600
atom   22   Tr[ns(na)] =   6.00000
    eigenvalues:
  0.600  0.600  0.600  0.600  0.600
    eigenvectors:
  1.000  0.000  0.000  0.000  0.000
  0.000  1.000  0.000  0.000  0.000
  0.000  0.000  1.000  0.000  0.000
[...]
  0.004  0.001 -0.002 -0.002  0.830
atom   10   Tr[ns(na)] =   7.23240
    eigenvalues:
  0.535  0.536  0.725  0.848  0.972
    eigenvectors:
  0.986  0.001  0.000  0.000  0.013
  0.000  0.000  0.000  1.000  0.000
  0.000  0.000  1.000  0.000  0.000
  0.013  0.000  0.000  0.000  0.987
  0.001  0.999  0.000  0.000  0.000
    occupations:
  0.541  0.000  0.002  0.049  0.000
  0.000  0.848  0.001  0.000 -0.007
  0.002  0.001  0.725 -0.001  0.000
  0.049  0.000 -0.001  0.966 -0.000
  0.000 -0.007  0.000 -0.000  0.536
atom   16   Tr[ns(na)] =   7.21275
    eigenvalues:
  0.517  0.564  0.711  0.843  0.971
    eigenvectors:
  0.001  0.182  0.005  0.000  0.811
  0.996  0.004  0.000  0.000  0.000
  0.000  0.001  0.967  0.023  0.009
  0.003  0.813  0.005  0.000  0.180
  0.000  0.000  0.023  0.977  0.000
    occupations:
  0.895  0.005  0.024 -0.156  0.002
  0.005  0.518  0.001  0.001 -0.002
  0.024  0.001  0.717 -0.006 -0.020
 -0.156  0.001 -0.006  0.637 -0.001
  0.002 -0.002 -0.020 -0.001  0.840
atom   17   Tr[ns(na)] =   7.20425
    eigenvalues:
  0.554  0.604  0.672  0.796  0.977
    eigenvectors:
  0.001  0.988  0.000  0.000  0.011
  0.000  0.000  0.019  0.981  0.000
  0.000  0.000  0.981  0.019  0.000
  0.000  0.011  0.000  0.000  0.989
  0.999  0.001  0.000  0.000  0.000
    occupations:
  0.608 -0.000  0.000  0.040  0.001
 -0.000  0.793  0.017 -0.001 -0.001
  0.000  0.017  0.674  0.001  0.000
  0.040 -0.001  0.001  0.973  0.000
  0.001 -0.001  0.000  0.000  0.554
atom   22   Tr[ns(na)] =   7.20402
    eigenvalues:
  0.576  0.597  0.776  0.823  0.831
    eigenvectors:
  0.000  0.160  0.002  0.803  0.035
  0.998  0.001  0.000  0.000  0.000
  0.000  0.000  0.993  0.004  0.002
  0.002  0.839  0.002  0.151  0.007
  0.000  0.000  0.004  0.041  0.956
    occupations:
  0.787  0.004 -0.004 -0.083  0.002
  0.004  0.576  0.001 -0.003  0.000
 -0.004  0.001  0.776 -0.002  0.003
 -0.083 -0.003 -0.002  0.633 -0.000
  0.002  0.000  0.003 -0.000  0.830
atom   23   Tr[ns(na)] =   7.23692
    eigenvalues:
  0.548  0.588  0.710  0.816  0.957
    eigenvectors:
  0.000  0.996  0.000  0.001  0.003
  0.001  0.000  0.999  0.000  0.000
  0.000  0.000  0.000  0.999  0.000
  0.000  0.003  0.000  0.000  0.996
  0.999  0.000  0.001  0.000  0.000
    occupations:
  0.589  0.000  0.005  0.021  0.000
  0.000  0.710  0.002  0.001 -0.005
  0.005  0.002  0.816 -0.002 -0.000
  0.021  0.001 -0.002  0.956 -0.000
  0.000 -0.005 -0.000 -0.000  0.548
N of occupied +U levels =  57.7165150
 --- exit write_ns ---

     Threshold (ethr) on eigenvalues was too large:
     Diagonalizing with lowered threshold

     Davidson diagonalization with overlap
     ethr =  2.42E-08,  avg # of iterations =  2.1

[...]

     total energy              =   -2195.13573938 Ry
     Harris-Foulkes estimate   =   -2195.13573939 Ry
     estimated scf accuracy    <       0.00000012 Ry

     iteration # 16     ecut=    40.00 Ry     beta=0.70
     Davidson diagonalization with overlap
     ethr =  4.82E-11,  avg # of iterations =  1.0

     negative rho (up, down):  0.575E+00 0.000E+00

     End of self-consistent calculation
 --- enter write_ns ---
 LDA+U parameters:
U( 2)     =  3.00000000
alpha( 2) =  0.00000000
atom    3   Tr[ns(na)] =   7.21376
    eigenvalues:
  0.517  0.563  0.713  0.843  0.971
    eigenvectors:
  0.001  0.183  0.005  0.000  0.811
  0.996  0.004  0.000  0.000  0.000
  0.000  0.001  0.965  0.025  0.009
  0.003  0.813  0.005  0.000  0.180
  0.000  0.000  0.025  0.975  0.000
    occupations:
  0.895 -0.005  0.024 -0.156 -0.002
 -0.005  0.517 -0.001 -0.001 -0.002
  0.024 -0.001  0.718 -0.006  0.020
 -0.156 -0.001 -0.006  0.637  0.000
 -0.002 -0.002  0.020  0.000  0.839
atom    4   Tr[ns(na)] =   7.20836
    eigenvalues:
  0.554  0.603  0.666  0.803  0.978
    eigenvectors:
  0.001  0.988  0.000  0.000  0.012
  0.000  0.000  0.016  0.984  0.000
  0.000  0.000  0.984  0.016  0.000
  0.000  0.012  0.000  0.000  0.988
  0.999  0.001  0.000  0.000  0.000
    occupations:
  0.608 -0.001  0.000  0.040  0.001
 -0.001  0.801  0.017 -0.001 -0.001
  0.000  0.017  0.668  0.001  0.000
  0.040 -0.001  0.001  0.973  0.000
  0.001 -0.001  0.000  0.000  0.554
atom    9   Tr[ns(na)] =   7.20265
    eigenvalues:
  0.575  0.597  0.775  0.822  0.832
    eigenvectors:
  0.000  0.159  0.005  0.631  0.205
  0.996  0.004  0.000  0.000  0.000
  0.000  0.001  0.991  0.003  0.006
  0.004  0.836  0.003  0.118  0.039
  0.000  0.000  0.001  0.248  0.750
    occupations:
  0.788 -0.003 -0.006 -0.083  0.004
 -0.003  0.576  0.001  0.003  0.001
 -0.006  0.001  0.775 -0.002 -0.002
 -0.083  0.003 -0.002  0.633 -0.002
  0.004  0.001 -0.002 -0.002  0.830
atom   10   Tr[ns(na)] =   7.23365
    eigenvalues:
  0.535  0.536  0.725  0.848  0.972
    eigenvectors:
  0.986  0.000  0.000  0.000  0.013
  0.000  0.000  0.000  1.000  0.000
  0.000  0.000  1.000  0.000  0.000
  0.013  0.000  0.000  0.000  0.987
  0.000  0.999  0.000  0.000  0.000
    occupations:
  0.541  0.000  0.002  0.049  0.000
  0.000  0.848  0.001  0.000 -0.007
  0.002  0.001  0.725 -0.001  0.000
  0.049  0.000 -0.001  0.966 -0.000
  0.000 -0.007  0.000 -0.000  0.536
atom   16   Tr[ns(na)] =   7.21342
    eigenvalues:
  0.517  0.564  0.711  0.843  0.971
    eigenvectors:
  0.001  0.182  0.005  0.000  0.811
  0.996  0.004  0.000  0.000  0.000
  0.000  0.001  0.967  0.023  0.009
  0.003  0.813  0.005  0.000  0.180
  0.000  0.000  0.023  0.977  0.000
    occupations:
  0.895  0.005  0.024 -0.156  0.002
  0.005  0.518  0.001  0.001 -0.002
  0.024  0.001  0.717 -0.006 -0.020
 -0.156  0.001 -0.006  0.637 -0.001
  0.002 -0.002 -0.020 -0.001  0.840
atom   17   Tr[ns(na)] =   7.20549
    eigenvalues:
  0.554  0.604  0.672  0.796  0.977
    eigenvectors:
  0.001  0.988  0.000  0.000  0.011
  0.000  0.000  0.019  0.981  0.000
  0.000  0.000  0.981  0.019  0.000
  0.000  0.011  0.000  0.000  0.989
  0.999  0.001  0.000  0.000  0.000
    occupations:
  0.608 -0.000  0.000  0.040  0.001
 -0.000  0.793  0.017 -0.001 -0.001
  0.000  0.017  0.674  0.001  0.000
  0.040 -0.001  0.001  0.973  0.000
  0.001 -0.001  0.000  0.000  0.554
atom   22   Tr[ns(na)] =   7.20201
    eigenvalues:
  0.576  0.597  0.776  0.822  0.830
    eigenvectors:
  0.000  0.160  0.002  0.807  0.031
  0.998  0.001  0.000  0.000  0.000
  0.000  0.000  0.993  0.004  0.003
  0.002  0.838  0.002  0.153  0.006
  0.000  0.000  0.004  0.035  0.961
    occupations:
  0.786  0.004 -0.004 -0.082  0.002
  0.004  0.576  0.001 -0.003  0.000
 -0.004  0.001  0.776 -0.002  0.003
 -0.082 -0.003 -0.002  0.633 -0.000
  0.002  0.000  0.003 -0.000  0.830
atom   23   Tr[ns(na)] =   7.23748
    eigenvalues:
  0.548  0.588  0.710  0.817  0.957
    eigenvectors:
  0.000  0.996  0.000  0.001  0.003
  0.001  0.000  0.999  0.000  0.000
  0.000  0.001  0.000  0.999  0.000
  0.000  0.003  0.000  0.000  0.996
  0.999  0.000  0.001  0.000  0.000
    occupations:
  0.589  0.000  0.005  0.021  0.000
  0.000  0.710  0.002  0.001 -0.005
  0.005  0.002  0.816 -0.002 -0.000
  0.021  0.001 -0.002  0.956 -0.000
  0.000 -0.005 -0.000 -0.000  0.548
N of occupied +U levels =  57.7168233
 --- exit write_ns ---

[...]

          k = 0.2500-0.4870 0.0000 ( 30468 PWs)   bands (ev):

[...]

          k =-0.2500 0.2435 0.0000 ( 30434 PWs)   bands (ev):

   -73.8209 -73.8110 -73.6250 -73.6141 -73.4913 -73.3116 -73.2729 -73.2650
   -43.9848 -43.9309 -43.9185 -43.8467 -43.7832 -43.7747 -43.7634 -43.7444
   -43.7223 -43.7131 -43.6062 -43.5601 -43.5082 -43.4824 -43.4668 -43.4188
   -43.3869 -43.2296 -43.2065 -43.1640 -43.1594 -43.1361 -43.1137 -43.0872
   -23.3300 -20.4217 -20.0238 -19.9028 -19.8677 -19.6579 -19.4634 -19.3740
   -19.2305 -19.2171 -19.2084 -19.0922 -18.9207 -18.8799 -18.8580 -18.8024
   -18.7001 -18.6581 -18.4672 -17.0317  -8.8306  -8.5962  -8.2737  -8.2556
    -8.1593  -7.9675  -7.9416  -7.6272  -7.5922  -7.3886  -7.3667  -7.2772
    -7.2297  -7.1228  -7.0801  -7.0086  -6.9754  -6.9095  -6.8386  -6.5595
    -6.4371  -6.3339  -6.0908  -6.0237  -5.8955  -5.7922  -5.6129  -5.4952
    -5.4332  -5.2597  -5.1668  -5.0964  -5.0072  -4.9243  -4.8969  -4.8010
    -4.6687  -4.6286  -4.6013  -4.4554  -4.4350  -4.3636  -4.3256  -4.1461
    -4.0394  -3.8109  -3.7178  -3.6744  -3.5766  -3.5225  -3.4354  -3.3834
    -3.1718  -3.0838  -3.0323  -2.7515  -2.6796  -2.4027  -2.1817  -2.0242
    -1.7952  -1.6768  -1.6433  -1.5861  -1.5126  -1.4570  -1.4370  -1.3417
    -1.3004  -1.2364  -1.1394  -1.0884  -0.9209  -0.7095  -0.6150  -0.3970
    -0.2442  -0.1626   0.0442   0.1622   0.2422   0.3515   0.5573   1.4158
     2.0482   2.1728   2.2894   2.3430   2.8503   3.1345   3.2171   3.4115
     3.6257   3.7270   3.8229   3.8888   3.9715   4.0239   4.1914   4.2630
     4.3423   4.6182   4.7393   5.2165   5.6380   5.7858   6.0660   6.1081
     6.1718   6.5014   6.5484   6.7052   6.9251   7.0901   7.1371   7.4585
     7.6186   7.7327   7.9409   8.0896   8.1459   8.3878   8.4403   8.5776
     8.6855   8.7947   8.9506   9.0444   9.1109   9.2707   9.3954   9.4482
     9.6126   9.6942   9.7650   9.8629  10.0599  10.0920  10.1819  10.2772
    10.3153  10.4230  10.5165  10.6209  10.6778  10.7597  10.8454  10.9707
    11.0282  11.1675  11.2674  11.3899  11.4023  11.5602  11.6192  11.7107
    11.8178  11.8866  11.9894  12.0312  12.0748  12.1437  12.2312  12.2545
    12.3770  12.4368  12.5180  12.6241  12.7539  12.7631  12.8385  12.8913
    12.9472  13.0027  13.1127  13.2283  13.2909  13.3543  13.4036  13.4781
    13.5721  13.6942  13.8127  13.8569  13.9387  13.9862  14.0457  14.1641
    14.2631  14.3133  14.4493  14.4977  14.5972  14.6884  14.7529  14.8113
    14.8918  14.9581  15.0587  15.1414  15.2219  15.2634  15.3412  15.3772
    15.4786  15.5207  15.5875  15.6574  15.6930  15.8125  15.8570  15.9212
    15.9418  16.0354  16.0826  16.1265  16.1851  16.2269  16.2735  16.3061
    16.3964  16.4578  16.5641  16.6270  16.7045  16.7628  16.7912  16.9088
    16.9453  16.9944  17.0579  17.1546  17.2663  17.3398  17.3808  17.4608
    17.5183  17.5493  17.5937  17.6897  17.7684  17.8088  17.8589  17.8955
    17.9872  18.0350  18.0690  18.1200  18.2102  18.2774  18.3106  18.4044
    18.4420  18.5046  18.6208  18.7200  18.7822  18.8653  18.8756  18.9614
    19.0453  19.1276  19.2147  19.2637  19.3087  19.4119  19.5025  19.6093
    19.6616  19.7249  19.8005  19.8590  19.9024  19.9671  20.0370  20.1614
    20.2314  20.2944  20.3248  20.5049  20.5767  20.6034  20.6449  20.7444
    20.8914  20.9354  20.9620  21.0260  21.0632  21.1229  21.1820  21.2538
    21.3138  21.3631  21.4260  21.4903  21.5229  21.5850  21.6011  21.6876
    21.7605  21.8311  21.9144  21.9325  21.9515  22.0688  22.0976  22.1406
    22.2149  22.3208  22.3604  22.4314  22.4687  22.5261  22.6437

     the Fermi energy is    -0.5951 ev

!    total energy              =   -2195.13573939 Ry
     Harris-Foulkes estimate   =   -2195.13573939 Ry
     estimated scf accuracy    <          3.2E-09 Ry

     The total energy is the sum of the following terms:

     one-electron contribution =  -25659.44328142 Ry
     hartree contribution      =   12859.93976061 Ry
     xc contribution           =    -345.63342278 Ry
     ewald contribution        =   10948.42906561 Ry
     Hubbard energy            =       1.57297801 Ry
     smearing contrib. (-TS)   =      -0.00083943 Ry

     convergence has been achieved in  16 iterations

     Forces acting on atoms (Ry/au):

     negative rho (up, down):  0.575E+00 0.000E+00
     atom    1 type  1   force =    -0.00348665   -0.00836148    0.00013251
     atom    2 type  1   force =    -0.00029687    0.00474577   -0.00046720
     atom    3 type  2   force =     0.03391718    0.00173053   -0.00054883
     atom    4 type  2   force =     0.00257644    0.00487642    0.00050547
     atom    5 type  1   force =     0.00145921   -0.03378293    0.00025293
     atom    6 type  1   force =     0.00291817    0.03536405    0.00004903
     atom    7 type  1   force =     0.00020231   -0.00556568    0.00073086
     atom    8 type  1   force =    -0.00005942    0.00057547    0.00084648
     atom    9 type  2   force =    -0.01550946    0.00009455    0.00026265
     atom   10 type  2   force =     0.00006591    0.00196288   -0.00020969
     atom   11 type  1   force =    -0.01020552    0.01771264   -0.00025375
     atom   12 type  1   force =    -0.00339562   -0.01407077    0.00037576
     atom   13 type  1   force =    -0.00183336   -0.00222939   -0.00076906
     atom   14 type  1   force =    -0.00458734   -0.00941462   -0.00006355
     atom   15 type  1   force =    -0.00016598    0.00432179   -0.00058906
     atom   16 type  2   force =    -0.03455471    0.00172847   -0.00053409
     atom   17 type  2   force =     0.00237258    0.00505105    0.00030572
     atom   18 type  1   force =    -0.00012542   -0.03394502    0.00015966
     atom   19 type  1   force =     0.00104134    0.03556345    0.00009674
     atom   20 type  1   force =     0.00008738   -0.00487811   -0.00004094
     atom   21 type  1   force =     0.00036942    0.00057443    0.00071050
     atom   22 type  2   force =     0.01727821   -0.00107157    0.00033453
     atom   23 type  2   force =     0.00024950    0.00111300    0.00020881
     atom   24 type  1   force =     0.01019449    0.01798410   -0.00022071
     atom   25 type  1   force =     0.00323958   -0.01400623    0.00018557
     atom   26 type  1   force =    -0.00150321   -0.00688797   -0.00082678
     atom   27 type  3   force =     0.00001927    0.00002291   -0.00025145
     atom   28 type  3   force =     0.00002475    0.00033843   -0.00009247
     atom   29 type  3   force =    -0.00018167   -0.00006613   -0.00071160
     atom   30 type  3   force =    -0.00003269    0.00000379   -0.00047627
     atom   31 type  1   force =     0.00020927   -0.00008269    0.00008927
     atom   32 type  1   force =    -0.00030000    0.00031338    0.00057285
     atom   33 type  3   force =     0.00001289    0.00028550    0.00023611

     Total force =     0.002624     Total SCF correction =     0.000188

     entering subroutine stress ...

     negative rho (up, down):  0.575E+00 0.000E+00
          total   stress  (Ry/bohr**3)                   (kbar)     P=   -6.62
  -0.00004650   0.00000296   0.00000224         -6.84      0.44      0.33
   0.00000296  -0.00005152   0.00000130          0.44     -7.58      0.19
   0.00000224   0.00000130  -0.00003708          0.33      0.19     -5.45

     bfgs converged in  15 scf cycles and  14 bfgs steps
     (criteria: energy < 0.10E-03, force < 0.10E-02)

     End of BFGS Geometry Optimization

     Final energy   =   -2195.1357393852 Ry
Begin final coordinates

ATOMIC_POSITIONS (crystal)
O0       0.000000000   0.000000000   0.378879835    0   0   1
O0       0.000000000   0.500000000   0.404963272    0   0   1
Ru1      0.250000000   0.500000000   0.454669308    0   0   1
Ru1      0.000000000   0.000000000   0.452485024    0   0   1
O0       0.250000000   0.810000000   0.452760926    0   0   1
O0       0.250000000   0.190000000   0.452748417    0   0   1
O0       0.000000000   0.500000000   0.499833539    0   0   1
O0       0.000000000   0.000000000   0.525481330    0   0   1
Ru1      0.250000000   0.000000000   0.576103921    0   0   1
Ru1      0.000000000   0.500000000   0.569641269    0   0   1
O0       0.250000000   0.690000000   0.574719815    0   0   1
O0       0.250000000   0.310000000   0.576734392    0   0   1
O0       0.000000000   0.000000000   0.618011396    0   0   1
O0       0.500000000   0.000000000   0.378913476    0   0   1
O0       0.500000000   0.500000000   0.404175438    0   0   1
Ru1      0.750000000   0.500000000   0.454669012    0   0   1
Ru1      0.500000000   0.000000000   0.452621640    0   0   1
O0       0.750000000   0.810000000   0.452775442    0   0   1
O0       0.750000000   0.190000000   0.452750908    0   0   1
O0       0.500000000   0.500000000   0.501498346    0   0   1
O0       0.500000000   0.000000000   0.525610669    0   0   1
Ru1      0.750000000   0.000000000   0.576171353    0   0   1
Ru1      0.500000000   0.500000000   0.577424940    0   0   1
O0       0.750000000   0.690000000   0.574763193    0   0   1
O0       0.750000000   0.310000000   0.576680801    0   0   1
O0       0.500000000   0.000000000   0.615769960    0   0   1
H2      -0.000622169   0.617199825   0.380776179
H2       0.499507433   0.625371991   0.382460903
H2       0.147105880   0.027163936   0.366687342
H2       0.646510145   0.028623260   0.366585006
O0       0.500659869   0.528746282   0.649660602
O0       0.499344507   0.336728610   0.678550534
H2       0.499883856   0.396225107   0.713041811
End final coordinates

     General routines

     Parallel routines
     Hubbard U routines

   This run was terminated on:  18:50:25  31May2014

   JOB DONE.