     Program PWSCF v.5.0.2 (svn rev. 9656) starts on 28Apr2014 at  5: 5:33

     Current dimensions of program PWSCF are:
     Max number of different atomic species (ntypx) = 10
     Max number of k-points (npk) =  40000
     Max angular momentum in pseudopotentials (lmaxx) =  3
     Reading input from pwscf.in
Warning: card &CELL ignored
Warning: card / ignored

     Subspace diagonalization in iterative solution of the eigenvalue problem:
     a serial algorithm will be used

     bravais-lattice index     =            0
     lattice parameter (alat)  =      12.2076  a.u.
     unit-cell volume          =    7496.5096 (a.u.)^3
     number of atoms/cell      =           32
     number of atomic types    =            3
     number of electrons       =       247.00
     number of Kohn-Sham states=          370
     kinetic-energy cutoff     =      40.0000  Ry
     charge density cutoff     =     500.0000  Ry
     convergence threshold     =      1.0E-06
     mixing beta               =       0.7000
     number of iterations used =            8  plain     mixing
     Exchange-correlation      = SLA  PW   PBE  PBE ( 1 4 3 4 0)
     EXX-fraction              =        0.00
     nstep                     =           50

     celldm(1)=  12.207631  celldm(2)=   0.000000  celldm(3)=   0.000000
     celldm(4)=   0.000000  celldm(5)=   0.000000  celldm(6)=   0.000000

     crystal axes: (cart. coord. in units of alat)
               a(1) = (   1.000000   0.000000   0.000000 )
               a(2) = (   0.000000   1.004836   0.000000 )
               a(3) = (   0.000000   0.000000   4.100811 )

     reciprocal axes: (cart. coord. in units 2 pi/alat)
               b(1) = (  1.000000  0.000000  0.000000 )
               b(2) = (  0.000000  0.995187  0.000000 )
               b(3) = (  0.000000  0.000000  0.243854 )

     PseudoPot. # 1 for O  read from file:
     /home/camp/zhonxu/pseudo/o_pbe_v1.01.uspp.F.UPF
     MD5 check sum: 2bcb18d16ea4b960afae9ec6d52f22d2
     Pseudo is Ultrasoft + core correction, Zval =  6.0
     Generated by new atomic code, or converted to UPF format
     Using radial grid of  737 points,  5 beta functions with:
                l(1) =   0
                l(2) =   0
                l(3) =   1
                l(4) =   1
                l(5) =   2
     Q(r) pseudized with  8 coefficients,  rinner =    0.900   0.900   0.900
                                                       0.900   0.900

     PseudoPot. # 2 for Pt read from file:
     /home/camp/zhonxu/pseudo/pt_pbe_v1.uspp.F.UPF
     MD5 check sum: 4c71d6ad5ef119f1eb26a4d0b7884226
     Pseudo is Ultrasoft + core correction, Zval = 16.0
     Generated by new atomic code, or converted to UPF format
     Using radial grid of  985 points,  6 beta functions with:
                l(1) =   0
                l(2) =   0
                l(3) =   1
                l(4) =   1
                l(5) =   2
                l(6) =   2
     Q(r) pseudized with  8 coefficients,  rinner =    1.300   1.300   1.300
                                                       1.300   1.300

     PseudoPot. # 3 for H  read from file:
     /home/camp/zhonxu/pseudo/h_pbe_v1.uspp.F.UPF
     MD5 check sum: 3408e3ff4ec8b0a4e358431e7e038a48
     Pseudo is Ultrasoft, Zval =  1.0
     Generated by new atomic code, or converted to UPF format
     Using radial grid of  615 points,  2 beta functions with:
                l(1) =   0
                l(2) =   0
     Q(r) pseudized with  8 coefficients,  rinner =    0.700

     atomic species   valence    mass     pseudopotential
        O0             6.00    15.99940     O ( 1.00)
        Pt1           16.00   195.08000     Pt( 1.00)
        H2             1.00     1.00794     H ( 1.00)

     Simplified LDA+U calculation (l_max = 2) with parameters (eV):
     atomic species    L          U    alpha       J0     beta
        Pt1            2     4.5000   0.0000   0.0000   0.0000

     No symmetry found

   Cartesian axes

     site n.     atom                  positions (alat units)
         1           O0  tau(   1) = (   0.0000000   0.0000000   1.5486303  )
         2           O0  tau(   2) = (   0.0000000   0.5024180   1.6456145  )
         3           Pt1 tau(   3) = (   0.2500000   0.5024180   1.8492198  )
         4           Pt1 tau(   4) = (   0.0000000   0.0000000   1.8561502  )
         5           O0  tau(   5) = (   0.2500000   0.8139171   1.8185047  )
         6           O0  tau(   6) = (   0.2500000   0.1909188   1.8850199  )
         7           O0  tau(   7) = (   0.0000000   0.5024180   2.0364218  )
         8           O0  tau(   8) = (   0.0000000   0.0000000   2.1712565  )
         9           Pt1 tau(   9) = (   0.2500000   0.0000000   2.3611651  )
        10           Pt1 tau(  10) = (   0.0000000   0.5024180   2.3568182  )
        11           O0  tau(  11) = (   0.2500000   0.6933368   2.3352889  )
        12           O0  tau(  12) = (   0.2500000   0.3114991   2.3978263  )
        13           O0  tau(  13) = (   0.0000000   0.0000000   2.5469728  )
        14           O0  tau(  14) = (   0.5000000   0.0000000   1.5487944  )
        15           O0  tau(  15) = (   0.5000000   0.5024180   1.6432360  )
        16           Pt1 tau(  16) = (   0.7500000   0.5024180   1.8492608  )
        17           Pt1 tau(  17) = (   0.5000000   0.0000000   1.8561092  )
        18           O0  tau(  18) = (   0.7500000   0.8139171   1.8183407  )
        19           O0  tau(  19) = (   0.7500000   0.1909188   1.8850199  )
        20           O0  tau(  20) = (   0.5000000   0.5024180   2.0398255  )
        21           O0  tau(  21) = (   0.5000000   0.0000000   2.1711335  )
        22           Pt1 tau(  22) = (   0.7500000   0.0000000   2.3611651  )
        23           Pt1 tau(  23) = (   0.5000000   0.5024180   2.3633795  )
        24           O0  tau(  24) = (   0.7500000   0.6933368   2.3343868  )
        25           O0  tau(  25) = (   0.7500000   0.3114991   2.3965141  )
        26           O0  tau(  26) = (   0.5000000   0.0000000   2.5473419  )
        27           H2  tau(  27) = (   0.0000800   0.6431151   1.5815188  )
        28           H2  tau(  28) = (   0.4999900   0.6432457   1.5795915  )
        29           H2  tau(  29) = (   0.1433600   0.0342348   1.5075812  )
        30           H2  tau(  30) = (   0.6432100   0.0348377   1.5077042  )
        31           O0  tau(  31) = (   0.5002800   0.5276996   2.6647891  )
        32           H2  tau(  32) = (   0.4897800   0.3840985   2.7162543  )

     number of k points=    10  Methfessel-Paxton smearing, width (Ry)=  0.0100
                       cart. coord. in units 2pi/alat
        k(    1) = (   0.0000000   0.0000000   0.0000000), wk =   0.1250000
        k(    2) = (   0.0000000   0.2487968   0.0000000), wk =   0.2500000
        k(    3) = (   0.0000000  -0.4975937   0.0000000), wk =   0.1250000
        k(    4) = (   0.2500000   0.0000000   0.0000000), wk =   0.2500000
        k(    5) = (   0.2500000   0.2487968   0.0000000), wk =   0.2500000
        k(    6) = (   0.2500000  -0.4975937   0.0000000), wk =   0.2500000
        k(    7) = (  -0.5000000   0.0000000   0.0000000), wk =   0.1250000
        k(    8) = (  -0.5000000   0.2487968   0.0000000), wk =   0.2500000
        k(    9) = (  -0.5000000  -0.4975937   0.0000000), wk =   0.1250000
        k(   10) = (  -0.2500000   0.2487968   0.0000000), wk =   0.2500000

     Largest allocated arrays     est. size (Mb)     dimensions
     Largest temporary arrays     est. size (Mb)     dimensions

     Check: negative/imaginary core charge=   -0.000003    0.000000

     Initial potential from superposition of free atoms
     Check: negative starting charge=   -1.535574

     starting charge  242.99984, renormalised to  247.00000

     negative rho (up, down):  0.156E+01 0.000E+00
     Number of +U iterations with fixed ns =  0
     Starting occupations:
 --- enter write_ns ---
 LDA+U parameters:
U( 2)     =  4.50000000
alpha( 2) =  0.00000000
atom    3   Tr[ns(na)] =   8.00000
    eigenvalues:
  0.800  0.800  0.800  0.800  0.800
    eigenvectors:
  1.000  0.000  0.000  0.000  0.000
  0.000  1.000  0.000  0.000  0.000
  0.000  0.000  1.000  0.000  0.000
  0.000  0.000  0.000  1.000  0.000
  0.000  0.000  0.000  0.000  1.000
    occupations:
  0.800  0.000  0.000  0.000  0.000
  0.000  0.800  0.000  0.000  0.000
  0.000  0.000  0.800  0.000  0.000
  0.000  0.000  0.000  0.800  0.000
  0.000  0.000  0.000  0.000  0.800
atom    4   Tr[ns(na)] =   8.00000
    eigenvalues:
  0.800  0.800  0.800  0.800  0.800
    eigenvectors:
  1.000  0.000  0.000  0.000  0.000
  0.000  1.000  0.000  0.000  0.000
  0.000  0.000  1.000  0.000  0.000
  0.000  0.000  0.000  1.000  0.000
  0.000  0.000  0.000  0.000  1.000
    occupations:
  0.800  0.000  0.000  0.000  0.000
  0.000  0.800  0.000  0.000  0.000
  0.000  0.000  0.800  0.000  0.000
  0.000  0.000  0.000  0.800  0.000
  0.000  0.000  0.000  0.000  0.800
atom    9   Tr[ns(na)] =   8.00000
    eigenvalues:
  0.800  0.800  0.800  0.800  0.800
    eigenvectors:
  1.000  0.000  0.000  0.000  0.000
  0.000  1.000  0.000  0.000  0.000
  0.000  0.000  1.000  0.000  0.000
  0.000  0.000  0.000  1.000  0.000
  0.000  0.000  0.000  0.000  1.000
    occupations:
  0.800  0.000  0.000  0.000  0.000
  0.000  0.800  0.000  0.000  0.000
  0.000  0.000  0.800  0.000  0.000
  0.000  0.000  0.000  0.800  0.000
  0.000  0.000  0.000  0.000  0.800
atom   10   Tr[ns(na)] =   8.00000
    eigenvalues:
  0.800  0.800  0.800  0.800  0.800
    eigenvectors:
  1.000  0.000  0.000  0.000  0.000
  0.000  1.000  0.000  0.000  0.000
  0.000  0.000  1.000  0.000  0.000
  0.000  0.000  0.000  1.000  0.000
  0.000  0.000  0.000  0.000  1.000
    occupations:
  0.800  0.000  0.000  0.000  0.000
  0.000  0.800  0.000  0.000  0.000
  0.000  0.000  0.800  0.000  0.000
  0.000  0.000  0.000  0.800  0.000
  0.000  0.000  0.000  0.000  0.800
atom   16   Tr[ns(na)] =   8.00000
    eigenvalues:
  0.800  0.800  0.800  0.800  0.800
    eigenvectors:
  1.000  0.000  0.000  0.000  0.000
  0.000  1.000  0.000  0.000  0.000
  0.000  0.000  1.000  0.000  0.000
  0.000  0.000  0.000  1.000  0.000
  0.000  0.000  0.000  0.000  1.000
    occupations:
  0.800  0.000  0.000  0.000  0.000
  0.000  0.800  0.000  0.000  0.000
  0.000  0.000  0.800  0.000  0.000
  0.000  0.000  0.000  0.800  0.000
  0.000  0.000  0.000  0.000  0.800
atom   17   Tr[ns(na)] =   8.00000
    eigenvalues:
  0.800  0.800  0.800  0.800  0.800
    eigenvectors:
  1.000  0.000  0.000  0.000  0.000
  0.000  1.000  0.000  0.000  0.000
  0.000  0.000  1.000  0.000  0.000
  0.000  0.000  0.000  1.000  0.000
  0.000  0.000  0.000  0.000  1.000
    occupations:
  0.800  0.000  0.000  0.000  0.000
  0.000  0.800  0.000  0.000  0.000
  0.000  0.000  0.800  0.000  0.000
  0.000  0.000  0.000  0.800  0.000
  0.000  0.000  0.000  0.000  0.800
atom   22   Tr[ns(na)] =   8.00000
    eigenvalues:
  0.800  0.800  0.800  0.800  0.800
    eigenvectors:
  1.000  0.000  0.000  0.000  0.000
  0.000  1.000  0.000  0.000  0.000
  0.000  0.000  1.000  0.000  0.000
  0.000  0.000  0.000  1.000  0.000
  0.000  0.000  0.000  0.000  1.000
[...]
    eigenvalues:
  0.717  0.727  0.960  0.968  0.987
    eigenvectors:
  0.000  0.136  0.000  0.012  0.851
  1.000  0.000  0.000  0.000  0.000
  0.000  0.009  0.007  0.977  0.007
  0.000  0.854  0.000  0.003  0.142
  0.000  0.000  0.993  0.007  0.000
    occupations:
  0.952  0.000 -0.007 -0.089  0.000
  0.000  0.717 -0.000  0.000 -0.003
 -0.007 -0.000  0.966 -0.022  0.001
 -0.089  0.000 -0.022  0.765  0.001
  0.000 -0.003  0.001  0.001  0.960
atom   10   Tr[ns(na)] =   8.77203
    eigenvalues:
  0.672  0.754  0.985  0.986  0.989
    eigenvectors:
  0.000  0.982  0.000  0.011  0.008
  0.011  0.000  0.988  0.002  0.000
  0.000  0.000  0.001  0.278  0.721
  0.000  0.018  0.001  0.710  0.271
  0.989  0.000  0.011  0.000  0.000
    occupations:
  0.758 -0.001 -0.005  0.031 -0.000
 -0.001  0.981 -0.000  0.000 -0.032
 -0.005 -0.000  0.988 -0.001  0.000
  0.031  0.000 -0.001  0.983  0.000
 -0.000 -0.032  0.000  0.000  0.676
atom   16   Tr[ns(na)] =   8.73727
    eigenvalues:
  0.694  0.709  0.986  0.988  0.991
    eigenvectors:
  0.007  0.164  0.823  0.000  0.006
  0.959  0.041  0.000  0.000  0.000
  0.000  0.005  0.014  0.000  0.981
  0.034  0.790  0.163  0.000  0.013
  0.000  0.000  0.000  0.999  0.001
    occupations:
  0.939 -0.001  0.008 -0.104 -0.000
 -0.001  0.695 -0.001 -0.003 -0.002
  0.008 -0.001  0.989  0.018 -0.000
 -0.104 -0.003  0.018  0.757 -0.000
 -0.000 -0.002 -0.000 -0.000  0.988
atom   17   Tr[ns(na)] =   8.73143
    eigenvalues:
  0.693  0.716  0.983  0.986  0.987
    eigenvectors:
  0.000  0.985  0.008  0.003  0.004
  0.011  0.000  0.060  0.890  0.038
  0.000  0.005  0.859  0.030  0.107
  0.000  0.009  0.073  0.067  0.851
  0.989  0.000  0.001  0.010  0.000
    occupations:
  0.720 -0.005 -0.019  0.026 -0.001
 -0.005  0.983  0.000  0.000  0.031
 -0.019  0.000  0.982  0.003  0.000
  0.026  0.000  0.003  0.984  0.000
 -0.001  0.031  0.000  0.000  0.696
atom   22   Tr[ns(na)] =   8.71732
    eigenvalues:
  0.717  0.727  0.960  0.968  0.987
    eigenvectors:
  0.001  0.136  0.000  0.012  0.852
  0.996  0.004  0.000  0.000  0.000
  0.000  0.009  0.011  0.973  0.007
  0.003  0.851  0.000  0.003  0.142
  0.000  0.000  0.989  0.011  0.000
    occupations:
  0.951  0.001 -0.007 -0.089 -0.000
  0.001  0.717  0.000  0.000 -0.003
 -0.007  0.000  0.966 -0.022 -0.001
 -0.089  0.000 -0.022  0.765 -0.001
 -0.000 -0.003 -0.001 -0.001  0.960
atom   23   Tr[ns(na)] =   8.71951
    eigenvalues:
  0.692  0.720  0.974  0.986  0.988
    eigenvectors:
  0.000  0.974  0.000  0.000  0.026
  0.016  0.000  0.983  0.001  0.001
  0.000  0.017  0.002  0.409  0.572
  0.000  0.008  0.000  0.590  0.402
  0.984  0.000  0.016  0.000  0.000
    occupations:
  0.726 -0.001  0.035  0.024  0.000
 -0.001  0.970  0.001 -0.000 -0.035
  0.035  0.001  0.982 -0.002  0.000
  0.024 -0.000 -0.002  0.984 -0.000
  0.000 -0.035  0.000 -0.000  0.697
N of occupied +U levels =  69.8657820
 --- exit write_ns ---

     Threshold (ethr) on eigenvalues was too large:
     Diagonalizing with lowered threshold

     Davidson diagonalization with overlap
     ethr =  1.36E-08,  avg # of iterations =  1.8

[...]

     total energy              =   -2280.92638000 Ry
     Harris-Foulkes estimate   =   -2280.92638001 Ry
     estimated scf accuracy    <       0.00000004 Ry

     iteration # 12     ecut=    40.00 Ry     beta=0.70
     Davidson diagonalization with overlap
     ethr =  1.53E-11,  avg # of iterations =  1.0

     negative rho (up, down):  0.158E+01 0.000E+00

     End of self-consistent calculation
 --- enter write_ns ---
 LDA+U parameters:
U( 2)     =  4.50000000
alpha( 2) =  0.00000000
atom    3   Tr[ns(na)] =   8.73709
    eigenvalues:
  0.694  0.709  0.986  0.988  0.991
    eigenvectors:
  0.007  0.164  0.819  0.003  0.008
  0.959  0.041  0.000  0.000  0.000
  0.000  0.005  0.016  0.000  0.979
  0.035  0.790  0.161  0.001  0.013
  0.000  0.000  0.004  0.996  0.000
    occupations:
  0.939  0.001  0.008 -0.104  0.000
  0.001  0.695  0.001  0.003 -0.002
  0.008  0.001  0.989  0.018  0.000
 -0.104  0.003  0.018  0.757  0.001
  0.000 -0.002  0.000  0.001  0.988
atom    4   Tr[ns(na)] =   8.73393
    eigenvalues:
  0.694  0.716  0.984  0.986  0.987
    eigenvectors:
  0.000  0.985  0.008  0.003  0.003
  0.011  0.000  0.064  0.869  0.056
  0.000  0.005  0.834  0.023  0.138
  0.000  0.009  0.093  0.095  0.802
  0.989  0.000  0.001  0.010  0.001
    occupations:
  0.720 -0.005 -0.019  0.026 -0.001
 -0.005  0.983  0.000  0.000  0.030
 -0.019  0.000  0.983  0.003  0.000
  0.026  0.000  0.003  0.984  0.000
 -0.001  0.030  0.000  0.000  0.697
atom    9   Tr[ns(na)] =   8.71760
    eigenvalues:
  0.717  0.727  0.960  0.968  0.987
    eigenvectors:
  0.000  0.136  0.000  0.013  0.851
  1.000  0.000  0.000  0.000  0.000
  0.000  0.009  0.006  0.978  0.007
  0.000  0.854  0.000  0.003  0.142
  0.000  0.000  0.993  0.006  0.000
    occupations:
  0.951  0.000 -0.007 -0.089  0.000
  0.000  0.717 -0.000  0.000 -0.003
 -0.007 -0.000  0.966 -0.022  0.001
 -0.089  0.000 -0.022  0.765  0.001
  0.000 -0.003  0.001  0.001  0.960
atom   10   Tr[ns(na)] =   8.77004
    eigenvalues:
  0.672  0.753  0.985  0.986  0.989
    eigenvectors:
  0.000  0.982  0.000  0.011  0.007
  0.011  0.000  0.988  0.002  0.000
  0.000  0.000  0.001  0.277  0.722
  0.000  0.018  0.001  0.710  0.271
  0.989  0.000  0.011  0.000  0.000
    occupations:
  0.758 -0.001 -0.005  0.031 -0.000
 -0.001  0.981 -0.000  0.000 -0.032
 -0.005 -0.000  0.988 -0.001  0.000
  0.031  0.000 -0.001  0.983  0.000
 -0.000 -0.032  0.000  0.000  0.675
atom   16   Tr[ns(na)] =   8.73732
    eigenvalues:
  0.694  0.709  0.986  0.988  0.991
    eigenvectors:
  0.006  0.164  0.823  0.000  0.006
  0.960  0.040  0.000  0.000  0.000
  0.000  0.005  0.014  0.000  0.981
  0.033  0.791  0.163  0.000  0.013
  0.000  0.000  0.000  0.999  0.000
    occupations:
  0.939 -0.001  0.008 -0.104 -0.000
 -0.001  0.695 -0.001 -0.003 -0.002
  0.008 -0.001  0.989  0.018 -0.000
 -0.104 -0.003  0.018  0.757 -0.000
 -0.000 -0.002 -0.000 -0.000  0.988
atom   17   Tr[ns(na)] =   8.73178
    eigenvalues:
  0.693  0.716  0.983  0.986  0.987
    eigenvectors:
  0.000  0.985  0.008  0.003  0.004
  0.011  0.000  0.060  0.891  0.038
  0.000  0.005  0.859  0.030  0.106
  0.000  0.009  0.072  0.066  0.852
  0.989  0.000  0.001  0.010  0.000
    occupations:
  0.720 -0.005 -0.019  0.026 -0.001
 -0.005  0.983  0.000  0.000  0.030
 -0.019  0.000  0.982  0.003  0.000
  0.026  0.000  0.003  0.984  0.000
 -0.001  0.030  0.000  0.000  0.697
atom   22   Tr[ns(na)] =   8.71733
    eigenvalues:
  0.717  0.727  0.960  0.968  0.987
    eigenvectors:
  0.001  0.136  0.000  0.012  0.852
  0.996  0.004  0.000  0.000  0.000
  0.000  0.009  0.011  0.973  0.007
  0.003  0.851  0.000  0.003  0.142
  0.000  0.000  0.989  0.011  0.000
    occupations:
  0.951  0.001 -0.007 -0.089 -0.000
  0.001  0.717  0.000  0.000 -0.003
 -0.007  0.000  0.966 -0.022 -0.001
 -0.089  0.000 -0.022  0.765 -0.001
 -0.000 -0.003 -0.001 -0.001  0.960
atom   23   Tr[ns(na)] =   8.71928
    eigenvalues:
  0.692  0.719  0.974  0.986  0.988
    eigenvectors:
  0.000  0.974  0.000  0.000  0.026
  0.016  0.000  0.983  0.001  0.001
  0.000  0.018  0.002  0.409  0.572
  0.000  0.008  0.000  0.590  0.402
  0.984  0.000  0.016  0.000  0.000
    occupations:
  0.726 -0.001  0.035  0.024  0.000
 -0.001  0.970  0.001 -0.000 -0.035
  0.035  0.001  0.982 -0.002  0.000
  0.024 -0.000 -0.002  0.984 -0.000
  0.000 -0.035  0.000 -0.000  0.697
N of occupied +U levels =  69.8643679
 --- exit write_ns ---

[...]

          k = 0.2500-0.4976 0.0000 ( 32026 PWs)   bands (ev):

[...]

          k =-0.2500 0.2488 0.0000 ( 32025 PWs)   bands (ev):

   -55.3431 -55.3039 -55.2781 -55.2373 -55.1848 -55.1475 -55.1448 -55.1428
   -55.1212 -55.1152 -55.0639 -54.9842 -54.9789 -54.9702 -54.9629 -54.8596
   -54.8592 -54.8537 -54.8452 -54.8384 -54.7399 -54.6306 -54.4045 -54.1275
   -22.0469 -21.8403 -21.1461 -20.9796 -20.7218 -20.6497 -20.5644 -20.5214
   -20.4170 -20.2656 -20.2333 -20.1514 -20.0655 -19.9731 -19.9073 -19.8895
   -19.7291 -19.2015 -18.9899 -10.7798 -10.5733 -10.4297 -10.3611  -9.9498
    -9.9092  -9.7851  -9.5269  -9.4786  -9.4292  -9.3291  -9.2532  -9.1184
    -9.0420  -9.0004  -8.8695  -8.8031  -8.6578  -8.4667  -8.2544  -8.0954
    -8.0565  -7.9390  -7.8488  -7.7369  -7.6015  -7.5668  -7.4565  -7.2918
    -7.2261  -7.1690  -7.0655  -6.9840  -6.9037  -6.8313  -6.7805  -6.7502
    -6.6395  -6.5667  -6.4711  -6.3887  -6.1645  -6.0545  -5.8120  -5.7172
    -5.5150  -5.4289  -5.3743  -5.2641  -5.1925  -5.1411  -4.9503  -4.8998
    -4.7089  -4.6592  -4.4810  -4.3280  -4.3007  -4.1932  -3.9802  -3.9157
    -3.8369  -3.7470  -3.7260  -3.5959  -3.5308  -3.4168  -3.3728  -3.1038
    -3.0761  -2.8075  -2.6629  -2.5699  -2.4296  -2.4033  -2.3597  -2.2991
    -2.2195  -2.0267  -1.8412  -1.7551  -1.6364  -1.0437  -0.7881  -0.5982
    -0.2398  -0.1015   0.3013   0.5441   0.7791   0.8644   1.0138   1.0850
     1.3255   1.4614   1.5233   1.8736   3.2582   3.9448   4.6291   5.0501
     5.1131   5.2130   5.2840   5.5502   6.0272   6.1980   6.2885   6.3353
     6.4746   6.6004   6.6791   6.7808   6.8733   6.9512   7.1430   7.2301
     7.3974   7.5136   7.5444   7.6906   7.7492   7.8550   7.9609   8.0599
     8.2339   8.3282   8.3691   8.4607   8.5239   8.6172   8.6887   8.7911
     8.9286   8.9845   9.0595   9.1951   9.3468   9.4353   9.5982   9.6467
     9.7573   9.8164   9.9264  10.0794  10.1315  10.1927  10.2468  10.3753
    10.5172  10.5567  10.6143  10.7086  10.7483  10.9552  11.0055  11.0965
    11.1892  11.2086  11.3712  11.4333  11.4990  11.6486  11.7453  11.7973
    11.8732  11.9288  12.0198  12.0358  12.1011  12.2344  12.2985  12.3560
    12.3987  12.4624  12.5274  12.5805  12.6570  12.7303  12.7947  12.9409
    12.9939  13.0354  13.1180  13.2169  13.2602  13.4742  13.5447  13.5830
    13.6227  13.6779  13.7376  13.8338  13.9456  13.9942  14.0709  14.0916
    14.1905  14.2999  14.3688  14.5061  14.5675  14.6514  14.7322  14.8511
    14.9064  15.0041  15.0824  15.1898  15.2511  15.3000  15.3259  15.4066
    15.4608  15.5122  15.5823  15.6275  15.7038  15.7350  15.7766  15.8525
    15.8904  15.9891  16.0138  16.0600  16.1278  16.2400  16.3228  16.3903
    16.4765  16.5260  16.6371  16.7271  16.7910  16.8237  16.9142  16.9540
    17.0005  17.0519  17.0728  17.0827  17.1034  17.1235  17.1499  17.1903
    17.2272  17.2509  17.2554  17.3022  17.3170  17.3521  17.3999  17.4881
    17.5270  17.5540  17.6254  17.6502  17.7662  17.8915  17.9258  17.9563
    18.0126  18.0563  18.1443  18.1837  18.2527  18.3493  18.4742  18.5087
    18.5868  18.6092  18.6356  18.7269  18.7999  18.8649  18.9011  18.9766
    19.0228  19.1341  19.1832  19.2448  19.2980  19.3631  19.4528  19.5501
    19.6559  19.6925  19.8229  19.8786  19.9448  19.9999  20.0481  20.0797
    20.1295  20.1643  20.2721  20.3492  20.3618  20.4181  20.5198  20.5652
    20.6602  20.6945  20.7363  20.8129  20.9082  20.9613  20.9910  21.0300
    21.0907  21.2137  21.2633  21.3053  21.3401  21.3657  21.4657  21.5078
    21.5800  21.6314  21.7057  21.7587  21.8010  21.9058  21.9992  22.0782
    22.1462  22.1888

     the Fermi energy is    -1.7455 ev

!    total energy              =   -2280.92638000 Ry
     Harris-Foulkes estimate   =   -2280.92638000 Ry
     estimated scf accuracy    <          7.6E-09 Ry

     The total energy is the sum of the following terms:

     one-electron contribution =  -23731.73745740 Ry
     hartree contribution      =   11910.11951095 Ry
     xc contribution           =    -573.04866903 Ry
     ewald contribution        =   10112.51590450 Ry
     Hubbard energy            =       1.22420181 Ry
     smearing contrib. (-TS)   =       0.00012917 Ry

     convergence has been achieved in  12 iterations

     Forces acting on atoms (Ry/au):

     negative rho (up, down):  0.158E+01 0.000E+00
     atom    1 type  1   force =    -0.00844856   -0.00391226    0.00007253
     atom    2 type  1   force =     0.00038502    0.00271431   -0.00093738
     atom    3 type  2   force =     0.01446267    0.00790754   -0.00019378
     atom    4 type  2   force =     0.01074743    0.00419206   -0.00021165
     atom    5 type  1   force =     0.00135510   -0.00339596   -0.00067783
     atom    6 type  1   force =    -0.00001789   -0.00309337   -0.00010659
     atom    7 type  1   force =     0.00024199   -0.00085646   -0.00016880
     atom    8 type  1   force =    -0.00425617   -0.00074091   -0.00006101
     atom    9 type  2   force =     0.00312988    0.00275038   -0.00035215
     atom   10 type  2   force =    -0.00042137   -0.02393008    0.00091275
     atom   11 type  1   force =     0.00373336    0.00198135    0.00055815
     atom   12 type  1   force =    -0.01287349    0.00749841   -0.00009541
     atom   13 type  1   force =    -0.00107731   -0.00657551   -0.00015418
     atom   14 type  1   force =    -0.00818805   -0.00366862    0.00008623
     atom   15 type  1   force =     0.00011707    0.00188353    0.00041963
     atom   16 type  2   force =    -0.01568160    0.00789336   -0.00022518
     atom   17 type  2   force =     0.01044720    0.00545601   -0.00011625
     atom   18 type  1   force =     0.00098124   -0.00347897   -0.00051377
     atom   19 type  1   force =     0.00005784   -0.00299801   -0.00018038
     atom   20 type  1   force =     0.00035763   -0.00203244    0.00036939
     atom   21 type  1   force =    -0.00395190    0.00166072    0.00015534
     atom   22 type  2   force =     0.00078682    0.00302424   -0.00042969
     atom   23 type  2   force =    -0.00059749    0.00065265    0.00000626
     atom   24 type  1   force =    -0.00364617    0.00250513    0.00038875
     atom   25 type  1   force =     0.01299538    0.00774711   -0.00001084
     atom   26 type  1   force =    -0.00119013   -0.00498528    0.00022909
     atom   27 type  3   force =    -0.00002291    0.00044034   -0.00015903
     atom   28 type  3   force =     0.00002777   -0.00018252   -0.00006041
     atom   29 type  3   force =     0.00010248   -0.00001370    0.00060418
     atom   30 type  3   force =     0.00009112   -0.00006544    0.00051400
     atom   31 type  1   force =     0.00011790    0.00077502    0.00025056
     atom   32 type  3   force =     0.00023514    0.00084737    0.00008745

     Total force =     0.002496     Total SCF correction =     0.000283
     SCF correction compared to forces is large: reduce conv_thr to get better values

     bfgs converged in  16 scf cycles and  15 bfgs steps
     (criteria: energy < 0.10E-03, force < 0.10E-02)

     End of BFGS Geometry Optimization

     Final energy   =   -2280.9263799975 Ry
Begin final coordinates

ATOMIC_POSITIONS (crystal)
O0       0.000000000   0.000000000   0.377510717    0   0   1
O0       0.000000000   0.500000000   0.401684620    0   0   1
Pt1      0.250000000   0.500000000   0.451152467    0   0   1
Pt1      0.000000000   0.000000000   0.452589800    0   0   1
O0       0.250000000   0.810000000   0.442774380    0   0   1
O0       0.250000000   0.190000000   0.460762619    0   0   1
O0       0.000000000   0.500000000   0.496770281    0   0   1
O0       0.000000000   0.000000000   0.529606939    0   0   1
Pt1      0.250000000   0.000000000   0.575714154    0   0   1
Pt1      0.000000000   0.500000000   0.574284544    0   0   1
O0       0.250000000   0.690000000   0.566718485    0   0   1
O0       0.250000000   0.310000000   0.585742509    0   0   1
O0       0.000000000   0.000000000   0.621140751    0   0   1
O0       0.500000000   0.000000000   0.377566524    0   0   1
O0       0.500000000   0.500000000   0.401148835    0   0   1
Pt1      0.750000000   0.500000000   0.451152560    0   0   1
Pt1      0.500000000   0.000000000   0.452624634    0   0   1
O0       0.750000000   0.810000000   0.442756775    0   0   1
O0       0.750000000   0.190000000   0.460768892    0   0   1
O0       0.500000000   0.500000000   0.497319109    0   0   1
O0       0.500000000   0.000000000   0.529567827    0   0   1
Pt1      0.750000000   0.000000000   0.575719291    0   0   1
Pt1      0.500000000   0.500000000   0.576011445    0   0   1
O0       0.750000000   0.690000000   0.566832057    0   0   1
O0       0.750000000   0.310000000   0.585630507    0   0   1
O0       0.500000000   0.000000000   0.621136764    0   0   1
H2       0.000081416   0.640620308   0.386392222
H2       0.499992125   0.641307830   0.386184254
H2       0.143437641   0.034045301   0.367558113
H2       0.643455726   0.034093914   0.367620438
O0       0.499252573   0.531156000   0.649544611
H2       0.492487731   0.388807287   0.662632876
End final coordinates

     General routines

     Parallel routines
     Hubbard U routines

   This run was terminated on:  21:39:24  28Apr2014

   JOB DONE.