     Program PWSCF v.5.0.2 (svn rev. 9656) starts on 30Apr2014 at 21:37: 9

     Current dimensions of program PWSCF are:
     Max number of different atomic species (ntypx) = 10
     Max number of k-points (npk) =  40000
     Max angular momentum in pseudopotentials (lmaxx) =  3
     Reading input from pwscf.in
Warning: card &CELL ignored
Warning: card / ignored

     Subspace diagonalization in iterative solution of the eigenvalue problem:
     a serial algorithm will be used

     bravais-lattice index     =            0
     lattice parameter (alat)  =      11.1872  a.u.
     unit-cell volume          =    7531.8600 (a.u.)^3
     number of atoms/cell      =           31
     number of atomic types    =            3
     number of electrons       =       222.00
     number of Kohn-Sham states=          333
     kinetic-energy cutoff     =      40.0000  Ry
     charge density cutoff     =     500.0000  Ry
     convergence threshold     =      1.0E-06
     mixing beta               =       0.7000
     number of iterations used =            8  plain     mixing
     Exchange-correlation      = SLA  PW   PBE  PBE ( 1 4 3 4 0)
     EXX-fraction              =        0.00
     nstep                     =           50

     celldm(1)=  11.187179  celldm(2)=   0.000000  celldm(3)=   0.000000
     celldm(4)=   0.000000  celldm(5)=   0.000000  celldm(6)=   0.000000

     crystal axes: (cart. coord. in units of alat)
               a(1) = (   1.000000   0.000000   0.000000 )
               a(2) = (   0.000000   1.180104   0.000000 )
               a(3) = (   0.000000   0.000000   4.558482 )

     reciprocal axes: (cart. coord. in units 2 pi/alat)
               b(1) = (  1.000000  0.000000  0.000000 )
               b(2) = (  0.000000  0.847383  0.000000 )
               b(3) = (  0.000000  0.000000  0.219371 )

     PseudoPot. # 1 for O  read from file:
     /home/camp/zhonxu/pseudo/o_pbe_v1.01.uspp.F.UPF
     MD5 check sum: 2bcb18d16ea4b960afae9ec6d52f22d2
     Pseudo is Ultrasoft + core correction, Zval =  6.0
     Generated by new atomic code, or converted to UPF format
     Using radial grid of  737 points,  5 beta functions with:
                l(1) =   0
                l(2) =   0
                l(3) =   1
                l(4) =   1
                l(5) =   2
     Q(r) pseudized with  8 coefficients,  rinner =    0.900   0.900   0.900
                                                       0.900   0.900

     PseudoPot. # 2 for Nb read from file:
     /home/camp/zhonxu/pseudo/nb_pbe_v1.uspp.F.UPF
     MD5 check sum: 573aab8a2fa660278ed4a62cd769473f
     Pseudo is Ultrasoft + core correction, Zval = 13.0
     Generated by new atomic code, or converted to UPF format
     Using radial grid of  887 points,  6 beta functions with:
                l(1) =   0
                l(2) =   0
                l(3) =   1
                l(4) =   1
                l(5) =   2
                l(6) =   2
     Q(r) pseudized with  6 coefficients,  rinner =    1.000   1.000   1.000
                                                       1.000   1.000

     PseudoPot. # 3 for H  read from file:
     /home/camp/zhonxu/pseudo/h_pbe_v1.uspp.F.UPF
     MD5 check sum: 3408e3ff4ec8b0a4e358431e7e038a48
     Pseudo is Ultrasoft, Zval =  1.0
     Generated by new atomic code, or converted to UPF format
     Using radial grid of  615 points,  2 beta functions with:
                l(1) =   0
                l(2) =   0
     Q(r) pseudized with  8 coefficients,  rinner =    0.700

     atomic species   valence    mass     pseudopotential
        O0             6.00    15.99940     O ( 1.00)
        Nb1           13.00    92.90640     Nb( 1.00)
        H2             1.00     1.00794     H ( 1.00)

     Simplified LDA+U calculation (l_max = 2) with parameters (eV):
     atomic species    L          U    alpha       J0     beta
        Nb1            2     6.0000   0.0000   0.0000   0.0000

     No symmetry found

   Cartesian axes

     site n.     atom                  positions (alat units)
         1           O0  tau(   1) = (   0.0000000   0.0000000   1.6934306  )
         2           O0  tau(   2) = (   0.0000000   0.5900519   1.7719732  )
         3           Nb1 tau(   3) = (   0.2500000   0.5900519   2.0266100  )
         4           Nb1 tau(   4) = (   0.0000000   0.0000000   2.0234647  )
         5           O0  tau(   5) = (   0.2500000   0.9322821   2.0339492  )
         6           O0  tau(   6) = (   0.2500000   0.2478218   2.0339492  )
         7           O0  tau(   7) = (   0.0000000   0.5900519   2.2822497  )
         8           O0  tau(   8) = (   0.0000000   0.0000000   2.3837671  )
         9           Nb1 tau(   9) = (   0.2500000   0.0000000   2.6303810  )
        10           Nb1 tau(  10) = (   0.0000000   0.5900519   2.5986084  )
        11           O0  tau(  11) = (   0.2500000   0.8378738   2.6271901  )
        12           O0  tau(  12) = (   0.2500000   0.3422301   2.6272357  )
        13           O0  tau(  13) = (   0.0000000   0.0000000   2.8322306  )
        14           O0  tau(  14) = (   0.5000000   0.0000000   1.6959377  )
        15           O0  tau(  15) = (   0.5000000   0.5900519   1.7815005  )
        16           Nb1 tau(  16) = (   0.7500000   0.5900519   2.0269291  )
        17           Nb1 tau(  17) = (   0.5000000   0.0000000   2.0281143  )
        18           O0  tau(  18) = (   0.7500000   0.9322821   2.0339492  )
        19           O0  tau(  19) = (   0.7500000   0.2478218   2.0339492  )
        20           O0  tau(  20) = (   0.5000000   0.5900519   2.2572692  )
        21           O0  tau(  21) = (   0.5000000   0.0000000   2.3822628  )
        22           Nb1 tau(  22) = (   0.7500000   0.0000000   2.6309736  )
        23           Nb1 tau(  23) = (   0.5000000   0.5900519   2.6831227  )
        24           O0  tau(  24) = (   0.7500000   0.8378738   2.6265975  )
        25           O0  tau(  25) = (   0.7500000   0.3422301   2.6265975  )
        26           O0  tau(  26) = (   0.5000000   0.0000000   2.8320027  )
        27           H2  tau(  27) = (  -0.0004900   0.5918693   1.6065459  )
        28           H2  tau(  28) = (   0.4994900   0.5917631   1.6163466  )
        29           H2  tau(  29) = (   0.1504600   0.0004366   1.6207228  )
        30           H2  tau(  30) = (   0.6496400   0.0004366   1.6219536  )
        31           O0  tau(  31) = (   0.5000300   0.5900519   2.9731333  )

     number of k points=    10  Methfessel-Paxton smearing, width (Ry)=  0.0100
                       cart. coord. in units 2pi/alat
        k(    1) = (   0.0000000   0.0000000   0.0000000), wk =   0.1250000
        k(    2) = (   0.0000000   0.2118458   0.0000000), wk =   0.2500000
        k(    3) = (   0.0000000  -0.4236915   0.0000000), wk =   0.1250000
        k(    4) = (   0.2500000   0.0000000   0.0000000), wk =   0.2500000
        k(    5) = (   0.2500000   0.2118458   0.0000000), wk =   0.2500000
        k(    6) = (   0.2500000  -0.4236915   0.0000000), wk =   0.2500000
        k(    7) = (  -0.5000000   0.0000000   0.0000000), wk =   0.1250000
        k(    8) = (  -0.5000000   0.2118458   0.0000000), wk =   0.2500000
        k(    9) = (  -0.5000000  -0.4236915   0.0000000), wk =   0.1250000
        k(   10) = (  -0.2500000   0.2118458   0.0000000), wk =   0.2500000

     Largest allocated arrays     est. size (Mb)     dimensions
     Largest temporary arrays     est. size (Mb)     dimensions

     Check: negative/imaginary core charge=   -0.000003    0.000000

     Initial potential from superposition of free atoms
     Check: negative starting charge=   -0.003810

     starting charge  221.97807, renormalised to  222.00000

     negative rho (up, down):  0.381E-02 0.000E+00
     Number of +U iterations with fixed ns =  0
     Starting occupations:
 --- enter write_ns ---
 LDA+U parameters:
U( 2)     =  6.00000000
alpha( 2) =  0.00000000
atom    3   Tr[ns(na)] =   3.00000
    eigenvalues:
  0.300  0.300  0.300  0.300  0.300
    eigenvectors:
  1.000  0.000  0.000  0.000  0.000
  0.000  1.000  0.000  0.000  0.000
  0.000  0.000  1.000  0.000  0.000
  0.000  0.000  0.000  1.000  0.000
  0.000  0.000  0.000  0.000  1.000
    occupations:
  0.300  0.000  0.000  0.000  0.000
  0.000  0.300  0.000  0.000  0.000
  0.000  0.000  0.300  0.000  0.000
  0.000  0.000  0.000  0.300  0.000
  0.000  0.000  0.000  0.000  0.300
atom    4   Tr[ns(na)] =   3.00000
    eigenvalues:
  0.300  0.300  0.300  0.300  0.300
    eigenvectors:
  1.000  0.000  0.000  0.000  0.000
  0.000  1.000  0.000  0.000  0.000
  0.000  0.000  1.000  0.000  0.000
  0.000  0.000  0.000  1.000  0.000
  0.000  0.000  0.000  0.000  1.000
    occupations:
  0.300  0.000  0.000  0.000  0.000
  0.000  0.300  0.000  0.000  0.000
  0.000  0.000  0.300  0.000  0.000
  0.000  0.000  0.000  0.300  0.000
  0.000  0.000  0.000  0.000  0.300
atom    9   Tr[ns(na)] =   3.00000
    eigenvalues:
  0.300  0.300  0.300  0.300  0.300
    eigenvectors:
  1.000  0.000  0.000  0.000  0.000
  0.000  1.000  0.000  0.000  0.000
  0.000  0.000  1.000  0.000  0.000
  0.000  0.000  0.000  1.000  0.000
  0.000  0.000  0.000  0.000  1.000
    occupations:
  0.300  0.000  0.000  0.000  0.000
  0.000  0.300  0.000  0.000  0.000
  0.000  0.000  0.300  0.000  0.000
  0.000  0.000  0.000  0.300  0.000
  0.000  0.000  0.000  0.000  0.300
atom   10   Tr[ns(na)] =   3.00000
    eigenvalues:
  0.300  0.300  0.300  0.300  0.300
    eigenvectors:
  1.000  0.000  0.000  0.000  0.000
  0.000  1.000  0.000  0.000  0.000
  0.000  0.000  1.000  0.000  0.000
  0.000  0.000  0.000  1.000  0.000
  0.000  0.000  0.000  0.000  1.000
    occupations:
  0.300  0.000  0.000  0.000  0.000
  0.000  0.300  0.000  0.000  0.000
  0.000  0.000  0.300  0.000  0.000
  0.000  0.000  0.000  0.300  0.000
  0.000  0.000  0.000  0.000  0.300
atom   16   Tr[ns(na)] =   3.00000
    eigenvalues:
  0.300  0.300  0.300  0.300  0.300
    eigenvectors:
  1.000  0.000  0.000  0.000  0.000
  0.000  1.000  0.000  0.000  0.000
  0.000  0.000  1.000  0.000  0.000
  0.000  0.000  0.000  1.000  0.000
  0.000  0.000  0.000  0.000  1.000
    occupations:
  0.300  0.000  0.000  0.000  0.000
  0.000  0.300  0.000  0.000  0.000
  0.000  0.000  0.300  0.000  0.000
  0.000  0.000  0.000  0.300  0.000
  0.000  0.000  0.000  0.000  0.300
atom   17   Tr[ns(na)] =   3.00000
    eigenvalues:
  0.300  0.300  0.300  0.300  0.300
    eigenvectors:
  1.000  0.000  0.000  0.000  0.000
  0.000  1.000  0.000  0.000  0.000
  0.000  0.000  1.000  0.000  0.000
  0.000  0.000  0.000  1.000  0.000
  0.000  0.000  0.000  0.000  1.000
    occupations:
  0.300  0.000  0.000  0.000  0.000
  0.000  0.300  0.000  0.000  0.000
  0.000  0.000  0.300  0.000  0.000
  0.000  0.000  0.000  0.300  0.000
  0.000  0.000  0.000  0.000  0.300
atom   22   Tr[ns(na)] =   3.00000
    eigenvalues:
  0.300  0.300  0.300  0.300  0.300
    eigenvectors:
  1.000  0.000  0.000  0.000  0.000
  0.000  1.000  0.000  0.000  0.000
  0.000  0.000  1.000  0.000  0.000
  0.000  0.000  0.000  1.000  0.000
  0.000  0.000  0.000  0.000  1.000
    occupations:
  0.300  0.000  0.000  0.000  0.000
  0.000  0.300  0.000  0.000  0.000
[...]
    eigenvalues:
  0.342  0.372  0.560  0.596  0.714
    eigenvectors:
  0.003  0.000  0.000  0.997  0.000
  0.996  0.000  0.000  0.003  0.001
  0.000  1.000  0.000  0.000  0.000
  0.001  0.000  0.000  0.000  0.999
  0.000  0.000  1.000  0.000  0.000
    occupations:
  0.595  0.014  0.000  0.001 -0.000
  0.014  0.343 -0.000 -0.010  0.000
  0.000 -0.000  0.372  0.000  0.001
  0.001 -0.010  0.000  0.713  0.000
 -0.000  0.000  0.001  0.000  0.560
atom    9   Tr[ns(na)] =   5.23805
    eigenvalues:
  0.435  0.447  0.483  0.623  0.630
    eigenvectors:
  0.000  0.873  0.000  0.127  0.000
  0.000  0.000  0.000  0.001  0.999
  0.833  0.000  0.167  0.000  0.000
  0.000  0.127  0.000  0.872  0.001
  0.167  0.000  0.833  0.000  0.000
    occupations:
  0.470 -0.000  0.000  0.059  0.000
 -0.000  0.630 -0.000 -0.000 -0.000
  0.000 -0.000  0.443 -0.000  0.018
  0.059 -0.000 -0.000  0.601 -0.000
  0.000 -0.000  0.018 -0.000  0.475
atom   10   Tr[ns(na)] =   4.99141
    eigenvalues:
  0.295  0.325  0.495  0.546  0.835
    eigenvectors:
  0.000  0.000  1.000  0.000  0.000
  0.000  0.863  0.000  0.000  0.137
  0.984  0.000  0.000  0.016  0.000
  0.000  0.137  0.000  0.000  0.863
  0.016  0.000  0.000  0.984  0.000
    occupations:
  0.495  0.001 -0.000 -0.002 -0.000
  0.001  0.395  0.000  0.176  0.000
 -0.000  0.000  0.299 -0.000 -0.032
 -0.002  0.176 -0.000  0.765  0.000
 -0.000  0.000 -0.032  0.000  0.542
atom   16   Tr[ns(na)] =   5.15263
    eigenvalues:
  0.330  0.377  0.546  0.605  0.717
    eigenvectors:
  0.000  0.000  0.009  0.347  0.644
  0.000  0.000  0.977  0.023  0.000
  0.752  0.248  0.000  0.000  0.000
  0.000  0.000  0.014  0.630  0.356
  0.248  0.752  0.000  0.000  0.000
    occupations:
  0.677  0.006  0.000 -0.054  0.000
  0.006  0.548 -0.000  0.006  0.000
  0.000 -0.000  0.342 -0.000  0.020
 -0.054  0.006 -0.000  0.644 -0.000
  0.000  0.000  0.020 -0.000  0.366
atom   17   Tr[ns(na)] =   5.16648
    eigenvalues:
  0.340  0.371  0.557  0.596  0.719
    eigenvectors:
  0.003  0.000  0.000  0.997  0.000
  0.997  0.000  0.000  0.003  0.000
  0.000  1.000  0.000  0.000  0.000
  0.000  0.000  0.000  0.000  0.999
  0.000  0.000  1.000  0.000  0.000
    occupations:
  0.595  0.014  0.000 -0.001 -0.000
  0.014  0.341 -0.000 -0.008  0.000
  0.000 -0.000  0.371  0.000  0.001
 -0.001 -0.008  0.000  0.719  0.000
 -0.000  0.000  0.001  0.000  0.557
atom   22   Tr[ns(na)] =   5.25706
    eigenvalues:
  0.446  0.454  0.472  0.628  0.629
    eigenvectors:
  0.000  0.894  0.000  0.096  0.009
  0.000  0.000  0.000  0.090  0.910
  0.999  0.000  0.001  0.000  0.000
  0.000  0.106  0.000  0.813  0.081
  0.001  0.000  0.999  0.000  0.000
    occupations:
  0.473  0.000  0.000  0.053 -0.000
  0.000  0.629  0.000  0.000  0.000
  0.000  0.000  0.446 -0.000  0.001
  0.053  0.000 -0.000  0.609  0.000
 -0.000  0.000  0.001  0.000  0.472
atom   23   Tr[ns(na)] =   5.33079
    eigenvalues:
  0.467  0.494  0.536  0.542  0.626
    eigenvectors:
  0.002  0.000  0.000  0.010  0.988
  0.203  0.000  0.000  0.786  0.012
  0.000  0.981  0.019  0.000  0.000
  0.795  0.000  0.000  0.205  0.000
  0.000  0.019  0.981  0.000  0.000
    occupations:
  0.625 -0.010  0.000 -0.002 -0.000
 -0.010  0.528 -0.000 -0.030  0.000
  0.000 -0.000  0.495 -0.000  0.006
 -0.002 -0.030 -0.000  0.482  0.000
 -0.000  0.000  0.006  0.000  0.536
N of occupied +U levels =  41.4611766
 --- exit write_ns ---

     Threshold (ethr) on eigenvalues was too large:
     Diagonalizing with lowered threshold

     Davidson diagonalization with overlap
     ethr =  3.36E-09,  avg # of iterations =  2.2

[...]

     total energy              =   -1558.31362812 Ry
     Harris-Foulkes estimate   =   -1558.31362812 Ry
     estimated scf accuracy    <       0.00000002 Ry

     iteration # 11     ecut=    40.00 Ry     beta=0.70
     Davidson diagonalization with overlap
     ethr =  7.04E-12,  avg # of iterations =  1.2

     negative rho (up, down):  0.362E-02 0.000E+00

     End of self-consistent calculation
 --- enter write_ns ---
 LDA+U parameters:
U( 2)     =  6.00000000
alpha( 2) =  0.00000000
atom    3   Tr[ns(na)] =   5.15678
    eigenvalues:
  0.330  0.375  0.545  0.604  0.723
    eigenvectors:
  0.000  0.000  0.014  0.343  0.642
  0.000  0.000  0.971  0.029  0.001
  0.763  0.237  0.000  0.000  0.000
  0.000  0.000  0.015  0.628  0.357
  0.237  0.763  0.000  0.000  0.000
    occupations:
  0.680 -0.009  0.000 -0.058 -0.000
 -0.009  0.547  0.000 -0.005  0.000
  0.000  0.000  0.341 -0.000 -0.019
 -0.058 -0.005 -0.000  0.646  0.000
 -0.000  0.000 -0.019  0.000  0.365
atom    4   Tr[ns(na)] =   5.16855
    eigenvalues:
  0.342  0.372  0.560  0.596  0.714
    eigenvectors:
  0.003  0.000  0.000  0.997  0.000
  0.996  0.000  0.000  0.003  0.001
  0.000  1.000  0.000  0.000  0.000
  0.001  0.000  0.000  0.000  0.999
  0.000  0.000  1.000  0.000  0.000
    occupations:
  0.595  0.014  0.000  0.000 -0.000
  0.014  0.343 -0.000 -0.010  0.000
  0.000 -0.000  0.372  0.000  0.001
  0.000 -0.010  0.000  0.714  0.000
 -0.000  0.000  0.001  0.000  0.560
atom    9   Tr[ns(na)] =   5.23812
    eigenvalues:
  0.435  0.447  0.483  0.623  0.630
    eigenvectors:
  0.000  0.873  0.000  0.127  0.000
  0.000  0.000  0.000  0.001  0.999
  0.833  0.000  0.167  0.000  0.000
  0.000  0.127  0.000  0.872  0.001
  0.167  0.000  0.833  0.000  0.000
    occupations:
  0.470 -0.000  0.000  0.059  0.000
 -0.000  0.630 -0.000 -0.000 -0.000
  0.000 -0.000  0.443 -0.000  0.018
  0.059 -0.000 -0.000  0.601 -0.000
  0.000 -0.000  0.018 -0.000  0.475
atom   10   Tr[ns(na)] =   4.99179
    eigenvalues:
  0.295  0.325  0.495  0.546  0.835
    eigenvectors:
  0.000  0.000  1.000  0.000  0.000
  0.000  0.864  0.000  0.000  0.136
  0.984  0.000  0.000  0.016  0.000
  0.000  0.136  0.000  0.000  0.864
  0.016  0.000  0.000  0.984  0.000
    occupations:
  0.495  0.001 -0.000 -0.002 -0.000
  0.001  0.394  0.000  0.175  0.000
 -0.000  0.000  0.299 -0.000 -0.032
 -0.002  0.175 -0.000  0.766  0.000
 -0.000  0.000 -0.032  0.000  0.542
atom   16   Tr[ns(na)] =   5.15238
    eigenvalues:
  0.330  0.377  0.546  0.605  0.717
    eigenvectors:
  0.000  0.000  0.009  0.347  0.644
  0.000  0.000  0.977  0.023  0.000
  0.752  0.248  0.000  0.000  0.000
  0.000  0.000  0.014  0.630  0.356
  0.248  0.752  0.000  0.000  0.000
    occupations:
  0.677  0.006  0.000 -0.054  0.000
  0.006  0.548 -0.000  0.006  0.000
  0.000 -0.000  0.342 -0.000  0.020
 -0.054  0.006 -0.000  0.644 -0.000
  0.000  0.000  0.020 -0.000  0.366
atom   17   Tr[ns(na)] =   5.16579
    eigenvalues:
  0.340  0.371  0.558  0.596  0.719
    eigenvectors:
  0.003  0.000  0.000  0.997  0.000
  0.997  0.000  0.000  0.003  0.000
  0.000  1.000  0.000  0.000  0.000
  0.000  0.000  0.000  0.000  0.999
  0.000  0.000  1.000  0.000  0.000
    occupations:
  0.595  0.014  0.000 -0.001 -0.000
  0.014  0.341 -0.000 -0.008  0.000
  0.000 -0.000  0.371  0.000  0.001
 -0.001 -0.008  0.000  0.718  0.000
 -0.000  0.000  0.001  0.000  0.557
atom   22   Tr[ns(na)] =   5.25684
    eigenvalues:
  0.446  0.454  0.472  0.628  0.629
    eigenvectors:
  0.000  0.894  0.000  0.096  0.010
  0.000  0.000  0.000  0.094  0.906
  0.999  0.000  0.001  0.000  0.000
  0.000  0.106  0.000  0.810  0.084
  0.001  0.000  0.999  0.000  0.000
    occupations:
  0.473  0.000  0.000  0.053 -0.000
  0.000  0.629  0.000  0.000  0.000
  0.000  0.000  0.446 -0.000  0.001
  0.053  0.000 -0.000  0.609  0.000
 -0.000  0.000  0.001  0.000  0.472
atom   23   Tr[ns(na)] =   5.33085
    eigenvalues:
  0.466  0.494  0.537  0.542  0.626
    eigenvectors:
  0.002  0.000  0.000  0.010  0.988
  0.203  0.000  0.000  0.786  0.012
  0.000  0.981  0.019  0.000  0.000
  0.795  0.000  0.000  0.204  0.000
  0.000  0.019  0.981  0.000  0.000
    occupations:
  0.625 -0.010  0.000 -0.002 -0.000
 -0.010  0.528 -0.000 -0.031  0.000
  0.000 -0.000  0.495 -0.000  0.006
 -0.002 -0.031 -0.000  0.482  0.000
 -0.000  0.000  0.006  0.000  0.536
N of occupied +U levels =  41.4610989
 --- exit write_ns ---

[...]

          k = 0.2500-0.4237 0.0000 ( 32188 PWs)   bands (ev):

[...]

          k =-0.2500 0.2118 0.0000 ( 32165 PWs)   bands (ev):

   -56.9567 -56.7750 -56.4739 -56.4046 -56.3937 -56.3286 -55.9473 -55.7446
   -33.6477 -33.1548 -33.0279 -32.9140 -32.9040 -32.8947 -32.8677 -32.8523
   -32.8397 -32.8104 -32.7608 -32.7447 -32.7348 -32.3994 -32.2978 -32.2784
   -32.2687 -32.1843 -32.1673 -32.1468 -32.1323 -31.8901 -31.7498 -31.6085
   -20.9498 -20.5977 -19.8847 -19.7435 -19.4409 -19.3891 -19.3716 -19.3660
   -19.2358 -19.1323 -19.0453 -18.5610 -18.4679 -18.4597 -18.3682 -18.2809
   -18.2474 -18.2011 -16.9793  -9.5394  -8.9480  -7.9746  -7.7626  -7.5564
    -7.3150  -7.0450  -6.9498  -6.7941  -6.7382  -6.6984  -6.6235  -6.3951
    -6.3721  -6.3266  -6.0904  -6.0131  -5.9587  -5.8659  -5.7249  -5.4763
    -5.4167  -5.2290  -5.1695  -5.0233  -4.8931  -4.7792  -4.6751  -4.6351
    -4.6068  -4.5154  -4.4538  -4.4125  -4.3756  -4.3010  -4.2553  -4.2125
    -4.0614  -3.9700  -3.9324  -3.8595  -3.8105  -3.7248  -3.6366  -3.6252
    -3.4737  -3.3756  -3.3380  -3.2391  -3.2051  -3.0943  -3.0049  -2.9547
    -2.9086  -2.7029  -2.6284  -2.3624  -0.9173  -0.6227  -0.2308   1.0021
     1.0661   1.2379   1.3396   1.3813   1.4685   1.6772   1.7550   1.8547
     1.9378   2.0001   2.1506   2.2085   2.2940   2.4868   2.5205   2.5655
     2.6990   2.7453   2.8245   3.0768   3.2144   3.5994   4.0450   4.1341
     4.2763   4.4450   4.5508   4.6236   4.8329   4.8572   4.9471   5.0494
     5.1834   5.2497   5.4205   5.5301   5.5930   5.7247   5.9432   5.9894
     6.0774   6.1969   6.4636   6.5277   6.5589   6.5674   6.7788   6.8184
     6.8726   7.0524   7.2000   7.2762   7.4363   7.5026   7.8206   7.9155
     8.0226   8.0431   8.1402   8.1921   8.2469   8.5417   8.6195   8.7044
     8.8201   8.9011   9.0135   9.0999   9.1793   9.2802   9.3112   9.4956
     9.5385   9.6005   9.7648   9.8611   9.9153  10.0102  10.0749  10.1680
    10.2663  10.3919  10.5834  10.7348  10.7749  10.9139  10.9716  11.0118
    11.1236  11.1630  11.2422  11.2922  11.3968  11.4428  11.5255  11.5472
    11.6663  11.7582  11.8930  11.9254  11.9982  12.1161  12.1471  12.2253
    12.3075  12.3600  12.4285  12.4790  12.6183  12.6705  12.7143  12.7400
    12.7821  12.8686  12.9575  13.0068  13.0537  13.0991  13.2382  13.2960
    13.3539  13.4221  13.5276  13.6369  13.7084  13.7484  13.8265  13.8707
    13.9538  13.9757  14.0173  14.1414  14.1784  14.2914  14.3546  14.4215
    14.4739  14.5977  14.6636  14.7866  14.9133  14.9329  15.0416  15.1111
    15.2251  15.2573  15.2785  15.3432  15.4069  15.4617  15.5243  15.5888
    15.6720  15.6953  15.7992  15.8662  15.9088  15.9715  16.0569  16.1002
    16.1985  16.2908  16.3852  16.3949  16.4557  16.5107  16.5750  16.6719
    16.7373  16.7699  16.8692  16.9419  17.0540  17.0929  17.1646  17.2355
    17.2822  17.3443  17.3610  17.4506  17.4791  17.5803  17.6320  17.7239
    17.7483  17.8810  17.9749  17.9987  18.0916  18.1467  18.2014  18.3544
    18.3804  18.4464  18.4768  18.5408  18.6209  18.6627  18.7026  18.7957
    18.8628  18.9245  18.9853  19.0887  19.1435  19.1808  19.2317  19.3462
    19.3677  19.4076  19.4795  19.5423  19.5882  19.6446  19.6635  19.6950
    19.7613  19.8740  19.9256  19.9956  20.0697

     the Fermi energy is     0.3685 ev

!    total energy              =   -1558.31362812 Ry
     Harris-Foulkes estimate   =   -1558.31362812 Ry
     estimated scf accuracy    <          9.7E-09 Ry

     The total energy is the sum of the following terms:

     one-electron contribution =  -18852.75503649 Ry
     hartree contribution      =    9452.36790840 Ry
     xc contribution           =    -286.94790782 Ry
     ewald contribution        =    8124.91987764 Ry
     Hubbard energy            =       4.10145157 Ry
     smearing contrib. (-TS)   =       0.00007859 Ry

     convergence has been achieved in  11 iterations

     Forces acting on atoms (Ry/au):

     negative rho (up, down):  0.362E-02 0.000E+00
     atom    1 type  1   force =     0.00097697   -0.00003090   -0.00020306
     atom    2 type  1   force =    -0.00159426    0.00015996    0.00000173
     atom    3 type  2   force =    -0.05209253   -0.00011094   -0.00030095
     atom    4 type  2   force =    -0.00453955    0.00001735    0.00002316
     atom    5 type  1   force =    -0.00480616   -0.00870761    0.00017629
     atom    6 type  1   force =    -0.00486264    0.00872255    0.00017699
     atom    7 type  1   force =     0.00009320   -0.00001016    0.00046956
     atom    8 type  1   force =     0.01292419    0.00000457    0.00092424
     atom    9 type  2   force =     0.00561336    0.00000227   -0.00005626
     atom   10 type  2   force =    -0.01199041   -0.00000653   -0.00026477
     atom   11 type  1   force =    -0.00493310    0.00113303   -0.00013061
     atom   12 type  1   force =    -0.00493336   -0.00113027   -0.00012956
     atom   13 type  1   force =    -0.00426275   -0.00000074   -0.00004241
     atom   14 type  1   force =     0.00050708   -0.00007411   -0.00051729
     atom   15 type  1   force =     0.00042820    0.00000321    0.00021434
     atom   16 type  2   force =     0.05477387   -0.00009606   -0.00025658
     atom   17 type  2   force =    -0.00202744    0.00003340    0.00064070
     atom   18 type  1   force =     0.00581201   -0.00899010    0.00008986
     atom   19 type  1   force =     0.00579495    0.00900291    0.00008941
     atom   20 type  1   force =    -0.00506653    0.00004534   -0.00016525
     atom   21 type  1   force =    -0.01069742   -0.00000037    0.00003042
     atom   22 type  2   force =     0.00346488   -0.00000029    0.00056851
     atom   23 type  2   force =     0.03979618   -0.00000316    0.00002179
     atom   24 type  1   force =    -0.00931110    0.01780233    0.00002270
     atom   25 type  1   force =    -0.00931064   -0.01780101    0.00002281
     atom   26 type  1   force =    -0.00090753    0.00000067   -0.00044223
     atom   27 type  3   force =    -0.00000621   -0.00003870    0.00020370
     atom   28 type  3   force =     0.00000024    0.00007233   -0.00000446
     atom   29 type  3   force =     0.00022518   -0.00000382   -0.00047362
     atom   30 type  3   force =     0.00040704    0.00000475   -0.00053017
     atom   31 type  1   force =     0.00052425    0.00000010   -0.00015901

     Total force =     0.001950     Total SCF correction =     0.000289
     SCF correction compared to forces is large: reduce conv_thr to get better values

     bfgs converged in  28 scf cycles and  27 bfgs steps
     (criteria: energy < 0.10E-03, force < 0.10E-02)

     End of BFGS Geometry Optimization

     Final energy   =   -1558.3136281161 Ry
Begin final coordinates

ATOMIC_POSITIONS (crystal)
O0       0.000000000   0.000000000   0.371485030    0   0   1
O0       0.000000000   0.500000000   0.388034280    0   0   1
Nb1      0.250000000   0.500000000   0.444481833    0   0   1
Nb1      0.000000000   0.000000000   0.444210963    0   0   1
O0       0.250000000   0.790000000   0.446320575    0   0   1
O0       0.250000000   0.210000000   0.446321165    0   0   1
O0       0.000000000   0.500000000   0.500203158    0   0   1
O0       0.000000000   0.000000000   0.523344633    0   0   1
Nb1      0.250000000   0.000000000   0.576022008    0   0   1
Nb1      0.000000000   0.500000000   0.570772923    0   0   1
O0       0.250000000   0.710000000   0.581801465    0   0   1
O0       0.250000000   0.290000000   0.581801343    0   0   1
O0       0.000000000   0.000000000   0.621404054    0   0   1
O0       0.500000000   0.000000000   0.371701018    0   0   1
O0       0.500000000   0.500000000   0.390322690    0   0   1
Nb1      0.750000000   0.500000000   0.444699373    0   0   1
Nb1      0.500000000   0.000000000   0.444575478    0   0   1
O0       0.750000000   0.790000000   0.446303614    0   0   1
O0       0.750000000   0.210000000   0.446305310    0   0   1
O0       0.500000000   0.500000000   0.495700408    0   0   1
O0       0.500000000   0.000000000   0.523346701    0   0   1
Nb1      0.750000000   0.000000000   0.578400838    0   0   1
Nb1      0.500000000   0.500000000   0.586165530    0   0   1
O0       0.750000000   0.710000000   0.572661898    0   0   1
O0       0.750000000   0.290000000   0.572661831    0   0   1
O0       0.500000000   0.000000000   0.621253714    0   0   1
H2      -0.000277614   0.501156167   0.351831828
H2       0.499727313   0.501809785   0.354185315
H2       0.151258477   0.000496376   0.356136710
H2       0.651079028   0.000509957   0.356290433
O0       0.518107640   0.499999945   0.649543881
End final coordinates

     General routines

     Parallel routines
     Hubbard U routines

   This run was terminated on:  23: 0:50   1May2014

   JOB DONE.