     Program PWSCF v.5.0.2 (svn rev. 9656) starts on  6May2014 at  3:18:27

     Current dimensions of program PWSCF are:
     Max number of different atomic species (ntypx) = 10
     Max number of k-points (npk) =  40000
     Max angular momentum in pseudopotentials (lmaxx) =  3
     Reading input from pwscf.in
Warning: card &CELL ignored
Warning: card / ignored

     Subspace diagonalization in iterative solution of the eigenvalue problem:
     a serial algorithm will be used

     bravais-lattice index     =            0
     lattice parameter (alat)  =      12.0187  a.u.
     unit-cell volume          =    7280.5819 (a.u.)^3
     number of atoms/cell      =           30
     number of atomic types    =            3
     number of electrons       =       232.00
     number of Kohn-Sham states=          348
     kinetic-energy cutoff     =      40.0000  Ry
     charge density cutoff     =     500.0000  Ry
     convergence threshold     =      1.0E-06
     mixing beta               =       0.7000
     number of iterations used =            8  plain     mixing
     Exchange-correlation      = SLA  PW   PBE  PBE ( 1 4 3 4 0)
     EXX-fraction              =        0.00
     nstep                     =           50

     celldm(1)=  12.018658  celldm(2)=   0.000000  celldm(3)=   0.000000
     celldm(4)=   0.000000  celldm(5)=   0.000000  celldm(6)=   0.000000

     crystal axes: (cart. coord. in units of alat)
               a(1) = (   1.000000   0.000000   0.000000 )
               a(2) = (   0.000000   1.009517   0.000000 )
               a(3) = (   0.000000   0.000000   4.154171 )

     reciprocal axes: (cart. coord. in units 2 pi/alat)
               b(1) = (  1.000000  0.000000  0.000000 )
               b(2) = (  0.000000  0.990572  0.000000 )
               b(3) = (  0.000000  0.000000  0.240722 )

     PseudoPot. # 1 for O  read from file:
     /home/camp/zhonxu/pseudo/o_pbe_v1.01.uspp.F.UPF
     MD5 check sum: 2bcb18d16ea4b960afae9ec6d52f22d2
     Pseudo is Ultrasoft + core correction, Zval =  6.0
     Generated by new atomic code, or converted to UPF format
     Using radial grid of  737 points,  5 beta functions with:
                l(1) =   0
                l(2) =   0
                l(3) =   1
                l(4) =   1
                l(5) =   2
     Q(r) pseudized with  8 coefficients,  rinner =    0.900   0.900   0.900
                                                       0.900   0.900

     PseudoPot. # 2 for Ir read from file:
     /home/camp/zhonxu/pseudo/ir_pbe_v1.uspp.F.UPF
     MD5 check sum: abf987a9674477536ede83817f8f8b70
     Pseudo is Ultrasoft + core correction, Zval = 15.0
     Generated by new atomic code, or converted to UPF format
     Using radial grid of  983 points,  7 beta functions with:
                l(1) =   0
                l(2) =   0
                l(3) =   1
                l(4) =   1
                l(5) =   1
                l(6) =   2
                l(7) =   2
     Q(r) pseudized with  8 coefficients,  rinner =    1.350   1.350   1.350
                                                       1.350   1.350

     PseudoPot. # 3 for H  read from file:
     /home/camp/zhonxu/pseudo/h_pbe_v1.uspp.F.UPF
     MD5 check sum: 3408e3ff4ec8b0a4e358431e7e038a48
     Pseudo is Ultrasoft, Zval =  1.0
     Generated by new atomic code, or converted to UPF format
     Using radial grid of  615 points,  2 beta functions with:
                l(1) =   0
                l(2) =   0
     Q(r) pseudized with  8 coefficients,  rinner =    0.700

     atomic species   valence    mass     pseudopotential
        O0             6.00    15.99940     O ( 1.00)
        Ir1           15.00   192.22000     Ir( 1.00)
        H2             1.00     1.00794     H ( 1.00)

     Simplified LDA+U calculation (l_max = 2) with parameters (eV):
     atomic species    L          U    alpha       J0     beta
        Ir1            2     6.5000   0.0000   0.0000   0.0000

     No symmetry found

   Cartesian axes

     site n.     atom                  positions (alat units)
         1           O0  tau(   1) = (   0.0000000   0.0000000   1.5730185  )
         2           O0  tau(   2) = (   0.0000000   0.5047586   1.6673182  )
         3           Ir1 tau(   3) = (   0.2500000   0.5047586   1.8780178  )
         4           Ir1 tau(   4) = (   0.0000000   0.0000000   1.8842906  )
         5           O0  tau(   5) = (   0.2500000   0.8177090   1.8825458  )
         6           O0  tau(   6) = (   0.2500000   0.1918083   1.8810503  )
         7           O0  tau(   7) = (   0.0000000   0.5047586   2.0695666  )
         8           O0  tau(   8) = (   0.0000000   0.0000000   2.1991352  )
         9           Ir1 tau(   9) = (   0.2500000   0.0000000   2.3955860  )
        10           Ir1 tau(  10) = (   0.0000000   0.5047586   2.3764768  )
        11           O0  tau(  11) = (   0.2500000   0.6965669   2.3975800  )
        12           O0  tau(  12) = (   0.2500000   0.3129503   2.3977461  )
        13           O0  tau(  13) = (   0.0000000   0.0000000   2.5806958  )
        14           O0  tau(  14) = (   0.5000000   0.0000000   1.5730185  )
        15           O0  tau(  15) = (   0.5000000   0.5047586   1.6673182  )
        16           Ir1 tau(  16) = (   0.7500000   0.5047586   1.8780178  )
        17           Ir1 tau(  17) = (   0.5000000   0.0000000   1.8842906  )
        18           O0  tau(  18) = (   0.7500000   0.8177090   1.8825458  )
        19           O0  tau(  19) = (   0.7500000   0.1918083   1.8810503  )
        20           O0  tau(  20) = (   0.5000000   0.5047586   2.0695666  )
        21           O0  tau(  21) = (   0.5000000   0.0000000   2.1991352  )
        22           Ir1 tau(  22) = (   0.7500000   0.0000000   2.3955860  )
        23           Ir1 tau(  23) = (   0.5000000   0.5047586   2.3764768  )
        24           O0  tau(  24) = (   0.7500000   0.6965669   2.3975800  )
        25           O0  tau(  25) = (   0.7500000   0.3129503   2.3977461  )
        26           O0  tau(  26) = (   0.5000000   0.0000000   2.5807374  )
        27           H2  tau(  27) = (  -0.0000500   0.6423962   1.5933324  )
        28           H2  tau(  28) = (   0.4999500   0.6423962   1.5933324  )
        29           H2  tau(  29) = (   0.1436500   0.0338188   1.5249132  )
        30           H2  tau(  30) = (   0.6436500   0.0338188   1.5249132  )

     number of k points=    10  Methfessel-Paxton smearing, width (Ry)=  0.0100
                       cart. coord. in units 2pi/alat
        k(    1) = (   0.0000000   0.0000000   0.0000000), wk =   0.1250000
        k(    2) = (   0.0000000   0.2476431   0.0000000), wk =   0.2500000
        k(    3) = (   0.0000000  -0.4952862   0.0000000), wk =   0.1250000
        k(    4) = (   0.2500000   0.0000000   0.0000000), wk =   0.2500000
        k(    5) = (   0.2500000   0.2476431   0.0000000), wk =   0.2500000
        k(    6) = (   0.2500000  -0.4952862   0.0000000), wk =   0.2500000
        k(    7) = (  -0.5000000   0.0000000   0.0000000), wk =   0.1250000
        k(    8) = (  -0.5000000   0.2476431   0.0000000), wk =   0.2500000
        k(    9) = (  -0.5000000  -0.4952862   0.0000000), wk =   0.1250000
        k(   10) = (  -0.2500000   0.2476431   0.0000000), wk =   0.2500000

     Largest allocated arrays     est. size (Mb)     dimensions
     Largest temporary arrays     est. size (Mb)     dimensions

     Check: negative/imaginary core charge=   -0.000003    0.000000

     Initial potential from superposition of free atoms
     Check: negative starting charge=   -3.334716

     starting charge  227.99968, renormalised to  232.00000

     negative rho (up, down):  0.339E+01 0.000E+00
     Number of +U iterations with fixed ns =  0
     Starting occupations:
 --- enter write_ns ---
 LDA+U parameters:
U( 2)     =  6.50000000
alpha( 2) =  0.00000000
atom    3   Tr[ns(na)] =   7.00000
    eigenvalues:
  0.700  0.700  0.700  0.700  0.700
    eigenvectors:
  1.000  0.000  0.000  0.000  0.000
  0.000  1.000  0.000  0.000  0.000
  0.000  0.000  1.000  0.000  0.000
  0.000  0.000  0.000  1.000  0.000
  0.000  0.000  0.000  0.000  1.000
    occupations:
  0.700  0.000  0.000  0.000  0.000
  0.000  0.700  0.000  0.000  0.000
  0.000  0.000  0.700  0.000  0.000
  0.000  0.000  0.000  0.700  0.000
  0.000  0.000  0.000  0.000  0.700
atom    4   Tr[ns(na)] =   7.00000
    eigenvalues:
  0.700  0.700  0.700  0.700  0.700
    eigenvectors:
  1.000  0.000  0.000  0.000  0.000
  0.000  1.000  0.000  0.000  0.000
  0.000  0.000  1.000  0.000  0.000
  0.000  0.000  0.000  1.000  0.000
  0.000  0.000  0.000  0.000  1.000
    occupations:
  0.700  0.000  0.000  0.000  0.000
  0.000  0.700  0.000  0.000  0.000
  0.000  0.000  0.700  0.000  0.000
  0.000  0.000  0.000  0.700  0.000
  0.000  0.000  0.000  0.000  0.700
atom    9   Tr[ns(na)] =   7.00000
    eigenvalues:
  0.700  0.700  0.700  0.700  0.700
    eigenvectors:
  1.000  0.000  0.000  0.000  0.000
  0.000  1.000  0.000  0.000  0.000
  0.000  0.000  1.000  0.000  0.000
  0.000  0.000  0.000  1.000  0.000
  0.000  0.000  0.000  0.000  1.000
    occupations:
  0.700  0.000  0.000  0.000  0.000
  0.000  0.700  0.000  0.000  0.000
  0.000  0.000  0.700  0.000  0.000
  0.000  0.000  0.000  0.700  0.000
  0.000  0.000  0.000  0.000  0.700
atom   10   Tr[ns(na)] =   7.00000
    eigenvalues:
  0.700  0.700  0.700  0.700  0.700
    eigenvectors:
  1.000  0.000  0.000  0.000  0.000
  0.000  1.000  0.000  0.000  0.000
  0.000  0.000  1.000  0.000  0.000
  0.000  0.000  0.000  1.000  0.000
  0.000  0.000  0.000  0.000  1.000
    occupations:
  0.700  0.000  0.000  0.000  0.000
  0.000  0.700  0.000  0.000  0.000
  0.000  0.000  0.700  0.000  0.000
  0.000  0.000  0.000  0.700  0.000
  0.000  0.000  0.000  0.000  0.700
atom   16   Tr[ns(na)] =   7.00000
    eigenvalues:
  0.700  0.700  0.700  0.700  0.700
    eigenvectors:
  1.000  0.000  0.000  0.000  0.000
  0.000  1.000  0.000  0.000  0.000
  0.000  0.000  1.000  0.000  0.000
  0.000  0.000  0.000  1.000  0.000
  0.000  0.000  0.000  0.000  1.000
    occupations:
  0.700  0.000  0.000  0.000  0.000
  0.000  0.700  0.000  0.000  0.000
  0.000  0.000  0.700  0.000  0.000
  0.000  0.000  0.000  0.700  0.000
  0.000  0.000  0.000  0.000  0.700
atom   17   Tr[ns(na)] =   7.00000
    eigenvalues:
  0.700  0.700  0.700  0.700  0.700
    eigenvectors:
  1.000  0.000  0.000  0.000  0.000
  0.000  1.000  0.000  0.000  0.000
  0.000  0.000  1.000  0.000  0.000
  0.000  0.000  0.000  1.000  0.000
  0.000  0.000  0.000  0.000  1.000
    occupations:
  0.700  0.000  0.000  0.000  0.000
  0.000  0.700  0.000  0.000  0.000
  0.000  0.000  0.700  0.000  0.000
  0.000  0.000  0.000  0.700  0.000
  0.000  0.000  0.000  0.000  0.700
atom   22   Tr[ns(na)] =   7.00000
    eigenvalues:
  0.700  0.700  0.700  0.700  0.700
    eigenvectors:
  1.000  0.000  0.000  0.000  0.000
  0.000  1.000  0.000  0.000  0.000
  0.000  0.000  1.000  0.000  0.000
  0.000  0.000  0.000  1.000  0.000
  0.000  0.000  0.000  0.000  1.000
    occupations:
  0.700  0.000  0.000  0.000  0.000
  0.000  0.700  0.000  0.000  0.000
  0.000  0.000  0.700  0.000  0.000
[...]
 -0.000  0.012  0.894 -0.000  0.001
  0.033  0.000 -0.000  0.983  0.000
  0.001 -0.002  0.001  0.000  0.621
atom    9   Tr[ns(na)] =   8.20717
    eigenvalues:
  0.654  0.670  0.878  0.916  0.986
    eigenvectors:
  0.000  0.142  0.000  0.000  0.858
  1.000  0.000  0.000  0.000  0.000
  0.000  0.000  1.000  0.000  0.000
  0.000  0.858  0.000  0.000  0.142
  0.000  0.000  0.000  1.000  0.000
    occupations:
  0.941  0.000 -0.000 -0.110 -0.000
  0.000  0.654  0.000  0.000 -0.000
 -0.000  0.000  0.878 -0.000 -0.000
 -0.110  0.000 -0.000  0.714  0.001
 -0.000 -0.000 -0.000  0.001  0.916
atom   10   Tr[ns(na)] =   8.16100
    eigenvalues:
  0.574  0.613  0.947  0.960  0.986
    eigenvectors:
  0.993  0.000  0.000  0.000  0.007
  0.000  0.000  1.000  0.000  0.000
  0.000  0.000  0.000  1.000  0.000
  0.007  0.000  0.000  0.000  0.993
  0.000  1.000  0.000  0.000  0.000
    occupations:
  0.577  0.000  0.001  0.035 -0.000
  0.000  0.947 -0.000  0.000 -0.000
  0.001 -0.000  0.960 -0.000  0.000
  0.035  0.000 -0.000  0.983  0.000
 -0.000 -0.000  0.000  0.000  0.613
atom   16   Tr[ns(na)] =   8.22068
    eigenvalues:
  0.602  0.629  0.922  0.976  0.981
    eigenvectors:
  0.000  0.189  0.003  0.000  0.807
  1.000  0.000  0.000  0.000  0.000
  0.000  0.000  0.996  0.000  0.003
  0.000  0.811  0.000  0.000  0.189
  0.000  0.000  0.000  0.999  0.000
    occupations:
  0.914 -0.000  0.002 -0.138 -0.000
 -0.000  0.602 -0.000 -0.000 -0.005
  0.002 -0.000  0.922 -0.004  0.001
 -0.138 -0.000 -0.004  0.696 -0.000
 -0.000 -0.005  0.001 -0.000  0.976
atom   17   Tr[ns(na)] =   8.21603
    eigenvalues:
  0.621  0.672  0.890  0.938  0.986
    eigenvectors:
  0.001  0.989  0.000  0.000  0.011
  0.000  0.000  0.070  0.930  0.000
  0.000  0.000  0.930  0.070  0.000
  0.000  0.011  0.000  0.000  0.989
  0.999  0.001  0.000  0.000  0.000
    occupations:
  0.676 -0.003 -0.000  0.033  0.001
 -0.003  0.935  0.012  0.000 -0.002
 -0.000  0.012  0.894 -0.000  0.001
  0.033  0.000 -0.000  0.983  0.000
  0.001 -0.002  0.001  0.000  0.621
atom   22   Tr[ns(na)] =   8.20681
    eigenvalues:
  0.654  0.670  0.878  0.916  0.986
    eigenvectors:
  0.000  0.142  0.000  0.000  0.858
  1.000  0.000  0.000  0.000  0.000
  0.000  0.000  1.000  0.000  0.000
  0.000  0.858  0.000  0.000  0.142
  0.000  0.000  0.000  1.000  0.000
    occupations:
  0.941  0.000 -0.000 -0.110 -0.000
  0.000  0.654  0.000  0.000 -0.000
 -0.000  0.000  0.878 -0.000 -0.000
 -0.110  0.000 -0.000  0.714  0.001
 -0.000 -0.000 -0.000  0.001  0.916
atom   23   Tr[ns(na)] =   8.16101
    eigenvalues:
  0.574  0.613  0.947  0.960  0.986
    eigenvectors:
  0.993  0.000  0.000  0.000  0.007
  0.000  0.000  1.000  0.000  0.000
  0.000  0.000  0.000  1.000  0.000
  0.007  0.000  0.000  0.000  0.993
  0.000  1.000  0.000  0.000  0.000
    occupations:
  0.577  0.000  0.001  0.035 -0.000
  0.000  0.947 -0.000  0.000 -0.000
  0.001 -0.000  0.960 -0.000  0.000
  0.035  0.000 -0.000  0.983  0.000
 -0.000 -0.000  0.000  0.000  0.613
N of occupied +U levels =  65.6096130
 --- exit write_ns ---

     Threshold (ethr) on eigenvalues was too large:
     Diagonalizing with lowered threshold

     Davidson diagonalization with overlap
     ethr =  1.41E-08,  avg # of iterations =  2.0

[...]

     total energy              =   -2071.53170517 Ry
     Harris-Foulkes estimate   =   -2071.53170517 Ry
     estimated scf accuracy    <       0.00000002 Ry

     iteration # 14     ecut=    40.00 Ry     beta=0.70
     Davidson diagonalization with overlap
     ethr =  7.23E-12,  avg # of iterations =  1.0

     negative rho (up, down):  0.314E+01 0.000E+00

     End of self-consistent calculation
 --- enter write_ns ---
 LDA+U parameters:
U( 2)     =  6.50000000
alpha( 2) =  0.00000000
atom    3   Tr[ns(na)] =   8.22015
    eigenvalues:
  0.602  0.629  0.921  0.976  0.981
    eigenvectors:
  0.000  0.189  0.003  0.000  0.807
  1.000  0.000  0.000  0.000  0.000
  0.000  0.000  0.996  0.000  0.003
  0.000  0.811  0.000  0.000  0.189
  0.000  0.000  0.000  0.999  0.000
    occupations:
  0.914 -0.000  0.002 -0.138 -0.000
 -0.000  0.602 -0.000 -0.000 -0.005
  0.002 -0.000  0.922 -0.004  0.001
 -0.138 -0.000 -0.004  0.696 -0.000
 -0.000 -0.005  0.001 -0.000  0.976
atom    4   Tr[ns(na)] =   8.21552
    eigenvalues:
  0.621  0.672  0.890  0.938  0.986
    eigenvectors:
  0.001  0.989  0.000  0.000  0.011
  0.000  0.000  0.070  0.930  0.000
  0.000  0.000  0.930  0.070  0.000
  0.000  0.011  0.000  0.000  0.989
  0.999  0.001  0.000  0.000  0.000
    occupations:
  0.676 -0.003 -0.000  0.033  0.001
 -0.003  0.935  0.012  0.000 -0.002
 -0.000  0.012  0.894 -0.000  0.001
  0.033  0.000 -0.000  0.983  0.000
  0.001 -0.002  0.001  0.000  0.621
atom    9   Tr[ns(na)] =   8.20763
    eigenvalues:
  0.654  0.670  0.879  0.916  0.986
    eigenvectors:
  0.000  0.142  0.000  0.000  0.858
  1.000  0.000  0.000  0.000  0.000
  0.000  0.000  1.000  0.000  0.000
  0.000  0.858  0.000  0.000  0.142
  0.000  0.000  0.000  1.000  0.000
    occupations:
  0.941  0.000 -0.000 -0.110 -0.000
  0.000  0.654  0.000  0.000 -0.000
 -0.000  0.000  0.879 -0.000 -0.000
 -0.110  0.000 -0.000  0.714  0.001
 -0.000 -0.000 -0.000  0.001  0.916
atom   10   Tr[ns(na)] =   8.16161
    eigenvalues:
  0.575  0.613  0.947  0.960  0.986
    eigenvectors:
  0.993  0.000  0.000  0.000  0.007
  0.000  0.000  1.000  0.000  0.000
  0.000  0.000  0.000  1.000  0.000
  0.007  0.000  0.000  0.000  0.993
  0.000  1.000  0.000  0.000  0.000
    occupations:
  0.578  0.000  0.001  0.035 -0.000
  0.000  0.947 -0.000  0.000 -0.000
  0.001 -0.000  0.960 -0.000  0.000
  0.035  0.000 -0.000  0.983  0.000
 -0.000 -0.000  0.000  0.000  0.613
atom   16   Tr[ns(na)] =   8.22015
    eigenvalues:
  0.602  0.629  0.921  0.976  0.981
    eigenvectors:
  0.000  0.189  0.003  0.000  0.807
  1.000  0.000  0.000  0.000  0.000
  0.000  0.000  0.996  0.000  0.003
  0.000  0.811  0.000  0.000  0.189
  0.000  0.000  0.000  0.999  0.000
    occupations:
  0.914 -0.000  0.002 -0.138 -0.000
 -0.000  0.602 -0.000 -0.000 -0.005
  0.002 -0.000  0.922 -0.004  0.001
 -0.138 -0.000 -0.004  0.696 -0.000
 -0.000 -0.005  0.001 -0.000  0.976
atom   17   Tr[ns(na)] =   8.21553
    eigenvalues:
  0.621  0.672  0.890  0.938  0.986
    eigenvectors:
  0.001  0.989  0.000  0.000  0.011
  0.000  0.000  0.070  0.930  0.000
  0.000  0.000  0.930  0.070  0.000
  0.000  0.011  0.000  0.000  0.989
  0.999  0.001  0.000  0.000  0.000
    occupations:
  0.676 -0.003 -0.000  0.033  0.001
 -0.003  0.935  0.012  0.000 -0.002
 -0.000  0.012  0.894 -0.000  0.001
  0.033  0.000 -0.000  0.983  0.000
  0.001 -0.002  0.001  0.000  0.621
atom   22   Tr[ns(na)] =   8.20763
    eigenvalues:
  0.654  0.670  0.879  0.916  0.986
    eigenvectors:
  0.000  0.142  0.000  0.000  0.858
  1.000  0.000  0.000  0.000  0.000
  0.000  0.000  1.000  0.000  0.000
  0.000  0.858  0.000  0.000  0.142
  0.000  0.000  0.000  1.000  0.000
    occupations:
  0.941  0.000 -0.000 -0.110 -0.000
  0.000  0.654  0.000  0.000 -0.000
 -0.000  0.000  0.879 -0.000 -0.000
 -0.110  0.000 -0.000  0.714  0.001
 -0.000 -0.000 -0.000  0.001  0.916
atom   23   Tr[ns(na)] =   8.16161
    eigenvalues:
  0.575  0.613  0.947  0.960  0.986
    eigenvectors:
  0.993  0.000  0.000  0.000  0.007
  0.000  0.000  1.000  0.000  0.000
  0.000  0.000  0.000  1.000  0.000
  0.007  0.000  0.000  0.000  0.993
  0.000  1.000  0.000  0.000  0.000
    occupations:
  0.578  0.000  0.001  0.035 -0.000
  0.000  0.947 -0.000  0.000 -0.000
  0.001 -0.000  0.960 -0.000  0.000
  0.035  0.000 -0.000  0.983  0.000
 -0.000 -0.000  0.000  0.000  0.613
N of occupied +U levels =  65.6098342
 --- exit write_ns ---

[...]

          k = 0.2500-0.4953 0.0000 ( 31088 PWs)   bands (ev):

[...]

          k =-0.2500 0.2476 0.0000 ( 31099 PWs)   bands (ev):

   -50.3082 -50.2883 -50.2844 -50.2366 -50.2242 -50.2158 -50.2142 -50.1937
   -50.1927 -50.1874 -50.1492 -50.1193 -50.0704 -50.0620 -49.9581 -49.9112
   -49.9068 -49.8867 -49.8450 -49.8342 -49.8274 -49.8194 -49.8177 -49.8088
   -21.4178 -21.1465 -21.1144 -21.0370 -20.7091 -20.6718 -20.6474 -20.4533
   -20.3820 -20.3679 -20.1869 -20.1486 -19.9878 -19.9449 -19.8857 -19.7233
   -18.9549 -18.8127 -10.7868 -10.5976 -10.3710 -10.3284  -9.9910  -9.8661
    -9.7480  -9.6964  -9.4388  -9.0133  -8.9810  -8.8651  -8.7902  -8.6499
    -8.5760  -8.4007  -8.2521  -8.1667  -7.9659  -7.7529  -7.6362  -7.5457
    -7.4048  -7.3534  -7.2348  -7.1671  -7.1378  -6.8208  -6.7355  -6.6855
    -6.5271  -6.4827  -6.3864  -6.2658  -6.2225  -6.1588  -6.0648  -6.0040
    -5.8375  -5.7536  -5.6060  -5.3806  -5.1373  -5.0032  -4.9126  -4.8164
    -4.6766  -4.4975  -4.4904  -4.3673  -4.0045  -3.9750  -3.8714  -3.7571
    -3.6712  -3.6603  -3.4769  -3.4346  -3.3567  -3.3508  -3.1190  -3.0779
    -3.0714  -2.9864  -2.8079  -2.7514  -2.6087  -2.5294  -2.2408  -1.9590
    -1.7349  -1.5289  -1.5194  -1.2916  -1.2655  -1.0093  -0.8404  -0.6514
    -0.0697   0.1112   1.0673   1.1403   1.6605   1.7982   1.8433   2.2895
     2.5138   2.7628   2.9626   2.9746   3.2457   3.2694   3.4139   3.4765
     3.8093   4.3533   4.7182   5.1344   5.4100   5.6036   5.6813   5.8909
     6.1323   6.2890   6.5135   6.5554   6.6027   6.7964   7.0071   7.0512
     7.3322   7.3896   7.4923   7.6874   7.6984   7.8859   8.0251   8.0960
     8.1649   8.3313   8.4519   8.4773   8.5937   8.8121   8.8280   8.9274
     8.9431   9.1842   9.2577   9.2598   9.3568   9.5467   9.6412   9.6984
     9.7006   9.7117   9.7511   9.7518   9.7875   9.7887   9.8131   9.9442
     9.9472  10.0359  10.0687  10.0838  10.2035  10.2879  10.2925  10.4166
    10.4282  10.5458  10.6168  10.7294  10.7953  10.8339  10.9895  11.0332
    11.0698  11.2726  11.3473  11.4347  11.5396  11.5756  11.7268  11.7575
    11.7797  11.9464  12.0966  12.1306  12.1577  12.2806  12.3961  12.4020
    12.5033  12.5763  12.6466  12.7357  12.7843  12.8149  12.8155  12.9184
    13.0889  13.1693  13.1702  13.2629  13.3464  13.3643  13.5310  13.6675
    13.6693  13.7537  13.8746  13.8885  14.0137  14.0246  14.1161  14.1361
    14.2745  14.3687  14.4110  14.5501  14.5812  14.7585  14.7810  14.8950
    14.9209  15.2135  15.2659  15.3674  15.3768  15.5260  15.5861  15.5878
    15.6208  15.7410  15.7885  15.8290  15.8584  15.8891  15.9641  16.0292
    16.0863  16.1546  16.1717  16.2899  16.3331  16.4069  16.4321  16.4555
    16.6356  16.6534  16.7222  16.7388  16.8220  16.8415  17.0767  17.1259
    17.2120  17.3606  17.3704  17.4315  17.4326  17.4748  17.5513  17.5699
    17.6332  17.7336  17.7611  17.8189  17.8866  17.8880  17.9746  17.9924
    18.1675  18.2302  18.3040  18.3935  18.4766  18.5055  18.6042  18.6190
    18.8297  18.8339  18.9109  18.9673  19.0286  19.1333  19.1408  19.2268
    19.2889  19.2901  19.3539  19.4924  19.6087  19.6105  19.7267  19.7820
    19.8234  19.9518  20.0176  20.1374  20.1470  20.3166  20.3380  20.3673
    20.4940  20.5667  20.6246  20.6745  20.7210  20.7824  20.8162  20.9052
    20.9190  20.9989  21.0521  21.1287  21.1765  21.2616  21.3069  21.3447
    21.3584  21.4455  21.4763  21.5710

     the Fermi energy is    -1.2972 ev

!    total energy              =   -2071.53170516 Ry
     Harris-Foulkes estimate   =   -2071.53170517 Ry
     estimated scf accuracy    <          1.5E-09 Ry

     The total energy is the sum of the following terms:

     one-electron contribution =  -22085.24439116 Ry
     hartree contribution      =   11086.37507243 Ry
     xc contribution           =    -569.44555367 Ry
     ewald contribution        =    9494.45261699 Ry
     Hubbard energy            =       2.33207115 Ry
     smearing contrib. (-TS)   =      -0.00152090 Ry

     convergence has been achieved in  14 iterations

     Forces acting on atoms (Ry/au):

     negative rho (up, down):  0.314E+01 0.000E+00
     atom    1 type  1   force =    -0.00716553   -0.01246676   -0.00004516
     atom    2 type  1   force =     0.00005245    0.00258478   -0.00052171
     atom    3 type  2   force =     0.00016228    0.00640248   -0.00010499
     atom    4 type  2   force =     0.00870927    0.00731343   -0.00019177
     atom    5 type  1   force =    -0.00518266   -0.01381976   -0.00046188
     atom    6 type  1   force =     0.00675911    0.01229468   -0.00031736
     atom    7 type  1   force =    -0.00046584   -0.00244474    0.00039470
     atom    8 type  1   force =    -0.00324852   -0.00047220   -0.00015486
     atom    9 type  2   force =     0.00111323    0.00017472   -0.00014135
     atom   10 type  2   force =    -0.00000068   -0.00105285    0.00044028
     atom   11 type  1   force =    -0.00009649    0.02232980    0.00020625
     atom   12 type  1   force =     0.00020979   -0.02205935    0.00021287
     atom   13 type  1   force =    -0.00075906   -0.00008235   -0.00016789
     atom   14 type  1   force =    -0.00717328   -0.01246823   -0.00005520
     atom   15 type  1   force =     0.00005074    0.00258288   -0.00052341
     atom   16 type  2   force =     0.00016462    0.00640271   -0.00010505
     atom   17 type  2   force =     0.00870662    0.00731348   -0.00018663
     atom   18 type  1   force =    -0.00517568   -0.01381941   -0.00046309
     atom   19 type  1   force =     0.00676614    0.01229428   -0.00031842
     atom   20 type  1   force =    -0.00046941   -0.00244477    0.00039663
     atom   21 type  1   force =    -0.00325352   -0.00047220   -0.00014542
     atom   22 type  2   force =     0.00112011    0.00017472   -0.00013950
     atom   23 type  2   force =    -0.00000350   -0.00105284    0.00044265
     atom   24 type  1   force =    -0.00009346    0.02232968    0.00020834
     atom   25 type  1   force =     0.00021288   -0.02205909    0.00021478
     atom   26 type  1   force =    -0.00076080   -0.00008236   -0.00016202
     atom   27 type  3   force =     0.00002294    0.00082099    0.00084794
     atom   28 type  3   force =     0.00002278    0.00082180    0.00084723
     atom   29 type  3   force =    -0.00011322    0.00047802   -0.00000278
     atom   30 type  3   force =    -0.00011133    0.00047846   -0.00000320

     Total force =     0.002359     Total SCF correction =     0.000105

     bfgs converged in   9 scf cycles and   8 bfgs steps
     (criteria: energy < 0.10E-03, force < 0.10E-02)

     End of BFGS Geometry Optimization

     Final energy   =   -2071.5317051645 Ry
Begin final coordinates

ATOMIC_POSITIONS (crystal)
O0       0.000000000   0.000000000   0.379095409    0   0   1
O0       0.000000000   0.500000000   0.402419799    0   0   1
Ir1      0.250000000   0.500000000   0.452711369    0   0   1
Ir1      0.000000000   0.000000000   0.453578420    0   0   1
O0       0.250000000   0.810000000   0.453537060    0   0   1
O0       0.250000000   0.190000000   0.452983258    0   0   1
O0       0.000000000   0.500000000   0.499127351    0   0   1
O0       0.000000000   0.000000000   0.528953793    0   0   1
Ir1      0.250000000   0.000000000   0.575718021    0   0   1
Ir1      0.000000000   0.500000000   0.572095557    0   0   1
O0       0.250000000   0.690000000   0.575805049    0   0   1
O0       0.250000000   0.310000000   0.575808969    0   0   1
O0       0.000000000   0.000000000   0.620384419    0   0   1
O0       0.500000000   0.000000000   0.379095461    0   0   1
O0       0.500000000   0.500000000   0.402419855    0   0   1
Ir1      0.750000000   0.500000000   0.452711390    0   0   1
Ir1      0.500000000   0.000000000   0.453578196    0   0   1
O0       0.750000000   0.810000000   0.453537167    0   0   1
O0       0.750000000   0.190000000   0.452983376    0   0   1
O0       0.500000000   0.500000000   0.499127156    0   0   1
O0       0.500000000   0.000000000   0.528953383    0   0   1
Ir1      0.750000000   0.000000000   0.575717901    0   0   1
Ir1      0.500000000   0.500000000   0.572095341    0   0   1
O0       0.750000000   0.690000000   0.575804751    0   0   1
O0       0.750000000   0.310000000   0.575808676    0   0   1
O0       0.500000000   0.000000000   0.620384566    0   0   1
H2      -0.000253400   0.635331829   0.384424818
H2       0.499746730   0.635331655   0.384424850
H2       0.143419419   0.034773616   0.367542383
H2       0.643418836   0.034773872   0.367542256
End final coordinates

     General routines

     Parallel routines
     Hubbard U routines

   This run was terminated on:  12:43: 4   6May2014

   JOB DONE.
Running PBS batch system epilogue script
Job id: 340770.audhumbla.fysik.dtu.dk
Username: zhonxu
Groupname: campgst
Jobname: IrO2/Eads-2-layers/bare-U-6.5
Sessionid: 6456
Queuename: verylong
Accounting:
This job has allocated the following 16 nodes:
c011 c011 c011 c011 c011 c011 c011 c011 c010 c010 c010 c010 c010 c010 c010 c010
Finished epilogue job 340770.audhumbla.fysik.dtu.dk for zhonxu