     Program PWSCF v.5.0.2 (svn rev. 9656) starts on  1Jun2014 at 12:29: 3

     Current dimensions of program PWSCF are:
     Max number of different atomic species (ntypx) = 10
     Max number of k-points (npk) =  40000
     Max angular momentum in pseudopotentials (lmaxx) =  3
     Reading input from pwscf.in
Warning: card &CELL ignored
Warning: card / ignored

     Subspace diagonalization in iterative solution of the eigenvalue problem:
     a serial algorithm will be used

     bravais-lattice index     =            0
     lattice parameter (alat)  =      10.1289  a.u.
     unit-cell volume          =    6836.7721 (a.u.)^3
     number of atoms/cell      =           33
     number of atomic types    =            3
     number of electrons       =       245.00
     number of Kohn-Sham states=          367
     kinetic-energy cutoff     =      40.0000  Ry
     charge density cutoff     =     500.0000  Ry
     convergence threshold     =      1.0E-06
     mixing beta               =       0.7000
     number of iterations used =            8  plain     mixing
     Exchange-correlation      = SLA  PW   PBE  PBE ( 1 4 3 4 0)
     EXX-fraction              =        0.00
     nstep                     =           50

     celldm(1)=  10.128932  celldm(2)=   0.000000  celldm(3)=   0.000000
     celldm(4)=   0.000000  celldm(5)=   0.000000  celldm(6)=   0.000000

     crystal axes: (cart. coord. in units of alat)
               a(1) = (   1.000000   0.000000   0.000000 )
               a(2) = (   0.000000   1.306037   0.000000 )
               a(3) = (   0.000000   0.000000   5.037380 )

     reciprocal axes: (cart. coord. in units 2 pi/alat)
               b(1) = (  1.000000  0.000000  0.000000 )
               b(2) = (  0.000000  0.765675  0.000000 )
               b(3) = (  0.000000  0.000000  0.198516 )

     PseudoPot. # 1 for O  read from file:
     /home/camp/zhonxu/pseudo/o_pbe_v1.01.uspp.F.UPF
     MD5 check sum: 2bcb18d16ea4b960afae9ec6d52f22d2
     Pseudo is Ultrasoft + core correction, Zval =  6.0
     Generated by new atomic code, or converted to UPF format
     Using radial grid of  737 points,  5 beta functions with:
                l(1) =   0
                l(2) =   0
                l(3) =   1
                l(4) =   1
                l(5) =   2
     Q(r) pseudized with  8 coefficients,  rinner =    0.900   0.900   0.900
                                                       0.900   0.900

     PseudoPot. # 2 for Re read from file:
     /home/camp/zhonxu/pseudo/re_pbe_v1.uspp.F.UPF
     MD5 check sum: 6f5a5dcaf9c96c20d0ffdde0de57afc6
     Pseudo is Ultrasoft + core correction, Zval = 15.0
     Generated by new atomic code, or converted to UPF format
     Using radial grid of  981 points,  8 beta functions with:
                l(1) =   0
                l(2) =   0
                l(3) =   1
                l(4) =   1
                l(5) =   2
                l(6) =   2
                l(7) =   3
                l(8) =   3
     Q(r) pseudized with  8 coefficients,  rinner =    1.000   1.000   1.000
                                                       1.000   1.000   1.000
                                                       1.000

     PseudoPot. # 3 for H  read from file:
     /home/camp/zhonxu/pseudo/h_pbe_v1.uspp.F.UPF
     MD5 check sum: 3408e3ff4ec8b0a4e358431e7e038a48
     Pseudo is Ultrasoft, Zval =  1.0
     Generated by new atomic code, or converted to UPF format
     Using radial grid of  615 points,  2 beta functions with:
                l(1) =   0
                l(2) =   0
     Q(r) pseudized with  8 coefficients,  rinner =    0.700

     atomic species   valence    mass     pseudopotential
        O0             6.00    15.99940     O ( 1.00)
        Re1           15.00   186.20700     Re( 1.00)
        H2             1.00     1.00794     H ( 1.00)

     Simplified LDA+U calculation (l_max = 2) with parameters (eV):
     atomic species    L          U    alpha       J0     beta
        Re1            2     4.5000   0.0000   0.0000   0.0000

     No symmetry found

   Cartesian axes

     site n.     atom                  positions (alat units)
         1           O0  tau(   1) = (   0.0000000   0.0000000   1.8623194  )
         2           O0  tau(   2) = (   0.0000000   0.6530184   1.9253370  )
         3           Re1 tau(   3) = (   0.2500000   0.6530184   2.2271768  )
         4           Re1 tau(   4) = (   0.0000000   0.0000000   2.2287384  )
         5           O0  tau(   5) = (   0.2500000   1.0187087   2.2217869  )
         6           O0  tau(   6) = (   0.2500000   0.2873281   2.2210816  )
         7           O0  tau(   7) = (   0.0000000   0.6530184   2.5071544  )
         8           O0  tau(   8) = (   0.0000000   0.0000000   2.5894652  )
         9           Re1 tau(   9) = (   0.2500000   0.0000000   2.8894412  )
        10           Re1 tau(  10) = (   0.0000000   0.6530184   2.8583102  )
        11           O0  tau(  11) = (   0.2500000   0.9403465   2.8756892  )
        12           O0  tau(  12) = (   0.2500000   0.3656903   2.8872751  )
        13           O0  tau(  13) = (   0.0000000   0.0000000   3.1516368  )
        14           O0  tau(  14) = (   0.5000000   0.0000000   1.8624705  )
        15           O0  tau(  15) = (   0.5000000   0.6530184   1.9269994  )
        16           Re1 tau(  16) = (   0.7500000   0.6530184   2.2271768  )
        17           Re1 tau(  17) = (   0.5000000   0.0000000   2.2274287  )
        18           O0  tau(  18) = (   0.7500000   1.0187087   2.2214342  )
        19           O0  tau(  19) = (   0.7500000   0.2873281   2.2214846  )
        20           O0  tau(  20) = (   0.5000000   0.6530184   2.5086153  )
        21           O0  tau(  21) = (   0.5000000   0.0000000   2.5899690  )
        22           Re1 tau(  22) = (   0.7500000   0.0000000   2.8888367  )
        23           Re1 tau(  23) = (   0.5000000   0.6530184   2.9018835  )
        24           O0  tau(  24) = (   0.7500000   0.9403465   2.8756892  )
        25           O0  tau(  25) = (   0.7500000   0.3656903   2.8872248  )
        26           O0  tau(  26) = (   0.5000000   0.0000000   3.1466498  )
        27           H2  tau(  27) = (  -0.0002100   0.8169913   1.8417165  )
        28           H2  tau(  28) = (   0.4996400   0.8147057   1.8388956  )
        29           H2  tau(  29) = (   0.1678400   0.0328729   1.7887233  )
        30           H2  tau(  30) = (   0.6697500   0.0291246   1.7904864  )
        31           O0  tau(  31) = (   0.4996300   0.6876806   3.2307741  )
        32           O0  tau(  32) = (   0.5002900   0.4188329   3.4291461  )
        33           H2  tau(  33) = (   0.4999500   0.5176477   3.5843478  )

     number of k points=    10  Methfessel-Paxton smearing, width (Ry)=  0.0100
                       cart. coord. in units 2pi/alat
        k(    1) = (   0.0000000   0.0000000   0.0000000), wk =   0.1250000
        k(    2) = (   0.0000000   0.1914188   0.0000000), wk =   0.2500000
        k(    3) = (   0.0000000  -0.3828376   0.0000000), wk =   0.1250000
        k(    4) = (   0.2500000   0.0000000   0.0000000), wk =   0.2500000
        k(    5) = (   0.2500000   0.1914188   0.0000000), wk =   0.2500000
        k(    6) = (   0.2500000  -0.3828376   0.0000000), wk =   0.2500000
        k(    7) = (  -0.5000000   0.0000000   0.0000000), wk =   0.1250000
        k(    8) = (  -0.5000000   0.1914188   0.0000000), wk =   0.2500000
        k(    9) = (  -0.5000000  -0.3828376   0.0000000), wk =   0.1250000
        k(   10) = (  -0.2500000   0.1914188   0.0000000), wk =   0.2500000

     Largest allocated arrays     est. size (Mb)     dimensions
     Largest temporary arrays     est. size (Mb)     dimensions

     Check: negative/imaginary core charge=   -0.000003    0.000000

     Initial potential from superposition of free atoms
     Check: negative starting charge=   -0.236968

     starting charge  240.99957, renormalised to  245.00000

     negative rho (up, down):  0.241E+00 0.000E+00
     Number of +U iterations with fixed ns =  0
     Starting occupations:
 --- enter write_ns ---
 LDA+U parameters:
U( 2)     =  4.50000000
alpha( 2) =  0.00000000
atom    3   Tr[ns(na)] =   5.00000
    eigenvalues:
  0.500  0.500  0.500  0.500  0.500
    eigenvectors:
  1.000  0.000  0.000  0.000  0.000
  0.000  1.000  0.000  0.000  0.000
  0.000  0.000  1.000  0.000  0.000
  0.000  0.000  0.000  1.000  0.000
  0.000  0.000  0.000  0.000  1.000
    occupations:
  0.500  0.000  0.000  0.000  0.000
  0.000  0.500  0.000  0.000  0.000
  0.000  0.000  0.500  0.000  0.000
  0.000  0.000  0.000  0.500  0.000
  0.000  0.000  0.000  0.000  0.500
atom    4   Tr[ns(na)] =   5.00000
    eigenvalues:
  0.500  0.500  0.500  0.500  0.500
    eigenvectors:
  1.000  0.000  0.000  0.000  0.000
  0.000  1.000  0.000  0.000  0.000
  0.000  0.000  1.000  0.000  0.000
  0.000  0.000  0.000  1.000  0.000
  0.000  0.000  0.000  0.000  1.000
    occupations:
  0.500  0.000  0.000  0.000  0.000
  0.000  0.500  0.000  0.000  0.000
  0.000  0.000  0.500  0.000  0.000
  0.000  0.000  0.000  0.500  0.000
  0.000  0.000  0.000  0.000  0.500
atom    9   Tr[ns(na)] =   5.00000
    eigenvalues:
  0.500  0.500  0.500  0.500  0.500
    eigenvectors:
  1.000  0.000  0.000  0.000  0.000
  0.000  1.000  0.000  0.000  0.000
  0.000  0.000  1.000  0.000  0.000
  0.000  0.000  0.000  1.000  0.000
  0.000  0.000  0.000  0.000  1.000
    occupations:
  0.500  0.000  0.000  0.000  0.000
  0.000  0.500  0.000  0.000  0.000
  0.000  0.000  0.500  0.000  0.000
  0.000  0.000  0.000  0.500  0.000
  0.000  0.000  0.000  0.000  0.500
atom   10   Tr[ns(na)] =   5.00000
    eigenvalues:
  0.500  0.500  0.500  0.500  0.500
    eigenvectors:
  1.000  0.000  0.000  0.000  0.000
  0.000  1.000  0.000  0.000  0.000
  0.000  0.000  1.000  0.000  0.000
  0.000  0.000  0.000  1.000  0.000
  0.000  0.000  0.000  0.000  1.000
    occupations:
  0.500  0.000  0.000  0.000  0.000
  0.000  0.500  0.000  0.000  0.000
  0.000  0.000  0.500  0.000  0.000
  0.000  0.000  0.000  0.500  0.000
  0.000  0.000  0.000  0.000  0.500
atom   16   Tr[ns(na)] =   5.00000
    eigenvalues:
  0.500  0.500  0.500  0.500  0.500
    eigenvectors:
  1.000  0.000  0.000  0.000  0.000
  0.000  1.000  0.000  0.000  0.000
  0.000  0.000  1.000  0.000  0.000
  0.000  0.000  0.000  1.000  0.000
  0.000  0.000  0.000  0.000  1.000
    occupations:
  0.500  0.000  0.000  0.000  0.000
  0.000  0.500  0.000  0.000  0.000
  0.000  0.000  0.500  0.000  0.000
  0.000  0.000  0.000  0.500  0.000
  0.000  0.000  0.000  0.000  0.500
atom   17   Tr[ns(na)] =   5.00000
    eigenvalues:
  0.500  0.500  0.500  0.500  0.500
    eigenvectors:
  1.000  0.000  0.000  0.000  0.000
  0.000  1.000  0.000  0.000  0.000
  0.000  0.000  1.000  0.000  0.000
  0.000  0.000  0.000  1.000  0.000
  0.000  0.000  0.000  0.000  1.000
    occupations:
  0.500  0.000  0.000  0.000  0.000
  0.000  0.500  0.000  0.000  0.000
  0.000  0.000  0.500  0.000  0.000
  0.000  0.000  0.000  0.500  0.000
  0.000  0.000  0.000  0.000  0.500
atom   22   Tr[ns(na)] =   5.00000
    eigenvalues:
  0.500  0.500  0.500  0.500  0.500
[...]
    eigenvalues:
  0.470  0.539  0.645  0.752  0.877
    eigenvectors:
  0.999  0.000  0.000  0.000  0.000
  0.000  0.000  0.000  0.000  1.000
  0.000  0.000  0.995  0.005  0.000
  0.000  0.000  0.005  0.995  0.000
  0.000  1.000  0.000  0.000  0.000
    occupations:
  0.470  0.001 -0.003 -0.005  0.000
  0.001  0.877  0.003 -0.000 -0.003
 -0.003  0.003  0.646  0.007 -0.000
 -0.005 -0.000  0.007  0.752 -0.000
  0.000 -0.003 -0.000 -0.000  0.539
atom   16   Tr[ns(na)] =   6.58469
    eigenvalues:
  0.541  0.553  0.572  0.777  0.849
    eigenvectors:
  0.007  0.013  0.297  0.683  0.000
  0.979  0.011  0.008  0.001  0.001
  0.008  0.957  0.012  0.005  0.017
  0.004  0.002  0.682  0.311  0.000
  0.001  0.016  0.000  0.001  0.982
    occupations:
  0.712  0.006  0.015 -0.095  0.001
  0.006  0.542  0.001 -0.001 -0.008
  0.015  0.001  0.559 -0.007 -0.038
 -0.095 -0.001 -0.007  0.636 -0.000
  0.001 -0.008 -0.038 -0.000  0.844
atom   17   Tr[ns(na)] =   6.58092
    eigenvalues:
  0.571  0.597  0.607  0.731  0.785
    eigenvectors:
  0.000  0.000  0.990  0.000  0.009
  0.000  0.006  0.000  0.993  0.000
  0.000  0.993  0.000  0.006  0.000
  0.000  0.000  0.008  0.000  0.991
  0.999  0.000  0.000  0.000  0.000
    occupations:
  0.609  0.003  0.000 -0.016  0.001
  0.003  0.730  0.011 -0.000 -0.002
  0.000  0.011  0.597  0.001 -0.000
 -0.016 -0.000  0.001  0.783 -0.000
  0.001 -0.002 -0.000 -0.000  0.571
atom   22   Tr[ns(na)] =   6.58672
    eigenvalues:
  0.594  0.597  0.605  0.737  0.760
    eigenvectors:
  0.218  0.028  0.000  0.038  0.715
  0.000  0.027  0.973  0.000  0.000
  0.113  0.809  0.022  0.053  0.002
  0.663  0.087  0.003  0.011  0.235
  0.006  0.048  0.001  0.898  0.047
    occupations:
  0.718 -0.002  0.000 -0.071  0.004
 -0.002  0.605  0.001  0.001 -0.000
  0.000  0.001  0.605 -0.001  0.032
 -0.071  0.001 -0.001  0.635 -0.003
  0.004 -0.000  0.032 -0.003  0.730
atom   23   Tr[ns(na)] =   6.61739
    eigenvalues:
  0.539  0.552  0.590  0.787  0.841
    eigenvectors:
  0.000  0.000  0.969  0.028  0.003
  0.874  0.125  0.000  0.000  0.001
  0.000  0.000  0.001  0.024  0.975
  0.000  0.000  0.030  0.948  0.022
  0.125  0.875  0.000  0.000  0.000
    occupations:
  0.597  0.001 -0.008 -0.034 -0.000
  0.001  0.541 -0.007 -0.001 -0.004
 -0.008 -0.007  0.839  0.007  0.000
 -0.034 -0.001  0.007  0.782  0.000
 -0.000 -0.004  0.000  0.000  0.550
N of occupied +U levels =  52.6837045
 --- exit write_ns ---

     Threshold (ethr) on eigenvalues was too large:
     Diagonalizing with lowered threshold

     Davidson diagonalization with overlap
     ethr =  1.07E-08,  avg # of iterations =  2.0

[...]

     total energy              =   -2205.70212854 Ry
     Harris-Foulkes estimate   =   -2205.70212854 Ry
     estimated scf accuracy    <       0.00000001 Ry

     iteration # 12     ecut=    40.00 Ry     beta=0.70
     Davidson diagonalization with overlap
     ethr =  4.72E-12,  avg # of iterations =  1.0

     negative rho (up, down):  0.240E+00 0.000E+00

     End of self-consistent calculation
 --- enter write_ns ---
 LDA+U parameters:
U( 2)     =  4.50000000
alpha( 2) =  0.00000000
atom    3   Tr[ns(na)] =   6.58396
    eigenvalues:
  0.541  0.551  0.572  0.777  0.850
    eigenvectors:
  0.007  0.011  0.299  0.683  0.000
  0.974  0.016  0.009  0.001  0.001
  0.012  0.955  0.009  0.005  0.019
  0.005  0.001  0.683  0.311  0.000
  0.002  0.017  0.000  0.001  0.980
    occupations:
  0.712 -0.006  0.015 -0.095 -0.001
 -0.006  0.542 -0.001  0.001 -0.008
  0.015 -0.001  0.558 -0.007  0.040
 -0.095  0.001 -0.007  0.636  0.000
 -0.001 -0.008  0.040  0.000  0.844
atom    4   Tr[ns(na)] =   6.58163
    eigenvalues:
  0.573  0.612  0.612  0.703  0.791
    eigenvectors:
  0.000  0.090  0.897  0.002  0.011
  0.000  0.010  0.006  0.984  0.000
  0.000  0.899  0.087  0.014  0.000
  0.000  0.001  0.010  0.000  0.988
  0.999  0.000  0.000  0.000  0.000
    occupations:
  0.614  0.004  0.000 -0.019  0.001
  0.004  0.701  0.011 -0.001 -0.002
  0.000  0.011  0.613  0.000 -0.000
 -0.019 -0.001  0.000  0.789 -0.000
  0.001 -0.002 -0.000 -0.000  0.573
atom    9   Tr[ns(na)] =   6.58318
    eigenvalues:
  0.596  0.601  0.609  0.734  0.751
    eigenvectors:
  0.234  0.007  0.000  0.070  0.689
  0.003  0.005  0.992  0.000  0.000
  0.029  0.912  0.004  0.051  0.005
  0.733  0.022  0.004  0.021  0.220
  0.002  0.054  0.000  0.858  0.086
    occupations:
  0.712  0.002 -0.001 -0.065  0.004
  0.002  0.609 -0.001 -0.001  0.000
 -0.001 -0.001  0.609 -0.000 -0.031
 -0.065 -0.001 -0.000  0.633 -0.003
  0.004  0.000 -0.031 -0.003  0.728
atom   10   Tr[ns(na)] =   6.56623
    eigenvalues:
  0.470  0.539  0.645  0.752  0.877
    eigenvectors:
  0.999  0.000  0.000  0.000  0.000
  0.000  0.000  0.000  0.000  1.000
  0.000  0.000  0.995  0.005  0.000
  0.000  0.000  0.005  0.995  0.000
  0.000  1.000  0.000  0.000  0.000
    occupations:
  0.470  0.001 -0.003 -0.005  0.000
  0.001  0.877  0.003 -0.000 -0.003
 -0.003  0.003  0.646  0.007 -0.000
 -0.005 -0.000  0.007  0.752 -0.000
  0.000 -0.003 -0.000 -0.000  0.539
atom   16   Tr[ns(na)] =   6.58451
    eigenvalues:
  0.541  0.552  0.572  0.777  0.849
    eigenvectors:
  0.007  0.013  0.297  0.683  0.000
  0.979  0.011  0.008  0.001  0.001
  0.008  0.957  0.012  0.005  0.017
  0.004  0.002  0.682  0.311  0.000
  0.001  0.016  0.000  0.001  0.982
    occupations:
  0.712  0.006  0.015 -0.095  0.001
  0.006  0.542  0.001 -0.001 -0.008
  0.015  0.001  0.559 -0.007 -0.038
 -0.095 -0.001 -0.007  0.636 -0.000
  0.001 -0.008 -0.038 -0.000  0.844
atom   17   Tr[ns(na)] =   6.58133
    eigenvalues:
  0.571  0.597  0.607  0.731  0.785
    eigenvectors:
  0.000  0.000  0.990  0.000  0.009
  0.000  0.006  0.000  0.993  0.000
  0.000  0.993  0.000  0.006  0.000
  0.000  0.000  0.008  0.000  0.991
  0.999  0.000  0.000  0.000  0.000
    occupations:
  0.609  0.003  0.000 -0.016  0.001
  0.003  0.730  0.011 -0.000 -0.002
  0.000  0.011  0.597  0.001 -0.000
 -0.016 -0.000  0.001  0.783 -0.000
  0.001 -0.002 -0.000 -0.000  0.572
atom   22   Tr[ns(na)] =   6.58816
    eigenvalues:
  0.594  0.597  0.605  0.737  0.760
    eigenvectors:
  0.221  0.026  0.000  0.039  0.715
  0.000  0.028  0.972  0.000  0.000
  0.102  0.819  0.023  0.053  0.003
  0.672  0.079  0.003  0.011  0.235
  0.005  0.049  0.002  0.897  0.048
    occupations:
  0.718 -0.002  0.000 -0.071  0.004
 -0.002  0.605  0.001  0.001 -0.000
  0.000  0.001  0.605 -0.001  0.032
 -0.071  0.001 -0.001  0.635 -0.003
  0.004 -0.000  0.032 -0.003  0.731
atom   23   Tr[ns(na)] =   6.61800
    eigenvalues:
  0.539  0.552  0.590  0.787  0.841
    eigenvectors:
  0.000  0.000  0.969  0.028  0.003
  0.868  0.131  0.000  0.000  0.001
  0.001  0.000  0.001  0.024  0.975
  0.000  0.000  0.030  0.948  0.022
  0.131  0.869  0.000  0.000  0.000
    occupations:
  0.597  0.001 -0.008 -0.034 -0.000
  0.001  0.541 -0.007 -0.001 -0.004
 -0.008 -0.007  0.839  0.007  0.000
 -0.034 -0.001  0.007  0.782  0.000
 -0.000 -0.004  0.000  0.000  0.550
N of occupied +U levels =  52.6870051
 --- exit write_ns ---

[...]

          k = 0.2500-0.3828 0.0000 ( 29202 PWs)   bands (ev):

[...]

          k =-0.2500 0.1914 0.0000 ( 29229 PWs)   bands (ev):

   -80.8493 -80.7838 -80.6108 -80.5445 -80.3332 -80.2923 -80.2540 -80.1182
   -42.9332 -42.8348 -42.7775 -42.7592 -42.7308 -42.6719 -42.6543 -42.6013
   -42.5255 -42.4743 -42.4653 -42.3760 -42.3504 -42.3076 -42.3059 -42.2377
   -42.2315 -42.1778 -42.1710 -42.1104 -42.0829 -41.9001 -41.7784 -41.6271
   -21.1656 -20.4746 -20.1268 -20.0432 -19.8804 -19.7513 -19.6472 -19.5453
   -19.5327 -19.4303 -19.3079 -19.1364 -19.0077 -18.9388 -18.8911 -18.7978
   -18.7226 -18.1727 -17.9524 -16.8485  -8.7467  -8.6246  -8.5776  -8.5177
    -8.5006  -8.1256  -8.1168  -8.0324  -7.7856  -7.6719  -7.6060  -7.5596
    -7.5032  -7.3200  -7.0271  -6.9421  -6.7964  -6.5874  -6.5033  -6.3730
    -6.3234  -6.1644  -6.0543  -5.9142  -5.7549  -5.6128  -5.5402  -5.4663
    -5.3242  -5.2077  -5.1195  -5.0305  -4.8063  -4.7655  -4.7173  -4.5787
    -4.5367  -4.4841  -4.4531  -4.3380  -4.2768  -4.1957  -4.0511  -3.8561
    -3.6993  -3.6129  -3.5677  -3.5189  -3.4665  -3.2974  -3.1726  -3.0859
    -3.0499  -2.9170  -2.8101  -2.6244  -2.5613  -2.4458  -2.1255  -1.9014
    -1.7681  -1.4615  -1.1282  -0.8543  -0.8244  -0.6034  -0.0638   0.1144
     0.3052   0.3974   0.7131   0.9270   1.0362   1.0576   1.3440   1.4371
     1.5885   1.6092   1.8448   1.9002   1.9767   2.1253   2.3843   2.6810
     3.2417   3.9566   3.9801   4.1758   4.2202   4.4163   4.5577   4.7357
     4.8647   4.8851   5.0759   5.1301   5.2546   5.3337   5.4359   5.8694
     6.0413   6.1210   6.2973   6.5483   6.6447   6.7271   6.8595   6.8919
     7.0790   7.3022   7.4457   7.5454   7.7133   7.8318   8.0261   8.1410
     8.3656   8.5340   8.6622   8.7114   8.8180   8.9127   9.0826   9.1658
     9.2668   9.4364   9.5192   9.6383   9.7929   9.8254   9.9070  10.0089
    10.0868  10.1008  10.1999  10.3281  10.4162  10.5184  10.6118  10.6873
    10.7085  10.7975  10.9719  11.0531  11.1812  11.2336  11.4543  11.5279
    11.5628  11.6845  11.7989  11.8378  12.0579  12.0895  12.2706  12.3735
    12.5213  12.5946  12.6367  12.6804  12.7455  12.8009  12.9050  12.9814
    13.0847  13.1563  13.2363  13.3087  13.4095  13.5784  13.6331  13.7089
    13.7524  13.8754  13.9189  13.9786  14.0631  14.1086  14.1871  14.2851
    14.3625  14.3934  14.4574  14.4973  14.5346  14.6288  14.6683  14.7621
    14.8306  14.8426  14.9548  14.9852  15.0617  15.0966  15.1688  15.2029
    15.2858  15.4200  15.4483  15.4590  15.6326  15.7030  15.8133  15.9078
    16.0205  16.0963  16.1721  16.2657  16.3499  16.3811  16.4413  16.5057
    16.5815  16.7306  16.7841  16.8710  16.9293  17.0017  17.0687  17.1865
    17.2637  17.3402  17.3669  17.3865  17.5158  17.5499  17.6276  17.6930
    17.7962  17.8145  17.8978  18.0147  18.0542  18.1226  18.2685  18.3549
    18.3897  18.4601  18.5073  18.5584  18.6838  18.7245  18.7514  18.8396
    18.8568  18.9593  19.0965  19.1551  19.1992  19.2789  19.3764  19.4684
    19.5225  19.6289  19.6984  19.7905  19.8321  19.9434  20.0324  20.1352
    20.2320  20.3273  20.4063  20.4672  20.5352  20.5981  20.6127  20.6972
    20.7641  20.8501  20.8814  20.9155  20.9924  21.0085  21.1155  21.1606
    21.2301  21.2974  21.3317  21.4199  21.5192  21.5852  21.6430  21.7336
    21.7621  21.8499  21.8882  21.9570  22.0109  22.0650  22.1082  22.2078
    22.2603  22.3175  22.3489  22.4165  22.4519  22.5142  22.5694  22.6220
    22.6714  22.7113  22.7657  22.8334  22.8610  22.8960  23.0282  23.0613
    23.1136  23.1319  23.2026  23.2588  23.3041  23.3631  23.4071

     the Fermi energy is     0.5727 ev

!    total energy              =   -2205.70212854 Ry
     Harris-Foulkes estimate   =   -2205.70212854 Ry
     estimated scf accuracy    <          8.7E-09 Ry

     The total energy is the sum of the following terms:

     one-electron contribution =  -24714.83894914 Ry
     hartree contribution      =   12380.97958247 Ry
     xc contribution           =    -602.10031157 Ry
     ewald contribution        =   10727.43794063 Ry
     Hubbard energy            =       2.81918501 Ry
     smearing contrib. (-TS)   =       0.00042406 Ry

     convergence has been achieved in  12 iterations

     Forces acting on atoms (Ry/au):

     negative rho (up, down):  0.240E+00 0.000E+00
     atom    1 type  1   force =    -0.00267215   -0.00587573    0.00028707
     atom    2 type  1   force =     0.00006279    0.00336554   -0.00056178
     atom    3 type  2   force =     0.02460187   -0.00149967    0.00003805
     atom    4 type  2   force =    -0.00004940    0.00645506   -0.00072820
     atom    5 type  1   force =     0.00245435    0.00258509    0.00052644
     atom    6 type  1   force =     0.00151680   -0.00371958    0.00051588
     atom    7 type  1   force =    -0.00049816   -0.00296487   -0.00017983
     atom    8 type  1   force =     0.00443829    0.00213708   -0.00060861
     atom    9 type  2   force =    -0.03789527   -0.00488748   -0.00024411
     atom   10 type  2   force =    -0.00050005    0.00162019   -0.00063044
     atom   11 type  1   force =    -0.01963815    0.00452489   -0.00005629
     atom   12 type  1   force =    -0.01268723    0.00700849   -0.00049829
     atom   13 type  1   force =     0.00064368   -0.00351781    0.00034506
     atom   14 type  1   force =    -0.00355620   -0.00546689    0.00005151
     atom   15 type  1   force =     0.00000876    0.00404475   -0.00012338
     atom   16 type  2   force =    -0.02396321   -0.00230115    0.00003825
     atom   17 type  2   force =     0.00250200    0.00667556    0.00011113
     atom   18 type  1   force =     0.00019596    0.00285496    0.00049746
     atom   19 type  1   force =    -0.00072046   -0.00320479    0.00052595
     atom   20 type  1   force =    -0.00094664    0.00066225   -0.00029522
     atom   21 type  1   force =     0.00181388    0.00174190   -0.00037239
     atom   22 type  2   force =     0.03353909   -0.00110634    0.00000643
     atom   23 type  2   force =     0.00142445   -0.00791223    0.00036752
     atom   24 type  1   force =     0.01883655    0.00159865    0.00000715
     atom   25 type  1   force =     0.01303972    0.00564511   -0.00031259
     atom   26 type  1   force =    -0.00119303   -0.01024391    0.00020963
     atom   27 type  3   force =     0.00000036    0.00026495   -0.00002797
     atom   28 type  3   force =    -0.00000539    0.00003102   -0.00032378
     atom   29 type  3   force =    -0.00064209   -0.00014975    0.00068602
     atom   30 type  3   force =    -0.00033775   -0.00002938    0.00060383
     atom   31 type  1   force =    -0.00029864    0.00056464   -0.00030737
     atom   32 type  1   force =     0.00053365    0.00027993    0.00000441
     atom   33 type  3   force =    -0.00000838    0.00081952    0.00044845

     Total force =     0.002657     Total SCF correction =     0.000312
     SCF correction compared to forces is large: reduce conv_thr to get better values

     entering subroutine stress ...

     negative rho (up, down):  0.240E+00 0.000E+00
          total   stress  (Ry/bohr**3)                   (kbar)     P=  -11.48
  -0.00008429  -0.00000022   0.00000221        -12.40     -0.03      0.33
  -0.00000022  -0.00010281  -0.00000618         -0.03    -15.12     -0.91
   0.00000221  -0.00000618  -0.00004706          0.33     -0.91     -6.92

     bfgs converged in  17 scf cycles and  16 bfgs steps
     (criteria: energy < 0.10E-03, force < 0.10E-02)

     End of BFGS Geometry Optimization

     Final energy   =   -2205.7021285383 Ry
Begin final coordinates

ATOMIC_POSITIONS (crystal)
O0       0.000000000   0.000000000   0.371052865    0   0   1
O0       0.000000000   0.500000000   0.383069158    0   0   1
Re1      0.250000000   0.500000000   0.442234337    0   0   1
Re1      0.000000000   0.000000000   0.443266450    0   0   1
O0       0.250000000   0.780000000   0.441564165    0   0   1
O0       0.250000000   0.220000000   0.441351922    0   0   1
O0       0.000000000   0.500000000   0.497804462    0   0   1
O0       0.000000000   0.000000000   0.513698424    0   0   1
Re1      0.250000000   0.000000000   0.574122795    0   0   1
Re1      0.000000000   0.500000000   0.567665163    0   0   1
O0       0.250000000   0.720000000   0.571366572    0   0   1
O0       0.250000000   0.280000000   0.573173747    0   0   1
O0       0.000000000   0.000000000   0.625968492    0   0   1
O0       0.500000000   0.000000000   0.370701908    0   0   1
O0       0.500000000   0.500000000   0.382564307    0   0   1
Re1      0.750000000   0.500000000   0.442219597    0   0   1
Re1      0.500000000   0.000000000   0.442748347    0   0   1
O0       0.750000000   0.780000000   0.441526570    0   0   1
O0       0.750000000   0.220000000   0.441490517    0   0   1
O0       0.500000000   0.500000000   0.497903560    0   0   1
O0       0.500000000   0.000000000   0.514129188    0   0   1
Re1      0.750000000   0.000000000   0.573601598    0   0   1
Re1      0.500000000   0.500000000   0.574343867    0   0   1
O0       0.750000000   0.720000000   0.571203378    0   0   1
O0       0.750000000   0.280000000   0.573063259    0   0   1
O0       0.500000000   0.000000000   0.625128726    0   0   1
H2      -0.000259095   0.622552145   0.365121927
H2       0.499557247   0.624923996   0.365699255
H2       0.168344700   0.023976787   0.356306857
H2       0.669598257   0.022127916   0.356296753
O0       0.498465561   0.524366086   0.642051449
O0       0.502181330   0.339318588   0.674924088
H2       0.499825013   0.404168380   0.707366296
End final coordinates

     General routines

     Parallel routines
     Hubbard U routines

   This run was terminated on:  14:32: 9   2Jun2014

   JOB DONE.