     Program PWSCF v.5.0.2 (svn rev. 9656) starts on 10Feb2014 at 13:35:37

     Current dimensions of program PWSCF are:
     Max number of different atomic species (ntypx) = 10
     Max number of k-points (npk) =  40000
     Max angular momentum in pseudopotentials (lmaxx) =  3
     Reading input from alpha_-0.15/alpha_-0.15.in
Warning: card &IONS ignored
Warning: card / ignored
Warning: card &CELL ignored
Warning: card / ignored

     Subspace diagonalization in iterative solution of the eigenvalue problem:
     a serial algorithm will be used

     bravais-lattice index     =            0
     lattice parameter (alat)  =      18.7083  a.u.
     unit-cell volume          =    3611.2673 (a.u.)^3
     number of atoms/cell      =           48
     number of atomic types    =            3
     number of electrons       =       416.00
     number of Kohn-Sham states=          624
     kinetic-energy cutoff     =      40.0000  Ry
     charge density cutoff     =     500.0000  Ry
     convergence threshold     =      1.0E-06
     mixing beta               =       0.7000
     number of iterations used =            8  plain     mixing
     Exchange-correlation      = SLA  PW   PBE  PBE ( 1 4 3 4 0)
     EXX-fraction              =        0.00

     celldm(1)=  18.708289  celldm(2)=   0.000000  celldm(3)=   0.000000
     celldm(4)=   0.000000  celldm(5)=   0.000000  celldm(6)=   0.000000

     crystal axes: (cart. coord. in units of alat)
               a(1) = (   1.000000   0.000000   0.000000 )
               a(2) = (   0.000000   1.000000   0.000000 )
               a(3) = (   0.000000   0.000000   0.551515 )

     reciprocal axes: (cart. coord. in units 2 pi/alat)
               b(1) = (  1.000000  0.000000  0.000000 )
               b(2) = (  0.000000  1.000000  0.000000 )
               b(3) = (  0.000000  0.000000  1.813187 )

     PseudoPot. # 1 for Mo read from file:
     /home/camp/zhonxu/pseudo/mo_pbe_v1.uspp.F.UPF
     MD5 check sum: 30c4dcd161f5d35cd49bb5239c51a633
     Pseudo is Ultrasoft + core correction, Zval = 14.0
     Generated by new atomic code, or converted to UPF format
     Using radial grid of  889 points,  6 beta functions with:
                l(1) =   0
                l(2) =   0
                l(3) =   1
                l(4) =   1
                l(5) =   2
                l(6) =   2
     Q(r) pseudized with  6 coefficients,  rinner =    1.000   1.000   1.000
                                                       1.000   1.000

     PseudoPot. # 2 for Mo read from file:
     /home/camp/zhonxu/pseudo/mo_pbe_v1.uspp.F.UPF
     MD5 check sum: 30c4dcd161f5d35cd49bb5239c51a633
     Pseudo is Ultrasoft + core correction, Zval = 14.0
     Generated by new atomic code, or converted to UPF format
     Using radial grid of  889 points,  6 beta functions with:
                l(1) =   0
                l(2) =   0
                l(3) =   1
                l(4) =   1
                l(5) =   2
                l(6) =   2
     Q(r) pseudized with  6 coefficients,  rinner =    1.000   1.000   1.000
                                                       1.000   1.000

     PseudoPot. # 3 for O  read from file:
     /home/camp/zhonxu/pseudo/o_pbe_v1.01.uspp.F.UPF
     MD5 check sum: 2bcb18d16ea4b960afae9ec6d52f22d2
     Pseudo is Ultrasoft + core correction, Zval =  6.0
     Generated by new atomic code, or converted to UPF format
     Using radial grid of  737 points,  5 beta functions with:
                l(1) =   0
                l(2) =   0
                l(3) =   1
                l(4) =   1
                l(5) =   2
     Q(r) pseudized with  8 coefficients,  rinner =    0.900   0.900   0.900
                                                       0.900   0.900

     atomic species   valence    mass     pseudopotential
        Mo0           14.00    95.94000     Mo( 1.00)
        Mo1           14.00    95.94000     Mo( 1.00)
        O2             6.00    15.99940     O ( 1.00)

     Starting magnetic structure
     atomic species   magnetization
        Mo0          0.000
        Mo1          0.000
        O2           0.000

     Simplified LDA+U calculation (l_max = 2) with parameters (eV):
     atomic species    L          U    alpha       J0     beta
        Mo0            2     0.0000  -0.1500   0.0000   0.0000
        Mo1            2     0.0000   0.0000   0.0000   0.0000
        O2             1     0.0000   0.0000   0.0000   0.0000

      8 Sym. Ops., with inversion, found

   Cartesian axes

     site n.     atom                  positions (alat units)
         1           Mo0 tau(   1) = (   0.0000000   0.0000000   0.0000000  )
         2           Mo1 tau(   2) = (   0.2500000   0.2500000   0.1378788  )
         3           Mo1 tau(   3) = (   0.0000000   0.0000000   0.2757576  )
         4           Mo1 tau(   4) = (   0.2500000   0.2500000   0.4136364  )
         5           Mo1 tau(   5) = (   0.0000000   0.5000000   0.0000000  )
         6           Mo1 tau(   6) = (   0.2500000   0.7500000   0.1378788  )
         7           Mo1 tau(   7) = (   0.0000000   0.5000000   0.2757576  )
         8           Mo1 tau(   8) = (   0.2500000   0.7500000   0.4136364  )
         9           Mo1 tau(   9) = (   0.5000000   0.0000000   0.0000000  )
        10           Mo1 tau(  10) = (   0.7500000   0.2500000   0.1378788  )
        11           Mo1 tau(  11) = (   0.5000000   0.0000000   0.2757576  )
        12           Mo1 tau(  12) = (   0.7500000   0.2500000   0.4136364  )
        13           Mo1 tau(  13) = (   0.5000000   0.5000000   0.0000000  )
        14           Mo1 tau(  14) = (   0.7500000   0.7500000   0.1378788  )
        15           Mo1 tau(  15) = (   0.5000000   0.5000000   0.2757576  )
        16           Mo1 tau(  16) = (   0.7500000   0.7500000   0.4136364  )
        17           O2  tau(  17) = (   0.1400000   0.1400000   0.0000000  )
        18           O2  tau(  18) = (  -0.1400000  -0.1400000   0.0000000  )
        19           O2  tau(  19) = (   0.3900000   0.1100000   0.1378788  )
        20           O2  tau(  20) = (   0.1100000   0.3900000   0.1378788  )
        21           O2  tau(  21) = (   0.1400000   0.1400000   0.2757576  )
        22           O2  tau(  22) = (  -0.1400000  -0.1400000   0.2757576  )
        23           O2  tau(  23) = (   0.3900000   0.1100000   0.4136364  )
        24           O2  tau(  24) = (   0.1100000   0.3900000   0.4136364  )
        25           O2  tau(  25) = (   0.1400000   0.6400000   0.0000000  )
        26           O2  tau(  26) = (  -0.1400000   0.3600000   0.0000000  )
        27           O2  tau(  27) = (   0.3900000   0.6100000   0.1378788  )
        28           O2  tau(  28) = (   0.1100000   0.8900000   0.1378788  )
        29           O2  tau(  29) = (   0.1400000   0.6400000   0.2757576  )
        30           O2  tau(  30) = (  -0.1400000   0.3600000   0.2757576  )
        31           O2  tau(  31) = (   0.3900000   0.6100000   0.4136364  )
        32           O2  tau(  32) = (   0.1100000   0.8900000   0.4136364  )
        33           O2  tau(  33) = (   0.6400000   0.1400000   0.0000000  )
        34           O2  tau(  34) = (   0.3600000  -0.1400000   0.0000000  )
        35           O2  tau(  35) = (   0.8900000   0.1100000   0.1378788  )
        36           O2  tau(  36) = (   0.6100000   0.3900000   0.1378788  )
        37           O2  tau(  37) = (   0.6400000   0.1400000   0.2757576  )
        38           O2  tau(  38) = (   0.3600000  -0.1400000   0.2757576  )
        39           O2  tau(  39) = (   0.8900000   0.1100000   0.4136364  )
        40           O2  tau(  40) = (   0.6100000   0.3900000   0.4136364  )
        41           O2  tau(  41) = (   0.6400000   0.6400000   0.0000000  )
        42           O2  tau(  42) = (   0.3600000   0.3600000   0.0000000  )
        43           O2  tau(  43) = (   0.8900000   0.6100000   0.1378788  )
        44           O2  tau(  44) = (   0.6100000   0.8900000   0.1378788  )
        45           O2  tau(  45) = (   0.6400000   0.6400000   0.2757576  )
        46           O2  tau(  46) = (   0.3600000   0.3600000   0.2757576  )
        47           O2  tau(  47) = (   0.8900000   0.6100000   0.4136364  )
        48           O2  tau(  48) = (   0.6100000   0.8900000   0.4136364  )

     number of k points=    42  Methfessel-Paxton smearing, width (Ry)=  0.0100
                       cart. coord. in units 2pi/alat
        k(    1) = (   0.0000000   0.0000000   0.0000000), wk =   0.0156250
        k(    2) = (   0.0000000   0.0000000   0.4532967), wk =   0.0312500
        k(    3) = (   0.0000000   0.0000000  -0.9065934), wk =   0.0156250
        k(    4) = (   0.0000000   0.2500000   0.0000000), wk =   0.0625000
        k(    5) = (   0.0000000   0.2500000   0.4532967), wk =   0.1250000
        k(    6) = (   0.0000000   0.2500000  -0.9065934), wk =   0.0625000
        k(    7) = (   0.0000000  -0.5000000   0.0000000), wk =   0.0312500
        k(    8) = (   0.0000000  -0.5000000   0.4532967), wk =   0.0625000
        k(    9) = (   0.0000000  -0.5000000  -0.9065934), wk =   0.0312500
        k(   10) = (   0.2500000   0.2500000   0.0000000), wk =   0.0312500
        k(   11) = (   0.2500000   0.2500000   0.4532967), wk =   0.0625000
        k(   12) = (   0.2500000   0.2500000  -0.9065934), wk =   0.0312500
        k(   13) = (   0.2500000  -0.5000000   0.0000000), wk =   0.0625000
        k(   14) = (   0.2500000  -0.5000000   0.4532967), wk =   0.1250000
        k(   15) = (   0.2500000  -0.5000000  -0.9065934), wk =   0.0625000
        k(   16) = (  -0.5000000  -0.5000000   0.0000000), wk =   0.0156250
        k(   17) = (  -0.5000000  -0.5000000   0.4532967), wk =   0.0312500
        k(   18) = (  -0.5000000  -0.5000000  -0.9065934), wk =   0.0156250
        k(   19) = (  -0.2500000   0.2500000   0.0000000), wk =   0.0312500
        k(   20) = (  -0.2500000   0.2500000  -0.4532967), wk =   0.0625000
        k(   21) = (  -0.2500000   0.2500000   0.9065934), wk =   0.0312500
        k(   22) = (   0.0000000   0.0000000   0.0000000), wk =   0.0156250
        k(   23) = (   0.0000000   0.0000000   0.4532967), wk =   0.0312500
        k(   24) = (   0.0000000   0.0000000  -0.9065934), wk =   0.0156250
        k(   25) = (   0.0000000   0.2500000   0.0000000), wk =   0.0625000
        k(   26) = (   0.0000000   0.2500000   0.4532967), wk =   0.1250000
        k(   27) = (   0.0000000   0.2500000  -0.9065934), wk =   0.0625000
        k(   28) = (   0.0000000  -0.5000000   0.0000000), wk =   0.0312500
        k(   29) = (   0.0000000  -0.5000000   0.4532967), wk =   0.0625000
        k(   30) = (   0.0000000  -0.5000000  -0.9065934), wk =   0.0312500
        k(   31) = (   0.2500000   0.2500000   0.0000000), wk =   0.0312500
        k(   32) = (   0.2500000   0.2500000   0.4532967), wk =   0.0625000
        k(   33) = (   0.2500000   0.2500000  -0.9065934), wk =   0.0312500
        k(   34) = (   0.2500000  -0.5000000   0.0000000), wk =   0.0625000
        k(   35) = (   0.2500000  -0.5000000   0.4532967), wk =   0.1250000
        k(   36) = (   0.2500000  -0.5000000  -0.9065934), wk =   0.0625000
[...]
    eigenvectors:
  0.000  0.000  1.000
  0.500  0.500  0.000
  0.500  0.500  0.000
    occupations:
  0.903 -0.000 -0.000
 -0.000  0.901  0.001
 -0.000  0.001  0.901
   spin  2
    eigenvalues:
  0.900  0.902  0.903
    eigenvectors:
  0.000  0.000  1.000
  0.500  0.500  0.000
  0.500  0.500  0.000
    occupations:
  0.903 -0.000 -0.000
 -0.000  0.901  0.001
 -0.000  0.001  0.901
atomic mag. moment =    -0.000000
atom   42   Tr[ns(na)] (up, down, total) =   2.70508  2.70508  5.41016
   spin  1
    eigenvalues:
  0.900  0.902  0.903
    eigenvectors:
  0.000  0.000  1.000
  0.500  0.500  0.000
  0.500  0.500  0.000
    occupations:
  0.903 -0.000 -0.000
 -0.000  0.901  0.001
 -0.000  0.001  0.901
   spin  2
    eigenvalues:
  0.900  0.902  0.903
    eigenvectors:
  0.000  0.000  1.000
  0.500  0.500  0.000
  0.500  0.500  0.000
    occupations:
  0.903 -0.000 -0.000
 -0.000  0.901  0.001
 -0.000  0.001  0.901
atomic mag. moment =    -0.000000
atom   43   Tr[ns(na)] (up, down, total) =   2.70508  2.70508  5.41016
   spin  1
    eigenvalues:
  0.900  0.902  0.903
    eigenvectors:
  0.000  0.000  1.000
  0.500  0.500  0.000
  0.500  0.500  0.000
    occupations:
  0.903  0.000  0.000
  0.000  0.901 -0.001
  0.000 -0.001  0.901
   spin  2
    eigenvalues:
  0.900  0.902  0.903
    eigenvectors:
  0.000  0.000  1.000
  0.500  0.500  0.000
  0.500  0.500  0.000
    occupations:
  0.903  0.000  0.000
  0.000  0.901 -0.001
  0.000 -0.001  0.901
atomic mag. moment =     0.000000
atom   44   Tr[ns(na)] (up, down, total) =   2.70508  2.70508  5.41016
   spin  1
    eigenvalues:
  0.900  0.902  0.903
    eigenvectors:
  0.000  0.000  1.000
  0.500  0.500  0.000
  0.500  0.500  0.000
    occupations:
  0.903  0.000  0.000
  0.000  0.901 -0.001
  0.000 -0.001  0.901
   spin  2
    eigenvalues:
  0.900  0.902  0.903
    eigenvectors:
  0.000  0.000  1.000
  0.500  0.500  0.000
  0.500  0.500  0.000
    occupations:
  0.903  0.000  0.000
  0.000  0.901 -0.001
  0.000 -0.001  0.901
atomic mag. moment =     0.000000
atom   45   Tr[ns(na)] (up, down, total) =   2.70507  2.70507  5.41014
   spin  1
    eigenvalues:
  0.900  0.902  0.903
    eigenvectors:
  0.000  0.000  1.000
  0.500  0.500  0.000
  0.500  0.500  0.000
    occupations:
  0.903 -0.000 -0.000
 -0.000  0.901  0.001
 -0.000  0.001  0.901
   spin  2
    eigenvalues:
  0.900  0.902  0.903
    eigenvectors:
  0.000  0.000  1.000
  0.500  0.500  0.000
  0.500  0.500  0.000
    occupations:
  0.903 -0.000 -0.000
 -0.000  0.901  0.001
 -0.000  0.001  0.901
atomic mag. moment =    -0.000000
atom   46   Tr[ns(na)] (up, down, total) =   2.70507  2.70507  5.41014
   spin  1
    eigenvalues:
  0.900  0.902  0.903
    eigenvectors:
  0.000  0.000  1.000
  0.500  0.500  0.000
  0.500  0.500  0.000
    occupations:
  0.903 -0.000 -0.000
 -0.000  0.901  0.001
 -0.000  0.001  0.901
   spin  2
    eigenvalues:
  0.900  0.902  0.903
    eigenvectors:
  0.000  0.000  1.000
  0.500  0.500  0.000
  0.500  0.500  0.000
    occupations:
  0.903 -0.000 -0.000
 -0.000  0.901  0.001
 -0.000  0.001  0.901
atomic mag. moment =    -0.000000
atom   47   Tr[ns(na)] (up, down, total) =   2.70508  2.70508  5.41016
   spin  1
    eigenvalues:
  0.900  0.902  0.903
    eigenvectors:
  0.000  0.000  1.000
  0.500  0.500  0.000
  0.500  0.500  0.000
    occupations:
  0.903 -0.000 -0.000
 -0.000  0.901 -0.001
 -0.000 -0.001  0.901
   spin  2
    eigenvalues:
  0.900  0.902  0.903
    eigenvectors:
  0.000  0.000  1.000
  0.500  0.500  0.000
  0.500  0.500  0.000
    occupations:
  0.903 -0.000 -0.000
 -0.000  0.901 -0.001
 -0.000 -0.001  0.901
atomic mag. moment =     0.000000
atom   48   Tr[ns(na)] (up, down, total) =   2.70508  2.70508  5.41016
   spin  1
    eigenvalues:
  0.900  0.902  0.903
    eigenvectors:
  0.000  0.000  1.000
  0.500  0.500  0.000
  0.500  0.500  0.000
    occupations:
  0.903 -0.000 -0.000
 -0.000  0.901 -0.001
 -0.000 -0.001  0.901
   spin  2
    eigenvalues:
  0.900  0.902  0.903
    eigenvectors:
  0.000  0.000  1.000
  0.500  0.500  0.000
  0.500  0.500  0.000
    occupations:
  0.903 -0.000 -0.000
 -0.000  0.901 -0.001
 -0.000 -0.001  0.901
atomic mag. moment =     0.000000
N of occupied +U levels = 266.2428239
 --- exit write_ns ---

 ------ SPIN UP ------------

          k = 0.0000 0.0000 0.0000 ( 15465 PWs)   bands (ev):

   -49.3551 -49.3509 -49.3509 -49.3508 -49.3508 -49.3505 -49.3467 -49.3209
   -49.2341 -49.2341 -49.2341 -49.2341 -49.2340 -49.2337 -49.2336 -49.1226
   -23.9138 -23.9136 -23.9136 -23.9108 -23.9078 -23.9076 -23.9074 -23.8488
   -23.6583 -23.6573 -23.6508 -23.6463 -23.6267 -23.6266 -23.6261 -23.6033
   -23.5197 -23.5195 -23.5186 -23.5164 -23.5130 -23.5129 -23.5118 -23.4310
   -23.4302 -23.4300 -23.4297 -23.4187 -23.3990 -23.3988 -23.3796 -23.3690
   -23.2221 -23.2218 -23.2216 -23.2215 -23.2212 -23.2211 -23.2210 -23.1294
   -22.8822 -22.8715 -22.8714 -22.8713 -22.8713 -22.8712 -22.8611 -22.7963
    -7.2192  -6.7988  -6.7918  -6.4873  -6.4847  -6.4830  -6.4816  -6.4815
    -6.4800  -6.4748  -6.4743  -6.4741  -6.0715  -6.0646  -6.0521  -6.0436
    -6.0432  -6.0410  -6.0211  -6.0158  -5.8558  -5.8522  -5.7978  -5.7942
    -5.6643  -5.6635  -5.5891  -5.5882  -5.3086  -5.3084  -5.3066  -5.3046
     4.6022   4.7320   4.7356   4.9306   5.1084   5.1093   5.1108   5.1125
     5.3181   5.3259   5.3268   5.3270   5.4003   5.8028   5.8075   5.8924
     5.8985   5.8996   5.9019   5.9287   5.9375   6.1441   6.1464   6.4986
     6.5065   6.5565   6.5586   6.5589   6.5624   6.6905   6.6942   6.7615
     6.7652   6.7981   6.8015   7.0478   7.0561   7.0573   7.0574   7.0668
     7.0682   7.5870   7.5873   7.5900   7.5910   7.8134   7.8186   7.8268
     7.8280   7.8659   7.8670   8.0515   8.0539   8.0542   8.0549   8.0854
     8.0857   8.2237   8.2243   8.3281   8.3323   8.5003   8.5029   8.5035
     8.5036   8.7827   8.7833   8.7854   8.7867   8.9935   8.9938   9.0450
     9.0477   9.3935   9.3946   9.5200   9.5209   9.5211   9.5242   9.6307
     9.6308   9.6315   9.6326   9.6900   9.8618   9.8619   9.9872   9.9878
     9.9883   9.9891  10.0003  10.0008  10.0490  10.0502  10.3661  10.4134
    10.5365  10.5414  10.7392  10.7668  11.3625  11.3681  11.3684  11.3696
    11.7882  11.7884  11.7920  11.7922  12.4325  13.0103  13.0116  13.5093
    13.5114  13.5728  13.5738  13.6940  13.6941  13.7281  13.7282  13.8752
    13.8764  14.4120  14.4126  14.4131  14.4139  14.4316  14.4316  14.4319
    14.4326  14.5780  14.5781  14.5792  14.5806  14.8951  14.8955  15.8648
    15.8650  15.8661  15.8677  15.8775  16.0404  16.0416  16.0428  16.0888
    16.0917  16.4633  16.4639  16.4641  16.4689  16.8917  16.8919  16.8926
    16.8976  17.2677  17.2690  17.5037  17.5047  17.5488  17.5501  17.5626
    17.5648  17.6085  17.6092  17.6097  17.6145  17.9007  17.9024  17.9159
    17.9676  17.9702  18.2749  18.2778  19.9276  19.9278  19.9312  19.9339
    20.1889  20.6881  20.6897  20.6903  20.6938  21.7572  21.7573  22.1093
    22.1111  22.5523  22.5530  22.7187  22.7196  22.7198  22.7282  22.8036
    22.8101  23.2856  23.2888  23.3159  23.3183  23.9756  23.9775  23.9785
    23.9817  24.5940  24.5980  24.9212  24.9224  24.9246  24.9265  25.0155
    25.3144  25.3163  25.3163  25.3165  25.5570  25.5578  25.5597  25.5642
    25.6013  26.1214  26.1219  26.3710  26.3732  26.3810  26.3821  26.3963
    27.6359  27.6391  27.7720  27.7734  27.7741  27.7764  28.0289  28.0301
    28.0302  28.0338  28.2853  28.2859  28.5706  28.5758  28.6977  28.6990
    28.9001  29.0512  29.0513  29.0653  29.0656  29.0896  29.0907  29.0911
    29.1027  29.2024  29.2027  30.0229  30.0232  30.0237  30.0265  30.5528
    30.5529  30.5558  30.5636  31.5838  31.5871  31.7223  31.7283  31.7376
    31.7408  31.8668  31.8675  31.8711  31.8786  32.0334  32.3759  32.3770
    32.4217  32.4252  32.7560  32.7609  32.9185  32.9194  33.7415  33.7418
    33.7455  33.7476  33.9103  34.1424  34.1434  34.1477  34.1497  34.1512
    34.1541  34.1865  34.1867  34.1869  34.1917  34.6258  34.6291  34.6824
    34.9038  34.9045  34.9066  34.9095  35.1340  35.1381  35.2497  35.2553
    35.9093  35.9930  35.9935  35.9939  36.0062  36.1286  36.1295  36.1343
    36.1392  36.2673  36.2704  36.3674  36.3702  36.8750  36.8806  37.1090
    37.1112  37.2828  37.2844  37.2850  37.2886  37.2992  37.4675  37.4713
    37.4725  37.4734  38.0476  38.0483  38.2059  38.2069  38.2077  38.2083
    38.4477  38.5731  38.5749  38.5886  38.5888  38.5912  38.5948  39.3405
    39.3443  39.8773  39.8826  40.6460  40.6480  40.7060  40.7062  40.7091
    40.7174  40.8780  40.8806  41.0630  41.0636  41.0679  41.0698  41.2027
    41.2052  41.2054  41.2101  41.3139  41.8104  41.8124  41.8128  41.8129
    42.1307  42.1321  42.1402  42.4856  42.4893  42.6039  42.6056  42.6074
    42.6130  42.6733  42.6768  42.7384  42.7445  43.1070  43.1093  43.1279
[...]
    44.6112  44.6536  44.6540  44.6548  44.6651  44.9900  44.9924  45.0035
    45.0085  45.1657  45.1690  45.1694  45.1724  45.2575  45.2610  45.2617
    45.2620  45.3309  45.3325  45.5058  45.5090  45.5582  45.5587  45.7146
    45.7162  45.7601  45.7602  45.7603  45.7629  45.9456  45.9524  46.2445
    46.3748  46.3756  46.3767  46.3826  46.6276  46.6293  46.6950  46.6973
    46.7333  46.7342  46.7350  46.7401  46.8096  46.8098  46.8108  46.8226
    47.3960  47.4011  47.7420  47.7465  48.0488  48.0493  48.1451  48.1500
    48.4706  48.5425  48.5435  48.5437  48.5465  48.8535  48.8545  48.8549
    48.8617  48.9033  48.9057  48.9061  48.9062  49.0999  49.1002  49.3127
    49.3171  49.4153  49.4163  49.4167  49.4174  49.4515  49.4520  49.7045
    49.7050  49.7080  49.7210  49.9792  50.0198  50.1734  50.1736  50.3569
    50.3580  50.3592  50.3615  50.4416  50.6681  50.6693  50.6705  50.6722
    50.8641  50.8693  51.1666  51.1697  51.1701  51.1722  51.3406  51.3407
    51.3797  51.3804  51.6858  51.9739  51.9790  52.4304  52.4310  52.4311
    52.4360  52.6348  52.6370  52.6396  52.6416  52.7782  52.7784  52.8517

[...]

          k =-0.5000-0.5000 0.0000 ( 15388 PWs)   bands (ev):

[...]

 ------ SPIN DOWN ----------

[...]

          k = 0.2500-0.5000-0.9066 ( 15428 PWs)   bands (ev):

[...]

          k =-0.2500 0.2500 0.9066 ( 15408 PWs)   bands (ev):

   -49.2997 -49.2954 -49.2953 -49.2941 -49.2941 -49.2935 -49.2935 -49.2927
   -49.2925 -49.2919 -49.2918 -49.2917 -49.2916 -49.2901 -49.2900 -49.1421
   -23.5906 -23.5869 -23.5861 -23.5847 -23.5845 -23.5838 -23.5837 -23.5832
   -23.5828 -23.5826 -23.5823 -23.5811 -23.5808 -23.5805 -23.5804 -23.4582
   -23.4141 -23.4105 -23.4094 -23.4077 -23.4074 -23.4057 -23.4053 -23.4033
   -23.4029 -23.4000 -23.3996 -23.3991 -23.3989 -23.3981 -23.3907 -23.3274
   -23.3249 -23.3245 -23.3245 -23.3243 -23.3200 -23.3193 -23.3189 -23.3187
   -23.3185 -23.3182 -23.3138 -23.3131 -23.3124 -23.3056 -23.2602 -23.1809
    -6.5882  -6.5869  -6.4379  -6.4374  -6.4370  -6.4343  -6.3618  -6.3582
    -6.2759  -6.2733  -6.2529  -6.2485  -6.2461  -6.2458  -6.1290  -6.1281
    -5.8442  -5.8424  -5.8399  -5.8373  -5.8193  -5.8163  -5.8163  -5.8162
    -5.8092  -5.8087  -5.8086  -5.8066  -5.8005  -5.7978  -5.7934  -5.7927
     5.4387   5.4403   5.4594   5.4633   5.4634   5.4635   5.5264   5.5304
     5.5305   5.5336   5.5348   5.5350   5.6922   5.6922   5.7525   5.7534
     6.1348   6.1425   6.1497   6.1503   6.4295   6.4317   6.4335   6.4366
     6.5113   6.5140   6.5839   6.5869   6.6858   6.6894   6.6916   6.7018
     6.7021   6.7041   7.1497   7.1517   7.1517   7.1521   7.3301   7.3309
     7.3329   7.3330   7.3445   7.3447   7.4583   7.4598   7.5791   7.5793
     7.5799   7.5801   7.6922   7.6939   7.8306   7.8319   7.8456   7.8460
     8.3258   8.3284   8.3286   8.3298   8.4297   8.4322   8.4780   8.4793
     8.5447   8.5466   8.5920   8.5925   8.5936   8.5947   8.5964   8.5976
     8.7031   8.7044   8.8703   8.8707   8.8709   8.8727   9.1306   9.1307
     9.3234   9.3240   9.5520   9.5540   9.6351   9.6355   9.6358   9.6370
     9.8658   9.8664  10.1133  10.1140  10.1142  10.1143  10.3613  10.3613
    12.5086  12.5089  12.5223  12.5227  12.5228  12.5242  12.6991  12.6993
    12.7873  12.7874  12.7888  12.7889  12.7896  12.7897  12.8598  12.8608
    12.9231  12.9252  13.0287  13.0306  13.2249  13.2252  13.2257  13.2282
    13.5294  13.5299  13.5912  13.5916  13.7544  13.7550  13.8020  13.8021
    13.8023  13.8028  14.2482  14.2487  14.3242  14.3244  14.3248  14.3251
    14.5167  14.5167  14.8248  14.8249  14.8250  14.8281  15.2895  15.2916
    16.0344  16.0344  16.0348  16.0373  16.5889  16.5902  16.6992  16.7022
    16.7366  16.7366  16.7366  16.7443  17.3708  17.3711  17.4485  17.4494
    17.4937  17.4948  17.9883  17.9924  18.2156  18.2156  18.2182  18.2222
    18.5433  18.5455  19.1339  19.1341  19.1347  19.1417  19.6102  19.6143
    20.4014  20.4026  21.4474  21.4491  21.4493  21.4516  21.9727  21.9731
    22.6385  22.6418  22.7879  22.7883  22.7899  22.7917  23.7391  23.7421
    24.1136  24.1160  24.1570  24.1592  24.7057  24.7091  24.7770  24.7773
    24.7777  24.7810  25.1738  25.1767  25.1772  25.1838  25.7879  25.7904
    26.0482  26.0522  26.2755  26.2768  26.4807  26.4836  26.4842  26.4868
    27.1319  27.1320  27.2267  27.2291  27.3074  27.3103  27.3104  27.3105
    27.5010  27.5018  27.5031  27.5041  27.6922  27.6932  27.6942  27.6955
    27.8573  27.8599  27.8627  27.8673  27.9052  27.9053  28.3568  28.3606
    28.4240  28.4253  28.4288  28.4295  28.8411  28.8448  29.2866  29.2898
    29.6670  29.6694  30.0956  30.0976  30.0985  30.0986  30.1301  30.1334
    30.2444  30.2462  30.4226  30.4227  30.8220  30.8275  31.2909  31.2930
    31.2977  31.2978  31.5155  31.5170  31.5191  31.5232  32.3990  32.3994
    32.4005  32.4006  32.4249  32.4289  32.7173  32.7231  32.8281  32.8307
    33.4930  33.4968  33.8870  33.8920  34.0467  34.0473  34.0486  34.0522
    34.6856  34.6869  35.0279  35.0287  35.0292  35.0333  35.2178  35.2187
    35.2331  35.2333  35.2341  35.2368  35.4772  35.4782  35.4798  35.4828
    35.4851  35.4889  35.9589  35.9604  36.2085  36.2106  36.3115  36.3138
    36.5606  36.5611  36.5635  36.5643  36.8264  36.8266  36.8757  36.8782
    37.3324  37.3362  37.3944  37.3978  37.6828  37.6828  37.7383  37.7386
    37.7606  37.7618  37.7626  37.7639  37.9139  37.9147  37.9147  37.9156
    37.9944  37.9973  38.5111  38.5125  38.8002  38.8028  38.8033  38.8054
    38.9281  38.9300  39.3525  39.3550  39.3558  39.3568  39.8682  39.8730
    40.2270  40.2291  40.2880  40.2889  40.4454  40.4466  40.4471  40.4521
    40.7382  40.7417  41.4092  41.4094  41.4108  41.4109  41.5554  41.5560
    41.5598  41.5601  41.8618  41.8621  41.8622  41.8639  42.1748  42.1755
    42.2096  42.2097  42.2132  42.2190  42.2384  42.2484  42.3398  42.3421
[...]
    44.7864  44.7909  44.9703  44.9704  44.9724  44.9726  45.2818  45.2856
    45.6106  45.6125  45.6208  45.6217  45.6645  45.6655  45.8501  45.8503
    45.8525  45.8596  46.1622  46.1688  46.2678  46.2694  46.2698  46.2703
    46.4963  46.5000  46.7301  46.7337  46.7698  46.7727  46.8394  46.8401
    46.8403  46.8434  46.9011  46.9013  46.9114  46.9115  46.9129  46.9169
    47.0593  47.0622  47.3938  47.3971  47.4494  47.4517  47.4837  47.4846
    47.5598  47.5611  47.5628  47.5633  47.7175  47.7191  47.8523  47.8545
    47.8549  47.8631  48.0613  48.0616  48.0645  48.0661  48.1233  48.1235
    48.3231  48.3233  48.3244  48.3248  48.4780  48.4826  48.8743  48.8744
    48.9327  48.9346  48.9348  48.9369  49.4589  49.4608  49.7924  49.7940
    49.7959  49.7980  49.9260  49.9276  50.0033  50.0035  50.1186  50.1188
    50.1196  50.1234  50.4429  50.4454  50.5552  50.5563  50.5758  50.5776
    50.7637  50.7644  50.9138  50.9156  50.9157  50.9165  51.2842  51.2848
    51.4046  51.4081  51.4086  51.4091  51.7578  51.7628  51.8339  51.8346
    52.2028  52.2032  52.2041  52.2045  52.3703  52.3748  52.6436  52.6441

     the Fermi energy is    12.9430 ev

!    total energy              =   -3262.66650621 Ry
     Harris-Foulkes estimate   =   -3262.66650623 Ry
     estimated scf accuracy    <       0.00000003 Ry

     The total energy is the sum of the following terms:

     one-electron contribution =    -920.62358029 Ry
     hartree contribution      =     690.19071885 Ry
     xc contribution           =    -539.17334642 Ry
     ewald contribution        =   -2492.99511507 Ry
     Hubbard energy            =      -0.06448870 Ry
     smearing contrib. (-TS)   =      -0.00069457 Ry

     total magnetization       =    -0.00 Bohr mag/cell
     absolute magnetization    =     0.00 Bohr mag/cell

     convergence has been achieved in  12 iterations

     Writing output data file pwscf.save

     General routines

     Parallel routines
     Hubbard U routines

   This run was terminated on:  20:26: 3  10Feb2014

   JOB DONE.