     Program PWSCF v.5.0.2 (svn rev. 9656) starts on 10Feb2014 at 20:31: 4

     Current dimensions of program PWSCF are:
     Max number of different atomic species (ntypx) = 10
     Max number of k-points (npk) =  40000
     Max angular momentum in pseudopotentials (lmaxx) =  3
     Reading input from alpha_-0.07/alpha_-0.07.in
Warning: card &IONS ignored
Warning: card / ignored
Warning: card &CELL ignored
Warning: card / ignored

     Subspace diagonalization in iterative solution of the eigenvalue problem:
     a serial algorithm will be used

     bravais-lattice index     =            0
     lattice parameter (alat)  =      18.7083  a.u.
     unit-cell volume          =    3611.2673 (a.u.)^3
     number of atoms/cell      =           48
     number of atomic types    =            3
     number of electrons       =       416.00
     number of Kohn-Sham states=          624
     kinetic-energy cutoff     =      40.0000  Ry
     charge density cutoff     =     500.0000  Ry
     convergence threshold     =      1.0E-06
     mixing beta               =       0.7000
     number of iterations used =            8  plain     mixing
     Exchange-correlation      = SLA  PW   PBE  PBE ( 1 4 3 4 0)
     EXX-fraction              =        0.00

     celldm(1)=  18.708289  celldm(2)=   0.000000  celldm(3)=   0.000000
     celldm(4)=   0.000000  celldm(5)=   0.000000  celldm(6)=   0.000000

     crystal axes: (cart. coord. in units of alat)
               a(1) = (   1.000000   0.000000   0.000000 )
               a(2) = (   0.000000   1.000000   0.000000 )
               a(3) = (   0.000000   0.000000   0.551515 )

     reciprocal axes: (cart. coord. in units 2 pi/alat)
               b(1) = (  1.000000  0.000000  0.000000 )
               b(2) = (  0.000000  1.000000  0.000000 )
               b(3) = (  0.000000  0.000000  1.813187 )

     PseudoPot. # 1 for Mo read from file:
     /home/camp/zhonxu/pseudo/mo_pbe_v1.uspp.F.UPF
     MD5 check sum: 30c4dcd161f5d35cd49bb5239c51a633
     Pseudo is Ultrasoft + core correction, Zval = 14.0
     Generated by new atomic code, or converted to UPF format
     Using radial grid of  889 points,  6 beta functions with:
                l(1) =   0
                l(2) =   0
                l(3) =   1
                l(4) =   1
                l(5) =   2
                l(6) =   2
     Q(r) pseudized with  6 coefficients,  rinner =    1.000   1.000   1.000
                                                       1.000   1.000

     PseudoPot. # 2 for Mo read from file:
     /home/camp/zhonxu/pseudo/mo_pbe_v1.uspp.F.UPF
     MD5 check sum: 30c4dcd161f5d35cd49bb5239c51a633
     Pseudo is Ultrasoft + core correction, Zval = 14.0
     Generated by new atomic code, or converted to UPF format
     Using radial grid of  889 points,  6 beta functions with:
                l(1) =   0
                l(2) =   0
                l(3) =   1
                l(4) =   1
                l(5) =   2
                l(6) =   2
     Q(r) pseudized with  6 coefficients,  rinner =    1.000   1.000   1.000
                                                       1.000   1.000

     PseudoPot. # 3 for O  read from file:
     /home/camp/zhonxu/pseudo/o_pbe_v1.01.uspp.F.UPF
     MD5 check sum: 2bcb18d16ea4b960afae9ec6d52f22d2
     Pseudo is Ultrasoft + core correction, Zval =  6.0
     Generated by new atomic code, or converted to UPF format
     Using radial grid of  737 points,  5 beta functions with:
                l(1) =   0
                l(2) =   0
                l(3) =   1
                l(4) =   1
                l(5) =   2
     Q(r) pseudized with  8 coefficients,  rinner =    0.900   0.900   0.900
                                                       0.900   0.900

     atomic species   valence    mass     pseudopotential
        Mo0           14.00    95.94000     Mo( 1.00)
        Mo1           14.00    95.94000     Mo( 1.00)
        O2             6.00    15.99940     O ( 1.00)

     Starting magnetic structure
     atomic species   magnetization
        Mo0          0.000
        Mo1          0.000
        O2           0.000

     Simplified LDA+U calculation (l_max = 2) with parameters (eV):
     atomic species    L          U    alpha       J0     beta
        Mo0            2     0.0000  -0.0700   0.0000   0.0000
        Mo1            2     0.0000   0.0000   0.0000   0.0000
        O2             1     0.0000   0.0000   0.0000   0.0000

      8 Sym. Ops., with inversion, found

   Cartesian axes

     site n.     atom                  positions (alat units)
         1           Mo0 tau(   1) = (   0.0000000   0.0000000   0.0000000  )
         2           Mo1 tau(   2) = (   0.2500000   0.2500000   0.1378788  )
         3           Mo1 tau(   3) = (   0.0000000   0.0000000   0.2757576  )
         4           Mo1 tau(   4) = (   0.2500000   0.2500000   0.4136364  )
         5           Mo1 tau(   5) = (   0.0000000   0.5000000   0.0000000  )
         6           Mo1 tau(   6) = (   0.2500000   0.7500000   0.1378788  )
         7           Mo1 tau(   7) = (   0.0000000   0.5000000   0.2757576  )
         8           Mo1 tau(   8) = (   0.2500000   0.7500000   0.4136364  )
         9           Mo1 tau(   9) = (   0.5000000   0.0000000   0.0000000  )
        10           Mo1 tau(  10) = (   0.7500000   0.2500000   0.1378788  )
        11           Mo1 tau(  11) = (   0.5000000   0.0000000   0.2757576  )
        12           Mo1 tau(  12) = (   0.7500000   0.2500000   0.4136364  )
        13           Mo1 tau(  13) = (   0.5000000   0.5000000   0.0000000  )
        14           Mo1 tau(  14) = (   0.7500000   0.7500000   0.1378788  )
        15           Mo1 tau(  15) = (   0.5000000   0.5000000   0.2757576  )
        16           Mo1 tau(  16) = (   0.7500000   0.7500000   0.4136364  )
        17           O2  tau(  17) = (   0.1400000   0.1400000   0.0000000  )
        18           O2  tau(  18) = (  -0.1400000  -0.1400000   0.0000000  )
        19           O2  tau(  19) = (   0.3900000   0.1100000   0.1378788  )
        20           O2  tau(  20) = (   0.1100000   0.3900000   0.1378788  )
        21           O2  tau(  21) = (   0.1400000   0.1400000   0.2757576  )
        22           O2  tau(  22) = (  -0.1400000  -0.1400000   0.2757576  )
        23           O2  tau(  23) = (   0.3900000   0.1100000   0.4136364  )
        24           O2  tau(  24) = (   0.1100000   0.3900000   0.4136364  )
        25           O2  tau(  25) = (   0.1400000   0.6400000   0.0000000  )
        26           O2  tau(  26) = (  -0.1400000   0.3600000   0.0000000  )
        27           O2  tau(  27) = (   0.3900000   0.6100000   0.1378788  )
        28           O2  tau(  28) = (   0.1100000   0.8900000   0.1378788  )
        29           O2  tau(  29) = (   0.1400000   0.6400000   0.2757576  )
        30           O2  tau(  30) = (  -0.1400000   0.3600000   0.2757576  )
        31           O2  tau(  31) = (   0.3900000   0.6100000   0.4136364  )
        32           O2  tau(  32) = (   0.1100000   0.8900000   0.4136364  )
        33           O2  tau(  33) = (   0.6400000   0.1400000   0.0000000  )
        34           O2  tau(  34) = (   0.3600000  -0.1400000   0.0000000  )
        35           O2  tau(  35) = (   0.8900000   0.1100000   0.1378788  )
        36           O2  tau(  36) = (   0.6100000   0.3900000   0.1378788  )
        37           O2  tau(  37) = (   0.6400000   0.1400000   0.2757576  )
        38           O2  tau(  38) = (   0.3600000  -0.1400000   0.2757576  )
        39           O2  tau(  39) = (   0.8900000   0.1100000   0.4136364  )
        40           O2  tau(  40) = (   0.6100000   0.3900000   0.4136364  )
        41           O2  tau(  41) = (   0.6400000   0.6400000   0.0000000  )
        42           O2  tau(  42) = (   0.3600000   0.3600000   0.0000000  )
        43           O2  tau(  43) = (   0.8900000   0.6100000   0.1378788  )
        44           O2  tau(  44) = (   0.6100000   0.8900000   0.1378788  )
        45           O2  tau(  45) = (   0.6400000   0.6400000   0.2757576  )
        46           O2  tau(  46) = (   0.3600000   0.3600000   0.2757576  )
        47           O2  tau(  47) = (   0.8900000   0.6100000   0.4136364  )
        48           O2  tau(  48) = (   0.6100000   0.8900000   0.4136364  )

     number of k points=    42  Methfessel-Paxton smearing, width (Ry)=  0.0100
                       cart. coord. in units 2pi/alat
        k(    1) = (   0.0000000   0.0000000   0.0000000), wk =   0.0156250
        k(    2) = (   0.0000000   0.0000000   0.4532967), wk =   0.0312500
        k(    3) = (   0.0000000   0.0000000  -0.9065934), wk =   0.0156250
        k(    4) = (   0.0000000   0.2500000   0.0000000), wk =   0.0625000
        k(    5) = (   0.0000000   0.2500000   0.4532967), wk =   0.1250000
        k(    6) = (   0.0000000   0.2500000  -0.9065934), wk =   0.0625000
        k(    7) = (   0.0000000  -0.5000000   0.0000000), wk =   0.0312500
        k(    8) = (   0.0000000  -0.5000000   0.4532967), wk =   0.0625000
        k(    9) = (   0.0000000  -0.5000000  -0.9065934), wk =   0.0312500
        k(   10) = (   0.2500000   0.2500000   0.0000000), wk =   0.0312500
        k(   11) = (   0.2500000   0.2500000   0.4532967), wk =   0.0625000
        k(   12) = (   0.2500000   0.2500000  -0.9065934), wk =   0.0312500
        k(   13) = (   0.2500000  -0.5000000   0.0000000), wk =   0.0625000
        k(   14) = (   0.2500000  -0.5000000   0.4532967), wk =   0.1250000
        k(   15) = (   0.2500000  -0.5000000  -0.9065934), wk =   0.0625000
        k(   16) = (  -0.5000000  -0.5000000   0.0000000), wk =   0.0156250
        k(   17) = (  -0.5000000  -0.5000000   0.4532967), wk =   0.0312500
        k(   18) = (  -0.5000000  -0.5000000  -0.9065934), wk =   0.0156250
        k(   19) = (  -0.2500000   0.2500000   0.0000000), wk =   0.0312500
        k(   20) = (  -0.2500000   0.2500000  -0.4532967), wk =   0.0625000
        k(   21) = (  -0.2500000   0.2500000   0.9065934), wk =   0.0312500
        k(   22) = (   0.0000000   0.0000000   0.0000000), wk =   0.0156250
        k(   23) = (   0.0000000   0.0000000   0.4532967), wk =   0.0312500
        k(   24) = (   0.0000000   0.0000000  -0.9065934), wk =   0.0156250
        k(   25) = (   0.0000000   0.2500000   0.0000000), wk =   0.0625000
        k(   26) = (   0.0000000   0.2500000   0.4532967), wk =   0.1250000
        k(   27) = (   0.0000000   0.2500000  -0.9065934), wk =   0.0625000
        k(   28) = (   0.0000000  -0.5000000   0.0000000), wk =   0.0312500
        k(   29) = (   0.0000000  -0.5000000   0.4532967), wk =   0.0625000
        k(   30) = (   0.0000000  -0.5000000  -0.9065934), wk =   0.0312500
        k(   31) = (   0.2500000   0.2500000   0.0000000), wk =   0.0312500
        k(   32) = (   0.2500000   0.2500000   0.4532967), wk =   0.0625000
        k(   33) = (   0.2500000   0.2500000  -0.9065934), wk =   0.0312500
        k(   34) = (   0.2500000  -0.5000000   0.0000000), wk =   0.0625000
        k(   35) = (   0.2500000  -0.5000000   0.4532967), wk =   0.1250000
        k(   36) = (   0.2500000  -0.5000000  -0.9065934), wk =   0.0625000
[...]
    eigenvectors:
  0.000  0.000  1.000
  0.500  0.500  0.000
  0.500  0.500  0.000
    occupations:
  0.903 -0.000 -0.000
 -0.000  0.901  0.001
 -0.000  0.001  0.901
   spin  2
    eigenvalues:
  0.900  0.902  0.903
    eigenvectors:
  0.000  0.000  1.000
  0.500  0.500  0.000
  0.500  0.500  0.000
    occupations:
  0.903 -0.000 -0.000
 -0.000  0.901  0.001
 -0.000  0.001  0.901
atomic mag. moment =    -0.000000
atom   42   Tr[ns(na)] (up, down, total) =   2.70511  2.70511  5.41022
   spin  1
    eigenvalues:
  0.900  0.902  0.903
    eigenvectors:
  0.000  0.000  1.000
  0.500  0.500  0.000
  0.500  0.500  0.000
    occupations:
  0.903 -0.000 -0.000
 -0.000  0.901  0.001
 -0.000  0.001  0.901
   spin  2
    eigenvalues:
  0.900  0.902  0.903
    eigenvectors:
  0.000  0.000  1.000
  0.500  0.500  0.000
  0.500  0.500  0.000
    occupations:
  0.903 -0.000 -0.000
 -0.000  0.901  0.001
 -0.000  0.001  0.901
atomic mag. moment =    -0.000000
atom   43   Tr[ns(na)] (up, down, total) =   2.70508  2.70508  5.41017
   spin  1
    eigenvalues:
  0.900  0.902  0.903
    eigenvectors:
  0.000  0.000  1.000
  0.500  0.500  0.000
  0.500  0.500  0.000
    occupations:
  0.903 -0.000  0.000
 -0.000  0.901 -0.001
  0.000 -0.001  0.901
   spin  2
    eigenvalues:
  0.900  0.902  0.903
    eigenvectors:
  0.000  0.000  1.000
  0.500  0.500  0.000
  0.500  0.500  0.000
    occupations:
  0.903 -0.000  0.000
 -0.000  0.901 -0.001
  0.000 -0.001  0.901
atomic mag. moment =     0.000000
atom   44   Tr[ns(na)] (up, down, total) =   2.70508  2.70508  5.41017
   spin  1
    eigenvalues:
  0.900  0.902  0.903
    eigenvectors:
  0.000  0.000  1.000
  0.500  0.500  0.000
  0.500  0.500  0.000
    occupations:
  0.903  0.000 -0.000
  0.000  0.901 -0.001
 -0.000 -0.001  0.901
   spin  2
    eigenvalues:
  0.900  0.902  0.903
    eigenvectors:
  0.000  0.000  1.000
  0.500  0.500  0.000
  0.500  0.500  0.000
    occupations:
  0.903  0.000 -0.000
  0.000  0.901 -0.001
 -0.000 -0.001  0.901
atomic mag. moment =     0.000000
atom   45   Tr[ns(na)] (up, down, total) =   2.70513  2.70513  5.41026
   spin  1
    eigenvalues:
  0.900  0.902  0.903
    eigenvectors:
  0.000  0.000  1.000
  0.500  0.500  0.000
  0.500  0.500  0.000
    occupations:
  0.903 -0.000 -0.000
 -0.000  0.901  0.001
 -0.000  0.001  0.901
   spin  2
    eigenvalues:
  0.900  0.902  0.903
    eigenvectors:
  0.000  0.000  1.000
  0.500  0.500  0.000
  0.500  0.500  0.000
    occupations:
  0.903 -0.000 -0.000
 -0.000  0.901  0.001
 -0.000  0.001  0.901
atomic mag. moment =    -0.000000
atom   46   Tr[ns(na)] (up, down, total) =   2.70513  2.70513  5.41026
   spin  1
    eigenvalues:
  0.900  0.902  0.903
    eigenvectors:
  0.000  0.000  1.000
  0.500  0.500  0.000
  0.500  0.500  0.000
    occupations:
  0.903 -0.000 -0.000
 -0.000  0.901  0.001
 -0.000  0.001  0.901
   spin  2
    eigenvalues:
  0.900  0.902  0.903
    eigenvectors:
  0.000  0.000  1.000
  0.500  0.500  0.000
  0.500  0.500  0.000
    occupations:
  0.903 -0.000 -0.000
 -0.000  0.901  0.001
 -0.000  0.001  0.901
atomic mag. moment =    -0.000000
atom   47   Tr[ns(na)] (up, down, total) =   2.70508  2.70508  5.41017
   spin  1
    eigenvalues:
  0.900  0.902  0.903
    eigenvectors:
  0.000  0.000  1.000
  0.500  0.500  0.000
  0.500  0.500  0.000
    occupations:
  0.903  0.000 -0.000
  0.000  0.901 -0.001
 -0.000 -0.001  0.901
   spin  2
    eigenvalues:
  0.900  0.902  0.903
    eigenvectors:
  0.000  0.000  1.000
  0.500  0.500  0.000
  0.500  0.500  0.000
    occupations:
  0.903  0.000 -0.000
  0.000  0.901 -0.001
 -0.000 -0.001  0.901
atomic mag. moment =     0.000000
atom   48   Tr[ns(na)] (up, down, total) =   2.70508  2.70508  5.41017
   spin  1
    eigenvalues:
  0.900  0.902  0.903
    eigenvectors:
  0.000  0.000  1.000
  0.500  0.500  0.000
  0.500  0.500  0.000
    occupations:
  0.903 -0.000  0.000
 -0.000  0.901 -0.001
  0.000 -0.001  0.901
   spin  2
    eigenvalues:
  0.900  0.902  0.903
    eigenvectors:
  0.000  0.000  1.000
  0.500  0.500  0.000
  0.500  0.500  0.000
    occupations:
  0.903 -0.000  0.000
 -0.000  0.901 -0.001
  0.000 -0.001  0.901
atomic mag. moment =     0.000000
N of occupied +U levels = 266.2369808
 --- exit write_ns ---

 ------ SPIN UP ------------

          k = 0.0000 0.0000 0.0000 ( 15465 PWs)   bands (ev):

   -49.3528 -49.3486 -49.3486 -49.3486 -49.3484 -49.3484 -49.3444 -49.3263
   -49.2318 -49.2318 -49.2318 -49.2317 -49.2317 -49.2316 -49.2315 -49.1878
   -23.9115 -23.9115 -23.9114 -23.9085 -23.9055 -23.9052 -23.9052 -23.8779
   -23.6567 -23.6553 -23.6496 -23.6456 -23.6244 -23.6244 -23.6242 -23.6097
   -23.5176 -23.5172 -23.5166 -23.5140 -23.5108 -23.5107 -23.5102 -23.4751
   -23.4279 -23.4279 -23.4277 -23.4190 -23.3978 -23.3968 -23.3919 -23.3806
   -23.2198 -23.2197 -23.2192 -23.2191 -23.2191 -23.2191 -23.2190 -23.1818
   -22.8801 -22.8692 -22.8691 -22.8690 -22.8690 -22.8688 -22.8592 -22.8344
    -7.2181  -6.7940  -6.7908  -6.4817  -6.4809  -6.4803  -6.4803  -6.4794
    -6.4773  -6.4733  -6.4723  -6.4721  -6.0663  -6.0631  -6.0458  -6.0416
    -6.0415  -6.0406  -6.0169  -6.0143  -5.8528  -5.8512  -5.7949  -5.7933
    -5.6630  -5.6626  -5.5877  -5.5874  -5.3065  -5.3064  -5.3058  -5.3049
     4.6057   4.7354   4.7371   4.9326   5.1126   5.1130   5.1138   5.1146
     5.3249   5.3285   5.3290   5.3291   5.4052   5.8065   5.8086   5.8980
     5.9010   5.9015   5.9025   5.9345   5.9386   6.1464   6.1476   6.5040
     6.5077   6.5597   6.5606   6.5608   6.5623   6.6935   6.6951   6.7646
     6.7663   6.8010   6.8026   7.0542   7.0583   7.0587   7.0587   7.0684
     7.0691   7.5889   7.5890   7.5902   7.5906   7.8178   7.8202   7.8295
     7.8300   7.8685   7.8691   8.0547   8.0560   8.0562   8.0563   8.0863
     8.0865   8.2248   8.2251   8.3317   8.3336   8.5039   8.5051   8.5055
     8.5055   8.7846   8.7849   8.7858   8.7863   8.9946   8.9947   9.0478
     9.0491   9.3952   9.3957   9.5224   9.5230   9.5231   9.5243   9.6325
     9.6325   9.6327   9.6332   9.6912   9.8631   9.8632   9.9892   9.9894
     9.9895   9.9899  10.0018  10.0021  10.0506  10.0511  10.3674  10.4167
    10.5412  10.5434  10.7424  10.7685  11.3676  11.3703  11.3704  11.3709
    11.7923  11.7924  11.7941  11.7941  12.4353  13.0127  13.0132  13.5121
    13.5130  13.5751  13.5755  13.6961  13.6961  13.7302  13.7302  13.8776
    13.8780  14.4142  14.4143  14.4146  14.4151  14.4336  14.4337  14.4337
    14.4340  14.5802  14.5803  14.5807  14.5815  14.8969  14.8971  15.8670
    15.8671  15.8677  15.8685  15.8790  16.0424  16.0428  16.0437  16.0908
    16.0922  16.4655  16.4657  16.4659  16.4681  16.8939  16.8940  16.8942
    16.8966  17.2694  17.2700  17.5047  17.5053  17.5505  17.5512  17.5642
    17.5651  17.6107  17.6109  17.6112  17.6134  17.9025  17.9034  17.9164
    17.9694  17.9707  18.2765  18.2779  19.9298  19.9298  19.9313  19.9326
    20.1897  20.6901  20.6908  20.6911  20.6927  21.7580  21.7581  22.1098
    22.1107  22.5529  22.5533  22.7205  22.7209  22.7209  22.7251  22.8047
    22.8076  23.2866  23.2882  23.3168  23.3180  23.9771  23.9780  23.9785
    23.9800  24.5950  24.5969  24.9227  24.9233  24.9243  24.9252  25.0166
    25.3157  25.3166  25.3166  25.3167  25.5588  25.5592  25.5600  25.5623
    25.6005  26.1220  26.1223  26.3718  26.3728  26.3821  26.3826  26.3964
    27.6369  27.6384  27.7730  27.7736  27.7740  27.7751  28.0301  28.0306
    28.0307  28.0323  28.2857  28.2859  28.5721  28.5747  28.6979  28.6985
    28.9000  29.0515  29.0515  29.0653  29.0659  29.0913  29.0918  29.0921
    29.0970  29.2025  29.2027  30.0237  30.0239  30.0241  30.0254  30.5544
    30.5544  30.5557  30.5594  31.5841  31.5856  31.7237  31.7267  31.7384
    31.7399  31.8686  31.8689  31.8705  31.8739  32.0336  32.3758  32.3764
    32.4228  32.4244  32.7572  32.7595  32.9185  32.9188  33.7430  33.7431
    33.7449  33.7459  33.9099  34.1431  34.1435  34.1491  34.1500  34.1506
    34.1521  34.1875  34.1877  34.1877  34.1900  34.6265  34.6280  34.6825
    34.9049  34.9052  34.9062  34.9075  35.1348  35.1368  35.2509  35.2536
    35.9098  35.9946  35.9949  35.9950  36.0007  36.1293  36.1297  36.1354
    36.1377  36.2683  36.2698  36.3681  36.3694  36.8764  36.8791  37.1097
    37.1107  37.2842  37.2849  37.2853  37.2869  37.2991  37.4691  37.4709
    37.4714  37.4718  38.0479  38.0483  38.2066  38.2071  38.2074  38.2078
    38.4476  38.5733  38.5742  38.5900  38.5900  38.5911  38.5928  39.3413
    39.3431  39.8785  39.8810  40.6466  40.6476  40.7077  40.7077  40.7090
    40.7129  40.8789  40.8802  41.0645  41.0648  41.0668  41.0677  41.2043
    41.2054  41.2055  41.2077  41.3133  41.8115  41.8125  41.8127  41.8127
    42.1308  42.1315  42.1400  42.4867  42.4885  42.6057  42.6064  42.6073
    42.6100  42.6737  42.6753  42.7394  42.7422  43.1074  43.1085  43.1283
[...]
    44.6103  44.6553  44.6554  44.6558  44.6606  44.9902  44.9915  45.0047
    45.0071  45.1672  45.1688  45.1689  45.1704  45.2589  45.2604  45.2608
    45.2609  45.3317  45.3325  45.5068  45.5084  45.5586  45.5588  45.7145
    45.7152  45.7599  45.7599  45.7612  45.7624  45.9471  45.9503  46.2442
    46.3762  46.3765  46.3771  46.3798  46.6276  46.6285  46.6954  46.6966
    46.7342  46.7347  46.7351  46.7374  46.8113  46.8114  46.8118  46.8173
    47.3969  47.3993  47.7432  47.7453  48.0490  48.0493  48.1463  48.1486
    48.4701  48.5434  48.5439  48.5440  48.5453  48.8542  48.8547  48.8548
    48.8581  48.9042  48.9052  48.9055  48.9055  49.0996  49.0997  49.3133
    49.3154  49.4160  49.4164  49.4166  49.4169  49.4518  49.4520  49.7064
    49.7067  49.7080  49.7141  49.9792  50.0194  50.1733  50.1734  50.3579
    50.3583  50.3589  50.3600  50.4423  50.6693  50.6699  50.6704  50.6712
    50.8651  50.8676  51.1685  51.1698  51.1700  51.1710  51.3405  51.3406
    51.3797  51.3801  51.6864  51.9748  51.9773  52.4313  52.4315  52.4316
    52.4339  52.6363  52.6374  52.6386  52.6395  52.7780  52.7782  52.8529

[...]

          k =-0.5000-0.5000 0.0000 ( 15388 PWs)   bands (ev):

[...]

 ------ SPIN DOWN ----------

[...]

          k = 0.2500-0.5000-0.9066 ( 15428 PWs)   bands (ev):

[...]

          k =-0.2500 0.2500 0.9066 ( 15408 PWs)   bands (ev):

   -49.2945 -49.2933 -49.2925 -49.2920 -49.2916 -49.2914 -49.2910 -49.2905
   -49.2903 -49.2898 -49.2895 -49.2893 -49.2892 -49.2880 -49.2875 -49.2202
   -23.5863 -23.5848 -23.5832 -23.5825 -23.5824 -23.5816 -23.5814 -23.5811
   -23.5809 -23.5807 -23.5795 -23.5793 -23.5790 -23.5786 -23.5781 -23.5196
   -23.4094 -23.4083 -23.4058 -23.4055 -23.4048 -23.4036 -23.4029 -23.4012
   -23.3999 -23.3979 -23.3970 -23.3967 -23.3966 -23.3960 -23.3948 -23.3411
   -23.3227 -23.3225 -23.3225 -23.3196 -23.3190 -23.3172 -23.3168 -23.3162
   -23.3162 -23.3161 -23.3143 -23.3117 -23.3112 -23.3104 -23.3086 -23.2527
    -6.5860  -6.5855  -6.4356  -6.4352  -6.4351  -6.4340  -6.3570  -6.3555
    -6.2736  -6.2725  -6.2474  -6.2454  -6.2440  -6.2439  -6.1259  -6.1254
    -5.8421  -5.8413  -5.8358  -5.8349  -5.8160  -5.8145  -5.8142  -5.8142
    -5.8072  -5.8069  -5.8068  -5.8058  -5.7986  -5.7975  -5.7915  -5.7910
     5.4422   5.4428   5.4633   5.4653   5.4654   5.4655   5.5309   5.5326
     5.5326   5.5339   5.5360   5.5363   5.6942   5.6943   5.7549   5.7552
     6.1406   6.1441   6.1523   6.1527   6.4340   6.4351   6.4359   6.4373
     6.5138   6.5151   6.5877   6.5892   6.6890   6.6907   6.6988   6.7037
     6.7039   6.7047   7.1528   7.1537   7.1538   7.1540   7.3333   7.3337
     7.3347   7.3348   7.3463   7.3464   7.4601   7.4607   7.5809   7.5810
     7.5813   7.5814   7.6951   7.6960   7.8327   7.8333   7.8472   7.8473
     8.3288   8.3300   8.3301   8.3307   8.4333   8.4345   8.4800   8.4806
     8.5469   8.5478   8.5947   8.5954   8.5958   8.5962   8.5966   8.5985
     8.7045   8.7050   8.8725   8.8726   8.8727   8.8735   9.1322   9.1322
     9.3253   9.3256   9.5540   9.5549   9.6371   9.6373   9.6375   9.6379
     9.8674   9.8677  10.1152  10.1154  10.1155  10.1157  10.3628  10.3628
    12.5116  12.5118  12.5252  12.5253  12.5254  12.5261  12.7012  12.7014
    12.7901  12.7903  12.7908  12.7908  12.7914  12.7916  12.8622  12.8629
    12.9258  12.9270  13.0316  13.0327  13.2275  13.2276  13.2281  13.2292
    13.5312  13.5315  13.5931  13.5932  13.7567  13.7571  13.8040  13.8041
    13.8043  13.8045  14.2504  14.2505  14.3261  14.3263  14.3264  14.3265
    14.5185  14.5185  14.8268  14.8270  14.8270  14.8283  15.2916  15.2925
    16.0364  16.0365  16.0367  16.0377  16.5906  16.5912  16.7015  16.7027
    16.7387  16.7388  16.7389  16.7421  17.3718  17.3719  17.4503  17.4508
    17.4956  17.4961  17.9905  17.9923  18.2176  18.2177  18.2188  18.2207
    18.5448  18.5457  19.1361  19.1361  19.1364  19.1396  19.6121  19.6139
    20.4023  20.4028  21.4493  21.4501  21.4502  21.4512  21.9733  21.9735
    22.6403  22.6418  22.7894  22.7896  22.7903  22.7911  23.7397  23.7410
    24.1150  24.1161  24.1581  24.1591  24.7068  24.7083  24.7785  24.7786
    24.7788  24.7803  25.1755  25.1768  25.1771  25.1801  25.7893  25.7904
    26.0491  26.0510  26.2758  26.2764  26.4822  26.4835  26.4837  26.4849
    27.1318  27.1319  27.2280  27.2291  27.3087  27.3100  27.3101  27.3101
    27.5021  27.5025  27.5031  27.5036  27.6935  27.6939  27.6944  27.6950
    27.8586  27.8598  27.8643  27.8662  27.9056  27.9056  28.3572  28.3589
    28.4254  28.4260  28.4275  28.4279  28.8422  28.8438  29.2876  29.2890
    29.6678  29.6689  30.0968  30.0977  30.0982  30.0982  30.1299  30.1313
    30.2457  30.2465  30.4221  30.4221  30.8235  30.8260  31.2926  31.2935
    31.2957  31.2957  31.5167  31.5174  31.5183  31.5203  32.3997  32.3999
    32.4004  32.4005  32.4264  32.4282  32.7180  32.7206  32.8278  32.8289
    33.4947  33.4964  33.8880  33.8903  34.0474  34.0477  34.0483  34.0499
    34.6866  34.6872  35.0288  35.0292  35.0294  35.0314  35.2185  35.2189
    35.2339  35.2340  35.2343  35.2356  35.4785  35.4790  35.4796  35.4810
    35.4844  35.4862  35.9589  35.9596  36.2090  36.2099  36.3120  36.3130
    36.5615  36.5618  36.5629  36.5632  36.8252  36.8253  36.8765  36.8776
    37.3330  37.3347  37.3955  37.3970  37.6831  37.6832  37.7387  37.7388
    37.7614  37.7620  37.7623  37.7629  37.9144  37.9147  37.9148  37.9152
    37.9956  37.9969  38.5118  38.5125  38.8010  38.8022  38.8024  38.8034
    38.9285  38.9294  39.3534  39.3546  39.3550  39.3554  39.8687  39.8708
    40.2274  40.2283  40.2889  40.2893  40.4459  40.4465  40.4466  40.4489
    40.7387  40.7402  41.4098  41.4099  41.4106  41.4106  41.5563  41.5568
    41.5592  41.5593  41.8633  41.8634  41.8634  41.8642  42.1756  42.1759
    42.2110  42.2111  42.2127  42.2162  42.2387  42.2425  42.3407  42.3417
[...]
    44.7872  44.7892  44.9708  44.9708  44.9717  44.9718  45.2825  45.2842
    45.6113  45.6122  45.6213  45.6217  45.6655  45.6659  45.8509  45.8510
    45.8520  45.8554  46.1624  46.1654  46.2690  46.2697  46.2699  46.2701
    46.4972  46.4988  46.7305  46.7323  46.7706  46.7719  46.8406  46.8409
    46.8409  46.8424  46.9011  46.9012  46.9114  46.9115  46.9122  46.9139
    47.0597  47.0609  47.3948  47.3964  47.4494  47.4504  47.4850  47.4854
    47.5614  47.5620  47.5627  47.5629  47.7189  47.7196  47.8536  47.8546
    47.8548  47.8585  48.0618  48.0619  48.0632  48.0640  48.1232  48.1232
    48.3235  48.3235  48.3241  48.3242  48.4787  48.4808  48.8750  48.8750
    48.9336  48.9345  48.9346  48.9356  49.4592  49.4601  49.7937  49.7944
    49.7953  49.7963  49.9263  49.9270  50.0032  50.0033  50.1195  50.1196
    50.1200  50.1217  50.4437  50.4448  50.5557  50.5561  50.5765  50.5773
    50.7638  50.7641  50.9145  50.9153  50.9154  50.9157  51.2847  51.2850
    51.4062  51.4079  51.4081  51.4083  51.7593  51.7616  51.8336  51.8340
    52.2033  52.2035  52.2039  52.2041  52.3708  52.3729  52.6439  52.6440

     the Fermi energy is    12.9452 ev

!    total energy              =   -3262.63215902 Ry
     Harris-Foulkes estimate   =   -3262.63215943 Ry
     estimated scf accuracy    <       0.00000044 Ry

     The total energy is the sum of the following terms:

     one-electron contribution =    -920.61133137 Ry
     hartree contribution      =     690.17935188 Ry
     xc contribution           =    -539.17436181 Ry
     ewald contribution        =   -2492.99511507 Ry
     Hubbard energy            =      -0.03001236 Ry
     smearing contrib. (-TS)   =      -0.00069029 Ry

     total magnetization       =    -0.00 Bohr mag/cell
     absolute magnetization    =     0.00 Bohr mag/cell

     convergence has been achieved in  11 iterations

     Writing output data file pwscf.save

     General routines

     Parallel routines
     Hubbard U routines

   This run was terminated on:   2:26:55  11Feb2014

   JOB DONE.