     Program PWSCF v.5.0.2 (svn rev. 9656) starts on 11Feb2014 at 13:40:32

     Current dimensions of program PWSCF are:
     Max number of different atomic species (ntypx) = 10
     Max number of k-points (npk) =  40000
     Max angular momentum in pseudopotentials (lmaxx) =  3
     Reading input from alpha_0.15/alpha_0.15.in
Warning: card &IONS ignored
Warning: card / ignored
Warning: card &CELL ignored
Warning: card / ignored

     Subspace diagonalization in iterative solution of the eigenvalue problem:
     a serial algorithm will be used

     bravais-lattice index     =            0
     lattice parameter (alat)  =      18.7083  a.u.
     unit-cell volume          =    3611.2673 (a.u.)^3
     number of atoms/cell      =           48
     number of atomic types    =            3
     number of electrons       =       416.00
     number of Kohn-Sham states=          624
     kinetic-energy cutoff     =      40.0000  Ry
     charge density cutoff     =     500.0000  Ry
     convergence threshold     =      1.0E-06
     mixing beta               =       0.7000
     number of iterations used =            8  plain     mixing
     Exchange-correlation      = SLA  PW   PBE  PBE ( 1 4 3 4 0)
     EXX-fraction              =        0.00

     celldm(1)=  18.708289  celldm(2)=   0.000000  celldm(3)=   0.000000
     celldm(4)=   0.000000  celldm(5)=   0.000000  celldm(6)=   0.000000

     crystal axes: (cart. coord. in units of alat)
               a(1) = (   1.000000   0.000000   0.000000 )
               a(2) = (   0.000000   1.000000   0.000000 )
               a(3) = (   0.000000   0.000000   0.551515 )

     reciprocal axes: (cart. coord. in units 2 pi/alat)
               b(1) = (  1.000000  0.000000  0.000000 )
               b(2) = (  0.000000  1.000000  0.000000 )
               b(3) = (  0.000000  0.000000  1.813187 )

     PseudoPot. # 1 for Mo read from file:
     /home/camp/zhonxu/pseudo/mo_pbe_v1.uspp.F.UPF
     MD5 check sum: 30c4dcd161f5d35cd49bb5239c51a633
     Pseudo is Ultrasoft + core correction, Zval = 14.0
     Generated by new atomic code, or converted to UPF format
     Using radial grid of  889 points,  6 beta functions with:
                l(1) =   0
                l(2) =   0
                l(3) =   1
                l(4) =   1
                l(5) =   2
                l(6) =   2
     Q(r) pseudized with  6 coefficients,  rinner =    1.000   1.000   1.000
                                                       1.000   1.000

     PseudoPot. # 2 for Mo read from file:
     /home/camp/zhonxu/pseudo/mo_pbe_v1.uspp.F.UPF
     MD5 check sum: 30c4dcd161f5d35cd49bb5239c51a633
     Pseudo is Ultrasoft + core correction, Zval = 14.0
     Generated by new atomic code, or converted to UPF format
     Using radial grid of  889 points,  6 beta functions with:
                l(1) =   0
                l(2) =   0
                l(3) =   1
                l(4) =   1
                l(5) =   2
                l(6) =   2
     Q(r) pseudized with  6 coefficients,  rinner =    1.000   1.000   1.000
                                                       1.000   1.000

     PseudoPot. # 3 for O  read from file:
     /home/camp/zhonxu/pseudo/o_pbe_v1.01.uspp.F.UPF
     MD5 check sum: 2bcb18d16ea4b960afae9ec6d52f22d2
     Pseudo is Ultrasoft + core correction, Zval =  6.0
     Generated by new atomic code, or converted to UPF format
     Using radial grid of  737 points,  5 beta functions with:
                l(1) =   0
                l(2) =   0
                l(3) =   1
                l(4) =   1
                l(5) =   2
     Q(r) pseudized with  8 coefficients,  rinner =    0.900   0.900   0.900
                                                       0.900   0.900

     atomic species   valence    mass     pseudopotential
        Mo0           14.00    95.94000     Mo( 1.00)
        Mo1           14.00    95.94000     Mo( 1.00)
        O2             6.00    15.99940     O ( 1.00)

     Starting magnetic structure
     atomic species   magnetization
        Mo0          0.000
        Mo1          0.000
        O2           0.000

     Simplified LDA+U calculation (l_max = 2) with parameters (eV):
     atomic species    L          U    alpha       J0     beta
        Mo0            2     0.0000   0.1500   0.0000   0.0000
        Mo1            2     0.0000   0.0000   0.0000   0.0000
        O2             1     0.0000   0.0000   0.0000   0.0000

      8 Sym. Ops., with inversion, found

   Cartesian axes

     site n.     atom                  positions (alat units)
         1           Mo0 tau(   1) = (   0.0000000   0.0000000   0.0000000  )
         2           Mo1 tau(   2) = (   0.2500000   0.2500000   0.1378788  )
         3           Mo1 tau(   3) = (   0.0000000   0.0000000   0.2757576  )
         4           Mo1 tau(   4) = (   0.2500000   0.2500000   0.4136364  )
         5           Mo1 tau(   5) = (   0.0000000   0.5000000   0.0000000  )
         6           Mo1 tau(   6) = (   0.2500000   0.7500000   0.1378788  )
         7           Mo1 tau(   7) = (   0.0000000   0.5000000   0.2757576  )
         8           Mo1 tau(   8) = (   0.2500000   0.7500000   0.4136364  )
         9           Mo1 tau(   9) = (   0.5000000   0.0000000   0.0000000  )
        10           Mo1 tau(  10) = (   0.7500000   0.2500000   0.1378788  )
        11           Mo1 tau(  11) = (   0.5000000   0.0000000   0.2757576  )
        12           Mo1 tau(  12) = (   0.7500000   0.2500000   0.4136364  )
        13           Mo1 tau(  13) = (   0.5000000   0.5000000   0.0000000  )
        14           Mo1 tau(  14) = (   0.7500000   0.7500000   0.1378788  )
        15           Mo1 tau(  15) = (   0.5000000   0.5000000   0.2757576  )
        16           Mo1 tau(  16) = (   0.7500000   0.7500000   0.4136364  )
        17           O2  tau(  17) = (   0.1400000   0.1400000   0.0000000  )
        18           O2  tau(  18) = (  -0.1400000  -0.1400000   0.0000000  )
        19           O2  tau(  19) = (   0.3900000   0.1100000   0.1378788  )
        20           O2  tau(  20) = (   0.1100000   0.3900000   0.1378788  )
        21           O2  tau(  21) = (   0.1400000   0.1400000   0.2757576  )
        22           O2  tau(  22) = (  -0.1400000  -0.1400000   0.2757576  )
        23           O2  tau(  23) = (   0.3900000   0.1100000   0.4136364  )
        24           O2  tau(  24) = (   0.1100000   0.3900000   0.4136364  )
        25           O2  tau(  25) = (   0.1400000   0.6400000   0.0000000  )
        26           O2  tau(  26) = (  -0.1400000   0.3600000   0.0000000  )
        27           O2  tau(  27) = (   0.3900000   0.6100000   0.1378788  )
        28           O2  tau(  28) = (   0.1100000   0.8900000   0.1378788  )
        29           O2  tau(  29) = (   0.1400000   0.6400000   0.2757576  )
        30           O2  tau(  30) = (  -0.1400000   0.3600000   0.2757576  )
        31           O2  tau(  31) = (   0.3900000   0.6100000   0.4136364  )
        32           O2  tau(  32) = (   0.1100000   0.8900000   0.4136364  )
        33           O2  tau(  33) = (   0.6400000   0.1400000   0.0000000  )
        34           O2  tau(  34) = (   0.3600000  -0.1400000   0.0000000  )
        35           O2  tau(  35) = (   0.8900000   0.1100000   0.1378788  )
        36           O2  tau(  36) = (   0.6100000   0.3900000   0.1378788  )
        37           O2  tau(  37) = (   0.6400000   0.1400000   0.2757576  )
        38           O2  tau(  38) = (   0.3600000  -0.1400000   0.2757576  )
        39           O2  tau(  39) = (   0.8900000   0.1100000   0.4136364  )
        40           O2  tau(  40) = (   0.6100000   0.3900000   0.4136364  )
        41           O2  tau(  41) = (   0.6400000   0.6400000   0.0000000  )
        42           O2  tau(  42) = (   0.3600000   0.3600000   0.0000000  )
        43           O2  tau(  43) = (   0.8900000   0.6100000   0.1378788  )
        44           O2  tau(  44) = (   0.6100000   0.8900000   0.1378788  )
        45           O2  tau(  45) = (   0.6400000   0.6400000   0.2757576  )
        46           O2  tau(  46) = (   0.3600000   0.3600000   0.2757576  )
        47           O2  tau(  47) = (   0.8900000   0.6100000   0.4136364  )
        48           O2  tau(  48) = (   0.6100000   0.8900000   0.4136364  )

     number of k points=    42  Methfessel-Paxton smearing, width (Ry)=  0.0100
                       cart. coord. in units 2pi/alat
        k(    1) = (   0.0000000   0.0000000   0.0000000), wk =   0.0156250
        k(    2) = (   0.0000000   0.0000000   0.4532967), wk =   0.0312500
        k(    3) = (   0.0000000   0.0000000  -0.9065934), wk =   0.0156250
        k(    4) = (   0.0000000   0.2500000   0.0000000), wk =   0.0625000
        k(    5) = (   0.0000000   0.2500000   0.4532967), wk =   0.1250000
        k(    6) = (   0.0000000   0.2500000  -0.9065934), wk =   0.0625000
        k(    7) = (   0.0000000  -0.5000000   0.0000000), wk =   0.0312500
        k(    8) = (   0.0000000  -0.5000000   0.4532967), wk =   0.0625000
        k(    9) = (   0.0000000  -0.5000000  -0.9065934), wk =   0.0312500
        k(   10) = (   0.2500000   0.2500000   0.0000000), wk =   0.0312500
        k(   11) = (   0.2500000   0.2500000   0.4532967), wk =   0.0625000
        k(   12) = (   0.2500000   0.2500000  -0.9065934), wk =   0.0312500
        k(   13) = (   0.2500000  -0.5000000   0.0000000), wk =   0.0625000
        k(   14) = (   0.2500000  -0.5000000   0.4532967), wk =   0.1250000
        k(   15) = (   0.2500000  -0.5000000  -0.9065934), wk =   0.0625000
        k(   16) = (  -0.5000000  -0.5000000   0.0000000), wk =   0.0156250
        k(   17) = (  -0.5000000  -0.5000000   0.4532967), wk =   0.0312500
        k(   18) = (  -0.5000000  -0.5000000  -0.9065934), wk =   0.0156250
        k(   19) = (  -0.2500000   0.2500000   0.0000000), wk =   0.0312500
        k(   20) = (  -0.2500000   0.2500000  -0.4532967), wk =   0.0625000
        k(   21) = (  -0.2500000   0.2500000   0.9065934), wk =   0.0312500
        k(   22) = (   0.0000000   0.0000000   0.0000000), wk =   0.0156250
        k(   23) = (   0.0000000   0.0000000   0.4532967), wk =   0.0312500
        k(   24) = (   0.0000000   0.0000000  -0.9065934), wk =   0.0156250
        k(   25) = (   0.0000000   0.2500000   0.0000000), wk =   0.0625000
        k(   26) = (   0.0000000   0.2500000   0.4532967), wk =   0.1250000
        k(   27) = (   0.0000000   0.2500000  -0.9065934), wk =   0.0625000
        k(   28) = (   0.0000000  -0.5000000   0.0000000), wk =   0.0312500
        k(   29) = (   0.0000000  -0.5000000   0.4532967), wk =   0.0625000
        k(   30) = (   0.0000000  -0.5000000  -0.9065934), wk =   0.0312500
        k(   31) = (   0.2500000   0.2500000   0.0000000), wk =   0.0312500
        k(   32) = (   0.2500000   0.2500000   0.4532967), wk =   0.0625000
        k(   33) = (   0.2500000   0.2500000  -0.9065934), wk =   0.0312500
        k(   34) = (   0.2500000  -0.5000000   0.0000000), wk =   0.0625000
        k(   35) = (   0.2500000  -0.5000000   0.4532967), wk =   0.1250000
        k(   36) = (   0.2500000  -0.5000000  -0.9065934), wk =   0.0625000
[...]
    eigenvectors:
  0.000  0.000  1.000
  0.500  0.500  0.000
  0.500  0.500  0.000
    occupations:
  0.903 -0.000 -0.000
 -0.000  0.901  0.001
 -0.000  0.001  0.901
   spin  2
    eigenvalues:
  0.900  0.902  0.903
    eigenvectors:
  0.000  0.000  1.000
  0.500  0.500  0.000
  0.500  0.500  0.000
    occupations:
  0.903 -0.000 -0.000
 -0.000  0.901  0.001
 -0.000  0.001  0.901
atomic mag. moment =     0.000000
atom   42   Tr[ns(na)] (up, down, total) =   2.70510  2.70510  5.41021
   spin  1
    eigenvalues:
  0.900  0.902  0.903
    eigenvectors:
  0.000  0.000  1.000
  0.500  0.500  0.000
  0.500  0.500  0.000
    occupations:
  0.903 -0.000 -0.000
 -0.000  0.901  0.001
 -0.000  0.001  0.901
   spin  2
    eigenvalues:
  0.900  0.902  0.903
    eigenvectors:
  0.000  0.000  1.000
  0.500  0.500  0.000
  0.500  0.500  0.000
    occupations:
  0.903 -0.000 -0.000
 -0.000  0.901  0.001
 -0.000  0.001  0.901
atomic mag. moment =     0.000000
atom   43   Tr[ns(na)] (up, down, total) =   2.70509  2.70509  5.41018
   spin  1
    eigenvalues:
  0.900  0.902  0.903
    eigenvectors:
  0.000  0.000  1.000
  0.500  0.500  0.000
  0.500  0.500  0.000
    occupations:
  0.903 -0.000 -0.000
 -0.000  0.901 -0.001
 -0.000 -0.001  0.901
   spin  2
    eigenvalues:
  0.900  0.902  0.903
    eigenvectors:
  0.000  0.000  1.000
  0.500  0.500  0.000
  0.500  0.500  0.000
    occupations:
  0.903 -0.000 -0.000
 -0.000  0.901 -0.001
 -0.000 -0.001  0.901
atomic mag. moment =     0.000000
atom   44   Tr[ns(na)] (up, down, total) =   2.70509  2.70509  5.41018
   spin  1
    eigenvalues:
  0.900  0.902  0.903
    eigenvectors:
  0.000  0.000  1.000
  0.500  0.500  0.000
  0.500  0.500  0.000
    occupations:
  0.903 -0.000 -0.000
 -0.000  0.901 -0.001
 -0.000 -0.001  0.901
   spin  2
    eigenvalues:
  0.900  0.902  0.903
    eigenvectors:
  0.000  0.000  1.000
  0.500  0.500  0.000
  0.500  0.500  0.000
    occupations:
  0.903 -0.000 -0.000
 -0.000  0.901 -0.001
 -0.000 -0.001  0.901
atomic mag. moment =     0.000000
atom   45   Tr[ns(na)] (up, down, total) =   2.70512  2.70512  5.41023
   spin  1
    eigenvalues:
  0.900  0.902  0.903
    eigenvectors:
  0.000  0.000  1.000
  0.500  0.500  0.000
  0.500  0.500  0.000
    occupations:
  0.903 -0.000 -0.000
 -0.000  0.901  0.001
 -0.000  0.001  0.901
   spin  2
    eigenvalues:
  0.900  0.902  0.903
    eigenvectors:
  0.000  0.000  1.000
  0.500  0.500  0.000
  0.500  0.500  0.000
    occupations:
  0.903 -0.000 -0.000
 -0.000  0.901  0.001
 -0.000  0.001  0.901
atomic mag. moment =    -0.000000
atom   46   Tr[ns(na)] (up, down, total) =   2.70512  2.70512  5.41023
   spin  1
    eigenvalues:
  0.900  0.902  0.903
    eigenvectors:
  0.000  0.000  1.000
  0.500  0.500  0.000
  0.500  0.500  0.000
    occupations:
  0.903 -0.000 -0.000
 -0.000  0.901  0.001
 -0.000  0.001  0.901
   spin  2
    eigenvalues:
  0.900  0.902  0.903
    eigenvectors:
  0.000  0.000  1.000
  0.500  0.500  0.000
  0.500  0.500  0.000
    occupations:
  0.903 -0.000 -0.000
 -0.000  0.901  0.001
 -0.000  0.001  0.901
atomic mag. moment =    -0.000000
atom   47   Tr[ns(na)] (up, down, total) =   2.70509  2.70509  5.41018
   spin  1
    eigenvalues:
  0.900  0.902  0.903
    eigenvectors:
  0.000  0.000  1.000
  0.500  0.500  0.000
  0.500  0.500  0.000
    occupations:
  0.903  0.000  0.000
  0.000  0.901 -0.001
  0.000 -0.001  0.901
   spin  2
    eigenvalues:
  0.900  0.902  0.903
    eigenvectors:
  0.000  0.000  1.000
  0.500  0.500  0.000
  0.500  0.500  0.000
    occupations:
  0.903  0.000  0.000
  0.000  0.901 -0.001
  0.000 -0.001  0.901
atomic mag. moment =     0.000000
atom   48   Tr[ns(na)] (up, down, total) =   2.70509  2.70509  5.41018
   spin  1
    eigenvalues:
  0.900  0.902  0.903
    eigenvectors:
  0.000  0.000  1.000
  0.500  0.500  0.000
  0.500  0.500  0.000
    occupations:
  0.903  0.000  0.000
  0.000  0.901 -0.001
  0.000 -0.001  0.901
   spin  2
    eigenvalues:
  0.900  0.902  0.903
    eigenvectors:
  0.000  0.000  1.000
  0.500  0.500  0.000
  0.500  0.500  0.000
    occupations:
  0.903  0.000  0.000
  0.000  0.901 -0.001
  0.000 -0.001  0.901
atomic mag. moment =     0.000000
N of occupied +U levels = 266.2210725
 --- exit write_ns ---

 ------ SPIN UP ------------

          k = 0.0000 0.0000 0.0000 ( 15465 PWs)   bands (ev):

   -49.4544 -49.3468 -49.3430 -49.3427 -49.3427 -49.3425 -49.3421 -49.3383
   -49.2562 -49.2262 -49.2262 -49.2259 -49.2259 -49.2259 -49.2253 -49.2253
   -23.9751 -23.9063 -23.9057 -23.9051 -23.9025 -23.8995 -23.8991 -23.8988
   -23.7323 -23.6571 -23.6481 -23.6466 -23.6325 -23.6190 -23.6186 -23.6181
   -23.5442 -23.5121 -23.5111 -23.5109 -23.5078 -23.5060 -23.5049 -23.5044
   -23.4950 -23.4224 -23.4222 -23.4215 -23.4035 -23.3945 -23.3899 -23.3895
   -23.2582 -23.2143 -23.2137 -23.2137 -23.2136 -23.2136 -23.2131 -23.2127
   -22.9282 -22.8733 -22.8632 -22.8631 -22.8630 -22.8630 -22.8626 -22.8522
    -7.2150  -6.7877  -6.7812  -6.4793  -6.4767  -6.4766  -6.4752  -6.4725
    -6.4669  -6.4666  -6.4608  -6.4569  -6.0589  -6.0527  -6.0390  -6.0367
    -6.0363  -6.0279  -6.0100  -6.0034  -5.8482  -5.8444  -5.7902  -5.7863
    -5.6600  -5.6592  -5.5847  -5.5839  -5.3049  -5.3029  -5.3012  -5.3009
     4.6152   4.7411   4.7447   4.9380   5.1203   5.1218   5.1233   5.1242
     5.3348   5.3350   5.3357   5.3434   5.4187   5.8118   5.8164   5.9043
     5.9066   5.9078   5.9138   5.9418   5.9506   6.1509   6.1535   6.5112
     6.5193   6.5625   6.5660   6.5663   6.5683   6.6978   6.7016   6.7692
     6.7729   6.8056   6.8091   7.0625   7.0626   7.0630   7.0719   7.0719
     7.0743   7.5900   7.5910   7.5937   7.5940   7.8248   7.8299   7.8359
     7.8370   7.8748   7.8760   8.0608   8.0614   8.0618   8.0642   8.0888
     8.0891   8.2276   8.2281   8.3373   8.3416   8.5109   8.5109   8.5115
     8.5143   8.7857   8.7872   8.7892   8.7898   8.9976   8.9979   9.0530
     9.0559   9.3990   9.4000   9.5252   9.5285   9.5286   9.5295   9.6354
     9.6365   9.6373   9.6374   9.6947   9.8668   9.8670   9.9927   9.9935
     9.9941   9.9946  10.0058  10.0063  10.0539  10.0551  10.3712  10.4252
    10.5489  10.5539  10.7512  10.7732  11.3745  11.3758  11.3763  11.3816
    11.7995  11.7997  11.8031  11.8033  12.4428  13.0176  13.0191  13.5175
    13.5197  13.5802  13.5813  13.7014  13.7016  13.7355  13.7356  13.8827
    13.8839  14.4173  14.4186  14.4191  14.4199  14.4379  14.4390  14.4391
    14.4392  14.5833  14.5849  14.5861  14.5864  14.9015  14.9019  15.8696
    15.8715  15.8730  15.8731  15.8832  16.0449  16.0458  16.0477  16.0936
    16.0961  16.4656  16.4704  16.4706  16.4715  16.8934  16.8988  16.8994
    16.9000  17.2723  17.2737  17.5060  17.5074  17.5524  17.5548  17.5673
    17.5685  17.6106  17.6153  17.6157  17.6167  17.9057  17.9075  17.9179
    17.9723  17.9745  18.2779  18.2807  19.9290  19.9318  19.9353  19.9355
    20.1921  20.6899  20.6934  20.6941  20.6957  21.7603  21.7605  22.1096
    22.1115  22.5539  22.5547  22.7137  22.7242  22.7244  22.7254  22.8031
    22.8078  23.2864  23.2897  23.3174  23.3196  23.9750  23.9783  23.9794
    23.9813  24.5939  24.5978  24.9216  24.9235  24.9258  24.9270  25.0195
    25.3173  25.3175  25.3175  25.3194  25.5551  25.5611  25.5630  25.5639
    25.6003  26.1235  26.1240  26.3717  26.3736  26.3843  26.3854  26.3970
    27.6365  27.6397  27.7709  27.7736  27.7741  27.7756  28.0283  28.0320
    28.0321  28.0333  28.2863  28.2866  28.5709  28.5766  28.6972  28.6985
    28.8995  29.0523  29.0524  29.0606  29.0652  29.0878  29.0947  29.0951
    29.0961  29.2024  29.2029  30.0223  30.0253  30.0258  30.0261  30.5476
    30.5556  30.5585  30.5587  31.5816  31.5846  31.7207  31.7278  31.7373
    31.7405  31.8624  31.8689  31.8725  31.8733  32.0344  32.3745  32.3757
    32.4223  32.4258  32.7556  32.7604  32.9175  32.9183  33.7407  33.7430
    33.7469  33.7472  33.9085  34.1439  34.1444  34.1464  34.1500  34.1509
    34.1529  34.1852  34.1900  34.1903  34.1905  34.6251  34.6281  34.6827
    34.9023  34.9051  34.9072  34.9079  35.1331  35.1372  35.2483  35.2541
    35.9103  35.9866  35.9981  35.9986  35.9990  36.1304  36.1311  36.1337
    36.1387  36.2680  36.2712  36.3673  36.3700  36.8749  36.8804  37.1094
    37.1117  37.2821  37.2860  37.2865  37.2882  37.2985  37.4676  37.4685
    37.4699  37.4736  38.0480  38.0488  38.2061  38.2068  38.2075  38.2086
    38.4470  38.5722  38.5740  38.5879  38.5912  38.5936  38.5938  39.3396
    39.3434  39.8762  39.8816  40.6464  40.6485  40.7006  40.7088  40.7118
    40.7121  40.8790  40.8815  41.0615  41.0635  41.0679  41.0686  41.2011
    41.2058  41.2058  41.2086  41.3119  41.8122  41.8122  41.8126  41.8147
    42.1299  42.1313  42.1389  42.4859  42.4896  42.6001  42.6067  42.6086
    42.6105  42.6713  42.6747  42.7373  42.7425  43.1062  43.1085  43.1281
[...]
    44.6079  44.6479  44.6585  44.6593  44.6599  44.9880  44.9910  45.0030
    45.0080  45.1647  45.1680  45.1681  45.1715  45.2579  45.2585  45.2592
    45.2625  45.3325  45.3343  45.5066  45.5098  45.5593  45.5598  45.7127
    45.7140  45.7592  45.7592  45.7611  45.7637  45.9446  45.9514  46.2433
    46.3722  46.3782  46.3792  46.3800  46.6261  46.6278  46.6938  46.6969
    46.7302  46.7353  46.7361  46.7370  46.8031  46.8147  46.8157  46.8161
    47.3945  47.3994  47.7420  47.7465  48.0491  48.0497  48.1448  48.1495
    48.4690  48.5419  48.5449  48.5451  48.5461  48.8476  48.8548  48.8551
    48.8561  48.9035  48.9037  48.9044  48.9065  49.0984  49.0985  49.3106
    49.3150  49.4157  49.4160  49.4168  49.4179  49.4524  49.4529  49.6952
    49.7081  49.7114  49.7117  49.9792  50.0181  50.1730  50.1731  50.3558
    50.3582  50.3593  50.3604  50.4446  50.6683  50.6700  50.6713  50.6726
    50.8630  50.8681  51.1676  51.1700  51.1704  51.1735  51.3403  51.3405
    51.3792  51.3801  51.6881  51.9720  51.9773  52.4278  52.4329  52.4330
    52.4336  52.6337  52.6356  52.6382  52.6406  52.7775  52.7779  52.8521

[...]

          k =-0.5000-0.5000 0.0000 ( 15388 PWs)   bands (ev):

[...]

 ------ SPIN DOWN ----------

[...]

          k = 0.2500-0.5000-0.9066 ( 15428 PWs)   bands (ev):

[...]

          k =-0.2500 0.2500 0.9066 ( 15408 PWs)   bands (ev):

   -49.4358 -49.2873 -49.2872 -49.2857 -49.2856 -49.2856 -49.2855 -49.2849
   -49.2848 -49.2838 -49.2838 -49.2832 -49.2831 -49.2821 -49.2819 -49.2781
   -23.7131 -23.5864 -23.5835 -23.5788 -23.5782 -23.5766 -23.5765 -23.5761
   -23.5757 -23.5755 -23.5749 -23.5747 -23.5747 -23.5722 -23.5720 -23.5692
   -23.5268 -23.4489 -23.4022 -23.4022 -23.3994 -23.3986 -23.3972 -23.3969
   -23.3955 -23.3951 -23.3921 -23.3920 -23.3915 -23.3906 -23.3904 -23.3880
   -23.3865 -23.3178 -23.3171 -23.3171 -23.3167 -23.3111 -23.3110 -23.3102
   -23.3100 -23.3099 -23.3098 -23.3080 -23.3062 -23.3055 -23.3053 -23.3048
    -6.5814  -6.5803  -6.4327  -6.4299  -6.4296  -6.4295  -6.3481  -6.3453
    -6.2698  -6.2677  -6.2387  -6.2384  -6.2359  -6.2315  -6.1178  -6.1162
    -5.8384  -5.8366  -5.8291  -5.8282  -5.8087  -5.8086  -5.8083  -5.8053
    -5.8046  -5.8017  -5.8016  -5.8015  -5.7942  -5.7932  -5.7846  -5.7827
     5.4492   5.4498   5.4707   5.4708   5.4710   5.4759   5.5350   5.5373
     5.5383   5.5384   5.5407   5.5454   5.6998   5.7001   5.7607   5.7614
     6.1467   6.1521   6.1605   6.1631   6.4392   6.4424   6.4437   6.4463
     6.5183   6.5212   6.5953   6.5986   6.6942   6.6980   6.7066   6.7087
     6.7093   6.7194   7.1589   7.1595   7.1595   7.1617   7.3393   7.3395
     7.3413   7.3426   7.3516   7.3518   7.4638   7.4652   7.5851   7.5853
     7.5859   7.5861   7.7017   7.7037   7.8373   7.8385   7.8513   7.8515
     8.3332   8.3345   8.3347   8.3372   8.4408   8.4435   8.4842   8.4853
     8.5513   8.5531   8.5975   8.5995   8.6006   8.6014   8.6022   8.6064
     8.7073   8.7085   8.8761   8.8780   8.8781   8.8786   9.1368   9.1369
     9.3301   9.3308   9.5577   9.5596   9.6410   9.6422   9.6425   9.6428
     9.8713   9.8720  10.1195  10.1196  10.1197  10.1204  10.3671  10.3672
    12.5191  12.5192  12.5311  12.5325  12.5330  12.5331  12.7069  12.7071
    12.7960  12.7961  12.7961  12.7967  12.7977  12.7982  12.8680  12.8690
    12.9313  12.9336  13.0377  13.0398  13.2314  13.2341  13.2347  13.2347
    13.5355  13.5360  13.5977  13.5981  13.7626  13.7632  13.8089  13.8095
    13.8097  13.8098  14.2555  14.2560  14.3304  14.3307  14.3312  14.3315
    14.5233  14.5233  14.8290  14.8320  14.8323  14.8324  15.2950  15.2970
    16.0390  16.0415  16.0421  16.0421  16.5933  16.5949  16.7033  16.7071
    16.7378  16.7444  16.7446  16.7447  17.3739  17.3743  17.4544  17.4554
    17.4997  17.5007  17.9917  17.9960  18.2165  18.2205  18.2233  18.2233
    18.5466  18.5487  19.1339  19.1408  19.1415  19.1417  19.6131  19.6169
    20.4036  20.4048  21.4502  21.4525  21.4528  21.4545  21.9748  21.9751
    22.6417  22.6450  22.7898  22.7917  22.7934  22.7937  23.7380  23.7409
    24.1165  24.1187  24.1590  24.1611  24.7056  24.7095  24.7790  24.7819
    24.7824  24.7826  25.1702  25.1767  25.1773  25.1802  25.7906  25.7929
    26.0477  26.0517  26.2751  26.2764  26.4801  26.4827  26.4831  26.4861
    27.1313  27.1313  27.2290  27.2316  27.3091  27.3094  27.3094  27.3122
    27.5021  27.5031  27.5044  27.5053  27.6937  27.6950  27.6961  27.6971
    27.8585  27.8620  27.8650  27.8686  27.9065  27.9066  28.3539  28.3578
    28.4237  28.4245  28.4280  28.4292  28.8416  28.8452  29.2870  29.2902
    29.6676  29.6699  30.0966  30.0972  30.0980  30.0998  30.1261  30.1292
    30.2474  30.2492  30.4207  30.4209  30.8219  30.8274  31.2901  31.2902
    31.2950  31.2971  31.5121  31.5164  31.5184  31.5199  32.4001  32.4002
    32.4013  32.4017  32.4266  32.4304  32.7142  32.7198  32.8240  32.8266
    33.4954  33.4991  33.8850  33.8904  34.0438  34.0472  34.0486  34.0493
    34.6881  34.6893  35.0257  35.0300  35.0304  35.0314  35.2195  35.2205
    35.2324  35.2352  35.2360  35.2361  35.4762  35.4790  35.4791  35.4796
    35.4817  35.4838  35.9573  35.9588  36.2079  36.2101  36.3111  36.3133
    36.5604  36.5612  36.5635  36.5641  36.8214  36.8216  36.8759  36.8783
    37.3308  37.3345  37.3950  37.3983  37.6837  37.6840  37.7392  37.7395
    37.7603  37.7619  37.7623  37.7636  37.9139  37.9148  37.9148  37.9156
    37.9964  37.9991  38.5123  38.5138  38.7979  38.7999  38.8005  38.8032
    38.9279  38.9297  39.3515  39.3525  39.3534  39.3558  39.8649  39.8697
    40.2263  40.2284  40.2904  40.2913  40.4405  40.4453  40.4458  40.4471
    40.7363  40.7398  41.4099  41.4099  41.4114  41.4115  41.5553  41.5570
    41.5596  41.5606  41.8653  41.8669  41.8669  41.8673  42.1769  42.1773
    42.1992  42.2109  42.2148  42.2149  42.2360  42.2400  42.3407  42.3430
[...]
    44.7849  44.7893  44.9696  44.9699  44.9719  44.9720  45.2803  45.2842
    45.6110  45.6133  45.6216  45.6225  45.6670  45.6681  45.8427  45.8506
    45.8529  45.8531  46.1564  46.1628  46.2697  46.2702  46.2706  46.2723
    46.4960  46.4994  46.7266  46.7314  46.7696  46.7728  46.8396  46.8428
    46.8429  46.8436  46.8998  46.9003  46.9078  46.9103  46.9117  46.9122
    47.0581  47.0606  47.3936  47.3975  47.4474  47.4492  47.4875  47.4885
    47.5622  47.5628  47.5645  47.5657  47.7211  47.7227  47.8466  47.8545
    47.8548  47.8569  48.0578  48.0599  48.0628  48.0631  48.1228  48.1231
    48.3227  48.3231  48.3243  48.3244  48.4764  48.4806  48.8766  48.8766
    48.9322  48.9343  48.9345  48.9363  49.4582  49.4601  49.7915  49.7935
    49.7956  49.7972  49.9255  49.9272  50.0026  50.0030  50.1173  50.1211
    50.1219  50.1222  50.4430  50.4456  50.5557  50.5568  50.5767  50.5785
    50.7632  50.7638  50.9136  50.9143  50.9145  50.9162  51.2857  51.2863
    51.4060  51.4066  51.4070  51.4106  51.7582  51.7631  51.8322  51.8329
    52.2030  52.2034  52.2043  52.2047  52.3675  52.3720  52.6441  52.6444

     the Fermi energy is    12.9512 ev

!    total energy              =   -3262.53819654 Ry
     Harris-Foulkes estimate   =   -3262.53819741 Ry
     estimated scf accuracy    <       0.00000092 Ry

     The total energy is the sum of the following terms:

     one-electron contribution =    -920.57936825 Ry
     hartree contribution      =     690.14919142 Ry
     xc contribution           =    -539.17604330 Ry
     ewald contribution        =   -2492.99511507 Ry
     Hubbard energy            =       0.06381809 Ry
     smearing contrib. (-TS)   =      -0.00067943 Ry

     total magnetization       =    -0.00 Bohr mag/cell
     absolute magnetization    =     0.00 Bohr mag/cell

     convergence has been achieved in  16 iterations

     Writing output data file pwscf.save

     General routines

     Parallel routines
     Hubbard U routines

   This run was terminated on:  21:48:19  11Feb2014

   JOB DONE.