     Program PWSCF v.5.0.2 (svn rev. 9656) starts on 28Mar2014 at  6:31: 9

     Current dimensions of program PWSCF are:
     Max number of different atomic species (ntypx) = 10
     Max number of k-points (npk) =  40000
     Max angular momentum in pseudopotentials (lmaxx) =  3
     Reading input from pwscf.in
Warning: card &CELL ignored
Warning: card / ignored

     Subspace diagonalization in iterative solution of the eigenvalue problem:
     a serial algorithm will be used

     bravais-lattice index     =            0
     lattice parameter (alat)  =      11.7541  a.u.
     unit-cell volume          =    9749.5977 (a.u.)^3
     number of atoms/cell      =           49
     number of atomic types    =            2
     number of electrons       =       438.00
     number of Kohn-Sham states=          657
     kinetic-energy cutoff     =      40.0000  Ry
     charge density cutoff     =     500.0000  Ry
     convergence threshold     =      1.0E-06
     mixing beta               =       0.3000
     number of iterations used =            8  plain     mixing
     Exchange-correlation      = SLA  PW   PBE  PBE ( 1 4 3 4 0)
     EXX-fraction              =        0.00
     nstep                     =           50

     celldm(1)=  11.754097  celldm(2)=   0.000000  celldm(3)=   0.000000
     celldm(4)=   0.000000  celldm(5)=   0.000000  celldm(6)=   0.000000

     crystal axes: (cart. coord. in units of alat)
               a(1) = (   1.000000   0.000000   0.000000 )
               a(2) = (   0.000000   1.034513   0.000000 )
               a(3) = (   0.000000   0.000000   5.803406 )

     reciprocal axes: (cart. coord. in units 2 pi/alat)
               b(1) = (  1.000000  0.000000  0.000000 )
               b(2) = (  0.000000  0.966638  0.000000 )
               b(3) = (  0.000000  0.000000  0.172313 )

     PseudoPot. # 1 for O  read from file:
     /home/camp/zhonxu/pseudo/o_pbe_v1.01.uspp.F.UPF
     MD5 check sum: 2bcb18d16ea4b960afae9ec6d52f22d2
     Pseudo is Ultrasoft + core correction, Zval =  6.0
     Generated by new atomic code, or converted to UPF format
     Using radial grid of  737 points,  5 beta functions with:
                l(1) =   0
                l(2) =   0
                l(3) =   1
                l(4) =   1
                l(5) =   2
     Q(r) pseudized with  8 coefficients,  rinner =    0.900   0.900   0.900
                                                       0.900   0.900

     PseudoPot. # 2 for Rh read from file:
     /home/camp/zhonxu/pseudo/rh_pbe_v1.uspp.F.UPF
     MD5 check sum: 37b626987ad0dd8ec6bf4cc9ef289918
     Pseudo is Ultrasoft + core correction, Zval = 15.0
     Generated by new atomic code, or converted to UPF format
     Using radial grid of  969 points,  7 beta functions with:
                l(1) =   0
                l(2) =   0
                l(3) =   1
                l(4) =   1
                l(5) =   2
                l(6) =   2
                l(7) =   2
     Q(r) pseudized with  6 coefficients,  rinner =    1.050   1.050   1.050
                                                       1.050   1.050

     atomic species   valence    mass     pseudopotential
        O0             6.00    15.99940     O ( 1.00)
        Rh1           15.00   102.90550     Rh( 1.00)

      4 Sym. Ops. (no inversion) found

   Cartesian axes

     site n.     atom                  positions (alat units)
         1           O0  tau(   1) = (   0.0000000   0.5172566   1.9292842  )
         2           Rh1 tau(   2) = (   0.2500000   0.5172566   2.1258455  )
         3           Rh1 tau(   3) = (   0.0000000   0.0000000   2.1258455  )
         4           O0  tau(   4) = (   0.2500000   0.8379556   2.1258455  )
         5           O0  tau(   5) = (   0.2500000   0.1965575   2.1258455  )
         6           O0  tau(   6) = (   0.0000000   0.5172566   2.3223488  )
         7           O0  tau(   7) = (   0.0000000   0.0000000   2.4465417  )
         8           Rh1 tau(   8) = (   0.2500000   0.0000000   2.6431030  )
         9           Rh1 tau(   9) = (   0.0000000   0.5172566   2.6431030  )
        10           O0  tau(  10) = (   0.2500000   0.7138141   2.6431030  )
        11           O0  tau(  11) = (   0.2500000   0.3206991   2.6431030  )
        12           O0  tau(  12) = (   0.0000000   0.0000000   2.8396064  )
        13           O0  tau(  13) = (   0.0000000   0.5172566   2.9573575  )
        14           Rh1 tau(  14) = (   0.2500000   0.5172566   3.1562402  )
        15           Rh1 tau(  15) = (   0.0000000   0.0000000   3.1604767  )
        16           O0  tau(  16) = (   0.2500000   0.8345107   3.1596642  )
        17           O0  tau(  17) = (   0.2500000   0.2000024   3.1596642  )
        18           O0  tau(  18) = (   0.0000000   0.5172566   3.3551809  )
        19           O0  tau(  19) = (   0.0000000   0.0000000   3.4777488  )
        20           Rh1 tau(  20) = (   0.2500000   0.0000000   3.6811582  )
        21           Rh1 tau(  21) = (   0.0000000   0.5172566   3.6632837  )
        22           O0  tau(  22) = (   0.2500000   0.7138554   3.6912561  )
        23           O0  tau(  23) = (   0.2500000   0.3206577   3.6912561  )
        24           O0  tau(  24) = (   0.0000000   0.0000000   3.8739473  )
        25           O0  tau(  25) = (   0.5000000   0.5172566   1.9292842  )
        26           Rh1 tau(  26) = (   0.7500000   0.5172566   2.1258455  )
        27           Rh1 tau(  27) = (   0.5000000   0.0000000   2.1258455  )
        28           O0  tau(  28) = (   0.7500000   0.8379556   2.1258455  )
        29           O0  tau(  29) = (   0.7500000   0.1965575   2.1258455  )
        30           O0  tau(  30) = (   0.5000000   0.5172566   2.3223488  )
        31           O0  tau(  31) = (   0.5000000   0.0000000   2.4465417  )
        32           Rh1 tau(  32) = (   0.7500000   0.0000000   2.6431030  )
        33           Rh1 tau(  33) = (   0.5000000   0.5172566   2.6431030  )
        34           O0  tau(  34) = (   0.7500000   0.7138141   2.6431030  )
        35           O0  tau(  35) = (   0.7500000   0.3206991   2.6431030  )
        36           O0  tau(  36) = (   0.5000000   0.0000000   2.8396064  )
        37           O0  tau(  37) = (   0.5000000   0.5172566   2.9573575  )
        38           Rh1 tau(  38) = (   0.7500000   0.5172566   3.1562402  )
        39           Rh1 tau(  39) = (   0.5000000   0.0000000   3.1604767  )
        40           O0  tau(  40) = (   0.7500000   0.8345107   3.1596642  )
        41           O0  tau(  41) = (   0.7500000   0.2000024   3.1596642  )
        42           O0  tau(  42) = (   0.5000000   0.5172566   3.3551809  )
        43           O0  tau(  43) = (   0.5000000   0.0000000   3.4777488  )
        44           Rh1 tau(  44) = (   0.7500000   0.0000000   3.6811582  )
        45           Rh1 tau(  45) = (   0.5000000   0.5172566   3.6632837  )
        46           O0  tau(  46) = (   0.7500000   0.7138554   3.6912561  )
        47           O0  tau(  47) = (   0.7500000   0.3206577   3.6912561  )
        48           O0  tau(  48) = (   0.5000000   0.0000000   3.8739473  )
        49           O0  tau(  49) = (   0.5000000   0.5172566   3.8417965  )

     number of k points=     9  Methfessel-Paxton smearing, width (Ry)=  0.0100
                       cart. coord. in units 2pi/alat
        k(    1) = (   0.0000000   0.0000000   0.0000000), wk =   0.1250000
        k(    2) = (   0.0000000   0.2416596   0.0000000), wk =   0.2500000
        k(    3) = (   0.0000000  -0.4833191   0.0000000), wk =   0.1250000
        k(    4) = (   0.2500000   0.0000000   0.0000000), wk =   0.2500000
        k(    5) = (   0.2500000   0.2416596   0.0000000), wk =   0.5000000
        k(    6) = (   0.2500000  -0.4833191   0.0000000), wk =   0.2500000
        k(    7) = (  -0.5000000   0.0000000   0.0000000), wk =   0.1250000
        k(    8) = (  -0.5000000   0.2416596   0.0000000), wk =   0.2500000
        k(    9) = (  -0.5000000  -0.4833191   0.0000000), wk =   0.1250000

     Largest allocated arrays     est. size (Mb)     dimensions
     Largest temporary arrays     est. size (Mb)     dimensions

     Check: negative/imaginary core charge=   -0.000003    0.000000

     Initial potential from superposition of free atoms
     Check: negative starting charge=   -1.283502

     starting charge  429.99837, renormalised to  438.00000

     negative rho (up, down):  0.131E+01 0.000E+00
     Starting wfc are  324 randomized atomic wfcs

     Self-consistent Calculation

     iteration #  1     ecut=    40.00 Ry     beta=0.30
     Davidson diagonalization with overlap
     ethr =  1.00E-02,  avg # of iterations =  5.7

     negative rho (up, down):  0.132E+01 0.000E+00

     total energy              =   -3722.30984684 Ry
     Harris-Foulkes estimate   =   -3795.28581593 Ry
     estimated scf accuracy    <     146.59561959 Ry

[...]

     End of self-consistent calculation

          k = 0.0000 0.0000 0.0000 ( 41643 PWs)   bands (ev):

   -60.2115 -51.8893 -51.7117 -47.5393 -47.5304 -47.5256 -47.5147 -47.4670
   -47.4645 -47.4586 -47.4533 -47.4503 -47.4489 -47.4471 -47.4424 -47.4240
   -47.4232 -47.4138 -47.4128 -47.3469 -47.3437 -47.3404 -47.3350 -47.3240
   -47.3229 -47.3090 -47.2992 -47.2912 -47.2775 -47.2770 -47.2701 -47.2544
   -47.2538 -47.2534 -47.2339 -47.1598 -47.1407 -47.1213 -47.1134 -47.0718
   -47.0704 -47.0530 -46.9910 -46.9625 -46.9432 -46.8945 -46.8768 -46.7921
   -22.6168 -19.5342 -19.3985 -19.2287 -19.0358 -18.9109 -18.6992 -18.5294
   -18.5050 -18.4481 -18.3652 -18.3452 -18.3223 -18.2954 -18.2835 -18.2799
   -18.2374 -18.2354 -18.2116 -18.1700 -18.1277 -18.0227 -17.9516 -17.9326
   -17.8960 -17.8889 -17.7649 -17.7234 -17.6694 -16.9211 -16.8221 -16.8065
   -16.7213 -16.3749 -16.2235 -12.8642  -8.4036  -7.9497  -7.9123  -7.8916
    -7.7930  -7.6434  -7.6091  -6.9270  -6.8561  -6.7095  -6.6977  -6.6842
    -6.6758  -6.5971  -6.5798  -6.5659  -6.5403  -6.4908  -6.4221  -6.4076
    -6.4037  -6.3768  -6.3128  -6.3121  -6.2168  -6.1926  -6.1192  -6.1185
    -5.9963  -5.9748  -5.9605  -5.9247  -5.8498  -5.7684  -5.7414  -5.6696
    -5.4385  -5.3290  -5.0635  -5.0268  -4.9763  -4.9692  -4.6494  -4.6005
    -4.5361  -4.5203  -4.4262  -4.3971  -4.3747  -4.2520  -4.2044  -4.1095
    -4.0889  -4.0037  -3.9846  -3.9659  -3.8766  -3.8113  -3.7851  -3.7306
    -3.7214  -3.6275  -3.4700  -3.4131  -3.3702  -3.3534  -3.3391  -3.3312
    -3.2960  -3.2619  -3.1443  -3.1085  -3.0374  -3.0104  -2.9818  -2.9355
    -2.9232  -2.8771  -2.8588  -2.7304  -2.5902  -2.5711  -2.5611  -2.5121
    -2.4704  -2.3654  -2.2815  -2.2733  -2.1812  -2.1568  -2.0788  -2.0622
    -2.0162  -2.0078  -1.9651  -1.9631  -1.9487  -1.8904  -1.8755  -1.7997
    -1.7748  -1.6424  -1.5794  -1.5418  -1.5320  -1.5049  -1.4462  -1.4252
    -1.3910  -1.3443  -1.3350  -1.3243  -1.2489  -1.2222  -1.2168  -1.1661
    -1.1050  -1.0260  -0.9181  -0.8990  -0.7653  -0.6827  -0.6102  -0.5205
    -0.4327  -0.3838  -0.2991  -0.2539  -0.1735  -0.0999  -0.0191   0.1881
     0.2176   0.3693   0.3801   0.3883   0.4536   0.5451   0.6392   0.6795
     0.6811   0.7922   0.8147   0.8948   0.9530   1.0541   1.0571   1.3705
[...]
O0       0.250000000   0.309960000   0.636050000    0   0   0
O0       0.000000000   0.000000000   0.667530000    0   0   0
O0       0.500000000   0.500000000   0.332440000    0   0   0
Rh1      0.750000000   0.500000000   0.366310000    0   0   0
Rh1      0.500000000   0.000000000   0.366310000    0   0   0
O0       0.750000000   0.810000000   0.366310000    0   0   0
O0       0.750000000   0.190000000   0.366310000    0   0   0
O0       0.500000000   0.500000000   0.400170000    0   0   0
O0       0.500000000   0.000000000   0.421570000    0   0   0
Rh1      0.750000000   0.000000000   0.455440000    0   0   0
Rh1      0.500000000   0.500000000   0.455440000    0   0   0
O0       0.750000000   0.690000000   0.455440000    0   0   0
O0       0.750000000   0.310000000   0.455440000    0   0   0
O0       0.500000000   0.000000000   0.489300000    0   0   0
O0       0.500000000   0.500000000   0.509590000    0   0   0
Rh1      0.750000000   0.500000000   0.543860000    0   0   0
Rh1      0.500000000   0.000000000   0.544590000    0   0   0
O0       0.750000000   0.806670000   0.544450000    0   0   0
O0       0.750000000   0.193330000   0.544450000    0   0   0
O0       0.500000000   0.500000000   0.578140000    0   0   0
O0       0.500000000   0.000000000   0.599260000    0   0   0
Rh1      0.750000000   0.000000000   0.634310000    0   0   0
Rh1      0.500000000   0.500000000   0.631230000    0   0   0
O0       0.750000000   0.690040000   0.636050000    0   0   0
O0       0.750000000   0.309960000   0.636050000    0   0   0
O0       0.500000000   0.000000000   0.667530000    0   0   0
O0       0.500000000   0.500000000   0.680912431

     Check: negative starting charge=   -1.286865
     NEW-OLD atomic charge density approx. for the potential

     Check: negative/imaginary core charge=   -0.000003    0.000000
     Check: negative starting charge=   -1.286866

[...]

     Self-consistent Calculation

[...]

     iteration #  2     ecut=    40.00 Ry     beta=0.30
     Davidson diagonalization with overlap
     c_bands:  1 eigenvalues not converged
     c_bands:  1 eigenvalues not converged
     c_bands:  3 eigenvalues not converged
     ethr =  4.88E-07,  avg # of iterations = 11.8

[...]

     total energy              =   -3790.14831902 Ry
     Harris-Foulkes estimate   =   -3790.14831903 Ry
     estimated scf accuracy    <       0.00000002 Ry

     iteration # 20     ecut=    40.00 Ry     beta=0.30
     Davidson diagonalization with overlap
     ethr =  3.40E-12,  avg # of iterations =  1.0

     negative rho (up, down):  0.138E+01 0.000E+00

     End of self-consistent calculation

[...]

          k = 0.2500-0.4833 0.0000 ( 41698 PWs)   bands (ev):

[...]

          k =-0.5000-0.4833 0.0000 ( 41672 PWs)   bands (ev):

   -48.8066 -48.4429 -48.4326 -48.1103 -48.0824 -48.0792 -48.0789 -48.0676
   -48.0675 -48.0636 -48.0564 -48.0564 -48.0539 -48.0494 -48.0448 -48.0394
   -48.0340 -48.0290 -48.0284 -47.9978 -47.9974 -47.9853 -47.9790 -47.9304
   -47.9304 -47.9133 -47.8862 -47.8792 -47.8789 -47.8788 -47.8772 -47.8600
   -47.8560 -47.8483 -47.8481 -47.8406 -47.8091 -47.8080 -47.7898 -47.7076
   -47.7047 -47.6469 -47.6469 -47.6267 -47.6266 -47.5389 -47.5386 -47.5223
   -19.5189 -19.4831 -19.4070 -19.3976 -19.2054 -19.1850 -19.1229 -19.1172
   -18.9637 -18.9617 -18.9281 -18.9086 -18.8775 -18.8515 -18.7999 -18.7964
   -18.7780 -18.7750 -18.7441 -18.7409 -18.7396 -18.7010 -18.6943 -18.6743
   -18.5691 -18.5578 -18.4749 -18.4684 -17.5502 -17.4751 -17.4322 -17.4146
   -17.0860  -7.7810  -7.7288  -7.6304  -7.6184  -7.3438  -7.3247  -7.2158
    -7.2126  -7.2067  -7.2045  -7.1934  -7.1878  -7.1103  -7.1049  -7.1042
    -6.9469  -6.8967  -6.8874  -6.8354  -6.8303  -6.7627  -6.7602  -6.7399
    -6.7128  -6.6452  -6.6439  -6.6236  -6.5750  -6.5154  -6.4645  -6.3616
    -6.3464  -6.3150  -6.3146  -6.2483  -6.2466  -6.1604  -6.1588  -6.0921
    -6.0587  -5.7526  -5.7121  -5.7073  -5.6378  -5.5725  -5.4757  -5.4583
    -5.4314  -5.3866  -5.1164  -5.1006  -5.0859  -5.0168  -5.0110  -4.9568
    -4.9395  -4.9342  -4.9115  -4.9113  -4.9072  -4.8594  -4.8248  -4.8176
    -4.7950  -4.6236  -4.5896  -4.5622  -4.5401  -4.5159  -4.4906  -4.4755
    -4.4590  -4.2490  -4.1854  -4.1458  -4.0986  -3.6519  -3.6050  -3.5032
    -3.4272  -3.3462  -3.3061  -3.2848  -3.2189  -3.2072  -3.1869  -3.1178
    -3.1036  -2.9860  -2.9529  -2.9494  -2.9343  -2.9260  -2.7410  -2.6241
    -2.5466  -2.4631  -2.0818  -2.0145  -1.9933  -1.9731  -1.8902  -1.8362
    -1.7605  -1.7195  -1.7088  -1.6954  -1.6877  -1.6032  -1.4748  -1.4664
    -1.4115  -1.4078  -1.3828  -1.3016  -1.1667  -1.1154  -1.1132  -1.0846
    -1.0804  -1.0206  -1.0191  -0.7663  -0.7472  -0.7449  -0.7388  -0.7345
    -0.7075  -0.6299  -0.6180  -0.6078  -0.5859  -0.5239  -0.4692  -0.4659
    -0.4502  -0.4418  -0.4146  -0.3653  -0.3521  -0.3451  -0.3357  -0.3225
    -0.3222  -0.2707  -0.1755  -0.1105   0.4355   0.4404   0.8296   1.1233
     1.1371   1.1559   1.1832   1.1886   1.3460   1.3469   1.4290   1.5626
     1.6216   1.6227   1.6631   2.2820   2.4157   2.4189   2.4432   2.7204
     2.7408   2.7619   2.8086   3.1198   3.1316   3.1516   3.1998   3.3727
     3.4196   3.4200   3.4367   3.6899   6.0204   6.0215   7.1321   7.4273
     7.4282   7.7968   7.7970   7.9935   7.9956   8.0756   8.1580   8.2199
     8.2447   8.3418   8.3440   8.4542   8.5456   8.5496   8.5626   8.5772
     8.7876   8.8036   8.8438   8.9935   9.0276   9.0391   9.0991   9.1132
     9.4364   9.4540   9.5177   9.6701   9.7133   9.7369   9.8283   9.9105
    10.2217  10.2435  10.3203  10.4951  10.5331  10.5524  10.6457  10.8551
    11.2299  11.2337  11.3498  11.5116  11.5391  11.5860  11.6372  11.7350
    12.0568  12.1218  12.1910  12.3952  12.4004  12.4119  12.4401  12.5534
    12.6025  12.6067  12.7222  12.7346  12.8502  12.8597  12.8925  12.9853
    12.9921  12.9976  13.0787  13.2668  13.2708  13.3717  13.4361  13.5236
    13.5348  13.5393  13.5921  13.6742  13.6900  13.6937  13.7876  13.9067
    13.9500  14.0790  14.1512  14.1630  14.1943  14.2098  14.2613  14.2695
    14.3347  14.4384  14.4499  14.4649  14.4717  14.7740  14.8685  14.8722
    14.9240  14.9287  14.9466  14.9684  15.0365  15.0593  15.0981  15.1067
    15.1992  15.2026  15.2072  15.2321  15.2931  15.3231  15.4599  15.4801
    15.5276  15.5381  15.5526  15.5652  15.5949  15.5968  15.6116  15.6202
    15.6435  15.6591  15.7567  15.8804  15.8898  15.9074  15.9271  15.9359
    15.9532  15.9542  16.0058  16.0542  16.0636  16.0768  16.1141  16.1731
    16.1780  16.1926  16.2033  16.2604  16.2745  16.3180  16.3404  16.4784
    16.4922  16.5264  16.5892  16.6333  16.6513  16.6586  16.6756  16.7097
    16.8079  16.8346  16.9001  17.0170  17.0243  17.0324  17.0751  17.1094
    17.1248  17.2245  17.2282  17.2462  17.4399  17.4571  17.4756  17.5187
    17.5262  17.5772  17.6584  17.6673  17.7242  17.7533  17.7635  17.7789
    17.8042  17.8340  17.8408  17.8912  17.9126  17.9129  17.9271  17.9866
    18.2970  18.3032  18.3931  18.4031  18.4056  18.4572  18.4667  18.5480
    18.6663  18.6954  18.7251  18.8012  18.8357  18.8533  18.8702  18.9165
    19.0931  19.1627  19.1708  19.1779  19.5787  19.6180  19.6282  19.6528
    19.6751  19.6786  19.7030  19.7700  19.7970  19.8444  19.8553  19.9248
[...]
    23.4600  23.4861  23.5292  23.6034  23.6585  23.6984  23.7276  23.7579
    23.8959  23.9367  23.9618  23.9750  23.9848  23.9925  24.0251  24.0605
    24.1165  24.1177  24.1833  24.2050  24.2084  24.2905  24.2966  24.3334
    24.3337  24.3555  24.3640  24.4125  24.4526  24.4904  24.4969  24.4998
    24.5305  24.5389  24.6201  24.7425  24.7780  24.8161  24.8336  24.8792
    25.0086  25.0965  25.1877  25.2459  25.2719  25.2770  25.3242  25.3823
    25.3910  25.4082  25.4423  25.4674  25.5493  25.5567  25.6480  25.6856
    25.8361  25.8545  25.8719  25.8894  25.9320  25.9683  26.0015  26.0100
    26.0355  26.0586  26.1078  26.2110  26.3085  26.3462  26.4329  26.4804
    26.5027  26.5763  26.5830  26.5937  26.6222  26.6603  26.6981  26.7140
    26.7705  26.8383  26.8398  26.8882  27.0343  27.0507  27.0508  27.0594
    27.1137  27.1276  27.1586  27.1630  27.2411  27.3623  27.3771  27.3941
    27.4531  27.4744  27.4772  27.5168  27.5272  27.6598  27.7149  27.7263
    27.7888  27.7969  27.8934  27.8967  27.9010  27.9374  27.9450  27.9528
    27.9583

     the Fermi energy is    -0.2795 ev

!    total energy              =   -3790.14831902 Ry
     Harris-Foulkes estimate   =   -3790.14831903 Ry
     estimated scf accuracy    <          8.7E-09 Ry

     The total energy is the sum of the following terms:

     one-electron contribution =  -80610.67679705 Ry
     hartree contribution      =   40408.36017352 Ry
     xc contribution           =    -702.73886553 Ry
     ewald contribution        =   37114.90756541 Ry
     smearing contrib. (-TS)   =      -0.00039536 Ry

     convergence has been achieved in  20 iterations

     Forces acting on atoms (Ry/au):

     negative rho (up, down):  0.138E+01 0.000E+00
     atom    1 type  1   force =     0.00000000    0.00000000    0.01240465
     atom    2 type  2   force =    -0.00119688    0.00000000   -0.02594589
     atom    3 type  2   force =     0.00000000    0.00000000    0.07663660
     atom    4 type  1   force =     0.00027063   -0.01149907   -0.02800602
     atom    5 type  1   force =     0.00027063    0.01149907   -0.02800602
     atom    6 type  1   force =     0.00000000    0.00000000    0.02259919
     atom    7 type  1   force =     0.00000000    0.00000000   -0.02601751
     atom    8 type  2   force =     0.00050063    0.00000000   -0.01150830
     atom    9 type  2   force =     0.00000000    0.00000000   -0.02303400
     atom   10 type  1   force =    -0.00046517    0.02092926   -0.00297278
     atom   11 type  1   force =    -0.00046517   -0.02092926   -0.00297278
     atom   12 type  1   force =     0.00000000    0.00000000    0.02659677
     atom   13 type  1   force =     0.00000000    0.00000000    0.01048310
     atom   14 type  2   force =     0.01937590    0.00000000   -0.00552262
     atom   15 type  2   force =     0.00000000    0.00000000   -0.00021718
     atom   16 type  1   force =    -0.00061316    0.00079867   -0.00008810
     atom   17 type  1   force =    -0.00061316   -0.00079867   -0.00008810
     atom   18 type  1   force =     0.00000000    0.00000000    0.00253296
     atom   19 type  1   force =     0.00000000    0.00000000    0.00284875
     atom   20 type  2   force =     0.00312328    0.00000000    0.00538930
     atom   21 type  2   force =     0.00000000    0.00000000    0.00869845
     atom   22 type  1   force =    -0.02546104    0.01893101   -0.03388596
     atom   23 type  1   force =    -0.02546104   -0.01893101   -0.03388596
     atom   24 type  1   force =     0.00000000    0.00000000   -0.00207008
     atom   25 type  1   force =     0.00000000    0.00000000    0.01309145
     atom   26 type  2   force =     0.00119688    0.00000000   -0.02594589
     atom   27 type  2   force =     0.00000000    0.00000000    0.07673117
     atom   28 type  1   force =    -0.00027063   -0.01149907   -0.02800602
     atom   29 type  1   force =    -0.00027063    0.01149907   -0.02800602
     atom   30 type  1   force =     0.00000000    0.00000000    0.02689872
     atom   31 type  1   force =     0.00000000    0.00000000   -0.02683957
     atom   32 type  2   force =    -0.00050063    0.00000000   -0.01150830
     atom   33 type  2   force =     0.00000000    0.00000000   -0.02041166
     atom   34 type  1   force =     0.00046517    0.02092926   -0.00297278
     atom   35 type  1   force =     0.00046517   -0.02092926   -0.00297278
     atom   36 type  1   force =     0.00000000    0.00000000    0.02786320
     atom   37 type  1   force =     0.00000000    0.00000000    0.00011153
     atom   38 type  2   force =    -0.01937590    0.00000000   -0.00552262
     atom   39 type  2   force =     0.00000000    0.00000000   -0.00078072
     atom   40 type  1   force =     0.00061316    0.00079867   -0.00008810
     atom   41 type  1   force =     0.00061316   -0.00079867   -0.00008810
     atom   42 type  1   force =     0.00000000    0.00000000   -0.02071164
     atom   43 type  1   force =     0.00000000    0.00000000   -0.00199963
     atom   44 type  2   force =    -0.00312328    0.00000000    0.00538930
     atom   45 type  2   force =     0.00000000    0.00000000    0.15194026
     atom   46 type  1   force =     0.02546104    0.01893101   -0.03388596
     atom   47 type  1   force =     0.02546104   -0.01893101   -0.03388596
     atom   48 type  1   force =     0.00000000    0.00000000   -0.00248444
     atom   49 type  1   force =     0.00000000    0.00000000    0.00011608

     Total force =     0.000116     Total SCF correction =     0.000032
     SCF correction compared to forces is large: reduce conv_thr to get better values

     bfgs converged in   9 scf cycles and   8 bfgs steps
     (criteria: energy < 0.10E-03, force < 0.10E-02)

     End of BFGS Geometry Optimization

     Final energy   =   -3790.1483190176 Ry
Begin final coordinates

ATOMIC_POSITIONS (crystal)
O0       0.000000000   0.500000000   0.332440000    0   0   0
Rh1      0.250000000   0.500000000   0.366310000    0   0   0
Rh1      0.000000000   0.000000000   0.366310000    0   0   0
O0       0.250000000   0.810000000   0.366310000    0   0   0
O0       0.250000000   0.190000000   0.366310000    0   0   0
O0       0.000000000   0.500000000   0.400170000    0   0   0
O0       0.000000000   0.000000000   0.421570000    0   0   0
Rh1      0.250000000   0.000000000   0.455440000    0   0   0
Rh1      0.000000000   0.500000000   0.455440000    0   0   0
O0       0.250000000   0.690000000   0.455440000    0   0   0
O0       0.250000000   0.310000000   0.455440000    0   0   0
O0       0.000000000   0.000000000   0.489300000    0   0   0
O0       0.000000000   0.500000000   0.509590000    0   0   0
Rh1      0.250000000   0.500000000   0.543860000    0   0   0
Rh1      0.000000000   0.000000000   0.544590000    0   0   0
O0       0.250000000   0.806670000   0.544450000    0   0   0
O0       0.250000000   0.193330000   0.544450000    0   0   0
O0       0.000000000   0.500000000   0.578140000    0   0   0
O0       0.000000000   0.000000000   0.599260000    0   0   0
Rh1      0.250000000   0.000000000   0.634310000    0   0   0
Rh1      0.000000000   0.500000000   0.631230000    0   0   0
O0       0.250000000   0.690040000   0.636050000    0   0   0
O0       0.250000000   0.309960000   0.636050000    0   0   0
O0       0.000000000   0.000000000   0.667530000    0   0   0
O0       0.500000000   0.500000000   0.332440000    0   0   0
Rh1      0.750000000   0.500000000   0.366310000    0   0   0
Rh1      0.500000000   0.000000000   0.366310000    0   0   0
O0       0.750000000   0.810000000   0.366310000    0   0   0
O0       0.750000000   0.190000000   0.366310000    0   0   0
O0       0.500000000   0.500000000   0.400170000    0   0   0
O0       0.500000000   0.000000000   0.421570000    0   0   0
Rh1      0.750000000   0.000000000   0.455440000    0   0   0
Rh1      0.500000000   0.500000000   0.455440000    0   0   0
O0       0.750000000   0.690000000   0.455440000    0   0   0
O0       0.750000000   0.310000000   0.455440000    0   0   0
O0       0.500000000   0.000000000   0.489300000    0   0   0
O0       0.500000000   0.500000000   0.509590000    0   0   0
Rh1      0.750000000   0.500000000   0.543860000    0   0   0
Rh1      0.500000000   0.000000000   0.544590000    0   0   0
O0       0.750000000   0.806670000   0.544450000    0   0   0
O0       0.750000000   0.193330000   0.544450000    0   0   0
O0       0.500000000   0.500000000   0.578140000    0   0   0
O0       0.500000000   0.000000000   0.599260000    0   0   0
Rh1      0.750000000   0.000000000   0.634310000    0   0   0
Rh1      0.500000000   0.500000000   0.631230000    0   0   0
O0       0.750000000   0.690040000   0.636050000    0   0   0
O0       0.750000000   0.309960000   0.636050000    0   0   0
O0       0.500000000   0.000000000   0.667530000    0   0   0
O0       0.500000000   0.500000000   0.680912431
End final coordinates

     General routines

     Parallel routines

   This run was terminated on:   9:46:45  29Mar2014

   JOB DONE.
Running PBS batch system epilogue script
Job id: 314588.audhumbla.fysik.dtu.dk
Username: zhonxu
Groupname: campgst
Jobname: RhO2/Eads-4-layers/O
Sessionid: 5603
Queuename: verylong
Accounting:
This job has allocated the following 32 nodes:
g008 g008 g008 g008 g008 g008 g008 g008 g008 g008 g008 g008 g008 g008 g008 g008 g005 g005 g005 g005 g005 g005 g005 g005 g005 g005 g005 g005 g005 g005 g005 g005
Finished epilogue job 314588.audhumbla.fysik.dtu.dk for zhonxu