     Program PWSCF v.5.0.2 (svn rev. 9656) starts on 28Mar2014 at  6:37:37

     Current dimensions of program PWSCF are:
     Max number of different atomic species (ntypx) = 10
     Max number of k-points (npk) =  40000
     Max angular momentum in pseudopotentials (lmaxx) =  3
     Reading input from pwscf.in
Warning: card &CELL ignored
Warning: card / ignored

     Subspace diagonalization in iterative solution of the eigenvalue problem:
     a serial algorithm will be used

     bravais-lattice index     =            0
     lattice parameter (alat)  =      11.1872  a.u.
     unit-cell volume          =   10442.1272 (a.u.)^3
     number of atoms/cell      =           49
     number of atomic types    =            2
     number of electrons       =       406.00
     number of Kohn-Sham states=          609
     kinetic-energy cutoff     =      40.0000  Ry
     charge density cutoff     =     500.0000  Ry
     convergence threshold     =      1.0E-06
     mixing beta               =       0.3000
     number of iterations used =            8  plain     mixing
     Exchange-correlation      = SLA  PW   PBE  PBE ( 1 4 3 4 0)
     EXX-fraction              =        0.00
     nstep                     =           50

     celldm(1)=  11.187179  celldm(2)=   0.000000  celldm(3)=   0.000000
     celldm(4)=   0.000000  celldm(5)=   0.000000  celldm(6)=   0.000000

     crystal axes: (cart. coord. in units of alat)
               a(1) = (   1.000000   0.000000   0.000000 )
               a(2) = (   0.000000   1.180104   0.000000 )
               a(3) = (   0.000000   0.000000   6.319854 )

     reciprocal axes: (cart. coord. in units 2 pi/alat)
               b(1) = (  1.000000  0.000000  0.000000 )
               b(2) = (  0.000000  0.847383  0.000000 )
               b(3) = (  0.000000  0.000000  0.158232 )

     PseudoPot. # 1 for O  read from file:
     /home/camp/zhonxu/pseudo/o_pbe_v1.01.uspp.F.UPF
     MD5 check sum: 2bcb18d16ea4b960afae9ec6d52f22d2
     Pseudo is Ultrasoft + core correction, Zval =  6.0
     Generated by new atomic code, or converted to UPF format
     Using radial grid of  737 points,  5 beta functions with:
                l(1) =   0
                l(2) =   0
                l(3) =   1
                l(4) =   1
                l(5) =   2
     Q(r) pseudized with  8 coefficients,  rinner =    0.900   0.900   0.900
                                                       0.900   0.900

     PseudoPot. # 2 for Nb read from file:
     /home/camp/zhonxu/pseudo/nb_pbe_v1.uspp.F.UPF
     MD5 check sum: 573aab8a2fa660278ed4a62cd769473f
     Pseudo is Ultrasoft + core correction, Zval = 13.0
     Generated by new atomic code, or converted to UPF format
     Using radial grid of  887 points,  6 beta functions with:
                l(1) =   0
                l(2) =   0
                l(3) =   1
                l(4) =   1
                l(5) =   2
                l(6) =   2
     Q(r) pseudized with  6 coefficients,  rinner =    1.000   1.000   1.000
                                                       1.000   1.000

     atomic species   valence    mass     pseudopotential
        O0             6.00    15.99940     O ( 1.00)
        Nb1           13.00    92.90640     Nb( 1.00)

      4 Sym. Ops. (no inversion) found

   Cartesian axes

     site n.     atom                  positions (alat units)
         1           O0  tau(   1) = (   0.0000000   0.5900519   2.0270298  )
         2           Nb1 tau(   2) = (   0.2500000   0.5900519   2.2748313  )
         3           Nb1 tau(   3) = (   0.0000000   0.0000000   2.2748313  )
         4           O0  tau(   4) = (   0.2500000   0.9322821   2.2748313  )
         5           O0  tau(   5) = (   0.2500000   0.2478218   2.2748313  )
         6           O0  tau(   6) = (   0.0000000   0.5900519   2.5226959  )
         7           O0  tau(   7) = (   0.0000000   0.0000000   2.6170513  )
         8           Nb1 tau(   8) = (   0.2500000   0.0000000   2.8649160  )
         9           Nb1 tau(   9) = (   0.0000000   0.5900519   2.8649160  )
        10           O0  tau(  10) = (   0.2500000   0.8378738   2.8649160  )
        11           O0  tau(  11) = (   0.2500000   0.3422301   2.8649160  )
        12           O0  tau(  12) = (   0.0000000   0.0000000   3.1127175  )
        13           O0  tau(  13) = (   0.0000000   0.5900519   3.2016378  )
        14           Nb1 tau(  14) = (   0.2500000   0.5900519   3.4436882  )
        15           Nb1 tau(  15) = (   0.0000000   0.0000000   3.4612574  )
        16           O0  tau(  16) = (   0.2500000   0.9310784   3.4611310  )
        17           O0  tau(  17) = (   0.2500000   0.2490255   3.4611310  )
        18           O0  tau(  18) = (   0.0000000   0.5900519   3.6989471  )
        19           O0  tau(  19) = (   0.0000000   0.0000000   3.8174443  )
        20           Nb1 tau(  20) = (   0.2500000   0.0000000   4.0701753  )
        21           Nb1 tau(  21) = (   0.0000000   0.5900519   4.0169621  )
        22           O0  tau(  22) = (   0.2500000   0.8262851   4.0818038  )
        23           O0  tau(  23) = (   0.2500000   0.3538187   4.0818038  )
        24           O0  tau(  24) = (   0.0000000   0.0000000   4.2711466  )
        25           O0  tau(  25) = (   0.5000000   0.5900519   2.0270298  )
        26           Nb1 tau(  26) = (   0.7500000   0.5900519   2.2748313  )
        27           Nb1 tau(  27) = (   0.5000000   0.0000000   2.2748313  )
        28           O0  tau(  28) = (   0.7500000   0.9322821   2.2748313  )
        29           O0  tau(  29) = (   0.7500000   0.2478218   2.2748313  )
        30           O0  tau(  30) = (   0.5000000   0.5900519   2.5226959  )
        31           O0  tau(  31) = (   0.5000000   0.0000000   2.6170513  )
        32           Nb1 tau(  32) = (   0.7500000   0.0000000   2.8649160  )
        33           Nb1 tau(  33) = (   0.5000000   0.5900519   2.8649160  )
        34           O0  tau(  34) = (   0.7500000   0.8378738   2.8649160  )
        35           O0  tau(  35) = (   0.7500000   0.3422301   2.8649160  )
        36           O0  tau(  36) = (   0.5000000   0.0000000   3.1127175  )
        37           O0  tau(  37) = (   0.5000000   0.5900519   3.2016378  )
        38           Nb1 tau(  38) = (   0.7500000   0.5900519   3.4436882  )
        39           Nb1 tau(  39) = (   0.5000000   0.0000000   3.4612574  )
        40           O0  tau(  40) = (   0.7500000   0.9310784   3.4611310  )
        41           O0  tau(  41) = (   0.7500000   0.2490255   3.4611310  )
        42           O0  tau(  42) = (   0.5000000   0.5900519   3.6989471  )
        43           O0  tau(  43) = (   0.5000000   0.0000000   3.8174443  )
        44           Nb1 tau(  44) = (   0.7500000   0.0000000   4.0701753  )
        45           Nb1 tau(  45) = (   0.5000000   0.5900519   4.0169621  )
        46           O0  tau(  46) = (   0.7500000   0.8262851   4.0818038  )
        47           O0  tau(  47) = (   0.7500000   0.3538187   4.0818038  )
        48           O0  tau(  48) = (   0.5000000   0.0000000   4.2711466  )
        49           O0  tau(  49) = (   0.5000000   0.5900519   4.2373986  )

     number of k points=     9  Methfessel-Paxton smearing, width (Ry)=  0.0100
                       cart. coord. in units 2pi/alat
        k(    1) = (   0.0000000   0.0000000   0.0000000), wk =   0.1250000
        k(    2) = (   0.0000000   0.2118458   0.0000000), wk =   0.2500000
        k(    3) = (   0.0000000  -0.4236915   0.0000000), wk =   0.1250000
        k(    4) = (   0.2500000   0.0000000   0.0000000), wk =   0.2500000
        k(    5) = (   0.2500000   0.2118458   0.0000000), wk =   0.5000000
        k(    6) = (   0.2500000  -0.4236915   0.0000000), wk =   0.2500000
        k(    7) = (  -0.5000000   0.0000000   0.0000000), wk =   0.1250000
        k(    8) = (  -0.5000000   0.2118458   0.0000000), wk =   0.2500000
        k(    9) = (  -0.5000000  -0.4236915   0.0000000), wk =   0.1250000

     Largest allocated arrays     est. size (Mb)     dimensions
     Largest temporary arrays     est. size (Mb)     dimensions

     Check: negative/imaginary core charge=   -0.000004    0.000000

     Initial potential from superposition of free atoms
     Check: negative starting charge=   -0.005547

     starting charge  405.95622, renormalised to  406.00000

     negative rho (up, down):  0.555E-02 0.000E+00
     Starting wfc are  340 randomized atomic wfcs

     Self-consistent Calculation

     iteration #  1     ecut=    40.00 Ry     beta=0.30
     Davidson diagonalization with overlap
     ethr =  1.00E-02,  avg # of iterations =  6.6

     negative rho (up, down):  0.499E-02 0.000E+00

     total energy              =   -2948.39859637 Ry
     Harris-Foulkes estimate   =   -2960.33760252 Ry
     estimated scf accuracy    <      26.76382546 Ry

[...]

     End of self-consistent calculation

          k = 0.0000 0.0000 0.0000 ( 44615 PWs)   bands (ev):

   -55.6253 -55.5362 -55.1302 -55.0271 -54.9613 -54.9517 -54.9490 -54.9412
   -54.9257 -54.9003 -54.8738 -54.8696 -54.8644 -54.8473 -54.8215 -54.5844
   -34.5664 -32.5253 -31.8294 -31.6359 -31.6304 -31.6176 -31.5773 -31.5412
   -31.5396 -31.5321 -31.5136 -31.5102 -31.4885 -31.4649 -31.3749 -31.3259
   -31.2888 -31.2875 -31.2677 -31.2378 -31.1981 -31.1971 -31.1602 -31.1462
   -31.1332 -31.1302 -31.1230 -31.1001 -31.0178 -30.9918 -30.9670 -30.9542
   -30.9283 -30.8983 -30.8219 -30.8173 -30.8069 -30.7988 -30.7917 -30.7783
   -30.7359 -30.6934 -30.6769 -30.6712 -30.6563 -30.6027 -29.8719 -29.8183
   -18.6075 -18.4073 -18.3444 -18.2796 -18.2313 -18.1378 -18.0733 -17.9761
   -17.9302 -17.9086 -17.8368 -17.7138 -17.6971 -17.6707 -17.6245 -17.4658
   -17.4576 -17.3917 -17.3819 -17.3196 -17.3052 -17.2816 -17.1402 -17.0364
   -17.0296 -17.0186 -16.9858 -16.9459 -16.8104 -16.7957 -15.8047 -15.6805
   -13.8953  -7.0947  -6.7335  -6.6275  -6.5068  -6.4887  -6.4814  -6.2964
    -6.1905  -5.8116  -5.8000  -5.7486  -5.6856  -5.6489  -5.4668  -5.4476
    -5.4066  -5.3115  -5.3008  -5.2617  -5.2344  -5.1133  -5.0976  -5.0668
    -5.0354  -4.9235  -4.9201  -4.7573  -4.7164  -4.6969  -4.6584  -4.6238
    -4.4150  -4.3906  -4.3865  -4.3053  -4.3047  -4.2747  -4.2428  -4.2259
    -4.1974  -4.1783  -4.1281  -4.1099  -4.0910  -4.0516  -3.9930  -3.9549
    -3.9323  -3.8698  -3.8214  -3.6219  -3.4931  -3.4923  -3.4026  -3.3811
    -3.3216  -3.2805  -3.2092  -3.1829  -3.0717  -3.0367  -2.9427  -2.8534
    -2.8317  -2.7873  -2.6765  -2.6635  -2.6256  -2.6253  -2.5903  -2.4949
    -2.4902  -2.3949  -2.3812  -2.3664  -2.3180  -2.3080  -2.3015  -2.2833
    -2.1791  -2.1296  -2.0885  -2.0459  -2.0049  -1.9580  -1.9362  -1.8668
    -1.8272  -1.8255  -1.7203  -1.6994  -1.5254  -1.3454  -1.2993  -1.0997
    -1.0502  -0.9388  -0.8537  -0.3139   0.5890   0.6162   0.6636   0.8094
     0.9621   1.2223   1.6217   1.6810   1.8588   2.0313   2.0387   2.0454
     2.2175   2.2436   2.2931   2.3239   2.5266   2.5654   2.5883   2.6853
     2.7019   2.7102   2.7312   2.7350   2.7394   2.7757   2.8419   2.8868
     2.9454   3.0917   3.1102   3.2962   3.4722   3.5246   3.5408   3.6173
[...]
Nb1      0.000000000   0.500000000   0.635610000    0   0   0
O0       0.250000000   0.700180000   0.645870000    0   0   0
O0       0.250000000   0.299820000   0.645870000    0   0   0
O0       0.000000000   0.000000000   0.675830000    0   0   0
O0       0.500000000   0.500000000   0.320740000    0   0   0
Nb1      0.750000000   0.500000000   0.359950000    0   0   0
Nb1      0.500000000   0.000000000   0.359950000    0   0   0
O0       0.750000000   0.790000000   0.359950000    0   0   0
O0       0.750000000   0.210000000   0.359950000    0   0   0
O0       0.500000000   0.500000000   0.399170000    0   0   0
O0       0.500000000   0.000000000   0.414100000    0   0   0
Nb1      0.750000000   0.000000000   0.453320000    0   0   0
Nb1      0.500000000   0.500000000   0.453320000    0   0   0
O0       0.750000000   0.710000000   0.453320000    0   0   0
O0       0.750000000   0.290000000   0.453320000    0   0   0
O0       0.500000000   0.000000000   0.492530000    0   0   0
O0       0.500000000   0.500000000   0.506600000    0   0   0
Nb1      0.750000000   0.500000000   0.544900000    0   0   0
Nb1      0.500000000   0.000000000   0.547680000    0   0   0
O0       0.750000000   0.788980000   0.547660000    0   0   0
O0       0.750000000   0.211020000   0.547660000    0   0   0
O0       0.500000000   0.500000000   0.585290000    0   0   0
O0       0.500000000   0.000000000   0.604040000    0   0   0
Nb1      0.750000000   0.000000000   0.644030000    0   0   0
Nb1      0.500000000   0.500000000   0.635610000    0   0   0
O0       0.750000000   0.700180000   0.645870000    0   0   0
O0       0.750000000   0.299820000   0.645870000    0   0   0
O0       0.500000000   0.000000000   0.675830000    0   0   0
O0       0.500000000   0.500000000   0.683639540

     Check: negative starting charge=   -0.005529
     NEW-OLD atomic charge density approx. for the potential

     Check: negative/imaginary core charge=   -0.000004    0.000000
     Check: negative starting charge=   -0.005529

[...]

     Self-consistent Calculation

[...]

     Threshold (ethr) on eigenvalues was too large:
     Diagonalizing with lowered threshold

     Davidson diagonalization with overlap
     ethr =  5.22E-09,  avg # of iterations =  1.4

[...]

     total energy              =   -2954.11632237 Ry
     Harris-Foulkes estimate   =   -2954.11632237 Ry
     estimated scf accuracy    <       0.00000004 Ry

     iteration # 10     ecut=    40.00 Ry     beta=0.30
     Davidson diagonalization with overlap
     ethr =  1.04E-11,  avg # of iterations =  1.0

     negative rho (up, down):  0.482E-02 0.000E+00

     End of self-consistent calculation

[...]

          k = 0.2500-0.4237 0.0000 ( 44580 PWs)   bands (ev):

[...]

          k =-0.5000-0.4237 0.0000 ( 44696 PWs)   bands (ev):

   -55.9474 -55.9473 -55.5310 -55.4168 -55.4168 -55.3644 -55.3429 -55.3419
   -55.3354 -55.3299 -55.3292 -55.3266 -55.3261 -55.2895 -55.2860 -54.3297
   -32.3968 -32.3934 -32.0509 -32.0491 -32.0016 -31.9543 -31.9429 -31.7266
   -31.7206 -31.6625 -31.6586 -31.6527 -31.6527 -31.6472 -31.6463 -31.6439
   -31.6429 -31.6327 -31.6221 -31.6213 -31.6093 -31.5766 -31.5716 -31.5705
   -31.5174 -31.5120 -31.5096 -31.5030 -31.5012 -31.5007 -31.4862 -31.4495
   -31.4492 -31.3658 -31.3655 -31.3554 -31.3434 -31.3405 -31.3338 -31.3326
   -31.3281 -31.3122 -31.2995 -31.2737 -31.2683 -30.8099 -30.7120 -30.5175
   -18.6542 -18.4730 -18.4697 -18.2839 -18.2632 -18.2603 -18.2584 -18.2487
   -18.2177 -18.1378 -18.1285 -18.0837 -18.0800 -18.0725 -17.8844 -17.8829
   -17.8773 -17.8470 -17.7913 -17.7910 -17.7610 -17.7589 -17.7476 -17.7290
   -17.7100 -17.7097 -17.6838 -17.6777 -17.4917 -17.4741 -16.2558 -16.2550
   -14.5058  -6.2440  -6.2182  -6.2036  -6.0785  -6.0661  -6.0451  -6.0444
    -6.0307  -6.0305  -5.9971  -5.9963  -5.8001  -5.7761  -5.7755  -5.5967
    -5.5329  -5.4857  -5.4514  -5.4333  -5.4173  -5.3772  -5.3548  -5.2958
    -5.2854  -5.1367  -5.1272  -5.0986  -5.0815  -5.0281  -5.0152  -5.0131
    -4.9911  -4.7946  -4.7688  -4.7641  -4.7462  -4.6811  -4.6700  -4.6613
    -4.6501  -4.5854  -4.5805  -4.5714  -4.5483  -4.4078  -4.3440  -4.2502
    -4.2100  -4.2093  -4.1762  -4.1657  -4.1123  -4.0932  -4.0566  -3.8299
    -3.8291  -3.7985  -3.7749  -3.6750  -3.6098  -3.5861  -3.5803  -3.5231
    -3.5226  -3.5018  -3.4800  -3.4366  -3.3999  -3.3712  -3.3698  -3.3115
    -3.2972  -2.9868  -2.9243  -2.9166  -2.8890  -2.7887  -2.7849  -2.6055
    -2.5990  -2.5941  -2.5645  -2.4219  -2.4099  -2.3127  -2.3076  -2.2986
    -2.2236  -2.2124  -2.1815  -2.1562  -2.0591  -1.5579  -1.5578  -1.4388
    -1.4382  -0.3404  -0.0586   0.2129   1.2390   1.3118   1.3153   1.4051
     1.4738   1.5112   1.5398   1.6013   1.6765   1.6878   1.6967   1.7000
     1.7597   1.7735   1.9508   1.9571   2.0403   2.0424   2.1536   2.2067
     2.3256   2.3290   2.3919   2.4201   2.4656   2.4928   2.5147   2.5689
     2.6323   2.6464   2.6556   2.6649   2.8350   2.8750   2.9714   2.9986
     3.0253   3.0559   3.1349   3.1995   3.2039   3.2934   3.3622   3.3944
     3.4134   3.5814   3.5927   3.6128   3.9834   4.6143   4.6479   5.0407
     5.0519   5.1142   5.1188   5.1197   5.1374   5.1377   5.3238   5.5260
     5.5408   5.5511   5.7045   6.2210   6.3228   6.3737   6.3764   6.5780
     6.5855   6.6467   6.6472   6.7091   6.7161   7.0346   7.0474   7.0922
     7.1132   7.2966   7.3018   7.4361   7.4406   7.7527   7.7553   7.7860
     7.7887   7.8776   7.8778   8.1462   8.1462   8.1776   8.2372   8.3178
     8.3823   8.4079   8.4592   8.5464   8.5489   8.5541   8.6610   8.7427
     8.8463   8.8798   8.9384   8.9822   9.0140   9.0637   9.1313   9.3895
     9.4424   9.4567   9.5640   9.6662   9.6691   9.7442   9.8434  10.1208
    10.1366  10.1607  10.2884  10.5682  10.5745  10.6234  10.6723  10.9585
    11.2840  11.3404  11.4099  11.4820  11.4981  11.6673  11.7532  11.9633
    12.1891  12.2147  12.3443  12.3494  12.4347  12.4826  12.5328  12.6008
    12.6055  12.6102  12.6167  12.7374  12.7401  12.8431  12.8542  12.9213
    13.0311  13.0585  13.0752  13.1346  13.1479  13.3510  13.3772  13.3775
    13.4679  13.4911  13.5675  13.5714  13.6128  13.6132  13.6734  13.7201
    13.8372  13.8763  13.9174  13.9246  13.9787  13.9860  14.0199  14.0527
    14.0569  14.0573  14.0581  14.1594  14.1662  14.2466  14.2551  14.2639
    14.2933  14.3092  14.3294  14.4045  14.4277  14.4320  14.4967  14.4988
    14.5624  14.6591  14.7020  14.7363  14.7698  14.8005  14.8554  14.8966
    14.9081  14.9992  15.0980  15.1242  15.1780  15.1876  15.3606  15.3817
    15.4341  15.5421  15.5613  15.6362  15.6578  15.6842  15.6952  15.7126
    15.7377  15.9242  15.9838  16.0189  16.1368  16.1396  16.1921  16.2948
    16.3620  16.3681  16.3931  16.4024  16.4104  16.4872  16.5585  16.5645
    16.5654  16.6399  16.6414  16.7577  16.7793  16.7967  16.8104  16.8238
    16.8372  16.8524  16.9428  16.9949  17.0321  17.0988  17.1843  17.2095
    17.2162  17.2183  17.3411  17.4060  17.4104  17.4139  17.4405  17.5290
    17.5557  17.5738  17.6378  17.7522  17.7922  17.8508  17.9639  17.9667
    17.9924  18.0537  18.0744  18.0965  18.1365  18.1428  18.2307  18.2791
    18.3823  18.3840  18.4876  18.4881  18.6113  18.6653  18.7503  18.7514
    18.7588  18.8088  18.8440  18.8480  18.9051  18.9334  18.9588  19.0499
[...]
    19.8469  19.8691  19.8886  19.8955  20.2108  20.2230  20.2617  20.2883
    20.3579  20.4042  20.4572  20.4807  20.5339  20.6077  20.7027  20.8000
    20.8713  20.8875  20.9418  20.9776  20.9820  21.0026  21.1852  21.2071
    21.2581  21.2634  21.3060  21.3568  21.3579  21.3702  21.4628  21.5593
    21.5660  21.5689  21.6677  21.7353  21.8083  21.8096  21.8185  21.8695
    21.9423  22.0166  22.0981  22.1152  22.1225  22.1503  22.1573  22.1775
    22.1967  22.2398  22.3074  22.3076  22.3094  22.3965  22.3970  22.3978
    22.4170  22.4292  22.5029  22.5247  22.6152  22.6217  22.6400  22.7477
    22.7704  22.8017  22.8032  22.8154  22.9268  22.9365  22.9367  22.9755
    23.0643  23.0773  23.1015  23.1047  23.1178  23.1268  23.1988  23.2245
    23.2250  23.3005  23.3843  23.3859  23.3996  23.4163  23.4296  23.4527
    23.6008  23.6531  23.6620  23.7608  23.7852  23.7915  23.8035  23.8096
    23.8184  23.8334  23.9198  23.9680  24.0990  24.1004  24.1031  24.1853
    24.2160  24.2489  24.2911  24.3123  24.3437  24.3564  24.4412  24.4476
    24.4518

     the Fermi energy is     1.3299 ev

!    total energy              =   -2954.11632236 Ry
     Harris-Foulkes estimate   =   -2954.11632237 Ry
     estimated scf accuracy    <       0.00000002 Ry

     The total energy is the sum of the following terms:

     one-electron contribution =  -65238.51551385 Ry
     hartree contribution      =   32671.89710180 Ry
     xc contribution           =    -531.69824598 Ry
     ewald contribution        =   30144.20277222 Ry
     smearing contrib. (-TS)   =      -0.00243654 Ry

     convergence has been achieved in  10 iterations

     Forces acting on atoms (Ry/au):

     negative rho (up, down):  0.482E-02 0.000E+00
     atom    1 type  1   force =     0.00000000    0.00000000    0.14508363
     atom    2 type  2   force =     0.00031649    0.00000000   -0.15072939
     atom    3 type  2   force =     0.00000000    0.00000000    0.07777038
     atom    4 type  1   force =     0.00004138    0.01782745   -0.01267924
     atom    5 type  1   force =     0.00004138   -0.01782745   -0.01267924
     atom    6 type  1   force =     0.00000000    0.00000000   -0.02231241
     atom    7 type  1   force =     0.00000000    0.00000000   -0.03328013
     atom    8 type  2   force =     0.00024486    0.00000000   -0.00094100
     atom    9 type  2   force =     0.00000000    0.00000000   -0.01476820
     atom   10 type  1   force =     0.00005153   -0.00245811   -0.00034394
     atom   11 type  1   force =     0.00005153    0.00245811   -0.00034394
     atom   12 type  1   force =     0.00000000    0.00000000    0.02130269
     atom   13 type  1   force =     0.00000000    0.00000000    0.00191424
     atom   14 type  2   force =     0.01745601    0.00000000    0.01746828
     atom   15 type  2   force =     0.00000000    0.00000000    0.00038175
     atom   16 type  1   force =    -0.00310182   -0.00237625   -0.00182575
     atom   17 type  1   force =    -0.00310182    0.00237625   -0.00182575
     atom   18 type  1   force =     0.00000000    0.00000000    0.00370630
     atom   19 type  1   force =     0.00000000    0.00000000   -0.00473575
     atom   20 type  2   force =     0.00751429    0.00000000    0.02195865
     atom   21 type  2   force =     0.00000000    0.00000000    0.03962901
     atom   22 type  1   force =    -0.07092984    0.04421805   -0.05623739
     atom   23 type  1   force =    -0.07092984   -0.04421805   -0.05623739
     atom   24 type  1   force =     0.00000000    0.00000000   -0.01283633
     atom   25 type  1   force =     0.00000000    0.00000000    0.14516723
     atom   26 type  2   force =    -0.00031649    0.00000000   -0.15072939
     atom   27 type  2   force =     0.00000000    0.00000000    0.07716245
     atom   28 type  1   force =    -0.00004138    0.01782745   -0.01267924
     atom   29 type  1   force =    -0.00004138   -0.01782745   -0.01267924
     atom   30 type  1   force =     0.00000000    0.00000000   -0.02270393
     atom   31 type  1   force =     0.00000000    0.00000000   -0.03245990
     atom   32 type  2   force =    -0.00024486    0.00000000   -0.00094100
     atom   33 type  2   force =     0.00000000    0.00000000   -0.01557832
     atom   34 type  1   force =    -0.00005153   -0.00245811   -0.00034394
     atom   35 type  1   force =    -0.00005153    0.00245811   -0.00034394
     atom   36 type  1   force =     0.00000000    0.00000000    0.02133626
     atom   37 type  1   force =     0.00000000    0.00000000    0.00034909
     atom   38 type  2   force =    -0.01745601    0.00000000    0.01746828
     atom   39 type  2   force =     0.00000000    0.00000000    0.00221510
     atom   40 type  1   force =     0.00310182   -0.00237625   -0.00182575
     atom   41 type  1   force =     0.00310182    0.00237625   -0.00182575
     atom   42 type  1   force =     0.00000000    0.00000000   -0.17752925
     atom   43 type  1   force =     0.00000000    0.00000000   -0.00505172
     atom   44 type  2   force =    -0.00751429    0.00000000    0.02195865
     atom   45 type  2   force =     0.00000000    0.00000000    0.32917367
     atom   46 type  1   force =     0.07092984    0.04421805   -0.05623739
     atom   47 type  1   force =     0.07092984   -0.04421805   -0.05623739
     atom   48 type  1   force =     0.00000000    0.00000000   -0.01543640
     atom   49 type  1   force =     0.00000000    0.00000000    0.00033279

     Total force =     0.000333     Total SCF correction =     0.000080
     SCF correction compared to forces is large: reduce conv_thr to get better values

     bfgs converged in   7 scf cycles and   6 bfgs steps
     (criteria: energy < 0.10E-03, force < 0.10E-02)

     End of BFGS Geometry Optimization

     Final energy   =   -2954.1163223578 Ry
Begin final coordinates

ATOMIC_POSITIONS (crystal)
O0       0.000000000   0.500000000   0.320740000    0   0   0
Nb1      0.250000000   0.500000000   0.359950000    0   0   0
Nb1      0.000000000   0.000000000   0.359950000    0   0   0
O0       0.250000000   0.790000000   0.359950000    0   0   0
O0       0.250000000   0.210000000   0.359950000    0   0   0
O0       0.000000000   0.500000000   0.399170000    0   0   0
O0       0.000000000   0.000000000   0.414100000    0   0   0
Nb1      0.250000000   0.000000000   0.453320000    0   0   0
Nb1      0.000000000   0.500000000   0.453320000    0   0   0
O0       0.250000000   0.710000000   0.453320000    0   0   0
O0       0.250000000   0.290000000   0.453320000    0   0   0
O0       0.000000000   0.000000000   0.492530000    0   0   0
O0       0.000000000   0.500000000   0.506600000    0   0   0
Nb1      0.250000000   0.500000000   0.544900000    0   0   0
Nb1      0.000000000   0.000000000   0.547680000    0   0   0
O0       0.250000000   0.788980000   0.547660000    0   0   0
O0       0.250000000   0.211020000   0.547660000    0   0   0
O0       0.000000000   0.500000000   0.585290000    0   0   0
O0       0.000000000   0.000000000   0.604040000    0   0   0
Nb1      0.250000000   0.000000000   0.644030000    0   0   0
Nb1      0.000000000   0.500000000   0.635610000    0   0   0
O0       0.250000000   0.700180000   0.645870000    0   0   0
O0       0.250000000   0.299820000   0.645870000    0   0   0
O0       0.000000000   0.000000000   0.675830000    0   0   0
O0       0.500000000   0.500000000   0.320740000    0   0   0
Nb1      0.750000000   0.500000000   0.359950000    0   0   0
Nb1      0.500000000   0.000000000   0.359950000    0   0   0
O0       0.750000000   0.790000000   0.359950000    0   0   0
O0       0.750000000   0.210000000   0.359950000    0   0   0
O0       0.500000000   0.500000000   0.399170000    0   0   0
O0       0.500000000   0.000000000   0.414100000    0   0   0
Nb1      0.750000000   0.000000000   0.453320000    0   0   0
Nb1      0.500000000   0.500000000   0.453320000    0   0   0
O0       0.750000000   0.710000000   0.453320000    0   0   0
O0       0.750000000   0.290000000   0.453320000    0   0   0
O0       0.500000000   0.000000000   0.492530000    0   0   0
O0       0.500000000   0.500000000   0.506600000    0   0   0
Nb1      0.750000000   0.500000000   0.544900000    0   0   0
Nb1      0.500000000   0.000000000   0.547680000    0   0   0
O0       0.750000000   0.788980000   0.547660000    0   0   0
O0       0.750000000   0.211020000   0.547660000    0   0   0
O0       0.500000000   0.500000000   0.585290000    0   0   0
O0       0.500000000   0.000000000   0.604040000    0   0   0
Nb1      0.750000000   0.000000000   0.644030000    0   0   0
Nb1      0.500000000   0.500000000   0.635610000    0   0   0
O0       0.750000000   0.700180000   0.645870000    0   0   0
O0       0.750000000   0.299820000   0.645870000    0   0   0
O0       0.500000000   0.000000000   0.675830000    0   0   0
O0       0.500000000   0.500000000   0.683639540
End final coordinates

     General routines

     Parallel routines

   This run was terminated on:  16:50:28  28Mar2014

   JOB DONE.
Running PBS batch system epilogue script
Job id: 314590.audhumbla.fysik.dtu.dk
Username: zhonxu
Groupname: campgst
Jobname: NbO2/Eads-4-layers/O
Sessionid: 64320
Queuename: verylong
Accounting:
This job has allocated the following 32 nodes:
g058 g058 g058 g058 g058 g058 g058 g058 g058 g058 g058 g058 g058 g058 g058 g058 g035 g035 g035 g035 g035 g035 g035 g035 g035 g035 g035 g035 g035 g035 g035 g035
Finished epilogue job 314590.audhumbla.fysik.dtu.dk for zhonxu