     Program PWSCF v.5.0.2 (svn rev. 9656) starts on  6May2014 at  4:20:10

     Current dimensions of program PWSCF are:
     Max number of different atomic species (ntypx) = 10
     Max number of k-points (npk) =  40000
     Max angular momentum in pseudopotentials (lmaxx) =  3
     Reading input from pwscf.in
Warning: card &CELL ignored
Warning: card / ignored

     Subspace diagonalization in iterative solution of the eigenvalue problem:
     a serial algorithm will be used

     bravais-lattice index     =            0
     lattice parameter (alat)  =      11.7919  a.u.
     unit-cell volume          =    7123.6633 (a.u.)^3
     number of atoms/cell      =           30
     number of atomic types    =            3
     number of electrons       =       240.00
     number of Kohn-Sham states=          348
     kinetic-energy cutoff     =      40.0000  Ry
     charge density cutoff     =     500.0000  Ry
     convergence threshold     =      1.0E-06
     mixing beta               =       0.7000
     number of iterations used =            8  plain     mixing
     Exchange-correlation      = SLA  PW   PBE  PBE ( 1 4 3 4 0)
     EXX-fraction              =        0.00
     nstep                     =           50

     celldm(1)=  11.791891  celldm(2)=   0.000000  celldm(3)=   0.000000
     celldm(4)=   0.000000  celldm(5)=   0.000000  celldm(6)=   0.000000

     crystal axes: (cart. coord. in units of alat)
               a(1) = (   1.000000   0.000000   0.000000 )
               a(2) = (   0.000000   1.026665   0.000000 )
               a(3) = (   0.000000   0.000000   4.231793 )

     reciprocal axes: (cart. coord. in units 2 pi/alat)
               b(1) = (  1.000000  0.000000  0.000000 )
               b(2) = (  0.000000  0.974028  0.000000 )
               b(3) = (  0.000000  0.000000  0.236306 )

     PseudoPot. # 1 for O  read from file:
     /home/camp/zhonxu/pseudo/o_pbe_v1.01.uspp.F.UPF
     MD5 check sum: 2bcb18d16ea4b960afae9ec6d52f22d2
     Pseudo is Ultrasoft + core correction, Zval =  6.0
     Generated by new atomic code, or converted to UPF format
     Using radial grid of  737 points,  5 beta functions with:
                l(1) =   0
                l(2) =   0
                l(3) =   1
                l(4) =   1
                l(5) =   2
     Q(r) pseudized with  8 coefficients,  rinner =    0.900   0.900   0.900
                                                       0.900   0.900

     PseudoPot. # 2 for Ru read from file:
     /home/camp/zhonxu/pseudo/ru_pbe_v1.uspp.F.UPF
     MD5 check sum: df00be1c11b23341d9806d8f1dfa10cf
     Pseudo is Ultrasoft + core correction, Zval = 16.0
     Generated by new atomic code, or converted to UPF format
     Using radial grid of  967 points,  6 beta functions with:
                l(1) =   0
                l(2) =   0
                l(3) =   1
                l(4) =   1
                l(5) =   2
                l(6) =   2
     Q(r) pseudized with  8 coefficients,  rinner =    1.300   1.300   1.300
                                                       1.300   1.300

     PseudoPot. # 3 for H  read from file:
     /home/camp/zhonxu/pseudo/h_pbe_v1.uspp.F.UPF
     MD5 check sum: 3408e3ff4ec8b0a4e358431e7e038a48
     Pseudo is Ultrasoft, Zval =  1.0
     Generated by new atomic code, or converted to UPF format
     Using radial grid of  615 points,  2 beta functions with:
                l(1) =   0
                l(2) =   0
     Q(r) pseudized with  8 coefficients,  rinner =    0.700

     atomic species   valence    mass     pseudopotential
        O0             6.00    15.99940     O ( 1.00)
        Ru1           16.00   101.07000     Ru( 1.00)
        H2             1.00     1.00794     H ( 1.00)

     Simplified LDA+U calculation (l_max = 2) with parameters (eV):
     atomic species    L          U    alpha       J0     beta
        Ru1            2     3.5000   0.0000   0.0000   0.0000

     No symmetry found

   Cartesian axes

     site n.     atom                  positions (alat units)
         1           O0  tau(   1) = (   0.0000000   0.0000000   1.6080390  )
         2           O0  tau(   2) = (   0.0000000   0.5133323   1.7023233  )
         3           Ru1 tau(   3) = (   0.2500000   0.5133323   1.9175523  )
         4           Ru1 tau(   4) = (   0.0000000   0.0000000   1.9215302  )
         5           O0  tau(   5) = (   0.2500000   0.8315984   1.9195836  )
         6           O0  tau(   6) = (   0.2500000   0.1950663   1.9193297  )
         7           O0  tau(   7) = (   0.0000000   0.5133323   2.1106490  )
         8           O0  tau(   8) = (   0.0000000   0.0000000   2.2345136  )
         9           Ru1 tau(   9) = (   0.2500000   0.0000000   2.4487269  )
        10           Ru1 tau(  10) = (   0.0000000   0.5133323   2.4113179  )
        11           O0  tau(  11) = (   0.2500000   0.7083986   2.4387399  )
        12           O0  tau(  12) = (   0.2500000   0.3182660   2.4402210  )
        13           O0  tau(  13) = (   0.0000000   0.0000000   2.6238385  )
        14           O0  tau(  14) = (   0.5000000   0.0000000   1.6080390  )
        15           O0  tau(  15) = (   0.5000000   0.5133323   1.7023233  )
        16           Ru1 tau(  16) = (   0.7500000   0.5133323   1.9175523  )
        17           Ru1 tau(  17) = (   0.5000000   0.0000000   1.9215302  )
        18           O0  tau(  18) = (   0.7500000   0.8315984   1.9195836  )
        19           O0  tau(  19) = (   0.7500000   0.1950663   1.9193297  )
        20           O0  tau(  20) = (   0.5000000   0.5133323   2.1106490  )
        21           O0  tau(  21) = (   0.5000000   0.0000000   2.2345136  )
        22           Ru1 tau(  22) = (   0.7500000   0.0000000   2.4487269  )
        23           Ru1 tau(  23) = (   0.5000000   0.5133323   2.4113179  )
        24           O0  tau(  24) = (   0.7500000   0.7083986   2.4387399  )
        25           O0  tau(  25) = (   0.7500000   0.3182660   2.4401787  )
        26           O0  tau(  26) = (   0.5000000   0.0000000   2.6238385  )
        27           H2  tau(  27) = (  -0.0004100   0.6466653   1.6162063  )
        28           H2  tau(  28) = (   0.4995900   0.6466653   1.6162063  )
        29           H2  tau(  29) = (   0.1464700   0.0296706   1.5559879  )
        30           H2  tau(  30) = (   0.6464700   0.0296706   1.5559879  )

     number of k points=    10  Methfessel-Paxton smearing, width (Ry)=  0.0100
                       cart. coord. in units 2pi/alat
        k(    1) = (   0.0000000   0.0000000   0.0000000), wk =   0.1250000
        k(    2) = (   0.0000000   0.2435070   0.0000000), wk =   0.2500000
        k(    3) = (   0.0000000  -0.4870139   0.0000000), wk =   0.1250000
        k(    4) = (   0.2500000   0.0000000   0.0000000), wk =   0.2500000
        k(    5) = (   0.2500000   0.2435070   0.0000000), wk =   0.2500000
        k(    6) = (   0.2500000  -0.4870139   0.0000000), wk =   0.2500000
        k(    7) = (  -0.5000000   0.0000000   0.0000000), wk =   0.1250000
        k(    8) = (  -0.5000000   0.2435070   0.0000000), wk =   0.2500000
        k(    9) = (  -0.5000000  -0.4870139   0.0000000), wk =   0.1250000
        k(   10) = (  -0.2500000   0.2435070   0.0000000), wk =   0.2500000

     Largest allocated arrays     est. size (Mb)     dimensions
     Largest temporary arrays     est. size (Mb)     dimensions

     Check: negative/imaginary core charge=   -0.000003    0.000000

     Initial potential from superposition of free atoms
     Check: negative starting charge=   -0.522083

     starting charge  231.99981, renormalised to  240.00000

     negative rho (up, down):  0.540E+00 0.000E+00
     Number of +U iterations with fixed ns =  0
     Starting occupations:
 --- enter write_ns ---
 LDA+U parameters:
U( 2)     =  3.50000000
alpha( 2) =  0.00000000
atom    3   Tr[ns(na)] =   6.00000
    eigenvalues:
  0.600  0.600  0.600  0.600  0.600
    eigenvectors:
  1.000  0.000  0.000  0.000  0.000
  0.000  1.000  0.000  0.000  0.000
  0.000  0.000  1.000  0.000  0.000
  0.000  0.000  0.000  1.000  0.000
  0.000  0.000  0.000  0.000  1.000
    occupations:
  0.600  0.000  0.000  0.000  0.000
  0.000  0.600  0.000  0.000  0.000
  0.000  0.000  0.600  0.000  0.000
  0.000  0.000  0.000  0.600  0.000
  0.000  0.000  0.000  0.000  0.600
atom    4   Tr[ns(na)] =   6.00000
    eigenvalues:
  0.600  0.600  0.600  0.600  0.600
    eigenvectors:
  1.000  0.000  0.000  0.000  0.000
  0.000  1.000  0.000  0.000  0.000
  0.000  0.000  1.000  0.000  0.000
  0.000  0.000  0.000  1.000  0.000
  0.000  0.000  0.000  0.000  1.000
    occupations:
  0.600  0.000  0.000  0.000  0.000
  0.000  0.600  0.000  0.000  0.000
  0.000  0.000  0.600  0.000  0.000
  0.000  0.000  0.000  0.600  0.000
  0.000  0.000  0.000  0.000  0.600
atom    9   Tr[ns(na)] =   6.00000
    eigenvalues:
  0.600  0.600  0.600  0.600  0.600
    eigenvectors:
  1.000  0.000  0.000  0.000  0.000
  0.000  1.000  0.000  0.000  0.000
  0.000  0.000  1.000  0.000  0.000
  0.000  0.000  0.000  1.000  0.000
  0.000  0.000  0.000  0.000  1.000
    occupations:
  0.600  0.000  0.000  0.000  0.000
  0.000  0.600  0.000  0.000  0.000
  0.000  0.000  0.600  0.000  0.000
  0.000  0.000  0.000  0.600  0.000
  0.000  0.000  0.000  0.000  0.600
atom   10   Tr[ns(na)] =   6.00000
    eigenvalues:
  0.600  0.600  0.600  0.600  0.600
    eigenvectors:
  1.000  0.000  0.000  0.000  0.000
  0.000  1.000  0.000  0.000  0.000
  0.000  0.000  1.000  0.000  0.000
  0.000  0.000  0.000  1.000  0.000
  0.000  0.000  0.000  0.000  1.000
    occupations:
  0.600  0.000  0.000  0.000  0.000
  0.000  0.600  0.000  0.000  0.000
  0.000  0.000  0.600  0.000  0.000
  0.000  0.000  0.000  0.600  0.000
  0.000  0.000  0.000  0.000  0.600
atom   16   Tr[ns(na)] =   6.00000
    eigenvalues:
  0.600  0.600  0.600  0.600  0.600
    eigenvectors:
  1.000  0.000  0.000  0.000  0.000
  0.000  1.000  0.000  0.000  0.000
  0.000  0.000  1.000  0.000  0.000
  0.000  0.000  0.000  1.000  0.000
  0.000  0.000  0.000  0.000  1.000
    occupations:
  0.600  0.000  0.000  0.000  0.000
  0.000  0.600  0.000  0.000  0.000
  0.000  0.000  0.600  0.000  0.000
  0.000  0.000  0.000  0.600  0.000
  0.000  0.000  0.000  0.000  0.600
atom   17   Tr[ns(na)] =   6.00000
    eigenvalues:
  0.600  0.600  0.600  0.600  0.600
    eigenvectors:
  1.000  0.000  0.000  0.000  0.000
  0.000  1.000  0.000  0.000  0.000
  0.000  0.000  1.000  0.000  0.000
  0.000  0.000  0.000  1.000  0.000
  0.000  0.000  0.000  0.000  1.000
    occupations:
  0.600  0.000  0.000  0.000  0.000
  0.000  0.600  0.000  0.000  0.000
  0.000  0.000  0.600  0.000  0.000
  0.000  0.000  0.000  0.600  0.000
  0.000  0.000  0.000  0.000  0.600
atom   22   Tr[ns(na)] =   6.00000
    eigenvalues:
  0.600  0.600  0.600  0.600  0.600
    eigenvectors:
  1.000  0.000  0.000  0.000  0.000
  0.000  1.000  0.000  0.000  0.000
  0.000  0.000  1.000  0.000  0.000
  0.000  0.000  0.000  1.000  0.000
  0.000  0.000  0.000  0.000  1.000
    occupations:
  0.600  0.000  0.000  0.000  0.000
  0.000  0.600  0.000  0.000  0.000
  0.000  0.000  0.600  0.000  0.000
  0.000  0.000  0.000  0.600  0.000
[...]
  0.999  0.001  0.000  0.000  0.000
    occupations:
  0.609 -0.001  0.000  0.041  0.001
 -0.001  0.800  0.018 -0.001 -0.001
  0.000  0.018  0.671  0.002  0.000
  0.041 -0.001  0.002  0.976  0.000
  0.001 -0.001  0.000  0.000  0.554
atom    9   Tr[ns(na)] =   7.21743
    eigenvalues:
  0.570  0.590  0.754  0.844  0.850
    eigenvectors:
  0.000  0.138  0.001  0.441  0.420
  1.000  0.000  0.000  0.000  0.000
  0.000  0.000  0.998  0.001  0.001
  0.000  0.861  0.000  0.070  0.068
  0.000  0.000  0.000  0.488  0.512
    occupations:
  0.812  0.001 -0.004 -0.089  0.003
  0.001  0.570  0.001  0.000  0.001
 -0.004  0.001  0.754  0.001  0.000
 -0.089  0.000  0.001  0.625 -0.001
  0.003  0.001  0.000 -0.001  0.847
atom   10   Tr[ns(na)] =   7.24281
    eigenvalues:
  0.525  0.534  0.762  0.839  0.961
    eigenvectors:
  0.988  0.000  0.000  0.000  0.012
  0.000  0.000  0.000  1.000  0.000
  0.000  0.000  1.000  0.000  0.000
  0.012  0.000  0.000  0.000  0.988
  0.000  1.000  0.000  0.000  0.000
    occupations:
  0.531  0.000  0.000  0.048  0.000
  0.000  0.839  0.001  0.000 -0.001
  0.000  0.001  0.762 -0.002 -0.000
  0.048  0.000 -0.002  0.956 -0.000
  0.000 -0.001 -0.000 -0.000  0.534
atom   16   Tr[ns(na)] =   7.24351
    eigenvalues:
  0.510  0.556  0.727  0.862  0.967
    eigenvectors:
  0.000  0.188  0.007  0.000  0.805
  1.000  0.000  0.000  0.000  0.000
  0.000  0.001  0.988  0.000  0.011
  0.000  0.812  0.005  0.000  0.184
  0.000  0.000  0.000  1.000  0.000
    occupations:
  0.888  0.000  0.025 -0.159 -0.000
  0.000  0.510 -0.000 -0.000 -0.004
  0.025 -0.000  0.730 -0.007  0.000
 -0.159 -0.000 -0.007  0.632  0.000
 -0.000 -0.004  0.000  0.000  0.862
atom   17   Tr[ns(na)] =   7.21919
    eigenvalues:
  0.554  0.604  0.669  0.802  0.980
    eigenvectors:
  0.001  0.987  0.000  0.000  0.012
  0.000  0.000  0.019  0.981  0.000
  0.000  0.000  0.981  0.019  0.000
  0.000  0.012  0.000  0.000  0.988
  0.999  0.001  0.000  0.000  0.000
    occupations:
  0.609 -0.001  0.000  0.041  0.001
 -0.001  0.799  0.018 -0.001 -0.001
  0.000  0.018  0.671  0.002  0.000
  0.041 -0.001  0.002  0.976  0.000
  0.001 -0.001  0.000  0.000  0.554
atom   22   Tr[ns(na)] =   7.21668
    eigenvalues:
  0.570  0.590  0.754  0.844  0.850
    eigenvectors:
  0.000  0.138  0.001  0.442  0.419
  1.000  0.000  0.000  0.000  0.000
  0.000  0.000  0.998  0.001  0.001
  0.000  0.861  0.000  0.070  0.068
  0.000  0.000  0.000  0.487  0.513
    occupations:
  0.811  0.001 -0.004 -0.089  0.003
  0.001  0.570  0.001  0.000  0.001
 -0.004  0.001  0.754  0.001  0.000
 -0.089  0.000  0.001  0.625 -0.001
  0.003  0.001  0.000 -0.001  0.847
atom   23   Tr[ns(na)] =   7.24267
    eigenvalues:
  0.525  0.534  0.762  0.839  0.961
    eigenvectors:
  0.988  0.000  0.000  0.000  0.012
  0.000  0.000  0.000  1.000  0.000
  0.000  0.000  1.000  0.000  0.000
  0.012  0.000  0.000  0.000  0.988
  0.000  1.000  0.000  0.000  0.000
    occupations:
  0.531  0.000  0.000  0.048  0.000
  0.000  0.839  0.001  0.000 -0.001
  0.000  0.001  0.762 -0.002 -0.000
  0.048  0.000 -0.002  0.956 -0.000
  0.000 -0.001 -0.000 -0.000  0.534
N of occupied +U levels =  57.8458981
 --- exit write_ns ---

[...]

     total energy              =   -2129.45557650 Ry
     Harris-Foulkes estimate   =   -2129.45557650 Ry
     estimated scf accuracy    <       0.00000002 Ry

     iteration # 17     ecut=    40.00 Ry     beta=0.70
     Davidson diagonalization with overlap
     ethr =  9.11E-12,  avg # of iterations =  1.0

     negative rho (up, down):  0.572E+00 0.000E+00

     End of self-consistent calculation
 --- enter write_ns ---
 LDA+U parameters:
U( 2)     =  3.50000000
alpha( 2) =  0.00000000
atom    3   Tr[ns(na)] =   7.24068
    eigenvalues:
  0.510  0.556  0.727  0.861  0.966
    eigenvectors:
  0.000  0.188  0.007  0.000  0.805
  1.000  0.000  0.000  0.000  0.000
  0.000  0.001  0.988  0.000  0.011
  0.000  0.812  0.005  0.000  0.184
  0.000  0.000  0.000  1.000  0.000
    occupations:
  0.888  0.000  0.025 -0.159 -0.000
  0.000  0.510 -0.000 -0.000 -0.004
  0.025 -0.000  0.729 -0.007  0.000
 -0.159 -0.000 -0.007  0.632  0.000
 -0.000 -0.004  0.000  0.000  0.861
atom    4   Tr[ns(na)] =   7.21627
    eigenvalues:
  0.554  0.604  0.668  0.801  0.980
    eigenvectors:
  0.001  0.987  0.000  0.000  0.012
  0.000  0.000  0.019  0.981  0.000
  0.000  0.000  0.981  0.019  0.000
  0.000  0.012  0.000  0.000  0.988
  0.999  0.001  0.000  0.000  0.000
    occupations:
  0.609 -0.001  0.000  0.041  0.001
 -0.001  0.799  0.018 -0.001 -0.001
  0.000  0.018  0.671  0.002  0.000
  0.041 -0.001  0.002  0.976  0.000
  0.001 -0.001  0.000  0.000  0.554
atom    9   Tr[ns(na)] =   7.22002
    eigenvalues:
  0.570  0.590  0.754  0.845  0.851
    eigenvectors:
  0.000  0.138  0.001  0.433  0.428
  1.000  0.000  0.000  0.000  0.000
  0.000  0.000  0.998  0.001  0.001
  0.000  0.862  0.000  0.069  0.069
  0.000  0.000  0.000  0.497  0.503
    occupations:
  0.812  0.001 -0.004 -0.089  0.003
  0.001  0.570  0.001  0.000  0.001
 -0.004  0.001  0.754  0.001  0.000
 -0.089  0.000  0.001  0.625 -0.001
  0.003  0.001  0.000 -0.001  0.848
atom   10   Tr[ns(na)] =   7.24577
    eigenvalues:
  0.526  0.534  0.762  0.840  0.961
    eigenvectors:
  0.988  0.000  0.000  0.000  0.012
  0.000  0.000  0.000  1.000  0.000
  0.000  0.000  1.000  0.000  0.000
  0.012  0.000  0.000  0.000  0.988
  0.000  1.000  0.000  0.000  0.000
    occupations:
  0.531  0.000  0.000  0.048  0.000
  0.000  0.840  0.001  0.000 -0.001
  0.000  0.001  0.762 -0.002 -0.000
  0.048  0.000 -0.002  0.956 -0.000
  0.000 -0.001 -0.000 -0.000  0.534
atom   16   Tr[ns(na)] =   7.24071
    eigenvalues:
  0.510  0.556  0.727  0.861  0.966
    eigenvectors:
  0.000  0.188  0.007  0.000  0.805
  1.000  0.000  0.000  0.000  0.000
  0.000  0.001  0.988  0.000  0.011
  0.000  0.812  0.005  0.000  0.184
  0.000  0.000  0.000  1.000  0.000
    occupations:
  0.888  0.000  0.025 -0.159 -0.000
  0.000  0.510 -0.000 -0.000 -0.004
  0.025 -0.000  0.729 -0.007  0.000
 -0.159 -0.000 -0.007  0.632  0.000
 -0.000 -0.004  0.000  0.000  0.861
atom   17   Tr[ns(na)] =   7.21627
    eigenvalues:
  0.554  0.604  0.668  0.801  0.980
    eigenvectors:
  0.001  0.987  0.000  0.000  0.012
  0.000  0.000  0.019  0.981  0.000
  0.000  0.000  0.981  0.019  0.000
  0.000  0.012  0.000  0.000  0.988
  0.999  0.001  0.000  0.000  0.000
    occupations:
  0.609 -0.001  0.000  0.041  0.001
 -0.001  0.799  0.018 -0.001 -0.001
  0.000  0.018  0.671  0.002  0.000
  0.041 -0.001  0.002  0.976  0.000
  0.001 -0.001  0.000  0.000  0.554
atom   22   Tr[ns(na)] =   7.22009
    eigenvalues:
  0.570  0.590  0.754  0.845  0.851
    eigenvectors:
  0.000  0.138  0.001  0.430  0.430
  1.000  0.000  0.000  0.000  0.000
  0.000  0.000  0.998  0.001  0.001
  0.000  0.862  0.000  0.068  0.069
  0.000  0.000  0.000  0.500  0.500
    occupations:
  0.812  0.001 -0.004 -0.089  0.003
  0.001  0.570  0.001  0.000  0.001
 -0.004  0.001  0.754  0.001  0.000
 -0.089  0.000  0.001  0.625 -0.001
  0.003  0.001  0.000 -0.001  0.848
atom   23   Tr[ns(na)] =   7.24578
    eigenvalues:
  0.526  0.534  0.762  0.840  0.961
    eigenvectors:
  0.988  0.000  0.000  0.000  0.012
  0.000  0.000  0.000  1.000  0.000
  0.000  0.000  1.000  0.000  0.000
  0.012  0.000  0.000  0.000  0.988
  0.000  1.000  0.000  0.000  0.000
    occupations:
  0.531  0.000  0.000  0.048  0.000
  0.000  0.840  0.001  0.000 -0.001
  0.000  0.001  0.762 -0.002 -0.000
  0.048  0.000 -0.002  0.956 -0.000
  0.000 -0.001 -0.000 -0.000  0.534
N of occupied +U levels =  57.8455993
 --- exit write_ns ---

[...]

          k = 0.2500-0.4870 0.0000 ( 30468 PWs)   bands (ev):

[...]

          k =-0.2500 0.2435 0.0000 ( 30434 PWs)   bands (ev):

   -74.0444 -74.0365 -73.9616 -73.9543 -73.7245 -73.7168 -73.5531 -73.5459
   -44.2736 -44.2656 -44.1608 -44.0934 -44.0840 -44.0628 -44.0531 -44.0270
   -43.9730 -43.9526 -43.8943 -43.8199 -43.7593 -43.7576 -43.7552 -43.7357
   -43.7142 -43.6292 -43.5205 -43.5143 -43.4997 -43.4985 -43.4785 -43.3902
   -20.8407 -20.4047 -20.3264 -20.3040 -20.1906 -20.0611 -19.7934 -19.7847
   -19.6940 -19.5839 -19.5792 -19.4131 -19.2928 -19.2394 -19.2000 -19.0686
   -19.0425 -18.8680  -9.2553  -8.7747  -8.7147  -8.6006  -8.3734  -8.2904
    -8.1482  -8.0923  -7.8667  -7.7659  -7.6786  -7.6735  -7.5324  -7.4848
    -7.4154  -7.4135  -7.3215  -7.2139  -6.8939  -6.7795  -6.7178  -6.4616
    -6.3155  -6.2050  -6.0561  -5.9123  -5.8928  -5.6777  -5.5859  -5.5030
    -5.4392  -5.4089  -5.3194  -5.1622  -5.0809  -5.0519  -4.9432  -4.9094
    -4.7801  -4.7586  -4.6105  -4.5005  -4.2889  -4.2308  -4.1389  -4.0832
    -3.9937  -3.8696  -3.8012  -3.5317  -3.4791  -3.1895  -3.1627  -2.8068
    -2.6095  -2.5053  -2.3098  -2.1597  -2.1278  -2.0958  -2.0432  -1.9543
    -1.9267  -1.8066  -1.7892  -1.7079  -1.5412  -1.4314  -1.3542  -1.1387
    -0.8644  -0.6503  -0.6196  -0.4756  -0.3994  -0.2358  -0.1184   0.1231
     0.8128   0.9788   1.7134   1.8460   1.8987   2.4087   2.4717   2.7807
     2.9881   3.2333   3.4043   3.4111   3.4818   3.6076   3.8655   3.8751
     4.0546   4.3587   4.6453   5.0796   5.5376   5.7678   5.8209   6.0094
     6.1030   6.3850   6.5353   6.5437   6.7449   6.8714   6.9489   7.1788
     7.4729   7.5287   7.8027   7.9014   7.9387   8.2193   8.2525   8.3738
     8.4694   8.5473   8.7321   8.7348   8.8379   9.0017   9.1733   9.2208
     9.2905   9.4954   9.5126   9.7780   9.7942   9.9735   9.9850  10.0570
    10.0970  10.3146  10.3148  10.4230  10.4412  10.5899  10.6453  10.7887
    10.8384  10.8955  11.0352  11.1637  11.3028  11.3388  11.4535  11.5450
    11.5870  11.6638  11.6958  11.8198  11.8951  12.0074  12.0344  12.0813
    12.1728  12.3120  12.3844  12.4647  12.5185  12.5807  12.6778  12.7078
    12.7874  12.8464  12.9182  12.9753  12.9910  13.1513  13.2249  13.3671
    13.3738  13.4684  13.6039  13.6658  13.7131  13.7731  13.8598  13.9892
    14.0175  14.0830  14.2020  14.3467  14.3561  14.4064  14.5643  14.5719
    14.6027  14.7329  14.8202  14.9108  14.9497  15.0510  15.0676  15.1749
    15.2593  15.3795  15.4951  15.5323  15.6669  15.7289  15.7576  15.8233
    15.8407  15.9336  15.9347  15.9700  16.0309  16.0927  16.1725  16.1739
    16.2957  16.4065  16.4467  16.5451  16.6020  16.7201  16.7254  16.8235
    16.8551  16.8694  17.0114  17.0323  17.1157  17.2249  17.2961  17.3976
    17.4405  17.4810  17.5035  17.5978  17.6079  17.6288  17.7214  17.8007
    17.8771  17.8880  17.9918  17.9985  18.0678  18.1505  18.1688  18.3259
    18.3278  18.4551  18.5298  18.6357  18.6357  18.7466  18.7587  18.8890
    18.9880  19.0371  19.1156  19.1805  19.2517  19.2696  19.3638  19.4224
    19.4646  19.6001  19.6562  19.7721  19.8358  19.8576  19.9182  19.9925
    20.0652  20.2132  20.2278  20.4184  20.4211  20.5777  20.6562  20.7086
    20.7741  20.8016  20.8973  20.9041  21.0012  21.0705  21.0842  21.1176
    21.2329  21.2567  21.3336  21.3716  21.3919  21.4368  21.4895  21.6338
    21.6664  21.6734  21.8080  21.8496

     the Fermi energy is    -1.0099 ev

!    total energy              =   -2129.45557649 Ry
     Harris-Foulkes estimate   =   -2129.45557650 Ry
     estimated scf accuracy    <          8.4E-09 Ry

     The total energy is the sum of the following terms:

     one-electron contribution =  -24526.16280595 Ry
     hartree contribution      =   12285.26751928 Ry
     xc contribution           =    -330.83992925 Ry
     ewald contribution        =   10440.46994084 Ry
     Hubbard energy            =       1.80853732 Ry
     smearing contrib. (-TS)   =       0.00116127 Ry

     convergence has been achieved in  17 iterations

     Forces acting on atoms (Ry/au):

     negative rho (up, down):  0.572E+00 0.000E+00
     atom    1 type  1   force =    -0.00545906   -0.00979670   -0.00017830
     atom    2 type  1   force =    -0.00016557    0.00646832   -0.00028012
     atom    3 type  2   force =    -0.00027911    0.00206238   -0.00091967
     atom    4 type  2   force =     0.00314263    0.00586004    0.00015985
     atom    5 type  1   force =     0.00089020   -0.03230799    0.00008855
     atom    6 type  1   force =     0.00201266    0.03219521    0.00019016
     atom    7 type  1   force =     0.00008232   -0.00207835    0.00046903
     atom    8 type  1   force =     0.00020868   -0.00126489   -0.00077578
     atom    9 type  2   force =     0.00081347    0.00175158    0.00044315
     atom   10 type  2   force =     0.00008340   -0.00054342   -0.00011186
     atom   11 type  1   force =    -0.00005754    0.01411995    0.00050770
     atom   12 type  1   force =     0.00002969   -0.01531978    0.00061082
     atom   13 type  1   force =    -0.00165147   -0.00056691    0.00035240
     atom   14 type  1   force =    -0.00546695   -0.00979774   -0.00017769
     atom   15 type  1   force =    -0.00017499    0.00646626   -0.00027773
     atom   16 type  2   force =    -0.00028278    0.00206714   -0.00092094
     atom   17 type  2   force =     0.00314418    0.00585983    0.00015872
     atom   18 type  1   force =     0.00089171   -0.03230335    0.00008705
     atom   19 type  1   force =     0.00201411    0.03219029    0.00018974
     atom   20 type  1   force =     0.00007140   -0.00207815    0.00047555
     atom   21 type  1   force =     0.00018603   -0.00126487   -0.00077411
     atom   22 type  2   force =     0.00080212    0.00174910    0.00044597
     atom   23 type  2   force =     0.00008469   -0.00054353   -0.00012247
     atom   24 type  1   force =    -0.00005495    0.01411625    0.00051127
     atom   25 type  1   force =     0.00003213   -0.01531037    0.00060096
     atom   26 type  1   force =    -0.00167761   -0.00056666    0.00035073
     atom   27 type  3   force =    -0.00001162   -0.00054446   -0.00090055
     atom   28 type  3   force =    -0.00001128   -0.00054235   -0.00090234
     atom   29 type  3   force =     0.00039908   -0.00003890    0.00035118
     atom   30 type  3   force =     0.00040444   -0.00003793    0.00034876

     Total force =     0.002900     Total SCF correction =     0.000384
     SCF correction compared to forces is large: reduce conv_thr to get better values

     bfgs converged in   9 scf cycles and   8 bfgs steps
     (criteria: energy < 0.10E-03, force < 0.10E-02)

     End of BFGS Geometry Optimization

     Final energy   =   -2129.4555764905 Ry
Begin final coordinates

ATOMIC_POSITIONS (crystal)
O0       0.000000000   0.000000000   0.380745276    0   0   1
O0       0.000000000   0.500000000   0.403001731    0   0   1
Ru1      0.250000000   0.500000000   0.453312722    0   0   1
Ru1      0.000000000   0.000000000   0.454420605    0   0   1
O0       0.250000000   0.810000000   0.453835958    0   0   1
O0       0.250000000   0.190000000   0.453691169    0   0   1
O0       0.000000000   0.500000000   0.499448905    0   0   1
O0       0.000000000   0.000000000   0.527452743    0   0   1
Ru1      0.250000000   0.000000000   0.578345955    0   0   1
Ru1      0.000000000   0.500000000   0.569640588    0   0   1
O0       0.250000000   0.690000000   0.575518139    0   0   1
O0       0.250000000   0.310000000   0.575709877    0   0   1
O0       0.000000000   0.000000000   0.619818150    0   0   1
O0       0.500000000   0.000000000   0.380745364    0   0   1
O0       0.500000000   0.500000000   0.403001511    0   0   1
Ru1      0.750000000   0.500000000   0.453312631    0   0   1
Ru1      0.500000000   0.000000000   0.454420647    0   0   1
O0       0.750000000   0.810000000   0.453835918    0   0   1
O0       0.750000000   0.190000000   0.453691083    0   0   1
O0       0.500000000   0.500000000   0.499448880    0   0   1
O0       0.500000000   0.000000000   0.527452673    0   0   1
Ru1      0.750000000   0.000000000   0.578344765    0   0   1
Ru1      0.500000000   0.500000000   0.569641093    0   0   1
O0       0.750000000   0.690000000   0.575517087    0   0   1
O0       0.750000000   0.310000000   0.575711153    0   0   1
O0       0.500000000   0.000000000   0.619818807    0   0   1
H2      -0.000522955   0.625742973   0.381361631
H2       0.499476522   0.625744672   0.381362072
H2       0.146117878   0.028588434   0.368131355
H2       0.646117398   0.028588523   0.368131512
End final coordinates

     General routines

     Parallel routines
     Hubbard U routines

   This run was terminated on:  15: 6: 2   6May2014

   JOB DONE.
Running PBS batch system epilogue script
Job id: 340781.audhumbla.fysik.dtu.dk
Username: zhonxu
Groupname: campgst
Jobname: RuO2/Eads-2-layers/bare-U-3.5
Sessionid: 14240
Queuename: verylong
Accounting:
This job has allocated the following 16 nodes:
d080 d080 d080 d080 d080 d080 d080 d080 d079 d079 d079 d079 d079 d079 d079 d079
Finished epilogue job 340781.audhumbla.fysik.dtu.dk for zhonxu