     Program PWSCF v.5.0.2 (svn rev. 9656) starts on 17Apr2014 at  2:13:54

     Current dimensions of program PWSCF are:
     Max number of different atomic species (ntypx) = 10
     Max number of k-points (npk) =  40000
     Max angular momentum in pseudopotentials (lmaxx) =  3
     Reading input from pwscf.in
Warning: card &CELL ignored
Warning: card / ignored

     Subspace diagonalization in iterative solution of the eigenvalue problem:
     a serial algorithm will be used

     bravais-lattice index     =            0
     lattice parameter (alat)  =      10.7336  a.u.
     unit-cell volume          =    6184.1966 (a.u.)^3
     number of atoms/cell      =           31
     number of atomic types    =            3
     number of electrons       =       238.00 (up: 130.00, down: 108.00)
     number of Kohn-Sham states=          345
     kinetic-energy cutoff     =      40.0000  Ry
     charge density cutoff     =     500.0000  Ry
     convergence threshold     =      1.0E-06
     mixing beta               =       0.1000
     number of iterations used =            8  plain     mixing
     Exchange-correlation      = SLA  PW   PBE  PBE ( 1 4 3 4 0)
     EXX-fraction              =        0.00
     nstep                     =           50

     celldm(1)=  10.733644  celldm(2)=   0.000000  celldm(3)=   0.000000
     celldm(4)=   0.000000  celldm(5)=   0.000000  celldm(6)=   0.000000

     crystal axes: (cart. coord. in units of alat)
               a(1) = (   1.000000   0.000000   0.000000 )
               a(2) = (   0.000000   1.085558   0.000000 )
               a(3) = (   0.000000   0.000000   4.606685 )

     reciprocal axes: (cart. coord. in units 2 pi/alat)
               b(1) = (  1.000000  0.000000  0.000000 )
               b(2) = (  0.000000  0.921185  0.000000 )
               b(3) = (  0.000000  0.000000  0.217076 )

     PseudoPot. # 1 for O  read from file:
     /home/camp/zhonxu/pseudo/o_pbe_v1.01.uspp.F.UPF
     MD5 check sum: 2bcb18d16ea4b960afae9ec6d52f22d2
     Pseudo is Ultrasoft + core correction, Zval =  6.0
     Generated by new atomic code, or converted to UPF format
     Using radial grid of  737 points,  5 beta functions with:
                l(1) =   0
                l(2) =   0
                l(3) =   1
                l(4) =   1
                l(5) =   2
     Q(r) pseudized with  8 coefficients,  rinner =    0.900   0.900   0.900
                                                       0.900   0.900

     PseudoPot. # 2 for Mn read from file:
     /home/camp/zhonxu/pseudo/mn_pbe_v1.uspp.F.UPF
     MD5 check sum: 5fd7c7b5c956fd19902447332617373a
     Pseudo is Ultrasoft + core correction, Zval = 15.0
     Generated by new atomic code, or converted to UPF format
     Using radial grid of  859 points,  6 beta functions with:
                l(1) =   0
                l(2) =   0
                l(3) =   1
                l(4) =   1
                l(5) =   2
                l(6) =   2
     Q(r) pseudized with  6 coefficients,  rinner =    1.150   1.150   1.150
                                                       1.150   1.150

     PseudoPot. # 3 for H  read from file:
     /home/camp/zhonxu/pseudo/h_pbe_v1.uspp.F.UPF
     MD5 check sum: 3408e3ff4ec8b0a4e358431e7e038a48
     Pseudo is Ultrasoft, Zval =  1.0
     Generated by new atomic code, or converted to UPF format
     Using radial grid of  615 points,  2 beta functions with:
                l(1) =   0
                l(2) =   0
     Q(r) pseudized with  8 coefficients,  rinner =    0.700

     atomic species   valence    mass     pseudopotential
        O0             6.00    15.99940     O ( 1.00)
        Mn1           15.00    54.93800     Mn( 1.00)
        H2             1.00     1.00794     H ( 1.00)

     Starting magnetic structure
     atomic species   magnetization
        O0           0.000
        Mn1          0.600
        H2           0.000

     No symmetry found

   Cartesian axes

     site n.     atom                  positions (alat units)
         1           O0  tau(   1) = (   0.0000000   0.0000000   1.7447820  )
         2           O0  tau(   2) = (   0.0000000   0.5427791   1.8376067  )
         3           Mn1 tau(   3) = (   0.2500000   0.5427791   2.0747588  )
         4           Mn1 tau(   4) = (   0.0000000   0.0000000   2.0706589  )
         5           O0  tau(   5) = (   0.2500000   0.8684466   2.0701061  )
         6           O0  tau(   6) = (   0.2500000   0.2171117   2.0762330  )
         7           O0  tau(   7) = (   0.0000000   0.5427791   2.2870349  )
         8           O0  tau(   8) = (   0.0000000   0.0000000   2.4167591  )
         9           Mn1 tau(   9) = (   0.2500000   0.0000000   2.6420260  )
        10           Mn1 tau(  10) = (   0.0000000   0.5427791   2.6105163  )
        11           O0  tau(  11) = (   0.2500000   0.7598908   2.6432698  )
        12           O0  tau(  12) = (   0.2500000   0.3256675   2.6435002  )
        13           O0  tau(  13) = (   0.0000000   0.0000000   2.8452730  )
        14           O0  tau(  14) = (   0.5000000   0.0000000   1.7450584  )
        15           O0  tau(  15) = (   0.5000000   0.5427791   1.8364089  )
        16           Mn1 tau(  16) = (   0.7500000   0.5427791   2.0747588  )
        17           Mn1 tau(  17) = (   0.5000000   0.0000000   2.0720409  )
        18           O0  tau(  18) = (   0.7500000   0.8684466   2.0700600  )
        19           O0  tau(  19) = (   0.7500000   0.2171117   2.0762790  )
        20           O0  tau(  20) = (   0.5000000   0.5427791   2.2861596  )
        21           O0  tau(  21) = (   0.5000000   0.0000000   2.4169434  )
        22           Mn1 tau(  22) = (   0.7500000   0.0000000   2.6420260  )
        23           Mn1 tau(  23) = (   0.5000000   0.5427791   2.6887378  )
        24           O0  tau(  24) = (   0.7500000   0.7598908   2.6432698  )
        25           O0  tau(  25) = (   0.7500000   0.3256675   2.6435002  )
        26           O0  tau(  26) = (   0.5000000   0.0000000   2.8449505  )
        27           H2  tau(  27) = (  -0.0000400   0.7004782   1.7602604  )
        28           H2  tau(  28) = (   0.4999400   0.7011838   1.7597076  )
        29           H2  tau(  29) = (   0.1611800   0.0392212   1.6896860  )
        30           H2  tau(  30) = (   0.6612400   0.0390910   1.6898242  )
        31           O0  tau(  31) = (   0.5000200   0.5427791   2.9682254  )

     number of k points=    20  Methfessel-Paxton smearing, width (Ry)=  0.0100
                       cart. coord. in units 2pi/alat
        k(    1) = (   0.0000000   0.0000000   0.0000000), wk =   0.0625000
        k(    2) = (   0.0000000   0.2302962   0.0000000), wk =   0.1250000
        k(    3) = (   0.0000000  -0.4605925   0.0000000), wk =   0.0625000
        k(    4) = (   0.2500000   0.0000000   0.0000000), wk =   0.1250000
        k(    5) = (   0.2500000   0.2302962   0.0000000), wk =   0.1250000
        k(    6) = (   0.2500000  -0.4605925   0.0000000), wk =   0.1250000
        k(    7) = (  -0.5000000   0.0000000   0.0000000), wk =   0.0625000
        k(    8) = (  -0.5000000   0.2302962   0.0000000), wk =   0.1250000
        k(    9) = (  -0.5000000  -0.4605925   0.0000000), wk =   0.0625000
        k(   10) = (  -0.2500000   0.2302962   0.0000000), wk =   0.1250000
        k(   11) = (   0.0000000   0.0000000   0.0000000), wk =   0.0625000
        k(   12) = (   0.0000000   0.2302962   0.0000000), wk =   0.1250000
        k(   13) = (   0.0000000  -0.4605925   0.0000000), wk =   0.0625000
        k(   14) = (   0.2500000   0.0000000   0.0000000), wk =   0.1250000
        k(   15) = (   0.2500000   0.2302962   0.0000000), wk =   0.1250000
        k(   16) = (   0.2500000  -0.4605925   0.0000000), wk =   0.1250000
        k(   17) = (  -0.5000000   0.0000000   0.0000000), wk =   0.0625000
        k(   18) = (  -0.5000000   0.2302962   0.0000000), wk =   0.1250000
        k(   19) = (  -0.5000000  -0.4605925   0.0000000), wk =   0.0625000
        k(   20) = (  -0.2500000   0.2302962   0.0000000), wk =   0.1250000

     Largest allocated arrays     est. size (Mb)     dimensions
     Largest temporary arrays     est. size (Mb)     dimensions

     Check: negative/imaginary core charge=   -0.000022    0.000000

     Initial potential from superposition of free atoms
     Check: negative starting charge=(component1):   -0.000742
     Check: negative starting charge=(component2):   -0.000367

     starting charge  229.99987, renormalised to  238.00000

     negative rho (up, down):  0.768E-03 0.379E-03
     Starting wfc are  184 randomized atomic wfcs

     Self-consistent Calculation

     iteration #  1     ecut=    40.00 Ry     beta=0.10
     Davidson diagonalization with overlap
     ethr =  1.00E-02,  avg # of iterations =  5.7

     negative rho (up, down):  0.733E-03 0.404E-03

     total energy              =   -2315.36675166 Ry
     Harris-Foulkes estimate   =   -2318.68593192 Ry
     estimated scf accuracy    <      29.26226754 Ry

     total magnetization       =    22.00 Bohr mag/cell
     absolute magnetization    =    33.29 Bohr mag/cell

[...]

     End of self-consistent calculation

 ------ SPIN UP ------------

          k = 0.0000 0.0000 0.0000 ( 26393 PWs)   bands (ev):

   -84.2159 -84.1786 -84.1537 -84.1437 -83.9846 -83.9616 -83.8388 -83.8284
   -53.0091 -52.9825 -52.8838 -52.8831 -52.8741 -52.8582 -52.8578 -52.8529
   -52.8156 -52.7881 -52.7754 -52.7736 -52.7517 -52.7301 -52.6716 -52.6504
   -52.5922 -52.5841 -52.5762 -52.4845 -52.4646 -52.4519 -52.4164 -52.3969
   -22.1595 -21.6125 -21.3913 -21.2046 -20.8227 -20.5847 -20.4794 -20.4094
   -20.2651 -20.1941 -20.1846 -20.1384 -20.0648 -20.0200 -19.8554 -19.7340
   -19.5756 -19.2519 -19.1271 -10.0712  -9.9335  -9.7978  -9.4584  -9.2934
    -8.8055  -8.6871  -8.6445  -8.5443  -8.4858  -8.4578  -8.4336  -8.3930
    -8.0720  -8.0021  -7.9992  -7.8020  -7.7128  -7.6395  -7.4856  -7.4589
    -7.4025  -7.3449  -7.1116  -7.0533  -6.9265  -6.9068  -6.5900  -6.4703
    -6.2455  -6.2347  -6.1600  -6.1308  -5.8833  -5.7658  -5.7564  -5.6270
    -5.6020  -5.4915  -5.4312  -5.2985  -5.1922  -5.0936  -5.0084  -4.9944
    -4.9535  -4.8443  -4.8051  -4.7791  -4.7633  -4.5965  -4.5662  -4.5298
    -4.3250  -4.3195  -4.2594  -4.2081  -4.0567  -4.0237  -3.9633  -3.9328
    -3.6775  -3.6470  -3.5889  -3.5458  -3.3278  -3.0910  -3.0250  -3.0171
    -2.9779  -2.8661  -2.8587  -2.7052  -2.6089  -2.4668  -2.4240  -2.1677
    -2.0511  -2.0473  -1.8977  -1.8787  -1.7136  -1.0000  -0.6644  -0.6396
    -0.5545  -0.3377  -0.2305  -0.0865   0.1403   0.2044   0.3788   0.4693
     0.6430   0.9241   1.1473   1.2027   2.9141   3.7479   3.8858   4.3512
     4.7981   5.5219   6.0132   6.1694   6.4854   6.9576   7.0719   7.0807
     7.3501   7.5839   7.7303   7.8256   7.9460   8.1642   8.1758   8.1854
     8.2869   8.3705   8.4921   8.5279   8.6305   8.9061   8.9450   8.9904
     9.0129   9.1171   9.3232   9.3956   9.4844   9.5421   9.6701   9.7256
     9.8322   9.9501  10.0470  10.2793  10.3300  10.3907  10.4726  10.5413
    10.7325  10.7664  10.9444  10.9776  11.0281  11.1194  11.2758  11.3149
[...]
     atom   17 type  2   force =     0.00434645    0.01062515    0.00130839
     atom   18 type  1   force =     0.00513291    0.01274952    0.00098640
     atom   19 type  1   force =    -0.00131116   -0.01499258   -0.00024786
     atom   20 type  1   force =    -0.00010570    0.00008777   -0.01420541
     atom   21 type  1   force =    -0.00035447   -0.00157587   -0.00704266
     atom   22 type  2   force =    -0.00265910    0.00027488    0.00502907
     atom   23 type  2   force =    -0.00008006   -0.00033876    0.00245898
     atom   24 type  1   force =     0.00225728   -0.06105181    0.00479321
     atom   25 type  1   force =     0.00260867    0.06107618    0.00478396
     atom   26 type  1   force =    -0.00021943   -0.00012659   -0.00490875
     atom   27 type  3   force =     0.00000110    0.00024610    0.00039302
     atom   28 type  3   force =     0.00000955   -0.00100192    0.00139323
     atom   29 type  3   force =     0.00092657    0.00071222   -0.00055996
     atom   30 type  3   force =     0.00015027    0.00055235   -0.00020429
     atom   31 type  1   force =    -0.00000522    0.00017546    0.01111924

     Total force =     0.026434     Total SCF correction =     0.002028

     BFGS Geometry Optimization

     number of scf cycles    =   1
     number of bfgs steps    =   0

     energy   new            =   -2321.0024689002 Ry

     new trust radius        =       0.0142054143 bohr
     new conv_thr            =       0.0000010000 Ry

ATOMIC_POSITIONS (crystal)
O0       0.000000000   0.000000000   0.378690482    0   0   1
O0       0.000000000   0.500000000   0.398932907    0   0   1
Mn1      0.250000000   0.500000000   0.450346633    0   0   1
Mn1      0.000000000   0.000000000   0.449509136    0   0   1
O0       0.250000000   0.800000000   0.449392206    0   0   1
O0       0.250000000   0.200000000   0.450692376    0   0   1
O0       0.000000000   0.500000000   0.496420913    0   0   1
O0       0.000000000   0.000000000   0.524482531    0   0   1
Mn1      0.250000000   0.000000000   0.573621241    0   0   1
Mn1      0.000000000   0.500000000   0.566576651    0   0   1
O0       0.250000000   0.700000000   0.573887162    0   0   1
O0       0.250000000   0.300000000   0.573937800    0   0   1
O0       0.000000000   0.000000000   0.617520152    0   0   1
O0       0.500000000   0.000000000   0.378799403    0   0   1
O0       0.500000000   0.500000000   0.398711167    0   0   1
Mn1      0.750000000   0.500000000   0.450346169    0   0   1
Mn1      0.500000000   0.000000000   0.449816461    0   0   1
O0       0.750000000   0.800000000   0.449379949    0   0   1
O0       0.750000000   0.200000000   0.450704987    0   0   1
O0       0.500000000   0.500000000   0.495982712    0   0   1
O0       0.500000000   0.000000000   0.524517570    0   0   1
Mn1      0.750000000   0.000000000   0.573621707    0   0   1
Mn1      0.500000000   0.500000000   0.583709730    0   0   1
O0       0.750000000   0.700000000   0.573886937    0   0   1
O0       0.750000000   0.300000000   0.573936750    0   0   1
O0       0.500000000   0.000000000   0.617470726    0   0   1
H2      -0.000039898   0.645291121   0.382117948
H2       0.499940889   0.645834013   0.382018176
H2       0.161266324   0.036191124   0.366778675
H2       0.661254000   0.036057404   0.366815868
O0       0.500019514   0.500015058   0.644554874

     Check: negative starting charge=(component1):   -0.001054
     NEW-OLD atomic charge density approx. for the potential

     Check: negative/imaginary core charge=   -0.000022    0.000000
     Check: negative starting charge=(component1):   -0.001054

[...]

     energy   old            =   -2321.0024689002 Ry
     energy   new            =   -2321.0030162674 Ry

     CASE: energy  _new < energy  _old

[...]

     Total force =     0.003740     Total SCF correction =     0.000184

[...]

     Threshold (ethr) on eigenvalues was too large:
     Diagonalizing with lowered threshold

     Davidson diagonalization with overlap
     ethr =  4.69E-08,  avg # of iterations =  1.3

[...]

     Total force =     0.002175     Total SCF correction =     0.000364
     SCF correction compared to forces is large: reduce conv_thr to get better values

     number of scf cycles    =  14
     number of bfgs steps    =  13

     energy   old            =   -2321.0061727523 Ry
     energy   new            =   -2321.0061901312 Ry

     CASE: energy  _new < energy  _old

     new trust radius        =       0.0020849758 bohr
     new conv_thr            =       0.0000000100 Ry

ATOMIC_POSITIONS (crystal)
O0       0.000000000   0.000000000   0.377710436    0   0   1
O0       0.000000000   0.500000000   0.398043726    0   0   1
Mn1      0.250000000   0.500000000   0.449420960    0   0   1
Mn1      0.000000000   0.000000000   0.448579455    0   0   1
O0       0.250000000   0.800000000   0.448808678    0   0   1
O0       0.250000000   0.200000000   0.449648842    0   0   1
O0       0.000000000   0.500000000   0.496085107    0   0   1
O0       0.000000000   0.000000000   0.523824267    0   0   1
Mn1      0.250000000   0.000000000   0.573182566    0   0   1
Mn1      0.000000000   0.500000000   0.566578603    0   0   1
O0       0.250000000   0.700000000   0.576342605    0   0   1
O0       0.250000000   0.300000000   0.576411835    0   0   1
O0       0.000000000   0.000000000   0.616992302    0   0   1
O0       0.500000000   0.000000000   0.378100652    0   0   1
O0       0.500000000   0.500000000   0.397781625    0   0   1
Mn1      0.750000000   0.500000000   0.449419238    0   0   1
Mn1      0.500000000   0.000000000   0.449124626    0   0   1
O0       0.750000000   0.800000000   0.448772185    0   0   1
O0       0.750000000   0.200000000   0.449697033    0   0   1
O0       0.500000000   0.500000000   0.494290089    0   0   1
O0       0.500000000   0.000000000   0.523890666    0   0   1
Mn1      0.750000000   0.000000000   0.573193379    0   0   1
Mn1      0.500000000   0.500000000   0.588131911    0   0   1
O0       0.750000000   0.700000000   0.576333068    0   0   1
O0       0.750000000   0.300000000   0.576388326    0   0   1
O0       0.500000000   0.000000000   0.616941761    0   0   1
H2       0.000033977   0.645296846   0.381281084
H2       0.500036118   0.646261843   0.381365445
H2       0.161052908   0.037549334   0.365843065
H2       0.660932294   0.037640052   0.366176278
O0       0.500068534   0.500401592   0.648820188

     Check: negative starting charge=(component1):   -0.001046
     NEW-OLD atomic charge density approx. for the potential

     Check: negative/imaginary core charge=   -0.000022    0.000000
     Check: negative starting charge=(component1):   -0.001046

[...]

     Self-consistent Calculation

[...]

     Threshold (ethr) on eigenvalues was too large:
     Diagonalizing with lowered threshold

     Davidson diagonalization with overlap
     ethr =  2.05E-08,  avg # of iterations =  1.4

[...]

     total energy              =   -2321.00619155 Ry
     Harris-Foulkes estimate   =   -2321.00619092 Ry
     estimated scf accuracy    <       0.00000002 Ry

[...]

     iteration # 10     ecut=    40.00 Ry     beta=0.10
     Davidson diagonalization with overlap
     ethr =  9.82E-12,  avg # of iterations =  1.0

     negative rho (up, down):  0.221E-02 0.127E-02

     End of self-consistent calculation

 ------ SPIN UP ------------

[...]

 ------ SPIN DOWN ----------

[...]

          k = 0.2500-0.4606 0.0000 ( 26462 PWs)   bands (ev):

[...]

          k =-0.2500 0.2303 0.0000 ( 26396 PWs)   bands (ev):

   -82.0150 -80.8983 -80.8899 -80.8061 -80.7979 -80.7005 -80.6761 -80.5223
   -51.1310 -50.6100 -50.6052 -49.7996 -49.7919 -49.7867 -49.7180 -49.6832
   -49.6450 -49.6212 -49.5868 -49.5729 -49.5396 -49.5374 -49.5247 -49.5069
   -49.5000 -49.4768 -49.4694 -49.4514 -49.3278 -49.3056 -49.3025 -49.1216
   -21.8623 -21.4097 -21.2698 -20.9790 -20.7019 -20.5687 -20.4157 -20.3768
   -20.2435 -20.1863 -20.0974 -19.9754 -19.8862 -19.7770 -19.6186 -19.5353
   -19.4541 -19.1923 -19.0759  -9.4302  -9.1899  -8.8507  -8.7519  -8.6473
    -8.3233  -8.2009  -8.1368  -7.9754  -7.8175  -7.7349  -7.6689  -7.5839
    -7.4945  -7.4251  -7.2225  -7.1694  -7.0611  -6.9469  -6.8872  -6.7886
    -6.7000  -6.6440  -6.5143  -6.3707  -6.2653  -6.2056  -6.0738  -6.0295
    -5.9415  -5.8664  -5.7632  -5.7111  -5.6220  -5.5425  -5.4443  -5.3195
    -5.1587  -4.9742  -4.9004  -4.8195  -4.6584  -4.5707  -4.4631  -4.3908
    -4.3404  -4.2705  -4.1590  -3.9817  -3.8735  -3.7641  -3.6950  -3.5109
    -3.3643  -3.2491  -3.1102  -2.8676  -1.7948  -1.3573  -1.2926  -1.2464
    -1.1706  -1.1559  -1.0448  -1.0301  -0.9917  -0.8457  -0.7784  -0.7546
    -0.7128  -0.6742  -0.6157  -0.4989  -0.4730  -0.4068  -0.2641  -0.1611
    -0.1473   0.0429   0.1607   0.1904   0.2478   0.3140   0.7146   0.8374
     1.1201   1.1737   1.2692   1.4266   1.4398   1.6975   1.9695   2.0694
     2.1132   2.3060   2.4071   2.5276   3.5845   4.3152   4.5733   4.9804
     5.3770   5.6049   5.6233   6.1521   6.3154   6.5556   6.5752   6.7843
     6.8651   7.0219   7.0881   7.4246   7.5469   7.7870   7.9150   8.0566
     8.3349   8.4248   8.5806   8.6422   8.8385   8.9425   9.0562   9.1822
     9.2501   9.3205   9.5219   9.5740   9.7934   9.8806  10.0618  10.1281
    10.2433  10.2898  10.4088  10.4755  10.6201  10.7149  10.8126  10.9354
    11.0937  11.1437  11.2469  11.3144  11.4375  11.4887  11.6253  11.6747
    11.7069  11.8473  11.9194  12.0045  12.0263  12.1628  12.3566  12.4130
    12.4511  12.5612  12.5937  12.7319  12.8244  12.8926  12.9617  13.0073
    13.0776  13.1043  13.1976  13.2504  13.3791  13.4178  13.5064  13.5459
    13.6416  13.7491  13.7755  13.8359  13.9207  14.0066  14.1057  14.1368
    14.2666  14.3351  14.3766  14.4470  14.5159  14.6020  14.6334  14.6948
    14.8005  14.8535  14.9495  15.0277  15.0997  15.1488  15.2450  15.3218
    15.3607  15.4753  15.5645  15.6345  15.7192  15.8601  16.0087  16.0661
    16.1341  16.2055  16.2752  16.3309  16.4565  16.5550  16.5710  16.5948
    16.6887  16.7673  16.8702  17.0009  17.0541  17.0880  17.2110  17.2628
    17.3335  17.3689  17.4393  17.5116  17.6174  17.6525  17.7228  17.7807
    17.8815  17.8930  17.9483  18.0799  18.1553  18.2184  18.3129  18.3477
    18.3934  18.5333  18.6035  18.6770  18.7421  18.8025  18.9231  19.0250
    19.0781  19.1042  19.1924  19.2312  19.2646  19.4160  19.4859  19.5027
    19.6171  19.6842  19.8074  19.8640  19.9469  20.0129  20.0521  20.0977
    20.2220  20.3039  20.3136  20.3573  20.4185  20.5328  20.6282  20.7363
    20.8427  20.9190  21.0106  21.0555  21.0841  21.1619  21.2197  21.3701
    21.4180  21.4520  21.5261  21.6449  21.6628  21.7122  21.7592  21.8309
    21.9421  21.9991  22.1113  22.1735  22.2550  22.3970  22.4958  22.5237
    22.5738

     the spin up/dw Fermi energies are    -2.0457   -2.3051 ev

!    total energy              =   -2321.00619604 Ry
     Harris-Foulkes estimate   =   -2321.00619156 Ry
     estimated scf accuracy    <          7.2E-09 Ry

     The total energy is the sum of the following terms:

     one-electron contribution =  -26491.59713615 Ry
     hartree contribution      =   13261.90620818 Ry
     xc contribution           =    -347.79282169 Ry
     ewald contribution        =   11256.47836498 Ry
     smearing contrib. (-TS)   =      -0.00081136 Ry

     total magnetization       =    22.00 Bohr mag/cell
     absolute magnetization    =    23.02 Bohr mag/cell

     convergence has been achieved in  10 iterations

     Forces acting on atoms (Ry/au):

     negative rho (up, down):  0.221E-02 0.127E-02
     atom    1 type  1   force =    -0.00480163   -0.01545483   -0.00030488
     atom    2 type  1   force =     0.00025197    0.01192410    0.00009815
     atom    3 type  2   force =     0.04619676   -0.00371822    0.00021252
     atom    4 type  2   force =     0.00445763    0.01076796   -0.00020808
     atom    5 type  1   force =     0.00176229    0.01444513    0.00016751
     atom    6 type  1   force =    -0.00535388   -0.01586111    0.00027159
     atom    7 type  1   force =    -0.00000757    0.00042151   -0.00041431
     atom    8 type  1   force =    -0.00029116   -0.00111519   -0.00000709
     atom    9 type  2   force =     0.00733393   -0.00001628    0.00013780
     atom   10 type  2   force =    -0.00005177   -0.00085165   -0.00034833
     atom   11 type  1   force =     0.00164331   -0.06727334   -0.00001597
     atom   12 type  1   force =     0.00147858    0.06746360   -0.00001255
     atom   13 type  1   force =    -0.00023208   -0.00014756   -0.00020677
     atom   14 type  1   force =    -0.00485560   -0.01578966   -0.00002723
     atom   15 type  1   force =     0.00024678    0.01164501   -0.00005793
     atom   16 type  2   force =    -0.04687116   -0.00351975    0.00021121
     atom   17 type  2   force =     0.00412218    0.01061807    0.00000976
     atom   18 type  1   force =     0.00593397    0.01405254    0.00015533
     atom   19 type  1   force =    -0.00065375   -0.01605438    0.00023250
     atom   20 type  1   force =    -0.00014558   -0.00056029    0.00092533
     atom   21 type  1   force =    -0.00032523   -0.00106890    0.00016828
     atom   22 type  2   force =    -0.00657131    0.00025725    0.00013914
     atom   23 type  2   force =    -0.00006559   -0.00013754    0.00005266
     atom   24 type  1   force =    -0.00155297   -0.06729405   -0.00001936
     atom   25 type  1   force =    -0.00138665    0.06738615   -0.00001535
     atom   26 type  1   force =    -0.00018681   -0.00012631   -0.00017762
     atom   27 type  3   force =    -0.00000812   -0.00009936   -0.00018118
     atom   28 type  3   force =     0.00000190   -0.00006236   -0.00036719
     atom   29 type  3   force =     0.00006067    0.00013887   -0.00017041
     atom   30 type  3   force =    -0.00012892    0.00004294   -0.00042046
     atom   31 type  1   force =    -0.00000017   -0.00001235    0.00017291

     Total force =     0.001474     Total SCF correction =     0.000244
     SCF correction compared to forces is large: reduce conv_thr to get better values

     bfgs converged in  15 scf cycles and  14 bfgs steps
     (criteria: energy < 0.10E-03, force < 0.10E-02)

     End of BFGS Geometry Optimization

     Final energy   =   -2321.0061960352 Ry
Begin final coordinates

ATOMIC_POSITIONS (crystal)
O0       0.000000000   0.000000000   0.377710436    0   0   1
O0       0.000000000   0.500000000   0.398043726    0   0   1
Mn1      0.250000000   0.500000000   0.449420960    0   0   1
Mn1      0.000000000   0.000000000   0.448579455    0   0   1
O0       0.250000000   0.800000000   0.448808678    0   0   1
O0       0.250000000   0.200000000   0.449648842    0   0   1
O0       0.000000000   0.500000000   0.496085107    0   0   1
O0       0.000000000   0.000000000   0.523824267    0   0   1
Mn1      0.250000000   0.000000000   0.573182566    0   0   1
Mn1      0.000000000   0.500000000   0.566578603    0   0   1
O0       0.250000000   0.700000000   0.576342605    0   0   1
O0       0.250000000   0.300000000   0.576411835    0   0   1
O0       0.000000000   0.000000000   0.616992302    0   0   1
O0       0.500000000   0.000000000   0.378100652    0   0   1
O0       0.500000000   0.500000000   0.397781625    0   0   1
Mn1      0.750000000   0.500000000   0.449419238    0   0   1
Mn1      0.500000000   0.000000000   0.449124626    0   0   1
O0       0.750000000   0.800000000   0.448772185    0   0   1
O0       0.750000000   0.200000000   0.449697033    0   0   1
O0       0.500000000   0.500000000   0.494290089    0   0   1
O0       0.500000000   0.000000000   0.523890666    0   0   1
Mn1      0.750000000   0.000000000   0.573193379    0   0   1
Mn1      0.500000000   0.500000000   0.588131911    0   0   1
O0       0.750000000   0.700000000   0.576333068    0   0   1
O0       0.750000000   0.300000000   0.576388326    0   0   1
O0       0.500000000   0.000000000   0.616941761    0   0   1
H2       0.000033977   0.645296846   0.381281084
H2       0.500036118   0.646261843   0.381365445
H2       0.161052908   0.037549334   0.365843065
H2       0.660932294   0.037640052   0.366176278
O0       0.500068534   0.500401592   0.648820188
End final coordinates

     General routines

     Parallel routines

   This run was terminated on:  23:39:29  17Apr2014

   JOB DONE.
Running PBS batch system epilogue script
Job id: 335005.audhumbla.fysik.dtu.dk
Username: zhonxu
Groupname: campgst
Jobname: MnO2/Eads-2-layers/O-relax-surf
Sessionid: 25772
Queuename: verylong
Accounting:
This job has allocated the following 16 nodes:
b122 b122 b122 b122 b122 b122 b122 b122 b008 b008 b008 b008 b008 b008 b008 b008
Finished epilogue job 335005.audhumbla.fysik.dtu.dk for zhonxu