     Program PWSCF v.5.0.2 (svn rev. 9656) starts on 29Apr2014 at  9: 5:16

     Current dimensions of program PWSCF are:
     Max number of different atomic species (ntypx) = 10
     Max number of k-points (npk) =  40000
     Max angular momentum in pseudopotentials (lmaxx) =  3
     Reading input from pwscf.in
Warning: card &CELL ignored
Warning: card / ignored

     Subspace diagonalization in iterative solution of the eigenvalue problem:
     a serial algorithm will be used

     bravais-lattice index     =            0
     lattice parameter (alat)  =      11.2250  a.u.
     unit-cell volume          =    7005.5484 (a.u.)^3
     number of atoms/cell      =           31
     number of atomic types    =            3
     number of electrons       =       214.00
     number of Kohn-Sham states=          309
     kinetic-energy cutoff     =      40.0000  Ry
     charge density cutoff     =     500.0000  Ry
     convergence threshold     =      1.0E-06
     mixing beta               =       0.7000
     number of iterations used =            8  plain     mixing
     Exchange-correlation      = SLA  PW   PBE  PBE ( 1 4 3 4 0)
     EXX-fraction              =        0.00
     nstep                     =           50

     celldm(1)=  11.224973  celldm(2)=   0.000000  celldm(3)=   0.000000
     celldm(4)=   0.000000  celldm(5)=   0.000000  celldm(6)=   0.000000

     crystal axes: (cart. coord. in units of alat)
               a(1) = (   1.000000   0.000000   0.000000 )
               a(2) = (   0.000000   1.107086   0.000000 )
               a(3) = (   0.000000   0.000000   4.474090 )

     reciprocal axes: (cart. coord. in units 2 pi/alat)
               b(1) = (  1.000000  0.000000  0.000000 )
               b(2) = (  0.000000  0.903272  0.000000 )
               b(3) = (  0.000000  0.000000  0.223509 )

     PseudoPot. # 1 for O  read from file:
     /home/camp/zhonxu/pseudo/o_pbe_v1.01.uspp.F.UPF
     MD5 check sum: 2bcb18d16ea4b960afae9ec6d52f22d2
     Pseudo is Ultrasoft + core correction, Zval =  6.0
     Generated by new atomic code, or converted to UPF format
     Using radial grid of  737 points,  5 beta functions with:
                l(1) =   0
                l(2) =   0
                l(3) =   1
                l(4) =   1
                l(5) =   2
     Q(r) pseudized with  8 coefficients,  rinner =    0.900   0.900   0.900
                                                       0.900   0.900

     PseudoPot. # 2 for Ti read from file:
     /home/camp/zhonxu/pseudo/ti_pbe_v1.uspp.F.UPF
     MD5 check sum: bcc8f6961b3b91f0cac3ca967d22d0fb
     Pseudo is Ultrasoft + core correction, Zval = 12.0
     Generated by new atomic code, or converted to UPF format
     Using radial grid of  851 points,  6 beta functions with:
                l(1) =   0
                l(2) =   0
                l(3) =   1
                l(4) =   1
                l(5) =   2
                l(6) =   2
     Q(r) pseudized with  6 coefficients,  rinner =    1.000   1.000   1.000
                                                       1.000   1.000

     PseudoPot. # 3 for H  read from file:
     /home/camp/zhonxu/pseudo/h_pbe_v1.uspp.F.UPF
     MD5 check sum: 3408e3ff4ec8b0a4e358431e7e038a48
     Pseudo is Ultrasoft, Zval =  1.0
     Generated by new atomic code, or converted to UPF format
     Using radial grid of  615 points,  2 beta functions with:
                l(1) =   0
                l(2) =   0
     Q(r) pseudized with  8 coefficients,  rinner =    0.700

     atomic species   valence    mass     pseudopotential
        O0             6.00    15.99940     O ( 1.00)
        Ti1           12.00    47.88000     Ti( 1.00)
        H2             1.00     1.00794     H ( 1.00)

     Simplified LDA+U calculation (l_max = 2) with parameters (eV):
     atomic species    L          U    alpha       J0     beta
        Ti1            2     6.0000   0.0000   0.0000   0.0000

     No symmetry found

   Cartesian axes

     site n.     atom                  positions (alat units)
         1           O0  tau(   1) = (   0.0000000   0.0000000   1.6912507  )
         2           O0  tau(   2) = (   0.0000000   0.5535432   1.7801061  )
         3           Ti1 tau(   3) = (   0.2500000   0.5535432   2.0136983  )
         4           Ti1 tau(   4) = (   0.0000000   0.0000000   2.0256889  )
         5           O0  tau(   5) = (   0.2500000   0.8967400   2.0101638  )
         6           O0  tau(   6) = (   0.2500000   0.2103464   2.0140115  )
         7           O0  tau(   7) = (   0.0000000   0.5535432   2.2264413  )
         8           O0  tau(   8) = (   0.0000000   0.0000000   2.3510894  )
         9           Ti1 tau(   9) = (   0.2500000   0.0000000   2.5997146  )
        10           Ti1 tau(  10) = (   0.0000000   0.5535432   2.5433858  )
        11           O0  tau(  11) = (   0.2500000   0.7638896   2.5969406  )
        12           O0  tau(  12) = (   0.2500000   0.3431968   2.5970301  )
        13           O0  tau(  13) = (   0.0000000   0.0000000   2.7842260  )
        14           O0  tau(  14) = (   0.5000000   0.0000000   1.6905348  )
        15           O0  tau(  15) = (   0.5000000   0.5535432   1.7767953  )
        16           Ti1 tau(  16) = (   0.7500000   0.5535432   2.0136983  )
        17           Ti1 tau(  17) = (   0.5000000   0.0000000   2.0204542  )
        18           O0  tau(  18) = (   0.7500000   0.8967400   2.0103875  )
        19           O0  tau(  19) = (   0.7500000   0.2103464   2.0134299  )
        20           O0  tau(  20) = (   0.5000000   0.5535432   2.2001336  )
        21           O0  tau(  21) = (   0.5000000   0.0000000   2.3501946  )
        22           Ti1 tau(  22) = (   0.7500000   0.0000000   2.5996698  )
        23           Ti1 tau(  23) = (   0.5000000   0.5535432   2.6765794  )
        24           O0  tau(  24) = (   0.7500000   0.7638896   2.5974328  )
        25           O0  tau(  25) = (   0.7500000   0.3431968   2.5965380  )
        26           O0  tau(  26) = (   0.5000000   0.0000000   2.7806915  )
        27           H2  tau(  27) = (  -0.0007400   0.6861389   1.6797970  )
        28           H2  tau(  28) = (   0.4994200   0.6816995   1.6713410  )
        29           H2  tau(  29) = (   0.1486600   0.0377184   1.6265106  )
        30           H2  tau(  30) = (   0.6489300   0.0363456   1.6257052  )
        31           O0  tau(  31) = (   0.4999900   0.5533882   2.9590287  )

     number of k points=    10  Methfessel-Paxton smearing, width (Ry)=  0.0100
                       cart. coord. in units 2pi/alat
        k(    1) = (   0.0000000   0.0000000   0.0000000), wk =   0.1250000
        k(    2) = (   0.0000000   0.2258180   0.0000000), wk =   0.2500000
        k(    3) = (   0.0000000  -0.4516359   0.0000000), wk =   0.1250000
        k(    4) = (   0.2500000   0.0000000   0.0000000), wk =   0.2500000
        k(    5) = (   0.2500000   0.2258180   0.0000000), wk =   0.2500000
        k(    6) = (   0.2500000  -0.4516359   0.0000000), wk =   0.2500000
        k(    7) = (  -0.5000000   0.0000000   0.0000000), wk =   0.1250000
        k(    8) = (  -0.5000000   0.2258180   0.0000000), wk =   0.2500000
        k(    9) = (  -0.5000000  -0.4516359   0.0000000), wk =   0.1250000
        k(   10) = (  -0.2500000   0.2258180   0.0000000), wk =   0.2500000

     Largest allocated arrays     est. size (Mb)     dimensions
     Largest temporary arrays     est. size (Mb)     dimensions

     Check: negative/imaginary core charge=   -0.000006    0.000000

     Initial potential from superposition of free atoms
     Check: negative starting charge=   -0.102438

     starting charge  205.99958, renormalised to  214.00000

     negative rho (up, down):  0.106E+00 0.000E+00
     Number of +U iterations with fixed ns =  0
     Starting occupations:
 --- enter write_ns ---
 LDA+U parameters:
U( 2)     =  6.00000000
alpha( 2) =  0.00000000
atom    3   Tr[ns(na)] =   2.00000
    eigenvalues:
  0.200  0.200  0.200  0.200  0.200
    eigenvectors:
  1.000  0.000  0.000  0.000  0.000
  0.000  1.000  0.000  0.000  0.000
  0.000  0.000  1.000  0.000  0.000
  0.000  0.000  0.000  1.000  0.000
  0.000  0.000  0.000  0.000  1.000
    occupations:
  0.200  0.000  0.000  0.000  0.000
  0.000  0.200  0.000  0.000  0.000
  0.000  0.000  0.200  0.000  0.000
  0.000  0.000  0.000  0.200  0.000
  0.000  0.000  0.000  0.000  0.200
atom    4   Tr[ns(na)] =   2.00000
    eigenvalues:
  0.200  0.200  0.200  0.200  0.200
    eigenvectors:
  1.000  0.000  0.000  0.000  0.000
  0.000  1.000  0.000  0.000  0.000
  0.000  0.000  1.000  0.000  0.000
  0.000  0.000  0.000  1.000  0.000
  0.000  0.000  0.000  0.000  1.000
    occupations:
  0.200  0.000  0.000  0.000  0.000
  0.000  0.200  0.000  0.000  0.000
  0.000  0.000  0.200  0.000  0.000
  0.000  0.000  0.000  0.200  0.000
  0.000  0.000  0.000  0.000  0.200
atom    9   Tr[ns(na)] =   2.00000
    eigenvalues:
  0.200  0.200  0.200  0.200  0.200
    eigenvectors:
  1.000  0.000  0.000  0.000  0.000
  0.000  1.000  0.000  0.000  0.000
  0.000  0.000  1.000  0.000  0.000
  0.000  0.000  0.000  1.000  0.000
  0.000  0.000  0.000  0.000  1.000
    occupations:
  0.200  0.000  0.000  0.000  0.000
  0.000  0.200  0.000  0.000  0.000
  0.000  0.000  0.200  0.000  0.000
  0.000  0.000  0.000  0.200  0.000
  0.000  0.000  0.000  0.000  0.200
atom   10   Tr[ns(na)] =   2.00000
    eigenvalues:
  0.200  0.200  0.200  0.200  0.200
    eigenvectors:
  1.000  0.000  0.000  0.000  0.000
  0.000  1.000  0.000  0.000  0.000
  0.000  0.000  1.000  0.000  0.000
  0.000  0.000  0.000  1.000  0.000
  0.000  0.000  0.000  0.000  1.000
    occupations:
  0.200  0.000  0.000  0.000  0.000
  0.000  0.200  0.000  0.000  0.000
  0.000  0.000  0.200  0.000  0.000
  0.000  0.000  0.000  0.200  0.000
  0.000  0.000  0.000  0.000  0.200
atom   16   Tr[ns(na)] =   2.00000
    eigenvalues:
  0.200  0.200  0.200  0.200  0.200
    eigenvectors:
  1.000  0.000  0.000  0.000  0.000
  0.000  1.000  0.000  0.000  0.000
  0.000  0.000  1.000  0.000  0.000
  0.000  0.000  0.000  1.000  0.000
  0.000  0.000  0.000  0.000  1.000
    occupations:
  0.200  0.000  0.000  0.000  0.000
  0.000  0.200  0.000  0.000  0.000
  0.000  0.000  0.200  0.000  0.000
  0.000  0.000  0.000  0.200  0.000
  0.000  0.000  0.000  0.000  0.200
atom   17   Tr[ns(na)] =   2.00000
    eigenvalues:
  0.200  0.200  0.200  0.200  0.200
    eigenvectors:
  1.000  0.000  0.000  0.000  0.000
  0.000  1.000  0.000  0.000  0.000
  0.000  0.000  1.000  0.000  0.000
  0.000  0.000  0.000  1.000  0.000
  0.000  0.000  0.000  0.000  1.000
    occupations:
  0.200  0.000  0.000  0.000  0.000
  0.000  0.200  0.000  0.000  0.000
  0.000  0.000  0.200  0.000  0.000
  0.000  0.000  0.000  0.200  0.000
  0.000  0.000  0.000  0.000  0.200
atom   22   Tr[ns(na)] =   2.00000
    eigenvalues:
  0.200  0.200  0.200  0.200  0.200
    eigenvectors:
  1.000  0.000  0.000  0.000  0.000
  0.000  1.000  0.000  0.000  0.000
  0.000  0.000  1.000  0.000  0.000
  0.000  0.000  0.000  1.000  0.000
  0.000  0.000  0.000  0.000  1.000
    occupations:
  0.200  0.000  0.000  0.000  0.000
  0.000  0.200  0.000  0.000  0.000
[...]
    eigenvalues:
  0.130  0.154  0.172  0.398  0.456
    eigenvectors:
  0.021  0.740  0.062  0.165  0.013
  0.002  0.006  0.003  0.212  0.776
  0.652  0.001  0.347  0.000  0.000
  0.007  0.152  0.010  0.622  0.209
  0.319  0.102  0.578  0.000  0.002
    occupations:
  0.198  0.016 -0.003  0.094  0.002
  0.016  0.440  0.003 -0.033  0.013
 -0.003  0.003  0.145  0.007 -0.019
  0.094 -0.033  0.007  0.369 -0.002
  0.002  0.013 -0.019 -0.002  0.157
atom    4   Tr[ns(na)] =   2.69330
    eigenvalues:
  0.134  0.159  0.171  0.440  0.442
    eigenvectors:
  0.007  0.002  0.000  0.014  0.977
  0.002  0.716  0.279  0.000  0.003
  0.001  0.278  0.720  0.000  0.000
  0.989  0.004  0.000  0.000  0.007
  0.000  0.000  0.000  0.986  0.014
    occupations:
  0.439  0.014  0.005 -0.025 -0.000
  0.014  0.163 -0.005  0.000 -0.003
  0.005 -0.005  0.168  0.001 -0.000
 -0.025  0.000  0.001  0.136 -0.000
 -0.000 -0.003 -0.000 -0.000  0.440
atom    9   Tr[ns(na)] =   2.66978
    eigenvalues:
  0.133  0.168  0.182  0.397  0.456
    eigenvectors:
  0.000  0.000  0.885  0.115  0.000
  0.000  0.000  0.000  0.009  0.991
  0.995  0.005  0.000  0.000  0.000
  0.000  0.000  0.115  0.876  0.009
  0.005  0.994  0.000  0.000  0.000
    occupations:
  0.206  0.003 -0.000  0.069  0.000
  0.003  0.456  0.000 -0.007 -0.000
 -0.000  0.000  0.133 -0.000 -0.003
  0.069 -0.007 -0.000  0.373 -0.000
  0.000 -0.000 -0.003 -0.000  0.168
atom   10   Tr[ns(na)] =   2.58855
    eigenvalues:
  0.133  0.181  0.200  0.318  0.462
    eigenvectors:
  0.021  0.000  0.000  0.979  0.000
  0.000  0.000  1.000  0.000  0.000
  0.000  1.000  0.000  0.000  0.000
  0.979  0.000  0.000  0.021  0.000
  0.000  0.000  0.000  0.000  1.000
    occupations:
  0.314 -0.000 -0.000 -0.026 -0.000
 -0.000  0.200 -0.000  0.000 -0.000
 -0.000 -0.000  0.181 -0.000  0.000
 -0.026  0.000 -0.000  0.137  0.000
 -0.000 -0.000  0.000  0.000  0.462
atom   16   Tr[ns(na)] =   2.61828
    eigenvalues:
  0.130  0.154  0.172  0.398  0.456
    eigenvectors:
  0.020  0.739  0.062  0.165  0.013
  0.002  0.006  0.003  0.211  0.777
  0.652  0.001  0.347  0.000  0.000
  0.007  0.152  0.010  0.622  0.209
  0.319  0.102  0.577  0.001  0.002
    occupations:
  0.198 -0.016 -0.003  0.094 -0.002
 -0.016  0.440 -0.003  0.033  0.013
 -0.003 -0.003  0.145  0.007  0.019
  0.094  0.033  0.007  0.369  0.002
 -0.002  0.013  0.019  0.002  0.157
atom   17   Tr[ns(na)] =   2.68989
    eigenvalues:
  0.133  0.160  0.172  0.436  0.444
    eigenvectors:
  0.007  0.002  0.000  0.001  0.989
  0.002  0.741  0.255  0.000  0.002
  0.001  0.254  0.745  0.000  0.000
  0.990  0.003  0.000  0.000  0.007
  0.000  0.000  0.000  0.999  0.001
    occupations:
  0.441  0.014  0.005 -0.026 -0.000
  0.014  0.164 -0.005 -0.000 -0.003
  0.005 -0.005  0.169  0.001 -0.000
 -0.026 -0.000  0.001  0.135 -0.000
 -0.000 -0.003 -0.000 -0.000  0.436
atom   22   Tr[ns(na)] =   2.66976
    eigenvalues:
  0.133  0.168  0.181  0.397  0.456
    eigenvectors:
  0.000  0.000  0.885  0.115  0.000
  0.000  0.000  0.000  0.009  0.991
  0.995  0.005  0.000  0.000  0.000
  0.000  0.000  0.115  0.876  0.009
  0.005  0.995  0.000  0.000  0.000
    occupations:
  0.206 -0.003  0.000  0.069  0.000
 -0.003  0.456 -0.000  0.007 -0.000
  0.000 -0.000  0.133 -0.000  0.003
  0.069  0.007 -0.000  0.373 -0.000
  0.000 -0.000  0.003 -0.000  0.168
atom   23   Tr[ns(na)] =   2.82353
    eigenvalues:
  0.079  0.277  0.298  0.307  0.451
    eigenvectors:
  0.003  0.000  0.000  0.000  0.997
  0.000  0.000  1.000  0.000  0.000
  0.000  1.000  0.000  0.000  0.000
  0.997  0.000  0.000  0.000  0.003
  0.000  0.000  0.000  1.000  0.000
    occupations:
  0.450 -0.000  0.000 -0.021 -0.000
 -0.000  0.298  0.000 -0.000  0.000
  0.000  0.000  0.277 -0.000 -0.000
 -0.021 -0.000 -0.000  0.080 -0.000
 -0.000  0.000 -0.000 -0.000  0.307
N of occupied +U levels =  21.3712442
 --- exit write_ns ---

[...]

     total energy              =   -1563.59710674 Ry
     Harris-Foulkes estimate   =   -1563.59710675 Ry
     estimated scf accuracy    <       0.00000003 Ry

     iteration # 14     ecut=    40.00 Ry     beta=0.70
     Davidson diagonalization with overlap
     ethr =  1.42E-11,  avg # of iterations =  1.0

     negative rho (up, down):  0.107E+00 0.000E+00

     End of self-consistent calculation
 --- enter write_ns ---
 LDA+U parameters:
U( 2)     =  6.00000000
alpha( 2) =  0.00000000
atom    3   Tr[ns(na)] =   2.61787
    eigenvalues:
  0.130  0.154  0.172  0.398  0.456
    eigenvectors:
  0.021  0.740  0.062  0.165  0.013
  0.002  0.006  0.003  0.212  0.776
  0.652  0.001  0.347  0.000  0.000
  0.007  0.152  0.010  0.622  0.209
  0.319  0.102  0.578  0.000  0.002
    occupations:
  0.198  0.016 -0.003  0.094  0.002
  0.016  0.440  0.003 -0.033  0.013
 -0.003  0.003  0.145  0.007 -0.019
  0.094 -0.033  0.007  0.369 -0.002
  0.002  0.013 -0.019 -0.002  0.157
atom    4   Tr[ns(na)] =   2.69418
    eigenvalues:
  0.134  0.159  0.172  0.440  0.442
    eigenvectors:
  0.007  0.002  0.000  0.015  0.976
  0.002  0.717  0.278  0.000  0.003
  0.001  0.277  0.722  0.000  0.000
  0.989  0.004  0.000  0.000  0.007
  0.000  0.000  0.000  0.985  0.015
    occupations:
  0.439  0.014  0.005 -0.025 -0.000
  0.014  0.163 -0.005  0.000 -0.003
  0.005 -0.005  0.168  0.001 -0.000
 -0.025  0.000  0.001  0.136 -0.000
 -0.000 -0.003 -0.000 -0.000  0.440
atom    9   Tr[ns(na)] =   2.66931
    eigenvalues:
  0.133  0.168  0.181  0.397  0.456
    eigenvectors:
  0.000  0.000  0.885  0.115  0.000
  0.000  0.000  0.000  0.009  0.991
  0.994  0.006  0.000  0.000  0.000
  0.000  0.000  0.115  0.876  0.009
  0.006  0.994  0.000  0.000  0.000
    occupations:
  0.206  0.003 -0.000  0.069  0.000
  0.003  0.456  0.000 -0.007 -0.000
 -0.000  0.000  0.133 -0.000 -0.003
  0.069 -0.007 -0.000  0.372 -0.000
  0.000 -0.000 -0.003 -0.000  0.168
atom   10   Tr[ns(na)] =   2.58979
    eigenvalues:
  0.133  0.181  0.200  0.318  0.462
    eigenvectors:
  0.021  0.000  0.000  0.979  0.000
  0.000  0.000  1.000  0.000  0.000
  0.000  1.000  0.000  0.000  0.000
  0.979  0.000  0.000  0.021  0.000
  0.000  0.000  0.000  0.000  1.000
    occupations:
  0.314 -0.000 -0.000 -0.026 -0.000
 -0.000  0.200 -0.000  0.000 -0.000
 -0.000 -0.000  0.181 -0.000  0.000
 -0.026  0.000 -0.000  0.137  0.000
 -0.000 -0.000  0.000  0.000  0.462
atom   16   Tr[ns(na)] =   2.61801
    eigenvalues:
  0.130  0.154  0.172  0.398  0.456
    eigenvectors:
  0.020  0.739  0.062  0.165  0.013
  0.002  0.006  0.003  0.212  0.777
  0.652  0.001  0.347  0.000  0.000
  0.007  0.152  0.010  0.622  0.209
  0.319  0.102  0.576  0.001  0.002
    occupations:
  0.198 -0.016 -0.003  0.094 -0.002
 -0.016  0.440 -0.003  0.033  0.013
 -0.003 -0.003  0.145  0.007  0.019
  0.094  0.033  0.007  0.369  0.002
 -0.002  0.013  0.019  0.002  0.157
atom   17   Tr[ns(na)] =   2.69066
    eigenvalues:
  0.133  0.160  0.172  0.436  0.444
    eigenvectors:
  0.007  0.002  0.000  0.001  0.989
  0.002  0.742  0.254  0.000  0.002
  0.001  0.253  0.746  0.000  0.000
  0.990  0.003  0.000  0.000  0.007
  0.000  0.000  0.000  0.999  0.001
    occupations:
  0.441  0.014  0.005 -0.026 -0.000
  0.014  0.164 -0.005 -0.000 -0.003
  0.005 -0.005  0.169  0.001 -0.000
 -0.026 -0.000  0.001  0.135 -0.000
 -0.000 -0.003 -0.000 -0.000  0.436
atom   22   Tr[ns(na)] =   2.66929
    eigenvalues:
  0.133  0.168  0.181  0.397  0.456
    eigenvectors:
  0.000  0.000  0.884  0.115  0.000
  0.000  0.000  0.000  0.009  0.991
  0.994  0.006  0.000  0.000  0.000
  0.000  0.000  0.115  0.876  0.009
  0.006  0.994  0.000  0.000  0.000
    occupations:
  0.206 -0.003  0.000  0.069  0.000
 -0.003  0.456 -0.000  0.007 -0.000
  0.000 -0.000  0.133 -0.000  0.003
  0.069  0.007 -0.000  0.372 -0.000
  0.000 -0.000  0.003 -0.000  0.168
atom   23   Tr[ns(na)] =   2.82411
    eigenvalues:
  0.079  0.277  0.298  0.307  0.451
    eigenvectors:
  0.003  0.000  0.000  0.000  0.997
  0.000  0.000  1.000  0.000  0.000
  0.000  1.000  0.000  0.000  0.000
  0.997  0.000  0.000  0.000  0.003
  0.000  0.000  0.000  1.000  0.000
    occupations:
  0.450 -0.000  0.000 -0.021 -0.000
 -0.000  0.298  0.000 -0.000  0.000
  0.000  0.000  0.277 -0.000 -0.000
 -0.021 -0.000 -0.000  0.080  0.000
 -0.000  0.000 -0.000  0.000  0.307
N of occupied +U levels =  21.3732204
 --- exit write_ns ---

[...]

          k = 0.2500-0.4516 0.0000 ( 29882 PWs)   bands (ev):

[...]

          k =-0.2500 0.2258 0.0000 ( 29912 PWs)   bands (ev):

   -61.8723 -61.8471 -61.6941 -61.0750 -61.0478 -60.6518 -60.6258 -59.8459
   -38.2393 -38.0624 -38.0317 -38.0205 -37.9996 -37.9967 -37.9209 -37.8119
   -37.7979 -37.5371 -37.3505 -37.2832 -37.2397 -37.1384 -37.1159 -36.9589
   -36.9025 -36.8811 -36.8420 -36.7793 -36.6692 -36.1638 -36.1551 -36.0759
   -22.0398 -21.7976 -20.9689 -20.7934 -20.3156 -20.2861 -20.2595 -20.1907
   -19.9674 -19.9269 -19.8117 -19.7382 -19.6742 -19.5901 -19.3405 -19.2194
   -18.9262 -18.7328 -17.9619  -9.7357  -9.4885  -8.4340  -8.2474  -7.9328
    -7.7353  -7.5711  -7.5265  -7.5014  -7.4550  -7.3245  -7.2094  -7.1657
    -6.9879  -6.9521  -6.9040  -6.8378  -6.7756  -6.5663  -6.4670  -6.3621
    -6.2493  -6.1855  -6.0770  -5.8607  -5.7786  -5.6895  -5.5835  -5.5361
    -5.4886  -5.4215  -5.3852  -5.3181  -5.2116  -5.1721  -5.1096  -5.0652
    -4.9154  -4.8509  -4.7834  -4.6541  -4.5655  -4.3865  -4.2745  -4.2291
    -4.1998  -4.1248  -4.0524  -3.9800  -3.9284  -3.7438  -3.6383  -3.5656
    -3.5464  -3.4828  -3.4405  -3.3027  -0.5350  -0.3836  -0.2501  -0.1843
    -0.1339  -0.0055   0.1561   0.2466   0.2647   0.3789   0.4379   0.5819
     0.6217   0.6399   0.7852   0.9644   1.0318   1.0795   1.1089   1.1416
     1.2161   1.2408   1.3276   1.3742   1.4621   1.5797   1.6647   1.8005
     1.9300   2.0405   2.1659   2.2956   2.4700   2.5026   2.5708   2.6722
     2.8958   2.9165   2.9600   3.0440   3.1248   4.1513   4.3908   4.6504
     4.7342   4.9473   5.2275   5.8753   5.9596   6.0039   6.0624   6.3732
     6.4857   6.6374   6.7576   6.9539   7.0166   7.1266   7.2704   7.4305
     7.5783   7.6355   7.7233   7.8595   7.9532   8.0081   8.1623   8.3838
     8.5118   8.5367   8.6836   8.7681   9.0330   9.1215   9.1599   9.2737
     9.3193   9.4543   9.5105   9.5592   9.6396   9.8151   9.8729   9.9446
    10.0093  10.2833  10.3510  10.3760  10.5244  10.5572  10.6823  10.7252
    10.8172  10.9324  10.9634  11.0947  11.1262  11.2051  11.2877  11.3342
    11.4366  11.4521  11.4921  11.6333  11.6706  11.7884  11.8991  11.9229
    11.9816  12.0743  12.1263  12.1668  12.3132  12.3576  12.4289  12.4786
    12.5935  12.6496  12.7082  12.7983  12.8541  12.9191  12.9974  13.0585
    13.1956  13.2428  13.2727  13.3826  13.4014  13.4347  13.5567  13.5947
    13.6698  13.7153  13.8520  13.9042  13.9854  14.0857  14.1490  14.2251
    14.3273  14.4239  14.5038  14.5281  14.6532  14.7164  14.7995  14.8925
    14.9735  15.0898  15.1609  15.2327  15.2853  15.3768  15.4107  15.5183
    15.5825  15.6310  15.7214  15.7669  15.8360  15.9131  15.9521  16.0040
    16.1426  16.1912  16.2518  16.3591  16.4332  16.5401  16.6248  16.6759
    16.7161  16.8004  16.9197  16.9567  16.9997  17.0680  17.0972  17.1472
    17.2550  17.2663  17.3622  17.4650  17.5564  17.6006  17.6904  17.7367
    17.7726  17.8284  17.8750  18.0317  18.0410  18.1553  18.1888  18.2720
    18.3758  18.4870  18.5810  18.6303  18.6674

     the Fermi energy is    -3.3768 ev

!    total energy              =   -1563.59710674 Ry
     Harris-Foulkes estimate   =   -1563.59710675 Ry
     estimated scf accuracy    <          6.9E-09 Ry

     The total energy is the sum of the following terms:

     one-electron contribution =  -18211.53773765 Ry
     hartree contribution      =    9117.87351711 Ry
     xc contribution           =    -276.38102010 Ry
     ewald contribution        =    7803.30430427 Ry
     Hubbard energy            =       3.14381836 Ry
     smearing contrib. (-TS)   =       0.00001127 Ry

     convergence has been achieved in  14 iterations

     Forces acting on atoms (Ry/au):

     negative rho (up, down):  0.107E+00 0.000E+00
     atom    1 type  1   force =    -0.00285153   -0.01221978    0.00017508
     atom    2 type  1   force =     0.00006553    0.01352414    0.00039424
     atom    3 type  2   force =     0.05596622   -0.00553272    0.00054727
     atom    4 type  2   force =     0.00169848    0.00810267   -0.00071349
     atom    5 type  1   force =    -0.00369053   -0.06886662   -0.00047876
     atom    6 type  1   force =    -0.00568124    0.06779147   -0.00072761
     atom    7 type  1   force =     0.00000909    0.00013815    0.00036891
     atom    8 type  1   force =     0.00041261   -0.00176263    0.00031283
     atom    9 type  2   force =     0.01255967    0.00044804    0.00055805
     atom   10 type  2   force =     0.00000542   -0.00020848   -0.00008729
     atom   11 type  1   force =    -0.02673103   -0.00299446    0.00027951
     atom   12 type  1   force =    -0.02702908    0.00328827    0.00029308
     atom   13 type  1   force =     0.00003303    0.00004235   -0.00051192
     atom   14 type  1   force =    -0.00378454   -0.01227701   -0.00000900
     atom   15 type  1   force =     0.00009651    0.01189080   -0.00004177
     atom   16 type  2   force =    -0.05579023   -0.00589732    0.00055137
     atom   17 type  2   force =     0.00145974    0.00776961   -0.00049325
     atom   18 type  1   force =     0.00649581   -0.06865136   -0.00045550
     atom   19 type  1   force =     0.00560349    0.06814485   -0.00066540
     atom   20 type  1   force =    -0.00010345   -0.00051927    0.00091850
     atom   21 type  1   force =     0.00047967   -0.00156291    0.00044374
     atom   22 type  2   force =    -0.01267391    0.00006200    0.00055734
     atom   23 type  2   force =     0.00001261   -0.00021514   -0.00023085
     atom   24 type  1   force =     0.02704983   -0.00300672    0.00025523
     atom   25 type  1   force =     0.02666299    0.00319942    0.00031701
     atom   26 type  1   force =     0.00007608   -0.00017242   -0.00005202
     atom   27 type  3   force =     0.00000355   -0.00034052   -0.00022092
     atom   28 type  3   force =    -0.00000725   -0.00022277   -0.00060782
     atom   29 type  3   force =    -0.00016122    0.00008797    0.00000371
     atom   30 type  3   force =    -0.00018603   -0.00002959   -0.00047498
     atom   31 type  1   force =    -0.00000028   -0.00001000   -0.00020530

     Total force =     0.002535     Total SCF correction =     0.000149

     bfgs converged in  20 scf cycles and  19 bfgs steps
     (criteria: energy < 0.10E-03, force < 0.10E-02)

     End of BFGS Geometry Optimization

     Final energy   =   -1563.5971067400 Ry
Begin final coordinates

ATOMIC_POSITIONS (crystal)
O0       0.000000000   0.000000000   0.374906055    0   0   1
O0       0.000000000   0.500000000   0.395543870    0   0   1
Ti1      0.250000000   0.500000000   0.448619765    0   0   1
Ti1      0.000000000   0.000000000   0.449434536    0   0   1
O0       0.250000000   0.810000000   0.447812897    0   0   1
O0       0.250000000   0.190000000   0.448824287    0   0   1
O0       0.000000000   0.500000000   0.497447325    0   0   1
O0       0.000000000   0.000000000   0.525814592    0   0   1
Ti1      0.250000000   0.000000000   0.579357574    0   0   1
Ti1      0.000000000   0.500000000   0.569935103    0   0   1
O0       0.250000000   0.690000000   0.583143638    0   0   1
O0       0.250000000   0.310000000   0.583120760    0   0   1
O0       0.000000000   0.000000000   0.624118503    0   0   1
O0       0.500000000   0.000000000   0.375170500    0   0   1
O0       0.500000000   0.500000000   0.394866296    0   0   1
Ti1      0.750000000   0.500000000   0.448623552    0   0   1
Ti1      0.500000000   0.000000000   0.449917395    0   0   1
O0       0.750000000   0.810000000   0.447808709    0   0   1
O0       0.750000000   0.190000000   0.448800292    0   0   1
O0       0.500000000   0.500000000   0.491643930    0   0   1
O0       0.500000000   0.000000000   0.525527294    0   0   1
Ti1      0.750000000   0.000000000   0.579352862    0   0   1
Ti1      0.500000000   0.500000000   0.605513107    0   0   1
O0       0.750000000   0.690000000   0.583160699    0   0   1
O0       0.750000000   0.310000000   0.583097028    0   0   1
O0       0.500000000   0.000000000   0.622583834    0   0   1
H2      -0.000358221   0.625609620   0.375061871
H2       0.499729261   0.626537582   0.374744739
H2       0.150267216   0.035087575   0.361452010
H2       0.649810389   0.036155586   0.361691653
O0       0.500022897   0.499931134   0.668945323
End final coordinates

     General routines

     Parallel routines
     Hubbard U routines

   This run was terminated on:   4:48:29  30Apr2014

   JOB DONE.