     Program PWSCF v.5.0.2 (svn rev. 9656) starts on 30Apr2014 at  3:17:20

     Current dimensions of program PWSCF are:
     Max number of different atomic species (ntypx) = 10
     Max number of k-points (npk) =  40000
     Max angular momentum in pseudopotentials (lmaxx) =  3
     Reading input from pwscf.in
Warning: card &CELL ignored
Warning: card / ignored

     Subspace diagonalization in iterative solution of the eigenvalue problem:
     a serial algorithm will be used

     bravais-lattice index     =            0
     lattice parameter (alat)  =      11.2250  a.u.
     unit-cell volume          =    7005.5484 (a.u.)^3
     number of atoms/cell      =           32
     number of atomic types    =            3
     number of electrons       =       215.00
     number of Kohn-Sham states=          310
     kinetic-energy cutoff     =      40.0000  Ry
     charge density cutoff     =     500.0000  Ry
     convergence threshold     =      1.0E-06
     mixing beta               =       0.7000
     number of iterations used =            8  plain     mixing
     Exchange-correlation      = SLA  PW   PBE  PBE ( 1 4 3 4 0)
     EXX-fraction              =        0.00
     nstep                     =           50

     celldm(1)=  11.224973  celldm(2)=   0.000000  celldm(3)=   0.000000
     celldm(4)=   0.000000  celldm(5)=   0.000000  celldm(6)=   0.000000

     crystal axes: (cart. coord. in units of alat)
               a(1) = (   1.000000   0.000000   0.000000 )
               a(2) = (   0.000000   1.107086   0.000000 )
               a(3) = (   0.000000   0.000000   4.474090 )

     reciprocal axes: (cart. coord. in units 2 pi/alat)
               b(1) = (  1.000000  0.000000  0.000000 )
               b(2) = (  0.000000  0.903272  0.000000 )
               b(3) = (  0.000000  0.000000  0.223509 )

     PseudoPot. # 1 for O  read from file:
     /home/camp/zhonxu/pseudo/o_pbe_v1.01.uspp.F.UPF
     MD5 check sum: 2bcb18d16ea4b960afae9ec6d52f22d2
     Pseudo is Ultrasoft + core correction, Zval =  6.0
     Generated by new atomic code, or converted to UPF format
     Using radial grid of  737 points,  5 beta functions with:
                l(1) =   0
                l(2) =   0
                l(3) =   1
                l(4) =   1
                l(5) =   2
     Q(r) pseudized with  8 coefficients,  rinner =    0.900   0.900   0.900
                                                       0.900   0.900

     PseudoPot. # 2 for Ti read from file:
     /home/camp/zhonxu/pseudo/ti_pbe_v1.uspp.F.UPF
     MD5 check sum: bcc8f6961b3b91f0cac3ca967d22d0fb
     Pseudo is Ultrasoft + core correction, Zval = 12.0
     Generated by new atomic code, or converted to UPF format
     Using radial grid of  851 points,  6 beta functions with:
                l(1) =   0
                l(2) =   0
                l(3) =   1
                l(4) =   1
                l(5) =   2
                l(6) =   2
     Q(r) pseudized with  6 coefficients,  rinner =    1.000   1.000   1.000
                                                       1.000   1.000

     PseudoPot. # 3 for H  read from file:
     /home/camp/zhonxu/pseudo/h_pbe_v1.uspp.F.UPF
     MD5 check sum: 3408e3ff4ec8b0a4e358431e7e038a48
     Pseudo is Ultrasoft, Zval =  1.0
     Generated by new atomic code, or converted to UPF format
     Using radial grid of  615 points,  2 beta functions with:
                l(1) =   0
                l(2) =   0
     Q(r) pseudized with  8 coefficients,  rinner =    0.700

     atomic species   valence    mass     pseudopotential
        O0             6.00    15.99940     O ( 1.00)
        Ti1           12.00    47.88000     Ti( 1.00)
        H2             1.00     1.00794     H ( 1.00)

     Simplified LDA+U calculation (l_max = 2) with parameters (eV):
     atomic species    L          U    alpha       J0     beta
        Ti1            2     4.5000   0.0000   0.0000   0.0000

     No symmetry found

   Cartesian axes

     site n.     atom                  positions (alat units)
         1           O0  tau(   1) = (   0.0000000   0.0000000   1.6864186  )
         2           O0  tau(   2) = (   0.0000000   0.5535432   1.7740213  )
         3           Ti1 tau(   3) = (   0.2500000   0.5535432   2.0074793  )
         4           Ti1 tau(   4) = (   0.0000000   0.0000000   2.0324447  )
         5           O0  tau(   5) = (   0.2500000   0.8967400   2.0044817  )
         6           O0  tau(   6) = (   0.2500000   0.2103464   2.0092242  )
         7           O0  tau(   7) = (   0.0000000   0.5535432   2.2196854  )
         8           O0  tau(   8) = (   0.0000000   0.0000000   2.3507315  )
         9           Ti1 tau(   9) = (   0.2500000   0.0000000   2.6021753  )
        10           Ti1 tau(  10) = (   0.0000000   0.5535432   2.5345718  )
        11           O0  tau(  11) = (   0.2500000   0.7638896   2.5931377  )
        12           O0  tau(  12) = (   0.2500000   0.3431968   2.5930482  )
        13           O0  tau(  13) = (   0.0000000   0.0000000   2.7844945  )
        14           O0  tau(  14) = (   0.5000000   0.0000000   1.6873582  )
        15           O0  tau(  15) = (   0.5000000   0.5535432   1.7709789  )
        16           Ti1 tau(  16) = (   0.7500000   0.5535432   2.0079715  )
        17           Ti1 tau(  17) = (   0.5000000   0.0000000   2.0352187  )
        18           O0  tau(  18) = (   0.7500000   0.8967400   2.0040790  )
        19           O0  tau(  19) = (   0.7500000   0.2103464   2.0094479  )
        20           O0  tau(  20) = (   0.5000000   0.5535432   2.1971360  )
        21           O0  tau(  21) = (   0.5000000   0.0000000   2.3514026  )
        22           Ti1 tau(  22) = (   0.7500000   0.0000000   2.6024885  )
        23           Ti1 tau(  23) = (   0.5000000   0.5535432   2.6568935  )
        24           O0  tau(  24) = (   0.7500000   0.7638896   2.5904532  )
        25           O0  tau(  25) = (   0.7500000   0.3431968   2.5901848  )
        26           O0  tau(  26) = (   0.5000000   0.0000000   2.7844945  )
        27           H2  tau(  27) = (  -0.0007700   0.6889399   1.6773810  )
        28           H2  tau(  28) = (   0.4993300   0.6850208   1.6695513  )
        29           H2  tau(  29) = (   0.1496500   0.0435638   1.6275396  )
        30           H2  tau(  30) = (   0.6495100   0.0435638   1.6281213  )
        31           O0  tau(  31) = (   0.5047900   0.5534214   2.9586261  )
        32           H2  tau(  32) = (   0.3766100   0.5530007   3.0621118  )

     number of k points=    10  Methfessel-Paxton smearing, width (Ry)=  0.0100
                       cart. coord. in units 2pi/alat
        k(    1) = (   0.0000000   0.0000000   0.0000000), wk =   0.1250000
        k(    2) = (   0.0000000   0.2258180   0.0000000), wk =   0.2500000
        k(    3) = (   0.0000000  -0.4516359   0.0000000), wk =   0.1250000
        k(    4) = (   0.2500000   0.0000000   0.0000000), wk =   0.2500000
        k(    5) = (   0.2500000   0.2258180   0.0000000), wk =   0.2500000
        k(    6) = (   0.2500000  -0.4516359   0.0000000), wk =   0.2500000
        k(    7) = (  -0.5000000   0.0000000   0.0000000), wk =   0.1250000
        k(    8) = (  -0.5000000   0.2258180   0.0000000), wk =   0.2500000
        k(    9) = (  -0.5000000  -0.4516359   0.0000000), wk =   0.1250000
        k(   10) = (  -0.2500000   0.2258180   0.0000000), wk =   0.2500000

     Largest allocated arrays     est. size (Mb)     dimensions
     Largest temporary arrays     est. size (Mb)     dimensions

     Check: negative/imaginary core charge=   -0.000006    0.000000

     Initial potential from superposition of free atoms
     Check: negative starting charge=   -0.102331

     starting charge  206.99957, renormalised to  215.00000

     negative rho (up, down):  0.106E+00 0.000E+00
     Number of +U iterations with fixed ns =  0
     Starting occupations:
 --- enter write_ns ---
 LDA+U parameters:
U( 2)     =  4.50000000
alpha( 2) =  0.00000000
atom    3   Tr[ns(na)] =   2.00000
    eigenvalues:
  0.200  0.200  0.200  0.200  0.200
    eigenvectors:
  1.000  0.000  0.000  0.000  0.000
  0.000  1.000  0.000  0.000  0.000
  0.000  0.000  1.000  0.000  0.000
  0.000  0.000  0.000  1.000  0.000
  0.000  0.000  0.000  0.000  1.000
    occupations:
  0.200  0.000  0.000  0.000  0.000
  0.000  0.200  0.000  0.000  0.000
  0.000  0.000  0.200  0.000  0.000
  0.000  0.000  0.000  0.200  0.000
  0.000  0.000  0.000  0.000  0.200
atom    4   Tr[ns(na)] =   2.00000
    eigenvalues:
  0.200  0.200  0.200  0.200  0.200
    eigenvectors:
  1.000  0.000  0.000  0.000  0.000
  0.000  1.000  0.000  0.000  0.000
  0.000  0.000  1.000  0.000  0.000
  0.000  0.000  0.000  1.000  0.000
  0.000  0.000  0.000  0.000  1.000
    occupations:
  0.200  0.000  0.000  0.000  0.000
  0.000  0.200  0.000  0.000  0.000
  0.000  0.000  0.200  0.000  0.000
  0.000  0.000  0.000  0.200  0.000
  0.000  0.000  0.000  0.000  0.200
atom    9   Tr[ns(na)] =   2.00000
    eigenvalues:
  0.200  0.200  0.200  0.200  0.200
    eigenvectors:
  1.000  0.000  0.000  0.000  0.000
  0.000  1.000  0.000  0.000  0.000
  0.000  0.000  1.000  0.000  0.000
  0.000  0.000  0.000  1.000  0.000
  0.000  0.000  0.000  0.000  1.000
    occupations:
  0.200  0.000  0.000  0.000  0.000
  0.000  0.200  0.000  0.000  0.000
  0.000  0.000  0.200  0.000  0.000
  0.000  0.000  0.000  0.200  0.000
  0.000  0.000  0.000  0.000  0.200
atom   10   Tr[ns(na)] =   2.00000
    eigenvalues:
  0.200  0.200  0.200  0.200  0.200
    eigenvectors:
  1.000  0.000  0.000  0.000  0.000
  0.000  1.000  0.000  0.000  0.000
  0.000  0.000  1.000  0.000  0.000
  0.000  0.000  0.000  1.000  0.000
  0.000  0.000  0.000  0.000  1.000
    occupations:
  0.200  0.000  0.000  0.000  0.000
  0.000  0.200  0.000  0.000  0.000
  0.000  0.000  0.200  0.000  0.000
  0.000  0.000  0.000  0.200  0.000
  0.000  0.000  0.000  0.000  0.200
atom   16   Tr[ns(na)] =   2.00000
    eigenvalues:
  0.200  0.200  0.200  0.200  0.200
    eigenvectors:
  1.000  0.000  0.000  0.000  0.000
  0.000  1.000  0.000  0.000  0.000
  0.000  0.000  1.000  0.000  0.000
  0.000  0.000  0.000  1.000  0.000
  0.000  0.000  0.000  0.000  1.000
    occupations:
  0.200  0.000  0.000  0.000  0.000
  0.000  0.200  0.000  0.000  0.000
  0.000  0.000  0.200  0.000  0.000
  0.000  0.000  0.000  0.200  0.000
  0.000  0.000  0.000  0.000  0.200
atom   17   Tr[ns(na)] =   2.00000
    eigenvalues:
  0.200  0.200  0.200  0.200  0.200
    eigenvectors:
  1.000  0.000  0.000  0.000  0.000
  0.000  1.000  0.000  0.000  0.000
  0.000  0.000  1.000  0.000  0.000
  0.000  0.000  0.000  1.000  0.000
  0.000  0.000  0.000  0.000  1.000
    occupations:
  0.200  0.000  0.000  0.000  0.000
  0.000  0.200  0.000  0.000  0.000
  0.000  0.000  0.200  0.000  0.000
  0.000  0.000  0.000  0.200  0.000
  0.000  0.000  0.000  0.000  0.200
atom   22   Tr[ns(na)] =   2.00000
    eigenvalues:
  0.200  0.200  0.200  0.200  0.200
    eigenvectors:
  1.000  0.000  0.000  0.000  0.000
  0.000  1.000  0.000  0.000  0.000
  0.000  0.000  1.000  0.000  0.000
  0.000  0.000  0.000  1.000  0.000
  0.000  0.000  0.000  0.000  1.000
[...]
  0.003  0.003  0.002  0.192  0.800
  0.586  0.006  0.408  0.000  0.000
  0.019  0.149  0.008  0.641  0.183
  0.325  0.143  0.529  0.000  0.002
    occupations:
  0.208  0.011 -0.004  0.090  0.002
  0.011  0.431  0.003 -0.025  0.013
 -0.004  0.003  0.166  0.007 -0.017
  0.090 -0.025  0.007  0.364 -0.002
  0.002  0.013 -0.017 -0.002  0.173
atom    4   Tr[ns(na)] =   2.77090
    eigenvalues:
  0.146  0.180  0.194  0.429  0.437
    eigenvectors:
  0.007  0.002  0.000  0.000  0.991
  0.001  0.837  0.160  0.000  0.002
  0.001  0.159  0.840  0.000  0.000
  0.992  0.002  0.000  0.000  0.006
  0.000  0.000  0.000  0.999  0.000
    occupations:
  0.435  0.012  0.005 -0.023 -0.000
  0.012  0.183 -0.005 -0.000 -0.002
  0.005 -0.005  0.191  0.001 -0.000
 -0.023 -0.000  0.001  0.148 -0.000
 -0.000 -0.002 -0.000 -0.000  0.429
atom    9   Tr[ns(na)] =   2.76196
    eigenvalues:
  0.147  0.193  0.210  0.386  0.444
    eigenvectors:
  0.000  0.000  0.911  0.089  0.000
  0.000  0.000  0.000  0.000  1.000
  0.999  0.001  0.000  0.000  0.000
  0.000  0.000  0.089  0.911  0.000
  0.001  0.999  0.000  0.000  0.000
    occupations:
  0.225  0.000 -0.000  0.050  0.000
  0.000  0.444  0.000 -0.000 -0.000
 -0.000  0.000  0.148  0.000  0.001
  0.050 -0.000  0.000  0.371  0.000
  0.000 -0.000  0.001  0.000  0.193
atom   10   Tr[ns(na)] =   2.68895
    eigenvalues:
  0.148  0.206  0.215  0.329  0.447
    eigenvectors:
  0.020  0.000  0.000  0.980  0.000
  0.000  0.000  1.000  0.000  0.000
  0.000  1.000  0.000  0.000  0.000
  0.980  0.000  0.000  0.020  0.000
  0.000  0.000  0.000  0.000  1.000
    occupations:
  0.326  0.001 -0.000 -0.025 -0.000
  0.001  0.215 -0.000  0.000  0.000
 -0.000 -0.000  0.206 -0.000 -0.001
 -0.025  0.000 -0.000  0.152  0.000
 -0.000  0.000 -0.001  0.000  0.447
atom   16   Tr[ns(na)] =   2.68492
    eigenvalues:
  0.150  0.166  0.188  0.397  0.442
    eigenvectors:
  0.063  0.705  0.051  0.165  0.015
  0.003  0.003  0.003  0.194  0.798
  0.590  0.005  0.404  0.000  0.000
  0.018  0.149  0.009  0.640  0.185
  0.326  0.139  0.533  0.001  0.002
    occupations:
  0.208 -0.011 -0.004  0.090 -0.002
 -0.011  0.431 -0.003  0.025  0.012
 -0.004 -0.003  0.166  0.007  0.017
  0.090  0.025  0.007  0.364  0.001
 -0.002  0.012  0.017  0.001  0.173
atom   17   Tr[ns(na)] =   2.76752
    eigenvalues:
  0.145  0.182  0.195  0.424  0.439
    eigenvectors:
  0.007  0.002  0.000  0.000  0.991
  0.001  0.858  0.139  0.000  0.002
  0.000  0.139  0.861  0.000  0.000
  0.992  0.001  0.000  0.000  0.006
  0.000  0.000  0.000  1.000  0.000
    occupations:
  0.436  0.011  0.005 -0.023 -0.000
  0.011  0.184 -0.004 -0.000 -0.002
  0.005 -0.004  0.193  0.001 -0.000
 -0.023 -0.000  0.001  0.147 -0.000
 -0.000 -0.002 -0.000 -0.000  0.424
atom   22   Tr[ns(na)] =   2.76042
    eigenvalues:
  0.148  0.193  0.209  0.386  0.443
    eigenvectors:
  0.000  0.000  0.910  0.089  0.000
  0.000  0.000  0.000  0.000  1.000
  0.999  0.001  0.000  0.000  0.000
  0.000  0.000  0.089  0.910  0.000
  0.001  0.999  0.000  0.000  0.000
    occupations:
  0.225 -0.000 -0.000  0.051  0.000
 -0.000  0.443  0.000  0.000 -0.000
 -0.000  0.000  0.148 -0.000 -0.001
  0.051  0.000 -0.000  0.370  0.000
  0.000 -0.000 -0.001  0.000  0.193
atom   23   Tr[ns(na)] =   2.71940
    eigenvalues:
  0.128  0.201  0.238  0.382  0.411
    eigenvectors:
  0.012  0.025  0.000  0.963  0.000
  0.001  0.973  0.000  0.026  0.000
  0.000  0.000  1.000  0.000  0.000
  0.987  0.002  0.000  0.011  0.000
  0.000  0.000  0.000  0.000  1.000
    occupations:
  0.374  0.029  0.000 -0.026 -0.000
  0.029  0.206 -0.000 -0.001 -0.000
  0.000 -0.000  0.238  0.000 -0.000
 -0.026 -0.001  0.000  0.131 -0.000
 -0.000 -0.000 -0.000 -0.000  0.411
N of occupied +U levels =  21.8386155
 --- exit write_ns ---

[...]

     total energy              =   -1565.78719258 Ry
     Harris-Foulkes estimate   =   -1565.78719259 Ry
     estimated scf accuracy    <       0.00000008 Ry

     iteration # 12     ecut=    40.00 Ry     beta=0.70
     Davidson diagonalization with overlap
     ethr =  3.91E-11,  avg # of iterations =  1.0

     negative rho (up, down):  0.105E+00 0.000E+00

     End of self-consistent calculation
 --- enter write_ns ---
 LDA+U parameters:
U( 2)     =  4.50000000
alpha( 2) =  0.00000000
atom    3   Tr[ns(na)] =   2.68414
    eigenvalues:
  0.150  0.165  0.188  0.397  0.442
    eigenvectors:
  0.068  0.700  0.051  0.166  0.015
  0.003  0.003  0.002  0.192  0.800
  0.586  0.006  0.408  0.000  0.000
  0.019  0.149  0.008  0.641  0.183
  0.325  0.143  0.529  0.000  0.002
    occupations:
  0.208  0.011 -0.004  0.090  0.002
  0.011  0.431  0.003 -0.025  0.013
 -0.004  0.003  0.166  0.007 -0.017
  0.090 -0.025  0.007  0.364 -0.002
  0.002  0.013 -0.017 -0.002  0.173
atom    4   Tr[ns(na)] =   2.77213
    eigenvalues:
  0.146  0.180  0.194  0.429  0.437
    eigenvectors:
  0.007  0.002  0.000  0.000  0.991
  0.001  0.838  0.158  0.000  0.002
  0.001  0.158  0.841  0.000  0.000
  0.992  0.002  0.000  0.000  0.006
  0.000  0.000  0.000  0.999  0.000
    occupations:
  0.435  0.012  0.005 -0.023 -0.000
  0.012  0.183 -0.005 -0.000 -0.003
  0.005 -0.005  0.192  0.001 -0.000
 -0.023 -0.000  0.001  0.148 -0.000
 -0.000 -0.003 -0.000 -0.000  0.429
atom    9   Tr[ns(na)] =   2.76080
    eigenvalues:
  0.148  0.193  0.210  0.386  0.444
    eigenvectors:
  0.000  0.000  0.911  0.089  0.000
  0.000  0.000  0.000  0.000  1.000
  0.999  0.001  0.000  0.000  0.000
  0.000  0.000  0.089  0.911  0.000
  0.001  0.999  0.000  0.000  0.000
    occupations:
  0.225  0.000 -0.000  0.050  0.000
  0.000  0.444  0.000 -0.000 -0.000
 -0.000  0.000  0.148  0.000  0.001
  0.050 -0.000  0.000  0.370  0.000
  0.000 -0.000  0.001  0.000  0.193
atom   10   Tr[ns(na)] =   2.68894
    eigenvalues:
  0.148  0.206  0.214  0.329  0.447
    eigenvectors:
  0.020  0.000  0.000  0.980  0.000
  0.000  0.000  1.000  0.000  0.000
  0.000  1.000  0.000  0.000  0.000
  0.980  0.000  0.000  0.020  0.000
  0.000  0.000  0.000  0.000  1.000
    occupations:
  0.326  0.001 -0.000 -0.025 -0.000
  0.001  0.214 -0.000  0.000  0.000
 -0.000 -0.000  0.206 -0.000 -0.001
 -0.025  0.000 -0.000  0.152  0.000
 -0.000  0.000 -0.001  0.000  0.447
atom   16   Tr[ns(na)] =   2.68450
    eigenvalues:
  0.150  0.165  0.188  0.397  0.442
    eigenvectors:
  0.063  0.705  0.051  0.165  0.015
  0.003  0.003  0.003  0.194  0.798
  0.590  0.005  0.405  0.000  0.000
  0.018  0.149  0.009  0.640  0.185
  0.326  0.138  0.533  0.001  0.002
    occupations:
  0.208 -0.011 -0.004  0.090 -0.002
 -0.011  0.431 -0.003  0.025  0.012
 -0.004 -0.003  0.166  0.007  0.017
  0.090  0.025  0.007  0.364  0.001
 -0.002  0.012  0.017  0.001  0.173
atom   17   Tr[ns(na)] =   2.76863
    eigenvalues:
  0.145  0.182  0.195  0.424  0.439
    eigenvectors:
  0.007  0.002  0.000  0.000  0.991
  0.001  0.859  0.138  0.000  0.002
  0.000  0.138  0.862  0.000  0.000
  0.992  0.001  0.000  0.000  0.006
  0.000  0.000  0.000  1.000  0.000
    occupations:
  0.436  0.011  0.005 -0.023 -0.000
  0.011  0.184 -0.004 -0.000 -0.002
  0.005 -0.004  0.193  0.001 -0.000
 -0.023 -0.000  0.001  0.147 -0.000
 -0.000 -0.002 -0.000 -0.000  0.424
atom   22   Tr[ns(na)] =   2.75941
    eigenvalues:
  0.148  0.193  0.209  0.386  0.443
    eigenvectors:
  0.000  0.000  0.910  0.090  0.000
  0.000  0.000  0.000  0.000  1.000
  0.999  0.001  0.000  0.000  0.000
  0.000  0.000  0.090  0.910  0.000
  0.001  0.999  0.000  0.000  0.000
    occupations:
  0.225 -0.000 -0.000  0.051  0.000
 -0.000  0.443  0.000  0.000 -0.000
 -0.000  0.000  0.148 -0.000 -0.001
  0.051  0.000 -0.000  0.370 -0.000
  0.000 -0.000 -0.001 -0.000  0.193
atom   23   Tr[ns(na)] =   2.72153
    eigenvalues:
  0.128  0.202  0.238  0.382  0.411
    eigenvectors:
  0.012  0.025  0.000  0.963  0.000
  0.001  0.973  0.000  0.026  0.000
  0.000  0.000  1.000  0.000  0.000
  0.987  0.002  0.000  0.011  0.000
  0.000  0.000  0.000  0.000  1.000
    occupations:
  0.374  0.029  0.000 -0.026 -0.000
  0.029  0.206 -0.000 -0.001 -0.000
  0.000 -0.000  0.238  0.000 -0.000
 -0.026 -0.001  0.000  0.131 -0.000
 -0.000 -0.000 -0.000 -0.000  0.411
N of occupied +U levels =  21.8400837
 --- exit write_ns ---

[...]

          k = 0.2500-0.4516 0.0000 ( 29882 PWs)   bands (ev):

[...]

          k =-0.2500 0.2258 0.0000 ( 29912 PWs)   bands (ev):

   -61.0434 -61.0176 -60.8329 -60.3603 -60.0798 -60.0513 -59.6268 -59.5984
   -37.4494 -37.2507 -37.2202 -37.1823 -37.1605 -37.1525 -37.1206 -37.0155
   -36.9676 -36.6170 -36.5762 -36.5592 -36.5294 -36.3734 -36.3032 -36.2728
   -36.1509 -36.1260 -35.9616 -35.9105 -35.8853 -35.8377 -35.7711 -35.6553
   -21.5157 -21.2781 -20.5318 -20.3522 -20.2017 -19.8384 -19.6660 -19.6186
   -19.5424 -19.4060 -19.3573 -19.2968 -19.2116 -19.1822 -19.1432 -18.7082
   -18.4641 -18.0893 -18.0649  -9.2199  -8.9660  -8.1756  -7.7931  -7.6702
    -7.4940  -7.2272  -7.1962  -7.0671  -6.8899  -6.8516  -6.7563  -6.7220
    -6.6574  -6.5315  -6.4979  -6.3988  -6.3419  -6.2004  -6.1241  -5.9697
    -5.9218  -5.7456  -5.6407  -5.4047  -5.3017  -5.2745  -5.1808  -5.0976
    -5.0425  -4.9848  -4.9248  -4.8887  -4.8232  -4.7217  -4.6912  -4.6331
    -4.5750  -4.4725  -4.3280  -4.2761  -4.2200  -4.1632  -3.9910  -3.8509
    -3.7410  -3.6312  -3.5052  -3.4541  -3.4211  -3.3001  -3.1906  -3.1215
    -2.9859  -2.9413  -2.8568  -2.7150  -0.2497  -0.1055  -0.0318   0.0808
     0.2052   0.3968   0.4202   0.5222   0.5658   0.6614   0.7915   0.8803
     1.0086   1.0648   1.0939   1.1713   1.1790   1.2563   1.4142   1.5070
     1.6399   1.6654   1.7118   1.7397   1.7849   1.8764   2.0170   2.0844
     2.1603   2.2659   2.3996   2.7745   2.8344   3.0562   3.2375   3.2990
     3.4759   3.5286   3.6119   3.6888   3.9360   4.0659   4.1789   4.6157
     5.0422   5.2501   5.2942   5.6077   5.8442   5.9261   6.1395   6.2234
     6.2934   6.5106   6.5740   6.8916   6.9815   7.2913   7.3324   7.4781
     7.6883   7.7839   7.8926   7.9659   8.0137   8.1050   8.1949   8.4105
     8.4822   8.5897   8.7723   8.8108   8.9288   8.9842   9.2577   9.3556
     9.4187   9.4601   9.5621   9.6273   9.7203   9.8671  10.0027  10.0737
    10.1202  10.2521  10.3699  10.4476  10.5318  10.6351  10.7641  10.8044
    10.8728  10.9639  11.0271  11.1508  11.2181  11.2513  11.3732  11.4578
    11.4953  11.5342  11.5876  11.7116  11.7934  11.8503  11.9317  11.9678
    12.0705  12.1309  12.1956  12.3083  12.3759  12.4315  12.4746  12.5720
    12.6331  12.7547  12.8389  12.8716  12.9152  12.9827  13.0306  13.0808
    13.2895  13.3534  13.4184  13.5359  13.5825  13.6252  13.7487  13.8155
    13.8350  13.9144  14.0038  14.0704  14.1660  14.2171  14.3185  14.3798
    14.4558  14.5420  14.5891  14.6045  14.6763  14.7578  14.8663  14.9584
    14.9734  15.1338  15.2255  15.2428  15.3381  15.3900  15.4363  15.4999
    15.5439  15.6793  15.7616  15.7980  15.8355  15.8966  15.9551  16.0576
    16.1400  16.2269  16.3103  16.3332  16.4170  16.5379  16.6616  16.6749
    16.7478  16.7771  16.8087  16.8715  16.8924  17.0086  17.0800  17.0969
    17.1978  17.2529  17.3580  17.3853  17.4699  17.5328  17.5662  17.6013
    17.7355  17.8000  17.9079  17.9356  18.0535  18.1133  18.2084  18.2733
    18.3842  18.4717  18.4942  18.5523  18.6325  18.7119

     the Fermi energy is    -2.7296 ev

!    total energy              =   -1565.78719258 Ry
     Harris-Foulkes estimate   =   -1565.78719258 Ry
     estimated scf accuracy    <          2.1E-09 Ry

     The total energy is the sum of the following terms:

     one-electron contribution =  -18506.05795909 Ry
     hartree contribution      =    9269.94061418 Ry
     xc contribution           =    -277.38878522 Ry
     ewald contribution        =    7945.28100519 Ry
     Hubbard energy            =       2.43713912 Ry
     smearing contrib. (-TS)   =       0.00079323 Ry

     convergence has been achieved in  12 iterations

     Forces acting on atoms (Ry/au):

     negative rho (up, down):  0.105E+00 0.000E+00
     atom    1 type  1   force =    -0.00196284   -0.01225708    0.00023078
     atom    2 type  1   force =    -0.00003307    0.01549787    0.00011578
     atom    3 type  2   force =     0.05994555   -0.00788219    0.00044114
     atom    4 type  2   force =    -0.00058261    0.00702767   -0.00043891
     atom    5 type  1   force =    -0.00324408   -0.07277651    0.00020235
     atom    6 type  1   force =    -0.00513495    0.07256034   -0.00037185
     atom    7 type  1   force =     0.00152856    0.00052854   -0.00008523
     atom    8 type  1   force =     0.00183605   -0.00158527    0.00080228
     atom    9 type  2   force =     0.00005113   -0.00003083   -0.00054880
     atom   10 type  2   force =    -0.00458655    0.00002285   -0.00075163
     atom   11 type  1   force =    -0.01648611   -0.02405673   -0.00021194
     atom   12 type  1   force =    -0.01667320    0.02398900   -0.00016940
     atom   13 type  1   force =     0.00068960    0.00009105   -0.00038096
     atom   14 type  1   force =    -0.00356001   -0.01222887   -0.00017522
     atom   15 type  1   force =     0.00020381    0.01408161    0.00013285
     atom   16 type  2   force =    -0.05987497   -0.00836062    0.00039315
     atom   17 type  2   force =    -0.00020862    0.00655106   -0.00023318
     atom   18 type  1   force =     0.00661112   -0.07237839    0.00026253
     atom   19 type  1   force =     0.00588920    0.07287018   -0.00040399
     atom   20 type  1   force =    -0.00084498    0.00015119   -0.00011484
     atom   21 type  1   force =     0.00039009   -0.00140124    0.00099982
     atom   22 type  2   force =    -0.00023561    0.00011158   -0.00032086
     atom   23 type  2   force =    -0.00006579   -0.00001869    0.00036658
     atom   24 type  1   force =     0.01838162   -0.02171425    0.00047362
     atom   25 type  1   force =     0.01798063    0.02167992    0.00046763
     atom   26 type  1   force =    -0.00039787    0.00002183   -0.00013256
     atom   27 type  3   force =    -0.00004055   -0.00012132   -0.00012193
     atom   28 type  3   force =    -0.00001951   -0.00023379   -0.00024418
     atom   29 type  3   force =    -0.00011850   -0.00003651    0.00002073
     atom   30 type  3   force =     0.00007464   -0.00004935   -0.00007802
     atom   31 type  1   force =    -0.00007940   -0.00000065   -0.00005200
     atom   32 type  3   force =     0.00056723   -0.00005239   -0.00007375

     Total force =     0.002255     Total SCF correction =     0.000084

     bfgs converged in  19 scf cycles and  18 bfgs steps
     (criteria: energy < 0.10E-03, force < 0.10E-02)

     End of BFGS Geometry Optimization

     Final energy   =   -1565.7871925832 Ry
Begin final coordinates

ATOMIC_POSITIONS (crystal)
O0       0.000000000   0.000000000   0.375939555    0   0   1
O0       0.000000000   0.500000000   0.395591030    0   0   1
Ti1      0.250000000   0.500000000   0.448237891    0   0   1
Ti1      0.000000000   0.000000000   0.450932688    0   0   1
O0       0.250000000   0.810000000   0.447839446    0   0   1
O0       0.250000000   0.190000000   0.448865526    0   0   1
O0       0.000000000   0.500000000   0.496313899    0   0   1
O0       0.000000000   0.000000000   0.525536185    0   0   1
Ti1      0.250000000   0.000000000   0.580836396    0   0   1
Ti1      0.000000000   0.500000000   0.567563078    0   0   1
O0       0.250000000   0.690000000   0.580641014    0   0   1
O0       0.250000000   0.310000000   0.580648583    0   0   1
O0       0.000000000   0.000000000   0.623191078    0   0   1
O0       0.500000000   0.000000000   0.376497064    0   0   1
O0       0.500000000   0.500000000   0.395036080    0   0   1
Ti1      0.750000000   0.500000000   0.448321697    0   0   1
Ti1      0.500000000   0.000000000   0.452066295    0   0   1
O0       0.750000000   0.810000000   0.447778408    0   0   1
O0       0.750000000   0.190000000   0.448913208    0   0   1
O0       0.500000000   0.500000000   0.491986534    0   0   1
O0       0.500000000   0.000000000   0.525612943    0   0   1
Ti1      0.750000000   0.000000000   0.580852601    0   0   1
Ti1      0.500000000   0.500000000   0.595309438    0   0   1
O0       0.750000000   0.690000000   0.579753635    0   0   1
O0       0.750000000   0.310000000   0.579701596    0   0   1
O0       0.500000000   0.000000000   0.623041562    0   0   1
H2      -0.000443205   0.626418190   0.375355931
H2       0.499746946   0.627079288   0.375060506
H2       0.150461221   0.035745765   0.362693900
H2       0.649572747   0.037037068   0.363037948
O0       0.509809669   0.500028812   0.663757464
H2       0.376217237   0.499166706   0.685336820
End final coordinates

     General routines

     Parallel routines
     Hubbard U routines

   This run was terminated on:  16: 1:24  30Apr2014

   JOB DONE.