     Program PWSCF v.5.0.2 (svn rev. 9656) starts on 29Apr2014 at  7:17: 4

     Current dimensions of program PWSCF are:
     Max number of different atomic species (ntypx) = 10
     Max number of k-points (npk) =  40000
     Max angular momentum in pseudopotentials (lmaxx) =  3
     Reading input from pwscf.in
Warning: card &CELL ignored
Warning: card / ignored

     Subspace diagonalization in iterative solution of the eigenvalue problem:
     a serial algorithm will be used

     bravais-lattice index     =            0
     lattice parameter (alat)  =      12.0187  a.u.
     unit-cell volume          =    7280.5819 (a.u.)^3
     number of atoms/cell      =           32
     number of atomic types    =            3
     number of electrons       =       239.00
     number of Kohn-Sham states=          358
     kinetic-energy cutoff     =      40.0000  Ry
     charge density cutoff     =     500.0000  Ry
     convergence threshold     =      1.0E-06
     mixing beta               =       0.7000
     number of iterations used =            8  plain     mixing
     Exchange-correlation      = SLA  PW   PBE  PBE ( 1 4 3 4 0)
     EXX-fraction              =        0.00
     nstep                     =           50

     celldm(1)=  12.018658  celldm(2)=   0.000000  celldm(3)=   0.000000
     celldm(4)=   0.000000  celldm(5)=   0.000000  celldm(6)=   0.000000

     crystal axes: (cart. coord. in units of alat)
               a(1) = (   1.000000   0.000000   0.000000 )
               a(2) = (   0.000000   1.009517   0.000000 )
               a(3) = (   0.000000   0.000000   4.154171 )

     reciprocal axes: (cart. coord. in units 2 pi/alat)
               b(1) = (  1.000000  0.000000  0.000000 )
               b(2) = (  0.000000  0.990572  0.000000 )
               b(3) = (  0.000000  0.000000  0.240722 )

     PseudoPot. # 1 for O  read from file:
     /home/camp/zhonxu/pseudo/o_pbe_v1.01.uspp.F.UPF
     MD5 check sum: 2bcb18d16ea4b960afae9ec6d52f22d2
     Pseudo is Ultrasoft + core correction, Zval =  6.0
     Generated by new atomic code, or converted to UPF format
     Using radial grid of  737 points,  5 beta functions with:
                l(1) =   0
                l(2) =   0
                l(3) =   1
                l(4) =   1
                l(5) =   2
     Q(r) pseudized with  8 coefficients,  rinner =    0.900   0.900   0.900
                                                       0.900   0.900

     PseudoPot. # 2 for Ir read from file:
     /home/camp/zhonxu/pseudo/ir_pbe_v1.uspp.F.UPF
     MD5 check sum: abf987a9674477536ede83817f8f8b70
     Pseudo is Ultrasoft + core correction, Zval = 15.0
     Generated by new atomic code, or converted to UPF format
     Using radial grid of  983 points,  7 beta functions with:
                l(1) =   0
                l(2) =   0
                l(3) =   1
                l(4) =   1
                l(5) =   1
                l(6) =   2
                l(7) =   2
     Q(r) pseudized with  8 coefficients,  rinner =    1.350   1.350   1.350
                                                       1.350   1.350

     PseudoPot. # 3 for H  read from file:
     /home/camp/zhonxu/pseudo/h_pbe_v1.uspp.F.UPF
     MD5 check sum: 3408e3ff4ec8b0a4e358431e7e038a48
     Pseudo is Ultrasoft, Zval =  1.0
     Generated by new atomic code, or converted to UPF format
     Using radial grid of  615 points,  2 beta functions with:
                l(1) =   0
                l(2) =   0
     Q(r) pseudized with  8 coefficients,  rinner =    0.700

     atomic species   valence    mass     pseudopotential
        O0             6.00    15.99940     O ( 1.00)
        Ir1           15.00   192.22000     Ir( 1.00)
        H2             1.00     1.00794     H ( 1.00)

     Simplified LDA+U calculation (l_max = 2) with parameters (eV):
     atomic species    L          U    alpha       J0     beta
        Ir1            2     7.0000   0.0000   0.0000   0.0000

     No symmetry found

   Cartesian axes

     site n.     atom                  positions (alat units)
         1           O0  tau(   1) = (   0.0000000   0.0000000   1.5715230  )
         2           O0  tau(   2) = (   0.0000000   0.5047586   1.6723863  )
         3           Ir1 tau(   3) = (   0.2500000   0.5047586   1.8804272  )
         4           Ir1 tau(   4) = (   0.0000000   0.0000000   1.8823796  )
         5           O0  tau(   5) = (   0.2500000   0.8177090   1.8809672  )
         6           O0  tau(   6) = (   0.2500000   0.1918083   1.8797625  )
         7           O0  tau(   7) = (   0.0000000   0.5047586   2.0697743  )
         8           O0  tau(   8) = (   0.0000000   0.0000000   2.1967673  )
         9           Ir1 tau(   9) = (   0.2500000   0.0000000   2.3926365  )
        10           Ir1 tau(  10) = (   0.0000000   0.5047586   2.3747736  )
        11           O0  tau(  11) = (   0.2500000   0.6965669   2.3923873  )
        12           O0  tau(  12) = (   0.2500000   0.3129503   2.3927196  )
        13           O0  tau(  13) = (   0.0000000   0.0000000   2.5779541  )
        14           O0  tau(  14) = (   0.5000000   0.0000000   1.5704845  )
        15           O0  tau(  15) = (   0.5000000   0.5047586   1.6698107  )
        16           Ir1 tau(  16) = (   0.7500000   0.5047586   1.8805103  )
        17           Ir1 tau(  17) = (   0.5000000   0.0000000   1.8817565  )
        18           O0  tau(  18) = (   0.7500000   0.8177090   1.8810503  )
        19           O0  tau(  19) = (   0.7500000   0.1918083   1.8797625  )
        20           O0  tau(  20) = (   0.5000000   0.5047586   2.0748424  )
        21           O0  tau(  21) = (   0.5000000   0.0000000   2.1964350  )
        22           Ir1 tau(  22) = (   0.7500000   0.0000000   2.3925119  )
        23           Ir1 tau(  23) = (   0.5000000   0.5047586   2.3910995  )
        24           O0  tau(  24) = (   0.7500000   0.6965669   2.3896040  )
        25           O0  tau(  25) = (   0.7500000   0.3129503   2.3900194  )
        26           O0  tau(  26) = (   0.5000000   0.0000000   2.5760847  )
        27           H2  tau(  27) = (  -0.0000400   0.6399431   1.5942048  )
        28           H2  tau(  28) = (   0.5000100   0.6429817   1.5968219  )
        29           H2  tau(  29) = (   0.1437000   0.0339904   1.5235839  )
        30           H2  tau(  30) = (   0.6431700   0.0357369   1.5224622  )
        31           O0  tau(  31) = (   0.5156900   0.5047586   2.6944786  )
        32           H2  tau(  32) = (   0.3744100   0.5050918   2.7575805  )

     number of k points=    10  Methfessel-Paxton smearing, width (Ry)=  0.0100
                       cart. coord. in units 2pi/alat
        k(    1) = (   0.0000000   0.0000000   0.0000000), wk =   0.1250000
        k(    2) = (   0.0000000   0.2476431   0.0000000), wk =   0.2500000
        k(    3) = (   0.0000000  -0.4952862   0.0000000), wk =   0.1250000
        k(    4) = (   0.2500000   0.0000000   0.0000000), wk =   0.2500000
        k(    5) = (   0.2500000   0.2476431   0.0000000), wk =   0.2500000
        k(    6) = (   0.2500000  -0.4952862   0.0000000), wk =   0.2500000
        k(    7) = (  -0.5000000   0.0000000   0.0000000), wk =   0.1250000
        k(    8) = (  -0.5000000   0.2476431   0.0000000), wk =   0.2500000
        k(    9) = (  -0.5000000  -0.4952862   0.0000000), wk =   0.1250000
        k(   10) = (  -0.2500000   0.2476431   0.0000000), wk =   0.2500000

     Largest allocated arrays     est. size (Mb)     dimensions
     Largest temporary arrays     est. size (Mb)     dimensions

     Check: negative/imaginary core charge=   -0.000003    0.000000

     Initial potential from superposition of free atoms
     Check: negative starting charge=   -3.334647

     starting charge  234.99967, renormalised to  239.00000

     negative rho (up, down):  0.339E+01 0.000E+00
     Number of +U iterations with fixed ns =  0
     Starting occupations:
 --- enter write_ns ---
 LDA+U parameters:
U( 2)     =  7.00000000
alpha( 2) =  0.00000000
atom    3   Tr[ns(na)] =   7.00000
    eigenvalues:
  0.700  0.700  0.700  0.700  0.700
    eigenvectors:
  1.000  0.000  0.000  0.000  0.000
  0.000  1.000  0.000  0.000  0.000
  0.000  0.000  1.000  0.000  0.000
  0.000  0.000  0.000  1.000  0.000
  0.000  0.000  0.000  0.000  1.000
    occupations:
  0.700  0.000  0.000  0.000  0.000
  0.000  0.700  0.000  0.000  0.000
  0.000  0.000  0.700  0.000  0.000
  0.000  0.000  0.000  0.700  0.000
  0.000  0.000  0.000  0.000  0.700
atom    4   Tr[ns(na)] =   7.00000
    eigenvalues:
  0.700  0.700  0.700  0.700  0.700
    eigenvectors:
  1.000  0.000  0.000  0.000  0.000
  0.000  1.000  0.000  0.000  0.000
  0.000  0.000  1.000  0.000  0.000
  0.000  0.000  0.000  1.000  0.000
  0.000  0.000  0.000  0.000  1.000
    occupations:
  0.700  0.000  0.000  0.000  0.000
  0.000  0.700  0.000  0.000  0.000
  0.000  0.000  0.700  0.000  0.000
  0.000  0.000  0.000  0.700  0.000
  0.000  0.000  0.000  0.000  0.700
atom    9   Tr[ns(na)] =   7.00000
    eigenvalues:
  0.700  0.700  0.700  0.700  0.700
    eigenvectors:
  1.000  0.000  0.000  0.000  0.000
  0.000  1.000  0.000  0.000  0.000
  0.000  0.000  1.000  0.000  0.000
  0.000  0.000  0.000  1.000  0.000
  0.000  0.000  0.000  0.000  1.000
    occupations:
  0.700  0.000  0.000  0.000  0.000
  0.000  0.700  0.000  0.000  0.000
  0.000  0.000  0.700  0.000  0.000
  0.000  0.000  0.000  0.700  0.000
  0.000  0.000  0.000  0.000  0.700
atom   10   Tr[ns(na)] =   7.00000
    eigenvalues:
  0.700  0.700  0.700  0.700  0.700
    eigenvectors:
  1.000  0.000  0.000  0.000  0.000
  0.000  1.000  0.000  0.000  0.000
  0.000  0.000  1.000  0.000  0.000
  0.000  0.000  0.000  1.000  0.000
  0.000  0.000  0.000  0.000  1.000
    occupations:
  0.700  0.000  0.000  0.000  0.000
  0.000  0.700  0.000  0.000  0.000
  0.000  0.000  0.700  0.000  0.000
  0.000  0.000  0.000  0.700  0.000
  0.000  0.000  0.000  0.000  0.700
atom   16   Tr[ns(na)] =   7.00000
    eigenvalues:
  0.700  0.700  0.700  0.700  0.700
    eigenvectors:
  1.000  0.000  0.000  0.000  0.000
  0.000  1.000  0.000  0.000  0.000
  0.000  0.000  1.000  0.000  0.000
  0.000  0.000  0.000  1.000  0.000
  0.000  0.000  0.000  0.000  1.000
    occupations:
  0.700  0.000  0.000  0.000  0.000
  0.000  0.700  0.000  0.000  0.000
  0.000  0.000  0.700  0.000  0.000
  0.000  0.000  0.000  0.700  0.000
  0.000  0.000  0.000  0.000  0.700
atom   17   Tr[ns(na)] =   7.00000
    eigenvalues:
  0.700  0.700  0.700  0.700  0.700
    eigenvectors:
  1.000  0.000  0.000  0.000  0.000
  0.000  1.000  0.000  0.000  0.000
  0.000  0.000  1.000  0.000  0.000
  0.000  0.000  0.000  1.000  0.000
  0.000  0.000  0.000  0.000  1.000
    occupations:
  0.700  0.000  0.000  0.000  0.000
  0.000  0.700  0.000  0.000  0.000
  0.000  0.000  0.700  0.000  0.000
  0.000  0.000  0.000  0.700  0.000
  0.000  0.000  0.000  0.000  0.700
atom   22   Tr[ns(na)] =   7.00000
    eigenvalues:
  0.700  0.700  0.700  0.700  0.700
    eigenvectors:
  1.000  0.000  0.000  0.000  0.000
  0.000  1.000  0.000  0.000  0.000
  0.000  0.000  1.000  0.000  0.000
  0.000  0.000  0.000  1.000  0.000
[...]
  0.033  0.000 -0.000  0.983  0.000
  0.001 -0.002  0.001  0.000  0.621
atom    9   Tr[ns(na)] =   8.22606
    eigenvalues:
  0.655  0.669  0.884  0.919  0.986
    eigenvectors:
  0.000  0.140  0.000  0.000  0.860
  0.999  0.001  0.000  0.000  0.000
  0.000  0.000  0.999  0.001  0.000
  0.001  0.859  0.000  0.000  0.140
  0.000  0.000  0.001  0.999  0.000
    occupations:
  0.942  0.000  0.000 -0.110 -0.000
  0.000  0.655  0.001  0.000 -0.000
  0.000  0.001  0.884 -0.000 -0.001
 -0.110  0.000 -0.000  0.714  0.001
 -0.000 -0.000 -0.001  0.001  0.919
atom   10   Tr[ns(na)] =   8.17865
    eigenvalues:
  0.581  0.613  0.947  0.961  0.987
    eigenvectors:
  0.991  0.000  0.000  0.000  0.009
  0.000  0.000  1.000  0.000  0.000
  0.000  0.000  0.000  1.000  0.000
  0.009  0.000  0.000  0.000  0.991
  0.000  1.000  0.000  0.000  0.000
    occupations:
  0.585 -0.004  0.001  0.039 -0.000
 -0.004  0.947 -0.000  0.000 -0.000
  0.001 -0.000  0.961 -0.000  0.001
  0.039  0.000 -0.000  0.983 -0.000
 -0.000 -0.000  0.001 -0.000  0.613
atom   16   Tr[ns(na)] =   8.23208
    eigenvalues:
  0.605  0.634  0.918  0.973  0.986
    eigenvectors:
  0.002  0.181  0.003  0.001  0.813
  0.995  0.004  0.000  0.000  0.000
  0.000  0.000  0.977  0.020  0.003
  0.003  0.814  0.000  0.000  0.182
  0.000  0.000  0.019  0.979  0.002
    occupations:
  0.921  0.005  0.003 -0.136  0.001
  0.005  0.605  0.001 -0.000 -0.004
  0.003  0.001  0.920 -0.004 -0.007
 -0.136 -0.000 -0.004  0.698  0.000
  0.001 -0.004 -0.007  0.000  0.972
atom   17   Tr[ns(na)] =   8.23180
    eigenvalues:
  0.619  0.672  0.899  0.939  0.987
    eigenvectors:
  0.001  0.989  0.000  0.000  0.011
  0.000  0.000  0.112  0.888  0.000
  0.000  0.000  0.888  0.112  0.000
  0.000  0.011  0.000  0.000  0.989
  0.999  0.001  0.000  0.000  0.000
    occupations:
  0.675 -0.003 -0.001  0.032  0.001
 -0.003  0.934  0.012  0.000 -0.002
 -0.001  0.012  0.904 -0.000  0.000
  0.032  0.000 -0.000  0.984  0.000
  0.001 -0.002  0.000  0.000  0.619
atom   22   Tr[ns(na)] =   8.22136
    eigenvalues:
  0.656  0.670  0.878  0.921  0.986
    eigenvectors:
  0.000  0.139  0.000  0.000  0.861
  1.000  0.000  0.000  0.000  0.000
  0.000  0.000  0.999  0.001  0.000
  0.000  0.861  0.000  0.000  0.139
  0.000  0.000  0.001  0.999  0.000
    occupations:
  0.942  0.001 -0.000 -0.109 -0.000
  0.001  0.656  0.001 -0.000 -0.000
 -0.000  0.001  0.878 -0.000  0.001
 -0.109 -0.000 -0.000  0.714  0.001
 -0.000 -0.000  0.001  0.001  0.921
atom   23   Tr[ns(na)] =   8.21530
    eigenvalues:
  0.626  0.679  0.871  0.945  0.987
    eigenvectors:
  0.000  0.988  0.000  0.000  0.011
  0.000  0.000  0.000  0.999  0.000
  0.000  0.000  1.000  0.000  0.000
  0.000  0.011  0.000  0.000  0.989
  1.000  0.000  0.000  0.000  0.000
    occupations:
  0.683  0.006 -0.000  0.033 -0.000
  0.006  0.945 -0.001 -0.000 -0.000
 -0.000 -0.001  0.871  0.000 -0.001
  0.033 -0.000  0.000  0.983 -0.000
 -0.000 -0.000 -0.001 -0.000  0.626
N of occupied +U levels =  65.7679240
 --- exit write_ns ---

     Threshold (ethr) on eigenvalues was too large:
     Diagonalizing with lowered threshold

     Davidson diagonalization with overlap
     ethr =  5.71E-09,  avg # of iterations =  2.0

[...]

     total energy              =   -2104.77377032 Ry
     Harris-Foulkes estimate   =   -2104.77377032 Ry
     estimated scf accuracy    <       0.00000001 Ry

     iteration # 12     ecut=    40.00 Ry     beta=0.70
     Davidson diagonalization with overlap
     ethr =  4.57E-12,  avg # of iterations =  1.0

     negative rho (up, down):  0.314E+01 0.000E+00

     End of self-consistent calculation
 --- enter write_ns ---
 LDA+U parameters:
U( 2)     =  7.00000000
alpha( 2) =  0.00000000
atom    3   Tr[ns(na)] =   8.23180
    eigenvalues:
  0.604  0.634  0.919  0.974  0.986
    eigenvectors:
  0.001  0.182  0.003  0.000  0.814
  0.996  0.003  0.000  0.000  0.000
  0.000  0.000  0.974  0.023  0.003
  0.002  0.815  0.000  0.000  0.182
  0.000  0.000  0.023  0.976  0.001
    occupations:
  0.921 -0.005  0.002 -0.136 -0.001
 -0.005  0.605 -0.001  0.000 -0.004
  0.002 -0.001  0.920 -0.004  0.008
 -0.136  0.000 -0.004  0.698 -0.001
 -0.001 -0.004  0.008 -0.001  0.972
atom    4   Tr[ns(na)] =   8.23032
    eigenvalues:
  0.621  0.673  0.892  0.942  0.987
    eigenvectors:
  0.000  0.988  0.000  0.000  0.011
  0.000  0.000  0.050  0.950  0.000
  0.000  0.000  0.950  0.050  0.000
  0.000  0.011  0.000  0.000  0.989
  0.999  0.000  0.000  0.000  0.000
    occupations:
  0.676 -0.003 -0.000  0.033  0.001
 -0.003  0.939  0.011  0.000 -0.002
 -0.000  0.011  0.895 -0.000  0.001
  0.033  0.000 -0.000  0.983  0.000
  0.001 -0.002  0.001  0.000  0.621
atom    9   Tr[ns(na)] =   8.22605
    eigenvalues:
  0.655  0.669  0.884  0.919  0.986
    eigenvectors:
  0.000  0.140  0.000  0.000  0.860
  0.999  0.001  0.000  0.000  0.000
  0.000  0.000  0.999  0.001  0.000
  0.001  0.859  0.000  0.000  0.140
  0.000  0.000  0.001  0.999  0.000
    occupations:
  0.942 -0.000  0.000 -0.110 -0.000
 -0.000  0.655  0.001  0.000 -0.000
  0.000  0.001  0.884 -0.000 -0.001
 -0.110  0.000 -0.000  0.714  0.001
 -0.000 -0.000 -0.001  0.001  0.919
atom   10   Tr[ns(na)] =   8.17885
    eigenvalues:
  0.581  0.613  0.947  0.961  0.987
    eigenvectors:
  0.991  0.000  0.000  0.000  0.009
  0.000  0.000  1.000  0.000  0.000
  0.000  0.000  0.000  1.000  0.000
  0.009  0.000  0.000  0.000  0.991
  0.000  1.000  0.000  0.000  0.000
    occupations:
  0.585 -0.004  0.001  0.039 -0.000
 -0.004  0.947 -0.000  0.000 -0.000
  0.001 -0.000  0.961 -0.000  0.001
  0.039  0.000 -0.000  0.983 -0.000
 -0.000 -0.000  0.001 -0.000  0.613
atom   16   Tr[ns(na)] =   8.23182
    eigenvalues:
  0.605  0.634  0.918  0.973  0.986
    eigenvectors:
  0.002  0.181  0.003  0.001  0.813
  0.995  0.004  0.000  0.000  0.000
  0.000  0.000  0.978  0.019  0.003
  0.003  0.814  0.000  0.000  0.182
  0.000  0.000  0.019  0.979  0.002
    occupations:
  0.921  0.005  0.003 -0.136  0.001
  0.005  0.605  0.001 -0.000 -0.004
  0.003  0.001  0.919 -0.004 -0.007
 -0.136 -0.000 -0.004  0.698  0.000
  0.001 -0.004 -0.007  0.000  0.972
atom   17   Tr[ns(na)] =   8.23143
    eigenvalues:
  0.619  0.672  0.899  0.939  0.987
    eigenvectors:
  0.001  0.989  0.000  0.000  0.011
  0.000  0.000  0.112  0.888  0.000
  0.000  0.000  0.888  0.112  0.000
  0.000  0.011  0.000  0.000  0.989
  0.999  0.001  0.000  0.000  0.000
    occupations:
  0.675 -0.003 -0.001  0.032  0.001
 -0.003  0.934  0.012  0.000 -0.002
 -0.001  0.012  0.904 -0.000  0.000
  0.032  0.000 -0.000  0.984  0.000
  0.001 -0.002  0.000  0.000  0.619
atom   22   Tr[ns(na)] =   8.22132
    eigenvalues:
  0.656  0.670  0.878  0.921  0.986
    eigenvectors:
  0.000  0.139  0.000  0.000  0.861
  1.000  0.000  0.000  0.000  0.000
  0.000  0.000  0.999  0.001  0.000
  0.000  0.861  0.000  0.000  0.139
  0.000  0.000  0.001  0.999  0.000
    occupations:
  0.942  0.001 -0.000 -0.109 -0.000
  0.001  0.656  0.001 -0.000 -0.000
 -0.000  0.001  0.878 -0.000  0.001
 -0.109 -0.000 -0.000  0.714  0.001
 -0.000 -0.000  0.001  0.001  0.921
atom   23   Tr[ns(na)] =   8.21601
    eigenvalues:
  0.626  0.679  0.871  0.945  0.987
    eigenvectors:
  0.000  0.988  0.000  0.000  0.011
  0.000  0.000  0.000  0.999  0.000
  0.000  0.000  1.000  0.000  0.000
  0.000  0.011  0.000  0.000  0.989
  1.000  0.000  0.000  0.000  0.000
    occupations:
  0.683  0.006 -0.000  0.033 -0.000
  0.006  0.945 -0.001 -0.000 -0.000
 -0.000 -0.001  0.871  0.000 -0.001
  0.033 -0.000  0.000  0.983 -0.000
 -0.000 -0.000 -0.001 -0.000  0.626
N of occupied +U levels =  65.7676080
 --- exit write_ns ---

[...]

          k = 0.2500-0.4953 0.0000 ( 31088 PWs)   bands (ev):

[...]

          k =-0.2500 0.2476 0.0000 ( 31099 PWs)   bands (ev):

   -50.3620 -50.3222 -50.2369 -50.2183 -50.2044 -50.1991 -50.1660 -50.1526
   -50.1347 -50.1252 -50.1153 -50.0640 -50.0554 -49.9803 -49.9179 -49.8958
   -49.8671 -49.8618 -49.8254 -49.7908 -49.7712 -49.7580 -49.7419 -49.7290
   -21.4100 -21.2144 -21.1242 -21.0154 -20.7476 -20.6806 -20.6677 -20.5496
   -20.4039 -20.3696 -20.1955 -20.1442 -19.9986 -19.9801 -19.9166 -19.8707
   -19.6798 -18.9722 -18.8177 -10.9132 -10.7306 -10.4726 -10.4411 -10.1739
   -10.0573  -9.9556  -9.8316  -9.5486  -9.0696  -9.0452  -8.9009  -8.8870
    -8.8168  -8.6433  -8.4450  -8.3337  -8.2848  -8.0524  -7.8656  -7.7852
    -7.6307  -7.5418  -7.4456  -7.3532  -7.2728  -7.2087  -7.0116  -6.8474
    -6.7888  -6.6526  -6.5823  -6.5127  -6.4371  -6.3049  -6.2343  -6.1627
    -6.0997  -6.0670  -5.8944  -5.8330  -5.6550  -5.4206  -5.2125  -5.0782
    -4.9478  -4.8084  -4.7259  -4.5525  -4.5216  -4.4033  -4.1145  -4.0789
    -3.8910  -3.8753  -3.7961  -3.7374  -3.5684  -3.4681  -3.4300  -3.3634
    -3.2572  -3.1417  -3.0943  -3.0666  -3.0188  -2.9134  -2.7961  -2.7062
    -2.6256  -2.4987  -2.1048  -1.8830  -1.7349  -1.5136  -1.2955  -1.2752
    -1.2208  -0.9825  -0.8418  -0.6086   0.0606   1.0422   1.1130   1.4244
     1.6834   1.8703   2.2692   2.4796   2.7962   2.8291   2.9621   3.0587
     3.2445   3.3751   3.4563   3.7628   3.8848   4.3099   4.8004   5.2189
     5.4807   5.6445   5.7135   5.9815   6.2719   6.5239   6.6133   6.6391
     6.7097   6.9036   7.0932   7.1817   7.3804   7.4861   7.6171   7.7247
     7.9282   8.0300   8.1249   8.1740   8.2704   8.4532   8.5273   8.5987
     8.8244   8.9036   8.9274   8.9881   9.1211   9.2211   9.3622   9.4337
     9.5932   9.6009   9.6283   9.7783   9.7860   9.7930   9.8049   9.8399
     9.8428   9.8572   9.8676  10.0129  10.0176  10.0972  10.1354  10.1545
    10.2275  10.3435  10.3605  10.4613  10.5401  10.6196  10.6575  10.8026
    10.8345  10.9704  11.0015  11.1676  11.2030  11.2685  11.4137  11.5199
    11.5558  11.6585  11.7319  11.7966  11.8375  11.9557  12.1415  12.2020
    12.2612  12.3532  12.3896  12.4805  12.5548  12.6248  12.6719  12.7383
    12.7902  12.8771  12.9441  13.0190  13.0477  13.1996  13.2559  13.2889
    13.3457  13.4225  13.5798  13.6886  13.7853  13.8367  13.9372  13.9485
    14.0250  14.0923  14.1838  14.2515  14.3387  14.4151  14.5001  14.5338
    14.7151  14.7776  14.8025  14.9658  15.0983  15.1966  15.2729  15.3474
    15.4419  15.4978  15.5194  15.6089  15.6805  15.7535  15.7846  15.8707
    15.9099  15.9263  16.0070  16.0473  16.1589  16.2006  16.2516  16.3145
    16.3830  16.4017  16.4654  16.5420  16.5940  16.6955  16.7236  16.7704
    16.8149  16.8832  17.0778  17.1344  17.1665  17.2941  17.3506  17.4342
    17.4558  17.5287  17.5632  17.6060  17.6708  17.7132  17.7434  17.8348
    17.9102  17.9324  17.9858  18.1083  18.2139  18.2394  18.3093  18.3858
    18.4644  18.6182  18.6565  18.7163  18.7939  18.8588  18.8833  18.9856
    19.0319  19.0918  19.1680  19.2302  19.3120  19.3356  19.4097  19.5716
    19.6211  19.6566  19.7359  19.7912  19.8513  19.9927  20.0646  20.1127
    20.1509  20.2484  20.4008  20.4287  20.5241  20.6301  20.6680  20.7098
    20.7821  20.7984  20.9349  20.9541  20.9686  21.0377  21.0904  21.1850
    21.2091  21.3040  21.3261  21.3670  21.4299  21.4693  21.5313  21.6311
    21.7130  21.7444  21.8282  21.8575  21.8767  21.9809

     the Fermi energy is    -1.2900 ev

!    total energy              =   -2104.77377031 Ry
     Harris-Foulkes estimate   =   -2104.77377032 Ry
     estimated scf accuracy    <          9.2E-09 Ry

     The total energy is the sum of the following terms:

     one-electron contribution =  -22812.31325272 Ry
     hartree contribution      =   11452.68565123 Ry
     xc contribution           =    -577.27555655 Ry
     ewald contribution        =    9829.61004884 Ry
     Hubbard energy            =       2.52012991 Ry
     smearing contrib. (-TS)   =      -0.00079102 Ry

     convergence has been achieved in  12 iterations

     Forces acting on atoms (Ry/au):

     negative rho (up, down):  0.314E+01 0.000E+00
     atom    1 type  1   force =    -0.00662902   -0.01184011    0.00014805
     atom    2 type  1   force =     0.00022437    0.00209832   -0.00044381
     atom    3 type  2   force =     0.02977026    0.00858033    0.00016565
     atom    4 type  2   force =     0.00862278    0.00759166    0.00002219
     atom    5 type  1   force =    -0.00531723   -0.01366639   -0.00030599
     atom    6 type  1   force =     0.00700567    0.01116535   -0.00016889
     atom    7 type  1   force =     0.00173598   -0.00243850   -0.00019222
     atom    8 type  1   force =    -0.00247968   -0.00064416   -0.00013279
     atom    9 type  2   force =     0.00677442    0.00020929    0.00012790
     atom   10 type  2   force =    -0.00783102   -0.00115581   -0.00012223
     atom   11 type  1   force =     0.00006477    0.01735159    0.00008656
     atom   12 type  1   force =     0.00043402   -0.01731173    0.00004585
     atom   13 type  1   force =    -0.00131957   -0.00015905    0.00000599
     atom   14 type  1   force =    -0.00776757   -0.01317390    0.00002011
     atom   15 type  1   force =     0.00028344    0.00295374   -0.00037537
     atom   16 type  2   force =    -0.03045577    0.00730257    0.00015347
     atom   17 type  2   force =     0.00891633    0.00805522    0.00002432
     atom   18 type  1   force =    -0.00479617   -0.01300890   -0.00028763
     atom   19 type  1   force =     0.00626610    0.01245506   -0.00017325
     atom   20 type  1   force =    -0.00167734   -0.00574559    0.00082814
     atom   21 type  1   force =    -0.00385587   -0.00059982   -0.00002973
     atom   22 type  2   force =    -0.00424190    0.00062273    0.00006589
     atom   23 type  2   force =     0.00319249   -0.00000024    0.00023093
     atom   24 type  1   force =     0.00117266    0.02127629   -0.00015732
     atom   25 type  1   force =     0.00224846   -0.02142004   -0.00016528
     atom   26 type  1   force =    -0.00066554   -0.00023946    0.00026776
     atom   27 type  3   force =    -0.00000102    0.00044247    0.00021994
     atom   28 type  3   force =     0.00003135    0.00061634    0.00060661
     atom   29 type  3   force =    -0.00006578    0.00007745    0.00023662
     atom   30 type  3   force =    -0.00019733    0.00064594    0.00013129
     atom   31 type  1   force =     0.00019715   -0.00008592   -0.00029577
     atom   32 type  3   force =     0.00036054    0.00004529   -0.00053700

     Total force =     0.001923     Total SCF correction =     0.000302
     SCF correction compared to forces is large: reduce conv_thr to get better values

     bfgs converged in  10 scf cycles and   9 bfgs steps
     (criteria: energy < 0.10E-03, force < 0.10E-02)

     End of BFGS Geometry Optimization

     Final energy   =   -2104.7737703144 Ry
Begin final coordinates

ATOMIC_POSITIONS (crystal)
O0       0.000000000   0.000000000   0.378802619    0   0   1
O0       0.000000000   0.500000000   0.403506602    0   0   1
Ir1      0.250000000   0.500000000   0.453044306    0   0   1
Ir1      0.000000000   0.000000000   0.453229921    0   0   1
O0       0.250000000   0.810000000   0.453169664    0   0   1
O0       0.250000000   0.190000000   0.452711449    0   0   1
O0       0.000000000   0.500000000   0.499258171    0   0   1
O0       0.000000000   0.000000000   0.528493284    0   0   1
Ir1      0.250000000   0.000000000   0.575247853    0   0   1
Ir1      0.000000000   0.500000000   0.571932190    0   0   1
O0       0.250000000   0.690000000   0.575174435    0   0   1
O0       0.250000000   0.310000000   0.575226147    0   0   1
O0       0.000000000   0.000000000   0.619875089    0   0   1
O0       0.500000000   0.000000000   0.378449393    0   0   1
O0       0.500000000   0.500000000   0.402684193    0   0   1
Ir1      0.750000000   0.500000000   0.453048038    0   0   1
Ir1      0.500000000   0.000000000   0.452992293    0   0   1
O0       0.750000000   0.810000000   0.453189957    0   0   1
O0       0.750000000   0.190000000   0.452687023    0   0   1
O0       0.500000000   0.500000000   0.500008282    0   0   1
O0       0.500000000   0.000000000   0.528495570    0   0   1
Ir1      0.750000000   0.000000000   0.575194566    0   0   1
Ir1      0.500000000   0.500000000   0.574797290    0   0   1
O0       0.750000000   0.690000000   0.574512703    0   0   1
O0       0.750000000   0.310000000   0.574605973    0   0   1
O0       0.500000000   0.000000000   0.619576862    0   0   1
H2      -0.000239344   0.632193427   0.384207401
H2       0.499858814   0.636101787   0.385021401
H2       0.143646666   0.034054882   0.367235806
H2       0.642747447   0.037014471   0.366882292
O0       0.516332191   0.499690926   0.647670900
H2       0.375898977   0.500403718   0.663348327
End final coordinates

     General routines

     Parallel routines
     Hubbard U routines

   This run was terminated on:  17:43:17  29Apr2014

   JOB DONE.