     Program PWSCF v.5.0.2 (svn rev. 9656) starts on 27Mar2014 at 10:48: 7

     Current dimensions of program PWSCF are:
     Max number of different atomic species (ntypx) = 10
     Max number of k-points (npk) =  40000
     Max angular momentum in pseudopotentials (lmaxx) =  3
     Reading input from pwscf.in
Warning: card &CELL ignored
Warning: card / ignored

     Subspace diagonalization in iterative solution of the eigenvalue problem:
     a serial algorithm will be used

     bravais-lattice index     =            0
     lattice parameter (alat)  =      10.3179  a.u.
     unit-cell volume          =    9693.3575 (a.u.)^3
     number of atoms/cell      =           49
     number of atomic types    =            2
     number of electrons       =       422.00
     number of Kohn-Sham states=          633
     kinetic-energy cutoff     =      40.0000  Ry
     charge density cutoff     =     500.0000  Ry
     convergence threshold     =      1.0E-06
     mixing beta               =       0.3000
     number of iterations used =            8  plain     mixing
     Exchange-correlation      = SLA  PW   PBE  PBE ( 1 4 3 4 0)
     EXX-fraction              =        0.00
     nstep                     =           50

     celldm(1)=  10.317905  celldm(2)=   0.000000  celldm(3)=   0.000000
     celldm(4)=   0.000000  celldm(5)=   0.000000  celldm(6)=   0.000000

     crystal axes: (cart. coord. in units of alat)
               a(1) = (   1.000000   0.000000   0.000000 )
               a(2) = (   0.000000   1.282117   0.000000 )
               a(3) = (   0.000000   0.000000   6.882911 )

     reciprocal axes: (cart. coord. in units 2 pi/alat)
               b(1) = (  1.000000  0.000000  0.000000 )
               b(2) = (  0.000000  0.779960  0.000000 )
               b(3) = (  0.000000  0.000000  0.145287 )

     PseudoPot. # 1 for O  read from file:
     /home/camp/zhonxu/pseudo/o_pbe_v1.01.uspp.F.UPF
     MD5 check sum: 2bcb18d16ea4b960afae9ec6d52f22d2
     Pseudo is Ultrasoft + core correction, Zval =  6.0
     Generated by new atomic code, or converted to UPF format
     Using radial grid of  737 points,  5 beta functions with:
                l(1) =   0
                l(2) =   0
                l(3) =   1
                l(4) =   1
                l(5) =   2
     Q(r) pseudized with  8 coefficients,  rinner =    0.900   0.900   0.900
                                                       0.900   0.900

     PseudoPot. # 2 for Mo read from file:
     /home/camp/zhonxu/pseudo/mo_pbe_v1.uspp.F.UPF
     MD5 check sum: 30c4dcd161f5d35cd49bb5239c51a633
     Pseudo is Ultrasoft + core correction, Zval = 14.0
     Generated by new atomic code, or converted to UPF format
     Using radial grid of  889 points,  6 beta functions with:
                l(1) =   0
                l(2) =   0
                l(3) =   1
                l(4) =   1
                l(5) =   2
                l(6) =   2
     Q(r) pseudized with  6 coefficients,  rinner =    1.000   1.000   1.000
                                                       1.000   1.000

     atomic species   valence    mass     pseudopotential
        O0             6.00    15.99940     O ( 1.00)
        Mo1           14.00    95.94000     Mo( 1.00)

      4 Sym. Ops. (no inversion) found

   Cartesian axes

     site n.     atom                  positions (alat units)
         1           O0  tau(   1) = (   0.0000000   0.6410583   2.1977822  )
         2           Mo1 tau(   2) = (   0.2500000   0.6410583   2.4798439  )
         3           Mo1 tau(   3) = (   0.0000000   0.0000000   2.4798439  )
         4           O0  tau(   4) = (   0.2500000   1.0000510   2.4798439  )
         5           O0  tau(   5) = (   0.2500000   0.2820657   2.4798439  )
         6           O0  tau(   6) = (   0.0000000   0.6410583   2.7619056  )
         7           O0  tau(   7) = (   0.0000000   0.0000000   2.8388565  )
         8           Mo1 tau(   8) = (   0.2500000   0.0000000   3.1209182  )
         9           Mo1 tau(   9) = (   0.0000000   0.6410583   3.1209182  )
        10           O0  tau(  10) = (   0.2500000   0.9231240   3.1209182  )
        11           O0  tau(  11) = (   0.2500000   0.3589927   3.1209182  )
        12           O0  tau(  12) = (   0.0000000   0.0000000   3.4029799  )
        13           O0  tau(  13) = (   0.0000000   0.6410583   3.4705701  )
        14           Mo1 tau(  14) = (   0.2286600   0.6410583   3.7488462  )
        15           Mo1 tau(  15) = (   0.0000000   0.0000000   3.7864269  )
        16           O0  tau(  16) = (   0.2460200   1.0042564   3.7683248  )
        17           O0  tau(  17) = (   0.2460200   0.2778603   3.7683248  )
        18           O0  tau(  18) = (   0.0000000   0.6410583   4.0400621  )
        19           O0  tau(  19) = (   0.0000000   0.0000000   4.1500511  )
        20           Mo1 tau(  20) = (   0.2719400   0.0000000   4.4350036  )
        21           Mo1 tau(  21) = (   0.0000000   0.6410583   4.3760858  )
        22           O0  tau(  22) = (   0.2568700   0.9035974   4.4329387  )
        23           O0  tau(  23) = (   0.2568700   0.3785193   4.4329387  )
        24           O0  tau(  24) = (   0.0000000   0.0000000   4.6642045  )
        25           O0  tau(  25) = (   0.5000000   0.6410583   2.1977822  )
        26           Mo1 tau(  26) = (   0.7500000   0.6410583   2.4798439  )
        27           Mo1 tau(  27) = (   0.5000000   0.0000000   2.4798439  )
        28           O0  tau(  28) = (   0.7500000   1.0000510   2.4798439  )
        29           O0  tau(  29) = (   0.7500000   0.2820657   2.4798439  )
        30           O0  tau(  30) = (   0.5000000   0.6410583   2.7619056  )
        31           O0  tau(  31) = (   0.5000000   0.0000000   2.8388565  )
        32           Mo1 tau(  32) = (   0.7500000   0.0000000   3.1209182  )
        33           Mo1 tau(  33) = (   0.5000000   0.6410583   3.1209182  )
        34           O0  tau(  34) = (   0.7500000   0.9231240   3.1209182  )
        35           O0  tau(  35) = (   0.7500000   0.3589927   3.1209182  )
        36           O0  tau(  36) = (   0.5000000   0.0000000   3.4029799  )
        37           O0  tau(  37) = (   0.5000000   0.6410583   3.4927331  )
        38           Mo1 tau(  38) = (   0.7713400   0.6410583   3.7488462  )
        39           Mo1 tau(  39) = (   0.5000000   0.0000000   3.7719728  )
        40           O0  tau(  40) = (   0.7539800   1.0042564   3.7683248  )
        41           O0  tau(  41) = (   0.7539800   0.2778603   3.7683248  )
        42           O0  tau(  42) = (   0.5000000   0.6410583   4.0184498  )
        43           O0  tau(  43) = (   0.5000000   0.0000000   4.1341515  )
        44           Mo1 tau(  44) = (   0.7280600   0.0000000   4.4350036  )
        45           Mo1 tau(  45) = (   0.5000000   0.6410583   4.3550241  )
        46           O0  tau(  46) = (   0.7431300   0.9035974   4.4329387  )
        47           O0  tau(  47) = (   0.7431300   0.3785193   4.4329387  )
        48           O0  tau(  48) = (   0.5000000   0.0000000   4.7053643  )
        49           O0  tau(  49) = (   0.5000000   0.6410583   4.6687472  )

     number of k points=     9  Methfessel-Paxton smearing, width (Ry)=  0.0100
                       cart. coord. in units 2pi/alat
        k(    1) = (   0.0000000   0.0000000   0.0000000), wk =   0.1250000
        k(    2) = (   0.0000000   0.1949901   0.0000000), wk =   0.2500000
        k(    3) = (   0.0000000  -0.3899801   0.0000000), wk =   0.1250000
        k(    4) = (   0.2500000   0.0000000   0.0000000), wk =   0.2500000
        k(    5) = (   0.2500000   0.1949901   0.0000000), wk =   0.5000000
        k(    6) = (   0.2500000  -0.3899801   0.0000000), wk =   0.2500000
        k(    7) = (  -0.5000000   0.0000000   0.0000000), wk =   0.1250000
        k(    8) = (  -0.5000000   0.1949901   0.0000000), wk =   0.2500000
        k(    9) = (  -0.5000000  -0.3899801   0.0000000), wk =   0.1250000

     Largest allocated arrays     est. size (Mb)     dimensions
     Largest temporary arrays     est. size (Mb)     dimensions

     Check: negative/imaginary core charge=   -0.000004    0.000000

     Initial potential from superposition of free atoms
     Check: negative starting charge=   -0.003565

     starting charge  421.98294, renormalised to  422.00000

     negative rho (up, down):  0.356E-02 0.000E+00
     Starting wfc are  340 randomized atomic wfcs

     Self-consistent Calculation

     iteration #  1     ecut=    40.00 Ry     beta=0.30
     Davidson diagonalization with overlap
     ethr =  1.00E-02,  avg # of iterations =  6.2

     negative rho (up, down):  0.361E-02 0.000E+00

     total energy              =   -3290.02552331 Ry
     Harris-Foulkes estimate   =   -3297.69449904 Ry
     estimated scf accuracy    <      17.32675611 Ry

[...]

     End of self-consistent calculation

          k = 0.0000 0.0000 0.0000 ( 41461 PWs)   bands (ev):

   -61.5878 -61.5792 -61.5276 -61.4631 -61.4208 -61.3757 -61.3449 -61.3368
   -61.3039 -61.2869 -61.2797 -61.2576 -61.2187 -61.2118 -61.1670 -61.0987
   -36.1653 -36.0914 -36.0869 -36.0679 -36.0367 -36.0030 -35.9812 -35.9476
   -35.8993 -35.8879 -35.8533 -35.7796 -35.7272 -35.7005 -35.6929 -35.6504
   -35.6438 -35.6319 -35.5944 -35.5365 -35.5349 -35.5222 -35.5110 -35.5082
   -35.4855 -35.4805 -35.4683 -35.4386 -35.4079 -35.3912 -35.3876 -35.2928
   -35.2822 -35.2817 -35.2794 -35.2653 -35.2528 -35.2157 -35.2110 -35.1435
   -35.0173 -35.0064 -34.9986 -34.9442 -34.9069 -34.8428 -34.7334 -34.6294
   -19.4336 -19.1791 -19.0638 -18.9508 -18.8841 -18.7014 -18.6142 -18.4343
   -18.4205 -18.2684 -18.2382 -18.1886 -18.1663 -18.1253 -18.1057 -18.0439
   -18.0229 -17.9127 -17.8381 -17.8364 -17.8260 -17.7701 -17.7307 -17.7279
   -17.6947 -17.5171 -17.5119 -17.4045 -16.7572 -16.5677 -16.3948 -16.1150
   -15.6938  -7.4356  -7.4007  -7.3399  -7.2531  -7.1288  -7.1021  -7.0075
    -6.8250  -6.5688  -6.5137  -6.3834  -6.3784  -6.3034  -6.1841  -6.1550
    -6.1170  -5.9923  -5.9867  -5.9555  -5.8708  -5.8100  -5.7834  -5.7105
    -5.7002  -5.6583  -5.6245  -5.5412  -5.4097  -5.3782  -5.3629  -5.3360
    -5.2991  -5.2971  -5.2583  -5.0903  -4.9362  -4.8356  -4.7416  -4.6901
    -4.5781  -4.5751  -4.4584  -4.3373  -4.3093  -4.2984  -4.2509  -4.2398
    -4.2280  -4.1227  -4.0777  -4.0510  -3.8476  -3.8271  -3.7651  -3.6737
    -3.6618  -3.6469  -3.6455  -3.5768  -3.4926  -3.4223  -3.4125  -3.3103
    -3.2499  -3.2476  -3.2284  -3.1868  -3.1708  -3.1634  -3.0624  -2.9965
    -2.9019  -2.7674  -2.7359  -2.6967  -2.6862  -2.5591  -2.5373  -2.4960
    -2.3939  -2.3541  -2.2601  -2.2473  -2.1654  -2.1605  -2.1259  -2.0619
    -2.0171  -1.9866  -1.8925  -1.6391  -1.5406  -1.5322  -1.5277  -1.4933
    -1.4733  -1.4557  -1.3950  -1.2735  -1.1185  -1.0569  -1.0401  -0.6314
    -0.3723  -0.3200  -0.1764   0.3029   0.5239   0.6055   0.7003   0.8187
     0.8979   0.9473   1.0652   1.2806   1.3367   1.3972   1.4871   1.5026
     1.5153   1.5776   1.6412   1.6927   1.7319   1.7623   1.8651   1.9793
     1.9958   2.0321   2.0377   2.1537   2.1940   2.3194   2.5174   2.6883
[...]
Mo1      0.000000000   0.500000000   0.635790000    0   0   0
O0       0.256870000   0.704770000   0.644050000    0   0   0
O0       0.256870000   0.295230000   0.644050000    0   0   0
O0       0.000000000   0.000000000   0.677650000    0   0   0
O0       0.500000000   0.500000000   0.319310000    0   0   0
Mo1      0.750000000   0.500000000   0.360290000    0   0   0
Mo1      0.500000000   0.000000000   0.360290000    0   0   0
O0       0.750000000   0.780000000   0.360290000    0   0   0
O0       0.750000000   0.220000000   0.360290000    0   0   0
O0       0.500000000   0.500000000   0.401270000    0   0   0
O0       0.500000000   0.000000000   0.412450000    0   0   0
Mo1      0.750000000   0.000000000   0.453430000    0   0   0
Mo1      0.500000000   0.500000000   0.453430000    0   0   0
O0       0.750000000   0.720000000   0.453430000    0   0   0
O0       0.750000000   0.280000000   0.453430000    0   0   0
O0       0.500000000   0.000000000   0.494410000    0   0   0
O0       0.500000000   0.500000000   0.507450000    0   0   0
Mo1      0.771340000   0.500000000   0.544660000    0   0   0
Mo1      0.500000000   0.000000000   0.548020000    0   0   0
O0       0.753980000   0.783280000   0.547490000    0   0   0
O0       0.753980000   0.216720000   0.547490000    0   0   0
O0       0.500000000   0.500000000   0.583830000    0   0   0
O0       0.500000000   0.000000000   0.600640000    0   0   0
Mo1      0.728060000   0.000000000   0.644350000    0   0   0
Mo1      0.500000000   0.500000000   0.632730000    0   0   0
O0       0.743130000   0.704770000   0.644050000    0   0   0
O0       0.743130000   0.295230000   0.644050000    0   0   0
O0       0.500000000   0.000000000   0.683630000    0   0   0
O0       0.500000000   0.500000000   0.680067250

     Check: negative starting charge=   -0.003562
     NEW-OLD atomic charge density approx. for the potential

     Check: negative/imaginary core charge=   -0.000004    0.000000
     Check: negative starting charge=   -0.003562

[...]

     Self-consistent Calculation

[...]

     Threshold (ethr) on eigenvalues was too large:
     Diagonalizing with lowered threshold

     Davidson diagonalization with overlap
     ethr =  5.22E-08,  avg # of iterations =  1.0

[...]

     total energy              =   -3294.17764087 Ry
     Harris-Foulkes estimate   =   -3294.17764088 Ry
     estimated scf accuracy    <       0.00000006 Ry

     iteration # 11     ecut=    40.00 Ry     beta=0.30
     Davidson diagonalization with overlap
     ethr =  1.51E-11,  avg # of iterations =  1.0

     negative rho (up, down):  0.479E-02 0.000E+00

     End of self-consistent calculation

[...]

          k = 0.2500-0.3900 0.0000 ( 41418 PWs)   bands (ev):

[...]

          k =-0.5000-0.3900 0.0000 ( 41316 PWs)   bands (ev):

   -61.6215 -61.5631 -61.5631 -61.5526 -61.4039 -61.4038 -61.3663 -61.3660
   -61.3510 -61.3435 -61.3268 -61.3140 -61.2919 -61.2895 -61.2350 -61.1577
   -36.0617 -35.8773 -35.8772 -35.8771 -35.8196 -35.7819 -35.7226 -35.7216
   -35.7155 -35.6997 -35.6959 -35.6954 -35.6841 -35.6801 -35.6233 -35.6223
   -35.6119 -35.6098 -35.5953 -35.5836 -35.5715 -35.5546 -35.5416 -35.5257
   -35.5153 -35.5144 -35.4878 -35.4799 -35.4720 -35.4525 -35.4358 -35.4313
   -35.4307 -35.4300 -35.4253 -35.4198 -35.4160 -35.4115 -35.3815 -35.3791
   -35.3683 -35.3529 -35.3516 -35.3346 -35.2473 -35.1072 -35.0757 -34.9762
   -19.1666 -19.0192 -18.6532 -18.5917 -18.5719 -18.5662 -18.5650 -18.4268
   -18.3854 -18.3790 -18.3746 -18.3224 -18.2587 -18.1367 -18.1344 -18.1054
   -18.0660 -18.0624 -18.0619 -17.9737 -17.9414 -17.9281 -17.8949 -17.8726
   -17.7947 -17.7710 -17.7642 -17.4693 -16.9578 -16.7285 -16.3716 -16.3620
   -15.4659  -7.3400  -6.7969  -6.7387  -6.7379  -6.6558  -6.6544  -6.6142
    -6.5868  -6.4522  -6.4200  -6.3065  -6.2959  -6.2234  -6.2070  -6.1294
    -6.0069  -5.9112  -5.8280  -5.7938  -5.7888  -5.7223  -5.6730  -5.6367
    -5.4942  -5.4035  -5.4032  -5.3739  -5.3729  -5.2804  -5.2131  -5.1559
    -5.1006  -4.9939  -4.9921  -4.9400  -4.9390  -4.8972  -4.8584  -4.8456
    -4.8249  -4.8219  -4.8207  -4.6399  -4.5301  -4.4795  -4.4402  -4.3938
    -4.3282  -4.2422  -4.2119  -4.2107  -4.1209  -4.0480  -4.0397  -4.0192
    -3.9101  -3.8686  -3.8538  -3.8251  -3.8204  -3.8203  -3.7907  -3.6283
    -3.5620  -3.5600  -3.5586  -3.5533  -3.5132  -3.5023  -3.4873  -3.3517
    -3.1708  -3.1617  -3.1098  -3.1054  -2.8914  -2.6953  -2.6009  -2.5938
    -2.5208  -2.4448  -2.4399  -2.3573  -2.3463  -2.2272  -2.2096  -2.1340
    -2.0231  -1.9917  -1.9586  -1.8550  -1.5967  -1.5520  -1.5439  -1.5419
    -1.5338  -1.1579  -0.5359  -0.3816   0.0294   0.1803   0.2370   0.3295
     0.3541   0.3636   0.5074   0.5205   0.5258   0.6049   0.6098   0.6619
     0.7775   0.7812   0.8261   0.9137   0.9423   1.0581   1.0681   1.3209
     1.3566   1.4230   1.4984   1.5846   1.6473   1.6482   1.7129   1.8218
     1.9037   1.9400   2.0190   2.1100   2.2320   2.2407   2.2817   2.3370
     2.4219   2.4227   2.4339   2.5000   2.5840   2.6187   2.6654   2.7424
     2.8382   2.8675   2.9862   2.9937   3.2389   3.4176   3.6071   3.8378
     3.9168   3.9205   3.9268   3.9291   3.9412   4.2410   4.3571   4.5120
     4.7122   4.8157   4.8410   5.2605   5.6405   5.6772   5.7669   5.9903
     6.0702   6.3412   6.3500   6.4782   6.4868   6.6359   6.6425   6.7152
     6.8064   6.9213   6.9278   7.0480   7.1190   7.4843   8.1528   8.1789
     8.1797   8.3897   8.3912   8.7136   8.7158   8.8515   8.8597   8.9625
     8.9761   9.0250   9.0567   9.0860   9.1716   9.1837   9.1901   9.2520
     9.4756   9.5287   9.5308   9.5517   9.6544   9.6680   9.7304   9.8239
    10.0630  10.0834  10.1433  10.2420  10.3514  10.4100  10.4348  10.5316
    10.7755  10.8142  10.8324  11.0868  11.1577  11.1803  11.2671  11.5732
    11.8677  11.8870  11.9207  12.1721  12.2001  12.2748  12.3816  12.4051
    12.6646  12.7373  12.7692  12.7992  12.8216  12.8647  12.9558  13.0655
    13.1121  13.1242  13.1772  13.3419  13.3764  13.3823  13.4410  13.4649
    13.6375  13.7261  13.9315  14.0042  14.0367  14.0804  14.1572  14.2959
    14.3666  14.3680  14.4493  14.4545  14.5257  14.5349  14.6026  14.6039
    14.6849  14.6899  14.7203  14.7572  14.7723  14.7948  14.8518  14.8879
    14.9240  14.9401  14.9699  14.9880  15.0220  15.0381  15.0875  15.1709
    15.1949  15.2480  15.2580  15.2745  15.2807  15.3415  15.3484  15.3572
    15.4153  15.4233  15.4252  15.4547  15.4939  15.5487  15.5713  15.5792
    15.5913  15.5986  15.9125  15.9253  15.9429  16.0245  16.0719  16.1233
    16.1387  16.1557  16.2553  16.2729  16.2836  16.2936  16.3136  16.4292
    16.4540  16.5192  16.6782  16.7013  16.8755  16.9580  16.9729  16.9932
    17.0448  17.0716  17.1028  17.1457  17.2997  17.4391  17.4813  17.4983
    17.5288  17.6491  17.8438  17.8597  17.8901  17.9161  17.9337  17.9469
    18.1134  18.1147  18.1212  18.2368  18.3261  18.3443  18.3630  18.4541
    18.4923  18.5483  18.6001  18.7052  18.7318  18.7335  18.7721  18.7925
    18.8596  18.8913  18.9200  18.9777  18.9945  19.0391  19.0525  19.1184
    19.1664  19.1888  19.2148  19.2716  19.3019  19.3378  19.4069  19.4154
    19.4283  19.5143  19.5815  19.5878  19.6117  19.6242  19.6799  19.6921
    19.7393  19.8055  19.8521  19.8569  19.9010  19.9763  20.0096  20.0247
[...]
    22.2910  22.3581  22.4218  22.4447  22.4568  22.4963  22.5339  22.5400
    22.5475  22.6387  22.6517  22.7047  22.7236  22.9123  22.9484  23.0442
    23.0820  23.1473  23.1508  23.1992  23.2412  23.2728  23.2798  23.3007
    23.3599  23.3668  23.3832  23.4243  23.4334  23.5102  23.5133  23.5514
    23.5746  23.5883  23.6223  23.7001  23.7042  23.7927  23.9613  23.9887
    24.0070  24.0367  24.1772  24.2264  24.2562  24.3621  24.4665  24.4908
    24.5301  24.5436  24.5659  24.6339  24.6439  24.6557  24.6777  24.7058
    24.7204  24.7380  24.8169  24.8368  24.8483  24.9298  24.9743  25.0006
    25.0303  25.0930  25.1267  25.1384  25.1954  25.2042  25.3014  25.3111
    25.3225  25.3405  25.3549  25.3945  25.4123  25.5115  25.5130  25.5294
    25.5460  25.7026  25.7213  25.7552  25.7703  25.7730  25.8268  25.8407
    25.8679  25.8914  25.9189  25.9229  26.0013  26.0484  26.0806  26.1701
    26.2230  26.2465  26.2957  26.3318  26.4275  26.4365  26.4370  26.5283
    26.5633  26.5685  26.5872  26.5946  26.6302  26.6530  26.7018  26.7052
    26.7147

     the Fermi energy is     0.9141 ev

!    total energy              =   -3294.17764086 Ry
     Harris-Foulkes estimate   =   -3294.17764088 Ry
     estimated scf accuracy    <       0.00000002 Ry

     The total energy is the sum of the following terms:

     one-electron contribution =  -76870.50856454 Ry
     hartree contribution      =   38484.42378379 Ry
     xc contribution           =    -545.70535443 Ry
     ewald contribution        =   35637.61412448 Ry
     smearing contrib. (-TS)   =      -0.00163017 Ry

     convergence has been achieved in  11 iterations

     Forces acting on atoms (Ry/au):

     negative rho (up, down):  0.479E-02 0.000E+00
     atom    1 type  1   force =     0.00000000    0.00000000    0.13014605
     atom    2 type  2   force =    -0.00271549    0.00000000   -0.15198607
     atom    3 type  2   force =     0.00000000    0.00000000    0.09235761
     atom    4 type  1   force =     0.00063653    0.02438276   -0.01297306
     atom    5 type  1   force =     0.00063653   -0.02438276   -0.01297306
     atom    6 type  1   force =     0.00000000    0.00000000   -0.01151769
     atom    7 type  1   force =     0.00000000    0.00000000   -0.03560771
     atom    8 type  2   force =    -0.00243933    0.00000000    0.02596427
     atom    9 type  2   force =     0.00000000    0.00000000   -0.04819231
     atom   10 type  1   force =     0.00317004   -0.01691892   -0.00145247
     atom   11 type  1   force =     0.00317004    0.01691892   -0.00145247
     atom   12 type  1   force =     0.00000000    0.00000000    0.00194752
     atom   13 type  1   force =     0.00000000    0.00000000    0.00553496
     atom   14 type  2   force =     0.00504162   -0.00000000    0.00293556
     atom   15 type  2   force =     0.00000000    0.00000000    0.00609106
     atom   16 type  1   force =    -0.00178718    0.00168816   -0.00177985
     atom   17 type  1   force =    -0.00178718   -0.00168816   -0.00177985
     atom   18 type  1   force =     0.00000000    0.00000000    0.01021668
     atom   19 type  1   force =     0.00000000    0.00000000   -0.01770472
     atom   20 type  2   force =    -0.02615574   -0.00000000    0.01877326
     atom   21 type  2   force =     0.00000000    0.00000000    0.04630024
     atom   22 type  1   force =    -0.07052465    0.06036514   -0.06051286
     atom   23 type  1   force =    -0.07052465   -0.06036514   -0.06051286
     atom   24 type  1   force =     0.00000000    0.00000000   -0.01416912
     atom   25 type  1   force =     0.00000000    0.00000000    0.13134401
     atom   26 type  2   force =     0.00271549    0.00000000   -0.15198607
     atom   27 type  2   force =     0.00000000    0.00000000    0.09394353
     atom   28 type  1   force =    -0.00063653    0.02438276   -0.01297306
     atom   29 type  1   force =    -0.00063653   -0.02438276   -0.01297306
     atom   30 type  1   force =     0.00000000    0.00000000    0.00601815
     atom   31 type  1   force =     0.00000000    0.00000000   -0.04001308
     atom   32 type  2   force =     0.00243933    0.00000000    0.02596427
     atom   33 type  2   force =     0.00000000    0.00000000   -0.00023457
     atom   34 type  1   force =    -0.00317004   -0.01691892   -0.00145247
     atom   35 type  1   force =    -0.00317004    0.01691892   -0.00145247
     atom   36 type  1   force =     0.00000000    0.00000000   -0.00449601
     atom   37 type  1   force =     0.00000000    0.00000000   -0.00796190
     atom   38 type  2   force =    -0.00504162    0.00000000    0.00293556
     atom   39 type  2   force =     0.00000000    0.00000000    0.00486146
     atom   40 type  1   force =     0.00178718    0.00168816   -0.00177985
     atom   41 type  1   force =     0.00178718   -0.00168816   -0.00177985
     atom   42 type  1   force =     0.00000000    0.00000000   -0.13722921
     atom   43 type  1   force =     0.00000000    0.00000000    0.00275953
     atom   44 type  2   force =     0.02615574    0.00000000    0.01877326
     atom   45 type  2   force =     0.00000000    0.00000000    0.32024290
     atom   46 type  1   force =     0.07052465    0.06036514   -0.06051286
     atom   47 type  1   force =     0.07052465   -0.06036514   -0.06051286
     atom   48 type  1   force =     0.00000000    0.00000000   -0.01935794
     atom   49 type  1   force =     0.00000000    0.00000000    0.00021947

     Total force =     0.000219     Total SCF correction =     0.000032
     SCF correction compared to forces is large: reduce conv_thr to get better values

     bfgs converged in   4 scf cycles and   3 bfgs steps
     (criteria: energy < 0.10E-03, force < 0.10E-02)

     End of BFGS Geometry Optimization

     Final energy   =   -3294.1776408626 Ry
Begin final coordinates

ATOMIC_POSITIONS (crystal)
O0       0.000000000   0.500000000   0.319310000    0   0   0
Mo1      0.250000000   0.500000000   0.360290000    0   0   0
Mo1      0.000000000   0.000000000   0.360290000    0   0   0
O0       0.250000000   0.780000000   0.360290000    0   0   0
O0       0.250000000   0.220000000   0.360290000    0   0   0
O0       0.000000000   0.500000000   0.401270000    0   0   0
O0       0.000000000   0.000000000   0.412450000    0   0   0
Mo1      0.250000000   0.000000000   0.453430000    0   0   0
Mo1      0.000000000   0.500000000   0.453430000    0   0   0
O0       0.250000000   0.720000000   0.453430000    0   0   0
O0       0.250000000   0.280000000   0.453430000    0   0   0
O0       0.000000000   0.000000000   0.494410000    0   0   0
O0       0.000000000   0.500000000   0.504230000    0   0   0
Mo1      0.228660000   0.500000000   0.544660000    0   0   0
Mo1      0.000000000   0.000000000   0.550120000    0   0   0
O0       0.246020000   0.783280000   0.547490000    0   0   0
O0       0.246020000   0.216720000   0.547490000    0   0   0
O0       0.000000000   0.500000000   0.586970000    0   0   0
O0       0.000000000   0.000000000   0.602950000    0   0   0
Mo1      0.271940000   0.000000000   0.644350000    0   0   0
Mo1      0.000000000   0.500000000   0.635790000    0   0   0
O0       0.256870000   0.704770000   0.644050000    0   0   0
O0       0.256870000   0.295230000   0.644050000    0   0   0
O0       0.000000000   0.000000000   0.677650000    0   0   0
O0       0.500000000   0.500000000   0.319310000    0   0   0
Mo1      0.750000000   0.500000000   0.360290000    0   0   0
Mo1      0.500000000   0.000000000   0.360290000    0   0   0
O0       0.750000000   0.780000000   0.360290000    0   0   0
O0       0.750000000   0.220000000   0.360290000    0   0   0
O0       0.500000000   0.500000000   0.401270000    0   0   0
O0       0.500000000   0.000000000   0.412450000    0   0   0
Mo1      0.750000000   0.000000000   0.453430000    0   0   0
Mo1      0.500000000   0.500000000   0.453430000    0   0   0
O0       0.750000000   0.720000000   0.453430000    0   0   0
O0       0.750000000   0.280000000   0.453430000    0   0   0
O0       0.500000000   0.000000000   0.494410000    0   0   0
O0       0.500000000   0.500000000   0.507450000    0   0   0
Mo1      0.771340000   0.500000000   0.544660000    0   0   0
Mo1      0.500000000   0.000000000   0.548020000    0   0   0
O0       0.753980000   0.783280000   0.547490000    0   0   0
O0       0.753980000   0.216720000   0.547490000    0   0   0
O0       0.500000000   0.500000000   0.583830000    0   0   0
O0       0.500000000   0.000000000   0.600640000    0   0   0
Mo1      0.728060000   0.000000000   0.644350000    0   0   0
Mo1      0.500000000   0.500000000   0.632730000    0   0   0
O0       0.743130000   0.704770000   0.644050000    0   0   0
O0       0.743130000   0.295230000   0.644050000    0   0   0
O0       0.500000000   0.000000000   0.683630000    0   0   0
O0       0.500000000   0.500000000   0.680067250
End final coordinates

     General routines

     Parallel routines

   This run was terminated on:  17:19:37  27Mar2014

   JOB DONE.
Running PBS batch system epilogue script
Job id: 314578.audhumbla.fysik.dtu.dk
Username: zhonxu
Groupname: campgst
Jobname: MoO2/Eads-4-layers/O
Sessionid: 58587
Queuename: verylong
Accounting:
This job has allocated the following 32 nodes:
g034 g034 g034 g034 g034 g034 g034 g034 g034 g034 g034 g034 g034 g034 g034 g034 g009 g009 g009 g009 g009 g009 g009 g009 g009 g009 g009 g009 g009 g009 g009 g009
Finished epilogue job 314578.audhumbla.fysik.dtu.dk for zhonxu