     Program PWSCF v.5.0.2 (svn rev. 9656) starts on  2May2014 at  0:29:53

     Current dimensions of program PWSCF are:
     Max number of different atomic species (ntypx) = 10
     Max number of k-points (npk) =  40000
     Max angular momentum in pseudopotentials (lmaxx) =  3
     Reading input from pwscf.in
Warning: card &CELL ignored
Warning: card / ignored

     Subspace diagonalization in iterative solution of the eigenvalue problem:
     a serial algorithm will be used

     bravais-lattice index     =            0
     lattice parameter (alat)  =      10.1289  a.u.
     unit-cell volume          =    6836.7721 (a.u.)^3
     number of atoms/cell      =           32
     number of atomic types    =            3
     number of electrons       =       239.00
     number of Kohn-Sham states=          358
     kinetic-energy cutoff     =      40.0000  Ry
     charge density cutoff     =     500.0000  Ry
     convergence threshold     =      1.0E-06
     mixing beta               =       0.7000
     number of iterations used =            8  plain     mixing
     Exchange-correlation      = SLA  PW   PBE  PBE ( 1 4 3 4 0)
     EXX-fraction              =        0.00
     nstep                     =           50

     celldm(1)=  10.128932  celldm(2)=   0.000000  celldm(3)=   0.000000
     celldm(4)=   0.000000  celldm(5)=   0.000000  celldm(6)=   0.000000

     crystal axes: (cart. coord. in units of alat)
               a(1) = (   1.000000   0.000000   0.000000 )
               a(2) = (   0.000000   1.306037   0.000000 )
               a(3) = (   0.000000   0.000000   5.037380 )

     reciprocal axes: (cart. coord. in units 2 pi/alat)
               b(1) = (  1.000000  0.000000  0.000000 )
               b(2) = (  0.000000  0.765675  0.000000 )
               b(3) = (  0.000000  0.000000  0.198516 )

     PseudoPot. # 1 for O  read from file:
     /home/camp/zhonxu/pseudo/o_pbe_v1.01.uspp.F.UPF
     MD5 check sum: 2bcb18d16ea4b960afae9ec6d52f22d2
     Pseudo is Ultrasoft + core correction, Zval =  6.0
     Generated by new atomic code, or converted to UPF format
     Using radial grid of  737 points,  5 beta functions with:
                l(1) =   0
                l(2) =   0
                l(3) =   1
                l(4) =   1
                l(5) =   2
     Q(r) pseudized with  8 coefficients,  rinner =    0.900   0.900   0.900
                                                       0.900   0.900

     PseudoPot. # 2 for Re read from file:
     /home/camp/zhonxu/pseudo/re_pbe_v1.uspp.F.UPF
     MD5 check sum: 6f5a5dcaf9c96c20d0ffdde0de57afc6
     Pseudo is Ultrasoft + core correction, Zval = 15.0
     Generated by new atomic code, or converted to UPF format
     Using radial grid of  981 points,  8 beta functions with:
                l(1) =   0
                l(2) =   0
                l(3) =   1
                l(4) =   1
                l(5) =   2
                l(6) =   2
                l(7) =   3
                l(8) =   3
     Q(r) pseudized with  8 coefficients,  rinner =    1.000   1.000   1.000
                                                       1.000   1.000   1.000
                                                       1.000

     PseudoPot. # 3 for H  read from file:
     /home/camp/zhonxu/pseudo/h_pbe_v1.uspp.F.UPF
     MD5 check sum: 3408e3ff4ec8b0a4e358431e7e038a48
     Pseudo is Ultrasoft, Zval =  1.0
     Generated by new atomic code, or converted to UPF format
     Using radial grid of  615 points,  2 beta functions with:
                l(1) =   0
                l(2) =   0
     Q(r) pseudized with  8 coefficients,  rinner =    0.700

     atomic species   valence    mass     pseudopotential
        O0             6.00    15.99940     O ( 1.00)
        Re1           15.00   186.20700     Re( 1.00)
        H2             1.00     1.00794     H ( 1.00)

     Simplified LDA+U calculation (l_max = 2) with parameters (eV):
     atomic species    L          U    alpha       J0     beta
        Re1            2     4.0000   0.0000   0.0000   0.0000

     No symmetry found

   Cartesian axes

     site n.     atom                  positions (alat units)
         1           O0  tau(   1) = (   0.0000000   0.0000000   1.8669538  )
         2           O0  tau(   2) = (   0.0000000   0.6530184   1.9246318  )
         3           Re1 tau(   3) = (   0.2500000   0.6530184   2.2252626  )
         4           Re1 tau(   4) = (   0.0000000   0.0000000   2.2335239  )
         5           O0  tau(   5) = (   0.2500000   1.0187087   2.2252626  )
         6           O0  tau(   6) = (   0.2500000   0.2873281   2.2245574  )
         7           O0  tau(   7) = (   0.0000000   0.6530184   2.5039809  )
         8           O0  tau(   8) = (   0.0000000   0.0000000   2.5944019  )
         9           Re1 tau(   9) = (   0.2500000   0.0000000   2.8956372  )
        10           Re1 tau(  10) = (   0.0000000   0.6530184   2.8532728  )
        11           O0  tau(  11) = (   0.2500000   0.9403465   2.8863684  )
        12           O0  tau(  12) = (   0.2500000   0.3656903   2.8866706  )
        13           O0  tau(  13) = (   0.0000000   0.0000000   3.1589410  )
        14           O0  tau(  14) = (   0.5000000   0.0000000   1.8671553  )
        15           O0  tau(  15) = (   0.5000000   0.6530184   1.9260926  )
        16           Re1 tau(  16) = (   0.7500000   0.6530184   2.2254138  )
        17           Re1 tau(  17) = (   0.5000000   0.0000000   2.2327683  )
        18           O0  tau(  18) = (   0.7500000   1.0187087   2.2250108  )
        19           O0  tau(  19) = (   0.7500000   0.2873281   2.2249100  )
        20           O0  tau(  20) = (   0.5000000   0.6530184   2.5136527  )
        21           O0  tau(  21) = (   0.5000000   0.0000000   2.5937470  )
        22           Re1 tau(  22) = (   0.7500000   0.0000000   2.8949319  )
        23           Re1 tau(  23) = (   0.5000000   0.6530184   2.8846557  )
        24           O0  tau(  24) = (   0.7500000   0.9403465   2.8822881  )
        25           O0  tau(  25) = (   0.7500000   0.3656903   2.8822881  )
        26           O0  tau(  26) = (   0.5000000   0.0000000   3.1556667  )
        27           H2  tau(  27) = (  -0.0003600   0.8163644   1.8395505  )
        28           H2  tau(  28) = (   0.4996200   0.8138568   1.8363769  )
        29           H2  tau(  29) = (   0.1695000   0.0302217   1.7958260  )
        30           H2  tau(  30) = (   0.6704500   0.0285761   1.7967327  )
        31           O0  tau(  31) = (   0.5277600   0.6525874   3.2436194  )
        32           H2  tau(  32) = (   0.3788200   0.6519344   3.3501096  )

     number of k points=    10  Methfessel-Paxton smearing, width (Ry)=  0.0100
                       cart. coord. in units 2pi/alat
        k(    1) = (   0.0000000   0.0000000   0.0000000), wk =   0.1250000
        k(    2) = (   0.0000000   0.1914188   0.0000000), wk =   0.2500000
        k(    3) = (   0.0000000  -0.3828376   0.0000000), wk =   0.1250000
        k(    4) = (   0.2500000   0.0000000   0.0000000), wk =   0.2500000
        k(    5) = (   0.2500000   0.1914188   0.0000000), wk =   0.2500000
        k(    6) = (   0.2500000  -0.3828376   0.0000000), wk =   0.2500000
        k(    7) = (  -0.5000000   0.0000000   0.0000000), wk =   0.1250000
        k(    8) = (  -0.5000000   0.1914188   0.0000000), wk =   0.2500000
        k(    9) = (  -0.5000000  -0.3828376   0.0000000), wk =   0.1250000
        k(   10) = (  -0.2500000   0.1914188   0.0000000), wk =   0.2500000

     Largest allocated arrays     est. size (Mb)     dimensions
     Largest temporary arrays     est. size (Mb)     dimensions

     Check: negative/imaginary core charge=   -0.000003    0.000000

     Initial potential from superposition of free atoms
     Check: negative starting charge=   -0.237247

     starting charge  234.99957, renormalised to  239.00000

     negative rho (up, down):  0.241E+00 0.000E+00
     Number of +U iterations with fixed ns =  0
     Starting occupations:
 --- enter write_ns ---
 LDA+U parameters:
U( 2)     =  4.00000000
alpha( 2) =  0.00000000
atom    3   Tr[ns(na)] =   5.00000
    eigenvalues:
  0.500  0.500  0.500  0.500  0.500
    eigenvectors:
  1.000  0.000  0.000  0.000  0.000
  0.000  1.000  0.000  0.000  0.000
  0.000  0.000  1.000  0.000  0.000
  0.000  0.000  0.000  1.000  0.000
  0.000  0.000  0.000  0.000  1.000
    occupations:
  0.500  0.000  0.000  0.000  0.000
  0.000  0.500  0.000  0.000  0.000
  0.000  0.000  0.500  0.000  0.000
  0.000  0.000  0.000  0.500  0.000
  0.000  0.000  0.000  0.000  0.500
atom    4   Tr[ns(na)] =   5.00000
    eigenvalues:
  0.500  0.500  0.500  0.500  0.500
    eigenvectors:
  1.000  0.000  0.000  0.000  0.000
  0.000  1.000  0.000  0.000  0.000
  0.000  0.000  1.000  0.000  0.000
  0.000  0.000  0.000  1.000  0.000
  0.000  0.000  0.000  0.000  1.000
    occupations:
  0.500  0.000  0.000  0.000  0.000
  0.000  0.500  0.000  0.000  0.000
  0.000  0.000  0.500  0.000  0.000
  0.000  0.000  0.000  0.500  0.000
  0.000  0.000  0.000  0.000  0.500
atom    9   Tr[ns(na)] =   5.00000
    eigenvalues:
  0.500  0.500  0.500  0.500  0.500
    eigenvectors:
  1.000  0.000  0.000  0.000  0.000
  0.000  1.000  0.000  0.000  0.000
  0.000  0.000  1.000  0.000  0.000
  0.000  0.000  0.000  1.000  0.000
  0.000  0.000  0.000  0.000  1.000
    occupations:
  0.500  0.000  0.000  0.000  0.000
  0.000  0.500  0.000  0.000  0.000
  0.000  0.000  0.500  0.000  0.000
  0.000  0.000  0.000  0.500  0.000
  0.000  0.000  0.000  0.000  0.500
atom   10   Tr[ns(na)] =   5.00000
    eigenvalues:
  0.500  0.500  0.500  0.500  0.500
    eigenvectors:
  1.000  0.000  0.000  0.000  0.000
  0.000  1.000  0.000  0.000  0.000
  0.000  0.000  1.000  0.000  0.000
  0.000  0.000  0.000  1.000  0.000
  0.000  0.000  0.000  0.000  1.000
    occupations:
  0.500  0.000  0.000  0.000  0.000
  0.000  0.500  0.000  0.000  0.000
  0.000  0.000  0.500  0.000  0.000
  0.000  0.000  0.000  0.500  0.000
  0.000  0.000  0.000  0.000  0.500
atom   16   Tr[ns(na)] =   5.00000
    eigenvalues:
  0.500  0.500  0.500  0.500  0.500
    eigenvectors:
  1.000  0.000  0.000  0.000  0.000
  0.000  1.000  0.000  0.000  0.000
  0.000  0.000  1.000  0.000  0.000
  0.000  0.000  0.000  1.000  0.000
  0.000  0.000  0.000  0.000  1.000
    occupations:
  0.500  0.000  0.000  0.000  0.000
  0.000  0.500  0.000  0.000  0.000
  0.000  0.000  0.500  0.000  0.000
  0.000  0.000  0.000  0.500  0.000
  0.000  0.000  0.000  0.000  0.500
atom   17   Tr[ns(na)] =   5.00000
    eigenvalues:
  0.500  0.500  0.500  0.500  0.500
    eigenvectors:
  1.000  0.000  0.000  0.000  0.000
  0.000  1.000  0.000  0.000  0.000
  0.000  0.000  1.000  0.000  0.000
  0.000  0.000  0.000  1.000  0.000
  0.000  0.000  0.000  0.000  1.000
    occupations:
  0.500  0.000  0.000  0.000  0.000
  0.000  0.500  0.000  0.000  0.000
  0.000  0.000  0.500  0.000  0.000
  0.000  0.000  0.000  0.500  0.000
  0.000  0.000  0.000  0.000  0.500
atom   22   Tr[ns(na)] =   5.00000
    eigenvalues:
  0.500  0.500  0.500  0.500  0.500
    eigenvectors:
  1.000  0.000  0.000  0.000  0.000
[...]
  0.754  0.000  0.000  0.001  0.245
  0.000  0.004  0.000  0.991  0.005
    occupations:
  0.717  0.000 -0.001 -0.070  0.002
  0.000  0.607  0.000  0.000  0.000
 -0.001  0.000  0.602  0.001 -0.008
 -0.070  0.000  0.001  0.634 -0.002
  0.002  0.000 -0.008 -0.002  0.728
atom   10   Tr[ns(na)] =   6.53417
    eigenvalues:
  0.480  0.536  0.638  0.761  0.852
    eigenvectors:
  0.999  0.000  0.000  0.001  0.000
  0.000  0.000  0.000  0.000  0.999
  0.000  0.000  1.000  0.000  0.000
  0.001  0.000  0.000  0.999  0.000
  0.000  1.000  0.000  0.000  0.000
    occupations:
  0.480 -0.008 -0.000 -0.007  0.000
 -0.008  0.852  0.001 -0.000  0.001
 -0.000  0.001  0.638 -0.000  0.000
 -0.007 -0.000 -0.000  0.761 -0.000
  0.000  0.001  0.000 -0.000  0.536
atom   16   Tr[ns(na)] =   6.59272
    eigenvalues:
  0.538  0.568  0.585  0.772  0.833
    eigenvectors:
  0.000  0.336  0.000  0.664  0.000
  0.999  0.000  0.000  0.000  0.001
  0.000  0.014  0.977  0.008  0.001
  0.000  0.650  0.022  0.328  0.000
  0.001  0.000  0.001  0.000  0.999
    occupations:
  0.703  0.003  0.014 -0.095 -0.001
  0.003  0.539 -0.001 -0.002 -0.008
  0.014 -0.001  0.586 -0.008  0.006
 -0.095 -0.002 -0.008  0.636  0.001
 -0.001 -0.008  0.006  0.001  0.832
atom   17   Tr[ns(na)] =   6.56793
    eigenvalues:
  0.572  0.599  0.610  0.715  0.787
    eigenvectors:
  0.000  0.001  0.986  0.001  0.011
  0.000  0.005  0.001  0.994  0.000
  0.000  0.994  0.001  0.005  0.000
  0.000  0.000  0.011  0.000  0.988
  0.999  0.000  0.000  0.000  0.000
    occupations:
  0.612  0.003  0.000 -0.019  0.001
  0.003  0.715  0.008 -0.000 -0.002
  0.000  0.008  0.600  0.001 -0.000
 -0.019 -0.000  0.001  0.785 -0.000
  0.001 -0.002 -0.000 -0.000  0.572
atom   22   Tr[ns(na)] =   6.57257
    eigenvalues:
  0.593  0.598  0.605  0.728  0.762
    eigenvectors:
  0.249  0.000  0.000  0.008  0.743
  0.000  0.002  0.998  0.000  0.000
  0.000  0.996  0.002  0.002  0.000
  0.751  0.000  0.000  0.002  0.246
  0.000  0.002  0.000  0.987  0.010
    occupations:
  0.720  0.000 -0.001 -0.073  0.003
  0.000  0.605  0.000  0.000  0.000
 -0.001  0.000  0.598  0.001  0.006
 -0.073  0.000  0.001  0.635 -0.002
  0.003  0.000  0.006 -0.002  0.728
atom   23   Tr[ns(na)] =   6.55842
    eigenvalues:
  0.520  0.554  0.596  0.793  0.815
    eigenvectors:
  0.000  0.000  0.996  0.003  0.001
  0.000  0.000  0.001  0.003  0.996
  0.999  0.001  0.000  0.000  0.000
  0.000  0.000  0.003  0.994  0.003
  0.001  0.999  0.000  0.000  0.000
    occupations:
  0.597  0.007 -0.001 -0.011  0.000
  0.007  0.815  0.000  0.002  0.002
 -0.001  0.000  0.520  0.001 -0.001
 -0.011  0.002  0.001  0.793 -0.000
  0.000  0.002 -0.001 -0.000  0.554
N of occupied +U levels =  52.5673479
 --- exit write_ns ---

     Threshold (ethr) on eigenvalues was too large:
     Diagonalizing with lowered threshold

     Davidson diagonalization with overlap
     ethr =  3.79E-09,  avg # of iterations =  2.7

[...]

     total energy              =   -2173.99065728 Ry
     Harris-Foulkes estimate   =   -2173.99065730 Ry
     estimated scf accuracy    <       0.00000016 Ry

     iteration # 16     ecut=    40.00 Ry     beta=0.70
     Davidson diagonalization with overlap
     ethr =  1.20E-11,  avg # of iterations =  1.0

     negative rho (up, down):  0.240E+00 0.000E+00

     End of self-consistent calculation
 --- enter write_ns ---
 LDA+U parameters:
U( 2)     =  4.00000000
alpha( 2) =  0.00000000
atom    3   Tr[ns(na)] =   6.59200
    eigenvalues:
  0.539  0.569  0.582  0.773  0.833
    eigenvectors:
  0.000  0.335  0.000  0.664  0.000
  0.998  0.000  0.001  0.000  0.001
  0.001  0.018  0.973  0.008  0.000
  0.000  0.647  0.026  0.327  0.000
  0.001  0.000  0.000  0.000  0.999
    occupations:
  0.704 -0.003  0.015 -0.095  0.001
 -0.003  0.539  0.001  0.002 -0.008
  0.015  0.001  0.584 -0.008 -0.004
 -0.095  0.002 -0.008  0.636 -0.000
  0.001 -0.008 -0.004 -0.000  0.833
atom    4   Tr[ns(na)] =   6.57570
    eigenvalues:
  0.571  0.607  0.608  0.720  0.782
    eigenvectors:
  0.000  0.818  0.169  0.001  0.012
  0.000  0.000  0.008  0.991  0.000
  0.000  0.171  0.821  0.008  0.000
  0.000  0.010  0.002  0.000  0.988
  0.999  0.000  0.000  0.000  0.000
    occupations:
  0.610  0.003  0.000 -0.019  0.001
  0.003  0.719  0.010 -0.000 -0.002
  0.000  0.010  0.609  0.001 -0.000
 -0.019 -0.000  0.001  0.780 -0.000
  0.001 -0.002 -0.000 -0.000  0.571
atom    9   Tr[ns(na)] =   6.57395
    eigenvalues:
  0.594  0.601  0.607  0.728  0.757
    eigenvectors:
  0.246  0.000  0.000  0.004  0.750
  0.000  0.000  1.000  0.000  0.000
  0.000  0.996  0.000  0.004  0.000
  0.754  0.000  0.000  0.001  0.245
  0.000  0.004  0.000  0.991  0.005
    occupations:
  0.717  0.000 -0.001 -0.070  0.002
  0.000  0.607  0.000  0.000  0.000
 -0.001  0.000  0.602  0.001 -0.008
 -0.070  0.000  0.001  0.634 -0.002
  0.002  0.000 -0.008 -0.002  0.728
atom   10   Tr[ns(na)] =   6.53361
    eigenvalues:
  0.480  0.536  0.638  0.761  0.852
    eigenvectors:
  0.999  0.000  0.000  0.001  0.000
  0.000  0.000  0.000  0.000  0.999
  0.000  0.000  1.000  0.000  0.000
  0.001  0.000  0.000  0.999  0.000
  0.000  1.000  0.000  0.000  0.000
    occupations:
  0.481 -0.008 -0.000 -0.007  0.000
 -0.008  0.852  0.001 -0.000  0.001
 -0.000  0.001  0.638 -0.000  0.000
 -0.007 -0.000 -0.000  0.761 -0.000
  0.000  0.001  0.000 -0.000  0.536
atom   16   Tr[ns(na)] =   6.59315
    eigenvalues:
  0.538  0.569  0.585  0.772  0.833
    eigenvectors:
  0.000  0.336  0.000  0.664  0.000
  0.999  0.000  0.000  0.000  0.001
  0.000  0.014  0.978  0.008  0.000
  0.000  0.650  0.022  0.328  0.000
  0.001  0.000  0.001  0.000  0.999
    occupations:
  0.704  0.003  0.014 -0.095 -0.001
  0.003  0.539 -0.001 -0.002 -0.008
  0.014 -0.001  0.587 -0.008  0.005
 -0.095 -0.002 -0.008  0.636  0.001
 -0.001 -0.008  0.005  0.001  0.832
atom   17   Tr[ns(na)] =   6.56792
    eigenvalues:
  0.572  0.599  0.610  0.715  0.787
    eigenvectors:
  0.000  0.001  0.986  0.001  0.011
  0.000  0.005  0.001  0.994  0.000
  0.000  0.994  0.001  0.005  0.000
  0.000  0.000  0.011  0.000  0.988
  0.999  0.000  0.000  0.000  0.000
    occupations:
  0.612  0.003  0.000 -0.019  0.001
  0.003  0.715  0.008 -0.000 -0.002
  0.000  0.008  0.600  0.001 -0.000
 -0.019 -0.000  0.001  0.785 -0.000
  0.001 -0.002 -0.000 -0.000  0.572
atom   22   Tr[ns(na)] =   6.57252
    eigenvalues:
  0.593  0.598  0.605  0.728  0.762
    eigenvectors:
  0.248  0.000  0.000  0.008  0.743
  0.000  0.002  0.998  0.000  0.000
  0.000  0.996  0.002  0.002  0.000
  0.751  0.000  0.000  0.002  0.246
  0.000  0.002  0.000  0.987  0.010
    occupations:
  0.720  0.000 -0.001 -0.073  0.003
  0.000  0.605  0.000  0.000  0.000
 -0.001  0.000  0.598  0.001  0.006
 -0.073  0.000  0.001  0.635 -0.002
  0.003  0.000  0.006 -0.002  0.728
atom   23   Tr[ns(na)] =   6.55778
    eigenvalues:
  0.520  0.554  0.596  0.793  0.815
    eigenvectors:
  0.000  0.000  0.996  0.003  0.001
  0.000  0.000  0.001  0.003  0.996
  0.999  0.001  0.000  0.000  0.000
  0.000  0.000  0.003  0.994  0.003
  0.001  0.999  0.000  0.000  0.000
    occupations:
  0.597  0.007 -0.001 -0.011  0.000
  0.007  0.815  0.000  0.002  0.002
 -0.001  0.000  0.520  0.001 -0.001
 -0.011  0.002  0.001  0.793 -0.000
  0.000  0.002 -0.001 -0.000  0.554
N of occupied +U levels =  52.5666228
 --- exit write_ns ---

[...]

          k = 0.2500-0.3828 0.0000 ( 29202 PWs)   bands (ev):

[...]

          k =-0.2500 0.1914 0.0000 ( 29229 PWs)   bands (ev):

   -81.0596 -80.9719 -80.8442 -80.8026 -80.7830 -80.4593 -80.4476 -80.4204
   -43.1236 -43.0252 -42.9818 -42.9778 -42.9136 -42.8965 -42.8545 -42.8471
   -42.7958 -42.7174 -42.7141 -42.6275 -42.6121 -42.6069 -42.5027 -42.5003
   -42.4700 -42.4650 -42.4524 -42.3848 -42.3436 -42.3228 -41.9863 -41.8436
   -20.7748 -20.3270 -20.2867 -20.1619 -20.0695 -19.8551 -19.7794 -19.7311
   -19.6131 -19.5743 -19.4424 -19.3238 -19.2613 -19.0820 -19.0488 -19.0014
   -18.9352 -18.3662 -18.0721  -9.0265  -8.7972  -8.7212  -8.6641  -8.6203
    -8.3836  -8.3351  -8.2335  -8.0984  -7.9705  -7.9058  -7.8294  -7.6385
    -7.4252  -7.3573  -7.0821  -6.8848  -6.7429  -6.6561  -6.5873  -6.5307
    -6.3884  -6.1255  -6.0314  -5.8613  -5.7651  -5.7284  -5.5326  -5.4555
    -5.3525  -5.1871  -5.0015  -4.9618  -4.8828  -4.8073  -4.7516  -4.7299
    -4.6210  -4.5826  -4.5159  -4.4102  -4.1471  -3.9759  -3.8934  -3.8058
    -3.7322  -3.6597  -3.5721  -3.3894  -3.3485  -3.2851  -3.1987  -3.0699
    -2.8435  -2.7642  -2.6848  -2.5389  -2.2874  -2.1198  -2.0181  -1.3072
    -1.0665  -1.0295  -0.8872  -0.1622  -0.1224   0.2486   0.3358   0.5237
     0.6370   0.8334   0.8736   1.1674   1.3644   1.4386   1.5086   1.6081
     1.7235   1.8094   1.8473   2.2123   2.5013   3.7405   3.7940   3.9055
     3.9481   4.1125   4.1894   4.4355   4.6110   4.6671   4.8361   4.9606
     5.0097   5.2572   5.3506   5.6548   5.8730   5.9851   6.1300   6.3418
     6.4818   6.5797   6.7463   6.8586   7.0007   7.1474   7.3077   7.5222
     7.6955   7.7500   7.9440   8.0840   8.2721   8.3952   8.4847   8.5908
     8.6676   8.7497   8.9812   9.0312   9.1360   9.3918   9.4131   9.5943
     9.6468   9.6956   9.8286   9.9126   9.9523   9.9922  10.1055  10.2248
    10.2403  10.3776  10.4200  10.5135  10.5927  10.7406  10.7799  10.8675
    11.0098  11.1221  11.2080  11.3092  11.4570  11.5926  11.6831  11.7400
    11.8190  11.9594  12.0499  12.2135  12.3428  12.4963  12.5892  12.6113
    12.6768  12.7761  12.8137  12.8980  12.9637  13.0351  13.1091  13.2312
    13.3034  13.4209  13.5173  13.6504  13.6790  13.7563  13.8208  13.8886
    13.9490  13.9738  14.0671  14.1212  14.1499  14.2605  14.3636  14.4034
    14.4952  14.5362  14.5873  14.6931  14.7106  14.8287  14.8617  14.9148
    14.9701  14.9923  15.0181  15.1015  15.1527  15.2207  15.3225  15.4271
    15.5420  15.6233  15.6472  15.7409  15.8509  15.9623  16.0741  16.1562
    16.1859  16.2441  16.3255  16.4718  16.5515  16.5834  16.6092  16.7126
    16.7854  16.8778  16.9535  17.0311  17.1186  17.2087  17.2737  17.2883
    17.3708  17.4997  17.6081  17.6598  17.7276  17.7993  17.8332  17.9556
    17.9973  18.0237  18.1345  18.2137  18.2743  18.3069  18.4106  18.4840
    18.5595  18.5991  18.6517  18.7045  18.7734  18.8642  18.9249  19.0546
    19.1094  19.2262  19.3171  19.3865  19.4797  19.5751  19.6327  19.6835
    19.7641  19.8440  19.9589  20.0260  20.1647  20.2200  20.2746  20.3547
    20.4711  20.5269  20.5908  20.6432  20.6997  20.7743  20.8172  20.8542
    20.9005  20.9534  20.9843  21.1050  21.1557  21.1926  21.2504  21.3307
    21.4040  21.4839  21.5223  21.6175  21.6690  21.7258  21.7823  21.8514
    21.9389  21.9954  22.0895  22.1477  22.2178  22.2636  22.3372  22.3420
    22.4017  22.4389  22.5035  22.5408  22.6253  22.6536  22.7036  22.7399
    22.8132  22.8570  22.8794  22.9621  22.9828  23.0878

     the Fermi energy is     0.4355 ev

!    total energy              =   -2173.99065729 Ry
     Harris-Foulkes estimate   =   -2173.99065729 Ry
     estimated scf accuracy    <          3.3E-09 Ry

     The total energy is the sum of the following terms:

     one-electron contribution =  -24316.11466982 Ry
     hartree contribution      =   12177.09282386 Ry
     xc contribution           =    -595.12949926 Ry
     ewald contribution        =   10557.63642212 Ry
     Hubbard energy            =       2.52316787 Ry
     smearing contrib. (-TS)   =       0.00109793 Ry

     convergence has been achieved in  16 iterations

     Forces acting on atoms (Ry/au):

     negative rho (up, down):  0.240E+00 0.000E+00
     atom    1 type  1   force =    -0.00625667   -0.00658463   -0.00026813
     atom    2 type  1   force =     0.00009779    0.00451708   -0.00032194
     atom    3 type  2   force =     0.02923183   -0.00282129    0.00000118
     atom    4 type  2   force =     0.00162510    0.00665509    0.00000957
     atom    5 type  1   force =     0.00216614    0.00448817    0.00032441
     atom    6 type  1   force =     0.00080908   -0.00436316    0.00039306
     atom    7 type  1   force =     0.00353327   -0.00045928    0.00046324
     atom    8 type  1   force =     0.00362835   -0.00194781   -0.00052262
     atom    9 type  2   force =    -0.02829960    0.00186895   -0.00000851
     atom   10 type  2   force =    -0.00846546   -0.00153937    0.00022004
     atom   11 type  1   force =    -0.00816492    0.00146528    0.00007488
     atom   12 type  1   force =    -0.00812375   -0.00035385    0.00006127
     atom   13 type  1   force =    -0.00006799   -0.00013168    0.00021724
     atom   14 type  1   force =    -0.00288016   -0.00566366   -0.00005295
     atom   15 type  1   force =     0.00025446    0.00303521   -0.00063005
     atom   16 type  2   force =    -0.02970838   -0.00239062    0.00000503
     atom   17 type  2   force =     0.00157639    0.00693258   -0.00008906
     atom   18 type  1   force =     0.00117295    0.00469671    0.00034954
     atom   19 type  1   force =    -0.00043311   -0.00482328    0.00042634
     atom   20 type  1   force =    -0.00276329   -0.00243887   -0.00003146
     atom   21 type  1   force =     0.00161048   -0.00141073   -0.00036858
     atom   22 type  2   force =     0.02367180    0.00191366    0.00017889
     atom   23 type  2   force =     0.00151468   -0.00079132    0.00012883
     atom   24 type  1   force =     0.01125093    0.00306890    0.00001159
     atom   25 type  1   force =     0.01139096   -0.00247147    0.00003892
     atom   26 type  1   force =     0.00048548   -0.00108793    0.00000008
     atom   27 type  3   force =     0.00000835    0.00035300    0.00011551
     atom   28 type  3   force =    -0.00001142    0.00031892   -0.00034634
     atom   29 type  3   force =     0.00063089    0.00018637    0.00040617
     atom   30 type  3   force =     0.00062150   -0.00008658    0.00051289
     atom   31 type  1   force =    -0.00001108   -0.00003841   -0.00074941
     atom   32 type  3   force =    -0.00009461   -0.00009599   -0.00054964

     Total force =     0.002104     Total SCF correction =     0.000181

     bfgs converged in   8 scf cycles and   7 bfgs steps
     (criteria: energy < 0.10E-03, force < 0.10E-02)

     End of BFGS Geometry Optimization

     Final energy   =   -2173.9906572906 Ry
Begin final coordinates

ATOMIC_POSITIONS (crystal)
O0       0.000000000   0.000000000   0.371375294    0   0   1
O0       0.000000000   0.500000000   0.382399389    0   0   1
Re1      0.250000000   0.500000000   0.441963163    0   0   1
Re1      0.000000000   0.000000000   0.443736680    0   0   1
O0       0.250000000   0.780000000   0.442079846    0   0   1
O0       0.250000000   0.220000000   0.441828106    0   0   1
O0       0.000000000   0.500000000   0.496953957    0   0   1
O0       0.000000000   0.000000000   0.514632144    0   0   1
Re1      0.250000000   0.000000000   0.574721679    0   0   1
Re1      0.000000000   0.500000000   0.565948662    0   0   1
O0       0.250000000   0.720000000   0.572346594    0   0   1
O0       0.250000000   0.280000000   0.572451136    0   0   1
O0       0.000000000   0.000000000   0.626897800    0   0   1
O0       0.500000000   0.000000000   0.371381489    0   0   1
O0       0.500000000   0.500000000   0.382931906    0   0   1
Re1      0.750000000   0.500000000   0.441964276    0   0   1
Re1      0.500000000   0.000000000   0.443486865    0   0   1
O0       0.750000000   0.780000000   0.442002525    0   0   1
O0       0.750000000   0.220000000   0.441916548    0   0   1
O0       0.500000000   0.500000000   0.499174186    0   0   1
O0       0.500000000   0.000000000   0.514528861    0   0   1
Re1      0.750000000   0.000000000   0.574428834    0   0   1
Re1      0.500000000   0.500000000   0.572712555    0   0   1
O0       0.750000000   0.720000000   0.571621909    0   0   1
O0       0.750000000   0.280000000   0.571580332    0   0   1
O0       0.500000000   0.000000000   0.626127633    0   0   1
H2      -0.000328909   0.624431070   0.365299653
H2       0.499599483   0.621793154   0.364617320
H2       0.168321262   0.023106331   0.356717225
H2       0.669650752   0.021464241   0.356948541
O0       0.527598426   0.499565951   0.643493389
H2       0.378882170   0.499070838   0.664761504
End final coordinates

     General routines

     Parallel routines
     Hubbard U routines

   This run was terminated on:  13:50:32   2May2014

   JOB DONE.
Running PBS batch system epilogue script
Job id: 340628.audhumbla.fysik.dtu.dk
Username: zhonxu
Groupname: campgst
Jobname: ReO2/Eads-2-layers/OH-U-4.0
Sessionid: 19818
Queuename: verylong
Accounting:
This job has allocated the following 16 nodes:
b055 b055 b055 b055 b055 b055 b055 b055 b003 b003 b003 b003 b003 b003 b003 b003
Finished epilogue job 340628.audhumbla.fysik.dtu.dk for zhonxu