     Program PWSCF v.5.0.2 (svn rev. 9656) starts on 24Jan2014 at 15:47:26

     Current dimensions of program PWSCF are:
     Max number of different atomic species (ntypx) = 10
     Max number of k-points (npk) =  40000
     Max angular momentum in pseudopotentials (lmaxx) =  3
     Reading input from SnO2-v-1.10.in

     Subspace diagonalization in iterative solution of the eigenvalue problem:
     a serial algorithm will be used

     bravais-lattice index     =            0
     lattice parameter (alat)  =       9.5544  a.u.
     unit-cell volume          =     562.0749 (a.u.)^3
     number of atoms/cell      =            6
     number of atomic types    =            2
     number of electrons       =        52.00
     number of Kohn-Sham states=           75
     kinetic-energy cutoff     =      40.0000  Ry
     charge density cutoff     =     500.0000  Ry
     convergence threshold     =      1.0E-06
     mixing beta               =       0.3000
     number of iterations used =            8  plain     mixing
     Exchange-correlation      = SLA  PW   PBE  PBE ( 1 4 3 4 0)
     EXX-fraction              =        0.00
     nstep                     =           50

     celldm(1)=   9.554388  celldm(2)=   0.000000  celldm(3)=   0.000000
     celldm(4)=   0.000000  celldm(5)=   0.000000  celldm(6)=   0.000000

     crystal axes: (cart. coord. in units of alat)
               a(1) = (   1.000000   0.000000   0.000000 )
               a(2) = (   0.000000   1.000000   0.000000 )
               a(3) = (   0.000000   0.000000   0.644444 )

     reciprocal axes: (cart. coord. in units 2 pi/alat)
               b(1) = (  1.000000  0.000000  0.000000 )
               b(2) = (  0.000000  1.000000  0.000000 )
               b(3) = (  0.000000  0.000000  1.551724 )

     PseudoPot. # 1 for Sn read from file:
     /home/camp/zhonxu/pseudo/sn_pbe_v1.uspp.F.UPF
     MD5 check sum: 4cf58ce39ec5d5d420df3dd08604eb00
     Pseudo is Ultrasoft + core correction, Zval = 14.0
     Generated by new atomic code, or converted to UPF format
     Using radial grid of  891 points,  6 beta functions with:
                l(1) =   0
                l(2) =   0
                l(3) =   1
                l(4) =   1
                l(5) =   2
                l(6) =   2
     Q(r) pseudized with  6 coefficients,  rinner =    1.200   1.200   1.200
                                                       1.200   1.200

     PseudoPot. # 2 for O  read from file:
     /home/camp/zhonxu/pseudo/o_pbe_v1.01.uspp.F.UPF
     MD5 check sum: 2bcb18d16ea4b960afae9ec6d52f22d2
     Pseudo is Ultrasoft + core correction, Zval =  6.0
     Generated by new atomic code, or converted to UPF format
     Using radial grid of  737 points,  5 beta functions with:
                l(1) =   0
                l(2) =   0
                l(3) =   1
                l(4) =   1
                l(5) =   2
     Q(r) pseudized with  8 coefficients,  rinner =    0.900   0.900   0.900
                                                       0.900   0.900

     atomic species   valence    mass     pseudopotential
        Sn0           14.00   118.71000     Sn( 1.00)
        O1             6.00    15.99940     O ( 1.00)

     Starting magnetic structure
     atomic species   magnetization
        Sn0          0.600
        O1           0.000

      8 Sym. Ops., with inversion, found
          (note:  8 additional sym.ops. were found but ignored
           their fractional translations are incommensurate with FFT grid)

   Cartesian axes

     site n.     atom                  positions (alat units)
         1           Sn0 tau(   1) = (   0.0000000   0.0000000   0.0000000  )
         2           Sn0 tau(   2) = (   0.5000000   0.5000000   0.3222222  )
         3           O1  tau(   3) = (   0.3050000   0.3050000   0.0000000  )
         4           O1  tau(   4) = (  -0.3050000  -0.3050000   0.0000000  )
         5           O1  tau(   5) = (   0.8050000   0.1950000   0.3222222  )
         6           O1  tau(   6) = (   0.1950000   0.8050000   0.3222222  )

     number of k points=    54  Methfessel-Paxton smearing, width (Ry)=  0.0100
                       cart. coord. in units 2pi/alat
        k(    1) = (   0.0000000   0.0000000   0.0000000), wk =   0.0080000
        k(    2) = (   0.0000000   0.0000000   0.3103448), wk =   0.0160000
        k(    3) = (   0.0000000   0.0000000   0.6206897), wk =   0.0160000
        k(    4) = (   0.0000000   0.2000000   0.0000000), wk =   0.0320000
        k(    5) = (   0.0000000   0.2000000   0.3103448), wk =   0.0640000
        k(    6) = (   0.0000000   0.2000000   0.6206897), wk =   0.0640000
        k(    7) = (   0.0000000   0.4000000   0.0000000), wk =   0.0320000
        k(    8) = (   0.0000000   0.4000000   0.3103448), wk =   0.0640000
        k(    9) = (   0.0000000   0.4000000   0.6206897), wk =   0.0640000
        k(   10) = (   0.2000000   0.2000000   0.0000000), wk =   0.0160000
        k(   11) = (   0.2000000   0.2000000   0.3103448), wk =   0.0320000
        k(   12) = (   0.2000000   0.2000000   0.6206897), wk =   0.0320000
        k(   13) = (   0.2000000   0.4000000   0.0000000), wk =   0.0320000
        k(   14) = (   0.2000000   0.4000000   0.3103448), wk =   0.0640000
        k(   15) = (   0.2000000   0.4000000   0.6206897), wk =   0.0640000
        k(   16) = (   0.4000000   0.4000000   0.0000000), wk =   0.0160000
        k(   17) = (   0.4000000   0.4000000   0.3103448), wk =   0.0320000
        k(   18) = (   0.4000000   0.4000000   0.6206897), wk =   0.0320000
        k(   19) = (  -0.2000000   0.2000000   0.0000000), wk =   0.0160000
        k(   20) = (  -0.2000000   0.2000000  -0.3103448), wk =   0.0320000
        k(   21) = (  -0.2000000   0.2000000  -0.6206897), wk =   0.0320000
        k(   22) = (  -0.2000000   0.4000000   0.0000000), wk =   0.0320000
        k(   23) = (  -0.2000000   0.4000000  -0.3103448), wk =   0.0640000
        k(   24) = (  -0.2000000   0.4000000  -0.6206897), wk =   0.0640000
        k(   25) = (  -0.4000000   0.4000000   0.0000000), wk =   0.0160000
        k(   26) = (  -0.4000000   0.4000000  -0.3103448), wk =   0.0320000
        k(   27) = (  -0.4000000   0.4000000  -0.6206897), wk =   0.0320000
        k(   28) = (   0.0000000   0.0000000   0.0000000), wk =   0.0080000
        k(   29) = (   0.0000000   0.0000000   0.3103448), wk =   0.0160000
        k(   30) = (   0.0000000   0.0000000   0.6206897), wk =   0.0160000
        k(   31) = (   0.0000000   0.2000000   0.0000000), wk =   0.0320000
        k(   32) = (   0.0000000   0.2000000   0.3103448), wk =   0.0640000
        k(   33) = (   0.0000000   0.2000000   0.6206897), wk =   0.0640000
        k(   34) = (   0.0000000   0.4000000   0.0000000), wk =   0.0320000
        k(   35) = (   0.0000000   0.4000000   0.3103448), wk =   0.0640000
        k(   36) = (   0.0000000   0.4000000   0.6206897), wk =   0.0640000
        k(   37) = (   0.2000000   0.2000000   0.0000000), wk =   0.0160000
        k(   38) = (   0.2000000   0.2000000   0.3103448), wk =   0.0320000
        k(   39) = (   0.2000000   0.2000000   0.6206897), wk =   0.0320000
        k(   40) = (   0.2000000   0.4000000   0.0000000), wk =   0.0320000
        k(   41) = (   0.2000000   0.4000000   0.3103448), wk =   0.0640000
        k(   42) = (   0.2000000   0.4000000   0.6206897), wk =   0.0640000
        k(   43) = (   0.4000000   0.4000000   0.0000000), wk =   0.0160000
        k(   44) = (   0.4000000   0.4000000   0.3103448), wk =   0.0320000
        k(   45) = (   0.4000000   0.4000000   0.6206897), wk =   0.0320000
        k(   46) = (  -0.2000000   0.2000000   0.0000000), wk =   0.0160000
        k(   47) = (  -0.2000000   0.2000000  -0.3103448), wk =   0.0320000
        k(   48) = (  -0.2000000   0.2000000  -0.6206897), wk =   0.0320000
        k(   49) = (  -0.2000000   0.4000000   0.0000000), wk =   0.0320000
        k(   50) = (  -0.2000000   0.4000000  -0.3103448), wk =   0.0640000
        k(   51) = (  -0.2000000   0.4000000  -0.6206897), wk =   0.0640000
        k(   52) = (  -0.4000000   0.4000000   0.0000000), wk =   0.0160000
        k(   53) = (  -0.4000000   0.4000000  -0.3103448), wk =   0.0320000
        k(   54) = (  -0.4000000   0.4000000  -0.6206897), wk =   0.0320000

     Largest allocated arrays     est. size (Mb)     dimensions
     Largest temporary arrays     est. size (Mb)     dimensions

     Check: negative/imaginary core charge=   -0.000005    0.000000

     Initial potential from superposition of free atoms

     starting charge   49.99990, renormalised to   52.00000
     Starting wfc are   34 randomized atomic wfcs

     Self-consistent Calculation

     iteration #  1     ecut=    40.00 Ry     beta=0.30
     Davidson diagonalization with overlap
     ethr =  1.00E-02,  avg # of iterations =  5.1

     total energy              =    -454.68364379 Ry
     Harris-Foulkes estimate   =    -454.85445903 Ry
     estimated scf accuracy    <       3.60366922 Ry

     total magnetization       =    -0.00 Bohr mag/cell
     absolute magnetization    =     0.94 Bohr mag/cell

[...]

     End of self-consistent calculation

 ------ SPIN UP ------------

          k = 0.0000 0.0000 0.0000 (  2441 PWs)   bands (ev):

   -13.5862 -13.1615 -13.0053 -12.9625 -12.9624 -12.9168 -12.9162 -12.8750
   -12.8559 -12.8559 -10.7282  -9.3121  -9.3118  -8.2385  -0.3735   3.6730
     3.6732   4.1569   4.8355   5.2056   5.6352   6.2142   6.2145   6.7099
     6.7100   7.2677   7.4044  12.5296  13.1790  13.1791  17.0485  17.0928
    17.6762  17.6763  18.8578  19.0535  20.5948  24.3144  24.7953  24.9611
    25.9264  25.9264  26.0873  26.0873  26.7545  26.7545  27.3547  27.3566
    27.4699  28.3701  28.5268  29.6263  31.1674  31.1674  32.8179  32.8180
    33.0287  34.3996  35.0336  35.3121  35.3121  36.5928  36.9184  37.3792
    37.7434  38.5551  38.5551  38.5599  38.5599  39.4092  40.9544  40.9784
    42.0950  42.0950  42.8973

[...]

          k =-0.2000 0.2000 0.0000 (  2406 PWs)   bands (ev):

[...]

 ------ SPIN DOWN ----------

[...]

     the Fermi energy is     7.3162 ev

!    total energy              =    -455.48802605 Ry
     Harris-Foulkes estimate   =    -455.48801908 Ry
     estimated scf accuracy    <       0.00000014 Ry

     The total energy is the sum of the following terms:

     one-electron contribution =    -154.42625334 Ry
     hartree contribution      =     114.17137472 Ry
     xc contribution           =    -124.10237134 Ry
     ewald contribution        =    -291.13089986 Ry
     smearing contrib. (-TS)   =       0.00012377 Ry

[...]

     convergence has been achieved in   9 iterations

     Forces acting on atoms (Ry/au):

     atom    1 type  1   force =     0.00000000    0.00000000    0.00000000
     atom    2 type  1   force =     0.00000000    0.00000000    0.00000000
     atom    3 type  2   force =     0.01388464    0.01388464    0.00000000
     atom    4 type  2   force =    -0.01388464   -0.01388464    0.00000000
     atom    5 type  2   force =     0.01388191   -0.01388191    0.00000000
     atom    6 type  2   force =    -0.01388191    0.01388191    0.00000000

[...]
     NEW k-points:
        k(    1) = (   0.0000000   0.0000000   0.0000000), wk =   0.0080000
        k(    2) = (   0.0000000   0.0000000   0.3081810), wk =   0.0160000
        k(    3) = (   0.0000000   0.0000000   0.6163621), wk =   0.0160000
        k(    4) = (   0.0000002   0.2007009   0.0000000), wk =   0.0320000
        k(    5) = (   0.0000002   0.2007009   0.3081810), wk =   0.0640000
        k(    6) = (   0.0000002   0.2007009   0.6163621), wk =   0.0640000
        k(    7) = (   0.0000005   0.4014018   0.0000000), wk =   0.0320000
        k(    8) = (   0.0000005   0.4014018   0.3081810), wk =   0.0640000
        k(    9) = (   0.0000005   0.4014018   0.6163621), wk =   0.0640000
        k(   10) = (   0.2007011   0.2007011   0.0000000), wk =   0.0160000
        k(   11) = (   0.2007011   0.2007011   0.3081810), wk =   0.0320000
        k(   12) = (   0.2007011   0.2007011   0.6163621), wk =   0.0320000
        k(   13) = (   0.2007014   0.4014020   0.0000000), wk =   0.0320000
        k(   14) = (   0.2007014   0.4014020   0.3081810), wk =   0.0640000
        k(   15) = (   0.2007014   0.4014020   0.6163621), wk =   0.0640000
        k(   16) = (   0.4014022   0.4014022   0.0000000), wk =   0.0160000
        k(   17) = (   0.4014022   0.4014022   0.3081810), wk =   0.0320000
        k(   18) = (   0.4014022   0.4014022   0.6163621), wk =   0.0320000
        k(   19) = (  -0.2007007   0.2007007   0.0000000), wk =   0.0160000
        k(   20) = (  -0.2007007   0.2007007  -0.3081810), wk =   0.0320000
        k(   21) = (  -0.2007007   0.2007007  -0.6163621), wk =   0.0320000
        k(   22) = (  -0.2007004   0.4014015   0.0000000), wk =   0.0320000
        k(   23) = (  -0.2007004   0.4014015  -0.3081810), wk =   0.0640000
        k(   24) = (  -0.2007004   0.4014015  -0.6163621), wk =   0.0640000
        k(   25) = (  -0.4014013   0.4014013   0.0000000), wk =   0.0160000
        k(   26) = (  -0.4014013   0.4014013  -0.3081810), wk =   0.0320000
        k(   27) = (  -0.4014013   0.4014013  -0.6163621), wk =   0.0320000
        k(   28) = (   0.0000000   0.0000000   0.0000000), wk =   0.0080000
        k(   29) = (   0.0000000   0.0000000   0.3081810), wk =   0.0160000
        k(   30) = (   0.0000000   0.0000000   0.6163621), wk =   0.0160000
        k(   31) = (   0.0000002   0.2007009   0.0000000), wk =   0.0320000
        k(   32) = (   0.0000002   0.2007009   0.3081810), wk =   0.0640000
        k(   33) = (   0.0000002   0.2007009   0.6163621), wk =   0.0640000
        k(   34) = (   0.0000005   0.4014018   0.0000000), wk =   0.0320000
        k(   35) = (   0.0000005   0.4014018   0.3081810), wk =   0.0640000
        k(   36) = (   0.0000005   0.4014018   0.6163621), wk =   0.0640000
        k(   37) = (   0.2007011   0.2007011   0.0000000), wk =   0.0160000
        k(   38) = (   0.2007011   0.2007011   0.3081810), wk =   0.0320000
        k(   39) = (   0.2007011   0.2007011   0.6163621), wk =   0.0320000
        k(   40) = (   0.2007014   0.4014020   0.0000000), wk =   0.0320000
        k(   41) = (   0.2007014   0.4014020   0.3081810), wk =   0.0640000
        k(   42) = (   0.2007014   0.4014020   0.6163621), wk =   0.0640000
        k(   43) = (   0.4014022   0.4014022   0.0000000), wk =   0.0160000
        k(   44) = (   0.4014022   0.4014022   0.3081810), wk =   0.0320000
        k(   45) = (   0.4014022   0.4014022   0.6163621), wk =   0.0320000
        k(   46) = (  -0.2007007   0.2007007   0.0000000), wk =   0.0160000
        k(   47) = (  -0.2007007   0.2007007  -0.3081810), wk =   0.0320000
        k(   48) = (  -0.2007007   0.2007007  -0.6163621), wk =   0.0320000
        k(   49) = (  -0.2007004   0.4014015   0.0000000), wk =   0.0320000
        k(   50) = (  -0.2007004   0.4014015  -0.3081810), wk =   0.0640000
        k(   51) = (  -0.2007004   0.4014015  -0.6163621), wk =   0.0640000
        k(   52) = (  -0.4014013   0.4014013   0.0000000), wk =   0.0160000
        k(   53) = (  -0.4014013   0.4014013  -0.3081810), wk =   0.0320000
        k(   54) = (  -0.4014013   0.4014013  -0.6163621), wk =   0.0320000

[...]

     Volume is kept fixed: isostatic pressure set to zero

     bfgs converged in   7 scf cycles and   6 bfgs steps
     (criteria: energy < 0.10E-03, force < 0.10E-02, cell < 0.50E+00)

     End of BFGS Geometry Optimization

     Final enthalpy =    -455.4909327136 Ry
Begin final coordinates
     new unit-cell volume =    562.07486 a.u.^3 (    83.29090 Ang^3 )

CELL_PARAMETERS (alat=  9.55438841)
   0.996507812  -0.000001159   0.000000000
  -0.000001159   0.996507812   0.000000000
   0.000000000   0.000000000   0.648969175

ATOMIC_POSITIONS (crystal)
Sn0      0.000000000   0.000000000   0.000000000    0   0   0
Sn0      0.500000000   0.500000000   0.500000000    0   0   0
O1       0.309804518   0.309804518   0.000000000    1   1   0
O1      -0.309804518  -0.309804518   0.000000000    1   1   0
O1       0.809804749   0.190195251   0.500000000    1   1   0
O1       0.190195251   0.809804749   0.500000000    1   1   0
End final coordinates

     A final scf calculation at the relaxed structure.
     The G-vectors are recalculated for the final unit cell
     Results may differ from those at the preceding step.

     bravais-lattice index     =            0
     lattice parameter (alat)  =       9.5544  a.u.
     unit-cell volume          =     562.0749 (a.u.)^3
     number of atoms/cell      =            6
     number of atomic types    =            2
     number of electrons       =        52.00
     number of Kohn-Sham states=           75
     kinetic-energy cutoff     =      40.0000  Ry
     charge density cutoff     =     500.0000  Ry
     convergence threshold     =      1.0E-08
     mixing beta               =       0.3000
     number of iterations used =            8  plain     mixing
     Exchange-correlation      = SLA  PW   PBE  PBE ( 1 4 3 4 0)
     EXX-fraction              =        0.00

     celldm(1)=   9.554388  celldm(2)=   0.000000  celldm(3)=   0.000000
     celldm(4)=   0.000000  celldm(5)=   0.000000  celldm(6)=   0.000000

     crystal axes: (cart. coord. in units of alat)
               a(1) = (   0.996508  -0.000001   0.000000 )
               a(2) = (  -0.000001   0.996508   0.000000 )
               a(3) = (   0.000000   0.000000   0.648969 )

     reciprocal axes: (cart. coord. in units 2 pi/alat)
               b(1) = (  1.003504  0.000001 -0.000000 )
               b(2) = (  0.000001  1.003504 -0.000000 )
               b(3) = ( -0.000000 -0.000000  1.540905 )

     PseudoPot. # 1 for Sn read from file:
     /home/camp/zhonxu/pseudo/sn_pbe_v1.uspp.F.UPF
     MD5 check sum: 4cf58ce39ec5d5d420df3dd08604eb00
     Pseudo is Ultrasoft + core correction, Zval = 14.0
     Generated by new atomic code, or converted to UPF format
     Using radial grid of  891 points,  6 beta functions with:
                l(1) =   0
                l(2) =   0
                l(3) =   1
                l(4) =   1
                l(5) =   2
                l(6) =   2
     Q(r) pseudized with  6 coefficients,  rinner =    1.200   1.200   1.200
                                                       1.200   1.200

     PseudoPot. # 2 for O  read from file:
     /home/camp/zhonxu/pseudo/o_pbe_v1.01.uspp.F.UPF
     MD5 check sum: 2bcb18d16ea4b960afae9ec6d52f22d2
     Pseudo is Ultrasoft + core correction, Zval =  6.0
     Generated by new atomic code, or converted to UPF format
     Using radial grid of  737 points,  5 beta functions with:
                l(1) =   0
                l(2) =   0
                l(3) =   1
                l(4) =   1
                l(5) =   2
     Q(r) pseudized with  8 coefficients,  rinner =    0.900   0.900   0.900
                                                       0.900   0.900

     atomic species   valence    mass     pseudopotential
        Sn0           14.00   118.71000     Sn( 1.00)
        O1             6.00    15.99940     O ( 1.00)

     Starting magnetic structure
     atomic species   magnetization
        Sn0          0.600
        O1           0.000

      8 Sym. Ops., with inversion, found
          (note:  8 additional sym.ops. were found but ignored
           their fractional translations are incommensurate with FFT grid)

   Cartesian axes

     site n.     atom                  positions (alat units)
         1           Sn0 tau(   1) = (   0.0000000   0.0000000   0.0000000  )
         2           Sn0 tau(   2) = (   0.4982533   0.4982533   0.3244846  )
         3           O1  tau(   3) = (   0.3087223   0.3087223   0.0000000  )
         4           O1  tau(   4) = (  -0.3087223  -0.3087223   0.0000000  )
         5           O1  tau(   5) = (   0.8069765   0.1895301   0.3244846  )
         6           O1  tau(   6) = (   0.1895301   0.8069765   0.3244846  )

     number of k points=    54  Methfessel-Paxton smearing, width (Ry)=  0.0100
                       cart. coord. in units 2pi/alat
        k(    1) = (   0.0000000   0.0000000   0.0000000), wk =   0.0080000
        k(    2) = (   0.0000000   0.0000000   0.3081810), wk =   0.0160000
        k(    3) = (   0.0000000   0.0000000   0.6163621), wk =   0.0160000
        k(    4) = (   0.0000002   0.2007009   0.0000000), wk =   0.0320000
        k(    5) = (   0.0000002   0.2007009   0.3081810), wk =   0.0640000
        k(    6) = (   0.0000002   0.2007009   0.6163621), wk =   0.0640000
        k(    7) = (   0.0000005   0.4014018   0.0000000), wk =   0.0320000
        k(    8) = (   0.0000005   0.4014018   0.3081810), wk =   0.0640000
        k(    9) = (   0.0000005   0.4014018   0.6163621), wk =   0.0640000
        k(   10) = (   0.2007011   0.2007011   0.0000000), wk =   0.0160000
        k(   11) = (   0.2007011   0.2007011   0.3081810), wk =   0.0320000
        k(   12) = (   0.2007011   0.2007011   0.6163621), wk =   0.0320000
        k(   13) = (   0.2007014   0.4014020   0.0000000), wk =   0.0320000
        k(   14) = (   0.2007014   0.4014020   0.3081810), wk =   0.0640000
        k(   15) = (   0.2007014   0.4014020   0.6163621), wk =   0.0640000
        k(   16) = (   0.4014022   0.4014022   0.0000000), wk =   0.0160000
        k(   17) = (   0.4014022   0.4014022   0.3081810), wk =   0.0320000
        k(   18) = (   0.4014022   0.4014022   0.6163621), wk =   0.0320000
        k(   19) = (  -0.2007007   0.2007007   0.0000000), wk =   0.0160000
        k(   20) = (  -0.2007007   0.2007007  -0.3081810), wk =   0.0320000
        k(   21) = (  -0.2007007   0.2007007  -0.6163621), wk =   0.0320000
        k(   22) = (  -0.2007004   0.4014015   0.0000000), wk =   0.0320000
        k(   23) = (  -0.2007004   0.4014015  -0.3081810), wk =   0.0640000
        k(   24) = (  -0.2007004   0.4014015  -0.6163621), wk =   0.0640000
        k(   25) = (  -0.4014013   0.4014013   0.0000000), wk =   0.0160000
        k(   26) = (  -0.4014013   0.4014013  -0.3081810), wk =   0.0320000
        k(   27) = (  -0.4014013   0.4014013  -0.6163621), wk =   0.0320000
        k(   28) = (   0.0000000   0.0000000   0.0000000), wk =   0.0080000
        k(   29) = (   0.0000000   0.0000000   0.3081810), wk =   0.0160000
        k(   30) = (   0.0000000   0.0000000   0.6163621), wk =   0.0160000
        k(   31) = (   0.0000002   0.2007009   0.0000000), wk =   0.0320000
        k(   32) = (   0.0000002   0.2007009   0.3081810), wk =   0.0640000
        k(   33) = (   0.0000002   0.2007009   0.6163621), wk =   0.0640000
        k(   34) = (   0.0000005   0.4014018   0.0000000), wk =   0.0320000
        k(   35) = (   0.0000005   0.4014018   0.3081810), wk =   0.0640000
        k(   36) = (   0.0000005   0.4014018   0.6163621), wk =   0.0640000
        k(   37) = (   0.2007011   0.2007011   0.0000000), wk =   0.0160000
        k(   38) = (   0.2007011   0.2007011   0.3081810), wk =   0.0320000
        k(   39) = (   0.2007011   0.2007011   0.6163621), wk =   0.0320000
        k(   40) = (   0.2007014   0.4014020   0.0000000), wk =   0.0320000
        k(   41) = (   0.2007014   0.4014020   0.3081810), wk =   0.0640000
        k(   42) = (   0.2007014   0.4014020   0.6163621), wk =   0.0640000
        k(   43) = (   0.4014022   0.4014022   0.0000000), wk =   0.0160000
        k(   44) = (   0.4014022   0.4014022   0.3081810), wk =   0.0320000
        k(   45) = (   0.4014022   0.4014022   0.6163621), wk =   0.0320000
        k(   46) = (  -0.2007007   0.2007007   0.0000000), wk =   0.0160000
        k(   47) = (  -0.2007007   0.2007007  -0.3081810), wk =   0.0320000
        k(   48) = (  -0.2007007   0.2007007  -0.6163621), wk =   0.0320000
        k(   49) = (  -0.2007004   0.4014015   0.0000000), wk =   0.0320000
        k(   50) = (  -0.2007004   0.4014015  -0.3081810), wk =   0.0640000
        k(   51) = (  -0.2007004   0.4014015  -0.6163621), wk =   0.0640000
        k(   52) = (  -0.4014013   0.4014013   0.0000000), wk =   0.0160000
        k(   53) = (  -0.4014013   0.4014013  -0.3081810), wk =   0.0320000
        k(   54) = (  -0.4014013   0.4014013  -0.6163621), wk =   0.0320000

     Largest allocated arrays     est. size (Mb)     dimensions
     Largest temporary arrays     est. size (Mb)     dimensions

     Check: negative/imaginary core charge=   -0.000005    0.000000

     Initial potential from superposition of free atoms

     starting charge   49.99990, renormalised to   52.00000
     Starting wfc are   34 randomized atomic wfcs

     Self-consistent Calculation

[...]

     total energy              =    -455.49098631 Ry
     Harris-Foulkes estimate   =    -455.49098462 Ry
     estimated scf accuracy    <       0.00000003 Ry

[...]

     iteration # 11     ecut=    40.00 Ry     beta=0.30
     Davidson diagonalization with overlap
     ethr =  4.94E-11,  avg # of iterations =  2.0

     End of self-consistent calculation

 ------ SPIN UP ------------

[...]

 ------ SPIN DOWN ----------

[...]

          k = 0.4014 0.4014 0.6164 (  2405 PWs)   bands (ev):

[...]

          k =-0.4014 0.4014-0.6164 (  2405 PWs)   bands (ev):

   -13.4587 -13.4256 -13.0971 -13.0495 -12.8877 -12.8873 -12.8678 -12.8663
   -12.8133 -12.8121  -9.5140  -9.4079  -8.3450  -8.2847   0.2772   0.3979
     3.2416   3.2575   3.8317   4.7462   4.9181   5.7683   6.4733   6.4872
     6.6567   6.7090  11.1931  11.3047  15.0458  15.4923  16.8827  17.2116
    17.2222  17.5963  19.4189  19.6483  20.8284  21.0563  21.5027  23.0442
    23.7925  23.9239  25.0795  26.0259  27.3949  27.3956  28.5944  29.0782
    29.9402  30.1427  30.9317  31.3262  32.4080  32.4560  33.1450  33.4610
    33.8058  35.0881  35.6162  36.1414  37.0078  37.1903  38.2528  38.7090
    38.8600  39.0282  39.5003  39.9625  40.1608  41.2126  41.2718  42.4150
    42.6000  42.8256  43.6325

     the Fermi energy is     7.3398 ev

!    total energy              =    -455.49098792 Ry
     Harris-Foulkes estimate   =    -455.49098632 Ry
     estimated scf accuracy    <          3.1E-09 Ry

     The total energy is the sum of the following terms:

     one-electron contribution =    -155.15727461 Ry
     hartree contribution      =     114.57671584 Ry
     xc contribution           =    -124.12090034 Ry
     ewald contribution        =    -290.78961723 Ry
     smearing contrib. (-TS)   =       0.00008842 Ry

     total magnetization       =    -0.00 Bohr mag/cell
     absolute magnetization    =     0.00 Bohr mag/cell

     convergence has been achieved in  11 iterations

     Forces acting on atoms (Ry/au):

     atom    1 type  1   force =     0.00000000    0.00000000    0.00000000
     atom    2 type  1   force =     0.00000000    0.00000000    0.00000000
     atom    3 type  2   force =     0.00004385    0.00004385    0.00000000
     atom    4 type  2   force =    -0.00004385   -0.00004385    0.00000000
     atom    5 type  2   force =     0.00004341   -0.00004341   -0.00000000
     atom    6 type  2   force =    -0.00004341    0.00004341   -0.00000000

     Total force =     0.000123     Total SCF correction =     0.000002

     entering subroutine stress ...

          total   stress  (Ry/bohr**3)                   (kbar)     P= -125.69
  -0.00085359   0.00000005   0.00000000       -125.57      0.01      0.00
   0.00000005  -0.00085359   0.00000000          0.01   -125.57      0.00
   0.00000000   0.00000000  -0.00085610          0.00      0.00   -125.94

     General routines

     Parallel routines

   This run was terminated on:  16:43:50  24Jan2014

   JOB DONE.
Running PBS batch system epilogue script
Job id: 251917.audhumbla.fysik.dtu.dk
Username: zhonxu
Groupname: campgst
Jobname: SnO2/fine-EOS/ferro/SnO2-v-1.10
Sessionid: 10397
Queuename: verylong
Accounting:
This job has allocated the following 4 nodes:
q126 q126 q126 q126
Finished epilogue job 251917.audhumbla.fysik.dtu.dk for zhonxu