     Program PWSCF v.5.0.2 (svn rev. 9656) starts on 30Apr2014 at  3:32:57

     Current dimensions of program PWSCF are:
     Max number of different atomic species (ntypx) = 10
     Max number of k-points (npk) =  40000
     Max angular momentum in pseudopotentials (lmaxx) =  3
     Reading input from pwscf.in
Warning: card &CELL ignored
Warning: card / ignored

     Subspace diagonalization in iterative solution of the eigenvalue problem:
     a serial algorithm will be used

     bravais-lattice index     =            0
     lattice parameter (alat)  =      11.7541  a.u.
     unit-cell volume          =    7139.8207 (a.u.)^3
     number of atoms/cell      =           31
     number of atomic types    =            3
     number of electrons       =       238.00
     number of Kohn-Sham states=          357
     kinetic-energy cutoff     =      40.0000  Ry
     charge density cutoff     =     500.0000  Ry
     convergence threshold     =      1.0E-06
     mixing beta               =       0.7000
     number of iterations used =            8  plain     mixing
     Exchange-correlation      = SLA  PW   PBE  PBE ( 1 4 3 4 0)
     EXX-fraction              =        0.00
     nstep                     =           50

     celldm(1)=  11.754097  celldm(2)=   0.000000  celldm(3)=   0.000000
     celldm(4)=   0.000000  celldm(5)=   0.000000  celldm(6)=   0.000000

     crystal axes: (cart. coord. in units of alat)
               a(1) = (   1.000000   0.000000   0.000000 )
               a(2) = (   0.000000   1.034513   0.000000 )
               a(3) = (   0.000000   0.000000   4.249947 )

     reciprocal axes: (cart. coord. in units 2 pi/alat)
               b(1) = (  1.000000  0.000000  0.000000 )
               b(2) = (  0.000000  0.966638  0.000000 )
               b(3) = (  0.000000  0.000000  0.235297 )

     PseudoPot. # 1 for O  read from file:
     /home/camp/zhonxu/pseudo/o_pbe_v1.01.uspp.F.UPF
     MD5 check sum: 2bcb18d16ea4b960afae9ec6d52f22d2
     Pseudo is Ultrasoft + core correction, Zval =  6.0
     Generated by new atomic code, or converted to UPF format
     Using radial grid of  737 points,  5 beta functions with:
                l(1) =   0
                l(2) =   0
                l(3) =   1
                l(4) =   1
                l(5) =   2
     Q(r) pseudized with  8 coefficients,  rinner =    0.900   0.900   0.900
                                                       0.900   0.900

     PseudoPot. # 2 for Rh read from file:
     /home/camp/zhonxu/pseudo/rh_pbe_v1.uspp.F.UPF
     MD5 check sum: 37b626987ad0dd8ec6bf4cc9ef289918
     Pseudo is Ultrasoft + core correction, Zval = 15.0
     Generated by new atomic code, or converted to UPF format
     Using radial grid of  969 points,  7 beta functions with:
                l(1) =   0
                l(2) =   0
                l(3) =   1
                l(4) =   1
                l(5) =   2
                l(6) =   2
                l(7) =   2
     Q(r) pseudized with  6 coefficients,  rinner =    1.050   1.050   1.050
                                                       1.050   1.050

     PseudoPot. # 3 for H  read from file:
     /home/camp/zhonxu/pseudo/h_pbe_v1.uspp.F.UPF
     MD5 check sum: 3408e3ff4ec8b0a4e358431e7e038a48
     Pseudo is Ultrasoft, Zval =  1.0
     Generated by new atomic code, or converted to UPF format
     Using radial grid of  615 points,  2 beta functions with:
                l(1) =   0
                l(2) =   0
     Q(r) pseudized with  8 coefficients,  rinner =    0.700

     atomic species   valence    mass     pseudopotential
        O0             6.00    15.99940     O ( 1.00)
        Rh1           15.00   102.90550     Rh( 1.00)
        H2             1.00     1.00794     H ( 1.00)

     Simplified LDA+U calculation (l_max = 2) with parameters (eV):
     atomic species    L          U    alpha       J0     beta
        Rh1            2     1.0000   0.0000   0.0000   0.0000

     No symmetry found

   Cartesian axes

     site n.     atom                  positions (alat units)
         1           O0  tau(   1) = (   0.0000000   0.0000000   1.6064375  )
         2           O0  tau(   2) = (   0.0000000   0.5172566   1.7091588  )
         3           Rh1 tau(   3) = (   0.2500000   0.5172566   1.9262886  )
         4           Rh1 tau(   4) = (   0.0000000   0.0000000   1.9228036  )
         5           O0  tau(   5) = (   0.2500000   0.8379556   1.9220386  )
         6           O0  tau(   6) = (   0.2500000   0.1965575   1.9215286  )
         7           O0  tau(   7) = (   0.0000000   0.5172566   2.1200437  )
         8           O0  tau(   8) = (   0.0000000   0.0000000   2.2432071  )
         9           Rh1 tau(   9) = (   0.2500000   0.0000000   2.4439746  )
        10           Rh1 tau(  10) = (   0.0000000   0.5172566   2.4253174  )
        11           O0  tau(  11) = (   0.2500000   0.7138141   2.4432947  )
        12           O0  tau(  12) = (   0.2500000   0.3206991   2.4432097  )
        13           O0  tau(  13) = (   0.0000000   0.0000000   2.6356898  )
        14           O0  tau(  14) = (   0.5000000   0.0000000   1.6064375  )
        15           O0  tau(  15) = (   0.5000000   0.5172566   1.7079263  )
        16           Rh1 tau(  16) = (   0.7500000   0.5172566   1.9262886  )
        17           Rh1 tau(  17) = (   0.5000000   0.0000000   1.9227611  )
        18           O0  tau(  18) = (   0.7500000   0.8379556   1.9219536  )
        19           O0  tau(  19) = (   0.7500000   0.1965575   1.9216136  )
        20           O0  tau(  20) = (   0.5000000   0.5172566   2.1284161  )
        21           O0  tau(  21) = (   0.5000000   0.0000000   2.2423572  )
        22           Rh1 tau(  22) = (   0.7500000   0.0000000   2.4439321  )
        23           Rh1 tau(  23) = (   0.5000000   0.5172566   2.4652244  )
        24           O0  tau(  24) = (   0.7500000   0.7138141   2.4431672  )
        25           O0  tau(  25) = (   0.7500000   0.3206991   2.4432097  )
        26           O0  tau(  26) = (   0.5000000   0.0000000   2.6354348  )
        27           H2  tau(  27) = (  -0.0000700   0.6590056   1.6354222  )
        28           H2  tau(  28) = (   0.4999300   0.6605366   1.6368247  )
        29           H2  tau(  29) = (   0.1480800   0.0354838   1.5606656  )
        30           H2  tau(  30) = (   0.6481100   0.0354321   1.5605806  )
        31           O0  tau(  31) = (   0.5000800   0.5160462   2.7479734  )

     number of k points=    10  Methfessel-Paxton smearing, width (Ry)=  0.0100
                       cart. coord. in units 2pi/alat
        k(    1) = (   0.0000000   0.0000000   0.0000000), wk =   0.1250000
        k(    2) = (   0.0000000   0.2416596   0.0000000), wk =   0.2500000
        k(    3) = (   0.0000000  -0.4833191   0.0000000), wk =   0.1250000
        k(    4) = (   0.2500000   0.0000000   0.0000000), wk =   0.2500000
        k(    5) = (   0.2500000   0.2416596   0.0000000), wk =   0.2500000
        k(    6) = (   0.2500000  -0.4833191   0.0000000), wk =   0.2500000
        k(    7) = (  -0.5000000   0.0000000   0.0000000), wk =   0.1250000
        k(    8) = (  -0.5000000   0.2416596   0.0000000), wk =   0.2500000
        k(    9) = (  -0.5000000  -0.4833191   0.0000000), wk =   0.1250000
        k(   10) = (  -0.2500000   0.2416596   0.0000000), wk =   0.2500000

     Largest allocated arrays     est. size (Mb)     dimensions
     Largest temporary arrays     est. size (Mb)     dimensions

     Check: negative/imaginary core charge=   -0.000003    0.000000

     Initial potential from superposition of free atoms
     Check: negative starting charge=   -0.645358

     starting charge  233.99915, renormalised to  238.00000

     negative rho (up, down):  0.656E+00 0.000E+00
     Number of +U iterations with fixed ns =  0
     Starting occupations:
 --- enter write_ns ---
 LDA+U parameters:
U( 2)     =  1.00000000
alpha( 2) =  0.00000000
atom    3   Tr[ns(na)] =   7.00000
    eigenvalues:
  0.700  0.700  0.700  0.700  0.700
    eigenvectors:
  1.000  0.000  0.000  0.000  0.000
  0.000  1.000  0.000  0.000  0.000
  0.000  0.000  1.000  0.000  0.000
  0.000  0.000  0.000  1.000  0.000
  0.000  0.000  0.000  0.000  1.000
    occupations:
  0.700  0.000  0.000  0.000  0.000
  0.000  0.700  0.000  0.000  0.000
  0.000  0.000  0.700  0.000  0.000
  0.000  0.000  0.000  0.700  0.000
  0.000  0.000  0.000  0.000  0.700
atom    4   Tr[ns(na)] =   7.00000
    eigenvalues:
  0.700  0.700  0.700  0.700  0.700
    eigenvectors:
  1.000  0.000  0.000  0.000  0.000
  0.000  1.000  0.000  0.000  0.000
  0.000  0.000  1.000  0.000  0.000
  0.000  0.000  0.000  1.000  0.000
  0.000  0.000  0.000  0.000  1.000
    occupations:
  0.700  0.000  0.000  0.000  0.000
  0.000  0.700  0.000  0.000  0.000
  0.000  0.000  0.700  0.000  0.000
  0.000  0.000  0.000  0.700  0.000
  0.000  0.000  0.000  0.000  0.700
atom    9   Tr[ns(na)] =   7.00000
    eigenvalues:
  0.700  0.700  0.700  0.700  0.700
    eigenvectors:
  1.000  0.000  0.000  0.000  0.000
  0.000  1.000  0.000  0.000  0.000
  0.000  0.000  1.000  0.000  0.000
  0.000  0.000  0.000  1.000  0.000
  0.000  0.000  0.000  0.000  1.000
    occupations:
  0.700  0.000  0.000  0.000  0.000
  0.000  0.700  0.000  0.000  0.000
  0.000  0.000  0.700  0.000  0.000
  0.000  0.000  0.000  0.700  0.000
  0.000  0.000  0.000  0.000  0.700
atom   10   Tr[ns(na)] =   7.00000
    eigenvalues:
  0.700  0.700  0.700  0.700  0.700
    eigenvectors:
  1.000  0.000  0.000  0.000  0.000
  0.000  1.000  0.000  0.000  0.000
  0.000  0.000  1.000  0.000  0.000
  0.000  0.000  0.000  1.000  0.000
  0.000  0.000  0.000  0.000  1.000
    occupations:
  0.700  0.000  0.000  0.000  0.000
  0.000  0.700  0.000  0.000  0.000
  0.000  0.000  0.700  0.000  0.000
  0.000  0.000  0.000  0.700  0.000
  0.000  0.000  0.000  0.000  0.700
atom   16   Tr[ns(na)] =   7.00000
    eigenvalues:
  0.700  0.700  0.700  0.700  0.700
    eigenvectors:
  1.000  0.000  0.000  0.000  0.000
  0.000  1.000  0.000  0.000  0.000
  0.000  0.000  1.000  0.000  0.000
  0.000  0.000  0.000  1.000  0.000
  0.000  0.000  0.000  0.000  1.000
    occupations:
  0.700  0.000  0.000  0.000  0.000
  0.000  0.700  0.000  0.000  0.000
  0.000  0.000  0.700  0.000  0.000
  0.000  0.000  0.000  0.700  0.000
  0.000  0.000  0.000  0.000  0.700
atom   17   Tr[ns(na)] =   7.00000
    eigenvalues:
  0.700  0.700  0.700  0.700  0.700
    eigenvectors:
  1.000  0.000  0.000  0.000  0.000
  0.000  1.000  0.000  0.000  0.000
  0.000  0.000  1.000  0.000  0.000
  0.000  0.000  0.000  1.000  0.000
  0.000  0.000  0.000  0.000  1.000
    occupations:
  0.700  0.000  0.000  0.000  0.000
  0.000  0.700  0.000  0.000  0.000
  0.000  0.000  0.700  0.000  0.000
  0.000  0.000  0.000  0.700  0.000
  0.000  0.000  0.000  0.000  0.700
atom   22   Tr[ns(na)] =   7.00000
    eigenvalues:
  0.700  0.700  0.700  0.700  0.700
    eigenvectors:
  1.000  0.000  0.000  0.000  0.000
  0.000  1.000  0.000  0.000  0.000
  0.000  0.000  1.000  0.000  0.000
  0.000  0.000  0.000  1.000  0.000
  0.000  0.000  0.000  0.000  1.000
    occupations:
  0.700  0.000  0.000  0.000  0.000
[...]
  0.000  0.000  0.933  0.067  0.000
  0.012  0.836  0.000  0.000  0.152
  0.000  0.000  0.067  0.933  0.000
    occupations:
  0.922  0.001 -0.000 -0.116 -0.000
  0.001  0.639  0.000  0.001 -0.000
 -0.000  0.000  0.846  0.000 -0.009
 -0.116  0.001  0.000  0.698  0.001
 -0.000 -0.000 -0.009  0.001  0.877
atom   10   Tr[ns(na)] =   7.97269
    eigenvalues:
  0.596  0.605  0.899  0.916  0.971
    eigenvectors:
  0.000  0.990  0.000  0.000  0.010
  0.000  0.000  0.000  1.000  0.000
  0.000  0.000  1.000  0.000  0.000
  0.000  0.010  0.000  0.000  0.990
  1.000  0.000  0.000  0.000  0.000
    occupations:
  0.608  0.000  0.001  0.036 -0.000
  0.000  0.916 -0.000  0.000 -0.000
  0.001 -0.000  0.899  0.000  0.000
  0.036  0.000  0.000  0.968 -0.000
 -0.000 -0.000  0.000 -0.000  0.596
atom   16   Tr[ns(na)] =   7.98620
    eigenvalues:
  0.590  0.612  0.877  0.945  0.968
    eigenvectors:
  0.012  0.190  0.002  0.000  0.795
  0.951  0.049  0.000  0.000  0.000
  0.000  0.000  0.981  0.017  0.002
  0.036  0.761  0.000  0.000  0.202
  0.000  0.000  0.017  0.982  0.001
    occupations:
  0.895  0.007  0.003 -0.143  0.001
  0.007  0.592  0.001  0.002 -0.006
  0.003  0.001  0.879 -0.004 -0.009
 -0.143  0.002 -0.004  0.683  0.000
  0.001 -0.006 -0.009  0.000  0.944
atom   17   Tr[ns(na)] =   7.97211
    eigenvalues:
  0.604  0.651  0.856  0.903  0.973
    eigenvectors:
  0.001  0.992  0.000  0.000  0.007
  0.000  0.000  0.056  0.943  0.000
  0.000  0.000  0.944  0.056  0.000
  0.000  0.007  0.000  0.000  0.993
  0.999  0.001  0.000  0.000  0.000
    occupations:
  0.653 -0.004 -0.001  0.027  0.001
 -0.004  0.900  0.011  0.001 -0.000
 -0.001  0.011  0.858 -0.000  0.001
  0.027  0.001 -0.000  0.970  0.000
  0.001 -0.000  0.001  0.000  0.604
atom   22   Tr[ns(na)] =   7.96400
    eigenvalues:
  0.639  0.649  0.844  0.879  0.971
    eigenvectors:
  0.000  0.152  0.000  0.000  0.848
  0.999  0.001  0.000  0.000  0.000
  0.000  0.000  0.938  0.062  0.000
  0.001  0.847  0.000  0.000  0.152
  0.000  0.000  0.062  0.938  0.000
    occupations:
  0.922 -0.000  0.000 -0.116 -0.000
 -0.000  0.639  0.000 -0.000 -0.000
  0.000  0.000  0.846 -0.000  0.009
 -0.116 -0.000 -0.000  0.698  0.000
 -0.000 -0.000  0.009  0.000  0.877
atom   23   Tr[ns(na)] =   7.94845
    eigenvalues:
  0.635  0.696  0.813  0.853  0.977
    eigenvectors:
  0.000  0.994  0.000  0.000  0.006
  0.000  0.000  0.000  1.000  0.000
  0.000  0.000  1.000  0.000  0.000
  0.000  0.006  0.000  0.000  0.994
  1.000  0.000  0.000  0.000  0.000
    occupations:
  0.698  0.000 -0.000  0.022 -0.000
  0.000  0.853 -0.000  0.000 -0.000
 -0.000 -0.000  0.813  0.000  0.000
  0.022  0.000  0.000  0.975  0.000
 -0.000 -0.000  0.000  0.000  0.635
N of occupied +U levels =  63.7693626
 --- exit write_ns ---

     Threshold (ethr) on eigenvalues was too large:
     Diagonalizing with lowered threshold

     Davidson diagonalization with overlap
     ethr =  1.21E-08,  avg # of iterations =  3.0

[...]

     total energy              =   -1979.89788162 Ry
     Harris-Foulkes estimate   =   -1979.89788163 Ry
     estimated scf accuracy    <       0.00000005 Ry

     iteration # 17     ecut=    40.00 Ry     beta=0.70
     Davidson diagonalization with overlap
     ethr =  2.15E-11,  avg # of iterations =  1.0

     negative rho (up, down):  0.694E+00 0.000E+00

     End of self-consistent calculation
 --- enter write_ns ---
 LDA+U parameters:
U( 2)     =  1.00000000
alpha( 2) =  0.00000000
atom    3   Tr[ns(na)] =   7.98552
    eigenvalues:
  0.590  0.612  0.877  0.946  0.968
    eigenvectors:
  0.013  0.190  0.002  0.000  0.795
  0.948  0.051  0.000  0.000  0.000
  0.000  0.000  0.975  0.023  0.002
  0.038  0.759  0.000  0.000  0.202
  0.000  0.000  0.022  0.977  0.001
    occupations:
  0.895 -0.007  0.003 -0.143 -0.002
 -0.007  0.591 -0.001 -0.002 -0.006
  0.003 -0.001  0.879 -0.004  0.010
 -0.143 -0.002 -0.004  0.683 -0.000
 -0.002 -0.006  0.010 -0.000  0.944
atom    4   Tr[ns(na)] =   7.97437
    eigenvalues:
  0.604  0.650  0.856  0.905  0.972
    eigenvectors:
  0.000  0.992  0.000  0.000  0.007
  0.000  0.000  0.045  0.955  0.000
  0.000  0.000  0.955  0.045  0.000
  0.000  0.007  0.000  0.000  0.993
  1.000  0.000  0.000  0.000  0.000
    occupations:
  0.653 -0.004 -0.001  0.027  0.001
 -0.004  0.903  0.010  0.001 -0.000
 -0.001  0.010  0.858 -0.001  0.001
  0.027  0.001 -0.001  0.970  0.000
  0.001 -0.000  0.001  0.000  0.604
atom    9   Tr[ns(na)] =   7.96465
    eigenvalues:
  0.638  0.649  0.844  0.880  0.971
    eigenvectors:
  0.002  0.149  0.000  0.000  0.848
  0.985  0.015  0.000  0.000  0.000
  0.000  0.000  0.933  0.067  0.000
  0.012  0.836  0.000  0.000  0.152
  0.000  0.000  0.067  0.933  0.000
    occupations:
  0.922  0.001 -0.000 -0.116 -0.000
  0.001  0.639  0.000  0.001 -0.000
 -0.000  0.000  0.846  0.000 -0.009
 -0.116  0.001  0.000  0.698  0.001
 -0.000 -0.000 -0.009  0.001  0.877
atom   10   Tr[ns(na)] =   7.97285
    eigenvalues:
  0.596  0.605  0.898  0.916  0.971
    eigenvectors:
  0.000  0.990  0.000  0.000  0.010
  0.000  0.000  0.000  1.000  0.000
  0.000  0.000  1.000  0.000  0.000
  0.000  0.010  0.000  0.000  0.990
  1.000  0.000  0.000  0.000  0.000
    occupations:
  0.608  0.000  0.001  0.036 -0.000
  0.000  0.916 -0.000  0.000 -0.000
  0.001 -0.000  0.898  0.000  0.000
  0.036  0.000  0.000  0.968 -0.000
 -0.000 -0.000  0.000 -0.000  0.596
atom   16   Tr[ns(na)] =   7.98543
    eigenvalues:
  0.590  0.612  0.877  0.945  0.968
    eigenvectors:
  0.012  0.190  0.002  0.000  0.795
  0.951  0.048  0.000  0.000  0.000
  0.000  0.000  0.981  0.017  0.002
  0.036  0.761  0.000  0.000  0.202
  0.000  0.000  0.016  0.982  0.001
    occupations:
  0.895  0.007  0.003 -0.143  0.001
  0.007  0.591  0.001  0.002 -0.006
  0.003  0.001  0.878 -0.004 -0.009
 -0.143  0.002 -0.004  0.683  0.000
  0.001 -0.006 -0.009  0.000  0.944
atom   17   Tr[ns(na)] =   7.97173
    eigenvalues:
  0.604  0.651  0.855  0.903  0.973
    eigenvectors:
  0.001  0.992  0.000  0.000  0.007
  0.000  0.000  0.056  0.944  0.000
  0.000  0.000  0.944  0.056  0.000
  0.000  0.007  0.000  0.000  0.993
  0.999  0.001  0.000  0.000  0.000
    occupations:
  0.653 -0.004 -0.001  0.027  0.001
 -0.004  0.900  0.011  0.001 -0.000
 -0.001  0.011  0.858 -0.000  0.001
  0.027  0.001 -0.000  0.970  0.000
  0.001 -0.000  0.001  0.000  0.604
atom   22   Tr[ns(na)] =   7.96463
    eigenvalues:
  0.639  0.649  0.844  0.879  0.971
    eigenvectors:
  0.000  0.152  0.000  0.000  0.848
  0.999  0.001  0.000  0.000  0.000
  0.000  0.000  0.938  0.062  0.000
  0.001  0.847  0.000  0.000  0.152
  0.000  0.000  0.062  0.938  0.000
    occupations:
  0.922 -0.000  0.000 -0.116 -0.000
 -0.000  0.639  0.000 -0.000 -0.000
  0.000  0.000  0.846 -0.000  0.009
 -0.116 -0.000 -0.000  0.698  0.000
 -0.000 -0.000  0.009  0.000  0.877
atom   23   Tr[ns(na)] =   7.94946
    eigenvalues:
  0.636  0.696  0.814  0.853  0.977
    eigenvectors:
  0.000  0.994  0.000  0.000  0.006
  0.000  0.000  0.000  1.000  0.000
  0.000  0.000  1.000  0.000  0.000
  0.000  0.006  0.000  0.000  0.994
  1.000  0.000  0.000  0.000  0.000
    occupations:
  0.698  0.000 -0.000  0.022 -0.000
  0.000  0.853 -0.000  0.000 -0.000
 -0.000 -0.000  0.814  0.000  0.000
  0.022  0.000  0.000  0.975  0.000
 -0.000 -0.000  0.000  0.000  0.636
N of occupied +U levels =  63.7686521
 --- exit write_ns ---

[...]

          k = 0.2500-0.4833 0.0000 ( 30510 PWs)   bands (ev):

[...]

          k =-0.2500 0.2417 0.0000 ( 30481 PWs)   bands (ev):

   -50.5736 -50.2460 -50.1430 -49.5554 -49.5501 -49.5162 -49.4932 -49.4675
   -49.4453 -49.4313 -49.4292 -49.4116 -49.3511 -49.3424 -49.3287 -49.2297
   -49.2252 -49.1723 -49.1456 -49.1226 -49.1140 -49.1108 -49.1010 -49.0956
   -21.6423 -21.3458 -21.1961 -21.0570 -20.8948 -20.6640 -20.5975 -20.4964
   -20.4030 -20.3612 -20.2313 -20.2228 -20.1571 -20.0682 -20.0519 -19.9698
   -19.2997 -19.2081 -19.1045  -9.8212  -9.7324  -9.5890  -9.3743  -9.0474
    -8.9861  -8.9610  -8.8796  -8.8619  -8.8273  -8.6783  -8.6413  -8.5252
    -8.3607  -8.2482  -8.1701  -8.0650  -8.0049  -7.7340  -7.6672  -7.5232
    -7.4584  -7.3157  -7.1470  -7.0628  -6.8894  -6.7339  -6.6241  -6.5526
    -6.4909  -6.4339  -6.3308  -6.2875  -6.2223  -6.1709  -6.1126  -5.9869
    -5.8604  -5.8224  -5.7231  -5.5132  -5.4837  -5.3384  -5.2028  -5.1335
    -5.0862  -4.8835  -4.8082  -4.7227  -4.6621  -4.5805  -4.4635  -4.2638
    -4.1090  -3.9515  -3.8494  -3.7772  -3.6680  -3.6252  -3.5269  -3.4762
    -3.4016  -3.3432  -3.2532  -3.2284  -3.1954  -3.1176  -3.0869  -2.9737
    -2.8899  -2.5732  -2.4580  -2.3786  -2.2264  -2.1093  -1.9759  -1.9041
    -1.8506  -1.7268  -1.6653  -1.5510  -1.1260  -0.7744  -0.5983  -0.1641
     0.1073   0.2809   0.5338   0.7190   0.9922   1.1435   1.1929   1.3191
     1.4079   1.6135   1.6385   2.0005   3.4787   4.4545   4.6138   5.0804
     5.2896   5.3436   5.4913   6.0815   6.3614   6.4095   6.4632   6.5732
     6.7059   6.8232   6.9661   7.1696   7.3105   7.4710   7.5792   7.7175
     7.8309   7.9717   8.0574   8.1375   8.2601   8.3547   8.4315   8.5329
     8.7605   8.7892   8.8785   8.9943   9.2173   9.3706   9.4554   9.5382
     9.6184   9.7253   9.7787   9.8213   9.9174  10.1055  10.1830  10.2198
    10.3275  10.4233  10.4752  10.5931  10.7045  10.7548  10.8338  10.9015
    10.9598  11.0754  11.1031  11.1687  11.3188  11.4360  11.5052  11.5470
    11.5923  11.7010  11.7358  11.7697  11.8706  11.9996  12.0493  12.1566
    12.2117  12.2356  12.3641  12.4271  12.5051  12.6309  12.6847  12.7582
    12.7956  12.8418  12.9308  12.9846  13.0558  13.0905  13.1437  13.2248
    13.2767  13.3933  13.4797  13.5386  13.6863  13.7402  13.7953  13.8316
    13.9158  14.0618  14.1226  14.1737  14.2252  14.3443  14.3855  14.4815
    14.5674  14.5767  14.7070  14.8040  14.9725  15.1002  15.2325  15.2813
    15.3553  15.4231  15.4965  15.5207  15.5590  15.6229  15.7200  15.7563
    15.8714  15.9439  16.0121  16.0368  16.0951  16.1379  16.2337  16.2963
    16.3660  16.4173  16.4586  16.4782  16.5396  16.6088  16.6606  16.7241
    16.7969  16.8761  16.9997  17.0438  17.1213  17.2121  17.2681  17.3354
    17.3791  17.4785  17.5523  17.5943  17.6286  17.7548  17.8289  17.8501
    17.9042  18.0193  18.0986  18.1427  18.1688  18.2915  18.3123  18.3761
    18.4661  18.5721  18.6587  18.7125  18.7443  18.8327  18.8910  18.9776
    19.0056  19.0498  19.0758  19.1790  19.2194  19.2625  19.3322  19.4625
    19.5232  19.5812  19.6292  19.7112  19.7687  19.8763  20.0139  20.0583
    20.1794  20.2185  20.2642  20.3209  20.4867  20.5455  20.6251  20.6751
    20.6938  20.7707  20.8307  20.8848  20.9276  21.0060  21.0906  21.1967
    21.2536  21.2958  21.3492  21.3770  21.4289  21.5184  21.6738  21.7312
    21.7849  21.8532  21.8871  21.9239  21.9420  22.0111  22.0752  22.1672
    22.1990  22.2976  22.4025  22.4627  22.5008

     the Fermi energy is    -1.9997 ev

!    total energy              =   -1979.89788162 Ry
     Harris-Foulkes estimate   =   -1979.89788163 Ry
     estimated scf accuracy    <          8.7E-09 Ry

     The total energy is the sum of the following terms:

     one-electron contribution =  -23255.47128446 Ry
     hartree contribution      =   11673.04065882 Ry
     xc contribution           =    -371.94241554 Ry
     ewald contribution        =    9974.06263592 Ry
     Hubbard energy            =       0.41267581 Ry
     smearing contrib. (-TS)   =      -0.00015217 Ry

     convergence has been achieved in  17 iterations

     Forces acting on atoms (Ry/au):

     negative rho (up, down):  0.694E+00 0.000E+00
     atom    1 type  1   force =    -0.00731221   -0.01338753    0.00006362
     atom    2 type  1   force =     0.00010099    0.00461743    0.00016299
     atom    3 type  2   force =     0.04047454    0.00644167    0.00063109
     atom    4 type  2   force =     0.00876439    0.00955349    0.00007338
     atom    5 type  1   force =    -0.00174036   -0.03079634    0.00014421
     atom    6 type  1   force =     0.00171448    0.02755811    0.00008103
     atom    7 type  1   force =    -0.00021551   -0.00127829   -0.00063296
     atom    8 type  1   force =    -0.00302266   -0.00106870   -0.00003754
     atom    9 type  2   force =     0.00355375    0.00029880    0.00001918
     atom   10 type  2   force =    -0.00000851   -0.00129931    0.00073815
     atom   11 type  1   force =    -0.00385101    0.00837861   -0.00010802
     atom   12 type  1   force =    -0.00437965   -0.00894735   -0.00014019
     atom   13 type  1   force =    -0.00085812    0.00016297   -0.00041603
     atom   14 type  1   force =    -0.00694537   -0.01341094   -0.00009627
     atom   15 type  1   force =     0.00015791    0.00487761    0.00049547
     atom   16 type  2   force =    -0.04100724    0.00549670    0.00060480
     atom   17 type  2   force =     0.00859213    0.00978675    0.00030106
     atom   18 type  1   force =    -0.00054656   -0.03063400    0.00014266
     atom   19 type  1   force =     0.00260643    0.02782877    0.00007029
     atom   20 type  1   force =    -0.00014080   -0.00445484   -0.00013968
     atom   21 type  1   force =    -0.00299973   -0.00069993   -0.00025425
     atom   22 type  2   force =    -0.00077589    0.00049320   -0.00001440
     atom   23 type  2   force =    -0.00012676    0.00071753   -0.00070552
     atom   24 type  1   force =     0.00362583    0.00842772   -0.00010723
     atom   25 type  1   force =     0.00504509   -0.00905601   -0.00012399
     atom   26 type  1   force =    -0.00082252   -0.00005632   -0.00038249
     atom   27 type  3   force =    -0.00000873    0.00019105    0.00008277
     atom   28 type  3   force =    -0.00001208    0.00008766    0.00015958
     atom   29 type  3   force =     0.00002231    0.00010322   -0.00001427
     atom   30 type  3   force =     0.00012083    0.00012211   -0.00008294
     atom   31 type  1   force =    -0.00000496   -0.00005386   -0.00051447

     Total force =     0.001870     Total SCF correction =     0.000271
     SCF correction compared to forces is large: reduce conv_thr to get better values

     bfgs converged in   4 scf cycles and   3 bfgs steps
     (criteria: energy < 0.10E-03, force < 0.10E-02)

     End of BFGS Geometry Optimization

     Final energy   =   -1979.8978816173 Ry
Begin final coordinates

ATOMIC_POSITIONS (crystal)
O0       0.000000000   0.000000000   0.378042418    0   0   1
O0       0.000000000   0.500000000   0.402145419    0   0   1
Rh1      0.250000000   0.500000000   0.453216872    0   0   1
Rh1      0.000000000   0.000000000   0.452427237    0   0   1
O0       0.250000000   0.810000000   0.452275058    0   0   1
O0       0.250000000   0.190000000   0.452144697    0   0   1
O0       0.000000000   0.500000000   0.498988768    0   0   1
O0       0.000000000   0.000000000   0.527780483    0   0   1
Rh1      0.250000000   0.000000000   0.574993027    0   0   1
Rh1      0.000000000   0.500000000   0.570607994    0   0   1
O0       0.250000000   0.690000000   0.574906600    0   0   1
O0       0.250000000   0.310000000   0.574882532    0   0   1
O0       0.000000000   0.000000000   0.620156447    0   0   1
O0       0.500000000   0.000000000   0.378025132    0   0   1
O0       0.500000000   0.500000000   0.401930933    0   0   1
Rh1      0.750000000   0.500000000   0.453220895    0   0   1
Rh1      0.500000000   0.000000000   0.452373129    0   0   1
O0       0.750000000   0.810000000   0.452255565    0   0   1
O0       0.750000000   0.190000000   0.452163675    0   0   1
O0       0.500000000   0.500000000   0.500952607    0   0   1
O0       0.500000000   0.000000000   0.527626789    0   0   1
Rh1      0.750000000   0.000000000   0.574988302    0   0   1
Rh1      0.500000000   0.500000000   0.579933927    0   0   1
O0       0.750000000   0.690000000   0.574874589    0   0   1
O0       0.750000000   0.310000000   0.574882861    0   0   1
O0       0.500000000   0.000000000   0.620121200    0   0   1
H2      -0.000074665   0.637011765   0.384827556
H2       0.499922204   0.638345117   0.385179601
H2       0.147997151   0.034322728   0.367217904
H2       0.648036882   0.034273750   0.367197033
O0       0.500079328   0.498809891   0.646480751
End final coordinates

     General routines

     Parallel routines
     Hubbard U routines

   This run was terminated on:   8:46:59  30Apr2014

   JOB DONE.
Running PBS batch system epilogue script
Job id: 340537.audhumbla.fysik.dtu.dk
Username: zhonxu
Groupname: campgst
Jobname: RhO2/Eads-2-layers/O-U-1.0
Sessionid: 26543
Queuename: verylong
Accounting:
This job has allocated the following 16 nodes:
a042 a042 a042 a042 a042 a042 a042 a042 a001 a001 a001 a001 a001 a001 a001 a001
Finished epilogue job 340537.audhumbla.fysik.dtu.dk for zhonxu