     Program PWSCF v.5.0.2 (svn rev. 9656) starts on 20Apr2014 at  3: 4:48

     Current dimensions of program PWSCF are:
     Max number of different atomic species (ntypx) = 10
     Max number of k-points (npk) =  40000
     Max angular momentum in pseudopotentials (lmaxx) =  3
     Reading input from pwscf.in
Warning: card &CELL ignored
Warning: card / ignored

     Subspace diagonalization in iterative solution of the eigenvalue problem:
     a serial algorithm will be used

     bravais-lattice index     =            0
     lattice parameter (alat)  =      11.7541  a.u.
     unit-cell volume          =    9749.5977 (a.u.)^3
     number of atoms/cell      =           50
     number of atomic types    =            3
     number of electrons       =       439.00
     number of Kohn-Sham states=          658
     kinetic-energy cutoff     =      40.0000  Ry
     charge density cutoff     =     500.0000  Ry
     convergence threshold     =      1.0E-06
     mixing beta               =       0.3000
     number of iterations used =            8  plain     mixing
     Exchange-correlation      = SLA  PW   PBE  PBE ( 1 4 3 4 0)
     EXX-fraction              =        0.00
     nstep                     =           50

     celldm(1)=  11.754097  celldm(2)=   0.000000  celldm(3)=   0.000000
     celldm(4)=   0.000000  celldm(5)=   0.000000  celldm(6)=   0.000000

     crystal axes: (cart. coord. in units of alat)
               a(1) = (   1.000000   0.000000   0.000000 )
               a(2) = (   0.000000   1.034513   0.000000 )
               a(3) = (   0.000000   0.000000   5.803406 )

     reciprocal axes: (cart. coord. in units 2 pi/alat)
               b(1) = (  1.000000  0.000000  0.000000 )
               b(2) = (  0.000000  0.966638  0.000000 )
               b(3) = (  0.000000  0.000000  0.172313 )

     PseudoPot. # 1 for O  read from file:
     /home/camp/zhonxu/pseudo/o_pbe_v1.01.uspp.F.UPF
     MD5 check sum: 2bcb18d16ea4b960afae9ec6d52f22d2
     Pseudo is Ultrasoft + core correction, Zval =  6.0
     Generated by new atomic code, or converted to UPF format
     Using radial grid of  737 points,  5 beta functions with:
                l(1) =   0
                l(2) =   0
                l(3) =   1
                l(4) =   1
                l(5) =   2
     Q(r) pseudized with  8 coefficients,  rinner =    0.900   0.900   0.900
                                                       0.900   0.900

     PseudoPot. # 2 for Rh read from file:
     /home/camp/zhonxu/pseudo/rh_pbe_v1.uspp.F.UPF
     MD5 check sum: 37b626987ad0dd8ec6bf4cc9ef289918
     Pseudo is Ultrasoft + core correction, Zval = 15.0
     Generated by new atomic code, or converted to UPF format
     Using radial grid of  969 points,  7 beta functions with:
                l(1) =   0
                l(2) =   0
                l(3) =   1
                l(4) =   1
                l(5) =   2
                l(6) =   2
                l(7) =   2
     Q(r) pseudized with  6 coefficients,  rinner =    1.050   1.050   1.050
                                                       1.050   1.050

     PseudoPot. # 3 for H  read from file:
     /home/camp/zhonxu/pseudo/h_pbe_v1.uspp.F.UPF
     MD5 check sum: 3408e3ff4ec8b0a4e358431e7e038a48
     Pseudo is Ultrasoft, Zval =  1.0
     Generated by new atomic code, or converted to UPF format
     Using radial grid of  615 points,  2 beta functions with:
                l(1) =   0
                l(2) =   0
     Q(r) pseudized with  8 coefficients,  rinner =    0.700

     atomic species   valence    mass     pseudopotential
        O0             6.00    15.99940     O ( 1.00)
        Rh1           15.00   102.90550     Rh( 1.00)
        H2             1.00     1.00794     H ( 1.00)

      2 Sym. Ops. (no inversion) found

   Cartesian axes

     site n.     atom                  positions (alat units)
         1           O0  tau(   1) = (   0.0000000   0.5172566   1.9292842  )
         2           Rh1 tau(   2) = (   0.2500000   0.5172566   2.1258455  )
         3           Rh1 tau(   3) = (   0.0000000   0.0000000   2.1258455  )
         4           O0  tau(   4) = (   0.2500000   0.8379556   2.1258455  )
         5           O0  tau(   5) = (   0.2500000   0.1965575   2.1258455  )
         6           O0  tau(   6) = (   0.0000000   0.5172566   2.3223488  )
         7           O0  tau(   7) = (   0.0000000   0.0000000   2.4465417  )
         8           Rh1 tau(   8) = (   0.2500000   0.0000000   2.6431030  )
         9           Rh1 tau(   9) = (   0.0000000   0.5172566   2.6431030  )
        10           O0  tau(  10) = (   0.2500000   0.7138141   2.6431030  )
        11           O0  tau(  11) = (   0.2500000   0.3206991   2.6431030  )
        12           O0  tau(  12) = (   0.0000000   0.0000000   2.8396064  )
        13           O0  tau(  13) = (   0.0000000   0.5172566   2.9573575  )
        14           Rh1 tau(  14) = (   0.2500000   0.5172566   3.1562402  )
        15           Rh1 tau(  15) = (   0.0000000   0.0000000   3.1604767  )
        16           O0  tau(  16) = (   0.2500000   0.8345107   3.1596642  )
        17           O0  tau(  17) = (   0.2500000   0.2000024   3.1596642  )
        18           O0  tau(  18) = (   0.0000000   0.5172566   3.3551809  )
        19           O0  tau(  19) = (   0.0000000   0.0000000   3.4777488  )
        20           Rh1 tau(  20) = (   0.2500000   0.0000000   3.6811582  )
        21           Rh1 tau(  21) = (   0.0000000   0.5172566   3.6632837  )
        22           O0  tau(  22) = (   0.2500000   0.7138554   3.6912561  )
        23           O0  tau(  23) = (   0.2500000   0.3206577   3.6912561  )
        24           O0  tau(  24) = (   0.0000000   0.0000000   3.8739473  )
        25           O0  tau(  25) = (   0.5000000   0.5172566   1.9292842  )
        26           Rh1 tau(  26) = (   0.7500000   0.5172566   2.1258455  )
        27           Rh1 tau(  27) = (   0.5000000   0.0000000   2.1258455  )
        28           O0  tau(  28) = (   0.7500000   0.8379556   2.1258455  )
        29           O0  tau(  29) = (   0.7500000   0.1965575   2.1258455  )
        30           O0  tau(  30) = (   0.5000000   0.5172566   2.3223488  )
        31           O0  tau(  31) = (   0.5000000   0.0000000   2.4465417  )
        32           Rh1 tau(  32) = (   0.7500000   0.0000000   2.6431030  )
        33           Rh1 tau(  33) = (   0.5000000   0.5172566   2.6431030  )
        34           O0  tau(  34) = (   0.7500000   0.7138141   2.6431030  )
        35           O0  tau(  35) = (   0.7500000   0.3206991   2.6431030  )
        36           O0  tau(  36) = (   0.5000000   0.0000000   2.8396064  )
        37           O0  tau(  37) = (   0.5000000   0.5172566   2.9573575  )
        38           Rh1 tau(  38) = (   0.7500000   0.5172566   3.1562402  )
        39           Rh1 tau(  39) = (   0.5000000   0.0000000   3.1604767  )
        40           O0  tau(  40) = (   0.7500000   0.8345107   3.1596642  )
        41           O0  tau(  41) = (   0.7500000   0.2000024   3.1596642  )
        42           O0  tau(  42) = (   0.5000000   0.5172566   3.3551809  )
        43           O0  tau(  43) = (   0.5000000   0.0000000   3.4777488  )
        44           Rh1 tau(  44) = (   0.7500000   0.0000000   3.6811582  )
        45           Rh1 tau(  45) = (   0.5000000   0.5172566   3.6632837  )
        46           O0  tau(  46) = (   0.7500000   0.7138554   3.6912561  )
        47           O0  tau(  47) = (   0.7500000   0.3206577   3.6912561  )
        48           O0  tau(  48) = (   0.5000000   0.0000000   3.8739473  )
        49           O0  tau(  49) = (   0.5151300   0.5172566   3.9759712  )
        50           H2  tau(  50) = (   0.3680500   0.5172566   4.0345276  )

     number of k points=     9  Methfessel-Paxton smearing, width (Ry)=  0.0100
                       cart. coord. in units 2pi/alat
        k(    1) = (   0.0000000   0.0000000   0.0000000), wk =   0.1250000
        k(    2) = (   0.0000000   0.2416596   0.0000000), wk =   0.2500000
        k(    3) = (   0.0000000  -0.4833191   0.0000000), wk =   0.1250000
        k(    4) = (   0.2500000   0.0000000   0.0000000), wk =   0.2500000
        k(    5) = (   0.2500000   0.2416596   0.0000000), wk =   0.5000000
        k(    6) = (   0.2500000  -0.4833191   0.0000000), wk =   0.2500000
        k(    7) = (  -0.5000000   0.0000000   0.0000000), wk =   0.1250000
        k(    8) = (  -0.5000000   0.2416596   0.0000000), wk =   0.2500000
        k(    9) = (  -0.5000000  -0.4833191   0.0000000), wk =   0.1250000

     Largest allocated arrays     est. size (Mb)     dimensions
     Largest temporary arrays     est. size (Mb)     dimensions

     Check: negative/imaginary core charge=   -0.000003    0.000000

     Initial potential from superposition of free atoms
     Check: negative starting charge=   -1.286916

     starting charge  430.99837, renormalised to  439.00000

     negative rho (up, down):  0.131E+01 0.000E+00
     Starting wfc are  325 randomized atomic wfcs

     Self-consistent Calculation

     iteration #  1     ecut=    40.00 Ry     beta=0.30
     Davidson diagonalization with overlap
     ethr =  1.00E-02,  avg # of iterations =  5.9

     negative rho (up, down):  0.133E+01 0.000E+00

     total energy              =   -3708.50603693 Ry
     Harris-Foulkes estimate   =   -3798.54519917 Ry
     estimated scf accuracy    <     180.29045571 Ry

[...]

     iteration # 21     ecut=    40.00 Ry     beta=0.30
     Davidson diagonalization with overlap
     c_bands:  1 eigenvalues not converged
     ethr =  2.50E-06,  avg # of iterations =  7.9

[...]

     End of self-consistent calculation

          k = 0.0000 0.0000 0.0000 ( 41643 PWs)   bands (ev):

   -47.8764 -47.8763 -47.8601 -47.8574 -47.8570 -47.8479 -47.8411 -47.8261
   -47.8112 -47.8057 -47.7991 -47.7982 -47.7973 -47.7958 -47.7852 -47.7851
   -47.7680 -47.7605 -47.7402 -47.7363 -47.7268 -47.6915 -47.6869 -47.6785
   -47.6781 -47.6771 -47.6739 -47.6613 -47.6591 -47.6526 -47.6291 -47.6267
   -47.6146 -47.6061 -47.5822 -47.5642 -47.5411 -47.5229 -47.4974 -47.4588
   -47.4481 -47.3999 -47.3867 -47.3825 -47.3592 -47.2950 -47.2776 -47.2759
   -19.8778 -19.6418 -19.4019 -19.3049 -19.2547 -19.0168 -18.9745 -18.7895
   -18.7150 -18.6643 -18.6281 -18.6267 -18.5829 -18.5813 -18.5602 -18.5502
   -18.5215 -18.5136 -18.4777 -18.3954 -18.3895 -18.3008 -18.2580 -18.2346
   -18.2102 -18.1102 -18.0713 -18.0131 -17.9530 -17.2418 -17.1411 -17.1396
   -17.0521  -8.2953  -8.2727  -8.2279  -8.1462  -8.0668  -7.9814  -7.3043
    -7.2063  -7.0904  -7.0527  -7.0194  -7.0174  -6.9778  -6.9153  -6.9100
    -6.8946  -6.8691  -6.8036  -6.7886  -6.7813  -6.7485  -6.7399  -6.6827
    -6.6734  -6.6620  -6.4937  -6.4691  -6.4464  -6.4353  -6.3535  -6.2973
    -6.2028  -6.2006  -6.1760  -6.1652  -6.0260  -5.9695  -5.7776  -5.6248
    -5.5091  -5.3946  -5.3605  -5.0089  -4.9372  -4.9013  -4.8931  -4.8718
    -4.8462  -4.7906  -4.7492  -4.7219  -4.5275  -4.4650  -4.4339  -4.3706
    -4.3287  -4.3050  -4.2743  -4.1161  -4.0950  -4.0729  -3.8900  -3.8450
    -3.7780  -3.7388  -3.7256  -3.6828  -3.6388  -3.6236  -3.6197  -3.5545
[...]
Rh1      0.000000000   0.500000000   0.455440000    0   0   0
O0       0.250000000   0.690000000   0.455440000    0   0   0
O0       0.250000000   0.310000000   0.455440000    0   0   0
O0       0.000000000   0.000000000   0.489300000    0   0   0
O0       0.000104701   0.500000000   0.510053331
Rh1      0.252598228   0.500000000   0.544162101
Rh1      0.000177050   0.000000000   0.544456697
O0       0.250416062   0.806911015   0.544267064
O0       0.250416062   0.193088985   0.544267064
O0       0.000347742   0.500000000   0.577796032
O0       0.000602548   0.000000000   0.599118413
Rh1      0.249921147   0.000000000   0.634077862
Rh1     -0.001646769   0.500000000   0.630516619
O0       0.246778865   0.691162810   0.634999431
O0       0.246778865   0.308837190   0.634999431
O0       0.000007993   0.000000000   0.667430270
O0       0.500000000   0.500000000   0.332440000    0   0   0
Rh1      0.750000000   0.500000000   0.366310000    0   0   0
Rh1      0.500000000   0.000000000   0.366310000    0   0   0
O0       0.750000000   0.810000000   0.366310000    0   0   0
O0       0.750000000   0.190000000   0.366310000    0   0   0
O0       0.500000000   0.500000000   0.400170000    0   0   0
O0       0.500000000   0.000000000   0.421570000    0   0   0
Rh1      0.750000000   0.000000000   0.455440000    0   0   0
Rh1      0.500000000   0.500000000   0.455440000    0   0   0
O0       0.750000000   0.690000000   0.455440000    0   0   0
O0       0.750000000   0.310000000   0.455440000    0   0   0
O0       0.500000000   0.000000000   0.489300000    0   0   0
O0       0.500155262   0.500000000   0.509762667
Rh1      0.747588346   0.500000000   0.544181877
Rh1      0.500119613   0.000000000   0.544467476
O0       0.749875544   0.806864933   0.544374037
O0       0.749875544   0.193135067   0.544374037
O0       0.499583737   0.500000000   0.578904950
O0       0.499653935   0.000000000   0.598963056
Rh1      0.750257213   0.000000000   0.634004800
Rh1      0.499271564   0.500000000   0.634536944
O0       0.751577264   0.692167046   0.634025885
O0       0.751577264   0.307832954   0.634025885
O0       0.500097937   0.000000000   0.667082635
O0       0.516210479   0.500000000   0.687837736
H2       0.369754912   0.500000000   0.698231072

     Check: negative starting charge=   -1.288058
     NEW-OLD atomic charge density approx. for the potential

     Check: negative/imaginary core charge=   -0.000003    0.000000
     Check: negative starting charge=   -1.288053

[...]

     Self-consistent Calculation

[...]

     Threshold (ethr) on eigenvalues was too large:
     Diagonalizing with lowered threshold

     Davidson diagonalization with overlap
     ethr =  3.74E-08,  avg # of iterations =  2.3

[...]

     iteration #  2     ecut=    40.00 Ry     beta=0.30
     Davidson diagonalization with overlap
     c_bands:  5 eigenvalues not converged
     ethr =  3.74E-08,  avg # of iterations =  5.1

[...]

     total energy              =   -3791.51494553 Ry
     Harris-Foulkes estimate   =   -3791.51494553 Ry
     estimated scf accuracy    <       0.00000002 Ry

     iteration # 20     ecut=    40.00 Ry     beta=0.30
     Davidson diagonalization with overlap
     ethr =  4.46E-12,  avg # of iterations =  1.0

     negative rho (up, down):  0.138E+01 0.000E+00

     End of self-consistent calculation

[...]

          k = 0.2500-0.4833 0.0000 ( 41698 PWs)   bands (ev):

[...]

          k =-0.5000-0.4833 0.0000 ( 41672 PWs)   bands (ev):

   -47.8140 -47.8116 -47.8057 -47.8025 -47.7815 -47.7797 -47.7763 -47.7701
   -47.7697 -47.7691 -47.7647 -47.7565 -47.7562 -47.7515 -47.7500 -47.7398
   -47.7386 -47.7325 -47.7293 -47.7110 -47.7056 -47.6681 -47.6426 -47.6385
   -47.6376 -47.6311 -47.6238 -47.6136 -47.6136 -47.6039 -47.5941 -47.5863
   -47.5825 -47.5810 -47.5771 -47.5761 -47.5759 -47.5123 -47.5096 -47.4115
   -47.4044 -47.3986 -47.3629 -47.3597 -47.3484 -47.3482 -47.2436 -47.2381
   -19.2513 -19.1133 -19.1087 -19.0945 -18.8896 -18.8654 -18.8399 -18.8373
   -18.6916 -18.6803 -18.6772 -18.6568 -18.6054 -18.5922 -18.5707 -18.5611
   -18.5195 -18.4630 -18.4485 -18.4447 -18.4116 -18.4083 -18.3967 -18.3839
   -18.3114 -18.2727 -18.2491 -18.2286 -18.2223 -17.2720 -17.1867 -17.1304
   -17.1215  -7.4562  -7.4018  -7.3513  -7.3451  -7.0538  -6.9471  -6.9261
    -6.9253  -6.9210  -6.9054  -6.8989  -6.8896  -6.8627  -6.8085  -6.8074
    -6.7622  -6.6233  -6.5988  -6.5659  -6.5509  -6.4686  -6.4633  -6.4407
    -6.4132  -6.3822  -6.3574  -6.3482  -6.3466  -6.2438  -6.1149  -6.0689
    -6.0500  -6.0334  -5.9991  -5.9501  -5.9486  -5.8869  -5.8735  -5.8709
    -5.8700  -5.6287  -5.4424  -5.3888  -5.3805  -5.3642  -5.1918  -5.1888
    -5.1882  -5.1235  -4.8275  -4.8031  -4.7936  -4.7449  -4.6948  -4.6650
    -4.6477  -4.6444  -4.6235  -4.6229  -4.6012  -4.5764  -4.5504  -4.5426
    -4.5038  -4.4557  -4.3239  -4.2984  -4.2507  -4.2456  -4.1934  -4.1910
    -4.1876  -4.1080  -3.9606  -3.8899  -3.8543  -3.8271  -3.2963  -3.2177
    -3.1783  -3.1603  -3.0464  -2.9802  -2.9785  -2.9653  -2.9335  -2.8161
    -2.8147  -2.7199  -2.6780  -2.6740  -2.6524  -2.6411  -2.4533  -2.3598
    -2.3093  -2.2377  -2.1422  -1.7635  -1.7425  -1.6876  -1.6773  -1.6105
    -1.4733  -1.4462  -1.4363  -1.4175  -1.4058  -1.3563  -1.2817  -1.2317
    -1.1326  -1.1302  -1.1110  -1.0894  -0.9463  -0.8227  -0.8192  -0.8178
    -0.8068  -0.7237  -0.7226  -0.6998  -0.5102  -0.4483  -0.4467  -0.4454
    -0.4417  -0.4146  -0.3452  -0.3143  -0.3122  -0.3085  -0.2555  -0.1829
    -0.1753  -0.1606  -0.1489  -0.1228  -0.1148  -0.0641  -0.0615  -0.0505
    -0.0350  -0.0109   0.0465   0.1005   0.7306   0.7369   1.0303   1.3898
     1.4604   1.4741   1.4882   1.4963   1.5998   1.6428   1.6448   1.8409
     1.9066   1.9131   1.9225   2.4230   2.6916   2.6926   2.7080   2.9383
     3.0237   3.0735   3.0880   3.2773   3.4201   3.4645   3.4704   3.5680
     3.6702   3.7042   3.7214   3.7415   6.2023   6.2868   6.2873   7.4533
     7.6075   7.6081   7.7124   7.8009   7.8382   7.9020   7.9281   7.9299
     8.1400   8.1594   8.2147   8.2409   8.5140   8.5347   8.6153   8.6390
     8.9262   8.9597   8.9737   9.0087   9.0388   9.0475   9.1305   9.1322
     9.5774   9.6147   9.6312   9.6407   9.7266   9.7461   9.8069   9.8303
    10.3677  10.4237  10.4430  10.4442  10.5429  10.5940  10.6110  10.6929
    11.2206  11.2477  11.3445  11.3941  11.6474  11.6554  11.6861  11.7613
    12.1185  12.1660  12.2012  12.3295  12.5702  12.5737  12.5739  12.5947
    12.6809  12.8291  12.8437  12.9181  12.9499  13.0440  13.0695  13.0999
    13.1249  13.1854  13.1983  13.3364  13.3657  13.4158  13.5006  13.5636
    13.6059  13.6731  13.7468  13.8121  13.9233  13.9458  13.9692  14.0458
    14.0513  14.2013  14.2099  14.2937  14.3041  14.3281  14.3955  14.4116
    14.5087  14.5286  14.5404  14.5926  14.5986  14.6380  14.6686  14.9807
    14.9814  14.9979  15.0599  15.0703  15.0945  15.1038  15.1073  15.1332
    15.2066  15.2217  15.2437  15.3111  15.3625  15.3861  15.3980  15.4025
    15.4099  15.4577  15.4800  15.4924  15.5465  15.5602  15.5617  15.5825
    15.5891  15.6121  15.6140  15.6624  15.8047  15.8448  15.8502  15.8580
    15.8685  15.8894  15.9390  15.9520  16.0174  16.0357  16.0778  16.1044
    16.1271  16.1528  16.1710  16.1818  16.2318  16.2508  16.2931  16.3225
    16.4290  16.4367  16.4566  16.4598  16.5926  16.6766  16.7276  16.7351
    16.8457  16.8677  16.9000  16.9176  16.9532  17.0129  17.0666  17.1111
    17.1152  17.1357  17.1972  17.2014  17.2785  17.4194  17.4370  17.4472
    17.4993  17.5446  17.6409  17.6857  17.7491  17.7551  17.7602  17.7759
    17.8009  17.8747  17.9063  17.9301  18.0127  18.0499  18.0628  18.0953
    18.2062  18.2443  18.2819  18.3325  18.3590  18.4291  18.4754  18.4998
    18.5380  18.5484  18.6996  18.7664  18.8451  18.8883  18.8915  18.9355
    19.0664  19.1158  19.1411  19.2149  19.4442  19.4662  19.5884  19.6090
    19.6665  19.6675  19.6920  19.7095  19.8638  19.8868  19.9062  19.9081
[...]
    23.5495  23.5686  23.6061  23.6132  23.6541  23.7128  23.7256  23.7835
    23.7915  23.8594  23.8640  23.9026  23.9494  23.9762  23.9900  24.0072
    24.0818  24.1746  24.2137  24.2256  24.2678  24.3104  24.3136  24.3361
    24.4293  24.4418  24.4769  24.4880  24.5488  24.5655  24.6005  24.7164
    24.7314  24.7592  24.7637  24.8070  24.8325  24.8516  24.8769  24.8780
    24.9519  25.0824  25.1390  25.1652  25.2037  25.2377  25.2535  25.2953
    25.3658  25.4959  25.5051  25.5341  25.5385  25.5937  25.5943  25.6804
    25.7056  25.7537  25.8744  25.8934  25.9592  25.9640  25.9980  26.1557
    26.1698  26.2249  26.2556  26.2611  26.3309  26.3647  26.4380  26.4509
    26.5470  26.6276  26.6972  26.7139  26.7153  26.7817  26.8007  26.8093
    26.8396  26.8523  26.8962  26.9527  27.0186  27.0264  27.0575  27.0955
    27.1340  27.1797  27.2532  27.2705  27.3037  27.4212  27.4439  27.4858
    27.4987  27.5726  27.5796  27.5822  27.7027  27.7169  27.7702  27.7751
    27.9261  27.9334  28.0286  28.0321  28.1110  28.2181  28.2241  28.2255
    28.2280  28.2288

     the Fermi energy is     0.0145 ev

!    total energy              =   -3791.51494553 Ry
     Harris-Foulkes estimate   =   -3791.51494553 Ry
     estimated scf accuracy    <          5.1E-09 Ry

     The total energy is the sum of the following terms:

     one-electron contribution =  -80622.11070475 Ry
     hartree contribution      =   40418.97656551 Ry
     xc contribution           =    -703.60120443 Ry
     ewald contribution        =   37115.22074393 Ry
     smearing contrib. (-TS)   =      -0.00034580 Ry

     convergence has been achieved in  20 iterations

     Forces acting on atoms (Ry/au):

     negative rho (up, down):  0.138E+01 0.000E+00
     atom    1 type  1   force =    -0.00001018    0.00000000    0.01165837
     atom    2 type  2   force =    -0.00075545    0.00000000   -0.02520991
     atom    3 type  2   force =     0.00003047    0.00000000    0.07676571
     atom    4 type  1   force =     0.00009938   -0.01182534   -0.02801281
     atom    5 type  1   force =     0.00009938    0.01182534   -0.02801281
     atom    6 type  1   force =    -0.00001472    0.00000000    0.02372303
     atom    7 type  1   force =     0.00006627    0.00000000   -0.02614480
     atom    8 type  2   force =     0.00028247    0.00000000   -0.01204571
     atom    9 type  2   force =     0.00003226    0.00000000   -0.01465541
     atom   10 type  1   force =    -0.00047749    0.02092455   -0.00260634
     atom   11 type  1   force =    -0.00047749   -0.02092455   -0.00260634
     atom   12 type  1   force =    -0.00011343    0.00000000    0.02671904
     atom   13 type  1   force =    -0.00016223    0.00000000    0.00036745
     atom   14 type  2   force =    -0.00019129    0.00000000    0.00014360
     atom   15 type  2   force =    -0.00007682    0.00000000    0.00031150
     atom   16 type  1   force =    -0.00007772    0.00006533    0.00019544
     atom   17 type  1   force =    -0.00007772   -0.00006533    0.00019544
     atom   18 type  1   force =    -0.00004449    0.00000000    0.00021382
     atom   19 type  1   force =    -0.00030166    0.00000000    0.00023310
     atom   20 type  2   force =    -0.00036425    0.00000000    0.00028556
     atom   21 type  2   force =     0.00054495    0.00000000   -0.00004935
     atom   22 type  1   force =    -0.00011906    0.00014393    0.00028386
     atom   23 type  1   force =    -0.00011906   -0.00014393    0.00028386
     atom   24 type  1   force =    -0.00052367    0.00000000   -0.00007617
     atom   25 type  1   force =    -0.00000011    0.00000000    0.01221474
     atom   26 type  2   force =     0.00077024    0.00000000   -0.02522401
     atom   27 type  2   force =    -0.00003126    0.00000000    0.07626372
     atom   28 type  1   force =    -0.00009659   -0.01184895   -0.02796598
     atom   29 type  1   force =    -0.00009659    0.01184895   -0.02796598
     atom   30 type  1   force =    -0.00003539    0.00000000    0.02682728
     atom   31 type  1   force =     0.00001514    0.00000000   -0.02711740
     atom   32 type  2   force =    -0.00047939    0.00000000   -0.01198505
     atom   33 type  2   force =     0.00013404    0.00000000   -0.01919537
     atom   34 type  1   force =     0.00052802    0.02090231   -0.00260194
     atom   35 type  1   force =     0.00052802   -0.02090231   -0.00260194
     atom   36 type  1   force =     0.00046562    0.00000000    0.02685007
     atom   37 type  1   force =    -0.00014659    0.00000000   -0.00011965
     atom   38 type  2   force =    -0.00013065    0.00000000    0.00017158
     atom   39 type  2   force =    -0.00007895    0.00000000    0.00005738
     atom   40 type  1   force =    -0.00009497    0.00005769    0.00006457
     atom   41 type  1   force =    -0.00009497   -0.00005769    0.00006457
     atom   42 type  1   force =    -0.00007849    0.00000000    0.00010163
     atom   43 type  1   force =    -0.00032827    0.00000000    0.00021392
     atom   44 type  2   force =    -0.00029472    0.00000000    0.00021430
     atom   45 type  2   force =     0.00043237    0.00000000   -0.00058587
     atom   46 type  1   force =     0.00066554    0.00021631   -0.00027362
     atom   47 type  1   force =     0.00066554   -0.00021631   -0.00027362
     atom   48 type  1   force =    -0.00033850    0.00000000    0.00065548
     atom   49 type  1   force =     0.00015052    0.00000000   -0.00009728
     atom   50 type  3   force =     0.00072194    0.00000000    0.00034831

     Total force =     0.002223     Total SCF correction =     0.000138

     bfgs converged in  17 scf cycles and  16 bfgs steps
     (criteria: energy < 0.10E-03, force < 0.10E-02)

     End of BFGS Geometry Optimization

     Final energy   =   -3791.5149455283 Ry
Begin final coordinates

ATOMIC_POSITIONS (crystal)
O0       0.000000000   0.500000000   0.332440000    0   0   0
Rh1      0.250000000   0.500000000   0.366310000    0   0   0
Rh1      0.000000000   0.000000000   0.366310000    0   0   0
O0       0.250000000   0.810000000   0.366310000    0   0   0
O0       0.250000000   0.190000000   0.366310000    0   0   0
O0       0.000000000   0.500000000   0.400170000    0   0   0
O0       0.000000000   0.000000000   0.421570000    0   0   0
Rh1      0.250000000   0.000000000   0.455440000    0   0   0
Rh1      0.000000000   0.500000000   0.455440000    0   0   0
O0       0.250000000   0.690000000   0.455440000    0   0   0
O0       0.250000000   0.310000000   0.455440000    0   0   0
O0       0.000000000   0.000000000   0.489300000    0   0   0
O0       0.000104701   0.500000000   0.510053331
Rh1      0.252598228   0.500000000   0.544162101
Rh1      0.000177050   0.000000000   0.544456697
O0       0.250416062   0.806911015   0.544267064
O0       0.250416062   0.193088985   0.544267064
O0       0.000347742   0.500000000   0.577796032
O0       0.000602548   0.000000000   0.599118413
Rh1      0.249921147   0.000000000   0.634077862
Rh1     -0.001646769   0.500000000   0.630516619
O0       0.246778865   0.691162810   0.634999431
O0       0.246778865   0.308837190   0.634999431
O0       0.000007993   0.000000000   0.667430270
O0       0.500000000   0.500000000   0.332440000    0   0   0
Rh1      0.750000000   0.500000000   0.366310000    0   0   0
Rh1      0.500000000   0.000000000   0.366310000    0   0   0
O0       0.750000000   0.810000000   0.366310000    0   0   0
O0       0.750000000   0.190000000   0.366310000    0   0   0
O0       0.500000000   0.500000000   0.400170000    0   0   0
O0       0.500000000   0.000000000   0.421570000    0   0   0
Rh1      0.750000000   0.000000000   0.455440000    0   0   0
Rh1      0.500000000   0.500000000   0.455440000    0   0   0
O0       0.750000000   0.690000000   0.455440000    0   0   0
O0       0.750000000   0.310000000   0.455440000    0   0   0
O0       0.500000000   0.000000000   0.489300000    0   0   0
O0       0.500155262   0.500000000   0.509762667
Rh1      0.747588346   0.500000000   0.544181877
Rh1      0.500119613   0.000000000   0.544467476
O0       0.749875544   0.806864933   0.544374037
O0       0.749875544   0.193135067   0.544374037
O0       0.499583737   0.500000000   0.578904950
O0       0.499653935   0.000000000   0.598963056
Rh1      0.750257213   0.000000000   0.634004800
Rh1      0.499271564   0.500000000   0.634536944
O0       0.751577264   0.692167046   0.634025885
O0       0.751577264   0.307832954   0.634025885
O0       0.500097937   0.000000000   0.667082635
O0       0.516210479   0.500000000   0.687837736
H2       0.369754912   0.500000000   0.698231072
End final coordinates

     General routines

     Parallel routines

   This run was terminated on:  14:28:59  21Apr2014

   JOB DONE.