     Program PWSCF v.5.0.2 (svn rev. 9656) starts on 27Apr2014 at  8:13:39

     Current dimensions of program PWSCF are:
     Max number of different atomic species (ntypx) = 10
     Max number of k-points (npk) =  40000
     Max angular momentum in pseudopotentials (lmaxx) =  3
     Reading input from pwscf.in
Warning: card &CELL ignored
Warning: card / ignored

     Subspace diagonalization in iterative solution of the eigenvalue problem:
     a serial algorithm will be used

     bravais-lattice index     =            0
     lattice parameter (alat)  =      11.7919  a.u.
     unit-cell volume          =    7123.6633 (a.u.)^3
     number of atoms/cell      =           32
     number of atomic types    =            3
     number of electrons       =       247.00
     number of Kohn-Sham states=          358
     kinetic-energy cutoff     =      40.0000  Ry
     charge density cutoff     =     500.0000  Ry
     convergence threshold     =      1.0E-06
     mixing beta               =       0.7000
     number of iterations used =            8  plain     mixing
     Exchange-correlation      = SLA  PW   PBE  PBE ( 1 4 3 4 0)
     EXX-fraction              =        0.00
     nstep                     =           50

     celldm(1)=  11.791891  celldm(2)=   0.000000  celldm(3)=   0.000000
     celldm(4)=   0.000000  celldm(5)=   0.000000  celldm(6)=   0.000000

     crystal axes: (cart. coord. in units of alat)
               a(1) = (   1.000000   0.000000   0.000000 )
               a(2) = (   0.000000   1.026665   0.000000 )
               a(3) = (   0.000000   0.000000   4.231793 )

     reciprocal axes: (cart. coord. in units 2 pi/alat)
               b(1) = (  1.000000  0.000000  0.000000 )
               b(2) = (  0.000000  0.974028  0.000000 )
               b(3) = (  0.000000  0.000000  0.236306 )

     PseudoPot. # 1 for O  read from file:
     /home/camp/zhonxu/pseudo/o_pbe_v1.01.uspp.F.UPF
     MD5 check sum: 2bcb18d16ea4b960afae9ec6d52f22d2
     Pseudo is Ultrasoft + core correction, Zval =  6.0
     Generated by new atomic code, or converted to UPF format
     Using radial grid of  737 points,  5 beta functions with:
                l(1) =   0
                l(2) =   0
                l(3) =   1
                l(4) =   1
                l(5) =   2
     Q(r) pseudized with  8 coefficients,  rinner =    0.900   0.900   0.900
                                                       0.900   0.900

     PseudoPot. # 2 for Ru read from file:
     /home/camp/zhonxu/pseudo/ru_pbe_v1.uspp.F.UPF
     MD5 check sum: df00be1c11b23341d9806d8f1dfa10cf
     Pseudo is Ultrasoft + core correction, Zval = 16.0
     Generated by new atomic code, or converted to UPF format
     Using radial grid of  967 points,  6 beta functions with:
                l(1) =   0
                l(2) =   0
                l(3) =   1
                l(4) =   1
                l(5) =   2
                l(6) =   2
     Q(r) pseudized with  8 coefficients,  rinner =    1.300   1.300   1.300
                                                       1.300   1.300

     PseudoPot. # 3 for H  read from file:
     /home/camp/zhonxu/pseudo/h_pbe_v1.uspp.F.UPF
     MD5 check sum: 3408e3ff4ec8b0a4e358431e7e038a48
     Pseudo is Ultrasoft, Zval =  1.0
     Generated by new atomic code, or converted to UPF format
     Using radial grid of  615 points,  2 beta functions with:
                l(1) =   0
                l(2) =   0
     Q(r) pseudized with  8 coefficients,  rinner =    0.700

     atomic species   valence    mass     pseudopotential
        O0             6.00    15.99940     O ( 1.00)
        Ru1           16.00   101.07000     Ru( 1.00)
        H2             1.00     1.00794     H ( 1.00)

     Simplified LDA+U calculation (l_max = 2) with parameters (eV):
     atomic species    L          U    alpha       J0     beta
        Ru1            2     5.5000   0.0000   0.0000   0.0000

     No symmetry found

   Cartesian axes

     site n.     atom                  positions (alat units)
         1           O0  tau(   1) = (   0.0000000   0.0000000   1.6035109  )
         2           O0  tau(   2) = (   0.0000000   0.5133323   1.7058780  )
         3           Ru1 tau(   3) = (   0.2500000   0.5133323   1.9200491  )
         4           Ru1 tau(   4) = (   0.0000000   0.0000000   1.9171714  )
         5           O0  tau(   5) = (   0.2500000   0.8315984   1.9169175  )
         6           O0  tau(   6) = (   0.2500000   0.1950663   1.9164520  )
         7           O0  tau(   7) = (   0.0000000   0.5133323   2.1053593  )
         8           O0  tau(   8) = (   0.0000000   0.0000000   2.2310435  )
         9           Ru1 tau(   9) = (   0.2500000   0.0000000   2.4441566  )
        10           Ru1 tau(  10) = (   0.0000000   0.5133323   2.4052664  )
        11           O0  tau(  11) = (   0.2500000   0.7083986   2.4364547  )
        12           O0  tau(  12) = (   0.2500000   0.3182660   2.4361585  )
        13           O0  tau(  13) = (   0.0000000   0.0000000   2.6233307  )
        14           O0  tau(  14) = (   0.5000000   0.0000000   1.6045689  )
        15           O0  tau(  15) = (   0.5000000   0.5133323   1.7057934  )
        16           Ru1 tau(  16) = (   0.7500000   0.5133323   1.9200914  )
        17           Ru1 tau(  17) = (   0.5000000   0.0000000   1.9176369  )
        18           O0  tau(  18) = (   0.7500000   0.8315984   1.9167059  )
        19           O0  tau(  19) = (   0.7500000   0.1950663   1.9164520  )
        20           O0  tau(  20) = (   0.5000000   0.5133323   2.1229635  )
        21           O0  tau(  21) = (   0.5000000   0.0000000   2.2303664  )
        22           Ru1 tau(  22) = (   0.7500000   0.0000000   2.4441143  )
        23           Ru1 tau(  23) = (   0.5000000   0.5133323   2.4370472  )
        24           O0  tau(  24) = (   0.7500000   0.7083986   2.4343812  )
        25           O0  tau(  25) = (   0.7500000   0.3182660   2.4338310  )
        26           O0  tau(  26) = (   0.5000000   0.0000000   2.6134283  )
        27           H2  tau(  27) = (  -0.0002400   0.6455975   1.6183222  )
        28           H2  tau(  28) = (   0.4995500   0.6408954   1.6119322  )
        29           H2  tau(  29) = (   0.1457200   0.0328533   1.5514599  )
        30           H2  tau(  30) = (   0.6465200   0.0301223   1.5527294  )
        31           O0  tau(  31) = (   0.5138700   0.5107965   2.7447408  )
        32           H2  tau(  32) = (   0.3716000   0.5093694   2.8125765  )

     number of k points=    10  Methfessel-Paxton smearing, width (Ry)=  0.0100
                       cart. coord. in units 2pi/alat
        k(    1) = (   0.0000000   0.0000000   0.0000000), wk =   0.1250000
        k(    2) = (   0.0000000   0.2435070   0.0000000), wk =   0.2500000
        k(    3) = (   0.0000000  -0.4870139   0.0000000), wk =   0.1250000
        k(    4) = (   0.2500000   0.0000000   0.0000000), wk =   0.2500000
        k(    5) = (   0.2500000   0.2435070   0.0000000), wk =   0.2500000
        k(    6) = (   0.2500000  -0.4870139   0.0000000), wk =   0.2500000
        k(    7) = (  -0.5000000   0.0000000   0.0000000), wk =   0.1250000
        k(    8) = (  -0.5000000   0.2435070   0.0000000), wk =   0.2500000
        k(    9) = (  -0.5000000  -0.4870139   0.0000000), wk =   0.1250000
        k(   10) = (  -0.2500000   0.2435070   0.0000000), wk =   0.2500000

     Largest allocated arrays     est. size (Mb)     dimensions
     Largest temporary arrays     est. size (Mb)     dimensions

     Check: negative/imaginary core charge=   -0.000003    0.000000

     Initial potential from superposition of free atoms
     Check: negative starting charge=   -0.522051

     starting charge  238.99980, renormalised to  247.00000

     negative rho (up, down):  0.540E+00 0.000E+00
     Number of +U iterations with fixed ns =  0
     Starting occupations:
 --- enter write_ns ---
 LDA+U parameters:
U( 2)     =  5.50000000
alpha( 2) =  0.00000000
atom    3   Tr[ns(na)] =   6.00000
    eigenvalues:
  0.600  0.600  0.600  0.600  0.600
    eigenvectors:
  1.000  0.000  0.000  0.000  0.000
  0.000  1.000  0.000  0.000  0.000
  0.000  0.000  1.000  0.000  0.000
  0.000  0.000  0.000  1.000  0.000
  0.000  0.000  0.000  0.000  1.000
    occupations:
  0.600  0.000  0.000  0.000  0.000
  0.000  0.600  0.000  0.000  0.000
  0.000  0.000  0.600  0.000  0.000
  0.000  0.000  0.000  0.600  0.000
  0.000  0.000  0.000  0.000  0.600
atom    4   Tr[ns(na)] =   6.00000
    eigenvalues:
  0.600  0.600  0.600  0.600  0.600
    eigenvectors:
  1.000  0.000  0.000  0.000  0.000
  0.000  1.000  0.000  0.000  0.000
  0.000  0.000  1.000  0.000  0.000
  0.000  0.000  0.000  1.000  0.000
  0.000  0.000  0.000  0.000  1.000
    occupations:
  0.600  0.000  0.000  0.000  0.000
  0.000  0.600  0.000  0.000  0.000
  0.000  0.000  0.600  0.000  0.000
  0.000  0.000  0.000  0.600  0.000
  0.000  0.000  0.000  0.000  0.600
atom    9   Tr[ns(na)] =   6.00000
    eigenvalues:
  0.600  0.600  0.600  0.600  0.600
    eigenvectors:
  1.000  0.000  0.000  0.000  0.000
  0.000  1.000  0.000  0.000  0.000
  0.000  0.000  1.000  0.000  0.000
  0.000  0.000  0.000  1.000  0.000
  0.000  0.000  0.000  0.000  1.000
    occupations:
  0.600  0.000  0.000  0.000  0.000
  0.000  0.600  0.000  0.000  0.000
  0.000  0.000  0.600  0.000  0.000
  0.000  0.000  0.000  0.600  0.000
  0.000  0.000  0.000  0.000  0.600
atom   10   Tr[ns(na)] =   6.00000
    eigenvalues:
  0.600  0.600  0.600  0.600  0.600
    eigenvectors:
  1.000  0.000  0.000  0.000  0.000
  0.000  1.000  0.000  0.000  0.000
  0.000  0.000  1.000  0.000  0.000
  0.000  0.000  0.000  1.000  0.000
  0.000  0.000  0.000  0.000  1.000
    occupations:
  0.600  0.000  0.000  0.000  0.000
  0.000  0.600  0.000  0.000  0.000
  0.000  0.000  0.600  0.000  0.000
  0.000  0.000  0.000  0.600  0.000
  0.000  0.000  0.000  0.000  0.600
atom   16   Tr[ns(na)] =   6.00000
    eigenvalues:
  0.600  0.600  0.600  0.600  0.600
    eigenvectors:
  1.000  0.000  0.000  0.000  0.000
  0.000  1.000  0.000  0.000  0.000
  0.000  0.000  1.000  0.000  0.000
  0.000  0.000  0.000  1.000  0.000
  0.000  0.000  0.000  0.000  1.000
    occupations:
  0.600  0.000  0.000  0.000  0.000
  0.000  0.600  0.000  0.000  0.000
  0.000  0.000  0.600  0.000  0.000
  0.000  0.000  0.000  0.600  0.000
  0.000  0.000  0.000  0.000  0.600
atom   17   Tr[ns(na)] =   6.00000
    eigenvalues:
  0.600  0.600  0.600  0.600  0.600
    eigenvectors:
  1.000  0.000  0.000  0.000  0.000
  0.000  1.000  0.000  0.000  0.000
  0.000  0.000  1.000  0.000  0.000
  0.000  0.000  0.000  1.000  0.000
  0.000  0.000  0.000  0.000  1.000
    occupations:
  0.600  0.000  0.000  0.000  0.000
  0.000  0.600  0.000  0.000  0.000
  0.000  0.000  0.600  0.000  0.000
  0.000  0.000  0.000  0.600  0.000
  0.000  0.000  0.000  0.000  0.600
atom   22   Tr[ns(na)] =   6.00000
    eigenvalues:
  0.600  0.600  0.600  0.600  0.600
    eigenvectors:
  1.000  0.000  0.000  0.000  0.000
  0.000  1.000  0.000  0.000  0.000
  0.000  0.000  1.000  0.000  0.000
  0.000  0.000  0.000  1.000  0.000
  0.000  0.000  0.000  0.000  1.000
[...]
  0.747 -0.002 -0.004 -0.065  0.008
 -0.002  0.578  0.002  0.002  0.000
 -0.004  0.002  0.821  0.000 -0.001
 -0.065  0.002  0.000  0.623 -0.003
  0.008  0.000 -0.001 -0.003  0.859
atom   10   Tr[ns(na)] =   7.27992
    eigenvalues:
  0.516  0.527  0.766  0.849  0.982
    eigenvectors:
  0.986  0.000  0.000  0.001  0.013
  0.000  0.000  0.000  0.998  0.002
  0.000  0.000  1.000  0.000  0.000
  0.013  0.000  0.000  0.002  0.985
  0.000  1.000  0.000  0.000  0.000
    occupations:
  0.522 -0.007  0.002  0.053 -0.000
 -0.007  0.849  0.000  0.007 -0.000
  0.002  0.000  0.766 -0.001  0.003
  0.053  0.007 -0.001  0.975  0.000
 -0.000 -0.000  0.003  0.000  0.527
atom   16   Tr[ns(na)] =   7.24533
    eigenvalues:
  0.503  0.549  0.670  0.919  0.981
    eigenvectors:
  0.000  0.177  0.008  0.000  0.814
  0.999  0.000  0.000  0.000  0.000
  0.000  0.003  0.954  0.027  0.016
  0.000  0.819  0.011  0.000  0.169
  0.000  0.000  0.027  0.973  0.000
    occupations:
  0.902 -0.008  0.038 -0.162 -0.006
 -0.008  0.503 -0.004  0.003 -0.007
  0.038 -0.004  0.681 -0.010  0.040
 -0.162  0.003 -0.010  0.624  0.001
 -0.006 -0.007  0.040  0.001  0.912
atom   17   Tr[ns(na)] =   7.24588
    eigenvalues:
  0.551  0.608  0.633  0.846  0.985
    eigenvectors:
  0.001  0.983  0.000  0.000  0.015
  0.000  0.000  0.014  0.985  0.000
  0.000  0.000  0.985  0.014  0.000
  0.000  0.015  0.000  0.000  0.985
  0.999  0.001  0.000  0.000  0.000
    occupations:
  0.613 -0.002  0.000  0.046  0.002
 -0.002  0.843  0.025  0.000 -0.002
  0.000  0.025  0.636  0.001 -0.000
  0.046  0.000  0.001  0.980  0.000
  0.002 -0.002 -0.000  0.000  0.551
atom   22   Tr[ns(na)] =   7.28071
    eigenvalues:
  0.549  0.578  0.709  0.861  0.944
    eigenvectors:
  0.000  0.151  0.000  0.003  0.845
  1.000  0.000  0.000  0.000  0.000
  0.000  0.000  0.999  0.001  0.000
  0.000  0.848  0.000  0.000  0.151
  0.000  0.000  0.001  0.995  0.003
    occupations:
  0.888  0.003 -0.002 -0.131  0.004
  0.003  0.549  0.001 -0.001  0.000
 -0.002  0.001  0.709  0.001 -0.005
 -0.131 -0.001  0.001  0.633 -0.004
  0.004  0.000 -0.005 -0.004  0.861
atom   23   Tr[ns(na)] =   7.24119
    eigenvalues:
  0.551  0.609  0.613  0.871  0.977
    eigenvectors:
  0.000  0.083  0.900  0.002  0.016
  0.000  0.001  0.001  0.997  0.001
  0.000  0.915  0.085  0.000  0.000
  0.000  0.002  0.015  0.001  0.983
  1.000  0.000  0.000  0.000  0.000
    occupations:
  0.619  0.008 -0.001  0.046  0.000
  0.008  0.870  0.006 -0.005  0.000
 -0.001  0.006  0.609  0.001 -0.001
  0.046 -0.005  0.001  0.971 -0.000
  0.000  0.000 -0.001 -0.000  0.551
N of occupied +U levels =  58.0409330
 --- exit write_ns ---

     Threshold (ethr) on eigenvalues was too large:
     Diagonalizing with lowered threshold

     Davidson diagonalization with overlap
     ethr =  7.01E-09,  avg # of iterations =  3.0

[...]

     total energy              =   -2161.83648262 Ry
     Harris-Foulkes estimate   =   -2161.83648263 Ry
     estimated scf accuracy    <       0.00000007 Ry

     iteration # 18     ecut=    40.00 Ry     beta=0.70
     Davidson diagonalization with overlap
     ethr =  1.49E-11,  avg # of iterations =  1.0

     negative rho (up, down):  0.574E+00 0.000E+00

     End of self-consistent calculation
 --- enter write_ns ---
 LDA+U parameters:
U( 2)     =  5.50000000
alpha( 2) =  0.00000000
atom    3   Tr[ns(na)] =   7.24161
    eigenvalues:
  0.505  0.551  0.663  0.920  0.982
    eigenvectors:
  0.000  0.177  0.008  0.000  0.814
  0.999  0.000  0.000  0.000  0.000
  0.000  0.004  0.958  0.020  0.017
  0.000  0.819  0.013  0.000  0.168
  0.000  0.000  0.020  0.980  0.000
    occupations:
  0.903  0.008  0.040 -0.161  0.005
  0.008  0.505  0.005 -0.004 -0.008
  0.040  0.005  0.673 -0.010 -0.036
 -0.161 -0.004 -0.010  0.625 -0.001
  0.005 -0.008 -0.036 -0.001  0.915
atom    4   Tr[ns(na)] =   7.25071
    eigenvalues:
  0.550  0.605  0.637  0.848  0.985
    eigenvectors:
  0.003  0.982  0.001  0.000  0.015
  0.000  0.000  0.031  0.969  0.000
  0.000  0.001  0.968  0.031  0.000
  0.000  0.015  0.000  0.000  0.985
  0.997  0.003  0.000  0.000  0.000
    occupations:
  0.610 -0.000 -0.001  0.046  0.003
 -0.000  0.842  0.037 -0.001 -0.002
 -0.001  0.037  0.644  0.001 -0.000
  0.046 -0.001  0.001  0.979  0.000
  0.003 -0.002 -0.000  0.000  0.551
atom    9   Tr[ns(na)] =   7.25419
    eigenvalues:
  0.578  0.595  0.774  0.821  0.859
    eigenvectors:
  0.000  0.155  0.831  0.004  0.010
  0.992  0.008  0.000  0.000  0.000
  0.000  0.000  0.005  0.993  0.002
  0.007  0.837  0.153  0.000  0.002
  0.000  0.000  0.011  0.002  0.987
    occupations:
  0.747 -0.002 -0.004 -0.065  0.008
 -0.002  0.578  0.002  0.002  0.000
 -0.004  0.002  0.821  0.000 -0.001
 -0.065  0.002  0.000  0.623 -0.003
  0.008  0.000 -0.001 -0.003  0.858
atom   10   Tr[ns(na)] =   7.28070
    eigenvalues:
  0.516  0.527  0.766  0.849  0.982
    eigenvectors:
  0.986  0.000  0.000  0.001  0.013
  0.000  0.000  0.000  0.998  0.002
  0.000  0.000  1.000  0.000  0.000
  0.013  0.000  0.000  0.002  0.985
  0.000  1.000  0.000  0.000  0.000
    occupations:
  0.522 -0.007  0.002  0.052 -0.000
 -0.007  0.849  0.000  0.007 -0.000
  0.002  0.000  0.766 -0.001  0.003
  0.052  0.007 -0.001  0.975  0.000
 -0.000 -0.000  0.003  0.000  0.527
atom   16   Tr[ns(na)] =   7.24554
    eigenvalues:
  0.503  0.549  0.670  0.919  0.981
    eigenvectors:
  0.000  0.177  0.008  0.000  0.814
  0.999  0.000  0.000  0.000  0.000
  0.000  0.003  0.953  0.027  0.016
  0.000  0.819  0.011  0.000  0.170
  0.000  0.000  0.027  0.972  0.000
    occupations:
  0.902 -0.008  0.038 -0.162 -0.006
 -0.008  0.503 -0.004  0.003 -0.007
  0.038 -0.004  0.682 -0.010  0.040
 -0.162  0.003 -0.010  0.624  0.001
 -0.006 -0.007  0.040  0.001  0.912
atom   17   Tr[ns(na)] =   7.24681
    eigenvalues:
  0.551  0.608  0.633  0.846  0.985
    eigenvectors:
  0.001  0.984  0.000  0.000  0.015
  0.000  0.000  0.014  0.986  0.000
  0.000  0.000  0.985  0.014  0.000
  0.000  0.015  0.000  0.000  0.985
  0.999  0.001  0.000  0.000  0.000
    occupations:
  0.613 -0.002  0.000  0.046  0.002
 -0.002  0.843  0.025  0.000 -0.002
  0.000  0.025  0.636  0.001 -0.000
  0.046  0.000  0.001  0.980  0.000
  0.002 -0.002 -0.000  0.000  0.551
atom   22   Tr[ns(na)] =   7.28007
    eigenvalues:
  0.549  0.578  0.709  0.860  0.944
    eigenvectors:
  0.000  0.151  0.000  0.003  0.845
  1.000  0.000  0.000  0.000  0.000
  0.000  0.000  0.999  0.001  0.000
  0.000  0.848  0.000  0.000  0.151
  0.000  0.000  0.001  0.995  0.003
    occupations:
  0.888  0.003 -0.002 -0.131  0.004
  0.003  0.549  0.001 -0.001  0.000
 -0.002  0.001  0.709  0.001 -0.005
 -0.131 -0.001  0.001  0.633 -0.004
  0.004  0.000 -0.005 -0.004  0.861
atom   23   Tr[ns(na)] =   7.24147
    eigenvalues:
  0.551  0.609  0.613  0.871  0.977
    eigenvectors:
  0.000  0.082  0.901  0.002  0.016
  0.000  0.001  0.001  0.997  0.001
  0.000  0.916  0.084  0.000  0.000
  0.000  0.002  0.015  0.001  0.983
  1.000  0.000  0.000  0.000  0.000
    occupations:
  0.619  0.008 -0.001  0.046  0.000
  0.008  0.870  0.006 -0.005  0.000
 -0.001  0.006  0.609  0.001 -0.001
  0.046 -0.005  0.001  0.971 -0.000
  0.000  0.000 -0.001 -0.000  0.551
N of occupied +U levels =  58.0411002
 --- exit write_ns ---

[...]

          k = 0.2500-0.4870 0.0000 ( 30468 PWs)   bands (ev):

[...]

          k =-0.2500 0.2435 0.0000 ( 30434 PWs)   bands (ev):

   -74.0294 -73.8460 -73.7673 -73.7278 -73.5849 -73.4679 -73.3223 -73.2904
   -44.2234 -44.1535 -44.0978 -44.0531 -44.0131 -43.8916 -43.8807 -43.8359
   -43.7764 -43.7044 -43.6870 -43.6025 -43.5669 -43.5579 -43.5340 -43.5230
   -43.4830 -43.4546 -43.4107 -43.3914 -43.3481 -43.2341 -43.0929 -42.9851
   -20.7676 -20.3752 -20.2808 -20.1758 -20.0999 -19.9427 -19.8381 -19.8340
   -19.6997 -19.6673 -19.6141 -19.3615 -19.3250 -19.3046 -19.2581 -19.1738
   -19.1159 -19.0594 -18.9093  -9.3962  -9.0469  -8.9841  -8.7595  -8.7101
    -8.5699  -8.5196  -8.4110  -7.9961  -7.8839  -7.7727  -7.7309  -7.6168
    -7.5666  -7.4975  -7.4690  -7.3692  -7.2797  -7.0814  -6.8918  -6.7605
    -6.5292  -6.4573  -6.2818  -6.1784  -6.0595  -6.0292  -5.8698  -5.7620
    -5.7155  -5.6326  -5.5273  -5.5183  -5.3651  -5.1989  -5.1269  -5.0910
    -5.0202  -4.9456  -4.9031  -4.8312  -4.6493  -4.5144  -4.3918  -4.2623
    -4.1694  -4.1569  -4.0705  -3.9211  -3.8633  -3.7013  -3.6111  -3.5151
    -3.2528  -3.1861  -3.0928  -2.9317  -2.7964  -2.6346  -2.6211  -2.5352
    -2.4817  -2.3508  -2.2972  -2.2042  -2.1773  -2.0521  -1.9978  -1.9624
    -1.7627  -1.6519  -1.3919  -1.1676  -1.0009  -0.6872  -0.6257  -0.5106
    -0.3542  -0.3171  -0.1816   0.1504   1.0726   1.7438   1.8989   1.9517
     2.1225   2.5681   2.8494   3.0071   3.3090   3.4077   3.4945   3.5636
     3.6474   3.7002   3.9434   3.9721   4.1011   4.4821   4.6871   5.1263
     5.5716   5.6900   5.7884   6.0854   6.3672   6.4836   6.5867   6.6465
     6.8609   6.9675   7.0063   7.2468   7.5181   7.6964   7.8832   7.9501
     8.0716   8.2824   8.3540   8.4896   8.5811   8.6138   8.7445   8.8379
     8.9464   9.1236   9.2109   9.3648   9.4479   9.5810   9.6568   9.8638
     9.9601  10.0449  10.1038  10.1498  10.2203  10.3218  10.3726  10.4754
    10.5379  10.6553  10.7466  10.9056  10.9242  10.9726  11.1234  11.3129
    11.3813  11.4356  11.5793  11.5859  11.6475  11.8177  11.8653  11.8931
    11.9914  12.0566  12.1038  12.1872  12.2703  12.3898  12.4138  12.5260
    12.5853  12.6420  12.7365  12.7800  12.7959  12.9081  12.9729  13.0231
    13.1161  13.1642  13.2110  13.3320  13.4051  13.4949  13.6328  13.6853
    13.7501  13.8500  13.9539  14.0610  14.1116  14.2154  14.2740  14.3505
    14.4210  14.5635  14.5937  14.6380  14.7164  14.8152  14.9319  14.9598
    15.0211  15.1543  15.1939  15.2565  15.3481  15.4265  15.5352  15.5667
    15.6303  15.7373  15.7789  15.8404  15.8656  15.9042  15.9493  16.0317
    16.0956  16.1499  16.2157  16.2678  16.3061  16.3727  16.5001  16.5484
    16.6271  16.6989  16.7431  16.8319  16.8908  16.9107  16.9573  17.0876
    17.1674  17.2187  17.3194  17.3889  17.4540  17.4802  17.5068  17.5586
    17.6359  17.6705  17.7541  17.8078  17.8665  17.9356  17.9903  18.0573
    18.1393  18.1703  18.2346  18.2974  18.3307  18.4498  18.5565  18.6183
    18.6951  18.7822  18.8323  18.8866  18.9483  19.0200  19.1025  19.1826
    19.2224  19.2960  19.4186  19.4574  19.5117  19.6882  19.7224  19.7611
    19.7863  19.8719  19.9661  20.0301  20.1343  20.2398  20.3022  20.3941
    20.4421  20.5662  20.6402  20.7279  20.7743  20.8484  20.8975  20.9566
    20.9986  21.0440  21.1277  21.2279  21.2701  21.3106  21.3273  21.3921
    21.4438  21.5008  21.5630  21.6072  21.6883  21.7598  21.8562  21.9283
    21.9439  21.9840  22.0033  22.0757  22.1455  22.2399

     the Fermi energy is    -1.1747 ev

!    total energy              =   -2161.83648262 Ry
     Harris-Foulkes estimate   =   -2161.83648262 Ry
     estimated scf accuracy    <          7.7E-09 Ry

     The total energy is the sum of the following terms:

     one-electron contribution =  -25264.56772997 Ry
     hartree contribution      =   12658.12330180 Ry
     xc contribution           =    -338.70304470 Ry
     ewald contribution        =   10780.55119570 Ry
     Hubbard energy            =       2.76026052 Ry
     smearing contrib. (-TS)   =      -0.00046597 Ry

     convergence has been achieved in  18 iterations

     Forces acting on atoms (Ry/au):

     negative rho (up, down):  0.574E+00 0.000E+00
     atom    1 type  1   force =    -0.00547817   -0.00845939    0.00041538
     atom    2 type  1   force =     0.00099096    0.00338068    0.00040464
     atom    3 type  2   force =     0.01376798    0.00249375    0.00050803
     atom    4 type  2   force =     0.00240605    0.00525398   -0.00012353
     atom    5 type  1   force =    -0.00056699   -0.04440154   -0.00024822
     atom    6 type  1   force =     0.00373926    0.04565122   -0.00029869
     atom    7 type  1   force =     0.00334502   -0.00233688   -0.00003077
     atom    8 type  1   force =     0.01937140   -0.00182720    0.00009062
     atom    9 type  2   force =    -0.00846286    0.00158212   -0.00041188
     atom   10 type  2   force =    -0.00550463   -0.00102452   -0.00006508
     atom   11 type  1   force =    -0.01285432    0.01542415   -0.00066289
     atom   12 type  1   force =    -0.01350568   -0.01609545   -0.00069987
     atom   13 type  1   force =     0.02138266   -0.00076464    0.00011238
     atom   14 type  1   force =    -0.00420778   -0.00651161    0.00039109
     atom   15 type  1   force =    -0.00017519    0.00228270    0.00003652
     atom   16 type  2   force =    -0.01450203    0.00687347    0.00065206
     atom   17 type  2   force =     0.00421021    0.00433166   -0.00003190
     atom   18 type  1   force =    -0.00194036   -0.04514299   -0.00032887
     atom   19 type  1   force =     0.00529983    0.04220100   -0.00029172
     atom   20 type  1   force =    -0.00497126   -0.00338575   -0.00060094
     atom   21 type  1   force =    -0.02114865   -0.00010887    0.00050459
     atom   22 type  2   force =     0.00025046    0.00121803    0.00022361
     atom   23 type  2   force =     0.00387419    0.00078913    0.00012440
     atom   24 type  1   force =     0.01541510    0.02732731   -0.00042072
     atom   25 type  1   force =     0.01592697   -0.02744686   -0.00041637
     atom   26 type  1   force =    -0.01662250   -0.00011208   -0.00012163
     atom   27 type  3   force =    -0.00002636   -0.00006492    0.00016198
     atom   28 type  3   force =    -0.00000714   -0.00038565   -0.00022877
     atom   29 type  3   force =    -0.00025540   -0.00019502    0.00008632
     atom   30 type  3   force =    -0.00023213   -0.00017216    0.00015376
     atom   31 type  1   force =     0.00033366   -0.00013257    0.00049904
     atom   32 type  3   force =     0.00014769   -0.00024108    0.00061744

     Total force =     0.002235     Total SCF correction =     0.000240
     SCF correction compared to forces is large: reduce conv_thr to get better values

     bfgs converged in  21 scf cycles and  20 bfgs steps
     (criteria: energy < 0.10E-03, force < 0.10E-02)

     End of BFGS Geometry Optimization

     Final energy   =   -2161.8364826170 Ry
Begin final coordinates

ATOMIC_POSITIONS (crystal)
O0       0.000000000   0.000000000   0.380648473    0   0   1
O0       0.000000000   0.500000000   0.401642393    0   0   1
Ru1      0.250000000   0.500000000   0.452957432    0   0   1
Ru1      0.000000000   0.000000000   0.454120727    0   0   1
O0       0.250000000   0.810000000   0.453706541    0   0   1
O0       0.250000000   0.190000000   0.453463501    0   0   1
O0       0.000000000   0.500000000   0.498512342    0   0   1
O0       0.000000000   0.000000000   0.526837896    0   0   1
Ru1      0.250000000   0.000000000   0.580007015    0   0   1
Ru1      0.000000000   0.500000000   0.568355756    0   0   1
O0       0.250000000   0.690000000   0.576128368    0   0   1
O0       0.250000000   0.310000000   0.576270385    0   0   1
O0       0.000000000   0.000000000   0.619547209    0   0   1
O0       0.500000000   0.000000000   0.380751858    0   0   1
O0       0.500000000   0.500000000   0.403861656    0   0   1
Ru1      0.750000000   0.500000000   0.452943290    0   0   1
Ru1      0.500000000   0.000000000   0.454166598    0   0   1
O0       0.750000000   0.810000000   0.453689319    0   0   1
O0       0.750000000   0.190000000   0.453505215    0   0   1
O0       0.500000000   0.500000000   0.502226963    0   0   1
O0       0.500000000   0.000000000   0.526672139    0   0   1
Ru1      0.750000000   0.000000000   0.575375267    0   0   1
Ru1      0.500000000   0.500000000   0.575063339    0   0   1
O0       0.750000000   0.690000000   0.573479749    0   0   1
O0       0.750000000   0.310000000   0.573308302    0   0   1
O0       0.500000000   0.000000000   0.618416714    0   0   1
H2      -0.000401790   0.628972198   0.381261550
H2       0.499243007   0.609709617   0.377775536
H2       0.145876245   0.030676238   0.368121830
H2       0.647142450   0.024973223   0.368246223
O0       0.518577665   0.497994673   0.647019210
H2       0.377782272   0.493574358   0.663737205
End final coordinates

     General routines

     Parallel routines
     Hubbard U routines

   This run was terminated on:  15: 6:24  28Apr2014

   JOB DONE.
Running PBS batch system epilogue script
Job id: 340461.audhumbla.fysik.dtu.dk
Username: zhonxu
Groupname: campgst
Jobname: RuO2/Eads-2-layers/OH-U-5.5
Sessionid: 11719
Queuename: verylong
Accounting:
This job has allocated the following 16 nodes:
a049 a049 a049 a049 a049 a049 a049 a049 a047 a047 a047 a047 a047 a047 a047 a047
Finished epilogue job 340461.audhumbla.fysik.dtu.dk for zhonxu