     Program PWSCF v.5.0.2 (svn rev. 9656) starts on  8May2014 at 23:22:42

     Current dimensions of program PWSCF are:
     Max number of different atomic species (ntypx) = 10
     Max number of k-points (npk) =  40000
     Max angular momentum in pseudopotentials (lmaxx) =  3
     Reading input from pwscf.in
Warning: card &CELL ignored
Warning: card / ignored

     Subspace diagonalization in iterative solution of the eigenvalue problem:
     a serial algorithm will be used

     bravais-lattice index     =            0
     lattice parameter (alat)  =      11.7541  a.u.
     unit-cell volume          =    7139.8207 (a.u.)^3
     number of atoms/cell      =           30
     number of atomic types    =            3
     number of electrons       =       232.00
     number of Kohn-Sham states=          348
     kinetic-energy cutoff     =      40.0000  Ry
     charge density cutoff     =     500.0000  Ry
     convergence threshold     =      1.0E-06
     mixing beta               =       0.7000
     number of iterations used =            8  plain     mixing
     Exchange-correlation      = SLA  PW   PBE  PBE ( 1 4 3 4 0)
     EXX-fraction              =        0.00
     nstep                     =           50

     celldm(1)=  11.754097  celldm(2)=   0.000000  celldm(3)=   0.000000
     celldm(4)=   0.000000  celldm(5)=   0.000000  celldm(6)=   0.000000

     crystal axes: (cart. coord. in units of alat)
               a(1) = (   1.000000   0.000000   0.000000 )
               a(2) = (   0.000000   1.034513   0.000000 )
               a(3) = (   0.000000   0.000000   4.249947 )

     reciprocal axes: (cart. coord. in units 2 pi/alat)
               b(1) = (  1.000000  0.000000  0.000000 )
               b(2) = (  0.000000  0.966638  0.000000 )
               b(3) = (  0.000000  0.000000  0.235297 )

     PseudoPot. # 1 for O  read from file:
     /home/camp/zhonxu/pseudo/o_pbe_v1.01.uspp.F.UPF
     MD5 check sum: 2bcb18d16ea4b960afae9ec6d52f22d2
     Pseudo is Ultrasoft + core correction, Zval =  6.0
     Generated by new atomic code, or converted to UPF format
     Using radial grid of  737 points,  5 beta functions with:
                l(1) =   0
                l(2) =   0
                l(3) =   1
                l(4) =   1
                l(5) =   2
     Q(r) pseudized with  8 coefficients,  rinner =    0.900   0.900   0.900
                                                       0.900   0.900

     PseudoPot. # 2 for Rh read from file:
     /home/camp/zhonxu/pseudo/rh_pbe_v1.uspp.F.UPF
     MD5 check sum: 37b626987ad0dd8ec6bf4cc9ef289918
     Pseudo is Ultrasoft + core correction, Zval = 15.0
     Generated by new atomic code, or converted to UPF format
     Using radial grid of  969 points,  7 beta functions with:
                l(1) =   0
                l(2) =   0
                l(3) =   1
                l(4) =   1
                l(5) =   2
                l(6) =   2
                l(7) =   2
     Q(r) pseudized with  6 coefficients,  rinner =    1.050   1.050   1.050
                                                       1.050   1.050

     PseudoPot. # 3 for H  read from file:
     /home/camp/zhonxu/pseudo/h_pbe_v1.uspp.F.UPF
     MD5 check sum: 3408e3ff4ec8b0a4e358431e7e038a48
     Pseudo is Ultrasoft, Zval =  1.0
     Generated by new atomic code, or converted to UPF format
     Using radial grid of  615 points,  2 beta functions with:
                l(1) =   0
                l(2) =   0
     Q(r) pseudized with  8 coefficients,  rinner =    0.700

     atomic species   valence    mass     pseudopotential
        O0             6.00    15.99940     O ( 1.00)
        Rh1           15.00   102.90550     Rh( 1.00)
        H2             1.00     1.00794     H ( 1.00)

     Simplified LDA+U calculation (l_max = 2) with parameters (eV):
     atomic species    L          U    alpha       J0     beta
        Rh1            2     4.0000   0.0000   0.0000   0.0000

     No symmetry found

   Cartesian axes

     site n.     atom                  positions (alat units)
         1           O0  tau(   1) = (   0.0000000   0.0000000   1.6092425  )
         2           O0  tau(   2) = (   0.0000000   0.5172566   1.7020614  )
         3           Rh1 tau(   3) = (   0.2500000   0.5172566   1.9209336  )
         4           Rh1 tau(   4) = (   0.0000000   0.0000000   1.9260761  )
         5           O0  tau(   5) = (   0.2500000   0.8379556   1.9243336  )
         6           O0  tau(   6) = (   0.2500000   0.1965575   1.9234411  )
         7           O0  tau(   7) = (   0.0000000   0.5172566   2.1185137  )
         8           O0  tau(   8) = (   0.0000000   0.0000000   2.2473721  )
         9           Rh1 tau(   9) = (   0.2500000   0.0000000   2.4498821  )
        10           Rh1 tau(  10) = (   0.0000000   0.5172566   2.4276124  )
        11           O0  tau(  11) = (   0.2500000   0.7138141   2.4560020  )
        12           O0  tau(  12) = (   0.2500000   0.3206991   2.4560870  )
        13           O0  tau(  13) = (   0.0000000   0.0000000   2.6421072  )
        14           O0  tau(  14) = (   0.5000000   0.0000000   1.6092425  )
        15           O0  tau(  15) = (   0.5000000   0.5172566   1.7020614  )
        16           Rh1 tau(  16) = (   0.7500000   0.5172566   1.9209336  )
        17           Rh1 tau(  17) = (   0.5000000   0.0000000   1.9260761  )
        18           O0  tau(  18) = (   0.7500000   0.8379556   1.9243336  )
        19           O0  tau(  19) = (   0.7500000   0.1965575   1.9234411  )
        20           O0  tau(  20) = (   0.5000000   0.5172566   2.1185137  )
        21           O0  tau(  21) = (   0.5000000   0.0000000   2.2473721  )
        22           Rh1 tau(  22) = (   0.7500000   0.0000000   2.4498821  )
        23           Rh1 tau(  23) = (   0.5000000   0.5172566   2.4276124  )
        24           O0  tau(  24) = (   0.7500000   0.7138141   2.4560020  )
        25           O0  tau(  25) = (   0.7500000   0.3206991   2.4560870  )
        26           O0  tau(  26) = (   0.5000000   0.0000000   2.6421072  )
        27           H2  tau(  27) = (  -0.0000700   0.6610229   1.6318947  )
        28           H2  tau(  28) = (   0.4999300   0.6610125   1.6318947  )
        29           H2  tau(  29) = (   0.1484400   0.0336527   1.5632581  )
        30           H2  tau(  30) = (   0.6484400   0.0336527   1.5632581  )

     number of k points=    10  Methfessel-Paxton smearing, width (Ry)=  0.0100
                       cart. coord. in units 2pi/alat
        k(    1) = (   0.0000000   0.0000000   0.0000000), wk =   0.1250000
        k(    2) = (   0.0000000   0.2416596   0.0000000), wk =   0.2500000
        k(    3) = (   0.0000000  -0.4833191   0.0000000), wk =   0.1250000
        k(    4) = (   0.2500000   0.0000000   0.0000000), wk =   0.2500000
        k(    5) = (   0.2500000   0.2416596   0.0000000), wk =   0.2500000
        k(    6) = (   0.2500000  -0.4833191   0.0000000), wk =   0.2500000
        k(    7) = (  -0.5000000   0.0000000   0.0000000), wk =   0.1250000
        k(    8) = (  -0.5000000   0.2416596   0.0000000), wk =   0.2500000
        k(    9) = (  -0.5000000  -0.4833191   0.0000000), wk =   0.1250000
        k(   10) = (  -0.2500000   0.2416596   0.0000000), wk =   0.2500000

     Largest allocated arrays     est. size (Mb)     dimensions
     Largest temporary arrays     est. size (Mb)     dimensions

     Check: negative/imaginary core charge=   -0.000002    0.000000

     Initial potential from superposition of free atoms
     Check: negative starting charge=   -0.642992

     starting charge  227.99915, renormalised to  232.00000

     negative rho (up, down):  0.654E+00 0.000E+00
     Number of +U iterations with fixed ns =  0
     Starting occupations:
 --- enter write_ns ---
 LDA+U parameters:
U( 2)     =  4.00000000
alpha( 2) =  0.00000000
atom    3   Tr[ns(na)] =   7.00000
    eigenvalues:
  0.700  0.700  0.700  0.700  0.700
    eigenvectors:
  1.000  0.000  0.000  0.000  0.000
  0.000  1.000  0.000  0.000  0.000
  0.000  0.000  1.000  0.000  0.000
  0.000  0.000  0.000  1.000  0.000
  0.000  0.000  0.000  0.000  1.000
    occupations:
  0.700  0.000  0.000  0.000  0.000
  0.000  0.700  0.000  0.000  0.000
  0.000  0.000  0.700  0.000  0.000
  0.000  0.000  0.000  0.700  0.000
  0.000  0.000  0.000  0.000  0.700
atom    4   Tr[ns(na)] =   7.00000
    eigenvalues:
  0.700  0.700  0.700  0.700  0.700
    eigenvectors:
  1.000  0.000  0.000  0.000  0.000
  0.000  1.000  0.000  0.000  0.000
  0.000  0.000  1.000  0.000  0.000
  0.000  0.000  0.000  1.000  0.000
  0.000  0.000  0.000  0.000  1.000
    occupations:
  0.700  0.000  0.000  0.000  0.000
  0.000  0.700  0.000  0.000  0.000
  0.000  0.000  0.700  0.000  0.000
  0.000  0.000  0.000  0.700  0.000
  0.000  0.000  0.000  0.000  0.700
atom    9   Tr[ns(na)] =   7.00000
    eigenvalues:
  0.700  0.700  0.700  0.700  0.700
    eigenvectors:
  1.000  0.000  0.000  0.000  0.000
  0.000  1.000  0.000  0.000  0.000
  0.000  0.000  1.000  0.000  0.000
  0.000  0.000  0.000  1.000  0.000
  0.000  0.000  0.000  0.000  1.000
    occupations:
  0.700  0.000  0.000  0.000  0.000
  0.000  0.700  0.000  0.000  0.000
  0.000  0.000  0.700  0.000  0.000
  0.000  0.000  0.000  0.700  0.000
  0.000  0.000  0.000  0.000  0.700
atom   10   Tr[ns(na)] =   7.00000
    eigenvalues:
  0.700  0.700  0.700  0.700  0.700
    eigenvectors:
  1.000  0.000  0.000  0.000  0.000
  0.000  1.000  0.000  0.000  0.000
  0.000  0.000  1.000  0.000  0.000
  0.000  0.000  0.000  1.000  0.000
  0.000  0.000  0.000  0.000  1.000
    occupations:
  0.700  0.000  0.000  0.000  0.000
  0.000  0.700  0.000  0.000  0.000
  0.000  0.000  0.700  0.000  0.000
  0.000  0.000  0.000  0.700  0.000
  0.000  0.000  0.000  0.000  0.700
atom   16   Tr[ns(na)] =   7.00000
    eigenvalues:
  0.700  0.700  0.700  0.700  0.700
    eigenvectors:
  1.000  0.000  0.000  0.000  0.000
  0.000  1.000  0.000  0.000  0.000
  0.000  0.000  1.000  0.000  0.000
  0.000  0.000  0.000  1.000  0.000
  0.000  0.000  0.000  0.000  1.000
    occupations:
  0.700  0.000  0.000  0.000  0.000
  0.000  0.700  0.000  0.000  0.000
  0.000  0.000  0.700  0.000  0.000
  0.000  0.000  0.000  0.700  0.000
  0.000  0.000  0.000  0.000  0.700
atom   17   Tr[ns(na)] =   7.00000
    eigenvalues:
  0.700  0.700  0.700  0.700  0.700
    eigenvectors:
  1.000  0.000  0.000  0.000  0.000
  0.000  1.000  0.000  0.000  0.000
  0.000  0.000  1.000  0.000  0.000
  0.000  0.000  0.000  1.000  0.000
  0.000  0.000  0.000  0.000  1.000
    occupations:
  0.700  0.000  0.000  0.000  0.000
  0.000  0.700  0.000  0.000  0.000
  0.000  0.000  0.700  0.000  0.000
  0.000  0.000  0.000  0.700  0.000
  0.000  0.000  0.000  0.000  0.700
atom   22   Tr[ns(na)] =   7.00000
    eigenvalues:
  0.700  0.700  0.700  0.700  0.700
    eigenvectors:
  1.000  0.000  0.000  0.000  0.000
  0.000  1.000  0.000  0.000  0.000
  0.000  0.000  1.000  0.000  0.000
  0.000  0.000  0.000  1.000  0.000
  0.000  0.000  0.000  0.000  1.000
    occupations:
  0.700  0.000  0.000  0.000  0.000
  0.000  0.700  0.000  0.000  0.000
  0.000  0.000  0.700  0.000  0.000
[...]
 -0.000 -0.007  0.001 -0.000  0.964
atom    4   Tr[ns(na)] =   8.04896
    eigenvalues:
  0.600  0.650  0.872  0.924  0.978
    eigenvectors:
  0.001  0.991  0.000  0.000  0.008
  0.000  0.000  0.057  0.943  0.000
  0.000  0.000  0.943  0.057  0.000
  0.000  0.008  0.000  0.000  0.992
  0.999  0.001  0.000  0.000  0.000
    occupations:
  0.652 -0.004 -0.001  0.029  0.001
 -0.004  0.921  0.012  0.001 -0.001
 -0.001  0.012  0.875 -0.001  0.001
  0.029  0.001 -0.001  0.975  0.000
  0.001 -0.001  0.001  0.000  0.600
atom    9   Tr[ns(na)] =   8.04540
    eigenvalues:
  0.635  0.646  0.867  0.896  0.980
    eigenvectors:
  0.000  0.154  0.000  0.000  0.845
  0.998  0.002  0.000  0.000  0.000
  0.000  0.000  1.000  0.000  0.000
  0.001  0.844  0.000  0.000  0.155
  0.000  0.000  0.000  1.000  0.000
    occupations:
  0.928  0.000 -0.000 -0.121 -0.001
  0.000  0.635  0.000  0.000 -0.000
 -0.000  0.000  0.867 -0.000 -0.000
 -0.121  0.000 -0.000  0.697  0.001
 -0.001 -0.000 -0.000  0.001  0.896
atom   10   Tr[ns(na)] =   8.03803
    eigenvalues:
  0.590  0.593  0.929  0.931  0.976
    eigenvectors:
  0.995  0.000  0.000  0.000  0.005
  0.000  0.000  0.997  0.003  0.000
  0.000  0.000  0.003  0.997  0.000
  0.005  0.000  0.000  0.000  0.995
  0.000  1.000  0.000  0.000  0.000
    occupations:
  0.592  0.000  0.002  0.028 -0.000
  0.000  0.929 -0.000  0.000 -0.001
  0.002 -0.000  0.931  0.000  0.000
  0.028  0.000  0.000  0.974  0.000
 -0.000 -0.001  0.000  0.000  0.593
atom   16   Tr[ns(na)] =   8.05568
    eigenvalues:
  0.580  0.599  0.912  0.964  0.972
    eigenvectors:
  0.000  0.208  0.003  0.000  0.789
  1.000  0.000  0.000  0.000  0.000
  0.000  0.000  0.997  0.000  0.003
  0.000  0.792  0.000  0.000  0.208
  0.000  0.000  0.000  0.999  0.000
    occupations:
  0.894 -0.000  0.001 -0.152 -0.000
 -0.000  0.580 -0.000 -0.000 -0.007
  0.001 -0.000  0.912 -0.005  0.001
 -0.152 -0.000 -0.005  0.677 -0.000
 -0.000 -0.007  0.001 -0.000  0.964
atom   17   Tr[ns(na)] =   8.04888
    eigenvalues:
  0.600  0.650  0.872  0.924  0.978
    eigenvectors:
  0.001  0.991  0.000  0.000  0.008
  0.000  0.000  0.057  0.943  0.000
  0.000  0.000  0.943  0.057  0.000
  0.000  0.008  0.000  0.000  0.992
  0.999  0.001  0.000  0.000  0.000
    occupations:
  0.652 -0.004 -0.001  0.029  0.001
 -0.004  0.921  0.012  0.001 -0.001
 -0.001  0.012  0.875 -0.001  0.001
  0.029  0.001 -0.001  0.975  0.000
  0.001 -0.001  0.001  0.000  0.600
atom   22   Tr[ns(na)] =   8.04565
    eigenvalues:
  0.635  0.646  0.867  0.896  0.980
    eigenvectors:
  0.000  0.154  0.000  0.000  0.845
  0.998  0.002  0.000  0.000  0.000
  0.000  0.000  1.000  0.000  0.000
  0.001  0.844  0.000  0.000  0.155
  0.000  0.000  0.000  1.000  0.000
    occupations:
  0.928  0.000 -0.000 -0.121 -0.001
  0.000  0.635  0.000  0.000 -0.000
 -0.000  0.000  0.867 -0.000 -0.000
 -0.121  0.000 -0.000  0.697  0.001
 -0.001 -0.000 -0.000  0.001  0.896
atom   23   Tr[ns(na)] =   8.03806
    eigenvalues:
  0.590  0.593  0.929  0.931  0.976
    eigenvectors:
  0.995  0.000  0.000  0.000  0.005
  0.000  0.000  0.997  0.003  0.000
  0.000  0.000  0.003  0.997  0.000
  0.005  0.000  0.000  0.000  0.995
  0.000  1.000  0.000  0.000  0.000
    occupations:
  0.592  0.000  0.002  0.028 -0.000
  0.000  0.929 -0.000  0.000 -0.001
  0.002 -0.000  0.931  0.000  0.000
  0.028  0.000  0.000  0.974  0.000
 -0.000 -0.001  0.000  0.000  0.593
N of occupied +U levels =  64.3760360
 --- exit write_ns ---

     Threshold (ethr) on eigenvalues was too large:
     Diagonalizing with lowered threshold

     Davidson diagonalization with overlap
     ethr =  6.05E-08,  avg # of iterations =  1.0

[...]

     total energy              =   -1946.65241211 Ry
     Harris-Foulkes estimate   =   -1946.65241212 Ry
     estimated scf accuracy    <       0.00000004 Ry

     iteration # 15     ecut=    40.00 Ry     beta=0.70
     Davidson diagonalization with overlap
     ethr =  1.88E-11,  avg # of iterations =  1.0

     negative rho (up, down):  0.688E+00 0.000E+00

     End of self-consistent calculation
 --- enter write_ns ---
 LDA+U parameters:
U( 2)     =  4.00000000
alpha( 2) =  0.00000000
atom    3   Tr[ns(na)] =   8.05398
    eigenvalues:
  0.580  0.599  0.912  0.964  0.972
    eigenvectors:
  0.000  0.208  0.003  0.000  0.789
  1.000  0.000  0.000  0.000  0.000
  0.000  0.000  0.997  0.000  0.003
  0.000  0.792  0.000  0.000  0.208
  0.000  0.000  0.000  0.999  0.000
    occupations:
  0.894 -0.000  0.001 -0.152 -0.000
 -0.000  0.580 -0.000 -0.000 -0.007
  0.001 -0.000  0.912 -0.005  0.001
 -0.152 -0.000 -0.005  0.677 -0.000
 -0.000 -0.007  0.001 -0.000  0.964
atom    4   Tr[ns(na)] =   8.04782
    eigenvalues:
  0.600  0.650  0.872  0.924  0.978
    eigenvectors:
  0.001  0.991  0.000  0.000  0.008
  0.000  0.000  0.057  0.943  0.000
  0.000  0.000  0.943  0.057  0.000
  0.000  0.008  0.000  0.000  0.992
  0.999  0.001  0.000  0.000  0.000
    occupations:
  0.652 -0.004 -0.001  0.029  0.001
 -0.004  0.921  0.012  0.001 -0.001
 -0.001  0.012  0.875 -0.001  0.001
  0.029  0.001 -0.001  0.975  0.000
  0.001 -0.001  0.001  0.000  0.600
atom    9   Tr[ns(na)] =   8.04672
    eigenvalues:
  0.635  0.646  0.867  0.896  0.980
    eigenvectors:
  0.000  0.154  0.000  0.000  0.845
  0.998  0.002  0.000  0.000  0.000
  0.000  0.000  1.000  0.000  0.000
  0.001  0.844  0.000  0.000  0.155
  0.000  0.000  0.000  1.000  0.000
    occupations:
  0.928  0.000 -0.000 -0.121 -0.001
  0.000  0.635  0.000  0.000 -0.000
 -0.000  0.000  0.867 -0.000 -0.000
 -0.121  0.000 -0.000  0.697  0.001
 -0.001 -0.000 -0.000  0.001  0.896
atom   10   Tr[ns(na)] =   8.03969
    eigenvalues:
  0.590  0.593  0.929  0.931  0.976
    eigenvectors:
  0.995  0.000  0.000  0.000  0.005
  0.000  0.000  0.997  0.003  0.000
  0.000  0.000  0.003  0.997  0.000
  0.005  0.000  0.000  0.000  0.995
  0.000  1.000  0.000  0.000  0.000
    occupations:
  0.592  0.000  0.002  0.028 -0.000
  0.000  0.929 -0.000  0.000 -0.001
  0.002 -0.000  0.931  0.000  0.000
  0.028  0.000  0.000  0.974  0.000
 -0.000 -0.001  0.000  0.000  0.593
atom   16   Tr[ns(na)] =   8.05400
    eigenvalues:
  0.580  0.599  0.912  0.964  0.972
    eigenvectors:
  0.000  0.208  0.003  0.000  0.789
  1.000  0.000  0.000  0.000  0.000
  0.000  0.000  0.997  0.000  0.003
  0.000  0.792  0.000  0.000  0.208
  0.000  0.000  0.000  0.999  0.000
    occupations:
  0.894 -0.000  0.001 -0.152 -0.000
 -0.000  0.580 -0.000 -0.000 -0.007
  0.001 -0.000  0.912 -0.005  0.001
 -0.152 -0.000 -0.005  0.677 -0.000
 -0.000 -0.007  0.001 -0.000  0.964
atom   17   Tr[ns(na)] =   8.04781
    eigenvalues:
  0.600  0.650  0.872  0.924  0.978
    eigenvectors:
  0.001  0.991  0.000  0.000  0.008
  0.000  0.000  0.057  0.943  0.000
  0.000  0.000  0.943  0.057  0.000
  0.000  0.008  0.000  0.000  0.992
  0.999  0.001  0.000  0.000  0.000
    occupations:
  0.652 -0.004 -0.001  0.029  0.001
 -0.004  0.921  0.012  0.001 -0.001
 -0.001  0.012  0.875 -0.001  0.001
  0.029  0.001 -0.001  0.975  0.000
  0.001 -0.001  0.001  0.000  0.600
atom   22   Tr[ns(na)] =   8.04674
    eigenvalues:
  0.635  0.646  0.867  0.896  0.980
    eigenvectors:
  0.000  0.154  0.000  0.000  0.845
  0.998  0.002  0.000  0.000  0.000
  0.000  0.000  1.000  0.000  0.000
  0.001  0.844  0.000  0.000  0.155
  0.000  0.000  0.000  1.000  0.000
    occupations:
  0.928  0.000 -0.000 -0.121 -0.001
  0.000  0.635  0.000  0.000 -0.000
 -0.000  0.000  0.867 -0.000 -0.000
 -0.121  0.000 -0.000  0.697  0.001
 -0.001 -0.000 -0.000  0.001  0.896
atom   23   Tr[ns(na)] =   8.03969
    eigenvalues:
  0.590  0.593  0.929  0.931  0.976
    eigenvectors:
  0.995  0.000  0.000  0.000  0.005
  0.000  0.000  0.997  0.003  0.000
  0.000  0.000  0.003  0.997  0.000
  0.005  0.000  0.000  0.000  0.995
  0.000  1.000  0.000  0.000  0.000
    occupations:
  0.592  0.000  0.002  0.028 -0.000
  0.000  0.929 -0.000  0.000 -0.001
  0.002 -0.000  0.931  0.000  0.000
  0.028  0.000  0.000  0.974  0.000
 -0.000 -0.001  0.000  0.000  0.593
N of occupied +U levels =  64.3764548
 --- exit write_ns ---

[...]

          k = 0.2500-0.4833 0.0000 ( 30510 PWs)   bands (ev):

[...]

          k =-0.2500 0.2417 0.0000 ( 30481 PWs)   bands (ev):

   -48.8695 -48.8176 -48.8080 -48.8074 -48.8034 -48.7870 -48.7368 -48.7272
   -48.7214 -48.7001 -48.6907 -48.6833 -48.6540 -48.6176 -48.5046 -48.4965
   -48.4910 -48.4355 -48.4301 -48.4250 -48.4225 -48.4171 -48.3917 -48.3788
   -21.3692 -21.0895 -20.9259 -20.8362 -20.5330 -20.4324 -20.3929 -20.3545
   -20.2861 -20.2052 -20.0874 -20.0829 -20.0437 -19.8710 -19.8287 -19.8126
   -19.0322 -18.9124  -9.9130  -9.7750  -9.7363  -9.4777  -9.2051  -9.0801
    -8.9632  -8.8995  -8.7379  -8.6814  -8.6389  -8.4943  -8.4894  -8.3661
    -8.2746  -8.1442  -8.0222  -7.9680  -7.6756  -7.4791  -7.4454  -7.3048
    -7.1450  -7.1024  -6.9946  -6.9271  -6.8422  -6.6199  -6.5340  -6.4386
    -6.4259  -6.3211  -6.2651  -6.1540  -6.0874  -6.0592  -5.9538  -5.8682
    -5.7969  -5.6707  -5.5551  -5.4430  -5.2036  -5.0367  -5.0315  -4.9079
    -4.7601  -4.6663  -4.6162  -4.5339  -4.1970  -4.1934  -4.1442  -4.0149
    -3.9391  -3.9143  -3.7426  -3.6686  -3.6053  -3.5487  -3.3868  -3.3755
    -3.3197  -3.2251  -3.1449  -3.1157  -3.0080  -2.9352  -2.6775  -2.4729
    -2.2580  -2.1382  -2.1012  -1.9994  -1.9874  -1.7771  -1.6139  -1.5558
    -0.9670  -0.6967  -0.2568  -0.1286   0.3987   0.5510   0.6731   0.9286
     1.1535   1.4020   1.5648   1.6392   1.7964   1.8224   1.9407   2.1560
     3.6307   3.9586   4.4855   4.8821   5.2721   5.4493   5.5013   5.7415
     5.9438   6.2130   6.3478   6.3877   6.3967   6.6510   6.7838   6.9403
     7.1979   7.3371   7.4506   7.6182   7.7025   7.8866   8.0341   8.0371
     8.1364   8.2227   8.3924   8.3981   8.6230   8.7548   8.8445   8.9080
     8.9101   9.1824   9.3240   9.4549   9.5450   9.6321   9.6879   9.7396
     9.8610   9.9265  10.1253  10.1539  10.2547  10.2961  10.3667  10.5151
    10.5794  10.6495  10.7877  10.8518  10.8774  11.0235  11.0372  11.2157
    11.3245  11.3389  11.4449  11.4705  11.5010  11.5849  11.6938  11.7605
    11.8184  12.0012  12.1230  12.1592  12.1861  12.2134  12.2973  12.3863
    12.4340  12.5108  12.5859  12.6124  12.7063  12.7869  12.9026  13.0050
    13.0731  13.1270  13.2232  13.2773  13.3769  13.3855  13.4551  13.5490
    13.6857  13.6973  13.8047  13.8664  13.8892  14.0742  14.1279  14.1725
    14.1815  14.2772  14.3792  14.4845  14.5696  14.5924  14.6732  14.7401
    14.8130  15.0532  15.2328  15.3100  15.3807  15.4200  15.4882  15.4937
    15.5418  15.6226  15.6846  15.6943  15.7842  15.7868  15.9503  16.0006
    16.0645  16.0755  16.1836  16.3245  16.3445  16.3677  16.4220  16.5031
    16.5483  16.5586  16.6230  16.6505  16.7454  16.8352  16.9772  16.9982
    17.1329  17.2034  17.2182  17.3207  17.3370  17.4040  17.4979  17.5224
    17.5759  17.6273  17.7402  17.7594  17.8704  17.8930  18.0378  18.0639
    18.1044  18.1512  18.2463  18.3477  18.4172  18.4950  18.4990  18.6515
    18.7483  18.8513  18.8827  18.9150  18.9757  19.0271  19.0822  19.1554
    19.2084  19.2356  19.3070  19.4848  19.4939  19.5528  19.6863  19.7232
    19.7590  19.9228  19.9255  20.0347  20.1375  20.2434  20.3222  20.3502
    20.4563  20.5534  20.6215  20.6649  20.6750  20.7705  20.8475  20.9117
    20.9384  21.0343  21.1149  21.1192  21.1743  21.2311  21.3275  21.3942
    21.4165  21.4452  21.5665  21.6266  21.6705  21.7159  21.7878  21.8564
    21.8601  21.9217  22.0015  22.1174

     the Fermi energy is    -1.9962 ev

!    total energy              =   -1946.65241211 Ry
     Harris-Foulkes estimate   =   -1946.65241211 Ry
     estimated scf accuracy    <          5.1E-09 Ry

     The total energy is the sum of the following terms:

     one-electron contribution =  -22635.13386810 Ry
     hartree contribution      =   11364.83989429 Ry
     xc contribution           =    -365.21978852 Ry
     ewald contribution        =    9687.32101398 Ry
     Hubbard energy            =       1.54185415 Ry
     smearing contrib. (-TS)   =      -0.00151791 Ry

     convergence has been achieved in  15 iterations

     Forces acting on atoms (Ry/au):

     negative rho (up, down):  0.688E+00 0.000E+00
     atom    1 type  1   force =    -0.00675234   -0.01266069    0.00018089
     atom    2 type  1   force =     0.00009030    0.00372878   -0.00056047
     atom    3 type  2   force =    -0.00007258    0.00552686   -0.00052825
     atom    4 type  2   force =     0.00823655    0.00861613   -0.00008288
     atom    5 type  1   force =    -0.00241924   -0.02851224    0.00003047
     atom    6 type  1   force =     0.00360829    0.02553604    0.00005429
     atom    7 type  1   force =    -0.00031597   -0.00125685    0.00050181
     atom    8 type  1   force =    -0.00292990   -0.00061462   -0.00022441
     atom    9 type  2   force =     0.00119640   -0.00015235   -0.00043018
     atom   10 type  2   force =     0.00001830   -0.00164292    0.00041509
     atom   11 type  1   force =    -0.00016924    0.01240973    0.00015606
     atom   12 type  1   force =     0.00032495   -0.01187604    0.00018157
     atom   13 type  1   force =    -0.00069060   -0.00001629   -0.00041519
     atom   14 type  1   force =    -0.00676313   -0.01266190    0.00017675
     atom   15 type  1   force =     0.00008482    0.00372672   -0.00055799
     atom   16 type  2   force =    -0.00007350    0.00552711   -0.00052932
     atom   17 type  2   force =     0.00823304    0.00861663   -0.00008993
     atom   18 type  1   force =    -0.00242186   -0.02851165    0.00003021
     atom   19 type  1   force =     0.00360553    0.02553532    0.00005414
     atom   20 type  1   force =    -0.00032361   -0.00125689    0.00049380
     atom   21 type  1   force =    -0.00293712   -0.00061468   -0.00021171
     atom   22 type  2   force =     0.00120296   -0.00015258   -0.00043231
     atom   23 type  2   force =     0.00001603   -0.00164290    0.00041959
     atom   24 type  1   force =    -0.00016871    0.01240682    0.00015627
     atom   25 type  1   force =     0.00032553   -0.01187319    0.00018188
     atom   26 type  1   force =    -0.00069751   -0.00001628   -0.00037688
     atom   27 type  3   force =     0.00000981    0.00057325    0.00070528
     atom   28 type  3   force =     0.00000969    0.00057481    0.00070531
     atom   29 type  3   force =    -0.00011755    0.00034103   -0.00000317
     atom   30 type  3   force =    -0.00010931    0.00034286   -0.00000072

     Total force =     0.002219     Total SCF correction =     0.000153

     bfgs converged in   9 scf cycles and   8 bfgs steps
     (criteria: energy < 0.10E-03, force < 0.10E-02)

     End of BFGS Geometry Optimization

     Final energy   =   -1946.6524121104 Ry
Begin final coordinates

ATOMIC_POSITIONS (crystal)
O0       0.000000000   0.000000000   0.378839914    0   0   1
O0       0.000000000   0.500000000   0.401351834    0   0   1
Rh1      0.250000000   0.500000000   0.452496926    0   0   1
Rh1      0.000000000   0.000000000   0.453149138    0   0   1
O0       0.250000000   0.810000000   0.452899593    0   0   1
O0       0.250000000   0.190000000   0.452653106    0   0   1
O0       0.000000000   0.500000000   0.499274222    0   0   1
O0       0.000000000   0.000000000   0.528575105    0   0   1
Rh1      0.250000000   0.000000000   0.575957849    0   0   1
Rh1      0.000000000   0.500000000   0.571364812    0   0   1
O0       0.250000000   0.690000000   0.576663086    0   0   1
O0       0.250000000   0.310000000   0.576673269    0   0   1
O0       0.000000000   0.000000000   0.621367463    0   0   1
O0       0.500000000   0.000000000   0.378840435    0   0   1
O0       0.500000000   0.500000000   0.401351703    0   0   1
Rh1      0.750000000   0.500000000   0.452496984    0   0   1
Rh1      0.500000000   0.000000000   0.453149320    0   0   1
O0       0.750000000   0.810000000   0.452899630    0   0   1
O0       0.750000000   0.190000000   0.452653104    0   0   1
O0       0.500000000   0.500000000   0.499274434    0   0   1
O0       0.500000000   0.000000000   0.528573907    0   0   1
Rh1      0.750000000   0.000000000   0.575957937    0   0   1
Rh1      0.500000000   0.500000000   0.571364745    0   0   1
O0       0.750000000   0.690000000   0.576663506    0   0   1
O0       0.750000000   0.310000000   0.576673693    0   0   1
O0       0.500000000   0.000000000   0.621364644    0   0   1
H2      -0.000220646   0.637939759   0.384538919
H2       0.499779338   0.637939072   0.384538566
H2       0.148404680   0.033514242   0.368126609
H2       0.648401882   0.033514322   0.368125544
End final coordinates

     General routines

     Parallel routines
     Hubbard U routines

   This run was terminated on:   9: 9:48   9May2014

   JOB DONE.