     Program PWSCF v.5.0.2 (svn rev. 9656) starts on 30May2014 at 13:21: 8

     Current dimensions of program PWSCF are:
     Max number of different atomic species (ntypx) = 10
     Max number of k-points (npk) =  40000
     Max angular momentum in pseudopotentials (lmaxx) =  3
     Reading input from pwscf.in
Warning: card &CELL ignored
Warning: card / ignored

     Subspace diagonalization in iterative solution of the eigenvalue problem:
     a serial algorithm will be used

     bravais-lattice index     =            0
     lattice parameter (alat)  =      11.7919  a.u.
     unit-cell volume          =    7123.6633 (a.u.)^3
     number of atoms/cell      =           33
     number of atomic types    =            3
     number of electrons       =       253.00
     number of Kohn-Sham states=          367
     kinetic-energy cutoff     =      40.0000  Ry
     charge density cutoff     =     500.0000  Ry
     convergence threshold     =      1.0E-06
     mixing beta               =       0.7000
     number of iterations used =            8  plain     mixing
     Exchange-correlation      = SLA  PW   PBE  PBE ( 1 4 3 4 0)
     EXX-fraction              =        0.00
     nstep                     =           50

     celldm(1)=  11.791891  celldm(2)=   0.000000  celldm(3)=   0.000000
     celldm(4)=   0.000000  celldm(5)=   0.000000  celldm(6)=   0.000000

     crystal axes: (cart. coord. in units of alat)
               a(1) = (   1.000000   0.000000   0.000000 )
               a(2) = (   0.000000   1.026665   0.000000 )
               a(3) = (   0.000000   0.000000   4.231793 )

     reciprocal axes: (cart. coord. in units 2 pi/alat)
               b(1) = (  1.000000  0.000000  0.000000 )
               b(2) = (  0.000000  0.974028  0.000000 )
               b(3) = (  0.000000  0.000000  0.236306 )

     PseudoPot. # 1 for O  read from file:
     /home/camp/zhonxu/pseudo/o_pbe_v1.01.uspp.F.UPF
     MD5 check sum: 2bcb18d16ea4b960afae9ec6d52f22d2
     Pseudo is Ultrasoft + core correction, Zval =  6.0
     Generated by new atomic code, or converted to UPF format
     Using radial grid of  737 points,  5 beta functions with:
                l(1) =   0
                l(2) =   0
                l(3) =   1
                l(4) =   1
                l(5) =   2
     Q(r) pseudized with  8 coefficients,  rinner =    0.900   0.900   0.900
                                                       0.900   0.900

     PseudoPot. # 2 for Ru read from file:
     /home/camp/zhonxu/pseudo/ru_pbe_v1.uspp.F.UPF
     MD5 check sum: df00be1c11b23341d9806d8f1dfa10cf
     Pseudo is Ultrasoft + core correction, Zval = 16.0
     Generated by new atomic code, or converted to UPF format
     Using radial grid of  967 points,  6 beta functions with:
                l(1) =   0
                l(2) =   0
                l(3) =   1
                l(4) =   1
                l(5) =   2
                l(6) =   2
     Q(r) pseudized with  8 coefficients,  rinner =    1.300   1.300   1.300
                                                       1.300   1.300

     PseudoPot. # 3 for H  read from file:
     /home/camp/zhonxu/pseudo/h_pbe_v1.uspp.F.UPF
     MD5 check sum: 3408e3ff4ec8b0a4e358431e7e038a48
     Pseudo is Ultrasoft, Zval =  1.0
     Generated by new atomic code, or converted to UPF format
     Using radial grid of  615 points,  2 beta functions with:
                l(1) =   0
                l(2) =   0
     Q(r) pseudized with  8 coefficients,  rinner =    0.700

     atomic species   valence    mass     pseudopotential
        O0             6.00    15.99940     O ( 1.00)
        Ru1           16.00   101.07000     Ru( 1.00)
        H2             1.00     1.00794     H ( 1.00)

     Simplified LDA+U calculation (l_max = 2) with parameters (eV):
     atomic species    L          U    alpha       J0     beta
        Ru1            2     1.0000   0.0000   0.0000   0.0000

     No symmetry found

   Cartesian axes

     site n.     atom                  positions (alat units)
         1           O0  tau(   1) = (   0.0000000   0.0000000   1.5976288  )
         2           O0  tau(   2) = (   0.0000000   0.5133323   1.7135376  )
         3           Ru1 tau(   3) = (   0.2500000   0.5133323   1.9265237  )
         4           Ru1 tau(   4) = (   0.0000000   0.0000000   1.9104429  )
         5           O0  tau(   5) = (   0.2500000   0.8315984   1.9133628  )
         6           O0  tau(   6) = (   0.2500000   0.1950663   1.9137014  )
         7           O0  tau(   7) = (   0.0000000   0.5133323   2.1143307  )
         8           O0  tau(   8) = (   0.0000000   0.0000000   2.2232570  )
         9           Ru1 tau(   9) = (   0.2500000   0.0000000   2.4362008  )
        10           Ru1 tau(  10) = (   0.0000000   0.5133323   2.4139839  )
        11           O0  tau(  11) = (   0.2500000   0.7083986   2.4352275  )
        12           O0  tau(  12) = (   0.2500000   0.3182660   2.4428024  )
        13           O0  tau(  13) = (   0.0000000   0.0000000   2.6141054  )
        14           O0  tau(  14) = (   0.5000000   0.0000000   1.5980943  )
        15           O0  tau(  15) = (   0.5000000   0.5133323   1.7110408  )
        16           Ru1 tau(  16) = (   0.7500000   0.5133323   1.9265660  )
        17           Ru1 tau(  17) = (   0.5000000   0.0000000   1.9113316  )
        18           O0  tau(  18) = (   0.7500000   0.8315984   1.9134475  )
        19           O0  tau(  19) = (   0.7500000   0.1950663   1.9137014  )
        20           O0  tau(  20) = (   0.5000000   0.5133323   2.1248255  )
        21           O0  tau(  21) = (   0.5000000   0.0000000   2.2236379  )
        22           Ru1 tau(  22) = (   0.7500000   0.0000000   2.4362855  )
        23           Ru1 tau(  23) = (   0.5000000   0.5133323   2.4472458  )
        24           O0  tau(  24) = (   0.7500000   0.7083986   2.4352698  )
        25           O0  tau(  25) = (   0.7500000   0.3182660   2.4426755  )
        26           O0  tau(  26) = (   0.5000000   0.0000000   2.6042453  )
        27           H2  tau(  27) = (  -0.0003700   0.6408749   1.6195494  )
        28           H2  tau(  28) = (   0.4997300   0.6446633   1.6222578  )
        29           H2  tau(  29) = (   0.1462300   0.0299786   1.5449853  )
        30           H2  tau(  30) = (   0.6457400   0.0313441   1.5450699  )
        31           O0  tau(  31) = (   0.5000700   0.5415759   2.7547279  )
        32           O0  tau(  32) = (   0.4999900   0.3417972   2.8749108  )
        33           H2  tau(  33) = (   0.4999600   0.4009947   3.0215847  )

     number of k points=    10  Methfessel-Paxton smearing, width (Ry)=  0.0100
                       cart. coord. in units 2pi/alat
        k(    1) = (   0.0000000   0.0000000   0.0000000), wk =   0.1250000
        k(    2) = (   0.0000000   0.2435070   0.0000000), wk =   0.2500000
        k(    3) = (   0.0000000  -0.4870139   0.0000000), wk =   0.1250000
        k(    4) = (   0.2500000   0.0000000   0.0000000), wk =   0.2500000
        k(    5) = (   0.2500000   0.2435070   0.0000000), wk =   0.2500000
        k(    6) = (   0.2500000  -0.4870139   0.0000000), wk =   0.2500000
        k(    7) = (  -0.5000000   0.0000000   0.0000000), wk =   0.1250000
        k(    8) = (  -0.5000000   0.2435070   0.0000000), wk =   0.2500000
        k(    9) = (  -0.5000000  -0.4870139   0.0000000), wk =   0.1250000
        k(   10) = (  -0.2500000   0.2435070   0.0000000), wk =   0.2500000

     Largest allocated arrays     est. size (Mb)     dimensions
     Largest temporary arrays     est. size (Mb)     dimensions

     Check: negative/imaginary core charge=   -0.000003    0.000000

     Initial potential from superposition of free atoms
     Check: negative starting charge=   -0.523679

     starting charge  244.99980, renormalised to  253.00000

     negative rho (up, down):  0.541E+00 0.000E+00
     Number of +U iterations with fixed ns =  0
     Starting occupations:
 --- enter write_ns ---
 LDA+U parameters:
U( 2)     =  1.00000000
alpha( 2) =  0.00000000
atom    3   Tr[ns(na)] =   6.00000
    eigenvalues:
  0.600  0.600  0.600  0.600  0.600
    eigenvectors:
  1.000  0.000  0.000  0.000  0.000
  0.000  1.000  0.000  0.000  0.000
  0.000  0.000  1.000  0.000  0.000
  0.000  0.000  0.000  1.000  0.000
  0.000  0.000  0.000  0.000  1.000
    occupations:
  0.600  0.000  0.000  0.000  0.000
  0.000  0.600  0.000  0.000  0.000
  0.000  0.000  0.600  0.000  0.000
  0.000  0.000  0.000  0.600  0.000
  0.000  0.000  0.000  0.000  0.600
atom    4   Tr[ns(na)] =   6.00000
    eigenvalues:
  0.600  0.600  0.600  0.600  0.600
    eigenvectors:
  1.000  0.000  0.000  0.000  0.000
  0.000  1.000  0.000  0.000  0.000
  0.000  0.000  1.000  0.000  0.000
  0.000  0.000  0.000  1.000  0.000
  0.000  0.000  0.000  0.000  1.000
    occupations:
  0.600  0.000  0.000  0.000  0.000
  0.000  0.600  0.000  0.000  0.000
  0.000  0.000  0.600  0.000  0.000
  0.000  0.000  0.000  0.600  0.000
  0.000  0.000  0.000  0.000  0.600
atom    9   Tr[ns(na)] =   6.00000
    eigenvalues:
  0.600  0.600  0.600  0.600  0.600
    eigenvectors:
  1.000  0.000  0.000  0.000  0.000
  0.000  1.000  0.000  0.000  0.000
  0.000  0.000  1.000  0.000  0.000
  0.000  0.000  0.000  1.000  0.000
  0.000  0.000  0.000  0.000  1.000
    occupations:
  0.600  0.000  0.000  0.000  0.000
  0.000  0.600  0.000  0.000  0.000
  0.000  0.000  0.600  0.000  0.000
  0.000  0.000  0.000  0.600  0.000
  0.000  0.000  0.000  0.000  0.600
atom   10   Tr[ns(na)] =   6.00000
    eigenvalues:
  0.600  0.600  0.600  0.600  0.600
    eigenvectors:
  1.000  0.000  0.000  0.000  0.000
  0.000  1.000  0.000  0.000  0.000
  0.000  0.000  1.000  0.000  0.000
  0.000  0.000  0.000  1.000  0.000
  0.000  0.000  0.000  0.000  1.000
    occupations:
  0.600  0.000  0.000  0.000  0.000
  0.000  0.600  0.000  0.000  0.000
  0.000  0.000  0.600  0.000  0.000
  0.000  0.000  0.000  0.600  0.000
  0.000  0.000  0.000  0.000  0.600
atom   16   Tr[ns(na)] =   6.00000
    eigenvalues:
  0.600  0.600  0.600  0.600  0.600
    eigenvectors:
  1.000  0.000  0.000  0.000  0.000
  0.000  1.000  0.000  0.000  0.000
  0.000  0.000  1.000  0.000  0.000
  0.000  0.000  0.000  1.000  0.000
  0.000  0.000  0.000  0.000  1.000
    occupations:
  0.600  0.000  0.000  0.000  0.000
  0.000  0.600  0.000  0.000  0.000
  0.000  0.000  0.600  0.000  0.000
  0.000  0.000  0.000  0.600  0.000
  0.000  0.000  0.000  0.000  0.600
atom   17   Tr[ns(na)] =   6.00000
    eigenvalues:
  0.600  0.600  0.600  0.600  0.600
    eigenvectors:
  1.000  0.000  0.000  0.000  0.000
  0.000  1.000  0.000  0.000  0.000
  0.000  0.000  1.000  0.000  0.000
  0.000  0.000  0.000  1.000  0.000
  0.000  0.000  0.000  0.000  1.000
    occupations:
  0.600  0.000  0.000  0.000  0.000
  0.000  0.600  0.000  0.000  0.000
  0.000  0.000  0.600  0.000  0.000
  0.000  0.000  0.000  0.600  0.000
  0.000  0.000  0.000  0.000  0.600
atom   22   Tr[ns(na)] =   6.00000
    eigenvalues:
  0.600  0.600  0.600  0.600  0.600
    eigenvectors:
  1.000  0.000  0.000  0.000  0.000
  0.000  1.000  0.000  0.000  0.000
  0.000  0.000  1.000  0.000  0.000
[...]
  0.002  0.000 -0.001 -0.001  0.810
atom   10   Tr[ns(na)] =   7.18456
    eigenvalues:
  0.542  0.552  0.729  0.821  0.948
    eigenvectors:
  0.000  0.990  0.000  0.000  0.010
  0.000  0.000  0.000  0.999  0.000
  0.000  0.000  1.000  0.000  0.000
  0.000  0.010  0.000  0.000  0.990
  0.999  0.000  0.000  0.000  0.000
    occupations:
  0.556  0.000  0.002  0.039  0.000
  0.000  0.821  0.000  0.000 -0.006
  0.002  0.000  0.729 -0.001  0.000
  0.039  0.000 -0.001  0.944 -0.000
  0.000 -0.006  0.000 -0.000  0.542
atom   16   Tr[ns(na)] =   7.17066
    eigenvalues:
  0.527  0.571  0.719  0.813  0.955
    eigenvectors:
  0.001  0.189  0.005  0.000  0.806
  0.997  0.003  0.000  0.000  0.000
  0.000  0.000  0.974  0.018  0.008
  0.002  0.808  0.003  0.000  0.187
  0.000  0.000  0.018  0.982  0.000
    occupations:
  0.881  0.005  0.020 -0.150  0.000
  0.005  0.527  0.000  0.000 -0.001
  0.020  0.000  0.723 -0.006 -0.013
 -0.150  0.000 -0.006  0.643  0.000
  0.000 -0.001 -0.013  0.000  0.811
atom   17   Tr[ns(na)] =   7.16124
    eigenvalues:
  0.557  0.603  0.688  0.776  0.957
    eigenvectors:
  0.000  0.990  0.000  0.000  0.009
  0.000  0.000  0.022  0.978  0.000
  0.000  0.000  0.978  0.022  0.000
  0.000  0.009  0.000  0.000  0.990
  1.000  0.000  0.000  0.000  0.000
    occupations:
  0.606 -0.001  0.000  0.034  0.001
 -0.001  0.774  0.013 -0.001 -0.001
  0.000  0.013  0.690  0.001  0.000
  0.034 -0.001  0.001  0.954 -0.000
  0.001 -0.001  0.000 -0.000  0.557
atom   22   Tr[ns(na)] =   7.13962
    eigenvalues:
  0.584  0.603  0.769  0.803  0.810
    eigenvectors:
  0.000  0.160  0.002  0.825  0.012
  0.999  0.001  0.000  0.000  0.000
  0.000  0.000  0.994  0.004  0.002
  0.001  0.838  0.002  0.157  0.002
  0.000  0.000  0.002  0.014  0.984
    occupations:
  0.771  0.003 -0.003 -0.073  0.001
  0.003  0.584  0.001 -0.002  0.000
 -0.003  0.001  0.769 -0.002  0.002
 -0.073 -0.002 -0.002  0.635 -0.000
  0.001  0.000  0.002 -0.000  0.810
atom   23   Tr[ns(na)] =   7.18368
    eigenvalues:
  0.553  0.593  0.718  0.793  0.935
    eigenvectors:
  0.000  0.996  0.000  0.000  0.003
  0.001  0.000  0.999  0.000  0.000
  0.000  0.000  0.000  0.999  0.000
  0.000  0.003  0.000  0.000  0.997
  0.999  0.000  0.001  0.000  0.000
    occupations:
  0.594  0.000  0.003  0.020  0.000
  0.000  0.718  0.001  0.000 -0.005
  0.003  0.001  0.793 -0.001 -0.000
  0.020  0.000 -0.001  0.934 -0.000
  0.000 -0.005 -0.000 -0.000  0.554
N of occupied +U levels =  57.3182843
 --- exit write_ns ---

     Threshold (ethr) on eigenvalues was too large:
     Diagonalizing with lowered threshold

     Davidson diagonalization with overlap
     ethr =  1.61E-08,  avg # of iterations =  2.9

[...]

     total energy              =   -2196.20055869 Ry
     Harris-Foulkes estimate   =   -2196.20055869 Ry
     estimated scf accuracy    <       0.00000001 Ry

     iteration # 20     ecut=    40.00 Ry     beta=0.70
     Davidson diagonalization with overlap
     ethr =  5.49E-12,  avg # of iterations =  1.0

     negative rho (up, down):  0.579E+00 0.000E+00

     End of self-consistent calculation
 --- enter write_ns ---
 LDA+U parameters:
U( 2)     =  1.00000000
alpha( 2) =  0.00000000
atom    3   Tr[ns(na)] =   7.16995
    eigenvalues:
  0.527  0.571  0.720  0.813  0.955
    eigenvectors:
  0.001  0.189  0.004  0.000  0.805
  0.997  0.003  0.000  0.000  0.000
  0.000  0.000  0.972  0.020  0.007
  0.002  0.808  0.003  0.000  0.187
  0.000  0.000  0.021  0.979  0.000
    occupations:
  0.881 -0.005  0.019 -0.150 -0.000
 -0.005  0.527 -0.000 -0.000 -0.001
  0.019 -0.000  0.723 -0.006  0.013
 -0.150 -0.000 -0.006  0.643 -0.000
 -0.000 -0.001  0.013 -0.000  0.811
atom    4   Tr[ns(na)] =   7.16438
    eigenvalues:
  0.557  0.601  0.683  0.782  0.959
    eigenvectors:
  0.000  0.990  0.000  0.000  0.010
  0.000  0.000  0.018  0.982  0.000
  0.000  0.000  0.982  0.018  0.000
  0.000  0.010  0.000  0.000  0.990
  1.000  0.000  0.000  0.000  0.000
    occupations:
  0.605 -0.001  0.000  0.035  0.001
 -0.001  0.781  0.013 -0.001 -0.001
  0.000  0.013  0.685  0.002  0.000
  0.035 -0.001  0.002  0.955  0.000
  0.001 -0.001  0.000  0.000  0.557
atom    9   Tr[ns(na)] =   7.14099
    eigenvalues:
  0.584  0.603  0.769  0.803  0.811
    eigenvectors:
  0.000  0.160  0.004  0.715  0.121
  0.996  0.004  0.000  0.000  0.000
  0.000  0.000  0.992  0.004  0.003
  0.004  0.836  0.003  0.134  0.023
  0.000  0.000  0.001  0.146  0.853
    occupations:
  0.772 -0.003 -0.004 -0.074  0.002
 -0.003  0.584  0.001  0.003  0.000
 -0.004  0.001  0.769 -0.002 -0.001
 -0.074  0.003 -0.002  0.635 -0.001
  0.002  0.000 -0.001 -0.001  0.810
atom   10   Tr[ns(na)] =   7.18619
    eigenvalues:
  0.542  0.552  0.729  0.821  0.948
    eigenvectors:
  0.000  0.990  0.000  0.000  0.010
  0.000  0.000  0.000  0.999  0.000
  0.000  0.000  1.000  0.000  0.000
  0.000  0.010  0.000  0.000  0.990
  1.000  0.000  0.000  0.000  0.000
    occupations:
  0.556  0.000  0.002  0.039  0.000
  0.000  0.821  0.000  0.000 -0.006
  0.002  0.000  0.729 -0.001  0.000
  0.039  0.000 -0.001  0.944 -0.000
  0.000 -0.006  0.000 -0.000  0.542
atom   16   Tr[ns(na)] =   7.16978
    eigenvalues:
  0.527  0.571  0.719  0.813  0.955
    eigenvectors:
  0.001  0.189  0.005  0.000  0.806
  0.997  0.003  0.000  0.000  0.000
  0.000  0.000  0.974  0.018  0.008
  0.002  0.808  0.003  0.000  0.187
  0.000  0.000  0.018  0.982  0.000
    occupations:
  0.881  0.005  0.020 -0.150  0.000
  0.005  0.527  0.000  0.000 -0.001
  0.020  0.000  0.723 -0.006 -0.012
 -0.150  0.000 -0.006  0.643  0.000
  0.000 -0.001 -0.012  0.000  0.811
atom   17   Tr[ns(na)] =   7.16082
    eigenvalues:
  0.557  0.603  0.687  0.776  0.957
    eigenvectors:
  0.000  0.990  0.000  0.000  0.009
  0.000  0.000  0.022  0.978  0.000
  0.000  0.000  0.978  0.022  0.000
  0.000  0.009  0.000  0.000  0.990
  1.000  0.000  0.000  0.000  0.000
    occupations:
  0.606 -0.001  0.000  0.034  0.001
 -0.001  0.774  0.013 -0.001 -0.001
  0.000  0.013  0.689  0.001  0.000
  0.034 -0.001  0.001  0.954 -0.000
  0.001 -0.001  0.000 -0.000  0.557
atom   22   Tr[ns(na)] =   7.14075
    eigenvalues:
  0.584  0.603  0.769  0.804  0.810
    eigenvectors:
  0.000  0.160  0.002  0.825  0.012
  0.999  0.001  0.000  0.000  0.000
  0.000  0.000  0.994  0.004  0.002
  0.001  0.838  0.002  0.156  0.002
  0.000  0.000  0.002  0.014  0.984
    occupations:
  0.771  0.003 -0.003 -0.073  0.001
  0.003  0.584  0.001 -0.002  0.000
 -0.003  0.001  0.770 -0.002  0.002
 -0.073 -0.002 -0.002  0.635 -0.000
  0.001  0.000  0.002 -0.000  0.810
atom   23   Tr[ns(na)] =   7.18367
    eigenvalues:
  0.553  0.592  0.718  0.793  0.935
    eigenvectors:
  0.000  0.996  0.000  0.000  0.003
  0.001  0.000  0.999  0.000  0.000
  0.000  0.000  0.000  0.999  0.000
  0.000  0.003  0.000  0.000  0.997
  0.999  0.000  0.001  0.000  0.000
    occupations:
  0.594  0.000  0.003  0.020  0.000
  0.000  0.718  0.001  0.000 -0.005
  0.003  0.001  0.793 -0.001 -0.000
  0.020  0.000 -0.001  0.934 -0.000
  0.000 -0.005 -0.000 -0.000  0.554
N of occupied +U levels =  57.3165333
 --- exit write_ns ---

[...]

          k = 0.2500-0.4870 0.0000 ( 30468 PWs)   bands (ev):

[...]

          k =-0.2500 0.2435 0.0000 ( 30434 PWs)   bands (ev):

   -74.2143 -74.2063 -73.9271 -73.9136 -73.8680 -73.6467 -73.6379 -73.6306
   -44.3691 -44.2348 -44.1821 -44.1680 -44.1594 -44.1510 -44.1122 -44.0931
   -44.0874 -43.9802 -43.9421 -43.8854 -43.8457 -43.8257 -43.7679 -43.7069
   -43.7049 -43.6036 -43.5647 -43.5449 -43.5048 -43.4884 -43.4766 -43.4598
   -23.1816 -20.5261 -20.0964 -19.9953 -19.9474 -19.7376 -19.4957 -19.4075
   -19.3070 -19.2486 -19.2010 -19.1675 -18.9969 -18.9709 -18.8873 -18.8189
   -18.7900 -18.7591 -18.4605 -16.9602  -8.7280  -8.4633  -8.1687  -8.1522
    -8.1279  -7.8769  -7.8152  -7.5767  -7.5218  -7.4048  -7.3525  -7.2589
    -7.2269  -7.1413  -7.1089  -7.0503  -6.9675  -6.8709  -6.8049  -6.5507
    -6.3800  -6.3496  -6.1559  -6.0609  -5.9916  -5.7504  -5.5742  -5.4744
    -5.3760  -5.2327  -5.1291  -5.0656  -5.0035  -4.9159  -4.8712  -4.7914
    -4.7077  -4.6222  -4.5913  -4.4692  -4.4384  -4.3885  -4.2909  -4.1120
    -4.0178  -3.8161  -3.7216  -3.7000  -3.5803  -3.5235  -3.4481  -3.3732
    -3.1691  -3.1018  -2.9901  -2.7538  -2.6955  -2.4022  -2.0571  -1.8368
    -1.5886  -1.4836  -1.3987  -1.3285  -1.2499  -1.1925  -1.1220  -1.0958
    -1.0551  -1.0376  -0.9361  -0.9133  -0.7872  -0.6415  -0.5392  -0.3041
    -0.1895  -0.1131   0.0638   0.2103   0.2800   0.3813   0.5588   1.2278
     1.8849   1.9851   2.1071   2.1576   2.6546   2.9737   3.0593   3.2715
     3.4756   3.5837   3.6684   3.7190   3.8132   3.9066   4.0854   4.1309
     4.3446   4.5309   4.7410   5.2575   5.6483   5.8130   6.1012   6.1311
     6.2106   6.5292   6.5895   6.7403   6.9121   7.1232   7.1557   7.4628
     7.6291   7.7638   7.9525   8.0780   8.1486   8.4230   8.4704   8.5812
     8.6647   8.7538   8.9304   9.0184   9.1163   9.2593   9.3700   9.4373
     9.6044   9.6932   9.7222   9.8645  10.0402  10.1104  10.1700  10.2600
    10.2983  10.4350  10.5194  10.6208  10.6528  10.7765  10.8351  10.9533
    11.0142  11.1541  11.2702  11.3657  11.4011  11.5473  11.6013  11.7029
    11.7852  11.8806  11.9896  12.0146  12.0546  12.1148  12.1925  12.2522
    12.3755  12.4005  12.5133  12.6157  12.6920  12.7542  12.8114  12.8690
    12.9284  12.9860  13.0658  13.1809  13.2078  13.3167  13.3804  13.4575
    13.5502  13.6637  13.7651  13.8293  13.9270  13.9715  14.0184  14.1425
    14.2137  14.2918  14.4230  14.4726  14.5792  14.6672  14.7289  14.7675
    14.8404  14.9001  15.0004  15.0729  15.1831  15.2141  15.3093  15.3280
    15.4321  15.4956  15.5483  15.6256  15.7058  15.7915  15.8373  15.8944
    15.9505  16.0000  16.0721  16.1314  16.1732  16.2147  16.2863  16.3090
    16.3973  16.4332  16.5603  16.6297  16.7051  16.7506  16.7966  16.8936
    16.9387  16.9749  17.0421  17.1288  17.2568  17.3300  17.3527  17.4713
    17.5032  17.5452  17.5773  17.6699  17.7588  17.7903  17.8299  17.9125
    17.9997  18.0192  18.0743  18.1063  18.2033  18.2478  18.3203  18.3919
    18.4524  18.4979  18.6272  18.6952  18.7760  18.8683  18.8792  18.9554
    19.0483  19.1345  19.2170  19.2663  19.3054  19.4225  19.4957  19.5971
    19.6344  19.7146  19.7871  19.8324  19.8898  19.9642  20.0172  20.1314
    20.2145  20.2329  20.3130  20.4983  20.5472  20.5847  20.6438  20.7300
    20.8767  20.9212  20.9463  20.9794  21.0461  21.0824  21.1443  21.2428
    21.3116  21.3559  21.4237  21.4608  21.5117  21.5714  21.6159  21.6680
    21.7399  21.8109  21.8713  21.9271  21.9577  22.0469  22.0695  22.1309
    22.2100  22.2991  22.3324  22.4203  22.4687  22.5164  22.6268

     the Fermi energy is    -0.4953 ev

!    total energy              =   -2196.20055869 Ry
     Harris-Foulkes estimate   =   -2196.20055869 Ry
     estimated scf accuracy    <          3.8E-09 Ry

     The total energy is the sum of the following terms:

     one-electron contribution =  -25615.66647622 Ry
     hartree contribution      =   12836.32870235 Ry
     xc contribution           =    -345.51870631 Ry
     ewald contribution        =   10928.11540437 Ry
     Hubbard energy            =       0.54090753 Ry
     smearing contrib. (-TS)   =      -0.00039041 Ry

     convergence has been achieved in  20 iterations

     Forces acting on atoms (Ry/au):

     negative rho (up, down):  0.579E+00 0.000E+00
     atom    1 type  1   force =    -0.00430687   -0.00989638   -0.00012776
     atom    2 type  1   force =    -0.00015908    0.00686064   -0.00023381
     atom    3 type  2   force =     0.03451591   -0.00024126   -0.00021401
     atom    4 type  2   force =     0.00364446    0.00573177   -0.00010034
     atom    5 type  1   force =     0.00179908   -0.03049935   -0.00016420
     atom    6 type  1   force =     0.00195833    0.03239538   -0.00000454
     atom    7 type  1   force =     0.00025201   -0.00522569    0.00054783
     atom    8 type  1   force =    -0.00012334    0.00031603   -0.00053083
     atom    9 type  2   force =    -0.01316100    0.00007458    0.00070293
     atom   10 type  2   force =     0.00006147    0.00156350   -0.00065555
     atom   11 type  1   force =    -0.01106502    0.01121813    0.00026746
     atom   12 type  1   force =    -0.00484688   -0.00765863    0.00001062
     atom   13 type  1   force =    -0.00164141   -0.00203317    0.00093710
     atom   14 type  1   force =    -0.00502318   -0.01058604   -0.00012551
     atom   15 type  1   force =    -0.00009641    0.00602125   -0.00037699
     atom   16 type  2   force =    -0.03498915   -0.00033869   -0.00027045
     atom   17 type  2   force =     0.00326677    0.00586702    0.00008230
     atom   18 type  1   force =     0.00003642   -0.03076762   -0.00011419
     atom   19 type  1   force =     0.00018055    0.03252726    0.00002419
     atom   20 type  1   force =     0.00009525   -0.00457343   -0.00041483
     atom   21 type  1   force =     0.00008732    0.00064582   -0.00044423
     atom   22 type  2   force =     0.01494616   -0.00053376    0.00069255
     atom   23 type  2   force =     0.00018722    0.00117572    0.00026597
     atom   24 type  1   force =     0.01089831    0.01129643    0.00018708
     atom   25 type  1   force =     0.00485675   -0.00771931   -0.00003092
     atom   26 type  1   force =    -0.00164901   -0.00711484    0.00066893
     atom   27 type  3   force =    -0.00000296   -0.00003535   -0.00023305
     atom   28 type  3   force =     0.00000828    0.00010528   -0.00023255
     atom   29 type  3   force =     0.00015354   -0.00003591    0.00010611
     atom   30 type  3   force =     0.00015608   -0.00004633    0.00007095
     atom   31 type  1   force =     0.00010781    0.00042763   -0.00025732
     atom   32 type  1   force =    -0.00015168    0.00076418   -0.00021012
     atom   33 type  3   force =     0.00000429    0.00031515    0.00017719

     Total force =     0.002344     Total SCF correction =     0.000136

     entering subroutine stress ...

     negative rho (up, down):  0.579E+00 0.000E+00
          total   stress  (Ry/bohr**3)                   (kbar)     P=   -6.55
  -0.00004957   0.00000172   0.00000248         -7.29      0.25      0.36
   0.00000172  -0.00004669   0.00000313          0.25     -6.87      0.46
   0.00000248   0.00000313  -0.00003723          0.36      0.46     -5.48

     bfgs converged in   9 scf cycles and   8 bfgs steps
     (criteria: energy < 0.10E-03, force < 0.10E-02)

     End of BFGS Geometry Optimization

     Final energy   =   -2196.2005586860 Ry
Begin final coordinates

ATOMIC_POSITIONS (crystal)
O0       0.000000000   0.000000000   0.377918512    0   0   1
O0       0.000000000   0.500000000   0.405016723    0   0   1
Ru1      0.250000000   0.500000000   0.455165503    0   0   1
Ru1      0.000000000   0.000000000   0.451714686    0   0   1
O0       0.250000000   0.810000000   0.452394206    0   0   1
O0       0.250000000   0.190000000   0.452402970    0   0   1
O0       0.000000000   0.500000000   0.499768868    0   0   1
O0       0.000000000   0.000000000   0.525336470    0   0   1
Ru1      0.250000000   0.000000000   0.575636356    0   0   1
Ru1      0.000000000   0.500000000   0.570164649    0   0   1
O0       0.250000000   0.690000000   0.575122529    0   0   1
O0       0.250000000   0.310000000   0.577151463    0   0   1
O0       0.000000000   0.000000000   0.617517110    0   0   1
O0       0.500000000   0.000000000   0.378000514    0   0   1
O0       0.500000000   0.500000000   0.404493033    0   0   1
Ru1      0.750000000   0.500000000   0.455168026    0   0   1
Ru1      0.500000000   0.000000000   0.451902229    0   0   1
O0       0.750000000   0.810000000   0.452402968    0   0   1
O0       0.750000000   0.190000000   0.452394197    0   0   1
O0       0.500000000   0.500000000   0.501967804    0   0   1
O0       0.500000000   0.000000000   0.525431461    0   0   1
Ru1      0.750000000   0.000000000   0.575669252    0   0   1
Ru1      0.500000000   0.500000000   0.578042322    0   0   1
O0       0.750000000   0.690000000   0.575151260    0   0   1
O0       0.750000000   0.310000000   0.577100574    0   0   1
O0       0.500000000   0.000000000   0.615303242    0   0   1
H2      -0.000434307   0.623051597   0.382479612
H2       0.499662488   0.627025845   0.383257645
H2       0.146371201   0.028816492   0.365503807
H2       0.645928495   0.030202924   0.365541308
O0       0.500351615   0.527723332   0.650559134
O0       0.499791066   0.334133885   0.679203349
H2       0.499935570   0.393090739   0.713738216
End final coordinates

     General routines

     Parallel routines
     Hubbard U routines

   This run was terminated on:   1:59:58  31May2014

   JOB DONE.