     Program PWSCF v.5.0.2 (svn rev. 9656) starts on  1May2014 at  6:30:50

     Current dimensions of program PWSCF are:
     Max number of different atomic species (ntypx) = 10
     Max number of k-points (npk) =  40000
     Max angular momentum in pseudopotentials (lmaxx) =  3
     Reading input from pwscf.in
Warning: card &CELL ignored
Warning: card / ignored

     Subspace diagonalization in iterative solution of the eigenvalue problem:
     a serial algorithm will be used

     bravais-lattice index     =            0
     lattice parameter (alat)  =      10.7336  a.u.
     unit-cell volume          =    6184.1966 (a.u.)^3
     number of atoms/cell      =           33
     number of atomic types    =            3
     number of electrons       =       245.00 (up: 134.00, down: 111.00)
     number of Kohn-Sham states=          355
     kinetic-energy cutoff     =      40.0000  Ry
     charge density cutoff     =     500.0000  Ry
     convergence threshold     =      1.0E-06
     mixing beta               =       0.3000
     number of iterations used =            8  plain     mixing
     Exchange-correlation      = SLA  PW   PBE  PBE ( 1 4 3 4 0)
     EXX-fraction              =        0.00
     nstep                     =           50

     celldm(1)=  10.733644  celldm(2)=   0.000000  celldm(3)=   0.000000
     celldm(4)=   0.000000  celldm(5)=   0.000000  celldm(6)=   0.000000

     crystal axes: (cart. coord. in units of alat)
               a(1) = (   1.000000   0.000000   0.000000 )
               a(2) = (   0.000000   1.085558   0.000000 )
               a(3) = (   0.000000   0.000000   4.606685 )

     reciprocal axes: (cart. coord. in units 2 pi/alat)
               b(1) = (  1.000000  0.000000  0.000000 )
               b(2) = (  0.000000  0.921185  0.000000 )
               b(3) = (  0.000000  0.000000  0.217076 )

     PseudoPot. # 1 for O  read from file:
     /home/camp/zhonxu/pseudo/o_pbe_v1.01.uspp.F.UPF
     MD5 check sum: 2bcb18d16ea4b960afae9ec6d52f22d2
     Pseudo is Ultrasoft + core correction, Zval =  6.0
     Generated by new atomic code, or converted to UPF format
     Using radial grid of  737 points,  5 beta functions with:
                l(1) =   0
                l(2) =   0
                l(3) =   1
                l(4) =   1
                l(5) =   2
     Q(r) pseudized with  8 coefficients,  rinner =    0.900   0.900   0.900
                                                       0.900   0.900

     PseudoPot. # 2 for Mn read from file:
     /home/camp/zhonxu/pseudo/mn_pbe_v1.uspp.F.UPF
     MD5 check sum: 5fd7c7b5c956fd19902447332617373a
     Pseudo is Ultrasoft + core correction, Zval = 15.0
     Generated by new atomic code, or converted to UPF format
     Using radial grid of  859 points,  6 beta functions with:
                l(1) =   0
                l(2) =   0
                l(3) =   1
                l(4) =   1
                l(5) =   2
                l(6) =   2
     Q(r) pseudized with  6 coefficients,  rinner =    1.150   1.150   1.150
                                                       1.150   1.150

     PseudoPot. # 3 for H  read from file:
     /home/camp/zhonxu/pseudo/h_pbe_v1.uspp.F.UPF
     MD5 check sum: 3408e3ff4ec8b0a4e358431e7e038a48
     Pseudo is Ultrasoft, Zval =  1.0
     Generated by new atomic code, or converted to UPF format
     Using radial grid of  615 points,  2 beta functions with:
                l(1) =   0
                l(2) =   0
     Q(r) pseudized with  8 coefficients,  rinner =    0.700

     atomic species   valence    mass     pseudopotential
        O0             6.00    15.99940     O ( 1.00)
        Mn1           15.00    54.93800     Mn( 1.00)
        H2             1.00     1.00794     H ( 1.00)

     Starting magnetic structure
     atomic species   magnetization
        O0           0.000
        Mn1          0.600
        H2           0.000

     No symmetry found

   Cartesian axes

     site n.     atom                  positions (alat units)
         1           O0  tau(   1) = (   0.0000000   0.0000000   1.7440910  )
         2           O0  tau(   2) = (   0.0000000   0.5427791   1.8348887  )
         3           Mn1 tau(   3) = (   0.2500000   0.5427791   2.0695072  )
         4           Mn1 tau(   4) = (   0.0000000   0.0000000   2.0719487  )
         5           O0  tau(   5) = (   0.2500000   0.8684466   2.0695533  )
         6           O0  tau(   6) = (   0.2500000   0.2171117   2.0770161  )
         7           O0  tau(   7) = (   0.0000000   0.5427791   2.2881405  )
         8           O0  tau(   8) = (   0.0000000   0.0000000   2.4167130  )
         9           Mn1 tau(   9) = (   0.2500000   0.0000000   2.6452046  )
        10           Mn1 tau(  10) = (   0.0000000   0.5427791   2.6189465  )
        11           O0  tau(  11) = (   0.2500000   0.7598908   2.6694358  )
        12           O0  tau(  12) = (   0.2500000   0.3256675   2.6696661  )
        13           O0  tau(  13) = (   0.0000000   0.0000000   2.8462864  )
        14           O0  tau(  14) = (   0.5000000   0.0000000   1.7440910  )
        15           O0  tau(  15) = (   0.5000000   0.5427791   1.8348887  )
        16           Mn1 tau(  16) = (   0.7500000   0.5427791   2.0695072  )
        17           Mn1 tau(  17) = (   0.5000000   0.0000000   2.0719487  )
        18           O0  tau(  18) = (   0.7500000   0.8684466   2.0695533  )
        19           O0  tau(  19) = (   0.7500000   0.2171117   2.0770161  )
        20           O0  tau(  20) = (   0.5000000   0.5427791   2.2881405  )
        21           O0  tau(  21) = (   0.5000000   0.0000000   2.4167130  )
        22           Mn1 tau(  22) = (   0.7500000   0.0000000   2.6452046  )
        23           Mn1 tau(  23) = (   0.5000000   0.5427791   2.6189465  )
        24           O0  tau(  24) = (   0.7500000   0.7598908   2.6694358  )
        25           O0  tau(  25) = (   0.7500000   0.3256675   2.6696661  )
        26           O0  tau(  26) = (   0.5000000   0.0000000   2.8462864  )
        27           H2  tau(  27) = (  -0.0000900   0.7018026   1.7591088  )
        28           H2  tau(  28) = (   0.4999100   0.7018026   1.7591088  )
        29           H2  tau(  29) = (   0.1616900   0.0388738   1.6898703  )
        30           H2  tau(  30) = (   0.6616900   0.0388738   1.6898703  )
        31           O0  tau(  31) = (   0.5000000   0.5427791   2.9710815  )
        32           O0  tau(  32) = (   0.5000000   0.3376738   3.0918227  )
        33           H2  tau(  33) = (   0.5000000   0.3898023   3.2585387  )

     number of k points=    20  Methfessel-Paxton smearing, width (Ry)=  0.0100
                       cart. coord. in units 2pi/alat
        k(    1) = (   0.0000000   0.0000000   0.0000000), wk =   0.0625000
        k(    2) = (   0.0000000   0.2302962   0.0000000), wk =   0.1250000
        k(    3) = (   0.0000000  -0.4605925   0.0000000), wk =   0.0625000
        k(    4) = (   0.2500000   0.0000000   0.0000000), wk =   0.1250000
        k(    5) = (   0.2500000   0.2302962   0.0000000), wk =   0.1250000
        k(    6) = (   0.2500000  -0.4605925   0.0000000), wk =   0.1250000
        k(    7) = (  -0.5000000   0.0000000   0.0000000), wk =   0.0625000
        k(    8) = (  -0.5000000   0.2302962   0.0000000), wk =   0.1250000
        k(    9) = (  -0.5000000  -0.4605925   0.0000000), wk =   0.0625000
        k(   10) = (  -0.2500000   0.2302962   0.0000000), wk =   0.1250000
        k(   11) = (   0.0000000   0.0000000   0.0000000), wk =   0.0625000
        k(   12) = (   0.0000000   0.2302962   0.0000000), wk =   0.1250000
        k(   13) = (   0.0000000  -0.4605925   0.0000000), wk =   0.0625000
        k(   14) = (   0.2500000   0.0000000   0.0000000), wk =   0.1250000
        k(   15) = (   0.2500000   0.2302962   0.0000000), wk =   0.1250000
        k(   16) = (   0.2500000  -0.4605925   0.0000000), wk =   0.1250000
        k(   17) = (  -0.5000000   0.0000000   0.0000000), wk =   0.0625000
        k(   18) = (  -0.5000000   0.2302962   0.0000000), wk =   0.1250000
        k(   19) = (  -0.5000000  -0.4605925   0.0000000), wk =   0.0625000
        k(   20) = (  -0.2500000   0.2302962   0.0000000), wk =   0.1250000

     Largest allocated arrays     est. size (Mb)     dimensions
     Largest temporary arrays     est. size (Mb)     dimensions

     Check: negative/imaginary core charge=   -0.000022    0.000000

     Initial potential from superposition of free atoms
     Check: negative starting charge=(component1):   -0.000652
     Check: negative starting charge=(component2):   -0.000360

     starting charge  236.99986, renormalised to  245.00000

     negative rho (up, down):  0.674E-03 0.372E-03
     Starting wfc are  189 randomized atomic wfcs

     Self-consistent Calculation

     iteration #  1     ecut=    40.00 Ry     beta=0.30
     Davidson diagonalization with overlap
     ethr =  1.00E-02,  avg # of iterations =  5.4

     negative rho (up, down):  0.698E-03 0.504E-03

     total energy              =   -2348.44957725 Ry
     Harris-Foulkes estimate   =   -2351.98502428 Ry
     estimated scf accuracy    <      17.76319842 Ry

     total magnetization       =    23.00 Bohr mag/cell
     absolute magnetization    =    35.42 Bohr mag/cell

[...]

     End of self-consistent calculation

 ------ SPIN UP ------------

          k = 0.0000 0.0000 0.0000 ( 26393 PWs)   bands (ev):

   -83.3769 -83.3671 -83.2142 -83.0077 -82.9965 -82.9567 -82.6938 -82.6833
   -52.2238 -52.1093 -52.0096 -51.9915 -51.9823 -51.9748 -51.9720 -51.8828
   -51.8526 -51.8378 -51.7627 -51.7080 -51.6975 -51.6906 -51.6226 -51.6007
   -51.5022 -51.4908 -51.4371 -51.4314 -51.4232 -51.3146 -51.2870 -51.2653
   -25.1478 -21.3532 -20.6916 -20.5102 -20.2863 -19.7477 -19.5737 -19.5513
   -19.4029 -19.3897 -19.2832 -19.1642 -19.0553 -19.0513 -19.0007 -18.9943
   -18.4841 -18.2490 -18.0826 -16.9924  -9.5659  -9.2177  -8.9892  -8.7100
    -8.6707  -8.3605  -8.1113  -7.8004  -7.7459  -7.7226  -7.6442  -7.5661
    -7.3258  -7.2787  -7.1486  -7.0824  -6.9939  -6.8961  -6.8826  -6.7173
    -6.6930  -6.5826  -6.5606  -6.4096  -6.2978  -6.0900  -6.0098  -5.9958
    -5.9209  -5.8351  -5.3627  -5.3109  -5.2533  -5.0673  -5.0066  -4.8843
    -4.8382  -4.7043  -4.6055  -4.5927  -4.4064  -4.3648  -4.2947  -4.2902
    -4.1500  -4.0399  -4.0167  -3.9000  -3.8520  -3.8083  -3.8009  -3.7387
    -3.6903  -3.6157  -3.4563  -3.3375  -3.2517  -3.2452  -3.1633  -3.1344
    -3.0223  -2.9953  -2.8409  -2.7998  -2.6080  -2.5250  -2.4992  -2.3074
    -2.1979  -2.1570  -2.0242  -1.9864  -1.8257  -1.8177  -1.7764  -1.6856
    -1.5832  -1.4703  -1.2823  -1.2117  -1.1381  -0.8995  -0.8749  -0.7068
    -0.5853   0.1098   0.3885   0.4760   0.5887   0.6780   0.7164   0.7522
     1.1690   1.3026   1.3214   1.5723   1.9423   1.9504   2.2813   2.8489
     3.4808   3.6744   4.2541   4.9252   5.0534   5.7371   5.9341   6.4873
     6.7988   7.1039   7.1916   7.2275   7.4259   7.4659   7.5849   7.5864
     7.6826   7.7843   7.8874   8.1186   8.2220   8.2728   8.2766   8.5287
     8.6932   8.8624   8.9106   8.9629   8.9875   9.2878   9.4842   9.6288
[...]
     atom   25 type  1   force =     0.01441906    0.05481219   -0.02483690
     atom   26 type  1   force =    -0.00031057   -0.02489041   -0.01559271
     atom   27 type  3   force =     0.00008351    0.00052133    0.00143433
     atom   28 type  3   force =     0.00008274   -0.00030050    0.00102700
     atom   29 type  3   force =    -0.00044354    0.00001849    0.00037082
     atom   30 type  3   force =    -0.00057275    0.00005901    0.00039486
     atom   31 type  1   force =    -0.00002746    0.06498683    0.00908969
     atom   32 type  1   force =     0.00001097   -0.02609248    0.02321483
     atom   33 type  3   force =    -0.00001240    0.00756090   -0.00129345

     Total force =     0.024964     Total SCF correction =     0.000250

     BFGS Geometry Optimization

     number of scf cycles    =   1
     number of bfgs steps    =   0

     energy   new            =   -2354.2687242424 Ry

     new trust radius        =       0.0232148308 bohr
     new conv_thr            =       0.0000010000 Ry

ATOMIC_POSITIONS (crystal)
O0       0.000000000   0.000000000   0.378600000    0   0   0
O0       0.000000000   0.500000000   0.398310000    0   0   0
Mn1      0.250000000   0.500000000   0.449240000    0   0   0
Mn1      0.000000000   0.000000000   0.449770000    0   0   0
O0       0.250000000   0.800000000   0.449250000    0   0   0
O0       0.250000000   0.200000000   0.450870000    0   0   0
O0       0.000000000   0.500000000   0.496700000    0   0   0
O0       0.000000000   0.000000000   0.524610000    0   0   0
Mn1      0.250000000   0.000000000   0.574210000    0   0   0
Mn1      0.000000000   0.500000000   0.568510000    0   0   0
O0       0.250000000   0.700000000   0.579470000    0   0   0
O0       0.250000000   0.300000000   0.579520000    0   0   0
O0       0.000000000   0.000000000   0.617860000    0   0   0
O0       0.500000000   0.000000000   0.378600000    0   0   0
O0       0.500000000   0.500000000   0.398310000    0   0   0
Mn1      0.750000000   0.500000000   0.449240000    0   0   0
Mn1      0.500000000   0.000000000   0.449770000    0   0   0
O0       0.750000000   0.800000000   0.449250000    0   0   0
O0       0.750000000   0.200000000   0.450870000    0   0   0
O0       0.500000000   0.500000000   0.496700000    0   0   0
O0       0.500000000   0.000000000   0.524610000    0   0   0
Mn1      0.750000000   0.000000000   0.574210000    0   0   0
Mn1      0.500000000   0.500000000   0.568510000    0   0   0
O0       0.750000000   0.700000000   0.579470000    0   0   0
O0       0.750000000   0.300000000   0.579520000    0   0   0
O0       0.500000000   0.000000000   0.617860000    0   0   0
H2      -0.000090000   0.646490000   0.381860000    0   0   0
H2       0.499910000   0.646490000   0.381860000    0   0   0
H2       0.161690000   0.035810000   0.366830000    0   0   0
H2       0.661690000   0.035810000   0.366830000    0   0   0
O0       0.499997441   0.500000000   0.645133829    1   0   1
O0       0.500001022   0.311060000   0.671629494    1   0   1
H2       0.499998845   0.359080000   0.707323842    1   0   1

     Check: negative starting charge=(component1):   -0.000959
     NEW-OLD atomic charge density approx. for the potential

     Check: negative/imaginary core charge=   -0.000022    0.000000
     Check: negative starting charge=(component1):   -0.000959

[...]

     energy   old            =   -2354.2687242424 Ry
     energy   new            =   -2354.2690524918 Ry

     CASE: energy  _new < energy  _old

[...]

     WARNING: bfgs curvature condition failed, Theta= 0.872
     new trust radius        =       0.0302040951 bohr
     new conv_thr            =       0.0000000562 Ry

[...]

     number of scf cycles    =  10
     number of bfgs steps    =   9

     energy   old            =   -2354.2746040516 Ry
     energy   new            =   -2354.2746456914 Ry

     CASE: energy  _new < energy  _old

     new trust radius        =       0.0214433554 bohr
     new conv_thr            =       0.0000000100 Ry

ATOMIC_POSITIONS (crystal)
O0       0.000000000   0.000000000   0.378600000    0   0   0
O0       0.000000000   0.500000000   0.398310000    0   0   0
Mn1      0.250000000   0.500000000   0.449240000    0   0   0
Mn1      0.000000000   0.000000000   0.449770000    0   0   0
O0       0.250000000   0.800000000   0.449250000    0   0   0
O0       0.250000000   0.200000000   0.450870000    0   0   0
O0       0.000000000   0.500000000   0.496700000    0   0   0
O0       0.000000000   0.000000000   0.524610000    0   0   0
Mn1      0.250000000   0.000000000   0.574210000    0   0   0
Mn1      0.000000000   0.500000000   0.568510000    0   0   0
O0       0.250000000   0.700000000   0.579470000    0   0   0
O0       0.250000000   0.300000000   0.579520000    0   0   0
O0       0.000000000   0.000000000   0.617860000    0   0   0
O0       0.500000000   0.000000000   0.378600000    0   0   0
O0       0.500000000   0.500000000   0.398310000    0   0   0
Mn1      0.750000000   0.500000000   0.449240000    0   0   0
Mn1      0.500000000   0.000000000   0.449770000    0   0   0
O0       0.750000000   0.800000000   0.449250000    0   0   0
O0       0.750000000   0.200000000   0.450870000    0   0   0
O0       0.500000000   0.500000000   0.496700000    0   0   0
O0       0.500000000   0.000000000   0.524610000    0   0   0
Mn1      0.750000000   0.000000000   0.574210000    0   0   0
Mn1      0.500000000   0.500000000   0.568510000    0   0   0
O0       0.750000000   0.700000000   0.579470000    0   0   0
O0       0.750000000   0.300000000   0.579520000    0   0   0
O0       0.500000000   0.000000000   0.617860000    0   0   0
H2      -0.000090000   0.646490000   0.381860000    0   0   0
H2       0.499910000   0.646490000   0.381860000    0   0   0
H2       0.161690000   0.035810000   0.366830000    0   0   0
H2       0.661690000   0.035810000   0.366830000    0   0   0
O0       0.499857293   0.500000000   0.655548657    1   0   1
O0       0.500288042   0.311060000   0.682156498    1   0   1
H2       0.499860317   0.359080000   0.718380419    1   0   1

     Check: negative starting charge=(component1):   -0.000944
     NEW-OLD atomic charge density approx. for the potential

     Check: negative/imaginary core charge=   -0.000022    0.000000
     Check: negative starting charge=(component1):   -0.000942

[...]

     Self-consistent Calculation

[...]

     Threshold (ethr) on eigenvalues was too large:
     Diagonalizing with lowered threshold

     Davidson diagonalization with overlap
     ethr =  6.98E-08,  avg # of iterations =  1.0

[...]

     total energy              =   -2354.27465286 Ry
     Harris-Foulkes estimate   =   -2354.27465286 Ry
     estimated scf accuracy    <       0.00000001 Ry

[...]

     iteration # 16     ecut=    40.00 Ry     beta=0.30
     Davidson diagonalization with overlap
     ethr =  5.02E-12,  avg # of iterations =  1.8

     negative rho (up, down):  0.210E-02 0.125E-02

     End of self-consistent calculation

 ------ SPIN UP ------------

[...]

 ------ SPIN DOWN ----------

[...]

          k = 0.2500-0.4606 0.0000 ( 26462 PWs)   bands (ev):

[...]

          k =-0.2500 0.2303 0.0000 ( 26396 PWs)   bands (ev):

   -79.8417 -79.8336 -79.6474 -79.6389 -79.6133 -79.6049 -79.5606 -79.0732
   -48.7432 -48.6520 -48.6446 -48.6329 -48.5695 -48.5673 -48.5608 -48.5409
   -48.5255 -48.5199 -48.4893 -48.4658 -48.4642 -48.4362 -48.4189 -48.3038
   -48.2468 -48.2312 -48.2218 -48.2153 -48.1993 -48.1112 -47.9163 -47.6074
   -25.5183 -21.0510 -20.6382 -20.1471 -19.9142 -19.5930 -19.5590 -19.3183
   -19.2672 -19.2157 -19.1016 -19.0786 -18.9619 -18.9272 -18.8850 -18.5713
   -18.3554 -18.0314 -17.9094 -17.5086  -9.6386  -8.6375  -8.3516  -7.9055
    -7.8068  -7.6742  -7.5432  -7.3371  -7.2438  -7.0416  -6.9743  -6.8990
    -6.8551  -6.7084  -6.6340  -6.4848  -6.4650  -6.2396  -6.2204  -6.1189
    -6.0907  -5.9597  -5.8001  -5.6613  -5.6009  -5.5587  -5.4940  -5.2460
    -5.0170  -5.0064  -4.9050  -4.7201  -4.6849  -4.6434  -4.6147  -4.4876
    -4.4618  -4.2828  -4.2546  -4.0665  -3.9990  -3.8817  -3.7950  -3.6651
    -3.4614  -3.3374  -3.2540  -3.2222  -3.0664  -2.9650  -2.8032  -2.7541
    -2.7017  -2.4864  -2.3657  -2.2929  -2.1937  -2.0668  -1.8363  -0.4601
    -0.2703  -0.2433  -0.1745  -0.1716  -0.0610  -0.0139   0.0327   0.1362
     0.1625   0.3177   0.3659   0.3777   0.5248   0.5923   0.7162   0.7303
     0.7915   0.8609   0.9347   1.0703   1.1148   1.1916   1.3539   1.4088
     1.6705   1.7452   2.0702   2.1668   2.2065   2.3029   2.3556   2.6801
     2.7232   3.0304   3.1005   3.1644   3.2790   3.4161   3.5570   3.5991
     4.0064   4.2529   4.5334   4.8263   5.3707   5.5606   5.7743   6.0356
     6.2319   6.2733   6.3888   6.5319   6.8441   6.9260   7.1634   7.5134
     7.6210   7.7576   7.9580   8.1424   8.3131   8.3710   8.4924   8.6974
     8.8365   8.9764   9.1790   9.2914   9.4645   9.5855   9.7062   9.8244
     9.9223  10.0048  10.0764  10.1578  10.2462  10.4385  10.5618  10.6094
    10.7405  10.8455  10.9517  10.9857  11.1011  11.2718  11.3363  11.4713
    11.5573  11.6953  11.7429  11.8029  11.9173  12.0255  12.1399  12.2257
    12.2501  12.3203  12.4395  12.4876  12.5715  12.6133  12.7587  12.8274
    12.9118  12.9800  13.1160  13.1450  13.2805  13.3356  13.4534  13.5262
    13.6173  13.6710  13.7070  13.7422  13.9774  14.0590  14.0963  14.1628
    14.3032  14.3716  14.4595  14.4723  14.5001  14.6202  14.7398  14.7860
    14.8861  14.9223  14.9658  15.0498  15.1494  15.2605  15.3411  15.3899
    15.4477  15.5097  15.6110  15.6593  15.7416  15.7831  15.8521  15.9502
    16.0505  16.1235  16.1771  16.2526  16.2845  16.3902  16.4268  16.4932
    16.5549  16.5905  16.7010  16.7398  16.8254  16.9166  16.9969  17.0567
    17.1495  17.2337  17.2630  17.3579  17.3727  17.5420  17.5707  17.6521
    17.6945  17.8003  17.8409  17.9228  17.9823  18.0255  18.0707  18.2026
    18.2261  18.3348  18.3658  18.4269  18.5403  18.6444  18.6812  18.7441
    18.8043  18.8432  18.9503  19.0129  19.0678  19.0992  19.2067  19.2795
    19.4167  19.4563  19.5537  19.6386  19.6587  19.7265  19.8232  19.8581
    20.0004  20.0308  20.0933  20.2181  20.2769  20.3223  20.4731  20.5720
    20.6251  20.7001  20.8144  20.8571  20.9476  21.0219  21.0656  21.1395
    21.2312  21.2881  21.3681  21.4083  21.5168  21.5747  21.6295  21.7269
    21.8527  21.9336  22.0320  22.0857  22.1402  22.2423  22.2802  22.3819
    22.4344  22.4899  22.5732  22.6522  22.6797  22.7589  22.7813  22.9101
    23.0240  23.0904  23.1181

     the spin up/dw Fermi energies are    -0.8718   -1.4801 ev

!    total energy              =   -2354.27465286 Ry
     Harris-Foulkes estimate   =   -2354.27465286 Ry
     estimated scf accuracy    <          3.9E-09 Ry

     The total energy is the sum of the following terms:

     one-electron contribution =  -27101.46071993 Ry
     hartree contribution      =   13578.36721628 Ry
     xc contribution           =    -355.95102367 Ry
     ewald contribution        =   11524.77059354 Ry
     smearing contrib. (-TS)   =      -0.00071908 Ry

     total magnetization       =    23.00 Bohr mag/cell
     absolute magnetization    =    25.64 Bohr mag/cell

     convergence has been achieved in  16 iterations

     Forces acting on atoms (Ry/au):

     negative rho (up, down):  0.210E-02 0.125E-02
     atom    1 type  1   force =    -0.00416040   -0.01594284   -0.00223485
     atom    2 type  1   force =     0.00018756    0.01322655    0.00149385
     atom    3 type  2   force =    -0.00575284   -0.00415457    0.00140105
     atom    4 type  2   force =     0.00416225    0.01040648    0.00295878
     atom    5 type  1   force =     0.00331338    0.00499554   -0.00020817
     atom    6 type  1   force =    -0.00287247   -0.00762174   -0.00081292
     atom    7 type  1   force =    -0.00004731    0.00062565   -0.00928347
     atom    8 type  1   force =    -0.00034651   -0.00245008   -0.00132488
     atom    9 type  2   force =     0.00366772    0.00115483   -0.00369336
     atom   10 type  2   force =    -0.00007553   -0.00133754    0.00711847
     atom   11 type  1   force =    -0.00181456   -0.06368222   -0.00835871
     atom   12 type  1   force =    -0.00646996    0.06137925   -0.01403585
     atom   13 type  1   force =    -0.00020756    0.00068068    0.00681584
     atom   14 type  1   force =    -0.00416736   -0.01582916   -0.00202318
     atom   15 type  1   force =     0.00018703    0.01454085   -0.00276912
     atom   16 type  2   force =     0.00503459   -0.00418230    0.00142870
     atom   17 type  2   force =     0.00415117    0.01057494    0.00245630
     atom   18 type  1   force =     0.00379911    0.00501572   -0.00019137
     atom   19 type  1   force =    -0.00266174   -0.00757905   -0.00084172
     atom   20 type  1   force =    -0.00004621    0.00139219    0.01347358
     atom   21 type  1   force =    -0.00032395   -0.00186503   -0.00234227
     atom   22 type  2   force =    -0.00293226    0.00115057   -0.00368538
     atom   23 type  2   force =    -0.00005736   -0.01224287    0.04120287
     atom   24 type  1   force =     0.00191932   -0.06367258   -0.00834723
     atom   25 type  1   force =     0.00656193    0.06139455   -0.01402676
     atom   26 type  1   force =    -0.00023117   -0.01165415   -0.00745713
     atom   27 type  3   force =     0.00008437    0.00031910    0.00130069
     atom   28 type  3   force =     0.00008333   -0.00059702    0.00112492
     atom   29 type  3   force =    -0.00046154    0.00002005    0.00040856
     atom   30 type  3   force =    -0.00055022    0.00006787    0.00044499
     atom   31 type  1   force =    -0.00006741    0.02393589    0.00067458
     atom   32 type  1   force =     0.00017266   -0.00454912   -0.00022815
     atom   33 type  3   force =    -0.00007808    0.00647956   -0.00043866

     Total force =     0.000860     Total SCF correction =     0.000038

     bfgs converged in  11 scf cycles and  10 bfgs steps
     (criteria: energy < 0.10E-03, force < 0.10E-02)

     End of BFGS Geometry Optimization

     Final energy   =   -2354.2746528604 Ry
Begin final coordinates

ATOMIC_POSITIONS (crystal)
O0       0.000000000   0.000000000   0.378600000    0   0   0
O0       0.000000000   0.500000000   0.398310000    0   0   0
Mn1      0.250000000   0.500000000   0.449240000    0   0   0
Mn1      0.000000000   0.000000000   0.449770000    0   0   0
O0       0.250000000   0.800000000   0.449250000    0   0   0
O0       0.250000000   0.200000000   0.450870000    0   0   0
O0       0.000000000   0.500000000   0.496700000    0   0   0
O0       0.000000000   0.000000000   0.524610000    0   0   0
Mn1      0.250000000   0.000000000   0.574210000    0   0   0
Mn1      0.000000000   0.500000000   0.568510000    0   0   0
O0       0.250000000   0.700000000   0.579470000    0   0   0
O0       0.250000000   0.300000000   0.579520000    0   0   0
O0       0.000000000   0.000000000   0.617860000    0   0   0
O0       0.500000000   0.000000000   0.378600000    0   0   0
O0       0.500000000   0.500000000   0.398310000    0   0   0
Mn1      0.750000000   0.500000000   0.449240000    0   0   0
Mn1      0.500000000   0.000000000   0.449770000    0   0   0
O0       0.750000000   0.800000000   0.449250000    0   0   0
O0       0.750000000   0.200000000   0.450870000    0   0   0
O0       0.500000000   0.500000000   0.496700000    0   0   0
O0       0.500000000   0.000000000   0.524610000    0   0   0
Mn1      0.750000000   0.000000000   0.574210000    0   0   0
Mn1      0.500000000   0.500000000   0.568510000    0   0   0
O0       0.750000000   0.700000000   0.579470000    0   0   0
O0       0.750000000   0.300000000   0.579520000    0   0   0
O0       0.500000000   0.000000000   0.617860000    0   0   0
H2      -0.000090000   0.646490000   0.381860000    0   0   0
H2       0.499910000   0.646490000   0.381860000    0   0   0
H2       0.161690000   0.035810000   0.366830000    0   0   0
H2       0.661690000   0.035810000   0.366830000    0   0   0
O0       0.499857293   0.500000000   0.655548657    1   0   1
O0       0.500288042   0.311060000   0.682156498    1   0   1
H2       0.499860317   0.359080000   0.718380419    1   0   1
End final coordinates

     General routines

     Parallel routines

   This run was terminated on:  22:28:53   1May2014

   JOB DONE.
Running PBS batch system epilogue script
Job id: 344758.audhumbla.fysik.dtu.dk
Username: zhonxu
Groupname: campgst
Jobname: MnO2/Eads-2-layers/OOH
Sessionid: 17645
Queuename: verylong
Accounting:
This job has allocated the following 16 nodes:
b055 b055 b055 b055 b055 b055 b055 b055 b003 b003 b003 b003 b003 b003 b003 b003
Finished epilogue job 344758.audhumbla.fysik.dtu.dk for zhonxu