     Program PWSCF v.5.0.2 (svn rev. 9656) starts on  6May2014 at 15:45:33

     Current dimensions of program PWSCF are:
     Max number of different atomic species (ntypx) = 10
     Max number of k-points (npk) =  40000
     Max angular momentum in pseudopotentials (lmaxx) =  3
     Reading input from pwscf.in
Warning: card &CELL ignored
Warning: card / ignored

     Subspace diagonalization in iterative solution of the eigenvalue problem:
     a serial algorithm will be used

     Found symmetry operation: I + ( -0.5000  0.0000  0.0000)
     This is a supercell, fractional translations are disabled

     bravais-lattice index     =            0
     lattice parameter (alat)  =      11.2250  a.u.
     unit-cell volume          =    7005.5484 (a.u.)^3
     number of atoms/cell      =           30
     number of atomic types    =            3
     number of electrons       =       208.00
     number of Kohn-Sham states=          300
     kinetic-energy cutoff     =      40.0000  Ry
     charge density cutoff     =     500.0000  Ry
     convergence threshold     =      1.0E-06
     mixing beta               =       0.7000
     number of iterations used =            8  plain     mixing
     Exchange-correlation      = SLA  PW   PBE  PBE ( 1 4 3 4 0)
     EXX-fraction              =        0.00
     nstep                     =           50

     celldm(1)=  11.224973  celldm(2)=   0.000000  celldm(3)=   0.000000
     celldm(4)=   0.000000  celldm(5)=   0.000000  celldm(6)=   0.000000

     crystal axes: (cart. coord. in units of alat)
               a(1) = (   1.000000   0.000000   0.000000 )
               a(2) = (   0.000000   1.107086   0.000000 )
               a(3) = (   0.000000   0.000000   4.474090 )

     reciprocal axes: (cart. coord. in units 2 pi/alat)
               b(1) = (  1.000000  0.000000  0.000000 )
               b(2) = (  0.000000  0.903272  0.000000 )
               b(3) = (  0.000000  0.000000  0.223509 )

     PseudoPot. # 1 for O  read from file:
     /home/camp/zhonxu/pseudo/o_pbe_v1.01.uspp.F.UPF
     MD5 check sum: 2bcb18d16ea4b960afae9ec6d52f22d2
     Pseudo is Ultrasoft + core correction, Zval =  6.0
     Generated by new atomic code, or converted to UPF format
     Using radial grid of  737 points,  5 beta functions with:
                l(1) =   0
                l(2) =   0
                l(3) =   1
                l(4) =   1
                l(5) =   2
     Q(r) pseudized with  8 coefficients,  rinner =    0.900   0.900   0.900
                                                       0.900   0.900

     PseudoPot. # 2 for Ti read from file:
     /home/camp/zhonxu/pseudo/ti_pbe_v1.uspp.F.UPF
     MD5 check sum: bcc8f6961b3b91f0cac3ca967d22d0fb
     Pseudo is Ultrasoft + core correction, Zval = 12.0
     Generated by new atomic code, or converted to UPF format
     Using radial grid of  851 points,  6 beta functions with:
                l(1) =   0
                l(2) =   0
                l(3) =   1
                l(4) =   1
                l(5) =   2
                l(6) =   2
     Q(r) pseudized with  6 coefficients,  rinner =    1.000   1.000   1.000
                                                       1.000   1.000

     PseudoPot. # 3 for H  read from file:
     /home/camp/zhonxu/pseudo/h_pbe_v1.uspp.F.UPF
     MD5 check sum: 3408e3ff4ec8b0a4e358431e7e038a48
     Pseudo is Ultrasoft, Zval =  1.0
     Generated by new atomic code, or converted to UPF format
     Using radial grid of  615 points,  2 beta functions with:
                l(1) =   0
                l(2) =   0
     Q(r) pseudized with  8 coefficients,  rinner =    0.700

     atomic species   valence    mass     pseudopotential
        O0             6.00    15.99940     O ( 1.00)
        Ti1           12.00    47.88000     Ti( 1.00)
        H2             1.00     1.00794     H ( 1.00)

     Simplified LDA+U calculation (l_max = 2) with parameters (eV):
     atomic species    L          U    alpha       J0     beta
        Ti1            2     6.5000   0.0000   0.0000   0.0000

     No symmetry found

   Cartesian axes

     site n.     atom                  positions (alat units)
         1           O0  tau(   1) = (   0.0000000   0.0000000   1.6989461  )
         2           O0  tau(   2) = (   0.0000000   0.5535432   1.7901728  )
         3           Ti1 tau(   3) = (   0.2500000   0.5535432   2.0162933  )
         4           Ti1 tau(   4) = (   0.0000000   0.0000000   2.0248388  )
         5           O0  tau(   5) = (   0.2500000   0.8967400   2.0178145  )
         6           O0  tau(   6) = (   0.2500000   0.2103464   2.0226912  )
         7           O0  tau(   7) = (   0.0000000   0.5535432   2.2326603  )
         8           O0  tau(   8) = (   0.0000000   0.0000000   2.3559662  )
         9           Ti1 tau(   9) = (   0.2500000   0.0000000   2.5995804  )
        10           Ti1 tau(  10) = (   0.0000000   0.5535432   2.5483968  )
        11           O0  tau(  11) = (   0.2500000   0.7638896   2.5964932  )
        12           O0  tau(  12) = (   0.2500000   0.3431968   2.5965380  )
        13           O0  tau(  13) = (   0.0000000   0.0000000   2.7842708  )
        14           O0  tau(  14) = (   0.5000000   0.0000000   1.6989461  )
        15           O0  tau(  15) = (   0.5000000   0.5535432   1.7901728  )
        16           Ti1 tau(  16) = (   0.7500000   0.5535432   2.0162933  )
        17           Ti1 tau(  17) = (   0.5000000   0.0000000   2.0248388  )
        18           O0  tau(  18) = (   0.7500000   0.8967400   2.0178145  )
        19           O0  tau(  19) = (   0.7500000   0.2103464   2.0226912  )
        20           O0  tau(  20) = (   0.5000000   0.5535432   2.2326603  )
        21           O0  tau(  21) = (   0.5000000   0.0000000   2.3559662  )
        22           Ti1 tau(  22) = (   0.7500000   0.0000000   2.5995804  )
        23           Ti1 tau(  23) = (   0.5000000   0.5535432   2.5483968  )
        24           O0  tau(  24) = (   0.7500000   0.7638896   2.5964932  )
        25           O0  tau(  25) = (   0.7500000   0.3431968   2.5965380  )
        26           O0  tau(  26) = (   0.5000000   0.0000000   2.7842708  )
        27           H2  tau(  27) = (  -0.0005400   0.6991915   1.7063283  )
        28           H2  tau(  28) = (   0.4994600   0.6991915   1.7063283  )
        29           H2  tau(  29) = (   0.1501800   0.0252084   1.6321479  )
        30           H2  tau(  30) = (   0.6501800   0.0252084   1.6321479  )

     number of k points=    10  Methfessel-Paxton smearing, width (Ry)=  0.0100
                       cart. coord. in units 2pi/alat
        k(    1) = (   0.0000000   0.0000000   0.0000000), wk =   0.1250000
        k(    2) = (   0.0000000   0.2258180   0.0000000), wk =   0.2500000
        k(    3) = (   0.0000000  -0.4516359   0.0000000), wk =   0.1250000
        k(    4) = (   0.2500000   0.0000000   0.0000000), wk =   0.2500000
        k(    5) = (   0.2500000   0.2258180   0.0000000), wk =   0.2500000
        k(    6) = (   0.2500000  -0.4516359   0.0000000), wk =   0.2500000
        k(    7) = (  -0.5000000   0.0000000   0.0000000), wk =   0.1250000
        k(    8) = (  -0.5000000   0.2258180   0.0000000), wk =   0.2500000
        k(    9) = (  -0.5000000  -0.4516359   0.0000000), wk =   0.1250000
        k(   10) = (  -0.2500000   0.2258180   0.0000000), wk =   0.2500000

     Largest allocated arrays     est. size (Mb)     dimensions
     Largest temporary arrays     est. size (Mb)     dimensions

     Check: negative/imaginary core charge=   -0.000005    0.000000

     Initial potential from superposition of free atoms
     Check: negative starting charge=   -0.102816

     starting charge  199.99958, renormalised to  208.00000

     negative rho (up, down):  0.107E+00 0.000E+00
     Number of +U iterations with fixed ns =  0
     Starting occupations:
 --- enter write_ns ---
 LDA+U parameters:
U( 2)     =  6.50000000
alpha( 2) =  0.00000000
atom    3   Tr[ns(na)] =   2.00000
    eigenvalues:
  0.200  0.200  0.200  0.200  0.200
    eigenvectors:
  1.000  0.000  0.000  0.000  0.000
  0.000  1.000  0.000  0.000  0.000
  0.000  0.000  1.000  0.000  0.000
  0.000  0.000  0.000  1.000  0.000
  0.000  0.000  0.000  0.000  1.000
    occupations:
  0.200  0.000  0.000  0.000  0.000
  0.000  0.200  0.000  0.000  0.000
  0.000  0.000  0.200  0.000  0.000
  0.000  0.000  0.000  0.200  0.000
  0.000  0.000  0.000  0.000  0.200
atom    4   Tr[ns(na)] =   2.00000
    eigenvalues:
  0.200  0.200  0.200  0.200  0.200
    eigenvectors:
  1.000  0.000  0.000  0.000  0.000
  0.000  1.000  0.000  0.000  0.000
  0.000  0.000  1.000  0.000  0.000
  0.000  0.000  0.000  1.000  0.000
  0.000  0.000  0.000  0.000  1.000
    occupations:
  0.200  0.000  0.000  0.000  0.000
  0.000  0.200  0.000  0.000  0.000
  0.000  0.000  0.200  0.000  0.000
  0.000  0.000  0.000  0.200  0.000
  0.000  0.000  0.000  0.000  0.200
atom    9   Tr[ns(na)] =   2.00000
    eigenvalues:
  0.200  0.200  0.200  0.200  0.200
    eigenvectors:
  1.000  0.000  0.000  0.000  0.000
  0.000  1.000  0.000  0.000  0.000
  0.000  0.000  1.000  0.000  0.000
  0.000  0.000  0.000  1.000  0.000
  0.000  0.000  0.000  0.000  1.000
    occupations:
  0.200  0.000  0.000  0.000  0.000
  0.000  0.200  0.000  0.000  0.000
  0.000  0.000  0.200  0.000  0.000
  0.000  0.000  0.000  0.200  0.000
  0.000  0.000  0.000  0.000  0.200
atom   10   Tr[ns(na)] =   2.00000
    eigenvalues:
  0.200  0.200  0.200  0.200  0.200
    eigenvectors:
  1.000  0.000  0.000  0.000  0.000
  0.000  1.000  0.000  0.000  0.000
  0.000  0.000  1.000  0.000  0.000
  0.000  0.000  0.000  1.000  0.000
  0.000  0.000  0.000  0.000  1.000
    occupations:
  0.200  0.000  0.000  0.000  0.000
  0.000  0.200  0.000  0.000  0.000
  0.000  0.000  0.200  0.000  0.000
  0.000  0.000  0.000  0.200  0.000
  0.000  0.000  0.000  0.000  0.200
atom   16   Tr[ns(na)] =   2.00000
    eigenvalues:
  0.200  0.200  0.200  0.200  0.200
    eigenvectors:
  1.000  0.000  0.000  0.000  0.000
  0.000  1.000  0.000  0.000  0.000
  0.000  0.000  1.000  0.000  0.000
  0.000  0.000  0.000  1.000  0.000
  0.000  0.000  0.000  0.000  1.000
    occupations:
  0.200  0.000  0.000  0.000  0.000
  0.000  0.200  0.000  0.000  0.000
  0.000  0.000  0.200  0.000  0.000
  0.000  0.000  0.000  0.200  0.000
  0.000  0.000  0.000  0.000  0.200
atom   17   Tr[ns(na)] =   2.00000
    eigenvalues:
  0.200  0.200  0.200  0.200  0.200
    eigenvectors:
  1.000  0.000  0.000  0.000  0.000
  0.000  1.000  0.000  0.000  0.000
  0.000  0.000  1.000  0.000  0.000
  0.000  0.000  0.000  1.000  0.000
  0.000  0.000  0.000  0.000  1.000
    occupations:
  0.200  0.000  0.000  0.000  0.000
  0.000  0.200  0.000  0.000  0.000
  0.000  0.000  0.200  0.000  0.000
  0.000  0.000  0.000  0.200  0.000
  0.000  0.000  0.000  0.000  0.200
atom   22   Tr[ns(na)] =   2.00000
    eigenvalues:
  0.200  0.200  0.200  0.200  0.200
    eigenvectors:
  1.000  0.000  0.000  0.000  0.000
  0.000  1.000  0.000  0.000  0.000
  0.000  0.000  1.000  0.000  0.000
  0.000  0.000  0.000  1.000  0.000
  0.000  0.000  0.000  0.000  1.000
    occupations:
[...]
atom    4   Tr[ns(na)] =   2.68174
    eigenvalues:
  0.125  0.154  0.175  0.430  0.457
    eigenvectors:
  0.007  0.003  0.000  0.000  0.990
  0.002  0.925  0.069  0.000  0.003
  0.001  0.068  0.931  0.000  0.000
  0.990  0.004  0.000  0.000  0.006
  0.000  0.000  0.000  1.000  0.000
    occupations:
  0.454  0.018  0.004 -0.026 -0.000
  0.018  0.156 -0.005 -0.000 -0.003
  0.004 -0.005  0.173  0.001 -0.000
 -0.026 -0.000  0.001  0.127 -0.000
 -0.000 -0.003 -0.000 -0.000  0.430
atom    9   Tr[ns(na)] =   2.68397
    eigenvalues:
  0.133  0.175  0.186  0.377  0.470
    eigenvectors:
  0.000  0.000  0.907  0.093  0.000
  0.000  0.000  0.000  0.000  1.000
  1.000  0.000  0.000  0.000  0.000
  0.000  0.000  0.093  0.907  0.000
  0.000  1.000  0.000  0.000  0.000
    occupations:
  0.204 -0.000  0.000  0.056 -0.000
 -0.000  0.470 -0.000  0.000 -0.000
  0.000 -0.000  0.133  0.000 -0.000
  0.056  0.000  0.000  0.360 -0.000
 -0.000 -0.000 -0.000 -0.000  0.175
atom   10   Tr[ns(na)] =   2.58455
    eigenvalues:
  0.135  0.171  0.187  0.319  0.479
    eigenvectors:
  0.028  0.000  0.000  0.972  0.000
  0.000  0.000  1.000  0.000  0.000
  0.000  1.000  0.000  0.000  0.000
  0.972  0.000  0.000  0.028  0.000
  0.000  0.000  0.000  0.000  1.000
    occupations:
  0.314 -0.000 -0.000 -0.030 -0.000
 -0.000  0.187 -0.000 -0.000  0.000
 -0.000 -0.000  0.171 -0.000  0.000
 -0.030 -0.000 -0.000  0.141 -0.000
 -0.000  0.000  0.000 -0.000  0.479
atom   16   Tr[ns(na)] =   2.55280
    eigenvalues:
  0.120  0.138  0.161  0.425  0.432
    eigenvectors:
  0.766  0.000  0.030  0.000  0.204
  0.000  0.002  0.000  0.998  0.000
  0.034  0.000  0.966  0.000  0.000
  0.200  0.000  0.004  0.000  0.795
  0.000  0.998  0.000  0.002  0.000
    occupations:
  0.185 -0.000 -0.004  0.125 -0.000
 -0.000  0.425  0.000 -0.000  0.014
 -0.004  0.000  0.159  0.008  0.000
  0.125 -0.000  0.008  0.369 -0.000
 -0.000  0.014  0.000 -0.000  0.138
atom   17   Tr[ns(na)] =   2.68174
    eigenvalues:
  0.125  0.154  0.175  0.430  0.457
    eigenvectors:
  0.007  0.003  0.000  0.000  0.990
  0.002  0.925  0.069  0.000  0.003
  0.001  0.068  0.931  0.000  0.000
  0.990  0.004  0.000  0.000  0.006
  0.000  0.000  0.000  1.000  0.000
    occupations:
  0.454  0.018  0.004 -0.026 -0.000
  0.018  0.156 -0.005 -0.000 -0.003
  0.004 -0.005  0.173  0.001 -0.000
 -0.026 -0.000  0.001  0.127 -0.000
 -0.000 -0.003 -0.000 -0.000  0.430
atom   22   Tr[ns(na)] =   2.68397
    eigenvalues:
  0.133  0.175  0.186  0.377  0.470
    eigenvectors:
  0.000  0.000  0.907  0.093  0.000
  0.000  0.000  0.000  0.000  1.000
  1.000  0.000  0.000  0.000  0.000
  0.000  0.000  0.093  0.907  0.000
  0.000  1.000  0.000  0.000  0.000
    occupations:
  0.204 -0.000  0.000  0.056 -0.000
 -0.000  0.470 -0.000  0.000 -0.000
  0.000 -0.000  0.133  0.000 -0.000
  0.056  0.000  0.000  0.360 -0.000
 -0.000 -0.000 -0.000 -0.000  0.175
atom   23   Tr[ns(na)] =   2.58455
    eigenvalues:
  0.135  0.171  0.187  0.319  0.479
    eigenvectors:
  0.028  0.000  0.000  0.972  0.000
  0.000  0.000  1.000  0.000  0.000
  0.000  1.000  0.000  0.000  0.000
  0.972  0.000  0.000  0.028  0.000
  0.000  0.000  0.000  0.000  1.000
    occupations:
  0.314 -0.000 -0.000 -0.030 -0.000
 -0.000  0.187 -0.000 -0.000  0.000
 -0.000 -0.000  0.171 -0.000  0.000
 -0.030 -0.000 -0.000  0.141 -0.000
 -0.000  0.000  0.000 -0.000  0.479
N of occupied +U levels =  21.0061367
 --- exit write_ns ---

     Threshold (ethr) on eigenvalues was too large:
     Diagonalizing with lowered threshold

     Davidson diagonalization with overlap
     ethr =  3.98E-09,  avg # of iterations =  2.6

[...]

     total energy              =   -1531.38984171 Ry
     Harris-Foulkes estimate   =   -1531.38984172 Ry
     estimated scf accuracy    <       0.00000003 Ry

     iteration #  7     ecut=    40.00 Ry     beta=0.70
     Davidson diagonalization with overlap
     ethr =  1.62E-11,  avg # of iterations =  1.0

     negative rho (up, down):  0.108E+00 0.000E+00

     End of self-consistent calculation
 --- enter write_ns ---
 LDA+U parameters:
U( 2)     =  6.50000000
alpha( 2) =  0.00000000
atom    3   Tr[ns(na)] =   2.55343
    eigenvalues:
  0.120  0.138  0.161  0.425  0.433
    eigenvectors:
  0.766  0.000  0.030  0.000  0.204
  0.000  0.002  0.000  0.998  0.000
  0.034  0.000  0.966  0.000  0.000
  0.200  0.000  0.004  0.000  0.795
  0.000  0.998  0.000  0.002  0.000
    occupations:
  0.185 -0.000 -0.004  0.125 -0.000
 -0.000  0.425  0.000 -0.000  0.014
 -0.004  0.000  0.160  0.008  0.000
  0.125 -0.000  0.008  0.369 -0.000
 -0.000  0.014  0.000 -0.000  0.138
atom    4   Tr[ns(na)] =   2.68153
    eigenvalues:
  0.125  0.154  0.175  0.430  0.457
    eigenvectors:
  0.007  0.003  0.000  0.000  0.990
  0.002  0.925  0.069  0.000  0.003
  0.001  0.068  0.931  0.000  0.000
  0.990  0.004  0.000  0.000  0.006
  0.000  0.000  0.000  1.000  0.000
    occupations:
  0.454  0.018  0.004 -0.026 -0.000
  0.018  0.156 -0.005 -0.000 -0.003
  0.004 -0.005  0.173  0.001 -0.000
 -0.026 -0.000  0.001  0.127 -0.000
 -0.000 -0.003 -0.000 -0.000  0.430
atom    9   Tr[ns(na)] =   2.68405
    eigenvalues:
  0.133  0.175  0.186  0.377  0.470
    eigenvectors:
  0.000  0.000  0.907  0.093  0.000
  0.000  0.000  0.000  0.000  1.000
  1.000  0.000  0.000  0.000  0.000
  0.000  0.000  0.093  0.907  0.000
  0.000  1.000  0.000  0.000  0.000
    occupations:
  0.204 -0.000  0.000  0.056 -0.000
 -0.000  0.470 -0.000  0.000 -0.000
  0.000 -0.000  0.133  0.000 -0.000
  0.056  0.000  0.000  0.360 -0.000
 -0.000 -0.000 -0.000 -0.000  0.175
atom   10   Tr[ns(na)] =   2.58426
    eigenvalues:
  0.135  0.171  0.187  0.319  0.479
    eigenvectors:
  0.028  0.000  0.000  0.972  0.000
  0.000  0.000  1.000  0.000  0.000
  0.000  1.000  0.000  0.000  0.000
  0.972  0.000  0.000  0.028  0.000
  0.000  0.000  0.000  0.000  1.000
    occupations:
  0.314 -0.000 -0.000 -0.030 -0.000
 -0.000  0.187 -0.000 -0.000  0.000
 -0.000 -0.000  0.171 -0.000  0.000
 -0.030 -0.000 -0.000  0.141 -0.000
 -0.000  0.000  0.000 -0.000  0.479
atom   16   Tr[ns(na)] =   2.55343
    eigenvalues:
  0.120  0.138  0.161  0.425  0.433
    eigenvectors:
  0.766  0.000  0.030  0.000  0.204
  0.000  0.002  0.000  0.998  0.000
  0.034  0.000  0.966  0.000  0.000
  0.200  0.000  0.004  0.000  0.795
  0.000  0.998  0.000  0.002  0.000
    occupations:
  0.185 -0.000 -0.004  0.125 -0.000
 -0.000  0.425  0.000 -0.000  0.014
 -0.004  0.000  0.160  0.008  0.000
  0.125 -0.000  0.008  0.369 -0.000
 -0.000  0.014  0.000 -0.000  0.138
atom   17   Tr[ns(na)] =   2.68153
    eigenvalues:
  0.125  0.154  0.175  0.430  0.457
    eigenvectors:
  0.007  0.003  0.000  0.000  0.990
  0.002  0.925  0.069  0.000  0.003
  0.001  0.068  0.931  0.000  0.000
  0.990  0.004  0.000  0.000  0.006
  0.000  0.000  0.000  1.000  0.000
    occupations:
  0.454  0.018  0.004 -0.026 -0.000
  0.018  0.156 -0.005 -0.000 -0.003
  0.004 -0.005  0.173  0.001 -0.000
 -0.026 -0.000  0.001  0.127 -0.000
 -0.000 -0.003 -0.000 -0.000  0.430
atom   22   Tr[ns(na)] =   2.68405
    eigenvalues:
  0.133  0.175  0.186  0.377  0.470
    eigenvectors:
  0.000  0.000  0.907  0.093  0.000
  0.000  0.000  0.000  0.000  1.000
  1.000  0.000  0.000  0.000  0.000
  0.000  0.000  0.093  0.907  0.000
  0.000  1.000  0.000  0.000  0.000
    occupations:
  0.204 -0.000  0.000  0.056 -0.000
 -0.000  0.470 -0.000  0.000 -0.000
  0.000 -0.000  0.133  0.000 -0.000
  0.056  0.000  0.000  0.360 -0.000
 -0.000 -0.000 -0.000 -0.000  0.175
atom   23   Tr[ns(na)] =   2.58426
    eigenvalues:
  0.135  0.171  0.187  0.319  0.479
    eigenvectors:
  0.028  0.000  0.000  0.972  0.000
  0.000  0.000  1.000  0.000  0.000
  0.000  1.000  0.000  0.000  0.000
  0.972  0.000  0.000  0.028  0.000
  0.000  0.000  0.000  0.000  1.000
    occupations:
  0.314 -0.000 -0.000 -0.030 -0.000
 -0.000  0.187 -0.000 -0.000  0.000
 -0.000 -0.000  0.171 -0.000  0.000
 -0.030 -0.000 -0.000  0.141 -0.000
 -0.000  0.000  0.000 -0.000  0.479
N of occupied +U levels =  21.0065543
 --- exit write_ns ---

[...]

          k = 0.2500-0.4516 0.0000 ( 29882 PWs)   bands (ev):

[...]

          k =-0.2500 0.2258 0.0000 ( 29912 PWs)   bands (ev):

   -62.2435 -62.2195 -61.9231 -61.8978 -60.5532 -60.5261 -60.0208 -59.9948
   -38.6524 -38.4304 -38.3947 -38.3669 -38.2672 -38.2467 -38.2385 -38.2220
   -38.1781 -38.0334 -37.9737 -37.9042 -37.0475 -36.8517 -36.7833 -36.7482
   -36.5619 -36.5402 -36.3633 -36.3423 -36.2821 -36.1829 -36.1203 -35.9903
   -22.2698 -22.0502 -20.9762 -20.7541 -20.4316 -20.3097 -20.0676 -19.8651
   -19.7963 -19.7468 -19.5832 -19.4771 -19.4176 -19.2083 -18.6059 -18.3062
   -17.9165 -17.8791  -9.8559  -9.6220  -8.1064  -7.9226  -7.8781  -7.8129
    -7.8070  -7.6897  -7.4128  -7.3922  -7.3385  -7.3063  -7.0805  -7.0550
    -6.9964  -6.8300  -6.7479  -6.7182  -6.4975  -6.4359  -6.0979  -6.0149
    -5.9688  -5.8051  -5.7736  -5.6528  -5.6274  -5.5125  -5.3663  -5.3383
    -5.3152  -5.1824  -5.1631  -5.1035  -5.0266  -4.9702  -4.8450  -4.7240
    -4.6562  -4.5117  -4.3991  -4.3462  -3.9270  -3.6499  -3.4597  -3.3353
    -3.3054  -3.2333  -3.0916  -2.9479  -2.9302  -2.7932  -2.7610  -2.6158
    -0.7746  -0.4914  -0.4018  -0.3930  -0.3308  -0.2442  -0.1433  -0.0727
     0.0873   0.1751   0.1819   0.2407   0.4396   0.5662   0.7489   0.7680
     1.0642   1.0992   1.1153   1.1774   1.3199   1.3925   1.5866   1.6466
     1.7195   1.7677   1.8963   1.9480   1.9828   2.2069   2.2280   2.4645
     2.6290   2.7315   2.8665   2.9209   3.2422   3.2515   3.3753   3.6507
     3.6837   3.9590   4.2088   4.6117   4.9696   4.9983   5.2779   5.7087
     5.7205   5.8626   6.0091   6.1316   6.2263   6.5315   6.5449   6.8318
     6.9043   7.1022   7.2657   7.3918   7.4510   7.6171   7.6258   7.8239
     7.9076   8.0319   8.0559   8.2372   8.4633   8.4703   8.5654   8.6236
     8.7962   8.9824   9.2076   9.2654   9.3350   9.3853   9.4283   9.4738
     9.5003   9.6228   9.7912   9.9810  10.0156  10.0457  10.2451  10.3327
    10.4519  10.5670  10.5785  10.7114  10.7362  10.8991  10.9062  10.9781
    11.0051  11.2013  11.2840  11.2854  11.3279  11.4680  11.4844  11.5276
    11.6154  11.7290  11.8834  11.8986  11.9564  11.9609  12.1005  12.2033
    12.2911  12.3565  12.4901  12.5642  12.5848  12.6300  12.7289  12.8205
    12.8789  12.9649  12.9809  13.1832  13.1930  13.2752  13.2873  13.4123
    13.4930  13.4986  13.6237  13.6282  13.6971  13.7187  13.8165  13.9659
    14.0045  14.1559  14.1773  14.2548  14.2781  14.4466  14.5235  14.5530
    14.6116  14.6195  14.6950  14.8971  14.9127  14.9956  15.0698  15.1838
    15.3162  15.3332  15.4596  15.4998  15.6175  15.6495  15.6956  15.7060
    15.8403  15.8649  15.9580  15.9721  16.0131  16.1245  16.2402  16.2981
    16.4077  16.5108  16.5828  16.6605  16.6855  16.8298  16.8423  16.8736
    16.8761  17.0196  17.0806  17.1075  17.1719  17.2322  17.3002  17.3447
    17.4110  17.4944  17.5146  17.6321  17.6884  17.7751  17.7801  17.9231
    18.0389  18.1135  18.1992  18.2038

     the Fermi energy is    -0.9700 ev

!    total energy              =   -1531.38984171 Ry
     Harris-Foulkes estimate   =   -1531.38984172 Ry
     estimated scf accuracy    <          8.4E-09 Ry

     The total energy is the sum of the following terms:

     one-electron contribution =  -18181.86923082 Ry
     hartree contribution      =    9101.71862272 Ry
     xc contribution           =    -269.60608240 Ry
     ewald contribution        =    7815.02231573 Ry
     Hubbard energy            =       3.34401278 Ry
     smearing contrib. (-TS)   =       0.00052029 Ry

     convergence has been achieved in   7 iterations

     Forces acting on atoms (Ry/au):

     negative rho (up, down):  0.108E+00 0.000E+00
     atom    1 type  1   force =    -0.00410584   -0.01765458   -0.00033624
     atom    2 type  1   force =     0.00003645    0.02250928    0.00022376
     atom    3 type  2   force =     0.00010703   -0.01017626    0.00019430
     atom    4 type  2   force =     0.00198440    0.01011606    0.00014354
     atom    5 type  1   force =     0.00242992   -0.10786640    0.00047599
     atom    6 type  1   force =    -0.00107021    0.10476200    0.00045390
     atom    7 type  1   force =    -0.00003634    0.00053160    0.00033351
     atom    8 type  1   force =     0.00046276   -0.00162748   -0.00064354
     atom    9 type  2   force =    -0.00001606    0.00014490    0.00025370
     atom   10 type  2   force =    -0.00001924   -0.00056450   -0.00060256
     atom   11 type  1   force =     0.00001339   -0.04258367    0.00010901
     atom   12 type  1   force =     0.00001165    0.04279042    0.00009949
     atom   13 type  1   force =     0.00003224   -0.00008397    0.00010948
     atom   14 type  1   force =    -0.00410584   -0.01765458   -0.00033622
     atom   15 type  1   force =     0.00003645    0.02250927    0.00022377
     atom   16 type  2   force =     0.00010701   -0.01017626    0.00019430
     atom   17 type  2   force =     0.00198440    0.01011605    0.00014352
     atom   18 type  1   force =     0.00242992   -0.10786640    0.00047600
     atom   19 type  1   force =    -0.00107022    0.10476200    0.00045390
     atom   20 type  1   force =    -0.00003634    0.00053160    0.00033350
     atom   21 type  1   force =     0.00046276   -0.00162748   -0.00064355
     atom   22 type  2   force =    -0.00001606    0.00014490    0.00025370
     atom   23 type  2   force =    -0.00001924   -0.00056450   -0.00060256
     atom   24 type  1   force =     0.00001339   -0.04258367    0.00010901
     atom   25 type  1   force =     0.00001165    0.04279042    0.00009949
     atom   26 type  1   force =     0.00003224   -0.00008397    0.00010948
     atom   27 type  3   force =     0.00000039   -0.00044066   -0.00069711
     atom   28 type  3   force =     0.00000039   -0.00044065   -0.00069710
     atom   29 type  3   force =     0.00016947    0.00014326   -0.00011724
     atom   30 type  3   force =     0.00016947    0.00014326   -0.00011724

     Total force =     0.002183     Total SCF correction =     0.000364
     SCF correction compared to forces is large: reduce conv_thr to get better values

     bfgs converged in  13 scf cycles and  12 bfgs steps
     (criteria: energy < 0.10E-03, force < 0.10E-02)

     End of BFGS Geometry Optimization

     Final energy   =   -1531.3898417102 Ry
Begin final coordinates

ATOMIC_POSITIONS (crystal)
O0       0.000000000   0.000000000   0.377616191    0   0   1
O0       0.000000000   0.500000000   0.397901184    0   0   1
Ti1      0.250000000   0.500000000   0.449720911    0   0   1
Ti1      0.000000000   0.000000000   0.451567392    0   0   1
O0       0.250000000   0.810000000   0.450234593    0   0   1
O0       0.250000000   0.190000000   0.451299977    0   0   1
O0       0.000000000   0.500000000   0.498735863    0   0   1
O0       0.000000000   0.000000000   0.527922609    0   0   1
Ti1      0.250000000   0.000000000   0.581872446    0   0   1
Ti1      0.000000000   0.500000000   0.571725953    0   0   1
O0       0.250000000   0.690000000   0.581975196    0   0   1
O0       0.250000000   0.310000000   0.582026683    0   0   1
O0       0.000000000   0.000000000   0.625101459    0   0   1
O0       0.500000000   0.000000000   0.377616190    0   0   1
O0       0.500000000   0.500000000   0.397901183    0   0   1
Ti1      0.750000000   0.500000000   0.449720911    0   0   1
Ti1      0.500000000   0.000000000   0.451567392    0   0   1
O0       0.750000000   0.810000000   0.450234592    0   0   1
O0       0.750000000   0.190000000   0.451299978    0   0   1
O0       0.500000000   0.500000000   0.498735864    0   0   1
O0       0.500000000   0.000000000   0.527922610    0   0   1
Ti1      0.750000000   0.000000000   0.581872446    0   0   1
Ti1      0.500000000   0.500000000   0.571725954    0   0   1
O0       0.750000000   0.690000000   0.581975196    0   0   1
O0       0.750000000   0.310000000   0.582026683    0   0   1
O0       0.500000000   0.000000000   0.625101459    0   0   1
H2      -0.000217301   0.633057897   0.379778654
H2       0.499782698   0.633057888   0.379778649
H2       0.152647808   0.023649780   0.364090891
H2       0.652647811   0.023649764   0.364090891
End final coordinates

     General routines

     Parallel routines
     Hubbard U routines

   This run was terminated on:  22: 9:45   6May2014

   JOB DONE.
Running PBS batch system epilogue script
Job id: 340821.audhumbla.fysik.dtu.dk
Username: zhonxu
Groupname: campgst
Jobname: TiO2/Eads-2-layers/bare-U-6.5
Sessionid: 15349
Queuename: verylong
Accounting:
This job has allocated the following 16 nodes:
d059 d059 d059 d059 d059 d059 d059 d059 d030 d030 d030 d030 d030 d030 d030 d030
Finished epilogue job 340821.audhumbla.fysik.dtu.dk for zhonxu