     Program PWSCF v.5.0.2 (svn rev. 9656) starts on 10May2014 at 18:40:49

     Current dimensions of program PWSCF are:
     Max number of different atomic species (ntypx) = 10
     Max number of k-points (npk) =  40000
     Max angular momentum in pseudopotentials (lmaxx) =  3
     Reading input from pwscf.in
Warning: card &CELL ignored
Warning: card / ignored

     Subspace diagonalization in iterative solution of the eigenvalue problem:
     a serial algorithm will be used

     bravais-lattice index     =            0
     lattice parameter (alat)  =      10.9604  a.u.
     unit-cell volume          =    8672.0454 (a.u.)^3
     number of atoms/cell      =           50
     number of atomic types    =            3
     number of electrons       =       423.00 (up: 227.00, down: 196.00)
     number of Kohn-Sham states=          610
     kinetic-energy cutoff     =      40.0000  Ry
     charge density cutoff     =     500.0000  Ry
     convergence threshold     =      1.0E-06
     mixing beta               =       0.3000
     number of iterations used =            8  plain     mixing
     Exchange-correlation      = SLA  PW   PBE  PBE ( 1 4 3 4 0)
     EXX-fraction              =        0.00
     nstep                     =           50

     celldm(1)=  10.960412  celldm(2)=   0.000000  celldm(3)=   0.000000
     celldm(4)=   0.000000  celldm(5)=   0.000000  celldm(6)=   0.000000

     crystal axes: (cart. coord. in units of alat)
               a(1) = (   1.000000   0.000000   0.000000 )
               a(2) = (   0.000000   1.067975   0.000000 )
               a(3) = (   0.000000   0.000000   6.167084 )

     reciprocal axes: (cart. coord. in units 2 pi/alat)
               b(1) = (  1.000000  0.000000  0.000000 )
               b(2) = (  0.000000  0.936351  0.000000 )
               b(3) = (  0.000000  0.000000  0.162151 )

     PseudoPot. # 1 for O  read from file:
     /home/camp/zhonxu/pseudo/o_pbe_v1.01.uspp.F.UPF
     MD5 check sum: 2bcb18d16ea4b960afae9ec6d52f22d2
     Pseudo is Ultrasoft + core correction, Zval =  6.0
     Generated by new atomic code, or converted to UPF format
     Using radial grid of  737 points,  5 beta functions with:
                l(1) =   0
                l(2) =   0
                l(3) =   1
                l(4) =   1
                l(5) =   2
     Q(r) pseudized with  8 coefficients,  rinner =    0.900   0.900   0.900
                                                       0.900   0.900

     PseudoPot. # 2 for Cr read from file:
     /home/camp/zhonxu/pseudo/cr_pbe_v1.uspp.F.UPF
     MD5 check sum: 68b6f918d1762dccfb11451fe85b0e0e
     Pseudo is Ultrasoft + core correction, Zval = 14.0
     Generated by new atomic code, or converted to UPF format
     Using radial grid of  857 points,  6 beta functions with:
                l(1) =   0
                l(2) =   0
                l(3) =   1
                l(4) =   1
                l(5) =   2
                l(6) =   2
     Q(r) pseudized with  6 coefficients,  rinner =    1.000   1.000   1.000
                                                       1.000   1.000

     PseudoPot. # 3 for H  read from file:
     /home/camp/zhonxu/pseudo/h_pbe_v1.uspp.F.UPF
     MD5 check sum: 3408e3ff4ec8b0a4e358431e7e038a48
     Pseudo is Ultrasoft, Zval =  1.0
     Generated by new atomic code, or converted to UPF format
     Using radial grid of  615 points,  2 beta functions with:
                l(1) =   0
                l(2) =   0
     Q(r) pseudized with  8 coefficients,  rinner =    0.700

     atomic species   valence    mass     pseudopotential
        O0             6.00    15.99940     O ( 1.00)
        Cr1           14.00    51.99600     Cr( 1.00)
        H2             1.00     1.00794     H ( 1.00)

     Starting magnetic structure
     atomic species   magnetization
        O0           0.000
        Cr1          0.600
        H2           0.000

      2 Sym. Ops. (no inversion) found

   Cartesian axes

     site n.     atom                  positions (alat units)
         1           O0  tau(   1) = (   0.0000000   0.5339875   2.0689949  )
         2           Cr1 tau(   2) = (   0.2500000   0.5339875   2.2825610  )
         3           Cr1 tau(   3) = (   0.0000000   0.0000000   2.2825610  )
         4           O0  tau(   4) = (   0.2500000   0.8543801   2.2825610  )
         5           O0  tau(   5) = (   0.2500000   0.2135950   2.2825610  )
         6           O0  tau(   6) = (   0.0000000   0.5339875   2.4961271  )
         7           O0  tau(   7) = (   0.0000000   0.0000000   2.6029410  )
         8           Cr1 tau(   8) = (   0.2500000   0.0000000   2.8165688  )
         9           Cr1 tau(   9) = (   0.0000000   0.5339875   2.8165688  )
        10           O0  tau(  10) = (   0.2500000   0.7475825   2.8165688  )
        11           O0  tau(  11) = (   0.2500000   0.3203925   2.8165688  )
        12           O0  tau(  12) = (   0.0000000   0.0000000   3.0301349  )
        13           O0  tau(  13) = (   0.0000500   0.5339875   3.1475562  )
        14           Cr1 tau(  14) = (   0.2566100   0.5339875   3.3579771  )
        15           Cr1 tau(  15) = (  -0.0015100   0.0000000   3.3664876  )
        16           O0  tau(  16) = (   0.2492600   0.8577655   3.3618623  )
        17           O0  tau(  17) = (   0.2492600   0.2102095   3.3618623  )
        18           O0  tau(  18) = (  -0.0004600   0.5339875   3.5687063  )
        19           O0  tau(  19) = (  -0.0052000   0.0000000   3.6962416  )
        20           Cr1 tau(  20) = (   0.2514300   0.0000000   3.9079576  )
        21           Cr1 tau(  21) = (  -0.0051300   0.5339875   3.8670698  )
        22           O0  tau(  22) = (   0.2373500   0.7397863   3.9210935  )
        23           O0  tau(  23) = (   0.2373500   0.3281887   3.9210935  )
        24           O0  tau(  24) = (  -0.0045500   0.0000000   4.1269507  )
        25           O0  tau(  25) = (   0.5000000   0.5339875   2.0689949  )
        26           Cr1 tau(  26) = (   0.7500000   0.5339875   2.2825610  )
        27           Cr1 tau(  27) = (   0.5000000   0.0000000   2.2825610  )
        28           O0  tau(  28) = (   0.7500000   0.8543801   2.2825610  )
        29           O0  tau(  29) = (   0.7500000   0.2135950   2.2825610  )
        30           O0  tau(  30) = (   0.5000000   0.5339875   2.4961271  )
        31           O0  tau(  31) = (   0.5000000   0.0000000   2.6029410  )
        32           Cr1 tau(  32) = (   0.7500000   0.0000000   2.8165688  )
        33           Cr1 tau(  33) = (   0.5000000   0.5339875   2.8165688  )
        34           O0  tau(  34) = (   0.7500000   0.7475825   2.8165688  )
        35           O0  tau(  35) = (   0.7500000   0.3203925   2.8165688  )
        36           O0  tau(  36) = (   0.5000000   0.0000000   3.0301349  )
        37           O0  tau(  37) = (   0.5000000   0.5339875   3.1476178  )
        38           Cr1 tau(  38) = (   0.7438300   0.5339875   3.3577920  )
        39           Cr1 tau(  39) = (   0.4993900   0.0000000   3.3698179  )
        40           O0  tau(  40) = (   0.7494600   0.8575306   3.3608139  )
        41           O0  tau(  41) = (   0.7494600   0.2104445   3.3608139  )
        42           O0  tau(  42) = (   0.4996000   0.5339875   3.5824589  )
        43           O0  tau(  43) = (   0.4997500   0.0000000   3.6946382  )
        44           Cr1 tau(  44) = (   0.7614600   0.0000000   3.9513738  )
        45           Cr1 tau(  45) = (   0.4956500   0.5339875   3.9345994  )
        46           O0  tau(  46) = (   0.7576100   0.7399892   3.9222035  )
        47           O0  tau(  47) = (   0.7576100   0.3279858   3.9222035  )
        48           O0  tau(  48) = (   0.5119300   0.0000000   4.1088812  )
        49           O0  tau(  49) = (   0.5148700   0.5339875   4.2456671  )
        50           H2  tau(  50) = (   0.3652400   0.5339875   4.3247908  )

     number of k points=    18  Methfessel-Paxton smearing, width (Ry)=  0.0100
                       cart. coord. in units 2pi/alat
        k(    1) = (   0.0000000   0.0000000   0.0000000), wk =   0.0625000
        k(    2) = (   0.0000000   0.2340879   0.0000000), wk =   0.1250000
        k(    3) = (   0.0000000  -0.4681757   0.0000000), wk =   0.0625000
        k(    4) = (   0.2500000   0.0000000   0.0000000), wk =   0.1250000
        k(    5) = (   0.2500000   0.2340879   0.0000000), wk =   0.2500000
        k(    6) = (   0.2500000  -0.4681757   0.0000000), wk =   0.1250000
        k(    7) = (  -0.5000000   0.0000000   0.0000000), wk =   0.0625000
        k(    8) = (  -0.5000000   0.2340879   0.0000000), wk =   0.1250000
        k(    9) = (  -0.5000000  -0.4681757   0.0000000), wk =   0.0625000
        k(   10) = (   0.0000000   0.0000000   0.0000000), wk =   0.0625000
        k(   11) = (   0.0000000   0.2340879   0.0000000), wk =   0.1250000
        k(   12) = (   0.0000000  -0.4681757   0.0000000), wk =   0.0625000
        k(   13) = (   0.2500000   0.0000000   0.0000000), wk =   0.1250000
        k(   14) = (   0.2500000   0.2340879   0.0000000), wk =   0.2500000
        k(   15) = (   0.2500000  -0.4681757   0.0000000), wk =   0.1250000
        k(   16) = (  -0.5000000   0.0000000   0.0000000), wk =   0.0625000
        k(   17) = (  -0.5000000   0.2340879   0.0000000), wk =   0.1250000
        k(   18) = (  -0.5000000  -0.4681757   0.0000000), wk =   0.0625000

     Largest allocated arrays     est. size (Mb)     dimensions
     Largest temporary arrays     est. size (Mb)     dimensions

     Check: negative/imaginary core charge=   -0.000015    0.000000

     Initial potential from superposition of free atoms
     Check: negative starting charge=(component1):   -0.002203
     Check: negative starting charge=(component2):   -0.000565

     starting charge  406.99975, renormalised to  423.00000

     negative rho (up, down):  0.229E-02 0.587E-03
     Starting wfc are  293 randomized atomic wfcs

     Self-consistent Calculation

     iteration #  1     ecut=    40.00 Ry     beta=0.30
     Davidson diagonalization with overlap
     ethr =  1.00E-02,  avg # of iterations =  5.2

     negative rho (up, down):  0.269E-02 0.908E-03

     total energy              =   -3820.18290139 Ry
     Harris-Foulkes estimate   =   -3876.59026151 Ry
     estimated scf accuracy    <     135.14156836 Ry

     total magnetization       =    31.00 Bohr mag/cell
     absolute magnetization    =    50.60 Bohr mag/cell

[...]

     End of self-consistent calculation

 ------ SPIN UP ------------

          k = 0.0000 0.0000 0.0000 ( 36905 PWs)   bands (ev):

   -73.8891 -73.6757 -73.6038 -73.5892 -73.5261 -73.5103 -73.4941 -73.4919
   -73.4902 -73.4857 -73.4819 -73.4761 -73.4753 -73.4710 -73.4528 -73.4321
   -45.3128 -45.1885 -45.1844 -45.1256 -44.9992 -44.9801 -44.9683 -44.9509
   -44.9227 -44.9209 -44.9004 -44.8976 -44.8960 -44.8954 -44.8801 -44.8769
   -44.8751 -44.8694 -44.8666 -44.8660 -44.8650 -44.8508 -44.8457 -44.8323
   -44.8206 -44.8075 -44.8069 -44.8040 -44.8039 -44.7954 -44.7905 -44.7781
   -44.7693 -44.7570 -44.7540 -44.7438 -44.7417 -44.7358 -44.7307 -44.7296
[...]
Cr1      0.000000000   0.500000000   0.456710000    0   0   0
O0       0.250000000   0.700000000   0.456710000    0   0   0
O0       0.250000000   0.300000000   0.456710000    0   0   0
O0       0.000000000   0.000000000   0.491340000    0   0   0
O0      -0.001319110   0.500000000   0.510123828
Cr1      0.255058499   0.500000000   0.544379379
Cr1     -0.004070398   0.000000000   0.545626177
O0       0.247082815   0.803036254   0.545364653
O0       0.247082815   0.196963746   0.545364653
O0      -0.000419874   0.500000000   0.578732943
O0      -0.005577504   0.000000000   0.600036415
Cr1      0.255197611   0.000000000   0.633070538
Cr1     -0.000846293   0.500000000   0.627167128
O0       0.241348877   0.693557830   0.636086435
O0       0.241348877   0.306442170   0.636086435
O0      -0.004867202   0.000000000   0.670408162
O0       0.500000000   0.500000000   0.335490000    0   0   0
Cr1      0.750000000   0.500000000   0.370120000    0   0   0
Cr1      0.500000000   0.000000000   0.370120000    0   0   0
O0       0.750000000   0.800000000   0.370120000    0   0   0
O0       0.750000000   0.200000000   0.370120000    0   0   0
O0       0.500000000   0.500000000   0.404750000    0   0   0
O0       0.500000000   0.000000000   0.422070000    0   0   0
Cr1      0.750000000   0.000000000   0.456710000    0   0   0
Cr1      0.500000000   0.500000000   0.456710000    0   0   0
O0       0.750000000   0.700000000   0.456710000    0   0   0
O0       0.750000000   0.300000000   0.456710000    0   0   0
O0       0.500000000   0.000000000   0.491340000    0   0   0
O0       0.498773546   0.500000000   0.510215105
Cr1      0.742143984   0.500000000   0.544507999
Cr1      0.496733370   0.000000000   0.546788272
O0       0.747182280   0.802948467   0.545378644
O0       0.747182280   0.197051533   0.545378644
O0       0.498489502   0.500000000   0.580529001
O0       0.497314618   0.000000000   0.598681787
Cr1      0.769365848   0.000000000   0.641359517
Cr1      0.499206781   0.500000000   0.638176129
O0       0.761065009   0.693489829   0.635867272
O0       0.761065009   0.306510171   0.635867272
O0       0.516781978   0.000000000   0.665643370
O0       0.513409760   0.500000000   0.688613002
H2       0.362478867   0.500000000   0.701117759

     Check: negative starting charge=(component1):   -0.002730
     NEW-OLD atomic charge density approx. for the potential

     Check: negative/imaginary core charge=   -0.000015    0.000000
     Check: negative starting charge=(component1):   -0.002730

[...]

     Self-consistent Calculation

[...]

     Threshold (ethr) on eigenvalues was too large:
     Diagonalizing with lowered threshold

     Davidson diagonalization with overlap
     ethr =  3.25E-08,  avg # of iterations =  1.0

[...]

     total energy              =   -3882.40874027 Ry
     Harris-Foulkes estimate   =   -3882.40874026 Ry
     estimated scf accuracy    <       0.00000001 Ry

[...]

     iteration # 21     ecut=    40.00 Ry     beta=0.30
     Davidson diagonalization with overlap
     ethr =  2.44E-12,  avg # of iterations =  1.0

     negative rho (up, down):  0.634E-02 0.240E-02

     End of self-consistent calculation

 ------ SPIN UP ------------

[...]

 ------ SPIN DOWN ----------

[...]

          k = 0.2500-0.4682 0.0000 ( 37058 PWs)   bands (ev):

[...]

          k =-0.5000-0.4682 0.0000 ( 37080 PWs)   bands (ev):

   -72.7434 -71.4951 -71.4669 -71.4639 -71.3216 -71.3204 -71.1681 -71.1509
   -71.1343 -71.1331 -71.1073 -71.1071 -71.1055 -71.0568 -70.7746 -70.7520
   -44.4144 -44.0937 -43.7846 -43.2816 -43.0369 -43.0362 -42.9461 -42.9405
   -42.7780 -42.7731 -42.7632 -42.7547 -42.7547 -42.7325 -42.7266 -42.7093
   -42.6881 -42.6845 -42.6587 -42.6530 -42.6466 -42.6331 -42.6156 -42.6097
   -42.5234 -42.4926 -42.4907 -42.4885 -42.4641 -42.4043 -42.4006 -42.3967
   -42.3700 -42.3603 -42.3497 -42.3342 -42.3330 -42.3261 -42.3248 -42.3038
   -42.3037 -42.2996 -42.2913 -42.2148 -42.0770 -42.0525 -42.0473 -42.0327
   -19.2371 -18.9636 -18.9535 -18.9374 -18.8675 -18.8379 -18.7884 -18.7306
   -18.6398 -18.6090 -18.5564 -18.5250 -18.4312 -18.4133 -18.3863 -18.3826
   -18.3259 -18.2051 -18.1154 -18.1035 -18.0763 -18.0568 -18.0546 -18.0498
   -17.9503 -17.9261 -17.8523 -17.8315 -17.8263 -17.7510 -17.7082 -16.9220
   -16.9140  -6.5095  -6.4971  -6.3308  -6.2154  -6.1900  -6.1033  -5.9776
    -5.9533  -5.9289  -5.9082  -5.8462  -5.8239  -5.8097  -5.8016  -5.8008
    -5.7541  -5.7392  -5.6997  -5.6791  -5.6708  -5.6638  -5.5645  -5.5565
    -5.4814  -5.4683  -5.4634  -5.4575  -5.3950  -5.3736  -5.2433  -5.1496
    -5.1248  -5.0941  -5.0525  -5.0430  -5.0049  -5.0027  -4.9984  -4.9801
    -4.9553  -4.8589  -4.8225  -4.7943  -4.6306  -4.5220  -4.5024  -4.3902
    -4.2836  -4.2690  -4.2621  -4.2263  -4.1798  -4.1684  -4.1634  -4.1263
    -3.9313  -3.9200  -3.9159  -3.8255  -3.7918  -3.7311  -3.7230  -3.6321
    -3.5786  -3.5346  -3.5263  -3.5032  -3.4854  -3.4605  -3.3148  -3.2859
    -3.2431  -3.1485  -3.1400  -2.9136  -2.8822  -2.8330  -2.7926  -2.6229
    -2.4997  -2.4251  -2.2987  -2.2877  -2.2704  -2.1615  -2.1575  -2.0957
    -2.0144  -1.9531  -1.9496  -1.8326  -1.7822  -1.7586  -1.7199  -1.6508
    -1.6258  -1.5993  -1.4911  -1.4814   0.6679   0.8716   0.9230   1.0204
     1.0876   1.0914   1.1165   1.1450   1.3207   1.3595   1.4449   1.4830
     1.5086   1.5175   1.5373   1.5444   1.6150   1.7095   1.7509   1.7769
     1.8030   1.8603   1.9551   1.9564   1.9857   2.0270   2.0543   2.0662
     2.0873   2.1400   2.1499   2.1722   2.2147   2.2744   2.3129   2.3193
     2.3232   2.3447   2.3599   2.3682   2.3726   2.3894   2.4010   2.4399
     2.4679   2.4761   2.4959   2.5014   2.8748   2.8851   3.0100   3.1391
     3.1777   3.4208   3.4304   3.4555   3.4706   3.5273   3.5435   3.5596
     3.6113   3.6356   3.6845   3.9381   3.9629   4.1098   4.1351   4.3087
     4.3596   4.4837   4.5885   4.6969   4.7412   4.9163   5.0232   5.1081
     5.1156   5.1467   5.2228   5.2702   6.0866   6.5253   6.5292   7.2231
     7.2463   7.3205   7.3712   7.4078   7.4751   7.5171   7.5354   7.6400
     7.7887   7.8424   7.8692   8.0096   8.2466   8.3077   8.3332   8.4947
     8.8223   8.8966   8.9035   9.0688   9.4936   9.5297   9.5888   9.7120
    10.1823  10.2179  10.3427  10.4143  10.5079  10.5215  10.5996  10.6379
    11.0481  11.1072  11.1530  11.1652  11.2333  11.2865  11.3089  11.3276
    11.8751  11.9751  12.0081  12.0107  12.1164  12.1724  12.2364  12.3254
    12.4834  12.8829  12.9325  12.9559  13.2898  13.4526  13.4526  13.5908
    13.6043  13.7282  13.7703  13.8385  14.0555  14.1072  14.3179  14.3440
    14.3923  14.4559  14.5140  14.5170  14.5515  14.5954  14.6251  14.7314
    14.7574  14.7737  14.7943  14.8155  14.9056  14.9407  14.9858  14.9897
    15.1571  15.1777  15.1814  15.2074  15.2108  15.2294  15.2388  15.2525
    15.2927  15.2969  15.3092  15.3746  15.4070  15.4074  15.4311  15.4462
    15.4977  15.5049  15.5288  15.5572  15.5986  15.6536  15.6705  15.7418
    15.7675  15.8378  15.8443  15.9662  15.9819  16.0423  16.0714  16.1374
    16.1684  16.2123  16.2807  16.3045  16.3105  16.3440  16.3531  16.4123
    16.4191  16.4581  16.4842  16.5011  16.5075  16.5567  16.5919  16.6070
    16.6847  16.6985  16.7013  16.7431  16.7958  16.8446  16.8622  16.8988
    16.9291  16.9471  16.9530  17.0049  17.0301  17.0450  17.0534  17.0965
    17.1940  17.2021  17.2217  17.3347  17.4276  17.5336  17.5700  17.5791
    17.6155  17.6646  17.6842  17.7138  17.7192  17.7581  17.8100  17.8215
    17.8913  17.9429  17.9585  18.0174  18.1161  18.1347  18.1734  18.1953
    18.2745  18.3097  18.3982  18.4153  18.5034  18.5233  18.5334  18.5819
    18.6359  18.6518  18.6939  18.7416  18.8126  18.8215  18.8716  18.9528
    18.9867  19.0165  19.0212  19.1244  19.1934  19.2471  19.3067  19.3123
    19.3479  19.4225  19.4388  19.5233  19.5982  19.6231  19.7043  19.7476
[...]
    20.7759  20.8016  20.8848  20.8877  20.9457  20.9553  21.0461  21.0971
    21.2664  21.2919  21.3357  21.6358  21.6426  21.6810  21.7180  21.7825
    21.8981  21.9632  22.0105  22.0584  22.1062  22.1744  22.2244  22.2719
    22.3193  22.3580  22.4969  22.7604  22.7671  22.8321  22.8458  22.9088
    23.0701  23.0751  23.0787  23.1833  23.4565  23.5228  23.6371  23.6422
    23.7125  23.7238  23.8298  23.9468  23.9746  23.9898  24.0144  24.0793
    24.1154  24.1219  24.1736  24.1758  24.2808  24.2837  24.3381  24.3654
    24.3694  24.3794  24.4318  24.4365  24.4469  24.4557  24.4610  24.5494
    24.7134  24.7297  24.7987  24.8552  24.9076  24.9189  25.0156  25.0478
    25.0866  25.1156  25.1772  25.1976  25.3229  25.3240  25.4119  25.4775
    25.5130  25.5235  25.5490  25.5783  25.6738  25.7105  25.7346  25.7376
    25.7824  25.8663  25.8728  25.8901  25.9493  25.9751  25.9984  26.0075
    26.0122  26.1161  26.2405  26.2704  26.2794  26.2884  26.3508  26.3845
    26.4243  26.4514  26.4680  26.4882  26.5180  26.5433  26.5932  26.6721
    26.7144  26.7571

     the spin up/dw Fermi energies are     0.1032    0.4169 ev

!    total energy              =   -3882.40874041 Ry
     Harris-Foulkes estimate   =   -3882.40874028 Ry
     estimated scf accuracy    <          4.1E-09 Ry

     The total energy is the sum of the following terms:

     one-electron contribution =  -83761.86467716 Ry
     hartree contribution      =   41930.46577580 Ry
     xc contribution           =    -603.19724482 Ry
     ewald contribution        =   38552.18786621 Ry
     smearing contrib. (-TS)   =      -0.00046044 Ry

     total magnetization       =    31.00 Bohr mag/cell
     absolute magnetization    =    36.02 Bohr mag/cell

     convergence has been achieved in  21 iterations

     Forces acting on atoms (Ry/au):

     negative rho (up, down):  0.634E-02 0.240E-02
     atom    1 type  1   force =     0.00014955    0.00000000    0.07302533
     atom    2 type  2   force =    -0.00014547    0.00000000   -0.12008159
     atom    3 type  2   force =    -0.00002474    0.00000000    0.08109837
     atom    4 type  1   force =    -0.00040371    0.04231797   -0.03605802
     atom    5 type  1   force =    -0.00040371   -0.04231797   -0.03605802
     atom    6 type  1   force =    -0.00017942    0.00000000    0.01437481
     atom    7 type  1   force =    -0.00012211    0.00000000   -0.01022865
     atom    8 type  2   force =     0.00461398    0.00000000    0.01842982
     atom    9 type  2   force =    -0.00026844    0.00000000    0.01481687
     atom   10 type  1   force =     0.00011408   -0.01748403    0.00278311
     atom   11 type  1   force =     0.00011408    0.01748403    0.00278311
     atom   12 type  1   force =    -0.00204116    0.00000000    0.00485240
     atom   13 type  1   force =     0.00003832    0.00000000    0.00074138
     atom   14 type  2   force =    -0.00005463    0.00000000    0.00007393
     atom   15 type  2   force =     0.00028350    0.00000000   -0.00040990
     atom   16 type  1   force =    -0.00008126    0.00001003    0.00051609
     atom   17 type  1   force =    -0.00008126   -0.00001003    0.00051609
     atom   18 type  1   force =    -0.00000341    0.00000000    0.00024446
     atom   19 type  1   force =    -0.00002117    0.00000000   -0.00096990
     atom   20 type  2   force =    -0.00011228    0.00000000    0.00000973
     atom   21 type  2   force =     0.00027698    0.00000000    0.00003402
     atom   22 type  1   force =     0.00010679   -0.00008748    0.00022293
     atom   23 type  1   force =     0.00010679    0.00008748    0.00022293
     atom   24 type  1   force =     0.00097009    0.00000000    0.00024739
     atom   25 type  1   force =    -0.00008133    0.00000000    0.07269593
     atom   26 type  2   force =     0.00022396    0.00000000   -0.11949071
     atom   27 type  2   force =    -0.00016702    0.00000000    0.07940043
     atom   28 type  1   force =     0.00040606    0.04236942   -0.03608268
     atom   29 type  1   force =     0.00040606   -0.04236942   -0.03608268
     atom   30 type  1   force =    -0.00014118    0.00000000    0.01605780
     atom   31 type  1   force =    -0.00015161    0.00000000   -0.00929534
     atom   32 type  2   force =    -0.00435639    0.00000000    0.01895996
     atom   33 type  2   force =     0.00026480    0.00000000   -0.00443172
     atom   34 type  1   force =    -0.00072360   -0.01729505    0.00272876
     atom   35 type  1   force =    -0.00072360    0.01729505    0.00272876
     atom   36 type  1   force =    -0.00138027    0.00000000    0.00080513
     atom   37 type  1   force =    -0.00009196    0.00000000   -0.00016954
     atom   38 type  2   force =     0.00002013    0.00000000   -0.00002047
     atom   39 type  2   force =     0.00036699    0.00000000   -0.00032732
     atom   40 type  1   force =     0.00059691   -0.00007665    0.00022820
     atom   41 type  1   force =     0.00059691    0.00007665    0.00022820
     atom   42 type  1   force =     0.00007987    0.00000000   -0.00047485
     atom   43 type  1   force =     0.00083021    0.00000000    0.00066577
     atom   44 type  2   force =     0.00025305    0.00000000    0.00008907
     atom   45 type  2   force =     0.00027862    0.00000000   -0.00006969
     atom   46 type  1   force =     0.00010223   -0.00024258    0.00024097
     atom   47 type  1   force =     0.00010223    0.00024258    0.00024097
     atom   48 type  1   force =     0.00014925    0.00000000    0.00013034
     atom   49 type  1   force =    -0.00024161    0.00000000    0.00011628
     atom   50 type  3   force =     0.00054988    0.00000000   -0.00005824

     Total force =     0.002624     Total SCF correction =     0.000157

     bfgs converged in  14 scf cycles and  13 bfgs steps
     (criteria: energy < 0.10E-03, force < 0.10E-02)

     End of BFGS Geometry Optimization

     Final energy   =   -3882.4087404130 Ry
Begin final coordinates

ATOMIC_POSITIONS (crystal)
O0       0.000000000   0.500000000   0.335490000    0   0   0
Cr1      0.250000000   0.500000000   0.370120000    0   0   0
Cr1      0.000000000   0.000000000   0.370120000    0   0   0
O0       0.250000000   0.800000000   0.370120000    0   0   0
O0       0.250000000   0.200000000   0.370120000    0   0   0
O0       0.000000000   0.500000000   0.404750000    0   0   0
O0       0.000000000   0.000000000   0.422070000    0   0   0
Cr1      0.250000000   0.000000000   0.456710000    0   0   0
Cr1      0.000000000   0.500000000   0.456710000    0   0   0
O0       0.250000000   0.700000000   0.456710000    0   0   0
O0       0.250000000   0.300000000   0.456710000    0   0   0
O0       0.000000000   0.000000000   0.491340000    0   0   0
O0      -0.001319110   0.500000000   0.510123828
Cr1      0.255058499   0.500000000   0.544379379
Cr1     -0.004070398   0.000000000   0.545626177
O0       0.247082815   0.803036254   0.545364653
O0       0.247082815   0.196963746   0.545364653
O0      -0.000419874   0.500000000   0.578732943
O0      -0.005577504   0.000000000   0.600036415
Cr1      0.255197611   0.000000000   0.633070538
Cr1     -0.000846293   0.500000000   0.627167128
O0       0.241348877   0.693557830   0.636086435
O0       0.241348877   0.306442170   0.636086435
O0      -0.004867202   0.000000000   0.670408162
O0       0.500000000   0.500000000   0.335490000    0   0   0
Cr1      0.750000000   0.500000000   0.370120000    0   0   0
Cr1      0.500000000   0.000000000   0.370120000    0   0   0
O0       0.750000000   0.800000000   0.370120000    0   0   0
O0       0.750000000   0.200000000   0.370120000    0   0   0
O0       0.500000000   0.500000000   0.404750000    0   0   0
O0       0.500000000   0.000000000   0.422070000    0   0   0
Cr1      0.750000000   0.000000000   0.456710000    0   0   0
Cr1      0.500000000   0.500000000   0.456710000    0   0   0
O0       0.750000000   0.700000000   0.456710000    0   0   0
O0       0.750000000   0.300000000   0.456710000    0   0   0
O0       0.500000000   0.000000000   0.491340000    0   0   0
O0       0.498773546   0.500000000   0.510215105
Cr1      0.742143984   0.500000000   0.544507999
Cr1      0.496733370   0.000000000   0.546788272
O0       0.747182280   0.802948467   0.545378644
O0       0.747182280   0.197051533   0.545378644
O0       0.498489502   0.500000000   0.580529001
O0       0.497314618   0.000000000   0.598681787
Cr1      0.769365848   0.000000000   0.641359517
Cr1      0.499206781   0.500000000   0.638176129
O0       0.761065009   0.693489829   0.635867272
O0       0.761065009   0.306510171   0.635867272
O0       0.516781978   0.000000000   0.665643370
O0       0.513409760   0.500000000   0.688613002
H2       0.362478867   0.500000000   0.701117759
End final coordinates

     General routines

     Parallel routines

   This run was terminated on:   8:38:25  12May2014

   JOB DONE.