     Program PWSCF v.5.0.2 (svn rev. 9656) starts on  2May2014 at  0:38:59

     Current dimensions of program PWSCF are:
     Max number of different atomic species (ntypx) = 10
     Max number of k-points (npk) =  40000
     Max angular momentum in pseudopotentials (lmaxx) =  3
     Reading input from pwscf.in
Warning: card &CELL ignored
Warning: card / ignored

     Subspace diagonalization in iterative solution of the eigenvalue problem:
     a serial algorithm will be used

     bravais-lattice index     =            0
     lattice parameter (alat)  =      10.1289  a.u.
     unit-cell volume          =    6836.7721 (a.u.)^3
     number of atoms/cell      =           32
     number of atomic types    =            3
     number of electrons       =       239.00
     number of Kohn-Sham states=          358
     kinetic-energy cutoff     =      40.0000  Ry
     charge density cutoff     =     500.0000  Ry
     convergence threshold     =      1.0E-06
     mixing beta               =       0.7000
     number of iterations used =            8  plain     mixing
     Exchange-correlation      = SLA  PW   PBE  PBE ( 1 4 3 4 0)
     EXX-fraction              =        0.00
     nstep                     =           50

     celldm(1)=  10.128932  celldm(2)=   0.000000  celldm(3)=   0.000000
     celldm(4)=   0.000000  celldm(5)=   0.000000  celldm(6)=   0.000000

     crystal axes: (cart. coord. in units of alat)
               a(1) = (   1.000000   0.000000   0.000000 )
               a(2) = (   0.000000   1.306037   0.000000 )
               a(3) = (   0.000000   0.000000   5.037380 )

     reciprocal axes: (cart. coord. in units 2 pi/alat)
               b(1) = (  1.000000  0.000000  0.000000 )
               b(2) = (  0.000000  0.765675  0.000000 )
               b(3) = (  0.000000  0.000000  0.198516 )

     PseudoPot. # 1 for O  read from file:
     /home/camp/zhonxu/pseudo/o_pbe_v1.01.uspp.F.UPF
     MD5 check sum: 2bcb18d16ea4b960afae9ec6d52f22d2
     Pseudo is Ultrasoft + core correction, Zval =  6.0
     Generated by new atomic code, or converted to UPF format
     Using radial grid of  737 points,  5 beta functions with:
                l(1) =   0
                l(2) =   0
                l(3) =   1
                l(4) =   1
                l(5) =   2
     Q(r) pseudized with  8 coefficients,  rinner =    0.900   0.900   0.900
                                                       0.900   0.900

     PseudoPot. # 2 for Re read from file:
     /home/camp/zhonxu/pseudo/re_pbe_v1.uspp.F.UPF
     MD5 check sum: 6f5a5dcaf9c96c20d0ffdde0de57afc6
     Pseudo is Ultrasoft + core correction, Zval = 15.0
     Generated by new atomic code, or converted to UPF format
     Using radial grid of  981 points,  8 beta functions with:
                l(1) =   0
                l(2) =   0
                l(3) =   1
                l(4) =   1
                l(5) =   2
                l(6) =   2
                l(7) =   3
                l(8) =   3
     Q(r) pseudized with  8 coefficients,  rinner =    1.000   1.000   1.000
                                                       1.000   1.000   1.000
                                                       1.000

     PseudoPot. # 3 for H  read from file:
     /home/camp/zhonxu/pseudo/h_pbe_v1.uspp.F.UPF
     MD5 check sum: 3408e3ff4ec8b0a4e358431e7e038a48
     Pseudo is Ultrasoft, Zval =  1.0
     Generated by new atomic code, or converted to UPF format
     Using radial grid of  615 points,  2 beta functions with:
                l(1) =   0
                l(2) =   0
     Q(r) pseudized with  8 coefficients,  rinner =    0.700

     atomic species   valence    mass     pseudopotential
        O0             6.00    15.99940     O ( 1.00)
        Re1           15.00   186.20700     Re( 1.00)
        H2             1.00     1.00794     H ( 1.00)

     Simplified LDA+U calculation (l_max = 2) with parameters (eV):
     atomic species    L          U    alpha       J0     beta
        Re1            2     4.5000   0.0000   0.0000   0.0000

     No symmetry found

   Cartesian axes

     site n.     atom                  positions (alat units)
         1           O0  tau(   1) = (   0.0000000   0.0000000   1.8669538  )
         2           O0  tau(   2) = (   0.0000000   0.6530184   1.9246318  )
         3           Re1 tau(   3) = (   0.2500000   0.6530184   2.2252626  )
         4           Re1 tau(   4) = (   0.0000000   0.0000000   2.2335239  )
         5           O0  tau(   5) = (   0.2500000   1.0187087   2.2252626  )
         6           O0  tau(   6) = (   0.2500000   0.2873281   2.2245574  )
         7           O0  tau(   7) = (   0.0000000   0.6530184   2.5039809  )
         8           O0  tau(   8) = (   0.0000000   0.0000000   2.5944019  )
         9           Re1 tau(   9) = (   0.2500000   0.0000000   2.8956372  )
        10           Re1 tau(  10) = (   0.0000000   0.6530184   2.8532728  )
        11           O0  tau(  11) = (   0.2500000   0.9403465   2.8863684  )
        12           O0  tau(  12) = (   0.2500000   0.3656903   2.8866706  )
        13           O0  tau(  13) = (   0.0000000   0.0000000   3.1589410  )
        14           O0  tau(  14) = (   0.5000000   0.0000000   1.8671553  )
        15           O0  tau(  15) = (   0.5000000   0.6530184   1.9260926  )
        16           Re1 tau(  16) = (   0.7500000   0.6530184   2.2254138  )
        17           Re1 tau(  17) = (   0.5000000   0.0000000   2.2327683  )
        18           O0  tau(  18) = (   0.7500000   1.0187087   2.2250108  )
        19           O0  tau(  19) = (   0.7500000   0.2873281   2.2249100  )
        20           O0  tau(  20) = (   0.5000000   0.6530184   2.5136527  )
        21           O0  tau(  21) = (   0.5000000   0.0000000   2.5937470  )
        22           Re1 tau(  22) = (   0.7500000   0.0000000   2.8949319  )
        23           Re1 tau(  23) = (   0.5000000   0.6530184   2.8846557  )
        24           O0  tau(  24) = (   0.7500000   0.9403465   2.8822881  )
        25           O0  tau(  25) = (   0.7500000   0.3656903   2.8822881  )
        26           O0  tau(  26) = (   0.5000000   0.0000000   3.1556667  )
        27           H2  tau(  27) = (  -0.0003600   0.8163644   1.8395505  )
        28           H2  tau(  28) = (   0.4996200   0.8138568   1.8363769  )
        29           H2  tau(  29) = (   0.1695000   0.0302217   1.7958260  )
        30           H2  tau(  30) = (   0.6704500   0.0285761   1.7967327  )
        31           O0  tau(  31) = (   0.5277600   0.6525874   3.2436194  )
        32           H2  tau(  32) = (   0.3788200   0.6519344   3.3501096  )

     number of k points=    10  Methfessel-Paxton smearing, width (Ry)=  0.0100
                       cart. coord. in units 2pi/alat
        k(    1) = (   0.0000000   0.0000000   0.0000000), wk =   0.1250000
        k(    2) = (   0.0000000   0.1914188   0.0000000), wk =   0.2500000
        k(    3) = (   0.0000000  -0.3828376   0.0000000), wk =   0.1250000
        k(    4) = (   0.2500000   0.0000000   0.0000000), wk =   0.2500000
        k(    5) = (   0.2500000   0.1914188   0.0000000), wk =   0.2500000
        k(    6) = (   0.2500000  -0.3828376   0.0000000), wk =   0.2500000
        k(    7) = (  -0.5000000   0.0000000   0.0000000), wk =   0.1250000
        k(    8) = (  -0.5000000   0.1914188   0.0000000), wk =   0.2500000
        k(    9) = (  -0.5000000  -0.3828376   0.0000000), wk =   0.1250000
        k(   10) = (  -0.2500000   0.1914188   0.0000000), wk =   0.2500000

     Largest allocated arrays     est. size (Mb)     dimensions
     Largest temporary arrays     est. size (Mb)     dimensions

     Check: negative/imaginary core charge=   -0.000003    0.000000

     Initial potential from superposition of free atoms
     Check: negative starting charge=   -0.237247

     starting charge  234.99957, renormalised to  239.00000

     negative rho (up, down):  0.241E+00 0.000E+00
     Number of +U iterations with fixed ns =  0
     Starting occupations:
 --- enter write_ns ---
 LDA+U parameters:
U( 2)     =  4.50000000
alpha( 2) =  0.00000000
atom    3   Tr[ns(na)] =   5.00000
    eigenvalues:
  0.500  0.500  0.500  0.500  0.500
    eigenvectors:
  1.000  0.000  0.000  0.000  0.000
  0.000  1.000  0.000  0.000  0.000
  0.000  0.000  1.000  0.000  0.000
  0.000  0.000  0.000  1.000  0.000
  0.000  0.000  0.000  0.000  1.000
    occupations:
  0.500  0.000  0.000  0.000  0.000
  0.000  0.500  0.000  0.000  0.000
  0.000  0.000  0.500  0.000  0.000
  0.000  0.000  0.000  0.500  0.000
  0.000  0.000  0.000  0.000  0.500
atom    4   Tr[ns(na)] =   5.00000
    eigenvalues:
  0.500  0.500  0.500  0.500  0.500
    eigenvectors:
  1.000  0.000  0.000  0.000  0.000
  0.000  1.000  0.000  0.000  0.000
  0.000  0.000  1.000  0.000  0.000
  0.000  0.000  0.000  1.000  0.000
  0.000  0.000  0.000  0.000  1.000
    occupations:
  0.500  0.000  0.000  0.000  0.000
  0.000  0.500  0.000  0.000  0.000
  0.000  0.000  0.500  0.000  0.000
  0.000  0.000  0.000  0.500  0.000
  0.000  0.000  0.000  0.000  0.500
atom    9   Tr[ns(na)] =   5.00000
    eigenvalues:
  0.500  0.500  0.500  0.500  0.500
    eigenvectors:
  1.000  0.000  0.000  0.000  0.000
  0.000  1.000  0.000  0.000  0.000
  0.000  0.000  1.000  0.000  0.000
  0.000  0.000  0.000  1.000  0.000
  0.000  0.000  0.000  0.000  1.000
    occupations:
  0.500  0.000  0.000  0.000  0.000
  0.000  0.500  0.000  0.000  0.000
  0.000  0.000  0.500  0.000  0.000
  0.000  0.000  0.000  0.500  0.000
  0.000  0.000  0.000  0.000  0.500
atom   10   Tr[ns(na)] =   5.00000
    eigenvalues:
  0.500  0.500  0.500  0.500  0.500
    eigenvectors:
  1.000  0.000  0.000  0.000  0.000
  0.000  1.000  0.000  0.000  0.000
  0.000  0.000  1.000  0.000  0.000
  0.000  0.000  0.000  1.000  0.000
  0.000  0.000  0.000  0.000  1.000
    occupations:
  0.500  0.000  0.000  0.000  0.000
  0.000  0.500  0.000  0.000  0.000
  0.000  0.000  0.500  0.000  0.000
  0.000  0.000  0.000  0.500  0.000
  0.000  0.000  0.000  0.000  0.500
atom   16   Tr[ns(na)] =   5.00000
    eigenvalues:
  0.500  0.500  0.500  0.500  0.500
    eigenvectors:
  1.000  0.000  0.000  0.000  0.000
  0.000  1.000  0.000  0.000  0.000
  0.000  0.000  1.000  0.000  0.000
  0.000  0.000  0.000  1.000  0.000
  0.000  0.000  0.000  0.000  1.000
    occupations:
  0.500  0.000  0.000  0.000  0.000
  0.000  0.500  0.000  0.000  0.000
  0.000  0.000  0.500  0.000  0.000
  0.000  0.000  0.000  0.500  0.000
  0.000  0.000  0.000  0.000  0.500
atom   17   Tr[ns(na)] =   5.00000
    eigenvalues:
  0.500  0.500  0.500  0.500  0.500
    eigenvectors:
  1.000  0.000  0.000  0.000  0.000
  0.000  1.000  0.000  0.000  0.000
  0.000  0.000  1.000  0.000  0.000
  0.000  0.000  0.000  1.000  0.000
  0.000  0.000  0.000  0.000  1.000
    occupations:
  0.500  0.000  0.000  0.000  0.000
  0.000  0.500  0.000  0.000  0.000
  0.000  0.000  0.500  0.000  0.000
  0.000  0.000  0.000  0.500  0.000
  0.000  0.000  0.000  0.000  0.500
atom   22   Tr[ns(na)] =   5.00000
    eigenvalues:
  0.500  0.500  0.500  0.500  0.500
    eigenvectors:
  1.000  0.000  0.000  0.000  0.000
[...]
  0.759  0.001  0.000  0.003  0.236
  0.000  0.004  0.000  0.981  0.015
    occupations:
  0.719  0.000 -0.001 -0.070  0.002
  0.000  0.607  0.000  0.000  0.000
 -0.001  0.000  0.596  0.001 -0.009
 -0.070  0.000  0.001  0.633 -0.002
  0.002  0.000 -0.009 -0.002  0.737
atom   10   Tr[ns(na)] =   6.53877
    eigenvalues:
  0.477  0.536  0.629  0.763  0.865
    eigenvectors:
  0.999  0.000  0.000  0.000  0.000
  0.000  0.000  0.000  0.000  0.999
  0.000  0.000  1.000  0.000  0.000
  0.000  0.000  0.000  1.000  0.000
  0.000  1.000  0.000  0.000  0.000
    occupations:
  0.477 -0.008 -0.000 -0.005  0.000
 -0.008  0.864  0.001 -0.000  0.001
 -0.000  0.001  0.629 -0.000  0.000
 -0.005 -0.000 -0.000  0.763 -0.000
  0.000  0.001  0.000 -0.000  0.536
atom   16   Tr[ns(na)] =   6.59646
    eigenvalues:
  0.538  0.568  0.573  0.775  0.845
    eigenvectors:
  0.000  0.266  0.062  0.672  0.000
  0.998  0.001  0.000  0.000  0.001
  0.001  0.290  0.701  0.007  0.001
  0.000  0.443  0.236  0.321  0.000
  0.001  0.000  0.001  0.000  0.999
    occupations:
  0.707  0.003  0.016 -0.096 -0.001
  0.003  0.539 -0.001 -0.002 -0.008
  0.016 -0.001  0.573 -0.008  0.007
 -0.096 -0.002 -0.008  0.635  0.001
 -0.001 -0.008  0.007  0.001  0.844
atom   17   Tr[ns(na)] =   6.57921
    eigenvalues:
  0.572  0.596  0.611  0.721  0.789
    eigenvectors:
  0.000  0.001  0.988  0.001  0.011
  0.000  0.005  0.001  0.993  0.000
  0.000  0.994  0.001  0.006  0.000
  0.000  0.000  0.011  0.000  0.989
  0.999  0.000  0.000  0.000  0.000
    occupations:
  0.613  0.003  0.001 -0.018  0.001
  0.003  0.720  0.009 -0.000 -0.002
  0.001  0.009  0.597  0.001 -0.000
 -0.018 -0.000  0.001  0.787 -0.000
  0.001 -0.002 -0.000 -0.000  0.572
atom   22   Tr[ns(na)] =   6.58421
    eigenvalues:
  0.591  0.593  0.605  0.738  0.766
    eigenvectors:
  0.000  0.243  0.000  0.016  0.741
  0.000  0.000  0.999  0.000  0.000
  0.996  0.001  0.000  0.002  0.000
  0.001  0.756  0.000  0.004  0.239
  0.002  0.000  0.000  0.978  0.020
    occupations:
  0.723 -0.000 -0.001 -0.074  0.003
 -0.000  0.604  0.000  0.000  0.000
 -0.001  0.000  0.592  0.001  0.007
 -0.074  0.000  0.001  0.635 -0.002
  0.003  0.000  0.007 -0.002  0.738
atom   23   Tr[ns(na)] =   6.56266
    eigenvalues:
  0.509  0.554  0.596  0.795  0.827
    eigenvectors:
  0.000  0.000  0.997  0.002  0.001
  0.000  0.000  0.001  0.002  0.997
  0.999  0.001  0.000  0.000  0.000
  0.000  0.000  0.002  0.996  0.002
  0.001  0.999  0.000  0.000  0.000
    occupations:
  0.597  0.007 -0.001 -0.009  0.000
  0.007  0.827  0.000  0.002  0.002
 -0.001  0.000  0.509  0.001 -0.001
 -0.009  0.002  0.001  0.795 -0.000
  0.000  0.002 -0.001 -0.000  0.554
N of occupied +U levels =  52.6270036
 --- exit write_ns ---

     Threshold (ethr) on eigenvalues was too large:
     Diagonalizing with lowered threshold

     Davidson diagonalization with overlap
     ethr =  4.56E-09,  avg # of iterations =  2.0

[...]

     total energy              =   -2173.67612526 Ry
     Harris-Foulkes estimate   =   -2173.67612527 Ry
     estimated scf accuracy    <       0.00000003 Ry

     iteration # 17     ecut=    40.00 Ry     beta=0.70
     Davidson diagonalization with overlap
     ethr =  4.56E-12,  avg # of iterations =  1.0

     negative rho (up, down):  0.240E+00 0.000E+00

     End of self-consistent calculation
 --- enter write_ns ---
 LDA+U parameters:
U( 2)     =  4.50000000
alpha( 2) =  0.00000000
atom    3   Tr[ns(na)] =   6.59562
    eigenvalues:
  0.539  0.567  0.571  0.776  0.845
    eigenvectors:
  0.000  0.159  0.168  0.673  0.000
  0.998  0.001  0.000  0.000  0.001
  0.001  0.633  0.357  0.008  0.000
  0.000  0.207  0.474  0.319  0.000
  0.001  0.000  0.000  0.000  0.999
    occupations:
  0.708 -0.003  0.016 -0.096  0.001
 -0.003  0.540  0.001  0.002 -0.008
  0.016  0.001  0.570 -0.009 -0.006
 -0.096  0.002 -0.009  0.635 -0.000
  0.001 -0.008 -0.006 -0.000  0.845
atom    4   Tr[ns(na)] =   6.58637
    eigenvalues:
  0.571  0.605  0.609  0.724  0.785
    eigenvectors:
  0.000  0.006  0.981  0.001  0.011
  0.000  0.008  0.001  0.990  0.000
  0.000  0.985  0.006  0.009  0.000
  0.000  0.000  0.011  0.000  0.989
  0.999  0.000  0.000  0.000  0.000
    occupations:
  0.611  0.003  0.001 -0.018  0.001
  0.003  0.723  0.011 -0.000 -0.002
  0.001  0.011  0.606  0.001 -0.000
 -0.018 -0.000  0.001  0.783 -0.000
  0.001 -0.002 -0.000 -0.000  0.571
atom    9   Tr[ns(na)] =   6.58429
    eigenvalues:
  0.594  0.595  0.607  0.737  0.759
    eigenvectors:
  0.238  0.001  0.000  0.012  0.749
  0.000  0.000  1.000  0.000  0.000
  0.002  0.994  0.000  0.004  0.000
  0.759  0.001  0.000  0.003  0.236
  0.000  0.004  0.000  0.981  0.015
    occupations:
  0.719  0.001 -0.001 -0.070  0.002
  0.001  0.607  0.000 -0.000  0.000
 -0.001  0.000  0.596  0.001 -0.009
 -0.070 -0.000  0.001  0.633 -0.002
  0.002  0.000 -0.009 -0.002  0.737
atom   10   Tr[ns(na)] =   6.53835
    eigenvalues:
  0.477  0.536  0.628  0.764  0.865
    eigenvectors:
  0.999  0.000  0.000  0.000  0.000
  0.000  0.000  0.000  0.000  0.999
  0.000  0.000  1.000  0.000  0.000
  0.000  0.000  0.000  1.000  0.000
  0.000  1.000  0.000  0.000  0.000
    occupations:
  0.477 -0.008 -0.000 -0.005  0.000
 -0.008  0.864  0.001 -0.000  0.001
 -0.000  0.001  0.628 -0.000  0.000
 -0.005 -0.000 -0.000  0.763 -0.000
  0.000  0.001  0.000 -0.000  0.536
atom   16   Tr[ns(na)] =   6.59710
    eigenvalues:
  0.538  0.568  0.573  0.775  0.845
    eigenvectors:
  0.000  0.270  0.058  0.672  0.000
  0.998  0.001  0.000  0.000  0.001
  0.001  0.276  0.715  0.007  0.001
  0.000  0.453  0.226  0.321  0.000
  0.001  0.000  0.001  0.000  0.999
    occupations:
  0.707  0.003  0.016 -0.096 -0.001
  0.003  0.539 -0.001 -0.002 -0.008
  0.016 -0.001  0.573 -0.008  0.007
 -0.096 -0.002 -0.008  0.635  0.001
 -0.001 -0.008  0.007  0.001  0.844
atom   17   Tr[ns(na)] =   6.57913
    eigenvalues:
  0.572  0.596  0.611  0.721  0.789
    eigenvectors:
  0.000  0.001  0.988  0.001  0.011
  0.000  0.005  0.001  0.993  0.000
  0.000  0.994  0.001  0.006  0.000
  0.000  0.000  0.011  0.000  0.989
  0.999  0.000  0.000  0.000  0.000
    occupations:
  0.613  0.003  0.001 -0.018  0.001
  0.003  0.720  0.009 -0.000 -0.002
  0.001  0.009  0.597  0.001 -0.000
 -0.018 -0.000  0.001  0.787 -0.000
  0.001 -0.002 -0.000 -0.000  0.572
atom   22   Tr[ns(na)] =   6.58315
    eigenvalues:
  0.591  0.593  0.604  0.737  0.765
    eigenvectors:
  0.000  0.243  0.000  0.015  0.741
  0.000  0.000  0.999  0.000  0.000
  0.996  0.001  0.000  0.002  0.000
  0.001  0.756  0.000  0.004  0.239
  0.002  0.000  0.000  0.978  0.020
    occupations:
  0.723 -0.000 -0.001 -0.074  0.003
 -0.000  0.604  0.000  0.000  0.000
 -0.001  0.000  0.591  0.001  0.007
 -0.074  0.000  0.001  0.635 -0.002
  0.003  0.000  0.007 -0.002  0.738
atom   23   Tr[ns(na)] =   6.56238
    eigenvalues:
  0.509  0.554  0.596  0.795  0.827
    eigenvectors:
  0.000  0.000  0.997  0.002  0.001
  0.000  0.000  0.001  0.002  0.997
  0.999  0.001  0.000  0.000  0.000
  0.000  0.000  0.002  0.996  0.002
  0.001  0.999  0.000  0.000  0.000
    occupations:
  0.597  0.007 -0.001 -0.009  0.000
  0.007  0.827  0.000  0.002  0.002
 -0.001  0.000  0.509  0.001 -0.001
 -0.009  0.002  0.001  0.795 -0.000
  0.000  0.002 -0.001 -0.000  0.554
N of occupied +U levels =  52.6263798
 --- exit write_ns ---

[...]

          k = 0.2500-0.3828 0.0000 ( 29202 PWs)   bands (ev):

[...]

          k =-0.2500 0.1914 0.0000 ( 29229 PWs)   bands (ev):

   -81.0046 -80.9233 -80.7806 -80.7376 -80.7078 -80.4137 -80.3884 -80.3748
   -43.0688 -42.9792 -42.9317 -42.9111 -42.8734 -42.8422 -42.8102 -42.7870
   -42.7333 -42.6684 -42.6461 -42.5846 -42.5598 -42.5438 -42.4765 -42.4453
   -42.4272 -42.4146 -42.3874 -42.3450 -42.2827 -42.2708 -41.9060 -41.7761
   -20.7642 -20.3175 -20.2885 -20.1603 -20.0615 -19.8712 -19.7858 -19.7333
   -19.6365 -19.5688 -19.4530 -19.3201 -19.2530 -19.0764 -19.0387 -18.9897
   -18.9507 -18.3738 -18.0773  -9.0406  -8.8391  -8.7582  -8.6783  -8.6636
    -8.4274  -8.3651  -8.2595  -8.1123  -7.9798  -7.9258  -7.8374  -7.6790
    -7.4407  -7.3568  -7.1019  -6.8950  -6.7481  -6.6764  -6.6000  -6.5434
    -6.3988  -6.1338  -6.0356  -5.8828  -5.7709  -5.7377  -5.5361  -5.4591
    -5.3605  -5.2041  -5.0114  -4.9614  -4.8978  -4.8107  -4.7448  -4.7422
    -4.6267  -4.5925  -4.5296  -4.4337  -4.1537  -3.9812  -3.8992  -3.8135
    -3.7392  -3.6743  -3.5745  -3.3925  -3.3524  -3.2893  -3.2061  -3.0755
    -2.8504  -2.7751  -2.6955  -2.5476  -2.3137  -2.1484  -2.0485  -1.3633
    -1.1048  -1.0633  -0.9212  -0.1761  -0.1516   0.1873   0.2755   0.4974
     0.6316   0.8323   0.8665   1.1752   1.3710   1.4229   1.5172   1.6231
     1.7187   1.7912   1.8238   2.2263   2.5231   3.7409   3.8049   3.9318
     3.9600   4.1276   4.2135   4.4502   4.6253   4.6774   4.8542   4.9724
     5.0157   5.2626   5.3508   5.6601   5.8743   5.9960   6.1307   6.3528
     6.4862   6.5880   6.7529   6.8533   7.0002   7.1573   7.3124   7.5183
     7.6966   7.7422   7.9460   8.0783   8.2752   8.4012   8.4803   8.5924
     8.6736   8.7565   8.9849   9.0311   9.1383   9.3919   9.4123   9.5932
     9.6484   9.6989   9.8288   9.9158   9.9580   9.9927  10.1056  10.2301
    10.2413  10.3806  10.4311  10.5275  10.6045  10.7439  10.7848  10.8658
    11.0118  11.1239  11.2132  11.3167  11.4555  11.5999  11.6826  11.7411
    11.8190  11.9675  12.0535  12.2126  12.3429  12.4996  12.5877  12.6114
    12.6800  12.7789  12.8193  12.9008  12.9721  13.0306  13.1127  13.2324
    13.3102  13.4218  13.5222  13.6530  13.6802  13.7591  13.8188  13.8935
    13.9490  13.9783  14.0702  14.1272  14.1567  14.2629  14.3678  14.4019
    14.4953  14.5401  14.5890  14.6959  14.7120  14.8420  14.8628  14.9189
    14.9751  14.9961  15.0197  15.1061  15.1588  15.2230  15.3274  15.4253
    15.5454  15.6247  15.6491  15.7435  15.8555  15.9680  16.0734  16.1589
    16.1874  16.2460  16.3295  16.4724  16.5558  16.5813  16.6118  16.7166
    16.7846  16.8778  16.9535  17.0350  17.1209  17.2098  17.2756  17.2916
    17.3767  17.5020  17.6078  17.6605  17.7270  17.8023  17.8341  17.9576
    18.0008  18.0228  18.1363  18.2208  18.2770  18.3144  18.4131  18.4887
    18.5644  18.6043  18.6540  18.7055  18.7768  18.8666  18.9261  19.0583
    19.1160  19.2253  19.3179  19.3929  19.4781  19.5804  19.6343  19.6830
    19.7687  19.8444  19.9624  20.0282  20.1680  20.2272  20.2821  20.3653
    20.4724  20.5295  20.5886  20.6487  20.7021  20.7785  20.8245  20.8591
    20.9063  20.9520  20.9879  21.1015  21.1546  21.1914  21.2506  21.3328
    21.4036  21.4889  21.5251  21.6164  21.6747  21.7318  21.7855  21.8532
    21.9402  21.9940  22.0905  22.1515  22.2170  22.2669  22.3350  22.3456
    22.4027  22.4382  22.5064  22.5405  22.6252  22.6487  22.7047  22.7446
    22.8179  22.8589  22.8793  22.9638  22.9864  23.0887

     the Fermi energy is     0.4107 ev

!    total energy              =   -2173.67612527 Ry
     Harris-Foulkes estimate   =   -2173.67612527 Ry
     estimated scf accuracy    <          3.6E-09 Ry

     The total energy is the sum of the following terms:

     one-electron contribution =  -24322.59759667 Ry
     hartree contribution      =   12180.57834047 Ry
     xc contribution           =    -595.15040055 Ry
     ewald contribution        =   10560.66948407 Ry
     Hubbard energy            =       2.82297043 Ry
     smearing contrib. (-TS)   =       0.00107699 Ry

     convergence has been achieved in  17 iterations

     Forces acting on atoms (Ry/au):

     negative rho (up, down):  0.240E+00 0.000E+00
     atom    1 type  1   force =    -0.00611048   -0.00653822   -0.00026531
     atom    2 type  1   force =     0.00011395    0.00419800   -0.00025847
     atom    3 type  2   force =     0.02826128   -0.00227477   -0.00007920
     atom    4 type  2   force =     0.00142608    0.00647294   -0.00000017
     atom    5 type  1   force =     0.00186373    0.00335432    0.00039005
     atom    6 type  1   force =     0.00063672   -0.00320169    0.00046434
     atom    7 type  1   force =     0.00350599   -0.00073217    0.00038680
     atom    8 type  1   force =     0.00390072   -0.00197574   -0.00057748
     atom    9 type  2   force =    -0.02938999    0.00180324    0.00004729
     atom   10 type  2   force =    -0.00874374   -0.00168951    0.00019815
     atom   11 type  1   force =    -0.00875464    0.00322040    0.00013709
     atom   12 type  1   force =    -0.00869893   -0.00190072    0.00012703
     atom   13 type  1   force =     0.00011138   -0.00007978    0.00028041
     atom   14 type  1   force =    -0.00312344   -0.00558256   -0.00014077
     atom   15 type  1   force =     0.00026837    0.00277784   -0.00060188
     atom   16 type  2   force =    -0.02856350   -0.00172497   -0.00007513
     atom   17 type  2   force =     0.00173150    0.00677810   -0.00011526
     atom   18 type  1   force =     0.00131379    0.00356593    0.00042069
     atom   19 type  1   force =    -0.00017863   -0.00375536    0.00050957
     atom   20 type  1   force =    -0.00294172   -0.00274133   -0.00010080
     atom   21 type  1   force =     0.00146128   -0.00130806   -0.00044367
     atom   22 type  2   force =     0.02454291    0.00187177    0.00019214
     atom   23 type  2   force =     0.00193967   -0.00083256    0.00007522
     atom   24 type  1   force =     0.01178860    0.00483387    0.00004379
     atom   25 type  1   force =     0.01196197   -0.00408204    0.00007997
     atom   26 type  1   force =     0.00037896   -0.00114060    0.00002735
     atom   27 type  3   force =     0.00001314    0.00034051    0.00010380
     atom   28 type  3   force =    -0.00001124    0.00030343   -0.00038883
     atom   29 type  3   force =     0.00070336    0.00023189    0.00047142
     atom   30 type  3   force =     0.00074488   -0.00005381    0.00059214
     atom   31 type  1   force =    -0.00005925   -0.00004215   -0.00091850
     atom   32 type  3   force =    -0.00009272   -0.00009619   -0.00058179

     Total force =     0.002345     Total SCF correction =     0.000154

     bfgs converged in   8 scf cycles and   7 bfgs steps
     (criteria: energy < 0.10E-03, force < 0.10E-02)

     End of BFGS Geometry Optimization

     Final energy   =   -2173.6761252650 Ry
Begin final coordinates

ATOMIC_POSITIONS (crystal)
O0       0.000000000   0.000000000   0.371477086    0   0   1
O0       0.000000000   0.500000000   0.382403622    0   0   1
Re1      0.250000000   0.500000000   0.441965045    0   0   1
Re1      0.000000000   0.000000000   0.443769198    0   0   1
O0       0.250000000   0.780000000   0.442115465    0   0   1
O0       0.250000000   0.220000000   0.441856303    0   0   1
O0       0.000000000   0.500000000   0.496987270    0   0   1
O0       0.000000000   0.000000000   0.514559831    0   0   1
Re1      0.250000000   0.000000000   0.574727819    0   0   1
Re1      0.000000000   0.500000000   0.565997714    0   0   1
O0       0.250000000   0.720000000   0.572248698    0   0   1
O0       0.250000000   0.280000000   0.572351182    0   0   1
O0       0.000000000   0.000000000   0.626871474    0   0   1
O0       0.500000000   0.000000000   0.371507161    0   0   1
O0       0.500000000   0.500000000   0.382962023    0   0   1
Re1      0.750000000   0.500000000   0.441964893    0   0   1
Re1      0.500000000   0.000000000   0.443557342    0   0   1
O0       0.750000000   0.780000000   0.442039611    0   0   1
O0       0.750000000   0.220000000   0.441948181    0   0   1
O0       0.500000000   0.500000000   0.499122603    0   0   1
O0       0.500000000   0.000000000   0.514508103    0   0   1
Re1      0.750000000   0.000000000   0.574386220    0   0   1
Re1      0.500000000   0.500000000   0.572752257    0   0   1
O0       0.750000000   0.720000000   0.571528371    0   0   1
O0       0.750000000   0.280000000   0.571470069    0   0   1
O0       0.500000000   0.000000000   0.626076000    0   0   1
H2      -0.000317795   0.624355644   0.365280396
H2       0.499604929   0.621660303   0.364599473
H2       0.168202430   0.023146528   0.356758516
H2       0.669495815   0.021448056   0.357003580
O0       0.527655324   0.499570810   0.643499001
H2       0.378798456   0.499073073   0.664735494
End final coordinates

     General routines

     Parallel routines
     Hubbard U routines

   This run was terminated on:  11:48:52   2May2014

   JOB DONE.
Running PBS batch system epilogue script
Job id: 340629.audhumbla.fysik.dtu.dk
Username: zhonxu
Groupname: campgst
Jobname: ReO2/Eads-2-layers/OH-U-4.5
Sessionid: 27305
Queuename: verylong
Accounting:
This job has allocated the following 16 nodes:
d093 d093 d093 d093 d093 d093 d093 d093 d090 d090 d090 d090 d090 d090 d090 d090
Finished epilogue job 340629.audhumbla.fysik.dtu.dk for zhonxu