     Program PWSCF v.5.0.2 (svn rev. 9656) starts on 13Aug2014 at 10:14:41

     Current dimensions of program PWSCF are:
     Max number of different atomic species (ntypx) = 10
     Max number of k-points (npk) =  40000
     Max angular momentum in pseudopotentials (lmaxx) =  3
     Reading input from pwscf.in
Warning: card &CELL ignored
Warning: card / ignored

     Subspace diagonalization in iterative solution of the eigenvalue problem:
     a serial algorithm will be used

     bravais-lattice index     =            0
     lattice parameter (alat)  =      10.9604  a.u.
     unit-cell volume          =    6350.6732 (a.u.)^3
     number of atoms/cell      =           33
     number of atomic types    =            3
     number of electrons       =       237.00 (up: 126.00, down: 111.00)
     number of Kohn-Sham states=          343
     kinetic-energy cutoff     =      40.0000  Ry
     charge density cutoff     =     500.0000  Ry
     convergence threshold     =      1.0E-06
     mixing beta               =       0.7000
     number of iterations used =            8  plain     mixing
     Exchange-correlation      = SLA  PW   PBE  PBE ( 1 4 3 4 0)
     EXX-fraction              =        0.00
     nstep                     =           50

     celldm(1)=  10.960412  celldm(2)=   0.000000  celldm(3)=   0.000000
     celldm(4)=   0.000000  celldm(5)=   0.000000  celldm(6)=   0.000000

     crystal axes: (cart. coord. in units of alat)
               a(1) = (   1.000000   0.000000   0.000000 )
               a(2) = (   0.000000   1.067975   0.000000 )
               a(3) = (   0.000000   0.000000   4.516251 )

     reciprocal axes: (cart. coord. in units 2 pi/alat)
               b(1) = (  1.000000  0.000000  0.000000 )
               b(2) = (  0.000000  0.936351  0.000000 )
               b(3) = (  0.000000  0.000000  0.221423 )

     PseudoPot. # 1 for O  read from file:
     /home-research/zhongnanxu/gbrv_espresso_pseudo_v1.01/o_pbe_v1.01.uspp.F.UPF
     MD5 check sum: 2bcb18d16ea4b960afae9ec6d52f22d2
     Pseudo is Ultrasoft + core correction, Zval =  6.0
     Generated by new atomic code, or converted to UPF format
     Using radial grid of  737 points,  5 beta functions with:
                l(1) =   0
                l(2) =   0
                l(3) =   1
                l(4) =   1
                l(5) =   2
     Q(r) pseudized with  8 coefficients,  rinner =    0.900   0.900   0.900
                                                       0.900   0.900

     PseudoPot. # 2 for Cr read from file:
     /home-research/zhongnanxu/gbrv_espresso_pseudo_v1.01/cr_pbe_v1.uspp.F.UPF
     MD5 check sum: 68b6f918d1762dccfb11451fe85b0e0e
     Pseudo is Ultrasoft + core correction, Zval = 14.0
     Generated by new atomic code, or converted to UPF format
     Using radial grid of  857 points,  6 beta functions with:
                l(1) =   0
                l(2) =   0
                l(3) =   1
                l(4) =   1
                l(5) =   2
                l(6) =   2
     Q(r) pseudized with  6 coefficients,  rinner =    1.000   1.000   1.000
                                                       1.000   1.000

     PseudoPot. # 3 for H  read from file:
     /home-research/zhongnanxu/gbrv_espresso_pseudo_v1.01/h_pbe_v1.uspp.F.UPF
     MD5 check sum: 3408e3ff4ec8b0a4e358431e7e038a48
     Pseudo is Ultrasoft, Zval =  1.0
     Generated by new atomic code, or converted to UPF format
     Using radial grid of  615 points,  2 beta functions with:
                l(1) =   0
                l(2) =   0
     Q(r) pseudized with  8 coefficients,  rinner =    0.700

     atomic species   valence    mass     pseudopotential
        O0             6.00    15.99940     O ( 1.00)
        Cr1           14.00    51.99600     Cr( 1.00)
        H2             1.00     1.00794     H ( 1.00)

     Starting magnetic structure
     atomic species   magnetization
        O0           0.000
        Cr1          0.600
        H2           0.000

     Simplified LDA+U calculation (l_max = 2) with parameters (eV):
     atomic species    L          U    alpha       J0     beta
        Cr1            2     8.0000   0.0000   0.0000   0.0000

     No symmetry found

   Cartesian axes

     site n.     atom                  positions (alat units)
         1           O0  tau(   1) = (   0.0000000   0.0000000   1.6812196  )
         2           O0  tau(   2) = (   0.0000000   0.5339875   1.7731704  )
         3           Cr1 tau(   3) = (   0.2500000   0.5339875   2.0135705  )
         4           Cr1 tau(   4) = (   0.0000000   0.0000000   2.0280676  )
         5           O0  tau(   5) = (   0.2500000   0.8543801   2.0196674  )
         6           O0  tau(   6) = (   0.2500000   0.2135950   2.0197577  )
         7           O0  tau(   7) = (   0.0000000   0.5339875   2.2417315  )
         8           O0  tau(   8) = (   0.0000000   0.0000000   2.3761351  )
         9           Cr1 tau(   9) = (   0.2500000   0.0000000   2.6111156  )
        10           Cr1 tau(  10) = (   0.0000000   0.5339875   2.5666757  )
        11           O0  tau(  11) = (   0.2500000   0.7475825   2.6130576  )
        12           O0  tau(  12) = (   0.2500000   0.3203925   2.6168513  )
        13           O0  tau(  13) = (   0.0000000   0.0000000   2.8370185  )
        14           O0  tau(  14) = (   0.5000000   0.0000000   1.6791421  )
        15           O0  tau(  15) = (   0.5000000   0.5339875   1.7738027  )
        16           Cr1 tau(  16) = (   0.7500000   0.5339875   2.0135253  )
        17           Cr1 tau(  17) = (   0.5000000   0.0000000   2.0253127  )
        18           O0  tau(  18) = (   0.7500000   0.8543801   2.0198481  )
        19           O0  tau(  19) = (   0.7500000   0.2135950   2.0198029  )
        20           O0  tau(  20) = (   0.5000000   0.5339875   2.2536995  )
        21           O0  tau(  21) = (   0.5000000   0.0000000   2.3749609  )
        22           Cr1 tau(  22) = (   0.7500000   0.0000000   2.6105737  )
        23           Cr1 tau(  23) = (   0.5000000   0.5339875   2.6057413  )
        24           O0  tau(  24) = (   0.7500000   0.7475825   2.6126963  )
        25           O0  tau(  25) = (   0.7500000   0.3203925   2.6165803  )
        26           O0  tau(  26) = (   0.5000000   0.0000000   2.8353927  )
        27           H2  tau(  27) = (  -0.0007900   0.6806846   1.6865487  )
        28           H2  tau(  28) = (   0.4992100   0.6807914   1.6873617  )
        29           H2  tau(  29) = (   0.1597400   0.0291984   1.6267987  )
        30           H2  tau(  30) = (   0.6598100   0.0290703   1.6249922  )
        31           O0  tau(  31) = (   0.4998600   0.5908465   2.9696156  )
        32           O0  tau(  32) = (   0.5002200   0.3927372   3.0991869  )
        33           H2  tau(  33) = (   0.4998900   0.4535370   3.2591073  )

     number of k points=    20  Methfessel-Paxton smearing, width (Ry)=  0.0100
                       cart. coord. in units 2pi/alat
        k(    1) = (   0.0000000   0.0000000   0.0000000), wk =   0.0625000
        k(    2) = (   0.0000000   0.2340879   0.0000000), wk =   0.1250000
        k(    3) = (   0.0000000  -0.4681757   0.0000000), wk =   0.0625000
        k(    4) = (   0.2500000   0.0000000   0.0000000), wk =   0.1250000
        k(    5) = (   0.2500000   0.2340879   0.0000000), wk =   0.1250000
        k(    6) = (   0.2500000  -0.4681757   0.0000000), wk =   0.1250000
        k(    7) = (  -0.5000000   0.0000000   0.0000000), wk =   0.0625000
        k(    8) = (  -0.5000000   0.2340879   0.0000000), wk =   0.1250000
        k(    9) = (  -0.5000000  -0.4681757   0.0000000), wk =   0.0625000
        k(   10) = (  -0.2500000   0.2340879   0.0000000), wk =   0.1250000
        k(   11) = (   0.0000000   0.0000000   0.0000000), wk =   0.0625000
        k(   12) = (   0.0000000   0.2340879   0.0000000), wk =   0.1250000
        k(   13) = (   0.0000000  -0.4681757   0.0000000), wk =   0.0625000
        k(   14) = (   0.2500000   0.0000000   0.0000000), wk =   0.1250000
        k(   15) = (   0.2500000   0.2340879   0.0000000), wk =   0.1250000
        k(   16) = (   0.2500000  -0.4681757   0.0000000), wk =   0.1250000
        k(   17) = (  -0.5000000   0.0000000   0.0000000), wk =   0.0625000
        k(   18) = (  -0.5000000   0.2340879   0.0000000), wk =   0.1250000
        k(   19) = (  -0.5000000  -0.4681757   0.0000000), wk =   0.0625000
        k(   20) = (  -0.2500000   0.2340879   0.0000000), wk =   0.1250000

     Largest allocated arrays     est. size (Mb)     dimensions
     Largest temporary arrays     est. size (Mb)     dimensions

     Check: negative/imaginary core charge=   -0.000012    0.000000

     Initial potential from superposition of free atoms
     Check: negative starting charge=(component1):   -0.001238
     Check: negative starting charge=(component2):   -0.000429

     starting charge  228.99983, renormalised to  237.00000

     negative rho (up, down):  0.128E-02 0.445E-03
     Number of +U iterations with fixed ns =  0
     Starting occupations:
 --- enter write_ns ---
 LDA+U parameters:
U( 2)     =  8.00000000
alpha( 2) =  0.00000000
atom    3   Tr[ns(na)] (up, down, total) =   5.00000  0.00000  5.00000
   spin  1
    eigenvalues:
  1.000  1.000  1.000  1.000  1.000
    eigenvectors:
  1.000  0.000  0.000  0.000  0.000
  0.000  1.000  0.000  0.000  0.000
  0.000  0.000  1.000  0.000  0.000
  0.000  0.000  0.000  1.000  0.000
  0.000  0.000  0.000  0.000  1.000
    occupations:
  1.000  0.000  0.000  0.000  0.000
  0.000  1.000  0.000  0.000  0.000
  0.000  0.000  1.000  0.000  0.000
  0.000  0.000  0.000  1.000  0.000
  0.000  0.000  0.000  0.000  1.000
   spin  2
    eigenvalues:
  0.000  0.000  0.000  0.000  0.000
    eigenvectors:
  1.000  0.000  0.000  0.000  0.000
  0.000  1.000  0.000  0.000  0.000
  0.000  0.000  1.000  0.000  0.000
  0.000  0.000  0.000  1.000  0.000
  0.000  0.000  0.000  0.000  1.000
    occupations:
  0.000  0.000  0.000  0.000  0.000
  0.000  0.000  0.000  0.000  0.000
  0.000  0.000  0.000  0.000  0.000
  0.000  0.000  0.000  0.000  0.000
  0.000  0.000  0.000  0.000  0.000
atomic mag. moment =     5.000000
atom    4   Tr[ns(na)] (up, down, total) =   5.00000  0.00000  5.00000
   spin  1
    eigenvalues:
  1.000  1.000  1.000  1.000  1.000
    eigenvectors:
  1.000  0.000  0.000  0.000  0.000
  0.000  1.000  0.000  0.000  0.000
  0.000  0.000  1.000  0.000  0.000
  0.000  0.000  0.000  1.000  0.000
  0.000  0.000  0.000  0.000  1.000
    occupations:
  1.000  0.000  0.000  0.000  0.000
  0.000  1.000  0.000  0.000  0.000
  0.000  0.000  1.000  0.000  0.000
  0.000  0.000  0.000  1.000  0.000
  0.000  0.000  0.000  0.000  1.000
   spin  2
    eigenvalues:
  0.000  0.000  0.000  0.000  0.000
    eigenvectors:
  1.000  0.000  0.000  0.000  0.000
  0.000  1.000  0.000  0.000  0.000
  0.000  0.000  1.000  0.000  0.000
  0.000  0.000  0.000  1.000  0.000
  0.000  0.000  0.000  0.000  1.000
    occupations:
  0.000  0.000  0.000  0.000  0.000
  0.000  0.000  0.000  0.000  0.000
  0.000  0.000  0.000  0.000  0.000
  0.000  0.000  0.000  0.000  0.000
  0.000  0.000  0.000  0.000  0.000
[...]
  0.000  0.007  0.001  0.000  0.064
atomic mag. moment =     3.073685
atom    4   Tr[ns(na)] (up, down, total) =   3.81096  0.70936  4.52032
   spin  1
    eigenvalues:
  0.465  0.488  0.927  0.938  0.992
    eigenvectors:
  0.000  0.997  0.000  0.001  0.001
  0.000  0.001  0.011  0.988  0.000
  0.000  0.000  0.989  0.011  0.000
  0.000  0.001  0.000  0.000  0.998
  1.000  0.000  0.000  0.000  0.000
    occupations:
  0.490 -0.016 -0.001  0.019  0.000
 -0.016  0.937  0.001  0.002  0.001
 -0.001  0.001  0.927  0.000  0.001
  0.019  0.002  0.000  0.992  0.000
  0.000  0.001  0.001  0.000  0.465
   spin  2
    eigenvalues:
  0.056  0.061  0.062  0.246  0.285
    eigenvectors:
  0.000  0.010  0.001  0.989  0.000
  0.027  0.260  0.712  0.001  0.000
  0.970  0.017  0.013  0.000  0.000
  0.003  0.713  0.274  0.010  0.000
  0.000  0.000  0.000  0.000  1.000
    occupations:
  0.244  0.005  0.001 -0.019  0.000
  0.005  0.062 -0.001  0.000  0.000
  0.001 -0.001  0.056  0.000  0.000
 -0.019  0.000  0.000  0.063  0.000
  0.000  0.000  0.000  0.000  0.285
atomic mag. moment =     3.101593
atom    9   Tr[ns(na)] (up, down, total) =   3.81660  0.74835  4.56495
   spin  1
    eigenvalues:
  0.501  0.517  0.866  0.938  0.995
    eigenvectors:
  0.001  0.231  0.000  0.000  0.768
  0.996  0.004  0.000  0.000  0.000
  0.000  0.000  0.983  0.017  0.000
  0.003  0.766  0.000  0.000  0.232
  0.000  0.000  0.017  0.983  0.000
    occupations:
  0.884 -0.002  0.001 -0.202 -0.001
 -0.002  0.501  0.000  0.000  0.000
  0.001  0.000  0.867  0.001 -0.009
 -0.202  0.000  0.001  0.628 -0.001
 -0.001  0.000 -0.009 -0.001  0.937
   spin  2
    eigenvalues:
  0.059  0.068  0.068  0.253  0.301
    eigenvectors:
  0.793  0.000  0.000  0.000  0.207
  0.000  0.000  0.000  0.999  0.001
  0.000  0.498  0.502  0.000  0.000
  0.207  0.000  0.000  0.001  0.792
  0.000  0.502  0.498  0.000  0.000
    occupations:
  0.109  0.000  0.001  0.098  0.000
  0.000  0.253  0.000 -0.002  0.000
  0.001  0.000  0.068  0.002  0.000
  0.098 -0.002  0.002  0.250  0.000
  0.000  0.000  0.000  0.000  0.068
atomic mag. moment =     3.068244
atom   10   Tr[ns(na)] (up, down, total) =   3.84079  0.64248  4.48327
   spin  1
    eigenvalues:
  0.481  0.484  0.937  0.946  0.993
    eigenvectors:
  0.001  0.997  0.000  0.000  0.002
  0.000  0.000  0.000  1.000  0.000
  0.000  0.000  1.000  0.000  0.000
  0.000  0.002  0.000  0.000  0.998
  0.999  0.001  0.000  0.000  0.000
    occupations:
  0.485  0.000 -0.007  0.022  0.000
  0.000  0.946  0.000  0.000 -0.003
 -0.007  0.000  0.937  0.001  0.000
  0.022  0.000  0.001  0.992  0.000
  0.000 -0.003  0.000  0.000  0.481
   spin  2
    eigenvalues:
  0.057  0.064  0.073  0.177  0.271
    eigenvectors:
  0.017  0.000  0.000  0.983  0.000
  0.000  0.000  1.000  0.000  0.000
  0.001  0.999  0.000  0.000  0.000
  0.983  0.000  0.000  0.017  0.000
  0.000  0.000  0.000  0.000  1.000
    occupations:
  0.175  0.000  0.000 -0.015  0.000
  0.000  0.073  0.000  0.000  0.002
  0.000  0.000  0.064  0.000  0.000
 -0.015  0.000  0.000  0.059  0.000
  0.000  0.002  0.000  0.000  0.271
atomic mag. moment =     3.198320
atom   16   Tr[ns(na)] (up, down, total) =   3.79090  0.71724  4.50814
   spin  1
    eigenvalues:
  0.433  0.490  0.905  0.968  0.994
    eigenvectors:
  0.000  0.262  0.000  0.000  0.737
  1.000  0.000  0.000  0.000  0.000
  0.000  0.000  0.999  0.000  0.000
  0.000  0.737  0.000  0.000  0.263
  0.000  0.000  0.000  1.000  0.000
    occupations:
  0.862 -0.002 -0.001 -0.222  0.000
 -0.002  0.433  0.000  0.002 -0.006
 -0.001  0.000  0.905 -0.006 -0.001
 -0.222  0.002 -0.006  0.623  0.000
  0.000 -0.006 -0.001  0.000  0.968
   spin  2
    eigenvalues:
  0.050  0.063  0.066  0.241  0.296
    eigenvectors:
  0.732  0.004  0.031  0.002  0.231
  0.000  0.001  0.000  0.994  0.004
  0.042  0.080  0.878  0.000  0.000
  0.226  0.001  0.006  0.003  0.764
  0.000  0.914  0.085  0.001  0.000
    occupations:
  0.108  0.000 -0.001  0.103  0.000
  0.000  0.241  0.000 -0.004  0.007
 -0.001  0.000  0.066  0.005 -0.001
  0.103 -0.004  0.005  0.239  0.000
  0.000  0.007 -0.001  0.000  0.064
atomic mag. moment =     3.073662
atom   17   Tr[ns(na)] (up, down, total) =   3.81193  0.70691  4.51883
   spin  1
    eigenvalues:
  0.464  0.486  0.931  0.939  0.992
    eigenvectors:
  0.000  0.997  0.000  0.001  0.001
  0.000  0.001  0.020  0.978  0.000
  0.000  0.000  0.980  0.020  0.000
  0.000  0.001  0.000  0.000  0.998
  1.000  0.000  0.000  0.000  0.000
    occupations:
  0.487 -0.016 -0.001  0.019  0.000
 -0.016  0.938  0.001  0.001  0.000
 -0.001  0.001  0.931  0.000  0.002
  0.019  0.001  0.000  0.991  0.000
  0.000  0.000  0.002  0.000  0.464
   spin  2
    eigenvalues:
  0.056  0.061  0.062  0.244  0.285
    eigenvectors:
  0.000  0.008  0.003  0.989  0.000
  0.029  0.478  0.492  0.001  0.000
  0.968  0.024  0.007  0.000  0.000
  0.002  0.489  0.498  0.010  0.000
  0.000  0.000  0.000  0.000  1.000
    occupations:
  0.242  0.005  0.001 -0.018  0.000
  0.005  0.061 -0.001  0.000  0.000
  0.001 -0.001  0.056  0.000  0.000
 -0.018  0.000  0.000  0.063  0.000
  0.000  0.000  0.000  0.000  0.285
atomic mag. moment =     3.105021
atom   22   Tr[ns(na)] (up, down, total) =   3.81660  0.74826  4.56485
   spin  1
    eigenvalues:
  0.501  0.517  0.865  0.938  0.995
    eigenvectors:
  0.006  0.226  0.000  0.000  0.768
  0.977  0.023  0.000  0.000  0.000
  0.000  0.000  0.984  0.016  0.000
  0.017  0.751  0.000  0.000  0.232
  0.000  0.000  0.016  0.984  0.000
    occupations:
  0.884  0.003  0.001 -0.202  0.001
  0.003  0.501  0.001  0.001  0.000
  0.001  0.001  0.867  0.001  0.009
 -0.202  0.001  0.001  0.628  0.001
  0.001  0.000  0.009  0.001  0.937
   spin  2
    eigenvalues:
  0.059  0.068  0.068  0.253  0.301
    eigenvectors:
  0.792  0.000  0.000  0.000  0.207
  0.000  0.000  0.000  0.999  0.001
  0.000  0.470  0.530  0.000  0.000
  0.207  0.000  0.000  0.001  0.792
  0.000  0.530  0.470  0.000  0.000
    occupations:
  0.109  0.000  0.001  0.098  0.000
  0.000  0.253  0.000  0.002  0.000
  0.001  0.000  0.068  0.002  0.000
  0.098  0.002  0.002  0.250  0.000
  0.000  0.000  0.000  0.000  0.068
atomic mag. moment =     3.068338
atom   23   Tr[ns(na)] (up, down, total) =   3.80817  0.66962  4.47779
   spin  1
    eigenvalues:
  0.409  0.483  0.961  0.964  0.990
    eigenvectors:
  0.995  0.000  0.003  0.000  0.002
  0.000  0.000  0.001  0.998  0.000
  0.003  0.000  0.996  0.001  0.000
  0.002  0.000  0.000  0.000  0.998
  0.000  1.000  0.000  0.000  0.000
    occupations:
  0.412  0.000  0.030  0.023  0.000
  0.000  0.964  0.000  0.000 -0.009
  0.030  0.000  0.960 -0.001  0.000
  0.023  0.000 -0.001  0.989  0.000
  0.000 -0.009  0.000  0.000  0.483
   spin  2
    eigenvalues:
  0.049  0.062  0.062  0.204  0.292
    eigenvectors:
  0.003  0.014  0.000  0.983  0.000
  0.000  0.004  0.996  0.000  0.000
  0.997  0.001  0.000  0.002  0.000
  0.001  0.981  0.004  0.015  0.000
  0.000  0.000  0.000  0.000  1.000
    occupations:
  0.201  0.000 -0.007 -0.017  0.000
  0.000  0.062  0.000  0.000  0.002
 -0.007  0.000  0.050  0.001  0.000
 -0.017  0.000  0.001  0.064  0.000
  0.000  0.002  0.000  0.000  0.292
atomic mag. moment =     3.138545
N of occupied +U levels =  36.1463604
 --- exit write_ns ---

 ------ SPIN UP ------------

[...]

 ------ SPIN DOWN ----------

[...]

          k = 0.2500-0.4682 0.0000 ( 27150 PWs)   bands (ev):

[...]

          k =-0.2500 0.2341 0.0000 ( 27132 PWs)   bands (ev):

   -71.1559 -71.0808 -70.9270 -70.9165 -70.8805 -70.8696 -70.8692 -70.8460
   -42.6547 -42.6085 -42.5447 -42.4884 -42.4663 -42.4511 -42.4199 -42.4127
   -42.4119 -42.3721 -42.3562 -42.3166 -42.2934 -42.2699 -42.2595 -42.2368
   -42.2289 -42.2200 -42.1944 -42.1722 -42.1705 -42.1597 -42.1455 -42.0710
   -25.8881 -20.3453 -20.0387 -19.7266 -19.6734 -19.4876 -19.4121 -19.3840
   -19.3725 -19.1706 -19.1336 -19.0929 -19.0423 -18.9166 -18.8663 -18.8397
   -18.7443 -18.7311 -18.6451 -18.1551 -10.1319  -8.3898  -7.7400  -7.4869
    -7.4106  -7.0935  -6.9012  -6.7834  -6.5429  -6.4252  -6.3273  -6.1319
    -6.0887  -5.8999  -5.8725  -5.8017  -5.7604  -5.6757  -5.5945  -5.5486
    -5.2254  -5.1768  -5.0973  -5.0561  -4.9086  -4.8437  -4.8122  -4.7619
    -4.6256  -4.5640  -4.5160  -4.4454  -4.4098  -4.3845  -4.3095  -4.2506
    -4.1892  -4.1393  -4.0721  -3.9665  -3.8835  -3.7972  -3.7175  -3.5962
    -3.5316  -3.4488  -3.3904  -3.3417  -3.2970  -3.2532  -3.2095  -3.1642
    -3.1101  -3.0638  -2.9712  -2.9285  -2.8132  -2.7461  -2.6374   2.6803
     3.3546   3.5613   3.9427   3.9905   4.0642   4.1126   4.1318   4.2119
     4.2436   4.2695   4.3115   4.3522   4.3986   4.4388   4.4980   4.5496
     4.5625   4.6332   4.6836   4.7568   4.7973   4.8235   4.8593   4.9293
     4.9836   5.0052   5.0414   5.0675   5.1170   5.1816   5.2187   5.2260
     5.2699   5.3380   5.3597   5.4098   5.4691   5.5161   5.5512   5.5911
     5.6116   5.6663   5.6978   5.7237   5.7727   5.8294   5.8595   6.1334
     6.2581   6.4063   6.5320   6.6115   6.8492   6.9794   7.1607   7.4065
     7.6341   7.7813   7.9615   8.1224   8.2049   8.3078   8.4406   8.6280
     8.7083   8.9757   9.0688   9.2408   9.3224   9.5220   9.5422   9.6458
     9.8124   9.8845   9.9844  10.0091  10.1510  10.2515  10.4030  10.4605
    10.5637  10.6280  10.7561  10.8417  10.9883  11.0978  11.2260  11.3198
    11.3648  11.4583  11.5712  11.7144  11.7880  11.9156  11.9910  12.0174
    12.0976  12.1828  12.2434  12.3278  12.3894  12.5044  12.5813  12.6767
    12.7489  12.8153  12.9664  12.9977  13.1628  13.2179  13.2467  13.3269
    13.3763  13.4349  13.4919  13.6483  13.7025  13.8557  13.8799  13.9222
    14.0178  14.0392  14.1827  14.2704  14.3396  14.3676  14.4507  14.5723
    14.6070  14.8039  14.8817  14.9198  14.9889  15.0287  15.0916  15.1370
    15.2445  15.2829  15.3539  15.5238  15.6106  15.6732  15.7242  15.7917
    15.8153  15.8806  15.9874  16.0875  16.1149  16.2447  16.2843  16.3551
    16.3916  16.4512  16.5227  16.6113  16.6721  16.7410  16.8970  16.9437
    17.0036  17.0918  17.1913  17.2036  17.2729  17.3370  17.4040  17.4475
    17.4883  17.5393  17.6157  17.7192  17.8181  17.8640  17.9522  18.0332
    18.0866  18.1294  18.1886  18.2735  18.3603  18.4223  18.4660  18.5569
    18.6025  18.7266  18.7890  18.8835  18.9273  19.0062  19.0284  19.0691
    19.1386  19.2546  19.3312  19.3926  19.4565  19.5207  19.5645  19.6738
    19.7639  19.8410  19.8950  19.9319  20.0948  20.2252  20.2561  20.3070
    20.3771  20.4037  20.4906  20.5988  20.6803  20.8169  20.8748  20.9083
    21.0018  21.1105  21.2343  21.2536  21.3364  21.4164  21.4415  21.4733
    21.6347  21.6916  21.7652  21.8643  21.9336  21.9687  22.0156

     the spin up/dw Fermi energies are    -1.5690   -1.6830 ev

!    total energy              =   -2055.48053236 Ry
     Harris-Foulkes estimate   =   -2055.48053237 Ry
     estimated scf accuracy    <          7.3E-09 Ry

     The total energy is the sum of the following terms:

     one-electron contribution =  -23688.39538454 Ry
     hartree contribution      =   11874.51295077 Ry
     xc contribution           =    -330.69367677 Ry
     ewald contribution        =   10086.30362121 Ry
     Hubbard energy            =       2.79213427 Ry
     smearing contrib. (-TS)   =      -0.00017731 Ry

     total magnetization       =    15.00 Bohr mag/cell
     absolute magnetization    =    34.42 Bohr mag/cell

     convergence has been achieved in  19 iterations

     Forces acting on atoms (Ry/au):

     negative rho (up, down):  0.568E-02 0.159E-02
     atom    1 type  1   force =    -0.00215899   -0.00935297   -0.00005440
     atom    2 type  1   force =    -0.00002064    0.00314052    0.00041729
     atom    3 type  2   force =     0.01331925    0.00316296    0.00031884
     atom    4 type  2   force =     0.00302228    0.00444786   -0.00009387
     atom    5 type  1   force =     0.00164456    0.00820399    0.00032829
     atom    6 type  1   force =     0.00009170   -0.00743570    0.00041989
     atom    7 type  1   force =     0.00004473   -0.00317037    0.00009847
     atom    8 type  1   force =    -0.00088633    0.00071164   -0.00017079
     atom    9 type  2   force =    -0.00172073    0.00144745   -0.00041960
     atom   10 type  2   force =     0.00001156   -0.00425422   -0.00001941
     atom   11 type  1   force =    -0.02096389   -0.02957455   -0.00056638
     atom   12 type  1   force =    -0.01936730    0.03486509   -0.00003564
     atom   13 type  1   force =    -0.00036499   -0.00073636    0.00004792
     atom   14 type  1   force =    -0.00255650   -0.00964399   -0.00012424
     atom   15 type  1   force =    -0.00000889    0.00363709    0.00026334
     atom   16 type  2   force =    -0.01387466    0.00337831    0.00035203
     atom   17 type  2   force =     0.00308203    0.00453752    0.00002921
     atom   18 type  1   force =     0.00051743    0.00813023    0.00031432
     atom   19 type  1   force =    -0.00111074   -0.00738860    0.00036706
     atom   20 type  1   force =    -0.00011017   -0.00486697   -0.00009489
     atom   21 type  1   force =    -0.00115081    0.00049458   -0.00007257
     atom   22 type  2   force =     0.00260435    0.00112138    0.00023625
     atom   23 type  2   force =    -0.00009626   -0.00289185   -0.00030834
     atom   24 type  1   force =     0.02060403   -0.02941525   -0.00039614
     atom   25 type  1   force =     0.01966979    0.03481217    0.00015430
     atom   26 type  1   force =    -0.00002913   -0.00559083   -0.00005928
     atom   27 type  3   force =     0.00003035    0.00000834    0.00026543
     atom   28 type  3   force =     0.00002685   -0.00011041    0.00032933
     atom   29 type  3   force =    -0.00021077    0.00012793   -0.00037817
     atom   30 type  3   force =    -0.00007014    0.00017023   -0.00032951
     atom   31 type  1   force =     0.00000760    0.00028674   -0.00038645
     atom   32 type  1   force =     0.00004937    0.00077413   -0.00009413
     atom   33 type  3   force =    -0.00002500    0.00097391   -0.00033814

     Total force =     0.002085     Total SCF correction =     0.000282
     SCF correction compared to forces is large: reduce conv_thr to get better values

     bfgs converged in   3 scf cycles and   2 bfgs steps
     (criteria: energy < 0.10E-03, force < 0.10E-02)

     End of BFGS Geometry Optimization

     Final energy   =   -2055.4805323644 Ry
Begin final coordinates

ATOMIC_POSITIONS (crystal)
O0       0.000000000   0.000000000   0.372261414    0   0   1
O0       0.000000000   0.500000000   0.392641070    0   0   1
Cr1      0.250000000   0.500000000   0.445860616    0   0   1
Cr1      0.000000000   0.000000000   0.449045579    0   0   1
O0       0.250000000   0.800000000   0.447225656    0   0   1
O0       0.250000000   0.200000000   0.447251764    0   0   1
O0       0.000000000   0.500000000   0.496380692    0   0   1
O0       0.000000000   0.000000000   0.526104934    0   0   1
Cr1      0.250000000   0.000000000   0.578140534    0   0   1
Cr1      0.000000000   0.500000000   0.568318780    0   0   1
O0       0.250000000   0.700000000   0.578558097    0   0   1
O0       0.250000000   0.300000000   0.579428154    0   0   1
O0       0.000000000   0.000000000   0.628182563    0   0   1
O0       0.500000000   0.000000000   0.371790481    0   0   1
O0       0.500000000   0.500000000   0.392783660    0   0   1
Cr1      0.750000000   0.500000000   0.445853834    0   0   1
Cr1      0.500000000   0.000000000   0.448437821    0   0   1
O0       0.750000000   0.800000000   0.447264980    0   0   1
O0       0.750000000   0.200000000   0.447258264    0   0   1
O0       0.500000000   0.500000000   0.499005523    0   0   1
O0       0.500000000   0.000000000   0.525855752    0   0   1
Cr1      0.750000000   0.000000000   0.578079019    0   0   1
Cr1      0.500000000   0.500000000   0.576951848    0   0   1
O0       0.750000000   0.700000000   0.578487941    0   0   1
O0       0.750000000   0.300000000   0.579379533    0   0   1
O0       0.500000000   0.000000000   0.627811624    0   0   1
H2      -0.000781825   0.637328547   0.373459530
H2       0.499215801   0.637461765   0.373633833
H2       0.159709176   0.027374686   0.360186362
H2       0.659780233   0.027258179   0.359793071
O0       0.499860000   0.553339977   0.657517021    0   1   1
O0       0.500220000   0.367852708   0.686224772    0   1   1
H2       0.499890000   0.424900468   0.721625278    0   1   1
End final coordinates

     General routines

     Parallel routines
     Hubbard U routines

   This run was terminated on:  19: 9:25  13Aug2014

   JOB DONE.
mv: inter-device move failed: `/scratch/1087943.gilgamesh.cheme.cmu.edu/pwscf.save' to `./pwscf.save'; unable to remove target: Is a directory