     Program PWSCF v.5.0.2 (svn rev. 9656) starts on 13May2014 at  1:26:42

     Current dimensions of program PWSCF are:
     Max number of different atomic species (ntypx) = 10
     Max number of k-points (npk) =  40000
     Max angular momentum in pseudopotentials (lmaxx) =  3
     Reading input from pwscf.in
Warning: card &CELL ignored
Warning: card / ignored

     Subspace diagonalization in iterative solution of the eigenvalue problem:
     a serial algorithm will be used

     bravais-lattice index     =            0
     lattice parameter (alat)  =      10.9604  a.u.
     unit-cell volume          =    6350.6732 (a.u.)^3
     number of atoms/cell      =           32
     number of atomic types    =            3
     number of electrons       =       231.00 (up: 123.00, down: 108.00)
     number of Kohn-Sham states=          334
     kinetic-energy cutoff     =      40.0000  Ry
     charge density cutoff     =     500.0000  Ry
     convergence threshold     =      1.0E-06
     mixing beta               =       0.7000
     number of iterations used =            8  plain     mixing
     Exchange-correlation      = SLA  PW   PBE  PBE ( 1 4 3 4 0)
     EXX-fraction              =        0.00
     nstep                     =           50

     celldm(1)=  10.960412  celldm(2)=   0.000000  celldm(3)=   0.000000
     celldm(4)=   0.000000  celldm(5)=   0.000000  celldm(6)=   0.000000

     crystal axes: (cart. coord. in units of alat)
               a(1) = (   1.000000   0.000000   0.000000 )
               a(2) = (   0.000000   1.067975   0.000000 )
               a(3) = (   0.000000   0.000000   4.516251 )

     reciprocal axes: (cart. coord. in units 2 pi/alat)
               b(1) = (  1.000000  0.000000  0.000000 )
               b(2) = (  0.000000  0.936351  0.000000 )
               b(3) = (  0.000000  0.000000  0.221423 )

     PseudoPot. # 1 for O  read from file:
     /home/camp/zhonxu/pseudo/o_pbe_v1.01.uspp.F.UPF
     MD5 check sum: 2bcb18d16ea4b960afae9ec6d52f22d2
     Pseudo is Ultrasoft + core correction, Zval =  6.0
     Generated by new atomic code, or converted to UPF format
     Using radial grid of  737 points,  5 beta functions with:
                l(1) =   0
                l(2) =   0
                l(3) =   1
                l(4) =   1
                l(5) =   2
     Q(r) pseudized with  8 coefficients,  rinner =    0.900   0.900   0.900
                                                       0.900   0.900

     PseudoPot. # 2 for Cr read from file:
     /home/camp/zhonxu/pseudo/cr_pbe_v1.uspp.F.UPF
     MD5 check sum: 68b6f918d1762dccfb11451fe85b0e0e
     Pseudo is Ultrasoft + core correction, Zval = 14.0
     Generated by new atomic code, or converted to UPF format
     Using radial grid of  857 points,  6 beta functions with:
                l(1) =   0
                l(2) =   0
                l(3) =   1
                l(4) =   1
                l(5) =   2
                l(6) =   2
     Q(r) pseudized with  6 coefficients,  rinner =    1.000   1.000   1.000
                                                       1.000   1.000

     PseudoPot. # 3 for H  read from file:
     /home/camp/zhonxu/pseudo/h_pbe_v1.uspp.F.UPF
     MD5 check sum: 3408e3ff4ec8b0a4e358431e7e038a48
     Pseudo is Ultrasoft, Zval =  1.0
     Generated by new atomic code, or converted to UPF format
     Using radial grid of  615 points,  2 beta functions with:
                l(1) =   0
                l(2) =   0
     Q(r) pseudized with  8 coefficients,  rinner =    0.700

     atomic species   valence    mass     pseudopotential
        O0             6.00    15.99940     O ( 1.00)
        Cr1           14.00    51.99600     Cr( 1.00)
        H2             1.00     1.00794     H ( 1.00)

     Starting magnetic structure
     atomic species   magnetization
        O0           0.000
        Cr1          0.600
        H2           0.000

     Simplified LDA+U calculation (l_max = 2) with parameters (eV):
     atomic species    L          U    alpha       J0     beta
        Cr1            2     0.0000   0.0000   0.0000   0.0000

     No symmetry found

   Cartesian axes

     site n.     atom                  positions (alat units)
         1           O0  tau(   1) = (   0.0000000   0.0000000   1.7072332  )
         2           O0  tau(   2) = (   0.0000000   0.5339875   1.8068165  )
         3           Cr1 tau(   3) = (   0.2500000   0.5339875   2.0386808  )
         4           Cr1 tau(   4) = (   0.0000000   0.0000000   2.0275709  )
         5           O0  tau(   5) = (   0.2500000   0.8543801   2.0319968  )
         6           O0  tau(   6) = (   0.2500000   0.2135950   2.0327194  )
         7           O0  tau(   7) = (   0.0000000   0.5339875   2.2464284  )
         8           O0  tau(   8) = (   0.0000000   0.0000000   2.3629476  )
         9           Cr1 tau(   9) = (   0.2500000   0.0000000   2.5576884  )
        10           Cr1 tau(  10) = (   0.0000000   0.5339875   2.5509140  )
        11           O0  tau(  11) = (   0.2500000   0.7475825   2.5906119  )
        12           O0  tau(  12) = (   0.2500000   0.3203925   2.5906119  )
        13           O0  tau(  13) = (   0.0000000   0.0000000   2.7911334  )
        14           O0  tau(  14) = (   0.5000000   0.0000000   1.7073235  )
        15           O0  tau(  15) = (   0.5000000   0.5339875   1.8079456  )
        16           Cr1 tau(  16) = (   0.7500000   0.5339875   2.0392228  )
        17           Cr1 tau(  17) = (   0.5000000   0.0000000   2.0278870  )
        18           O0  tau(  18) = (   0.7500000   0.8543801   2.0322226  )
        19           O0  tau(  19) = (   0.7500000   0.2135950   2.0329904  )
        20           O0  tau(  20) = (   0.5000000   0.5339875   2.2544673  )
        21           O0  tau(  21) = (   0.5000000   0.0000000   2.3630380  )
        22           Cr1 tau(  22) = (   0.7500000   0.0000000   2.6360002  )
        23           Cr1 tau(  23) = (   0.5000000   0.5339875   2.6018573  )
        24           O0  tau(  24) = (   0.7500000   0.7475825   2.5939087  )
        25           O0  tau(  25) = (   0.7500000   0.3203925   2.5936377  )
        26           O0  tau(  26) = (   0.5000000   0.0000000   2.7879720  )
        27           H2  tau(  27) = (  -0.0006000   0.6814001   1.7205110  )
        28           H2  tau(  28) = (   0.4996600   0.6814535   1.7215045  )
        29           H2  tau(  29) = (   0.1566500   0.0338121   1.6478896  )
        30           H2  tau(  30) = (   0.6567200   0.0335237   1.6481606  )
        31           O0  tau(  31) = (   0.5143900   0.5336458   2.9144271  )
        32           H2  tau(  32) = (   0.3645400   0.5319370   2.9931001  )

     number of k points=    20  Methfessel-Paxton smearing, width (Ry)=  0.0100
                       cart. coord. in units 2pi/alat
        k(    1) = (   0.0000000   0.0000000   0.0000000), wk =   0.0625000
        k(    2) = (   0.0000000   0.2340879   0.0000000), wk =   0.1250000
        k(    3) = (   0.0000000  -0.4681757   0.0000000), wk =   0.0625000
        k(    4) = (   0.2500000   0.0000000   0.0000000), wk =   0.1250000
        k(    5) = (   0.2500000   0.2340879   0.0000000), wk =   0.1250000
        k(    6) = (   0.2500000  -0.4681757   0.0000000), wk =   0.1250000
        k(    7) = (  -0.5000000   0.0000000   0.0000000), wk =   0.0625000
        k(    8) = (  -0.5000000   0.2340879   0.0000000), wk =   0.1250000
        k(    9) = (  -0.5000000  -0.4681757   0.0000000), wk =   0.0625000
        k(   10) = (  -0.2500000   0.2340879   0.0000000), wk =   0.1250000
        k(   11) = (   0.0000000   0.0000000   0.0000000), wk =   0.0625000
        k(   12) = (   0.0000000   0.2340879   0.0000000), wk =   0.1250000
        k(   13) = (   0.0000000  -0.4681757   0.0000000), wk =   0.0625000
        k(   14) = (   0.2500000   0.0000000   0.0000000), wk =   0.1250000
        k(   15) = (   0.2500000   0.2340879   0.0000000), wk =   0.1250000
        k(   16) = (   0.2500000  -0.4681757   0.0000000), wk =   0.1250000
        k(   17) = (  -0.5000000   0.0000000   0.0000000), wk =   0.0625000
        k(   18) = (  -0.5000000   0.2340879   0.0000000), wk =   0.1250000
        k(   19) = (  -0.5000000  -0.4681757   0.0000000), wk =   0.0625000
        k(   20) = (  -0.2500000   0.2340879   0.0000000), wk =   0.1250000

     Largest allocated arrays     est. size (Mb)     dimensions
     Largest temporary arrays     est. size (Mb)     dimensions

     Check: negative/imaginary core charge=   -0.000012    0.000000

     Initial potential from superposition of free atoms
     Check: negative starting charge=(component1):   -0.001476
     Check: negative starting charge=(component2):   -0.000504

     starting charge  222.99983, renormalised to  231.00000

     negative rho (up, down):  0.153E-02 0.522E-03
     Number of +U iterations with fixed ns =  0
     Starting occupations:
 --- enter write_ns ---
 LDA+U parameters:
U( 2)     =  0.00000000
alpha( 2) =  0.00000000
atom    3   Tr[ns(na)] (up, down, total) =   5.00000  0.00000  5.00000
   spin  1
    eigenvalues:
  1.000  1.000  1.000  1.000  1.000
    eigenvectors:
  1.000  0.000  0.000  0.000  0.000
  0.000  1.000  0.000  0.000  0.000
  0.000  0.000  1.000  0.000  0.000
  0.000  0.000  0.000  1.000  0.000
  0.000  0.000  0.000  0.000  1.000
    occupations:
  1.000  0.000  0.000  0.000  0.000
  0.000  1.000  0.000  0.000  0.000
  0.000  0.000  1.000  0.000  0.000
  0.000  0.000  0.000  1.000  0.000
  0.000  0.000  0.000  0.000  1.000
   spin  2
    eigenvalues:
  0.000  0.000  0.000  0.000  0.000
    eigenvectors:
  1.000  0.000  0.000  0.000  0.000
  0.000  1.000  0.000  0.000  0.000
  0.000  0.000  1.000  0.000  0.000
  0.000  0.000  0.000  1.000  0.000
  0.000  0.000  0.000  0.000  1.000
    occupations:
  0.000  0.000  0.000  0.000  0.000
  0.000  0.000  0.000  0.000  0.000
  0.000  0.000  0.000  0.000  0.000
  0.000  0.000  0.000  0.000  0.000
  0.000  0.000  0.000  0.000  0.000
atomic mag. moment =     5.000000
atom    4   Tr[ns(na)] (up, down, total) =   5.00000  0.00000  5.00000
   spin  1
    eigenvalues:
  1.000  1.000  1.000  1.000  1.000
    eigenvectors:
  1.000  0.000  0.000  0.000  0.000
  0.000  1.000  0.000  0.000  0.000
  0.000  0.000  1.000  0.000  0.000
  0.000  0.000  0.000  1.000  0.000
  0.000  0.000  0.000  0.000  1.000
    occupations:
  1.000  0.000  0.000  0.000  0.000
  0.000  1.000  0.000  0.000  0.000
  0.000  0.000  1.000  0.000  0.000
  0.000  0.000  0.000  1.000  0.000
  0.000  0.000  0.000  0.000  1.000
   spin  2
    eigenvalues:
  0.000  0.000  0.000  0.000  0.000
    eigenvectors:
  1.000  0.000  0.000  0.000  0.000
  0.000  1.000  0.000  0.000  0.000
  0.000  0.000  1.000  0.000  0.000
  0.000  0.000  0.000  1.000  0.000
  0.000  0.000  0.000  0.000  1.000
    occupations:
  0.000  0.000  0.000  0.000  0.000
  0.000  0.000  0.000  0.000  0.000
  0.000  0.000  0.000  0.000  0.000
  0.000  0.000  0.000  0.000  0.000
  0.000  0.000  0.000  0.000  0.000
atomic mag. moment =     5.000000
atom    9   Tr[ns(na)] (up, down, total) =   5.00000  0.00000  5.00000
   spin  1
    eigenvalues:
  1.000  1.000  1.000  1.000  1.000
[...]
  0.003  0.227  0.002  0.000  0.768
  0.990  0.010  0.000  0.000  0.000
  0.000  0.000  0.997  0.000  0.003
  0.007  0.763  0.001  0.000  0.229
  0.000  0.000  0.000  0.999  0.000
    occupations:
  0.859  0.006  0.014 -0.193  0.001
  0.006  0.463 -0.000  0.001 -0.006
  0.014 -0.000  0.679 -0.006 -0.003
 -0.193  0.001 -0.006  0.611 -0.001
  0.001 -0.006 -0.003 -0.001  0.836
   spin  2
    eigenvalues:
  0.132  0.164  0.200  0.373  0.392
    eigenvectors:
  0.766  0.000  0.013  0.013  0.208
  0.000  0.003  0.000  0.942  0.055
  0.014  0.013  0.973  0.000  0.001
  0.221  0.000  0.001  0.042  0.736
  0.000  0.984  0.013  0.003  0.000
    occupations:
  0.191  0.001 -0.005  0.107 -0.001
  0.001  0.373 -0.001  0.004  0.011
 -0.005 -0.001  0.199  0.008  0.004
  0.107  0.004  0.008  0.334  0.000
 -0.001  0.011  0.004  0.000  0.165
atomic mag. moment =     2.186127
atom   17   Tr[ns(na)] (up, down, total) =   3.36596  1.34477  4.71073
   spin  1
    eigenvalues:
  0.478  0.521  0.598  0.799  0.970
    eigenvectors:
  0.001  0.995  0.000  0.001  0.003
  0.000  0.001  0.015  0.984  0.000
  0.000  0.000  0.985  0.014  0.000
  0.000  0.003  0.000  0.000  0.997
  0.999  0.001  0.000  0.000  0.000
    occupations:
  0.522 -0.009 -0.002  0.024  0.001
 -0.009  0.796  0.024  0.000 -0.000
 -0.002  0.024  0.601  0.001  0.002
  0.024  0.000  0.001  0.969 -0.000
  0.001 -0.000  0.002 -0.000  0.478
   spin  2
    eigenvalues:
  0.134  0.178  0.234  0.386  0.412
    eigenvectors:
  0.002  0.006  0.000  0.000  0.991
  0.001  0.954  0.039  0.000  0.006
  0.000  0.038  0.961  0.000  0.000
  0.996  0.002  0.000  0.000  0.002
  0.000  0.000  0.000  1.000  0.000
    occupations:
  0.410  0.018  0.004 -0.013  0.001
  0.018  0.182 -0.011  0.001 -0.000
  0.004 -0.011  0.232  0.001 -0.000
 -0.013  0.001  0.001  0.135  0.000
  0.001 -0.000 -0.000  0.000  0.386
atomic mag. moment =     2.021185
atom   22   Tr[ns(na)] (up, down, total) =   2.87237  1.99282  4.86519
   spin  1
    eigenvalues:
  0.512  0.526  0.544  0.608  0.683
    eigenvectors:
  0.869  0.000  0.131  0.000  0.000
  0.001  0.996  0.003  0.000  0.000
  0.000  0.000  0.000  0.051  0.949
  0.130  0.004  0.866  0.000  0.000
  0.000  0.000  0.000  0.949  0.051
    occupations:
  0.516  0.001 -0.001  0.011  0.001
  0.001  0.526  0.001  0.001 -0.000
 -0.001  0.001  0.679  0.000 -0.016
  0.011  0.001  0.000  0.540 -0.001
  0.001 -0.000 -0.016 -0.001  0.612
   spin  2
    eigenvalues:
  0.307  0.362  0.368  0.475  0.481
    eigenvectors:
  0.000  0.000  1.000  0.000  0.000
  0.000  0.000  0.000  0.015  0.985
  1.000  0.000  0.000  0.000  0.000
  0.000  0.000  0.000  0.985  0.015
  0.000  1.000  0.000  0.000  0.000
    occupations:
  0.368 -0.001  0.000 -0.000 -0.000
 -0.001  0.481 -0.000 -0.001 -0.000
  0.000 -0.000  0.307 -0.000 -0.001
 -0.000 -0.001 -0.000  0.475  0.000
 -0.000 -0.000 -0.001  0.000  0.362
atomic mag. moment =     0.879551
atom   23   Tr[ns(na)] (up, down, total) =   3.36949  1.33738  4.70688
   spin  1
    eigenvalues:
  0.470  0.512  0.580  0.856  0.952
    eigenvectors:
  0.000  0.996  0.000  0.000  0.003
  0.000  0.000  0.000  0.945  0.054
  0.005  0.000  0.995  0.000  0.000
  0.000  0.003  0.000  0.054  0.942
  0.995  0.000  0.005  0.000  0.000
    occupations:
  0.514  0.005 -0.001  0.025  0.000
  0.005  0.861  0.002  0.022 -0.000
 -0.001  0.002  0.579 -0.002 -0.008
  0.025  0.022 -0.002  0.945 -0.000
  0.000 -0.000 -0.008 -0.000  0.470
   spin  2
    eigenvalues:
  0.130  0.169  0.241  0.388  0.409
    eigenvectors:
  0.001  0.004  0.000  0.000  0.995
  0.007  0.990  0.000  0.000  0.004
  0.000  0.000  0.999  0.001  0.000
  0.992  0.006  0.000  0.000  0.002
  0.000  0.000  0.001  0.999  0.000
    occupations:
  0.408  0.014  0.000 -0.011  0.000
  0.014  0.170 -0.001 -0.004 -0.000
  0.000 -0.001  0.241  0.000 -0.003
 -0.011 -0.004  0.000  0.131 -0.000
  0.000 -0.000 -0.003 -0.000  0.388
atomic mag. moment =     2.032112
N of occupied +U levels =  37.8668577
 --- exit write_ns ---

 ------ SPIN UP ------------

          k = 0.0000 0.0000 0.0000 ( 27003 PWs)   bands (ev):

   -75.4153 -75.1031 -74.9936 -74.9631 -74.9266 -74.9201 -74.9099 -74.9058
   -46.8172 -46.6940 -46.6839 -46.5926 -46.4147 -46.3898 -46.3394 -46.3156
   -46.3049 -46.3041 -46.3012 -46.2944 -46.2918 -46.2395 -46.2365 -46.2326
   -46.2155 -46.2103 -46.2016 -46.1969 -46.1906 -46.1892 -46.1307 -46.1039
   -21.3891 -20.9347 -20.6177 -20.4942 -20.4261 -20.0814 -19.9185 -19.8754
   -19.7884 -19.7575 -19.6320 -19.6117 -19.4950 -19.4585 -19.3399 -19.2972
   -19.2562 -19.1184 -19.0467  -9.2250  -8.9764  -8.8601  -8.7043  -8.5853
    -8.2171  -7.9650  -7.8941  -7.8329  -7.7797  -7.7335  -7.7271  -7.5986
    -7.4980  -7.2185  -7.0411  -7.0083  -6.9514  -6.9471  -6.8940  -6.8462
    -6.6010  -6.5157  -6.5066  -6.2243  -6.1747  -5.9126  -5.7702  -5.6930
    -5.4785  -5.3834  -5.3033  -5.2716  -5.1803  -4.9693  -4.9519  -4.8651
    -4.7738  -4.7581  -4.6300  -4.5418  -4.3915  -4.2984  -4.2505  -4.1245
    -4.0174  -3.9989  -3.9235  -3.9011  -3.7535  -3.6699  -3.6458  -3.6036
    -3.3871  -3.3207  -2.9625  -2.9394  -2.8999  -2.5771  -2.5439  -2.4823
    -2.3367  -2.1946  -2.1604  -2.1033  -2.0387  -2.0334  -1.9733  -1.8410
    -1.6984  -1.4896  -1.4529  -1.3851  -1.3376  -1.1023  -0.9961  -0.9564
    -0.9092  -0.6794  -0.5462  -0.3716  -0.2939   0.5369   0.6259   0.9789
     1.2809   1.2968   1.4882   1.5143   1.6100   1.7499   1.9535   2.0589
     2.1042   2.2305   2.3099   2.7376   3.2230   3.2917   3.7730   4.2542
     4.7859   5.5464   6.1196   6.3616   6.7464   6.8562   7.1311   7.2405
     7.2638   7.2892   7.5107   7.6154   7.6961   7.8622   8.0438   8.1249
     8.1775   8.2201   8.3179   8.4781   8.5597   8.6180   8.7469   8.8586
     8.9393   9.2229   9.2775   9.3431   9.4425   9.4872   9.5842   9.7087
     9.8760   9.9409  10.0497  10.0833  10.1690  10.3206  10.4990  10.5557
    10.6385  10.6869  10.9803  11.0801  11.2558  11.2969  11.3543  11.4183
    11.4479  11.4565  11.5204  11.7704  11.7850  11.8262  12.0344  12.0838
    12.1048  12.1349  12.1701  12.2693  12.3542  12.3759  12.4359  12.5183
    12.5639  12.6585  12.6995  12.7657  12.7767  12.9728  13.0049  13.0742
    13.0962  13.1158  13.1962  13.2298  13.3060  13.3233  13.4538  13.5531
    13.6755  13.7537  13.7821  13.8855  13.9559  13.9722  14.1601  14.2528
    14.2931  14.3325  14.4707  14.5411  14.5641  14.6822  14.7569  14.8744
    14.9338  15.0258  15.0550  15.1556  15.2307  15.2958  15.3445  15.5186
    15.5577  15.6066  15.7859  15.8654  16.1278  16.2023  16.2717  16.4019
    16.4084  16.4442  16.6156  16.8206  16.8857  16.9436  17.0033  17.0682
    17.1049  17.1809  17.3732  17.4672  17.5899  17.6990  17.7957  17.8439
    17.9117  17.9971  18.0495  18.1726  18.2882  18.3233  18.5118  18.5693
    18.6950  18.7450  18.8005  18.8345  18.9728  19.0581  19.1454  19.2259
    19.2686  19.3146  19.4333  19.4540  19.4743  19.6394  19.7082  19.7465
    19.8296  19.8988  19.9828  20.0355  20.0735  20.2071  20.2819  20.3304
    20.3967  20.4395  20.4906  20.6273  20.6973  20.7467  20.8969  20.9868
    21.0331  21.0593  21.1665  21.1832  21.2446  21.3297  21.3820  21.4783
    21.4991  21.5276  21.5659  21.6006  21.7263  21.7782

[...]

          k =-0.5000 0.0000 0.0000 ( 27158 PWs)   bands (ev):

[...]

 ------ SPIN DOWN ----------

[...]

          k = 0.2500-0.4682 0.0000 ( 27150 PWs)   bands (ev):

[...]

          k =-0.2500 0.2341 0.0000 ( 27132 PWs)   bands (ev):

   -74.3960 -72.7706 -72.7288 -72.6680 -72.6556 -72.5689 -72.4983 -72.4815
   -46.0429 -45.6809 -45.4841 -44.4741 -44.2904 -44.2791 -44.2662 -44.2446
   -44.1648 -44.1175 -44.0985 -44.0031 -43.9990 -43.9875 -43.9369 -43.8562
   -43.8539 -43.8463 -43.8424 -43.8165 -43.7157 -43.7108 -43.7065 -43.5743
   -21.2067 -20.7529 -20.6467 -20.5508 -20.4144 -20.1694 -20.0298 -19.9442
   -19.8872 -19.8428 -19.7259 -19.6707 -19.5265 -19.5091 -19.4944 -19.3941
   -19.3342 -19.2658 -19.1538  -8.8053  -8.5343  -8.1826  -8.1508  -7.9976
    -7.9557  -7.7073  -7.6097  -7.5893  -7.4866  -7.3779  -7.3324  -7.2038
    -7.1131  -6.9742  -6.8993  -6.8176  -6.7263  -6.6505  -6.4504  -6.4061
    -6.2992  -6.2428  -6.0649  -5.9307  -5.7930  -5.7124  -5.5919  -5.4515
    -5.3819  -5.3329  -5.2975  -5.2540  -5.1773  -5.0315  -4.9897  -4.9482
    -4.8286  -4.7602  -4.5442  -4.4232  -4.3728  -4.2244  -4.1600  -4.0897
    -4.0012  -3.9624  -3.8994  -3.7940  -3.6725  -3.5463  -3.5089  -3.4657
    -3.1979  -3.1662  -3.0391  -2.7924  -0.8501  -0.6108  -0.5704  -0.2833
    -0.2512  -0.1305  -0.0578   0.0040   0.0317   0.1128   0.2082   0.2441
     0.3321   0.3977   0.4955   0.5428   0.5804   0.6310   0.6707   0.7554
     0.8092   0.8869   1.0411   1.0862   1.3328   1.3984   1.7456   1.9693
     2.0629   2.3789   2.5402   2.5919   2.6936   2.8139   2.9087   2.9832
     3.0684   3.2715   3.5305   3.6271   3.8827   3.9254   4.3399   4.7992
     5.3265   5.7024   5.8563   5.8961   6.1724   6.2793   6.4298   6.5799
     6.7609   6.9036   7.0300   7.3196   7.4555   7.6742   7.8845   8.0140
     8.1338   8.3264   8.3964   8.5227   8.6728   8.8088   8.9984   9.1484
     9.2714   9.3305   9.4806   9.5716   9.6662   9.8224   9.8682  10.0296
    10.1385  10.2463  10.3389  10.4586  10.5358  10.6163  10.7211  10.8364
    10.9374  11.0212  11.1365  11.2409  11.2784  11.4316  11.4904  11.6020
    11.6736  11.7562  11.9012  11.9940  12.0905  12.1507  12.1799  12.2762
    12.3538  12.4244  12.5879  12.6784  12.7267  12.8378  12.9172  12.9788
    13.0171  13.0906  13.1687  13.1973  13.2270  13.3261  13.3619  13.4570
    13.5388  13.6421  13.7303  13.8028  13.8880  13.9061  14.0267  14.0795
    14.1309  14.2334  14.3745  14.4936  14.5568  14.6093  14.6706  14.7820
    14.8529  14.8843  15.0012  15.0816  15.1059  15.2733  15.3740  15.4290
    15.5341  15.5977  15.6385  15.7264  15.7532  15.8026  15.8932  15.9992
    16.0102  16.1265  16.2279  16.2720  16.3156  16.4253  16.4920  16.5197
    16.6229  16.7218  16.7637  16.8425  16.8850  16.9644  17.0197  17.1313
    17.2214  17.2443  17.3134  17.4261  17.4571  17.5252  17.5690  17.6193
    17.7213  17.7499  17.7699  17.8561  17.9474  18.0543  18.1108  18.1707
    18.2401  18.3041  18.3584  18.4004  18.4442  18.6209  18.7293  18.7848
    18.8299  18.9026  18.9390  19.0133  19.0955  19.1355  19.2487  19.2980
    19.4018  19.4433  19.5156  19.5882  19.6361  19.6649  19.7426  19.8424
    19.8747  20.0021  20.1060  20.1836  20.2427  20.3377  20.3848  20.5131
    20.5902  20.7084  20.7807  20.8279  20.9039  20.9538  21.0426  21.1302
    21.1969  21.2336  21.3361  21.3949  21.4163  21.5224

     the spin up/dw Fermi energies are    -1.3899   -2.6048 ev

!    total energy              =   -2027.10186005 Ry
     Harris-Foulkes estimate   =   -2027.10186089 Ry
     estimated scf accuracy    <       0.00000095 Ry

     The total energy is the sum of the following terms:

     one-electron contribution =  -24254.10344631 Ry
     hartree contribution      =   12146.53090335 Ry
     xc contribution           =    -322.59233080 Ry
     ewald contribution        =   10403.06261357 Ry
     Hubbard energy            =       0.00000000 Ry
     smearing contrib. (-TS)   =       0.00040014 Ry

     total magnetization       =    15.00 Bohr mag/cell
     absolute magnetization    =    17.45 Bohr mag/cell

     convergence has been achieved in  59 iterations

     Forces acting on atoms (Ry/au):

     negative rho (up, down):  0.465E-02 0.169E-02
     atom    1 type  1   force =    -0.00270175   -0.01237372   -0.00004594
     atom    2 type  1   force =    -0.00032244    0.00789831   -0.00029106
     atom    3 type  2   force =     0.04189422   -0.00445424    0.00002161
     atom    4 type  2   force =    -0.00492013    0.00796906   -0.00013734
     atom    5 type  1   force =     0.00122105    0.00916515   -0.00003812
     atom    6 type  1   force =    -0.00192824   -0.00660324   -0.00007327
     atom    7 type  1   force =     0.00217242   -0.00142087    0.00070268
     atom    8 type  1   force =    -0.00316910   -0.00111617   -0.00004236
     atom    9 type  2   force =     0.00305287    0.00075984   -0.00003090
     atom   10 type  2   force =    -0.00333232    0.00001073    0.00053102
     atom   11 type  1   force =    -0.02386283   -0.03227742    0.00031219
     atom   12 type  1   force =    -0.02390855    0.03176213    0.00034544
     atom   13 type  1   force =    -0.04611153    0.00005632   -0.00060747
     atom   14 type  1   force =    -0.00426675   -0.01251904   -0.00027029
     atom   15 type  1   force =     0.00058624    0.00796104   -0.00002496
     atom   16 type  2   force =    -0.04402815   -0.00367807    0.00003996
     atom   17 type  2   force =     0.00545447    0.00795318   -0.00006053
     atom   18 type  1   force =     0.00474858    0.00917449   -0.00005202
     atom   19 type  1   force =     0.00159625   -0.00719067   -0.00005050
     atom   20 type  1   force =     0.00049675   -0.00158460   -0.00019903
     atom   21 type  1   force =     0.00162134   -0.00006990    0.00019061
     atom   22 type  2   force =     0.00233226    0.00013506    0.00001519
     atom   23 type  2   force =    -0.00540840    0.00053181    0.00094010
     atom   24 type  1   force =     0.02615785   -0.01895088   -0.00050290
     atom   25 type  1   force =     0.02646719    0.01885201   -0.00053550
     atom   26 type  1   force =     0.04672779   -0.00008967   -0.00056008
     atom   27 type  3   force =     0.00000836    0.00029750    0.00002397
     atom   28 type  3   force =    -0.00001293    0.00002910    0.00012226
     atom   29 type  3   force =     0.00009196   -0.00009166   -0.00045839
     atom   30 type  3   force =     0.00005048   -0.00004212   -0.00044781
     atom   31 type  1   force =     0.00024183   -0.00000752    0.00057688
     atom   32 type  3   force =    -0.00094880   -0.00008596    0.00060661

     Total force =     0.002362     Total SCF correction =     0.002807
     SCF correction compared to forces is large: reduce conv_thr to get better values

     BFGS Geometry Optimization

     bfgs converged in   1 scf cycles and   0 bfgs steps
     (criteria: energy < 0.10E-03, force < 0.10E-02)

     End of BFGS Geometry Optimization

     Final energy   =   -2027.1018600529 Ry
Begin final coordinates

ATOMIC_POSITIONS (crystal)
O0       0.000000000   0.000000000   0.378020000    0   0   1
O0       0.000000000   0.500000000   0.400070000    0   0   1
Cr1      0.250000000   0.500000000   0.451410000    0   0   1
Cr1      0.000000000   0.000000000   0.448950000    0   0   1
O0       0.250000000   0.800000000   0.449930000    0   0   1
O0       0.250000000   0.200000000   0.450090000    0   0   1
O0       0.000000000   0.500000000   0.497410000    0   0   1
O0       0.000000000   0.000000000   0.523210000    0   0   1
Cr1      0.250000000   0.000000000   0.566330000    0   0   1
Cr1      0.000000000   0.500000000   0.564830000    0   0   1
O0       0.250000000   0.700000000   0.573620000    0   0   1
O0       0.250000000   0.300000000   0.573620000    0   0   1
O0       0.000000000   0.000000000   0.618020000    0   0   1
O0       0.500000000   0.000000000   0.378040000    0   0   1
O0       0.500000000   0.500000000   0.400320000    0   0   1
Cr1      0.750000000   0.500000000   0.451530000    0   0   1
Cr1      0.500000000   0.000000000   0.449020000    0   0   1
O0       0.750000000   0.800000000   0.449980000    0   0   1
O0       0.750000000   0.200000000   0.450150000    0   0   1
O0       0.500000000   0.500000000   0.499190000    0   0   1
O0       0.500000000   0.000000000   0.523230000    0   0   1
Cr1      0.750000000   0.000000000   0.583670000    0   0   1
Cr1      0.500000000   0.500000000   0.576110000    0   0   1
O0       0.750000000   0.700000000   0.574350000    0   0   1
O0       0.750000000   0.300000000   0.574290000    0   0   1
O0       0.500000000   0.000000000   0.617320000    0   0   1
H2      -0.000600000   0.638030000   0.380960000
H2       0.499660000   0.638080000   0.381180000
H2       0.156650000   0.031660000   0.364880000
H2       0.656720000   0.031390000   0.364940000
O0       0.514390000   0.499680000   0.645320000
H2       0.364540000   0.498080000   0.662740000
End final coordinates

     General routines

     Parallel routines
     Hubbard U routines

   This run was terminated on:   6: 6:28  13May2014

   JOB DONE.
Running PBS batch system epilogue script
Job id: 351134.audhumbla.fysik.dtu.dk
Username: zhonxu
Groupname: campgst
Jobname: CrO2/Eads-2-layers/OH-U-0.0
Sessionid: 3144
Queuename: verylong
Accounting:
This job has allocated the following 16 nodes:
b040 b040 b040 b040 b040 b040 b040 b040 b025 b025 b025 b025 b025 b025 b025 b025
Finished epilogue job 351134.audhumbla.fysik.dtu.dk for zhonxu