     Program PWSCF v.5.0.2 (svn rev. 9656) starts on 24Jan2014 at 15:28: 5

     Current dimensions of program PWSCF are:
     Max number of different atomic species (ntypx) = 10
     Max number of k-points (npk) =  40000
     Max angular momentum in pseudopotentials (lmaxx) =  3
     Reading input from CrO2-v-1.05.in

     Subspace diagonalization in iterative solution of the eigenvalue problem:
     a serial algorithm will be used

     bravais-lattice index     =            0
     lattice parameter (alat)  =       8.5984  a.u.
     unit-cell volume          =     409.6769 (a.u.)^3
     number of atoms/cell      =            6
     number of atomic types    =            2
     number of electrons       =        52.00
     number of Kohn-Sham states=           75
     kinetic-energy cutoff     =      40.0000  Ry
     charge density cutoff     =     500.0000  Ry
     convergence threshold     =      1.0E-06
     mixing beta               =       0.3000
     number of iterations used =            8  plain     mixing
     Exchange-correlation      = SLA  PW   PBE  PBE ( 1 4 3 4 0)
     EXX-fraction              =        0.00
     nstep                     =           50

     celldm(1)=   8.598420  celldm(2)=   0.000000  celldm(3)=   0.000000
     celldm(4)=   0.000000  celldm(5)=   0.000000  celldm(6)=   0.000000

     crystal axes: (cart. coord. in units of alat)
               a(1) = (   1.000000   0.000000   0.000000 )
               a(2) = (   0.000000   1.000000   0.000000 )
               a(3) = (   0.000000   0.000000   0.644444 )

     reciprocal axes: (cart. coord. in units 2 pi/alat)
               b(1) = (  1.000000  0.000000  0.000000 )
               b(2) = (  0.000000  1.000000  0.000000 )
               b(3) = (  0.000000  0.000000  1.551724 )

     PseudoPot. # 1 for Cr read from file:
     /home/camp/zhonxu/pseudo/cr_pbe_v1.uspp.F.UPF
     MD5 check sum: 68b6f918d1762dccfb11451fe85b0e0e
     Pseudo is Ultrasoft + core correction, Zval = 14.0
     Generated by new atomic code, or converted to UPF format
     Using radial grid of  857 points,  6 beta functions with:
                l(1) =   0
                l(2) =   0
                l(3) =   1
                l(4) =   1
                l(5) =   2
                l(6) =   2
     Q(r) pseudized with  6 coefficients,  rinner =    1.000   1.000   1.000
                                                       1.000   1.000

     PseudoPot. # 2 for O  read from file:
     /home/camp/zhonxu/pseudo/o_pbe_v1.01.uspp.F.UPF
     MD5 check sum: 2bcb18d16ea4b960afae9ec6d52f22d2
     Pseudo is Ultrasoft + core correction, Zval =  6.0
     Generated by new atomic code, or converted to UPF format
     Using radial grid of  737 points,  5 beta functions with:
                l(1) =   0
                l(2) =   0
                l(3) =   1
                l(4) =   1
                l(5) =   2
     Q(r) pseudized with  8 coefficients,  rinner =    0.900   0.900   0.900
                                                       0.900   0.900

     atomic species   valence    mass     pseudopotential
        Cr0           14.00    51.99600     Cr( 1.00)
        O1             6.00    15.99940     O ( 1.00)

     Starting magnetic structure
     atomic species   magnetization
        Cr0          0.600
        O1           0.000

     16 Sym. Ops., with inversion, found ( 8 have fractional translation)

   Cartesian axes

     site n.     atom                  positions (alat units)
         1           Cr0 tau(   1) = (   0.0000000   0.0000000   0.0000000  )
         2           Cr0 tau(   2) = (   0.5000000   0.5000000   0.3222222  )
         3           O1  tau(   3) = (   0.3050000   0.3050000   0.0000000  )
         4           O1  tau(   4) = (  -0.3050000  -0.3050000   0.0000000  )
         5           O1  tau(   5) = (   0.8050000   0.1950000   0.3222222  )
         6           O1  tau(   6) = (   0.1950000   0.8050000   0.3222222  )

     number of k points=    36  Methfessel-Paxton smearing, width (Ry)=  0.0100
                       cart. coord. in units 2pi/alat
        k(    1) = (   0.0000000   0.0000000   0.0000000), wk =   0.0080000
        k(    2) = (   0.0000000   0.0000000   0.3103448), wk =   0.0160000
        k(    3) = (   0.0000000   0.0000000   0.6206897), wk =   0.0160000
        k(    4) = (   0.0000000   0.2000000   0.0000000), wk =   0.0320000
        k(    5) = (   0.0000000   0.2000000   0.3103448), wk =   0.0640000
        k(    6) = (   0.0000000   0.2000000   0.6206897), wk =   0.0640000
        k(    7) = (   0.0000000   0.4000000   0.0000000), wk =   0.0320000
        k(    8) = (   0.0000000   0.4000000   0.3103448), wk =   0.0640000
        k(    9) = (   0.0000000   0.4000000   0.6206897), wk =   0.0640000
        k(   10) = (   0.2000000   0.2000000   0.0000000), wk =   0.0320000
        k(   11) = (   0.2000000   0.2000000   0.3103448), wk =   0.0640000
        k(   12) = (   0.2000000   0.2000000   0.6206897), wk =   0.0640000
        k(   13) = (   0.2000000   0.4000000   0.0000000), wk =   0.0640000
        k(   14) = (   0.2000000   0.4000000   0.3103448), wk =   0.1280000
        k(   15) = (   0.2000000   0.4000000   0.6206897), wk =   0.1280000
        k(   16) = (   0.4000000   0.4000000   0.0000000), wk =   0.0320000
        k(   17) = (   0.4000000   0.4000000   0.3103448), wk =   0.0640000
        k(   18) = (   0.4000000   0.4000000   0.6206897), wk =   0.0640000
        k(   19) = (   0.0000000   0.0000000   0.0000000), wk =   0.0080000
        k(   20) = (   0.0000000   0.0000000   0.3103448), wk =   0.0160000
        k(   21) = (   0.0000000   0.0000000   0.6206897), wk =   0.0160000
        k(   22) = (   0.0000000   0.2000000   0.0000000), wk =   0.0320000
        k(   23) = (   0.0000000   0.2000000   0.3103448), wk =   0.0640000
        k(   24) = (   0.0000000   0.2000000   0.6206897), wk =   0.0640000
        k(   25) = (   0.0000000   0.4000000   0.0000000), wk =   0.0320000
        k(   26) = (   0.0000000   0.4000000   0.3103448), wk =   0.0640000
        k(   27) = (   0.0000000   0.4000000   0.6206897), wk =   0.0640000
        k(   28) = (   0.2000000   0.2000000   0.0000000), wk =   0.0320000
        k(   29) = (   0.2000000   0.2000000   0.3103448), wk =   0.0640000
        k(   30) = (   0.2000000   0.2000000   0.6206897), wk =   0.0640000
        k(   31) = (   0.2000000   0.4000000   0.0000000), wk =   0.0640000
        k(   32) = (   0.2000000   0.4000000   0.3103448), wk =   0.1280000
        k(   33) = (   0.2000000   0.4000000   0.6206897), wk =   0.1280000
        k(   34) = (   0.4000000   0.4000000   0.0000000), wk =   0.0320000
        k(   35) = (   0.4000000   0.4000000   0.3103448), wk =   0.0640000
        k(   36) = (   0.4000000   0.4000000   0.6206897), wk =   0.0640000

     Largest allocated arrays     est. size (Mb)     dimensions
     Largest temporary arrays     est. size (Mb)     dimensions

     Check: negative/imaginary core charge=   -0.000032    0.000000

     Initial potential from superposition of free atoms

     starting charge   49.99997, renormalised to   52.00000
     Starting wfc are   36 randomized atomic wfcs

     Self-consistent Calculation

     iteration #  1     ecut=    40.00 Ry     beta=0.30
     Davidson diagonalization with overlap
     ethr =  1.00E-02,  avg # of iterations =  5.0

     total energy              =    -480.17945314 Ry
     Harris-Foulkes estimate   =    -480.22695538 Ry
     estimated scf accuracy    <       3.03490633 Ry

     total magnetization       =     4.00 Bohr mag/cell
     absolute magnetization    =     6.00 Bohr mag/cell

[...]

     End of self-consistent calculation

 ------ SPIN UP ------------

          k = 0.0000 0.0000 0.0000 (  1787 PWs)   bands (ev):

   -63.8432 -63.8397 -35.1966 -35.1966 -35.0887 -35.0887 -35.0193 -35.0085
    -9.6402  -8.1090  -7.7257  -7.7257   2.4560   3.1326   3.7441   4.6564
     4.6564   6.0016   6.0016   6.5855   8.1354   8.1694   8.2820   8.5551
     8.5551   8.5994   8.5994   8.6034   9.3122  10.4904  10.7373  13.2804
    13.2804  13.8991  16.7244  20.3626  20.3626  23.3515  23.7159  24.5297
    26.3219  27.5305  27.5305  28.4835  29.0612  32.0450  33.1878  33.2824
    33.2824  34.4488  34.4488  34.8356  35.0791  35.0791  35.5590  36.9883
    38.4793  39.0410  41.5479  41.8013  41.8013  42.0430  42.0430  43.5819
    45.1570  45.9611  45.9611  47.0667  48.5053  48.7470  48.7470  49.0034
    49.8613  50.8329  51.5834

[...]

 ------ SPIN DOWN ----------

[...]

     the Fermi energy is     9.6728 ev

!    total energy              =    -481.16585166 Ry
     Harris-Foulkes estimate   =    -481.16584706 Ry
     estimated scf accuracy    <       0.00000001 Ry

     The total energy is the sum of the following terms:

     one-electron contribution =    -216.03888255 Ry
     hartree contribution      =     132.61950632 Ry
     xc contribution           =     -74.24771508 Ry
     ewald contribution        =    -323.49869787 Ry
     smearing contrib. (-TS)   =      -0.00006248 Ry

[...]

     convergence has been achieved in  12 iterations

     Forces acting on atoms (Ry/au):

     atom    1 type  1   force =     0.00000000    0.00000000    0.00000000
     atom    2 type  1   force =     0.00000000    0.00000000    0.00000000
     atom    3 type  2   force =     0.00084311    0.00084311    0.00000000
     atom    4 type  2   force =    -0.00084311   -0.00084311    0.00000000
     atom    5 type  2   force =     0.00084311   -0.00084311    0.00000000
     atom    6 type  2   force =    -0.00084311    0.00084311   -0.00000000

     Total force =     0.002385     Total SCF correction =     0.000136

     entering subroutine stress ...

          total   stress  (Ry/bohr**3)                   (kbar)     P= -105.24
  -0.00076950   0.00000000   0.00000000       -113.20      0.00      0.00
   0.00000000  -0.00076950   0.00000000          0.00   -113.20      0.00
   0.00000000   0.00000000  -0.00060724          0.00      0.00    -89.33

     Volume is kept fixed: isostatic pressure set to zero

     BFGS Geometry Optimization

     number of scf cycles    =   1
     number of bfgs steps    =   0

     enthalpy new            =    -481.1658516571 Ry

     new trust radius        =       0.0109474272 bohr
     new conv_thr            =       0.0000010000 Ry

     new unit-cell volume =    409.67688 a.u.^3 (    60.70785 Ang^3 )

CELL_PARAMETERS (alat=  8.59842007)
   0.998649654   0.000000000   0.000000000
   0.000000000   0.998649654   0.000000000
   0.000000000   0.000000000   0.646188422

ATOMIC_POSITIONS (crystal)
Cr0      0.000000000   0.000000000   0.000000000    0   0   0
Cr0      0.500000000   0.500000000   0.500000000    0   0   0
O1       0.305098054   0.305098054   0.000000000    1   1   0
O1      -0.305098054  -0.305098054   0.000000000    1   1   0
O1       0.805098054   0.194901946   0.500000000    1   1   0
O1       0.194901946   0.805098054   0.500000000    1   1   0

     NEW-OLD atomic charge density approx. for the potential
     NEW k-points:
        k(    1) = (   0.0000000   0.0000000   0.0000000), wk =   0.0080000
[...]
        k(   15) = (   0.2002704   0.4005409   0.6190145), wk =   0.1280000
        k(   16) = (   0.4005409   0.4005409   0.0000000), wk =   0.0320000
        k(   17) = (   0.4005409   0.4005409   0.3095072), wk =   0.0640000
        k(   18) = (   0.4005409   0.4005409   0.6190145), wk =   0.0640000
        k(   19) = (   0.0000000   0.0000000   0.0000000), wk =   0.0080000
        k(   20) = (   0.0000000   0.0000000   0.3095072), wk =   0.0160000
        k(   21) = (   0.0000000   0.0000000   0.6190145), wk =   0.0160000
        k(   22) = (   0.0000000   0.2002704   0.0000000), wk =   0.0320000
        k(   23) = (   0.0000000   0.2002704   0.3095072), wk =   0.0640000
        k(   24) = (   0.0000000   0.2002704   0.6190145), wk =   0.0640000
        k(   25) = (   0.0000000   0.4005409   0.0000000), wk =   0.0320000
        k(   26) = (   0.0000000   0.4005409   0.3095072), wk =   0.0640000
        k(   27) = (   0.0000000   0.4005409   0.6190145), wk =   0.0640000
        k(   28) = (   0.2002704   0.2002704   0.0000000), wk =   0.0320000
        k(   29) = (   0.2002704   0.2002704   0.3095072), wk =   0.0640000
        k(   30) = (   0.2002704   0.2002704   0.6190145), wk =   0.0640000
        k(   31) = (   0.2002704   0.4005409   0.0000000), wk =   0.0640000
        k(   32) = (   0.2002704   0.4005409   0.3095072), wk =   0.1280000
        k(   33) = (   0.2002704   0.4005409   0.6190145), wk =   0.1280000
        k(   34) = (   0.4005409   0.4005409   0.0000000), wk =   0.0320000
        k(   35) = (   0.4005409   0.4005409   0.3095072), wk =   0.0640000
        k(   36) = (   0.4005409   0.4005409   0.6190145), wk =   0.0640000

[...]

     Threshold (ethr) on eigenvalues was too large:
     Diagonalizing with lowered threshold

     Davidson diagonalization with overlap
     ethr =  1.30E-08,  avg # of iterations =  1.4

[...]

     Total force =     0.001340     Total SCF correction =     0.000378
     SCF correction compared to forces is large: reduce conv_thr to get better values

[...]

     number of scf cycles    =   2
     number of bfgs steps    =   1

     enthalpy old            =    -481.1658516571 Ry
     enthalpy new            =    -481.1660004002 Ry

     CASE: enthalpy_new < enthalpy_old

     new trust radius        =       0.0158405452 bohr
     new conv_thr            =       0.0000000100 Ry

     new unit-cell volume =    409.67688 a.u.^3 (    60.70785 Ang^3 )

[...]

ATOMIC_POSITIONS (crystal)
Cr0      0.000000000   0.000000000   0.000000000    0   0   0
Cr0      0.500000000   0.500000000   0.500000000    0   0   0
O1       0.305232887   0.305232887   0.000000000    1   1   0
O1      -0.305232887  -0.305232887   0.000000000    1   1   0
O1       0.805232887   0.194767113   0.500000000    1   1   0
O1       0.194767113   0.805232887   0.500000000    1   1   0

     NEW-OLD atomic charge density approx. for the potential
     NEW k-points:
        k(    1) = (   0.0000000   0.0000000   0.0000000), wk =   0.0080000
        k(    2) = (   0.0000000   0.0000000   0.3082972), wk =   0.0160000
        k(    3) = (   0.0000000   0.0000000   0.6165944), wk =   0.0160000
        k(    4) = (   0.0000000   0.2006631   0.0000000), wk =   0.0320000
        k(    5) = (   0.0000000   0.2006631   0.3082972), wk =   0.0640000
        k(    6) = (   0.0000000   0.2006631   0.6165944), wk =   0.0640000
        k(    7) = (   0.0000000   0.4013261   0.0000000), wk =   0.0320000
        k(    8) = (   0.0000000   0.4013261   0.3082972), wk =   0.0640000
        k(    9) = (   0.0000000   0.4013261   0.6165944), wk =   0.0640000
        k(   10) = (   0.2006631   0.2006631   0.0000000), wk =   0.0320000
        k(   11) = (   0.2006631   0.2006631   0.3082972), wk =   0.0640000
        k(   12) = (   0.2006631   0.2006631   0.6165944), wk =   0.0640000
        k(   13) = (   0.2006631   0.4013261   0.0000000), wk =   0.0640000
        k(   14) = (   0.2006631   0.4013261   0.3082972), wk =   0.1280000
        k(   15) = (   0.2006631   0.4013261   0.6165944), wk =   0.1280000
        k(   16) = (   0.4013261   0.4013261   0.0000000), wk =   0.0320000
        k(   17) = (   0.4013261   0.4013261   0.3082972), wk =   0.0640000
        k(   18) = (   0.4013261   0.4013261   0.6165944), wk =   0.0640000
        k(   19) = (   0.0000000   0.0000000   0.0000000), wk =   0.0080000
        k(   20) = (   0.0000000   0.0000000   0.3082972), wk =   0.0160000
        k(   21) = (   0.0000000   0.0000000   0.6165944), wk =   0.0160000
        k(   22) = (   0.0000000   0.2006631   0.0000000), wk =   0.0320000
        k(   23) = (   0.0000000   0.2006631   0.3082972), wk =   0.0640000
        k(   24) = (   0.0000000   0.2006631   0.6165944), wk =   0.0640000
        k(   25) = (   0.0000000   0.4013261   0.0000000), wk =   0.0320000
        k(   26) = (   0.0000000   0.4013261   0.3082972), wk =   0.0640000
        k(   27) = (   0.0000000   0.4013261   0.6165944), wk =   0.0640000
        k(   28) = (   0.2006631   0.2006631   0.0000000), wk =   0.0320000
        k(   29) = (   0.2006631   0.2006631   0.3082972), wk =   0.0640000
        k(   30) = (   0.2006631   0.2006631   0.6165944), wk =   0.0640000
        k(   31) = (   0.2006631   0.4013261   0.0000000), wk =   0.0640000
        k(   32) = (   0.2006631   0.4013261   0.3082972), wk =   0.1280000
        k(   33) = (   0.2006631   0.4013261   0.6165944), wk =   0.1280000
        k(   34) = (   0.4013261   0.4013261   0.0000000), wk =   0.0320000
        k(   35) = (   0.4013261   0.4013261   0.3082972), wk =   0.0640000
        k(   36) = (   0.4013261   0.4013261   0.6165944), wk =   0.0640000

[...]

     Threshold (ethr) on eigenvalues was too large:
     Diagonalizing with lowered threshold

     Davidson diagonalization with overlap
     ethr =  3.12E-08,  avg # of iterations =  1.0

[...]

     Volume is kept fixed: isostatic pressure set to zero

     bfgs converged in   3 scf cycles and   2 bfgs steps
     (criteria: energy < 0.10E-03, force < 0.10E-02, cell < 0.50E+00)

     End of BFGS Geometry Optimization

     Final enthalpy =    -481.1660858554 Ry
Begin final coordinates
     new unit-cell volume =    409.67688 a.u.^3 (    60.70785 Ang^3 )

CELL_PARAMETERS (alat=  8.59842007)
   0.996695588   0.000000000   0.000000000
   0.000000000   0.996695588   0.000000000
   0.000000000   0.000000000   0.648724669

ATOMIC_POSITIONS (crystal)
Cr0      0.000000000   0.000000000   0.000000000    0   0   0
Cr0      0.500000000   0.500000000   0.500000000    0   0   0
O1       0.305232887   0.305232887   0.000000000    1   1   0
O1      -0.305232887  -0.305232887   0.000000000    1   1   0
O1       0.805232887   0.194767113   0.500000000    1   1   0
O1       0.194767113   0.805232887   0.500000000    1   1   0
End final coordinates

     A final scf calculation at the relaxed structure.
     The G-vectors are recalculated for the final unit cell
     Results may differ from those at the preceding step.

     bravais-lattice index     =            0
     lattice parameter (alat)  =       8.5984  a.u.
     unit-cell volume          =     409.6769 (a.u.)^3
     number of atoms/cell      =            6
     number of atomic types    =            2
     number of electrons       =        52.00
     number of Kohn-Sham states=           75
     kinetic-energy cutoff     =      40.0000  Ry
     charge density cutoff     =     500.0000  Ry
     convergence threshold     =      1.0E-08
     mixing beta               =       0.3000
     number of iterations used =            8  plain     mixing
     Exchange-correlation      = SLA  PW   PBE  PBE ( 1 4 3 4 0)
     EXX-fraction              =        0.00

     celldm(1)=   8.598420  celldm(2)=   0.000000  celldm(3)=   0.000000
     celldm(4)=   0.000000  celldm(5)=   0.000000  celldm(6)=   0.000000

     crystal axes: (cart. coord. in units of alat)
               a(1) = (   0.996696   0.000000   0.000000 )
               a(2) = (   0.000000   0.996696   0.000000 )
               a(3) = (   0.000000   0.000000   0.648725 )

     reciprocal axes: (cart. coord. in units 2 pi/alat)
               b(1) = (  1.003315  0.000000  0.000000 )
               b(2) = (  0.000000  1.003315  0.000000 )
               b(3) = (  0.000000  0.000000  1.541486 )

     PseudoPot. # 1 for Cr read from file:
     /home/camp/zhonxu/pseudo/cr_pbe_v1.uspp.F.UPF
     MD5 check sum: 68b6f918d1762dccfb11451fe85b0e0e
     Pseudo is Ultrasoft + core correction, Zval = 14.0
     Generated by new atomic code, or converted to UPF format
     Using radial grid of  857 points,  6 beta functions with:
                l(1) =   0
                l(2) =   0
                l(3) =   1
                l(4) =   1
                l(5) =   2
                l(6) =   2
     Q(r) pseudized with  6 coefficients,  rinner =    1.000   1.000   1.000
                                                       1.000   1.000

     PseudoPot. # 2 for O  read from file:
     /home/camp/zhonxu/pseudo/o_pbe_v1.01.uspp.F.UPF
     MD5 check sum: 2bcb18d16ea4b960afae9ec6d52f22d2
     Pseudo is Ultrasoft + core correction, Zval =  6.0
     Generated by new atomic code, or converted to UPF format
     Using radial grid of  737 points,  5 beta functions with:
                l(1) =   0
                l(2) =   0
                l(3) =   1
                l(4) =   1
                l(5) =   2
     Q(r) pseudized with  8 coefficients,  rinner =    0.900   0.900   0.900
                                                       0.900   0.900

     atomic species   valence    mass     pseudopotential
        Cr0           14.00    51.99600     Cr( 1.00)
        O1             6.00    15.99940     O ( 1.00)

     Starting magnetic structure
     atomic species   magnetization
        Cr0          0.600
        O1           0.000

     16 Sym. Ops., with inversion, found ( 8 have fractional translation)

   Cartesian axes

     site n.     atom                  positions (alat units)
         1           Cr0 tau(   1) = (   0.0000000   0.0000000   0.0000000  )
         2           Cr0 tau(   2) = (   0.4983478   0.4983478   0.3243623  )
         3           O1  tau(   3) = (   0.3042243   0.3042243   0.0000000  )
         4           O1  tau(   4) = (  -0.3042243  -0.3042243   0.0000000  )
         5           O1  tau(   5) = (   0.8025721   0.1941235   0.3243623  )
         6           O1  tau(   6) = (   0.1941235   0.8025721   0.3243623  )

     number of k points=    36  Methfessel-Paxton smearing, width (Ry)=  0.0100
                       cart. coord. in units 2pi/alat
        k(    1) = (   0.0000000   0.0000000   0.0000000), wk =   0.0080000
        k(    2) = (   0.0000000   0.0000000   0.3082972), wk =   0.0160000
        k(    3) = (   0.0000000   0.0000000   0.6165944), wk =   0.0160000
        k(    4) = (   0.0000000   0.2006631   0.0000000), wk =   0.0320000
        k(    5) = (   0.0000000   0.2006631   0.3082972), wk =   0.0640000
        k(    6) = (   0.0000000   0.2006631   0.6165944), wk =   0.0640000
        k(    7) = (   0.0000000   0.4013261   0.0000000), wk =   0.0320000
        k(    8) = (   0.0000000   0.4013261   0.3082972), wk =   0.0640000
        k(    9) = (   0.0000000   0.4013261   0.6165944), wk =   0.0640000
        k(   10) = (   0.2006631   0.2006631   0.0000000), wk =   0.0320000
        k(   11) = (   0.2006631   0.2006631   0.3082972), wk =   0.0640000
        k(   12) = (   0.2006631   0.2006631   0.6165944), wk =   0.0640000
        k(   13) = (   0.2006631   0.4013261   0.0000000), wk =   0.0640000
        k(   14) = (   0.2006631   0.4013261   0.3082972), wk =   0.1280000
        k(   15) = (   0.2006631   0.4013261   0.6165944), wk =   0.1280000
        k(   16) = (   0.4013261   0.4013261   0.0000000), wk =   0.0320000
        k(   17) = (   0.4013261   0.4013261   0.3082972), wk =   0.0640000
        k(   18) = (   0.4013261   0.4013261   0.6165944), wk =   0.0640000
        k(   19) = (   0.0000000   0.0000000   0.0000000), wk =   0.0080000
        k(   20) = (   0.0000000   0.0000000   0.3082972), wk =   0.0160000
        k(   21) = (   0.0000000   0.0000000   0.6165944), wk =   0.0160000
        k(   22) = (   0.0000000   0.2006631   0.0000000), wk =   0.0320000
        k(   23) = (   0.0000000   0.2006631   0.3082972), wk =   0.0640000
        k(   24) = (   0.0000000   0.2006631   0.6165944), wk =   0.0640000
        k(   25) = (   0.0000000   0.4013261   0.0000000), wk =   0.0320000
        k(   26) = (   0.0000000   0.4013261   0.3082972), wk =   0.0640000
        k(   27) = (   0.0000000   0.4013261   0.6165944), wk =   0.0640000
        k(   28) = (   0.2006631   0.2006631   0.0000000), wk =   0.0320000
        k(   29) = (   0.2006631   0.2006631   0.3082972), wk =   0.0640000
        k(   30) = (   0.2006631   0.2006631   0.6165944), wk =   0.0640000
        k(   31) = (   0.2006631   0.4013261   0.0000000), wk =   0.0640000
        k(   32) = (   0.2006631   0.4013261   0.3082972), wk =   0.1280000
        k(   33) = (   0.2006631   0.4013261   0.6165944), wk =   0.1280000
        k(   34) = (   0.4013261   0.4013261   0.0000000), wk =   0.0320000
        k(   35) = (   0.4013261   0.4013261   0.3082972), wk =   0.0640000
        k(   36) = (   0.4013261   0.4013261   0.6165944), wk =   0.0640000

     Largest allocated arrays     est. size (Mb)     dimensions
     Largest temporary arrays     est. size (Mb)     dimensions

     Check: negative/imaginary core charge=   -0.000032    0.000000

     Initial potential from superposition of free atoms

     starting charge   49.99997, renormalised to   52.00000
     Starting wfc are   36 randomized atomic wfcs

     Self-consistent Calculation

[...]

     total energy              =    -481.16603203 Ry
     Harris-Foulkes estimate   =    -481.16602956 Ry
     estimated scf accuracy    <       0.00000001 Ry

[...]

     iteration # 13     ecut=    40.00 Ry     beta=0.30
     Davidson diagonalization with overlap
     ethr =  2.72E-11,  avg # of iterations =  2.0

     End of self-consistent calculation

 ------ SPIN UP ------------

[...]

 ------ SPIN DOWN ----------

[...]

          k = 0.4013 0.4013 0.6166 (  1738 PWs)   bands (ev):

   -61.4297 -61.4296 -33.0253 -33.0251 -32.6720 -32.6702 -32.6598 -32.6583
    -8.3199  -8.2457  -8.1281  -8.1138   3.7588   3.9282   4.0624   4.1032
     5.2349   5.3877   6.0795   6.1392   7.2334   7.3635   7.7868   7.9655
    10.8736  11.1734  11.6063  11.8149  11.8439  11.8943  13.0202  13.5832
    13.6027  14.1576  20.9626  21.3091  22.8327  23.3943  24.1149  24.5129
    25.5200  25.7146  27.1902  27.4399  28.5185  28.9845  31.7052  33.2875
    33.4977  33.9490  34.3311  35.0849  38.2026  38.3397  39.1264  39.9476
    41.5295  41.9693  42.5503  43.3350  43.9192  44.0137  44.6608  45.3257
    45.4702  46.5300  47.8583  48.4703  48.4710  49.2743  49.9407  50.6886
    50.9351  51.0635  51.1610

     the Fermi energy is     9.6725 ev

!    total energy              =    -481.16603438 Ry
     Harris-Foulkes estimate   =    -481.16603203 Ry
     estimated scf accuracy    <          1.9E-09 Ry

     The total energy is the sum of the following terms:

     one-electron contribution =    -215.42589958 Ry
     hartree contribution      =     132.32183725 Ry
     xc contribution           =     -74.24306881 Ry
     ewald contribution        =    -323.81885326 Ry
     smearing contrib. (-TS)   =      -0.00004999 Ry

     total magnetization       =     4.00 Bohr mag/cell
     absolute magnetization    =     4.89 Bohr mag/cell

     convergence has been achieved in  13 iterations

     Forces acting on atoms (Ry/au):

     atom    1 type  1   force =     0.00000000    0.00000000    0.00000000
     atom    2 type  1   force =     0.00000000    0.00000000   -0.00000000
     atom    3 type  2   force =     0.00004351    0.00004351   -0.00000000
     atom    4 type  2   force =    -0.00004351   -0.00004351   -0.00000000
     atom    5 type  2   force =     0.00004351   -0.00004351    0.00000000
     atom    6 type  2   force =    -0.00004351    0.00004351    0.00000000

     Total force =     0.000123     Total SCF correction =     0.000017
     SCF correction compared to forces is large: reduce conv_thr to get better values

     entering subroutine stress ...

          total   stress  (Ry/bohr**3)                   (kbar)     P= -107.96
  -0.00073595   0.00000000   0.00000000       -108.26      0.00      0.00
   0.00000000  -0.00073595   0.00000000          0.00   -108.26      0.00
   0.00000000   0.00000000  -0.00072986          0.00      0.00   -107.37

     General routines

     Parallel routines

   This run was terminated on:  15:41:31  24Jan2014

   JOB DONE.