     Program PWSCF v.5.0.2 (svn rev. 9656) starts on 13Aug2014 at 10:14:40

     Current dimensions of program PWSCF are:
     Max number of different atomic species (ntypx) = 10
     Max number of k-points (npk) =  40000
     Max angular momentum in pseudopotentials (lmaxx) =  3
     Reading input from pwscf.in
Warning: card &CELL ignored
Warning: card / ignored

     Subspace diagonalization in iterative solution of the eigenvalue problem:
     a serial algorithm will be used

     bravais-lattice index     =            0
     lattice parameter (alat)  =      10.9604  a.u.
     unit-cell volume          =    6350.6732 (a.u.)^3
     number of atoms/cell      =           33
     number of atomic types    =            3
     number of electrons       =       237.00 (up: 126.00, down: 111.00)
     number of Kohn-Sham states=          343
     kinetic-energy cutoff     =      40.0000  Ry
     charge density cutoff     =     500.0000  Ry
     convergence threshold     =      1.0E-06
     mixing beta               =       0.7000
     number of iterations used =            8  plain     mixing
     Exchange-correlation      = SLA  PW   PBE  PBE ( 1 4 3 4 0)
     EXX-fraction              =        0.00
     nstep                     =           50

     celldm(1)=  10.960412  celldm(2)=   0.000000  celldm(3)=   0.000000
     celldm(4)=   0.000000  celldm(5)=   0.000000  celldm(6)=   0.000000

     crystal axes: (cart. coord. in units of alat)
               a(1) = (   1.000000   0.000000   0.000000 )
               a(2) = (   0.000000   1.067975   0.000000 )
               a(3) = (   0.000000   0.000000   4.516251 )

     reciprocal axes: (cart. coord. in units 2 pi/alat)
               b(1) = (  1.000000  0.000000  0.000000 )
               b(2) = (  0.000000  0.936351  0.000000 )
               b(3) = (  0.000000  0.000000  0.221423 )

     PseudoPot. # 1 for O  read from file:
     /home-research/zhongnanxu/gbrv_espresso_pseudo_v1.01/o_pbe_v1.01.uspp.F.UPF
     MD5 check sum: 2bcb18d16ea4b960afae9ec6d52f22d2
     Pseudo is Ultrasoft + core correction, Zval =  6.0
     Generated by new atomic code, or converted to UPF format
     Using radial grid of  737 points,  5 beta functions with:
                l(1) =   0
                l(2) =   0
                l(3) =   1
                l(4) =   1
                l(5) =   2
     Q(r) pseudized with  8 coefficients,  rinner =    0.900   0.900   0.900
                                                       0.900   0.900

     PseudoPot. # 2 for Cr read from file:
     /home-research/zhongnanxu/gbrv_espresso_pseudo_v1.01/cr_pbe_v1.uspp.F.UPF
     MD5 check sum: 68b6f918d1762dccfb11451fe85b0e0e
     Pseudo is Ultrasoft + core correction, Zval = 14.0
     Generated by new atomic code, or converted to UPF format
     Using radial grid of  857 points,  6 beta functions with:
                l(1) =   0
                l(2) =   0
                l(3) =   1
                l(4) =   1
                l(5) =   2
                l(6) =   2
     Q(r) pseudized with  6 coefficients,  rinner =    1.000   1.000   1.000
                                                       1.000   1.000

     PseudoPot. # 3 for H  read from file:
     /home-research/zhongnanxu/gbrv_espresso_pseudo_v1.01/h_pbe_v1.uspp.F.UPF
     MD5 check sum: 3408e3ff4ec8b0a4e358431e7e038a48
     Pseudo is Ultrasoft, Zval =  1.0
     Generated by new atomic code, or converted to UPF format
     Using radial grid of  615 points,  2 beta functions with:
                l(1) =   0
                l(2) =   0
     Q(r) pseudized with  8 coefficients,  rinner =    0.700

     atomic species   valence    mass     pseudopotential
        O0             6.00    15.99940     O ( 1.00)
        Cr1           14.00    51.99600     Cr( 1.00)
        H2             1.00     1.00794     H ( 1.00)

     Starting magnetic structure
     atomic species   magnetization
        O0           0.000
        Cr1          0.600
        H2           0.000

     Simplified LDA+U calculation (l_max = 2) with parameters (eV):
     atomic species    L          U    alpha       J0     beta
        Cr1            2     7.5000   0.0000   0.0000   0.0000

     No symmetry found

   Cartesian axes

     site n.     atom                  positions (alat units)
         1           O0  tau(   1) = (   0.0000000   0.0000000   1.6826648  )
         2           O0  tau(   2) = (   0.0000000   0.5339875   1.7785448  )
         3           Cr1 tau(   3) = (   0.2500000   0.5339875   2.0177706  )
         4           Cr1 tau(   4) = (   0.0000000   0.0000000   2.0269386  )
         5           O0  tau(   5) = (   0.2500000   0.8543801   2.0211578  )
         6           O0  tau(   6) = (   0.2500000   0.2135950   2.0211126  )
         7           O0  tau(   7) = (   0.0000000   0.5339875   2.2439444  )
         8           O0  tau(   8) = (   0.0000000   0.0000000   2.3743286  )
         9           Cr1 tau(   9) = (   0.2500000   0.0000000   2.6080446  )
        10           Cr1 tau(  10) = (   0.0000000   0.5339875   2.5674435  )
        11           O0  tau(  11) = (   0.2500000   0.7475825   2.6099414  )
        12           O0  tau(  12) = (   0.2500000   0.3203925   2.6150448  )
        13           O0  tau(  13) = (   0.0000000   0.0000000   2.8320506  )
        14           O0  tau(  14) = (   0.5000000   0.0000000   1.6807228  )
        15           O0  tau(  15) = (   0.5000000   0.5339875   1.7787254  )
        16           Cr1 tau(  16) = (   0.7500000   0.5339875   2.0177254  )
        17           Cr1 tau(  17) = (   0.5000000   0.0000000   2.0248159  )
        18           O0  tau(  18) = (   0.7500000   0.8543801   2.0212481  )
        19           O0  tau(  19) = (   0.7500000   0.2135950   2.0210223  )
        20           O0  tau(  20) = (   0.5000000   0.5339875   2.2541963  )
        21           O0  tau(  21) = (   0.5000000   0.0000000   2.3736963  )
        22           Cr1 tau(  22) = (   0.7500000   0.0000000   2.6085414  )
        23           Cr1 tau(  23) = (   0.5000000   0.5339875   2.6032122  )
        24           O0  tau(  24) = (   0.7500000   0.7475825   2.6105737  )
        25           O0  tau(  25) = (   0.7500000   0.3203925   2.6157674  )
        26           O0  tau(  26) = (   0.5000000   0.0000000   2.8304699  )
        27           H2  tau(  27) = (  -0.0008200   0.6800331   1.6909295  )
        28           H2  tau(  28) = (   0.4992300   0.6804283   1.6916069  )
        29           H2  tau(  29) = (   0.1597900   0.0282159   1.6279730  )
        30           H2  tau(  30) = (   0.6599000   0.0284402   1.6265729  )
        31           O0  tau(  31) = (   0.4998600   0.5887640   2.9668607  )
        32           O0  tau(  32) = (   0.5002200   0.3889352   3.0940835  )
        33           H2  tau(  33) = (   0.4998900   0.4473854   3.2548620  )

     number of k points=    20  Methfessel-Paxton smearing, width (Ry)=  0.0100
                       cart. coord. in units 2pi/alat
        k(    1) = (   0.0000000   0.0000000   0.0000000), wk =   0.0625000
        k(    2) = (   0.0000000   0.2340879   0.0000000), wk =   0.1250000
        k(    3) = (   0.0000000  -0.4681757   0.0000000), wk =   0.0625000
        k(    4) = (   0.2500000   0.0000000   0.0000000), wk =   0.1250000
        k(    5) = (   0.2500000   0.2340879   0.0000000), wk =   0.1250000
        k(    6) = (   0.2500000  -0.4681757   0.0000000), wk =   0.1250000
        k(    7) = (  -0.5000000   0.0000000   0.0000000), wk =   0.0625000
        k(    8) = (  -0.5000000   0.2340879   0.0000000), wk =   0.1250000
        k(    9) = (  -0.5000000  -0.4681757   0.0000000), wk =   0.0625000
        k(   10) = (  -0.2500000   0.2340879   0.0000000), wk =   0.1250000
        k(   11) = (   0.0000000   0.0000000   0.0000000), wk =   0.0625000
        k(   12) = (   0.0000000   0.2340879   0.0000000), wk =   0.1250000
        k(   13) = (   0.0000000  -0.4681757   0.0000000), wk =   0.0625000
        k(   14) = (   0.2500000   0.0000000   0.0000000), wk =   0.1250000
        k(   15) = (   0.2500000   0.2340879   0.0000000), wk =   0.1250000
        k(   16) = (   0.2500000  -0.4681757   0.0000000), wk =   0.1250000
        k(   17) = (  -0.5000000   0.0000000   0.0000000), wk =   0.0625000
        k(   18) = (  -0.5000000   0.2340879   0.0000000), wk =   0.1250000
        k(   19) = (  -0.5000000  -0.4681757   0.0000000), wk =   0.0625000
        k(   20) = (  -0.2500000   0.2340879   0.0000000), wk =   0.1250000

     Largest allocated arrays     est. size (Mb)     dimensions
     Largest temporary arrays     est. size (Mb)     dimensions

     Check: negative/imaginary core charge=   -0.000012    0.000000

     Initial potential from superposition of free atoms
     Check: negative starting charge=(component1):   -0.001236
     Check: negative starting charge=(component2):   -0.000431

     starting charge  228.99983, renormalised to  237.00000

     negative rho (up, down):  0.128E-02 0.446E-03
     Number of +U iterations with fixed ns =  0
     Starting occupations:
 --- enter write_ns ---
 LDA+U parameters:
U( 2)     =  7.50000000
alpha( 2) =  0.00000000
atom    3   Tr[ns(na)] (up, down, total) =   5.00000  0.00000  5.00000
   spin  1
    eigenvalues:
  1.000  1.000  1.000  1.000  1.000
    eigenvectors:
  1.000  0.000  0.000  0.000  0.000
  0.000  1.000  0.000  0.000  0.000
  0.000  0.000  1.000  0.000  0.000
  0.000  0.000  0.000  1.000  0.000
  0.000  0.000  0.000  0.000  1.000
    occupations:
  1.000  0.000  0.000  0.000  0.000
  0.000  1.000  0.000  0.000  0.000
  0.000  0.000  1.000  0.000  0.000
  0.000  0.000  0.000  1.000  0.000
  0.000  0.000  0.000  0.000  1.000
   spin  2
    eigenvalues:
  0.000  0.000  0.000  0.000  0.000
    eigenvectors:
  1.000  0.000  0.000  0.000  0.000
  0.000  1.000  0.000  0.000  0.000
  0.000  0.000  1.000  0.000  0.000
  0.000  0.000  0.000  1.000  0.000
  0.000  0.000  0.000  0.000  1.000
    occupations:
  0.000  0.000  0.000  0.000  0.000
  0.000  0.000  0.000  0.000  0.000
  0.000  0.000  0.000  0.000  0.000
  0.000  0.000  0.000  0.000  0.000
  0.000  0.000  0.000  0.000  0.000
atomic mag. moment =     5.000000
atom    4   Tr[ns(na)] (up, down, total) =   5.00000  0.00000  5.00000
   spin  1
    eigenvalues:
  1.000  1.000  1.000  1.000  1.000
    eigenvectors:
  1.000  0.000  0.000  0.000  0.000
  0.000  1.000  0.000  0.000  0.000
  0.000  0.000  1.000  0.000  0.000
  0.000  0.000  0.000  1.000  0.000
  0.000  0.000  0.000  0.000  1.000
    occupations:
  1.000  0.000  0.000  0.000  0.000
  0.000  1.000  0.000  0.000  0.000
  0.000  0.000  1.000  0.000  0.000
  0.000  0.000  0.000  1.000  0.000
  0.000  0.000  0.000  0.000  1.000
   spin  2
    eigenvalues:
  0.000  0.000  0.000  0.000  0.000
    eigenvectors:
  1.000  0.000  0.000  0.000  0.000
  0.000  1.000  0.000  0.000  0.000
  0.000  0.000  1.000  0.000  0.000
  0.000  0.000  0.000  1.000  0.000
  0.000  0.000  0.000  0.000  1.000
    occupations:
  0.000  0.000  0.000  0.000  0.000
  0.000  0.000  0.000  0.000  0.000
  0.000  0.000  0.000  0.000  0.000
  0.000  0.000  0.000  0.000  0.000
  0.000  0.000  0.000  0.000  0.000
[...]
 -0.001  0.000  0.070  0.005  0.001
  0.105  0.003  0.005  0.247  0.000
  0.000  0.007  0.001  0.000  0.068
atomic mag. moment =     3.023946
atom    4   Tr[ns(na)] (up, down, total) =   3.79552  0.74046  4.53599
   spin  1
    eigenvalues:
  0.467  0.495  0.907  0.934  0.992
    eigenvectors:
  0.000  0.997  0.000  0.001  0.002
  0.000  0.001  0.009  0.990  0.000
  0.000  0.000  0.991  0.009  0.000
  0.000  0.002  0.000  0.000  0.998
  1.000  0.000  0.000  0.000  0.000
    occupations:
  0.496 -0.015 -0.001  0.021  0.000
 -0.015  0.934  0.003  0.002  0.001
 -0.001  0.003  0.907  0.000  0.001
  0.021  0.002  0.000  0.991  0.000
  0.000  0.001  0.001  0.000  0.467
   spin  2
    eigenvalues:
  0.060  0.064  0.066  0.259  0.292
    eigenvectors:
  0.000  0.010  0.000  0.990  0.000
  0.052  0.057  0.890  0.001  0.000
  0.937  0.025  0.038  0.000  0.000
  0.010  0.909  0.072  0.009  0.000
  0.000  0.000  0.000  0.000  1.000
    occupations:
  0.257  0.006  0.001 -0.019  0.000
  0.006  0.065 -0.001  0.000  0.000
  0.001 -0.001  0.061  0.000  0.000
 -0.019  0.000  0.000  0.066  0.000
  0.000  0.000  0.000  0.000  0.292
atomic mag. moment =     3.055062
atom    9   Tr[ns(na)] (up, down, total) =   3.79371  0.78543  4.57914
   spin  1
    eigenvalues:
  0.505  0.521  0.842  0.930  0.995
    eigenvectors:
  0.000  0.225  0.000  0.000  0.775
  0.999  0.001  0.000  0.000  0.000
  0.000  0.000  0.985  0.015  0.000
  0.001  0.774  0.000  0.000  0.225
  0.000  0.000  0.015  0.985  0.000
    occupations:
  0.888 -0.001  0.000 -0.198 -0.001
 -0.001  0.505  0.000  0.000  0.000
  0.000  0.000  0.844 -0.001 -0.011
 -0.198  0.000 -0.001  0.628 -0.001
 -0.001  0.000 -0.011 -0.001  0.929
   spin  2
    eigenvalues:
  0.063  0.072  0.073  0.268  0.310
    eigenvectors:
  0.795  0.000  0.000  0.000  0.204
  0.000  0.000  0.000  0.999  0.001
  0.001  0.280  0.719  0.000  0.000
  0.204  0.000  0.000  0.000  0.795
  0.000  0.719  0.281  0.000  0.000
    occupations:
  0.113  0.000  0.001  0.099  0.000
  0.000  0.268  0.000 -0.001  0.000
  0.001  0.000  0.073  0.002  0.000
  0.099 -0.001  0.002  0.260  0.000
  0.000  0.000  0.000  0.000  0.072
atomic mag. moment =     3.008283
atom   10   Tr[ns(na)] (up, down, total) =   3.82984  0.67124  4.50108
   spin  1
    eigenvalues:
  0.480  0.486  0.928  0.943  0.993
    eigenvectors:
  0.000  0.998  0.000  0.000  0.002
  0.000  0.000  0.000  1.000  0.000
  0.000  0.000  1.000  0.000  0.000
  0.000  0.002  0.000  0.000  0.998
  1.000  0.000  0.000  0.000  0.000
    occupations:
  0.488  0.000 -0.006  0.022  0.000
  0.000  0.943  0.000  0.000 -0.005
 -0.006  0.000  0.928  0.001  0.001
  0.022  0.000  0.001  0.992  0.000
  0.000 -0.005  0.001  0.000  0.481
   spin  2
    eigenvalues:
  0.060  0.068  0.076  0.187  0.280
    eigenvectors:
  0.016  0.000  0.000  0.984  0.000
  0.000  0.000  1.000  0.000  0.000
  0.001  0.999  0.000  0.000  0.000
  0.983  0.001  0.000  0.016  0.000
  0.000  0.000  0.000  0.000  1.000
    occupations:
  0.185  0.000  0.000 -0.016  0.000
  0.000  0.076  0.000  0.000  0.003
  0.000  0.000  0.068  0.000  0.000
 -0.016  0.000  0.000  0.062  0.000
  0.000  0.003  0.000  0.000  0.280
atomic mag. moment =     3.158596
atom   16   Tr[ns(na)] (up, down, total) =   3.77531  0.75147  4.52679
   spin  1
    eigenvalues:
  0.440  0.494  0.885  0.963  0.994
    eigenvectors:
  0.000  0.257  0.001  0.000  0.743
  0.999  0.000  0.000  0.000  0.000
  0.000  0.000  0.999  0.000  0.000
  0.000  0.743  0.000  0.000  0.257
  0.000  0.000  0.000  1.000  0.000
    occupations:
  0.865 -0.001  0.000 -0.218  0.000
 -0.001  0.440  0.000  0.002 -0.005
  0.000  0.000  0.885 -0.005 -0.001
 -0.218  0.002 -0.005  0.622  0.000
  0.000 -0.005 -0.001  0.000  0.963
   spin  2
    eigenvalues:
  0.054  0.067  0.071  0.255  0.305
    eigenvectors:
  0.734  0.003  0.032  0.001  0.229
  0.000  0.001  0.000  0.996  0.003
  0.042  0.047  0.911  0.000  0.000
  0.223  0.001  0.007  0.002  0.768
  0.000  0.948  0.050  0.001  0.000
    occupations:
  0.112  0.001 -0.001  0.105  0.000
  0.001  0.254  0.000 -0.003  0.007
 -0.001  0.000  0.070  0.005 -0.001
  0.105 -0.003  0.005  0.247  0.000
  0.000  0.007 -0.001  0.000  0.068
atomic mag. moment =     3.023844
atom   17   Tr[ns(na)] (up, down, total) =   3.79700  0.73703  4.53403
   spin  1
    eigenvalues:
  0.466  0.492  0.912  0.935  0.992
    eigenvectors:
  0.000  0.997  0.000  0.001  0.002
  0.000  0.001  0.011  0.988  0.000
  0.000  0.000  0.989  0.011  0.000
  0.000  0.002  0.000  0.000  0.998
  1.000  0.000  0.000  0.000  0.000
    occupations:
  0.493 -0.015 -0.001  0.020  0.000
 -0.015  0.934  0.002  0.001  0.000
 -0.001  0.002  0.912  0.000  0.002
  0.020  0.001  0.000  0.991  0.000
  0.000  0.000  0.002  0.000  0.466
   spin  2
    eigenvalues:
  0.060  0.064  0.065  0.257  0.292
    eigenvectors:
  0.000  0.010  0.000  0.990  0.000
  0.053  0.091  0.854  0.001  0.000
  0.938  0.026  0.036  0.000  0.000
  0.008  0.872  0.110  0.009  0.000
  0.000  0.000  0.000  0.000  1.000
    occupations:
  0.255  0.006  0.001 -0.019  0.000
  0.006  0.065 -0.001  0.000  0.000
  0.001 -0.001  0.060  0.000  0.000
 -0.019  0.000  0.000  0.066  0.000
  0.000  0.000  0.000  0.000  0.292
atomic mag. moment =     3.059963
atom   22   Tr[ns(na)] (up, down, total) =   3.79357  0.78580  4.57937
   spin  1
    eigenvalues:
  0.506  0.521  0.842  0.930  0.995
    eigenvectors:
  0.004  0.221  0.000  0.000  0.775
  0.984  0.016  0.000  0.000  0.000
  0.000  0.000  0.986  0.014  0.000
  0.012  0.763  0.000  0.000  0.225
  0.000  0.000  0.014  0.986  0.000
    occupations:
  0.888  0.002  0.000 -0.198  0.000
  0.002  0.506  0.001  0.001  0.000
  0.000  0.001  0.843 -0.001  0.010
 -0.198  0.001 -0.001  0.627  0.001
  0.000  0.000  0.010  0.001  0.929
   spin  2
    eigenvalues:
  0.063  0.072  0.073  0.268  0.310
    eigenvectors:
  0.795  0.000  0.001  0.000  0.204
  0.000  0.000  0.000  0.999  0.001
  0.001  0.370  0.629  0.000  0.000
  0.204  0.000  0.000  0.000  0.796
  0.000  0.629  0.371  0.000  0.000
    occupations:
  0.114  0.000  0.001  0.099  0.000
  0.000  0.268  0.000  0.001  0.000
  0.001  0.000  0.073  0.002  0.000
  0.099  0.001  0.002  0.260  0.000
  0.000  0.000  0.000  0.000  0.072
atomic mag. moment =     3.007766
atom   23   Tr[ns(na)] (up, down, total) =   3.80215  0.69540  4.49754
   spin  1
    eigenvalues:
  0.422  0.478  0.954  0.958  0.990
    eigenvectors:
  0.995  0.000  0.004  0.000  0.002
  0.000  0.001  0.000  0.999  0.000
  0.004  0.000  0.996  0.000  0.000
  0.002  0.000  0.000  0.000  0.998
  0.000  0.999  0.000  0.001  0.000
    occupations:
  0.424  0.001  0.033  0.022  0.000
  0.001  0.958  0.000  0.000 -0.011
  0.033  0.000  0.952 -0.001 -0.001
  0.022  0.000 -0.001  0.989  0.000
  0.000 -0.011 -0.001  0.000  0.479
   spin  2
    eigenvalues:
  0.053  0.064  0.066  0.216  0.297
    eigenvectors:
  0.004  0.013  0.000  0.984  0.000
  0.000  0.000  1.000  0.000  0.000
  0.995  0.002  0.000  0.003  0.000
  0.001  0.985  0.000  0.013  0.000
  0.000  0.000  0.000  0.000  1.000
    occupations:
  0.213  0.000 -0.009 -0.017  0.000
  0.000  0.066  0.000  0.000  0.003
 -0.009  0.000  0.053  0.001  0.000
 -0.017  0.000  0.001  0.066  0.000
  0.000  0.003  0.000  0.000  0.297
atomic mag. moment =     3.106750
N of occupied +U levels =  36.2807445
 --- exit write_ns ---

 ------ SPIN UP ------------

[...]

 ------ SPIN DOWN ----------

[...]

          k = 0.2500-0.4682 0.0000 ( 27150 PWs)   bands (ev):

[...]

          k =-0.2500 0.2341 0.0000 ( 27132 PWs)   bands (ev):

   -71.1967 -71.0880 -71.0039 -70.9932 -70.9907 -70.9790 -70.9435 -70.9167
   -42.7045 -42.6397 -42.6092 -42.5872 -42.5454 -42.5054 -42.4978 -42.4691
   -42.4658 -42.4280 -42.3950 -42.3743 -42.3714 -42.3421 -42.3258 -42.3254
   -42.3096 -42.2817 -42.2763 -42.2739 -42.2684 -42.2383 -42.1995 -42.1579
   -25.8521 -20.3699 -20.0632 -19.7507 -19.6995 -19.5182 -19.4322 -19.3963
   -19.3785 -19.1839 -19.1419 -19.1149 -19.0487 -18.9534 -18.8727 -18.8509
   -18.7723 -18.7405 -18.6728 -18.1424 -10.1102  -8.3816  -7.7132  -7.5304
    -7.4322  -7.1243  -6.9556  -6.8282  -6.5893  -6.4627  -6.3674  -6.1768
    -6.1319  -5.9471  -5.9146  -5.8544  -5.8135  -5.7358  -5.6368  -5.5899
    -5.2860  -5.2348  -5.1507  -5.1075  -4.9542  -4.8809  -4.8538  -4.8072
    -4.6633  -4.5781  -4.5339  -4.4819  -4.4612  -4.4303  -4.3422  -4.2816
    -4.2085  -4.1723  -4.0944  -4.0344  -3.8889  -3.8014  -3.7282  -3.6011
    -3.5407  -3.4598  -3.3896  -3.3539  -3.3155  -3.2638  -3.2207  -3.1742
    -3.1209  -3.0668  -2.9701  -2.9131  -2.7999  -2.7462  -2.6269   2.6712
     3.2049   3.4891   3.7975   3.8098   3.8885   3.8919   3.9791   4.0292
     4.0425   4.0607   4.0972   4.1264   4.1499   4.2243   4.2529   4.3340
     4.3759   4.4217   4.4618   4.5572   4.5917   4.6124   4.6612   4.7079
     4.7388   4.7733   4.8519   4.8995   4.9108   4.9471   4.9819   5.0379
     5.0895   5.0988   5.1411   5.2122   5.2151   5.2672   5.3512   5.3853
     5.4382   5.4844   5.5363   5.5784   5.6419   5.6612   5.7530   6.1327
     6.2448   6.3963   6.5231   6.6017   6.8409   6.9770   7.1604   7.4093
     7.6271   7.7780   7.9520   8.1408   8.2017   8.3103   8.4464   8.6260
     8.6997   8.9702   9.0667   9.2444   9.3268   9.5222   9.5462   9.6656
     9.8276   9.8934   9.9972  10.0155  10.1493  10.2594  10.4026  10.4669
    10.5709  10.6353  10.7697  10.8539  10.9975  11.1041  11.2261  11.3228
    11.3689  11.4717  11.5792  11.7267  11.7958  11.9213  12.0013  12.0312
    12.1062  12.2001  12.2585  12.3352  12.4024  12.5157  12.6038  12.6899
    12.7546  12.8199  12.9716  13.0108  13.1652  13.2291  13.2648  13.3416
    13.3888  13.4501  13.5082  13.6559  13.7127  13.8591  13.8909  13.9405
    14.0333  14.0714  14.2002  14.2751  14.3554  14.3719  14.4643  14.5876
    14.6045  14.8039  14.8989  14.9247  15.0041  15.0437  15.1097  15.1604
    15.2707  15.3180  15.3952  15.5357  15.6359  15.6921  15.7532  15.8144
    15.8368  15.9054  16.0015  16.0981  16.1229  16.2469  16.2808  16.3615
    16.4003  16.4712  16.5441  16.6205  16.6801  16.7413  16.8998  16.9481
    17.0057  17.1006  17.2080  17.2150  17.2778  17.3481  17.4140  17.4597
    17.4952  17.5472  17.6212  17.7260  17.8143  17.8661  17.9546  18.0248
    18.0856  18.1337  18.1903  18.2846  18.3732  18.4264  18.4689  18.5574
    18.6070  18.7275  18.7963  18.8808  18.9264  19.0010  19.0402  19.0798
    19.1489  19.2509  19.3399  19.3986  19.4636  19.5179  19.5635  19.6718
    19.7566  19.8402  19.8927  19.9257  20.0923  20.2155  20.2600  20.3034
    20.3791  20.3816  20.4919  20.5976  20.6798  20.8146  20.8865  20.9073
    21.0131  21.1128  21.2285  21.2549  21.3405  21.4188  21.4478  21.4752
    21.6273  21.6879  21.7639  21.8699  21.9300  21.9772  22.0164

     the spin up/dw Fermi energies are    -1.5591   -1.6920 ev

!    total energy              =   -2055.65804202 Ry
     Harris-Foulkes estimate   =   -2055.65804202 Ry
     estimated scf accuracy    <          6.7E-09 Ry

     The total energy is the sum of the following terms:

     one-electron contribution =  -23806.95165857 Ry
     hartree contribution      =   11933.48214594 Ry
     xc contribution           =    -330.65580478 Ry
     ewald contribution        =   10145.76281639 Ry
     Hubbard energy            =       2.70467451 Ry
     smearing contrib. (-TS)   =      -0.00021550 Ry

     total magnetization       =    15.00 Bohr mag/cell
     absolute magnetization    =    33.67 Bohr mag/cell

     convergence has been achieved in  26 iterations

     Forces acting on atoms (Ry/au):

     negative rho (up, down):  0.563E-02 0.159E-02
     atom    1 type  1   force =    -0.00298740   -0.00952905    0.00008757
     atom    2 type  1   force =     0.00001743    0.00376842   -0.00036783
     atom    3 type  2   force =     0.01415392    0.00233744    0.00019174
     atom    4 type  2   force =     0.00332396    0.00499739   -0.00026623
     atom    5 type  1   force =     0.00138842    0.00712376   -0.00002180
     atom    6 type  1   force =     0.00004594   -0.00600290   -0.00014977
     atom    7 type  1   force =     0.00016970   -0.00347542    0.00002046
     atom    8 type  1   force =    -0.00105660    0.00128521   -0.00005742
     atom    9 type  2   force =    -0.00119252    0.00112257    0.00088312
     atom   10 type  2   force =     0.00032199   -0.00445205   -0.00042830
     atom   11 type  1   force =    -0.02123399   -0.02756972   -0.00023889
     atom   12 type  1   force =    -0.01891733    0.03395745    0.00005589
     atom   13 type  1   force =    -0.00024836   -0.00140631   -0.00014818
     atom   14 type  1   force =    -0.00315768   -0.00976263    0.00025101
     atom   15 type  1   force =     0.00010439    0.00438116   -0.00017174
     atom   16 type  2   force =    -0.01464821    0.00253748    0.00009322
     atom   17 type  2   force =     0.00340456    0.00495306   -0.00036448
     atom   18 type  1   force =     0.00084833    0.00706187   -0.00003014
     atom   19 type  1   force =    -0.00061768   -0.00600131   -0.00012153
     atom   20 type  1   force =    -0.00023120   -0.00543324    0.00043000
     atom   21 type  1   force =    -0.00105250    0.00090730   -0.00008060
     atom   22 type  2   force =     0.00225352    0.00070878    0.00004969
     atom   23 type  2   force =    -0.00017349   -0.00295110    0.00069079
     atom   24 type  1   force =     0.02070502   -0.02719693    0.00033724
     atom   25 type  1   force =     0.01901508    0.03373986    0.00060610
     atom   26 type  1   force =    -0.00018577   -0.00443223   -0.00035668
     atom   27 type  3   force =    -0.00004839   -0.00015975   -0.00075839
     atom   28 type  3   force =    -0.00003871   -0.00024959   -0.00081643
     atom   29 type  3   force =     0.00001306   -0.00026189    0.00016564
     atom   30 type  3   force =    -0.00007421   -0.00026241    0.00014810
     atom   31 type  1   force =     0.00006853   -0.00020398    0.00004483
     atom   32 type  1   force =     0.00006902   -0.00008250    0.00037394
     atom   33 type  3   force =    -0.00003881    0.00055126   -0.00005094

     Total force =     0.002208     Total SCF correction =     0.000219

     bfgs converged in  16 scf cycles and  15 bfgs steps
     (criteria: energy < 0.10E-03, force < 0.10E-02)

     End of BFGS Geometry Optimization

     Final energy   =   -2055.6580420192 Ry
Begin final coordinates

ATOMIC_POSITIONS (crystal)
O0       0.000000000   0.000000000   0.372594434    0   0   1
O0       0.000000000   0.500000000   0.393818409    0   0   1
Cr1      0.250000000   0.500000000   0.446760084    0   0   1
Cr1      0.000000000   0.000000000   0.448862977    0   0   1
O0       0.250000000   0.800000000   0.447533632    0   0   1
O0       0.250000000   0.200000000   0.447615206    0   0   1
O0       0.000000000   0.500000000   0.496810468    0   0   1
O0       0.000000000   0.000000000   0.525714565    0   0   1
Cr1      0.250000000   0.000000000   0.577422409    0   0   1
Cr1      0.000000000   0.500000000   0.568438085    0   0   1
O0       0.250000000   0.700000000   0.577831186    0   0   1
O0       0.250000000   0.300000000   0.579085123    0   0   1
O0       0.000000000   0.000000000   0.627021291    0   0   1
O0       0.500000000   0.000000000   0.372221190    0   0   1
O0       0.500000000   0.500000000   0.393892894    0   0   1
Cr1      0.750000000   0.500000000   0.446765614    0   0   1
Cr1      0.500000000   0.000000000   0.448453433    0   0   1
O0       0.750000000   0.800000000   0.447555879    0   0   1
O0       0.750000000   0.200000000   0.447611353    0   0   1
O0       0.500000000   0.500000000   0.499062080    0   0   1
O0       0.500000000   0.000000000   0.525575100    0   0   1
Cr1      0.750000000   0.000000000   0.577498529    0   0   1
Cr1      0.500000000   0.500000000   0.576265624    0   0   1
O0       0.750000000   0.700000000   0.577662377    0   0   1
O0       0.750000000   0.300000000   0.578936399    0   0   1
O0       0.500000000   0.000000000   0.626732688    0   0   1
H2      -0.000600096   0.638097924   0.374928512
H2       0.499435817   0.638521123   0.375151204
H2       0.159273559   0.027777933   0.360319992
H2       0.659343810   0.027894022   0.360036968
O0       0.499860000   0.557409365   0.656099380    0   1   1
O0       0.500220000   0.374268291   0.685723026    0   1   1
H2       0.499890000   0.434982669   0.720769892    0   1   1
End final coordinates

     General routines

     Parallel routines
     Hubbard U routines

   This run was terminated on:  20:50:59  14Aug2014

   JOB DONE.
mv: inter-device move failed: `/scratch/1087942.gilgamesh.cheme.cmu.edu/pwscf.save' to `./pwscf.save'; unable to remove target: Is a directory