     Program PWSCF v.5.0.2 (svn rev. 9656) starts on  6May2014 at  4: 6:29

     Current dimensions of program PWSCF are:
     Max number of different atomic species (ntypx) = 10
     Max number of k-points (npk) =  40000
     Max angular momentum in pseudopotentials (lmaxx) =  3
     Reading input from pwscf.in
Warning: card &CELL ignored
Warning: card / ignored

     Subspace diagonalization in iterative solution of the eigenvalue problem:
     a serial algorithm will be used

     bravais-lattice index     =            0
     lattice parameter (alat)  =      11.7919  a.u.
     unit-cell volume          =    7123.6633 (a.u.)^3
     number of atoms/cell      =           30
     number of atomic types    =            3
     number of electrons       =       240.00
     number of Kohn-Sham states=          348
     kinetic-energy cutoff     =      40.0000  Ry
     charge density cutoff     =     500.0000  Ry
     convergence threshold     =      1.0E-06
     mixing beta               =       0.7000
     number of iterations used =            8  plain     mixing
     Exchange-correlation      = SLA  PW   PBE  PBE ( 1 4 3 4 0)
     EXX-fraction              =        0.00
     nstep                     =           50

     celldm(1)=  11.791891  celldm(2)=   0.000000  celldm(3)=   0.000000
     celldm(4)=   0.000000  celldm(5)=   0.000000  celldm(6)=   0.000000

     crystal axes: (cart. coord. in units of alat)
               a(1) = (   1.000000   0.000000   0.000000 )
               a(2) = (   0.000000   1.026665   0.000000 )
               a(3) = (   0.000000   0.000000   4.231793 )

     reciprocal axes: (cart. coord. in units 2 pi/alat)
               b(1) = (  1.000000  0.000000  0.000000 )
               b(2) = (  0.000000  0.974028  0.000000 )
               b(3) = (  0.000000  0.000000  0.236306 )

     PseudoPot. # 1 for O  read from file:
     /home/camp/zhonxu/pseudo/o_pbe_v1.01.uspp.F.UPF
     MD5 check sum: 2bcb18d16ea4b960afae9ec6d52f22d2
     Pseudo is Ultrasoft + core correction, Zval =  6.0
     Generated by new atomic code, or converted to UPF format
     Using radial grid of  737 points,  5 beta functions with:
                l(1) =   0
                l(2) =   0
                l(3) =   1
                l(4) =   1
                l(5) =   2
     Q(r) pseudized with  8 coefficients,  rinner =    0.900   0.900   0.900
                                                       0.900   0.900

     PseudoPot. # 2 for Ru read from file:
     /home/camp/zhonxu/pseudo/ru_pbe_v1.uspp.F.UPF
     MD5 check sum: df00be1c11b23341d9806d8f1dfa10cf
     Pseudo is Ultrasoft + core correction, Zval = 16.0
     Generated by new atomic code, or converted to UPF format
     Using radial grid of  967 points,  6 beta functions with:
                l(1) =   0
                l(2) =   0
                l(3) =   1
                l(4) =   1
                l(5) =   2
                l(6) =   2
     Q(r) pseudized with  8 coefficients,  rinner =    1.300   1.300   1.300
                                                       1.300   1.300

     PseudoPot. # 3 for H  read from file:
     /home/camp/zhonxu/pseudo/h_pbe_v1.uspp.F.UPF
     MD5 check sum: 3408e3ff4ec8b0a4e358431e7e038a48
     Pseudo is Ultrasoft, Zval =  1.0
     Generated by new atomic code, or converted to UPF format
     Using radial grid of  615 points,  2 beta functions with:
                l(1) =   0
                l(2) =   0
     Q(r) pseudized with  8 coefficients,  rinner =    0.700

     atomic species   valence    mass     pseudopotential
        O0             6.00    15.99940     O ( 1.00)
        Ru1           16.00   101.07000     Ru( 1.00)
        H2             1.00     1.00794     H ( 1.00)

     Simplified LDA+U calculation (l_max = 2) with parameters (eV):
     atomic species    L          U    alpha       J0     beta
        Ru1            2     1.5000   0.0000   0.0000   0.0000

     No symmetry found

   Cartesian axes

     site n.     atom                  positions (alat units)
         1           O0  tau(   1) = (   0.0000000   0.0000000   1.6080390  )
         2           O0  tau(   2) = (   0.0000000   0.5133323   1.7023233  )
         3           Ru1 tau(   3) = (   0.2500000   0.5133323   1.9175523  )
         4           Ru1 tau(   4) = (   0.0000000   0.0000000   1.9215302  )
         5           O0  tau(   5) = (   0.2500000   0.8315984   1.9195836  )
         6           O0  tau(   6) = (   0.2500000   0.1950663   1.9193297  )
         7           O0  tau(   7) = (   0.0000000   0.5133323   2.1106490  )
         8           O0  tau(   8) = (   0.0000000   0.0000000   2.2345136  )
         9           Ru1 tau(   9) = (   0.2500000   0.0000000   2.4487269  )
        10           Ru1 tau(  10) = (   0.0000000   0.5133323   2.4113179  )
        11           O0  tau(  11) = (   0.2500000   0.7083986   2.4387399  )
        12           O0  tau(  12) = (   0.2500000   0.3182660   2.4402210  )
        13           O0  tau(  13) = (   0.0000000   0.0000000   2.6238385  )
        14           O0  tau(  14) = (   0.5000000   0.0000000   1.6080390  )
        15           O0  tau(  15) = (   0.5000000   0.5133323   1.7023233  )
        16           Ru1 tau(  16) = (   0.7500000   0.5133323   1.9175523  )
        17           Ru1 tau(  17) = (   0.5000000   0.0000000   1.9215302  )
        18           O0  tau(  18) = (   0.7500000   0.8315984   1.9195836  )
        19           O0  tau(  19) = (   0.7500000   0.1950663   1.9193297  )
        20           O0  tau(  20) = (   0.5000000   0.5133323   2.1106490  )
        21           O0  tau(  21) = (   0.5000000   0.0000000   2.2345136  )
        22           Ru1 tau(  22) = (   0.7500000   0.0000000   2.4487269  )
        23           Ru1 tau(  23) = (   0.5000000   0.5133323   2.4113179  )
        24           O0  tau(  24) = (   0.7500000   0.7083986   2.4387399  )
        25           O0  tau(  25) = (   0.7500000   0.3182660   2.4401787  )
        26           O0  tau(  26) = (   0.5000000   0.0000000   2.6238385  )
        27           H2  tau(  27) = (  -0.0004100   0.6466653   1.6162063  )
        28           H2  tau(  28) = (   0.4995900   0.6466653   1.6162063  )
        29           H2  tau(  29) = (   0.1464700   0.0296706   1.5559879  )
        30           H2  tau(  30) = (   0.6464700   0.0296706   1.5559879  )

     number of k points=    10  Methfessel-Paxton smearing, width (Ry)=  0.0100
                       cart. coord. in units 2pi/alat
        k(    1) = (   0.0000000   0.0000000   0.0000000), wk =   0.1250000
        k(    2) = (   0.0000000   0.2435070   0.0000000), wk =   0.2500000
        k(    3) = (   0.0000000  -0.4870139   0.0000000), wk =   0.1250000
        k(    4) = (   0.2500000   0.0000000   0.0000000), wk =   0.2500000
        k(    5) = (   0.2500000   0.2435070   0.0000000), wk =   0.2500000
        k(    6) = (   0.2500000  -0.4870139   0.0000000), wk =   0.2500000
        k(    7) = (  -0.5000000   0.0000000   0.0000000), wk =   0.1250000
        k(    8) = (  -0.5000000   0.2435070   0.0000000), wk =   0.2500000
        k(    9) = (  -0.5000000  -0.4870139   0.0000000), wk =   0.1250000
        k(   10) = (  -0.2500000   0.2435070   0.0000000), wk =   0.2500000

     Largest allocated arrays     est. size (Mb)     dimensions
     Largest temporary arrays     est. size (Mb)     dimensions

     Check: negative/imaginary core charge=   -0.000003    0.000000

     Initial potential from superposition of free atoms
     Check: negative starting charge=   -0.522083

     starting charge  231.99981, renormalised to  240.00000

     negative rho (up, down):  0.540E+00 0.000E+00
     Number of +U iterations with fixed ns =  0
     Starting occupations:
 --- enter write_ns ---
 LDA+U parameters:
U( 2)     =  1.50000000
alpha( 2) =  0.00000000
atom    3   Tr[ns(na)] =   6.00000
    eigenvalues:
  0.600  0.600  0.600  0.600  0.600
    eigenvectors:
  1.000  0.000  0.000  0.000  0.000
  0.000  1.000  0.000  0.000  0.000
  0.000  0.000  1.000  0.000  0.000
  0.000  0.000  0.000  1.000  0.000
  0.000  0.000  0.000  0.000  1.000
    occupations:
  0.600  0.000  0.000  0.000  0.000
  0.000  0.600  0.000  0.000  0.000
  0.000  0.000  0.600  0.000  0.000
  0.000  0.000  0.000  0.600  0.000
  0.000  0.000  0.000  0.000  0.600
atom    4   Tr[ns(na)] =   6.00000
    eigenvalues:
  0.600  0.600  0.600  0.600  0.600
    eigenvectors:
  1.000  0.000  0.000  0.000  0.000
  0.000  1.000  0.000  0.000  0.000
  0.000  0.000  1.000  0.000  0.000
  0.000  0.000  0.000  1.000  0.000
  0.000  0.000  0.000  0.000  1.000
    occupations:
  0.600  0.000  0.000  0.000  0.000
  0.000  0.600  0.000  0.000  0.000
  0.000  0.000  0.600  0.000  0.000
  0.000  0.000  0.000  0.600  0.000
  0.000  0.000  0.000  0.000  0.600
atom    9   Tr[ns(na)] =   6.00000
    eigenvalues:
  0.600  0.600  0.600  0.600  0.600
    eigenvectors:
  1.000  0.000  0.000  0.000  0.000
  0.000  1.000  0.000  0.000  0.000
  0.000  0.000  1.000  0.000  0.000
  0.000  0.000  0.000  1.000  0.000
  0.000  0.000  0.000  0.000  1.000
    occupations:
  0.600  0.000  0.000  0.000  0.000
  0.000  0.600  0.000  0.000  0.000
  0.000  0.000  0.600  0.000  0.000
  0.000  0.000  0.000  0.600  0.000
  0.000  0.000  0.000  0.000  0.600
atom   10   Tr[ns(na)] =   6.00000
    eigenvalues:
  0.600  0.600  0.600  0.600  0.600
    eigenvectors:
  1.000  0.000  0.000  0.000  0.000
  0.000  1.000  0.000  0.000  0.000
  0.000  0.000  1.000  0.000  0.000
  0.000  0.000  0.000  1.000  0.000
  0.000  0.000  0.000  0.000  1.000
    occupations:
  0.600  0.000  0.000  0.000  0.000
  0.000  0.600  0.000  0.000  0.000
  0.000  0.000  0.600  0.000  0.000
  0.000  0.000  0.000  0.600  0.000
  0.000  0.000  0.000  0.000  0.600
atom   16   Tr[ns(na)] =   6.00000
    eigenvalues:
  0.600  0.600  0.600  0.600  0.600
    eigenvectors:
  1.000  0.000  0.000  0.000  0.000
  0.000  1.000  0.000  0.000  0.000
  0.000  0.000  1.000  0.000  0.000
  0.000  0.000  0.000  1.000  0.000
  0.000  0.000  0.000  0.000  1.000
    occupations:
  0.600  0.000  0.000  0.000  0.000
  0.000  0.600  0.000  0.000  0.000
  0.000  0.000  0.600  0.000  0.000
  0.000  0.000  0.000  0.600  0.000
  0.000  0.000  0.000  0.000  0.600
atom   17   Tr[ns(na)] =   6.00000
    eigenvalues:
  0.600  0.600  0.600  0.600  0.600
    eigenvectors:
  1.000  0.000  0.000  0.000  0.000
  0.000  1.000  0.000  0.000  0.000
  0.000  0.000  1.000  0.000  0.000
  0.000  0.000  0.000  1.000  0.000
  0.000  0.000  0.000  0.000  1.000
    occupations:
  0.600  0.000  0.000  0.000  0.000
  0.000  0.600  0.000  0.000  0.000
  0.000  0.000  0.600  0.000  0.000
  0.000  0.000  0.000  0.600  0.000
  0.000  0.000  0.000  0.000  0.600
atom   22   Tr[ns(na)] =   6.00000
    eigenvalues:
  0.600  0.600  0.600  0.600  0.600
    eigenvectors:
  1.000  0.000  0.000  0.000  0.000
  0.000  1.000  0.000  0.000  0.000
  0.000  0.000  1.000  0.000  0.000
  0.000  0.000  0.000  1.000  0.000
  0.000  0.000  0.000  0.000  1.000
    occupations:
  0.600  0.000  0.000  0.000  0.000
  0.000  0.600  0.000  0.000  0.000
  0.000  0.000  0.600  0.000  0.000
  0.000  0.000  0.000  0.600  0.000
[...]
 -0.000  0.013  0.679  0.002  0.000
  0.038 -0.001  0.002  0.967  0.000
  0.001 -0.001  0.000  0.000  0.557
atom    9   Tr[ns(na)] =   7.15797
    eigenvalues:
  0.578  0.596  0.757  0.822  0.825
    eigenvectors:
  0.000  0.142  0.001  0.449  0.409
  1.000  0.000  0.000  0.000  0.000
  0.000  0.000  0.999  0.000  0.000
  0.000  0.858  0.000  0.074  0.068
  0.000  0.000  0.000  0.477  0.523
    occupations:
  0.791  0.000 -0.002 -0.079  0.001
  0.000  0.578  0.001  0.000  0.000
 -0.002  0.001  0.757  0.000  0.000
 -0.079  0.000  0.000  0.628 -0.001
  0.001  0.000  0.000 -0.001  0.824
atom   10   Tr[ns(na)] =   7.20130
    eigenvalues:
  0.540  0.544  0.759  0.817  0.940
    eigenvectors:
  0.000  0.990  0.000  0.000  0.010
  0.000  0.000  0.000  1.000  0.000
  0.000  0.000  1.000  0.000  0.000
  0.000  0.010  0.000  0.000  0.990
  1.000  0.000  0.000  0.000  0.000
    occupations:
  0.548  0.000 -0.000  0.039  0.000
  0.000  0.817  0.000  0.000 -0.001
 -0.000  0.000  0.759 -0.002 -0.000
  0.039  0.000 -0.002  0.936 -0.000
  0.000 -0.001 -0.000 -0.000  0.540
atom   16   Tr[ns(na)] =   7.19645
    eigenvalues:
  0.521  0.565  0.734  0.830  0.949
    eigenvectors:
  0.000  0.195  0.007  0.000  0.798
  1.000  0.000  0.000  0.000  0.000
  0.000  0.000  0.990  0.000  0.010
  0.000  0.805  0.003  0.000  0.192
  0.000  0.000  0.000  1.000  0.000
    occupations:
  0.872  0.000  0.020 -0.151 -0.000
  0.000  0.521 -0.000 -0.000 -0.003
  0.020 -0.000  0.736 -0.007  0.000
 -0.151 -0.000 -0.007  0.639  0.000
 -0.000 -0.003  0.000  0.000  0.830
atom   17   Tr[ns(na)] =   7.17442
    eigenvalues:
  0.557  0.603  0.677  0.779  0.971
    eigenvectors:
  0.000  0.989  0.000  0.000  0.011
  0.000  0.000  0.017  0.982  0.000
  0.000  0.000  0.982  0.017  0.000
  0.000  0.011  0.000  0.000  0.989
  1.000  0.000  0.000  0.000  0.000
    occupations:
  0.607 -0.001 -0.000  0.038  0.001
 -0.001  0.777  0.013 -0.001 -0.001
 -0.000  0.013  0.679  0.002  0.000
  0.038 -0.001  0.002  0.967  0.000
  0.001 -0.001  0.000  0.000  0.557
atom   22   Tr[ns(na)] =   7.15693
    eigenvalues:
  0.578  0.596  0.757  0.822  0.825
    eigenvectors:
  0.000  0.142  0.001  0.458  0.399
  1.000  0.000  0.000  0.000  0.000
  0.000  0.000  0.999  0.000  0.000
  0.000  0.858  0.000  0.076  0.066
  0.000  0.000  0.000  0.466  0.534
    occupations:
  0.791  0.000 -0.002 -0.079  0.001
  0.000  0.578  0.001  0.000  0.000
 -0.002  0.001  0.757  0.000  0.000
 -0.079  0.000  0.000  0.628 -0.001
  0.001  0.000  0.000 -0.001  0.824
atom   23   Tr[ns(na)] =   7.20079
    eigenvalues:
  0.540  0.544  0.759  0.817  0.940
    eigenvectors:
  0.000  0.990  0.000  0.000  0.010
  0.000  0.000  0.000  1.000  0.000
  0.000  0.000  1.000  0.000  0.000
  0.000  0.010  0.000  0.000  0.990
  1.000  0.000  0.000  0.000  0.000
    occupations:
  0.548  0.000 -0.000  0.039  0.000
  0.000  0.817  0.000  0.000 -0.001
 -0.000  0.000  0.759 -0.002 -0.000
  0.039  0.000 -0.002  0.936 -0.000
  0.000 -0.001 -0.000 -0.000  0.540
N of occupied +U levels =  57.4594301
 --- exit write_ns ---

     Threshold (ethr) on eigenvalues was too large:
     Diagonalizing with lowered threshold

     Davidson diagonalization with overlap
     ethr =  2.73E-08,  avg # of iterations =  2.0

[...]

     total energy              =   -2130.50566136 Ry
     Harris-Foulkes estimate   =   -2130.50566136 Ry
     estimated scf accuracy    <       0.00000001 Ry

     iteration # 18     ecut=    40.00 Ry     beta=0.70
     Davidson diagonalization with overlap
     ethr =  4.92E-12,  avg # of iterations =  1.0

     negative rho (up, down):  0.574E+00 0.000E+00

     End of self-consistent calculation
 --- enter write_ns ---
 LDA+U parameters:
U( 2)     =  1.50000000
alpha( 2) =  0.00000000
atom    3   Tr[ns(na)] =   7.19822
    eigenvalues:
  0.521  0.565  0.734  0.831  0.949
    eigenvectors:
  0.000  0.195  0.007  0.000  0.798
  1.000  0.000  0.000  0.000  0.000
  0.000  0.000  0.990  0.000  0.010
  0.000  0.805  0.003  0.000  0.192
  0.000  0.000  0.000  1.000  0.000
    occupations:
  0.873  0.000  0.020 -0.151 -0.000
  0.000  0.521 -0.000 -0.000 -0.003
  0.020 -0.000  0.736 -0.007  0.000
 -0.151 -0.000 -0.007  0.639  0.000
 -0.000 -0.003  0.000  0.000  0.831
atom    4   Tr[ns(na)] =   7.17358
    eigenvalues:
  0.556  0.603  0.677  0.779  0.971
    eigenvectors:
  0.000  0.989  0.000  0.000  0.011
  0.000  0.000  0.017  0.983  0.000
  0.000  0.000  0.983  0.017  0.000
  0.000  0.011  0.000  0.000  0.989
  1.000  0.000  0.000  0.000  0.000
    occupations:
  0.607 -0.001 -0.000  0.038  0.001
 -0.001  0.777  0.013 -0.001 -0.001
 -0.000  0.013  0.679  0.002  0.000
  0.038 -0.001  0.002  0.967  0.000
  0.001 -0.001  0.000  0.000  0.556
atom    9   Tr[ns(na)] =   7.15920
    eigenvalues:
  0.578  0.596  0.757  0.822  0.826
    eigenvectors:
  0.000  0.141  0.001  0.423  0.435
  1.000  0.000  0.000  0.000  0.000
  0.000  0.000  0.999  0.000  0.000
  0.000  0.858  0.000  0.070  0.072
  0.000  0.000  0.000  0.507  0.493
    occupations:
  0.792  0.000 -0.002 -0.079  0.001
  0.000  0.578  0.001  0.000  0.000
 -0.002  0.001  0.757  0.000  0.000
 -0.079  0.000  0.000  0.628 -0.001
  0.001  0.000  0.000 -0.001  0.824
atom   10   Tr[ns(na)] =   7.19837
    eigenvalues:
  0.540  0.544  0.759  0.816  0.940
    eigenvectors:
  0.000  0.990  0.000  0.000  0.010
  0.000  0.000  0.000  1.000  0.000
  0.000  0.000  1.000  0.000  0.000
  0.000  0.010  0.000  0.000  0.990
  1.000  0.000  0.000  0.000  0.000
    occupations:
  0.548  0.000 -0.000  0.039  0.000
  0.000  0.816  0.000  0.000 -0.001
 -0.000  0.000  0.759 -0.002 -0.000
  0.039  0.000 -0.002  0.936 -0.000
  0.000 -0.001 -0.000 -0.000  0.540
atom   16   Tr[ns(na)] =   7.19818
    eigenvalues:
  0.521  0.565  0.734  0.831  0.949
    eigenvectors:
  0.000  0.195  0.007  0.000  0.798
  1.000  0.000  0.000  0.000  0.000
  0.000  0.000  0.990  0.000  0.010
  0.000  0.805  0.003  0.000  0.192
  0.000  0.000  0.000  1.000  0.000
    occupations:
  0.873  0.000  0.020 -0.151 -0.000
  0.000  0.521 -0.000 -0.000 -0.003
  0.020 -0.000  0.736 -0.007  0.000
 -0.151 -0.000 -0.007  0.639  0.000
 -0.000 -0.003  0.000  0.000  0.831
atom   17   Tr[ns(na)] =   7.17358
    eigenvalues:
  0.556  0.603  0.677  0.779  0.971
    eigenvectors:
  0.000  0.989  0.000  0.000  0.011
  0.000  0.000  0.017  0.983  0.000
  0.000  0.000  0.983  0.017  0.000
  0.000  0.011  0.000  0.000  0.989
  1.000  0.000  0.000  0.000  0.000
    occupations:
  0.607 -0.001 -0.000  0.038  0.001
 -0.001  0.777  0.013 -0.001 -0.001
 -0.000  0.013  0.679  0.002  0.000
  0.038 -0.001  0.002  0.967  0.000
  0.001 -0.001  0.000  0.000  0.556
atom   22   Tr[ns(na)] =   7.15910
    eigenvalues:
  0.578  0.596  0.757  0.822  0.826
    eigenvectors:
  0.000  0.141  0.001  0.422  0.435
  1.000  0.000  0.000  0.000  0.000
  0.000  0.000  0.999  0.000  0.000
  0.000  0.858  0.000  0.069  0.072
  0.000  0.000  0.000  0.508  0.492
    occupations:
  0.792  0.000 -0.002 -0.079  0.001
  0.000  0.578  0.001  0.000  0.000
 -0.002  0.001  0.757  0.000  0.000
 -0.079  0.000  0.000  0.628 -0.001
  0.001  0.000  0.000 -0.001  0.824
atom   23   Tr[ns(na)] =   7.19837
    eigenvalues:
  0.540  0.544  0.759  0.816  0.940
    eigenvectors:
  0.000  0.990  0.000  0.000  0.010
  0.000  0.000  0.000  1.000  0.000
  0.000  0.000  1.000  0.000  0.000
  0.000  0.010  0.000  0.000  0.990
  1.000  0.000  0.000  0.000  0.000
    occupations:
  0.548  0.000 -0.000  0.039  0.000
  0.000  0.816  0.000  0.000 -0.001
 -0.000  0.000  0.759 -0.002 -0.000
  0.039  0.000 -0.002  0.936 -0.000
  0.000 -0.001 -0.000 -0.000  0.540
N of occupied +U levels =  57.4585952
 --- exit write_ns ---

[...]

          k = 0.2500-0.4870 0.0000 ( 30468 PWs)   bands (ev):

[...]

          k =-0.2500 0.2435 0.0000 ( 30434 PWs)   bands (ev):

   -74.3987 -74.3910 -74.1938 -74.1865 -74.0350 -74.0275 -73.8813 -73.8741
   -44.5233 -44.4774 -44.4666 -44.3918 -44.3871 -44.3800 -44.3445 -44.3356
   -44.2987 -44.2786 -44.1381 -44.0759 -44.0590 -44.0381 -44.0241 -43.9654
   -43.9608 -43.9479 -43.8644 -43.8371 -43.8155 -43.7953 -43.7744 -43.7421
   -20.9073 -20.4784 -20.3982 -20.3535 -20.2114 -20.1020 -19.8221 -19.7723
   -19.6684 -19.5680 -19.5192 -19.4819 -19.2926 -19.2557 -19.2094 -19.0978
   -19.0486 -18.8474  -9.1328  -8.6188  -8.5180  -8.5121  -8.1830  -8.1473
    -7.9849  -7.9560  -7.9009  -7.7222  -7.6364  -7.6068  -7.5150  -7.4953
    -7.3687  -7.3686  -7.2283  -7.2013  -6.8166  -6.7222  -6.6990  -6.4790
    -6.3770  -6.1234  -5.9813  -5.8535  -5.8066  -5.5915  -5.5027  -5.4270
    -5.4210  -5.3192  -5.2719  -5.1620  -5.0371  -4.9895  -4.9099  -4.8754
    -4.7349  -4.7043  -4.5550  -4.4736  -4.2455  -4.2173  -4.1035  -4.0568
    -3.9550  -3.8473  -3.7609  -3.4772  -3.4600  -3.1424  -3.1082  -2.7378
    -2.2988  -2.2783  -2.0721  -1.8749  -1.8162  -1.7244  -1.6726  -1.6328
    -1.6188  -1.5495  -1.5035  -1.4244  -1.3833  -1.2424  -1.1814  -1.0258
    -0.7157  -0.5488  -0.5223  -0.3929  -0.3358  -0.1350  -0.0228   0.1646
     0.6549   0.8326   1.5591   1.7259   1.7509   2.2533   2.2991   2.6328
     2.8203   3.1086   3.2565   3.2697   3.3644   3.4694   3.7455   3.7858
     4.0654   4.3138   4.6685   5.0975   5.5468   5.7991   5.8570   5.9878
     6.1064   6.4034   6.5593   6.5735   6.7128   6.8934   6.9764   7.2028
     7.4844   7.5486   7.7790   7.9122   7.9371   8.2202   8.2635   8.3962
     8.4240   8.5086   8.7021   8.7323   8.8426   8.9937   9.1673   9.1960
     9.2669   9.4895   9.5000   9.7726   9.7963   9.9320   9.9686  10.0416
    10.1212  10.2822  10.3473  10.4273  10.4387  10.5880  10.6607  10.7526
    10.8383  10.8998  11.0138  11.1414  11.2828  11.3101  11.4445  11.5328
    11.5958  11.6540  11.6646  11.8125  11.8760  11.9862  12.0417  12.0653
    12.1658  12.2862  12.3762  12.4568  12.5009  12.5580  12.6639  12.6641
    12.7842  12.7842  12.9208  12.9400  12.9628  13.1304  13.2145  13.3392
    13.3507  13.4575  13.5474  13.6336  13.7075  13.7595  13.8576  13.9536
    13.9897  14.0404  14.1771  14.3182  14.3401  14.3868  14.5259  14.5367
    14.5801  14.7006  14.7620  14.8555  14.8728  15.0132  15.0404  15.1049
    15.2274  15.3576  15.5129  15.5520  15.6660  15.7098  15.7605  15.8380
    15.8403  15.9142  15.9377  15.9579  16.0311  16.0909  16.1584  16.1910
    16.2914  16.3899  16.4350  16.5405  16.6039  16.7149  16.7237  16.8091
    16.8394  16.8497  17.0050  17.0245  17.0780  17.2201  17.2505  17.3701
    17.4439  17.4901  17.4953  17.5784  17.5971  17.6216  17.7279  17.7758
    17.8652  17.8788  17.9963  18.0075  18.0757  18.1583  18.1730  18.3220
    18.3262  18.4548  18.5033  18.6113  18.6274  18.7474  18.7557  18.9033
    18.9954  19.0500  19.1261  19.1694  19.2557  19.2631  19.3513  19.4243
    19.4474  19.5702  19.6091  19.7760  19.8185  19.8572  19.9296  19.9579
    20.0227  20.2003  20.2190  20.3907  20.3908  20.5610  20.6424  20.6498
    20.7592  20.7691  20.8789  20.9046  20.9803  21.0413  21.0602  21.1238
    21.1945  21.2645  21.3335  21.3635  21.4041  21.4236  21.4812  21.6251
    21.6417  21.6637  21.7903  21.8211

     the Fermi energy is    -0.8662 ev

!    total energy              =   -2130.50566135 Ry
     Harris-Foulkes estimate   =   -2130.50566136 Ry
     estimated scf accuracy    <          4.4E-09 Ry

     The total energy is the sum of the following terms:

     one-electron contribution =  -24482.95571021 Ry
     hartree contribution      =   12262.27451676 Ry
     xc contribution           =    -330.71850821 Ry
     ewald contribution        =   10420.09287008 Ry
     Hubbard energy            =       0.80037048 Ry
     smearing contrib. (-TS)   =       0.00079974 Ry

     convergence has been achieved in  18 iterations

     Forces acting on atoms (Ry/au):

     negative rho (up, down):  0.574E+00 0.000E+00
     atom    1 type  1   force =    -0.00576538   -0.01105430   -0.00068948
     atom    2 type  1   force =    -0.00015407    0.00815457    0.00026259
     atom    3 type  2   force =    -0.00027782    0.00042996   -0.00065649
     atom    4 type  2   force =     0.00355304    0.00644147    0.00010642
     atom    5 type  1   force =     0.00160934   -0.02930842    0.00055168
     atom    6 type  1   force =     0.00098457    0.02925051    0.00059230
     atom    7 type  1   force =     0.00010564   -0.00195613    0.00053701
     atom    8 type  1   force =     0.00004636   -0.00120932    0.00034120
     atom    9 type  2   force =     0.00086625    0.00126475    0.00015445
     atom   10 type  2   force =     0.00006786    0.00007543   -0.00087679
     atom   11 type  1   force =    -0.00000364    0.00607681    0.00024918
     atom   12 type  1   force =    -0.00000874   -0.00725486    0.00019782
     atom   13 type  1   force =    -0.00167744   -0.00051368   -0.00061551
     atom   14 type  1   force =    -0.00575281   -0.01105260   -0.00068925
     atom   15 type  1   force =    -0.00014794    0.00815417    0.00026381
     atom   16 type  2   force =    -0.00027771    0.00043037   -0.00065062
     atom   17 type  2   force =     0.00355008    0.00644171    0.00010977
     atom   18 type  1   force =     0.00160744   -0.02931196    0.00055228
     atom   19 type  1   force =     0.00098239    0.02925404    0.00059385
     atom   20 type  1   force =     0.00011699   -0.00195631    0.00054413
     atom   21 type  1   force =     0.00007018   -0.00120913    0.00033389
     atom   22 type  2   force =     0.00088762    0.00126374    0.00017171
     atom   23 type  2   force =     0.00006713    0.00007558   -0.00088253
     atom   24 type  1   force =    -0.00000383    0.00608890    0.00025015
     atom   25 type  1   force =    -0.00000883   -0.00726579    0.00019602
     atom   26 type  1   force =    -0.00164400   -0.00051412   -0.00061902
     atom   27 type  3   force =    -0.00001448   -0.00055841   -0.00041494
     atom   28 type  3   force =    -0.00001409   -0.00055778   -0.00041528
     atom   29 type  3   force =     0.00062262    0.00016141    0.00024939
     atom   30 type  3   force =     0.00061326    0.00015941    0.00025227

     Total force =     0.002927     Total SCF correction =     0.000051

     bfgs converged in   7 scf cycles and   6 bfgs steps
     (criteria: energy < 0.10E-03, force < 0.10E-02)

     End of BFGS Geometry Optimization

     Final energy   =   -2130.5056613532 Ry
Begin final coordinates

ATOMIC_POSITIONS (crystal)
O0       0.000000000   0.000000000   0.380356224    0   0   1
O0       0.000000000   0.500000000   0.402666819    0   0   1
Ru1      0.250000000   0.500000000   0.453253274    0   0   1
Ru1      0.000000000   0.000000000   0.454209240    0   0   1
O0       0.250000000   0.810000000   0.453630733    0   0   1
O0       0.250000000   0.190000000   0.453551496    0   0   1
O0       0.000000000   0.500000000   0.499064397    0   0   1
O0       0.000000000   0.000000000   0.527748700    0   0   1
Ru1      0.250000000   0.000000000   0.578590414    0   0   1
Ru1      0.000000000   0.500000000   0.569674606    0   0   1
O0       0.250000000   0.690000000   0.575879902    0   0   1
O0       0.250000000   0.310000000   0.576159714    0   0   1
O0       0.000000000   0.000000000   0.620060948    0   0   1
O0       0.500000000   0.000000000   0.380356040    0   0   1
O0       0.500000000   0.500000000   0.402666760    0   0   1
Ru1      0.750000000   0.500000000   0.453253112    0   0   1
Ru1      0.500000000   0.000000000   0.454209207    0   0   1
O0       0.750000000   0.810000000   0.453630873    0   0   1
O0       0.750000000   0.190000000   0.453551498    0   0   1
O0       0.500000000   0.500000000   0.499064150    0   0   1
O0       0.500000000   0.000000000   0.527749226    0   0   1
Ru1      0.750000000   0.000000000   0.578589929    0   0   1
Ru1      0.500000000   0.500000000   0.569674752    0   0   1
O0       0.750000000   0.690000000   0.575879311    0   0   1
O0       0.750000000   0.310000000   0.576159596    0   0   1
O0       0.500000000   0.000000000   0.620059808    0   0   1
H2      -0.000436483   0.628144464   0.381762423
H2       0.499563014   0.628144551   0.381762411
H2       0.146121338   0.028919353   0.367827190
H2       0.646122546   0.028919927   0.367827245
End final coordinates

     General routines

     Parallel routines
     Hubbard U routines

   This run was terminated on:  11:26:26   6May2014

   JOB DONE.
Running PBS batch system epilogue script
Job id: 340777.audhumbla.fysik.dtu.dk
Username: zhonxu
Groupname: campgst
Jobname: RuO2/Eads-2-layers/bare-U-1.5
Sessionid: 19434
Queuename: verylong
Accounting:
This job has allocated the following 16 nodes:
b062 b062 b062 b062 b062 b062 b062 b062 b061 b061 b061 b061 b061 b061 b061 b061
Finished epilogue job 340777.audhumbla.fysik.dtu.dk for zhonxu