     Program PWSCF v.5.0.2 (svn rev. 9656) starts on 12May2014 at 20:31:56

     Current dimensions of program PWSCF are:
     Max number of different atomic species (ntypx) = 10
     Max number of k-points (npk) =  40000
     Max angular momentum in pseudopotentials (lmaxx) =  3
     Reading input from pwscf.in
Warning: card &CELL ignored
Warning: card / ignored

     Subspace diagonalization in iterative solution of the eigenvalue problem:
     a serial algorithm will be used

     bravais-lattice index     =            0
     lattice parameter (alat)  =      11.7541  a.u.
     unit-cell volume          =    7139.8207 (a.u.)^3
     number of atoms/cell      =           31
     number of atomic types    =            3
     number of electrons       =       238.00
     number of Kohn-Sham states=          357
     kinetic-energy cutoff     =      40.0000  Ry
     charge density cutoff     =     500.0000  Ry
     convergence threshold     =      1.0E-06
     mixing beta               =       0.3000
     number of iterations used =            8  plain     mixing
     Exchange-correlation      = SLA  PW   PBE  PBE ( 1 4 3 4 0)
     EXX-fraction              =        0.00
     nstep                     =           50

     celldm(1)=  11.754097  celldm(2)=   0.000000  celldm(3)=   0.000000
     celldm(4)=   0.000000  celldm(5)=   0.000000  celldm(6)=   0.000000

     crystal axes: (cart. coord. in units of alat)
               a(1) = (   1.000000   0.000000   0.000000 )
               a(2) = (   0.000000   1.034513   0.000000 )
               a(3) = (   0.000000   0.000000   4.249947 )

     reciprocal axes: (cart. coord. in units 2 pi/alat)
               b(1) = (  1.000000  0.000000  0.000000 )
               b(2) = (  0.000000  0.966638  0.000000 )
               b(3) = (  0.000000  0.000000  0.235297 )

     PseudoPot. # 1 for O  read from file:
     /home/camp/zhonxu/pseudo/o_pbe_v1.01.uspp.F.UPF
     MD5 check sum: 2bcb18d16ea4b960afae9ec6d52f22d2
     Pseudo is Ultrasoft + core correction, Zval =  6.0
     Generated by new atomic code, or converted to UPF format
     Using radial grid of  737 points,  5 beta functions with:
                l(1) =   0
                l(2) =   0
                l(3) =   1
                l(4) =   1
                l(5) =   2
     Q(r) pseudized with  8 coefficients,  rinner =    0.900   0.900   0.900
                                                       0.900   0.900

     PseudoPot. # 2 for Rh read from file:
     /home/camp/zhonxu/pseudo/rh_pbe_v1.uspp.F.UPF
     MD5 check sum: 37b626987ad0dd8ec6bf4cc9ef289918
     Pseudo is Ultrasoft + core correction, Zval = 15.0
     Generated by new atomic code, or converted to UPF format
     Using radial grid of  969 points,  7 beta functions with:
                l(1) =   0
                l(2) =   0
                l(3) =   1
                l(4) =   1
                l(5) =   2
                l(6) =   2
                l(7) =   2
     Q(r) pseudized with  6 coefficients,  rinner =    1.050   1.050   1.050
                                                       1.050   1.050

     PseudoPot. # 3 for H  read from file:
     /home/camp/zhonxu/pseudo/h_pbe_v1.uspp.F.UPF
     MD5 check sum: 3408e3ff4ec8b0a4e358431e7e038a48
     Pseudo is Ultrasoft, Zval =  1.0
     Generated by new atomic code, or converted to UPF format
     Using radial grid of  615 points,  2 beta functions with:
                l(1) =   0
                l(2) =   0
     Q(r) pseudized with  8 coefficients,  rinner =    0.700

     atomic species   valence    mass     pseudopotential
        O0             6.00    15.99940     O ( 1.00)
        Rh1           15.00   102.90550     Rh( 1.00)
        H2             1.00     1.00794     H ( 1.00)

     Simplified LDA+U calculation (l_max = 2) with parameters (eV):
     atomic species    L          U    alpha       J0     beta
        Rh1            2     4.0000   0.0000   0.0000   0.0000

     No symmetry found

   Cartesian axes

     site n.     atom                  positions (alat units)
         1           O0  tau(   1) = (   0.0000000   0.0000000   1.6064375  )
         2           O0  tau(   2) = (   0.0000000   0.5172566   1.7091588  )
         3           Rh1 tau(   3) = (   0.2500000   0.5172566   1.9262886  )
         4           Rh1 tau(   4) = (   0.0000000   0.0000000   1.9228036  )
         5           O0  tau(   5) = (   0.2500000   0.8379556   1.9220386  )
         6           O0  tau(   6) = (   0.2500000   0.1965575   1.9215286  )
         7           O0  tau(   7) = (   0.0000000   0.5172566   2.1200437  )
         8           O0  tau(   8) = (   0.0000000   0.0000000   2.2432071  )
         9           Rh1 tau(   9) = (   0.2500000   0.0000000   2.4439746  )
        10           Rh1 tau(  10) = (   0.0000000   0.5172566   2.4253174  )
        11           O0  tau(  11) = (   0.2500000   0.7138141   2.4432947  )
        12           O0  tau(  12) = (   0.2500000   0.3206991   2.4432097  )
        13           O0  tau(  13) = (   0.0000000   0.0000000   2.6356898  )
        14           O0  tau(  14) = (   0.5000000   0.0000000   1.6064375  )
        15           O0  tau(  15) = (   0.5000000   0.5172566   1.7079263  )
        16           Rh1 tau(  16) = (   0.7500000   0.5172566   1.9262886  )
        17           Rh1 tau(  17) = (   0.5000000   0.0000000   1.9227611  )
        18           O0  tau(  18) = (   0.7500000   0.8379556   1.9219536  )
        19           O0  tau(  19) = (   0.7500000   0.1965575   1.9216136  )
        20           O0  tau(  20) = (   0.5000000   0.5172566   2.1284161  )
        21           O0  tau(  21) = (   0.5000000   0.0000000   2.2423572  )
        22           Rh1 tau(  22) = (   0.7500000   0.0000000   2.4439321  )
        23           Rh1 tau(  23) = (   0.5000000   0.5172566   2.4652244  )
        24           O0  tau(  24) = (   0.7500000   0.7138141   2.4431672  )
        25           O0  tau(  25) = (   0.7500000   0.3206991   2.4432097  )
        26           O0  tau(  26) = (   0.5000000   0.0000000   2.6354348  )
        27           H2  tau(  27) = (  -0.0000700   0.6590056   1.6354222  )
        28           H2  tau(  28) = (   0.4999300   0.6605366   1.6368247  )
        29           H2  tau(  29) = (   0.1480800   0.0354838   1.5606656  )
        30           H2  tau(  30) = (   0.6481100   0.0354321   1.5605806  )
        31           O0  tau(  31) = (   0.5000800   0.5160462   2.7479734  )

     number of k points=    10  Methfessel-Paxton smearing, width (Ry)=  0.0100
                       cart. coord. in units 2pi/alat
        k(    1) = (   0.0000000   0.0000000   0.0000000), wk =   0.1250000
        k(    2) = (   0.0000000   0.2416596   0.0000000), wk =   0.2500000
        k(    3) = (   0.0000000  -0.4833191   0.0000000), wk =   0.1250000
        k(    4) = (   0.2500000   0.0000000   0.0000000), wk =   0.2500000
        k(    5) = (   0.2500000   0.2416596   0.0000000), wk =   0.2500000
        k(    6) = (   0.2500000  -0.4833191   0.0000000), wk =   0.2500000
        k(    7) = (  -0.5000000   0.0000000   0.0000000), wk =   0.1250000
        k(    8) = (  -0.5000000   0.2416596   0.0000000), wk =   0.2500000
        k(    9) = (  -0.5000000  -0.4833191   0.0000000), wk =   0.1250000
        k(   10) = (  -0.2500000   0.2416596   0.0000000), wk =   0.2500000

     Largest allocated arrays     est. size (Mb)     dimensions
     Largest temporary arrays     est. size (Mb)     dimensions

     Check: negative/imaginary core charge=   -0.000003    0.000000

     Initial potential from superposition of free atoms
     Check: negative starting charge=   -0.645358

     starting charge  233.99915, renormalised to  238.00000

     negative rho (up, down):  0.656E+00 0.000E+00
     Number of +U iterations with fixed ns =  0
     Starting occupations:
 --- enter write_ns ---
 LDA+U parameters:
U( 2)     =  4.00000000
alpha( 2) =  0.00000000
atom    3   Tr[ns(na)] =   7.00000
    eigenvalues:
  0.700  0.700  0.700  0.700  0.700
    eigenvectors:
  1.000  0.000  0.000  0.000  0.000
  0.000  1.000  0.000  0.000  0.000
  0.000  0.000  1.000  0.000  0.000
  0.000  0.000  0.000  1.000  0.000
  0.000  0.000  0.000  0.000  1.000
    occupations:
  0.700  0.000  0.000  0.000  0.000
  0.000  0.700  0.000  0.000  0.000
  0.000  0.000  0.700  0.000  0.000
  0.000  0.000  0.000  0.700  0.000
  0.000  0.000  0.000  0.000  0.700
atom    4   Tr[ns(na)] =   7.00000
    eigenvalues:
  0.700  0.700  0.700  0.700  0.700
    eigenvectors:
  1.000  0.000  0.000  0.000  0.000
  0.000  1.000  0.000  0.000  0.000
  0.000  0.000  1.000  0.000  0.000
  0.000  0.000  0.000  1.000  0.000
  0.000  0.000  0.000  0.000  1.000
    occupations:
  0.700  0.000  0.000  0.000  0.000
  0.000  0.700  0.000  0.000  0.000
  0.000  0.000  0.700  0.000  0.000
  0.000  0.000  0.000  0.700  0.000
  0.000  0.000  0.000  0.000  0.700
atom    9   Tr[ns(na)] =   7.00000
    eigenvalues:
  0.700  0.700  0.700  0.700  0.700
    eigenvectors:
  1.000  0.000  0.000  0.000  0.000
  0.000  1.000  0.000  0.000  0.000
  0.000  0.000  1.000  0.000  0.000
  0.000  0.000  0.000  1.000  0.000
  0.000  0.000  0.000  0.000  1.000
    occupations:
  0.700  0.000  0.000  0.000  0.000
  0.000  0.700  0.000  0.000  0.000
  0.000  0.000  0.700  0.000  0.000
  0.000  0.000  0.000  0.700  0.000
  0.000  0.000  0.000  0.000  0.700
atom   10   Tr[ns(na)] =   7.00000
    eigenvalues:
  0.700  0.700  0.700  0.700  0.700
    eigenvectors:
  1.000  0.000  0.000  0.000  0.000
  0.000  1.000  0.000  0.000  0.000
  0.000  0.000  1.000  0.000  0.000
  0.000  0.000  0.000  1.000  0.000
  0.000  0.000  0.000  0.000  1.000
    occupations:
  0.700  0.000  0.000  0.000  0.000
  0.000  0.700  0.000  0.000  0.000
  0.000  0.000  0.700  0.000  0.000
  0.000  0.000  0.000  0.700  0.000
  0.000  0.000  0.000  0.000  0.700
atom   16   Tr[ns(na)] =   7.00000
    eigenvalues:
  0.700  0.700  0.700  0.700  0.700
    eigenvectors:
  1.000  0.000  0.000  0.000  0.000
  0.000  1.000  0.000  0.000  0.000
  0.000  0.000  1.000  0.000  0.000
  0.000  0.000  0.000  1.000  0.000
  0.000  0.000  0.000  0.000  1.000
    occupations:
  0.700  0.000  0.000  0.000  0.000
  0.000  0.700  0.000  0.000  0.000
  0.000  0.000  0.700  0.000  0.000
  0.000  0.000  0.000  0.700  0.000
  0.000  0.000  0.000  0.000  0.700
atom   17   Tr[ns(na)] =   7.00000
    eigenvalues:
  0.700  0.700  0.700  0.700  0.700
    eigenvectors:
  1.000  0.000  0.000  0.000  0.000
  0.000  1.000  0.000  0.000  0.000
  0.000  0.000  1.000  0.000  0.000
  0.000  0.000  0.000  1.000  0.000
  0.000  0.000  0.000  0.000  1.000
    occupations:
  0.700  0.000  0.000  0.000  0.000
  0.000  0.700  0.000  0.000  0.000
  0.000  0.000  0.700  0.000  0.000
  0.000  0.000  0.000  0.700  0.000
  0.000  0.000  0.000  0.000  0.700
atom   22   Tr[ns(na)] =   7.00000
    eigenvalues:
  0.700  0.700  0.700  0.700  0.700
    eigenvectors:
  1.000  0.000  0.000  0.000  0.000
  0.000  1.000  0.000  0.000  0.000
  0.000  0.000  1.000  0.000  0.000
  0.000  0.000  0.000  1.000  0.000
  0.000  0.000  0.000  0.000  1.000
    occupations:
  0.700  0.000  0.000  0.000  0.000
[...]
    eigenvectors:
  0.005  0.147  0.000  0.000  0.849
  0.972  0.028  0.000  0.000  0.000
  0.000  0.000  0.931  0.069  0.000
  0.023  0.826  0.000  0.000  0.151
  0.000  0.000  0.069  0.931  0.000
    occupations:
  0.927  0.002 -0.000 -0.120 -0.000
  0.002  0.636  0.001  0.001 -0.000
 -0.000  0.001  0.868  0.000 -0.009
 -0.120  0.001  0.000  0.694  0.001
 -0.000 -0.000 -0.009  0.001  0.898
atom   10   Tr[ns(na)] =   8.03681
    eigenvalues:
  0.589  0.592  0.926  0.935  0.977
    eigenvectors:
  0.991  0.000  0.000  0.000  0.009
  0.000  0.000  0.000  1.000  0.000
  0.000  0.000  1.000  0.000  0.000
  0.009  0.000  0.000  0.000  0.991
  0.000  1.000  0.000  0.000  0.000
    occupations:
  0.592  0.000  0.001  0.037 -0.000
  0.000  0.935 -0.000 -0.000 -0.000
  0.001 -0.000  0.926  0.000  0.000
  0.037 -0.000  0.000  0.974 -0.000
 -0.000 -0.000  0.000 -0.000  0.592
atom   16   Tr[ns(na)] =   8.04965
    eigenvalues:
  0.583  0.604  0.901  0.960  0.977
    eigenvectors:
  0.011  0.191  0.002  0.000  0.796
  0.956  0.044  0.000  0.000  0.000
  0.000  0.000  0.983  0.015  0.002
  0.033  0.765  0.000  0.000  0.201
  0.000  0.000  0.015  0.984  0.001
    occupations:
  0.901  0.005  0.002 -0.149  0.001
  0.005  0.584  0.001  0.002 -0.006
  0.002  0.001  0.902 -0.004 -0.007
 -0.149  0.002 -0.004  0.678  0.000
  0.001 -0.006 -0.007  0.000  0.959
atom   17   Tr[ns(na)] =   8.04901
    eigenvalues:
  0.600  0.650  0.874  0.922  0.978
    eigenvectors:
  0.001  0.991  0.000  0.000  0.008
  0.000  0.000  0.072  0.928  0.000
  0.000  0.000  0.928  0.072  0.000
  0.000  0.008  0.000  0.000  0.992
  0.999  0.001  0.000  0.000  0.000
    occupations:
  0.652 -0.004 -0.001  0.029  0.001
 -0.004  0.918  0.012  0.001 -0.001
 -0.001  0.012  0.877 -0.000  0.001
  0.029  0.001 -0.000  0.976  0.000
  0.001 -0.001  0.001  0.000  0.601
atom   22   Tr[ns(na)] =   8.04760
    eigenvalues:
  0.636  0.644  0.866  0.900  0.978
    eigenvectors:
  0.000  0.151  0.000  0.000  0.849
  0.998  0.002  0.000  0.000  0.000
  0.000  0.000  0.936  0.064  0.000
  0.002  0.847  0.000  0.000  0.151
  0.000  0.000  0.064  0.936  0.000
    occupations:
  0.927 -0.001  0.000 -0.120 -0.000
 -0.001  0.636  0.001 -0.000 -0.000
  0.000  0.001  0.868 -0.000  0.009
 -0.120 -0.000 -0.000  0.694  0.001
 -0.000 -0.000  0.009  0.001  0.898
atom   23   Tr[ns(na)] =   8.03325
    eigenvalues:
  0.638  0.701  0.825  0.871  0.981
    eigenvectors:
  0.000  0.993  0.000  0.000  0.007
  0.000  0.000  0.000  1.000  0.000
  0.000  0.000  1.000  0.000  0.000
  0.000  0.007  0.000  0.000  0.993
  1.000  0.000  0.000  0.000  0.000
    occupations:
  0.703  0.000 -0.001  0.023 -0.000
  0.000  0.871 -0.000  0.000  0.000
 -0.001 -0.000  0.825  0.001  0.000
  0.023  0.000  0.001  0.979  0.000
 -0.000  0.000  0.000  0.000  0.638
N of occupied +U levels =  64.3642661
 --- exit write_ns ---

     Threshold (ethr) on eigenvalues was too large:
     Diagonalizing with lowered threshold

     Davidson diagonalization with overlap
     ethr =  6.46E-09,  avg # of iterations =  4.0

[...]

     total energy              =   -1978.69145980 Ry
     Harris-Foulkes estimate   =   -1978.69145980 Ry
     estimated scf accuracy    <       0.00000002 Ry

     iteration # 16     ecut=    40.00 Ry     beta=0.30
     Davidson diagonalization with overlap
     ethr =  7.34E-12,  avg # of iterations =  1.0

     negative rho (up, down):  0.690E+00 0.000E+00

     End of self-consistent calculation
 --- enter write_ns ---
 LDA+U parameters:
U( 2)     =  4.00000000
alpha( 2) =  0.00000000
atom    3   Tr[ns(na)] =   8.04984
    eigenvalues:
  0.583  0.604  0.900  0.960  0.977
    eigenvectors:
  0.011  0.190  0.002  0.000  0.796
  0.952  0.048  0.000  0.000  0.000
  0.000  0.000  0.977  0.021  0.002
  0.036  0.762  0.000  0.000  0.201
  0.000  0.000  0.021  0.978  0.001
    occupations:
  0.901 -0.006  0.002 -0.150 -0.001
 -0.006  0.584 -0.001 -0.002 -0.006
  0.002 -0.001  0.902 -0.004  0.008
 -0.150 -0.002 -0.004  0.678 -0.000
 -0.001 -0.006  0.008 -0.000  0.959
atom    4   Tr[ns(na)] =   8.05035
    eigenvalues:
  0.600  0.650  0.873  0.924  0.978
    eigenvectors:
  0.001  0.991  0.000  0.000  0.008
  0.000  0.000  0.053  0.946  0.000
  0.000  0.000  0.947  0.053  0.000
  0.000  0.008  0.000  0.000  0.992
  0.999  0.001  0.000  0.000  0.000
    occupations:
  0.652 -0.004 -0.001  0.029  0.001
 -0.004  0.922  0.012  0.001 -0.001
 -0.001  0.012  0.876 -0.001  0.001
  0.029  0.001 -0.001  0.975  0.000
  0.001 -0.001  0.001  0.000  0.600
atom    9   Tr[ns(na)] =   8.04772
    eigenvalues:
  0.636  0.644  0.866  0.901  0.978
    eigenvectors:
  0.005  0.147  0.000  0.000  0.849
  0.973  0.027  0.000  0.000  0.000
  0.000  0.000  0.931  0.069  0.000
  0.023  0.826  0.000  0.000  0.151
  0.000  0.000  0.069  0.931  0.000
    occupations:
  0.927  0.002 -0.000 -0.120 -0.000
  0.002  0.636  0.001  0.001 -0.000
 -0.000  0.001  0.868  0.000 -0.009
 -0.120  0.001  0.000  0.694  0.001
 -0.000 -0.000 -0.009  0.001  0.898
atom   10   Tr[ns(na)] =   8.03688
    eigenvalues:
  0.589  0.592  0.926  0.935  0.977
    eigenvectors:
  0.991  0.000  0.000  0.000  0.009
  0.000  0.000  0.000  1.000  0.000
  0.000  0.000  1.000  0.000  0.000
  0.009  0.000  0.000  0.000  0.991
  0.000  1.000  0.000  0.000  0.000
    occupations:
  0.592  0.000  0.001  0.037 -0.000
  0.000  0.935 -0.000 -0.000 -0.000
  0.001 -0.000  0.926  0.000  0.000
  0.037 -0.000  0.000  0.974 -0.000
 -0.000 -0.000  0.000 -0.000  0.592
atom   16   Tr[ns(na)] =   8.04979
    eigenvalues:
  0.583  0.604  0.900  0.960  0.977
    eigenvectors:
  0.011  0.190  0.002  0.000  0.796
  0.955  0.044  0.000  0.000  0.000
  0.000  0.000  0.983  0.015  0.002
  0.034  0.765  0.000  0.000  0.201
  0.000  0.000  0.015  0.984  0.001
    occupations:
  0.901  0.006  0.002 -0.149  0.001
  0.006  0.584  0.001  0.002 -0.006
  0.002  0.001  0.902 -0.004 -0.007
 -0.149  0.002 -0.004  0.679  0.000
  0.001 -0.006 -0.007  0.000  0.959
atom   17   Tr[ns(na)] =   8.04863
    eigenvalues:
  0.600  0.650  0.874  0.922  0.978
    eigenvectors:
  0.001  0.991  0.000  0.000  0.008
  0.000  0.000  0.072  0.928  0.000
  0.000  0.000  0.928  0.072  0.000
  0.000  0.008  0.000  0.000  0.992
  0.999  0.001  0.000  0.000  0.000
    occupations:
  0.652 -0.004 -0.001  0.029  0.001
 -0.004  0.918  0.012  0.001 -0.001
 -0.001  0.012  0.877 -0.000  0.001
  0.029  0.001 -0.000  0.976  0.000
  0.001 -0.001  0.001  0.000  0.601
atom   22   Tr[ns(na)] =   8.04771
    eigenvalues:
  0.636  0.644  0.866  0.900  0.978
    eigenvectors:
  0.000  0.151  0.000  0.000  0.849
  0.998  0.002  0.000  0.000  0.000
  0.000  0.000  0.936  0.064  0.000
  0.002  0.847  0.000  0.000  0.151
  0.000  0.000  0.064  0.936  0.000
    occupations:
  0.927 -0.001  0.000 -0.120 -0.000
 -0.001  0.636  0.001 -0.000 -0.000
  0.000  0.001  0.868 -0.000  0.009
 -0.120 -0.000 -0.000  0.694  0.001
 -0.000 -0.000  0.009  0.001  0.898
atom   23   Tr[ns(na)] =   8.03349
    eigenvalues:
  0.638  0.701  0.825  0.871  0.981
    eigenvectors:
  0.000  0.993  0.000  0.000  0.007
  0.000  0.000  0.000  1.000  0.000
  0.000  0.000  1.000  0.000  0.000
  0.000  0.007  0.000  0.000  0.993
  1.000  0.000  0.000  0.000  0.000
    occupations:
  0.703  0.000 -0.001  0.023 -0.000
  0.000  0.871 -0.000  0.000  0.000
 -0.001 -0.000  0.825  0.001  0.000
  0.023  0.000  0.001  0.979  0.000
 -0.000  0.000  0.000  0.000  0.638
N of occupied +U levels =  64.3644217
 --- exit write_ns ---

[...]

          k = 0.2500-0.4833 0.0000 ( 30510 PWs)   bands (ev):

[...]

          k =-0.2500 0.2417 0.0000 ( 30481 PWs)   bands (ev):

   -50.1866 -49.8548 -49.7728 -49.0773 -49.0758 -49.0708 -49.0422 -49.0292
   -49.0236 -49.0112 -48.9908 -48.9797 -48.8979 -48.8910 -48.8821 -48.7405
   -48.7353 -48.7312 -48.7042 -48.6525 -48.6391 -48.6337 -48.6259 -48.6208
   -21.5498 -21.2599 -21.2003 -21.0696 -20.8005 -20.6923 -20.6134 -20.5799
   -20.4409 -20.3901 -20.2948 -20.2764 -20.2444 -20.1061 -20.0633 -20.0367
   -19.4533 -19.2960 -19.1737 -10.1910 -10.1077  -9.9145  -9.6743  -9.4522
    -9.3675  -9.3536  -9.2265  -9.0805  -8.9603  -8.8911  -8.8489  -8.7595
    -8.5988  -8.4992  -8.3969  -8.2570  -8.2251  -8.0029  -7.7857  -7.6894
    -7.6225  -7.4946  -7.3637  -7.3079  -7.2436  -7.0943  -6.9467  -6.9054
    -6.7674  -6.7298  -6.5923  -6.5343  -6.4882  -6.4082  -6.3500  -6.2648
    -6.1547  -6.1131  -6.0308  -5.8838  -5.8199  -5.6325  -5.4154  -5.3392
    -5.2671  -5.0842  -5.0155  -4.8919  -4.8733  -4.7069  -4.6095  -4.5384
    -4.3851  -4.2535  -4.2351  -4.0854  -3.9811  -3.8438  -3.8147  -3.7220
    -3.7107  -3.6463  -3.5539  -3.4841  -3.4689  -3.4002  -3.3117  -3.2766
    -3.1251  -2.7882  -2.6577  -2.5794  -2.4921  -2.3227  -2.1841  -2.0950
    -2.0592  -1.9240  -1.8559  -1.7429  -1.0146  -0.7046  -0.4586  -0.0542
     0.1796   0.4223   0.6289   0.8719   1.0961   1.2525   1.3078   1.4464
     1.5207   1.6979   1.7357   2.1070   3.4946   4.4543   4.5865   5.0565
     5.3084   5.3285   5.4854   6.0709   6.3755   6.4046   6.4445   6.5443
     6.6665   6.7885   6.9320   7.1442   7.3029   7.4816   7.6081   7.7137
     7.8624   8.0013   8.0815   8.1603   8.2570   8.3417   8.4437   8.5286
     8.7637   8.8426   8.8822   9.0018   9.2210   9.3972   9.4841   9.5607
     9.6367   9.7558   9.8014   9.8623   9.9327  10.1073  10.1688  10.2443
    10.3336  10.4235  10.4585  10.6108  10.7370  10.7902  10.8442  10.9475
    10.9850  11.1106  11.1560  11.2253  11.3455  11.4659  11.5085  11.5553
    11.5920  11.7295  11.7552  11.7937  11.8738  12.0257  12.1259  12.1906
    12.2381  12.2799  12.3513  12.4456  12.5066  12.6297  12.6815  12.7486
    12.7996  12.8553  12.9571  13.0439  13.0934  13.1431  13.1831  13.2785
    13.3193  13.4212  13.5185  13.5608  13.7366  13.8002  13.8424  13.8773
    13.9295  14.1257  14.1716  14.2022  14.2736  14.3676  14.4005  14.4930
    14.5979  14.6234  14.7304  14.8087  15.0094  15.1344  15.2824  15.3112
    15.3679  15.4344  15.4999  15.5276  15.5781  15.6509  15.7202  15.7717
    15.8724  15.9413  16.0231  16.0490  16.1230  16.1889  16.2674  16.3299
    16.3911  16.4165  16.4662  16.4946  16.5739  16.6212  16.6640  16.7358
    16.8018  16.8883  16.9974  17.0494  17.1256  17.2097  17.2544  17.3338
    17.3881  17.4881  17.5444  17.5923  17.6322  17.7436  17.8124  17.8490
    17.9250  18.0183  18.0817  18.1529  18.1632  18.2927  18.3114  18.3900
    18.4589  18.5686  18.6575  18.7149  18.7980  18.8470  18.8958  18.9639
    19.0156  19.0586  19.1111  19.2044  19.2578  19.2863  19.3432  19.4795
    19.5427  19.6058  19.6689  19.7366  19.7861  19.8935  20.0268  20.0633
    20.1956  20.2507  20.2772  20.3363  20.5120  20.5616  20.6217  20.6800
    20.7095  20.7831  20.8581  20.9117  20.9403  21.0301  21.0941  21.2010
    21.2842  21.3356  21.3537  21.3959  21.4386  21.5272  21.6738  21.7428
    21.7767  21.8421  21.8874  21.9138  21.9452  22.0458  22.0987  22.1774
    22.2083  22.3096  22.4060  22.4642  22.5382

     the Fermi energy is    -2.2061 ev

!    total energy              =   -1978.69145980 Ry
     Harris-Foulkes estimate   =   -1978.69145980 Ry
     estimated scf accuracy    <          1.2E-09 Ry

     The total energy is the sum of the following terms:

     one-electron contribution =  -23294.83276526 Ry
     hartree contribution      =   11694.50519845 Ry
     xc contribution           =    -372.09455118 Ry
     ewald contribution        =    9992.16279664 Ry
     Hubbard energy            =       1.56822406 Ry
     smearing contrib. (-TS)   =      -0.00036251 Ry

     convergence has been achieved in  16 iterations

     Forces acting on atoms (Ry/au):

     negative rho (up, down):  0.690E+00 0.000E+00
     atom    1 type  1   force =    -0.00731543   -0.01249702   -0.00008336
     atom    2 type  1   force =     0.00007465    0.00378222    0.00063988
     atom    3 type  2   force =     0.03762454    0.00777275   -0.00065114
     atom    4 type  2   force =     0.00867258    0.00919170    0.00004938
     atom    5 type  1   force =    -0.00285105   -0.02966952    0.00017649
     atom    6 type  1   force =     0.00329521    0.02637321    0.00023512
     atom    7 type  1   force =    -0.00030198   -0.00188702    0.00026849
     atom    8 type  1   force =    -0.00312274   -0.00108141   -0.00018036
     atom    9 type  2   force =     0.00278203    0.00038412   -0.00028192
     atom   10 type  2   force =    -0.00003276   -0.00119357   -0.00071607
     atom   11 type  1   force =    -0.00041696    0.01128136   -0.00045767
     atom   12 type  1   force =    -0.00095308   -0.01198306   -0.00052256
     atom   13 type  1   force =    -0.00076111    0.00010503    0.00036756
     atom   14 type  1   force =    -0.00662446   -0.01246588    0.00018887
     atom   15 type  1   force =     0.00012082    0.00342124    0.00001057
     atom   16 type  2   force =    -0.03793067    0.00647738   -0.00063639
     atom   17 type  2   force =     0.00843155    0.00938609   -0.00033625
     atom   18 type  1   force =    -0.00202769   -0.02933516    0.00017362
     atom   19 type  1   force =     0.00388776    0.02684137    0.00023837
     atom   20 type  1   force =    -0.00018597   -0.00478818    0.00034236
     atom   21 type  1   force =    -0.00300731   -0.00069033   -0.00010000
     atom   22 type  2   force =    -0.00013293    0.00058350   -0.00026102
     atom   23 type  2   force =    -0.00011542    0.00104178    0.00049925
     atom   24 type  1   force =     0.00004824    0.01134632   -0.00045207
     atom   25 type  1   force =     0.00176169   -0.01204027   -0.00052722
     atom   26 type  1   force =    -0.00071774   -0.00002481    0.00003985
     atom   27 type  3   force =    -0.00000885   -0.00037988    0.00070917
     atom   28 type  3   force =    -0.00000357   -0.00008373    0.00059312
     atom   29 type  3   force =     0.00001183    0.00012413    0.00013756
     atom   30 type  3   force =    -0.00019057    0.00017078    0.00008421
     atom   31 type  1   force =    -0.00001062   -0.00016314    0.00045216

     Total force =     0.002271     Total SCF correction =     0.000065

     bfgs converged in   8 scf cycles and   7 bfgs steps
     (criteria: energy < 0.10E-03, force < 0.10E-02)

     End of BFGS Geometry Optimization

     Final energy   =   -1978.6914598028 Ry
Begin final coordinates

ATOMIC_POSITIONS (crystal)
O0       0.000000000   0.000000000   0.378204513    0   0   1
O0       0.000000000   0.500000000   0.402420893    0   0   1
Rh1      0.250000000   0.500000000   0.453368029    0   0   1
Rh1      0.000000000   0.000000000   0.452430910    0   0   1
O0       0.250000000   0.810000000   0.452436495    0   0   1
O0       0.250000000   0.190000000   0.452205889    0   0   1
O0       0.000000000   0.500000000   0.499492003    0   0   1
O0       0.000000000   0.000000000   0.527619408    0   0   1
Rh1      0.250000000   0.000000000   0.574715861    0   0   1
Rh1      0.000000000   0.500000000   0.570890151    0   0   1
O0       0.250000000   0.690000000   0.574759121    0   0   1
O0       0.250000000   0.310000000   0.574703899    0   0   1
O0       0.000000000   0.000000000   0.619894823    0   0   1
O0       0.500000000   0.000000000   0.378105632    0   0   1
O0       0.500000000   0.500000000   0.402273400    0   0   1
Rh1      0.750000000   0.500000000   0.453369995    0   0   1
Rh1      0.500000000   0.000000000   0.452321013    0   0   1
O0       0.750000000   0.810000000   0.452411135    0   0   1
O0       0.750000000   0.190000000   0.452220503    0   0   1
O0       0.500000000   0.500000000   0.501452434    0   0   1
O0       0.500000000   0.000000000   0.527500438    0   0   1
Rh1      0.750000000   0.000000000   0.574712046    0   0   1
Rh1      0.500000000   0.500000000   0.579205823    0   0   1
O0       0.750000000   0.690000000   0.574724817    0   0   1
O0       0.750000000   0.310000000   0.574723209    0   0   1
O0       0.500000000   0.000000000   0.619983591    0   0   1
H2      -0.000156962   0.636530172   0.384947930
H2       0.499826835   0.637780118   0.385359567
H2       0.147922032   0.034528774   0.367339392
H2       0.648004239   0.034642603   0.367281075
O0       0.500062888   0.498544353   0.645746003
End final coordinates

     General routines

     Parallel routines
     Hubbard U routines

   This run was terminated on:   5: 9:36  13May2014

   JOB DONE.
Running PBS batch system epilogue script
Job id: 351074.audhumbla.fysik.dtu.dk
Username: zhonxu
Groupname: campgst
Jobname: RhO2/Eads-2-layers/O-U-4.0
Sessionid: 29826
Queuename: verylong
Accounting:
This job has allocated the following 16 nodes:
c102 c102 c102 c102 c102 c102 c102 c102 c101 c101 c101 c101 c101 c101 c101 c101
Finished epilogue job 351074.audhumbla.fysik.dtu.dk for zhonxu