     Program PWSCF v.5.0.2 (svn rev. 9656) starts on  8Feb2014 at 17:15:58

     Current dimensions of program PWSCF are:
     Max number of different atomic species (ntypx) = 10
     Max number of k-points (npk) =  40000
     Max angular momentum in pseudopotentials (lmaxx) =  3
     Reading input from PtO2-2-pert.in
Warning: card &IONS ignored
Warning: card / ignored
Warning: card &CELL ignored
Warning: card / ignored

     Subspace diagonalization in iterative solution of the eigenvalue problem:
     a serial algorithm will be used

     bravais-lattice index     =            0
     lattice parameter (alat)  =      17.3477  a.u.
     unit-cell volume          =    3673.7913 (a.u.)^3
     number of atoms/cell      =           48
     number of atomic types    =            3
     number of electrons       =       448.00
     number of Kohn-Sham states=          672
     kinetic-energy cutoff     =      40.0000  Ry
     charge density cutoff     =     500.0000  Ry
     convergence threshold     =      1.0E-06
     mixing beta               =       0.7000
     number of iterations used =            8  plain     mixing
     Exchange-correlation      = SLA  PW   PBE  PBE ( 1 4 3 4 0)
     EXX-fraction              =        0.00

     celldm(1)=  17.347686  celldm(2)=   0.000000  celldm(3)=   0.000000
     celldm(4)=   0.000000  celldm(5)=   0.000000  celldm(6)=   0.000000

     crystal axes: (cart. coord. in units of alat)
               a(1) = (   1.000000   0.000000   0.000000 )
               a(2) = (   0.000000   1.000000   0.000000 )
               a(3) = (   0.000000   0.000000   0.703704 )

     reciprocal axes: (cart. coord. in units 2 pi/alat)
               b(1) = (  1.000000  0.000000  0.000000 )
               b(2) = (  0.000000  1.000000  0.000000 )
               b(3) = (  0.000000  0.000000  1.421053 )

     PseudoPot. # 1 for Pt read from file:
     /home/camp/zhonxu/pseudo/pt_pbe_v1.uspp.F.UPF
     MD5 check sum: 4c71d6ad5ef119f1eb26a4d0b7884226
     Pseudo is Ultrasoft + core correction, Zval = 16.0
     Generated by new atomic code, or converted to UPF format
     Using radial grid of  985 points,  6 beta functions with:
                l(1) =   0
                l(2) =   0
                l(3) =   1
                l(4) =   1
                l(5) =   2
                l(6) =   2
     Q(r) pseudized with  8 coefficients,  rinner =    1.300   1.300   1.300
                                                       1.300   1.300

     PseudoPot. # 2 for O  read from file:
     /home/camp/zhonxu/pseudo/o_pbe_v1.01.uspp.F.UPF
     MD5 check sum: 2bcb18d16ea4b960afae9ec6d52f22d2
     Pseudo is Ultrasoft + core correction, Zval =  6.0
     Generated by new atomic code, or converted to UPF format
     Using radial grid of  737 points,  5 beta functions with:
                l(1) =   0
                l(2) =   0
                l(3) =   1
                l(4) =   1
                l(5) =   2
     Q(r) pseudized with  8 coefficients,  rinner =    0.900   0.900   0.900
                                                       0.900   0.900

     PseudoPot. # 3 for O  read from file:
     /home/camp/zhonxu/pseudo/o_pbe_v1.01.uspp.F.UPF
     MD5 check sum: 2bcb18d16ea4b960afae9ec6d52f22d2
     Pseudo is Ultrasoft + core correction, Zval =  6.0
     Generated by new atomic code, or converted to UPF format
     Using radial grid of  737 points,  5 beta functions with:
                l(1) =   0
                l(2) =   0
                l(3) =   1
                l(4) =   1
                l(5) =   2
     Q(r) pseudized with  8 coefficients,  rinner =    0.900   0.900   0.900
                                                       0.900   0.900

     atomic species   valence    mass     pseudopotential
        Pt0           16.00   195.08000     Pt( 1.00)
        O1             6.00    15.99940     O ( 1.00)
        O2             6.00    15.99940     O ( 1.00)

     Starting magnetic structure
     atomic species   magnetization
        Pt0          0.000
        O1           0.000
        O2           0.000

     Simplified LDA+U calculation (l_max = 2) with parameters (eV):
     atomic species    L          U    alpha       J0     beta
        Pt0            2     0.0000   0.0000   0.0000   0.0000
        O1             1     0.0000   0.0000   0.0000   0.0000
        O2             1     0.0000   0.0000   0.0000   0.0000

      4 Sym. Ops. (no inversion) found

   Cartesian axes

     site n.     atom                  positions (alat units)
         1           Pt0 tau(   1) = (  -0.1550000  -0.1550000   0.0000000  )
         2           Pt0 tau(   2) = (   0.0950000   0.0950000   0.1759259  )
         3           Pt0 tau(   3) = (  -0.1550000  -0.1550000   0.3518519  )
         4           Pt0 tau(   4) = (   0.0950000   0.0950000   0.5277778  )
         5           Pt0 tau(   5) = (  -0.1550000   0.3450000   0.0000000  )
         6           Pt0 tau(   6) = (   0.0950000   0.5950000   0.1759259  )
         7           Pt0 tau(   7) = (  -0.1550000   0.3450000   0.3518519  )
         8           Pt0 tau(   8) = (   0.0950000   0.5950000   0.5277778  )
         9           Pt0 tau(   9) = (   0.3450000  -0.1550000   0.0000000  )
        10           Pt0 tau(  10) = (   0.5950000   0.0950000   0.1759259  )
        11           Pt0 tau(  11) = (   0.3450000  -0.1550000   0.3518519  )
        12           Pt0 tau(  12) = (   0.5950000   0.0950000   0.5277778  )
        13           Pt0 tau(  13) = (   0.3450000   0.3450000   0.0000000  )
        14           Pt0 tau(  14) = (   0.5950000   0.5950000   0.1759259  )
        15           Pt0 tau(  15) = (   0.3450000   0.3450000   0.3518519  )
        16           Pt0 tau(  16) = (   0.5950000   0.5950000   0.5277778  )
        17           O1  tau(  17) = (   0.0000000   0.0000000   0.0000000  )
        18           O2  tau(  18) = (  -0.3100000  -0.3100000   0.0000000  )
        19           O2  tau(  19) = (   0.2500000  -0.0600000   0.1759259  )
        20           O2  tau(  20) = (  -0.0600000   0.2500000   0.1759259  )
        21           O2  tau(  21) = (   0.0000000   0.0000000   0.3518519  )
        22           O2  tau(  22) = (  -0.3100000  -0.3100000   0.3518519  )
        23           O2  tau(  23) = (   0.2500000  -0.0600000   0.5277778  )
        24           O2  tau(  24) = (  -0.0600000   0.2500000   0.5277778  )
        25           O2  tau(  25) = (   0.0000000   0.5000000   0.0000000  )
        26           O2  tau(  26) = (  -0.3100000   0.1900000   0.0000000  )
        27           O2  tau(  27) = (   0.2500000   0.4400000   0.1759259  )
        28           O2  tau(  28) = (  -0.0600000   0.7500000   0.1759259  )
        29           O2  tau(  29) = (   0.0000000   0.5000000   0.3518519  )
        30           O2  tau(  30) = (  -0.3100000   0.1900000   0.3518519  )
        31           O2  tau(  31) = (   0.2500000   0.4400000   0.5277778  )
        32           O2  tau(  32) = (  -0.0600000   0.7500000   0.5277778  )
        33           O2  tau(  33) = (   0.5000000   0.0000000   0.0000000  )
        34           O2  tau(  34) = (   0.1900000  -0.3100000   0.0000000  )
        35           O2  tau(  35) = (   0.7500000  -0.0600000   0.1759259  )
        36           O2  tau(  36) = (   0.4400000   0.2500000   0.1759259  )
        37           O2  tau(  37) = (   0.5000000   0.0000000   0.3518519  )
        38           O2  tau(  38) = (   0.1900000  -0.3100000   0.3518519  )
        39           O2  tau(  39) = (   0.7500000  -0.0600000   0.5277778  )
        40           O2  tau(  40) = (   0.4400000   0.2500000   0.5277778  )
        41           O2  tau(  41) = (   0.5000000   0.5000000   0.0000000  )
        42           O2  tau(  42) = (   0.1900000   0.1900000   0.0000000  )
        43           O2  tau(  43) = (   0.7500000   0.4400000   0.1759259  )
        44           O2  tau(  44) = (   0.4400000   0.7500000   0.1759259  )
        45           O2  tau(  45) = (   0.5000000   0.5000000   0.3518519  )
        46           O2  tau(  46) = (   0.1900000   0.1900000   0.3518519  )
        47           O2  tau(  47) = (   0.7500000   0.4400000   0.5277778  )
        48           O2  tau(  48) = (   0.4400000   0.7500000   0.5277778  )

     number of k points=    42  Methfessel-Paxton smearing, width (Ry)=  0.0100
                       cart. coord. in units 2pi/alat
        k(    1) = (   0.0000000   0.0000000   0.0000000), wk =   0.0156250
        k(    2) = (   0.0000000   0.0000000   0.3552632), wk =   0.0312500
        k(    3) = (   0.0000000   0.0000000  -0.7105263), wk =   0.0156250
        k(    4) = (   0.0000000   0.2500000   0.0000000), wk =   0.0625000
        k(    5) = (   0.0000000   0.2500000   0.3552632), wk =   0.1250000
        k(    6) = (   0.0000000   0.2500000  -0.7105263), wk =   0.0625000
        k(    7) = (   0.0000000  -0.5000000   0.0000000), wk =   0.0312500
        k(    8) = (   0.0000000  -0.5000000   0.3552632), wk =   0.0625000
        k(    9) = (   0.0000000  -0.5000000  -0.7105263), wk =   0.0312500
        k(   10) = (   0.2500000   0.2500000   0.0000000), wk =   0.0312500
        k(   11) = (   0.2500000   0.2500000   0.3552632), wk =   0.0625000
        k(   12) = (   0.2500000   0.2500000  -0.7105263), wk =   0.0312500
        k(   13) = (   0.2500000  -0.5000000   0.0000000), wk =   0.0625000
        k(   14) = (   0.2500000  -0.5000000   0.3552632), wk =   0.1250000
        k(   15) = (   0.2500000  -0.5000000  -0.7105263), wk =   0.0625000
        k(   16) = (  -0.5000000  -0.5000000   0.0000000), wk =   0.0156250
        k(   17) = (  -0.5000000  -0.5000000   0.3552632), wk =   0.0312500
        k(   18) = (  -0.5000000  -0.5000000  -0.7105263), wk =   0.0156250
        k(   19) = (   0.2500000  -0.2500000   0.0000000), wk =   0.0312500
        k(   20) = (   0.2500000  -0.2500000   0.3552632), wk =   0.0625000
        k(   21) = (   0.2500000  -0.2500000  -0.7105263), wk =   0.0312500
        k(   22) = (   0.0000000   0.0000000   0.0000000), wk =   0.0156250
        k(   23) = (   0.0000000   0.0000000   0.3552632), wk =   0.0312500
        k(   24) = (   0.0000000   0.0000000  -0.7105263), wk =   0.0156250
        k(   25) = (   0.0000000   0.2500000   0.0000000), wk =   0.0625000
        k(   26) = (   0.0000000   0.2500000   0.3552632), wk =   0.1250000
        k(   27) = (   0.0000000   0.2500000  -0.7105263), wk =   0.0625000
        k(   28) = (   0.0000000  -0.5000000   0.0000000), wk =   0.0312500
        k(   29) = (   0.0000000  -0.5000000   0.3552632), wk =   0.0625000
        k(   30) = (   0.0000000  -0.5000000  -0.7105263), wk =   0.0312500
        k(   31) = (   0.2500000   0.2500000   0.0000000), wk =   0.0312500
        k(   32) = (   0.2500000   0.2500000   0.3552632), wk =   0.0625000
        k(   33) = (   0.2500000   0.2500000  -0.7105263), wk =   0.0312500
        k(   34) = (   0.2500000  -0.5000000   0.0000000), wk =   0.0625000
        k(   35) = (   0.2500000  -0.5000000   0.3552632), wk =   0.1250000
        k(   36) = (   0.2500000  -0.5000000  -0.7105263), wk =   0.0625000
[...]
atomic mag. moment =    -0.000000
atom   42   Tr[ns(na)] (up, down, total) =   2.66729  2.66729  5.33459
   spin  1
    eigenvalues:
  0.845  0.848  0.974
    eigenvectors:
  0.000  1.000  0.000
  0.500  0.000  0.500
  0.500  0.000  0.500
    occupations:
  0.848 -0.000 -0.000
 -0.000  0.910 -0.064
 -0.000 -0.064  0.910
   spin  2
    eigenvalues:
  0.845  0.848  0.974
    eigenvectors:
  0.000  1.000  0.000
  0.500  0.000  0.500
  0.500  0.000  0.500
    occupations:
  0.848 -0.000 -0.000
 -0.000  0.910 -0.064
 -0.000 -0.064  0.910
atomic mag. moment =    -0.000000
atom   43   Tr[ns(na)] (up, down, total) =   2.66725  2.66725  5.33451
   spin  1
    eigenvalues:
  0.845  0.848  0.974
    eigenvectors:
  0.000  1.000  0.000
  0.500  0.000  0.500
  0.500  0.000  0.500
    occupations:
  0.848 -0.000  0.000
 -0.000  0.910  0.064
  0.000  0.064  0.910
   spin  2
    eigenvalues:
  0.845  0.848  0.974
    eigenvectors:
  0.000  1.000  0.000
  0.500  0.000  0.500
  0.500  0.000  0.500
    occupations:
  0.848 -0.000  0.000
 -0.000  0.910  0.064
  0.000  0.064  0.910
atomic mag. moment =    -0.000000
atom   44   Tr[ns(na)] (up, down, total) =   2.66725  2.66725  5.33451
   spin  1
    eigenvalues:
  0.845  0.848  0.974
    eigenvectors:
  0.000  1.000  0.000
  0.500  0.000  0.500
  0.500  0.000  0.500
    occupations:
  0.848  0.000 -0.000
  0.000  0.910  0.064
 -0.000  0.064  0.910
   spin  2
    eigenvalues:
  0.845  0.848  0.974
    eigenvectors:
  0.000  1.000  0.000
  0.500  0.000  0.500
  0.500  0.000  0.500
    occupations:
  0.848  0.000 -0.000
  0.000  0.910  0.064
 -0.000  0.064  0.910
atomic mag. moment =    -0.000000
atom   45   Tr[ns(na)] (up, down, total) =   2.66727  2.66727  5.33453
   spin  1
    eigenvalues:
  0.845  0.848  0.974
    eigenvectors:
  0.000  1.000  0.000
  0.500  0.000  0.500
  0.500  0.000  0.500
    occupations:
  0.848 -0.000 -0.000
 -0.000  0.910 -0.064
 -0.000 -0.064  0.910
   spin  2
    eigenvalues:
  0.845  0.848  0.974
    eigenvectors:
  0.000  1.000  0.000
  0.500  0.000  0.500
  0.500  0.000  0.500
    occupations:
  0.848 -0.000 -0.000
 -0.000  0.910 -0.064
 -0.000 -0.064  0.910
atomic mag. moment =    -0.000000
atom   46   Tr[ns(na)] (up, down, total) =   2.66733  2.66733  5.33465
   spin  1
    eigenvalues:
  0.845  0.848  0.974
    eigenvectors:
  0.000  1.000  0.000
  0.500  0.000  0.500
  0.500  0.000  0.500
    occupations:
  0.848 -0.000 -0.000
 -0.000  0.910 -0.064
 -0.000 -0.064  0.910
   spin  2
    eigenvalues:
  0.845  0.848  0.974
    eigenvectors:
  0.000  1.000  0.000
  0.500  0.000  0.500
  0.500  0.000  0.500
    occupations:
  0.848 -0.000 -0.000
 -0.000  0.910 -0.064
 -0.000 -0.064  0.910
atomic mag. moment =    -0.000000
atom   47   Tr[ns(na)] (up, down, total) =   2.66725  2.66725  5.33451
   spin  1
    eigenvalues:
  0.845  0.848  0.974
    eigenvectors:
  0.000  1.000  0.000
  0.500  0.000  0.500
  0.500  0.000  0.500
    occupations:
  0.848  0.000 -0.000
  0.000  0.910  0.064
 -0.000  0.064  0.910
   spin  2
    eigenvalues:
  0.845  0.848  0.974
    eigenvectors:
  0.000  1.000  0.000
  0.500  0.000  0.500
  0.500  0.000  0.500
    occupations:
  0.848  0.000 -0.000
  0.000  0.910  0.064
 -0.000  0.064  0.910
atomic mag. moment =    -0.000000
atom   48   Tr[ns(na)] (up, down, total) =   2.66725  2.66725  5.33451
   spin  1
    eigenvalues:
  0.845  0.848  0.974
    eigenvectors:
  0.000  1.000  0.000
  0.500  0.000  0.500
  0.500  0.000  0.500
    occupations:
  0.848 -0.000  0.000
 -0.000  0.910  0.064
  0.000  0.064  0.910
   spin  2
    eigenvalues:
  0.845  0.848  0.974
    eigenvectors:
  0.000  1.000  0.000
  0.500  0.000  0.500
  0.500  0.000  0.500
    occupations:
  0.848 -0.000  0.000
 -0.000  0.910  0.064
  0.000  0.064  0.910
atomic mag. moment =    -0.000000
N of occupied +U levels = 308.8072839
 --- exit write_ns ---

 ------ SPIN UP ------------

          k = 0.0000 0.0000 0.0000 ( 15677 PWs)   bands (ev):

   -41.9292 -41.9290 -41.9289 -41.9288 -41.9286 -41.9283 -41.9283 -41.9281
   -41.8774 -41.8740 -41.8738 -41.8736 -41.8735 -41.8734 -41.8731 -41.8696
   -41.7122 -41.7120 -41.7115 -41.7113 -41.7111 -41.7109 -41.7105 -41.7103
   -41.7077 -41.7076 -41.7074 -41.7073 -41.7071 -41.7069 -41.7069 -41.7066
   -41.6060 -41.6059 -41.6054 -41.6052 -41.6050 -41.6048 -41.6043 -41.6041
   -41.5986 -41.5985 -41.5984 -41.5984 -41.5980 -41.5979 -41.5977 -41.5977
    -7.8180  -7.1779  -7.1779  -7.0842  -7.0841  -7.0839  -7.0839  -6.6862
    -6.5487  -6.5487  -6.5485  -6.5485  -6.5428  -6.5427  -6.4270  -6.4270
    -6.2855  -6.2855  -6.1945  -6.1944  -6.1779  -6.1779  -6.1778  -6.1777
    -6.0397  -6.0396  -6.0395  -6.0393  -5.8631  -5.8630  -5.7413  -5.7412
     3.2703   3.3581   3.3582   3.4281   4.4728   4.4729   4.4730   4.4731
     4.5686   4.5687   4.5688   4.5689   4.6514   4.6514   4.7422   4.7423
     4.7930   4.7930   4.8094   4.8094   4.9104   4.9106   4.9107   4.9108
     5.0573   5.0573   5.0576   5.0576   5.3080   5.3081   5.4159   5.4159
     5.4258   5.6708   5.6708   5.9918   5.9918   6.1723   6.1724   6.1726
     6.1727   6.8735   6.8735   6.8737   6.8737   6.8947   6.8948   6.8949
     6.8950   7.0136   7.0137   7.0377   7.0377   7.3249   7.3250   7.3250
     7.3251   7.4937   7.4937   7.5434   7.5435   7.5437   7.5438   7.5609
     7.5609   7.8571   7.9705   7.9705   7.9706   7.9707   8.0712   8.0712
     8.2530   8.2530   8.3475   8.3475   8.6485   8.6485   8.9668   8.9669
     9.0499   9.0499   9.0502   9.0503   9.0732   9.1707   9.1707   9.1859
     9.1860   9.1960   9.1960   9.3564   9.3846   9.4840   9.4840   9.5458
     9.5458   9.5553   9.5553   9.5681   9.5683   9.5686   9.5688   9.5777
     9.6214   9.6215   9.9659   9.9660   9.9661   9.9662   9.9886   9.9887
     9.9887   9.9888  10.2289  10.2290  10.2290  10.2292  10.2755  10.2756
    10.4692  10.4692  10.4695  10.4696  10.9724  11.1916  11.1917  11.4163
    11.4163  11.5746  11.5746  11.7030  11.7032  11.7033  11.7035  11.8567
    12.0825  12.0827  12.0828  12.0830  12.3046  12.3046  12.3535  12.3536
    12.5695  12.5696  12.5698  12.5698  12.9278  13.5213  13.5214  13.5472
    13.5472  13.6621  13.6621  14.0208  14.0209  14.5139  14.5139  14.8821
    14.8823  14.8825  14.8827  15.0569  15.0571  15.0571  15.0573  15.4967
    15.4967  15.5122  15.5122  15.8690  15.8690  15.8692  15.8693  16.2521
    16.7702  19.3340  19.3341  19.3341  19.3342  20.7987  20.7987  21.1052
    21.1052  21.2859  21.2859  21.3129  21.3129  21.3625  21.3625  22.1056
    22.1058  22.1058  22.1060  22.1285  22.1285  22.1286  22.1287  22.1521
    22.1522  22.1522  22.1523  22.2150  22.2150  23.0232  24.2395  24.2395
    24.3541  24.3541  24.6834  24.6834  25.1671  25.1671  25.2118  25.2118
    25.4748  25.7236  25.7379  25.7380  25.7380  25.7380  25.7584  25.7584
    25.7585  25.7585  26.2568  26.2568  26.2568  26.2568  26.6515  26.6515
    26.7214  26.7214  27.2521  27.2522  27.2522  27.2522  27.2726  27.2726
    27.5331  27.5331  27.5333  27.5333  27.5786  28.0528  28.3262  28.5495
    28.5495  28.8838  28.8838  28.8839  28.8840  29.0971  29.0971  29.8183
    29.8185  29.8185  29.8186  29.8547  29.8547  29.9784  29.9785  30.0553
    30.0553  30.1031  30.1031  30.1032  30.1032  30.3908  30.3908  30.3946
    30.3948  30.3954  30.3957  30.3957  30.4110  30.4218  30.4219  30.4226
    30.4229  30.4231  30.4232  30.7874  30.7874  30.8006  31.0369  31.0369
    31.0370  31.0370  31.7054  31.7054  31.7888  31.7888  32.2840  32.2841
    32.2841  32.2842  32.7952  32.7952  32.9357  32.9357  33.3500  33.3500
    33.8697  33.8697  33.9336  33.9336  34.3433  34.3433  34.3434  34.3434
    34.7985  34.7985  34.8621  34.8621  34.8913  34.8914  34.8914  34.8915
    35.0777  35.0777  35.3348  35.3348  35.5518  36.1788  36.1788  36.1824
    36.1825  36.1825  36.1826  36.2439  36.2439  36.2440  36.2440  36.9245
    36.9245  37.0013  37.0014  37.0014  37.0015  37.2756  37.4694  37.4694
    37.4695  37.4695  37.5245  37.5245  37.5396  37.5396  37.8337  38.0340
    38.0341  38.3537  38.3537  38.3537  38.3537  38.6281  38.6281  38.7323
    38.7323  38.8325  38.8325  38.8325  38.8326  38.9479  38.9479  39.1029
    39.1029  39.1428  39.1647  39.1647  39.1647  39.1647  39.5733  39.6513
    40.1918  40.1918  40.3609  40.3609  40.6112  41.0896  41.0896  41.0896
    41.0897  41.1078  41.1078  41.2913  41.2913  41.2914  41.2914  41.3863
    41.3863  41.8744  41.8744  42.0510  42.1639  42.1639  42.1640  42.1640
[...]
    47.1392  47.2069  47.2445  47.2445  47.6964  47.6964  47.7649  47.7649
    47.7649  47.7649  47.8398  47.8398  48.1806  48.1806  48.3356  48.3356
    48.4829  48.4829  48.4926  48.4926  48.5427  48.5427  48.5428  48.5428
    48.8142  48.8142  49.1249  49.1250  49.1250  49.1251  49.2175  49.2175
    49.3036  49.3036  49.5498  49.5498  49.5499  49.5499  49.6871  50.1036
    50.1036  50.3042  50.3042  50.3770  50.3770  50.4856  50.6069  50.6069
    50.7694  50.7694  50.7694  50.7695  51.1628  51.1628  51.1628  51.1628
    51.2614  51.2614  51.5652  51.5652  51.6239  51.6239  51.6266  51.6267
    51.6267  51.6267  51.9403  52.0657  52.0657  52.1143  52.1143  52.1143
    52.1143  52.2205  52.2206  52.6727  52.6727  52.8769  52.8770  52.8770
    52.8771  53.0184  53.0895  53.0895  53.1321  53.4405  53.4405  53.4613
    53.7651  54.2384  54.2384  54.2637  54.2637  54.2637  54.2638  54.2994
    54.2995  54.2995  54.2996  54.5296  54.5297  54.5298  54.5298  54.8271
    54.8272  54.9601  54.9601  55.3565  55.3565  55.4291  55.4292  55.4293
    55.4293  55.4486  55.4486  55.4486  55.4486  55.5386  55.5387  55.8650

[...]

          k =-0.5000-0.5000 0.0000 ( 15760 PWs)   bands (ev):

[...]

 ------ SPIN DOWN ----------

[...]

          k =-0.5000-0.5000-0.7105 ( 15672 PWs)   bands (ev):

[...]

          k = 0.2500-0.2500-0.7105 ( 15684 PWs)   bands (ev):

   -41.9036 -41.9036 -41.9024 -41.9023 -41.9022 -41.9021 -41.9015 -41.9015
   -41.9008 -41.9007 -41.9003 -41.9003 -41.9001 -41.9001 -41.8987 -41.8987
   -41.7099 -41.7097 -41.7096 -41.7096 -41.7096 -41.7096 -41.7093 -41.7093
   -41.7092 -41.7089 -41.7088 -41.7088 -41.7088 -41.7088 -41.7087 -41.7086
   -41.6023 -41.6023 -41.6022 -41.6019 -41.6018 -41.6018 -41.6018 -41.6016
   -41.6015 -41.6015 -41.6015 -41.6014 -41.6014 -41.6014 -41.6009 -41.6009
    -7.2531  -7.2531  -6.9586  -6.9585  -6.9584  -6.9583  -6.8780  -6.8779
    -6.7152  -6.7152  -6.5370  -6.5370  -6.5367  -6.5367  -6.4540  -6.4539
    -6.2634  -6.2633  -6.2632  -6.2632  -6.1592  -6.1592  -6.1069  -6.1069
    -6.1067  -6.1067  -6.1004  -6.1004  -6.0650  -6.0650  -5.9908  -5.9907
     3.9515   3.9515   3.9667   3.9668   4.3010   4.3010   4.3097   4.3097
     4.3100   4.3100   4.3176   4.3176   4.8764   4.8765   4.8768   4.8768
     5.0082   5.0082   5.1291   5.1291   5.2105   5.2105   5.2209   5.2209
     5.2210   5.2211   5.3859   5.3859   5.3862   5.3862   5.4269   5.4269
     5.6135   5.6136   5.6138   5.6138   5.9468   5.9468   6.1791   6.1791
     6.1793   6.1793   6.1947   6.1947   6.2190   6.2191   6.7049   6.7049
     6.8349   6.8349   6.9375   6.9375   6.9377   6.9377   7.1485   7.1485
     7.1487   7.1487   7.2842   7.2842   7.7563   7.7563   7.7564   7.7565
     7.7688   7.7689   7.7802   7.7802   7.8078   7.8078   7.8376   7.8376
     7.9321   7.9321   7.9322   7.9322   8.1673   8.1673   8.3776   8.3776
     8.4463   8.4463   8.6087   8.6088   8.7011   8.7012   8.7014   8.7014
     9.1656   9.1656   9.2290   9.2290   9.2293   9.2293   9.2899   9.2899
     9.7419   9.7419   9.7703   9.7703  10.2948  10.2949  10.2950  10.2950
    10.3007  10.3007  10.3801  10.3802  10.4636  10.4637  10.4638  10.4638
    10.5065  10.5065  10.6097  10.6097  10.6101  10.6101  10.6907  10.6907
    10.8301  10.8301  10.9726  10.9726  10.9727  10.9727  11.2456  11.2456
    11.6744  11.6744  11.7797  11.7797  11.7798  11.7798  11.8347  11.8347
    11.9031  11.9031  12.0089  12.0089  12.0090  12.0090  12.3462  12.3462
    13.3120  13.3120  13.3124  13.3124  13.3684  13.3684  13.7036  13.7036
    13.7037  13.7038  13.7350  13.7350  13.9233  13.9233  14.2837  14.2837
    14.3656  14.3656  14.3957  14.3957  14.8101  14.8102  14.8102  14.8102
    15.0671  15.0671  15.6646  15.6647  15.6647  15.6647  15.6965  15.6965
    18.6311  18.6311  19.7602  19.7602  19.7604  19.7604  20.4547  20.4547
    21.2299  21.2299  21.2866  21.2866  21.2867  21.2867  22.2567  22.2568
    22.3494  22.3494  22.5950  22.5951  22.8247  22.8247  22.8611  22.8611
    22.8612  22.8613  22.9851  22.9851  23.0354  23.0355  23.0356  23.0356
    24.4277  24.4277  24.6503  24.6503  24.6528  24.6528  24.6529  24.6529
    25.1465  25.1465  25.6238  25.6238  25.6239  25.6239  25.9561  25.9561
    26.2114  26.2115  26.2732  26.2732  26.6903  26.6903  26.6903  26.6903
    26.9954  26.9955  26.9955  26.9956  27.0172  27.0172  27.1289  27.1289
    27.3456  27.3456  27.4223  27.4223  27.4224  27.4225  27.5168  27.5168
    27.7483  27.7483  28.3643  28.3643  28.3643  28.3643  28.5777  28.5778
    28.5832  28.5832  29.1643  29.1643  29.1644  29.1644  30.3759  30.3760
    30.3818  30.3821  30.3825  30.3826  30.3909  30.3909  30.3950  30.3951
    30.4058  30.4058  30.4068  30.4068  30.4173  30.4174  30.7105  30.7105
    30.7105  30.7106  30.8324  30.8325  31.1421  31.1421  31.6204  31.6204
    31.6205  31.6205  31.7775  31.7775  32.2749  32.2749  32.2882  32.2882
    33.0410  33.0410  33.0412  33.0412  33.1916  33.1916  33.6814  33.6814
    33.7812  33.7812  34.5160  34.5160  34.5161  34.5161  34.5986  34.5986
    34.6468  34.6468  34.6619  34.6619  34.7252  34.7252  34.8153  34.8153
    34.8153  34.8153  35.6443  35.6443  35.6689  35.6689  35.6690  35.6690
    35.7540  35.7540  35.7540  35.7540  35.9578  35.9578  37.2272  37.2272
    37.2273  37.2273  37.3209  37.3209  37.4383  37.4383  37.4838  37.4838
    37.5250  37.5250  37.5251  37.5251  37.5542  37.5542  37.8350  37.8350
    37.8484  37.8484  38.0601  38.0601  38.1195  38.1195  38.3633  38.3633
    38.3633  38.3633  38.5177  38.5177  38.5177  38.5177  38.7022  38.7022
    39.2310  39.2310  39.3707  39.3708  39.3708  39.3708  39.8324  39.8324
    40.3887  40.3887  40.4820  40.4820  40.7077  40.7077  40.8645  40.8645
    40.8645  40.8645  40.9343  40.9343  41.5111  41.5111  41.6157  41.6157
    41.6157  41.6157  41.6300  41.6300  41.8750  41.8750  41.8750  41.8751
[...]
    47.7279  47.7279  47.8583  47.8583  47.8584  47.8584  48.0484  48.0484
    48.0637  48.0637  48.1941  48.1941  48.1942  48.1942  48.3605  48.3605
    48.4062  48.4062  48.6656  48.6657  48.6657  48.6657  49.0306  49.0306
    49.1716  49.1716  49.2607  49.2607  49.2607  49.2607  49.4939  49.4939
    49.6370  49.6370  49.6370  49.6370  49.7314  49.7314  49.7784  49.7784
    49.9138  49.9138  49.9778  49.9778  49.9778  49.9778  50.5892  50.5892
    50.5892  50.5892  50.6213  50.6213  50.8414  50.8414  51.0429  51.0429
    51.1541  51.1541  51.3109  51.3109  51.3110  51.3110  51.7430  51.7431
    52.1128  52.1129  52.2379  52.2379  52.2380  52.2380  52.3523  52.3523
    52.5472  52.5472  52.8861  52.8861  52.9232  52.9232  52.9232  52.9232
    52.9659  52.9659  53.1270  53.1270  53.5649  53.5649  53.7402  53.7402
    53.7403  53.7403  53.7800  53.7800  53.7801  53.7801  53.9629  53.9629
    54.0227  54.0227  54.4506  54.4506  54.4545  54.4545  54.4546  54.4546
    54.7706  54.7706  54.7706  54.7707  54.7913  54.7914  55.2215  55.2215
    55.2830  55.2830  55.3922  55.3922  55.6160  55.6160  55.6160  55.6160

     the Fermi energy is    12.4873 ev

!    total energy              =   -4359.52004573 Ry
     Harris-Foulkes estimate   =   -4359.52004662 Ry
     estimated scf accuracy    <       0.00000094 Ry

     The total energy is the sum of the following terms:

     one-electron contribution =   -1092.72069457 Ry
     hartree contribution      =     841.62014923 Ry
     xc contribution           =   -1097.30319179 Ry
     ewald contribution        =   -3011.11594880 Ry
     Hubbard energy            =       0.00000000 Ry
     smearing contrib. (-TS)   =      -0.00035981 Ry

     total magnetization       =    -0.00 Bohr mag/cell
     absolute magnetization    =     0.00 Bohr mag/cell

     convergence has been achieved in  15 iterations

     Writing output data file pwscf.save

     General routines

     Parallel routines
     Hubbard U routines

   This run was terminated on:   2:52:17   9Feb2014

   JOB DONE.
Running PBS batch system epilogue script
Job id: 266909.audhumbla.fysik.dtu.dk
Username: zhonxu
Groupname: campgst
Jobname: linear-response/PtO2-2-scf
Sessionid: 8259
Queuename: verylong
Accounting:
This job has allocated the following 16 nodes:
b039 b039 b039 b039 b039 b039 b039 b039 b013 b013 b013 b013 b013 b013 b013 b013
Finished epilogue job 266909.audhumbla.fysik.dtu.dk for zhonxu