     Program PWSCF v.5.0.2 (svn rev. 9656) starts on 15May2014 at  8: 1:45

     Current dimensions of program PWSCF are:
     Max number of different atomic species (ntypx) = 10
     Max number of k-points (npk) =  40000
     Max angular momentum in pseudopotentials (lmaxx) =  3
     Reading input from pwscf.in
Warning: card &CELL ignored
Warning: card / ignored

     Subspace diagonalization in iterative solution of the eigenvalue problem:
     a serial algorithm will be used

     bravais-lattice index     =            0
     lattice parameter (alat)  =      12.0187  a.u.
     unit-cell volume          =    7280.5819 (a.u.)^3
     number of atoms/cell      =           30
     number of atomic types    =            3
     number of electrons       =       232.00
     number of Kohn-Sham states=          348
     kinetic-energy cutoff     =      40.0000  Ry
     charge density cutoff     =     500.0000  Ry
     convergence threshold     =      1.0E-06
     mixing beta               =       0.7000
     number of iterations used =            8  plain     mixing
     Exchange-correlation      = SLA  PW   PBE  PBE ( 1 4 3 4 0)
     EXX-fraction              =        0.00
     nstep                     =           50

     celldm(1)=  12.018658  celldm(2)=   0.000000  celldm(3)=   0.000000
     celldm(4)=   0.000000  celldm(5)=   0.000000  celldm(6)=   0.000000

     crystal axes: (cart. coord. in units of alat)
               a(1) = (   1.000000   0.000000   0.000000 )
               a(2) = (   0.000000   1.009517   0.000000 )
               a(3) = (   0.000000   0.000000   4.154171 )

     reciprocal axes: (cart. coord. in units 2 pi/alat)
               b(1) = (  1.000000  0.000000  0.000000 )
               b(2) = (  0.000000  0.990572  0.000000 )
               b(3) = (  0.000000  0.000000  0.240722 )

     PseudoPot. # 1 for O  read from file:
     /home/camp/zhonxu/pseudo/o_pbe_v1.01.uspp.F.UPF
     MD5 check sum: 2bcb18d16ea4b960afae9ec6d52f22d2
     Pseudo is Ultrasoft + core correction, Zval =  6.0
     Generated by new atomic code, or converted to UPF format
     Using radial grid of  737 points,  5 beta functions with:
                l(1) =   0
                l(2) =   0
                l(3) =   1
                l(4) =   1
                l(5) =   2
     Q(r) pseudized with  8 coefficients,  rinner =    0.900   0.900   0.900
                                                       0.900   0.900

     PseudoPot. # 2 for Ir read from file:
     /home/camp/zhonxu/pseudo/ir_pbe_v1.uspp.F.UPF
     MD5 check sum: abf987a9674477536ede83817f8f8b70
     Pseudo is Ultrasoft + core correction, Zval = 15.0
     Generated by new atomic code, or converted to UPF format
     Using radial grid of  983 points,  7 beta functions with:
                l(1) =   0
                l(2) =   0
                l(3) =   1
                l(4) =   1
                l(5) =   1
                l(6) =   2
                l(7) =   2
     Q(r) pseudized with  8 coefficients,  rinner =    1.350   1.350   1.350
                                                       1.350   1.350

     PseudoPot. # 3 for H  read from file:
     /home/camp/zhonxu/pseudo/h_pbe_v1.uspp.F.UPF
     MD5 check sum: 3408e3ff4ec8b0a4e358431e7e038a48
     Pseudo is Ultrasoft, Zval =  1.0
     Generated by new atomic code, or converted to UPF format
     Using radial grid of  615 points,  2 beta functions with:
                l(1) =   0
                l(2) =   0
     Q(r) pseudized with  8 coefficients,  rinner =    0.700

     atomic species   valence    mass     pseudopotential
        O0             6.00    15.99940     O ( 1.00)
        Ir1           15.00   192.22000     Ir( 1.00)
        H2             1.00     1.00794     H ( 1.00)

     Simplified LDA+U calculation (l_max = 2) with parameters (eV):
     atomic species    L          U    alpha       J0     beta
        Ir1            2     0.0000   0.0000   0.0000   0.0000

     No symmetry found

   Cartesian axes

     site n.     atom                  positions (alat units)
         1           O0  tau(   1) = (   0.0000000   0.0000000   1.5730185  )
         2           O0  tau(   2) = (   0.0000000   0.5047586   1.6673182  )
         3           Ir1 tau(   3) = (   0.2500000   0.5047586   1.8780178  )
         4           Ir1 tau(   4) = (   0.0000000   0.0000000   1.8842906  )
         5           O0  tau(   5) = (   0.2500000   0.8177090   1.8825458  )
         6           O0  tau(   6) = (   0.2500000   0.1918083   1.8810503  )
         7           O0  tau(   7) = (   0.0000000   0.5047586   2.0695666  )
         8           O0  tau(   8) = (   0.0000000   0.0000000   2.1991352  )
         9           Ir1 tau(   9) = (   0.2500000   0.0000000   2.3955860  )
        10           Ir1 tau(  10) = (   0.0000000   0.5047586   2.3764768  )
        11           O0  tau(  11) = (   0.2500000   0.6965669   2.3975800  )
        12           O0  tau(  12) = (   0.2500000   0.3129503   2.3977461  )
        13           O0  tau(  13) = (   0.0000000   0.0000000   2.5806958  )
        14           O0  tau(  14) = (   0.5000000   0.0000000   1.5730185  )
        15           O0  tau(  15) = (   0.5000000   0.5047586   1.6673182  )
        16           Ir1 tau(  16) = (   0.7500000   0.5047586   1.8780178  )
        17           Ir1 tau(  17) = (   0.5000000   0.0000000   1.8842906  )
        18           O0  tau(  18) = (   0.7500000   0.8177090   1.8825458  )
        19           O0  tau(  19) = (   0.7500000   0.1918083   1.8810503  )
        20           O0  tau(  20) = (   0.5000000   0.5047586   2.0695666  )
        21           O0  tau(  21) = (   0.5000000   0.0000000   2.1991352  )
        22           Ir1 tau(  22) = (   0.7500000   0.0000000   2.3955860  )
        23           Ir1 tau(  23) = (   0.5000000   0.5047586   2.3764768  )
        24           O0  tau(  24) = (   0.7500000   0.6965669   2.3975800  )
        25           O0  tau(  25) = (   0.7500000   0.3129503   2.3977461  )
        26           O0  tau(  26) = (   0.5000000   0.0000000   2.5807374  )
        27           H2  tau(  27) = (  -0.0000500   0.6423962   1.5933324  )
        28           H2  tau(  28) = (   0.4999500   0.6423962   1.5933324  )
        29           H2  tau(  29) = (   0.1436500   0.0338188   1.5249132  )
        30           H2  tau(  30) = (   0.6436500   0.0338188   1.5249132  )

     number of k points=    10  Methfessel-Paxton smearing, width (Ry)=  0.0100
                       cart. coord. in units 2pi/alat
        k(    1) = (   0.0000000   0.0000000   0.0000000), wk =   0.1250000
        k(    2) = (   0.0000000   0.2476431   0.0000000), wk =   0.2500000
        k(    3) = (   0.0000000  -0.4952862   0.0000000), wk =   0.1250000
        k(    4) = (   0.2500000   0.0000000   0.0000000), wk =   0.2500000
        k(    5) = (   0.2500000   0.2476431   0.0000000), wk =   0.2500000
        k(    6) = (   0.2500000  -0.4952862   0.0000000), wk =   0.2500000
        k(    7) = (  -0.5000000   0.0000000   0.0000000), wk =   0.1250000
        k(    8) = (  -0.5000000   0.2476431   0.0000000), wk =   0.2500000
        k(    9) = (  -0.5000000  -0.4952862   0.0000000), wk =   0.1250000
        k(   10) = (  -0.2500000   0.2476431   0.0000000), wk =   0.2500000

     Largest allocated arrays     est. size (Mb)     dimensions
     Largest temporary arrays     est. size (Mb)     dimensions

     Check: negative/imaginary core charge=   -0.000003    0.000000

     Initial potential from superposition of free atoms
     Check: negative starting charge=   -3.334716

     starting charge  227.99968, renormalised to  232.00000

     negative rho (up, down):  0.339E+01 0.000E+00
     Number of +U iterations with fixed ns =  0
     Starting occupations:
 --- enter write_ns ---
 LDA+U parameters:
U( 2)     =  0.00000000
alpha( 2) =  0.00000000
atom    3   Tr[ns(na)] =   7.00000
    eigenvalues:
  0.700  0.700  0.700  0.700  0.700
    eigenvectors:
  1.000  0.000  0.000  0.000  0.000
  0.000  1.000  0.000  0.000  0.000
  0.000  0.000  1.000  0.000  0.000
  0.000  0.000  0.000  1.000  0.000
  0.000  0.000  0.000  0.000  1.000
    occupations:
  0.700  0.000  0.000  0.000  0.000
  0.000  0.700  0.000  0.000  0.000
  0.000  0.000  0.700  0.000  0.000
  0.000  0.000  0.000  0.700  0.000
  0.000  0.000  0.000  0.000  0.700
atom    4   Tr[ns(na)] =   7.00000
    eigenvalues:
  0.700  0.700  0.700  0.700  0.700
    eigenvectors:
  1.000  0.000  0.000  0.000  0.000
  0.000  1.000  0.000  0.000  0.000
  0.000  0.000  1.000  0.000  0.000
  0.000  0.000  0.000  1.000  0.000
  0.000  0.000  0.000  0.000  1.000
    occupations:
  0.700  0.000  0.000  0.000  0.000
  0.000  0.700  0.000  0.000  0.000
  0.000  0.000  0.700  0.000  0.000
  0.000  0.000  0.000  0.700  0.000
  0.000  0.000  0.000  0.000  0.700
atom    9   Tr[ns(na)] =   7.00000
    eigenvalues:
  0.700  0.700  0.700  0.700  0.700
    eigenvectors:
  1.000  0.000  0.000  0.000  0.000
  0.000  1.000  0.000  0.000  0.000
  0.000  0.000  1.000  0.000  0.000
  0.000  0.000  0.000  1.000  0.000
  0.000  0.000  0.000  0.000  1.000
    occupations:
  0.700  0.000  0.000  0.000  0.000
  0.000  0.700  0.000  0.000  0.000
  0.000  0.000  0.700  0.000  0.000
  0.000  0.000  0.000  0.700  0.000
  0.000  0.000  0.000  0.000  0.700
atom   10   Tr[ns(na)] =   7.00000
    eigenvalues:
  0.700  0.700  0.700  0.700  0.700
    eigenvectors:
  1.000  0.000  0.000  0.000  0.000
  0.000  1.000  0.000  0.000  0.000
  0.000  0.000  1.000  0.000  0.000
  0.000  0.000  0.000  1.000  0.000
  0.000  0.000  0.000  0.000  1.000
    occupations:
  0.700  0.000  0.000  0.000  0.000
  0.000  0.700  0.000  0.000  0.000
  0.000  0.000  0.700  0.000  0.000
  0.000  0.000  0.000  0.700  0.000
  0.000  0.000  0.000  0.000  0.700
atom   16   Tr[ns(na)] =   7.00000
    eigenvalues:
  0.700  0.700  0.700  0.700  0.700
    eigenvectors:
  1.000  0.000  0.000  0.000  0.000
  0.000  1.000  0.000  0.000  0.000
  0.000  0.000  1.000  0.000  0.000
  0.000  0.000  0.000  1.000  0.000
  0.000  0.000  0.000  0.000  1.000
    occupations:
  0.700  0.000  0.000  0.000  0.000
  0.000  0.700  0.000  0.000  0.000
  0.000  0.000  0.700  0.000  0.000
  0.000  0.000  0.000  0.700  0.000
  0.000  0.000  0.000  0.000  0.700
atom   17   Tr[ns(na)] =   7.00000
    eigenvalues:
  0.700  0.700  0.700  0.700  0.700
    eigenvectors:
  1.000  0.000  0.000  0.000  0.000
  0.000  1.000  0.000  0.000  0.000
  0.000  0.000  1.000  0.000  0.000
  0.000  0.000  0.000  1.000  0.000
  0.000  0.000  0.000  0.000  1.000
    occupations:
  0.700  0.000  0.000  0.000  0.000
  0.000  0.700  0.000  0.000  0.000
  0.000  0.000  0.700  0.000  0.000
  0.000  0.000  0.000  0.700  0.000
  0.000  0.000  0.000  0.000  0.700
atom   22   Tr[ns(na)] =   7.00000
    eigenvalues:
  0.700  0.700  0.700  0.700  0.700
    eigenvectors:
  1.000  0.000  0.000  0.000  0.000
  0.000  1.000  0.000  0.000  0.000
  0.000  0.000  1.000  0.000  0.000
  0.000  0.000  0.000  1.000  0.000
  0.000  0.000  0.000  0.000  1.000
    occupations:
  0.700  0.000  0.000  0.000  0.000
  0.000  0.700  0.000  0.000  0.000
  0.000  0.000  0.700  0.000  0.000
[...]
     ethr =  5.25E-10,  avg # of iterations =  1.0

     negative rho (up, down):  0.313E+01 0.000E+00

     End of self-consistent calculation
 --- enter write_ns ---
 LDA+U parameters:
U( 2)     =  0.00000000
alpha( 2) =  0.00000000
atom    3   Tr[ns(na)] =   8.04943
    eigenvalues:
  0.607  0.628  0.876  0.954  0.959
    eigenvectors:
  0.000  0.196  0.003  0.001  0.800
  1.000  0.000  0.000  0.000  0.000
  0.000  0.000  0.996  0.000  0.004
  0.000  0.804  0.000  0.000  0.196
  0.000  0.000  0.000  0.999  0.001
    occupations:
  0.894 -0.000  0.003 -0.131 -0.000
 -0.000  0.607 -0.000 -0.000 -0.006
  0.003 -0.000  0.876 -0.004  0.001
 -0.131 -0.000 -0.004  0.693 -0.000
 -0.000 -0.006  0.001 -0.000  0.954
atom    4   Tr[ns(na)] =   8.01468
    eigenvalues:
  0.618  0.663  0.850  0.900  0.977
    eigenvectors:
  0.000  0.990  0.000  0.000  0.009
  0.000  0.000  0.039  0.961  0.000
  0.000  0.000  0.961  0.039  0.000
  0.000  0.009  0.000  0.000  0.991
  1.000  0.000  0.000  0.000  0.000
    occupations:
  0.666 -0.003 -0.001  0.030  0.001
 -0.003  0.898  0.010  0.000 -0.001
 -0.001  0.010  0.852 -0.000  0.000
  0.030  0.000 -0.000  0.974  0.000
  0.001 -0.001  0.000  0.000  0.618
atom    9   Tr[ns(na)] =   7.99292
    eigenvalues:
  0.647  0.664  0.838  0.874  0.973
    eigenvectors:
  0.000  0.147  0.000  0.000  0.853
  1.000  0.000  0.000  0.000  0.000
  0.000  0.000  1.000  0.000  0.000
  0.000  0.853  0.000  0.000  0.147
  0.000  0.000  0.000  1.000  0.000
    occupations:
  0.928  0.000 -0.000 -0.110 -0.001
  0.000  0.647  0.000  0.000 -0.000
 -0.000  0.000  0.838 -0.000 -0.000
 -0.110  0.000 -0.000  0.709  0.001
 -0.001 -0.000 -0.000  0.001  0.874
atom   10   Tr[ns(na)] =   8.00290
    eigenvalues:
  0.608  0.610  0.905  0.906  0.973
    eigenvectors:
  0.001  0.995  0.000  0.000  0.004
  0.000  0.000  0.015  0.985  0.000
  0.000  0.000  0.985  0.015  0.000
  0.000  0.004  0.000  0.000  0.996
  0.999  0.001  0.000  0.000  0.000
    occupations:
  0.612  0.000  0.002  0.024 -0.000
  0.000  0.906 -0.000  0.000 -0.000
  0.002 -0.000  0.905  0.000  0.000
  0.024  0.000  0.000  0.971  0.000
 -0.000 -0.000  0.000  0.000  0.608
atom   16   Tr[ns(na)] =   8.04926
    eigenvalues:
  0.607  0.628  0.876  0.954  0.959
    eigenvectors:
  0.000  0.196  0.003  0.001  0.800
  1.000  0.000  0.000  0.000  0.000
  0.000  0.000  0.996  0.000  0.004
  0.000  0.804  0.000  0.000  0.196
  0.000  0.000  0.000  0.999  0.001
    occupations:
  0.894 -0.000  0.003 -0.131  0.000
 -0.000  0.607 -0.000 -0.000 -0.006
  0.003 -0.000  0.876 -0.004  0.001
 -0.131 -0.000 -0.004  0.693 -0.000
  0.000 -0.006  0.001 -0.000  0.954
atom   17   Tr[ns(na)] =   8.01507
    eigenvalues:
  0.618  0.663  0.850  0.900  0.977
    eigenvectors:
  0.000  0.990  0.000  0.000  0.009
  0.000  0.000  0.039  0.961  0.000
  0.000  0.000  0.961  0.039  0.000
  0.000  0.009  0.000  0.000  0.991
  1.000  0.000  0.000  0.000  0.000
    occupations:
  0.666 -0.003 -0.001  0.030  0.001
 -0.003  0.898  0.010  0.000 -0.001
 -0.001  0.010  0.852 -0.000  0.000
  0.030  0.000 -0.000  0.974  0.000
  0.001 -0.001  0.000  0.000  0.618
atom   22   Tr[ns(na)] =   7.99384
    eigenvalues:
  0.647  0.664  0.838  0.874  0.973
    eigenvectors:
  0.000  0.147  0.000  0.000  0.853
  1.000  0.000  0.000  0.000  0.000
  0.000  0.000  1.000  0.000  0.000
  0.000  0.853  0.000  0.000  0.147
  0.000  0.000  0.000  1.000  0.000
    occupations:
  0.928  0.000 -0.000 -0.110 -0.001
  0.000  0.647  0.000  0.000 -0.000
 -0.000  0.000  0.838 -0.000 -0.000
 -0.110  0.000 -0.000  0.709  0.001
 -0.001 -0.000 -0.000  0.001  0.874
atom   23   Tr[ns(na)] =   8.00278
    eigenvalues:
  0.608  0.610  0.905  0.906  0.973
    eigenvectors:
  0.001  0.995  0.000  0.000  0.004
  0.000  0.000  0.014  0.986  0.000
  0.000  0.000  0.985  0.014  0.000
  0.000  0.004  0.000  0.000  0.996
  0.999  0.001  0.000  0.000  0.000
    occupations:
  0.612  0.000  0.002  0.024 -0.000
  0.000  0.906 -0.000  0.000 -0.000
  0.002 -0.000  0.905  0.000  0.000
  0.024  0.000  0.000  0.971  0.000
 -0.000 -0.000  0.000  0.000  0.608
N of occupied +U levels =  64.1208740
 --- exit write_ns ---

          k = 0.0000 0.0000 0.0000 ( 31045 PWs)   bands (ev):

   -51.1506 -51.1374 -51.1302 -51.0948 -51.0868 -51.0490 -51.0024 -50.9274
   -50.9092 -50.9015 -50.8601 -50.8506 -50.8472 -50.8456 -50.8048 -50.7915
   -50.7741 -50.7653 -50.7613 -50.7464 -50.6399 -50.6253 -50.5203 -50.5055
   -21.6963 -21.2237 -21.1125 -21.0900 -20.4825 -20.4219 -20.3868 -20.3074
   -20.2052 -20.2005 -20.1106 -19.9129 -19.7510 -19.6899 -19.6118 -19.4829
   -18.5637 -18.4751 -10.2261 -10.1490  -9.8352  -8.9648  -8.7130  -8.6694
    -8.6456  -8.6418  -8.5873  -8.5170  -8.4789  -8.4567  -8.2641  -8.2367
    -8.1474  -7.9073  -7.8796  -7.8237  -7.7548  -7.4987  -7.3059  -7.0795
    -6.9821  -6.7195  -6.3665  -6.2971  -6.2877  -5.9410  -5.7141  -5.6615
    -5.5244  -5.4588  -5.4091  -5.3887  -5.2996  -5.2817  -5.1892  -5.0570
    -4.9575  -4.8443  -4.7350  -4.6860  -4.5443  -4.4354  -4.3626  -4.1743
    -4.0196  -3.9401  -3.8906  -3.8011  -3.4817  -3.3575  -3.3082  -3.1311
    -2.9798  -2.9346  -2.8908  -2.8727  -2.6560  -2.5963  -2.4697  -2.3639
    -2.3329  -2.3148  -2.2527  -2.0946  -1.8127  -1.7979  -1.5839  -1.5465
    -1.3969  -1.0956  -0.9406  -0.7656  -0.7284  -0.5432  -0.3845  -0.2979
    -0.0569   0.2096   1.1049   1.4281   1.4402   1.4480   1.6296   1.7673
     2.0245   2.3722   2.5222   3.0052   3.1788   3.1865   3.3461   3.3957
     3.7928   4.0784   4.3096   4.7888   4.9068   5.7731   5.9044   6.2319
     6.2792   6.5842   6.8921   6.9584   7.2256   7.3650   7.3996   7.5171
     7.6981   7.7536   7.8504   7.9448   7.9482   7.9643   8.0247   8.0966
     8.2236   8.2697   8.2939   8.3271   8.3664   8.4841   8.5801   8.6078
     8.7157   8.8106   8.8129   8.8291   8.9428   8.9451   8.9795   8.9966
     9.0024   9.0874   9.0886   9.1266   9.1697   9.2192   9.3201   9.4245
     9.5216   9.6113   9.7655   9.9911  10.0705  10.1140  10.1305  10.2677
    10.4631  10.4842  10.4868  10.6631  10.8183  10.9018  11.0402  11.0507
    11.0914  11.1979  11.2283  11.2598  11.2917  11.4555  11.5537  11.6901
    11.7148  11.7154  11.7368  11.8068  11.8196  11.9280  11.9758  11.9793
    12.1289  12.1679  12.2223  12.2925  12.3731  12.4114  12.4903  12.5787
    12.6570  12.6622  12.7313  12.7503  12.8882  13.0271  13.1506  13.2317
    13.2420  13.5698  13.6025  13.6589  13.7286  13.7725  13.8820  13.9127
    14.1279  14.2008  14.2675  14.3131  14.4173  14.5049  14.6258  14.6969
    14.8752  14.8919  15.0832  15.1145  15.2205  15.2518  15.3945  15.4485
    15.5126  15.6241  15.6955  15.7170  15.7984  15.7985  15.9861  16.1061
    16.1581  16.2436  16.2977  16.4915  16.5435  16.6822  16.7803  16.7930
    17.1359  17.1767  17.2176  17.2473  17.2996  17.3480  17.3599  17.4849
    17.6179  17.7981  17.8300  17.8510  17.9251  17.9390  18.1424  18.2391
    18.3217  18.4451  18.4799  18.5028  18.5337  18.6430  18.7111  18.7700
    18.8621  18.8827  18.9395  19.0476  19.1336  19.1387  19.1473  19.2127
    19.2352  19.2753  19.3095  19.3692  19.5064  19.5819  19.5984  19.6755
    19.7698  19.7836  19.8182  19.8902  19.9259  19.9939  20.0348  20.1266
    20.1362  20.3178  20.3479  20.4148  20.4415  20.5240  20.5601  20.5926
    20.6121  20.6629  20.7448  20.8027  20.9892  21.0570  21.1492  21.1950
    21.2497  21.2720  21.3824  21.4117  21.5976  21.6234  21.7221  21.7519
    21.8823  21.9246  21.9566  22.0111

[...]

          k = 0.2500-0.4953 0.0000 ( 31088 PWs)   bands (ev):

[...]

          k =-0.5000 0.0000 0.0000 ( 31104 PWs)   bands (ev):

[...]

          k =-0.2500 0.2476 0.0000 ( 31099 PWs)   bands (ev):

   -51.1365 -51.1361 -51.1315 -51.0944 -51.0875 -51.0629 -50.9878 -50.9231
   -50.9164 -50.9120 -50.8490 -50.8465 -50.8455 -50.8350 -50.8035 -50.7931
   -50.7766 -50.7720 -50.7665 -50.7614 -50.6379 -50.6274 -50.5184 -50.5077
   -21.5217 -21.1349 -21.0278 -20.9309 -20.6276 -20.4588 -20.4322 -20.4038
   -20.1914 -20.1743 -20.0656 -19.9047 -19.8956 -19.8262 -19.6850 -19.5139
   -18.6059 -18.5277  -9.7280  -9.5415  -9.4989  -9.1958  -8.8005  -8.7485
    -8.6392  -8.5849  -8.5175  -8.4110  -8.4079  -8.3101  -8.2761  -8.2407
    -7.9552  -7.8843  -7.7956  -7.5908  -7.4321  -7.2880  -7.2512  -7.0408
    -6.9940  -6.6445  -6.4714  -6.3545  -6.2501  -6.1604  -6.1063  -6.0696
    -5.9744  -5.9168  -5.8599  -5.7625  -5.7348  -5.6050  -5.3991  -5.3933
    -5.1436  -5.0365  -4.9129  -4.7661  -4.6824  -4.6034  -4.4940  -4.4211
    -4.1986  -4.0849  -4.0349  -3.6432  -3.5736  -3.3390  -3.2708  -3.0595
    -2.8155  -2.7660  -2.4943  -2.4270  -2.3847  -2.3582  -2.2215  -2.2204
    -2.1222  -2.0965  -2.0905  -1.9806  -1.8120  -1.6579  -1.6030  -1.4488
    -1.0582  -0.9815  -0.9808  -0.8171  -0.7758  -0.5585  -0.3725  -0.2799
    -0.1072   0.0749   0.8987   1.0972   1.4632   1.6310   1.7287   2.0745
     2.3200   2.5859   2.7737   2.8117   3.1224   3.1552   3.2791   3.3814
     3.7277   4.3147   4.7816   5.1965   5.3983   5.5476   5.6709   5.8971
     6.1478   6.2924   6.5652   6.5881   6.6533   6.8431   7.0770   7.1091
     7.2578   7.3333   7.4246   7.6074   7.6657   7.8662   7.9642   8.0443
     8.1479   8.3707   8.4139   8.4381   8.5467   8.6990   8.7907   8.8105
     8.8138   8.8150   8.9131   8.9438   8.9452   8.9939   8.9967   9.0853
     9.0857   9.0936   9.0981   9.2198   9.3131   9.4936   9.6050   9.6758
     9.7120   9.8262   9.9721  10.0812  10.1740  10.3019  10.3208  10.3811
    10.4262  10.4424  10.5607  10.7598  10.7981  10.8169  10.9073  10.9995
    11.0266  11.2116  11.3211  11.3951  11.5396  11.5612  11.6862  11.7341
    11.7924  11.9236  12.0196  12.1499  12.1739  12.2006  12.2914  12.3818
    12.5331  12.5801  12.6137  12.6348  12.7105  12.7973  12.8220  12.8966
    13.0293  13.0350  13.1146  13.1805  13.2502  13.3308  13.4129  13.5161
    13.5419  13.7211  13.8461  13.8613  13.9562  13.9599  14.0223  14.1254
    14.2417  14.3265  14.3995  14.4704  14.5416  14.7295  14.7359  14.8419
    14.8425  15.1514  15.1680  15.3400  15.3471  15.4312  15.5339  15.5745
    15.6078  15.7536  15.7620  15.8243  15.8706  15.9284  15.9689  16.0532
    16.0604  16.0980  16.1399  16.2387  16.3319  16.3487  16.4258  16.4335
    16.5515  16.6430  16.6972  16.7359  16.7907  16.8190  17.0791  17.1594
    17.1723  17.3387  17.3665  17.4421  17.4534  17.4883  17.5648  17.5862
    17.6681  17.7252  17.7262  17.8524  17.9071  17.9394  17.9731  17.9751
    18.1928  18.2192  18.3170  18.3566  18.4340  18.5037  18.5626  18.6142
    18.7532  18.8421  18.9263  18.9321  19.0530  19.0880  19.1352  19.1762
    19.2622  19.2745  19.3517  19.4164  19.5338  19.6123  19.6971  19.7162
    19.8334  19.9048  19.9282  20.0371  20.1000  20.2600  20.3411  20.3419
    20.4232  20.4904  20.5570  20.6140  20.6158  20.7555  20.7781  20.8184
    20.8597  20.9314  20.9804  21.1014  21.1020  21.2743  21.3305  21.3365
    21.3721  21.3970  21.4919  21.5414

     the Fermi energy is    -0.7906 ev

!    total energy              =   -2074.00581020 Ry
     Harris-Foulkes estimate   =   -2074.00581110 Ry
     estimated scf accuracy    <       0.00000095 Ry

     The total energy is the sum of the following terms:

     one-electron contribution =  -21975.25138257 Ry
     hartree contribution      =   11028.23829874 Ry
     xc contribution           =    -569.24000120 Ry
     ewald contribution        =    9442.24806282 Ry
     Hubbard energy            =       0.00000000 Ry
     smearing contrib. (-TS)   =      -0.00078800 Ry

     convergence has been achieved in  27 iterations

     Forces acting on atoms (Ry/au):

     negative rho (up, down):  0.313E+01 0.000E+00
     atom    1 type  1   force =    -0.00745802   -0.01449365    0.00010900
     atom    2 type  1   force =     0.00012564    0.00652816   -0.00006701
     atom    3 type  2   force =    -0.00006509    0.00421649    0.00018146
     atom    4 type  2   force =     0.00947005    0.00797210    0.00012506
     atom    5 type  1   force =    -0.00195437   -0.01685653    0.00007911
     atom    6 type  1   force =     0.00294775    0.01485602    0.00021462
     atom    7 type  1   force =    -0.00029156   -0.00120726    0.00034539
     atom    8 type  1   force =    -0.00304624   -0.00047556   -0.00048758
     atom    9 type  2   force =     0.00123739    0.00008182   -0.00033719
     atom   10 type  2   force =     0.00005210   -0.00164798    0.00024518
     atom   11 type  1   force =    -0.00009416    0.00282349   -0.00038796
     atom   12 type  1   force =     0.00022444   -0.00224083   -0.00031001
     atom   13 type  1   force =    -0.00077902   -0.00013540   -0.00021422
     atom   14 type  1   force =    -0.00750633   -0.01450596   -0.00000059
     atom   15 type  1   force =     0.00017509    0.00651498   -0.00007655
     atom   16 type  2   force =    -0.00006993    0.00421489    0.00017858
     atom   17 type  2   force =     0.00950740    0.00797139    0.00013659
     atom   18 type  1   force =    -0.00181826   -0.01689348    0.00004169
     atom   19 type  1   force =     0.00308360    0.01489115    0.00018014
     atom   20 type  1   force =    -0.00029554   -0.00120739    0.00038339
     atom   21 type  1   force =    -0.00334954   -0.00047587   -0.00037872
     atom   22 type  2   force =     0.00120145    0.00008118   -0.00039505
     atom   23 type  2   force =    -0.00001620   -0.00164785    0.00023491
     atom   24 type  1   force =    -0.00012019    0.00268012   -0.00036672
     atom   25 type  1   force =     0.00019889   -0.00209744   -0.00028933
     atom   26 type  1   force =    -0.00111920   -0.00013615   -0.00034538
     atom   27 type  3   force =    -0.00002921    0.00032739    0.00050291
     atom   28 type  3   force =    -0.00002832    0.00032867    0.00050119
     atom   29 type  3   force =    -0.00008577    0.00026754    0.00009585
     atom   30 type  3   force =    -0.00009682    0.00026596    0.00010123

     Total force =     0.001664     Total SCF correction =     0.003030
     SCF correction compared to forces is large: reduce conv_thr to get better values

     BFGS Geometry Optimization

     bfgs converged in   1 scf cycles and   0 bfgs steps
     (criteria: energy < 0.10E-03, force < 0.10E-02)

     End of BFGS Geometry Optimization

     Final energy   =   -2074.0058101999 Ry
Begin final coordinates

ATOMIC_POSITIONS (crystal)
O0       0.000000000   0.000000000   0.378660000    0   0   1
O0       0.000000000   0.500000000   0.401360000    0   0   1
Ir1      0.250000000   0.500000000   0.452080000    0   0   1
Ir1      0.000000000   0.000000000   0.453590000    0   0   1
O0       0.250000000   0.810000000   0.453170000    0   0   1
O0       0.250000000   0.190000000   0.452810000    0   0   1
O0       0.000000000   0.500000000   0.498190000    0   0   1
O0       0.000000000   0.000000000   0.529380000    0   0   1
Ir1      0.250000000   0.000000000   0.576670000    0   0   1
Ir1      0.000000000   0.500000000   0.572070000    0   0   1
O0       0.250000000   0.690000000   0.577150000    0   0   1
O0       0.250000000   0.310000000   0.577190000    0   0   1
O0       0.000000000   0.000000000   0.621230000    0   0   1
O0       0.500000000   0.000000000   0.378660000    0   0   1
O0       0.500000000   0.500000000   0.401360000    0   0   1
Ir1      0.750000000   0.500000000   0.452080000    0   0   1
Ir1      0.500000000   0.000000000   0.453590000    0   0   1
O0       0.750000000   0.810000000   0.453170000    0   0   1
O0       0.750000000   0.190000000   0.452810000    0   0   1
O0       0.500000000   0.500000000   0.498190000    0   0   1
O0       0.500000000   0.000000000   0.529380000    0   0   1
Ir1      0.750000000   0.000000000   0.576670000    0   0   1
Ir1      0.500000000   0.500000000   0.572070000    0   0   1
O0       0.750000000   0.690000000   0.577150000    0   0   1
O0       0.750000000   0.310000000   0.577190000    0   0   1
O0       0.500000000   0.000000000   0.621240000    0   0   1
H2      -0.000050000   0.636340000   0.383550000
H2       0.499950000   0.636340000   0.383550000
H2       0.143650000   0.033500000   0.367080000
H2       0.643650000   0.033500000   0.367080000
End final coordinates

     General routines

     Parallel routines
     Hubbard U routines

   This run was terminated on:   9:37:28  15May2014

   JOB DONE.
Running PBS batch system epilogue script
Job id: 359649.audhumbla.fysik.dtu.dk
Username: zhonxu
Groupname: campgst
Jobname: IrO2/Eads-2-layers/bare-U-0.0
Sessionid: 568
Queuename: verylong
Accounting:
This job has allocated the following 16 nodes:
c006 c006 c006 c006 c006 c006 c006 c006 c004 c004 c004 c004 c004 c004 c004 c004
Finished epilogue job 359649.audhumbla.fysik.dtu.dk for zhonxu