     Program PWSCF v.5.0.2 (svn rev. 9656) starts on 27Feb2014 at 18:22: 7

     Current dimensions of program PWSCF are:
     Max number of different atomic species (ntypx) = 10
     Max number of k-points (npk) =  40000
     Max angular momentum in pseudopotentials (lmaxx) =  3
     Reading input from bare.in
Warning: card &CELL ignored
Warning: card / ignored

     Subspace diagonalization in iterative solution of the eigenvalue problem:
     a serial algorithm will be used

     bravais-lattice index     =            0
     lattice parameter (alat)  =      11.7541  a.u.
     unit-cell volume          =    7139.8207 (a.u.)^3
     number of atoms/cell      =           30
     number of atomic types    =            3
     number of electrons       =       232.00
     number of Kohn-Sham states=          348
     kinetic-energy cutoff     =      40.0000  Ry
     charge density cutoff     =     500.0000  Ry
     convergence threshold     =      1.0E-06
     mixing beta               =       0.3000
     number of iterations used =            8  plain     mixing
     Exchange-correlation      = SLA  PW   PBE  PBE ( 1 4 3 4 0)
     EXX-fraction              =        0.00
     nstep                     =           50

     celldm(1)=  11.754097  celldm(2)=   0.000000  celldm(3)=   0.000000
     celldm(4)=   0.000000  celldm(5)=   0.000000  celldm(6)=   0.000000

     crystal axes: (cart. coord. in units of alat)
               a(1) = (   1.000000   0.000000   0.000000 )
               a(2) = (   0.000000   1.034513   0.000000 )
               a(3) = (   0.000000   0.000000   4.249947 )

     reciprocal axes: (cart. coord. in units 2 pi/alat)
               b(1) = (  1.000000  0.000000  0.000000 )
               b(2) = (  0.000000  0.966638  0.000000 )
               b(3) = (  0.000000  0.000000  0.235297 )

     PseudoPot. # 1 for O  read from file:
     /home/camp/zhonxu/pseudo/o_pbe_v1.01.uspp.F.UPF
     MD5 check sum: 2bcb18d16ea4b960afae9ec6d52f22d2
     Pseudo is Ultrasoft + core correction, Zval =  6.0
     Generated by new atomic code, or converted to UPF format
     Using radial grid of  737 points,  5 beta functions with:
                l(1) =   0
                l(2) =   0
                l(3) =   1
                l(4) =   1
                l(5) =   2
     Q(r) pseudized with  8 coefficients,  rinner =    0.900   0.900   0.900
                                                       0.900   0.900

     PseudoPot. # 2 for Rh read from file:
     /home/camp/zhonxu/pseudo/rh_pbe_v1.uspp.F.UPF
     MD5 check sum: 37b626987ad0dd8ec6bf4cc9ef289918
     Pseudo is Ultrasoft + core correction, Zval = 15.0
     Generated by new atomic code, or converted to UPF format
     Using radial grid of  969 points,  7 beta functions with:
                l(1) =   0
                l(2) =   0
                l(3) =   1
                l(4) =   1
                l(5) =   2
                l(6) =   2
                l(7) =   2
     Q(r) pseudized with  6 coefficients,  rinner =    1.050   1.050   1.050
                                                       1.050   1.050

     PseudoPot. # 3 for H  read from file:
     /home/camp/zhonxu/pseudo/h_pbe_v1.uspp.F.UPF
     MD5 check sum: 3408e3ff4ec8b0a4e358431e7e038a48
     Pseudo is Ultrasoft, Zval =  1.0
     Generated by new atomic code, or converted to UPF format
     Using radial grid of  615 points,  2 beta functions with:
                l(1) =   0
                l(2) =   0
     Q(r) pseudized with  8 coefficients,  rinner =    0.700

     atomic species   valence    mass     pseudopotential
        O0             6.00    15.99940     O ( 1.00)
        Rh1           15.00   102.90550     Rh( 1.00)
        H2             1.00     1.00794     H ( 1.00)

     No symmetry found

   Cartesian axes

     site n.     atom                  positions (alat units)
         1           O0  tau(   1) = (   0.0000000   0.0000000   1.6092850  )
         2           O0  tau(   2) = (   0.0000000   0.5172566   1.7019764  )
         3           Rh1 tau(   3) = (   0.2500000   0.5172566   1.9208911  )
         4           Rh1 tau(   4) = (   0.0000000   0.0000000   1.9260761  )
         5           O0  tau(   5) = (   0.2500000   0.8379556   1.9244186  )
         6           O0  tau(   6) = (   0.2500000   0.1965575   1.9234836  )
         7           O0  tau(   7) = (   0.0000000   0.5172566   2.1185137  )
         8           O0  tau(   8) = (   0.0000000   0.0000000   2.2472871  )
         9           Rh1 tau(   9) = (   0.2500000   0.0000000   2.4498821  )
        10           Rh1 tau(  10) = (   0.0000000   0.5172566   2.4275274  )
        11           O0  tau(  11) = (   0.2500000   0.7138141   2.4560445  )
        12           O0  tau(  12) = (   0.2500000   0.3206991   2.4561295  )
        13           O0  tau(  13) = (   0.0000000   0.0000000   2.6421922  )
        14           O0  tau(  14) = (   0.5000000   0.0000000   1.6092850  )
        15           O0  tau(  15) = (   0.5000000   0.5172566   1.7020189  )
        16           Rh1 tau(  16) = (   0.7500000   0.5172566   1.9208911  )
        17           Rh1 tau(  17) = (   0.5000000   0.0000000   1.9260761  )
        18           O0  tau(  18) = (   0.7500000   0.8379556   1.9244186  )
        19           O0  tau(  19) = (   0.7500000   0.1965575   1.9234836  )
        20           O0  tau(  20) = (   0.5000000   0.5172566   2.1185137  )
        21           O0  tau(  21) = (   0.5000000   0.0000000   2.2472871  )
        22           Rh1 tau(  22) = (   0.7500000   0.0000000   2.4498821  )
        23           Rh1 tau(  23) = (   0.5000000   0.5172566   2.4275274  )
        24           O0  tau(  24) = (   0.7500000   0.7138141   2.4560445  )
        25           O0  tau(  25) = (   0.7500000   0.3206991   2.4561295  )
        26           O0  tau(  26) = (   0.5000000   0.0000000   2.6421922  )
        27           H2  tau(  27) = (  -0.0000700   0.6610642   1.6318522  )
        28           H2  tau(  28) = (   0.4999300   0.6610642   1.6318522  )
        29           H2  tau(  29) = (   0.1484700   0.0336217   1.5632156  )
        30           H2  tau(  30) = (   0.6484700   0.0336217   1.5632156  )

     number of k points=    10  Methfessel-Paxton smearing, width (Ry)=  0.0100
                       cart. coord. in units 2pi/alat
        k(    1) = (   0.0000000   0.0000000   0.0000000), wk =   0.1250000
        k(    2) = (   0.0000000   0.2416596   0.0000000), wk =   0.2500000
        k(    3) = (   0.0000000  -0.4833191   0.0000000), wk =   0.1250000
        k(    4) = (   0.2500000   0.0000000   0.0000000), wk =   0.2500000
        k(    5) = (   0.2500000   0.2416596   0.0000000), wk =   0.2500000
        k(    6) = (   0.2500000  -0.4833191   0.0000000), wk =   0.2500000
        k(    7) = (  -0.5000000   0.0000000   0.0000000), wk =   0.1250000
        k(    8) = (  -0.5000000   0.2416596   0.0000000), wk =   0.2500000
        k(    9) = (  -0.5000000  -0.4833191   0.0000000), wk =   0.1250000
        k(   10) = (  -0.2500000   0.2416596   0.0000000), wk =   0.2500000

     Largest allocated arrays     est. size (Mb)     dimensions
     Largest temporary arrays     est. size (Mb)     dimensions

     Check: negative/imaginary core charge=   -0.000002    0.000000

     Initial potential from superposition of free atoms
     Check: negative starting charge=   -0.643046

     starting charge  227.99915, renormalised to  232.00000

     negative rho (up, down):  0.654E+00 0.000E+00
     Starting wfc are  172 randomized atomic wfcs

     Self-consistent Calculation

     iteration #  1     ecut=    40.00 Ry     beta=0.30
     Davidson diagonalization with overlap
     ethr =  1.00E-02,  avg # of iterations =  6.0

     negative rho (up, down):  0.662E+00 0.000E+00

     total energy              =   -1939.06455462 Ry
     Harris-Foulkes estimate   =   -1951.58240488 Ry
     estimated scf accuracy    <      26.11876046 Ry

[...]

     End of self-consistent calculation

          k = 0.0000 0.0000 0.0000 ( 30479 PWs)   bands (ev):

   -49.4725 -49.4282 -49.4175 -49.3960 -49.3874 -49.3609 -49.2932 -49.2909
   -49.2767 -49.2047 -49.1829 -49.1809 -49.1750 -49.1450 -49.1394 -49.1223
   -49.0894 -49.0707 -49.0556 -49.0159 -48.9703 -48.9603 -48.9527 -48.9429
   -21.5969 -21.1586 -21.0792 -20.9628 -20.5223 -20.4896 -20.3147 -20.2327
   -20.1945 -20.1682 -20.0931 -20.0026 -19.9605 -19.7430 -19.6824 -19.6610
   -18.8880 -18.7731  -9.8906  -9.7852  -9.6325  -8.9656  -8.7529  -8.6638
    -8.5757  -8.5645  -8.4211  -8.4195  -8.3765  -8.2421  -8.2159  -8.1824
    -7.9802  -7.9794  -7.8606  -7.8366  -7.6123  -7.5127  -7.3049  -7.1066
    -6.9792  -6.6790  -6.5874  -6.5344  -6.4723  -6.0819  -5.9051  -5.7892
    -5.6777  -5.6706  -5.4888  -5.4702  -5.4070  -5.3291  -5.3161  -5.2640
    -5.1785  -5.0832  -4.9039  -4.8199  -4.7071  -4.6757  -4.5216  -4.4754
    -4.4518  -4.4402  -4.2252  -4.2048  -3.9133  -3.8360  -3.7872  -3.7039
    -3.6596  -3.6516  -3.5552  -3.4342  -3.2328  -3.2015  -3.1651  -3.1371
    -3.1034  -3.0862  -2.9661  -2.8281  -2.5810  -2.4658  -2.4508  -2.2786
    -2.1398  -1.9223  -1.6929  -1.6491  -1.6067  -1.4401  -1.3708  -1.1663
    -1.0944  -0.9731   0.0154   0.1532   0.2928   0.3992   0.4388   0.4763
     0.8540   0.8749   1.1179   1.7540   1.8404   1.8673   2.0522   2.1930
     2.9918   3.5127   4.0412   4.4710   4.7878   5.6019   5.7859   6.0249
     6.1689   6.6948   6.7768   6.8295   7.0623   7.2273   7.2554   7.4717
     7.6348   7.6836   7.7521   7.8447   7.9129   7.9822   7.9828   8.0796
     8.1438   8.1736   8.2007   8.4021   8.4246   8.5370   8.5749   8.6154
     8.7849   8.8475   8.9890   9.1334   9.1441   9.2791   9.4264   9.4912
     9.6078   9.6305   9.8646  10.0084  10.0395  10.2984  10.4633  10.4755
    10.6329  10.6376  10.6793  10.8241  10.9476  11.0480  11.0517  11.0644
    11.0759  11.1351  11.2052  11.2225  11.5414  11.5632  11.5886  11.6003
    11.6909  11.7202  11.7731  11.8349  11.8962  11.9009  11.9827  12.0604
    12.0958  12.1244  12.2010  12.2175  12.3077  12.3654  12.4229  12.4963
    12.6303  12.6400  12.6922  12.7780  12.8655  12.9580  12.9868  13.1415
    13.3250  13.4429  13.4517  13.5161  13.6090  13.7320  13.7497  13.8711
    14.0475  14.0534  14.1963  14.2008  14.2973  14.3956  14.5303  14.7218
    14.7772  14.8689  14.9332  15.0577  15.1390  15.1435  15.3117  15.3844
    15.5065  15.5723  15.6058  15.6871  15.7569  15.8518  15.8601  16.0884
    16.1638  16.2219  16.4080  16.4543  16.6005  16.6161  16.9384  16.9421
    16.9437  17.0088  17.0747  17.0896  17.2217  17.2453  17.5180  17.5793
    17.6455  17.7243  17.9001  17.9369  17.9892  18.0903  18.1698  18.1777
    18.2342  18.3554  18.3790  18.3899  18.4012  18.5372  18.6132  18.6369
    18.6988  18.7089  18.7182  18.8409  18.9859  18.9959  19.1001  19.2297
    19.2389  19.2952  19.4426  19.4875  19.5354  19.5671  19.6109  19.6572
    19.6961  19.7100  19.7901  19.8521  19.8691  19.9432  20.0035  20.0750
    20.0943  20.2225  20.2656  20.3758  20.4120  20.4641  20.4961  20.5303
    20.5568  20.7348  20.8201  21.0205  21.0422  21.0568  21.1162  21.2031
    21.2761  21.4207  21.4398  21.4769  21.5575  21.6089  21.6399  21.7325
    21.7818  21.9658  21.9660  22.0449  22.1020  22.1685  22.1961  22.2243
    22.2757  22.3303  22.4024  22.4393

[...]

          k =-0.5000 0.0000 0.0000 ( 30524 PWs)   bands (ev):

[...]

     the Fermi energy is    -1.7097 ev

!    total energy              =   -1948.25206949 Ry
     Harris-Foulkes estimate   =   -1948.25206978 Ry
     estimated scf accuracy    <       0.00000033 Ry

     The total energy is the sum of the following terms:

     one-electron contribution =  -22563.69622046 Ry
     hartree contribution      =   11326.75408261 Ry
     xc contribution           =    -364.98052785 Ry
     ewald contribution        =    9653.67187988 Ry
     smearing contrib. (-TS)   =      -0.00128367 Ry

     convergence has been achieved in  25 iterations

     Forces acting on atoms (Ry/au):

     negative rho (up, down):  0.689E+00 0.000E+00
     atom    1 type  1   force =    -0.00678486   -0.01421606   -0.00055430
     atom    2 type  1   force =     0.00015527    0.00740749    0.00074977
     atom    3 type  2   force =    -0.00026663    0.00314006    0.00026716
     atom    4 type  2   force =     0.00856152    0.00904039   -0.00009784
     atom    5 type  1   force =    -0.00056935   -0.03064102   -0.00078162
     atom    6 type  1   force =     0.00152140    0.02757936   -0.00027867
     atom    7 type  1   force =    -0.00020318   -0.00018785   -0.00013457
     atom    8 type  1   force =    -0.00271019   -0.00050425    0.00081619
     atom    9 type  2   force =     0.00127553   -0.00024536    0.00002635
     atom   10 type  2   force =     0.00004999   -0.00206689    0.00080002
     atom   11 type  1   force =    -0.00008375    0.00050955   -0.00026930
     atom   12 type  1   force =     0.00031475    0.00030772   -0.00025990
     atom   13 type  1   force =    -0.00081457   -0.00004817   -0.00106857
     atom   14 type  1   force =    -0.00682511   -0.01422586   -0.00061935
     atom   15 type  1   force =     0.00014998    0.00757568    0.00054741
     atom   16 type  2   force =    -0.00023257    0.00313687    0.00026901
     atom   17 type  2   force =     0.00855864    0.00903923   -0.00008166
     atom   18 type  1   force =    -0.00050058   -0.03064225   -0.00079064
     atom   19 type  1   force =     0.00158948    0.02757944   -0.00028559
     atom   20 type  1   force =    -0.00022006   -0.00018482   -0.00004725
     atom   21 type  1   force =    -0.00278777   -0.00050444    0.00086190
     atom   22 type  2   force =     0.00129088   -0.00024680    0.00000511
     atom   23 type  2   force =     0.00003311   -0.00206698    0.00075213
     atom   24 type  1   force =    -0.00016299    0.00047811   -0.00026086
     atom   25 type  1   force =     0.00023558    0.00033911   -0.00025196
     atom   26 type  1   force =    -0.00089592   -0.00004858   -0.00106528
     atom   27 type  3   force =    -0.00002638   -0.00044038    0.00038953
     atom   28 type  3   force =    -0.00002613   -0.00061696    0.00048491
     atom   29 type  3   force =    -0.00030884    0.00037788    0.00043747
     atom   30 type  3   force =    -0.00031725    0.00037576    0.00044040

     Total force =     0.003181     Total SCF correction =     0.002222
     SCF correction compared to forces is large: reduce conv_thr to get better values

     BFGS Geometry Optimization

     number of scf cycles    =   1
     number of bfgs steps    =   0

     energy   new            =   -1948.2520694870 Ry

     new trust radius        =       0.0010685671 bohr
     new conv_thr            =       0.0000010000 Ry

ATOMIC_POSITIONS (crystal)
O0       0.000000000   0.000000000   0.378648904    0   0   1
O0       0.000000000   0.500000000   0.400485009    0   0   1
Rh1      0.250000000   0.500000000   0.451985348    0   0   1
Rh1      0.000000000   0.000000000   0.453198041    0   0   1
O0       0.250000000   0.810000000   0.452794353    0   0   1
O0       0.250000000   0.190000000   0.452584422    0   0   1
O0       0.000000000   0.500000000   0.498477306    0   0   1
O0       0.000000000   0.000000000   0.528796339    0   0   1
Rh1      0.250000000   0.000000000   0.576450528    0   0   1
Rh1      0.000000000   0.500000000   0.571206015    0   0   1
O0       0.250000000   0.690000000   0.577894609    0   0   1
O0       0.250000000   0.310000000   0.577914797    0   0   1
O0       0.000000000   0.000000000   0.621678609    0   0   1
O0       0.500000000   0.000000000   0.378647602    0   0   1
O0       0.500000000   0.500000000   0.400490958    0   0   1
Rh1      0.750000000   0.500000000   0.451985385    0   0   1
Rh1      0.500000000   0.000000000   0.453198365    0   0   1
O0       0.750000000   0.810000000   0.452794173    0   0   1
O0       0.750000000   0.190000000   0.452584283    0   0   1
O0       0.500000000   0.500000000   0.498479054    0   0   1
O0       0.500000000   0.000000000   0.528797254    0   0   1
Rh1      0.750000000   0.000000000   0.576450102    0   0   1
Rh1      0.500000000   0.500000000   0.571205056    0   0   1
O0       0.750000000   0.690000000   0.577894778    0   0   1
O0       0.750000000   0.310000000   0.577914956    0   0   1
O0       0.500000000   0.000000000   0.621678675    0   0   1
H2      -0.000072244   0.638973784   0.383977798
H2       0.499927777   0.638959262   0.383979707
H2       0.148443725   0.032531077   0.367828757
H2       0.648443010   0.032530902   0.367828816

     Check: negative starting charge=   -0.643046
     NEW-OLD atomic charge density approx. for the potential

     Check: negative/imaginary core charge=   -0.000002    0.000000
     Check: negative starting charge=   -0.643011

[...]

     Self-consistent Calculation

[...]

     iteration #  3     ecut=    40.00 Ry     beta=0.30
     Davidson diagonalization with overlap
     c_bands:  1 eigenvalues not converged
     ethr =  1.88E-07,  avg # of iterations =  4.9

[...]

     total energy              =   -1948.25207760 Ry
     Harris-Foulkes estimate   =   -1948.25207792 Ry
     estimated scf accuracy    <       0.00000367 Ry

     iteration #  6     ecut=    40.00 Ry     beta=0.30
     Davidson diagonalization with overlap
     ethr =  1.58E-09,  avg # of iterations =  1.0

     negative rho (up, down):  0.689E+00 0.000E+00

     End of self-consistent calculation

[...]

          k = 0.2500-0.4833 0.0000 ( 30510 PWs)   bands (ev):

[...]

          k =-0.2500 0.2417 0.0000 ( 30481 PWs)   bands (ev):

   -49.4563 -49.4260 -49.4162 -49.3956 -49.3905 -49.3738 -49.2880 -49.2791
   -49.2781 -49.1994 -49.1877 -49.1810 -49.1753 -49.1454 -49.1408 -49.1078
   -49.1064 -49.0690 -49.0583 -49.0322 -48.9692 -48.9578 -48.9568 -48.9453
   -21.4691 -21.1798 -20.9340 -20.8025 -20.6082 -20.5041 -20.3745 -20.3326
   -20.1774 -20.1616 -20.0584 -19.9921 -19.9388 -19.8985 -19.7842 -19.7128
   -18.9199 -18.8225  -9.5385  -9.3084  -9.2119  -9.0995  -8.6807  -8.6071
    -8.5589  -8.5584  -8.5258  -8.4188  -8.3393  -8.3179  -8.2201  -8.0475
    -7.9645  -7.8622  -7.7426  -7.6961  -7.3952  -7.3470  -7.2241  -7.1463
    -7.0329  -6.6340  -6.5972  -6.4558  -6.3571  -6.2345  -6.1929  -6.0894
    -6.0782  -6.0192  -5.9298  -5.9172  -5.7353  -5.6976  -5.5902  -5.5782
    -5.3197  -5.2157  -5.1838  -4.9693  -4.9542  -4.7443  -4.7441  -4.6921
    -4.5278  -4.4369  -4.3174  -4.0497  -3.9973  -3.7196  -3.5829  -3.5354
    -3.4925  -3.3499  -3.2195  -3.1723  -3.1052  -3.0596  -3.0365  -2.9362
    -2.9163  -2.8337  -2.7346  -2.6956  -2.5510  -2.5073  -2.3681  -2.2087
    -1.8580  -1.8527  -1.8118  -1.7546  -1.6970  -1.5086  -1.3389  -1.2922
    -1.0303  -0.7781  -0.4355  -0.2148   0.3017   0.4108   0.4216   0.7551
     0.9752   1.2371   1.3839   1.4658   1.6578   1.7035   1.8153   2.0305
     3.6052   3.9943   4.5250   4.9232   5.2804   5.4214   5.5080   5.7996
     5.9793   6.2026   6.3409   6.4179   6.4241   6.6791   6.8312   6.9823
     7.1929   7.3672   7.4051   7.6197   7.6810   7.8030   7.9702   8.0142
     8.0675   8.2636   8.3725   8.4005   8.6304   8.7614   8.7733   8.8392
     8.8887   9.1786   9.3470   9.3756   9.5155   9.6426   9.6523   9.6859
     9.8101   9.9024  10.1196  10.1666  10.2295  10.2685  10.3388  10.4829
    10.5882  10.6217  10.7591  10.7966  10.8564  10.9540  10.9916  11.1212
    11.2963  11.3019  11.3786  11.4588  11.5075  11.5865  11.6375  11.6910
    11.8169  11.9921  12.0453  12.0575  12.1530  12.1630  12.2199  12.3294
    12.4248  12.5101  12.5833  12.6040  12.6948  12.7777  12.8534  12.9759
    12.9949  13.0744  13.1451  13.2176  13.2430  13.3482  13.4125  13.5271
    13.5833  13.6894  13.7689  13.7793  13.8379  14.0091  14.0325  14.0596
    14.1454  14.2574  14.3338  14.4457  14.5321  14.5867  14.6281  14.6877
    14.7606  15.0369  15.1994  15.2618  15.3384  15.4055  15.4551  15.4767
    15.5098  15.6065  15.6866  15.7129  15.7907  15.8118  15.9690  15.9730
    16.0518  16.0564  16.1726  16.2155  16.2882  16.3600  16.3698  16.4665
    16.5125  16.5706  16.5850  16.6034  16.7069  16.7952  16.9637  16.9894
    17.1317  17.2127  17.2298  17.3074  17.3371  17.4385  17.4846  17.5397
    17.5691  17.6221  17.7482  17.7742  17.8731  17.8753  18.0723  18.0738
    18.0868  18.1501  18.2434  18.3584  18.4143  18.4749  18.5036  18.6619
    18.6679  18.8227  18.8881  18.9214  18.9810  19.0375  19.0414  19.1149
    19.1996  19.2035  19.2980  19.4137  19.4322  19.5604  19.6319  19.7184
    19.7376  19.8825  19.8852  20.0367  20.1372  20.1892  20.2785  20.3227
    20.4611  20.5087  20.5924  20.6327  20.6674  20.7050  20.8159  20.8830
    20.9324  21.0052  21.0945  21.1251  21.1668  21.2707  21.3038  21.3082
    21.3806  21.4330  21.5520  21.6388  21.6792  21.7179  21.7878  21.8205
    21.8474  21.9171  22.0132  22.0492

     the Fermi energy is    -1.7097 ev

!    total energy              =   -1948.25207714 Ry
     Harris-Foulkes estimate   =   -1948.25207781 Ry
     estimated scf accuracy    <       0.00000082 Ry

     The total energy is the sum of the following terms:

     one-electron contribution =  -22563.69600676 Ry
     hartree contribution      =   11326.75096695 Ry
     xc contribution           =    -364.98223327 Ry
     ewald contribution        =    9653.67647258 Ry
     smearing contrib. (-TS)   =      -0.00127663 Ry

     convergence has been achieved in   6 iterations

     Forces acting on atoms (Ry/au):

     negative rho (up, down):  0.689E+00 0.000E+00
     atom    1 type  1   force =    -0.00708350   -0.01429518   -0.00003351
     atom    2 type  1   force =     0.00014780    0.00735278    0.00070410
     atom    3 type  2   force =    -0.00027803    0.00320365    0.00016148
     atom    4 type  2   force =     0.00852101    0.00894859   -0.00016370
     atom    5 type  1   force =    -0.00052175   -0.03054951   -0.00069272
     atom    6 type  1   force =     0.00156966    0.02744937   -0.00026200
     atom    7 type  1   force =    -0.00020948   -0.00014703    0.00008467
     atom    8 type  1   force =    -0.00271333   -0.00054867    0.00018559
     atom    9 type  2   force =     0.00127323   -0.00028206   -0.00020736
     atom   10 type  2   force =     0.00003307   -0.00204396    0.00034961
     atom   11 type  1   force =    -0.00012903    0.00053020   -0.00017575
     atom   12 type  1   force =     0.00026968    0.00028058   -0.00014697
     atom   13 type  1   force =    -0.00082452   -0.00006878   -0.00046030
     atom   14 type  1   force =    -0.00709674   -0.01429743    0.00003591
     atom   15 type  1   force =     0.00013830    0.00727997    0.00068682
     atom   16 type  2   force =    -0.00023456    0.00320352    0.00015986
     atom   17 type  2   force =     0.00851281    0.00895403   -0.00017694
     atom   18 type  1   force =    -0.00055941   -0.03054896   -0.00069789
     atom   19 type  1   force =     0.00152586    0.02744920   -0.00026860
     atom   20 type  1   force =    -0.00022861   -0.00014561    0.00002723
     atom   21 type  1   force =    -0.00278359   -0.00054973    0.00013290
     atom   22 type  2   force =     0.00127026   -0.00027753   -0.00018730
     atom   23 type  2   force =     0.00002873   -0.00204486    0.00041232
     atom   24 type  1   force =    -0.00013257    0.00049773   -0.00016990
     atom   25 type  1   force =     0.00026498    0.00031249   -0.00014047
     atom   26 type  1   force =    -0.00089351   -0.00006938   -0.00045933
     atom   27 type  3   force =    -0.00003143   -0.00028297    0.00035652
     atom   28 type  3   force =    -0.00003142   -0.00022868    0.00033093
     atom   29 type  3   force =     0.00008451    0.00045608    0.00031276
     atom   30 type  3   force =     0.00011157    0.00046217    0.00030206

     Total force =     0.002035     Total SCF correction =     0.003719
     SCF correction compared to forces is large: reduce conv_thr to get better values

     bfgs converged in   2 scf cycles and   1 bfgs steps
     (criteria: energy < 0.10E-03, force < 0.10E-02)

     End of BFGS Geometry Optimization

     Final energy   =   -1948.2520771351 Ry
Begin final coordinates

ATOMIC_POSITIONS (crystal)
O0       0.000000000   0.000000000   0.378648904    0   0   1
O0       0.000000000   0.500000000   0.400485009    0   0   1
Rh1      0.250000000   0.500000000   0.451985348    0   0   1
Rh1      0.000000000   0.000000000   0.453198041    0   0   1
O0       0.250000000   0.810000000   0.452794353    0   0   1
O0       0.250000000   0.190000000   0.452584422    0   0   1
O0       0.000000000   0.500000000   0.498477306    0   0   1
O0       0.000000000   0.000000000   0.528796339    0   0   1
Rh1      0.250000000   0.000000000   0.576450528    0   0   1
Rh1      0.000000000   0.500000000   0.571206015    0   0   1
O0       0.250000000   0.690000000   0.577894609    0   0   1
O0       0.250000000   0.310000000   0.577914797    0   0   1
O0       0.000000000   0.000000000   0.621678609    0   0   1
O0       0.500000000   0.000000000   0.378647602    0   0   1
O0       0.500000000   0.500000000   0.400490958    0   0   1
Rh1      0.750000000   0.500000000   0.451985385    0   0   1
Rh1      0.500000000   0.000000000   0.453198365    0   0   1
O0       0.750000000   0.810000000   0.452794173    0   0   1
O0       0.750000000   0.190000000   0.452584283    0   0   1
O0       0.500000000   0.500000000   0.498479054    0   0   1
O0       0.500000000   0.000000000   0.528797254    0   0   1
Rh1      0.750000000   0.000000000   0.576450102    0   0   1
Rh1      0.500000000   0.500000000   0.571205056    0   0   1
O0       0.750000000   0.690000000   0.577894778    0   0   1
O0       0.750000000   0.310000000   0.577914956    0   0   1
O0       0.500000000   0.000000000   0.621678675    0   0   1
H2      -0.000072244   0.638973784   0.383977798
H2       0.499927777   0.638959262   0.383979707
H2       0.148443725   0.032531077   0.367828757
H2       0.648443010   0.032530902   0.367828816
End final coordinates

     General routines

     Parallel routines

   This run was terminated on:  20:15:29  27Feb2014

   JOB DONE.