     Program PWSCF v.5.0.2 (svn rev. 9656) starts on  1Jun2014 at 12:45:43

     Current dimensions of program PWSCF are:
     Max number of different atomic species (ntypx) = 10
     Max number of k-points (npk) =  40000
     Max angular momentum in pseudopotentials (lmaxx) =  3
     Reading input from pwscf.in
Warning: card &CELL ignored
Warning: card / ignored

     Subspace diagonalization in iterative solution of the eigenvalue problem:
     a serial algorithm will be used

     bravais-lattice index     =            0
     lattice parameter (alat)  =      10.1289  a.u.
     unit-cell volume          =    6836.7721 (a.u.)^3
     number of atoms/cell      =           33
     number of atomic types    =            3
     number of electrons       =       245.00
     number of Kohn-Sham states=          367
     kinetic-energy cutoff     =      40.0000  Ry
     charge density cutoff     =     500.0000  Ry
     convergence threshold     =      1.0E-06
     mixing beta               =       0.7000
     number of iterations used =            8  plain     mixing
     Exchange-correlation      = SLA  PW   PBE  PBE ( 1 4 3 4 0)
     EXX-fraction              =        0.00
     nstep                     =           50

     celldm(1)=  10.128932  celldm(2)=   0.000000  celldm(3)=   0.000000
     celldm(4)=   0.000000  celldm(5)=   0.000000  celldm(6)=   0.000000

     crystal axes: (cart. coord. in units of alat)
               a(1) = (   1.000000   0.000000   0.000000 )
               a(2) = (   0.000000   1.306037   0.000000 )
               a(3) = (   0.000000   0.000000   5.037380 )

     reciprocal axes: (cart. coord. in units 2 pi/alat)
               b(1) = (  1.000000  0.000000  0.000000 )
               b(2) = (  0.000000  0.765675  0.000000 )
               b(3) = (  0.000000  0.000000  0.198516 )

     PseudoPot. # 1 for O  read from file:
     /home/camp/zhonxu/pseudo/o_pbe_v1.01.uspp.F.UPF
     MD5 check sum: 2bcb18d16ea4b960afae9ec6d52f22d2
     Pseudo is Ultrasoft + core correction, Zval =  6.0
     Generated by new atomic code, or converted to UPF format
     Using radial grid of  737 points,  5 beta functions with:
                l(1) =   0
                l(2) =   0
                l(3) =   1
                l(4) =   1
                l(5) =   2
     Q(r) pseudized with  8 coefficients,  rinner =    0.900   0.900   0.900
                                                       0.900   0.900

     PseudoPot. # 2 for Re read from file:
     /home/camp/zhonxu/pseudo/re_pbe_v1.uspp.F.UPF
     MD5 check sum: 6f5a5dcaf9c96c20d0ffdde0de57afc6
     Pseudo is Ultrasoft + core correction, Zval = 15.0
     Generated by new atomic code, or converted to UPF format
     Using radial grid of  981 points,  8 beta functions with:
                l(1) =   0
                l(2) =   0
                l(3) =   1
                l(4) =   1
                l(5) =   2
                l(6) =   2
                l(7) =   3
                l(8) =   3
     Q(r) pseudized with  8 coefficients,  rinner =    1.000   1.000   1.000
                                                       1.000   1.000   1.000
                                                       1.000

     PseudoPot. # 3 for H  read from file:
     /home/camp/zhonxu/pseudo/h_pbe_v1.uspp.F.UPF
     MD5 check sum: 3408e3ff4ec8b0a4e358431e7e038a48
     Pseudo is Ultrasoft, Zval =  1.0
     Generated by new atomic code, or converted to UPF format
     Using radial grid of  615 points,  2 beta functions with:
                l(1) =   0
                l(2) =   0
     Q(r) pseudized with  8 coefficients,  rinner =    0.700

     atomic species   valence    mass     pseudopotential
        O0             6.00    15.99940     O ( 1.00)
        Re1           15.00   186.20700     Re( 1.00)
        H2             1.00     1.00794     H ( 1.00)

     Simplified LDA+U calculation (l_max = 2) with parameters (eV):
     atomic species    L          U    alpha       J0     beta
        Re1            2     5.0000   0.0000   0.0000   0.0000

     No symmetry found

   Cartesian axes

     site n.     atom                  positions (alat units)
         1           O0  tau(   1) = (   0.0000000   0.0000000   1.8623194  )
         2           O0  tau(   2) = (   0.0000000   0.6530184   1.9253370  )
         3           Re1 tau(   3) = (   0.2500000   0.6530184   2.2271768  )
         4           Re1 tau(   4) = (   0.0000000   0.0000000   2.2287384  )
         5           O0  tau(   5) = (   0.2500000   1.0187087   2.2217869  )
         6           O0  tau(   6) = (   0.2500000   0.2873281   2.2210816  )
         7           O0  tau(   7) = (   0.0000000   0.6530184   2.5071544  )
         8           O0  tau(   8) = (   0.0000000   0.0000000   2.5894652  )
         9           Re1 tau(   9) = (   0.2500000   0.0000000   2.8894412  )
        10           Re1 tau(  10) = (   0.0000000   0.6530184   2.8583102  )
        11           O0  tau(  11) = (   0.2500000   0.9403465   2.8756892  )
        12           O0  tau(  12) = (   0.2500000   0.3656903   2.8872751  )
        13           O0  tau(  13) = (   0.0000000   0.0000000   3.1516368  )
        14           O0  tau(  14) = (   0.5000000   0.0000000   1.8624705  )
        15           O0  tau(  15) = (   0.5000000   0.6530184   1.9269994  )
        16           Re1 tau(  16) = (   0.7500000   0.6530184   2.2271768  )
        17           Re1 tau(  17) = (   0.5000000   0.0000000   2.2274287  )
        18           O0  tau(  18) = (   0.7500000   1.0187087   2.2214342  )
        19           O0  tau(  19) = (   0.7500000   0.2873281   2.2214846  )
        20           O0  tau(  20) = (   0.5000000   0.6530184   2.5086153  )
        21           O0  tau(  21) = (   0.5000000   0.0000000   2.5899690  )
        22           Re1 tau(  22) = (   0.7500000   0.0000000   2.8888367  )
        23           Re1 tau(  23) = (   0.5000000   0.6530184   2.9018835  )
        24           O0  tau(  24) = (   0.7500000   0.9403465   2.8756892  )
        25           O0  tau(  25) = (   0.7500000   0.3656903   2.8872248  )
        26           O0  tau(  26) = (   0.5000000   0.0000000   3.1466498  )
        27           H2  tau(  27) = (  -0.0002100   0.8169913   1.8417165  )
        28           H2  tau(  28) = (   0.4996400   0.8147057   1.8388956  )
        29           H2  tau(  29) = (   0.1678400   0.0328729   1.7887233  )
        30           H2  tau(  30) = (   0.6697500   0.0291246   1.7904864  )
        31           O0  tau(  31) = (   0.4996300   0.6876806   3.2307741  )
        32           O0  tau(  32) = (   0.5002900   0.4188329   3.4291461  )
        33           H2  tau(  33) = (   0.4999500   0.5176477   3.5843478  )

     number of k points=    10  Methfessel-Paxton smearing, width (Ry)=  0.0100
                       cart. coord. in units 2pi/alat
        k(    1) = (   0.0000000   0.0000000   0.0000000), wk =   0.1250000
        k(    2) = (   0.0000000   0.1914188   0.0000000), wk =   0.2500000
        k(    3) = (   0.0000000  -0.3828376   0.0000000), wk =   0.1250000
        k(    4) = (   0.2500000   0.0000000   0.0000000), wk =   0.2500000
        k(    5) = (   0.2500000   0.1914188   0.0000000), wk =   0.2500000
        k(    6) = (   0.2500000  -0.3828376   0.0000000), wk =   0.2500000
        k(    7) = (  -0.5000000   0.0000000   0.0000000), wk =   0.1250000
        k(    8) = (  -0.5000000   0.1914188   0.0000000), wk =   0.2500000
        k(    9) = (  -0.5000000  -0.3828376   0.0000000), wk =   0.1250000
        k(   10) = (  -0.2500000   0.1914188   0.0000000), wk =   0.2500000

     Largest allocated arrays     est. size (Mb)     dimensions
     Largest temporary arrays     est. size (Mb)     dimensions

     Check: negative/imaginary core charge=   -0.000003    0.000000

     Initial potential from superposition of free atoms
     Check: negative starting charge=   -0.236968

     starting charge  240.99957, renormalised to  245.00000

     negative rho (up, down):  0.241E+00 0.000E+00
     Number of +U iterations with fixed ns =  0
     Starting occupations:
 --- enter write_ns ---
 LDA+U parameters:
U( 2)     =  5.00000000
alpha( 2) =  0.00000000
atom    3   Tr[ns(na)] =   5.00000
    eigenvalues:
  0.500  0.500  0.500  0.500  0.500
    eigenvectors:
  1.000  0.000  0.000  0.000  0.000
  0.000  1.000  0.000  0.000  0.000
  0.000  0.000  1.000  0.000  0.000
  0.000  0.000  0.000  1.000  0.000
  0.000  0.000  0.000  0.000  1.000
    occupations:
  0.500  0.000  0.000  0.000  0.000
  0.000  0.500  0.000  0.000  0.000
  0.000  0.000  0.500  0.000  0.000
  0.000  0.000  0.000  0.500  0.000
  0.000  0.000  0.000  0.000  0.500
atom    4   Tr[ns(na)] =   5.00000
    eigenvalues:
  0.500  0.500  0.500  0.500  0.500
    eigenvectors:
  1.000  0.000  0.000  0.000  0.000
  0.000  1.000  0.000  0.000  0.000
  0.000  0.000  1.000  0.000  0.000
  0.000  0.000  0.000  1.000  0.000
  0.000  0.000  0.000  0.000  1.000
    occupations:
  0.500  0.000  0.000  0.000  0.000
  0.000  0.500  0.000  0.000  0.000
  0.000  0.000  0.500  0.000  0.000
  0.000  0.000  0.000  0.500  0.000
  0.000  0.000  0.000  0.000  0.500
atom    9   Tr[ns(na)] =   5.00000
    eigenvalues:
  0.500  0.500  0.500  0.500  0.500
    eigenvectors:
  1.000  0.000  0.000  0.000  0.000
  0.000  1.000  0.000  0.000  0.000
  0.000  0.000  1.000  0.000  0.000
  0.000  0.000  0.000  1.000  0.000
  0.000  0.000  0.000  0.000  1.000
    occupations:
  0.500  0.000  0.000  0.000  0.000
  0.000  0.500  0.000  0.000  0.000
  0.000  0.000  0.500  0.000  0.000
  0.000  0.000  0.000  0.500  0.000
  0.000  0.000  0.000  0.000  0.500
atom   10   Tr[ns(na)] =   5.00000
    eigenvalues:
  0.500  0.500  0.500  0.500  0.500
    eigenvectors:
  1.000  0.000  0.000  0.000  0.000
  0.000  1.000  0.000  0.000  0.000
  0.000  0.000  1.000  0.000  0.000
  0.000  0.000  0.000  1.000  0.000
  0.000  0.000  0.000  0.000  1.000
    occupations:
  0.500  0.000  0.000  0.000  0.000
  0.000  0.500  0.000  0.000  0.000
  0.000  0.000  0.500  0.000  0.000
  0.000  0.000  0.000  0.500  0.000
  0.000  0.000  0.000  0.000  0.500
atom   16   Tr[ns(na)] =   5.00000
    eigenvalues:
  0.500  0.500  0.500  0.500  0.500
    eigenvectors:
  1.000  0.000  0.000  0.000  0.000
  0.000  1.000  0.000  0.000  0.000
  0.000  0.000  1.000  0.000  0.000
  0.000  0.000  0.000  1.000  0.000
  0.000  0.000  0.000  0.000  1.000
    occupations:
  0.500  0.000  0.000  0.000  0.000
  0.000  0.500  0.000  0.000  0.000
  0.000  0.000  0.500  0.000  0.000
  0.000  0.000  0.000  0.500  0.000
  0.000  0.000  0.000  0.000  0.500
atom   17   Tr[ns(na)] =   5.00000
    eigenvalues:
  0.500  0.500  0.500  0.500  0.500
    eigenvectors:
  1.000  0.000  0.000  0.000  0.000
  0.000  1.000  0.000  0.000  0.000
  0.000  0.000  1.000  0.000  0.000
  0.000  0.000  0.000  1.000  0.000
  0.000  0.000  0.000  0.000  1.000
    occupations:
  0.500  0.000  0.000  0.000  0.000
  0.000  0.500  0.000  0.000  0.000
  0.000  0.000  0.500  0.000  0.000
  0.000  0.000  0.000  0.500  0.000
  0.000  0.000  0.000  0.000  0.500
atom   22   Tr[ns(na)] =   5.00000
    eigenvalues:
  0.500  0.500  0.500  0.500  0.500
[...]
    eigenvalues:
  0.467  0.539  0.637  0.756  0.888
    eigenvectors:
  1.000  0.000  0.000  0.000  0.000
  0.000  0.000  0.000  0.000  1.000
  0.000  0.000  0.995  0.004  0.000
  0.000  0.000  0.004  0.995  0.000
  0.000  1.000  0.000  0.000  0.000
    occupations:
  0.467  0.001 -0.003 -0.004  0.000
  0.001  0.888  0.003  0.000 -0.003
 -0.003  0.003  0.638  0.008 -0.001
 -0.004  0.000  0.008  0.755 -0.000
  0.000 -0.003 -0.001 -0.000  0.539
atom   16   Tr[ns(na)] =   6.58979
    eigenvalues:
  0.542  0.546  0.573  0.780  0.854
    eigenvectors:
  0.009  0.009  0.294  0.688  0.000
  0.949  0.040  0.009  0.001  0.001
  0.034  0.935  0.008  0.005  0.018
  0.006  0.000  0.688  0.306  0.000
  0.003  0.015  0.000  0.001  0.981
    occupations:
  0.715  0.006  0.016 -0.095  0.002
  0.006  0.542  0.001 -0.001 -0.008
  0.016  0.001  0.553 -0.007 -0.040
 -0.095 -0.001 -0.007  0.636 -0.000
  0.002 -0.008 -0.040 -0.000  0.848
atom   17   Tr[ns(na)] =   6.59186
    eigenvalues:
  0.570  0.593  0.608  0.739  0.787
    eigenvectors:
  0.000  0.000  0.991  0.000  0.008
  0.000  0.007  0.000  0.992  0.000
  0.000  0.993  0.000  0.007  0.000
  0.000  0.000  0.008  0.000  0.992
  0.999  0.000  0.000  0.000  0.000
    occupations:
  0.609  0.003  0.000 -0.016  0.001
  0.003  0.738  0.012 -0.000 -0.002
  0.000  0.012  0.594  0.001 -0.000
 -0.016 -0.000  0.001  0.785 -0.000
  0.001 -0.002 -0.000 -0.000  0.570
atom   22   Tr[ns(na)] =   6.59938
    eigenvalues:
  0.588  0.594  0.603  0.747  0.767
    eigenvectors:
  0.005  0.238  0.001  0.072  0.684
  0.007  0.008  0.985  0.000  0.000
  0.926  0.016  0.008  0.046  0.004
  0.014  0.737  0.006  0.021  0.222
  0.049  0.001  0.001  0.860  0.089
    occupations:
  0.723 -0.002  0.000 -0.073  0.004
 -0.002  0.603  0.001  0.001 -0.000
  0.000  0.001  0.597 -0.001  0.035
 -0.073  0.001 -0.001  0.636 -0.003
  0.004 -0.000  0.035 -0.003  0.741
atom   23   Tr[ns(na)] =   6.62257
    eigenvalues:
  0.529  0.551  0.589  0.790  0.853
    eigenvectors:
  0.000  0.000  0.969  0.029  0.002
  0.955  0.044  0.000  0.000  0.001
  0.001  0.000  0.001  0.016  0.983
  0.000  0.000  0.030  0.955  0.015
  0.044  0.956  0.000  0.000  0.000
    occupations:
  0.595  0.001 -0.008 -0.035 -0.000
  0.001  0.530 -0.010 -0.002 -0.004
 -0.008 -0.010  0.852  0.007  0.000
 -0.035 -0.002  0.007  0.784  0.000
 -0.000 -0.004  0.000  0.000  0.550
N of occupied +U levels =  52.7481827
 --- exit write_ns ---

     Threshold (ethr) on eigenvalues was too large:
     Diagonalizing with lowered threshold

     Davidson diagonalization with overlap
     ethr =  5.25E-09,  avg # of iterations =  2.0

[...]

     total energy              =   -2205.38968431 Ry
     Harris-Foulkes estimate   =   -2205.38968433 Ry
     estimated scf accuracy    <       0.00000023 Ry

     iteration # 15     ecut=    40.00 Ry     beta=0.70
     Davidson diagonalization with overlap
     ethr =  4.69E-12,  avg # of iterations =  1.0

     negative rho (up, down):  0.239E+00 0.000E+00

     End of self-consistent calculation
 --- enter write_ns ---
 LDA+U parameters:
U( 2)     =  5.00000000
alpha( 2) =  0.00000000
atom    3   Tr[ns(na)] =   6.58795
    eigenvalues:
  0.541  0.544  0.573  0.781  0.855
    eigenvectors:
  0.014  0.002  0.295  0.689  0.000
  0.709  0.279  0.011  0.001  0.001
  0.262  0.707  0.005  0.005  0.021
  0.006  0.000  0.688  0.305  0.000
  0.009  0.012  0.000  0.000  0.979
    occupations:
  0.716 -0.007  0.016 -0.095 -0.002
 -0.007  0.543 -0.001  0.000 -0.008
  0.016 -0.001  0.551 -0.008  0.044
 -0.095  0.000 -0.008  0.636  0.000
 -0.002 -0.008  0.044  0.000  0.849
atom    4   Tr[ns(na)] =   6.59215
    eigenvalues:
  0.573  0.609  0.614  0.706  0.794
    eigenvectors:
  0.000  0.000  0.987  0.002  0.011
  0.000  0.015  0.002  0.982  0.000
  0.000  0.985  0.000  0.015  0.000
  0.000  0.000  0.010  0.000  0.989
  0.999  0.000  0.000  0.000  0.000
    occupations:
  0.616  0.004  0.001 -0.018  0.001
  0.004  0.705  0.012 -0.001 -0.002
  0.001  0.012  0.611  0.000 -0.000
 -0.018 -0.001  0.000  0.792 -0.000
  0.001 -0.002 -0.000 -0.000  0.573
atom    9   Tr[ns(na)] =   6.59167
    eigenvalues:
  0.596  0.597  0.611  0.740  0.752
    eigenvectors:
  0.103  0.130  0.000  0.259  0.507
  0.000  0.005  0.994  0.000  0.000
  0.529  0.418  0.001  0.034  0.018
  0.337  0.426  0.004  0.076  0.157
  0.030  0.022  0.000  0.630  0.318
    occupations:
  0.713  0.003 -0.002 -0.064  0.004
  0.003  0.611 -0.000 -0.001  0.000
 -0.002 -0.000  0.604  0.000 -0.033
 -0.064 -0.001  0.000  0.632 -0.003
  0.004  0.000 -0.033 -0.003  0.736
atom   10   Tr[ns(na)] =   6.57342
    eigenvalues:
  0.467  0.539  0.638  0.756  0.888
    eigenvectors:
  1.000  0.000  0.000  0.000  0.000
  0.000  0.000  0.000  0.000  1.000
  0.000  0.000  0.995  0.004  0.000
  0.000  0.000  0.004  0.995  0.000
  0.000  1.000  0.000  0.000  0.000
    occupations:
  0.467  0.001 -0.003 -0.004  0.000
  0.001  0.888  0.003  0.000 -0.003
 -0.003  0.003  0.638  0.008 -0.001
 -0.004  0.000  0.008  0.755 -0.000
  0.000 -0.003 -0.001 -0.000  0.539
atom   16   Tr[ns(na)] =   6.58942
    eigenvalues:
  0.542  0.546  0.573  0.780  0.854
    eigenvectors:
  0.009  0.009  0.294  0.688  0.000
  0.948  0.042  0.010  0.001  0.001
  0.035  0.934  0.008  0.005  0.018
  0.006  0.000  0.688  0.306  0.000
  0.003  0.015  0.000  0.001  0.981
    occupations:
  0.715  0.006  0.016 -0.095  0.002
  0.006  0.542  0.001 -0.001 -0.008
  0.016  0.001  0.553 -0.007 -0.040
 -0.095 -0.001 -0.007  0.636 -0.000
  0.002 -0.008 -0.040 -0.000  0.848
atom   17   Tr[ns(na)] =   6.59241
    eigenvalues:
  0.570  0.593  0.608  0.739  0.787
    eigenvectors:
  0.000  0.000  0.991  0.000  0.008
  0.000  0.007  0.000  0.992  0.000
  0.000  0.993  0.000  0.007  0.000
  0.000  0.000  0.008  0.000  0.992
  0.999  0.000  0.000  0.000  0.000
    occupations:
  0.609  0.003  0.000 -0.016  0.001
  0.003  0.738  0.012 -0.000 -0.002
  0.000  0.012  0.594  0.001 -0.000
 -0.016 -0.000  0.001  0.786 -0.000
  0.001 -0.002 -0.000 -0.000  0.570
atom   22   Tr[ns(na)] =   6.60008
    eigenvalues:
  0.588  0.594  0.603  0.748  0.767
    eigenvectors:
  0.005  0.238  0.001  0.073  0.683
  0.007  0.008  0.985  0.000  0.000
  0.925  0.016  0.008  0.046  0.004
  0.014  0.737  0.005  0.021  0.222
  0.049  0.001  0.001  0.860  0.090
    occupations:
  0.723 -0.002  0.000 -0.073  0.004
 -0.002  0.603  0.001  0.001 -0.000
  0.000  0.001  0.597 -0.001  0.035
 -0.073  0.001 -0.001  0.636 -0.003
  0.004 -0.000  0.035 -0.003  0.741
atom   23   Tr[ns(na)] =   6.62275
    eigenvalues:
  0.529  0.551  0.589  0.789  0.853
    eigenvectors:
  0.000  0.000  0.969  0.029  0.002
  0.954  0.045  0.000  0.000  0.001
  0.001  0.000  0.001  0.016  0.982
  0.000  0.000  0.030  0.955  0.015
  0.045  0.955  0.000  0.000  0.000
    occupations:
  0.595  0.001 -0.008 -0.035 -0.000
  0.001  0.530 -0.010 -0.002 -0.004
 -0.008 -0.010  0.852  0.007  0.000
 -0.035 -0.002  0.007  0.784  0.000
 -0.000 -0.004  0.000  0.000  0.550
N of occupied +U levels =  52.7498455
 --- exit write_ns ---

[...]

          k = 0.2500-0.3828 0.0000 ( 29202 PWs)   bands (ev):

[...]

          k =-0.2500 0.1914 0.0000 ( 29229 PWs)   bands (ev):

   -80.7958 -80.7122 -80.5435 -80.4423 -80.2527 -80.2402 -80.2138 -80.0479
   -42.8689 -42.7897 -42.7074 -42.6911 -42.6619 -42.6016 -42.6000 -42.5284
   -42.4352 -42.4345 -42.4143 -42.3181 -42.3002 -42.2391 -42.2168 -42.1987
   -42.1863 -42.1363 -42.1201 -42.0196 -42.0120 -41.7922 -41.6963 -41.5788
   -21.2640 -20.4700 -20.1247 -20.0367 -19.8597 -19.7514 -19.6402 -19.5462
   -19.5149 -19.4111 -19.3041 -19.1246 -18.9832 -18.9269 -18.8868 -18.7973
   -18.6930 -18.1582 -17.9416 -16.8257  -8.7692  -8.6812  -8.5943  -8.5569
    -8.5064  -8.1348  -8.1255  -8.0356  -7.8144  -7.6841  -7.6414  -7.5896
    -7.5252  -7.3353  -7.0225  -6.9449  -6.8090  -6.5866  -6.5186  -6.3708
    -6.3196  -6.1605  -6.0735  -5.9132  -5.7562  -5.6161  -5.5400  -5.4704
    -5.3215  -5.2057  -5.1231  -5.0293  -4.8079  -4.7646  -4.7229  -4.5775
    -4.5342  -4.4817  -4.4484  -4.3308  -4.2750  -4.2183  -4.0540  -3.8589
    -3.6973  -3.6075  -3.5653  -3.5174  -3.4655  -3.2918  -3.1640  -3.0811
    -3.0384  -2.9124  -2.8048  -2.6218  -2.5588  -2.4506  -2.1410  -1.9169
    -1.7930  -1.4784  -1.1666  -0.8781  -0.8370  -0.6379  -0.0825   0.0992
     0.2928   0.3285   0.7037   0.9201   1.0517   1.0726   1.3605   1.4552
     1.5668   1.6307   1.8532   1.9019   1.9753   2.1227   2.4121   2.7168
     3.3041   3.9625   3.9969   4.1951   4.2598   4.4487   4.5883   4.7544
     4.8843   4.9039   5.0785   5.1492   5.2862   5.3359   5.4407   5.8707
     6.0550   6.1372   6.3026   6.5725   6.6430   6.7332   6.8584   6.9094
     7.0732   7.3109   7.4515   7.5448   7.7052   7.8256   8.0253   8.1338
     8.3741   8.5321   8.6608   8.7166   8.8267   8.9268   9.0827   9.1675
     9.2695   9.4363   9.5179   9.6340   9.7935   9.8230   9.9044  10.0099
    10.0863  10.1130  10.2046  10.3336  10.4170  10.5239  10.6215  10.7044
    10.7240  10.8140  10.9782  11.0565  11.1848  11.2357  11.4586  11.5310
    11.5643  11.6938  11.8048  11.8410  12.0580  12.1057  12.2696  12.3702
    12.5177  12.5968  12.6358  12.6812  12.7471  12.8095  12.9047  12.9902
    13.0824  13.1672  13.2384  13.3146  13.4078  13.5889  13.6379  13.7085
    13.7579  13.8809  13.9207  13.9849  14.0684  14.1110  14.1906  14.2942
    14.3684  14.3962  14.4598  14.4976  14.5424  14.6260  14.6701  14.7651
    14.8312  14.8486  14.9605  14.9903  15.0645  15.1023  15.1838  15.2151
    15.2913  15.4232  15.4536  15.4637  15.6339  15.7056  15.8259  15.9091
    16.0255  16.0956  16.1740  16.2761  16.3552  16.3842  16.4410  16.5079
    16.5811  16.7359  16.7866  16.8766  16.9322  16.9984  17.0723  17.1891
    17.2667  17.3461  17.3657  17.3908  17.5239  17.5532  17.6281  17.6908
    17.7923  17.8176  17.8966  18.0170  18.0553  18.1289  18.2706  18.3616
    18.3977  18.4656  18.5081  18.5663  18.6904  18.7319  18.7577  18.8451
    18.8606  18.9657  19.0969  19.1630  19.2070  19.2904  19.3788  19.4708
    19.5203  19.6341  19.7034  19.7924  19.8346  19.9454  20.0335  20.1375
    20.2373  20.3322  20.4065  20.4755  20.5435  20.5988  20.6165  20.6992
    20.7631  20.8483  20.8848  20.9158  20.9926  21.0197  21.1224  21.1578
    21.2320  21.2992  21.3379  21.4232  21.5183  21.5877  21.6424  21.7397
    21.7658  21.8561  21.8921  21.9600  22.0121  22.0649  22.1078  22.2120
    22.2582  22.3131  22.3482  22.4146  22.4530  22.5188  22.5700  22.6219
    22.6706  22.7111  22.7644  22.8320  22.8625  22.8964  23.0327  23.0684
    23.1157  23.1335  23.2030  23.2648  23.3068  23.3675  23.4131

     the Fermi energy is     0.5704 ev

!    total energy              =   -2205.38968432 Ry
     Harris-Foulkes estimate   =   -2205.38968432 Ry
     estimated scf accuracy    <          9.3E-09 Ry

     The total energy is the sum of the following terms:

     one-electron contribution =  -24720.99124630 Ry
     hartree contribution      =   12384.37958415 Ry
     xc contribution           =    -602.12439786 Ry
     ewald contribution        =   10730.22943847 Ry
     Hubbard energy            =       3.11651711 Ry
     smearing contrib. (-TS)   =       0.00042012 Ry

     convergence has been achieved in  15 iterations

     Forces acting on atoms (Ry/au):

     negative rho (up, down):  0.239E+00 0.000E+00
     atom    1 type  1   force =    -0.00320556   -0.00597053    0.00004621
     atom    2 type  1   force =     0.00016860    0.00300906   -0.00063984
     atom    3 type  2   force =     0.02532631   -0.00106856   -0.00025314
     atom    4 type  2   force =    -0.00064654    0.00622929    0.00015452
     atom    5 type  1   force =     0.00199788    0.00220844    0.00057889
     atom    6 type  1   force =     0.00134134   -0.00335882    0.00056791
     atom    7 type  1   force =    -0.00069134   -0.00320007   -0.00062833
     atom    8 type  1   force =     0.00547332    0.00206213   -0.00066271
     atom    9 type  2   force =    -0.03943842   -0.00531100    0.00020437
     atom   10 type  2   force =    -0.00104267    0.00159151   -0.00050508
     atom   11 type  1   force =    -0.01991701    0.00694293   -0.00001374
     atom   12 type  1   force =    -0.01282981    0.00518513   -0.00054929
     atom   13 type  1   force =     0.00162123   -0.00350188    0.00014609
     atom   14 type  1   force =    -0.00453620   -0.00555808    0.00022180
     atom   15 type  1   force =     0.00003060    0.00404000   -0.00016939
     atom   16 type  2   force =    -0.02413509   -0.00205995   -0.00023339
     atom   17 type  2   force =     0.00304668    0.00656993   -0.00001995
     atom   18 type  1   force =     0.00037769    0.00264362    0.00056461
     atom   19 type  1   force =    -0.00037141   -0.00282249    0.00061245
     atom   20 type  1   force =    -0.00151058    0.00054436    0.00005231
     atom   21 type  1   force =     0.00102649    0.00176358   -0.00043271
     atom   22 type  2   force =     0.03449531   -0.00053434    0.00022867
     atom   23 type  2   force =     0.00209057   -0.00801411    0.00070165
     atom   24 type  1   force =     0.01885497    0.00254531   -0.00004625
     atom   25 type  1   force =     0.01359329    0.00388832   -0.00043924
     atom   26 type  1   force =    -0.00202786   -0.01013047    0.00001050
     atom   27 type  3   force =     0.00000762    0.00039678   -0.00020478
     atom   28 type  3   force =    -0.00001177   -0.00008911   -0.00019650
     atom   29 type  3   force =     0.00040511    0.00004902    0.00030888
     atom   30 type  3   force =     0.00024224    0.00008307    0.00041070
     atom   31 type  1   force =    -0.00039991    0.00098454   -0.00010112
     atom   32 type  1   force =     0.00068202    0.00001579    0.00016187
     atom   33 type  3   force =    -0.00001710    0.00086659    0.00012405

     Total force =     0.002740     Total SCF correction =     0.000457
     SCF correction compared to forces is large: reduce conv_thr to get better values

     entering subroutine stress ...

     negative rho (up, down):  0.239E+00 0.000E+00
          total   stress  (Ry/bohr**3)                   (kbar)     P=  -11.89
  -0.00009058  -0.00000022   0.00000160        -13.32     -0.03      0.23
  -0.00000022  -0.00010544  -0.00000612         -0.03    -15.51     -0.90
   0.00000160  -0.00000612  -0.00004638          0.23     -0.90     -6.82

     bfgs converged in  18 scf cycles and  17 bfgs steps
     (criteria: energy < 0.10E-03, force < 0.10E-02)

     End of BFGS Geometry Optimization

     Final energy   =   -2205.3896843166 Ry
Begin final coordinates

ATOMIC_POSITIONS (crystal)
O0       0.000000000   0.000000000   0.371178594    0   0   1
O0       0.000000000   0.500000000   0.383132348    0   0   1
Re1      0.250000000   0.500000000   0.442240071    0   0   1
Re1      0.000000000   0.000000000   0.443292536    0   0   1
O0       0.250000000   0.780000000   0.441587566    0   0   1
O0       0.250000000   0.220000000   0.441370542    0   0   1
O0       0.000000000   0.500000000   0.497850998    0   0   1
O0       0.000000000   0.000000000   0.513607310    0   0   1
Re1      0.250000000   0.000000000   0.574323926    0   0   1
Re1      0.000000000   0.500000000   0.567708475    0   0   1
O0       0.250000000   0.720000000   0.571397735    0   0   1
O0       0.250000000   0.280000000   0.573174875    0   0   1
O0       0.000000000   0.000000000   0.625971284    0   0   1
O0       0.500000000   0.000000000   0.370771794    0   0   1
O0       0.500000000   0.500000000   0.382541340    0   0   1
Re1      0.750000000   0.500000000   0.442207113    0   0   1
Re1      0.500000000   0.000000000   0.442789648    0   0   1
O0       0.750000000   0.780000000   0.441559061    0   0   1
O0       0.750000000   0.220000000   0.441533711    0   0   1
O0       0.500000000   0.500000000   0.497805166    0   0   1
O0       0.500000000   0.000000000   0.514129881    0   0   1
Re1      0.750000000   0.000000000   0.573410036    0   0   1
Re1      0.500000000   0.500000000   0.574293100    0   0   1
O0       0.750000000   0.720000000   0.571154402    0   0   1
O0       0.750000000   0.280000000   0.572996057    0   0   1
O0       0.500000000   0.000000000   0.625138067    0   0   1
H2      -0.000223952   0.622293818   0.365084912
H2       0.499542742   0.625044034   0.365735316
H2       0.168145290   0.023904283   0.356378481
H2       0.669396024   0.022169581   0.356332456
O0       0.498032479   0.524221484   0.642108660
O0       0.502544057   0.340144300   0.674689053
H2       0.499806666   0.404251858   0.707235487
End final coordinates

     General routines

     Parallel routines
     Hubbard U routines

   This run was terminated on:  17:47:45   2Jun2014

   JOB DONE.