     Program PWSCF v.5.0.2 (svn rev. 9656) starts on 27Apr2014 at  8: 7:48

     Current dimensions of program PWSCF are:
     Max number of different atomic species (ntypx) = 10
     Max number of k-points (npk) =  40000
     Max angular momentum in pseudopotentials (lmaxx) =  3
     Reading input from pwscf.in
Warning: card &CELL ignored
Warning: card / ignored

     Subspace diagonalization in iterative solution of the eigenvalue problem:
     a serial algorithm will be used

     bravais-lattice index     =            0
     lattice parameter (alat)  =      11.7919  a.u.
     unit-cell volume          =    7123.6633 (a.u.)^3
     number of atoms/cell      =           32
     number of atomic types    =            3
     number of electrons       =       247.00
     number of Kohn-Sham states=          358
     kinetic-energy cutoff     =      40.0000  Ry
     charge density cutoff     =     500.0000  Ry
     convergence threshold     =      1.0E-06
     mixing beta               =       0.7000
     number of iterations used =            8  plain     mixing
     Exchange-correlation      = SLA  PW   PBE  PBE ( 1 4 3 4 0)
     EXX-fraction              =        0.00
     nstep                     =           50

     celldm(1)=  11.791891  celldm(2)=   0.000000  celldm(3)=   0.000000
     celldm(4)=   0.000000  celldm(5)=   0.000000  celldm(6)=   0.000000

     crystal axes: (cart. coord. in units of alat)
               a(1) = (   1.000000   0.000000   0.000000 )
               a(2) = (   0.000000   1.026665   0.000000 )
               a(3) = (   0.000000   0.000000   4.231793 )

     reciprocal axes: (cart. coord. in units 2 pi/alat)
               b(1) = (  1.000000  0.000000  0.000000 )
               b(2) = (  0.000000  0.974028  0.000000 )
               b(3) = (  0.000000  0.000000  0.236306 )

     PseudoPot. # 1 for O  read from file:
     /home/camp/zhonxu/pseudo/o_pbe_v1.01.uspp.F.UPF
     MD5 check sum: 2bcb18d16ea4b960afae9ec6d52f22d2
     Pseudo is Ultrasoft + core correction, Zval =  6.0
     Generated by new atomic code, or converted to UPF format
     Using radial grid of  737 points,  5 beta functions with:
                l(1) =   0
                l(2) =   0
                l(3) =   1
                l(4) =   1
                l(5) =   2
     Q(r) pseudized with  8 coefficients,  rinner =    0.900   0.900   0.900
                                                       0.900   0.900

     PseudoPot. # 2 for Ru read from file:
     /home/camp/zhonxu/pseudo/ru_pbe_v1.uspp.F.UPF
     MD5 check sum: df00be1c11b23341d9806d8f1dfa10cf
     Pseudo is Ultrasoft + core correction, Zval = 16.0
     Generated by new atomic code, or converted to UPF format
     Using radial grid of  967 points,  6 beta functions with:
                l(1) =   0
                l(2) =   0
                l(3) =   1
                l(4) =   1
                l(5) =   2
                l(6) =   2
     Q(r) pseudized with  8 coefficients,  rinner =    1.300   1.300   1.300
                                                       1.300   1.300

     PseudoPot. # 3 for H  read from file:
     /home/camp/zhonxu/pseudo/h_pbe_v1.uspp.F.UPF
     MD5 check sum: 3408e3ff4ec8b0a4e358431e7e038a48
     Pseudo is Ultrasoft, Zval =  1.0
     Generated by new atomic code, or converted to UPF format
     Using radial grid of  615 points,  2 beta functions with:
                l(1) =   0
                l(2) =   0
     Q(r) pseudized with  8 coefficients,  rinner =    0.700

     atomic species   valence    mass     pseudopotential
        O0             6.00    15.99940     O ( 1.00)
        Ru1           16.00   101.07000     Ru( 1.00)
        H2             1.00     1.00794     H ( 1.00)

     Simplified LDA+U calculation (l_max = 2) with parameters (eV):
     atomic species    L          U    alpha       J0     beta
        Ru1            2     5.0000   0.0000   0.0000   0.0000

     No symmetry found

   Cartesian axes

     site n.     atom                  positions (alat units)
         1           O0  tau(   1) = (   0.0000000   0.0000000   1.6035109  )
         2           O0  tau(   2) = (   0.0000000   0.5133323   1.7058780  )
         3           Ru1 tau(   3) = (   0.2500000   0.5133323   1.9200491  )
         4           Ru1 tau(   4) = (   0.0000000   0.0000000   1.9171714  )
         5           O0  tau(   5) = (   0.2500000   0.8315984   1.9169175  )
         6           O0  tau(   6) = (   0.2500000   0.1950663   1.9164520  )
         7           O0  tau(   7) = (   0.0000000   0.5133323   2.1053593  )
         8           O0  tau(   8) = (   0.0000000   0.0000000   2.2310435  )
         9           Ru1 tau(   9) = (   0.2500000   0.0000000   2.4441566  )
        10           Ru1 tau(  10) = (   0.0000000   0.5133323   2.4052664  )
        11           O0  tau(  11) = (   0.2500000   0.7083986   2.4364547  )
        12           O0  tau(  12) = (   0.2500000   0.3182660   2.4361585  )
        13           O0  tau(  13) = (   0.0000000   0.0000000   2.6233307  )
        14           O0  tau(  14) = (   0.5000000   0.0000000   1.6045689  )
        15           O0  tau(  15) = (   0.5000000   0.5133323   1.7057934  )
        16           Ru1 tau(  16) = (   0.7500000   0.5133323   1.9200914  )
        17           Ru1 tau(  17) = (   0.5000000   0.0000000   1.9176369  )
        18           O0  tau(  18) = (   0.7500000   0.8315984   1.9167059  )
        19           O0  tau(  19) = (   0.7500000   0.1950663   1.9164520  )
        20           O0  tau(  20) = (   0.5000000   0.5133323   2.1229635  )
        21           O0  tau(  21) = (   0.5000000   0.0000000   2.2303664  )
        22           Ru1 tau(  22) = (   0.7500000   0.0000000   2.4441143  )
        23           Ru1 tau(  23) = (   0.5000000   0.5133323   2.4370472  )
        24           O0  tau(  24) = (   0.7500000   0.7083986   2.4343812  )
        25           O0  tau(  25) = (   0.7500000   0.3182660   2.4338310  )
        26           O0  tau(  26) = (   0.5000000   0.0000000   2.6134283  )
        27           H2  tau(  27) = (  -0.0002400   0.6455975   1.6183222  )
        28           H2  tau(  28) = (   0.4995500   0.6408954   1.6119322  )
        29           H2  tau(  29) = (   0.1457200   0.0328533   1.5514599  )
        30           H2  tau(  30) = (   0.6465200   0.0301223   1.5527294  )
        31           O0  tau(  31) = (   0.5138700   0.5107965   2.7447408  )
        32           H2  tau(  32) = (   0.3716000   0.5093694   2.8125765  )

     number of k points=    10  Methfessel-Paxton smearing, width (Ry)=  0.0100
                       cart. coord. in units 2pi/alat
        k(    1) = (   0.0000000   0.0000000   0.0000000), wk =   0.1250000
        k(    2) = (   0.0000000   0.2435070   0.0000000), wk =   0.2500000
        k(    3) = (   0.0000000  -0.4870139   0.0000000), wk =   0.1250000
        k(    4) = (   0.2500000   0.0000000   0.0000000), wk =   0.2500000
        k(    5) = (   0.2500000   0.2435070   0.0000000), wk =   0.2500000
        k(    6) = (   0.2500000  -0.4870139   0.0000000), wk =   0.2500000
        k(    7) = (  -0.5000000   0.0000000   0.0000000), wk =   0.1250000
        k(    8) = (  -0.5000000   0.2435070   0.0000000), wk =   0.2500000
        k(    9) = (  -0.5000000  -0.4870139   0.0000000), wk =   0.1250000
        k(   10) = (  -0.2500000   0.2435070   0.0000000), wk =   0.2500000

     Largest allocated arrays     est. size (Mb)     dimensions
     Largest temporary arrays     est. size (Mb)     dimensions

     Check: negative/imaginary core charge=   -0.000003    0.000000

     Initial potential from superposition of free atoms
     Check: negative starting charge=   -0.522051

     starting charge  238.99980, renormalised to  247.00000

     negative rho (up, down):  0.540E+00 0.000E+00
     Number of +U iterations with fixed ns =  0
     Starting occupations:
 --- enter write_ns ---
 LDA+U parameters:
U( 2)     =  5.00000000
alpha( 2) =  0.00000000
atom    3   Tr[ns(na)] =   6.00000
    eigenvalues:
  0.600  0.600  0.600  0.600  0.600
    eigenvectors:
  1.000  0.000  0.000  0.000  0.000
  0.000  1.000  0.000  0.000  0.000
  0.000  0.000  1.000  0.000  0.000
  0.000  0.000  0.000  1.000  0.000
  0.000  0.000  0.000  0.000  1.000
    occupations:
  0.600  0.000  0.000  0.000  0.000
  0.000  0.600  0.000  0.000  0.000
  0.000  0.000  0.600  0.000  0.000
  0.000  0.000  0.000  0.600  0.000
  0.000  0.000  0.000  0.000  0.600
atom    4   Tr[ns(na)] =   6.00000
    eigenvalues:
  0.600  0.600  0.600  0.600  0.600
    eigenvectors:
  1.000  0.000  0.000  0.000  0.000
  0.000  1.000  0.000  0.000  0.000
  0.000  0.000  1.000  0.000  0.000
  0.000  0.000  0.000  1.000  0.000
  0.000  0.000  0.000  0.000  1.000
    occupations:
  0.600  0.000  0.000  0.000  0.000
  0.000  0.600  0.000  0.000  0.000
  0.000  0.000  0.600  0.000  0.000
  0.000  0.000  0.000  0.600  0.000
  0.000  0.000  0.000  0.000  0.600
atom    9   Tr[ns(na)] =   6.00000
    eigenvalues:
  0.600  0.600  0.600  0.600  0.600
    eigenvectors:
  1.000  0.000  0.000  0.000  0.000
  0.000  1.000  0.000  0.000  0.000
  0.000  0.000  1.000  0.000  0.000
  0.000  0.000  0.000  1.000  0.000
  0.000  0.000  0.000  0.000  1.000
    occupations:
  0.600  0.000  0.000  0.000  0.000
  0.000  0.600  0.000  0.000  0.000
  0.000  0.000  0.600  0.000  0.000
  0.000  0.000  0.000  0.600  0.000
  0.000  0.000  0.000  0.000  0.600
atom   10   Tr[ns(na)] =   6.00000
    eigenvalues:
  0.600  0.600  0.600  0.600  0.600
    eigenvectors:
  1.000  0.000  0.000  0.000  0.000
  0.000  1.000  0.000  0.000  0.000
  0.000  0.000  1.000  0.000  0.000
  0.000  0.000  0.000  1.000  0.000
  0.000  0.000  0.000  0.000  1.000
    occupations:
  0.600  0.000  0.000  0.000  0.000
  0.000  0.600  0.000  0.000  0.000
  0.000  0.000  0.600  0.000  0.000
  0.000  0.000  0.000  0.600  0.000
  0.000  0.000  0.000  0.000  0.600
atom   16   Tr[ns(na)] =   6.00000
    eigenvalues:
  0.600  0.600  0.600  0.600  0.600
    eigenvectors:
  1.000  0.000  0.000  0.000  0.000
  0.000  1.000  0.000  0.000  0.000
  0.000  0.000  1.000  0.000  0.000
  0.000  0.000  0.000  1.000  0.000
  0.000  0.000  0.000  0.000  1.000
    occupations:
  0.600  0.000  0.000  0.000  0.000
  0.000  0.600  0.000  0.000  0.000
  0.000  0.000  0.600  0.000  0.000
  0.000  0.000  0.000  0.600  0.000
  0.000  0.000  0.000  0.000  0.600
atom   17   Tr[ns(na)] =   6.00000
    eigenvalues:
  0.600  0.600  0.600  0.600  0.600
    eigenvectors:
  1.000  0.000  0.000  0.000  0.000
  0.000  1.000  0.000  0.000  0.000
  0.000  0.000  1.000  0.000  0.000
  0.000  0.000  0.000  1.000  0.000
  0.000  0.000  0.000  0.000  1.000
    occupations:
  0.600  0.000  0.000  0.000  0.000
  0.000  0.600  0.000  0.000  0.000
  0.000  0.000  0.600  0.000  0.000
  0.000  0.000  0.000  0.600  0.000
  0.000  0.000  0.000  0.000  0.600
atom   22   Tr[ns(na)] =   6.00000
    eigenvalues:
  0.600  0.600  0.600  0.600  0.600
    eigenvectors:
  1.000  0.000  0.000  0.000  0.000
  0.000  1.000  0.000  0.000  0.000
  0.000  0.000  1.000  0.000  0.000
  0.000  0.000  0.000  1.000  0.000
  0.000  0.000  0.000  0.000  1.000
[...]
  0.610  0.000 -0.000  0.044  0.002
  0.000  0.826  0.032 -0.001 -0.002
 -0.000  0.032  0.658  0.001 -0.000
  0.044 -0.001  0.001  0.979  0.000
  0.002 -0.002 -0.000  0.000  0.551
atom    9   Tr[ns(na)] =   7.24368
    eigenvalues:
  0.576  0.595  0.792  0.805  0.854
    eigenvectors:
  0.000  0.149  0.769  0.069  0.012
  0.992  0.008  0.000  0.000  0.000
  0.000  0.000  0.082  0.917  0.000
  0.008  0.843  0.136  0.011  0.002
  0.000  0.000  0.012  0.002  0.985
    occupations:
  0.764 -0.003 -0.004 -0.071  0.007
 -0.003  0.577  0.002  0.003  0.000
 -0.004  0.002  0.804  0.000 -0.000
 -0.071  0.003  0.000  0.624 -0.003
  0.007  0.000 -0.000 -0.003  0.853
atom   10   Tr[ns(na)] =   7.27189
    eigenvalues:
  0.522  0.529  0.762  0.843  0.981
    eigenvectors:
  0.987  0.000  0.000  0.001  0.013
  0.000  0.000  0.000  0.998  0.001
  0.000  0.000  1.000  0.000  0.000
  0.013  0.000  0.000  0.001  0.986
  0.000  1.000  0.000  0.000  0.000
    occupations:
  0.528 -0.006  0.001  0.052 -0.000
 -0.006  0.843  0.000  0.005 -0.000
  0.001  0.000  0.762 -0.001  0.003
  0.052  0.005 -0.001  0.975  0.000
 -0.000 -0.000  0.003  0.000  0.529
atom   16   Tr[ns(na)] =   7.24436
    eigenvalues:
  0.506  0.551  0.680  0.907  0.979
    eigenvectors:
  0.000  0.178  0.008  0.000  0.813
  0.999  0.000  0.000  0.000  0.000
  0.000  0.003  0.954  0.028  0.015
  0.000  0.819  0.010  0.000  0.171
  0.000  0.000  0.028  0.972  0.000
    occupations:
  0.900 -0.007  0.035 -0.161 -0.005
 -0.007  0.506 -0.004  0.003 -0.006
  0.035 -0.004  0.690 -0.009  0.037
 -0.161  0.003 -0.009  0.625  0.000
 -0.005 -0.006  0.037  0.000  0.901
atom   17   Tr[ns(na)] =   7.24017
    eigenvalues:
  0.552  0.608  0.644  0.831  0.984
    eigenvectors:
  0.001  0.985  0.000  0.000  0.014
  0.000  0.000  0.016  0.984  0.000
  0.000  0.000  0.984  0.016  0.000
  0.000  0.014  0.000  0.000  0.986
  0.999  0.001  0.000  0.000  0.000
    occupations:
  0.613 -0.002  0.000  0.044  0.002
 -0.002  0.828  0.023 -0.000 -0.002
  0.000  0.023  0.647  0.001  0.000
  0.044 -0.000  0.001  0.979  0.000
  0.002 -0.002  0.000  0.000  0.552
atom   22   Tr[ns(na)] =   7.27080
    eigenvalues:
  0.555  0.582  0.722  0.852  0.925
    eigenvectors:
  0.000  0.150  0.000  0.007  0.843
  1.000  0.000  0.000  0.000  0.000
  0.000  0.000  0.999  0.001  0.000
  0.000  0.850  0.000  0.001  0.149
  0.000  0.000  0.001  0.991  0.008
    occupations:
  0.873  0.004 -0.002 -0.122  0.005
  0.004  0.555  0.002 -0.002  0.001
 -0.002  0.002  0.722  0.001 -0.004
 -0.122 -0.002  0.001  0.633 -0.004
  0.005  0.001 -0.004 -0.004  0.853
atom   23   Tr[ns(na)] =   7.23534
    eigenvalues:
  0.551  0.611  0.621  0.860  0.975
    eigenvectors:
  0.000  0.964  0.020  0.001  0.015
  0.000  0.001  0.000  0.998  0.001
  0.000  0.020  0.979  0.000  0.000
  0.000  0.015  0.000  0.000  0.984
  1.000  0.000  0.000  0.000  0.000
    occupations:
  0.617  0.007 -0.001  0.045  0.000
  0.007  0.860  0.005 -0.003  0.000
 -0.001  0.005  0.620  0.001 -0.001
  0.045 -0.003  0.001  0.970 -0.000
  0.000  0.000 -0.001 -0.000  0.551
N of occupied +U levels =  57.9929622
 --- exit write_ns ---

     Threshold (ethr) on eigenvalues was too large:
     Diagonalizing with lowered threshold

     Davidson diagonalization with overlap
     ethr =  1.85E-08,  avg # of iterations =  2.6

[...]

     total energy              =   -2162.08863186 Ry
     Harris-Foulkes estimate   =   -2162.08863186 Ry
     estimated scf accuracy    <       0.00000003 Ry

     iteration # 21     ecut=    40.00 Ry     beta=0.70
     Davidson diagonalization with overlap
     ethr =  1.24E-11,  avg # of iterations =  1.0

     negative rho (up, down):  0.574E+00 0.000E+00

     End of self-consistent calculation
 --- enter write_ns ---
 LDA+U parameters:
U( 2)     =  5.00000000
alpha( 2) =  0.00000000
atom    3   Tr[ns(na)] =   7.24091
    eigenvalues:
  0.507  0.552  0.673  0.909  0.980
    eigenvectors:
  0.000  0.178  0.009  0.001  0.813
  0.999  0.000  0.000  0.000  0.000
  0.000  0.003  0.961  0.018  0.017
  0.000  0.819  0.011  0.000  0.170
  0.000  0.000  0.019  0.981  0.000
    occupations:
  0.901  0.007  0.038 -0.160  0.004
  0.007  0.508  0.004 -0.003 -0.007
  0.038  0.004  0.682 -0.010 -0.032
 -0.160 -0.003 -0.010  0.626 -0.001
  0.004 -0.007 -0.032 -0.001  0.904
atom    4   Tr[ns(na)] =   7.24558
    eigenvalues:
  0.551  0.605  0.652  0.832  0.984
    eigenvectors:
  0.002  0.984  0.000  0.000  0.014
  0.000  0.000  0.033  0.967  0.000
  0.000  0.000  0.967  0.033  0.000
  0.000  0.014  0.000  0.000  0.986
  0.998  0.002  0.000  0.000  0.000
    occupations:
  0.610  0.000 -0.000  0.044  0.002
  0.000  0.826  0.032 -0.001 -0.002
 -0.000  0.032  0.657  0.001 -0.000
  0.044 -0.001  0.001  0.979  0.000
  0.002 -0.002 -0.000  0.000  0.551
atom    9   Tr[ns(na)] =   7.24618
    eigenvalues:
  0.577  0.595  0.792  0.805  0.854
    eigenvectors:
  0.000  0.149  0.780  0.058  0.012
  0.992  0.008  0.000  0.000  0.000
  0.000  0.000  0.069  0.930  0.000
  0.008  0.843  0.138  0.009  0.002
  0.000  0.000  0.012  0.002  0.986
    occupations:
  0.764 -0.003 -0.004 -0.071  0.007
 -0.003  0.577  0.002  0.003  0.000
 -0.004  0.002  0.804  0.000 -0.000
 -0.071  0.003  0.000  0.624 -0.003
  0.007  0.000 -0.000 -0.003  0.853
atom   10   Tr[ns(na)] =   7.27308
    eigenvalues:
  0.522  0.529  0.762  0.843  0.981
    eigenvectors:
  0.987  0.000  0.000  0.001  0.013
  0.000  0.000  0.000  0.998  0.001
  0.000  0.000  1.000  0.000  0.000
  0.013  0.000  0.000  0.001  0.986
  0.000  1.000  0.000  0.000  0.000
    occupations:
  0.528 -0.006  0.001  0.051 -0.000
 -0.006  0.843  0.000  0.005 -0.000
  0.001  0.000  0.762 -0.001  0.003
  0.051  0.005 -0.001  0.975  0.000
 -0.000 -0.000  0.003  0.000  0.529
atom   16   Tr[ns(na)] =   7.24457
    eigenvalues:
  0.506  0.551  0.680  0.907  0.979
    eigenvectors:
  0.000  0.178  0.008  0.000  0.813
  0.999  0.000  0.000  0.000  0.000
  0.000  0.003  0.954  0.028  0.015
  0.000  0.819  0.010  0.000  0.171
  0.000  0.000  0.028  0.972  0.000
    occupations:
  0.900 -0.007  0.035 -0.161 -0.005
 -0.007  0.506 -0.004  0.003 -0.006
  0.035 -0.004  0.690 -0.009  0.037
 -0.161  0.003 -0.009  0.625  0.000
 -0.005 -0.006  0.037  0.000  0.901
atom   17   Tr[ns(na)] =   7.23966
    eigenvalues:
  0.552  0.608  0.644  0.831  0.984
    eigenvectors:
  0.001  0.985  0.000  0.000  0.014
  0.000  0.000  0.015  0.984  0.000
  0.000  0.000  0.984  0.016  0.000
  0.000  0.014  0.000  0.000  0.986
  0.999  0.001  0.000  0.000  0.000
    occupations:
  0.613 -0.002  0.000  0.044  0.002
 -0.002  0.829  0.023 -0.000 -0.002
  0.000  0.023  0.647  0.001  0.000
  0.044 -0.000  0.001  0.979  0.000
  0.002 -0.002  0.000  0.000  0.552
atom   22   Tr[ns(na)] =   7.26753
    eigenvalues:
  0.555  0.582  0.721  0.852  0.924
    eigenvectors:
  0.000  0.150  0.000  0.007  0.843
  1.000  0.000  0.000  0.000  0.000
  0.000  0.000  0.999  0.001  0.000
  0.000  0.850  0.000  0.001  0.149
  0.000  0.000  0.001  0.991  0.008
    occupations:
  0.873  0.004 -0.002 -0.122  0.005
  0.004  0.555  0.002 -0.001  0.001
 -0.002  0.002  0.721  0.001 -0.004
 -0.122 -0.001  0.001  0.633 -0.004
  0.005  0.001 -0.004 -0.004  0.852
atom   23   Tr[ns(na)] =   7.23584
    eigenvalues:
  0.551  0.611  0.621  0.860  0.975
    eigenvectors:
  0.000  0.963  0.020  0.001  0.015
  0.000  0.001  0.000  0.998  0.001
  0.000  0.020  0.979  0.000  0.000
  0.000  0.015  0.000  0.000  0.984
  1.000  0.000  0.000  0.000  0.000
    occupations:
  0.617  0.007 -0.001  0.045  0.000
  0.007  0.860  0.005 -0.004  0.000
 -0.001  0.005  0.620  0.001 -0.001
  0.045 -0.004  0.001  0.970 -0.000
  0.000  0.000 -0.001 -0.000  0.551
N of occupied +U levels =  57.9933319
 --- exit write_ns ---

[...]

          k = 0.2500-0.4870 0.0000 ( 30468 PWs)   bands (ev):

[...]

          k =-0.2500 0.2435 0.0000 ( 30434 PWs)   bands (ev):

   -74.0684 -73.8991 -73.8421 -73.7940 -73.7230 -73.5510 -73.3750 -73.3460
   -44.2337 -44.1995 -44.1716 -44.1185 -44.0335 -43.9742 -43.9598 -43.8878
   -43.8576 -43.7619 -43.7306 -43.6971 -43.6773 -43.6369 -43.6151 -43.6097
   -43.5776 -43.5414 -43.4890 -43.4291 -43.3847 -43.3139 -43.1668 -43.0611
   -20.8003 -20.3896 -20.3137 -20.1969 -20.1255 -19.9467 -19.8447 -19.8352
   -19.7019 -19.6790 -19.6297 -19.3808 -19.3456 -19.3335 -19.2772 -19.1909
   -19.1375 -19.0796 -18.8917  -9.3591  -8.9896  -8.9309  -8.7132  -8.6348
    -8.5114  -8.4777  -8.3364  -7.9916  -7.8720  -7.7711  -7.7298  -7.6159
    -7.5582  -7.4975  -7.4728  -7.3665  -7.2896  -7.0564  -6.8919  -6.7678
    -6.5273  -6.4693  -6.2956  -6.1721  -6.0583  -6.0250  -5.8611  -5.7454
    -5.6837  -5.6072  -5.5128  -5.4998  -5.3511  -5.1823  -5.1219  -5.0913
    -5.0173  -4.9415  -4.8841  -4.8298  -4.6436  -4.5125  -4.3912  -4.2562
    -4.1675  -4.1491  -4.0723  -3.9189  -3.8626  -3.6925  -3.6040  -3.5115
    -3.2400  -3.1850  -3.0863  -2.8995  -2.7286  -2.5473  -2.5395  -2.4625
    -2.4211  -2.2857  -2.2281  -2.1452  -2.1232  -2.0011  -1.9362  -1.9011
    -1.7168  -1.6219  -1.3607  -1.1612  -0.9988  -0.6741  -0.5984  -0.5033
    -0.3479  -0.3290  -0.1779   0.1370   1.0248   1.7166   1.8715   1.9211
     2.0982   2.5370   2.8152   2.9952   3.2798   3.3721   3.4632   3.5311
     3.6122   3.6673   3.9175   3.9681   4.0893   4.4600   4.6960   5.1338
     5.5781   5.6979   5.7913   6.0892   6.3737   6.4911   6.5949   6.6541
     6.8561   6.9732   7.0148   7.2528   7.5225   7.7001   7.8810   7.9514
     8.0754   8.2856   8.3599   8.4936   8.5765   8.6114   8.7414   8.8315
     8.9433   9.1239   9.2097   9.3598   9.4435   9.5749   9.6599   9.8653
     9.9577  10.0443  10.1116  10.1496  10.2208  10.3299  10.3756  10.4682
    10.5403  10.6549  10.7489  10.9041  10.9201  10.9726  11.1212  11.3108
    11.3807  11.4309  11.5794  11.5867  11.6485  11.8121  11.8632  11.8886
    11.9859  12.0571  12.1085  12.1850  12.2719  12.3880  12.4141  12.5274
    12.5790  12.6357  12.7358  12.7759  12.7897  12.8999  12.9721  13.0187
    13.1089  13.1627  13.2127  13.3330  13.4044  13.4934  13.6331  13.6809
    13.7473  13.8459  13.9491  14.0569  14.1112  14.2146  14.2658  14.3482
    14.4163  14.5602  14.5918  14.6342  14.7112  14.8026  14.9247  14.9495
    15.0116  15.1513  15.1809  15.2504  15.3392  15.4170  15.5339  15.5677
    15.6288  15.7300  15.7782  15.8384  15.8668  15.9019  15.9467  16.0346
    16.0931  16.1508  16.2180  16.2739  16.3088  16.3710  16.4948  16.5423
    16.6283  16.7004  16.7469  16.8292  16.8900  16.9087  16.9580  17.0811
    17.1646  17.2156  17.3150  17.3818  17.4580  17.4794  17.5070  17.5551
    17.6352  17.6708  17.7526  17.8051  17.8654  17.9321  17.9932  18.0576
    18.1374  18.1765  18.2332  18.2984  18.3315  18.4470  18.5592  18.6161
    18.6900  18.7837  18.8334  18.8845  18.9491  19.0219  19.1034  19.1847
    19.2169  19.2980  19.4188  19.4538  19.5081  19.6755  19.7212  19.7581
    19.7849  19.8689  19.9675  20.0151  20.1280  20.2398  20.2995  20.3918
    20.4361  20.5596  20.6434  20.7262  20.7691  20.8422  20.8928  20.9567
    20.9913  21.0425  21.1239  21.2264  21.2661  21.3133  21.3265  21.3948
    21.4472  21.4976  21.5600  21.6059  21.6820  21.7544  21.8519  21.9233
    21.9447  21.9837  22.0016  22.0713  22.1433  22.2419

     the Fermi energy is    -1.1559 ev

!    total energy              =   -2162.08863185 Ry
     Harris-Foulkes estimate   =   -2162.08863186 Ry
     estimated scf accuracy    <          8.8E-09 Ry

     The total energy is the sum of the following terms:

     one-electron contribution =  -25276.51294042 Ry
     hartree contribution      =   12663.71626281 Ry
     xc contribution           =    -338.68913992 Ry
     ewald contribution        =   10786.86306401 Ry
     Hubbard energy            =       2.53382600 Ry
     smearing contrib. (-TS)   =       0.00029568 Ry

     convergence has been achieved in  21 iterations

     Forces acting on atoms (Ry/au):

     negative rho (up, down):  0.574E+00 0.000E+00
     atom    1 type  1   force =    -0.00586622   -0.00884216   -0.00058125
     atom    2 type  1   force =     0.00093783    0.00349532   -0.00059054
     atom    3 type  2   force =     0.01577890    0.00260759   -0.00081007
     atom    4 type  2   force =     0.00182191    0.00526345    0.00023608
     atom    5 type  1   force =     0.00026111   -0.04183711    0.00059753
     atom    6 type  1   force =     0.00337708    0.04289747    0.00054815
     atom    7 type  1   force =     0.00246457   -0.00248662   -0.00038287
     atom    8 type  1   force =     0.01470516   -0.00226487   -0.00022594
     atom    9 type  2   force =    -0.01205761    0.00198847   -0.00013459
     atom   10 type  2   force =    -0.00593689   -0.00094408   -0.00059587
     atom   11 type  1   force =    -0.01182613    0.01498668    0.00014501
     atom   12 type  1   force =    -0.01272522   -0.01570199    0.00009212
     atom   13 type  1   force =     0.01589342   -0.00044746    0.00017715
     atom   14 type  1   force =    -0.00415698   -0.00686515   -0.00031369
     atom   15 type  1   force =    -0.00001898    0.00289852   -0.00009962
     atom   16 type  2   force =    -0.01629513    0.00600396   -0.00094162
     atom   17 type  2   force =     0.00339525    0.00438756    0.00029042
     atom   18 type  1   force =    -0.00134100   -0.04139107    0.00067121
     atom   19 type  1   force =     0.00445919    0.03923649    0.00057929
     atom   20 type  1   force =    -0.00401165   -0.00343317    0.00094302
     atom   21 type  1   force =    -0.01557249   -0.00004918   -0.00055192
     atom   22 type  2   force =     0.00534886    0.00171629    0.00038991
     atom   23 type  2   force =     0.00340194    0.00093897    0.00012198
     atom   24 type  1   force =     0.01412956    0.02401771    0.00056398
     atom   25 type  1   force =     0.01484737   -0.02434210    0.00048990
     atom   26 type  1   force =    -0.01261551   -0.00092984    0.00005341
     atom   27 type  3   force =     0.00004381    0.00019156    0.00004809
     atom   28 type  3   force =     0.00002534   -0.00055306   -0.00001746
     atom   29 type  3   force =     0.00035222   -0.00004280   -0.00035263
     atom   30 type  3   force =     0.00017305   -0.00010247   -0.00047976
     atom   31 type  1   force =     0.00014681   -0.00021284   -0.00011520
     atom   32 type  3   force =     0.00086043   -0.00018407    0.00024578

     Total force =     0.002874     Total SCF correction =     0.000286

     bfgs converged in  17 scf cycles and  16 bfgs steps
     (criteria: energy < 0.10E-03, force < 0.10E-02)

     End of BFGS Geometry Optimization

     Final energy   =   -2162.0886318536 Ry
Begin final coordinates

ATOMIC_POSITIONS (crystal)
O0       0.000000000   0.000000000   0.380553229    0   0   1
O0       0.000000000   0.500000000   0.402104667    0   0   1
Ru1      0.250000000   0.500000000   0.453199707    0   0   1
Ru1      0.000000000   0.000000000   0.454042927    0   0   1
O0       0.250000000   0.810000000   0.453594239    0   0   1
O0       0.250000000   0.190000000   0.453366186    0   0   1
O0       0.000000000   0.500000000   0.498549503    0   0   1
O0       0.000000000   0.000000000   0.526759943    0   0   1
Ru1      0.250000000   0.000000000   0.579285629    0   0   1
Ru1      0.000000000   0.500000000   0.568363784    0   0   1
O0       0.250000000   0.690000000   0.575776257    0   0   1
O0       0.250000000   0.310000000   0.575906657    0   0   1
O0       0.000000000   0.000000000   0.619575054    0   0   1
O0       0.500000000   0.000000000   0.380657225    0   0   1
O0       0.500000000   0.500000000   0.404009420    0   0   1
Ru1      0.750000000   0.500000000   0.453204912    0   0   1
Ru1      0.500000000   0.000000000   0.454066151    0   0   1
O0       0.750000000   0.810000000   0.453591597    0   0   1
O0       0.750000000   0.190000000   0.453427709    0   0   1
O0       0.500000000   0.500000000   0.502108581    0   0   1
O0       0.500000000   0.000000000   0.526672474    0   0   1
Ru1      0.750000000   0.000000000   0.575785122    0   0   1
Ru1      0.500000000   0.500000000   0.575116585    0   0   1
O0       0.750000000   0.690000000   0.573656211    0   0   1
O0       0.750000000   0.310000000   0.573515636    0   0   1
O0       0.500000000   0.000000000   0.618049270    0   0   1
H2      -0.000451273   0.628195508   0.381439558
H2       0.499236601   0.611154310   0.378261852
H2       0.145648447   0.031201205   0.368023106
H2       0.647037559   0.025864792   0.368236543
O0       0.516732235   0.498178826   0.647200668
H2       0.375459687   0.494136245   0.663719597
End final coordinates

     General routines

     Parallel routines
     Hubbard U routines

   This run was terminated on:   9:56: 4  28Apr2014

   JOB DONE.