     Program PWSCF v.5.0.2 (svn rev. 9656) starts on 23Jan2014 at 19:13:48

     Current dimensions of program PWSCF are:
     Max number of different atomic species (ntypx) = 10
     Max number of k-points (npk) =  40000
     Max angular momentum in pseudopotentials (lmaxx) =  3
     Reading input from NbO2-v-1.1.in

     Subspace diagonalization in iterative solution of the eigenvalue problem:
     a serial algorithm will be used

     bravais-lattice index     =            0
     lattice parameter (alat)  =       8.9385  a.u.
     unit-cell volume          =     460.2364 (a.u.)^3
     number of atoms/cell      =            6
     number of atomic types    =            2
     number of electrons       =        50.00
     number of Kohn-Sham states=           75
     kinetic-energy cutoff     =      40.0000  Ry
     charge density cutoff     =     500.0000  Ry
     convergence threshold     =      1.0E-06
     mixing beta               =       0.7000
     number of iterations used =            8  plain     mixing
     Exchange-correlation      = SLA  PW   PBE  PBE ( 1 4 3 4 0)
     EXX-fraction              =        0.00
     nstep                     =           50

     celldm(1)=   8.938511  celldm(2)=   0.000000  celldm(3)=   0.000000
     celldm(4)=   0.000000  celldm(5)=   0.000000  celldm(6)=   0.000000

     crystal axes: (cart. coord. in units of alat)
               a(1) = (   1.000000   0.000000   0.000000 )
               a(2) = (   0.000000   1.000000   0.000000 )
               a(3) = (   0.000000   0.000000   0.644444 )

     reciprocal axes: (cart. coord. in units 2 pi/alat)
               b(1) = (  1.000000  0.000000  0.000000 )
               b(2) = (  0.000000  1.000000  0.000000 )
               b(3) = (  0.000000  0.000000  1.551724 )

     PseudoPot. # 1 for Nb read from file:
     /home/camp/zhonxu/pseudo/nb_pbe_v1.uspp.F.UPF
     MD5 check sum: 573aab8a2fa660278ed4a62cd769473f
     Pseudo is Ultrasoft + core correction, Zval = 13.0
     Generated by new atomic code, or converted to UPF format
     Using radial grid of  887 points,  6 beta functions with:
                l(1) =   0
                l(2) =   0
                l(3) =   1
                l(4) =   1
                l(5) =   2
                l(6) =   2
     Q(r) pseudized with  6 coefficients,  rinner =    1.000   1.000   1.000
                                                       1.000   1.000

     PseudoPot. # 2 for O  read from file:
     /home/camp/zhonxu/pseudo/o_pbe_v1.01.uspp.F.UPF
     MD5 check sum: 2bcb18d16ea4b960afae9ec6d52f22d2
     Pseudo is Ultrasoft + core correction, Zval =  6.0
     Generated by new atomic code, or converted to UPF format
     Using radial grid of  737 points,  5 beta functions with:
                l(1) =   0
                l(2) =   0
                l(3) =   1
                l(4) =   1
                l(5) =   2
     Q(r) pseudized with  8 coefficients,  rinner =    0.900   0.900   0.900
                                                       0.900   0.900

     atomic species   valence    mass     pseudopotential
        Nb0           13.00    92.90640     Nb( 1.00)
        O1             6.00    15.99940     O ( 1.00)

     Starting magnetic structure
     atomic species   magnetization
        Nb0          0.600
        O1           0.000

      8 Sym. Ops., with inversion, found
          (note:  8 additional sym.ops. were found but ignored
           their fractional translations are incommensurate with FFT grid)

   Cartesian axes

     site n.     atom                  positions (alat units)
         1           Nb0 tau(   1) = (   0.0000000   0.0000000   0.0000000  )
         2           Nb0 tau(   2) = (   0.5000000   0.5000000   0.3222222  )
         3           O1  tau(   3) = (   0.3050000   0.3050000   0.0000000  )
         4           O1  tau(   4) = (  -0.3050000  -0.3050000   0.0000000  )
         5           O1  tau(   5) = (   0.8050000   0.1950000   0.3222222  )
         6           O1  tau(   6) = (   0.1950000   0.8050000   0.3222222  )

     number of k points=    54  Methfessel-Paxton smearing, width (Ry)=  0.0100
                       cart. coord. in units 2pi/alat
        k(    1) = (   0.0000000   0.0000000   0.0000000), wk =   0.0080000
        k(    2) = (   0.0000000   0.0000000   0.3103448), wk =   0.0160000
        k(    3) = (   0.0000000   0.0000000   0.6206897), wk =   0.0160000
        k(    4) = (   0.0000000   0.2000000   0.0000000), wk =   0.0320000
        k(    5) = (   0.0000000   0.2000000   0.3103448), wk =   0.0640000
        k(    6) = (   0.0000000   0.2000000   0.6206897), wk =   0.0640000
        k(    7) = (   0.0000000   0.4000000   0.0000000), wk =   0.0320000
        k(    8) = (   0.0000000   0.4000000   0.3103448), wk =   0.0640000
        k(    9) = (   0.0000000   0.4000000   0.6206897), wk =   0.0640000
        k(   10) = (   0.2000000   0.2000000   0.0000000), wk =   0.0160000
        k(   11) = (   0.2000000   0.2000000   0.3103448), wk =   0.0320000
        k(   12) = (   0.2000000   0.2000000   0.6206897), wk =   0.0320000
        k(   13) = (   0.2000000   0.4000000   0.0000000), wk =   0.0320000
        k(   14) = (   0.2000000   0.4000000   0.3103448), wk =   0.0640000
        k(   15) = (   0.2000000   0.4000000   0.6206897), wk =   0.0640000
        k(   16) = (   0.4000000   0.4000000   0.0000000), wk =   0.0160000
        k(   17) = (   0.4000000   0.4000000   0.3103448), wk =   0.0320000
        k(   18) = (   0.4000000   0.4000000   0.6206897), wk =   0.0320000
        k(   19) = (  -0.2000000   0.2000000   0.0000000), wk =   0.0160000
        k(   20) = (  -0.2000000   0.2000000  -0.3103448), wk =   0.0320000
        k(   21) = (  -0.2000000   0.2000000  -0.6206897), wk =   0.0320000
        k(   22) = (  -0.2000000   0.4000000   0.0000000), wk =   0.0320000
        k(   23) = (  -0.2000000   0.4000000  -0.3103448), wk =   0.0640000
        k(   24) = (  -0.2000000   0.4000000  -0.6206897), wk =   0.0640000
        k(   25) = (  -0.4000000   0.4000000   0.0000000), wk =   0.0160000
        k(   26) = (  -0.4000000   0.4000000  -0.3103448), wk =   0.0320000
        k(   27) = (  -0.4000000   0.4000000  -0.6206897), wk =   0.0320000
        k(   28) = (   0.0000000   0.0000000   0.0000000), wk =   0.0080000
        k(   29) = (   0.0000000   0.0000000   0.3103448), wk =   0.0160000
        k(   30) = (   0.0000000   0.0000000   0.6206897), wk =   0.0160000
        k(   31) = (   0.0000000   0.2000000   0.0000000), wk =   0.0320000
        k(   32) = (   0.0000000   0.2000000   0.3103448), wk =   0.0640000
        k(   33) = (   0.0000000   0.2000000   0.6206897), wk =   0.0640000
        k(   34) = (   0.0000000   0.4000000   0.0000000), wk =   0.0320000
        k(   35) = (   0.0000000   0.4000000   0.3103448), wk =   0.0640000
        k(   36) = (   0.0000000   0.4000000   0.6206897), wk =   0.0640000
        k(   37) = (   0.2000000   0.2000000   0.0000000), wk =   0.0160000
        k(   38) = (   0.2000000   0.2000000   0.3103448), wk =   0.0320000
        k(   39) = (   0.2000000   0.2000000   0.6206897), wk =   0.0320000
        k(   40) = (   0.2000000   0.4000000   0.0000000), wk =   0.0320000
        k(   41) = (   0.2000000   0.4000000   0.3103448), wk =   0.0640000
        k(   42) = (   0.2000000   0.4000000   0.6206897), wk =   0.0640000
        k(   43) = (   0.4000000   0.4000000   0.0000000), wk =   0.0160000
        k(   44) = (   0.4000000   0.4000000   0.3103448), wk =   0.0320000
        k(   45) = (   0.4000000   0.4000000   0.6206897), wk =   0.0320000
        k(   46) = (  -0.2000000   0.2000000   0.0000000), wk =   0.0160000
        k(   47) = (  -0.2000000   0.2000000  -0.3103448), wk =   0.0320000
        k(   48) = (  -0.2000000   0.2000000  -0.6206897), wk =   0.0320000
        k(   49) = (  -0.2000000   0.4000000   0.0000000), wk =   0.0320000
        k(   50) = (  -0.2000000   0.4000000  -0.3103448), wk =   0.0640000
        k(   51) = (  -0.2000000   0.4000000  -0.6206897), wk =   0.0640000
        k(   52) = (  -0.4000000   0.4000000   0.0000000), wk =   0.0160000
        k(   53) = (  -0.4000000   0.4000000  -0.3103448), wk =   0.0320000
        k(   54) = (  -0.4000000   0.4000000  -0.6206897), wk =   0.0320000

     Largest allocated arrays     est. size (Mb)     dimensions
     Largest temporary arrays     est. size (Mb)     dimensions

     Check: negative/imaginary core charge=   -0.000007    0.000000

     Initial potential from superposition of free atoms

     starting charge   49.99453, renormalised to   50.00000
     Starting wfc are   42 randomized atomic wfcs

     Self-consistent Calculation

     iteration #  1     ecut=    40.00 Ry     beta=0.70
     Davidson diagonalization with overlap
     ethr =  1.00E-02,  avg # of iterations =  5.4

     total energy              =    -363.68487422 Ry
     Harris-Foulkes estimate   =    -364.91521490 Ry
     estimated scf accuracy    <       3.59601616 Ry

     total magnetization       =     2.00 Bohr mag/cell
     absolute magnetization    =     2.84 Bohr mag/cell

[...]

     End of self-consistent calculation

 ------ SPIN UP ------------

          k = 0.0000 0.0000 0.0000 (  1955 PWs)   bands (ev):

   -42.8817 -42.8544 -19.2223 -19.2223 -18.9365 -18.8861 -18.8860 -18.8692
    -7.1595  -6.5525  -5.1554  -5.1540   4.7517   4.9109   5.7225   6.4972
     6.4983   8.5219   8.5219   9.0101   9.8122   9.9109   9.9110  10.5403
    13.3358  13.5295  14.2028  14.4203  14.4204  17.2796  17.2953  17.7717
    20.2329  20.2335  21.5460  21.7414  21.7415  25.1506  27.3183  28.0169
    28.3146  28.3808  29.4259  29.4262  31.8855  32.4110  32.8234  32.8235
    33.5269  33.5271  34.6776  38.6810  38.6812  39.1198  39.1399  39.6225
    41.0211  41.8489  41.8493  42.2331  42.2332  42.5086  43.1672  43.1744
    44.4723  44.6586  44.6591  44.9806  46.2379  48.5390  48.5511  48.5516
    49.5353  49.7929  49.8877

[...]

          k =-0.2000 0.2000 0.0000 (  1967 PWs)   bands (ev):

[...]

 ------ SPIN DOWN ----------

[...]

     the Fermi energy is    14.1372 ev

!    total energy              =    -365.26379144 Ry
     Harris-Foulkes estimate   =    -365.26379107 Ry
     estimated scf accuracy    <       0.00000036 Ry

     The total energy is the sum of the following terms:

     one-electron contribution =     -90.08952787 Ry
     hartree contribution      =      73.75879856 Ry
     xc contribution           =     -65.95080412 Ry
     ewald contribution        =    -282.98227076 Ry
     smearing contrib. (-TS)   =       0.00001275 Ry

[...]

     convergence has been achieved in  20 iterations

     Forces acting on atoms (Ry/au):

     atom    1 type  1   force =     0.00000000    0.00000000    0.00000000
     atom    2 type  1   force =     0.00000000    0.00000000    0.00000000
     atom    3 type  2   force =    -0.02754097   -0.02754097    0.00000000
     atom    4 type  2   force =     0.02754097    0.02754097   -0.00000000
     atom    5 type  2   force =    -0.02759992    0.02759992    0.00000000
     atom    6 type  2   force =     0.02759992   -0.02759992   -0.00000000

[...]
        k(    2) = (   0.0000000   0.0000000   0.3264324), wk =   0.0160000
        k(    3) = (   0.0000000   0.0000000   0.6528649), wk =   0.0160000
        k(    4) = (  -0.0000015   0.1950094   0.0000000), wk =   0.0320000
        k(    5) = (  -0.0000015   0.1950094   0.3264324), wk =   0.0640000
        k(    6) = (  -0.0000015   0.1950094   0.6528649), wk =   0.0640000
        k(    7) = (  -0.0000030   0.3900188   0.0000000), wk =   0.0320000
        k(    8) = (  -0.0000030   0.3900188   0.3264324), wk =   0.0640000
        k(    9) = (  -0.0000030   0.3900188   0.6528649), wk =   0.0640000
        k(   10) = (   0.1950079   0.1950079   0.0000000), wk =   0.0160000
        k(   11) = (   0.1950079   0.1950079   0.3264324), wk =   0.0320000
        k(   12) = (   0.1950079   0.1950079   0.6528649), wk =   0.0320000
        k(   13) = (   0.1950065   0.3900174   0.0000000), wk =   0.0320000
        k(   14) = (   0.1950065   0.3900174   0.3264324), wk =   0.0640000
        k(   15) = (   0.1950065   0.3900174   0.6528649), wk =   0.0640000
        k(   16) = (   0.3900159   0.3900159   0.0000000), wk =   0.0160000
        k(   17) = (   0.3900159   0.3900159   0.3264324), wk =   0.0320000
        k(   18) = (   0.3900159   0.3900159   0.6528649), wk =   0.0320000
        k(   19) = (  -0.1950109   0.1950109   0.0000000), wk =   0.0160000
        k(   20) = (  -0.1950109   0.1950109  -0.3264324), wk =   0.0320000
        k(   21) = (  -0.1950109   0.1950109  -0.6528649), wk =   0.0320000
        k(   22) = (  -0.1950124   0.3900203   0.0000000), wk =   0.0320000
        k(   23) = (  -0.1950124   0.3900203  -0.3264324), wk =   0.0640000
        k(   24) = (  -0.1950124   0.3900203  -0.6528649), wk =   0.0640000
        k(   25) = (  -0.3900218   0.3900218   0.0000000), wk =   0.0160000
        k(   26) = (  -0.3900218   0.3900218  -0.3264324), wk =   0.0320000
        k(   27) = (  -0.3900218   0.3900218  -0.6528649), wk =   0.0320000
        k(   28) = (   0.0000000   0.0000000   0.0000000), wk =   0.0080000
        k(   29) = (   0.0000000   0.0000000   0.3264324), wk =   0.0160000
        k(   30) = (   0.0000000   0.0000000   0.6528649), wk =   0.0160000
        k(   31) = (  -0.0000015   0.1950094   0.0000000), wk =   0.0320000
        k(   32) = (  -0.0000015   0.1950094   0.3264324), wk =   0.0640000
        k(   33) = (  -0.0000015   0.1950094   0.6528649), wk =   0.0640000
        k(   34) = (  -0.0000030   0.3900188   0.0000000), wk =   0.0320000
        k(   35) = (  -0.0000030   0.3900188   0.3264324), wk =   0.0640000
        k(   36) = (  -0.0000030   0.3900188   0.6528649), wk =   0.0640000
        k(   37) = (   0.1950079   0.1950079   0.0000000), wk =   0.0160000
        k(   38) = (   0.1950079   0.1950079   0.3264324), wk =   0.0320000
        k(   39) = (   0.1950079   0.1950079   0.6528649), wk =   0.0320000
        k(   40) = (   0.1950065   0.3900174   0.0000000), wk =   0.0320000
        k(   41) = (   0.1950065   0.3900174   0.3264324), wk =   0.0640000
        k(   42) = (   0.1950065   0.3900174   0.6528649), wk =   0.0640000
        k(   43) = (   0.3900159   0.3900159   0.0000000), wk =   0.0160000
        k(   44) = (   0.3900159   0.3900159   0.3264324), wk =   0.0320000
        k(   45) = (   0.3900159   0.3900159   0.6528649), wk =   0.0320000
        k(   46) = (  -0.1950109   0.1950109   0.0000000), wk =   0.0160000
        k(   47) = (  -0.1950109   0.1950109  -0.3264324), wk =   0.0320000
        k(   48) = (  -0.1950109   0.1950109  -0.6528649), wk =   0.0320000
        k(   49) = (  -0.1950124   0.3900203   0.0000000), wk =   0.0320000
        k(   50) = (  -0.1950124   0.3900203  -0.3264324), wk =   0.0640000
        k(   51) = (  -0.1950124   0.3900203  -0.6528649), wk =   0.0640000
        k(   52) = (  -0.3900218   0.3900218   0.0000000), wk =   0.0160000
        k(   53) = (  -0.3900218   0.3900218  -0.3264324), wk =   0.0320000
        k(   54) = (  -0.3900218   0.3900218  -0.6528649), wk =   0.0320000

[...]

     Threshold (ethr) on eigenvalues was too large:
     Diagonalizing with lowered threshold

     Davidson diagonalization with overlap
     ethr =  6.74E-08,  avg # of iterations =  1.1

[...]

     Total force =     0.001110     Total SCF correction =     0.000089

[...]

     Volume is kept fixed: isostatic pressure set to zero

     bfgs converged in   7 scf cycles and   6 bfgs steps
     (criteria: energy < 0.10E-03, force < 0.10E-02, cell < 0.50E+00)

     End of BFGS Geometry Optimization

     Final enthalpy =    -365.2804588507 Ry
Begin final coordinates
     new unit-cell volume =    460.23642 a.u.^3 (    68.20000 Ang^3 )

CELL_PARAMETERS (alat=  8.93851073)
   1.025591484   0.000007802   0.000000000
   0.000007802   1.025591484   0.000000000
   0.000000000   0.000000000   0.612684187

ATOMIC_POSITIONS (crystal)
Nb0      0.000000000   0.000000000   0.000000000    0   0   0
Nb0      0.500000000   0.500000000   0.500000000    0   0   0
O1       0.290506676   0.290506676   0.000000000    1   1   0
O1      -0.290506676  -0.290506676   0.000000000    1   1   0
O1       0.790507472   0.209492528   0.500000000    1   1   0
O1       0.209492528   0.790507472   0.500000000    1   1   0
End final coordinates

     A final scf calculation at the relaxed structure.
     The G-vectors are recalculated for the final unit cell
     Results may differ from those at the preceding step.

     bravais-lattice index     =            0
     lattice parameter (alat)  =       8.9385  a.u.
     unit-cell volume          =     460.2364 (a.u.)^3
     number of atoms/cell      =            6
     number of atomic types    =            2
     number of electrons       =        50.00
     number of Kohn-Sham states=           75
     kinetic-energy cutoff     =      40.0000  Ry
     charge density cutoff     =     500.0000  Ry
     convergence threshold     =      2.2E-08
     mixing beta               =       0.7000
     number of iterations used =            8  plain     mixing
     Exchange-correlation      = SLA  PW   PBE  PBE ( 1 4 3 4 0)
     EXX-fraction              =        0.00

     celldm(1)=   8.938511  celldm(2)=   0.000000  celldm(3)=   0.000000
     celldm(4)=   0.000000  celldm(5)=   0.000000  celldm(6)=   0.000000

     crystal axes: (cart. coord. in units of alat)
               a(1) = (   1.025591   0.000008   0.000000 )
               a(2) = (   0.000008   1.025591   0.000000 )
               a(3) = (   0.000000   0.000000   0.612684 )

     reciprocal axes: (cart. coord. in units 2 pi/alat)
               b(1) = (  0.975047 -0.000007  0.000000 )
               b(2) = ( -0.000007  0.975047  0.000000 )
               b(3) = (  0.000000  0.000000  1.632162 )

     PseudoPot. # 1 for Nb read from file:
     /home/camp/zhonxu/pseudo/nb_pbe_v1.uspp.F.UPF
     MD5 check sum: 573aab8a2fa660278ed4a62cd769473f
     Pseudo is Ultrasoft + core correction, Zval = 13.0
     Generated by new atomic code, or converted to UPF format
     Using radial grid of  887 points,  6 beta functions with:
                l(1) =   0
                l(2) =   0
                l(3) =   1
                l(4) =   1
                l(5) =   2
                l(6) =   2
     Q(r) pseudized with  6 coefficients,  rinner =    1.000   1.000   1.000
                                                       1.000   1.000

     PseudoPot. # 2 for O  read from file:
     /home/camp/zhonxu/pseudo/o_pbe_v1.01.uspp.F.UPF
     MD5 check sum: 2bcb18d16ea4b960afae9ec6d52f22d2
     Pseudo is Ultrasoft + core correction, Zval =  6.0
     Generated by new atomic code, or converted to UPF format
     Using radial grid of  737 points,  5 beta functions with:
                l(1) =   0
                l(2) =   0
                l(3) =   1
                l(4) =   1
                l(5) =   2
     Q(r) pseudized with  8 coefficients,  rinner =    0.900   0.900   0.900
                                                       0.900   0.900

     atomic species   valence    mass     pseudopotential
        Nb0           13.00    92.90640     Nb( 1.00)
        O1             6.00    15.99940     O ( 1.00)

     Starting magnetic structure
     atomic species   magnetization
        Nb0          0.600
        O1           0.000

      8 Sym. Ops., with inversion, found
          (note:  8 additional sym.ops. were found but ignored
           their fractional translations are incommensurate with FFT grid)

   Cartesian axes

     site n.     atom                  positions (alat units)
         1           Nb0 tau(   1) = (   0.0000000   0.0000000   0.0000000  )
         2           Nb0 tau(   2) = (   0.5127996   0.5127996   0.3063421  )
         3           O1  tau(   3) = (   0.2979434   0.2979434   0.0000000  )
         4           O1  tau(   4) = (  -0.2979434  -0.2979434   0.0000000  )
         5           O1  tau(   5) = (   0.8107394   0.2148599   0.3063421  )
         6           O1  tau(   6) = (   0.2148599   0.8107394   0.3063421  )

     number of k points=    54  Methfessel-Paxton smearing, width (Ry)=  0.0100
                       cart. coord. in units 2pi/alat
        k(    1) = (   0.0000000   0.0000000   0.0000000), wk =   0.0080000
        k(    2) = (   0.0000000   0.0000000   0.3264324), wk =   0.0160000
        k(    3) = (   0.0000000   0.0000000   0.6528649), wk =   0.0160000
        k(    4) = (  -0.0000015   0.1950094   0.0000000), wk =   0.0320000
        k(    5) = (  -0.0000015   0.1950094   0.3264324), wk =   0.0640000
        k(    6) = (  -0.0000015   0.1950094   0.6528649), wk =   0.0640000
        k(    7) = (  -0.0000030   0.3900188   0.0000000), wk =   0.0320000
        k(    8) = (  -0.0000030   0.3900188   0.3264324), wk =   0.0640000
        k(    9) = (  -0.0000030   0.3900188   0.6528649), wk =   0.0640000
        k(   10) = (   0.1950079   0.1950079   0.0000000), wk =   0.0160000
        k(   11) = (   0.1950079   0.1950079   0.3264324), wk =   0.0320000
        k(   12) = (   0.1950079   0.1950079   0.6528649), wk =   0.0320000
        k(   13) = (   0.1950065   0.3900174   0.0000000), wk =   0.0320000
        k(   14) = (   0.1950065   0.3900174   0.3264324), wk =   0.0640000
        k(   15) = (   0.1950065   0.3900174   0.6528649), wk =   0.0640000
        k(   16) = (   0.3900159   0.3900159   0.0000000), wk =   0.0160000
        k(   17) = (   0.3900159   0.3900159   0.3264324), wk =   0.0320000
        k(   18) = (   0.3900159   0.3900159   0.6528649), wk =   0.0320000
        k(   19) = (  -0.1950109   0.1950109   0.0000000), wk =   0.0160000
        k(   20) = (  -0.1950109   0.1950109  -0.3264324), wk =   0.0320000
        k(   21) = (  -0.1950109   0.1950109  -0.6528649), wk =   0.0320000
        k(   22) = (  -0.1950124   0.3900203   0.0000000), wk =   0.0320000
        k(   23) = (  -0.1950124   0.3900203  -0.3264324), wk =   0.0640000
        k(   24) = (  -0.1950124   0.3900203  -0.6528649), wk =   0.0640000
        k(   25) = (  -0.3900218   0.3900218   0.0000000), wk =   0.0160000
        k(   26) = (  -0.3900218   0.3900218  -0.3264324), wk =   0.0320000
        k(   27) = (  -0.3900218   0.3900218  -0.6528649), wk =   0.0320000
        k(   28) = (   0.0000000   0.0000000   0.0000000), wk =   0.0080000
        k(   29) = (   0.0000000   0.0000000   0.3264324), wk =   0.0160000
        k(   30) = (   0.0000000   0.0000000   0.6528649), wk =   0.0160000
        k(   31) = (  -0.0000015   0.1950094   0.0000000), wk =   0.0320000
        k(   32) = (  -0.0000015   0.1950094   0.3264324), wk =   0.0640000
        k(   33) = (  -0.0000015   0.1950094   0.6528649), wk =   0.0640000
        k(   34) = (  -0.0000030   0.3900188   0.0000000), wk =   0.0320000
        k(   35) = (  -0.0000030   0.3900188   0.3264324), wk =   0.0640000
        k(   36) = (  -0.0000030   0.3900188   0.6528649), wk =   0.0640000
        k(   37) = (   0.1950079   0.1950079   0.0000000), wk =   0.0160000
        k(   38) = (   0.1950079   0.1950079   0.3264324), wk =   0.0320000
        k(   39) = (   0.1950079   0.1950079   0.6528649), wk =   0.0320000
        k(   40) = (   0.1950065   0.3900174   0.0000000), wk =   0.0320000
        k(   41) = (   0.1950065   0.3900174   0.3264324), wk =   0.0640000
        k(   42) = (   0.1950065   0.3900174   0.6528649), wk =   0.0640000
        k(   43) = (   0.3900159   0.3900159   0.0000000), wk =   0.0160000
        k(   44) = (   0.3900159   0.3900159   0.3264324), wk =   0.0320000
        k(   45) = (   0.3900159   0.3900159   0.6528649), wk =   0.0320000
        k(   46) = (  -0.1950109   0.1950109   0.0000000), wk =   0.0160000
        k(   47) = (  -0.1950109   0.1950109  -0.3264324), wk =   0.0320000
        k(   48) = (  -0.1950109   0.1950109  -0.6528649), wk =   0.0320000
        k(   49) = (  -0.1950124   0.3900203   0.0000000), wk =   0.0320000
        k(   50) = (  -0.1950124   0.3900203  -0.3264324), wk =   0.0640000
        k(   51) = (  -0.1950124   0.3900203  -0.6528649), wk =   0.0640000
        k(   52) = (  -0.3900218   0.3900218   0.0000000), wk =   0.0160000
        k(   53) = (  -0.3900218   0.3900218  -0.3264324), wk =   0.0320000
        k(   54) = (  -0.3900218   0.3900218  -0.6528649), wk =   0.0320000

     Largest allocated arrays     est. size (Mb)     dimensions
     Largest temporary arrays     est. size (Mb)     dimensions

     Check: negative/imaginary core charge=   -0.000007    0.000000

     Initial potential from superposition of free atoms

     starting charge   49.99453, renormalised to   50.00000
     Starting wfc are   42 randomized atomic wfcs

     Self-consistent Calculation

[...]

     total energy              =    -365.28053392 Ry
     Harris-Foulkes estimate   =    -365.28053438 Ry
     estimated scf accuracy    <       0.00000003 Ry

[...]

     iteration # 18     ecut=    40.00 Ry     beta=0.70
     Davidson diagonalization with overlap
     ethr =  6.97E-11,  avg # of iterations =  2.0

     End of self-consistent calculation

 ------ SPIN UP ------------

[...]

 ------ SPIN DOWN ----------

[...]

          k = 0.3900 0.3900 0.6529 (  1955 PWs)   bands (ev):

[...]

          k =-0.3900 0.3900-0.6529 (  1955 PWs)   bands (ev):

   -42.8559 -42.8552 -19.6408 -19.6314 -19.2129 -19.1988 -18.8647 -18.8622
    -6.2739  -6.0310  -5.7255  -5.4557   5.8633   6.1588   6.4315   6.6568
     6.8504   7.2709   7.7121   8.2411   8.8981   9.0980   9.8488   9.9493
    13.9135  14.4032  14.6732  15.2588  16.0828  16.1685  18.6858  19.4675
    19.6927  20.3148  22.0874  22.3391  23.6253  23.8318  25.5984  25.8706
    28.3698  28.5043  29.6986  29.8689  30.5623  30.9897  31.7805  32.2401
    35.4920  36.0768  36.4146  36.4860  38.6225  38.9954  40.1466  40.7172
    41.0717  41.8199  42.2530  42.4340  43.0408  43.1610  43.4575  44.1838
    44.2117  44.6627  45.2453  45.3688  45.6022  45.6047  46.5390  47.1061
    48.3882  49.6748  50.3464

     the Fermi energy is    13.7377 ev

!    total energy              =    -365.28053452 Ry
     Harris-Foulkes estimate   =    -365.28053451 Ry
     estimated scf accuracy    <          5.9E-09 Ry

     The total energy is the sum of the following terms:

     one-electron contribution =     -90.63861494 Ry
     hartree contribution      =      73.93033482 Ry
     xc contribution           =     -65.92776730 Ry
     ewald contribution        =    -282.64439115 Ry
     smearing contrib. (-TS)   =      -0.00009596 Ry

     total magnetization       =     0.17 Bohr mag/cell
     absolute magnetization    =     0.17 Bohr mag/cell

     convergence has been achieved in  18 iterations

     Forces acting on atoms (Ry/au):

     atom    1 type  1   force =     0.00000000    0.00000000    0.00000000
     atom    2 type  1   force =     0.00000000    0.00000000    0.00000000
     atom    3 type  2   force =     0.00029244    0.00029244    0.00000000
     atom    4 type  2   force =    -0.00029244   -0.00029244    0.00000000
     atom    5 type  2   force =     0.00030779   -0.00030779   -0.00000000
     atom    6 type  2   force =    -0.00030779    0.00030779   -0.00000000

     Total force =     0.000849     Total SCF correction =     0.000110
     SCF correction compared to forces is large: reduce conv_thr to get better values

     entering subroutine stress ...

          total   stress  (Ry/bohr**3)                   (kbar)     P=  137.11
   0.00093379  -0.00000033   0.00000000        137.36     -0.05      0.00
  -0.00000033   0.00093379   0.00000000         -0.05    137.36      0.00
   0.00000000   0.00000000   0.00092856          0.00      0.00    136.60

     General routines

     Parallel routines

   This run was terminated on:  20: 9:52  23Jan2014

   JOB DONE.