     Program PWSCF v.5.0.2 (svn rev. 9656) starts on 14May2014 at  6:46:33

     Current dimensions of program PWSCF are:
     Max number of different atomic species (ntypx) = 10
     Max number of k-points (npk) =  40000
     Max angular momentum in pseudopotentials (lmaxx) =  3
     Reading input from pwscf.in
Warning: card &CELL ignored
Warning: card / ignored

     Subspace diagonalization in iterative solution of the eigenvalue problem:
     a serial algorithm will be used

     bravais-lattice index     =            0
     lattice parameter (alat)  =      11.7919  a.u.
     unit-cell volume          =    7123.6633 (a.u.)^3
     number of atoms/cell      =           33
     number of atomic types    =            3
     number of electrons       =       253.00
     number of Kohn-Sham states=          367
     kinetic-energy cutoff     =      40.0000  Ry
     charge density cutoff     =     500.0000  Ry
     convergence threshold     =      1.0E-06
     mixing beta               =       0.3000
     number of iterations used =            8  plain     mixing
     Exchange-correlation      = SLA  PW   PBE  PBE ( 1 4 3 4 0)
     EXX-fraction              =        0.00
     nstep                     =           50

     celldm(1)=  11.791891  celldm(2)=   0.000000  celldm(3)=   0.000000
     celldm(4)=   0.000000  celldm(5)=   0.000000  celldm(6)=   0.000000

     crystal axes: (cart. coord. in units of alat)
               a(1) = (   1.000000   0.000000   0.000000 )
               a(2) = (   0.000000   1.026665   0.000000 )
               a(3) = (   0.000000   0.000000   4.231793 )

     reciprocal axes: (cart. coord. in units 2 pi/alat)
               b(1) = (  1.000000  0.000000  0.000000 )
               b(2) = (  0.000000  0.974028  0.000000 )
               b(3) = (  0.000000  0.000000  0.236306 )

     PseudoPot. # 1 for O  read from file:
     /home/camp/zhonxu/pseudo/o_pbe_v1.01.uspp.F.UPF
     MD5 check sum: 2bcb18d16ea4b960afae9ec6d52f22d2
     Pseudo is Ultrasoft + core correction, Zval =  6.0
     Generated by new atomic code, or converted to UPF format
     Using radial grid of  737 points,  5 beta functions with:
                l(1) =   0
                l(2) =   0
                l(3) =   1
                l(4) =   1
                l(5) =   2
     Q(r) pseudized with  8 coefficients,  rinner =    0.900   0.900   0.900
                                                       0.900   0.900

     PseudoPot. # 2 for Ru read from file:
     /home/camp/zhonxu/pseudo/ru_pbe_v1.uspp.F.UPF
     MD5 check sum: df00be1c11b23341d9806d8f1dfa10cf
     Pseudo is Ultrasoft + core correction, Zval = 16.0
     Generated by new atomic code, or converted to UPF format
     Using radial grid of  967 points,  6 beta functions with:
                l(1) =   0
                l(2) =   0
                l(3) =   1
                l(4) =   1
                l(5) =   2
                l(6) =   2
     Q(r) pseudized with  8 coefficients,  rinner =    1.300   1.300   1.300
                                                       1.300   1.300

     PseudoPot. # 3 for H  read from file:
     /home/camp/zhonxu/pseudo/h_pbe_v1.uspp.F.UPF
     MD5 check sum: 3408e3ff4ec8b0a4e358431e7e038a48
     Pseudo is Ultrasoft, Zval =  1.0
     Generated by new atomic code, or converted to UPF format
     Using radial grid of  615 points,  2 beta functions with:
                l(1) =   0
                l(2) =   0
     Q(r) pseudized with  8 coefficients,  rinner =    0.700

     atomic species   valence    mass     pseudopotential
        O0             6.00    15.99940     O ( 1.00)
        Ru1           16.00   101.07000     Ru( 1.00)
        H2             1.00     1.00794     H ( 1.00)

     No symmetry found

   Cartesian axes

     site n.     atom                  positions (alat units)
         1           O0  tau(   1) = (   0.0000000   0.0000000   1.6080390  )
         2           O0  tau(   2) = (   0.0000000   0.5133323   1.7023233  )
         3           Ru1 tau(   3) = (   0.2500000   0.5133323   1.9175523  )
         4           Ru1 tau(   4) = (   0.0000000   0.0000000   1.9215302  )
         5           O0  tau(   5) = (   0.2500000   0.8315984   1.9195836  )
         6           O0  tau(   6) = (   0.2500000   0.1950663   1.9193297  )
         7           O0  tau(   7) = (   0.0000000   0.5133323   2.1106490  )
         8           O0  tau(   8) = (   0.0000000   0.0000000   2.2345136  )
         9           Ru1 tau(   9) = (   0.2500000   0.0000000   2.4487269  )
        10           Ru1 tau(  10) = (   0.0000000   0.5133323   2.4113179  )
        11           O0  tau(  11) = (   0.2500000   0.7083986   2.4387399  )
        12           O0  tau(  12) = (   0.2500000   0.3182660   2.4402210  )
        13           O0  tau(  13) = (   0.0000000   0.0000000   2.6238385  )
        14           O0  tau(  14) = (   0.5000000   0.0000000   1.6080390  )
        15           O0  tau(  15) = (   0.5000000   0.5133323   1.7023233  )
        16           Ru1 tau(  16) = (   0.7500000   0.5133323   1.9175523  )
        17           Ru1 tau(  17) = (   0.5000000   0.0000000   1.9215302  )
        18           O0  tau(  18) = (   0.7500000   0.8315984   1.9195836  )
        19           O0  tau(  19) = (   0.7500000   0.1950663   1.9193297  )
        20           O0  tau(  20) = (   0.5000000   0.5133323   2.1106490  )
        21           O0  tau(  21) = (   0.5000000   0.0000000   2.2345136  )
        22           Ru1 tau(  22) = (   0.7500000   0.0000000   2.4487269  )
        23           Ru1 tau(  23) = (   0.5000000   0.5133323   2.4113179  )
        24           O0  tau(  24) = (   0.7500000   0.7083986   2.4387399  )
        25           O0  tau(  25) = (   0.7500000   0.3182660   2.4401787  )
        26           O0  tau(  26) = (   0.5000000   0.0000000   2.6238385  )
        27           H2  tau(  27) = (  -0.0004100   0.6466653   1.6162063  )
        28           H2  tau(  28) = (   0.4995900   0.6466653   1.6162063  )
        29           H2  tau(  29) = (   0.1464700   0.0296706   1.5559879  )
        30           H2  tau(  30) = (   0.6464700   0.0296706   1.5559879  )
        31           O0  tau(  31) = (   0.5000700   0.5133323   2.7322571  )
        32           O0  tau(  32) = (   0.4999900   0.3266334   2.8533287  )
        33           H2  tau(  33) = (   0.4999600   0.3740858   3.0038535  )

     number of k points=    10  Methfessel-Paxton smearing, width (Ry)=  0.0100
                       cart. coord. in units 2pi/alat
        k(    1) = (   0.0000000   0.0000000   0.0000000), wk =   0.1250000
        k(    2) = (   0.0000000   0.2435070   0.0000000), wk =   0.2500000
        k(    3) = (   0.0000000  -0.4870139   0.0000000), wk =   0.1250000
        k(    4) = (   0.2500000   0.0000000   0.0000000), wk =   0.2500000
        k(    5) = (   0.2500000   0.2435070   0.0000000), wk =   0.2500000
        k(    6) = (   0.2500000  -0.4870139   0.0000000), wk =   0.2500000
        k(    7) = (  -0.5000000   0.0000000   0.0000000), wk =   0.1250000
        k(    8) = (  -0.5000000   0.2435070   0.0000000), wk =   0.2500000
        k(    9) = (  -0.5000000  -0.4870139   0.0000000), wk =   0.1250000
        k(   10) = (  -0.2500000   0.2435070   0.0000000), wk =   0.2500000

     Largest allocated arrays     est. size (Mb)     dimensions
     Largest temporary arrays     est. size (Mb)     dimensions

     Check: negative/imaginary core charge=   -0.000003    0.000000

     Initial potential from superposition of free atoms
     Check: negative starting charge=   -0.521988

     starting charge  244.99980, renormalised to  253.00000

     negative rho (up, down):  0.539E+00 0.000E+00
     Starting wfc are  189 randomized atomic wfcs

     Self-consistent Calculation

     iteration #  1     ecut=    40.00 Ry     beta=0.30
     Davidson diagonalization with overlap
     ethr =  1.00E-02,  avg # of iterations =  6.0

     negative rho (up, down):  0.570E+00 0.000E+00

     total energy              =   -2192.13742385 Ry
     Harris-Foulkes estimate   =   -2200.06820821 Ry
     estimated scf accuracy    <      16.94368285 Ry

[...]

     End of self-consistent calculation

          k = 0.0000 0.0000 0.0000 ( 30363 PWs)   bands (ev):

   -74.3101 -74.2994 -74.1463 -74.0285 -74.0183 -73.8604 -73.7287 -73.7187
   -44.4549 -44.3986 -44.2814 -44.2712 -44.2663 -44.2590 -44.2439 -44.1865
   -44.1643 -44.1595 -44.1111 -44.0086 -43.9122 -43.8811 -43.8575 -43.8438
   -43.8166 -43.8022 -43.7976 -43.7393 -43.6590 -43.6149 -43.5869 -43.5675
   -23.8228 -20.6429 -20.1236 -20.0995 -19.9270 -19.8804 -19.7236 -19.4322
   -19.2059 -19.1594 -19.1277 -19.1234 -19.1057 -19.0679 -18.7938 -18.6213
   -18.5932 -18.5469 -18.3723 -16.6486  -8.9642  -8.7085  -8.6220  -8.5958
    -7.9534  -7.8005  -7.6807  -7.6236  -7.5058  -7.2994  -7.2792  -7.2583
    -7.2343  -7.1937  -7.1725  -7.0562  -7.0160  -6.9245  -6.7566  -6.6894
    -6.5970  -6.4046  -6.3273  -6.2358  -5.9691  -5.8190  -5.3660  -5.3508
    -5.1962  -5.0994  -5.0417  -5.0171  -4.6782  -4.6563  -4.5341  -4.4734
    -4.4171  -4.4017  -4.3361  -4.2536  -4.1533  -4.0951  -3.9558  -3.8774
    -3.8210  -3.7346  -3.6795  -3.5118  -3.5066  -3.4006  -3.2740  -3.1736
    -3.0708  -2.8303  -2.7787  -2.7587  -2.4310  -2.2323  -1.9510  -1.7935
    -1.7156  -1.5903  -1.5592  -1.4619  -1.3406  -1.2516  -1.1576  -1.0860
    -1.0406  -0.9284  -0.8866  -0.8389  -0.6635  -0.6343  -0.5760  -0.4235
    -0.0879  -0.0604   0.1692   0.2380   0.4768   0.5885   0.8109   0.9279
     1.6946   1.7654   2.3519   2.5362   2.6464   2.6758   2.7391   2.9755
     3.2712   3.4087   3.6078   3.7846   3.9302   3.9640   3.9853   4.2225
     4.2481   4.3920   4.7979   5.1373   5.3883   6.0088   6.3324   6.6511
     6.8202   7.0491   7.3320   7.4357   7.4457   7.4732   7.6021   7.7390
     7.8509   7.9345   7.9788   8.1218   8.1528   8.3940   8.4691   8.5454
     8.6494   8.7721   8.8151   8.9515   9.0199   9.0861   9.2435   9.3232
     9.3268   9.4481   9.5860   9.5944   9.8151   9.9278   9.9738  10.1037
    10.1063  10.2493  10.3107  10.4366  10.5991  10.6387  10.8068  10.9000
    11.1492  11.1747  11.2326  11.3086  11.3583  11.4026  11.5077  11.6256
    11.6399  11.6430  11.7120  11.7922  11.8054  11.9148  12.0250  12.0299
    12.0948  12.1688  12.2518  12.3472  12.4815  12.4895  12.5255  12.6349
    12.6841  12.6893  12.7321  12.7895  12.9321  12.9709  13.0019  13.0435
    13.1168  13.2066  13.2498  13.3103  13.4122  13.4836  13.5399  13.8359
    13.9683  13.9942  14.0311  14.1382  14.1673  14.1968  14.2408  14.2530
    14.4423  14.5164  14.7115  14.8431  14.8978  14.9908  14.9956  15.1434
    15.1746  15.3340  15.4974  15.5366  15.6569  15.7251  15.9195  16.0286
    16.0461  16.0742  16.2258  16.2917  16.3248  16.3505  16.5217  16.6682
    16.8381  16.8449  16.9323  17.0444  17.2004  17.2633  17.3658  17.3872
    17.5091  17.5177  17.6135  17.6609  17.6868  17.8044  17.8694  17.9663
    18.0688  18.1740  18.3230  18.4521  18.5745  18.6018  18.6462  18.6608
    18.7529  18.8219  18.8362  18.8570  18.9268  19.0012  19.1548  19.1667
[...]
     atom   16 type  2   force =    -0.00980295   -0.00701484   -0.00747246
     atom   17 type  2   force =     0.00401605    0.00728194    0.00259505
     atom   18 type  1   force =     0.00159099   -0.02584814   -0.00139273
     atom   19 type  1   force =     0.00173929    0.02683849   -0.00162101
     atom   20 type  1   force =     0.00015863    0.00523091   -0.01142655
     atom   21 type  1   force =    -0.00036566   -0.00166804   -0.00120137
     atom   22 type  2   force =    -0.00644705    0.00328523    0.00547242
     atom   23 type  2   force =     0.00014087   -0.01877604    0.11323110
     atom   24 type  1   force =     0.01220801    0.00931091   -0.01701755
     atom   25 type  1   force =     0.01376694   -0.01275528   -0.01887765
     atom   26 type  1   force =    -0.00167169   -0.01687094   -0.01986239
     atom   27 type  3   force =    -0.00001903   -0.00075079    0.00069365
     atom   28 type  3   force =    -0.00001461   -0.00103639   -0.00044461
     atom   29 type  3   force =     0.00028127    0.00031271    0.00015049
     atom   30 type  3   force =     0.00031665    0.00028455    0.00012942
     atom   31 type  1   force =     0.00002879    0.06321959    0.00012987
     atom   32 type  1   force =    -0.00006069   -0.05024876   -0.00017051
     atom   33 type  3   force =    -0.00000920    0.02101204   -0.00001031

     Total force =     0.147808     Total SCF correction =     0.002032

     BFGS Geometry Optimization

     number of scf cycles    =   1
     number of bfgs steps    =   0

     energy   new            =   -2196.7129294391 Ry

     new trust radius        =       0.1132310970 bohr
     new conv_thr            =       0.0000010000 Ry

ATOMIC_POSITIONS (crystal)
O0       0.000000000   0.000000000   0.379972684    0   0   1
O0       0.000000000   0.500000000   0.402390647    0   0   1
Ru1      0.250000000   0.500000000   0.452979372    0   0   1
Ru1      0.000000000   0.000000000   0.454088136    0   0   1
O0       0.250000000   0.810000000   0.453581744    0   0   1
O0       0.250000000   0.190000000   0.453517656    0   0   1
O0       0.000000000   0.500000000   0.498687697    0   0   1
O0       0.000000000   0.000000000   0.527998551    0   0   1
Ru1      0.250000000   0.000000000   0.578758258    0   0   1
Ru1      0.000000000   0.500000000   0.569769119    0   0   1
O0       0.250000000   0.690000000   0.575951196    0   0   1
O0       0.250000000   0.310000000   0.576263093    0   0   1
O0       0.000000000   0.000000000   0.620013996    0   0   1
O0       0.500000000   0.000000000   0.379966835    0   0   1
O0       0.500000000   0.500000000   0.402291216    0   0   1
Ru1      0.750000000   0.500000000   0.452980254    0   0   1
Ru1      0.500000000   0.000000000   0.454122004    0   0   1
O0       0.750000000   0.810000000   0.453582090    0   0   1
O0       0.750000000   0.190000000   0.453517515    0   0   1
O0       0.500000000   0.500000000   0.498531015    0   0   1
O0       0.500000000   0.000000000   0.528005925    0   0   1
Ru1      0.750000000   0.000000000   0.578759666    0   0   1
Ru1      0.500000000   0.500000000   0.572079122    0   0   1
O0       0.750000000   0.690000000   0.575948973    0   0   1
O0       0.750000000   0.310000000   0.576251697    0   0   1
O0       0.500000000   0.000000000   0.619631963    0   0   1
H2      -0.000411614   0.629807984   0.381933901
H2       0.499588761   0.629784392   0.381911090
H2       0.146493853   0.028925830   0.367693016
H2       0.646496853   0.028923504   0.367692593
O0       0.500070000   0.505222033   0.645652603    0   1   1
O0       0.499990000   0.313999377   0.674256583    0   1   1
H2       0.499960000   0.366105626   0.709829793    0   1   1

     Check: negative starting charge=   -0.521988
     NEW-OLD atomic charge density approx. for the potential

     Check: negative/imaginary core charge=   -0.000003    0.000000
     Check: negative starting charge=   -0.521838

[...]

     energy   old            =   -2196.7129294391 Ry
     energy   new            =   -2196.7281189716 Ry

     CASE: energy  _new < energy  _old

[...]

     Threshold (ethr) on eigenvalues was too large:
     Diagonalizing with lowered threshold

     Davidson diagonalization with overlap
     ethr =  8.90E-08,  avg # of iterations =  1.0

[...]

     number of scf cycles    =  24
     number of bfgs steps    =  23

     energy   old            =   -2196.7458483068 Ry
     energy   new            =   -2196.7458596163 Ry

     CASE: energy  _new < energy  _old

     new trust radius        =       0.0064705682 bohr
     new conv_thr            =       0.0000000100 Ry

ATOMIC_POSITIONS (crystal)
O0       0.000000000   0.000000000   0.377529294    0   0   1
O0       0.000000000   0.500000000   0.404918713    0   0   1
Ru1      0.250000000   0.500000000   0.455253571    0   0   1
Ru1      0.000000000   0.000000000   0.451447042    0   0   1
O0       0.250000000   0.810000000   0.452144626    0   0   1
O0       0.250000000   0.190000000   0.452223356    0   0   1
O0       0.000000000   0.500000000   0.499626207    0   0   1
O0       0.000000000   0.000000000   0.525371202    0   0   1
Ru1      0.250000000   0.000000000   0.575686541    0   0   1
Ru1      0.000000000   0.500000000   0.570440230    0   0   1
O0       0.250000000   0.690000000   0.575458936    0   0   1
O0       0.250000000   0.310000000   0.577253263    0   0   1
O0       0.000000000   0.000000000   0.617730996    0   0   1
O0       0.500000000   0.000000000   0.377636318    0   0   1
O0       0.500000000   0.500000000   0.404329814    0   0   1
Ru1      0.750000000   0.500000000   0.455255072    0   0   1
Ru1      0.500000000   0.000000000   0.451660528    0   0   1
O0       0.750000000   0.810000000   0.452157015    0   0   1
O0       0.750000000   0.190000000   0.452217327    0   0   1
O0       0.500000000   0.500000000   0.502106434    0   0   1
O0       0.500000000   0.000000000   0.525462222    0   0   1
Ru1      0.750000000   0.000000000   0.575710870    0   0   1
Ru1      0.500000000   0.500000000   0.578298038    0   0   1
O0       0.750000000   0.690000000   0.575472670    0   0   1
O0       0.750000000   0.310000000   0.577218489    0   0   1
O0       0.500000000   0.000000000   0.615401102    0   0   1
H2      -0.000368292   0.624227024   0.382706200
H2       0.499732074   0.627918048   0.383353083
H2       0.146232154   0.029202513   0.365087498
H2       0.645737086   0.030533165   0.365110028
O0       0.500070000   0.527513534   0.650962880    0   1   1
O0       0.499990000   0.332917350   0.679356979    0   1   1
H2       0.499960000   0.390581964   0.714023456    0   1   1

     Check: negative starting charge=   -0.523705
     NEW-OLD atomic charge density approx. for the potential

     Check: negative/imaginary core charge=   -0.000003    0.000000
     Check: negative starting charge=   -0.523677

[...]

     Self-consistent Calculation

[...]

     Threshold (ethr) on eigenvalues was too large:
     Diagonalizing with lowered threshold

     Davidson diagonalization with overlap
     ethr =  2.05E-08,  avg # of iterations =  2.1

[...]

     total energy              =   -2196.74587026 Ry
     Harris-Foulkes estimate   =   -2196.74587026 Ry
     estimated scf accuracy    <       0.00000002 Ry

     iteration # 17     ecut=    40.00 Ry     beta=0.30
     Davidson diagonalization with overlap
     ethr =  6.48E-12,  avg # of iterations =  1.0

     negative rho (up, down):  0.581E+00 0.000E+00

     End of self-consistent calculation

[...]

          k = 0.2500-0.4870 0.0000 ( 30468 PWs)   bands (ev):

[...]

          k =-0.2500 0.2435 0.0000 ( 30434 PWs)   bands (ev):

   -74.3907 -74.3830 -74.0983 -74.0853 -74.0537 -73.8298 -73.8218 -73.8147
   -44.5381 -44.4057 -44.3309 -44.3226 -44.3177 -44.3019 -44.2726 -44.2554
   -44.2375 -44.1187 -44.1019 -44.0654 -44.0125 -43.9941 -43.9454 -43.8856
   -43.8824 -43.7911 -43.7635 -43.7538 -43.6835 -43.6701 -43.6622 -43.6593
   -23.1010 -20.5646 -20.1336 -20.0346 -19.9720 -19.7781 -19.4991 -19.4362
   -19.3516 -19.2484 -19.2120 -19.1703 -19.0426 -19.0201 -18.8798 -18.8584
   -18.8139 -18.7845 -18.4405 -16.9159  -8.6889  -8.4001  -8.1599  -8.1294
    -8.0949  -7.8228  -7.7658  -7.5810  -7.5033  -7.4104  -7.3427  -7.2776
    -7.2134  -7.1491  -7.1267  -7.0350  -6.9442  -6.8489  -6.7767  -6.5377
    -6.3745  -6.3290  -6.1912  -6.0774  -6.0335  -5.7276  -5.5506  -5.4582
    -5.3479  -5.2197  -5.1168  -5.0569  -5.0054  -4.9170  -4.8657  -4.8015
    -4.7367  -4.6239  -4.5801  -4.4750  -4.4340  -4.3873  -4.2766  -4.0944
    -4.0115  -3.8216  -3.7229  -3.7105  -3.5856  -3.5269  -3.4463  -3.3615
    -3.1657  -3.1109  -2.9695  -2.7482  -2.7008  -2.4001  -1.9923  -1.7524
    -1.5012  -1.4089  -1.3115  -1.2527  -1.1657  -1.0283  -1.0050  -0.9760
    -0.9551  -0.9363  -0.8137  -0.7626  -0.7151  -0.6070  -0.4955  -0.2588
    -0.1672  -0.0851   0.0756   0.2316   0.2991   0.3944   0.5604   1.1380
     1.8007   1.8844   2.0208   2.0619   2.5554   2.8945   2.9640   3.2052
     3.3881   3.5020   3.5835   3.6206   3.7268   3.8658   3.9939   4.1082
     4.3400   4.4812   4.7585   5.2778   5.6577   5.8292   6.1037   6.1383
     6.2346   6.5436   6.6119   6.7581   6.9009   7.1370   7.1689   7.4631
     7.6364   7.7805   7.9586   8.0774   8.1550   8.4403   8.4835   8.5786
     8.6460   8.7257   8.9210   9.0089   9.1122   9.2640   9.3568   9.4268
     9.5924   9.6829   9.7197   9.8683  10.0306  10.1117  10.1646  10.2513
    10.2910  10.4410  10.5139  10.6211  10.6394  10.7863  10.8315  10.9407
    11.0072  11.1500  11.2642  11.3591  11.3972  11.5419  11.5963  11.7027
    11.7673  11.8676  11.9722  12.0186  12.0449  12.0952  12.1750  12.2519
    12.3705  12.3928  12.5035  12.6086  12.6573  12.7511  12.8000  12.8519
    12.9185  12.9775  13.0461  13.1457  13.1739  13.3060  13.3685  13.4444
    13.5355  13.6452  13.7375  13.8086  13.9093  13.9611  14.0106  14.1393
    14.1869  14.2836  14.4003  14.4541  14.5636  14.6450  14.7081  14.7457
    14.8179  14.8713  14.9585  15.0452  15.1557  15.1903  15.2888  15.3003
    15.4131  15.4626  15.5376  15.6160  15.7176  15.7818  15.8270  15.8814
    15.9466  15.9891  16.0601  16.1272  16.1716  16.2126  16.2909  16.3123
    16.3977  16.4209  16.5624  16.6302  16.7056  16.7400  16.7991  16.8861
    16.9362  16.9655  17.0334  17.1142  17.2498  17.3182  17.3423  17.4741
    17.4933  17.5426  17.5736  17.6649  17.7390  17.7800  17.8127  17.9198
    18.0006  18.0116  18.0757  18.1048  18.1865  18.2420  18.3287  18.3829
    18.4588  18.4939  18.6289  18.6769  18.7748  18.8698  18.8858  18.9548
    19.0503  19.1370  19.2182  19.2686  19.3067  19.4247  19.4919  19.5830
    19.6186  19.7014  19.7804  19.8223  19.8823  19.9621  20.0037  20.1100
    20.1952  20.2216  20.3150  20.4830  20.5155  20.5755  20.6536  20.7155
    20.8541  20.8970  20.9446  20.9674  21.0383  21.0664  21.1308  21.2388
    21.3066  21.3445  21.4286  21.4490  21.5149  21.5574  21.6169  21.6551
    21.7257  21.8016  21.8403  21.9263  21.9642  22.0296  22.0629  22.1331
    22.2060  22.2818  22.3240  22.4160  22.4700  22.5134  22.6114

     the Fermi energy is    -0.4406 ev

!    total energy              =   -2196.74587025 Ry
     Harris-Foulkes estimate   =   -2196.74587026 Ry
     estimated scf accuracy    <          3.3E-09 Ry

     The total energy is the sum of the following terms:

     one-electron contribution =  -25577.98478269 Ry
     hartree contribution      =   12816.64284705 Ry
     xc contribution           =    -345.44505079 Ry
     ewald contribution        =   10910.04088293 Ry
     smearing contrib. (-TS)   =       0.00023325 Ry

     convergence has been achieved in  17 iterations

     Forces acting on atoms (Ry/au):

     negative rho (up, down):  0.581E+00 0.000E+00
     atom    1 type  1   force =    -0.00465537   -0.01045529   -0.00016353
     atom    2 type  1   force =    -0.00010667    0.00740574    0.00033091
     atom    3 type  2   force =     0.03629816   -0.00058048   -0.00034613
     atom    4 type  2   force =     0.00422958    0.00608325    0.00004269
     atom    5 type  1   force =     0.00174839   -0.02806388    0.00011746
     atom    6 type  1   force =     0.00141258    0.02989036    0.00011304
     atom    7 type  1   force =     0.00029577   -0.00511586   -0.00081515
     atom    8 type  1   force =    -0.00026114   -0.00000703    0.00021117
     atom    9 type  2   force =    -0.01343231    0.00003108    0.00000123
     atom   10 type  2   force =     0.00008581    0.00151987   -0.00088173
     atom   11 type  1   force =    -0.01195791    0.00799937    0.00008551
     atom   12 type  1   force =    -0.00574964   -0.00447079    0.00070556
     atom   13 type  1   force =    -0.00164568   -0.00172401   -0.00035363
     atom   14 type  1   force =    -0.00541418   -0.01119232   -0.00016129
     atom   15 type  1   force =    -0.00007193    0.00658947    0.00020457
     atom   16 type  2   force =    -0.03672268   -0.00069042   -0.00035101
     atom   17 type  2   force =     0.00396905    0.00636418    0.00001020
     atom   18 type  1   force =     0.00022250   -0.02841493    0.00013159
     atom   19 type  1   force =    -0.00005880    0.03004840    0.00010672
     atom   20 type  1   force =     0.00011898   -0.00435004   -0.00099539
     atom   21 type  1   force =    -0.00012660    0.00035966    0.00003682
     atom   22 type  2   force =     0.01541120   -0.00039758    0.00001227
     atom   23 type  2   force =     0.00006773    0.00145936    0.00016117
     atom   24 type  1   force =     0.01166853    0.00797801    0.00008296
     atom   25 type  1   force =     0.00583846   -0.00449374    0.00071641
     atom   26 type  1   force =    -0.00171415   -0.00713491    0.00007289
     atom   27 type  3   force =    -0.00000827   -0.00000364    0.00043466
     atom   28 type  3   force =    -0.00000721   -0.00008700    0.00020357
     atom   29 type  3   force =     0.00025219    0.00000071    0.00040573
     atom   30 type  3   force =     0.00026841    0.00000673    0.00048250
     atom   31 type  1   force =     0.00011396    0.00019387   -0.00005934
     atom   32 type  1   force =    -0.00006037    0.00027337   -0.00005985
     atom   33 type  3   force =    -0.00000841    0.00097850   -0.00048259

     Total force =     0.002499     Total SCF correction =     0.000104

     bfgs converged in  25 scf cycles and  24 bfgs steps
     (criteria: energy < 0.10E-03, force < 0.10E-02)

     End of BFGS Geometry Optimization

     Final energy   =   -2196.7458702537 Ry
Begin final coordinates

ATOMIC_POSITIONS (crystal)
O0       0.000000000   0.000000000   0.377529294    0   0   1
O0       0.000000000   0.500000000   0.404918713    0   0   1
Ru1      0.250000000   0.500000000   0.455253571    0   0   1
Ru1      0.000000000   0.000000000   0.451447042    0   0   1
O0       0.250000000   0.810000000   0.452144626    0   0   1
O0       0.250000000   0.190000000   0.452223356    0   0   1
O0       0.000000000   0.500000000   0.499626207    0   0   1
O0       0.000000000   0.000000000   0.525371202    0   0   1
Ru1      0.250000000   0.000000000   0.575686541    0   0   1
Ru1      0.000000000   0.500000000   0.570440230    0   0   1
O0       0.250000000   0.690000000   0.575458936    0   0   1
O0       0.250000000   0.310000000   0.577253263    0   0   1
O0       0.000000000   0.000000000   0.617730996    0   0   1
O0       0.500000000   0.000000000   0.377636318    0   0   1
O0       0.500000000   0.500000000   0.404329814    0   0   1
Ru1      0.750000000   0.500000000   0.455255072    0   0   1
Ru1      0.500000000   0.000000000   0.451660528    0   0   1
O0       0.750000000   0.810000000   0.452157015    0   0   1
O0       0.750000000   0.190000000   0.452217327    0   0   1
O0       0.500000000   0.500000000   0.502106434    0   0   1
O0       0.500000000   0.000000000   0.525462222    0   0   1
Ru1      0.750000000   0.000000000   0.575710870    0   0   1
Ru1      0.500000000   0.500000000   0.578298038    0   0   1
O0       0.750000000   0.690000000   0.575472670    0   0   1
O0       0.750000000   0.310000000   0.577218489    0   0   1
O0       0.500000000   0.000000000   0.615401102    0   0   1
H2      -0.000368292   0.624227024   0.382706200
H2       0.499732074   0.627918048   0.383353083
H2       0.146232154   0.029202513   0.365087498
H2       0.645737086   0.030533165   0.365110028
O0       0.500070000   0.527513534   0.650962880    0   1   1
O0       0.499990000   0.332917350   0.679356979    0   1   1
H2       0.499960000   0.390581964   0.714023456    0   1   1
End final coordinates

     General routines

     Parallel routines

   This run was terminated on:  10:45:45  15May2014

   JOB DONE.