     Program PWSCF v.5.0.2 (svn rev. 9656) starts on  1Jun2014 at  9:37:33

     Current dimensions of program PWSCF are:
     Max number of different atomic species (ntypx) = 10
     Max number of k-points (npk) =  40000
     Max angular momentum in pseudopotentials (lmaxx) =  3
     Reading input from pwscf.in
Warning: card &CELL ignored
Warning: card / ignored

     Subspace diagonalization in iterative solution of the eigenvalue problem:
     a serial algorithm will be used

     bravais-lattice index     =            0
     lattice parameter (alat)  =      11.1872  a.u.
     unit-cell volume          =    7531.8600 (a.u.)^3
     number of atoms/cell      =           33
     number of atomic types    =            3
     number of electrons       =       229.00
     number of Kohn-Sham states=          343
     kinetic-energy cutoff     =      40.0000  Ry
     charge density cutoff     =     500.0000  Ry
     convergence threshold     =      1.0E-06
     mixing beta               =       0.7000
     number of iterations used =            8  plain     mixing
     Exchange-correlation      = SLA  PW   PBE  PBE ( 1 4 3 4 0)
     EXX-fraction              =        0.00
     nstep                     =           50

     celldm(1)=  11.187179  celldm(2)=   0.000000  celldm(3)=   0.000000
     celldm(4)=   0.000000  celldm(5)=   0.000000  celldm(6)=   0.000000

     crystal axes: (cart. coord. in units of alat)
               a(1) = (   1.000000   0.000000   0.000000 )
               a(2) = (   0.000000   1.180104   0.000000 )
               a(3) = (   0.000000   0.000000   4.558482 )

     reciprocal axes: (cart. coord. in units 2 pi/alat)
               b(1) = (  1.000000  0.000000  0.000000 )
               b(2) = (  0.000000  0.847383  0.000000 )
               b(3) = (  0.000000  0.000000  0.219371 )

     PseudoPot. # 1 for O  read from file:
     /home/camp/zhonxu/pseudo/o_pbe_v1.01.uspp.F.UPF
     MD5 check sum: 2bcb18d16ea4b960afae9ec6d52f22d2
     Pseudo is Ultrasoft + core correction, Zval =  6.0
     Generated by new atomic code, or converted to UPF format
     Using radial grid of  737 points,  5 beta functions with:
                l(1) =   0
                l(2) =   0
                l(3) =   1
                l(4) =   1
                l(5) =   2
     Q(r) pseudized with  8 coefficients,  rinner =    0.900   0.900   0.900
                                                       0.900   0.900

     PseudoPot. # 2 for Nb read from file:
     /home/camp/zhonxu/pseudo/nb_pbe_v1.uspp.F.UPF
     MD5 check sum: 573aab8a2fa660278ed4a62cd769473f
     Pseudo is Ultrasoft + core correction, Zval = 13.0
     Generated by new atomic code, or converted to UPF format
     Using radial grid of  887 points,  6 beta functions with:
                l(1) =   0
                l(2) =   0
                l(3) =   1
                l(4) =   1
                l(5) =   2
                l(6) =   2
     Q(r) pseudized with  6 coefficients,  rinner =    1.000   1.000   1.000
                                                       1.000   1.000

     PseudoPot. # 3 for H  read from file:
     /home/camp/zhonxu/pseudo/h_pbe_v1.uspp.F.UPF
     MD5 check sum: 3408e3ff4ec8b0a4e358431e7e038a48
     Pseudo is Ultrasoft, Zval =  1.0
     Generated by new atomic code, or converted to UPF format
     Using radial grid of  615 points,  2 beta functions with:
                l(1) =   0
                l(2) =   0
     Q(r) pseudized with  8 coefficients,  rinner =    0.700

     atomic species   valence    mass     pseudopotential
        O0             6.00    15.99940     O ( 1.00)
        Nb1           13.00    92.90640     Nb( 1.00)
        H2             1.00     1.00794     H ( 1.00)

     Simplified LDA+U calculation (l_max = 2) with parameters (eV):
     atomic species    L          U    alpha       J0     beta
        Nb1            2     7.5000   0.0000   0.0000   0.0000

     No symmetry found

   Cartesian axes

     site n.     atom                  positions (alat units)
         1           O0  tau(   1) = (   0.0000000   0.0000000   1.6962113  )
         2           O0  tau(   2) = (   0.0000000   0.5900519   1.7723835  )
         3           Nb1 tau(   3) = (   0.2500000   0.5900519   2.0257895  )
         4           Nb1 tau(   4) = (   0.0000000   0.0000000   2.0274306  )
         5           O0  tau(   5) = (   0.2500000   0.9322821   2.0383253  )
         6           O0  tau(   6) = (   0.2500000   0.2478218   2.0381886  )
         7           O0  tau(   7) = (   0.0000000   0.5900519   2.2790132  )
         8           O0  tau(   8) = (   0.0000000   0.0000000   2.3853170  )
         9           Nb1 tau(   9) = (   0.2500000   0.0000000   2.6318397  )
        10           Nb1 tau(  10) = (   0.0000000   0.5900519   2.5956910  )
        11           O0  tau(  11) = (   0.2500000   0.8378738   2.6232242  )
        12           O0  tau(  12) = (   0.2500000   0.3422301   2.6255034  )
        13           O0  tau(  13) = (   0.0000000   0.0000000   2.8344187  )
        14           O0  tau(  14) = (   0.5000000   0.0000000   1.6974420  )
        15           O0  tau(  15) = (   0.5000000   0.5900519   1.7789021  )
        16           Nb1 tau(  16) = (   0.7500000   0.5900519   2.0259719  )
        17           Nb1 tau(  17) = (   0.5000000   0.0000000   2.0298010  )
        18           O0  tau(  18) = (   0.7500000   0.9322821   2.0382798  )
        19           O0  tau(  19) = (   0.7500000   0.2478218   2.0381886  )
        20           O0  tau(  20) = (   0.5000000   0.5900519   2.2737254  )
        21           O0  tau(  21) = (   0.5000000   0.0000000   2.3845421  )
        22           Nb1 tau(  22) = (   0.7500000   0.0000000   2.6318397  )
        23           Nb1 tau(  23) = (   0.5000000   0.5900519   2.6269166  )
        24           O0  tau(  24) = (   0.7500000   0.8378738   2.6231786  )
        25           O0  tau(  25) = (   0.7500000   0.3422301   2.6254579  )
        26           O0  tau(  26) = (   0.5000000   0.0000000   2.8332335  )
        27           H2  tau(  27) = (  -0.0005200   0.5958463   1.6070929  )
        28           H2  tau(  28) = (   0.4994400   0.5914445   1.6138395  )
        29           H2  tau(  29) = (   0.1507700   0.0008261   1.6243240  )
        30           H2  tau(  30) = (   0.6503900   0.0006019   1.6249166  )
        31           O0  tau(  31) = (   0.5000000   0.6010623   2.9587285  )
        32           O0  tau(  32) = (   0.5000000   0.4103103   3.1155403  )
        33           H2  tau(  33) = (   0.5000000   0.4955964   3.2584031  )

     number of k points=    10  Methfessel-Paxton smearing, width (Ry)=  0.0100
                       cart. coord. in units 2pi/alat
        k(    1) = (   0.0000000   0.0000000   0.0000000), wk =   0.1250000
        k(    2) = (   0.0000000   0.2118458   0.0000000), wk =   0.2500000
        k(    3) = (   0.0000000  -0.4236915   0.0000000), wk =   0.1250000
        k(    4) = (   0.2500000   0.0000000   0.0000000), wk =   0.2500000
        k(    5) = (   0.2500000   0.2118458   0.0000000), wk =   0.2500000
        k(    6) = (   0.2500000  -0.4236915   0.0000000), wk =   0.2500000
        k(    7) = (  -0.5000000   0.0000000   0.0000000), wk =   0.1250000
        k(    8) = (  -0.5000000   0.2118458   0.0000000), wk =   0.2500000
        k(    9) = (  -0.5000000  -0.4236915   0.0000000), wk =   0.1250000
        k(   10) = (  -0.2500000   0.2118458   0.0000000), wk =   0.2500000

     Largest allocated arrays     est. size (Mb)     dimensions
     Largest temporary arrays     est. size (Mb)     dimensions

     Check: negative/imaginary core charge=   -0.000003    0.000000

     Initial potential from superposition of free atoms
     Check: negative starting charge=   -0.003307

     starting charge  228.97806, renormalised to  229.00000

     negative rho (up, down):  0.331E-02 0.000E+00
     Number of +U iterations with fixed ns =  0
     Starting occupations:
 --- enter write_ns ---
 LDA+U parameters:
U( 2)     =  7.50000000
alpha( 2) =  0.00000000
atom    3   Tr[ns(na)] =   3.00000
    eigenvalues:
  0.300  0.300  0.300  0.300  0.300
    eigenvectors:
  1.000  0.000  0.000  0.000  0.000
  0.000  1.000  0.000  0.000  0.000
  0.000  0.000  1.000  0.000  0.000
  0.000  0.000  0.000  1.000  0.000
  0.000  0.000  0.000  0.000  1.000
    occupations:
  0.300  0.000  0.000  0.000  0.000
  0.000  0.300  0.000  0.000  0.000
  0.000  0.000  0.300  0.000  0.000
  0.000  0.000  0.000  0.300  0.000
  0.000  0.000  0.000  0.000  0.300
atom    4   Tr[ns(na)] =   3.00000
    eigenvalues:
  0.300  0.300  0.300  0.300  0.300
    eigenvectors:
  1.000  0.000  0.000  0.000  0.000
  0.000  1.000  0.000  0.000  0.000
  0.000  0.000  1.000  0.000  0.000
  0.000  0.000  0.000  1.000  0.000
  0.000  0.000  0.000  0.000  1.000
    occupations:
  0.300  0.000  0.000  0.000  0.000
  0.000  0.300  0.000  0.000  0.000
  0.000  0.000  0.300  0.000  0.000
  0.000  0.000  0.000  0.300  0.000
  0.000  0.000  0.000  0.000  0.300
atom    9   Tr[ns(na)] =   3.00000
    eigenvalues:
  0.300  0.300  0.300  0.300  0.300
    eigenvectors:
  1.000  0.000  0.000  0.000  0.000
  0.000  1.000  0.000  0.000  0.000
  0.000  0.000  1.000  0.000  0.000
  0.000  0.000  0.000  1.000  0.000
  0.000  0.000  0.000  0.000  1.000
    occupations:
  0.300  0.000  0.000  0.000  0.000
  0.000  0.300  0.000  0.000  0.000
  0.000  0.000  0.300  0.000  0.000
  0.000  0.000  0.000  0.300  0.000
  0.000  0.000  0.000  0.000  0.300
atom   10   Tr[ns(na)] =   3.00000
    eigenvalues:
  0.300  0.300  0.300  0.300  0.300
    eigenvectors:
  1.000  0.000  0.000  0.000  0.000
  0.000  1.000  0.000  0.000  0.000
  0.000  0.000  1.000  0.000  0.000
  0.000  0.000  0.000  1.000  0.000
  0.000  0.000  0.000  0.000  1.000
    occupations:
  0.300  0.000  0.000  0.000  0.000
  0.000  0.300  0.000  0.000  0.000
  0.000  0.000  0.300  0.000  0.000
  0.000  0.000  0.000  0.300  0.000
  0.000  0.000  0.000  0.000  0.300
atom   16   Tr[ns(na)] =   3.00000
    eigenvalues:
  0.300  0.300  0.300  0.300  0.300
    eigenvectors:
  1.000  0.000  0.000  0.000  0.000
  0.000  1.000  0.000  0.000  0.000
  0.000  0.000  1.000  0.000  0.000
  0.000  0.000  0.000  1.000  0.000
  0.000  0.000  0.000  0.000  1.000
    occupations:
  0.300  0.000  0.000  0.000  0.000
  0.000  0.300  0.000  0.000  0.000
  0.000  0.000  0.300  0.000  0.000
  0.000  0.000  0.000  0.300  0.000
  0.000  0.000  0.000  0.000  0.300
atom   17   Tr[ns(na)] =   3.00000
    eigenvalues:
  0.300  0.300  0.300  0.300  0.300
    eigenvectors:
  1.000  0.000  0.000  0.000  0.000
  0.000  1.000  0.000  0.000  0.000
  0.000  0.000  1.000  0.000  0.000
  0.000  0.000  0.000  1.000  0.000
  0.000  0.000  0.000  0.000  1.000
    occupations:
  0.300  0.000  0.000  0.000  0.000
  0.000  0.300  0.000  0.000  0.000
  0.000  0.000  0.300  0.000  0.000
  0.000  0.000  0.000  0.300  0.000
  0.000  0.000  0.000  0.000  0.300
atom   22   Tr[ns(na)] =   3.00000
    eigenvalues:
  0.300  0.300  0.300  0.300  0.300
    eigenvectors:
  1.000  0.000  0.000  0.000  0.000
  0.000  1.000  0.000  0.000  0.000
  0.000  0.000  1.000  0.000  0.000
[...]
    occupations:
  0.478  0.000 -0.000  0.063  0.000
  0.000  0.642  0.000 -0.001  0.000
 -0.000  0.000  0.401  0.002  0.000
  0.063 -0.001  0.002  0.617 -0.000
  0.000  0.000  0.000 -0.000  0.475
atom   10   Tr[ns(na)] =   4.98404
    eigenvalues:
  0.298  0.312  0.503  0.537  0.842
    eigenvectors:
  0.000  0.000  1.000  0.000  0.000
  0.000  1.000  0.000  0.000  0.000
  1.000  0.000  0.000  0.000  0.000
  0.000  0.000  0.000  0.000  1.000
  0.000  0.000  0.000  1.000  0.000
    occupations:
  0.503  0.000  0.000  0.001 -0.000
  0.000  0.312 -0.000  0.001  0.001
  0.000 -0.000  0.298 -0.003 -0.000
  0.001  0.001 -0.003  0.842 -0.000
 -0.000  0.001 -0.000 -0.000  0.537
atom   16   Tr[ns(na)] =   5.06516
    eigenvalues:
  0.309  0.314  0.517  0.606  0.786
    eigenvectors:
  0.000  0.000  0.000  0.328  0.672
  0.000  0.000  1.000  0.000  0.000
  0.330  0.670  0.000  0.000  0.000
  0.000  0.000  0.000  0.672  0.328
  0.670  0.330  0.000  0.000  0.000
    occupations:
  0.727  0.004  0.001 -0.084  0.002
  0.004  0.517  0.001 -0.001  0.001
  0.001  0.001  0.313 -0.000  0.002
 -0.084 -0.001 -0.000  0.665 -0.001
  0.002  0.001  0.002 -0.001  0.311
atom   17   Tr[ns(na)] =   5.09412
    eigenvalues:
  0.302  0.329  0.557  0.587  0.771
    eigenvectors:
  0.003  0.000  0.000  0.997  0.000
  0.996  0.000  0.000  0.003  0.001
  0.000  1.000  0.000  0.000  0.000
  0.001  0.000  0.000  0.000  0.999
  0.000  0.000  1.000  0.000  0.000
    occupations:
  0.587  0.015  0.000  0.001 -0.000
  0.015  0.303 -0.000 -0.014  0.000
  0.000 -0.000  0.329 -0.000  0.001
  0.001 -0.014 -0.000  0.771  0.000
 -0.000  0.000  0.001  0.000  0.557
atom   22   Tr[ns(na)] =   5.22719
    eigenvalues:
  0.401  0.454  0.475  0.641  0.642
    eigenvectors:
  0.000  0.870  0.000  0.119  0.010
  0.000  0.000  0.000  0.083  0.917
  1.000  0.000  0.000  0.000  0.000
  0.000  0.129  0.000  0.798  0.072
  0.000  0.000  1.000  0.000  0.000
    occupations:
  0.478 -0.000 -0.000  0.063 -0.000
 -0.000  0.642 -0.000  0.001  0.000
 -0.000 -0.000  0.401  0.002 -0.000
  0.063  0.001  0.002  0.617  0.000
 -0.000  0.000 -0.000  0.000  0.475
atom   23   Tr[ns(na)] =   5.15697
    eigenvalues:
  0.299  0.454  0.566  0.611  0.648
    eigenvectors:
  0.000  0.000  0.000  0.896  0.103
  0.000  0.997  0.003  0.000  0.000
  0.999  0.000  0.000  0.000  0.000
  0.000  0.000  0.000  0.103  0.896
  0.000  0.003  0.997  0.000  0.000
    occupations:
  0.614 -0.000  0.007  0.011 -0.000
 -0.000  0.455 -0.000 -0.000 -0.007
  0.007 -0.000  0.299  0.006  0.000
  0.011 -0.000  0.006  0.644 -0.000
 -0.000 -0.007  0.000 -0.000  0.566
N of occupied +U levels =  40.9185317
 --- exit write_ns ---

     Threshold (ethr) on eigenvalues was too large:
     Diagonalizing with lowered threshold

     Davidson diagonalization with overlap
     ethr =  6.71E-09,  avg # of iterations =  2.3

[...]

     total energy              =   -1590.51018023 Ry
     Harris-Foulkes estimate   =   -1590.51018023 Ry
     estimated scf accuracy    <       0.00000001 Ry

     iteration # 10     ecut=    40.00 Ry     beta=0.70
     Davidson diagonalization with overlap
     ethr =  4.76E-12,  avg # of iterations =  1.0

     negative rho (up, down):  0.342E-02 0.000E+00

     End of self-consistent calculation
 --- enter write_ns ---
 LDA+U parameters:
U( 2)     =  7.50000000
alpha( 2) =  0.00000000
atom    3   Tr[ns(na)] =   5.06544
    eigenvalues:
  0.310  0.314  0.517  0.607  0.786
    eigenvectors:
  0.000  0.000  0.000  0.328  0.671
  0.000  0.000  1.000  0.000  0.000
  0.290  0.710  0.000  0.000  0.000
  0.000  0.000  0.000  0.672  0.328
  0.710  0.290  0.000  0.000  0.000
    occupations:
  0.727 -0.004  0.001 -0.084 -0.002
 -0.004  0.517 -0.001  0.001  0.001
  0.001 -0.001  0.313 -0.000 -0.002
 -0.084  0.001 -0.000  0.665  0.001
 -0.002  0.001 -0.002  0.001  0.311
atom    4   Tr[ns(na)] =   5.09935
    eigenvalues:
  0.301  0.330  0.557  0.587  0.774
    eigenvectors:
  0.003  0.000  0.000  0.997  0.000
  0.996  0.000  0.000  0.003  0.001
  0.000  1.000  0.000  0.000  0.000
  0.001  0.000  0.000  0.000  0.999
  0.000  0.000  1.000  0.000  0.000
    occupations:
  0.586  0.015  0.000  0.001 -0.000
  0.015  0.302 -0.001 -0.014  0.000
  0.000 -0.001  0.330  0.000  0.001
  0.001 -0.014  0.000  0.774  0.000
 -0.000  0.000  0.001  0.000  0.557
atom    9   Tr[ns(na)] =   5.22723
    eigenvalues:
  0.401  0.454  0.475  0.641  0.642
    eigenvectors:
  0.000  0.870  0.000  0.120  0.010
  0.000  0.000  0.000  0.079  0.921
  1.000  0.000  0.000  0.000  0.000
  0.000  0.129  0.000  0.801  0.069
  0.000  0.000  1.000  0.000  0.000
    occupations:
  0.478  0.000 -0.000  0.063  0.000
  0.000  0.642  0.000 -0.001  0.000
 -0.000  0.000  0.401  0.002  0.000
  0.063 -0.001  0.002  0.617 -0.000
  0.000  0.000  0.000 -0.000  0.475
atom   10   Tr[ns(na)] =   4.98381
    eigenvalues:
  0.298  0.312  0.503  0.537  0.843
    eigenvectors:
  0.000  0.000  1.000  0.000  0.000
  0.000  1.000  0.000  0.000  0.000
  1.000  0.000  0.000  0.000  0.000
  0.000  0.000  0.000  0.000  1.000
  0.000  0.000  0.000  1.000  0.000
    occupations:
  0.503  0.000  0.000  0.001 -0.000
  0.000  0.312 -0.000  0.001  0.001
  0.000 -0.000  0.298 -0.003 -0.000
  0.001  0.001 -0.003  0.843 -0.000
 -0.000  0.001 -0.000 -0.000  0.537
atom   16   Tr[ns(na)] =   5.06551
    eigenvalues:
  0.309  0.314  0.517  0.606  0.786
    eigenvectors:
  0.000  0.000  0.000  0.328  0.671
  0.000  0.000  1.000  0.000  0.000
  0.327  0.673  0.000  0.000  0.000
  0.000  0.000  0.000  0.672  0.328
  0.673  0.327  0.000  0.000  0.000
    occupations:
  0.727  0.004  0.001 -0.084  0.002
  0.004  0.517  0.001 -0.001  0.001
  0.001  0.001  0.313 -0.000  0.002
 -0.084 -0.001 -0.000  0.665 -0.001
  0.002  0.001  0.002 -0.001  0.311
atom   17   Tr[ns(na)] =   5.09417
    eigenvalues:
  0.302  0.329  0.557  0.587  0.771
    eigenvectors:
  0.003  0.000  0.000  0.997  0.000
  0.996  0.000  0.000  0.003  0.001
  0.000  1.000  0.000  0.000  0.000
  0.001  0.000  0.000  0.000  0.999
  0.000  0.000  1.000  0.000  0.000
    occupations:
  0.587  0.015  0.000  0.001 -0.000
  0.015  0.303 -0.000 -0.014  0.000
  0.000 -0.000  0.329 -0.000  0.001
  0.001 -0.014 -0.000  0.771  0.000
 -0.000  0.000  0.001  0.000  0.557
atom   22   Tr[ns(na)] =   5.22738
    eigenvalues:
  0.401  0.454  0.476  0.641  0.642
    eigenvectors:
  0.000  0.870  0.000  0.119  0.011
  0.000  0.000  0.000  0.085  0.915
  1.000  0.000  0.000  0.000  0.000
  0.000  0.129  0.000  0.796  0.075
  0.000  0.000  1.000  0.000  0.000
    occupations:
  0.478 -0.000 -0.000  0.063 -0.000
 -0.000  0.642 -0.000  0.001  0.000
 -0.000 -0.000  0.401  0.002 -0.000
  0.063  0.001  0.002  0.617  0.000
 -0.000  0.000 -0.000  0.000  0.475
atom   23   Tr[ns(na)] =   5.15553
    eigenvalues:
  0.299  0.454  0.566  0.611  0.647
    eigenvectors:
  0.000  0.000  0.000  0.894  0.106
  0.000  0.997  0.003  0.000  0.000
  0.999  0.000  0.000  0.000  0.000
  0.000  0.000  0.000  0.106  0.894
  0.000  0.003  0.997  0.000  0.000
    occupations:
  0.614 -0.000  0.006  0.011 -0.000
 -0.000  0.454 -0.000 -0.000 -0.007
  0.006 -0.000  0.299  0.006  0.000
  0.011 -0.000  0.006  0.643 -0.000
 -0.000 -0.007  0.000 -0.000  0.566
N of occupied +U levels =  40.9184011
 --- exit write_ns ---

[...]

          k = 0.2500-0.4237 0.0000 ( 32188 PWs)   bands (ev):

[...]

          k =-0.2500 0.2118 0.0000 ( 32165 PWs)   bands (ev):

   -56.5016 -56.4302 -55.8449 -55.8223 -55.7827 -55.5697 -55.5484 -55.4823
   -33.1966 -32.7348 -32.5881 -32.5412 -32.5286 -32.4495 -32.4358 -32.3009
   -32.2495 -32.1425 -32.0926 -32.0411 -32.0396 -31.9885 -31.8649 -31.7892
   -31.6971 -31.5864 -31.5195 -31.3913 -31.3596 -31.2940 -31.2784 -31.2400
   -22.5197 -20.0803 -19.9188 -19.3122 -19.1957 -18.9189 -18.8054 -18.7961
   -18.6914 -18.6787 -18.6405 -18.6143 -17.9509 -17.9299 -17.9166 -17.8549
   -17.7658 -17.7125 -17.6728 -16.1488  -8.8820  -8.2872  -7.7467  -7.3423
    -7.2067  -7.1361  -6.8900  -6.6532  -6.4886  -6.4047  -6.3344  -6.2005
    -6.1524  -6.0679  -5.8612  -5.8303  -5.7492  -5.5349  -5.3417  -5.3061
    -5.2878  -5.0201  -4.9548  -4.7207  -4.6376  -4.4186  -4.3734  -4.3039
    -4.2178  -4.1223  -3.9990  -3.9849  -3.9417  -3.8441  -3.8281  -3.7516
    -3.7247  -3.6084  -3.5832  -3.4952  -3.3607  -3.3144  -3.2551  -3.2224
    -3.1320  -3.0161  -2.9522  -2.8821  -2.8331  -2.8187  -2.7391  -2.5530
    -2.4758  -2.4650  -2.2713  -2.1908  -2.1188  -1.8635  -1.2348  -0.7876
    -0.2994  -0.1787   1.4796   1.6602   1.8199   1.8827   1.9381   1.9645
     2.1881   2.3114   2.4266   2.4963   2.7094   2.7431   2.8240   2.8709
     3.0067   3.0710   3.1884   3.1941   3.4005   3.4169   3.5161   3.6992
     4.0237   4.2389   4.3524   4.4391   4.7055   4.7654   4.8987   4.9517
     5.0912   5.1881   5.1993   5.2667   5.3695   5.6726   5.7268   5.7648
     5.8951   6.0037   6.0378   6.1450   6.3219   6.4201   6.5124   6.6085
     6.6907   6.7506   6.8205   6.9261   7.0302   7.2272   7.3395   7.4011
     7.4703   7.8335   7.8763   8.0166   8.0673   8.1546   8.2798   8.3484
     8.5203   8.6052   8.7245   8.8168   8.9539   8.9712   9.0793   9.2492
     9.3097   9.4202   9.4761   9.5786   9.6963   9.8419   9.8766   9.9599
    10.0619  10.1559  10.2387  10.3251  10.4305  10.4756  10.6188  10.7976
    10.8623  10.9834  11.0399  11.1496  11.1656  11.2265  11.2983  11.3873
    11.4719  11.5974  11.6110  11.6450  11.6892  11.8815  11.9214  12.0243
    12.1225  12.1975  12.2585  12.3398  12.4615  12.5401  12.5957  12.7108
    12.7457  12.7642  12.8450  12.9251  12.9680  12.9816  13.0621  13.1518
    13.1825  13.2938  13.3962  13.4355  13.5244  13.6111  13.6445  13.7129
    13.7887  13.8413  13.9047  14.0045  14.0532  14.0699  14.1421  14.2417
    14.3205  14.3899  14.4248  14.5041  14.6364  14.7343  14.7436  14.8765
    14.9493  15.0403  15.1606  15.2435  15.3164  15.3413  15.3950  15.4495
    15.4913  15.5521  15.5807  15.7353  15.7745  15.8160  15.8796  15.9043
    15.9933  16.0710  16.1239  16.2100  16.2725  16.3566  16.3861  16.4482
    16.5552  16.6518  16.7067  16.7399  16.7919  16.8794  16.9141  17.0403
    17.0697  17.1407  17.1972  17.2419  17.3304  17.3771  17.4981  17.5182
    17.5706  17.6311  17.7010  17.8417  17.8666  17.9437  17.9643  18.0608
    18.1287  18.2374  18.2774  18.3348  18.4178  18.5458  18.5851  18.6484
    18.6729  18.7626  18.8402  18.8865  18.9700  19.0065  19.0656  19.0981
    19.1999  19.2776  19.2937  19.3787  19.4381  19.4643  19.4934  19.5658
    19.6833  19.7518  19.7822  19.8165  19.8664  19.9138  19.9704  20.0233
    20.0698  20.1061  20.1748  20.2373  20.2871  20.3596  20.4087

     the Fermi energy is     0.9982 ev

!    total energy              =   -1590.51018023 Ry
     Harris-Foulkes estimate   =   -1590.51018023 Ry
     estimated scf accuracy    <          5.3E-09 Ry

     The total energy is the sum of the following terms:

     one-electron contribution =  -19239.85501124 Ry
     hartree contribution      =    9653.07447332 Ry
     xc contribution           =    -294.77720910 Ry
     ewald contribution        =    8286.09575185 Ry
     Hubbard energy            =       4.95179559 Ry
     smearing contrib. (-TS)   =       0.00001936 Ry

     convergence has been achieved in  10 iterations

     Forces acting on atoms (Ry/au):

     negative rho (up, down):  0.342E-02 0.000E+00
     atom    1 type  1   force =    -0.00050339   -0.00035021   -0.00023229
     atom    2 type  1   force =    -0.00007997    0.00017976   -0.00008024
     atom    3 type  2   force =     0.03005161   -0.00001024   -0.00005389
     atom    4 type  2   force =    -0.00008697   -0.00003193   -0.00037614
     atom    5 type  1   force =    -0.00110473   -0.02603833    0.00017247
     atom    6 type  1   force =    -0.00097626    0.02604896    0.00018977
     atom    7 type  1   force =    -0.00012818   -0.00058872    0.00003881
     atom    8 type  1   force =     0.00036859    0.00142819    0.00026824
     atom    9 type  2   force =     0.00256838   -0.00145628    0.00015948
     atom   10 type  2   force =     0.00017342   -0.00019754   -0.00009486
     atom   11 type  1   force =     0.00443850    0.01586576   -0.00054100
     atom   12 type  1   force =     0.00785650   -0.00871734   -0.00025513
     atom   13 type  1   force =     0.00008243   -0.00174206    0.00054702
     atom   14 type  1   force =    -0.00051392   -0.00001746   -0.00013520
     atom   15 type  1   force =    -0.00008845    0.00013292    0.00035806
     atom   16 type  2   force =    -0.02972159   -0.00005366   -0.00002950
     atom   17 type  2   force =    -0.00026650   -0.00011646   -0.00046608
     atom   18 type  1   force =     0.00130305   -0.02602903    0.00017309
     atom   19 type  1   force =     0.00117805    0.02602600    0.00019706
     atom   20 type  1   force =    -0.00012477   -0.00249619   -0.00052544
     atom   21 type  1   force =     0.00027938    0.00116645    0.00009731
     atom   22 type  2   force =    -0.00245869   -0.00145452    0.00017770
     atom   23 type  2   force =    -0.00009438   -0.00323682   -0.00035404
     atom   24 type  1   force =    -0.00448610    0.01585697   -0.00057111
     atom   25 type  1   force =    -0.00789629   -0.00872389   -0.00028868
     atom   26 type  1   force =     0.00004462   -0.00503849    0.00061703
     atom   27 type  3   force =     0.00001230    0.00021753    0.00067020
     atom   28 type  3   force =     0.00000849   -0.00021039   -0.00006783
     atom   29 type  3   force =     0.00008701    0.00006173    0.00018730
     atom   30 type  3   force =     0.00005712    0.00002732    0.00024805
     atom   31 type  1   force =     0.00001784    0.00077321    0.00091560
     atom   32 type  1   force =     0.00000398   -0.00056896   -0.00041916
     atom   33 type  3   force =    -0.00000110   -0.00070626   -0.00052660

     Total force =     0.002464     Total SCF correction =     0.000347
     SCF correction compared to forces is large: reduce conv_thr to get better values

     entering subroutine stress ...

     negative rho (up, down):  0.342E-02 0.000E+00
          total   stress  (Ry/bohr**3)                   (kbar)     P=   -0.07
  -0.00000457   0.00000001   0.00000095         -0.67      0.00      0.14
   0.00000001   0.00003604  -0.00000187          0.00      5.30     -0.27
   0.00000095  -0.00000187  -0.00003296          0.14     -0.27     -4.85

     bfgs converged in  15 scf cycles and  14 bfgs steps
     (criteria: energy < 0.10E-03, force < 0.10E-02)

     End of BFGS Geometry Optimization

     Final energy   =   -1590.5101802259 Ry
Begin final coordinates

ATOMIC_POSITIONS (crystal)
O0       0.000000000   0.000000000   0.370228241    0   0   1
O0       0.000000000   0.500000000   0.387374926    0   0   1
Nb1      0.250000000   0.500000000   0.443186624    0   0   1
Nb1      0.000000000   0.000000000   0.443384947    0   0   1
O0       0.250000000   0.790000000   0.447115264    0   0   1
O0       0.250000000   0.210000000   0.447102205    0   0   1
O0       0.000000000   0.500000000   0.499187499    0   0   1
O0       0.000000000   0.000000000   0.525088247    0   0   1
Nb1      0.250000000   0.000000000   0.577886482    0   0   1
Nb1      0.000000000   0.500000000   0.568955292    0   0   1
O0       0.250000000   0.710000000   0.578497880    0   0   1
O0       0.250000000   0.290000000   0.579326971    0   0   1
O0       0.000000000   0.000000000   0.622456826    0   0   1
O0       0.500000000   0.000000000   0.370391607    0   0   1
O0       0.500000000   0.500000000   0.387548293    0   0   1
Nb1      0.750000000   0.500000000   0.443185415    0   0   1
Nb1      0.500000000   0.000000000   0.443567564    0   0   1
O0       0.750000000   0.790000000   0.447105421    0   0   1
O0       0.750000000   0.210000000   0.447106610    0   0   1
O0       0.500000000   0.500000000   0.501048984    0   0   1
O0       0.500000000   0.000000000   0.525170876    0   0   1
Nb1      0.750000000   0.000000000   0.577911342    0   0   1
Nb1      0.500000000   0.500000000   0.576037757    0   0   1
O0       0.750000000   0.710000000   0.578462622    0   0   1
O0       0.750000000   0.290000000   0.579291497    0   0   1
O0       0.500000000   0.000000000   0.622048684    0   0   1
H2      -0.000432460   0.505725033   0.351265756
H2       0.499583039   0.500571524   0.351413242
H2       0.152674035   0.000960510   0.355578338
H2       0.652545622   0.000672221   0.355676183
O0       0.500033977   0.517085550   0.650213922
O0       0.500003895   0.349810376   0.682053582
H2       0.499990642   0.415222196   0.714390901
End final coordinates

     General routines

     Parallel routines
     Hubbard U routines

   This run was terminated on:   0:23:47   2Jun2014

   JOB DONE.