     Program PWSCF v.5.0.2 (svn rev. 9656) starts on  8Feb2014 at 16:59:25

     Current dimensions of program PWSCF are:
     Max number of different atomic species (ntypx) = 10
     Max number of k-points (npk) =  40000
     Max angular momentum in pseudopotentials (lmaxx) =  3
     Reading input from IrO2-2-pert.in
Warning: card &IONS ignored
Warning: card / ignored
Warning: card &CELL ignored
Warning: card / ignored

     Subspace diagonalization in iterative solution of the eigenvalue problem:
     a serial algorithm will be used

     bravais-lattice index     =            0
     lattice parameter (alat)  =      17.1587  a.u.
     unit-cell volume          =    3538.5507 (a.u.)^3
     number of atoms/cell      =           48
     number of atomic types    =            3
     number of electrons       =       432.00
     number of Kohn-Sham states=          624
     kinetic-energy cutoff     =      40.0000  Ry
     charge density cutoff     =     500.0000  Ry
     convergence threshold     =      1.0E-06
     mixing beta               =       0.7000
     number of iterations used =            8  plain     mixing
     Exchange-correlation      = SLA  PW   PBE  PBE ( 1 4 3 4 0)
     EXX-fraction              =        0.00

     celldm(1)=  17.158713  celldm(2)=   0.000000  celldm(3)=   0.000000
     celldm(4)=   0.000000  celldm(5)=   0.000000  celldm(6)=   0.000000

     crystal axes: (cart. coord. in units of alat)
               a(1) = (   1.000000   0.000000   0.000000 )
               a(2) = (   0.000000   1.000000   0.000000 )
               a(3) = (   0.000000   0.000000   0.700441 )

     reciprocal axes: (cart. coord. in units 2 pi/alat)
               b(1) = (  1.000000  0.000000  0.000000 )
               b(2) = (  0.000000  1.000000  0.000000 )
               b(3) = (  0.000000  0.000000  1.427673 )

     PseudoPot. # 1 for Ir read from file:
     /home/camp/zhonxu/pseudo/ir_pbe_v1.uspp.F.UPF
     MD5 check sum: abf987a9674477536ede83817f8f8b70
     Pseudo is Ultrasoft + core correction, Zval = 15.0
     Generated by new atomic code, or converted to UPF format
     Using radial grid of  983 points,  7 beta functions with:
                l(1) =   0
                l(2) =   0
                l(3) =   1
                l(4) =   1
                l(5) =   1
                l(6) =   2
                l(7) =   2
     Q(r) pseudized with  8 coefficients,  rinner =    1.350   1.350   1.350
                                                       1.350   1.350

     PseudoPot. # 2 for O  read from file:
     /home/camp/zhonxu/pseudo/o_pbe_v1.01.uspp.F.UPF
     MD5 check sum: 2bcb18d16ea4b960afae9ec6d52f22d2
     Pseudo is Ultrasoft + core correction, Zval =  6.0
     Generated by new atomic code, or converted to UPF format
     Using radial grid of  737 points,  5 beta functions with:
                l(1) =   0
                l(2) =   0
                l(3) =   1
                l(4) =   1
                l(5) =   2
     Q(r) pseudized with  8 coefficients,  rinner =    0.900   0.900   0.900
                                                       0.900   0.900

     PseudoPot. # 3 for O  read from file:
     /home/camp/zhonxu/pseudo/o_pbe_v1.01.uspp.F.UPF
     MD5 check sum: 2bcb18d16ea4b960afae9ec6d52f22d2
     Pseudo is Ultrasoft + core correction, Zval =  6.0
     Generated by new atomic code, or converted to UPF format
     Using radial grid of  737 points,  5 beta functions with:
                l(1) =   0
                l(2) =   0
                l(3) =   1
                l(4) =   1
                l(5) =   2
     Q(r) pseudized with  8 coefficients,  rinner =    0.900   0.900   0.900
                                                       0.900   0.900

     atomic species   valence    mass     pseudopotential
        Ir0           15.00   192.22000     Ir( 1.00)
        O1             6.00    15.99940     O ( 1.00)
        O2             6.00    15.99940     O ( 1.00)

     Starting magnetic structure
     atomic species   magnetization
        Ir0          0.000
        O1           0.000
        O2           0.000

     Simplified LDA+U calculation (l_max = 2) with parameters (eV):
     atomic species    L          U    alpha       J0     beta
        Ir0            2     0.0000   0.0000   0.0000   0.0000
        O1             1     0.0000   0.0000   0.0000   0.0000
        O2             1     0.0000   0.0000   0.0000   0.0000

      4 Sym. Ops. (no inversion) found

   Cartesian axes

     site n.     atom                  positions (alat units)
         1           Ir0 tau(   1) = (  -0.1550000  -0.1550000   0.0000000  )
         2           Ir0 tau(   2) = (   0.0950000   0.0950000   0.1751101  )
         3           Ir0 tau(   3) = (  -0.1550000  -0.1550000   0.3502203  )
         4           Ir0 tau(   4) = (   0.0950000   0.0950000   0.5253304  )
         5           Ir0 tau(   5) = (  -0.1550000   0.3450000   0.0000000  )
         6           Ir0 tau(   6) = (   0.0950000   0.5950000   0.1751101  )
         7           Ir0 tau(   7) = (  -0.1550000   0.3450000   0.3502203  )
         8           Ir0 tau(   8) = (   0.0950000   0.5950000   0.5253304  )
         9           Ir0 tau(   9) = (   0.3450000  -0.1550000   0.0000000  )
        10           Ir0 tau(  10) = (   0.5950000   0.0950000   0.1751101  )
        11           Ir0 tau(  11) = (   0.3450000  -0.1550000   0.3502203  )
        12           Ir0 tau(  12) = (   0.5950000   0.0950000   0.5253304  )
        13           Ir0 tau(  13) = (   0.3450000   0.3450000   0.0000000  )
        14           Ir0 tau(  14) = (   0.5950000   0.5950000   0.1751101  )
        15           Ir0 tau(  15) = (   0.3450000   0.3450000   0.3502203  )
        16           Ir0 tau(  16) = (   0.5950000   0.5950000   0.5253304  )
        17           O1  tau(  17) = (   0.0000000   0.0000000   0.0000000  )
        18           O2  tau(  18) = (  -0.3100000  -0.3100000   0.0000000  )
        19           O2  tau(  19) = (   0.2500000  -0.0600000   0.1751101  )
        20           O2  tau(  20) = (  -0.0600000   0.2500000   0.1751101  )
        21           O2  tau(  21) = (   0.0000000   0.0000000   0.3502203  )
        22           O2  tau(  22) = (  -0.3100000  -0.3100000   0.3502203  )
        23           O2  tau(  23) = (   0.2500000  -0.0600000   0.5253304  )
        24           O2  tau(  24) = (  -0.0600000   0.2500000   0.5253304  )
        25           O2  tau(  25) = (   0.0000000   0.5000000   0.0000000  )
        26           O2  tau(  26) = (  -0.3100000   0.1900000   0.0000000  )
        27           O2  tau(  27) = (   0.2500000   0.4400000   0.1751101  )
        28           O2  tau(  28) = (  -0.0600000   0.7500000   0.1751101  )
        29           O2  tau(  29) = (   0.0000000   0.5000000   0.3502203  )
        30           O2  tau(  30) = (  -0.3100000   0.1900000   0.3502203  )
        31           O2  tau(  31) = (   0.2500000   0.4400000   0.5253304  )
        32           O2  tau(  32) = (  -0.0600000   0.7500000   0.5253304  )
        33           O2  tau(  33) = (   0.5000000   0.0000000   0.0000000  )
        34           O2  tau(  34) = (   0.1900000  -0.3100000   0.0000000  )
        35           O2  tau(  35) = (   0.7500000  -0.0600000   0.1751101  )
        36           O2  tau(  36) = (   0.4400000   0.2500000   0.1751101  )
        37           O2  tau(  37) = (   0.5000000   0.0000000   0.3502203  )
        38           O2  tau(  38) = (   0.1900000  -0.3100000   0.3502203  )
        39           O2  tau(  39) = (   0.7500000  -0.0600000   0.5253304  )
        40           O2  tau(  40) = (   0.4400000   0.2500000   0.5253304  )
        41           O2  tau(  41) = (   0.5000000   0.5000000   0.0000000  )
        42           O2  tau(  42) = (   0.1900000   0.1900000   0.0000000  )
        43           O2  tau(  43) = (   0.7500000   0.4400000   0.1751101  )
        44           O2  tau(  44) = (   0.4400000   0.7500000   0.1751101  )
        45           O2  tau(  45) = (   0.5000000   0.5000000   0.3502203  )
        46           O2  tau(  46) = (   0.1900000   0.1900000   0.3502203  )
        47           O2  tau(  47) = (   0.7500000   0.4400000   0.5253304  )
        48           O2  tau(  48) = (   0.4400000   0.7500000   0.5253304  )

     number of k points=    42  Methfessel-Paxton smearing, width (Ry)=  0.0100
                       cart. coord. in units 2pi/alat
        k(    1) = (   0.0000000   0.0000000   0.0000000), wk =   0.0156250
        k(    2) = (   0.0000000   0.0000000   0.3569182), wk =   0.0312500
        k(    3) = (   0.0000000   0.0000000  -0.7138365), wk =   0.0156250
        k(    4) = (   0.0000000   0.2500000   0.0000000), wk =   0.0625000
        k(    5) = (   0.0000000   0.2500000   0.3569182), wk =   0.1250000
        k(    6) = (   0.0000000   0.2500000  -0.7138365), wk =   0.0625000
        k(    7) = (   0.0000000  -0.5000000   0.0000000), wk =   0.0312500
        k(    8) = (   0.0000000  -0.5000000   0.3569182), wk =   0.0625000
        k(    9) = (   0.0000000  -0.5000000  -0.7138365), wk =   0.0312500
        k(   10) = (   0.2500000   0.2500000   0.0000000), wk =   0.0312500
        k(   11) = (   0.2500000   0.2500000   0.3569182), wk =   0.0625000
        k(   12) = (   0.2500000   0.2500000  -0.7138365), wk =   0.0312500
        k(   13) = (   0.2500000  -0.5000000   0.0000000), wk =   0.0625000
        k(   14) = (   0.2500000  -0.5000000   0.3569182), wk =   0.1250000
        k(   15) = (   0.2500000  -0.5000000  -0.7138365), wk =   0.0625000
        k(   16) = (  -0.5000000  -0.5000000   0.0000000), wk =   0.0156250
        k(   17) = (  -0.5000000  -0.5000000   0.3569182), wk =   0.0312500
        k(   18) = (  -0.5000000  -0.5000000  -0.7138365), wk =   0.0156250
        k(   19) = (   0.2500000  -0.2500000   0.0000000), wk =   0.0312500
        k(   20) = (   0.2500000  -0.2500000   0.3569182), wk =   0.0625000
        k(   21) = (   0.2500000  -0.2500000  -0.7138365), wk =   0.0312500
        k(   22) = (   0.0000000   0.0000000   0.0000000), wk =   0.0156250
        k(   23) = (   0.0000000   0.0000000   0.3569182), wk =   0.0312500
        k(   24) = (   0.0000000   0.0000000  -0.7138365), wk =   0.0156250
        k(   25) = (   0.0000000   0.2500000   0.0000000), wk =   0.0625000
        k(   26) = (   0.0000000   0.2500000   0.3569182), wk =   0.1250000
        k(   27) = (   0.0000000   0.2500000  -0.7138365), wk =   0.0625000
        k(   28) = (   0.0000000  -0.5000000   0.0000000), wk =   0.0312500
        k(   29) = (   0.0000000  -0.5000000   0.3569182), wk =   0.0625000
        k(   30) = (   0.0000000  -0.5000000  -0.7138365), wk =   0.0312500
        k(   31) = (   0.2500000   0.2500000   0.0000000), wk =   0.0312500
        k(   32) = (   0.2500000   0.2500000   0.3569182), wk =   0.0625000
        k(   33) = (   0.2500000   0.2500000  -0.7138365), wk =   0.0312500
        k(   34) = (   0.2500000  -0.5000000   0.0000000), wk =   0.0625000
        k(   35) = (   0.2500000  -0.5000000   0.3569182), wk =   0.1250000
        k(   36) = (   0.2500000  -0.5000000  -0.7138365), wk =   0.0625000
[...]
atomic mag. moment =     0.000000
atom   42   Tr[ns(na)] (up, down, total) =   2.68360  2.68360  5.36720
   spin  1
    eigenvalues:
  0.879  0.884  0.921
    eigenvectors:
  0.000  1.000  0.000
  0.500  0.000  0.500
  0.500  0.000  0.500
    occupations:
  0.884 -0.000 -0.000
 -0.000  0.900 -0.021
 -0.000 -0.021  0.900
   spin  2
    eigenvalues:
  0.879  0.884  0.921
    eigenvectors:
  0.000  1.000  0.000
  0.500  0.000  0.500
  0.500  0.000  0.500
    occupations:
  0.884 -0.000 -0.000
 -0.000  0.900 -0.021
 -0.000 -0.021  0.900
atomic mag. moment =     0.000000
atom   43   Tr[ns(na)] (up, down, total) =   2.68356  2.68356  5.36711
   spin  1
    eigenvalues:
  0.879  0.884  0.921
    eigenvectors:
  0.000  1.000  0.000
  0.500  0.000  0.500
  0.500  0.000  0.500
    occupations:
  0.884  0.000 -0.000
  0.000  0.900  0.021
 -0.000  0.021  0.900
   spin  2
    eigenvalues:
  0.879  0.884  0.921
    eigenvectors:
  0.000  1.000  0.000
  0.500  0.000  0.500
  0.500  0.000  0.500
    occupations:
  0.884  0.000 -0.000
  0.000  0.900  0.021
 -0.000  0.021  0.900
atomic mag. moment =     0.000000
atom   44   Tr[ns(na)] (up, down, total) =   2.68356  2.68356  5.36711
   spin  1
    eigenvalues:
  0.879  0.884  0.921
    eigenvectors:
  0.000  1.000  0.000
  0.500  0.000  0.500
  0.500  0.000  0.500
    occupations:
  0.884 -0.000  0.000
 -0.000  0.900  0.021
  0.000  0.021  0.900
   spin  2
    eigenvalues:
  0.879  0.884  0.921
    eigenvectors:
  0.000  1.000  0.000
  0.500  0.000  0.500
  0.500  0.000  0.500
    occupations:
  0.884 -0.000  0.000
 -0.000  0.900  0.021
  0.000  0.021  0.900
atomic mag. moment =     0.000000
atom   45   Tr[ns(na)] (up, down, total) =   2.68352  2.68352  5.36703
   spin  1
    eigenvalues:
  0.879  0.884  0.921
    eigenvectors:
  0.000  1.000  0.000
  0.500  0.000  0.500
  0.500  0.000  0.500
    occupations:
  0.884 -0.000 -0.000
 -0.000  0.900 -0.021
 -0.000 -0.021  0.900
   spin  2
    eigenvalues:
  0.879  0.884  0.921
    eigenvectors:
  0.000  1.000  0.000
  0.500  0.000  0.500
  0.500  0.000  0.500
    occupations:
  0.884 -0.000 -0.000
 -0.000  0.900 -0.021
 -0.000 -0.021  0.900
atomic mag. moment =     0.000000
atom   46   Tr[ns(na)] (up, down, total) =   2.68357  2.68357  5.36714
   spin  1
    eigenvalues:
  0.879  0.884  0.921
    eigenvectors:
  0.000  1.000  0.000
  0.500  0.000  0.500
  0.500  0.000  0.500
    occupations:
  0.884 -0.000 -0.000
 -0.000  0.900 -0.021
 -0.000 -0.021  0.900
   spin  2
    eigenvalues:
  0.879  0.884  0.921
    eigenvectors:
  0.000  1.000  0.000
  0.500  0.000  0.500
  0.500  0.000  0.500
    occupations:
  0.884 -0.000 -0.000
 -0.000  0.900 -0.021
 -0.000 -0.021  0.900
atomic mag. moment =     0.000000
atom   47   Tr[ns(na)] (up, down, total) =   2.68356  2.68356  5.36711
   spin  1
    eigenvalues:
  0.879  0.884  0.921
    eigenvectors:
  0.000  1.000  0.000
  0.500  0.000  0.500
  0.500  0.000  0.500
    occupations:
  0.884 -0.000  0.000
 -0.000  0.900  0.021
  0.000  0.021  0.900
   spin  2
    eigenvalues:
  0.879  0.884  0.921
    eigenvectors:
  0.000  1.000  0.000
  0.500  0.000  0.500
  0.500  0.000  0.500
    occupations:
  0.884 -0.000  0.000
 -0.000  0.900  0.021
  0.000  0.021  0.900
atomic mag. moment =     0.000000
atom   48   Tr[ns(na)] (up, down, total) =   2.68356  2.68356  5.36711
   spin  1
    eigenvalues:
  0.879  0.884  0.921
    eigenvectors:
  0.000  1.000  0.000
  0.500  0.000  0.500
  0.500  0.000  0.500
    occupations:
  0.884  0.000 -0.000
  0.000  0.900  0.021
 -0.000  0.021  0.900
   spin  2
    eigenvalues:
  0.879  0.884  0.921
    eigenvectors:
  0.000  1.000  0.000
  0.500  0.000  0.500
  0.500  0.000  0.500
    occupations:
  0.884  0.000 -0.000
  0.000  0.900  0.021
 -0.000  0.021  0.900
atomic mag. moment =     0.000000
N of occupied +U levels = 300.4437088
 --- exit write_ns ---

 ------ SPIN UP ------------

          k = 0.0000 0.0000 0.0000 ( 15109 PWs)   bands (ev):

   -36.8060 -36.8058 -36.8058 -36.8057 -36.7970 -36.7968 -36.7967 -36.7965
   -36.7908 -36.7905 -36.7899 -36.7896 -36.7887 -36.7885 -36.7884 -36.7881
   -36.7823 -36.7820 -36.7819 -36.7816 -36.7733 -36.7732 -36.7732 -36.7730
   -36.7015 -36.6942 -36.6941 -36.6940 -36.6939 -36.6939 -36.6936 -36.6867
   -36.5447 -36.5445 -36.5443 -36.5441 -36.5429 -36.5427 -36.5425 -36.5423
   -36.5296 -36.5293 -36.5292 -36.5292 -36.5291 -36.5290 -36.5290 -36.5286
    -7.4302  -6.7685  -6.7685  -6.6453  -6.6453  -6.6452  -6.6452  -6.2741
    -6.1464  -6.1464  -6.1464  -6.1464  -6.0390  -6.0390  -5.9130  -5.9130
    -5.8492  -5.8492  -5.7503  -5.7503  -5.6235  -5.6235  -5.6235  -5.6235
    -5.5668  -5.5667  -5.5666  -5.5666  -5.3476  -5.3476  -5.2147  -5.2147
     3.9771   4.1128   4.1128   4.2258   5.1647   5.1647   5.1647   5.1648
     5.3456   5.3457   5.3457   5.3458   5.4939   5.4939   5.5210   5.5210
     5.6661   5.6662   5.7464   5.7465   5.8541   5.8542   5.8543   5.8544
     5.9499   5.9500   5.9577   5.9850   5.9850   5.9850   5.9851   6.3196
     6.3197   6.3954   6.3954   6.7806   6.7807   7.0722   7.0722   7.0723
     7.0724   7.5583   7.5584   7.5584   7.5584   7.5878   7.5878   7.5879
     7.5880   7.9958   7.9958   8.0227   8.0227   8.2370   8.2371   8.2371
     8.2371   8.2820   8.2821   8.4815   8.4816   8.4820   8.4820   8.5258
     8.5258   8.5258   8.5259   8.5422   8.5798   8.5798   8.5798   8.5798
     8.7918   8.7918   9.3266   9.3266   9.4165   9.4167   9.6432   9.6432
    10.0366  10.1042  10.1042  10.3117  10.3117  10.3118  10.3118  10.3557
    10.3557  10.5069  10.5069  10.5071  10.5071  10.7228  10.7228  10.8968
    10.8969  10.8969  10.8970  11.0762  11.1799  11.1801  11.2171  11.2273
    11.2276  11.2629  11.2631  11.4310  11.4946  11.7133  11.7136  11.7983
    11.7986  11.8270  11.8272  11.8272  11.8274  12.0143  12.0145  12.0145
    12.0147  12.2575  12.2575  12.2576  12.2578  12.3419  12.3420  12.8440
    12.8442  13.1565  13.1566  13.2987  13.2988  13.2989  13.2990  13.7707
    13.7709  13.8433  13.8435  14.0992  14.0993  14.0993  14.0993  14.2367
    14.6590  14.6592  14.6592  14.6593  14.7561  15.7952  15.7954  15.8413
    15.8415  15.9480  15.9481  16.1890  16.1892  16.6227  16.6228  17.0445
    17.0446  17.0447  17.0448  17.1893  17.1894  17.1894  17.1895  17.6602
    17.7124  17.7125  17.7259  17.7260  17.9915  17.9915  17.9915  17.9916
    19.0866  20.5854  20.5855  20.5855  20.5856  22.0935  22.0935  22.2200
    22.2200  22.6156  22.6157  22.7942  22.7943  22.8789  22.8789  22.9739
    22.9739  22.9739  22.9739  23.1503  23.1506  23.1539  23.1541  23.1543
    23.1543  23.1543  23.1545  23.1547  23.1548  23.1550  23.1553  23.1556
    23.1557  23.1559  23.1562  23.3070  23.3071  23.4727  23.4727  23.4727
    23.4728  23.8958  23.8959  23.8959  23.8959  25.1480  25.1481  25.2136
    25.7894  25.7894  25.8523  25.8523  25.8775  25.8775  26.2880  26.2880
    26.5741  26.6969  26.6969  26.6969  26.6970  26.8530  26.8737  26.8737
    26.8738  26.8738  27.4246  27.4247  27.4247  27.4247  27.5685  27.5685
    27.8770  27.8771  28.4222  28.4222  28.4222  28.4222  28.6486  28.6486
    28.8776  28.9093  28.9093  28.9093  28.9094  28.9285  29.8829  29.9356
    29.9356  30.1976  30.1977  30.3925  30.3925  30.3925  30.3926  31.0095
    31.0095  31.0096  31.0096  31.1572  31.1572  31.1573  31.1573  31.1604
    31.1604  31.5925  31.5926  31.9648  32.2829  32.2829  32.4908  32.4908
    32.4909  32.4909  32.8330  32.8331  32.8724  32.8724  33.6500  33.6500
    33.6500  33.6500  34.4023  34.4023  34.4137  34.4138  34.4921  34.4922
    34.9058  34.9058  35.1721  35.1721  35.4354  35.4354  35.4354  35.4355
    35.6126  35.6126  35.9423  35.9424  36.2586  36.2586  36.4715  36.4716
    36.4716  36.4716  36.5269  36.9260  36.9261  37.4477  37.4478  37.4478
    37.4478  37.8274  37.8275  37.9180  37.9180  37.9180  37.9181  38.3860
    38.3860  38.3860  38.3860  38.5684  38.5685  38.8065  38.8065  38.8318
    38.8318  38.8319  38.8319  39.5898  39.5898  39.5903  39.6314  39.6315
    39.6496  39.6496  39.6496  39.6496  39.6704  39.7325  39.7326  40.1747
    40.1747  40.1747  40.1747  40.2156  40.2156  40.2732  40.2732  40.3989
    40.3990  40.3990  40.3990  40.4118  40.4119  40.5946  41.0565  41.5287
    41.6478  41.7920  41.7921  41.8386  41.8386  42.0825  42.0826  42.6027
    42.6027  42.6532  42.6532  42.6532  42.6532  42.6579  42.6579  42.6579
    42.6580  43.3596  43.3596  43.6962  43.6962  43.6962  43.6962  43.7640
[...]
    45.3083  45.6775  45.6775  45.6775  45.6776  45.9547  45.9547  46.0033
    46.0033  46.1794  46.1795  46.3101  46.8262  46.8262  47.3185  47.3185
    47.3463  47.3463  47.3464  47.3464  47.4950  47.4950  47.4951  47.4951
    47.7131  47.7132  47.7132  47.7133  47.7404  47.7404  47.7405  47.7405
    48.0106  48.0640  48.0640  48.0941  48.0942  48.1676  48.1677  48.3268
    48.3269  48.5743  48.5743  48.5743  48.5744  48.8230  48.8230  48.8231
    48.8231  48.8531  48.8531  48.9782  48.9899  48.9900  49.0161  49.0162
    49.2157  49.2157  49.2157  49.2157  49.5445  49.5445  49.5537  49.5537
    49.7833  49.7833  50.0115  50.0116  50.2311  50.2311  50.2311  50.2312
    50.5398  50.5398  50.7132  50.7132  50.7378  50.7378  50.8684  50.8685
    50.8685  50.8686  50.9177  50.9177  50.9177  50.9177  51.2337  51.7295
    51.8972  51.8973  51.9051  51.9053  52.0762  52.0762  52.2757  52.2757
    52.2757  52.2757  52.5419  52.5419  52.7426  52.7426  52.7426  52.7426
    52.9970  52.9970  53.0376  53.0376  53.0376  53.0376  53.0434  53.0434
    53.3758  53.3758  53.5046  53.5046  53.5046  53.5046  53.5181  53.5181

[...]

          k =-0.5000-0.5000 0.0000 ( 15136 PWs)   bands (ev):

[...]

 ------ SPIN DOWN ----------

[...]

          k =-0.5000-0.5000-0.7138 ( 15112 PWs)   bands (ev):

[...]

          k = 0.2500-0.2500-0.7138 ( 15148 PWs)   bands (ev):

   -36.7878 -36.7878 -36.7877 -36.7874 -36.7873 -36.7873 -36.7872 -36.7872
   -36.7871 -36.7870 -36.7869 -36.7869 -36.7862 -36.7862 -36.7857 -36.7855
   -36.7495 -36.7495 -36.7462 -36.7462 -36.7457 -36.7457 -36.7457 -36.7455
   -36.7439 -36.7438 -36.7422 -36.7421 -36.7420 -36.7420 -36.7408 -36.7407
   -36.5370 -36.5370 -36.5368 -36.5368 -36.5365 -36.5363 -36.5363 -36.5362
   -36.5362 -36.5362 -36.5362 -36.5360 -36.5360 -36.5360 -36.5359 -36.5357
    -6.8087  -6.8087  -6.4989  -6.4989  -6.4988  -6.4987  -6.4183  -6.4183
    -6.2480  -6.2480  -6.0493  -6.0492  -6.0490  -6.0489  -5.9863  -5.9862
    -5.8175  -5.8174  -5.8173  -5.8172  -5.6937  -5.6937  -5.6364  -5.6364
    -5.6364  -5.6364  -5.6276  -5.6276  -5.5893  -5.5892  -5.5086  -5.5085
     4.7417   4.7418   4.7665   4.7666   5.1175   5.1175   5.1301   5.1301
     5.1301   5.1301   5.1392   5.1392   5.7793   5.7794   5.7829   5.7829
     5.7830   5.7831   5.8982   5.8982   6.0045   6.0045   6.0045   6.0045
     6.0199   6.0199   6.1807   6.1807   6.1808   6.1809   6.2815   6.2815
     6.3752   6.3752   6.3752   6.3753   6.7481   6.7481   6.8857   6.8858
     7.0129   7.0130   7.0130   7.0130   7.0568   7.0568   7.5414   7.5415
     7.6436   7.6437   7.6913   7.6914   7.6914   7.6914   8.0354   8.0354
     8.0355   8.0355   8.1517   8.1518   8.5759   8.5760   8.5760   8.5760
     8.6274   8.6274   8.6725   8.6725   8.8346   8.8347   8.8649   8.8649
     8.9233   8.9233   8.9233   8.9234   9.1394   9.1394   9.2894   9.2894
     9.3372   9.3373   9.3595   9.3596   9.7038   9.7038   9.7039   9.7039
     9.9011   9.9011  10.3515  10.3515  10.3516  10.3516  10.6295  10.6296
    11.3400  11.3401  11.5681  11.5682  11.5682  11.5682  11.7892  11.7892
    11.8091  11.8091  12.0662  12.0662  12.1976  12.1976  12.1977  12.1977
    12.2377  12.2378  12.2946  12.2947  12.3177  12.3177  12.3178  12.3179
    12.4605  12.4605  12.6495  12.6496  12.6496  12.6497  12.7198  12.7198
    13.0661  13.0661  13.1648  13.1649  13.3012  13.3013  13.3013  13.3013
    13.3739  13.3739  13.6389  13.6389  13.6389  13.6391  14.0370  14.0371
    15.5010  15.5010  15.5011  15.5012  15.5674  15.5674  15.9023  15.9023
    15.9024  15.9025  15.9219  15.9220  16.1057  16.1057  16.4659  16.4659
    16.5726  16.5726  16.5816  16.5817  16.8986  16.8986  16.8986  16.8986
    17.1847  17.1847  17.7978  17.7978  17.7979  17.7980  17.8802  17.8803
    20.0020  20.0020  21.1228  21.1229  21.1229  21.1230  21.9026  21.9026
    22.6465  22.6466  22.6466  22.6467  23.0156  23.0157  23.0980  23.0980
    23.1546  23.1547  23.1548  23.1548  23.1548  23.1548  23.1549  23.1550
    23.1550  23.1551  23.1552  23.1552  23.1554  23.1557  23.1584  23.1585
    23.7434  23.7434  23.8722  23.8722  23.8824  23.8824  24.1253  24.1254
    24.1254  24.1255  24.5287  24.5287  24.5288  24.5288  24.7054  24.7054
    25.4702  25.4702  25.8071  25.8071  25.8071  25.8071  26.0619  26.0619
    26.1382  26.1382  26.6047  26.6048  26.6048  26.6048  26.8572  26.8573
    27.4344  27.4345  27.5913  27.5913  27.8059  27.8059  27.8059  27.8060
    28.0778  28.0778  28.1659  28.1659  28.1659  28.1660  28.2831  28.2832
    28.5176  28.5176  28.6373  28.6373  28.6496  28.6496  28.6496  28.6496
    28.9678  28.9679  29.5734  29.5734  29.5734  29.5734  29.7020  29.7020
    29.9194  29.9194  30.7072  30.7072  30.7072  30.7073  32.0108  32.0108
    32.0294  32.0294  32.0294  32.0294  32.6929  32.6929  33.1267  33.1267
    33.1267  33.1267  33.3667  33.3667  33.4476  33.4477  33.5153  33.5153
    34.4386  34.4386  34.4386  34.4386  34.6323  34.6324  35.0800  35.0800
    35.3163  35.3163  35.6605  35.6605  35.6606  35.6606  35.7250  35.7250
    35.7558  35.7558  35.9444  35.9445  35.9445  35.9445  36.0416  36.0416
    36.3850  36.3851  36.9016  36.9016  36.9016  36.9016  37.0122  37.0122
    37.0122  37.0123  37.0981  37.0981  37.6381  37.6381  38.4947  38.4948
    38.4948  38.4948  38.5740  38.5740  38.6795  38.6795  38.7454  38.7454
    38.7454  38.7454  38.8896  38.8896  39.0008  39.0008  39.0186  39.0186
    39.2391  39.2391  39.2979  39.2980  39.4060  39.4060  39.7153  39.7154
    39.7154  39.7154  39.8670  39.8670  39.9612  39.9612  39.9612  39.9612
    40.3515  40.3515  40.7344  40.7344  40.7344  40.7345  41.2128  41.2128
    41.5779  41.5780  41.9068  41.9068  42.0035  42.0035  42.3931  42.3932
    42.4118  42.4118  42.4118  42.4118  42.5698  42.5699  43.2641  43.2641
    43.2641  43.2642  43.3597  43.3597  43.3597  43.3597  43.5437  43.5437
[...]
    45.8230  45.8230  45.9244  45.9244  46.0806  46.0806  46.0806  46.0806
    46.5112  46.5112  46.5926  46.5926  46.5926  46.5926  46.6713  46.6713
    46.8379  46.8379  47.1304  47.1304  47.1626  47.1626  47.1626  47.1627
    47.3750  47.3751  47.6744  47.6744  47.7992  47.7992  47.7992  47.7992
    48.1585  48.1585  48.3538  48.3538  48.4953  48.4953  48.4953  48.4953
    48.6339  48.6340  48.8331  48.8332  48.9988  48.9988  48.9988  48.9989
    49.2891  49.2891  49.3310  49.3310  49.3310  49.3311  49.6094  49.6094
    49.7453  49.7453  49.8033  49.8033  49.8034  49.8034  49.8523  49.8523
    50.0252  50.0252  50.3343  50.3343  50.3343  50.3343  50.5269  50.5269
    50.6051  50.6051  51.0016  51.0016  51.0016  51.0016  51.0841  51.0842
    51.1472  51.1472  51.1472  51.1473  51.2986  51.2986  51.4715  51.4715
    51.5153  51.5153  51.7261  51.7261  51.7262  51.7262  52.1891  52.1891
    52.1891  52.1891  52.2493  52.2493  52.5487  52.5487  52.6631  52.6632
    52.7670  52.7670  52.8559  52.8559  52.8559  52.8559  53.2102  53.2102
    53.4824  53.4824  53.7332  53.7332  53.7332  53.7332  53.8133  53.8133

     the Fermi energy is    13.5791 ev

!    total energy              =   -4010.21395956 Ry
     Harris-Foulkes estimate   =   -4010.21396006 Ry
     estimated scf accuracy    <       0.00000054 Ry

     The total energy is the sum of the following terms:

     one-electron contribution =    -827.27925631 Ry
     hartree contribution      =     708.73707197 Ry
     xc contribution           =   -1105.23012100 Ry
     ewald contribution        =   -2786.44204143 Ry
     Hubbard energy            =       0.00000000 Ry
     smearing contrib. (-TS)   =       0.00038721 Ry

     total magnetization       =     0.00 Bohr mag/cell
     absolute magnetization    =     0.00 Bohr mag/cell

     convergence has been achieved in  21 iterations

     Writing output data file pwscf.save

     General routines

     Parallel routines
     Hubbard U routines

   This run was terminated on:   2:57:28   9Feb2014

   JOB DONE.
Running PBS batch system epilogue script
Job id: 266905.audhumbla.fysik.dtu.dk
Username: zhonxu
Groupname: campgst
Jobname: linear-response/IrO2-2-scf
Sessionid: 16938
Queuename: verylong
Accounting:
This job has allocated the following 16 nodes:
d010 d010 d010 d010 d010 d010 d010 d010 d006 d006 d006 d006 d006 d006 d006 d006
Finished epilogue job 266905.audhumbla.fysik.dtu.dk for zhonxu