     Program PWSCF v.5.0.2 (svn rev. 9656) starts on 10May2014 at  7:53: 8

     Current dimensions of program PWSCF are:
     Max number of different atomic species (ntypx) = 10
     Max number of k-points (npk) =  40000
     Max angular momentum in pseudopotentials (lmaxx) =  3
     Reading input from pwscf.in
Warning: card &CELL ignored
Warning: card / ignored

     Subspace diagonalization in iterative solution of the eigenvalue problem:
     a serial algorithm will be used

     bravais-lattice index     =            0
     lattice parameter (alat)  =      11.1872  a.u.
     unit-cell volume          =    7531.8600 (a.u.)^3
     number of atoms/cell      =           31
     number of atomic types    =            3
     number of electrons       =       222.00
     number of Kohn-Sham states=          333
     kinetic-energy cutoff     =      40.0000  Ry
     charge density cutoff     =     500.0000  Ry
     convergence threshold     =      1.0E-06
     mixing beta               =       0.7000
     number of iterations used =            8  plain     mixing
     Exchange-correlation      = SLA  PW   PBE  PBE ( 1 4 3 4 0)
     EXX-fraction              =        0.00
     nstep                     =           50

     celldm(1)=  11.187179  celldm(2)=   0.000000  celldm(3)=   0.000000
     celldm(4)=   0.000000  celldm(5)=   0.000000  celldm(6)=   0.000000

     crystal axes: (cart. coord. in units of alat)
               a(1) = (   1.000000   0.000000   0.000000 )
               a(2) = (   0.000000   1.180104   0.000000 )
               a(3) = (   0.000000   0.000000   4.558482 )

     reciprocal axes: (cart. coord. in units 2 pi/alat)
               b(1) = (  1.000000  0.000000  0.000000 )
               b(2) = (  0.000000  0.847383  0.000000 )
               b(3) = (  0.000000  0.000000  0.219371 )

     PseudoPot. # 1 for O  read from file:
     /home/camp/zhonxu/pseudo/o_pbe_v1.01.uspp.F.UPF
     MD5 check sum: 2bcb18d16ea4b960afae9ec6d52f22d2
     Pseudo is Ultrasoft + core correction, Zval =  6.0
     Generated by new atomic code, or converted to UPF format
     Using radial grid of  737 points,  5 beta functions with:
                l(1) =   0
                l(2) =   0
                l(3) =   1
                l(4) =   1
                l(5) =   2
     Q(r) pseudized with  8 coefficients,  rinner =    0.900   0.900   0.900
                                                       0.900   0.900

     PseudoPot. # 2 for Nb read from file:
     /home/camp/zhonxu/pseudo/nb_pbe_v1.uspp.F.UPF
     MD5 check sum: 573aab8a2fa660278ed4a62cd769473f
     Pseudo is Ultrasoft + core correction, Zval = 13.0
     Generated by new atomic code, or converted to UPF format
     Using radial grid of  887 points,  6 beta functions with:
                l(1) =   0
                l(2) =   0
                l(3) =   1
                l(4) =   1
                l(5) =   2
                l(6) =   2
     Q(r) pseudized with  6 coefficients,  rinner =    1.000   1.000   1.000
                                                       1.000   1.000

     PseudoPot. # 3 for H  read from file:
     /home/camp/zhonxu/pseudo/h_pbe_v1.uspp.F.UPF
     MD5 check sum: 3408e3ff4ec8b0a4e358431e7e038a48
     Pseudo is Ultrasoft, Zval =  1.0
     Generated by new atomic code, or converted to UPF format
     Using radial grid of  615 points,  2 beta functions with:
                l(1) =   0
                l(2) =   0
     Q(r) pseudized with  8 coefficients,  rinner =    0.700

     atomic species   valence    mass     pseudopotential
        O0             6.00    15.99940     O ( 1.00)
        Nb1           13.00    92.90640     Nb( 1.00)
        H2             1.00     1.00794     H ( 1.00)

     Simplified LDA+U calculation (l_max = 2) with parameters (eV):
     atomic species    L          U    alpha       J0     beta
        Nb1            2     0.0000   0.0000   0.0000   0.0000

     No symmetry found

   Cartesian axes

     site n.     atom                  positions (alat units)
         1           O0  tau(   1) = (   0.0000000   0.0000000   1.6934306  )
         2           O0  tau(   2) = (   0.0000000   0.5900519   1.7719732  )
         3           Nb1 tau(   3) = (   0.2500000   0.5900519   2.0266100  )
         4           Nb1 tau(   4) = (   0.0000000   0.0000000   2.0234647  )
         5           O0  tau(   5) = (   0.2500000   0.9322821   2.0339492  )
         6           O0  tau(   6) = (   0.2500000   0.2478218   2.0339492  )
         7           O0  tau(   7) = (   0.0000000   0.5900519   2.2822497  )
         8           O0  tau(   8) = (   0.0000000   0.0000000   2.3837671  )
         9           Nb1 tau(   9) = (   0.2500000   0.0000000   2.6303810  )
        10           Nb1 tau(  10) = (   0.0000000   0.5900519   2.5986084  )
        11           O0  tau(  11) = (   0.2500000   0.8378738   2.6271901  )
        12           O0  tau(  12) = (   0.2500000   0.3422301   2.6272357  )
        13           O0  tau(  13) = (   0.0000000   0.0000000   2.8322306  )
        14           O0  tau(  14) = (   0.5000000   0.0000000   1.6959377  )
        15           O0  tau(  15) = (   0.5000000   0.5900519   1.7815005  )
        16           Nb1 tau(  16) = (   0.7500000   0.5900519   2.0269291  )
        17           Nb1 tau(  17) = (   0.5000000   0.0000000   2.0281143  )
        18           O0  tau(  18) = (   0.7500000   0.9322821   2.0339492  )
        19           O0  tau(  19) = (   0.7500000   0.2478218   2.0339492  )
        20           O0  tau(  20) = (   0.5000000   0.5900519   2.2572692  )
        21           O0  tau(  21) = (   0.5000000   0.0000000   2.3822628  )
        22           Nb1 tau(  22) = (   0.7500000   0.0000000   2.6309736  )
        23           Nb1 tau(  23) = (   0.5000000   0.5900519   2.6831227  )
        24           O0  tau(  24) = (   0.7500000   0.8378738   2.6265975  )
        25           O0  tau(  25) = (   0.7500000   0.3422301   2.6265975  )
        26           O0  tau(  26) = (   0.5000000   0.0000000   2.8320027  )
        27           H2  tau(  27) = (  -0.0004900   0.5918693   1.6065459  )
        28           H2  tau(  28) = (   0.4994900   0.5917631   1.6163466  )
        29           H2  tau(  29) = (   0.1504600   0.0004366   1.6207228  )
        30           H2  tau(  30) = (   0.6496400   0.0004366   1.6219536  )
        31           O0  tau(  31) = (   0.5000300   0.5900519   2.9731333  )

     number of k points=    10  Methfessel-Paxton smearing, width (Ry)=  0.0100
                       cart. coord. in units 2pi/alat
        k(    1) = (   0.0000000   0.0000000   0.0000000), wk =   0.1250000
        k(    2) = (   0.0000000   0.2118458   0.0000000), wk =   0.2500000
        k(    3) = (   0.0000000  -0.4236915   0.0000000), wk =   0.1250000
        k(    4) = (   0.2500000   0.0000000   0.0000000), wk =   0.2500000
        k(    5) = (   0.2500000   0.2118458   0.0000000), wk =   0.2500000
        k(    6) = (   0.2500000  -0.4236915   0.0000000), wk =   0.2500000
        k(    7) = (  -0.5000000   0.0000000   0.0000000), wk =   0.1250000
        k(    8) = (  -0.5000000   0.2118458   0.0000000), wk =   0.2500000
        k(    9) = (  -0.5000000  -0.4236915   0.0000000), wk =   0.1250000
        k(   10) = (  -0.2500000   0.2118458   0.0000000), wk =   0.2500000

     Largest allocated arrays     est. size (Mb)     dimensions
     Largest temporary arrays     est. size (Mb)     dimensions

     Check: negative/imaginary core charge=   -0.000003    0.000000

     Initial potential from superposition of free atoms
     Check: negative starting charge=   -0.003810

     starting charge  221.97807, renormalised to  222.00000

     negative rho (up, down):  0.381E-02 0.000E+00
     Number of +U iterations with fixed ns =  0
     Starting occupations:
 --- enter write_ns ---
 LDA+U parameters:
U( 2)     =  0.00000000
alpha( 2) =  0.00000000
atom    3   Tr[ns(na)] =   3.00000
    eigenvalues:
  0.300  0.300  0.300  0.300  0.300
    eigenvectors:
  1.000  0.000  0.000  0.000  0.000
  0.000  1.000  0.000  0.000  0.000
  0.000  0.000  1.000  0.000  0.000
  0.000  0.000  0.000  1.000  0.000
  0.000  0.000  0.000  0.000  1.000
    occupations:
  0.300  0.000  0.000  0.000  0.000
  0.000  0.300  0.000  0.000  0.000
  0.000  0.000  0.300  0.000  0.000
  0.000  0.000  0.000  0.300  0.000
  0.000  0.000  0.000  0.000  0.300
atom    4   Tr[ns(na)] =   3.00000
    eigenvalues:
  0.300  0.300  0.300  0.300  0.300
    eigenvectors:
  1.000  0.000  0.000  0.000  0.000
  0.000  1.000  0.000  0.000  0.000
  0.000  0.000  1.000  0.000  0.000
  0.000  0.000  0.000  1.000  0.000
  0.000  0.000  0.000  0.000  1.000
    occupations:
  0.300  0.000  0.000  0.000  0.000
  0.000  0.300  0.000  0.000  0.000
  0.000  0.000  0.300  0.000  0.000
  0.000  0.000  0.000  0.300  0.000
  0.000  0.000  0.000  0.000  0.300
atom    9   Tr[ns(na)] =   3.00000
    eigenvalues:
  0.300  0.300  0.300  0.300  0.300
    eigenvectors:
  1.000  0.000  0.000  0.000  0.000
  0.000  1.000  0.000  0.000  0.000
  0.000  0.000  1.000  0.000  0.000
  0.000  0.000  0.000  1.000  0.000
  0.000  0.000  0.000  0.000  1.000
    occupations:
  0.300  0.000  0.000  0.000  0.000
  0.000  0.300  0.000  0.000  0.000
  0.000  0.000  0.300  0.000  0.000
  0.000  0.000  0.000  0.300  0.000
  0.000  0.000  0.000  0.000  0.300
atom   10   Tr[ns(na)] =   3.00000
    eigenvalues:
  0.300  0.300  0.300  0.300  0.300
    eigenvectors:
  1.000  0.000  0.000  0.000  0.000
  0.000  1.000  0.000  0.000  0.000
  0.000  0.000  1.000  0.000  0.000
  0.000  0.000  0.000  1.000  0.000
  0.000  0.000  0.000  0.000  1.000
    occupations:
  0.300  0.000  0.000  0.000  0.000
  0.000  0.300  0.000  0.000  0.000
  0.000  0.000  0.300  0.000  0.000
  0.000  0.000  0.000  0.300  0.000
  0.000  0.000  0.000  0.000  0.300
atom   16   Tr[ns(na)] =   3.00000
    eigenvalues:
  0.300  0.300  0.300  0.300  0.300
    eigenvectors:
  1.000  0.000  0.000  0.000  0.000
  0.000  1.000  0.000  0.000  0.000
  0.000  0.000  1.000  0.000  0.000
  0.000  0.000  0.000  1.000  0.000
  0.000  0.000  0.000  0.000  1.000
    occupations:
  0.300  0.000  0.000  0.000  0.000
  0.000  0.300  0.000  0.000  0.000
  0.000  0.000  0.300  0.000  0.000
  0.000  0.000  0.000  0.300  0.000
  0.000  0.000  0.000  0.000  0.300
atom   17   Tr[ns(na)] =   3.00000
    eigenvalues:
  0.300  0.300  0.300  0.300  0.300
    eigenvectors:
  1.000  0.000  0.000  0.000  0.000
  0.000  1.000  0.000  0.000  0.000
  0.000  0.000  1.000  0.000  0.000
  0.000  0.000  0.000  1.000  0.000
  0.000  0.000  0.000  0.000  1.000
    occupations:
  0.300  0.000  0.000  0.000  0.000
  0.000  0.300  0.000  0.000  0.000
  0.000  0.000  0.300  0.000  0.000
  0.000  0.000  0.000  0.300  0.000
  0.000  0.000  0.000  0.000  0.300
atom   22   Tr[ns(na)] =   3.00000
    eigenvalues:
  0.300  0.300  0.300  0.300  0.300
    eigenvectors:
  1.000  0.000  0.000  0.000  0.000
  0.000  1.000  0.000  0.000  0.000
  0.000  0.000  1.000  0.000  0.000
  0.000  0.000  0.000  1.000  0.000
  0.000  0.000  0.000  0.000  1.000
    occupations:
  0.300  0.000  0.000  0.000  0.000
  0.000  0.300  0.000  0.000  0.000
[...]

     total energy              =   -1555.10958303 Ry
     Harris-Foulkes estimate   =   -1566.32399541 Ry
     estimated scf accuracy    <      14.23292798 Ry

     iteration #  2     ecut=    40.00 Ry     beta=0.70
     Davidson diagonalization with overlap
     ethr =  6.41E-03,  avg # of iterations =  2.0

[...]

     total energy              =   -1562.54927438 Ry
     Harris-Foulkes estimate   =   -1562.54927521 Ry
     estimated scf accuracy    <       0.00000500 Ry

     iteration # 22     ecut=    40.00 Ry     beta=0.70
     Davidson diagonalization with overlap
     ethr =  1.63E-09,  avg # of iterations =  1.0

     negative rho (up, down):  0.344E-02 0.000E+00

     End of self-consistent calculation
 --- enter write_ns ---
 LDA+U parameters:
U( 2)     =  0.00000000
alpha( 2) =  0.00000000
atom    3   Tr[ns(na)] =   5.24262
    eigenvalues:
  0.412  0.454  0.534  0.577  0.645
    eigenvectors:
  0.000  0.000  0.064  0.430  0.505
  0.000  0.000  0.903  0.094  0.003
  0.083  0.917  0.000  0.000  0.000
  0.000  0.000  0.033  0.476  0.491
  0.917  0.083  0.000  0.000  0.000
    occupations:
  0.608 -0.013  0.000 -0.036 -0.000
 -0.013  0.538 -0.000 -0.005  0.000
  0.000 -0.000  0.450 -0.000 -0.011
 -0.036 -0.005 -0.000  0.609  0.000
 -0.000  0.000 -0.011  0.000  0.415
atom    4   Tr[ns(na)] =   5.24254
    eigenvalues:
  0.423  0.456  0.548  0.576  0.619
    eigenvectors:
  0.000  0.005  0.000  0.995  0.000
  0.000  0.994  0.000  0.005  0.001
  1.000  0.000  0.000  0.000  0.000
  0.000  0.001  0.000  0.000  0.999
  0.000  0.000  1.000  0.000  0.000
    occupations:
  0.575  0.008  0.000  0.001  0.000
  0.008  0.457 -0.000 -0.004 -0.000
  0.000 -0.000  0.423  0.000  0.001
  0.001 -0.004  0.000  0.618  0.000
  0.000 -0.000  0.001  0.000  0.548
atom    9   Tr[ns(na)] =   5.26927
    eigenvalues:
  0.466  0.467  0.493  0.602  0.607
    eigenvectors:
  0.000  0.874  0.000  0.120  0.006
  0.000  0.000  0.000  0.049  0.951
  0.549  0.000  0.451  0.000  0.000
  0.000  0.126  0.000  0.832  0.042
  0.451  0.000  0.549  0.000  0.000
    occupations:
  0.484 -0.001 -0.000  0.045 -0.000
 -0.001  0.606 -0.000 -0.001  0.000
 -0.000 -0.000  0.478  0.000  0.013
  0.045 -0.001  0.000  0.586 -0.000
 -0.000  0.000  0.013 -0.000  0.481
atom   10   Tr[ns(na)] =   5.07241
    eigenvalues:
  0.399  0.488  0.511  0.548  0.590
    eigenvectors:
  0.000  0.000  0.975  0.000  0.025
  0.000  1.000  0.000  0.000  0.000
  1.000  0.000  0.000  0.000  0.000
  0.000  0.000  0.025  0.000  0.974
  0.000  0.000  0.000  1.000  0.000
    occupations:
  0.513  0.000  0.000  0.012 -0.000
  0.000  0.488  0.000  0.002 -0.000
  0.000  0.000  0.399 -0.000 -0.000
  0.012  0.002 -0.000  0.588 -0.000
 -0.000 -0.000 -0.000 -0.000  0.548
atom   16   Tr[ns(na)] =   5.24438
    eigenvalues:
  0.415  0.453  0.534  0.577  0.643
    eigenvectors:
  0.000  0.000  0.066  0.432  0.503
  0.000  0.000  0.901  0.096  0.003
  0.037  0.963  0.000  0.000  0.000
  0.000  0.000  0.034  0.472  0.494
  0.963  0.037  0.000  0.000  0.000
    occupations:
  0.607  0.013  0.000 -0.035  0.000
  0.013  0.538  0.000  0.005  0.000
  0.000  0.000  0.452 -0.000  0.007
 -0.035  0.005 -0.000  0.608 -0.000
  0.000  0.000  0.007 -0.000  0.416
atom   17   Tr[ns(na)] =   5.23869
    eigenvalues:
  0.425  0.464  0.547  0.578  0.605
    eigenvectors:
  0.000  0.005  0.000  0.995  0.000
  0.000  0.994  0.000  0.005  0.001
  1.000  0.000  0.000  0.000  0.000
  0.000  0.001  0.000  0.000  0.999
  0.000  0.000  1.000  0.000  0.000
    occupations:
  0.577  0.008  0.000  0.000  0.000
  0.008  0.465 -0.000 -0.004 -0.000
  0.000 -0.000  0.425  0.000  0.001
  0.000 -0.004  0.000  0.605 -0.000
  0.000 -0.000  0.001 -0.000  0.547
atom   22   Tr[ns(na)] =   5.27010
    eigenvalues:
  0.466  0.468  0.493  0.602  0.606
    eigenvectors:
  0.000  0.875  0.000  0.119  0.005
  0.000  0.000  0.000  0.041  0.959
  0.547  0.000  0.453  0.000  0.000
  0.000  0.125  0.000  0.840  0.035
  0.453  0.000  0.547  0.000  0.000
    occupations:
  0.485  0.001 -0.000  0.045 -0.000
  0.001  0.606 -0.000  0.001  0.000
 -0.000 -0.000  0.478  0.000 -0.013
  0.045  0.001  0.000  0.586  0.000
 -0.000  0.000 -0.013  0.000  0.480
atom   23   Tr[ns(na)] =   5.32331
    eigenvalues:
  0.496  0.512  0.521  0.534  0.599
    eigenvectors:
  0.000  0.000  0.000  0.007  0.993
  0.000  0.000  0.999  0.001  0.000
  1.000  0.000  0.000  0.000  0.000
  0.000  0.000  0.001  0.992  0.007
  0.000  1.000  0.000  0.000  0.000
    occupations:
  0.598 -0.000 -0.000 -0.006 -0.000
 -0.000  0.521 -0.000 -0.000  0.000
 -0.000 -0.000  0.496 -0.000  0.000
 -0.006 -0.000 -0.000  0.534 -0.000
 -0.000  0.000  0.000 -0.000  0.512
N of occupied +U levels =  41.9033203
 --- exit write_ns ---

          k = 0.0000 0.0000 0.0000 ( 32167 PWs)   bands (ev):

   -56.8377 -56.7479 -56.4517 -56.3460 -56.3039 -56.2669 -56.2244 -55.6498
   -33.7401 -33.0463 -32.9782 -32.9491 -32.8829 -32.8688 -32.8442 -32.7863
   -32.7024 -32.6954 -32.6876 -32.6352 -32.5656 -32.5602 -32.4292 -32.3603
   -32.3303 -32.2390 -32.2100 -32.1402 -32.0347 -32.0058 -31.6979 -31.6914
   -21.0617 -20.5998 -19.9123 -19.6124 -19.5327 -19.4882 -19.3642 -19.2793
   -19.1758 -18.9836 -18.8418 -18.6729 -18.6215 -18.3203 -18.2670 -18.1854
   -18.0522 -17.9991 -16.8031  -9.5020  -8.8808  -8.2762  -7.8343  -7.6951
    -7.3987  -6.9012  -6.7884  -6.7460  -6.7027  -6.6478  -6.6193  -6.4841
    -6.3358  -6.2827  -6.2358  -6.1323  -5.9135  -5.8165  -5.7210  -5.6393
    -5.6208  -5.5444  -5.5292  -5.4937  -5.2873  -5.1723  -4.9979  -4.7945
    -4.6511  -4.5771  -4.4517  -4.3213  -4.3078  -4.1654  -4.1008  -4.0505
    -3.9388  -3.8339  -3.8200  -3.7796  -3.7307  -3.6314  -3.5285  -3.4434
    -3.4284  -3.4051  -3.2606  -3.2405  -3.2255  -3.1515  -3.1018  -3.0418
    -3.0047  -2.7088  -2.6997  -2.3658  -0.7493  -0.5132  -0.4760   0.7250
     0.8608   1.0056   1.0316   1.1025   1.2143   1.2536   1.3117   1.3982
     1.6487   1.8441   1.9070   2.1644   2.2458   2.3103   2.4102   2.6070
     3.0321   3.1033   3.1374   3.1491   3.2107   3.7561   3.8356   4.0236
     4.3674   4.4697   4.5644   4.7024   4.8964   5.0491   5.1142   5.2980
     5.5365   5.5901   5.6081   5.6902   5.6912   5.7471   5.7926   5.9696
     6.0960   6.1812   6.4021   6.5228   6.7276   6.7528   6.8477   7.0366
     7.0862   7.3753   7.5208   7.5583   7.7872   7.8143   7.9910   8.0521
     8.1610   8.1637   8.3230   8.4103   8.4733   8.4940   8.7073   8.7483
     8.8128   8.8568   8.8666   8.9311   9.1290   9.1953   9.3577   9.4627
     9.4699   9.5577   9.5946   9.6611   9.7839   9.7918   9.8358   9.8621
     9.9399  10.0591  10.2976  10.3136  10.6013  10.6911  10.8178  10.9008
    10.9792  11.1470  11.1521  11.1749  11.2479  11.2667  11.2897  11.3543
    11.3675  11.4787  11.6233  11.6945  11.7177  11.7847  11.7858  11.9171
    11.9980  12.0008  12.1097  12.1421  12.2229  12.3067  12.3944  12.4450
    12.4725  12.5068  12.5919  12.7058  12.8627  12.8721  12.9460  12.9600
    13.0500  13.1873  13.2425  13.3608  13.5560  13.6424  13.6666  13.6770
    13.8252  13.8943  13.9126  14.0289  14.0460  14.0899  14.1704  14.1962
    14.2593  14.2768  14.6504  14.7465  14.8149  14.8712  15.0235  15.0629
    15.1106  15.1417  15.2623  15.2780  15.3491  15.4277  15.5280  15.5685
    15.6698  15.6821  15.7780  15.8108  15.9847  16.1539  16.1593  16.1631
    16.2899  16.4681  16.4952  16.6945  16.7041  16.7554  16.8125  16.8621
    16.9105  16.9396  17.0164  17.1158  17.1675  17.2876  17.3404  17.3837
    17.4024  17.5347  17.5593  17.5928  17.8640  17.8748  18.0957  18.1473
    18.1634  18.2133  18.2361  18.3157  18.3347  18.3471  18.4326  18.4890
    18.6277  18.6913  18.7233  18.7453  18.8469  18.9058  18.9698  19.0720
    19.1961  19.2549  19.2975  19.3930  19.4384  19.4892  19.4980  19.5915
    19.6289  19.7327  19.8639  19.8982  19.9592  20.0186  20.0969  20.1517
    20.1912  20.2442  20.2553  20.2743  20.3896

[...]

          k = 0.2500-0.4237 0.0000 ( 32188 PWs)   bands (ev):

[...]

          k =-0.5000 0.0000 0.0000 ( 32166 PWs)   bands (ev):

[...]

          k =-0.2500 0.2118 0.0000 ( 32165 PWs)   bands (ev):

   -56.8247 -56.7612 -56.4511 -56.3345 -56.2927 -56.2783 -56.2361 -55.6506
   -33.6022 -33.0219 -32.9568 -32.9249 -32.8687 -32.8661 -32.8092 -32.7801
   -32.7740 -32.6604 -32.6231 -32.6127 -32.5695 -32.5617 -32.4343 -32.3660
   -32.3007 -32.2369 -32.2331 -32.2075 -32.1616 -32.1082 -31.7761 -31.7004
   -21.0215 -20.5779 -19.8185 -19.5210 -19.4559 -19.3165 -19.2609 -19.1798
   -19.0888 -19.0745 -19.0549 -18.5779 -18.5051 -18.4783 -18.4195 -18.3398
   -18.2009 -18.0570 -16.8029  -9.4354  -8.9162  -8.0668  -7.4650  -7.2283
    -7.1403  -7.0342  -6.9874  -6.8252  -6.7124  -6.6431  -6.5917  -6.4583
    -6.3373  -6.3081  -6.2763  -6.0719  -6.0399  -5.9580  -5.8454  -5.6503
    -5.5409  -5.4468  -5.3130  -5.1618  -4.9998  -4.9067  -4.8288  -4.7503
    -4.6769  -4.6398  -4.5116  -4.4733  -4.4661  -4.3895  -4.3702  -4.3141
    -4.1567  -4.0919  -4.0199  -3.9563  -3.8700  -3.7741  -3.7104  -3.6283
    -3.5362  -3.4591  -3.3920  -3.2971  -3.2749  -3.1943  -3.0749  -2.9917
    -2.9673  -2.8275  -2.7260  -2.4826  -0.1695   0.0924   0.2354   0.4484
     0.5243   0.7422   1.1594   1.2076   1.2581   1.5044   1.5881   1.6437
     1.7737   1.9253   2.0349   2.0859   2.1719   2.2373   2.3196   2.4400
     2.5391   2.6168   2.7938   2.8467   3.2341   3.5355   4.0869   4.1572
     4.4263   4.6100   4.6712   4.6962   4.8864   4.9863   5.0995   5.1131
     5.2370   5.2906   5.4105   5.6206   5.6671   5.7582   5.9842   6.1184
     6.2220   6.2882   6.5309   6.5597   6.5836   6.6173   6.7930   6.9078
     6.9178   7.0703   7.1988   7.2958   7.4264   7.4923   7.7896   7.9176
     8.0024   8.0283   8.1140   8.1700   8.2521   8.5050   8.6305   8.6930
     8.8093   8.8909   8.9989   9.0697   9.1583   9.2562   9.2668   9.4692
     9.5376   9.5913   9.7420   9.8537   9.9026  10.0021  10.0633  10.1438
    10.2559  10.3702  10.5582  10.7164  10.7566  10.8902  10.9658  10.9942
    11.1165  11.1449  11.2063  11.2760  11.3902  11.4376  11.4961  11.5418
    11.6435  11.7556  11.8903  11.8943  12.0031  12.1073  12.1249  12.1951
    12.2519  12.3419  12.3779  12.4624  12.6002  12.6607  12.6867  12.7343
    12.7563  12.8565  12.9532  12.9818  13.0330  13.0889  13.2192  13.2740
    13.3470  13.3758  13.5077  13.6144  13.6976  13.7416  13.7866  13.8447
    13.9074  13.9388  13.9960  14.1211  14.1506  14.2872  14.3732  14.3944
    14.4713  14.5809  14.6536  14.7686  14.9001  14.9201  15.0241  15.0956
    15.1879  15.2494  15.2882  15.3158  15.3819  15.4411  15.5229  15.5662
    15.6427  15.6932  15.7838  15.8547  15.9089  15.9931  16.0297  16.0759
    16.1974  16.2636  16.3584  16.3908  16.4599  16.4889  16.5652  16.6701
    16.7193  16.7683  16.8498  16.9339  17.0091  17.1020  17.1359  17.2122
    17.2780  17.3415  17.3641  17.4191  17.4662  17.5703  17.6124  17.7023
    17.7467  17.8437  17.9437  17.9653  18.0750  18.1368  18.1865  18.3765
    18.3836  18.4283  18.4662  18.5342  18.6097  18.6475  18.6915  18.7661
    18.8536  18.9133  18.9609  19.0769  19.1351  19.1678  19.2148  19.3190
    19.3551  19.3960  19.4855  19.5168  19.5868  19.6405  19.6525  19.6826
    19.7516  19.8780  19.9031  19.9944  20.0638

     the Fermi energy is     0.4226 ev

!    total energy              =   -1562.54927420 Ry
     Harris-Foulkes estimate   =   -1562.54927490 Ry
     estimated scf accuracy    <       0.00000074 Ry

     The total energy is the sum of the following terms:

     one-electron contribution =  -18845.84035805 Ry
     hartree contribution      =    9448.33303112 Ry
     xc contribution           =    -286.80503775 Ry
     ewald contribution        =    8121.76342360 Ry
     Hubbard energy            =       0.00000000 Ry
     smearing contrib. (-TS)   =      -0.00033313 Ry

     convergence has been achieved in  22 iterations

     Forces acting on atoms (Ry/au):

     negative rho (up, down):  0.344E-02 0.000E+00
     atom    1 type  1   force =     0.00228981   -0.00004605   -0.00032112
     atom    2 type  1   force =    -0.00046119    0.00025814    0.00019107
     atom    3 type  2   force =    -0.02016501   -0.00026707    0.00030466
     atom    4 type  2   force =    -0.00493693    0.00005753   -0.00000185
     atom    5 type  1   force =    -0.00816305   -0.01113603    0.00054728
     atom    6 type  1   force =    -0.00818323    0.01110900    0.00055275
     atom    7 type  1   force =     0.00016539    0.00005913    0.00006560
     atom    8 type  1   force =     0.00213090    0.00000899   -0.00046430
     atom    9 type  2   force =    -0.00413446    0.00000219   -0.00014790
     atom   10 type  2   force =    -0.00025657   -0.00001004    0.00041771
     atom   11 type  1   force =    -0.01926824   -0.02348785   -0.00014233
     atom   12 type  1   force =    -0.01927785    0.02349411   -0.00018197
     atom   13 type  1   force =     0.00069951   -0.00000990   -0.00010788
     atom   14 type  1   force =     0.00038192   -0.00004941    0.00022180
     atom   15 type  1   force =    -0.00061600    0.00018700   -0.00035403
     atom   16 type  2   force =     0.02078370   -0.00025470    0.00020721
     atom   17 type  2   force =    -0.00404401    0.00006891    0.00043854
     atom   18 type  1   force =     0.00944251   -0.01063123    0.00054873
     atom   19 type  1   force =     0.00932141    0.01060149    0.00055089
     atom   20 type  1   force =     0.00032997    0.00011111    0.00007073
     atom   21 type  1   force =     0.00175997    0.00000580   -0.00075948
     atom   22 type  2   force =     0.00348853    0.00001938    0.00005493
     atom   23 type  2   force =     0.00063484   -0.00000187   -0.00008714
     atom   24 type  1   force =     0.01930644   -0.02351093   -0.00034487
     atom   25 type  1   force =     0.01928997    0.02349236   -0.00034786
     atom   26 type  1   force =    -0.00000442   -0.00000569    0.00008855
     atom   27 type  3   force =    -0.00000544   -0.00004500    0.00009602
     atom   28 type  3   force =     0.00000083   -0.00002938   -0.00072316
     atom   29 type  3   force =    -0.00020720    0.00000161   -0.00011362
     atom   30 type  3   force =    -0.00031270    0.00000100   -0.00012355
     atom   31 type  1   force =     0.00001063    0.00000739   -0.00013542

     Total force =     0.001974     Total SCF correction =     0.002728
     SCF correction compared to forces is large: reduce conv_thr to get better values

     BFGS Geometry Optimization

     bfgs converged in   1 scf cycles and   0 bfgs steps
     (criteria: energy < 0.10E-03, force < 0.10E-02)

     End of BFGS Geometry Optimization

     Final energy   =   -1562.5492742044 Ry
Begin final coordinates

ATOMIC_POSITIONS (crystal)
O0       0.000000000   0.000000000   0.371490000    0   0   1
O0       0.000000000   0.500000000   0.388720000    0   0   1
Nb1      0.250000000   0.500000000   0.444580000    0   0   1
Nb1      0.000000000   0.000000000   0.443890000    0   0   1
O0       0.250000000   0.790000000   0.446190000    0   0   1
O0       0.250000000   0.210000000   0.446190000    0   0   1
O0       0.000000000   0.500000000   0.500660000    0   0   1
O0       0.000000000   0.000000000   0.522930000    0   0   1
Nb1      0.250000000   0.000000000   0.577030000    0   0   1
Nb1      0.000000000   0.500000000   0.570060000    0   0   1
O0       0.250000000   0.710000000   0.576330000    0   0   1
O0       0.250000000   0.290000000   0.576340000    0   0   1
O0       0.000000000   0.000000000   0.621310000    0   0   1
O0       0.500000000   0.000000000   0.372040000    0   0   1
O0       0.500000000   0.500000000   0.390810000    0   0   1
Nb1      0.750000000   0.500000000   0.444650000    0   0   1
Nb1      0.500000000   0.000000000   0.444910000    0   0   1
O0       0.750000000   0.790000000   0.446190000    0   0   1
O0       0.750000000   0.210000000   0.446190000    0   0   1
O0       0.500000000   0.500000000   0.495180000    0   0   1
O0       0.500000000   0.000000000   0.522600000    0   0   1
Nb1      0.750000000   0.000000000   0.577160000    0   0   1
Nb1      0.500000000   0.500000000   0.588600000    0   0   1
O0       0.750000000   0.710000000   0.576200000    0   0   1
O0       0.750000000   0.290000000   0.576200000    0   0   1
O0       0.500000000   0.000000000   0.621260000    0   0   1
H2      -0.000490000   0.501540000   0.352430000
H2       0.499490000   0.501450000   0.354580000
H2       0.150460000   0.000370000   0.355540000
H2       0.649640000   0.000370000   0.355810000
O0       0.500030000   0.500000000   0.652220000
End final coordinates

     General routines

     Parallel routines
     Hubbard U routines

   This run was terminated on:   9: 6:12  10May2014

   JOB DONE.