     Program PWSCF v.5.0.2 (svn rev. 9656) starts on 10May2014 at  3: 9:53

     Current dimensions of program PWSCF are:
     Max number of different atomic species (ntypx) = 10
     Max number of k-points (npk) =  40000
     Max angular momentum in pseudopotentials (lmaxx) =  3
     Reading input from pwscf.in
Warning: card &CELL ignored
Warning: card / ignored

     Subspace diagonalization in iterative solution of the eigenvalue problem:
     a serial algorithm will be used

     bravais-lattice index     =            0
     lattice parameter (alat)  =      12.2076  a.u.
     unit-cell volume          =    7496.5096 (a.u.)^3
     number of atoms/cell      =           33
     number of atomic types    =            3
     number of electrons       =       253.00
     number of Kohn-Sham states=          379
     kinetic-energy cutoff     =      40.0000  Ry
     charge density cutoff     =     500.0000  Ry
     convergence threshold     =      1.0E-06
     mixing beta               =       0.7000
     number of iterations used =            8  plain     mixing
     Exchange-correlation      = SLA  PW   PBE  PBE ( 1 4 3 4 0)
     EXX-fraction              =        0.00
     nstep                     =           50

     celldm(1)=  12.207631  celldm(2)=   0.000000  celldm(3)=   0.000000
     celldm(4)=   0.000000  celldm(5)=   0.000000  celldm(6)=   0.000000

     crystal axes: (cart. coord. in units of alat)
               a(1) = (   1.000000   0.000000   0.000000 )
               a(2) = (   0.000000   1.004836   0.000000 )
               a(3) = (   0.000000   0.000000   4.100811 )

     reciprocal axes: (cart. coord. in units 2 pi/alat)
               b(1) = (  1.000000  0.000000  0.000000 )
               b(2) = (  0.000000  0.995187  0.000000 )
               b(3) = (  0.000000  0.000000  0.243854 )

     PseudoPot. # 1 for O  read from file:
     /home/camp/zhonxu/pseudo/o_pbe_v1.01.uspp.F.UPF
     MD5 check sum: 2bcb18d16ea4b960afae9ec6d52f22d2
     Pseudo is Ultrasoft + core correction, Zval =  6.0
     Generated by new atomic code, or converted to UPF format
     Using radial grid of  737 points,  5 beta functions with:
                l(1) =   0
                l(2) =   0
                l(3) =   1
                l(4) =   1
                l(5) =   2
     Q(r) pseudized with  8 coefficients,  rinner =    0.900   0.900   0.900
                                                       0.900   0.900

     PseudoPot. # 2 for Pt read from file:
     /home/camp/zhonxu/pseudo/pt_pbe_v1.uspp.F.UPF
     MD5 check sum: 4c71d6ad5ef119f1eb26a4d0b7884226
     Pseudo is Ultrasoft + core correction, Zval = 16.0
     Generated by new atomic code, or converted to UPF format
     Using radial grid of  985 points,  6 beta functions with:
                l(1) =   0
                l(2) =   0
                l(3) =   1
                l(4) =   1
                l(5) =   2
                l(6) =   2
     Q(r) pseudized with  8 coefficients,  rinner =    1.300   1.300   1.300
                                                       1.300   1.300

     PseudoPot. # 3 for H  read from file:
     /home/camp/zhonxu/pseudo/h_pbe_v1.uspp.F.UPF
     MD5 check sum: 3408e3ff4ec8b0a4e358431e7e038a48
     Pseudo is Ultrasoft, Zval =  1.0
     Generated by new atomic code, or converted to UPF format
     Using radial grid of  615 points,  2 beta functions with:
                l(1) =   0
                l(2) =   0
     Q(r) pseudized with  8 coefficients,  rinner =    0.700

     atomic species   valence    mass     pseudopotential
        O0             6.00    15.99940     O ( 1.00)
        Pt1           16.00   195.08000     Pt( 1.00)
        H2             1.00     1.00794     H ( 1.00)

     No symmetry found

   Cartesian axes

     site n.     atom                  positions (alat units)
         1           O0  tau(   1) = (   0.0000000   0.0000000   1.5457188  )
         2           O0  tau(   2) = (   0.0000000   0.5024180   1.6369208  )
         3           Pt1 tau(   3) = (   0.2500000   0.5024180   1.8413872  )
         4           Pt1 tau(   4) = (   0.0000000   0.0000000   1.8534436  )
         5           O0  tau(   5) = (   0.2500000   0.8139171   1.8157162  )
         6           O0  tau(   6) = (   0.2500000   0.1909188   1.8824364  )
         7           O0  tau(   7) = (   0.0000000   0.5024180   2.0315829  )
         8           O0  tau(   8) = (   0.0000000   0.0000000   2.1708464  )
         9           Pt1 tau(   9) = (   0.2500000   0.0000000   2.3625593  )
        10           Pt1 tau(  10) = (   0.0000000   0.5024180   2.3549318  )
        11           O0  tau(  11) = (   0.2500000   0.6933368   2.3911010  )
        12           O0  tau(  12) = (   0.2500000   0.3114991   2.3934384  )
        13           O0  tau(  13) = (   0.0000000   0.0000000   2.5491052  )
        14           O0  tau(  14) = (   0.5000000   0.0000000   1.5457188  )
        15           O0  tau(  15) = (   0.5000000   0.5024180   1.6369208  )
        16           Pt1 tau(  16) = (   0.7500000   0.5024180   1.8413872  )
        17           Pt1 tau(  17) = (   0.5000000   0.0000000   1.8534436  )
        18           O0  tau(  18) = (   0.7500000   0.8139171   1.8157162  )
        19           O0  tau(  19) = (   0.7500000   0.1909188   1.8824364  )
        20           O0  tau(  20) = (   0.5000000   0.5024180   2.0315829  )
        21           O0  tau(  21) = (   0.5000000   0.0000000   2.1708464  )
        22           Pt1 tau(  22) = (   0.7500000   0.0000000   2.3625593  )
        23           Pt1 tau(  23) = (   0.5000000   0.5024180   2.3549318  )
        24           O0  tau(  24) = (   0.7500000   0.6933368   2.3911010  )
        25           O0  tau(  25) = (   0.7500000   0.3114991   2.3934384  )
        26           O0  tau(  26) = (   0.5000000   0.0000000   2.5491052  )
        27           H2  tau(  27) = (  -0.0000500   0.6431553   1.5728661  )
        28           H2  tau(  28) = (   0.4999500   0.6431553   1.5728661  )
        29           H2  tau(  29) = (   0.1440700   0.0315318   1.5048747  )
        30           H2  tau(  30) = (   0.6440700   0.0315318   1.5048747  )
        31           O0  tau(  31) = (   0.5001100   0.5024180   2.6647481  )
        32           O0  tau(  32) = (   0.4999400   0.3220801   2.7753880  )
        33           H2  tau(  33) = (   0.4999900   0.3679106   2.9210078  )

     number of k points=    10  Methfessel-Paxton smearing, width (Ry)=  0.0100
                       cart. coord. in units 2pi/alat
        k(    1) = (   0.0000000   0.0000000   0.0000000), wk =   0.1250000
        k(    2) = (   0.0000000   0.2487968   0.0000000), wk =   0.2500000
        k(    3) = (   0.0000000  -0.4975937   0.0000000), wk =   0.1250000
        k(    4) = (   0.2500000   0.0000000   0.0000000), wk =   0.2500000
        k(    5) = (   0.2500000   0.2487968   0.0000000), wk =   0.2500000
        k(    6) = (   0.2500000  -0.4975937   0.0000000), wk =   0.2500000
        k(    7) = (  -0.5000000   0.0000000   0.0000000), wk =   0.1250000
        k(    8) = (  -0.5000000   0.2487968   0.0000000), wk =   0.2500000
        k(    9) = (  -0.5000000  -0.4975937   0.0000000), wk =   0.1250000
        k(   10) = (  -0.2500000   0.2487968   0.0000000), wk =   0.2500000

     Largest allocated arrays     est. size (Mb)     dimensions
     Largest temporary arrays     est. size (Mb)     dimensions

     Check: negative/imaginary core charge=   -0.000003    0.000000

     Initial potential from superposition of free atoms
     Check: negative starting charge=   -1.536960

     starting charge  248.99983, renormalised to  253.00000

     negative rho (up, down):  0.156E+01 0.000E+00
     Starting wfc are  181 randomized atomic wfcs

     Self-consistent Calculation

     iteration #  1     ecut=    40.00 Ry     beta=0.70
     Davidson diagonalization with overlap
     ethr =  1.00E-02,  avg # of iterations =  5.3

     negative rho (up, down):  0.151E+01 0.000E+00

     total energy              =   -2300.69236545 Ry
     Harris-Foulkes estimate   =   -2320.00850876 Ry
     estimated scf accuracy    <      23.48822157 Ry

[...]

     End of self-consistent calculation

          k = 0.0000 0.0000 0.0000 ( 32157 PWs)   bands (ev):

   -55.2305 -55.1702 -55.1201 -55.1155 -55.0906 -55.0677 -55.0621 -55.0470
   -55.0432 -55.0080 -54.9258 -54.9205 -54.8970 -54.8324 -54.8235 -54.7868
   -54.7795 -54.7735 -54.7659 -54.7549 -54.7445 -54.3542 -54.1113 -53.8247
   -24.5256 -21.4059 -21.0183 -20.5724 -20.4076 -19.7892 -19.7104 -19.6702
   -19.5664 -19.5530 -19.5222 -19.4390 -19.3993 -19.3845 -19.1581 -19.1093
   -19.0063 -18.2342 -18.0903 -17.0130  -9.7882  -9.6256  -9.5228  -9.2174
    -8.7771  -8.4855  -8.4405  -8.3673  -8.3261  -8.2631  -8.1878  -8.1208
    -8.1181  -8.0760  -7.9959  -7.9912  -7.7934  -7.5620  -7.5345  -7.4133
    -7.0774  -6.9198  -6.8988  -6.7544  -6.7059  -6.6837  -6.3396  -6.2921
    -5.9329  -5.8680  -5.5925  -5.4232  -5.3463  -5.2716  -5.1830  -5.0721
    -5.0295  -4.9890  -4.8748  -4.8561  -4.7374  -4.6262  -4.5896  -4.4673
    -4.3495  -4.3286  -4.3238  -4.1316  -4.0868  -4.0460  -4.0354  -4.0094
    -3.9987  -3.9432  -3.8784  -3.8233  -3.8010  -3.6301  -3.6013  -3.5572
    -3.3669  -3.3131  -3.2186  -3.0406  -3.0350  -2.9633  -2.7672  -2.7013
    -2.4624  -2.2538  -2.2335  -2.1140  -2.0448  -1.8748  -1.6908  -1.5650
    -1.3505  -1.3320  -1.2888  -1.1797  -1.0101  -0.8397  -0.5957  -0.5847
    -0.4086   0.2184   0.2295   0.2820   0.4846   0.5131   0.8584   1.2998
     1.3027   1.5495   2.0533   2.0577   2.0888   2.4388   2.6053   2.9574
     3.5905   4.0030   4.3345   4.7210   5.1236   5.6736   5.8027   6.2989
     6.4114   6.4604   6.9102   6.9947   7.0820   7.0960   7.3461   7.3899
     7.4027   7.5279   7.5432   7.5500   7.7079   7.8154   7.8552   7.9093
     7.9191   7.9970   8.1036   8.1271   8.1616   8.2339   8.3546   8.3846
     8.4714   8.5757   8.6916   8.8172   8.9018   9.0207   9.1143   9.1704
     9.3486   9.5558   9.6195   9.8338   9.8457   9.8896  10.0519  10.1939
    10.2476  10.3638  10.3985  10.4349  10.5356  10.7325  10.7828  10.8645
    10.9141  10.9550  11.0524  11.0635  11.1431  11.1538  11.2610  11.3147
    11.4110  11.4299  11.4942  11.5077  11.5962  11.6899  11.7043  11.7449
    11.8869  11.9284  12.0503  12.1111  12.2494  12.2958  12.3262  12.3675
    12.4258  12.5467  12.6048  12.6211  12.6993  12.7248  13.0525  13.0665
    13.1396  13.2966  13.3542  13.4506  13.5549  13.6884  13.7705  13.8478
    13.8977  13.9187  13.9398  14.1214  14.2590  14.3633  14.3887  14.5159
    14.5435  14.8546  14.8676  14.9729  15.1017  15.1327  15.1833  15.2111
    15.2894  15.3418  15.4418  15.5260  15.6266  15.6788  15.7574  15.8877
    15.9293  16.0025  16.0639  16.2177  16.3546  16.3844  16.5838  16.6446
    16.7430  16.7924  16.8362  16.9383  16.9865  17.0135  17.0206  17.0556
    17.0655  17.1014  17.2013  17.2289  17.2361  17.2839  17.2903  17.3347
    17.4057  17.4617  17.5793  17.6106  17.6954  17.7972  17.8147  17.9269
    18.0209  18.1066  18.1806  18.2087  18.2887  18.3874  18.4030  18.4510
[...]
     atom   22 type  2   force =    -0.00027867   -0.00130935   -0.00523554
     atom   23 type  2   force =    -0.00003522   -0.04464366    0.03700971
     atom   24 type  1   force =     0.01243323    0.00281320   -0.01380508
     atom   25 type  1   force =     0.01217672   -0.00060332   -0.01723647
     atom   26 type  1   force =    -0.00110094   -0.01308763   -0.01218886
     atom   27 type  3   force =     0.00002675    0.00134966    0.00152829
     atom   28 type  3   force =     0.00000871   -0.00066144    0.00057848
     atom   29 type  3   force =    -0.00054528    0.00034513    0.00036005
     atom   30 type  3   force =    -0.00071913    0.00050018    0.00038092
     atom   31 type  1   force =     0.00012191    0.10971147    0.00048934
     atom   32 type  1   force =    -0.00013741   -0.07885484    0.00027413
     atom   33 type  3   force =     0.00000594    0.01966266   -0.00063811

     Total force =     0.149371     Total SCF correction =     0.002241

     BFGS Geometry Optimization

     number of scf cycles    =   1
     number of bfgs steps    =   0

     energy   new            =   -2314.1806652033 Ry

     new trust radius        =       0.1097125634 bohr
     new conv_thr            =       0.0000010000 Ry

ATOMIC_POSITIONS (crystal)
O0       0.000000000   0.000000000   0.376903099    0   0   1
O0       0.000000000   0.500000000   0.399313365    0   0   1
Pt1      0.250000000   0.500000000   0.449138097    0   0   1
Pt1      0.000000000   0.000000000   0.452035937    0   0   1
O0       0.250000000   0.810000000   0.442758776    0   0   1
O0       0.250000000   0.190000000   0.459027195    0   0   1
O0       0.000000000   0.500000000   0.495456651    0   0   1
O0       0.000000000   0.000000000   0.529383711    0   0   1
Pt1      0.250000000   0.000000000   0.576016068    0   0   1
Pt1      0.000000000   0.500000000   0.574296653    0   0   1
O0       0.250000000   0.690000000   0.582804322    0   0   1
O0       0.250000000   0.310000000   0.583305896    0   0   1
O0       0.000000000   0.000000000   0.621629552    0   0   1
O0       0.500000000   0.000000000   0.376912045    0   0   1
O0       0.500000000   0.500000000   0.399015065    0   0   1
Pt1      0.750000000   0.500000000   0.449139361    0   0   1
Pt1      0.500000000   0.000000000   0.451980883    0   0   1
O0       0.750000000   0.810000000   0.442759013    0   0   1
O0       0.750000000   0.190000000   0.459026066    0   0   1
O0       0.500000000   0.500000000   0.496015322    0   0   1
O0       0.500000000   0.000000000   0.529352380    0   0   1
Pt1      0.750000000   0.000000000   0.576015417    0   0   1
Pt1      0.500000000   0.500000000   0.574999289    0   0   1
O0       0.750000000   0.690000000   0.582804236    0   0   1
O0       0.750000000   0.310000000   0.583305692    0   0   1
O0       0.500000000   0.000000000   0.621366521    0   0   1
H2      -0.000047808   0.640170027   0.383580528
H2       0.499950713   0.640006078   0.383561555
H2       0.144025333   0.031408136   0.366977192
H2       0.644011091   0.031420775   0.366977609
O0       0.500110000   0.508943870   0.649819775    0   1   1
O0       0.499940000   0.314101616   0.676795476    0   1   1
H2       0.499990000   0.367742934   0.712287253    0   1   1

     Check: negative starting charge=   -1.536960
     NEW-OLD atomic charge density approx. for the potential

     Check: negative/imaginary core charge=   -0.000003    0.000000
     Check: negative starting charge=   -1.535898

[...]

     energy   old            =   -2314.1806652033 Ry
     energy   new            =   -2314.1938981461 Ry

     CASE: energy  _new < energy  _old

[...]

     Total force =     0.012539     Total SCF correction =     0.001422
     SCF correction compared to forces is large: reduce conv_thr to get better values

[...]

     Threshold (ethr) on eigenvalues was too large:
     Diagonalizing with lowered threshold

     Davidson diagonalization with overlap
     ethr =  3.57E-08,  avg # of iterations =  1.0

[...]

     Total force =     0.003049     Total SCF correction =     0.000184

     number of scf cycles    =  34
     number of bfgs steps    =  33

     energy   old            =   -2314.2177007873 Ry
     energy   new            =   -2314.2177231267 Ry

     CASE: energy  _new < energy  _old

     new trust radius        =       0.0111798305 bohr
     new conv_thr            =       0.0000000100 Ry

ATOMIC_POSITIONS (crystal)
O0       0.000000000   0.000000000   0.377830426    0   0   1
O0       0.000000000   0.500000000   0.401754526    0   0   1
Pt1      0.250000000   0.500000000   0.451247751    0   0   1
Pt1      0.000000000   0.000000000   0.452848330    0   0   1
O0       0.250000000   0.810000000   0.443502152    0   0   1
O0       0.250000000   0.190000000   0.460009273    0   0   1
O0       0.000000000   0.500000000   0.496731386    0   0   1
O0       0.000000000   0.000000000   0.529664429    0   0   1
Pt1      0.250000000   0.000000000   0.575848052    0   0   1
Pt1      0.000000000   0.500000000   0.575461005    0   0   1
O0       0.250000000   0.690000000   0.567419119    0   0   1
O0       0.250000000   0.310000000   0.586070542    0   0   1
O0       0.000000000   0.000000000   0.621411260    0   0   1
O0       0.500000000   0.000000000   0.377612011    0   0   1
O0       0.500000000   0.500000000   0.400773903    0   0   1
Pt1      0.750000000   0.500000000   0.451252286    0   0   1
Pt1      0.500000000   0.000000000   0.452620975    0   0   1
O0       0.750000000   0.810000000   0.443523707    0   0   1
O0       0.750000000   0.190000000   0.459987264    0   0   1
O0       0.500000000   0.500000000   0.498145418    0   0   1
O0       0.500000000   0.000000000   0.529381663    0   0   1
Pt1      0.750000000   0.000000000   0.575847864    0   0   1
Pt1      0.500000000   0.500000000   0.576204556    0   0   1
O0       0.750000000   0.690000000   0.567404756    0   0   1
O0       0.750000000   0.310000000   0.586075851    0   0   1
O0       0.500000000   0.000000000   0.620864823    0   0   1
H2       0.000024237   0.639875700   0.386028106
H2       0.500063753   0.640488971   0.385447900
H2       0.143372420   0.033774273   0.367790823
H2       0.643084380   0.035291762   0.367652907
O0       0.500110000   0.556227648   0.648734183    0   1   1
O0       0.499940000   0.366959614   0.677738758    0   1   1
H2       0.499990000   0.428433514   0.711873996    0   1   1

     Check: negative starting charge=   -1.535550
     NEW-OLD atomic charge density approx. for the potential

     Check: negative/imaginary core charge=   -0.000003    0.000000
     Check: negative starting charge=   -1.535339

[...]

     Self-consistent Calculation

[...]

     Threshold (ethr) on eigenvalues was too large:
     Diagonalizing with lowered threshold

     Davidson diagonalization with overlap
     ethr =  3.21E-08,  avg # of iterations =  1.5

[...]

     total energy              =   -2314.21773519 Ry
     Harris-Foulkes estimate   =   -2314.21773519 Ry
     estimated scf accuracy    <       0.00000002 Ry

     iteration # 16     ecut=    40.00 Ry     beta=0.70
     Davidson diagonalization with overlap
     ethr =  6.05E-12,  avg # of iterations =  1.0

     negative rho (up, down):  0.158E+01 0.000E+00

     End of self-consistent calculation

[...]

          k = 0.2500-0.4976 0.0000 ( 32026 PWs)   bands (ev):

[...]

          k =-0.2500 0.2488 0.0000 ( 32025 PWs)   bands (ev):

   -55.2933 -55.2881 -55.2490 -55.1829 -55.1674 -55.1610 -55.1583 -55.1331
   -55.1306 -55.0948 -55.0051 -54.9850 -54.9810 -54.9220 -54.9158 -54.8821
   -54.8770 -54.8386 -54.8314 -54.8204 -54.8161 -54.4199 -54.1827 -53.8560
   -23.4993 -21.4002 -21.0366 -20.4955 -20.2733 -19.9843 -19.8477 -19.8101
   -19.6711 -19.6309 -19.5599 -19.5130 -19.4585 -19.4183 -19.3012 -19.2681
   -19.2114 -18.4045 -18.2766 -17.2760  -9.4614  -9.2010  -9.0886  -8.9957
    -8.7296  -8.6273  -8.5918  -8.4825  -8.3555  -8.3163  -8.2658  -8.0789
    -8.0626  -7.9839  -7.9092  -7.8342  -7.7986  -7.7020  -7.4646  -7.2764
    -7.1813  -7.0240  -6.9656  -6.8900  -6.7226  -6.5429  -6.2726  -6.1873
    -6.0566  -6.0163  -5.9776  -5.9083  -5.8497  -5.7204  -5.6507  -5.6145
    -5.5772  -5.4167  -5.3264  -5.2515  -5.1430  -5.0210  -4.9670  -4.8525
    -4.7384  -4.5953  -4.4936  -4.3111  -4.2780  -4.1768  -4.1470  -3.9859
    -3.9333  -3.8077  -3.6820  -3.6214  -3.4893  -3.4032  -3.2967  -3.2191
    -3.1958  -3.0708  -2.9676  -2.9206  -2.9031  -2.7688  -2.7036  -2.6569
    -2.6396  -2.5773  -2.3511  -2.2581  -2.0014  -1.8209  -1.7503  -1.5646
    -1.5151  -1.4387  -1.3809  -1.2730  -1.0846  -0.9449  -0.9286  -0.7870
    -0.3646  -0.1735  -0.0229   0.4092   0.6002   0.8922   1.0892   1.3684
     1.4402   1.5941   1.6270   1.9086   2.0546   2.0979   2.3921   3.4511
     3.7462   4.1208   4.5840   4.9004   5.1369   5.5922   5.7085   5.7710
     6.0146   6.2012   6.3444   6.5057   6.5457   6.7575   6.8688   6.9312
     7.0236   7.1041   7.2978   7.4726   7.6190   7.6510   7.7869   7.9031
     7.9543   8.0434   8.2167   8.2606   8.4269   8.4794   8.5566   8.6801
     8.7920   8.8274   8.8929   8.9401   9.1486   9.1864   9.3051   9.4144
     9.5370   9.5905   9.6673   9.7750   9.8596   9.9942  10.0513  10.1128
    10.2059  10.2980  10.4024  10.4960  10.5931  10.6517  10.7259  10.7756
    10.9420  10.9995  11.1232  11.2151  11.3058  11.3747  11.4362  11.5674
    11.6434  11.7265  11.8330  11.8920  11.9518  12.0247  12.0807  12.1549
    12.2460  12.2737  12.3674  12.4369  12.5712  12.6480  12.7095  12.7471
    12.8259  12.8814  12.9633  13.0016  13.1724  13.2432  13.3109  13.4100
    13.5165  13.5698  13.6344  13.6934  13.7749  13.8059  13.9136  14.0054
    14.0979  14.1539  14.2307  14.3457  14.4146  14.4465  14.5700  14.7129
    14.7513  14.7928  14.8866  14.9630  15.0624  15.1296  15.1785  15.2561
    15.3252  15.3375  15.4084  15.4498  15.5085  15.5740  15.6221  15.6660
    15.7497  15.8265  15.8561  15.8943  15.9811  16.0345  16.1140  16.1432
    16.2189  16.2762  16.3416  16.4351  16.5132  16.5839  16.7345  16.7698
    16.8167  16.8881  16.9226  16.9302  16.9689  17.0183  17.0478  17.0888
    17.1364  17.1600  17.1743  17.1804  17.1840  17.2261  17.2831  17.3173
    17.3628  17.4124  17.4638  17.4928  17.6052  17.6132  17.6754  17.7775
    17.8663  17.9548  17.9873  18.0653  18.0844  18.1231  18.2623  18.3520
    18.3814  18.3977  18.4723  18.5545  18.6083  18.6509  18.7191  18.8367
    18.9206  18.9495  19.0180  19.0982  19.1178  19.1842  19.3055  19.3723
    19.4345  19.5138  19.5569  19.6353  19.6619  19.8207  19.9609  19.9993
    20.0858  20.1453  20.1866  20.2321  20.2731  20.3108  20.3425  20.3984
    20.5055  20.5618  20.6520  20.7031  20.7416  20.7952  20.8230  20.8552
    20.9296  20.9882  21.0454  21.0723  21.1509  21.2225  21.2982  21.3310
    21.3764  21.4927  21.5056  21.5868  21.6138  21.6810  21.7767  21.8636
    21.9257  21.9784  22.0650  22.1493  22.2045  22.2757  22.3168  22.3450
    22.4148  22.4715  22.5563

     the Fermi energy is    -0.8934 ev

!    total energy              =   -2314.21773518 Ry
     Harris-Foulkes estimate   =   -2314.21773519 Ry
     estimated scf accuracy    <          4.0E-09 Ry

     The total energy is the sum of the following terms:

     one-electron contribution =  -24123.66935325 Ry
     hartree contribution      =   12111.04077110 Ry
     xc contribution           =    -579.96620146 Ry
     ewald contribution        =   10278.37712551 Ry
     smearing contrib. (-TS)   =      -0.00007708 Ry

     convergence has been achieved in  16 iterations

     Forces acting on atoms (Ry/au):

     negative rho (up, down):  0.158E+01 0.000E+00
     atom    1 type  1   force =    -0.00825587   -0.00445682   -0.00055360
     atom    2 type  1   force =     0.00013509    0.00427599   -0.00086608
     atom    3 type  2   force =     0.00534713    0.00633725    0.00002462
     atom    4 type  2   force =     0.01062599    0.00345681   -0.00039576
     atom    5 type  1   force =     0.00101765   -0.00498749   -0.00017740
     atom    6 type  1   force =     0.00016651   -0.00134526   -0.00011864
     atom    7 type  1   force =     0.00012265   -0.00241030    0.00039684
     atom    8 type  1   force =    -0.00410160    0.00054900   -0.00032667
     atom    9 type  2   force =     0.00624205    0.00434235   -0.00013092
     atom   10 type  2   force =    -0.00007559   -0.02102356    0.00010077
     atom   11 type  1   force =    -0.00394197    0.00195408    0.00006411
     atom   12 type  1   force =    -0.01327673    0.01080445    0.00013638
     atom   13 type  1   force =    -0.00114686   -0.00775134   -0.00057143
     atom   14 type  1   force =    -0.00810311   -0.00429151   -0.00018789
     atom   15 type  1   force =     0.00015399    0.00255545    0.00094732
     atom   16 type  2   force =    -0.00621288    0.00643163    0.00002763
     atom   17 type  2   force =     0.01021659    0.00484538   -0.00000894
     atom   18 type  1   force =     0.00122151   -0.00501076   -0.00020706
     atom   19 type  1   force =    -0.00028668   -0.00125500   -0.00013010
     atom   20 type  1   force =     0.00003538   -0.00346896   -0.00022218
     atom   21 type  1   force =    -0.00391917    0.00218856    0.00030464
     atom   22 type  2   force =    -0.00251547    0.00429101   -0.00014464
     atom   23 type  2   force =     0.00005971    0.00598800    0.00041867
     atom   24 type  1   force =     0.00397176    0.00197595    0.00004354
     atom   25 type  1   force =     0.01335744    0.01087603    0.00009051
     atom   26 type  1   force =    -0.00113299   -0.01505801   -0.00010483
     atom   27 type  3   force =     0.00000187    0.00053537   -0.00005269
     atom   28 type  3   force =     0.00001542   -0.00045741    0.00023067
     atom   29 type  3   force =     0.00023407    0.00004595    0.00014509
     atom   30 type  3   force =     0.00003865   -0.00006615   -0.00020369
     atom   31 type  1   force =     0.00004180    0.00000558    0.00061688
     atom   32 type  1   force =    -0.00003998   -0.00019786    0.00069223
     atom   33 type  3   force =     0.00000366    0.00032159    0.00016264

     Total force =     0.002227     Total SCF correction =     0.000298
     SCF correction compared to forces is large: reduce conv_thr to get better values

     bfgs converged in  35 scf cycles and  34 bfgs steps
     (criteria: energy < 0.10E-03, force < 0.10E-02)

     End of BFGS Geometry Optimization

     Final energy   =   -2314.2177351845 Ry
Begin final coordinates

ATOMIC_POSITIONS (crystal)
O0       0.000000000   0.000000000   0.377830426    0   0   1
O0       0.000000000   0.500000000   0.401754526    0   0   1
Pt1      0.250000000   0.500000000   0.451247751    0   0   1
Pt1      0.000000000   0.000000000   0.452848330    0   0   1
O0       0.250000000   0.810000000   0.443502152    0   0   1
O0       0.250000000   0.190000000   0.460009273    0   0   1
O0       0.000000000   0.500000000   0.496731386    0   0   1
O0       0.000000000   0.000000000   0.529664429    0   0   1
Pt1      0.250000000   0.000000000   0.575848052    0   0   1
Pt1      0.000000000   0.500000000   0.575461005    0   0   1
O0       0.250000000   0.690000000   0.567419119    0   0   1
O0       0.250000000   0.310000000   0.586070542    0   0   1
O0       0.000000000   0.000000000   0.621411260    0   0   1
O0       0.500000000   0.000000000   0.377612011    0   0   1
O0       0.500000000   0.500000000   0.400773903    0   0   1
Pt1      0.750000000   0.500000000   0.451252286    0   0   1
Pt1      0.500000000   0.000000000   0.452620975    0   0   1
O0       0.750000000   0.810000000   0.443523707    0   0   1
O0       0.750000000   0.190000000   0.459987264    0   0   1
O0       0.500000000   0.500000000   0.498145418    0   0   1
O0       0.500000000   0.000000000   0.529381663    0   0   1
Pt1      0.750000000   0.000000000   0.575847864    0   0   1
Pt1      0.500000000   0.500000000   0.576204556    0   0   1
O0       0.750000000   0.690000000   0.567404756    0   0   1
O0       0.750000000   0.310000000   0.586075851    0   0   1
O0       0.500000000   0.000000000   0.620864823    0   0   1
H2       0.000024237   0.639875700   0.386028106
H2       0.500063753   0.640488971   0.385447900
H2       0.143372420   0.033774273   0.367790823
H2       0.643084380   0.035291762   0.367652907
O0       0.500110000   0.556227648   0.648734183    0   1   1
O0       0.499940000   0.366959614   0.677738758    0   1   1
H2       0.499990000   0.428433514   0.711873996    0   1   1
End final coordinates

     General routines

     Parallel routines

   This run was terminated on:  14:18:30  11May2014

   JOB DONE.