     Program PWSCF v.5.0.2 (svn rev. 9656) starts on 27May2014 at  8:26:18

     Current dimensions of program PWSCF are:
     Max number of different atomic species (ntypx) = 10
     Max number of k-points (npk) =  40000
     Max angular momentum in pseudopotentials (lmaxx) =  3
     Reading input from pwscf.in
Warning: card &CELL ignored
Warning: card / ignored

     Subspace diagonalization in iterative solution of the eigenvalue problem:
     a serial algorithm will be used

     bravais-lattice index     =            0
     lattice parameter (alat)  =      11.2250  a.u.
     unit-cell volume          =    9585.4248 (a.u.)^3
     number of atoms/cell      =           51
     number of atomic types    =            3
     number of electrons       =       397.00
     number of Kohn-Sham states=          571
     kinetic-energy cutoff     =      40.0000  Ry
     charge density cutoff     =     500.0000  Ry
     convergence threshold     =      1.0E-06
     mixing beta               =       0.3000
     number of iterations used =            8  plain     mixing
     Exchange-correlation      = SLA  PW   PBE  PBE ( 1 4 3 4 0)
     EXX-fraction              =        0.00
     nstep                     =           50

     celldm(1)=  11.224973  celldm(2)=   0.000000  celldm(3)=   0.000000
     celldm(4)=   0.000000  celldm(5)=   0.000000  celldm(6)=   0.000000

     crystal axes: (cart. coord. in units of alat)
               a(1) = (   1.000000   0.000000   0.000000 )
               a(2) = (   0.000000   1.107086   0.000000 )
               a(3) = (   0.000000   0.000000   6.121726 )

     reciprocal axes: (cart. coord. in units 2 pi/alat)
               b(1) = (  1.000000  0.000000  0.000000 )
               b(2) = (  0.000000  0.903272  0.000000 )
               b(3) = (  0.000000  0.000000  0.163353 )

     PseudoPot. # 1 for O  read from file:
     /home/camp/zhonxu/pseudo/o_pbe_v1.01.uspp.F.UPF
     MD5 check sum: 2bcb18d16ea4b960afae9ec6d52f22d2
     Pseudo is Ultrasoft + core correction, Zval =  6.0
     Generated by new atomic code, or converted to UPF format
     Using radial grid of  737 points,  5 beta functions with:
                l(1) =   0
                l(2) =   0
                l(3) =   1
                l(4) =   1
                l(5) =   2
     Q(r) pseudized with  8 coefficients,  rinner =    0.900   0.900   0.900
                                                       0.900   0.900

     PseudoPot. # 2 for Ti read from file:
     /home/camp/zhonxu/pseudo/ti_pbe_v1.uspp.F.UPF
     MD5 check sum: bcc8f6961b3b91f0cac3ca967d22d0fb
     Pseudo is Ultrasoft + core correction, Zval = 12.0
     Generated by new atomic code, or converted to UPF format
     Using radial grid of  851 points,  6 beta functions with:
                l(1) =   0
                l(2) =   0
                l(3) =   1
                l(4) =   1
                l(5) =   2
                l(6) =   2
     Q(r) pseudized with  6 coefficients,  rinner =    1.000   1.000   1.000
                                                       1.000   1.000

     PseudoPot. # 3 for H  read from file:
     /home/camp/zhonxu/pseudo/h_pbe_v1.uspp.F.UPF
     MD5 check sum: 3408e3ff4ec8b0a4e358431e7e038a48
     Pseudo is Ultrasoft, Zval =  1.0
     Generated by new atomic code, or converted to UPF format
     Using radial grid of  615 points,  2 beta functions with:
                l(1) =   0
                l(2) =   0
     Q(r) pseudized with  8 coefficients,  rinner =    0.700

     atomic species   valence    mass     pseudopotential
        O0             6.00    15.99940     O ( 1.00)
        Ti1           12.00    47.88000     Ti( 1.00)
        H2             1.00     1.00794     H ( 1.00)

      2 Sym. Ops. (no inversion) found

   Cartesian axes

     site n.     atom                  positions (alat units)
         1           O0  tau(   1) = (   0.0000000   0.5535432   2.0202309  )
         2           Ti1 tau(   2) = (   0.2500000   0.5535432   2.2305735  )
         3           Ti1 tau(   3) = (   0.0000000   0.0000000   2.2305735  )
         4           O0  tau(   4) = (   0.2500000   0.8967400   2.2305735  )
         5           O0  tau(   5) = (   0.2500000   0.2103464   2.2305735  )
         6           O0  tau(   6) = (   0.0000000   0.5535432   2.4409160  )
         7           O0  tau(   7) = (   0.0000000   0.0000000   2.5737574  )
         8           Ti1 tau(   8) = (   0.2500000   0.0000000   2.7841000  )
         9           Ti1 tau(   9) = (   0.0000000   0.5535432   2.7841000  )
        10           O0  tau(  10) = (   0.2500000   0.7638896   2.7841000  )
        11           O0  tau(  11) = (   0.2500000   0.3431968   2.7841000  )
        12           O0  tau(  12) = (   0.0000000   0.0000000   2.9944425  )
        13           O0  tau(  13) = (   0.0000000   0.5535432   3.1319977  )
        14           Ti1 tau(  14) = (   0.2500000   0.5535432   3.3288112  )
        15           Ti1 tau(  15) = (   0.0000000   0.0000000   3.3672556  )
        16           O0  tau(  16) = (   0.2500000   0.8873962   3.3437482  )
        17           O0  tau(  17) = (   0.2500000   0.2196902   3.3437482  )
        18           O0  tau(  18) = (   0.0000000   0.5535432   3.5641916  )
        19           O0  tau(  19) = (   0.0000000   0.0000000   3.6800146  )
        20           Ti1 tau(  20) = (   0.2500000   0.0000000   3.9334541  )
        21           Ti1 tau(  21) = (   0.0000000   0.5535432   3.8694821  )
        22           O0  tau(  22) = (   0.2500000   0.7608340   3.9259244  )
        23           O0  tau(  23) = (   0.2500000   0.3462523   3.9259244  )
        24           O0  tau(  24) = (   0.0000000   0.0000000   4.1134329  )
        25           O0  tau(  25) = (   0.5000000   0.5535432   2.0202309  )
        26           Ti1 tau(  26) = (   0.7500000   0.5535432   2.2305735  )
        27           Ti1 tau(  27) = (   0.5000000   0.0000000   2.2305735  )
        28           O0  tau(  28) = (   0.7500000   0.8967400   2.2305735  )
        29           O0  tau(  29) = (   0.7500000   0.2103464   2.2305735  )
        30           O0  tau(  30) = (   0.5000000   0.5535432   2.4409160  )
        31           O0  tau(  31) = (   0.5000000   0.0000000   2.5737574  )
        32           Ti1 tau(  32) = (   0.7500000   0.0000000   2.7841000  )
        33           Ti1 tau(  33) = (   0.5000000   0.5535432   2.7841000  )
        34           O0  tau(  34) = (   0.7500000   0.7638896   2.7841000  )
        35           O0  tau(  35) = (   0.7500000   0.3431968   2.7841000  )
        36           O0  tau(  36) = (   0.5000000   0.0000000   2.9944425  )
        37           O0  tau(  37) = (   0.5000000   0.5535432   3.1319977  )
        38           Ti1 tau(  38) = (   0.7500000   0.5535432   3.3288112  )
        39           Ti1 tau(  39) = (   0.5000000   0.0000000   3.3672556  )
        40           O0  tau(  40) = (   0.7500000   0.8873962   3.3437482  )
        41           O0  tau(  41) = (   0.7500000   0.2196902   3.3437482  )
        42           O0  tau(  42) = (   0.5000000   0.5535432   3.5641916  )
        43           O0  tau(  43) = (   0.5000000   0.0000000   3.6800146  )
        44           Ti1 tau(  44) = (   0.7500000   0.0000000   3.9334541  )
        45           Ti1 tau(  45) = (   0.5000000   0.5535432   3.8694821  )
        46           O0  tau(  46) = (   0.7500000   0.7608340   3.9259244  )
        47           O0  tau(  47) = (   0.7500000   0.3462523   3.9259244  )
        48           O0  tau(  48) = (   0.5000000   0.0000000   4.1134329  )
        49           O0  tau(  49) = (   0.5000000   0.5535432   4.2605992  )
        50           O0  tau(  50) = (   0.5000000   0.3574118   4.3679130  )
        51           H2  tau(  51) = (   0.5000000   0.4072639   4.5251190  )

     number of k points=     9  Methfessel-Paxton smearing, width (Ry)=  0.0100
                       cart. coord. in units 2pi/alat
        k(    1) = (   0.0000000   0.0000000   0.0000000), wk =   0.1250000
        k(    2) = (   0.0000000   0.2258180   0.0000000), wk =   0.2500000
        k(    3) = (   0.0000000  -0.4516359   0.0000000), wk =   0.1250000
        k(    4) = (   0.2500000   0.0000000   0.0000000), wk =   0.2500000
        k(    5) = (   0.2500000   0.2258180   0.0000000), wk =   0.5000000
        k(    6) = (   0.2500000  -0.4516359   0.0000000), wk =   0.2500000
        k(    7) = (  -0.5000000   0.0000000   0.0000000), wk =   0.1250000
        k(    8) = (  -0.5000000   0.2258180   0.0000000), wk =   0.2500000
        k(    9) = (  -0.5000000  -0.4516359   0.0000000), wk =   0.1250000

     Largest allocated arrays     est. size (Mb)     dimensions
     Largest temporary arrays     est. size (Mb)     dimensions

     Check: negative/imaginary core charge=   -0.000007    0.000000

     Initial potential from superposition of free atoms
     Check: negative starting charge=   -0.203935

     starting charge  380.99923, renormalised to  397.00000

     negative rho (up, down):  0.212E+00 0.000E+00
     Starting wfc are  297 randomized atomic wfcs

     Self-consistent Calculation

     iteration #  1     ecut=    40.00 Ry     beta=0.30
     Davidson diagonalization with overlap
     ethr =  1.00E-02,  avg # of iterations =  6.0

     negative rho (up, down):  0.192E+00 0.000E+00

     total energy              =   -2603.46350494 Ry
     Harris-Foulkes estimate   =   -3005.83050744 Ry
     estimated scf accuracy    <     794.03826505 Ry

[...]

     End of self-consistent calculation

          k = 0.0000 0.0000 0.0000 ( 40985 PWs)   bands (ev):

   -58.2215 -58.1818 -57.8882 -57.8484 -57.5731 -57.5330 -57.5012 -57.4910
   -57.4558 -57.4510 -57.4183 -57.3958 -57.0466 -57.0050 -56.7338 -56.6938
   -34.7154 -34.4955 -34.4742 -34.4636 -34.4496 -34.3414 -34.2674 -34.1936
   -34.1229 -34.0788 -34.0650 -34.0378 -34.0266 -34.0169 -33.9816 -33.9814
   -33.8785 -33.8749 -33.7719 -33.7623 -33.7450 -33.7379 -33.7347 -33.7165
   -33.7046 -33.6696 -33.6655 -33.6610 -33.6607 -33.6510 -33.6339 -33.6242
   -33.6078 -33.5869 -33.5855 -33.5736 -33.5429 -33.3310 -33.2911 -33.2677
   -33.2336 -33.2140 -33.1162 -33.0726 -33.0436 -32.9803 -32.8757 -32.7603
   -24.9815 -18.8106 -18.7061 -18.3570 -18.1436 -18.0724 -18.0428 -17.9220
   -17.8419 -17.6843 -17.6664 -17.6590 -17.5715 -17.4979 -17.3897 -17.3772
   -17.3451 -17.3016 -17.2889 -17.2875 -17.2379 -17.1856 -17.0214 -17.0203
   -16.9875 -16.9527 -16.8628 -16.8444 -16.8201 -16.5632 -16.4984 -16.1955
   -15.6612 -15.6060  -8.7616  -6.9949  -6.4454  -6.3058  -6.1809  -6.1004
    -6.0329  -5.8826  -5.7654  -5.7220  -5.3905  -5.2755  -5.2542  -5.2480
    -5.2287  -5.1500  -5.0094  -4.9629  -4.9275  -4.9260  -4.8756  -4.8575
    -4.8083  -4.7810  -4.7570  -4.6825  -4.6806  -4.5635  -4.5593  -4.5395
    -4.5175  -4.4651  -4.4592  -4.4088  -4.2443  -4.2293  -4.2059  -4.1946
    -4.1528  -3.9671  -3.9600  -3.8618  -3.7962  -3.7815  -3.6818  -3.6572
    -3.5326  -3.4477  -3.3299  -3.3233  -3.2355  -3.2230  -3.2052  -3.2036
    -3.1153  -3.0955  -3.0258  -3.0161  -2.9448  -2.9108  -2.9103  -2.8741
    -2.8667  -2.8568  -2.6782  -2.5940  -2.5066  -2.5024  -2.4754  -2.4073
[...]
O0       0.500000000   0.500000000   0.398730000    0   0   0
O0       0.500000000   0.000000000   0.420430000    0   0   0
Ti1      0.750000000   0.000000000   0.454790000    0   0   0
Ti1      0.500000000   0.500000000   0.454790000    0   0   0
O0       0.750000000   0.690000000   0.454790000    0   0   0
O0       0.750000000   0.310000000   0.454790000    0   0   0
O0       0.500000000   0.000000000   0.489150000    0   0   0
O0       0.500000000   0.500000000   0.511620000    0   0   0
Ti1      0.750000000   0.500000000   0.543770000    0   0   0
Ti1      0.500000000   0.000000000   0.550050000    0   0   0
O0       0.750000000   0.801560000   0.546210000    0   0   0
O0       0.750000000   0.198440000   0.546210000    0   0   0
O0       0.500000000   0.500000000   0.582220000    0   0   0
O0       0.500000000   0.000000000   0.601140000    0   0   0
Ti1      0.750000000   0.000000000   0.642540000    0   0   0
Ti1      0.500000000   0.500000000   0.632090000    0   0   0
O0       0.750000000   0.687240000   0.641310000    0   0   0
O0       0.750000000   0.312760000   0.641310000    0   0   0
O0       0.500000000   0.000000000   0.671940000    0   0   0
O0       0.500000000   0.500000000   0.698363466    1   0   1
O0       0.500000000   0.322840000   0.717341035    1   0   1
H2       0.500000000   0.367870000   0.743441725    1   0   1

     Check: negative starting charge=   -0.203931
     NEW-OLD atomic charge density approx. for the potential

     Check: negative/imaginary core charge=   -0.000007    0.000000
     Check: negative starting charge=   -0.203931

[...]

     Self-consistent Calculation

[...]

     Threshold (ethr) on eigenvalues was too large:
     Diagonalizing with lowered threshold

     Davidson diagonalization with overlap
     ethr =  8.28E-08,  avg # of iterations =  1.0

[...]

     total energy              =   -2996.98284703 Ry
     Harris-Foulkes estimate   =   -2996.98284703 Ry
     estimated scf accuracy    <       0.00000003 Ry

     iteration # 12     ecut=    40.00 Ry     beta=0.30
     Davidson diagonalization with overlap
     ethr =  8.71E-12,  avg # of iterations =  1.0

     negative rho (up, down):  0.202E+00 0.000E+00

     End of self-consistent calculation

[...]

          k = 0.2500-0.4516 0.0000 ( 40874 PWs)   bands (ev):

[...]

          k =-0.5000-0.4516 0.0000 ( 40844 PWs)   bands (ev):

   -58.2216 -58.2215 -57.8833 -57.8833 -57.5723 -57.5718 -57.5004 -57.4883
   -57.4883 -57.4448 -57.4439 -57.4272 -57.0166 -57.0166 -56.7359 -56.7359
   -34.5167 -34.5167 -34.4991 -34.4990 -34.4143 -34.4142 -34.2755 -34.2749
   -34.1519 -34.1484 -34.0531 -34.0531 -33.9241 -33.9239 -33.8764 -33.8431
   -33.8430 -33.8108 -33.8092 -33.8089 -33.7838 -33.7833 -33.7687 -33.7682
   -33.7546 -33.7441 -33.7325 -33.7324 -33.7079 -33.6878 -33.6878 -33.6802
   -33.6793 -33.6540 -33.6411 -33.6393 -33.3715 -33.3677 -33.2738 -33.2736
   -33.2575 -33.2542 -33.0808 -33.0808 -33.0140 -33.0140 -32.9505 -32.9505
   -24.3746 -18.2325 -18.2142 -18.0767 -18.0766 -17.9446 -17.9266 -17.9024
   -17.8776 -17.7775 -17.7774 -17.5512 -17.5497 -17.5391 -17.5384 -17.4332
   -17.4294 -17.4064 -17.4026 -17.3996 -17.3957 -17.3372 -17.3355 -17.0440
   -17.0438 -17.0028 -17.0001 -16.8991 -16.8927 -16.6814 -16.6647 -16.1384
   -15.7557 -15.7555  -8.5091  -6.6784  -5.8503  -5.6417  -5.5843  -5.3753
    -5.3751  -5.2885  -5.2883  -5.1651  -5.1649  -5.1024  -5.1022  -4.9827
    -4.9737  -4.9675  -4.9639  -4.9350  -4.9277  -4.7689  -4.7684  -4.7614
    -4.7583  -4.7456  -4.7450  -4.7382  -4.7287  -4.6712  -4.6693  -4.5299
    -4.5266  -4.4802  -4.4798  -4.4077  -4.4030  -4.2750  -4.2708  -4.2242
    -4.2235  -4.2228  -4.2226  -3.9352  -3.9043  -3.7578  -3.7557  -3.7527
    -3.7484  -3.5663  -3.4916  -3.4185  -3.3913  -3.3357  -3.3293  -3.3068
    -3.2949  -3.2657  -3.2653  -3.1941  -3.1924  -3.1589  -3.1447  -3.0102
    -3.0093  -2.9636  -2.9575  -2.8557  -2.8474  -2.8439  -2.8288  -2.7848
    -2.7757  -2.7389  -2.7328  -2.4246  -2.4194  -2.3407  -2.3376  -2.2096
    -2.2087  -2.0457  -2.0108  -1.9352  -1.9350  -1.8807  -1.6885  -1.6842
    -1.6472  -1.5921  -1.5797  -1.5633  -1.5263  -1.4781  -1.4703  -1.3012
    -1.2871  -1.1589  -1.0177  -1.0176  -0.7529  -0.7525  -0.6824   1.4261
     1.4269   1.4640   1.4738   1.5015   1.5047   1.5207   1.5266   1.7999
     1.8001   1.8572   1.8736   1.9015   1.9021   1.9841   1.9891   2.0020
     2.0020   2.2329   2.2565   2.3163   2.3168   2.3824   2.3887   2.5583
     2.5679   2.5999   2.6007   2.6704   2.6925   2.7939   2.8100   2.8499
     2.8501   2.9056   2.9283   2.9708   2.9709   3.1419   3.1725   3.1725
     3.2064   3.2431   3.2981   3.3057   3.3075   3.3615   3.3677   3.3686
     3.3732   4.0064   4.1600   4.2034   4.2076   4.2094   4.3241   4.3708
     4.3709   4.5040   4.5373   4.5894   4.5988   4.7603   4.8058   4.8060
     5.1839   5.2514   5.4783   5.4792   5.5966   5.6830   5.7281   5.7521
     5.8137   5.8205   5.9444   5.9690   5.9702   6.0823   6.1400   6.1453
     6.1982   6.1984   6.3890   6.3891   6.4526   6.5237   6.6979   6.7598
     6.9177   6.9794   7.1684   7.1753   7.3247   7.3939   7.5170   7.5480
     7.7944   7.8866   7.9178   8.0348   8.3677   8.4101   8.4893   8.6848
     8.9657   9.0367   9.1599   9.2592   9.5496   9.5824   9.6219   9.6276
     9.6977   9.7855   9.8427   9.8503  10.2961  10.2967  10.3398  10.3596
    10.4621  10.4684  10.6045  10.6059  10.9706  11.1448  11.1506  11.2033
    11.4711  11.5172  11.5354  11.5660  12.0299  12.3565  12.4173  12.4322
    12.5869  12.7075  12.7193  12.7213  12.7783  12.8614  12.9330  13.0332
    13.1631  13.2553  13.2566  13.5087  13.5659  13.5660  13.6213  13.6548
    13.6871  13.6933  13.7347  13.7830  13.8642  13.8778  13.9143  13.9281
    13.9998  14.0205  14.0539  14.0726  14.0934  14.1076  14.1664  14.1751
    14.2152  14.2593  14.2776  14.2882  14.3169  14.4019  14.4110  14.4195
    14.4303  14.4550  14.4824  14.4833  14.5457  14.5460  14.5843  14.6019
    14.6261  14.6615  14.6848  14.7053  14.7246  14.8225  14.8800  14.8822
    14.9105  14.9369  14.9887  15.0388  15.0427  15.0802  15.1973  15.2519
    15.2763  15.3604  15.4057  15.4378  15.4969  15.5329  15.5582  15.5760
    15.6183  15.6192  15.6416  15.6675  15.7490  15.7554  15.7730  15.7792
    15.8022  15.8221  15.8655  15.8686  15.9161  15.9367  16.0157  16.0370
    16.1164  16.1375  16.1764  16.2016  16.2309  16.2631  16.3590  16.3825
    16.4803  16.4956  16.5952  16.6081  16.6326  16.6950  16.7655  16.7929
    16.8593  16.8803  16.9587  16.9877  17.0094  17.0497  17.0706  17.1862
    17.3518  17.3553  17.4252  17.4294  17.4621  17.5048  17.5339  17.5409
    17.6235  17.6454  17.6718  17.7351  17.7426  17.7813  17.9365  17.9404
    18.0240  18.0876  18.1153  18.1516  18.1600  18.2004  18.3622  18.3811
    18.4197  18.4422  18.5615  18.6037  18.6261  18.6827  18.6833  18.7262
    18.8374  18.9285  18.9720  19.0001  19.0688  19.1229  19.1981  19.2239
    19.2343  19.3124  19.3411  19.4011  19.4545  19.5247  19.5910  19.6068
    19.6747  19.7137  19.8203  19.8718  19.9715  19.9812  20.0006  20.0294
    20.1253  20.2603  20.2989  20.3401  20.3705  20.3971  20.4192  20.4648
    20.4987  20.5732  20.6360  20.7451  20.9361  20.9400  20.9951  21.0835
    21.1101  21.2089  21.2419  21.3560  21.4028  21.4994  21.5417  21.5761
    21.6616  21.6731  21.7474  21.7585  21.7835  21.8786  21.9015  21.9316
    22.0515  22.1212  22.1215  22.1772  22.1986  22.2211  22.3329  22.4823
    22.5492  22.5843  22.5922  22.6091  22.6379  22.6530  22.6878  22.7074
    22.7886  22.7906  22.8194  22.8731  22.9437  22.9474  23.0418  23.1016
    23.1385  23.1765  23.1976  23.2501  23.2828  23.3389  23.3841  23.3917
    23.4246  23.5002  23.5114

     the Fermi energy is    -0.6848 ev

!    total energy              =   -2996.98284703 Ry
     Harris-Foulkes estimate   =   -2996.98284703 Ry
     estimated scf accuracy    <          2.9E-10 Ry

     The total energy is the sum of the following terms:

     one-electron contribution =  -64301.39544009 Ry
     hartree contribution      =   32206.42273575 Ry
     xc contribution           =    -520.20313252 Ry
     ewald contribution        =   29618.19415601 Ry
     smearing contrib. (-TS)   =      -0.00116618 Ry

     convergence has been achieved in  12 iterations

     Forces acting on atoms (Ry/au):

     negative rho (up, down):  0.202E+00 0.000E+00
     atom    1 type  1   force =     0.00000000    0.00000114    0.05443560
     atom    2 type  2   force =    -0.00000460    0.00000142   -0.12287343
     atom    3 type  2   force =     0.00000000    0.00000189    0.12300844
     atom    4 type  1   force =     0.00000026    0.03164258   -0.03325120
     atom    5 type  1   force =     0.00000270   -0.03164350   -0.03325764
     atom    6 type  1   force =     0.00000000   -0.00000537    0.08579442
     atom    7 type  1   force =     0.00000000   -0.00000190   -0.09299315
     atom    8 type  2   force =    -0.00001539    0.00000007    0.06587140
     atom    9 type  2   force =     0.00000000    0.00000151   -0.05202716
     atom   10 type  1   force =     0.00000335    0.02016588    0.00509784
     atom   11 type  1   force =     0.00000305   -0.02016645    0.00509274
     atom   12 type  1   force =     0.00000000   -0.00000832   -0.00348492
     atom   13 type  1   force =     0.00000000   -0.00000647   -0.01007455
     atom   14 type  2   force =     0.00341948   -0.00005095    0.01220395
     atom   15 type  2   force =     0.00000000    0.00009159    0.00898550
     atom   16 type  1   force =    -0.00028491    0.00072424   -0.00215351
     atom   17 type  1   force =    -0.00031267   -0.00076986   -0.00216069
     atom   18 type  1   force =     0.00000000    0.00032766   -0.01030122
     atom   19 type  1   force =     0.00000000   -0.00071771   -0.00519325
     atom   20 type  2   force =     0.00290631    0.00125226   -0.00276463
     atom   21 type  2   force =     0.00000000   -0.00358234    0.00572194
     atom   22 type  1   force =    -0.00845275    0.00929119   -0.00648819
     atom   23 type  1   force =    -0.01279713   -0.01013230   -0.01126964
     atom   24 type  1   force =     0.00000000    0.00011522    0.00608081
     atom   25 type  1   force =     0.00000000   -0.00000264    0.05443988
     atom   26 type  2   force =     0.00000460    0.00000142   -0.12287343
     atom   27 type  2   force =     0.00000000    0.00000015    0.12300464
     atom   28 type  1   force =    -0.00000026    0.03164258   -0.03325120
     atom   29 type  1   force =    -0.00000270   -0.03164350   -0.03325764
     atom   30 type  1   force =     0.00000000   -0.00000231    0.08571808
     atom   31 type  1   force =     0.00000000    0.00000095   -0.09300710
     atom   32 type  2   force =     0.00001539    0.00000007    0.06587140
     atom   33 type  2   force =     0.00000000    0.00000456   -0.05200322
     atom   34 type  1   force =    -0.00000335    0.02016588    0.00509784
     atom   35 type  1   force =    -0.00000305   -0.02016645    0.00509274
     atom   36 type  1   force =     0.00000000    0.00000678   -0.00348117
     atom   37 type  1   force =     0.00000000    0.00001881   -0.01044496
     atom   38 type  2   force =    -0.00341948   -0.00005095    0.01220395
     atom   39 type  2   force =     0.00000000    0.00004041    0.00983269
     atom   40 type  1   force =     0.00028491    0.00072424   -0.00215351
     atom   41 type  1   force =     0.00031267   -0.00076986   -0.00216069
     atom   42 type  1   force =     0.00000000   -0.00005059   -0.02615934
     atom   43 type  1   force =     0.00000000   -0.00014256   -0.00531649
     atom   44 type  2   force =    -0.00290631    0.00125226   -0.00276463
     atom   45 type  2   force =     0.00000000   -0.00677489    0.06347476
     atom   46 type  1   force =     0.00845275    0.00929119   -0.00648819
     atom   47 type  1   force =     0.01279713   -0.01013230   -0.01126964
     atom   48 type  1   force =     0.00000000   -0.00702451   -0.00409036
     atom   49 type  1   force =     0.00000000    0.01362455   -0.00023889
     atom   50 type  1   force =     0.00000000    0.00132811    0.00048892
     atom   51 type  3   force =     0.00000000    0.00212711   -0.00026387

     Total force =     0.000605     Total SCF correction =     0.000009

     entering subroutine stress ...

     negative rho (up, down):  0.202E+00 0.000E+00
          total   stress  (Ry/bohr**3)                   (kbar)     P=   -8.67
  -0.00008654   0.00000000   0.00000000        -12.73      0.00      0.00
   0.00000000  -0.00001799   0.00000726          0.00     -2.65      1.07
   0.00000000   0.00000726  -0.00007225          0.00      1.07    -10.63

     bfgs converged in  12 scf cycles and  11 bfgs steps
     (criteria: energy < 0.10E-03, force < 0.10E-02)

     End of BFGS Geometry Optimization

     Final energy   =   -2996.9828470274 Ry
Begin final coordinates

ATOMIC_POSITIONS (crystal)
O0       0.000000000   0.500000000   0.330010000    0   0   0
Ti1      0.250000000   0.500000000   0.364370000    0   0   0
Ti1      0.000000000   0.000000000   0.364370000    0   0   0
O0       0.250000000   0.810000000   0.364370000    0   0   0
O0       0.250000000   0.190000000   0.364370000    0   0   0
O0       0.000000000   0.500000000   0.398730000    0   0   0
O0       0.000000000   0.000000000   0.420430000    0   0   0
Ti1      0.250000000   0.000000000   0.454790000    0   0   0
Ti1      0.000000000   0.500000000   0.454790000    0   0   0
O0       0.250000000   0.690000000   0.454790000    0   0   0
O0       0.250000000   0.310000000   0.454790000    0   0   0
O0       0.000000000   0.000000000   0.489150000    0   0   0
O0       0.000000000   0.500000000   0.511620000    0   0   0
Ti1      0.250000000   0.500000000   0.543770000    0   0   0
Ti1      0.000000000   0.000000000   0.550050000    0   0   0
O0       0.250000000   0.801560000   0.546210000    0   0   0
O0       0.250000000   0.198440000   0.546210000    0   0   0
O0       0.000000000   0.500000000   0.582220000    0   0   0
O0       0.000000000   0.000000000   0.601140000    0   0   0
Ti1      0.250000000   0.000000000   0.642540000    0   0   0
Ti1      0.000000000   0.500000000   0.632090000    0   0   0
O0       0.250000000   0.687240000   0.641310000    0   0   0
O0       0.250000000   0.312760000   0.641310000    0   0   0
O0       0.000000000   0.000000000   0.671940000    0   0   0
O0       0.500000000   0.500000000   0.330010000    0   0   0
Ti1      0.750000000   0.500000000   0.364370000    0   0   0
Ti1      0.500000000   0.000000000   0.364370000    0   0   0
O0       0.750000000   0.810000000   0.364370000    0   0   0
O0       0.750000000   0.190000000   0.364370000    0   0   0
O0       0.500000000   0.500000000   0.398730000    0   0   0
O0       0.500000000   0.000000000   0.420430000    0   0   0
Ti1      0.750000000   0.000000000   0.454790000    0   0   0
Ti1      0.500000000   0.500000000   0.454790000    0   0   0
O0       0.750000000   0.690000000   0.454790000    0   0   0
O0       0.750000000   0.310000000   0.454790000    0   0   0
O0       0.500000000   0.000000000   0.489150000    0   0   0
O0       0.500000000   0.500000000   0.511620000    0   0   0
Ti1      0.750000000   0.500000000   0.543770000    0   0   0
Ti1      0.500000000   0.000000000   0.550050000    0   0   0
O0       0.750000000   0.801560000   0.546210000    0   0   0
O0       0.750000000   0.198440000   0.546210000    0   0   0
O0       0.500000000   0.500000000   0.582220000    0   0   0
O0       0.500000000   0.000000000   0.601140000    0   0   0
Ti1      0.750000000   0.000000000   0.642540000    0   0   0
Ti1      0.500000000   0.500000000   0.632090000    0   0   0
O0       0.750000000   0.687240000   0.641310000    0   0   0
O0       0.750000000   0.312760000   0.641310000    0   0   0
O0       0.500000000   0.000000000   0.671940000    0   0   0
O0       0.500000000   0.500000000   0.698363466    1   0   1
O0       0.500000000   0.322840000   0.717341035    1   0   1
H2       0.500000000   0.367870000   0.743441725    1   0   1
End final coordinates

     General routines

     Parallel routines

   This run was terminated on:   1: 8: 7  28May2014

   JOB DONE.
Running PBS batch system epilogue script
Job id: 361765.audhumbla.fysik.dtu.dk
Username: zhonxu
Groupname: campgst
Jobname: TiO2/Eads-4-layers/OOH
Sessionid: 10710
Queuename: verylong
Accounting:
This job has allocated the following 32 nodes:
g019 g019 g019 g019 g019 g019 g019 g019 g019 g019 g019 g019 g019 g019 g019 g019 g015 g015 g015 g015 g015 g015 g015 g015 g015 g015 g015 g015 g015 g015 g015 g015
Finished epilogue job 361765.audhumbla.fysik.dtu.dk for zhonxu