     Program PWSCF v.5.0.2 (svn rev. 9656) starts on  1May2014 at  6: 4:39

     Current dimensions of program PWSCF are:
     Max number of different atomic species (ntypx) = 10
     Max number of k-points (npk) =  40000
     Max angular momentum in pseudopotentials (lmaxx) =  3
     Reading input from pwscf.in
Warning: card &CELL ignored
Warning: card / ignored

     Subspace diagonalization in iterative solution of the eigenvalue problem:
     a serial algorithm will be used

     bravais-lattice index     =            0
     lattice parameter (alat)  =      10.1289  a.u.
     unit-cell volume          =    6836.7721 (a.u.)^3
     number of atoms/cell      =           31
     number of atomic types    =            3
     number of electrons       =       238.00
     number of Kohn-Sham states=          357
     kinetic-energy cutoff     =      40.0000  Ry
     charge density cutoff     =     500.0000  Ry
     convergence threshold     =      1.0E-06
     mixing beta               =       0.7000
     number of iterations used =            8  plain     mixing
     Exchange-correlation      = SLA  PW   PBE  PBE ( 1 4 3 4 0)
     EXX-fraction              =        0.00
     nstep                     =           50

     celldm(1)=  10.128932  celldm(2)=   0.000000  celldm(3)=   0.000000
     celldm(4)=   0.000000  celldm(5)=   0.000000  celldm(6)=   0.000000

     crystal axes: (cart. coord. in units of alat)
               a(1) = (   1.000000   0.000000   0.000000 )
               a(2) = (   0.000000   1.306037   0.000000 )
               a(3) = (   0.000000   0.000000   5.037380 )

     reciprocal axes: (cart. coord. in units 2 pi/alat)
               b(1) = (  1.000000  0.000000  0.000000 )
               b(2) = (  0.000000  0.765675  0.000000 )
               b(3) = (  0.000000  0.000000  0.198516 )

     PseudoPot. # 1 for O  read from file:
     /home/camp/zhonxu/pseudo/o_pbe_v1.01.uspp.F.UPF
     MD5 check sum: 2bcb18d16ea4b960afae9ec6d52f22d2
     Pseudo is Ultrasoft + core correction, Zval =  6.0
     Generated by new atomic code, or converted to UPF format
     Using radial grid of  737 points,  5 beta functions with:
                l(1) =   0
                l(2) =   0
                l(3) =   1
                l(4) =   1
                l(5) =   2
     Q(r) pseudized with  8 coefficients,  rinner =    0.900   0.900   0.900
                                                       0.900   0.900

     PseudoPot. # 2 for Re read from file:
     /home/camp/zhonxu/pseudo/re_pbe_v1.uspp.F.UPF
     MD5 check sum: 6f5a5dcaf9c96c20d0ffdde0de57afc6
     Pseudo is Ultrasoft + core correction, Zval = 15.0
     Generated by new atomic code, or converted to UPF format
     Using radial grid of  981 points,  8 beta functions with:
                l(1) =   0
                l(2) =   0
                l(3) =   1
                l(4) =   1
                l(5) =   2
                l(6) =   2
                l(7) =   3
                l(8) =   3
     Q(r) pseudized with  8 coefficients,  rinner =    1.000   1.000   1.000
                                                       1.000   1.000   1.000
                                                       1.000

     PseudoPot. # 3 for H  read from file:
     /home/camp/zhonxu/pseudo/h_pbe_v1.uspp.F.UPF
     MD5 check sum: 3408e3ff4ec8b0a4e358431e7e038a48
     Pseudo is Ultrasoft, Zval =  1.0
     Generated by new atomic code, or converted to UPF format
     Using radial grid of  615 points,  2 beta functions with:
                l(1) =   0
                l(2) =   0
     Q(r) pseudized with  8 coefficients,  rinner =    0.700

     atomic species   valence    mass     pseudopotential
        O0             6.00    15.99940     O ( 1.00)
        Re1           15.00   186.20700     Re( 1.00)
        H2             1.00     1.00794     H ( 1.00)

     Simplified LDA+U calculation (l_max = 2) with parameters (eV):
     atomic species    L          U    alpha       J0     beta
        Re1            2     3.5000   0.0000   0.0000   0.0000

     No symmetry found

   Cartesian axes

     site n.     atom                  positions (alat units)
         1           O0  tau(   1) = (   0.0000000   0.0000000   1.8646870  )
         2           O0  tau(   2) = (   0.0000000   0.6530184   1.9287121  )
         3           Re1 tau(   3) = (   0.2500000   0.6530184   2.2295948  )
         4           Re1 tau(   4) = (   0.0000000   0.0000000   2.2312068  )
         5           O0  tau(   5) = (   0.2500000   1.0187087   2.2244063  )
         6           O0  tau(   6) = (   0.2500000   0.2873281   2.2234996  )
         7           O0  tau(   7) = (   0.0000000   0.6530184   2.5067011  )
         8           O0  tau(   8) = (   0.0000000   0.0000000   2.5914802  )
         9           Re1 tau(   9) = (   0.2500000   0.0000000   2.8910532  )
        10           Re1 tau(  10) = (   0.0000000   0.6530184   2.8571012  )
        11           O0  tau(  11) = (   0.2500000   0.9403465   2.8803235  )
        12           O0  tau(  12) = (   0.2500000   0.3656903   2.8804747  )
        13           O0  tau(  13) = (   0.0000000   0.0000000   3.1540044  )
        14           O0  tau(  14) = (   0.5000000   0.0000000   1.8645359  )
        15           O0  tau(  15) = (   0.5000000   0.6530184   1.9300722  )
        16           Re1 tau(  16) = (   0.7500000   0.6530184   2.2295444  )
        17           Re1 tau(  17) = (   0.5000000   0.0000000   2.2295948  )
        18           O0  tau(  18) = (   0.7500000   1.0187087   2.2239529  )
        19           O0  tau(  19) = (   0.7500000   0.2873281   2.2238522  )
        20           O0  tau(  20) = (   0.5000000   0.6530184   2.5186397  )
        21           O0  tau(  21) = (   0.5000000   0.0000000   2.5912283  )
        22           Re1 tau(  22) = (   0.7500000   0.0000000   2.8912547  )
        23           Re1 tau(  23) = (   0.5000000   0.6530184   2.9058631  )
        24           O0  tau(  24) = (   0.7500000   0.9403465   2.8806762  )
        25           O0  tau(  25) = (   0.7500000   0.3656903   2.8804243  )
        26           O0  tau(  26) = (   0.5000000   0.0000000   3.1508309  )
        27           H2  tau(  27) = (  -0.0003300   0.8166387   1.8441345  )
        28           H2  tau(  28) = (   0.4996000   0.8128642   1.8387445  )
        29           H2  tau(  29) = (   0.1687200   0.0311098   1.7921991  )
        30           H2  tau(  30) = (   0.6701100   0.0285761   1.7932066  )
        31           O0  tau(  31) = (   0.4998900   0.6523393   3.2273487  )

     number of k points=    10  Methfessel-Paxton smearing, width (Ry)=  0.0100
                       cart. coord. in units 2pi/alat
        k(    1) = (   0.0000000   0.0000000   0.0000000), wk =   0.1250000
        k(    2) = (   0.0000000   0.1914188   0.0000000), wk =   0.2500000
        k(    3) = (   0.0000000  -0.3828376   0.0000000), wk =   0.1250000
        k(    4) = (   0.2500000   0.0000000   0.0000000), wk =   0.2500000
        k(    5) = (   0.2500000   0.1914188   0.0000000), wk =   0.2500000
        k(    6) = (   0.2500000  -0.3828376   0.0000000), wk =   0.2500000
        k(    7) = (  -0.5000000   0.0000000   0.0000000), wk =   0.1250000
        k(    8) = (  -0.5000000   0.1914188   0.0000000), wk =   0.2500000
        k(    9) = (  -0.5000000  -0.3828376   0.0000000), wk =   0.1250000
        k(   10) = (  -0.2500000   0.1914188   0.0000000), wk =   0.2500000

     Largest allocated arrays     est. size (Mb)     dimensions
     Largest temporary arrays     est. size (Mb)     dimensions

     Check: negative/imaginary core charge=   -0.000003    0.000000

     Initial potential from superposition of free atoms
     Check: negative starting charge=   -0.237495

     starting charge  233.99958, renormalised to  238.00000

     negative rho (up, down):  0.242E+00 0.000E+00
     Number of +U iterations with fixed ns =  0
     Starting occupations:
 --- enter write_ns ---
 LDA+U parameters:
U( 2)     =  3.50000000
alpha( 2) =  0.00000000
atom    3   Tr[ns(na)] =   5.00000
    eigenvalues:
  0.500  0.500  0.500  0.500  0.500
    eigenvectors:
  1.000  0.000  0.000  0.000  0.000
  0.000  1.000  0.000  0.000  0.000
  0.000  0.000  1.000  0.000  0.000
  0.000  0.000  0.000  1.000  0.000
  0.000  0.000  0.000  0.000  1.000
    occupations:
  0.500  0.000  0.000  0.000  0.000
  0.000  0.500  0.000  0.000  0.000
  0.000  0.000  0.500  0.000  0.000
  0.000  0.000  0.000  0.500  0.000
  0.000  0.000  0.000  0.000  0.500
atom    4   Tr[ns(na)] =   5.00000
    eigenvalues:
  0.500  0.500  0.500  0.500  0.500
    eigenvectors:
  1.000  0.000  0.000  0.000  0.000
  0.000  1.000  0.000  0.000  0.000
  0.000  0.000  1.000  0.000  0.000
  0.000  0.000  0.000  1.000  0.000
  0.000  0.000  0.000  0.000  1.000
    occupations:
  0.500  0.000  0.000  0.000  0.000
  0.000  0.500  0.000  0.000  0.000
  0.000  0.000  0.500  0.000  0.000
  0.000  0.000  0.000  0.500  0.000
  0.000  0.000  0.000  0.000  0.500
atom    9   Tr[ns(na)] =   5.00000
    eigenvalues:
  0.500  0.500  0.500  0.500  0.500
    eigenvectors:
  1.000  0.000  0.000  0.000  0.000
  0.000  1.000  0.000  0.000  0.000
  0.000  0.000  1.000  0.000  0.000
  0.000  0.000  0.000  1.000  0.000
  0.000  0.000  0.000  0.000  1.000
    occupations:
  0.500  0.000  0.000  0.000  0.000
  0.000  0.500  0.000  0.000  0.000
  0.000  0.000  0.500  0.000  0.000
  0.000  0.000  0.000  0.500  0.000
  0.000  0.000  0.000  0.000  0.500
atom   10   Tr[ns(na)] =   5.00000
    eigenvalues:
  0.500  0.500  0.500  0.500  0.500
    eigenvectors:
  1.000  0.000  0.000  0.000  0.000
  0.000  1.000  0.000  0.000  0.000
  0.000  0.000  1.000  0.000  0.000
  0.000  0.000  0.000  1.000  0.000
  0.000  0.000  0.000  0.000  1.000
    occupations:
  0.500  0.000  0.000  0.000  0.000
  0.000  0.500  0.000  0.000  0.000
  0.000  0.000  0.500  0.000  0.000
  0.000  0.000  0.000  0.500  0.000
  0.000  0.000  0.000  0.000  0.500
atom   16   Tr[ns(na)] =   5.00000
    eigenvalues:
  0.500  0.500  0.500  0.500  0.500
    eigenvectors:
  1.000  0.000  0.000  0.000  0.000
  0.000  1.000  0.000  0.000  0.000
  0.000  0.000  1.000  0.000  0.000
  0.000  0.000  0.000  1.000  0.000
  0.000  0.000  0.000  0.000  1.000
    occupations:
  0.500  0.000  0.000  0.000  0.000
  0.000  0.500  0.000  0.000  0.000
  0.000  0.000  0.500  0.000  0.000
  0.000  0.000  0.000  0.500  0.000
  0.000  0.000  0.000  0.000  0.500
atom   17   Tr[ns(na)] =   5.00000
    eigenvalues:
  0.500  0.500  0.500  0.500  0.500
    eigenvectors:
  1.000  0.000  0.000  0.000  0.000
  0.000  1.000  0.000  0.000  0.000
  0.000  0.000  1.000  0.000  0.000
  0.000  0.000  0.000  1.000  0.000
  0.000  0.000  0.000  0.000  1.000
    occupations:
  0.500  0.000  0.000  0.000  0.000
  0.000  0.500  0.000  0.000  0.000
  0.000  0.000  0.500  0.000  0.000
  0.000  0.000  0.000  0.500  0.000
  0.000  0.000  0.000  0.000  0.500
atom   22   Tr[ns(na)] =   5.00000
    eigenvalues:
  0.500  0.500  0.500  0.500  0.500
    eigenvectors:
  1.000  0.000  0.000  0.000  0.000
  0.000  1.000  0.000  0.000  0.000
  0.000  0.000  1.000  0.000  0.000
  0.000  0.000  0.000  1.000  0.000
[...]
    eigenvectors:
  0.242  0.001  0.000  0.006  0.751
  0.000  0.000  1.000  0.000  0.000
  0.004  0.989  0.000  0.007  0.000
  0.754  0.003  0.000  0.002  0.240
  0.000  0.007  0.000  0.985  0.009
    occupations:
  0.713  0.000 -0.001 -0.069  0.001
  0.000  0.606  0.000  0.000  0.000
 -0.001  0.000  0.593  0.000 -0.012
 -0.069  0.000  0.000  0.630 -0.000
  0.001  0.000 -0.012 -0.000  0.741
atom   10   Tr[ns(na)] =   6.54241
    eigenvalues:
  0.472  0.542  0.675  0.718  0.864
    eigenvectors:
  1.000  0.000  0.000  0.000  0.000
  0.000  0.000  0.000  0.000  1.000
  0.000  0.000  1.000  0.000  0.000
  0.000  0.000  0.000  1.000  0.000
  0.000  1.000  0.000  0.000  0.000
    occupations:
  0.472 -0.000  0.000 -0.003 -0.000
 -0.000  0.864  0.001  0.000  0.000
  0.000  0.001  0.675  0.000  0.000
 -0.003  0.000  0.000  0.717 -0.000
 -0.000  0.000  0.000 -0.000  0.542
atom   16   Tr[ns(na)] =   6.58101
    eigenvalues:
  0.537  0.569  0.589  0.770  0.825
    eigenvectors:
  0.001  0.337  0.000  0.662  0.000
  0.995  0.003  0.001  0.000  0.001
  0.000  0.009  0.981  0.008  0.002
  0.003  0.651  0.016  0.330  0.000
  0.001  0.000  0.002  0.000  0.997
    occupations:
  0.702  0.001  0.014 -0.094 -0.002
  0.001  0.538 -0.001 -0.003 -0.009
  0.014 -0.001  0.590 -0.008  0.010
 -0.094 -0.003 -0.008  0.636  0.001
 -0.002 -0.009  0.010  0.001  0.825
atom   17   Tr[ns(na)] =   6.55764
    eigenvalues:
  0.572  0.602  0.610  0.711  0.784
    eigenvectors:
  0.000  0.001  0.986  0.001  0.012
  0.000  0.005  0.001  0.994  0.000
  0.000  0.994  0.001  0.005  0.000
  0.000  0.000  0.012  0.000  0.988
  1.000  0.000  0.000  0.000  0.000
    occupations:
  0.612  0.003  0.000 -0.019  0.001
  0.003  0.710  0.008 -0.000 -0.001
  0.000  0.008  0.603  0.002 -0.000
 -0.019 -0.000  0.002  0.782 -0.000
  0.001 -0.001 -0.000 -0.000  0.572
atom   22   Tr[ns(na)] =   6.56703
    eigenvalues:
  0.591  0.593  0.606  0.741  0.753
    eigenvectors:
  0.242  0.000  0.000  0.067  0.691
  0.000  0.000  1.000  0.000  0.000
  0.002  0.991  0.000  0.006  0.000
  0.755  0.002  0.000  0.021  0.221
  0.000  0.007  0.000  0.906  0.087
    occupations:
  0.713  0.000 -0.000 -0.069  0.003
  0.000  0.606  0.000  0.000  0.000
 -0.000  0.000  0.594  0.000  0.012
 -0.069  0.000  0.000  0.630 -0.002
  0.003  0.000  0.012 -0.002  0.741
atom   23   Tr[ns(na)] =   6.57768
    eigenvalues:
  0.582  0.608  0.609  0.659  0.830
    eigenvectors:
  0.000  0.000  0.000  0.982  0.018
  0.000  0.005  0.995  0.000  0.000
  0.000  0.995  0.005  0.000  0.000
  0.000  0.000  0.000  0.018  0.982
  1.000  0.000  0.000  0.000  0.000
    occupations:
  0.662  0.000 -0.000 -0.023 -0.000
  0.000  0.609 -0.000 -0.000  0.000
 -0.000 -0.000  0.608  0.001  0.000
 -0.023 -0.000  0.001  0.827  0.000
 -0.000  0.000  0.000  0.000  0.582
N of occupied +U levels =  52.5393227
 --- exit write_ns ---

     Threshold (ethr) on eigenvalues was too large:
     Diagonalizing with lowered threshold

     Davidson diagonalization with overlap
     ethr =  1.01E-08,  avg # of iterations =  2.0

[...]

     total energy              =   -2173.12080978 Ry
     Harris-Foulkes estimate   =   -2173.12080979 Ry
     estimated scf accuracy    <       0.00000002 Ry

     iteration # 15     ecut=    40.00 Ry     beta=0.70
     Davidson diagonalization with overlap
     ethr =  9.05E-12,  avg # of iterations =  1.0

     negative rho (up, down):  0.244E+00 0.000E+00

     End of self-consistent calculation
 --- enter write_ns ---
 LDA+U parameters:
U( 2)     =  3.50000000
alpha( 2) =  0.00000000
atom    3   Tr[ns(na)] =   6.58035
    eigenvalues:
  0.537  0.569  0.588  0.770  0.825
    eigenvectors:
  0.001  0.337  0.000  0.662  0.000
  0.995  0.003  0.001  0.000  0.001
  0.000  0.008  0.983  0.008  0.001
  0.003  0.653  0.015  0.330  0.000
  0.001  0.000  0.002  0.000  0.997
    occupations:
  0.702 -0.001  0.014 -0.094  0.002
 -0.001  0.538  0.001  0.003 -0.009
  0.014  0.001  0.590 -0.008 -0.009
 -0.094  0.003 -0.008  0.636 -0.001
  0.002 -0.009 -0.009 -0.001  0.824
atom    4   Tr[ns(na)] =   6.56536
    eigenvalues:
  0.571  0.607  0.607  0.718  0.780
    eigenvectors:
  0.000  0.889  0.097  0.001  0.012
  0.000  0.000  0.008  0.992  0.000
  0.000  0.099  0.894  0.007  0.000
  0.000  0.011  0.001  0.000  0.987
  1.000  0.000  0.000  0.000  0.000
    occupations:
  0.609  0.003  0.000 -0.019  0.001
  0.003  0.717  0.009 -0.000 -0.002
  0.000  0.009  0.608  0.000 -0.000
 -0.019 -0.000  0.000  0.778 -0.000
  0.001 -0.002 -0.000 -0.000  0.571
atom    9   Tr[ns(na)] =   6.56739
    eigenvalues:
  0.591  0.592  0.606  0.742  0.753
    eigenvectors:
  0.242  0.001  0.000  0.007  0.751
  0.000  0.000  1.000  0.000  0.000
  0.003  0.990  0.000  0.006  0.000
  0.754  0.003  0.000  0.002  0.240
  0.000  0.007  0.000  0.984  0.009
    occupations:
  0.713  0.000 -0.001 -0.069  0.001
  0.000  0.606  0.000  0.000  0.000
 -0.001  0.000  0.593  0.000 -0.012
 -0.069  0.000  0.000  0.630 -0.000
  0.001  0.000 -0.012 -0.000  0.741
atom   10   Tr[ns(na)] =   6.54264
    eigenvalues:
  0.472  0.542  0.675  0.717  0.864
    eigenvectors:
  1.000  0.000  0.000  0.000  0.000
  0.000  0.000  0.000  0.000  1.000
  0.000  0.000  1.000  0.000  0.000
  0.000  0.000  0.000  1.000  0.000
  0.000  1.000  0.000  0.000  0.000
    occupations:
  0.472 -0.000  0.000 -0.003 -0.000
 -0.000  0.864  0.001  0.000  0.000
  0.000  0.001  0.675  0.000  0.000
 -0.003  0.000  0.000  0.717 -0.000
 -0.000  0.000  0.000 -0.000  0.542
atom   16   Tr[ns(na)] =   6.58038
    eigenvalues:
  0.537  0.569  0.589  0.770  0.825
    eigenvectors:
  0.001  0.337  0.000  0.662  0.000
  0.995  0.003  0.001  0.000  0.001
  0.000  0.010  0.981  0.008  0.002
  0.003  0.650  0.017  0.330  0.000
  0.001  0.000  0.002  0.000  0.997
    occupations:
  0.702  0.001  0.014 -0.094 -0.002
  0.001  0.538 -0.001 -0.003 -0.009
  0.014 -0.001  0.590 -0.008  0.010
 -0.094 -0.003 -0.008  0.636  0.001
 -0.002 -0.009  0.010  0.001  0.824
atom   17   Tr[ns(na)] =   6.55696
    eigenvalues:
  0.572  0.602  0.609  0.711  0.784
    eigenvectors:
  0.000  0.001  0.986  0.001  0.012
  0.000  0.005  0.001  0.994  0.000
  0.000  0.994  0.001  0.005  0.000
  0.000  0.000  0.012  0.000  0.988
  1.000  0.000  0.000  0.000  0.000
    occupations:
  0.612  0.003  0.000 -0.019  0.001
  0.003  0.710  0.008 -0.000 -0.001
  0.000  0.008  0.603  0.002 -0.000
 -0.019 -0.000  0.002  0.782 -0.000
  0.001 -0.001 -0.000 -0.000  0.572
atom   22   Tr[ns(na)] =   6.56719
    eigenvalues:
  0.591  0.593  0.606  0.741  0.753
    eigenvectors:
  0.242  0.000  0.000  0.069  0.688
  0.000  0.000  1.000  0.000  0.000
  0.002  0.991  0.000  0.006  0.000
  0.755  0.002  0.000  0.022  0.221
  0.000  0.007  0.000  0.903  0.090
    occupations:
  0.713  0.000 -0.000 -0.069  0.003
  0.000  0.606  0.000  0.000  0.000
 -0.000  0.000  0.594  0.000  0.012
 -0.069  0.000  0.000  0.630 -0.002
  0.003  0.000  0.012 -0.002  0.741
atom   23   Tr[ns(na)] =   6.57812
    eigenvalues:
  0.582  0.608  0.609  0.659  0.830
    eigenvectors:
  0.000  0.000  0.000  0.982  0.018
  0.000  0.005  0.995  0.000  0.000
  0.000  0.995  0.005  0.000  0.000
  0.000  0.000  0.000  0.018  0.982
  1.000  0.000  0.000  0.000  0.000
    occupations:
  0.662  0.000 -0.000 -0.023 -0.000
  0.000  0.609 -0.000 -0.000  0.000
 -0.000 -0.000  0.608  0.001  0.000
 -0.023 -0.000  0.001  0.827  0.000
 -0.000  0.000  0.000  0.000  0.583
N of occupied +U levels =  52.5383828
 --- exit write_ns ---

[...]

          k = 0.2500-0.3828 0.0000 ( 29202 PWs)   bands (ev):

[...]

          k =-0.2500 0.1914 0.0000 ( 29229 PWs)   bands (ev):

   -82.0629 -81.3929 -81.3087 -81.1398 -81.0997 -80.8221 -80.7835 -80.7288
   -44.2873 -43.9127 -43.7583 -43.4598 -43.3533 -43.3037 -43.2729 -43.2464
   -43.1857 -43.1497 -43.0871 -43.0347 -42.9605 -42.9291 -42.8450 -42.8370
   -42.8175 -42.7478 -42.7386 -42.6775 -42.6579 -42.6295 -42.5233 -42.2114
   -21.0291 -20.6237 -20.5782 -20.4537 -20.3301 -20.1262 -20.0841 -20.0402
   -19.9112 -19.7589 -19.6749 -19.5938 -19.5830 -19.3615 -19.3357 -19.2179
   -18.6380 -18.6037 -18.3801  -9.2585  -9.1368  -9.0273  -8.9544  -8.8707
    -8.7169  -8.5286  -8.5098  -8.2876  -8.1997  -8.1530  -7.9285  -7.8270
    -7.6471  -7.4703  -7.3487  -7.1733  -7.0068  -6.9102  -6.8546  -6.6925
    -6.5378  -6.4533  -6.3026  -6.0798  -6.0416  -5.8934  -5.7788  -5.7163
    -5.5512  -5.4584  -5.3750  -5.2501  -5.2041  -5.0860  -5.0172  -4.9320
    -4.8849  -4.8275  -4.7095  -4.4587  -4.4033  -4.2608  -4.1786  -4.0914
    -4.0401  -3.9441  -3.8787  -3.7468  -3.6539  -3.5856  -3.5412  -3.3801
    -3.2051  -3.0687  -2.9763  -2.8694  -2.5695  -2.5050  -2.2106  -1.4293
    -1.2556  -1.2280  -1.0622  -0.3788  -0.3391   0.0868   0.2174   0.2960
     0.4767   0.5622   0.6400   0.9107   1.0915   1.2060   1.2762   1.3086
     1.3814   1.5752   1.6336   1.9610   2.2130   3.2799   3.4953   3.5129
     3.6977   3.7957   3.9732   4.2355   4.3398   4.4259   4.5408   4.7320
     4.8643   5.2298   5.4709   5.5942   5.8021   5.8902   6.0490   6.2011
     6.3087   6.4448   6.7072   6.8610   7.1135   7.2735   7.3942   7.5777
     7.6069   7.8315   8.0598   8.1020   8.2461   8.3821   8.5345   8.6115
     8.6309   8.7075   8.9252   9.0645   9.1552   9.3869   9.4645   9.5925
     9.6859   9.7846   9.8612   9.9097   9.9537  10.0103  10.0543  10.2134
    10.2679  10.3477  10.4188  10.4618  10.5611  10.6954  10.7954  10.9019
    11.0304  11.0821  11.2033  11.3693  11.4602  11.5548  11.5931  11.8003
    11.8412  11.9329  12.1279  12.2630  12.3702  12.5204  12.5518  12.6137
    12.7075  12.7239  12.8234  12.9175  12.9637  13.0345  13.1341  13.2604
    13.3330  13.4842  13.5481  13.6117  13.7074  13.7424  13.7754  13.8622
    13.9061  13.9586  14.0633  14.1356  14.1986  14.2318  14.2535  14.4363
    14.4872  14.5215  14.5715  14.6627  14.6823  14.8292  14.8441  14.9051
    15.0005  15.0270  15.0816  15.1495  15.1896  15.2479  15.3006  15.4708
    15.5532  15.5793  15.6771  15.7929  15.8905  16.0604  16.0992  16.1559
    16.2214  16.3093  16.3488  16.4467  16.5303  16.5659  16.6239  16.6795
    16.7581  16.8787  16.9583  17.0526  17.1334  17.1888  17.2715  17.3660
    17.4586  17.5085  17.5937  17.7555  17.7693  17.8221  17.8974  17.9606
    18.0164  18.0878  18.1301  18.2160  18.2848  18.3224  18.3759  18.4459
    18.5131  18.6268  18.6568  18.7473  18.8076  18.9046  18.9585  19.0313
    19.0810  19.2158  19.3137  19.4085  19.5015  19.5796  19.6357  19.7159
    19.7750  19.9245  20.0103  20.0687  20.1188  20.2076  20.2482  20.3865
    20.4937  20.5096  20.5679  20.6080  20.6892  20.7215  20.8256  20.8903
    20.9372  21.0311  21.0779  21.1674  21.2022  21.2625  21.3047  21.3770
    21.4449  21.4786  21.5540  21.6261  21.6535  21.7341  21.8243  21.9112
    21.9785  22.0626  22.1052  22.1783  22.2179  22.2464  22.3338  22.4153
    22.4371  22.4902  22.5403  22.5678  22.6534  22.6881  22.7260  22.7872
    22.8106  22.8753  22.9550  23.0008  23.0472

     the Fermi energy is     0.1961 ev

!    total energy              =   -2173.12080978 Ry
     Harris-Foulkes estimate   =   -2173.12080979 Ry
     estimated scf accuracy    <          2.4E-09 Ry

     The total energy is the sum of the following terms:

     one-electron contribution =  -24267.27186104 Ry
     hartree contribution      =   12149.30456975 Ry
     xc contribution           =    -594.32208049 Ry
     ewald contribution        =   10536.94839451 Ry
     Hubbard energy            =       2.22012506 Ry
     smearing contrib. (-TS)   =       0.00004242 Ry

     convergence has been achieved in  15 iterations

     Forces acting on atoms (Ry/au):

     negative rho (up, down):  0.244E+00 0.000E+00
     atom    1 type  1   force =    -0.00624157   -0.00628590   -0.00000294
     atom    2 type  1   force =     0.00008200    0.00359072   -0.00055589
     atom    3 type  2   force =     0.03265580   -0.00252113   -0.00032602
     atom    4 type  2   force =     0.00198805    0.00687599    0.00002136
     atom    5 type  1   force =     0.00284406    0.00490237    0.00049571
     atom    6 type  1   force =     0.00155016   -0.00504169    0.00056449
     atom    7 type  1   force =    -0.00006211   -0.00004615   -0.00069467
     atom    8 type  1   force =     0.00260430   -0.00119859   -0.00076146
     atom    9 type  2   force =    -0.01461056    0.00167078    0.00015497
     atom   10 type  2   force =    -0.00011886   -0.00169228   -0.00034951
     atom   11 type  1   force =    -0.01384494   -0.00876700   -0.00030658
     atom   12 type  1   force =    -0.01501000    0.00892872   -0.00038394
     atom   13 type  1   force =    -0.00035000   -0.00032842    0.00043208
     atom   14 type  1   force =    -0.00267169   -0.00563820   -0.00010056
     atom   15 type  1   force =    -0.00005302    0.00223799   -0.00030616
     atom   16 type  2   force =    -0.03294629   -0.00221287   -0.00031984
     atom   17 type  2   force =     0.00096799    0.00752953    0.00000608
     atom   18 type  1   force =     0.00045051    0.00473665    0.00052819
     atom   19 type  1   force =    -0.00097949   -0.00519491    0.00054884
     atom   20 type  1   force =    -0.00005315   -0.00194371   -0.00027713
     atom   21 type  1   force =     0.00311178   -0.00172744   -0.00041116
     atom   22 type  2   force =     0.01115402    0.00217497    0.00015362
     atom   23 type  2   force =     0.00013435    0.00042734    0.00012556
     atom   24 type  1   force =     0.01428071   -0.00892826   -0.00032107
     atom   25 type  1   force =     0.01456202    0.00875766   -0.00038534
     atom   26 type  1   force =    -0.00045841   -0.00097887   -0.00004227
     atom   27 type  3   force =    -0.00000320    0.00061196    0.00050128
     atom   28 type  3   force =    -0.00000625    0.00030107    0.00017170
     atom   29 type  3   force =     0.00045797   -0.00006864    0.00040937
     atom   30 type  3   force =     0.00056330   -0.00010942    0.00046074
     atom   31 type  1   force =     0.00000252   -0.00006228    0.00097055

     Total force =     0.002561     Total SCF correction =     0.000140

     bfgs converged in   8 scf cycles and   7 bfgs steps
     (criteria: energy < 0.10E-03, force < 0.10E-02)

     End of BFGS Geometry Optimization

     Final energy   =   -2173.1208097848 Ry
Begin final coordinates

ATOMIC_POSITIONS (crystal)
O0       0.000000000   0.000000000   0.370796526    0   0   1
O0       0.000000000   0.500000000   0.383515042    0   0   1
Re1      0.250000000   0.500000000   0.442820768    0   0   1
Re1      0.000000000   0.000000000   0.443158821    0   0   1
O0       0.250000000   0.780000000   0.441861900    0   0   1
O0       0.250000000   0.220000000   0.441616113    0   0   1
O0       0.000000000   0.500000000   0.497598090    0   0   1
O0       0.000000000   0.000000000   0.514036179    0   0   1
Re1      0.250000000   0.000000000   0.573741683    0   0   1
Re1      0.000000000   0.500000000   0.567293321    0   0   1
O0       0.250000000   0.720000000   0.571169927    0   0   1
O0       0.250000000   0.280000000   0.571220153    0   0   1
O0       0.000000000   0.000000000   0.625836733    0   0   1
O0       0.500000000   0.000000000   0.370832125    0   0   1
O0       0.500000000   0.500000000   0.383688549    0   0   1
Re1      0.750000000   0.500000000   0.442815239    0   0   1
Re1      0.500000000   0.000000000   0.442904365    0   0   1
O0       0.750000000   0.780000000   0.441746523    0   0   1
O0       0.750000000   0.220000000   0.441692950    0   0   1
O0       0.500000000   0.500000000   0.500528480    0   0   1
O0       0.500000000   0.000000000   0.514045258    0   0   1
Re1      0.750000000   0.000000000   0.573763941    0   0   1
Re1      0.500000000   0.500000000   0.575976015    0   0   1
O0       0.750000000   0.720000000   0.571239418    0   0   1
O0       0.750000000   0.280000000   0.571208168    0   0   1
O0       0.500000000   0.000000000   0.625274546    0   0   1
H2      -0.000341081   0.624448364   0.366399187
H2       0.499588630   0.621501265   0.365240034
H2       0.168100483   0.023526792   0.356075207
H2       0.669525820   0.021431213   0.356326420
O0       0.499897313   0.499278509   0.639428315
End final coordinates

     General routines

     Parallel routines
     Hubbard U routines

   This run was terminated on:  16:57:59   1May2014

   JOB DONE.
Running PBS batch system epilogue script
Job id: 340610.audhumbla.fysik.dtu.dk
Username: zhonxu
Groupname: campgst
Jobname: ReO2/Eads-2-layers/O-U-3.5
Sessionid: 19634
Queuename: verylong
Accounting:
This job has allocated the following 16 nodes:
c135 c135 c135 c135 c135 c135 c135 c135 c129 c129 c129 c129 c129 c129 c129 c129
Finished epilogue job 340610.audhumbla.fysik.dtu.dk for zhonxu