     Program PWSCF v.5.0.2 (svn rev. 9656) starts on 24Jan2014 at 12:25:26

     Current dimensions of program PWSCF are:
     Max number of different atomic species (ntypx) = 10
     Max number of k-points (npk) =  40000
     Max angular momentum in pseudopotentials (lmaxx) =  3
     Reading input from IrO2-v-0.90.in

     Subspace diagonalization in iterative solution of the eigenvalue problem:
     a serial algorithm will be used

     bravais-lattice index     =            0
     lattice parameter (alat)  =       8.5214  a.u.
     unit-cell volume          =     398.7679 (a.u.)^3
     number of atoms/cell      =            6
     number of atomic types    =            2
     number of electrons       =        54.00
     number of Kohn-Sham states=           78
     kinetic-energy cutoff     =      40.0000  Ry
     charge density cutoff     =     500.0000  Ry
     convergence threshold     =      1.0E-06
     mixing beta               =       0.3000
     number of iterations used =            8  plain     mixing
     Exchange-correlation      = SLA  PW   PBE  PBE ( 1 4 3 4 0)
     EXX-fraction              =        0.00
     nstep                     =           50

     celldm(1)=   8.521412  celldm(2)=   0.000000  celldm(3)=   0.000000
     celldm(4)=   0.000000  celldm(5)=   0.000000  celldm(6)=   0.000000

     crystal axes: (cart. coord. in units of alat)
               a(1) = (   1.000000   0.000000   0.000000 )
               a(2) = (   0.000000   1.000000   0.000000 )
               a(3) = (   0.000000   0.000000   0.644444 )

     reciprocal axes: (cart. coord. in units 2 pi/alat)
               b(1) = (  1.000000  0.000000  0.000000 )
               b(2) = (  0.000000  1.000000  0.000000 )
               b(3) = (  0.000000  0.000000  1.551724 )

     PseudoPot. # 1 for Ir read from file:
     /home/camp/zhonxu/pseudo/ir_pbe_v1.uspp.F.UPF
     MD5 check sum: abf987a9674477536ede83817f8f8b70
     Pseudo is Ultrasoft + core correction, Zval = 15.0
     Generated by new atomic code, or converted to UPF format
     Using radial grid of  983 points,  7 beta functions with:
                l(1) =   0
                l(2) =   0
                l(3) =   1
                l(4) =   1
                l(5) =   1
                l(6) =   2
                l(7) =   2
     Q(r) pseudized with  8 coefficients,  rinner =    1.350   1.350   1.350
                                                       1.350   1.350

     PseudoPot. # 2 for O  read from file:
     /home/camp/zhonxu/pseudo/o_pbe_v1.01.uspp.F.UPF
     MD5 check sum: 2bcb18d16ea4b960afae9ec6d52f22d2
     Pseudo is Ultrasoft + core correction, Zval =  6.0
     Generated by new atomic code, or converted to UPF format
     Using radial grid of  737 points,  5 beta functions with:
                l(1) =   0
                l(2) =   0
                l(3) =   1
                l(4) =   1
                l(5) =   2
     Q(r) pseudized with  8 coefficients,  rinner =    0.900   0.900   0.900
                                                       0.900   0.900

     atomic species   valence    mass     pseudopotential
        Ir0           15.00   192.22000     Ir( 1.00)
        O1             6.00    15.99940     O ( 1.00)

     Starting magnetic structure
     atomic species   magnetization
        Ir0          0.600
        O1           0.000

     16 Sym. Ops., with inversion, found ( 8 have fractional translation)

   Cartesian axes

     site n.     atom                  positions (alat units)
         1           Ir0 tau(   1) = (   0.0000000   0.0000000   0.0000000  )
         2           Ir0 tau(   2) = (   0.5000000   0.5000000   0.3222222  )
         3           O1  tau(   3) = (   0.3050000   0.3050000   0.0000000  )
         4           O1  tau(   4) = (  -0.3050000  -0.3050000   0.0000000  )
         5           O1  tau(   5) = (   0.8050000   0.1950000   0.3222222  )
         6           O1  tau(   6) = (   0.1950000   0.8050000   0.3222222  )

     number of k points=    36  Methfessel-Paxton smearing, width (Ry)=  0.0100
                       cart. coord. in units 2pi/alat
        k(    1) = (   0.0000000   0.0000000   0.0000000), wk =   0.0080000
        k(    2) = (   0.0000000   0.0000000   0.3103448), wk =   0.0160000
        k(    3) = (   0.0000000   0.0000000   0.6206897), wk =   0.0160000
        k(    4) = (   0.0000000   0.2000000   0.0000000), wk =   0.0320000
        k(    5) = (   0.0000000   0.2000000   0.3103448), wk =   0.0640000
        k(    6) = (   0.0000000   0.2000000   0.6206897), wk =   0.0640000
        k(    7) = (   0.0000000   0.4000000   0.0000000), wk =   0.0320000
        k(    8) = (   0.0000000   0.4000000   0.3103448), wk =   0.0640000
        k(    9) = (   0.0000000   0.4000000   0.6206897), wk =   0.0640000
        k(   10) = (   0.2000000   0.2000000   0.0000000), wk =   0.0320000
        k(   11) = (   0.2000000   0.2000000   0.3103448), wk =   0.0640000
        k(   12) = (   0.2000000   0.2000000   0.6206897), wk =   0.0640000
        k(   13) = (   0.2000000   0.4000000   0.0000000), wk =   0.0640000
        k(   14) = (   0.2000000   0.4000000   0.3103448), wk =   0.1280000
        k(   15) = (   0.2000000   0.4000000   0.6206897), wk =   0.1280000
        k(   16) = (   0.4000000   0.4000000   0.0000000), wk =   0.0320000
        k(   17) = (   0.4000000   0.4000000   0.3103448), wk =   0.0640000
        k(   18) = (   0.4000000   0.4000000   0.6206897), wk =   0.0640000
        k(   19) = (   0.0000000   0.0000000   0.0000000), wk =   0.0080000
        k(   20) = (   0.0000000   0.0000000   0.3103448), wk =   0.0160000
        k(   21) = (   0.0000000   0.0000000   0.6206897), wk =   0.0160000
        k(   22) = (   0.0000000   0.2000000   0.0000000), wk =   0.0320000
        k(   23) = (   0.0000000   0.2000000   0.3103448), wk =   0.0640000
        k(   24) = (   0.0000000   0.2000000   0.6206897), wk =   0.0640000
        k(   25) = (   0.0000000   0.4000000   0.0000000), wk =   0.0320000
        k(   26) = (   0.0000000   0.4000000   0.3103448), wk =   0.0640000
        k(   27) = (   0.0000000   0.4000000   0.6206897), wk =   0.0640000
        k(   28) = (   0.2000000   0.2000000   0.0000000), wk =   0.0320000
        k(   29) = (   0.2000000   0.2000000   0.3103448), wk =   0.0640000
        k(   30) = (   0.2000000   0.2000000   0.6206897), wk =   0.0640000
        k(   31) = (   0.2000000   0.4000000   0.0000000), wk =   0.0640000
        k(   32) = (   0.2000000   0.4000000   0.3103448), wk =   0.1280000
        k(   33) = (   0.2000000   0.4000000   0.6206897), wk =   0.1280000
        k(   34) = (   0.4000000   0.4000000   0.0000000), wk =   0.0320000
        k(   35) = (   0.4000000   0.4000000   0.3103448), wk =   0.0640000
        k(   36) = (   0.4000000   0.4000000   0.6206897), wk =   0.0640000

     Largest allocated arrays     est. size (Mb)     dimensions
     Largest temporary arrays     est. size (Mb)     dimensions

     Check: negative/imaginary core charge=   -0.000004    0.000000

     Initial potential from superposition of free atoms
     Check: negative starting charge=(component1):   -0.666649
     Check: negative starting charge=(component2):   -0.165625

     starting charge   52.99993, renormalised to   54.00000

     negative rho (up, down):  0.679E+00 0.169E+00
     Starting wfc are   40 randomized atomic wfcs

     Self-consistent Calculation

     iteration #  1     ecut=    40.00 Ry     beta=0.30
     Davidson diagonalization with overlap
     ethr =  1.00E-02,  avg # of iterations =  5.3

     negative rho (up, down):  0.603E+00 0.201E+00

     total energy              =    -499.57290935 Ry
     Harris-Foulkes estimate   =    -501.06833482 Ry
     estimated scf accuracy    <       5.14856190 Ry

     total magnetization       =     5.50 Bohr mag/cell
     absolute magnetization    =     6.01 Bohr mag/cell

[...]

     End of self-consistent calculation

 ------ SPIN UP ------------

          k = 0.0000 0.0000 0.0000 (  1691 PWs)   bands (ev):

   -34.6558 -34.6558 -34.5061 -34.5061 -34.4297 -34.4096  -6.1625  -4.8520
    -3.5902  -3.5902   5.1323   5.3571   6.9944   7.2867   7.2867  10.1903
    10.1903  10.7640  12.0924  12.4634  12.4634  12.6882  12.7681  13.1521
    13.5786  13.5786  13.9446  17.0085  17.4773  20.5739  20.8157  20.8157
    22.3977  24.8491  24.8491  25.5197  25.5198  28.9179  28.9399  29.0683
    31.7188  32.6159  32.8910  32.8910  34.5387  36.4880  36.9512  36.9512
    38.2570  38.2570  39.6843  42.9746  43.1735  43.1735  43.3050  44.7891
    46.1647  46.4006  46.5716  47.4103  47.4103  48.0895  48.0895  48.2088
    48.7472  49.3443  49.3443  50.8589  53.2671  55.2476  55.2476  55.4653
    55.4819  56.1466  56.1466  57.3376  57.4809  57.4811

[...]

 ------ SPIN DOWN ----------

[...]

     the Fermi energy is    15.9972 ev

!    total energy              =    -501.18512129 Ry
     Harris-Foulkes estimate   =    -501.18512084 Ry
     estimated scf accuracy    <       0.00000003 Ry

     The total energy is the sum of the following terms:

     one-electron contribution =     -90.57716484 Ry
     hartree contribution      =      86.19690106 Ry
     xc contribution           =    -138.84578772 Ry
     ewald contribution        =    -357.95900915 Ry
     smearing contrib. (-TS)   =      -0.00006064 Ry

[...]

     convergence has been achieved in  13 iterations

     Forces acting on atoms (Ry/au):

     negative rho (up, down):  0.390E+00 0.390E+00
     atom    1 type  1   force =     0.00000000    0.00000000    0.00000000
     atom    2 type  1   force =     0.00000000    0.00000000    0.00000000
     atom    3 type  2   force =    -0.03964333   -0.03964333   -0.00000000
     atom    4 type  2   force =     0.03964333    0.03964333   -0.00000000
     atom    5 type  2   force =    -0.03964333    0.03964333   -0.00000000
     atom    6 type  2   force =     0.03964333   -0.03964333    0.00000000

     Total force =     0.112128     Total SCF correction =     0.000132

     entering subroutine stress ...

     negative rho (up, down):  0.390E+00 0.390E+00
          total   stress  (Ry/bohr**3)                   (kbar)     P=  415.69
   0.00174173   0.00000000   0.00000000        256.22      0.00      0.00
   0.00000000   0.00174173   0.00000000          0.00    256.22      0.00
   0.00000000   0.00000000   0.00499393          0.00      0.00    734.63

     Volume is kept fixed: isostatic pressure set to zero

     BFGS Geometry Optimization

     number of scf cycles    =   1
     number of bfgs steps    =   0

     enthalpy new            =    -501.1851212916 Ry

     new trust radius        =       0.2164790807 bohr
     new conv_thr            =       0.0000010000 Ry

     new unit-cell volume =    398.76786 a.u.^3 (    59.09130 Ang^3 )

CELL_PARAMETERS (alat=  8.52141185)
   0.973601038   0.000000000   0.000000000
   0.000000000   0.973601038   0.000000000
   0.000000000   0.000000000   0.679866165

ATOMIC_POSITIONS (crystal)
Ir0      0.000000000   0.000000000   0.000000000    0   0   0
Ir0      0.500000000   0.500000000   0.500000000    0   0   0
O1       0.300347798   0.300347798   0.000000000    1   1   0
[...]
        k(   27) = (   0.0000000   0.4108459   0.5883511), wk =   0.0640000
        k(   28) = (   0.2054230   0.2054230   0.0000000), wk =   0.0320000
        k(   29) = (   0.2054230   0.2054230   0.2941755), wk =   0.0640000
        k(   30) = (   0.2054230   0.2054230   0.5883511), wk =   0.0640000
        k(   31) = (   0.2054230   0.4108459   0.0000000), wk =   0.0640000
        k(   32) = (   0.2054230   0.4108459   0.2941755), wk =   0.1280000
        k(   33) = (   0.2054230   0.4108459   0.5883511), wk =   0.1280000
        k(   34) = (   0.4108459   0.4108459   0.0000000), wk =   0.0320000
        k(   35) = (   0.4108459   0.4108459   0.2941755), wk =   0.0640000
        k(   36) = (   0.4108459   0.4108459   0.5883511), wk =   0.0640000

     Check: negative/imaginary core charge=   -0.000004    0.000000
     Check: negative starting charge=(component1):   -0.831547

[...]

     enthalpy old            =    -501.1851212916 Ry
     enthalpy new            =    -501.2132028788 Ry

     CASE: enthalpy_new < enthalpy_old

[...]

     Total force =     0.003516     Total SCF correction =     0.000057

[...]

     Threshold (ethr) on eigenvalues was too large:
     Diagonalizing with lowered threshold

     Davidson diagonalization with overlap
     ethr =  1.79E-09,  avg # of iterations =  1.2

[...]

     Total force =     0.000569     Total SCF correction =     0.000072
     SCF correction compared to forces is large: reduce conv_thr to get better values

[...]

     number of scf cycles    =   6
     number of bfgs steps    =   5

     enthalpy old            =    -501.2286709712 Ry
     enthalpy new            =    -501.2286777295 Ry

     CASE: enthalpy_new < enthalpy_old

     new trust radius        =       0.0002414279 bohr
     new conv_thr            =       0.0000000100 Ry

     new unit-cell volume =    398.76786 a.u.^3 (    59.09130 Ang^3 )

[...]

ATOMIC_POSITIONS (crystal)
Ir0      0.000000000   0.000000000   0.000000000    0   0   0
Ir0      0.500000000   0.500000000   0.500000000    0   0   0
O1       0.309969557   0.309969557   0.000000000    1   1   0
O1      -0.309969557  -0.309969557   0.000000000    1   1   0
O1       0.809969557   0.190030443   0.500000000    1   1   0
O1       0.190030443   0.809969557   0.500000000    1   1   0

     Check: negative starting charge=(component1):   -0.830110
     NEW-OLD atomic charge density approx. for the potential
     NEW k-points:
        k(    1) = (   0.0000000   0.0000000   0.0000000), wk =   0.0080000
        k(    2) = (   0.0000000   0.0000000   0.2885298), wk =   0.0160000
        k(    3) = (   0.0000000   0.0000000   0.5770595), wk =   0.0160000
        k(    4) = (   0.0000000   0.2074230   0.0000000), wk =   0.0320000
        k(    5) = (   0.0000000   0.2074230   0.2885298), wk =   0.0640000
        k(    6) = (   0.0000000   0.2074230   0.5770595), wk =   0.0640000
        k(    7) = (   0.0000000   0.4148460   0.0000000), wk =   0.0320000
        k(    8) = (   0.0000000   0.4148460   0.2885298), wk =   0.0640000
        k(    9) = (   0.0000000   0.4148460   0.5770595), wk =   0.0640000
        k(   10) = (   0.2074230   0.2074230   0.0000000), wk =   0.0320000
        k(   11) = (   0.2074230   0.2074230   0.2885298), wk =   0.0640000
        k(   12) = (   0.2074230   0.2074230   0.5770595), wk =   0.0640000
        k(   13) = (   0.2074230   0.4148460   0.0000000), wk =   0.0640000
        k(   14) = (   0.2074230   0.4148460   0.2885298), wk =   0.1280000
        k(   15) = (   0.2074230   0.4148460   0.5770595), wk =   0.1280000
        k(   16) = (   0.4148460   0.4148460   0.0000000), wk =   0.0320000
        k(   17) = (   0.4148460   0.4148460   0.2885298), wk =   0.0640000
        k(   18) = (   0.4148460   0.4148460   0.5770595), wk =   0.0640000
        k(   19) = (   0.0000000   0.0000000   0.0000000), wk =   0.0080000
        k(   20) = (   0.0000000   0.0000000   0.2885298), wk =   0.0160000
        k(   21) = (   0.0000000   0.0000000   0.5770595), wk =   0.0160000
        k(   22) = (   0.0000000   0.2074230   0.0000000), wk =   0.0320000
        k(   23) = (   0.0000000   0.2074230   0.2885298), wk =   0.0640000
        k(   24) = (   0.0000000   0.2074230   0.5770595), wk =   0.0640000
        k(   25) = (   0.0000000   0.4148460   0.0000000), wk =   0.0320000
        k(   26) = (   0.0000000   0.4148460   0.2885298), wk =   0.0640000
        k(   27) = (   0.0000000   0.4148460   0.5770595), wk =   0.0640000
        k(   28) = (   0.2074230   0.2074230   0.0000000), wk =   0.0320000
        k(   29) = (   0.2074230   0.2074230   0.2885298), wk =   0.0640000
        k(   30) = (   0.2074230   0.2074230   0.5770595), wk =   0.0640000
        k(   31) = (   0.2074230   0.4148460   0.0000000), wk =   0.0640000
        k(   32) = (   0.2074230   0.4148460   0.2885298), wk =   0.1280000
        k(   33) = (   0.2074230   0.4148460   0.5770595), wk =   0.1280000
        k(   34) = (   0.4148460   0.4148460   0.0000000), wk =   0.0320000
        k(   35) = (   0.4148460   0.4148460   0.2885298), wk =   0.0640000
        k(   36) = (   0.4148460   0.4148460   0.5770595), wk =   0.0640000

     Check: negative/imaginary core charge=   -0.000004    0.000000
     Check: negative starting charge=(component1):   -0.830106

[...]

     Threshold (ethr) on eigenvalues was too large:
     Diagonalizing with lowered threshold

     Davidson diagonalization with overlap
     ethr =  5.81E-11,  avg # of iterations =  1.9

[...]

     Volume is kept fixed: isostatic pressure set to zero

     bfgs converged in   7 scf cycles and   6 bfgs steps
     (criteria: energy < 0.10E-03, force < 0.10E-02, cell < 0.50E+00)

     End of BFGS Geometry Optimization

     Final enthalpy =    -501.2286779242 Ry
Begin final coordinates
     new unit-cell volume =    398.76786 a.u.^3 (    59.09130 Ang^3 )

CELL_PARAMETERS (alat=  8.52141185)
   0.964213143   0.000000000   0.000000000
   0.000000000   0.964213143   0.000000000
   0.000000000   0.000000000   0.693169413

ATOMIC_POSITIONS (crystal)
Ir0      0.000000000   0.000000000   0.000000000    0   0   0
Ir0      0.500000000   0.500000000   0.500000000    0   0   0
O1       0.309969557   0.309969557   0.000000000    1   1   0
O1      -0.309969557  -0.309969557   0.000000000    1   1   0
O1       0.809969557   0.190030443   0.500000000    1   1   0
O1       0.190030443   0.809969557   0.500000000    1   1   0
End final coordinates

     A final scf calculation at the relaxed structure.
     The G-vectors are recalculated for the final unit cell
     Results may differ from those at the preceding step.

     bravais-lattice index     =            0
     lattice parameter (alat)  =       8.5214  a.u.
     unit-cell volume          =     398.7679 (a.u.)^3
     number of atoms/cell      =            6
     number of atomic types    =            2
     number of electrons       =        54.00
     number of Kohn-Sham states=           78
     kinetic-energy cutoff     =      40.0000  Ry
     charge density cutoff     =     500.0000  Ry
     convergence threshold     =      1.0E-08
     mixing beta               =       0.3000
     number of iterations used =            8  plain     mixing
     Exchange-correlation      = SLA  PW   PBE  PBE ( 1 4 3 4 0)
     EXX-fraction              =        0.00

     celldm(1)=   8.521412  celldm(2)=   0.000000  celldm(3)=   0.000000
     celldm(4)=   0.000000  celldm(5)=   0.000000  celldm(6)=   0.000000

     crystal axes: (cart. coord. in units of alat)
               a(1) = (   0.964213   0.000000   0.000000 )
               a(2) = (   0.000000   0.964213   0.000000 )
               a(3) = (   0.000000   0.000000   0.693169 )

     reciprocal axes: (cart. coord. in units 2 pi/alat)
               b(1) = (  1.037115  0.000000  0.000000 )
               b(2) = (  0.000000  1.037115  0.000000 )
               b(3) = (  0.000000  0.000000  1.442649 )

     PseudoPot. # 1 for Ir read from file:
     /home/camp/zhonxu/pseudo/ir_pbe_v1.uspp.F.UPF
     MD5 check sum: abf987a9674477536ede83817f8f8b70
     Pseudo is Ultrasoft + core correction, Zval = 15.0
     Generated by new atomic code, or converted to UPF format
     Using radial grid of  983 points,  7 beta functions with:
                l(1) =   0
                l(2) =   0
                l(3) =   1
                l(4) =   1
                l(5) =   1
                l(6) =   2
                l(7) =   2
     Q(r) pseudized with  8 coefficients,  rinner =    1.350   1.350   1.350
                                                       1.350   1.350

     PseudoPot. # 2 for O  read from file:
     /home/camp/zhonxu/pseudo/o_pbe_v1.01.uspp.F.UPF
     MD5 check sum: 2bcb18d16ea4b960afae9ec6d52f22d2
     Pseudo is Ultrasoft + core correction, Zval =  6.0
     Generated by new atomic code, or converted to UPF format
     Using radial grid of  737 points,  5 beta functions with:
                l(1) =   0
                l(2) =   0
                l(3) =   1
                l(4) =   1
                l(5) =   2
     Q(r) pseudized with  8 coefficients,  rinner =    0.900   0.900   0.900
                                                       0.900   0.900

     atomic species   valence    mass     pseudopotential
        Ir0           15.00   192.22000     Ir( 1.00)
        O1             6.00    15.99940     O ( 1.00)

     Starting magnetic structure
     atomic species   magnetization
        Ir0          0.600
        O1           0.000

     16 Sym. Ops., with inversion, found ( 8 have fractional translation)

   Cartesian axes

     site n.     atom                  positions (alat units)
         1           Ir0 tau(   1) = (   0.0000000   0.0000000   0.0000000  )
         2           Ir0 tau(   2) = (   0.4821066   0.4821066   0.3465847  )
         3           O1  tau(   3) = (   0.2988767   0.2988767   0.0000000  )
         4           O1  tau(   4) = (  -0.2988767  -0.2988767   0.0000000  )
         5           O1  tau(   5) = (   0.7809833   0.1832299   0.3465847  )
         6           O1  tau(   6) = (   0.1832299   0.7809833   0.3465847  )

     number of k points=    36  Methfessel-Paxton smearing, width (Ry)=  0.0100
                       cart. coord. in units 2pi/alat
        k(    1) = (   0.0000000   0.0000000   0.0000000), wk =   0.0080000
        k(    2) = (   0.0000000   0.0000000   0.2885298), wk =   0.0160000
        k(    3) = (   0.0000000   0.0000000   0.5770595), wk =   0.0160000
        k(    4) = (   0.0000000   0.2074230   0.0000000), wk =   0.0320000
        k(    5) = (   0.0000000   0.2074230   0.2885298), wk =   0.0640000
        k(    6) = (   0.0000000   0.2074230   0.5770595), wk =   0.0640000
        k(    7) = (   0.0000000   0.4148460   0.0000000), wk =   0.0320000
        k(    8) = (   0.0000000   0.4148460   0.2885298), wk =   0.0640000
        k(    9) = (   0.0000000   0.4148460   0.5770595), wk =   0.0640000
        k(   10) = (   0.2074230   0.2074230   0.0000000), wk =   0.0320000
        k(   11) = (   0.2074230   0.2074230   0.2885298), wk =   0.0640000
        k(   12) = (   0.2074230   0.2074230   0.5770595), wk =   0.0640000
        k(   13) = (   0.2074230   0.4148460   0.0000000), wk =   0.0640000
        k(   14) = (   0.2074230   0.4148460   0.2885298), wk =   0.1280000
        k(   15) = (   0.2074230   0.4148460   0.5770595), wk =   0.1280000
        k(   16) = (   0.4148460   0.4148460   0.0000000), wk =   0.0320000
        k(   17) = (   0.4148460   0.4148460   0.2885298), wk =   0.0640000
        k(   18) = (   0.4148460   0.4148460   0.5770595), wk =   0.0640000
        k(   19) = (   0.0000000   0.0000000   0.0000000), wk =   0.0080000
        k(   20) = (   0.0000000   0.0000000   0.2885298), wk =   0.0160000
        k(   21) = (   0.0000000   0.0000000   0.5770595), wk =   0.0160000
        k(   22) = (   0.0000000   0.2074230   0.0000000), wk =   0.0320000
        k(   23) = (   0.0000000   0.2074230   0.2885298), wk =   0.0640000
        k(   24) = (   0.0000000   0.2074230   0.5770595), wk =   0.0640000
        k(   25) = (   0.0000000   0.4148460   0.0000000), wk =   0.0320000
        k(   26) = (   0.0000000   0.4148460   0.2885298), wk =   0.0640000
        k(   27) = (   0.0000000   0.4148460   0.5770595), wk =   0.0640000
        k(   28) = (   0.2074230   0.2074230   0.0000000), wk =   0.0320000
        k(   29) = (   0.2074230   0.2074230   0.2885298), wk =   0.0640000
        k(   30) = (   0.2074230   0.2074230   0.5770595), wk =   0.0640000
        k(   31) = (   0.2074230   0.4148460   0.0000000), wk =   0.0640000
        k(   32) = (   0.2074230   0.4148460   0.2885298), wk =   0.1280000
        k(   33) = (   0.2074230   0.4148460   0.5770595), wk =   0.1280000
        k(   34) = (   0.4148460   0.4148460   0.0000000), wk =   0.0320000
        k(   35) = (   0.4148460   0.4148460   0.2885298), wk =   0.0640000
        k(   36) = (   0.4148460   0.4148460   0.5770595), wk =   0.0640000

     Largest allocated arrays     est. size (Mb)     dimensions
     Largest temporary arrays     est. size (Mb)     dimensions

     Check: negative/imaginary core charge=   -0.000004    0.000000

     Initial potential from superposition of free atoms
     Check: negative starting charge=(component1):   -0.667430
     Check: negative starting charge=(component2):   -0.165823

     starting charge   52.99993, renormalised to   54.00000

     negative rho (up, down):  0.680E+00 0.169E+00
     Starting wfc are   40 randomized atomic wfcs

     Self-consistent Calculation

[...]

     total energy              =    -501.22947065 Ry
     Harris-Foulkes estimate   =    -501.22947210 Ry
     estimated scf accuracy    <       0.00000002 Ry

[...]

     iteration # 16     ecut=    40.00 Ry     beta=0.30
     Davidson diagonalization with overlap
     ethr =  3.74E-11,  avg # of iterations =  3.0

     negative rho (up, down):  0.389E+00 0.389E+00

     End of self-consistent calculation

 ------ SPIN UP ------------

[...]

 ------ SPIN DOWN ----------

[...]

          k = 0.4148 0.4148 0.5771 (  1707 PWs)   bands (ev):

   -34.7338 -34.7288 -34.6954 -34.6901 -34.3856 -34.3856  -4.5120  -4.4420
    -4.1327  -4.0861   6.7011   6.8079   7.2207   7.2360   8.0350   8.4390
    10.0283  10.0574  10.8036  11.0774  11.9280  12.2887  13.8878  14.0015
    14.0475  14.8413  15.2511  15.9318  18.0996  18.5847  19.7548  20.2343
    25.1969  25.4471  25.4476  25.5578  26.5207  26.8899  27.7957  27.9667
    29.6329  30.3164  33.0142  33.0815  35.4640  36.0272  37.2919  37.7789
    38.6663  39.1070  39.3205  40.9613  43.4869  43.5770  43.7771  43.8588
    44.7861  45.7808  47.5455  48.4001  48.7466  49.1628  49.7063  49.9424
    50.2696  50.5689  51.6168  52.0570  52.4828  52.9914  53.8615  54.1649
    54.3319  55.3425  55.3695  56.5487  56.8632  57.4159

     the Fermi energy is    15.9642 ev

!    total energy              =    -501.22947262 Ry
     Harris-Foulkes estimate   =    -501.22947249 Ry
     estimated scf accuracy    <          4.5E-09 Ry

     The total energy is the sum of the following terms:

     one-electron contribution =     -83.81191184 Ry
     hartree contribution      =      82.79372057 Ry
     xc contribution           =    -138.70809768 Ry
     ewald contribution        =    -361.50235605 Ry
     smearing contrib. (-TS)   =      -0.00082762 Ry

     total magnetization       =     0.01 Bohr mag/cell
     absolute magnetization    =     0.01 Bohr mag/cell

     convergence has been achieved in  16 iterations

     Forces acting on atoms (Ry/au):

     negative rho (up, down):  0.389E+00 0.389E+00
     atom    1 type  1   force =     0.00000000    0.00000000    0.00000000
     atom    2 type  1   force =     0.00000000    0.00000000    0.00000000
     atom    3 type  2   force =    -0.00022791   -0.00022791    0.00000000
     atom    4 type  2   force =     0.00022791    0.00022791    0.00000000
     atom    5 type  2   force =    -0.00022791    0.00022791    0.00000000
     atom    6 type  2   force =     0.00022791   -0.00022791   -0.00000000

     Total force =     0.000645     Total SCF correction =     0.000068
     SCF correction compared to forces is large: reduce conv_thr to get better values

     entering subroutine stress ...

     negative rho (up, down):  0.389E+00 0.389E+00
          total   stress  (Ry/bohr**3)                   (kbar)     P=  322.68
   0.00217796   0.00000000   0.00000000        320.39      0.00      0.00
   0.00000000   0.00217796   0.00000000          0.00    320.39      0.00
   0.00000000   0.00000000   0.00222461          0.00      0.00    327.25

     General routines

     Parallel routines

   This run was terminated on:  12:49:31  24Jan2014

   JOB DONE.