     Program PWSCF v.5.0.2 (svn rev. 9656) starts on  2May2014 at  8:43:47

     Current dimensions of program PWSCF are:
     Max number of different atomic species (ntypx) = 10
     Max number of k-points (npk) =  40000
     Max angular momentum in pseudopotentials (lmaxx) =  3
     Reading input from pwscf.in
Warning: card &CELL ignored
Warning: card / ignored

     Subspace diagonalization in iterative solution of the eigenvalue problem:
     a serial algorithm will be used

     bravais-lattice index     =            0
     lattice parameter (alat)  =      10.7336  a.u.
     unit-cell volume          =    6184.1966 (a.u.)^3
     number of atoms/cell      =           31
     number of atomic types    =            3
     number of electrons       =       238.00 (up: 130.00, down: 108.00)
     number of Kohn-Sham states=          345
     kinetic-energy cutoff     =      40.0000  Ry
     charge density cutoff     =     500.0000  Ry
     convergence threshold     =      1.0E-06
     mixing beta               =       0.7000
     number of iterations used =            8  plain     mixing
     Exchange-correlation      = SLA  PW   PBE  PBE ( 1 4 3 4 0)
     EXX-fraction              =        0.00
     nstep                     =           50

     celldm(1)=  10.733644  celldm(2)=   0.000000  celldm(3)=   0.000000
     celldm(4)=   0.000000  celldm(5)=   0.000000  celldm(6)=   0.000000

     crystal axes: (cart. coord. in units of alat)
               a(1) = (   1.000000   0.000000   0.000000 )
               a(2) = (   0.000000   1.085558   0.000000 )
               a(3) = (   0.000000   0.000000   4.606685 )

     reciprocal axes: (cart. coord. in units 2 pi/alat)
               b(1) = (  1.000000  0.000000  0.000000 )
               b(2) = (  0.000000  0.921185  0.000000 )
               b(3) = (  0.000000  0.000000  0.217076 )

     PseudoPot. # 1 for O  read from file:
     /home/camp/zhonxu/pseudo/o_pbe_v1.01.uspp.F.UPF
     MD5 check sum: 2bcb18d16ea4b960afae9ec6d52f22d2
     Pseudo is Ultrasoft + core correction, Zval =  6.0
     Generated by new atomic code, or converted to UPF format
     Using radial grid of  737 points,  5 beta functions with:
                l(1) =   0
                l(2) =   0
                l(3) =   1
                l(4) =   1
                l(5) =   2
     Q(r) pseudized with  8 coefficients,  rinner =    0.900   0.900   0.900
                                                       0.900   0.900

     PseudoPot. # 2 for Mn read from file:
     /home/camp/zhonxu/pseudo/mn_pbe_v1.uspp.F.UPF
     MD5 check sum: 5fd7c7b5c956fd19902447332617373a
     Pseudo is Ultrasoft + core correction, Zval = 15.0
     Generated by new atomic code, or converted to UPF format
     Using radial grid of  859 points,  6 beta functions with:
                l(1) =   0
                l(2) =   0
                l(3) =   1
                l(4) =   1
                l(5) =   2
                l(6) =   2
     Q(r) pseudized with  6 coefficients,  rinner =    1.150   1.150   1.150
                                                       1.150   1.150

     PseudoPot. # 3 for H  read from file:
     /home/camp/zhonxu/pseudo/h_pbe_v1.uspp.F.UPF
     MD5 check sum: 3408e3ff4ec8b0a4e358431e7e038a48
     Pseudo is Ultrasoft, Zval =  1.0
     Generated by new atomic code, or converted to UPF format
     Using radial grid of  615 points,  2 beta functions with:
                l(1) =   0
                l(2) =   0
     Q(r) pseudized with  8 coefficients,  rinner =    0.700

     atomic species   valence    mass     pseudopotential
        O0             6.00    15.99940     O ( 1.00)
        Mn1           15.00    54.93800     Mn( 1.00)
        H2             1.00     1.00794     H ( 1.00)

     Starting magnetic structure
     atomic species   magnetization
        O0           0.000
        Mn1          0.600
        H2           0.000

     Simplified LDA+U calculation (l_max = 2) with parameters (eV):
     atomic species    L          U    alpha       J0     beta
        Mn1            2     1.0000   0.0000   0.0000   0.0000

     No symmetry found

   Cartesian axes

     site n.     atom                  positions (alat units)
         1           O0  tau(   1) = (   0.0000000   0.0000000   1.7399910  )
         2           O0  tau(   2) = (   0.0000000   0.5427791   1.8336449  )
         3           Mn1 tau(   3) = (   0.2500000   0.5427791   2.0703364  )
         4           Mn1 tau(   4) = (   0.0000000   0.0000000   2.0664668  )
         5           O0  tau(   5) = (   0.2500000   0.8684466   2.0675263  )
         6           O0  tau(   6) = (   0.2500000   0.2171117   2.0713959  )
         7           O0  tau(   7) = (   0.0000000   0.5427791   2.2853304  )
         8           O0  tau(   8) = (   0.0000000   0.0000000   2.4130738  )
         9           Mn1 tau(   9) = (   0.2500000   0.0000000   2.6404597  )
        10           Mn1 tau(  10) = (   0.0000000   0.5427791   2.6100556  )
        11           O0  tau(  11) = (   0.2500000   0.7598908   2.6550169  )
        12           O0  tau(  12) = (   0.2500000   0.3256675   2.6553393  )
        13           O0  tau(  13) = (   0.0000000   0.0000000   2.8422786  )
        14           O0  tau(  14) = (   0.5000000   0.0000000   1.7417876  )
        15           O0  tau(  15) = (   0.5000000   0.5427791   1.8324472  )
        16           Mn1 tau(  16) = (   0.7500000   0.5427791   2.0703364  )
        17           Mn1 tau(  17) = (   0.5000000   0.0000000   2.0689544  )
        18           O0  tau(  18) = (   0.7500000   0.8684466   2.0673421  )
        19           O0  tau(  19) = (   0.7500000   0.2171117   2.0716263  )
        20           O0  tau(  20) = (   0.5000000   0.5427791   2.2770384  )
        21           O0  tau(  21) = (   0.5000000   0.0000000   2.4133962  )
        22           Mn1 tau(  22) = (   0.7500000   0.0000000   2.6405058  )
        23           Mn1 tau(  23) = (   0.5000000   0.5427791   2.7093297  )
        24           O0  tau(  24) = (   0.7500000   0.7598908   2.6549708  )
        25           O0  tau(  25) = (   0.7500000   0.3256675   2.6552472  )
        26           O0  tau(  26) = (   0.5000000   0.0000000   2.8420483  )
        27           H2  tau(  27) = (   0.0000300   0.7005108   1.7564369  )
        28           H2  tau(  28) = (   0.5000400   0.7015529   1.7568515  )
        29           H2  tau(  29) = (   0.1610500   0.0407627   1.6853097  )
        30           H2  tau(  30) = (   0.6609300   0.0408604   1.6868759  )
        31           O0  tau(  31) = (   0.5000700   0.5432134   2.9889094  )

     number of k points=    20  Methfessel-Paxton smearing, width (Ry)=  0.0100
                       cart. coord. in units 2pi/alat
        k(    1) = (   0.0000000   0.0000000   0.0000000), wk =   0.0625000
        k(    2) = (   0.0000000   0.2302962   0.0000000), wk =   0.1250000
        k(    3) = (   0.0000000  -0.4605925   0.0000000), wk =   0.0625000
        k(    4) = (   0.2500000   0.0000000   0.0000000), wk =   0.1250000
        k(    5) = (   0.2500000   0.2302962   0.0000000), wk =   0.1250000
        k(    6) = (   0.2500000  -0.4605925   0.0000000), wk =   0.1250000
        k(    7) = (  -0.5000000   0.0000000   0.0000000), wk =   0.0625000
        k(    8) = (  -0.5000000   0.2302962   0.0000000), wk =   0.1250000
        k(    9) = (  -0.5000000  -0.4605925   0.0000000), wk =   0.0625000
        k(   10) = (  -0.2500000   0.2302962   0.0000000), wk =   0.1250000
        k(   11) = (   0.0000000   0.0000000   0.0000000), wk =   0.0625000
        k(   12) = (   0.0000000   0.2302962   0.0000000), wk =   0.1250000
        k(   13) = (   0.0000000  -0.4605925   0.0000000), wk =   0.0625000
        k(   14) = (   0.2500000   0.0000000   0.0000000), wk =   0.1250000
        k(   15) = (   0.2500000   0.2302962   0.0000000), wk =   0.1250000
        k(   16) = (   0.2500000  -0.4605925   0.0000000), wk =   0.1250000
        k(   17) = (  -0.5000000   0.0000000   0.0000000), wk =   0.0625000
        k(   18) = (  -0.5000000   0.2302962   0.0000000), wk =   0.1250000
        k(   19) = (  -0.5000000  -0.4605925   0.0000000), wk =   0.0625000
        k(   20) = (  -0.2500000   0.2302962   0.0000000), wk =   0.1250000

     Largest allocated arrays     est. size (Mb)     dimensions
     Largest temporary arrays     est. size (Mb)     dimensions

     Check: negative/imaginary core charge=   -0.000022    0.000000

     Initial potential from superposition of free atoms
     Check: negative starting charge=(component1):   -0.000737
     Check: negative starting charge=(component2):   -0.000364

     starting charge  229.99987, renormalised to  238.00000

     negative rho (up, down):  0.762E-03 0.377E-03
     Number of +U iterations with fixed ns =  0
     Starting occupations:
 --- enter write_ns ---
 LDA+U parameters:
U( 2)     =  1.00000000
alpha( 2) =  0.00000000
atom    3   Tr[ns(na)] (up, down, total) =   5.00000  0.00000  5.00000
   spin  1
    eigenvalues:
  1.000  1.000  1.000  1.000  1.000
    eigenvectors:
  1.000  0.000  0.000  0.000  0.000
  0.000  1.000  0.000  0.000  0.000
  0.000  0.000  1.000  0.000  0.000
  0.000  0.000  0.000  1.000  0.000
  0.000  0.000  0.000  0.000  1.000
    occupations:
  1.000  0.000  0.000  0.000  0.000
  0.000  1.000  0.000  0.000  0.000
  0.000  0.000  1.000  0.000  0.000
  0.000  0.000  0.000  1.000  0.000
  0.000  0.000  0.000  0.000  1.000
   spin  2
    eigenvalues:
  0.000  0.000  0.000  0.000  0.000
    eigenvectors:
  1.000  0.000  0.000  0.000  0.000
  0.000  1.000  0.000  0.000  0.000
  0.000  0.000  1.000  0.000  0.000
  0.000  0.000  0.000  1.000  0.000
  0.000  0.000  0.000  0.000  1.000
    occupations:
  0.000  0.000  0.000  0.000  0.000
  0.000  0.000  0.000  0.000  0.000
  0.000  0.000  0.000  0.000  0.000
  0.000  0.000  0.000  0.000  0.000
  0.000  0.000  0.000  0.000  0.000
atomic mag. moment =     5.000000
atom    4   Tr[ns(na)] (up, down, total) =   5.00000  0.00000  5.00000
   spin  1
    eigenvalues:
  1.000  1.000  1.000  1.000  1.000
    eigenvectors:
  1.000  0.000  0.000  0.000  0.000
  0.000  1.000  0.000  0.000  0.000
  0.000  0.000  1.000  0.000  0.000
  0.000  0.000  0.000  1.000  0.000
  0.000  0.000  0.000  0.000  1.000
    occupations:
  1.000  0.000  0.000  0.000  0.000
  0.000  1.000  0.000  0.000  0.000
  0.000  0.000  1.000  0.000  0.000
  0.000  0.000  0.000  1.000  0.000
  0.000  0.000  0.000  0.000  1.000
   spin  2
    eigenvalues:
  0.000  0.000  0.000  0.000  0.000
    eigenvectors:
  1.000  0.000  0.000  0.000  0.000
  0.000  1.000  0.000  0.000  0.000
  0.000  0.000  1.000  0.000  0.000
  0.000  0.000  0.000  1.000  0.000
  0.000  0.000  0.000  0.000  1.000
    occupations:
  0.000  0.000  0.000  0.000  0.000
  0.000  0.000  0.000  0.000  0.000
  0.000  0.000  0.000  0.000  0.000
  0.000  0.000  0.000  0.000  0.000
  0.000  0.000  0.000  0.000  0.000
atomic mag. moment =     5.000000
atom    9   Tr[ns(na)] (up, down, total) =   5.00000  0.00000  5.00000
   spin  1
    eigenvalues:
  1.000  1.000  1.000  1.000  1.000
    eigenvectors:
  1.000  0.000  0.000  0.000  0.000
[...]
   spin  2
    eigenvalues:
  0.150  0.189  0.224  0.393  0.419
    eigenvectors:
  0.781  0.000  0.003  0.172  0.045
  0.003  0.003  0.000  0.301  0.693
  0.002  0.154  0.844  0.000  0.000
  0.213  0.000  0.000  0.527  0.260
  0.001  0.844  0.153  0.001  0.002
    occupations:
  0.204  0.008 -0.001  0.102  0.002
  0.008  0.409  0.002 -0.017  0.011
 -0.001  0.002  0.219  0.005 -0.013
  0.102 -0.017  0.005  0.348 -0.002
  0.002  0.011 -0.013 -0.002  0.195
atomic mag. moment =     2.774318
atom    4   Tr[ns(na)] (up, down, total) =   4.14368  1.36700  5.51068
   spin  1
    eigenvalues:
  0.557  0.602  0.990  0.996  0.998
    eigenvectors:
  0.000  0.999  0.000  0.001  0.000
  0.000  0.001  0.001  0.899  0.099
  0.000  0.000  0.001  0.099  0.900
  0.000  0.000  0.998  0.001  0.000
  1.000  0.000  0.000  0.000  0.000
    occupations:
  0.603 -0.012 -0.004  0.005 -0.000
 -0.012  0.996  0.000 -0.000  0.002
 -0.004  0.000  0.998  0.000  0.000
  0.005 -0.000  0.000  0.990  0.000
 -0.000  0.002  0.000  0.000  0.557
   spin  2
    eigenvalues:
  0.131  0.187  0.225  0.410  0.414
    eigenvectors:
  0.002  0.005  0.000  0.006  0.987
  0.000  0.931  0.063  0.000  0.005
  0.000  0.063  0.936  0.000  0.000
  0.998  0.001  0.000  0.000  0.001
  0.000  0.000  0.000  0.994  0.006
    occupations:
  0.412  0.016  0.005 -0.011 -0.000
  0.016  0.190 -0.009  0.001 -0.001
  0.005 -0.009  0.223  0.001  0.000
 -0.011  0.001  0.001  0.131 -0.000
 -0.000 -0.001  0.000 -0.000  0.410
atomic mag. moment =     2.776678
atom    9   Tr[ns(na)] (up, down, total) =   4.05790  1.51977  5.57767
   spin  1
    eigenvalues:
  0.606  0.608  0.912  0.942  0.990
    eigenvectors:
  0.193  0.003  0.000  0.000  0.804
  0.018  0.982  0.000  0.000  0.000
  0.000  0.000  0.038  0.962  0.000
  0.790  0.014  0.000  0.000  0.196
  0.000  0.000  0.962  0.038  0.000
    occupations:
  0.915  0.001 -0.000 -0.153 -0.000
  0.001  0.608  0.000 -0.000 -0.000
 -0.000  0.000  0.940  0.000 -0.006
 -0.153 -0.000  0.000  0.681 -0.000
 -0.000 -0.000 -0.006 -0.000  0.913
   spin  2
    eigenvalues:
  0.196  0.223  0.232  0.413  0.454
    eigenvectors:
  0.837  0.000  0.000  0.163  0.000
  0.000  0.000  0.000  0.000  1.000
  0.000  0.899  0.101  0.000  0.000
  0.163  0.000  0.000  0.837  0.000
  0.000  0.101  0.899  0.000  0.000
    occupations:
  0.232 -0.000  0.000  0.080 -0.000
 -0.000  0.454 -0.000 -0.001 -0.000
  0.000 -0.000  0.224 -0.000  0.003
  0.080 -0.001 -0.000  0.378 -0.000
 -0.000 -0.000  0.003 -0.000  0.231
atomic mag. moment =     2.538136
atom   10   Tr[ns(na)] (up, down, total) =   4.31128  1.13537  5.44665
   spin  1
    eigenvalues:
  0.586  0.754  0.984  0.993  0.995
    eigenvectors:
  0.000  0.986  0.000  0.014  0.000
  0.000  0.000  1.000  0.000  0.000
  0.000  0.000  0.000  0.000  1.000
  0.000  0.014  0.000  0.986  0.000
  1.000  0.000  0.000  0.000  0.000
    occupations:
  0.757  0.000  0.001  0.028  0.000
  0.000  0.984  0.000  0.000 -0.000
  0.001  0.000  0.995 -0.000 -0.000
  0.028  0.000 -0.000  0.989 -0.000
  0.000 -0.000 -0.000 -0.000  0.586
   spin  2
    eigenvalues:
  0.117  0.175  0.185  0.273  0.386
    eigenvectors:
  0.014  0.000  0.000  0.986  0.000
  0.000  1.000  0.000  0.000  0.000
  0.000  0.000  1.000  0.000  0.000
  0.986  0.000  0.000  0.014  0.000
  0.000  0.000  0.000  0.000  1.000
    occupations:
  0.270  0.000 -0.001 -0.018 -0.000
  0.000  0.175 -0.000 -0.000  0.000
 -0.001 -0.000  0.185  0.000  0.000
 -0.018 -0.000  0.000  0.119 -0.000
 -0.000  0.000  0.000 -0.000  0.386
atomic mag. moment =     3.175914
atom   16   Tr[ns(na)] (up, down, total) =   4.14922  1.37480  5.52403
   spin  1
    eigenvalues:
  0.582  0.591  0.989  0.990  0.998
    eigenvectors:
  0.142  0.099  0.743  0.001  0.015
  0.480  0.518  0.002  0.001  0.000
  0.000  0.000  0.018  0.046  0.936
  0.378  0.382  0.237  0.000  0.003
  0.000  0.000  0.000  0.953  0.047
    occupations:
  0.891  0.016 -0.004 -0.172  0.001
  0.016  0.587  0.002 -0.004 -0.010
 -0.004  0.002  0.997 -0.005 -0.001
 -0.172 -0.004 -0.005  0.683  0.000
  0.001 -0.010 -0.001  0.000  0.990
   spin  2
    eigenvalues:
  0.150  0.189  0.224  0.393  0.418
    eigenvectors:
  0.781  0.000  0.002  0.172  0.045
  0.003  0.003  0.000  0.299  0.695
  0.002  0.152  0.846  0.000  0.000
  0.213  0.000  0.000  0.528  0.259
  0.001  0.846  0.151  0.001  0.002
    occupations:
  0.204 -0.008 -0.001  0.102 -0.002
 -0.008  0.409 -0.002  0.017  0.011
 -0.001 -0.002  0.219  0.005  0.013
  0.102  0.017  0.005  0.348  0.001
 -0.002  0.011  0.013  0.001  0.195
atomic mag. moment =     2.774420
atom   17   Tr[ns(na)] (up, down, total) =   4.14129  1.36713  5.50842
   spin  1
    eigenvalues:
  0.558  0.603  0.990  0.994  0.996
    eigenvectors:
  0.000  0.999  0.000  0.000  0.001
  0.000  0.001  0.001  0.345  0.653
  0.000  0.000  0.004  0.650  0.346
  0.000  0.000  0.995  0.004  0.000
  1.000  0.000  0.000  0.000  0.000
    occupations:
  0.604 -0.012 -0.004  0.005 -0.000
 -0.012  0.995  0.001  0.000  0.002
 -0.004  0.001  0.995  0.000  0.000
  0.005  0.000  0.000  0.990  0.000
 -0.000  0.002  0.000  0.000  0.558
   spin  2
    eigenvalues:
  0.133  0.186  0.226  0.407  0.415
    eigenvectors:
  0.001  0.005  0.000  0.001  0.992
  0.000  0.940  0.054  0.000  0.005
  0.000  0.054  0.945  0.000  0.001
  0.998  0.001  0.000  0.000  0.001
  0.000  0.000  0.000  0.999  0.001
    occupations:
  0.414  0.016  0.005 -0.010 -0.000
  0.016  0.189 -0.009  0.000 -0.001
  0.005 -0.009  0.224  0.001  0.000
 -0.010  0.000  0.001  0.133 -0.000
 -0.000 -0.001  0.000 -0.000  0.407
atomic mag. moment =     2.774159
atom   22   Tr[ns(na)] (up, down, total) =   4.05764  1.52018  5.57782
   spin  1
    eigenvalues:
  0.606  0.608  0.912  0.942  0.990
    eigenvectors:
  0.184  0.012  0.000  0.000  0.804
  0.060  0.940  0.000  0.000  0.000
  0.000  0.000  0.037  0.963  0.000
  0.756  0.048  0.000  0.000  0.196
  0.000  0.000  0.963  0.037  0.000
    occupations:
  0.915 -0.000 -0.000 -0.153 -0.000
 -0.000  0.608  0.000  0.001 -0.000
 -0.000  0.000  0.941  0.000  0.006
 -0.153  0.001  0.000  0.681  0.000
 -0.000 -0.000  0.006  0.000  0.913
   spin  2
    eigenvalues:
  0.196  0.223  0.232  0.414  0.455
    eigenvectors:
  0.837  0.000  0.000  0.163  0.000
  0.000  0.000  0.000  0.000  1.000
  0.000  0.895  0.105  0.000  0.000
  0.163  0.000  0.000  0.837  0.000
  0.000  0.105  0.895  0.000  0.000
    occupations:
  0.232  0.000  0.000  0.080 -0.000
  0.000  0.454 -0.000  0.001 -0.000
  0.000 -0.000  0.224 -0.000 -0.003
  0.080  0.001 -0.000  0.378  0.000
 -0.000 -0.000 -0.003  0.000  0.231
atomic mag. moment =     2.537462
atom   23   Tr[ns(na)] (up, down, total) =   3.79936  1.88065  5.68000
   spin  1
    eigenvalues:
  0.572  0.624  0.775  0.834  0.994
    eigenvectors:
  0.000  0.999  0.000  0.000  0.001
  0.000  0.000  0.000  1.000  0.000
  0.000  0.000  1.000  0.000  0.000
  0.000  0.001  0.000  0.000  0.999
  1.000  0.000  0.000  0.000  0.000
    occupations:
  0.624  0.000  0.000  0.010  0.000
  0.000  0.834 -0.000  0.000  0.000
  0.000 -0.000  0.775 -0.000  0.000
  0.010  0.000 -0.000  0.993 -0.000
  0.000  0.000  0.000 -0.000  0.572
   spin  2
    eigenvalues:
  0.137  0.404  0.410  0.432  0.498
    eigenvectors:
  0.001  0.000  0.000  0.000  0.999
  0.000  0.000  1.000  0.000  0.000
  0.000  1.000  0.000  0.000  0.000
  0.999  0.000  0.000  0.000  0.001
  0.000  0.000  0.000  1.000  0.000
    occupations:
  0.498 -0.000 -0.000 -0.008 -0.000
 -0.000  0.410 -0.000 -0.000 -0.000
 -0.000 -0.000  0.404  0.000 -0.000
 -0.008 -0.000  0.000  0.138  0.000
 -0.000 -0.000 -0.000  0.000  0.432
atomic mag. moment =     1.918712
N of occupied +U levels =  44.3492540
 --- exit write_ns ---

 ------ SPIN UP ------------

[...]

 ------ SPIN DOWN ----------

[...]

          k = 0.2500-0.4606 0.0000 ( 26462 PWs)   bands (ev):

[...]

          k =-0.2500 0.2303 0.0000 ( 26396 PWs)   bands (ev):

   -81.9539 -80.8519 -80.8435 -80.8108 -80.8027 -80.6756 -80.6431 -80.4571
   -51.0516 -50.5761 -50.5450 -49.7473 -49.7463 -49.7386 -49.7201 -49.6438
   -49.6279 -49.6237 -49.5954 -49.5816 -49.5265 -49.5191 -49.5083 -49.4924
   -49.4798 -49.4476 -49.4328 -49.4147 -49.2945 -49.2605 -49.2604 -49.0253
   -21.8683 -21.4156 -21.3075 -20.9804 -20.7133 -20.5946 -20.4506 -20.3830
   -20.2750 -20.1930 -20.0916 -19.9725 -19.8897 -19.8394 -19.7554 -19.6014
   -19.4523 -19.3397 -19.2054  -9.3932  -9.1563  -8.8320  -8.7040  -8.6114
    -8.3278  -8.1868  -8.1200  -7.9279  -7.7767  -7.6951  -7.6299  -7.5614
    -7.4807  -7.3943  -7.1934  -7.1442  -7.0389  -6.9299  -6.8626  -6.7793
    -6.6959  -6.6325  -6.5232  -6.3836  -6.2787  -6.2011  -6.0850  -6.0190
    -5.9582  -5.8619  -5.7732  -5.7010  -5.5947  -5.5370  -5.4240  -5.3116
    -5.1465  -4.9731  -4.8915  -4.8094  -4.6453  -4.5769  -4.5162  -4.4263
    -4.3416  -4.2742  -4.1626  -3.9985  -3.9043  -3.7719  -3.7272  -3.5445
    -3.4036  -3.3357  -3.1463  -2.8836  -1.4710  -1.1295  -1.0306  -0.9630
    -0.9226  -0.8971  -0.8152  -0.7732  -0.7365  -0.6846  -0.5818  -0.5147
    -0.4739  -0.4400  -0.3222  -0.2789  -0.2278  -0.2123  -0.0604   0.0141
     0.0772   0.2295   0.3181   0.3702   0.4227   0.5073   0.7842   0.8731
     1.1562   1.2238   1.3351   1.4784   1.4866   1.7538   2.0087   2.0496
     2.1304   2.3347   2.4256   2.5467   3.6112   4.3256   4.5649   4.9815
     5.3915   5.6179   5.6503   6.1533   6.3231   6.5640   6.5770   6.7818
     6.8680   7.0189   7.0931   7.4298   7.5465   7.7891   7.9113   8.0536
     8.3386   8.4284   8.5764   8.6472   8.8337   8.9406   9.0422   9.1803
     9.2351   9.3249   9.5159   9.5685   9.7757   9.8889  10.0485  10.1341
    10.2332  10.2766  10.4011  10.4676  10.6159  10.7127  10.8110  10.9398
    11.0818  11.1467  11.2430  11.3013  11.4233  11.4840  11.6202  11.6648
    11.7045  11.8347  11.9114  11.9924  12.0086  12.1511  12.3506  12.4012
    12.4475  12.5527  12.5802  12.7243  12.8071  12.8772  12.9603  12.9981
    13.0621  13.0965  13.1812  13.2393  13.3675  13.4082  13.4990  13.5425
    13.6225  13.7384  13.7623  13.8147  13.9086  13.9957  14.0933  14.1195
    14.2458  14.3204  14.3541  14.4152  14.4888  14.5660  14.5953  14.6673
    14.7791  14.8377  14.9390  15.0110  15.0743  15.1242  15.2184  15.2996
    15.3516  15.4515  15.5507  15.6255  15.7119  15.8482  16.0003  16.0618
    16.1333  16.1985  16.2736  16.3319  16.4509  16.5447  16.5598  16.5864
    16.6869  16.7578  16.8645  16.9892  17.0364  17.0889  17.1973  17.2565
    17.3357  17.3479  17.4345  17.5077  17.6075  17.6440  17.7224  17.7799
    17.8787  17.8954  17.9505  18.0697  18.1511  18.2144  18.3060  18.3485
    18.3997  18.5336  18.6031  18.6781  18.7415  18.7979  18.9176  19.0212
    19.0768  19.1045  19.1815  19.2313  19.2668  19.4140  19.4800  19.5002
    19.6230  19.6869  19.8086  19.8645  19.9470  20.0075  20.0535  20.0977
    20.2062  20.2867  20.3100  20.3488  20.4168  20.5177  20.6157  20.7203
    20.8400  20.9143  21.0110  21.0536  21.0831  21.1600  21.2122  21.3629
    21.4162  21.4492  21.5166  21.6286  21.6605  21.7033  21.7554  21.8238
    21.9391  21.9985  22.1100  22.1697  22.2548  22.3984  22.4875  22.5211
    22.5736

     the spin up/dw Fermi energies are    -2.2161   -1.9604 ev

!    total energy              =   -2320.54772208 Ry
     Harris-Foulkes estimate   =   -2320.54772209 Ry
     estimated scf accuracy    <          8.1E-09 Ry

     The total energy is the sum of the following terms:

     one-electron contribution =  -26444.35062824 Ry
     hartree contribution      =   13238.13272630 Ry
     xc contribution           =    -347.91461518 Ry
     ewald contribution        =   11233.13787972 Ry
     Hubbard energy            =       0.44750337 Ry
     smearing contrib. (-TS)   =      -0.00058806 Ry

     total magnetization       =    22.00 Bohr mag/cell
     absolute magnetization    =    24.14 Bohr mag/cell

     convergence has been achieved in  19 iterations

     Forces acting on atoms (Ry/au):

     negative rho (up, down):  0.218E-02 0.131E-02
     atom    1 type  1   force =    -0.00412871   -0.01547895    0.00059124
     atom    2 type  1   force =     0.00023773    0.01193169    0.00030992
     atom    3 type  2   force =     0.04557575   -0.00312103   -0.00054110
     atom    4 type  2   force =     0.00514870    0.01109277    0.00035957
     atom    5 type  1   force =     0.00118542    0.01497303   -0.00060022
     atom    6 type  1   force =    -0.00528343   -0.01700854   -0.00049178
     atom    7 type  1   force =     0.00001498    0.00040796    0.00045392
     atom    8 type  1   force =    -0.00064501   -0.00118149    0.00054559
     atom    9 type  2   force =     0.00911322    0.00012163   -0.00097879
     atom   10 type  2   force =    -0.00002339   -0.00086092   -0.00022204
     atom   11 type  1   force =     0.00449790   -0.06651114    0.00051752
     atom   12 type  1   force =     0.00428759    0.06664556    0.00054761
     atom   13 type  1   force =    -0.00031143   -0.00017142    0.00070124
     atom   14 type  1   force =    -0.00462681   -0.01590504    0.00051200
     atom   15 type  1   force =     0.00024385    0.01162576    0.00001829
     atom   16 type  2   force =    -0.04640162   -0.00300378   -0.00055253
     atom   17 type  2   force =     0.00511649    0.01105816    0.00040404
     atom   18 type  1   force =     0.00545143    0.01467299   -0.00057524
     atom   19 type  1   force =    -0.00044673   -0.01712933   -0.00049834
     atom   20 type  1   force =    -0.00011327   -0.00051341   -0.00094664
     atom   21 type  1   force =    -0.00071450   -0.00114921    0.00037610
     atom   22 type  2   force =    -0.00805164    0.00038824   -0.00098144
     atom   23 type  2   force =    -0.00006230   -0.00016344    0.00061190
     atom   24 type  1   force =    -0.00442623   -0.06650004    0.00051520
     atom   25 type  1   force =    -0.00423469    0.06659482    0.00054277
     atom   26 type  1   force =    -0.00024779   -0.00021843    0.00057120
     atom   27 type  3   force =     0.00003127   -0.00045026   -0.00025834
     atom   28 type  3   force =     0.00001901   -0.00022825   -0.00024554
     atom   29 type  3   force =    -0.00063584    0.00002525   -0.00076438
     atom   30 type  3   force =    -0.00057648    0.00002551   -0.00072891
     atom   31 type  1   force =     0.00000651    0.00003131    0.00080719

     Total force =     0.003391     Total SCF correction =     0.000367
     SCF correction compared to forces is large: reduce conv_thr to get better values

     bfgs converged in   7 scf cycles and   6 bfgs steps
     (criteria: energy < 0.10E-03, force < 0.10E-02)

     End of BFGS Geometry Optimization

     Final energy   =   -2320.5477220833 Ry
Begin final coordinates

ATOMIC_POSITIONS (crystal)
O0       0.000000000   0.000000000   0.377157981    0   0   1
O0       0.000000000   0.500000000   0.397727885    0   0   1
Mn1      0.250000000   0.500000000   0.449303096    0   0   1
Mn1      0.000000000   0.000000000   0.448135908    0   0   1
O0       0.250000000   0.800000000   0.448766468    0   0   1
O0       0.250000000   0.200000000   0.449716493    0   0   1
O0       0.000000000   0.500000000   0.495824475    0   0   1
O0       0.000000000   0.000000000   0.524039620    0   0   1
Mn1      0.250000000   0.000000000   0.573189921    0   0   1
Mn1      0.000000000   0.500000000   0.566795801    0   0   1
O0       0.250000000   0.700000000   0.576505968    0   0   1
O0       0.250000000   0.300000000   0.576594835    0   0   1
O0       0.000000000   0.000000000   0.617505787    0   0   1
O0       0.500000000   0.000000000   0.377628466    0   0   1
O0       0.500000000   0.500000000   0.397626581    0   0   1
Mn1      0.750000000   0.500000000   0.449306983    0   0   1
Mn1      0.500000000   0.000000000   0.448744553    0   0   1
O0       0.750000000   0.800000000   0.448744588    0   0   1
O0       0.750000000   0.200000000   0.449750009    0   0   1
O0       0.500000000   0.500000000   0.494589892    0   0   1
O0       0.500000000   0.000000000   0.524147181    0   0   1
Mn1      0.750000000   0.000000000   0.573204553    0   0   1
Mn1      0.500000000   0.500000000   0.588284369    0   0   1
O0       0.750000000   0.700000000   0.576491750    0   0   1
O0       0.750000000   0.300000000   0.576568466    0   0   1
O0       0.500000000   0.000000000   0.617527145    0   0   1
H2       0.000067934   0.645786662   0.381172102
H2       0.500075070   0.646533925   0.381315338
H2       0.161666854   0.037952372   0.365716294
H2       0.661402995   0.037919471   0.366028088
O0       0.500074170   0.500420055   0.649049405
End final coordinates

     General routines

     Parallel routines
     Hubbard U routines

   This run was terminated on:  21:47:19   2May2014

   JOB DONE.