     Program PWSCF v.5.0.2 (svn rev. 9656) starts on 28Apr2014 at  2:42:25

     Current dimensions of program PWSCF are:
     Max number of different atomic species (ntypx) = 10
     Max number of k-points (npk) =  40000
     Max angular momentum in pseudopotentials (lmaxx) =  3
     Reading input from pwscf.in
Warning: card &CELL ignored
Warning: card / ignored

     Subspace diagonalization in iterative solution of the eigenvalue problem:
     a serial algorithm will be used

     bravais-lattice index     =            0
     lattice parameter (alat)  =      12.2076  a.u.
     unit-cell volume          =    7496.5096 (a.u.)^3
     number of atoms/cell      =           31
     number of atomic types    =            3
     number of electrons       =       246.00
     number of Kohn-Sham states=          369
     kinetic-energy cutoff     =      40.0000  Ry
     charge density cutoff     =     500.0000  Ry
     convergence threshold     =      1.0E-06
     mixing beta               =       0.7000
     number of iterations used =            8  plain     mixing
     Exchange-correlation      = SLA  PW   PBE  PBE ( 1 4 3 4 0)
     EXX-fraction              =        0.00
     nstep                     =           50

     celldm(1)=  12.207631  celldm(2)=   0.000000  celldm(3)=   0.000000
     celldm(4)=   0.000000  celldm(5)=   0.000000  celldm(6)=   0.000000

     crystal axes: (cart. coord. in units of alat)
               a(1) = (   1.000000   0.000000   0.000000 )
               a(2) = (   0.000000   1.004836   0.000000 )
               a(3) = (   0.000000   0.000000   4.100811 )

     reciprocal axes: (cart. coord. in units 2 pi/alat)
               b(1) = (  1.000000  0.000000  0.000000 )
               b(2) = (  0.000000  0.995187  0.000000 )
               b(3) = (  0.000000  0.000000  0.243854 )

     PseudoPot. # 1 for O  read from file:
     /home/camp/zhonxu/pseudo/o_pbe_v1.01.uspp.F.UPF
     MD5 check sum: 2bcb18d16ea4b960afae9ec6d52f22d2
     Pseudo is Ultrasoft + core correction, Zval =  6.0
     Generated by new atomic code, or converted to UPF format
     Using radial grid of  737 points,  5 beta functions with:
                l(1) =   0
                l(2) =   0
                l(3) =   1
                l(4) =   1
                l(5) =   2
     Q(r) pseudized with  8 coefficients,  rinner =    0.900   0.900   0.900
                                                       0.900   0.900

     PseudoPot. # 2 for Pt read from file:
     /home/camp/zhonxu/pseudo/pt_pbe_v1.uspp.F.UPF
     MD5 check sum: 4c71d6ad5ef119f1eb26a4d0b7884226
     Pseudo is Ultrasoft + core correction, Zval = 16.0
     Generated by new atomic code, or converted to UPF format
     Using radial grid of  985 points,  6 beta functions with:
                l(1) =   0
                l(2) =   0
                l(3) =   1
                l(4) =   1
                l(5) =   2
                l(6) =   2
     Q(r) pseudized with  8 coefficients,  rinner =    1.300   1.300   1.300
                                                       1.300   1.300

     PseudoPot. # 3 for H  read from file:
     /home/camp/zhonxu/pseudo/h_pbe_v1.uspp.F.UPF
     MD5 check sum: 3408e3ff4ec8b0a4e358431e7e038a48
     Pseudo is Ultrasoft, Zval =  1.0
     Generated by new atomic code, or converted to UPF format
     Using radial grid of  615 points,  2 beta functions with:
                l(1) =   0
                l(2) =   0
     Q(r) pseudized with  8 coefficients,  rinner =    0.700

     atomic species   valence    mass     pseudopotential
        O0             6.00    15.99940     O ( 1.00)
        Pt1           16.00   195.08000     Pt( 1.00)
        H2             1.00     1.00794     H ( 1.00)

     Simplified LDA+U calculation (l_max = 2) with parameters (eV):
     atomic species    L          U    alpha       J0     beta
        Pt1            2     4.5000   0.0000   0.0000   0.0000

     No symmetry found

   Cartesian axes

     site n.     atom                  positions (alat units)
         1           O0  tau(   1) = (   0.0000000   0.0000000   1.5489174  )
         2           O0  tau(   2) = (   0.0000000   0.5024180   1.6470088  )
         3           Pt1 tau(   3) = (   0.2500000   0.5024180   1.8504500  )
         4           Pt1 tau(   4) = (   0.0000000   0.0000000   1.8564782  )
         5           O0  tau(   5) = (   0.2500000   0.8139171   1.8182587  )
         6           O0  tau(   6) = (   0.2500000   0.1909188   1.8867012  )
         7           O0  tau(   7) = (   0.0000000   0.5024180   2.0373240  )
         8           O0  tau(   8) = (   0.0000000   0.0000000   2.1721997  )
         9           Pt1 tau(   9) = (   0.2500000   0.0000000   2.3623543  )
        10           Pt1 tau(  10) = (   0.0000000   0.5024180   2.3594017  )
        11           O0  tau(  11) = (   0.2500000   0.6933368   2.3215512  )
        12           O0  tau(  12) = (   0.2500000   0.3114991   2.4021322  )
        13           O0  tau(  13) = (   0.0000000   0.0000000   2.5481621  )
        14           O0  tau(  14) = (   0.5000000   0.0000000   1.5492455  )
        15           O0  tau(  15) = (   0.5000000   0.5024180   1.6439332  )
        16           Pt1 tau(  16) = (   0.7500000   0.5024180   1.8504910  )
        17           Pt1 tau(  17) = (   0.5000000   0.0000000   1.8565192  )
        18           O0  tau(  18) = (   0.7500000   0.8139171   1.8184227  )
        19           O0  tau(  19) = (   0.7500000   0.1909188   1.8866602  )
        20           O0  tau(  20) = (   0.5000000   0.5024180   2.0431061  )
        21           O0  tau(  21) = (   0.5000000   0.0000000   2.1716256  )
        22           Pt1 tau(  22) = (   0.7500000   0.0000000   2.3623953  )
        23           Pt1 tau(  23) = (   0.5000000   0.5024180   2.3697358  )
        24           O0  tau(  24) = (   0.7500000   0.6933368   2.3215102  )
        25           O0  tau(  25) = (   0.7500000   0.3114991   2.4021732  )
        26           O0  tau(  26) = (   0.5000000   0.0000000   2.5480390  )
        27           H2  tau(  27) = (   0.0001100   0.6425926   1.5814778  )
        28           H2  tau(  28) = (   0.5001800   0.6431151   1.5801656  )
        29           H2  tau(  29) = (   0.1426600   0.0364956   1.5073762  )
        30           H2  tau(  30) = (   0.6419200   0.0388771   1.5073762  )
        31           O0  tau(  31) = (   0.5000900   0.5753691   2.6428088  )

     number of k points=    10  Methfessel-Paxton smearing, width (Ry)=  0.0100
                       cart. coord. in units 2pi/alat
        k(    1) = (   0.0000000   0.0000000   0.0000000), wk =   0.1250000
        k(    2) = (   0.0000000   0.2487968   0.0000000), wk =   0.2500000
        k(    3) = (   0.0000000  -0.4975937   0.0000000), wk =   0.1250000
        k(    4) = (   0.2500000   0.0000000   0.0000000), wk =   0.2500000
        k(    5) = (   0.2500000   0.2487968   0.0000000), wk =   0.2500000
        k(    6) = (   0.2500000  -0.4975937   0.0000000), wk =   0.2500000
        k(    7) = (  -0.5000000   0.0000000   0.0000000), wk =   0.1250000
        k(    8) = (  -0.5000000   0.2487968   0.0000000), wk =   0.2500000
        k(    9) = (  -0.5000000  -0.4975937   0.0000000), wk =   0.1250000
        k(   10) = (  -0.2500000   0.2487968   0.0000000), wk =   0.2500000

     Largest allocated arrays     est. size (Mb)     dimensions
     Largest temporary arrays     est. size (Mb)     dimensions

     Check: negative/imaginary core charge=   -0.000003    0.000000

     Initial potential from superposition of free atoms
     Check: negative starting charge=   -1.533958

     starting charge  241.99985, renormalised to  246.00000

     negative rho (up, down):  0.156E+01 0.000E+00
     Number of +U iterations with fixed ns =  0
     Starting occupations:
 --- enter write_ns ---
 LDA+U parameters:
U( 2)     =  4.50000000
alpha( 2) =  0.00000000
atom    3   Tr[ns(na)] =   8.00000
    eigenvalues:
  0.800  0.800  0.800  0.800  0.800
    eigenvectors:
  1.000  0.000  0.000  0.000  0.000
  0.000  1.000  0.000  0.000  0.000
  0.000  0.000  1.000  0.000  0.000
  0.000  0.000  0.000  1.000  0.000
  0.000  0.000  0.000  0.000  1.000
    occupations:
  0.800  0.000  0.000  0.000  0.000
  0.000  0.800  0.000  0.000  0.000
  0.000  0.000  0.800  0.000  0.000
  0.000  0.000  0.000  0.800  0.000
  0.000  0.000  0.000  0.000  0.800
atom    4   Tr[ns(na)] =   8.00000
    eigenvalues:
  0.800  0.800  0.800  0.800  0.800
    eigenvectors:
  1.000  0.000  0.000  0.000  0.000
  0.000  1.000  0.000  0.000  0.000
  0.000  0.000  1.000  0.000  0.000
  0.000  0.000  0.000  1.000  0.000
  0.000  0.000  0.000  0.000  1.000
    occupations:
  0.800  0.000  0.000  0.000  0.000
  0.000  0.800  0.000  0.000  0.000
  0.000  0.000  0.800  0.000  0.000
  0.000  0.000  0.000  0.800  0.000
  0.000  0.000  0.000  0.000  0.800
atom    9   Tr[ns(na)] =   8.00000
    eigenvalues:
  0.800  0.800  0.800  0.800  0.800
    eigenvectors:
  1.000  0.000  0.000  0.000  0.000
  0.000  1.000  0.000  0.000  0.000
  0.000  0.000  1.000  0.000  0.000
  0.000  0.000  0.000  1.000  0.000
  0.000  0.000  0.000  0.000  1.000
    occupations:
  0.800  0.000  0.000  0.000  0.000
  0.000  0.800  0.000  0.000  0.000
  0.000  0.000  0.800  0.000  0.000
  0.000  0.000  0.000  0.800  0.000
  0.000  0.000  0.000  0.000  0.800
atom   10   Tr[ns(na)] =   8.00000
    eigenvalues:
  0.800  0.800  0.800  0.800  0.800
    eigenvectors:
  1.000  0.000  0.000  0.000  0.000
  0.000  1.000  0.000  0.000  0.000
  0.000  0.000  1.000  0.000  0.000
  0.000  0.000  0.000  1.000  0.000
  0.000  0.000  0.000  0.000  1.000
    occupations:
  0.800  0.000  0.000  0.000  0.000
  0.000  0.800  0.000  0.000  0.000
  0.000  0.000  0.800  0.000  0.000
  0.000  0.000  0.000  0.800  0.000
  0.000  0.000  0.000  0.000  0.800
atom   16   Tr[ns(na)] =   8.00000
    eigenvalues:
  0.800  0.800  0.800  0.800  0.800
    eigenvectors:
  1.000  0.000  0.000  0.000  0.000
  0.000  1.000  0.000  0.000  0.000
  0.000  0.000  1.000  0.000  0.000
  0.000  0.000  0.000  1.000  0.000
  0.000  0.000  0.000  0.000  1.000
    occupations:
  0.800  0.000  0.000  0.000  0.000
  0.000  0.800  0.000  0.000  0.000
  0.000  0.000  0.800  0.000  0.000
  0.000  0.000  0.000  0.800  0.000
  0.000  0.000  0.000  0.000  0.800
atom   17   Tr[ns(na)] =   8.00000
    eigenvalues:
  0.800  0.800  0.800  0.800  0.800
    eigenvectors:
  1.000  0.000  0.000  0.000  0.000
  0.000  1.000  0.000  0.000  0.000
  0.000  0.000  1.000  0.000  0.000
  0.000  0.000  0.000  1.000  0.000
  0.000  0.000  0.000  0.000  1.000
    occupations:
  0.800  0.000  0.000  0.000  0.000
  0.000  0.800  0.000  0.000  0.000
  0.000  0.000  0.800  0.000  0.000
  0.000  0.000  0.000  0.800  0.000
  0.000  0.000  0.000  0.000  0.800
atom   22   Tr[ns(na)] =   8.00000
    eigenvalues:
  0.800  0.800  0.800  0.800  0.800
    eigenvectors:
  1.000  0.000  0.000  0.000  0.000
  0.000  1.000  0.000  0.000  0.000
  0.000  0.000  1.000  0.000  0.000
  0.000  0.000  0.000  1.000  0.000
  0.000  0.000  0.000  0.000  1.000
    occupations:
  0.800  0.000  0.000  0.000  0.000
  0.000  0.800  0.000  0.000  0.000
[...]
  0.024  0.829  0.000  0.007  0.140
  0.000  0.000  0.992  0.006  0.001
    occupations:
  0.952  0.001 -0.009 -0.088  0.001
  0.001  0.715  0.001  0.001 -0.004
 -0.009  0.001  0.968 -0.026  0.001
 -0.088  0.001 -0.026  0.764 -0.000
  0.001 -0.004  0.001 -0.000  0.960
atom   10   Tr[ns(na)] =   8.78194
    eigenvalues:
  0.670  0.762  0.982  0.986  0.990
    eigenvectors:
  0.000  0.979  0.000  0.014  0.007
  0.016  0.000  0.984  0.000  0.000
  0.000  0.001  0.000  0.201  0.798
  0.000  0.020  0.000  0.785  0.194
  0.984  0.000  0.016  0.000  0.000
    occupations:
  0.767  0.000 -0.006  0.032  0.000
  0.000  0.977  0.000 -0.000 -0.039
 -0.006  0.000  0.989 -0.001 -0.000
  0.032 -0.000 -0.001  0.982 -0.000
  0.000 -0.039 -0.000 -0.000  0.675
atom   16   Tr[ns(na)] =   8.74227
    eigenvalues:
  0.698  0.709  0.986  0.987  0.990
    eigenvectors:
  0.039  0.134  0.616  0.210  0.003
  0.783  0.217  0.000  0.000  0.000
  0.001  0.005  0.003  0.069  0.923
  0.178  0.645  0.132  0.036  0.010
  0.000  0.000  0.250  0.685  0.065
    occupations:
  0.938 -0.003  0.008 -0.105  0.000
 -0.003  0.701 -0.002 -0.004 -0.004
  0.008 -0.002  0.989  0.019 -0.001
 -0.105 -0.004  0.019  0.756 -0.000
  0.000 -0.004 -0.001 -0.000  0.987
atom   17   Tr[ns(na)] =   8.73324
    eigenvalues:
  0.694  0.716  0.982  0.986  0.987
    eigenvectors:
  0.000  0.985  0.008  0.003  0.004
  0.012  0.000  0.041  0.909  0.037
  0.000  0.005  0.894  0.020  0.080
  0.000  0.009  0.056  0.057  0.877
  0.988  0.000  0.000  0.011  0.000
    occupations:
  0.720 -0.005 -0.019  0.026 -0.001
 -0.005  0.983  0.000  0.000  0.032
 -0.019  0.000  0.982  0.003  0.000
  0.026  0.000  0.003  0.984  0.000
 -0.001  0.032  0.000  0.000  0.698
atom   22   Tr[ns(na)] =   8.71796
    eigenvalues:
  0.715  0.726  0.960  0.971  0.987
    eigenvectors:
  0.001  0.133  0.001  0.011  0.855
  0.991  0.008  0.000  0.000  0.000
  0.000  0.013  0.009  0.974  0.004
  0.007  0.846  0.000  0.007  0.140
  0.000  0.000  0.990  0.008  0.001
    occupations:
  0.952 -0.000 -0.009 -0.088 -0.001
 -0.000  0.715 -0.001 -0.001 -0.004
 -0.009 -0.001  0.968 -0.026 -0.001
 -0.088 -0.001 -0.026  0.764  0.000
 -0.001 -0.004 -0.001  0.000  0.960
atom   23   Tr[ns(na)] =   8.70052
    eigenvalues:
  0.720  0.744  0.932  0.966  0.988
    eigenvectors:
  0.000  0.882  0.112  0.000  0.006
  0.020  0.000  0.000  0.980  0.000
  0.000  0.102  0.874  0.000  0.024
  0.000  0.016  0.014  0.000  0.970
  0.980  0.000  0.000  0.020  0.000
    occupations:
  0.767  0.000  0.056  0.027 -0.000
  0.000  0.961 -0.000  0.000 -0.035
  0.056 -0.000  0.914 -0.016 -0.000
  0.027  0.000 -0.016  0.984 -0.000
 -0.000 -0.035 -0.000 -0.000  0.725
N of occupied +U levels =  69.8698693
 --- exit write_ns ---

     Threshold (ethr) on eigenvalues was too large:
     Diagonalizing with lowered threshold

     Davidson diagonalization with overlap
     ethr =  2.25E-08,  avg # of iterations =  1.0

[...]

     total energy              =   -2279.56690141 Ry
     Harris-Foulkes estimate   =   -2279.56690141 Ry
     estimated scf accuracy    <       0.00000004 Ry

     iteration # 15     ecut=    40.00 Ry     beta=0.70
     Davidson diagonalization with overlap
     ethr =  1.46E-11,  avg # of iterations =  1.0

     negative rho (up, down):  0.158E+01 0.000E+00

     End of self-consistent calculation
 --- enter write_ns ---
 LDA+U parameters:
U( 2)     =  4.50000000
alpha( 2) =  0.00000000
atom    3   Tr[ns(na)] =   8.74222
    eigenvalues:
  0.698  0.709  0.986  0.987  0.990
    eigenvectors:
  0.039  0.133  0.614  0.212  0.002
  0.782  0.218  0.000  0.000  0.000
  0.001  0.005  0.004  0.070  0.922
  0.179  0.644  0.132  0.036  0.010
  0.000  0.000  0.251  0.682  0.067
    occupations:
  0.938  0.003  0.008 -0.105 -0.000
  0.003  0.701  0.002  0.004 -0.004
  0.008  0.002  0.989  0.019  0.001
 -0.105  0.004  0.019  0.756  0.000
 -0.000 -0.004  0.001  0.000  0.987
atom    4   Tr[ns(na)] =   8.73356
    eigenvalues:
  0.693  0.716  0.985  0.986  0.987
    eigenvectors:
  0.000  0.985  0.009  0.004  0.001
  0.012  0.000  0.130  0.805  0.053
  0.000  0.005  0.653  0.032  0.310
  0.000  0.009  0.207  0.149  0.635
  0.988  0.000  0.002  0.010  0.001
    occupations:
  0.720 -0.005 -0.019  0.026 -0.001
 -0.005  0.983  0.000  0.000  0.032
 -0.019  0.000  0.984  0.003 -0.000
  0.026  0.000  0.003  0.984  0.000
 -0.001  0.032 -0.000  0.000  0.696
atom    9   Tr[ns(na)] =   8.71755
    eigenvalues:
  0.715  0.726  0.960  0.971  0.987
    eigenvectors:
  0.004  0.130  0.001  0.010  0.855
  0.970  0.030  0.000  0.000  0.000
  0.001  0.013  0.005  0.978  0.004
  0.025  0.828  0.000  0.007  0.140
  0.000  0.000  0.993  0.005  0.001
    occupations:
  0.952  0.001 -0.009 -0.088  0.001
  0.001  0.715  0.001  0.001 -0.004
 -0.009  0.001  0.968 -0.026  0.001
 -0.088  0.001 -0.026  0.764 -0.000
  0.001 -0.004  0.001 -0.000  0.960
atom   10   Tr[ns(na)] =   8.78264
    eigenvalues:
  0.670  0.763  0.982  0.986  0.990
    eigenvectors:
  0.000  0.979  0.000  0.014  0.007
  0.016  0.000  0.984  0.000  0.000
  0.000  0.001  0.000  0.202  0.798
  0.000  0.020  0.000  0.785  0.195
  0.984  0.000  0.016  0.000  0.000
    occupations:
  0.767  0.000 -0.006  0.032  0.000
  0.000  0.977  0.000 -0.000 -0.039
 -0.006  0.000  0.989 -0.001 -0.000
  0.032 -0.000 -0.001  0.982 -0.000
  0.000 -0.039 -0.000 -0.000  0.675
atom   16   Tr[ns(na)] =   8.74222
    eigenvalues:
  0.698  0.709  0.986  0.987  0.990
    eigenvectors:
  0.038  0.134  0.616  0.209  0.003
  0.784  0.215  0.000  0.000  0.000
  0.001  0.005  0.003  0.069  0.923
  0.177  0.646  0.132  0.036  0.010
  0.000  0.000  0.250  0.686  0.065
    occupations:
  0.938 -0.003  0.008 -0.105  0.000
 -0.003  0.701 -0.002 -0.004 -0.004
  0.008 -0.002  0.989  0.019 -0.001
 -0.105 -0.004  0.019  0.756 -0.000
  0.000 -0.004 -0.001 -0.000  0.987
atom   17   Tr[ns(na)] =   8.73305
    eigenvalues:
  0.694  0.716  0.982  0.986  0.987
    eigenvectors:
  0.000  0.985  0.008  0.002  0.005
  0.012  0.000  0.040  0.911  0.037
  0.000  0.005  0.897  0.020  0.077
  0.000  0.009  0.054  0.056  0.881
  0.988  0.000  0.000  0.011  0.000
    occupations:
  0.720 -0.005 -0.019  0.026 -0.001
 -0.005  0.983  0.000  0.000  0.032
 -0.019  0.000  0.981  0.003  0.000
  0.026  0.000  0.003  0.984  0.000
 -0.001  0.032  0.000  0.000  0.698
atom   22   Tr[ns(na)] =   8.71756
    eigenvalues:
  0.715  0.726  0.960  0.971  0.987
    eigenvectors:
  0.001  0.133  0.001  0.011  0.855
  0.991  0.009  0.000  0.000  0.000
  0.000  0.013  0.007  0.975  0.004
  0.008  0.845  0.000  0.007  0.140
  0.000  0.000  0.991  0.007  0.001
    occupations:
  0.952 -0.000 -0.009 -0.088 -0.001
 -0.000  0.715 -0.001 -0.001 -0.004
 -0.009 -0.001  0.968 -0.026 -0.001
 -0.088 -0.001 -0.026  0.764  0.000
 -0.001 -0.004 -0.001  0.000  0.960
atom   23   Tr[ns(na)] =   8.70083
    eigenvalues:
  0.720  0.744  0.932  0.966  0.988
    eigenvectors:
  0.000  0.882  0.112  0.000  0.006
  0.020  0.000  0.000  0.980  0.000
  0.000  0.102  0.874  0.000  0.024
  0.000  0.016  0.014  0.000  0.970
  0.980  0.000  0.000  0.020  0.000
    occupations:
  0.767  0.000  0.056  0.027 -0.000
  0.000  0.961 -0.000  0.000 -0.035
  0.056 -0.000  0.914 -0.016 -0.000
  0.027  0.000 -0.016  0.984 -0.000
 -0.000 -0.035 -0.000 -0.000  0.725
N of occupied +U levels =  69.8696363
 --- exit write_ns ---

[...]

          k = 0.2500-0.4976 0.0000 ( 32026 PWs)   bands (ev):

[...]

          k =-0.2500 0.2488 0.0000 ( 32025 PWs)   bands (ev):

   -55.7682 -55.7149 -55.5897 -55.5120 -55.4797 -55.4734 -55.4390 -55.3902
   -55.3445 -55.3411 -55.3370 -55.3113 -55.3085 -55.1909 -55.1543 -55.1508
   -55.1487 -55.0741 -55.0359 -55.0302 -55.0259 -54.7911 -54.5544 -54.2253
   -22.2401 -21.9975 -21.3574 -21.2416 -20.9265 -20.8459 -20.8311 -20.6793
   -20.6133 -20.5562 -20.4500 -20.3654 -20.3577 -20.1851 -20.1146 -20.0999
   -19.5073 -19.2210 -19.0524 -10.9671 -10.7703 -10.6397 -10.6118 -10.1449
   -10.1201 -10.0409  -9.8116  -9.6858  -9.6393  -9.5583  -9.5309  -9.3522
    -9.2288  -9.1980  -9.0663  -8.9978  -8.8189  -8.5434  -8.4761  -8.3086
    -8.2945  -8.1575  -8.0875  -7.9949  -7.8292  -7.7509  -7.5731  -7.5393
    -7.4863  -7.3826  -7.2930  -7.1855  -7.1311  -7.0642  -6.9899  -6.9505
    -6.8425  -6.7738  -6.6528  -6.4794  -6.3851  -6.2522  -6.0486  -5.9015
    -5.7260  -5.6475  -5.5873  -5.4582  -5.3778  -5.3060  -5.1596  -5.0230
    -4.9384  -4.7966  -4.6245  -4.5205  -4.4122  -4.2828  -4.1967  -4.1427
    -4.0111  -3.9758  -3.8940  -3.7730  -3.6651  -3.6356  -3.3693  -3.3216
    -3.2266  -3.0041  -2.8734  -2.7423  -2.7098  -2.6107  -2.5690  -2.4547
    -2.2495  -2.1244  -2.0000  -1.8990  -1.7476  -1.2544  -1.1191  -0.8010
    -0.4461  -0.2991   0.0140   0.3019   0.5373   0.6737   0.7139   0.8419
     1.0546   1.2376   1.3160   1.6707   3.0701   3.8380   4.5892   5.0130
     5.0387   5.1112   5.3037   5.6514   6.0839   6.1494   6.1791   6.3216
     6.4347   6.5231   6.6739   6.8503   6.9302   6.9811   7.1028   7.2217
     7.3578   7.4792   7.5599   7.5792   7.6902   7.8641   7.9300   8.0333
     8.1647   8.2602   8.3045   8.4511   8.5506   8.6414   8.6634   8.7795
     8.8647   9.0100   9.1316   9.2837   9.3444   9.4703   9.5341   9.5996
     9.6949   9.8732  10.0254  10.0999  10.1862  10.2476  10.3132  10.3859
    10.5226  10.5791  10.6508  10.7627  10.7925  10.9605  11.0491  11.0821
    11.1701  11.1991  11.3721  11.4573  11.4826  11.7125  11.7406  11.7786
    11.8667  11.9453  11.9972  12.0757  12.1394  12.2444  12.2691  12.3281
    12.4114  12.4511  12.5231  12.5752  12.6384  12.7381  12.8131  12.9232
    12.9626  13.0362  13.1705  13.2060  13.2347  13.4441  13.5168  13.5616
    13.6392  13.6926  13.7702  13.8637  13.9285  13.9679  14.0490  14.1239
    14.1846  14.3259  14.4140  14.5202  14.5594  14.6335  14.7635  14.8493
    14.8777  14.9446  15.1238  15.2196  15.2582  15.3297  15.4138  15.4539
    15.5313  15.5865  15.6440  15.6756  15.7576  15.7755  15.8250  15.8935
    15.9979  16.0552  16.0810  16.1590  16.1785  16.2560  16.3677  16.4333
    16.4772  16.5232  16.5822  16.7393  16.7943  16.8402  16.8612  16.8880
    16.8974  16.9044  16.9352  16.9430  16.9927  17.0334  17.0612  17.1132
    17.1574  17.2118  17.2195  17.2663  17.3057  17.3726  17.4671  17.5054
    17.5393  17.5850  17.6161  17.7267  17.7733  17.8072  17.9104  17.9581
    18.0371  18.0824  18.1378  18.2448  18.2639  18.3856  18.4888  18.5199
    18.5927  18.6244  18.6820  18.7236  18.8268  18.8649  18.8983  19.0228
    19.0490  19.1663  19.1870  19.2114  19.3115  19.3635  19.4436  19.4751
    19.6415  19.7727  19.8198  19.8794  19.9482  19.9663  19.9847  20.0713
    20.1230  20.2237  20.2441  20.3078  20.3689  20.3955  20.4960  20.5828
    20.6490  20.7012  20.7527  20.8507  20.9273  20.9621  21.0188  21.0574
    21.0733  21.2303  21.2662  21.3751  21.4046  21.4617  21.5090  21.5547
    21.6055  21.6575  21.7301  21.7847  21.8289  21.8934  22.0010  22.0922
    22.1373

     the Fermi energy is    -1.9497 ev

!    total energy              =   -2279.56690140 Ry
     Harris-Foulkes estimate   =   -2279.56690141 Ry
     estimated scf accuracy    <          4.8E-09 Ry

     The total energy is the sum of the following terms:

     one-electron contribution =  -23666.06883317 Ry
     hartree contribution      =   11874.87005247 Ry
     xc contribution           =    -572.08116122 Ry
     ewald contribution        =   10082.48008575 Ry
     Hubbard energy            =       1.23321482 Ry
     smearing contrib. (-TS)   =      -0.00026005 Ry

     convergence has been achieved in  15 iterations

     Forces acting on atoms (Ry/au):

     negative rho (up, down):  0.158E+01 0.000E+00
     atom    1 type  1   force =    -0.00874817   -0.00414368   -0.00050306
     atom    2 type  1   force =     0.00014336    0.00413279    0.00030771
     atom    3 type  2   force =     0.01616410    0.00531948    0.00003192
     atom    4 type  2   force =     0.01065022    0.00480491   -0.00040548
     atom    5 type  1   force =     0.00121637   -0.00344569    0.00014646
     atom    6 type  1   force =    -0.00016748   -0.00294833   -0.00023440
     atom    7 type  1   force =     0.00006665    0.00089381   -0.00078236
     atom    8 type  1   force =    -0.00418427    0.00246674   -0.00032782
     atom    9 type  2   force =     0.00440232   -0.00476104    0.00030480
     atom   10 type  2   force =    -0.00000793   -0.02043819   -0.00046273
     atom   11 type  1   force =    -0.00247564    0.00203904   -0.00028109
     atom   12 type  1   force =    -0.00891584    0.01499419    0.00011881
     atom   13 type  1   force =    -0.00110547   -0.00856592    0.00053684
     atom   14 type  1   force =    -0.00859677   -0.00294606   -0.00058146
     atom   15 type  1   force =     0.00015813    0.00201607    0.00057614
     atom   16 type  2   force =    -0.01696379    0.00518424    0.00005602
     atom   17 type  2   force =     0.01047665    0.00497715   -0.00032924
     atom   18 type  1   force =     0.00126220   -0.00337308    0.00015221
     atom   19 type  1   force =     0.00026440   -0.00285929   -0.00024021
     atom   20 type  1   force =     0.00008005   -0.00482120    0.00034079
     atom   21 type  1   force =    -0.00405082    0.00229003    0.00001490
     atom   22 type  2   force =    -0.00068579   -0.00464620    0.00032570
     atom   23 type  2   force =    -0.00018293    0.01607505    0.00037441
     atom   24 type  1   force =     0.00259308    0.00209638   -0.00029368
     atom   25 type  1   force =     0.00904158    0.01494652    0.00012521
     atom   26 type  1   force =    -0.00106780   -0.01874957    0.00071162
     atom   27 type  3   force =    -0.00000911   -0.00025442   -0.00005204
     atom   28 type  3   force =    -0.00002139   -0.00037298   -0.00009040
     atom   29 type  3   force =     0.00030319   -0.00014001    0.00033262
     atom   30 type  3   force =     0.00036781   -0.00032827    0.00025355
     atom   31 type  1   force =    -0.00000690    0.00055752   -0.00012574

     Total force =     0.002214     Total SCF correction =     0.000207

     bfgs converged in  14 scf cycles and  13 bfgs steps
     (criteria: energy < 0.10E-03, force < 0.10E-02)

     End of BFGS Geometry Optimization

     Final energy   =   -2279.5669014046 Ry
Begin final coordinates

ATOMIC_POSITIONS (crystal)
O0       0.000000000   0.000000000   0.377706407    0   0   1
O0       0.000000000   0.500000000   0.401778511    0   0   1
Pt1      0.250000000   0.500000000   0.451230924    0   0   1
Pt1      0.000000000   0.000000000   0.452765024    0   0   1
O0       0.250000000   0.810000000   0.442637181    0   0   1
O0       0.250000000   0.190000000   0.461093883    0   0   1
O0       0.000000000   0.500000000   0.496790907    0   0   1
O0       0.000000000   0.000000000   0.529889926    0   0   1
Pt1      0.250000000   0.000000000   0.575989969    0   0   1
Pt1      0.000000000   0.500000000   0.574897994    0   0   1
O0       0.250000000   0.690000000   0.564822072    0   0   1
O0       0.250000000   0.310000000   0.586409163    0   0   1
O0       0.000000000   0.000000000   0.621412184    0   0   1
O0       0.500000000   0.000000000   0.377792766    0   0   1
O0       0.500000000   0.500000000   0.401101012    0   0   1
Pt1      0.750000000   0.500000000   0.451232379    0   0   1
Pt1      0.500000000   0.000000000   0.452770170    0   0   1
O0       0.750000000   0.810000000   0.442663074    0   0   1
O0       0.750000000   0.190000000   0.461096812    0   0   1
O0       0.500000000   0.500000000   0.498078305    0   0   1
O0       0.500000000   0.000000000   0.529729750    0   0   1
Pt1      0.750000000   0.000000000   0.575991946    0   0   1
Pt1      0.500000000   0.500000000   0.577169775    0   0   1
O0       0.750000000   0.690000000   0.564807587    0   0   1
O0       0.750000000   0.310000000   0.586412052    0   0   1
O0       0.500000000   0.000000000   0.621480027    0   0   1
H2       0.000097053   0.640586660   0.386365874
H2       0.500080747   0.641201566   0.386120147
H2       0.143213010   0.034916569   0.367760489
H2       0.642955502   0.035887413   0.367811691
O0       0.500118317   0.579225732   0.643861999
End final coordinates

     General routines

     Parallel routines
     Hubbard U routines

   This run was terminated on:  22:18:50  28Apr2014

   JOB DONE.
Running PBS batch system epilogue script
Job id: 340476.audhumbla.fysik.dtu.dk
Username: zhonxu
Groupname: campgst
Jobname: PtO2/Eads-2-layers/O-U-4.5
Sessionid: 31717
Queuename: verylong
Accounting:
This job has allocated the following 16 nodes:
b133 b133 b133 b133 b133 b133 b133 b133 b102 b102 b102 b102 b102 b102 b102 b102
Finished epilogue job 340476.audhumbla.fysik.dtu.dk for zhonxu