     Program PWSCF v.5.0.2 (svn rev. 9656) starts on  5Apr2014 at 13:34: 0

     Current dimensions of program PWSCF are:
     Max number of different atomic species (ntypx) = 10
     Max number of k-points (npk) =  40000
     Max angular momentum in pseudopotentials (lmaxx) =  3
     Reading input from pwscf.in
Warning: card &CELL ignored
Warning: card / ignored

     Subspace diagonalization in iterative solution of the eigenvalue problem:
     a serial algorithm will be used

     bravais-lattice index     =            0
     lattice parameter (alat)  =      10.7336  a.u.
     unit-cell volume          =    8441.1435 (a.u.)^3
     number of atoms/cell      =           49
     number of atomic types    =            2
     number of electrons       =       438.00 (up: 242.00, down: 196.00)
     number of Kohn-Sham states=          633
     kinetic-energy cutoff     =      40.0000  Ry
     charge density cutoff     =     500.0000  Ry
     convergence threshold     =      1.0E-06
     mixing beta               =       0.3000
     number of iterations used =            8  plain     mixing
     Exchange-correlation      = SLA  PW   PBE  PBE ( 1 4 3 4 0)
     EXX-fraction              =        0.00
     nstep                     =           50

     celldm(1)=  10.733644  celldm(2)=   0.000000  celldm(3)=   0.000000
     celldm(4)=   0.000000  celldm(5)=   0.000000  celldm(6)=   0.000000

     crystal axes: (cart. coord. in units of alat)
               a(1) = (   1.000000   0.000000   0.000000 )
               a(2) = (   0.000000   1.085558   0.000000 )
               a(3) = (   0.000000   0.000000   6.287913 )

     reciprocal axes: (cart. coord. in units 2 pi/alat)
               b(1) = (  1.000000  0.000000  0.000000 )
               b(2) = (  0.000000  0.921185  0.000000 )
               b(3) = (  0.000000  0.000000  0.159035 )

     PseudoPot. # 1 for O  read from file:
     /home/camp/zhonxu/pseudo/o_pbe_v1.01.uspp.F.UPF
     MD5 check sum: 2bcb18d16ea4b960afae9ec6d52f22d2
     Pseudo is Ultrasoft + core correction, Zval =  6.0
     Generated by new atomic code, or converted to UPF format
     Using radial grid of  737 points,  5 beta functions with:
                l(1) =   0
                l(2) =   0
                l(3) =   1
                l(4) =   1
                l(5) =   2
     Q(r) pseudized with  8 coefficients,  rinner =    0.900   0.900   0.900
                                                       0.900   0.900

     PseudoPot. # 2 for Mn read from file:
     /home/camp/zhonxu/pseudo/mn_pbe_v1.uspp.F.UPF
     MD5 check sum: 5fd7c7b5c956fd19902447332617373a
     Pseudo is Ultrasoft + core correction, Zval = 15.0
     Generated by new atomic code, or converted to UPF format
     Using radial grid of  859 points,  6 beta functions with:
                l(1) =   0
                l(2) =   0
                l(3) =   1
                l(4) =   1
                l(5) =   2
                l(6) =   2
     Q(r) pseudized with  6 coefficients,  rinner =    1.150   1.150   1.150
                                                       1.150   1.150

     atomic species   valence    mass     pseudopotential
        O0             6.00    15.99940     O ( 1.00)
        Mn1           15.00    54.93800     Mn( 1.00)

     Starting magnetic structure
     atomic species   magnetization
        O0           0.000
        Mn1          0.600

      4 Sym. Ops. (no inversion) found

   Cartesian axes

     site n.     atom                  positions (alat units)
         1           O0  tau(   1) = (   0.0000000   0.5427791   2.1126758  )
         2           Mn1 tau(   2) = (   0.2500000   0.5427791   2.3297975  )
         3           Mn1 tau(   3) = (   0.0000000   0.0000000   2.3297975  )
         4           O0  tau(   4) = (   0.2500000   0.8684466   2.3297975  )
         5           O0  tau(   5) = (   0.2500000   0.2171117   2.3297975  )
         6           O0  tau(   6) = (   0.0000000   0.5427791   2.5469191  )
         7           O0  tau(   7) = (   0.0000000   0.0000000   2.6554485  )
         8           Mn1 tau(   8) = (   0.2500000   0.0000000   2.8725701  )
         9           Mn1 tau(   9) = (   0.0000000   0.5427791   2.8725701  )
        10           O0  tau(  10) = (   0.2500000   0.7598908   2.8725701  )
        11           O0  tau(  11) = (   0.2500000   0.3256675   2.8725701  )
        12           O0  tau(  12) = (   0.0000000   0.0000000   3.0896918  )
        13           O0  tau(  13) = (   0.0000000   0.5427791   3.2135008  )
        14           Mn1 tau(  14) = (   0.2500000   0.5427791   3.4260951  )
        15           Mn1 tau(  15) = (   0.0000000   0.0000000   3.4385452  )
        16           O0  tau(  16) = (   0.2500000   0.8725500   3.4318171  )
        17           O0  tau(  17) = (   0.2500000   0.2130082   3.4318171  )
        18           O0  tau(  18) = (   0.0000000   0.5427791   3.6504478  )
        19           O0  tau(  19) = (   0.0000000   0.0000000   3.7729364  )
        20           Mn1 tau(  20) = (   0.2500000   0.0000000   4.0049603  )
        21           Mn1 tau(  21) = (   0.0000000   0.5427791   3.9730178  )
        22           O0  tau(  22) = (   0.2500000   0.7495129   4.0272824  )
        23           O0  tau(  23) = (   0.2500000   0.3360454   4.0272824  )
        24           O0  tau(  24) = (   0.0000000   0.0000000   4.2046645  )
        25           O0  tau(  25) = (   0.5000000   0.5427791   2.1126758  )
        26           Mn1 tau(  26) = (   0.7500000   0.5427791   2.3297975  )
        27           Mn1 tau(  27) = (   0.5000000   0.0000000   2.3297975  )
        28           O0  tau(  28) = (   0.7500000   0.8684466   2.3297975  )
        29           O0  tau(  29) = (   0.7500000   0.2171117   2.3297975  )
        30           O0  tau(  30) = (   0.5000000   0.5427791   2.5469191  )
        31           O0  tau(  31) = (   0.5000000   0.0000000   2.6554485  )
        32           Mn1 tau(  32) = (   0.7500000   0.0000000   2.8725701  )
        33           Mn1 tau(  33) = (   0.5000000   0.5427791   2.8725701  )
        34           O0  tau(  34) = (   0.7500000   0.7598908   2.8725701  )
        35           O0  tau(  35) = (   0.7500000   0.3256675   2.8725701  )
        36           O0  tau(  36) = (   0.5000000   0.0000000   3.0896918  )
        37           O0  tau(  37) = (   0.5000000   0.5427791   3.2135008  )
        38           Mn1 tau(  38) = (   0.7500000   0.5427791   3.4260951  )
        39           Mn1 tau(  39) = (   0.5000000   0.0000000   3.4385452  )
        40           O0  tau(  40) = (   0.7500000   0.8725500   3.4318171  )
        41           O0  tau(  41) = (   0.7500000   0.2130082   3.4318171  )
        42           O0  tau(  42) = (   0.5000000   0.5427791   3.6504478  )
        43           O0  tau(  43) = (   0.5000000   0.0000000   3.7729364  )
        44           Mn1 tau(  44) = (   0.7500000   0.0000000   4.0049603  )
        45           Mn1 tau(  45) = (   0.5000000   0.5427791   3.9730178  )
        46           O0  tau(  46) = (   0.7500000   0.7495129   4.0272824  )
        47           O0  tau(  47) = (   0.7500000   0.3360454   4.0272824  )
        48           O0  tau(  48) = (   0.5000000   0.0000000   4.2046645  )
        49           O0  tau(  49) = (   0.5000000   0.5427791   4.2659087  )

     number of k points=    18  Methfessel-Paxton smearing, width (Ry)=  0.0100
                       cart. coord. in units 2pi/alat
        k(    1) = (   0.0000000   0.0000000   0.0000000), wk =   0.0625000
        k(    2) = (   0.0000000   0.2302962   0.0000000), wk =   0.1250000
        k(    3) = (   0.0000000  -0.4605925   0.0000000), wk =   0.0625000
        k(    4) = (   0.2500000   0.0000000   0.0000000), wk =   0.1250000
        k(    5) = (   0.2500000   0.2302962   0.0000000), wk =   0.2500000
        k(    6) = (   0.2500000  -0.4605925   0.0000000), wk =   0.1250000
        k(    7) = (  -0.5000000   0.0000000   0.0000000), wk =   0.0625000
        k(    8) = (  -0.5000000   0.2302962   0.0000000), wk =   0.1250000
        k(    9) = (  -0.5000000  -0.4605925   0.0000000), wk =   0.0625000
        k(   10) = (   0.0000000   0.0000000   0.0000000), wk =   0.0625000
        k(   11) = (   0.0000000   0.2302962   0.0000000), wk =   0.1250000
        k(   12) = (   0.0000000  -0.4605925   0.0000000), wk =   0.0625000
        k(   13) = (   0.2500000   0.0000000   0.0000000), wk =   0.1250000
        k(   14) = (   0.2500000   0.2302962   0.0000000), wk =   0.2500000
        k(   15) = (   0.2500000  -0.4605925   0.0000000), wk =   0.1250000
        k(   16) = (  -0.5000000   0.0000000   0.0000000), wk =   0.0625000
        k(   17) = (  -0.5000000   0.2302962   0.0000000), wk =   0.1250000
        k(   18) = (  -0.5000000  -0.4605925   0.0000000), wk =   0.0625000

     Largest allocated arrays     est. size (Mb)     dimensions
     Largest temporary arrays     est. size (Mb)     dimensions
[g109.dcsc.fysik.dtu.dk:22796] Set MCA parameter "orte_base_help_aggregate" to 0 to see all help / error messages

     Check: negative/imaginary core charge=   -0.000028    0.000000

     Initial potential from superposition of free atoms
     Check: negative starting charge=(component1):   -0.001013
     Check: negative starting charge=(component2):   -0.000248

     starting charge  421.99982, renormalised to  438.00000

     negative rho (up, down):  0.105E-02 0.258E-03
     Starting wfc are  340 randomized atomic wfcs

     Self-consistent Calculation

     iteration #  1     ecut=    40.00 Ry     beta=0.30
     Davidson diagonalization with overlap
     ethr =  1.00E-02,  avg # of iterations =  5.6

     negative rho (up, down):  0.102E-02 0.690E-03

     total energy              =   -4412.84718251 Ry
     Harris-Foulkes estimate   =   -4467.15052433 Ry
     estimated scf accuracy    <     131.31415978 Ry

     total magnetization       =    46.00 Bohr mag/cell
     absolute magnetization    =    62.39 Bohr mag/cell

[...]

     End of self-consistent calculation

 ------ SPIN UP ------------

          k = 0.0000 0.0000 0.0000 ( 36065 PWs)   bands (ev):

   -82.8818 -82.8716 -82.7851 -82.7749 -82.7743 -82.7689 -82.7639 -82.7499
   -82.7111 -82.6850 -82.6747 -82.6232 -82.3792 -82.3690 -82.3511 -82.3407
   -51.7114 -51.6181 -51.6101 -51.6096 -51.5912 -51.5357 -51.5200 -51.5161
   -51.4971 -51.4877 -51.4872 -51.4845 -51.4808 -51.4720 -51.4536 -51.4428
   -51.4326 -51.4235 -51.4223 -51.4219 -51.4132 -51.4106 -51.4019 -51.3980
   -51.3838 -51.3633 -51.3543 -51.3374 -51.3336 -51.3178 -51.3156 -51.3080
   -51.2985 -51.2942 -51.2913 -51.2513 -51.1191 -51.1190 -51.1069 -51.0989
   -51.0469 -51.0387 -50.9983 -50.9945 -50.9870 -50.9679 -50.9523 -50.9326
   -20.7347 -20.4772 -20.1395 -19.9808 -19.6170 -19.3654 -19.2177 -19.1722
   -19.1190 -19.1170 -19.0828 -19.0177 -19.0141 -18.9485 -18.9312 -18.9155
   -18.8330 -18.8245 -18.8184 -18.7874 -18.7639 -18.7537 -18.6673 -18.6427
   -18.6137 -18.5388 -18.5054 -18.3245 -17.9237 -17.8381 -17.5589 -17.4514
   -17.2475  -8.7846  -8.6624  -8.6125  -8.3340  -8.2113  -8.0565  -7.7856
[...]
O0       0.500000000   0.500000000   0.335990000    0   0   0
Mn1      0.750000000   0.500000000   0.370520000    0   0   0
Mn1      0.500000000   0.000000000   0.370520000    0   0   0
O0       0.750000000   0.800000000   0.370520000    0   0   0
O0       0.750000000   0.200000000   0.370520000    0   0   0
O0       0.500000000   0.500000000   0.405050000    0   0   0
O0       0.500000000   0.000000000   0.422310000    0   0   0
Mn1      0.750000000   0.000000000   0.456840000    0   0   0
Mn1      0.500000000   0.500000000   0.456840000    0   0   0
O0       0.750000000   0.700000000   0.456840000    0   0   0
O0       0.750000000   0.300000000   0.456840000    0   0   0
O0       0.500000000   0.000000000   0.491370000    0   0   0
O0       0.500000000   0.500000000   0.511060000    0   0   0
Mn1      0.750000000   0.500000000   0.544870000    0   0   0
Mn1      0.500000000   0.000000000   0.546850000    0   0   0
O0       0.750000000   0.803780000   0.545780000    0   0   0
O0       0.750000000   0.196220000   0.545780000    0   0   0
O0       0.500000000   0.500000000   0.580550000    0   0   0
O0       0.500000000   0.000000000   0.600030000    0   0   0
Mn1      0.750000000   0.000000000   0.636930000    0   0   0
Mn1      0.500000000   0.500000000   0.631850000    0   0   0
O0       0.750000000   0.690440000   0.640480000    0   0   0
O0       0.750000000   0.309560000   0.640480000    0   0   0
O0       0.500000000   0.000000000   0.668690000    0   0   0
O0       0.500000000   0.500000000   0.682977150

     Check: negative starting charge=(component1):   -0.001244
     NEW-OLD atomic charge density approx. for the potential

     Check: negative/imaginary core charge=   -0.000028    0.000000
     Check: negative starting charge=(component1):   -0.001243

[...]

     Self-consistent Calculation

[...]

     Threshold (ethr) on eigenvalues was too large:
     Diagonalizing with lowered threshold

     Davidson diagonalization with overlap
     ethr =  6.59E-08,  avg # of iterations =  1.0

[...]

     total energy              =   -4471.39026704 Ry
     Harris-Foulkes estimate   =   -4471.39026706 Ry
     estimated scf accuracy    <       0.00000042 Ry

[...]

     iteration # 17     ecut=    40.00 Ry     beta=0.30
     Davidson diagonalization with overlap
     ethr =  9.58E-11,  avg # of iterations =  2.0

     negative rho (up, down):  0.325E-02 0.172E-02

     End of self-consistent calculation

 ------ SPIN UP ------------

[...]

 ------ SPIN DOWN ----------

[...]

          k = 0.2500-0.4606 0.0000 ( 36102 PWs)   bands (ev):

[...]

          k =-0.5000-0.4606 0.0000 ( 36040 PWs)   bands (ev):

   -79.5102 -79.5102 -79.4767 -79.4540 -79.4497 -79.4349 -79.4147 -79.3092
   -79.3092 -79.3047 -79.3047 -79.2746 -79.2746 -79.2657 -79.0906 -79.0856
   -48.3982 -48.3981 -48.3448 -48.3426 -48.3387 -48.3384 -48.3310 -48.2704
   -48.2692 -48.2388 -48.2386 -48.2327 -48.2323 -48.2318 -48.2230 -48.2229
   -48.2122 -48.2013 -48.2010 -48.2000 -48.1770 -48.1769 -48.1748 -48.1748
   -48.1459 -48.1453 -48.1327 -48.1279 -48.1110 -48.1078 -48.0778 -48.0778
   -48.0698 -48.0686 -48.0682 -48.0485 -48.0428 -48.0392 -48.0186 -47.9768
   -47.9345 -47.9345 -47.9138 -47.9095 -47.8696 -47.8693 -47.6665 -47.6595
   -19.7186 -19.6435 -19.6102 -19.6084 -19.5353 -19.4439 -19.3473 -19.3421
   -19.3071 -19.2518 -19.0853 -19.0806 -19.0398 -19.0280 -18.9956 -18.9851
   -18.7265 -18.6678 -18.6413 -18.6400 -18.5733 -18.5561 -18.5401 -18.5394
   -18.3523 -18.3501 -18.2982 -18.2969 -18.2624 -17.7843 -17.7410 -17.3755
   -17.3754  -7.2045  -7.1642  -7.0646  -7.0614  -6.7387  -6.7296  -6.6886
    -6.6865  -6.6652  -6.5952  -6.5944  -6.5904  -6.5899  -6.5826  -6.5143
    -6.4898  -6.4491  -6.4101  -6.3719  -6.3693  -6.3222  -6.3205  -6.3170
    -6.2955  -6.2831  -6.2785  -6.0450  -6.0253  -5.9110  -5.8028  -5.7856
    -5.7854  -5.7491  -5.7346  -5.7341  -5.7335  -5.6051  -5.5567  -5.5461
    -5.5299  -5.2914  -5.2782  -5.2700  -5.0242  -5.0022  -4.9901  -4.9036
    -4.8906  -4.8583  -4.8557  -4.8236  -4.8117  -4.7717  -4.6730  -4.6523
    -4.6439  -4.4733  -4.4181  -4.4073  -4.3629  -4.3132  -4.2278  -4.2177
    -4.2169  -4.0997  -4.0981  -4.0609  -4.0558  -3.8984  -3.8462  -3.7036
    -3.6486  -3.4038  -3.4026  -3.3517  -3.3133  -3.2940  -3.0216  -2.8224
    -2.8209  -2.7658  -2.6183  -2.5664  -2.5438  -2.4961  -2.4685  -2.3842
    -2.3018  -2.2074  -2.2020  -2.1839  -2.0651  -2.0484  -2.0073  -1.9587
    -1.8834  -1.8159  -1.8156  -1.6870  -0.0153  -0.0032  -0.0000   0.0068
     0.1101   0.1339   0.1350   0.1397   0.2504   0.3507   0.3524   0.3572
     0.4009   0.4027   0.4028   0.4191   0.6281   0.6358   0.7087   0.7107
     0.7687   0.7739   0.7997   0.8078   0.9348   0.9544   0.9994   1.0024
     1.0097   1.0285   1.0539   1.0984   1.1203   1.1225   1.1405   1.1583
     1.2110   1.2142   1.2148   1.2249   1.2397   1.3410   1.3421   1.3630
     1.4108   1.4189   1.4781   1.4869   1.9095   1.9113   1.9532   2.0313
     2.0329   2.0568   2.0799   2.1705   2.1714   2.2546   2.3114   2.3206
     2.4275   2.4332   2.4409   2.8251   2.9882   3.1295   3.1310   3.2571
     3.3400   3.3526   3.3955   3.5604   3.7431   3.7656   3.7833   3.8497
     3.9678   3.9686   4.0398   4.0398   6.2323   6.2335   7.3804   7.3807
     7.4294   7.5756   7.5757   7.7688   7.7948   7.8571   7.8697   7.9985
     8.1049   8.1340   8.1576   8.3587   8.5305   8.5656   8.6248   8.8670
     9.0861   9.1351   9.1897   9.4742   9.7064   9.7131   9.7822   9.7955
    10.0465  10.0996  10.1047  10.2883  10.4651  10.5286  10.5893  10.6492
    10.9105  10.9189  10.9279  11.1393  11.2496  11.3828  11.4772  11.5795
    11.8227  11.8302  11.8987  12.1372  12.2006  12.3105  12.4438  12.6179
    12.9365  12.9744  13.0340  13.1699  13.2135  13.2930  13.3839  13.5744
    13.8003  13.8604  13.9405  14.0643  14.1336  14.1413  14.1724  14.2325
    14.2346  14.2505  14.3367  14.3418  14.4332  14.5103  14.5233  14.5389
    14.5672  14.6394  14.6811  14.6932  14.8069  14.8815  14.8844  14.9025
    14.9136  14.9570  14.9649  14.9727  14.9746  15.0908  15.1318  15.1877
    15.2114  15.2946  15.4046  15.4174  15.4365  15.4742  15.4748  15.5122
    15.5556  15.6273  15.7684  15.7811  15.7909  15.8231  15.9068  15.9127
    15.9364  15.9643  15.9654  16.0536  16.0678  16.0686  16.1190  16.1485
    16.2800  16.3154  16.3312  16.3886  16.3894  16.4161  16.4737  16.4814
    16.5043  16.5468  16.6703  16.6728  16.7444  16.7927  16.8016  16.8201
    16.8282  16.8455  16.8776  16.9312  16.9364  16.9961  17.0417  17.0859
    17.0958  17.1188  17.1418  17.1805  17.1963  17.2739  17.3046  17.3918
    17.4117  17.4175  17.4422  17.5138  17.5379  17.5502  17.5714  17.5715
    17.5990  17.6130  17.6558  17.6951  17.7638  17.7661  17.8600  17.9943
    18.0081  18.0508  18.1015  18.1061  18.1308  18.1619  18.2700  18.2734
    18.3278  18.3407  18.3649  18.4412  18.4871  18.5261  18.5585  18.5837
    18.5873  18.6047  18.6375  18.6844  18.8560  18.8681  18.9081  18.9218
    19.0416  19.0574  19.0581  19.0899  19.1181  19.1785  19.2476  19.2863
    19.4465  19.4909  19.5134  19.5921  19.6487  19.6598  19.7222  19.7278
[...]
    22.4907  22.5507  22.8671  23.1582  23.1973  23.2038  23.2683  23.3051
    23.3385  23.3652  23.3932  23.4442  23.4749  23.5267  23.5610  23.6317
    23.9196  24.0046  24.0057  24.1117  24.2145  24.2590  24.2980  24.3510
    24.4404  24.4433  24.4949  24.5395  24.5955  24.5975  24.6094  24.8120
    24.8436  24.8513  24.8739  24.8841  24.9325  24.9661  25.0024  25.0199
    25.0704  25.0744  25.1171  25.1504  25.1896  25.2045  25.2150  25.3290
    25.3742  25.4858  25.4967  25.5190  25.5410  25.5885  25.6019  25.6754
    25.7176  25.7285  25.7294  25.7549  25.7613  25.8628  25.8997  25.9088
    25.9355  25.9616  25.9826  26.0152  26.0210  26.1522  26.1542  26.1595
    26.2188  26.2635  26.3751  26.3941  26.4231  26.4385  26.4461  26.4598
    26.4854  26.4989  26.5238  26.5514  26.6034  26.6099  26.6588  26.6698
    26.7460  26.7695  26.9580  26.9729  26.9867  27.0966  27.1804  27.1969
    27.1989  27.2816  27.2978  27.3069  27.3322  27.5100  27.5888  27.7097
    27.7213  27.7463  27.7833  27.8170  27.8230  27.8285  27.8758  27.9052
    27.9077

     the spin up/dw Fermi energies are    -0.6143   -1.1481 ev

!    total energy              =   -4471.39026702 Ry
     Harris-Foulkes estimate   =   -4471.39026706 Ry
     estimated scf accuracy    <       0.00000005 Ry

     The total energy is the sum of the following terms:

     one-electron contribution =  -92727.73294925 Ry
     hartree contribution      =   46406.74486733 Ry
     xc contribution           =    -655.02219576 Ry
     ewald contribution        =   42504.62054832 Ry
     smearing contrib. (-TS)   =      -0.00053767 Ry

     total magnetization       =    46.00 Bohr mag/cell
     absolute magnetization    =    50.19 Bohr mag/cell

     convergence has been achieved in  17 iterations

     Forces acting on atoms (Ry/au):

     negative rho (up, down):  0.325E-02 0.172E-02
     atom    1 type  1   force =     0.00000000    0.00000000    0.05072422
     atom    2 type  2   force =     0.00010137    0.00000000   -0.08573334
     atom    3 type  2   force =     0.00000000    0.00000000    0.04852244
     atom    4 type  1   force =     0.00006988    0.05112603   -0.04322842
     atom    5 type  1   force =     0.00006988   -0.05112603   -0.04322842
     atom    6 type  1   force =     0.00000000    0.00000000    0.01164611
     atom    7 type  1   force =     0.00000000    0.00000000    0.00773903
     atom    8 type  2   force =    -0.00034732    0.00000000    0.03106128
     atom    9 type  2   force =     0.00000000    0.00000000   -0.00043627
     atom   10 type  1   force =     0.00003779   -0.03272601    0.00526462
     atom   11 type  1   force =     0.00003779    0.03272601    0.00526462
     atom   12 type  1   force =     0.00000000    0.00000000    0.00842966
     atom   13 type  1   force =     0.00000000    0.00000000    0.00144863
     atom   14 type  2   force =     0.01176860    0.00000000    0.00600657
     atom   15 type  2   force =     0.00000000    0.00000000    0.00218272
     atom   16 type  1   force =     0.00041701   -0.00058181    0.00015024
     atom   17 type  1   force =     0.00041701    0.00058181    0.00015024
     atom   18 type  1   force =     0.00000000    0.00000000    0.00645885
     atom   19 type  1   force =     0.00000000    0.00000000   -0.00333194
     atom   20 type  2   force =    -0.00101189    0.00000000    0.00805924
     atom   21 type  2   force =     0.00000000    0.00000000   -0.00066495
     atom   22 type  1   force =    -0.03326415    0.01926589   -0.02642379
     atom   23 type  1   force =    -0.03326415   -0.01926589   -0.02642379
     atom   24 type  1   force =     0.00000000    0.00000000   -0.00528942
     atom   25 type  1   force =     0.00000000    0.00000000    0.05076171
     atom   26 type  2   force =    -0.00010137    0.00000000   -0.08573334
     atom   27 type  2   force =     0.00000000    0.00000000    0.04903698
     atom   28 type  1   force =    -0.00006988    0.05112603   -0.04322842
     atom   29 type  1   force =    -0.00006988   -0.05112603   -0.04322842
     atom   30 type  1   force =     0.00000000    0.00000000    0.01142623
     atom   31 type  1   force =     0.00000000    0.00000000    0.00705791
     atom   32 type  2   force =     0.00034732    0.00000000    0.03106128
     atom   33 type  2   force =     0.00000000    0.00000000   -0.00085072
     atom   34 type  1   force =    -0.00003779   -0.03272601    0.00526462
     atom   35 type  1   force =    -0.00003779    0.03272601    0.00526462
     atom   36 type  1   force =     0.00000000    0.00000000    0.00871721
     atom   37 type  1   force =     0.00000000    0.00000000   -0.00102238
     atom   38 type  2   force =    -0.01176860    0.00000000    0.00600657
     atom   39 type  2   force =     0.00000000    0.00000000    0.00065879
     atom   40 type  1   force =    -0.00041701   -0.00058181    0.00015024
     atom   41 type  1   force =    -0.00041701    0.00058181    0.00015024
     atom   42 type  1   force =     0.00000000    0.00000000   -0.03001404
     atom   43 type  1   force =     0.00000000    0.00000000   -0.00008753
     atom   44 type  2   force =     0.00101189    0.00000000    0.00805924
     atom   45 type  2   force =     0.00000000    0.00000000    0.11455377
     atom   46 type  1   force =     0.03326415    0.01926589   -0.02642379
     atom   47 type  1   force =     0.03326415   -0.01926589   -0.02642379
     atom   48 type  1   force =     0.00000000    0.00000000   -0.00028103
     atom   49 type  1   force =     0.00000000    0.00000000    0.00077593

     Total force =     0.000776     Total SCF correction =     0.000156
     SCF correction compared to forces is large: reduce conv_thr to get better values

     bfgs converged in   5 scf cycles and   4 bfgs steps
     (criteria: energy < 0.10E-03, force < 0.10E-02)

     End of BFGS Geometry Optimization

     Final energy   =   -4471.3902670230 Ry
Begin final coordinates

ATOMIC_POSITIONS (crystal)
O0       0.000000000   0.500000000   0.335990000    0   0   0
Mn1      0.250000000   0.500000000   0.370520000    0   0   0
Mn1      0.000000000   0.000000000   0.370520000    0   0   0
O0       0.250000000   0.800000000   0.370520000    0   0   0
O0       0.250000000   0.200000000   0.370520000    0   0   0
O0       0.000000000   0.500000000   0.405050000    0   0   0
O0       0.000000000   0.000000000   0.422310000    0   0   0
Mn1      0.250000000   0.000000000   0.456840000    0   0   0
Mn1      0.000000000   0.500000000   0.456840000    0   0   0
O0       0.250000000   0.700000000   0.456840000    0   0   0
O0       0.250000000   0.300000000   0.456840000    0   0   0
O0       0.000000000   0.000000000   0.491370000    0   0   0
O0       0.000000000   0.500000000   0.511060000    0   0   0
Mn1      0.250000000   0.500000000   0.544870000    0   0   0
Mn1      0.000000000   0.000000000   0.546850000    0   0   0
O0       0.250000000   0.803780000   0.545780000    0   0   0
O0       0.250000000   0.196220000   0.545780000    0   0   0
O0       0.000000000   0.500000000   0.580550000    0   0   0
O0       0.000000000   0.000000000   0.600030000    0   0   0
Mn1      0.250000000   0.000000000   0.636930000    0   0   0
Mn1      0.000000000   0.500000000   0.631850000    0   0   0
O0       0.250000000   0.690440000   0.640480000    0   0   0
O0       0.250000000   0.309560000   0.640480000    0   0   0
O0       0.000000000   0.000000000   0.668690000    0   0   0
O0       0.500000000   0.500000000   0.335990000    0   0   0
Mn1      0.750000000   0.500000000   0.370520000    0   0   0
Mn1      0.500000000   0.000000000   0.370520000    0   0   0
O0       0.750000000   0.800000000   0.370520000    0   0   0
O0       0.750000000   0.200000000   0.370520000    0   0   0
O0       0.500000000   0.500000000   0.405050000    0   0   0
O0       0.500000000   0.000000000   0.422310000    0   0   0
Mn1      0.750000000   0.000000000   0.456840000    0   0   0
Mn1      0.500000000   0.500000000   0.456840000    0   0   0
O0       0.750000000   0.700000000   0.456840000    0   0   0
O0       0.750000000   0.300000000   0.456840000    0   0   0
O0       0.500000000   0.000000000   0.491370000    0   0   0
O0       0.500000000   0.500000000   0.511060000    0   0   0
Mn1      0.750000000   0.500000000   0.544870000    0   0   0
Mn1      0.500000000   0.000000000   0.546850000    0   0   0
O0       0.750000000   0.803780000   0.545780000    0   0   0
O0       0.750000000   0.196220000   0.545780000    0   0   0
O0       0.500000000   0.500000000   0.580550000    0   0   0
O0       0.500000000   0.000000000   0.600030000    0   0   0
Mn1      0.750000000   0.000000000   0.636930000    0   0   0
Mn1      0.500000000   0.500000000   0.631850000    0   0   0
O0       0.750000000   0.690440000   0.640480000    0   0   0
O0       0.750000000   0.309560000   0.640480000    0   0   0
O0       0.500000000   0.000000000   0.668690000    0   0   0
O0       0.500000000   0.500000000   0.682977150
End final coordinates

     General routines

     Parallel routines

   This run was terminated on:  11:15:43   6Apr2014

   JOB DONE.
Running PBS batch system epilogue script
Job id: 320653.audhumbla.fysik.dtu.dk
Username: zhonxu
Groupname: campgst
Jobname: MnO2/Eads-4-layers/O
Sessionid: 22724
Queuename: verylong
Accounting:
This job has allocated the following 32 nodes:
g109 g109 g109 g109 g109 g109 g109 g109 g109 g109 g109 g109 g109 g109 g109 g109 g098 g098 g098 g098 g098 g098 g098 g098 g098 g098 g098 g098 g098 g098 g098 g098
Finished epilogue job 320653.audhumbla.fysik.dtu.dk for zhonxu