     Program PWSCF v.5.0.2 (svn rev. 9656) starts on  9May2014 at 19:23: 8

     Current dimensions of program PWSCF are:
     Max number of different atomic species (ntypx) = 10
     Max number of k-points (npk) =  40000
     Max angular momentum in pseudopotentials (lmaxx) =  3
     Reading input from pwscf.in
Warning: card &CELL ignored
Warning: card / ignored

     Subspace diagonalization in iterative solution of the eigenvalue problem:
     a serial algorithm will be used

     bravais-lattice index     =            0
     lattice parameter (alat)  =      10.9604  a.u.
     unit-cell volume          =    6350.6732 (a.u.)^3
     number of atoms/cell      =           30
     number of atomic types    =            3
     number of electrons       =       224.00 (up: 120.00, down: 104.00)
     number of Kohn-Sham states=          324
     kinetic-energy cutoff     =      40.0000  Ry
     charge density cutoff     =     500.0000  Ry
     convergence threshold     =      1.0E-06
     mixing beta               =       0.7000
     number of iterations used =            8  plain     mixing
     Exchange-correlation      = SLA  PW   PBE  PBE ( 1 4 3 4 0)
     EXX-fraction              =        0.00
     nstep                     =           50

     celldm(1)=  10.960412  celldm(2)=   0.000000  celldm(3)=   0.000000
     celldm(4)=   0.000000  celldm(5)=   0.000000  celldm(6)=   0.000000

     crystal axes: (cart. coord. in units of alat)
               a(1) = (   1.000000   0.000000   0.000000 )
               a(2) = (   0.000000   1.067975   0.000000 )
               a(3) = (   0.000000   0.000000   4.516251 )

     reciprocal axes: (cart. coord. in units 2 pi/alat)
               b(1) = (  1.000000  0.000000  0.000000 )
               b(2) = (  0.000000  0.936351  0.000000 )
               b(3) = (  0.000000  0.000000  0.221423 )

     PseudoPot. # 1 for O  read from file:
     /home/camp/zhonxu/pseudo/o_pbe_v1.01.uspp.F.UPF
     MD5 check sum: 2bcb18d16ea4b960afae9ec6d52f22d2
     Pseudo is Ultrasoft + core correction, Zval =  6.0
     Generated by new atomic code, or converted to UPF format
     Using radial grid of  737 points,  5 beta functions with:
                l(1) =   0
                l(2) =   0
                l(3) =   1
                l(4) =   1
                l(5) =   2
     Q(r) pseudized with  8 coefficients,  rinner =    0.900   0.900   0.900
                                                       0.900   0.900

     PseudoPot. # 2 for Cr read from file:
     /home/camp/zhonxu/pseudo/cr_pbe_v1.uspp.F.UPF
     MD5 check sum: 68b6f918d1762dccfb11451fe85b0e0e
     Pseudo is Ultrasoft + core correction, Zval = 14.0
     Generated by new atomic code, or converted to UPF format
     Using radial grid of  857 points,  6 beta functions with:
                l(1) =   0
                l(2) =   0
                l(3) =   1
                l(4) =   1
                l(5) =   2
                l(6) =   2
     Q(r) pseudized with  6 coefficients,  rinner =    1.000   1.000   1.000
                                                       1.000   1.000

     PseudoPot. # 3 for H  read from file:
     /home/camp/zhonxu/pseudo/h_pbe_v1.uspp.F.UPF
     MD5 check sum: 3408e3ff4ec8b0a4e358431e7e038a48
     Pseudo is Ultrasoft, Zval =  1.0
     Generated by new atomic code, or converted to UPF format
     Using radial grid of  615 points,  2 beta functions with:
                l(1) =   0
                l(2) =   0
     Q(r) pseudized with  8 coefficients,  rinner =    0.700

     atomic species   valence    mass     pseudopotential
        O0             6.00    15.99940     O ( 1.00)
        Cr1           14.00    51.99600     Cr( 1.00)
        H2             1.00     1.00794     H ( 1.00)

     Starting magnetic structure
     atomic species   magnetization
        O0           0.000
        Cr1          0.600
        H2           0.000

     Simplified LDA+U calculation (l_max = 2) with parameters (eV):
     atomic species    L          U    alpha       J0     beta
        Cr1            2     3.0000   0.0000   0.0000   0.0000

     No symmetry found

   Cartesian axes

     site n.     atom                  positions (alat units)
         1           O0  tau(   1) = (   0.0000000   0.0000000   1.7181625  )
         2           O0  tau(   2) = (   0.0000000   0.5339875   1.8008551  )
         3           Cr1 tau(   3) = (   0.2500000   0.5339875   2.0300096  )
         4           Cr1 tau(   4) = (   0.0000000   0.0000000   2.0413454  )
         5           O0  tau(   5) = (   0.2500000   0.8543801   2.0369195  )
         6           O0  tau(   6) = (   0.2500000   0.2135950   2.0378227  )
         7           O0  tau(   7) = (   0.0000000   0.5339875   2.2471058  )
         8           O0  tau(   8) = (   0.0000000   0.0000000   2.3700833  )
         9           Cr1 tau(   9) = (   0.2500000   0.0000000   2.6079543  )
        10           Cr1 tau(  10) = (   0.0000000   0.5339875   2.5535334  )
        11           O0  tau(  11) = (   0.2500000   0.7475825   2.5983798  )
        12           O0  tau(  12) = (   0.2500000   0.3203925   2.5982895  )
        13           O0  tau(  13) = (   0.0000000   0.0000000   2.7910882  )
        14           O0  tau(  14) = (   0.5000000   0.0000000   1.7181625  )
        15           O0  tau(  15) = (   0.5000000   0.5339875   1.8008551  )
        16           Cr1 tau(  16) = (   0.7500000   0.5339875   2.0300096  )
        17           Cr1 tau(  17) = (   0.5000000   0.0000000   2.0413454  )
        18           O0  tau(  18) = (   0.7500000   0.8543801   2.0369195  )
        19           O0  tau(  19) = (   0.7500000   0.2135950   2.0378227  )
        20           O0  tau(  20) = (   0.5000000   0.5339875   2.2471058  )
        21           O0  tau(  21) = (   0.5000000   0.0000000   2.3700833  )
        22           Cr1 tau(  22) = (   0.7500000   0.0000000   2.6079543  )
        23           Cr1 tau(  23) = (   0.5000000   0.5339875   2.5535334  )
        24           O0  tau(  24) = (   0.7500000   0.7475825   2.5983798  )
        25           O0  tau(  25) = (   0.7500000   0.3203925   2.5982895  )
        26           O0  tau(  26) = (   0.5000000   0.0000000   2.7910882  )
        27           H2  tau(  27) = (  -0.0006900   0.6851274   1.7196980  )
        28           H2  tau(  28) = (   0.4993100   0.6851274   1.7196980  )
        29           H2  tau(  29) = (   0.1573400   0.0316548   1.6594512  )
        30           H2  tau(  30) = (   0.6573500   0.0316548   1.6594512  )

     number of k points=    20  Methfessel-Paxton smearing, width (Ry)=  0.0100
                       cart. coord. in units 2pi/alat
        k(    1) = (   0.0000000   0.0000000   0.0000000), wk =   0.0625000
        k(    2) = (   0.0000000   0.2340879   0.0000000), wk =   0.1250000
        k(    3) = (   0.0000000  -0.4681757   0.0000000), wk =   0.0625000
        k(    4) = (   0.2500000   0.0000000   0.0000000), wk =   0.1250000
        k(    5) = (   0.2500000   0.2340879   0.0000000), wk =   0.1250000
        k(    6) = (   0.2500000  -0.4681757   0.0000000), wk =   0.1250000
        k(    7) = (  -0.5000000   0.0000000   0.0000000), wk =   0.0625000
        k(    8) = (  -0.5000000   0.2340879   0.0000000), wk =   0.1250000
        k(    9) = (  -0.5000000  -0.4681757   0.0000000), wk =   0.0625000
        k(   10) = (  -0.2500000   0.2340879   0.0000000), wk =   0.1250000
        k(   11) = (   0.0000000   0.0000000   0.0000000), wk =   0.0625000
        k(   12) = (   0.0000000   0.2340879   0.0000000), wk =   0.1250000
        k(   13) = (   0.0000000  -0.4681757   0.0000000), wk =   0.0625000
        k(   14) = (   0.2500000   0.0000000   0.0000000), wk =   0.1250000
        k(   15) = (   0.2500000   0.2340879   0.0000000), wk =   0.1250000
        k(   16) = (   0.2500000  -0.4681757   0.0000000), wk =   0.1250000
        k(   17) = (  -0.5000000   0.0000000   0.0000000), wk =   0.0625000
        k(   18) = (  -0.5000000   0.2340879   0.0000000), wk =   0.1250000
        k(   19) = (  -0.5000000  -0.4681757   0.0000000), wk =   0.0625000
        k(   20) = (  -0.2500000   0.2340879   0.0000000), wk =   0.1250000

     Largest allocated arrays     est. size (Mb)     dimensions
     Largest temporary arrays     est. size (Mb)     dimensions

     Check: negative/imaginary core charge=   -0.000012    0.000000

     Initial potential from superposition of free atoms
     Check: negative starting charge=(component1):   -0.001590
     Check: negative starting charge=(component2):   -0.000511

     starting charge  215.99984, renormalised to  224.00000

     negative rho (up, down):  0.165E-02 0.530E-03
     Number of +U iterations with fixed ns =  0
     Starting occupations:
 --- enter write_ns ---
 LDA+U parameters:
U( 2)     =  3.00000000
alpha( 2) =  0.00000000
atom    3   Tr[ns(na)] (up, down, total) =   5.00000  0.00000  5.00000
   spin  1
    eigenvalues:
  1.000  1.000  1.000  1.000  1.000
    eigenvectors:
  1.000  0.000  0.000  0.000  0.000
  0.000  1.000  0.000  0.000  0.000
  0.000  0.000  1.000  0.000  0.000
  0.000  0.000  0.000  1.000  0.000
  0.000  0.000  0.000  0.000  1.000
    occupations:
  1.000  0.000  0.000  0.000  0.000
  0.000  1.000  0.000  0.000  0.000
  0.000  0.000  1.000  0.000  0.000
  0.000  0.000  0.000  1.000  0.000
  0.000  0.000  0.000  0.000  1.000
   spin  2
    eigenvalues:
  0.000  0.000  0.000  0.000  0.000
    eigenvectors:
  1.000  0.000  0.000  0.000  0.000
  0.000  1.000  0.000  0.000  0.000
  0.000  0.000  1.000  0.000  0.000
  0.000  0.000  0.000  1.000  0.000
  0.000  0.000  0.000  0.000  1.000
    occupations:
  0.000  0.000  0.000  0.000  0.000
  0.000  0.000  0.000  0.000  0.000
  0.000  0.000  0.000  0.000  0.000
  0.000  0.000  0.000  0.000  0.000
  0.000  0.000  0.000  0.000  0.000
atomic mag. moment =     5.000000
atom    4   Tr[ns(na)] (up, down, total) =   5.00000  0.00000  5.00000
   spin  1
    eigenvalues:
  1.000  1.000  1.000  1.000  1.000
    eigenvectors:
  1.000  0.000  0.000  0.000  0.000
  0.000  1.000  0.000  0.000  0.000
  0.000  0.000  1.000  0.000  0.000
  0.000  0.000  0.000  1.000  0.000
  0.000  0.000  0.000  0.000  1.000
    occupations:
  1.000  0.000  0.000  0.000  0.000
  0.000  1.000  0.000  0.000  0.000
  0.000  0.000  1.000  0.000  0.000
  0.000  0.000  0.000  1.000  0.000
  0.000  0.000  0.000  0.000  1.000
   spin  2
    eigenvalues:
  0.000  0.000  0.000  0.000  0.000
    eigenvectors:
  1.000  0.000  0.000  0.000  0.000
  0.000  1.000  0.000  0.000  0.000
  0.000  0.000  1.000  0.000  0.000
  0.000  0.000  0.000  1.000  0.000
  0.000  0.000  0.000  0.000  1.000
    occupations:
  0.000  0.000  0.000  0.000  0.000
  0.000  0.000  0.000  0.000  0.000
  0.000  0.000  0.000  0.000  0.000
  0.000  0.000  0.000  0.000  0.000
  0.000  0.000  0.000  0.000  0.000
atomic mag. moment =     5.000000
atom    9   Tr[ns(na)] (up, down, total) =   5.00000  0.00000  5.00000
   spin  1
    eigenvalues:
  1.000  1.000  1.000  1.000  1.000
    eigenvectors:
  1.000  0.000  0.000  0.000  0.000
  0.000  1.000  0.000  0.000  0.000
  0.000  0.000  1.000  0.000  0.000
[...]
  0.753  0.000  0.022  0.000  0.225
  0.000  0.002  0.000  0.998  0.000
  0.025  0.000  0.975  0.000  0.000
  0.222  0.000  0.003  0.000  0.775
  0.000  0.998  0.000  0.002  0.000
    occupations:
  0.154 -0.000 -0.004  0.114 -0.000
 -0.000  0.333 -0.000 -0.000  0.010
 -0.004 -0.000  0.136  0.008  0.000
  0.114 -0.000  0.008  0.303 -0.000
 -0.000  0.010  0.000 -0.000  0.113
atomic mag. moment =     2.556048
atom    4   Tr[ns(na)] (up, down, total) =   3.50683  1.14204  4.64886
   spin  1
    eigenvalues:
  0.486  0.536  0.633  0.866  0.986
    eigenvectors:
  0.001  0.994  0.000  0.001  0.004
  0.000  0.001  0.014  0.985  0.000
  0.000  0.000  0.986  0.014  0.000
  0.000  0.004  0.000  0.000  0.996
  0.999  0.001  0.000  0.000  0.000
    occupations:
  0.538 -0.010 -0.003  0.028  0.002
 -0.010  0.862  0.027  0.001  0.000
 -0.003  0.027  0.636  0.001  0.000
  0.028  0.001  0.001  0.984  0.000
  0.002  0.000  0.000  0.000  0.486
   spin  2
    eigenvalues:
  0.101  0.128  0.159  0.365  0.389
    eigenvectors:
  0.003  0.002  0.000  0.001  0.993
  0.002  0.952  0.044  0.000  0.002
  0.000  0.044  0.956  0.000  0.000
  0.995  0.002  0.000  0.000  0.003
  0.000  0.000  0.000  0.999  0.001
    occupations:
  0.388  0.013  0.003 -0.016  0.001
  0.013  0.130 -0.006  0.000 -0.000
  0.003 -0.006  0.157  0.000 -0.000
 -0.016  0.000  0.000  0.102 -0.000
  0.001 -0.000 -0.000 -0.000  0.365
atomic mag. moment =     2.364787
atom    9   Tr[ns(na)] (up, down, total) =   3.47238  1.23912  4.71150
   spin  1
    eigenvalues:
  0.530  0.541  0.691  0.851  0.860
    eigenvectors:
  0.001  0.164  0.001  0.825  0.010
  0.995  0.005  0.000  0.000  0.000
  0.000  0.000  0.999  0.001  0.000
  0.004  0.831  0.000  0.163  0.002
  0.000  0.000  0.000  0.012  0.988
    occupations:
  0.800  0.001 -0.004 -0.115  0.001
  0.001  0.530  0.002  0.000  0.000
 -0.004  0.002  0.691  0.001 -0.000
 -0.115  0.000  0.001  0.592 -0.001
  0.001  0.000 -0.000 -0.001  0.859
   spin  2
    eigenvalues:
  0.148  0.155  0.156  0.388  0.394
    eigenvectors:
  0.843  0.001  0.000  0.000  0.156
  0.000  0.000  0.000  0.999  0.001
  0.001  0.999  0.000  0.000  0.000
  0.156  0.000  0.000  0.001  0.843
  0.000  0.000  1.000  0.000  0.000
    occupations:
  0.186 -0.000  0.000  0.089 -0.000
 -0.000  0.388 -0.000 -0.000  0.000
  0.000 -0.000  0.155  0.000  0.000
  0.089 -0.000  0.000  0.355  0.000
 -0.000  0.000  0.000  0.000  0.156
atomic mag. moment =     2.233252
atom   10   Tr[ns(na)] (up, down, total) =   3.64862  0.96309  4.61171
   spin  1
    eigenvalues:
  0.460  0.473  0.823  0.911  0.981
    eigenvectors:
  0.998  0.000  0.000  0.000  0.002
  0.000  0.000  0.000  1.000  0.000
  0.000  0.000  1.000  0.000  0.000
  0.002  0.000  0.000  0.000  0.998
  0.000  1.000  0.000  0.000  0.000
    occupations:
  0.461  0.000  0.001  0.023 -0.000
  0.000  0.911 -0.002 -0.000 -0.001
  0.001 -0.002  0.823 -0.000 -0.000
  0.023 -0.000 -0.000  0.980  0.000
 -0.000 -0.001 -0.000  0.000  0.473
   spin  2
    eigenvalues:
  0.091  0.128  0.131  0.271  0.342
    eigenvectors:
  0.008  0.000  0.000  0.992  0.000
  0.000  1.000  0.000  0.000  0.000
  0.000  0.000  1.000  0.000  0.000
  0.992  0.000  0.000  0.008  0.000
  0.000  0.000  0.000  0.000  1.000
    occupations:
  0.270 -0.000 -0.000 -0.016 -0.000
 -0.000  0.128  0.000 -0.000  0.000
 -0.000  0.000  0.131 -0.000  0.000
 -0.016 -0.000 -0.000  0.092 -0.000
 -0.000  0.000  0.000 -0.000  0.342
atomic mag. moment =     2.685532
atom   16   Tr[ns(na)] (up, down, total) =   3.59546  1.03938  4.63485
   spin  1
    eigenvalues:
  0.457  0.502  0.708  0.944  0.983
    eigenvectors:
  0.000  0.225  0.003  0.000  0.773
  0.999  0.000  0.000  0.001  0.000
  0.000  0.000  0.996  0.000  0.004
  0.000  0.775  0.001  0.000  0.224
  0.001  0.000  0.000  0.999  0.000
    occupations:
  0.875 -0.000  0.015 -0.200 -0.000
 -0.000  0.458  0.000 -0.000 -0.011
  0.015  0.000  0.709 -0.007  0.002
 -0.200 -0.000 -0.007  0.610 -0.000
 -0.000 -0.011  0.002 -0.000  0.943
   spin  2
    eigenvalues:
  0.092  0.113  0.137  0.334  0.365
    eigenvectors:
  0.753  0.000  0.022  0.000  0.225
  0.000  0.002  0.000  0.998  0.000
  0.025  0.000  0.975  0.000  0.000
  0.222  0.000  0.003  0.000  0.775
  0.000  0.998  0.000  0.002  0.000
    occupations:
  0.154 -0.000 -0.004  0.114 -0.000
 -0.000  0.333 -0.000 -0.000  0.010
 -0.004 -0.000  0.136  0.008  0.000
  0.114 -0.000  0.008  0.303 -0.000
 -0.000  0.010  0.000 -0.000  0.113
atomic mag. moment =     2.556078
atom   17   Tr[ns(na)] (up, down, total) =   3.50684  1.14204  4.64888
   spin  1
    eigenvalues:
  0.486  0.536  0.633  0.866  0.986
    eigenvectors:
  0.001  0.994  0.000  0.001  0.004
  0.000  0.001  0.014  0.985  0.000
  0.000  0.000  0.986  0.014  0.000
  0.000  0.004  0.000  0.000  0.996
  0.999  0.001  0.000  0.000  0.000
    occupations:
  0.538 -0.010 -0.003  0.028  0.002
 -0.010  0.862  0.027  0.001  0.000
 -0.003  0.027  0.636  0.001  0.000
  0.028  0.001  0.001  0.984  0.000
  0.002  0.000  0.000  0.000  0.486
   spin  2
    eigenvalues:
  0.101  0.128  0.159  0.365  0.389
    eigenvectors:
  0.003  0.002  0.000  0.001  0.993
  0.002  0.952  0.044  0.000  0.002
  0.000  0.044  0.956  0.000  0.000
  0.995  0.002  0.000  0.000  0.003
  0.000  0.000  0.000  0.999  0.001
    occupations:
  0.388  0.013  0.003 -0.016  0.001
  0.013  0.130 -0.006  0.000 -0.000
  0.003 -0.006  0.157  0.000 -0.000
 -0.016  0.000  0.000  0.102 -0.000
  0.001 -0.000 -0.000 -0.000  0.365
atomic mag. moment =     2.364792
atom   22   Tr[ns(na)] (up, down, total) =   3.47316  1.23811  4.71126
   spin  1
    eigenvalues:
  0.529  0.541  0.690  0.853  0.860
    eigenvectors:
  0.001  0.164  0.000  0.822  0.012
  0.995  0.005  0.000  0.000  0.000
  0.000  0.000  0.999  0.001  0.000
  0.004  0.831  0.000  0.162  0.002
  0.000  0.000  0.000  0.015  0.985
    occupations:
  0.801  0.001 -0.004 -0.116  0.001
  0.001  0.530  0.002  0.000  0.000
 -0.004  0.002  0.690  0.001 -0.000
 -0.116  0.000  0.001  0.592 -0.001
  0.001  0.000 -0.000 -0.001  0.860
   spin  2
    eigenvalues:
  0.147  0.154  0.155  0.388  0.393
    eigenvectors:
  0.843  0.001  0.000  0.000  0.157
  0.000  0.000  0.000  0.999  0.001
  0.001  0.999  0.000  0.000  0.000
  0.157  0.000  0.000  0.001  0.842
  0.000  0.000  1.000  0.000  0.000
    occupations:
  0.186 -0.000  0.000  0.090 -0.000
 -0.000  0.388 -0.000 -0.000  0.000
  0.000 -0.000  0.154  0.000  0.000
  0.090 -0.000  0.000  0.355  0.000
 -0.000  0.000  0.000  0.000  0.155
atomic mag. moment =     2.235053
atom   23   Tr[ns(na)] (up, down, total) =   3.64864  0.96309  4.61173
   spin  1
    eigenvalues:
  0.460  0.473  0.823  0.911  0.981
    eigenvectors:
  0.998  0.000  0.000  0.000  0.002
  0.000  0.000  0.000  1.000  0.000
  0.000  0.000  1.000  0.000  0.000
  0.002  0.000  0.000  0.000  0.998
  0.000  1.000  0.000  0.000  0.000
    occupations:
  0.461  0.000  0.001  0.023 -0.000
  0.000  0.911 -0.002 -0.000 -0.001
  0.001 -0.002  0.823 -0.000 -0.000
  0.023 -0.000 -0.000  0.980  0.000
 -0.000 -0.001 -0.000  0.000  0.473
   spin  2
    eigenvalues:
  0.091  0.128  0.131  0.271  0.342
    eigenvectors:
  0.008  0.000  0.000  0.992  0.000
  0.000  1.000  0.000  0.000  0.000
  0.000  0.000  1.000  0.000  0.000
  0.992  0.000  0.000  0.008  0.000
  0.000  0.000  0.000  0.000  1.000
    occupations:
  0.270 -0.000 -0.000 -0.016 -0.000
 -0.000  0.128  0.000 -0.000  0.000
 -0.000  0.000  0.131 -0.000  0.000
 -0.016 -0.000 -0.000  0.092 -0.000
 -0.000  0.000  0.000 -0.000  0.342
atomic mag. moment =     2.685549
N of occupied +U levels =  37.2136454
 --- exit write_ns ---

 ------ SPIN UP ------------

[...]

 ------ SPIN DOWN ----------

[...]

          k = 0.2500-0.4682 0.0000 ( 27150 PWs)   bands (ev):

[...]

          k =-0.2500 0.2341 0.0000 ( 27132 PWs)   bands (ev):

   -72.8863 -72.8740 -72.7013 -72.6900 -72.4215 -72.4106 -72.2917 -72.2803
   -44.3482 -44.3373 -44.2700 -44.2573 -44.2473 -44.2293 -44.2128 -44.1027
   -44.0787 -44.0722 -43.9845 -43.9785 -43.9170 -43.8983 -43.8695 -43.8611
   -43.8530 -43.7265 -43.6170 -43.5837 -43.5794 -43.5572 -43.4765 -43.4470
   -21.2612 -20.7757 -20.7485 -20.5686 -20.2939 -20.2866 -20.0476 -20.0128
   -19.9966 -19.8555 -19.8354 -19.6983 -19.6660 -19.6646 -19.5103 -19.4990
   -19.4030 -19.2994  -8.7255  -8.4913  -8.1486  -7.9618  -7.9307  -7.5744
    -7.4377  -7.3593  -7.3404  -7.2992  -7.1428  -7.0888  -6.9701  -6.9273
    -6.7713  -6.7648  -6.5947  -6.4875  -6.4710  -6.3928  -6.3220  -6.2159
    -6.0483  -5.9112  -5.8184  -5.7685  -5.5395  -5.4199  -5.3566  -5.3332
    -5.2815  -5.1291  -5.1041  -5.0819  -4.9994  -4.9460  -4.8572  -4.5960
    -4.5899  -4.4673  -4.3226  -4.2642  -4.1571  -4.1560  -4.0469  -3.9988
    -3.9502  -3.8034  -3.7280  -3.6891  -3.5068  -3.2798  -3.2755  -3.0226
     0.5156   0.6423   0.6703   0.8233   0.8429   0.8948   0.9776   1.0102
     1.0301   1.1363   1.1408   1.2198   1.2410   1.2887   1.3610   1.4801
     1.5102   1.5378   1.6529   1.7100   1.7650   1.8587   1.8802   2.0135
     2.0258   2.0526   2.1585   2.3978   2.5009   2.5040   2.7656   2.8021
     2.9607   3.0887   3.1530   3.2080   3.3291   3.6560   3.6936   3.7191
     3.8451   4.0004   4.2918   4.7570   5.2799   5.6762   5.7910   5.9069
     5.9822   6.1436   6.3378   6.4551   6.6828   6.8266   6.8414   7.2045
     7.3758   7.5587   7.7423   7.9418   7.9794   8.2082   8.2983   8.4289
     8.6032   8.7301   8.9454   8.9580   9.2043   9.2358   9.2456   9.4078
     9.4809   9.6796   9.7912   9.8679  10.0442  10.0629  10.2328  10.2457
    10.4058  10.4674  10.6157  10.7080  10.7814  10.9342  11.0316  11.0930
    11.1636  11.3205  11.4906  11.5306  11.6045  11.6096  11.7776  11.8213
    11.8833  11.9926  12.0745  12.1482  12.2800  12.3006  12.3878  12.5591
    12.6681  12.6972  12.7959  12.9209  12.9268  12.9636  12.9649  13.0981
    13.1021  13.1944  13.2550  13.3055  13.5149  13.6451  13.6734  13.7503
    13.8425  13.8909  13.9437  14.0147  14.0814  14.2671  14.3070  14.4176
    14.5037  14.5192  14.5594  14.6512  14.7437  14.8359  14.8736  15.0219
    15.1268  15.2598  15.2929  15.3929  15.4131  15.4488  15.5764  15.5853
    15.7508  15.7925  15.8704  15.9485  15.9928  16.0630  16.1499  16.1649
    16.2517  16.2697  16.3859  16.5586  16.5774  16.6276  16.7961  16.8443
    16.8647  16.9296  16.9898  17.0999  17.1851  17.2073  17.3761  17.3888
    17.4217  17.4317  17.5480  17.6262  17.6518  17.7249  17.7539  17.8490
    17.9289  18.0063  18.0323  18.1568  18.2302  18.2881  18.3534  18.3736
    18.4293  18.6074  18.6258  18.7527  18.7810  18.8651  18.9474  19.0247
    19.1073  19.1475  19.2899  19.3323  19.3922  19.4223  19.5073  19.5893
    19.6342  19.6564  19.7675  19.8001  19.8398  19.9536  20.1064  20.1092
    20.2316  20.3470  20.4091  20.4718  20.5036  20.6616  20.6682  20.8212
    20.8367  20.9109  21.0856  21.1077

     the spin up/dw Fermi energies are    -1.9164   -2.8662 ev

!    total energy              =   -1992.17889708 Ry
     Harris-Foulkes estimate   =   -1992.17889708 Ry
     estimated scf accuracy    <          4.5E-09 Ry

     The total energy is the sum of the following terms:

     one-electron contribution =  -23383.81139124 Ry
     hartree contribution      =   11708.98720993 Ry
     xc contribution           =    -315.22338295 Ry
     ewald contribution        =    9996.43632290 Ry
     Hubbard energy            =       1.43118608 Ry
     smearing contrib. (-TS)   =       0.00115820 Ry

     total magnetization       =    16.00 Bohr mag/cell
     absolute magnetization    =    23.73 Bohr mag/cell

     convergence has been achieved in  18 iterations

     Forces acting on atoms (Ry/au):

     negative rho (up, down):  0.549E-02 0.185E-02
     atom    1 type  1   force =    -0.00546517   -0.01315651    0.00016504
     atom    2 type  1   force =     0.00002674    0.00982276   -0.00013814
     atom    3 type  2   force =    -0.00026125   -0.00140462    0.00030821
     atom    4 type  2   force =     0.00381388    0.00660326   -0.00030832
     atom    5 type  1   force =     0.00147916    0.00567880    0.00014779
     atom    6 type  1   force =     0.00066984   -0.00553330    0.00006425
     atom    7 type  1   force =    -0.00003736   -0.00174926    0.00096749
     atom    8 type  1   force =    -0.00044851   -0.00009156    0.00020496
     atom    9 type  2   force =     0.00075327   -0.00067325    0.00094870
     atom   10 type  2   force =    -0.00002145   -0.00042688   -0.00089013
     atom   11 type  1   force =    -0.00033165   -0.04583427   -0.00040403
     atom   12 type  1   force =     0.00047927    0.04642030   -0.00041641
     atom   13 type  1   force =    -0.00065694    0.00025650   -0.00036383
     atom   14 type  1   force =    -0.00547011   -0.01315961    0.00016368
     atom   15 type  1   force =     0.00002294    0.00982113   -0.00013756
     atom   16 type  2   force =    -0.00025512   -0.00140611    0.00030747
     atom   17 type  2   force =     0.00381619    0.00660611   -0.00030861
     atom   18 type  1   force =     0.00148234    0.00568457    0.00014820
     atom   19 type  1   force =     0.00067313   -0.00553795    0.00006316
     atom   20 type  1   force =    -0.00003316   -0.00175032    0.00096508
     atom   21 type  1   force =    -0.00056804   -0.00009547    0.00020247
     atom   22 type  2   force =     0.00074982   -0.00067063    0.00074720
     atom   23 type  2   force =     0.00001727   -0.00042460   -0.00089092
     atom   24 type  1   force =    -0.00032513   -0.04587999   -0.00042077
     atom   25 type  1   force =     0.00048312    0.04646592   -0.00043276
     atom   26 type  1   force =    -0.00095135    0.00026552   -0.00036214
     atom   27 type  3   force =    -0.00001634    0.00003866   -0.00071217
     atom   28 type  3   force =    -0.00001685    0.00003971   -0.00071298
     atom   29 type  3   force =     0.00019385    0.00004479    0.00054808
     atom   30 type  3   force =     0.00019761    0.00004631    0.00054700

     Total force =     0.002861     Total SCF correction =     0.000321
     SCF correction compared to forces is large: reduce conv_thr to get better values

     bfgs converged in  13 scf cycles and  12 bfgs steps
     (criteria: energy < 0.10E-03, force < 0.10E-02)

     End of BFGS Geometry Optimization

     Final energy   =   -1992.1788970794 Ry
Begin final coordinates

ATOMIC_POSITIONS (crystal)
O0       0.000000000   0.000000000   0.379527814    0   0   1
O0       0.000000000   0.500000000   0.397319147    0   0   1
Cr1      0.250000000   0.500000000   0.448682785    0   0   1
Cr1      0.000000000   0.000000000   0.451925934    0   0   1
O0       0.250000000   0.800000000   0.450602442    0   0   1
O0       0.250000000   0.200000000   0.450699534    0   0   1
O0       0.000000000   0.500000000   0.497160760    0   0   1
O0       0.000000000   0.000000000   0.525531543    0   0   1
Cr1      0.250000000   0.000000000   0.578708992    0   0   1
Cr1      0.000000000   0.500000000   0.566447223    0   0   1
O0       0.250000000   0.700000000   0.575807778    0   0   1
O0       0.250000000   0.300000000   0.575906155    0   0   1
O0       0.000000000   0.000000000   0.620812169    0   0   1
O0       0.500000000   0.000000000   0.379527881    0   0   1
O0       0.500000000   0.500000000   0.397319094    0   0   1
Cr1      0.750000000   0.500000000   0.448682565    0   0   1
Cr1      0.500000000   0.000000000   0.451925931    0   0   1
O0       0.750000000   0.800000000   0.450602475    0   0   1
O0       0.750000000   0.200000000   0.450699446    0   0   1
O0       0.500000000   0.500000000   0.497160681    0   0   1
O0       0.500000000   0.000000000   0.525531684    0   0   1
Cr1      0.750000000   0.000000000   0.578681722    0   0   1
Cr1      0.500000000   0.500000000   0.566447209    0   0   1
O0       0.750000000   0.700000000   0.575805350    0   0   1
O0       0.750000000   0.300000000   0.575903757    0   0   1
O0       0.500000000   0.000000000   0.620812534    0   0   1
H2      -0.000583102   0.640474399   0.379148129
H2       0.499416578   0.640474358   0.379148113
H2       0.157742094   0.029827791   0.366765482
H2       0.657742173   0.029827074   0.366765671
End final coordinates

     General routines

     Parallel routines
     Hubbard U routines

   This run was terminated on:  15:44:25  10May2014

   JOB DONE.
Running PBS batch system epilogue script
Job id: 340916.audhumbla.fysik.dtu.dk
Username: zhonxu
Groupname: campgst
Jobname: CrO2/Eads-2-layers/bare-U-3.0
Sessionid: 32599
Queuename: verylong
Accounting:
This job has allocated the following 16 nodes:
a102 a102 a102 a102 a102 a102 a102 a102 a101 a101 a101 a101 a101 a101 a101 a101
Finished epilogue job 340916.audhumbla.fysik.dtu.dk for zhonxu