     Program PWSCF v.5.0.2 (svn rev. 9656) starts on 16Apr2014 at  9: 4:19

     Current dimensions of program PWSCF are:
     Max number of different atomic species (ntypx) = 10
     Max number of k-points (npk) =  40000
     Max angular momentum in pseudopotentials (lmaxx) =  3
     Reading input from pwscf.in
Warning: card &CELL ignored
Warning: card / ignored

     Subspace diagonalization in iterative solution of the eigenvalue problem:
     a serial algorithm will be used

     bravais-lattice index     =            0
     lattice parameter (alat)  =      12.0187  a.u.
     unit-cell volume          =    9939.8055 (a.u.)^3
     number of atoms/cell      =           49
     number of atomic types    =            2
     number of electrons       =       438.00
     number of Kohn-Sham states=          657
     kinetic-energy cutoff     =      40.0000  Ry
     charge density cutoff     =     500.0000  Ry
     convergence threshold     =      1.0E-06
     mixing beta               =       0.3000
     number of iterations used =            8  plain     mixing
     Exchange-correlation      = SLA  PW   PBE  PBE ( 1 4 3 4 0)
     EXX-fraction              =        0.00
     nstep                     =           50

     celldm(1)=  12.018658  celldm(2)=   0.000000  celldm(3)=   0.000000
     celldm(4)=   0.000000  celldm(5)=   0.000000  celldm(6)=   0.000000

     crystal axes: (cart. coord. in units of alat)
               a(1) = (   1.000000   0.000000   0.000000 )
               a(2) = (   0.000000   1.009517   0.000000 )
               a(3) = (   0.000000   0.000000   5.671477 )

     reciprocal axes: (cart. coord. in units 2 pi/alat)
               b(1) = (  1.000000  0.000000  0.000000 )
               b(2) = (  0.000000  0.990572  0.000000 )
               b(3) = (  0.000000  0.000000  0.176321 )

     PseudoPot. # 1 for O  read from file:
     /home/camp/zhonxu/pseudo/o_pbe_v1.01.uspp.F.UPF
     MD5 check sum: 2bcb18d16ea4b960afae9ec6d52f22d2
     Pseudo is Ultrasoft + core correction, Zval =  6.0
     Generated by new atomic code, or converted to UPF format
     Using radial grid of  737 points,  5 beta functions with:
                l(1) =   0
                l(2) =   0
                l(3) =   1
                l(4) =   1
                l(5) =   2
     Q(r) pseudized with  8 coefficients,  rinner =    0.900   0.900   0.900
                                                       0.900   0.900

     PseudoPot. # 2 for Ir read from file:
     /home/camp/zhonxu/pseudo/ir_pbe_v1.uspp.F.UPF
     MD5 check sum: abf987a9674477536ede83817f8f8b70
     Pseudo is Ultrasoft + core correction, Zval = 15.0
     Generated by new atomic code, or converted to UPF format
     Using radial grid of  983 points,  7 beta functions with:
                l(1) =   0
                l(2) =   0
                l(3) =   1
                l(4) =   1
                l(5) =   1
                l(6) =   2
                l(7) =   2
     Q(r) pseudized with  8 coefficients,  rinner =    1.350   1.350   1.350
                                                       1.350   1.350

     atomic species   valence    mass     pseudopotential
        O0             6.00    15.99940     O ( 1.00)
        Ir1           15.00   192.22000     Ir( 1.00)

      4 Sym. Ops. (no inversion) found

   Cartesian axes

     site n.     atom                  positions (alat units)
         1           O0  tau(   1) = (   0.0000000   0.5047586   1.8867871  )
         2           Ir1 tau(   2) = (   0.2500000   0.5047586   2.0785964  )
         3           Ir1 tau(   3) = (   0.0000000   0.0000000   2.0785964  )
         4           O0  tau(   4) = (   0.2500000   0.8177090   2.0785964  )
         5           O0  tau(   5) = (   0.2500000   0.1918083   2.0785964  )
         6           O0  tau(   6) = (   0.0000000   0.5047586   2.2704058  )
         7           O0  tau(   7) = (   0.0000000   0.0000000   2.3915485  )
         8           Ir1 tau(   8) = (   0.2500000   0.0000000   2.5833579  )
         9           Ir1 tau(   9) = (   0.0000000   0.5047586   2.5833579  )
        10           O0  tau(  10) = (   0.2500000   0.6965669   2.5833579  )
        11           O0  tau(  11) = (   0.2500000   0.3129503   2.5833579  )
        12           O0  tau(  12) = (   0.0000000   0.0000000   2.7751673  )
        13           O0  tau(  13) = (   0.0000000   0.5047586   2.8930773  )
        14           Ir1 tau(  14) = (   0.2500000   0.5047586   3.0864747  )
        15           Ir1 tau(  15) = (   0.0000000   0.0000000   3.0901611  )
        16           O0  tau(  16) = (   0.2500000   0.8161846   3.0894805  )
        17           O0  tau(  17) = (   0.2500000   0.1933326   3.0894805  )
        18           O0  tau(  18) = (   0.0000000   0.5047586   3.2780572  )
        19           O0  tau(  19) = (   0.0000000   0.0000000   3.4018655  )
        20           Ir1 tau(  20) = (   0.2500000   0.0000000   3.5996299  )
        21           Ir1 tau(  21) = (   0.0000000   0.5047586   3.5839199  )
        22           O0  tau(  22) = (   0.2500000   0.6968899   3.6045641  )
        23           O0  tau(  23) = (   0.2500000   0.3126273   3.6045641  )
        24           O0  tau(  24) = (   0.0000000   0.0000000   3.7852574  )
        25           O0  tau(  25) = (   0.5000000   0.5047586   1.8867871  )
        26           Ir1 tau(  26) = (   0.7500000   0.5047586   2.0785964  )
        27           Ir1 tau(  27) = (   0.5000000   0.0000000   2.0785964  )
        28           O0  tau(  28) = (   0.7500000   0.8177090   2.0785964  )
        29           O0  tau(  29) = (   0.7500000   0.1918083   2.0785964  )
        30           O0  tau(  30) = (   0.5000000   0.5047586   2.2704058  )
        31           O0  tau(  31) = (   0.5000000   0.0000000   2.3915485  )
        32           Ir1 tau(  32) = (   0.7500000   0.0000000   2.5833579  )
        33           Ir1 tau(  33) = (   0.5000000   0.5047586   2.5833579  )
        34           O0  tau(  34) = (   0.7500000   0.6965669   2.5833579  )
        35           O0  tau(  35) = (   0.7500000   0.3129503   2.5833579  )
        36           O0  tau(  36) = (   0.5000000   0.0000000   2.7751673  )
        37           O0  tau(  37) = (   0.5000000   0.5047586   2.8930773  )
        38           Ir1 tau(  38) = (   0.7500000   0.5047586   3.0864747  )
        39           Ir1 tau(  39) = (   0.5000000   0.0000000   3.0901611  )
        40           O0  tau(  40) = (   0.7500000   0.8161846   3.0894805  )
        41           O0  tau(  41) = (   0.7500000   0.1933326   3.0894805  )
        42           O0  tau(  42) = (   0.5000000   0.5047586   3.2780572  )
        43           O0  tau(  43) = (   0.5000000   0.0000000   3.4018655  )
        44           Ir1 tau(  44) = (   0.7500000   0.0000000   3.5996299  )
        45           Ir1 tau(  45) = (   0.5000000   0.5047586   3.5839199  )
        46           O0  tau(  46) = (   0.7500000   0.6968899   3.6045641  )
        47           O0  tau(  47) = (   0.7500000   0.3126273   3.6045641  )
        48           O0  tau(  48) = (   0.5000000   0.0000000   3.7852574  )
        49           O0  tau(  49) = (   0.5000000   0.5047586   3.8648849  )

     number of k points=     9  Methfessel-Paxton smearing, width (Ry)=  0.0100
                       cart. coord. in units 2pi/alat
        k(    1) = (   0.0000000   0.0000000   0.0000000), wk =   0.1250000
        k(    2) = (   0.0000000   0.2476431   0.0000000), wk =   0.2500000
        k(    3) = (   0.0000000  -0.4952862   0.0000000), wk =   0.1250000
        k(    4) = (   0.2500000   0.0000000   0.0000000), wk =   0.2500000
        k(    5) = (   0.2500000   0.2476431   0.0000000), wk =   0.5000000
        k(    6) = (   0.2500000  -0.4952862   0.0000000), wk =   0.2500000
        k(    7) = (  -0.5000000   0.0000000   0.0000000), wk =   0.1250000
        k(    8) = (  -0.5000000   0.2476431   0.0000000), wk =   0.2500000
        k(    9) = (  -0.5000000  -0.4952862   0.0000000), wk =   0.1250000

     Largest allocated arrays     est. size (Mb)     dimensions
     Largest temporary arrays     est. size (Mb)     dimensions

     Check: negative/imaginary core charge=   -0.000003    0.000000

     Initial potential from superposition of free atoms
     Check: negative starting charge=   -6.666934

     starting charge  429.99945, renormalised to  438.00000

     negative rho (up, down):  0.679E+01 0.000E+00
     Starting wfc are  324 randomized atomic wfcs

     Self-consistent Calculation

     iteration #  1     ecut=    40.00 Ry     beta=0.30
     Davidson diagonalization with overlap
     ethr =  1.00E-02,  avg # of iterations =  7.6

     negative rho (up, down):  0.637E+01 0.000E+00

     total energy              =   -3974.02008919 Ry
     Harris-Foulkes estimate   =   -4052.38254526 Ry
     estimated scf accuracy    <     158.39715545 Ry

[...]

     End of self-consistent calculation

          k = 0.0000 0.0000 0.0000 ( 42445 PWs)   bands (ev):

   -50.6103 -50.2893 -50.2425 -49.7864 -49.7547 -49.7520 -49.7472 -49.7409
   -49.7289 -49.7272 -49.7219 -49.7199 -49.7163 -49.7131 -49.7118 -49.7081
   -49.7046 -49.7022 -49.6861 -49.6831 -49.6490 -49.6250 -49.6156 -49.5846
   -49.5716 -49.5566 -49.5475 -49.5024 -49.4995 -49.4846 -49.4838 -49.4666
   -49.4561 -49.4520 -49.4476 -49.4416 -49.4009 -49.3806 -49.3566 -49.3481
   -49.3474 -49.2742 -49.2595 -49.2580 -49.2435 -49.0886 -49.0728 -49.0689
   -20.2954 -20.0434 -19.7728 -19.6910 -19.6240 -19.3713 -19.2504 -19.0811
   -18.9672 -18.9524 -18.9160 -18.9081 -18.8683 -18.8283 -18.8177 -18.8085
   -18.7766 -18.7320 -18.6978 -18.6211 -18.5481 -18.4868 -18.4412 -18.4148
   -18.2780 -18.2260 -18.1742 -18.1120 -17.1383 -17.0469 -16.9495 -16.9102
   -16.7892  -8.8598  -8.8328  -8.7611  -8.7392  -8.5381  -8.4297  -7.6778
    -7.6164  -7.3204  -7.2916  -7.2692  -7.2638  -7.2530  -7.2471  -7.2296
    -7.1879  -7.1498  -7.1414  -7.1279  -7.1229  -7.0967  -7.0434  -7.0335
    -6.9489  -6.9145  -6.8939  -6.8295  -6.6999  -6.6922  -6.6215  -6.5612
    -6.5350  -6.4882  -6.4227  -6.3836  -6.3266  -6.3236  -6.1778  -5.8444
    -5.7038  -5.6255  -5.2517  -5.0603  -4.9816  -4.9410  -4.9146  -4.8678
    -4.8558  -4.8517  -4.8345  -4.7726  -4.6956  -4.5415  -4.5370  -4.4704
    -4.3818  -4.3537  -4.3112  -4.1907  -4.1869  -3.9835  -3.9409  -3.9335
    -3.8246  -3.8193  -3.8151  -3.7616  -3.7331  -3.6754  -3.6374  -3.6167
    -3.5904  -3.5615  -3.4568  -3.4319  -3.3968  -3.2976  -3.2541  -3.1777
    -2.9617  -2.8644  -2.8546  -2.8163  -2.7483  -2.7345  -2.6713  -2.6312
    -2.5610  -2.5118  -2.4442  -2.3722  -2.2195  -2.1693  -2.0620  -1.9730
    -1.9262  -1.8808  -1.8534  -1.7603  -1.7542  -1.7430  -1.7128  -1.6918
    -1.6458  -1.5925  -1.5400  -1.4921  -1.3540  -1.2961  -1.2733  -1.2567
    -1.2185  -1.2008  -1.1775  -1.1320  -1.0700  -1.0100  -0.9636  -0.9402
    -0.8400  -0.8259  -0.8228  -0.7960  -0.5469  -0.5311  -0.3459  -0.2734
    -0.1883  -0.1106  -0.1067  -0.0020   0.0278   0.0419   0.2377   0.4090
     0.4417   0.6662   0.6915   0.7542   0.8084   0.8743   0.9084   0.9163
     1.0881   1.1575   1.1890   1.3115   1.4329   1.5513   1.7753   2.0031
[...]
O0       0.250000000   0.690000000   0.455500000    0   0   0
O0       0.250000000   0.310000000   0.455500000    0   0   0
O0       0.000000000   0.000000000   0.489320000    0   0   0
O0       0.000000000   0.500000000   0.510561952
Ir1      0.252625974   0.500000000   0.544643748
Ir1      0.000000000   0.000000000   0.544672955
O0       0.250470944   0.808466544   0.544628207
O0       0.250470944   0.191533456   0.544628207
O0       0.000000000   0.500000000   0.577930932
O0       0.000000000   0.000000000   0.599392102
Ir1      0.250354191   0.000000000   0.633851365
Ir1      0.000000000   0.500000000   0.631446883
O0       0.250175531   0.690523800   0.633706320
O0       0.250175531   0.309476200   0.633706320
O0       0.000000000   0.000000000   0.666478072
O0       0.500000000   0.500000000   0.332680000    0   0   0
Ir1      0.750000000   0.500000000   0.366500000    0   0   0
Ir1      0.500000000   0.000000000   0.366500000    0   0   0
O0       0.750000000   0.810000000   0.366500000    0   0   0
O0       0.750000000   0.190000000   0.366500000    0   0   0
O0       0.500000000   0.500000000   0.400320000    0   0   0
O0       0.500000000   0.000000000   0.421680000    0   0   0
Ir1      0.750000000   0.000000000   0.455500000    0   0   0
Ir1      0.500000000   0.500000000   0.455500000    0   0   0
O0       0.750000000   0.690000000   0.455500000    0   0   0
O0       0.750000000   0.310000000   0.455500000    0   0   0
O0       0.500000000   0.000000000   0.489320000    0   0   0
O0       0.500000000   0.500000000   0.510283988
Ir1      0.747374026   0.500000000   0.544643748
Ir1      0.500000000   0.000000000   0.544594400
O0       0.749529056   0.808466544   0.544628207
O0       0.749529056   0.191533456   0.544628207
O0       0.500000000   0.500000000   0.579595246
O0       0.500000000   0.000000000   0.599175031
Ir1      0.749645809   0.000000000   0.633851365
Ir1      0.500000000   0.500000000   0.636903858
O0       0.749824469   0.690523800   0.633706320
O0       0.749824469   0.309476200   0.633706320
O0       0.500000000   0.000000000   0.666347170
O0       0.500000000   0.500000000   0.685973686

     Check: negative starting charge=   -6.671242
     NEW-OLD atomic charge density approx. for the potential

     Check: negative/imaginary core charge=   -0.000003    0.000000
     Check: negative starting charge=   -6.671361

[...]

     Self-consistent Calculation

[...]

     Threshold (ethr) on eigenvalues was too large:
     Diagonalizing with lowered threshold

     Davidson diagonalization with overlap
     ethr =  2.96E-09,  avg # of iterations =  2.2

[...]

     total energy              =   -4041.81510236 Ry
     Harris-Foulkes estimate   =   -4041.81510236 Ry
     estimated scf accuracy    <       0.00000001 Ry

     iteration # 19     ecut=    40.00 Ry     beta=0.30
     Davidson diagonalization with overlap
     ethr =  2.83E-12,  avg # of iterations =  1.0

     negative rho (up, down):  0.624E+01 0.000E+00

     End of self-consistent calculation

[...]

          k = 0.2500-0.4953 0.0000 ( 42460 PWs)   bands (ev):

[...]

          k =-0.5000-0.4953 0.0000 ( 42596 PWs)   bands (ev):

   -50.6877 -50.4027 -50.2608 -49.6907 -49.6901 -49.6840 -49.6803 -49.6629
   -49.6604 -49.6553 -49.6553 -49.6536 -49.6533 -49.6518 -49.6390 -49.6378
   -49.6286 -49.6261 -49.6222 -49.6106 -49.6049 -49.6037 -49.6007 -49.5069
   -49.5054 -49.4924 -49.4923 -49.4361 -49.4358 -49.4323 -49.4270 -49.4269
   -49.4165 -49.3948 -49.3903 -49.3847 -49.3803 -49.3320 -49.3291 -49.2857
   -49.2795 -49.2025 -49.2021 -49.1816 -49.1816 -49.0665 -49.0148 -49.0078
   -19.5091 -19.4294 -19.4193 -19.3494 -19.1510 -19.1326 -19.1289 -19.1059
   -18.9335 -18.9290 -18.9207 -18.9178 -18.8528 -18.8493 -18.8437 -18.8355
   -18.7689 -18.7154 -18.7086 -18.7020 -18.6537 -18.6292 -18.5847 -18.5160
   -18.4651 -18.4572 -18.4339 -18.4018 -17.1780 -17.1357 -17.1010 -16.9489
   -16.9381  -7.8105  -7.8062  -7.7833  -7.7291  -7.2378  -7.1456  -7.1438
    -7.1392  -7.1044  -7.0935  -7.0916  -7.0789  -7.0709  -7.0117  -6.9887
    -6.9805  -6.7596  -6.7589  -6.7484  -6.7431  -6.6921  -6.6835  -6.6748
    -6.6613  -6.6554  -6.6523  -6.5858  -6.5853  -6.5040  -6.4944  -6.4936
    -6.4828  -6.4400  -6.3767  -6.3305  -6.3253  -6.2870  -6.1989  -6.1965
    -6.1730  -5.6409  -5.6039  -5.5722  -5.5607  -5.2838  -5.2618  -5.2544
    -5.2260  -5.1188  -5.0664  -5.0152  -5.0070  -4.9607  -4.9306  -4.9026
    -4.8774  -4.8547  -4.8272  -4.8125  -4.8066  -4.6094  -4.6001  -4.5911
    -4.5377  -4.4899  -4.3740  -4.3511  -4.3489  -4.3265  -4.2643  -4.2567
    -4.1942  -4.0112  -3.8552  -3.8535  -3.8134  -3.3555  -3.2793  -3.1744
    -3.0778  -3.0438  -3.0340  -2.8913  -2.8770  -2.8673  -2.8590  -2.6111
    -2.6019  -2.5857  -2.5572  -2.4397  -2.4099  -2.4075  -2.3775  -2.2392
    -2.0915  -2.0468  -1.9090  -1.6125  -1.3593  -1.3419  -1.2590  -1.2377
    -1.0231  -1.0167  -0.9247  -0.9147  -0.8277  -0.8271  -0.7966  -0.7769
    -0.6763  -0.6423  -0.6322  -0.5519  -0.4354  -0.2692  -0.2652  -0.2571
    -0.2179  -0.1548  -0.1528  -0.0975   0.1513   0.1670   0.1890   0.1916
     0.2763   0.2867   0.3402   0.3446   0.3585   0.4093   0.4269   0.5338
     0.5600   0.5678   0.6023   0.6717   0.7139   0.7215   0.7229   0.7449
     0.7831   0.8457   0.9005   0.9129   1.4237   1.4317   1.7727   2.2480
     2.5492   2.6160   2.6335   2.6336   2.7670   2.8184   2.8204   2.9973
     3.0362   3.0531   3.0544   3.6995   3.8120   3.8459   3.8527   4.1000
     4.1659   4.2000   4.2190   4.5989   4.6672   4.7027   4.7104   4.9448
     4.9736   5.0164   5.0302   5.0410   6.4471   6.4476   6.9715   7.8793
     7.8860   8.1084   8.1488   8.1766   8.2227   8.2721   8.3022   8.3958
     8.4731   8.4930   8.5819   8.5867   8.6035   8.6333   8.6540   8.7321
     8.9971   9.0313   9.0620   9.0724   9.0832   9.0968   9.1830   9.2645
     9.4530   9.6092   9.6362   9.6611   9.8000   9.8098   9.8518   9.9304
     9.9470  10.2433  10.2433  10.2613  10.2700  10.2756  10.2757  10.2880
    10.3080  10.3418  10.3494  10.3858  10.3858  10.4193  10.4202  10.4319
    10.5136  10.5665  10.5721  10.6204  10.6242  10.6988  10.7097  10.7903
    11.0807  11.0849  11.2296  11.4046  11.4394  11.4572  11.4804  11.4838
    11.6318  11.6368  11.6415  11.6915  11.7646  11.7912  11.7952  11.9717
    12.0737  12.1279  12.1674  12.1842  12.3555  12.3701  12.5869  12.6995
    12.8312  12.8328  12.8891  13.1904  13.2932  13.3033  13.4527  13.4636
    13.5756  13.5979  13.6476  13.6979  13.7729  13.8375  13.8868  13.9645
    13.9712  14.0027  14.0306  14.2739  14.3025  14.4213  14.4365  14.4689
    14.5234  14.5684  14.6163  14.6292  14.6421  14.7886  14.8143  14.9707
    14.9829  15.0074  15.1026  15.1032  15.1740  15.2045  15.2880  15.2965
    15.3730  15.3804  15.5141  15.5328  15.5642  15.5817  15.6077  15.6135
    15.6744  15.6781  15.6807  15.6834  15.8097  15.8113  15.8456  15.8719
    15.9047  15.9236  15.9327  16.0056  16.0196  16.0229  16.0532  16.0657
    16.0832  16.0889  16.1294  16.1305  16.1314  16.1604  16.1689  16.2820
    16.3741  16.3769  16.3852  16.5604  16.5649  16.5685  16.6141  16.6141
    16.6867  16.7011  16.7172  16.7238  16.7617  16.7685  16.7745  16.8454
    16.8860  16.9016  16.9711  17.0394  17.1817  17.1978  17.2330  17.2405
    17.4304  17.4393  17.4622  17.4850  17.5238  17.5276  17.5822  17.5975
    17.7180  17.7585  17.7681  17.8097  17.8155  17.8168  17.8473  17.9230
    17.9369  17.9414  17.9608  18.0360  18.0489  18.0601  18.1127  18.2496
    18.4431  18.4707  18.4844  18.5077  18.6564  18.6774  18.7389  18.7825
    18.8941  18.9313  18.9431  18.9906  19.0287  19.0513  19.0526  19.1267
[...]
    22.9559  23.0157  23.0336  23.0839  23.1030  23.1272  23.1539  23.2107
    23.2520  23.2596  23.3288  23.3289  23.3333  23.3480  23.4307  23.4688
    23.4783  23.4863  23.4964  23.6101  23.6277  23.6283  23.6441  23.8338
    23.8404  23.8597  23.9409  23.9513  23.9875  23.9953  24.0039  24.0460
    24.0868  24.0885  24.1026  24.1131  24.1302  24.1370  24.2070  24.2814
    24.3122  24.3205  24.3239  24.3591  24.4216  24.4292  24.4309  24.4392
    24.6663  24.6902  24.8067  24.8070  24.8594  24.8610  24.8785  24.9202
    24.9960  25.0327  25.0763  25.1909  25.2013  25.2444  25.2543  25.4315
    25.5396  25.5495  25.5512  25.5658  25.6164  25.6219  25.6387  25.6705
    25.6923  25.7053  25.7463  25.7482  25.7865  25.7941  25.8104  25.9079
    26.0448  26.0476  26.0772  26.0843  26.2396  26.2676  26.3102  26.3296
    26.4161  26.4479  26.4497  26.5068  26.5814  26.6279  26.6459  26.6714
    26.7729  26.7766  26.8060  26.8480  26.9751  26.9891  27.0032  27.0487
    27.0492  27.0733  27.0772  27.1400  27.2414  27.2519  27.2821  27.3758
    27.5325

     the Fermi energy is     0.7281 ev

!    total energy              =   -4041.81510236 Ry
     Harris-Foulkes estimate   =   -4041.81510236 Ry
     estimated scf accuracy    <          1.9E-09 Ry

     The total energy is the sum of the following terms:

     one-electron contribution =  -78589.60951995 Ry
     hartree contribution      =   39390.25266700 Ry
     xc contribution           =   -1111.30939094 Ry
     ewald contribution        =   36268.85084331 Ry
     smearing contrib. (-TS)   =       0.00029822 Ry

     convergence has been achieved in  19 iterations

     Forces acting on atoms (Ry/au):

     negative rho (up, down):  0.624E+01 0.000E+00
     atom    1 type  1   force =     0.00000000    0.00000000    0.02554869
     atom    2 type  2   force =    -0.00097234    0.00000000   -0.03731865
     atom    3 type  2   force =     0.00000000    0.00000000    0.06750108
     atom    4 type  1   force =     0.00011387   -0.01230609   -0.02620780
     atom    5 type  1   force =     0.00011387    0.01230609   -0.02620780
     atom    6 type  1   force =     0.00000000    0.00000000    0.01752409
     atom    7 type  1   force =     0.00000000    0.00000000   -0.01536604
     atom    8 type  2   force =     0.00042051    0.00000000   -0.01179973
     atom    9 type  2   force =     0.00000000    0.00000000   -0.01042638
     atom   10 type  1   force =    -0.00065567    0.01135348   -0.00216537
     atom   11 type  1   force =    -0.00065567   -0.01135348   -0.00216537
     atom   12 type  1   force =     0.00000000    0.00000000    0.02316402
     atom   13 type  1   force =     0.00000000    0.00000000    0.00000227
     atom   14 type  2   force =    -0.00003947    0.00000000    0.00000213
     atom   15 type  2   force =     0.00000000    0.00000000   -0.00017077
     atom   16 type  1   force =    -0.00003048   -0.00002402   -0.00048902
     atom   17 type  1   force =    -0.00003048    0.00002402   -0.00048902
     atom   18 type  1   force =     0.00000000    0.00000000    0.00029397
     atom   19 type  1   force =     0.00000000    0.00000000    0.00004125
     atom   20 type  2   force =     0.00008364    0.00000000    0.00002169
     atom   21 type  2   force =     0.00000000    0.00000000    0.00049817
     atom   22 type  1   force =     0.00049010   -0.00013589   -0.00009855
     atom   23 type  1   force =     0.00049010    0.00013589   -0.00009855
     atom   24 type  1   force =     0.00000000    0.00000000    0.00043124
     atom   25 type  1   force =     0.00000000    0.00000000    0.02610374
     atom   26 type  2   force =     0.00097234    0.00000000   -0.03731865
     atom   27 type  2   force =     0.00000000    0.00000000    0.06761347
     atom   28 type  1   force =    -0.00011387   -0.01230609   -0.02620780
     atom   29 type  1   force =    -0.00011387    0.01230609   -0.02620780
     atom   30 type  1   force =     0.00000000    0.00000000    0.02142878
     atom   31 type  1   force =     0.00000000    0.00000000   -0.01744108
     atom   32 type  2   force =    -0.00042051    0.00000000   -0.01179973
     atom   33 type  2   force =     0.00000000    0.00000000   -0.01415266
     atom   34 type  1   force =     0.00065567    0.01135348   -0.00216537
     atom   35 type  1   force =     0.00065567   -0.01135348   -0.00216537
     atom   36 type  1   force =     0.00000000    0.00000000    0.02237516
     atom   37 type  1   force =     0.00000000    0.00000000    0.00005438
     atom   38 type  2   force =     0.00003947    0.00000000    0.00000213
     atom   39 type  2   force =     0.00000000    0.00000000   -0.00015897
     atom   40 type  1   force =     0.00003048   -0.00002402   -0.00048902
     atom   41 type  1   force =     0.00003048    0.00002402   -0.00048902
     atom   42 type  1   force =     0.00000000    0.00000000   -0.00022382
     atom   43 type  1   force =     0.00000000    0.00000000   -0.00015518
     atom   44 type  2   force =    -0.00008364    0.00000000    0.00002169
     atom   45 type  2   force =     0.00000000    0.00000000    0.00033757
     atom   46 type  1   force =    -0.00049010   -0.00013589   -0.00009855
     atom   47 type  1   force =    -0.00049010    0.00013589   -0.00009855
     atom   48 type  1   force =     0.00000000    0.00000000   -0.00026900
     atom   49 type  1   force =     0.00000000    0.00000000   -0.00052191

     Total force =     0.001780     Total SCF correction =     0.000109

     bfgs converged in  12 scf cycles and  11 bfgs steps
     (criteria: energy < 0.10E-03, force < 0.10E-02)

     End of BFGS Geometry Optimization

     Final energy   =   -4041.8151023623 Ry
Begin final coordinates

ATOMIC_POSITIONS (crystal)
O0       0.000000000   0.500000000   0.332680000    0   0   0
Ir1      0.250000000   0.500000000   0.366500000    0   0   0
Ir1      0.000000000   0.000000000   0.366500000    0   0   0
O0       0.250000000   0.810000000   0.366500000    0   0   0
O0       0.250000000   0.190000000   0.366500000    0   0   0
O0       0.000000000   0.500000000   0.400320000    0   0   0
O0       0.000000000   0.000000000   0.421680000    0   0   0
Ir1      0.250000000   0.000000000   0.455500000    0   0   0
Ir1      0.000000000   0.500000000   0.455500000    0   0   0
O0       0.250000000   0.690000000   0.455500000    0   0   0
O0       0.250000000   0.310000000   0.455500000    0   0   0
O0       0.000000000   0.000000000   0.489320000    0   0   0
O0       0.000000000   0.500000000   0.510561952
Ir1      0.252625974   0.500000000   0.544643748
Ir1      0.000000000   0.000000000   0.544672955
O0       0.250470944   0.808466544   0.544628207
O0       0.250470944   0.191533456   0.544628207
O0       0.000000000   0.500000000   0.577930932
O0       0.000000000   0.000000000   0.599392102
Ir1      0.250354191   0.000000000   0.633851365
Ir1      0.000000000   0.500000000   0.631446883
O0       0.250175531   0.690523800   0.633706320
O0       0.250175531   0.309476200   0.633706320
O0       0.000000000   0.000000000   0.666478072
O0       0.500000000   0.500000000   0.332680000    0   0   0
Ir1      0.750000000   0.500000000   0.366500000    0   0   0
Ir1      0.500000000   0.000000000   0.366500000    0   0   0
O0       0.750000000   0.810000000   0.366500000    0   0   0
O0       0.750000000   0.190000000   0.366500000    0   0   0
O0       0.500000000   0.500000000   0.400320000    0   0   0
O0       0.500000000   0.000000000   0.421680000    0   0   0
Ir1      0.750000000   0.000000000   0.455500000    0   0   0
Ir1      0.500000000   0.500000000   0.455500000    0   0   0
O0       0.750000000   0.690000000   0.455500000    0   0   0
O0       0.750000000   0.310000000   0.455500000    0   0   0
O0       0.500000000   0.000000000   0.489320000    0   0   0
O0       0.500000000   0.500000000   0.510283988
Ir1      0.747374026   0.500000000   0.544643748
Ir1      0.500000000   0.000000000   0.544594400
O0       0.749529056   0.808466544   0.544628207
O0       0.749529056   0.191533456   0.544628207
O0       0.500000000   0.500000000   0.579595246
O0       0.500000000   0.000000000   0.599175031
Ir1      0.749645809   0.000000000   0.633851365
Ir1      0.500000000   0.500000000   0.636903858
O0       0.749824469   0.690523800   0.633706320
O0       0.749824469   0.309476200   0.633706320
O0       0.500000000   0.000000000   0.666347170
O0       0.500000000   0.500000000   0.685973686
End final coordinates

     General routines

     Parallel routines

   This run was terminated on:   8: 7:40  17Apr2014

   JOB DONE.
Running PBS batch system epilogue script
Job id: 329707.audhumbla.fysik.dtu.dk
Username: zhonxu
Groupname: campgst
Jobname: IrO2/Eads-4-layers/O-relax
Sessionid: 65094
Queuename: verylong
Accounting:
This job has allocated the following 32 nodes:
g038 g038 g038 g038 g038 g038 g038 g038 g038 g038 g038 g038 g038 g038 g038 g038 g003 g003 g003 g003 g003 g003 g003 g003 g003 g003 g003 g003 g003 g003 g003 g003
Finished epilogue job 329707.audhumbla.fysik.dtu.dk for zhonxu