     Program PWSCF v.5.0.2 (svn rev. 9656) starts on 29Apr2014 at  5:18:23

     Current dimensions of program PWSCF are:
     Max number of different atomic species (ntypx) = 10
     Max number of k-points (npk) =  40000
     Max angular momentum in pseudopotentials (lmaxx) =  3
     Reading input from pwscf.in
Warning: card &CELL ignored
Warning: card / ignored

     Subspace diagonalization in iterative solution of the eigenvalue problem:
     a serial algorithm will be used

     bravais-lattice index     =            0
     lattice parameter (alat)  =      12.0187  a.u.
     unit-cell volume          =    7280.5819 (a.u.)^3
     number of atoms/cell      =           32
     number of atomic types    =            3
     number of electrons       =       239.00
     number of Kohn-Sham states=          358
     kinetic-energy cutoff     =      40.0000  Ry
     charge density cutoff     =     500.0000  Ry
     convergence threshold     =      1.0E-06
     mixing beta               =       0.7000
     number of iterations used =            8  plain     mixing
     Exchange-correlation      = SLA  PW   PBE  PBE ( 1 4 3 4 0)
     EXX-fraction              =        0.00
     nstep                     =           50

     celldm(1)=  12.018658  celldm(2)=   0.000000  celldm(3)=   0.000000
     celldm(4)=   0.000000  celldm(5)=   0.000000  celldm(6)=   0.000000

     crystal axes: (cart. coord. in units of alat)
               a(1) = (   1.000000   0.000000   0.000000 )
               a(2) = (   0.000000   1.009517   0.000000 )
               a(3) = (   0.000000   0.000000   4.154171 )

     reciprocal axes: (cart. coord. in units 2 pi/alat)
               b(1) = (  1.000000  0.000000  0.000000 )
               b(2) = (  0.000000  0.990572  0.000000 )
               b(3) = (  0.000000  0.000000  0.240722 )

     PseudoPot. # 1 for O  read from file:
     /home/camp/zhonxu/pseudo/o_pbe_v1.01.uspp.F.UPF
     MD5 check sum: 2bcb18d16ea4b960afae9ec6d52f22d2
     Pseudo is Ultrasoft + core correction, Zval =  6.0
     Generated by new atomic code, or converted to UPF format
     Using radial grid of  737 points,  5 beta functions with:
                l(1) =   0
                l(2) =   0
                l(3) =   1
                l(4) =   1
                l(5) =   2
     Q(r) pseudized with  8 coefficients,  rinner =    0.900   0.900   0.900
                                                       0.900   0.900

     PseudoPot. # 2 for Ir read from file:
     /home/camp/zhonxu/pseudo/ir_pbe_v1.uspp.F.UPF
     MD5 check sum: abf987a9674477536ede83817f8f8b70
     Pseudo is Ultrasoft + core correction, Zval = 15.0
     Generated by new atomic code, or converted to UPF format
     Using radial grid of  983 points,  7 beta functions with:
                l(1) =   0
                l(2) =   0
                l(3) =   1
                l(4) =   1
                l(5) =   1
                l(6) =   2
                l(7) =   2
     Q(r) pseudized with  8 coefficients,  rinner =    1.350   1.350   1.350
                                                       1.350   1.350

     PseudoPot. # 3 for H  read from file:
     /home/camp/zhonxu/pseudo/h_pbe_v1.uspp.F.UPF
     MD5 check sum: 3408e3ff4ec8b0a4e358431e7e038a48
     Pseudo is Ultrasoft, Zval =  1.0
     Generated by new atomic code, or converted to UPF format
     Using radial grid of  615 points,  2 beta functions with:
                l(1) =   0
                l(2) =   0
     Q(r) pseudized with  8 coefficients,  rinner =    0.700

     atomic species   valence    mass     pseudopotential
        O0             6.00    15.99940     O ( 1.00)
        Ir1           15.00   192.22000     Ir( 1.00)
        H2             1.00     1.00794     H ( 1.00)

     Simplified LDA+U calculation (l_max = 2) with parameters (eV):
     atomic species    L          U    alpha       J0     beta
        Ir1            2     2.0000   0.0000   0.0000   0.0000

     No symmetry found

   Cartesian axes

     site n.     atom                  positions (alat units)
         1           O0  tau(   1) = (   0.0000000   0.0000000   1.5715230  )
         2           O0  tau(   2) = (   0.0000000   0.5047586   1.6723863  )
         3           Ir1 tau(   3) = (   0.2500000   0.5047586   1.8804272  )
         4           Ir1 tau(   4) = (   0.0000000   0.0000000   1.8823796  )
         5           O0  tau(   5) = (   0.2500000   0.8177090   1.8809672  )
         6           O0  tau(   6) = (   0.2500000   0.1918083   1.8797625  )
         7           O0  tau(   7) = (   0.0000000   0.5047586   2.0697743  )
         8           O0  tau(   8) = (   0.0000000   0.0000000   2.1967673  )
         9           Ir1 tau(   9) = (   0.2500000   0.0000000   2.3926365  )
        10           Ir1 tau(  10) = (   0.0000000   0.5047586   2.3747736  )
        11           O0  tau(  11) = (   0.2500000   0.6965669   2.3923873  )
        12           O0  tau(  12) = (   0.2500000   0.3129503   2.3927196  )
        13           O0  tau(  13) = (   0.0000000   0.0000000   2.5779541  )
        14           O0  tau(  14) = (   0.5000000   0.0000000   1.5704845  )
        15           O0  tau(  15) = (   0.5000000   0.5047586   1.6698107  )
        16           Ir1 tau(  16) = (   0.7500000   0.5047586   1.8805103  )
        17           Ir1 tau(  17) = (   0.5000000   0.0000000   1.8817565  )
        18           O0  tau(  18) = (   0.7500000   0.8177090   1.8810503  )
        19           O0  tau(  19) = (   0.7500000   0.1918083   1.8797625  )
        20           O0  tau(  20) = (   0.5000000   0.5047586   2.0748424  )
        21           O0  tau(  21) = (   0.5000000   0.0000000   2.1964350  )
        22           Ir1 tau(  22) = (   0.7500000   0.0000000   2.3925119  )
        23           Ir1 tau(  23) = (   0.5000000   0.5047586   2.3910995  )
        24           O0  tau(  24) = (   0.7500000   0.6965669   2.3896040  )
        25           O0  tau(  25) = (   0.7500000   0.3129503   2.3900194  )
        26           O0  tau(  26) = (   0.5000000   0.0000000   2.5760847  )
        27           H2  tau(  27) = (  -0.0000400   0.6399431   1.5942048  )
        28           H2  tau(  28) = (   0.5000100   0.6429817   1.5968219  )
        29           H2  tau(  29) = (   0.1437000   0.0339904   1.5235839  )
        30           H2  tau(  30) = (   0.6431700   0.0357369   1.5224622  )
        31           O0  tau(  31) = (   0.5156900   0.5047586   2.6944786  )
        32           H2  tau(  32) = (   0.3744100   0.5050918   2.7575805  )

     number of k points=    10  Methfessel-Paxton smearing, width (Ry)=  0.0100
                       cart. coord. in units 2pi/alat
        k(    1) = (   0.0000000   0.0000000   0.0000000), wk =   0.1250000
        k(    2) = (   0.0000000   0.2476431   0.0000000), wk =   0.2500000
        k(    3) = (   0.0000000  -0.4952862   0.0000000), wk =   0.1250000
        k(    4) = (   0.2500000   0.0000000   0.0000000), wk =   0.2500000
        k(    5) = (   0.2500000   0.2476431   0.0000000), wk =   0.2500000
        k(    6) = (   0.2500000  -0.4952862   0.0000000), wk =   0.2500000
        k(    7) = (  -0.5000000   0.0000000   0.0000000), wk =   0.1250000
        k(    8) = (  -0.5000000   0.2476431   0.0000000), wk =   0.2500000
        k(    9) = (  -0.5000000  -0.4952862   0.0000000), wk =   0.1250000
        k(   10) = (  -0.2500000   0.2476431   0.0000000), wk =   0.2500000

     Largest allocated arrays     est. size (Mb)     dimensions
     Largest temporary arrays     est. size (Mb)     dimensions

     Check: negative/imaginary core charge=   -0.000003    0.000000

     Initial potential from superposition of free atoms
     Check: negative starting charge=   -3.334647

     starting charge  234.99967, renormalised to  239.00000

     negative rho (up, down):  0.339E+01 0.000E+00
     Number of +U iterations with fixed ns =  0
     Starting occupations:
 --- enter write_ns ---
 LDA+U parameters:
U( 2)     =  2.00000000
alpha( 2) =  0.00000000
atom    3   Tr[ns(na)] =   7.00000
    eigenvalues:
  0.700  0.700  0.700  0.700  0.700
    eigenvectors:
  1.000  0.000  0.000  0.000  0.000
  0.000  1.000  0.000  0.000  0.000
  0.000  0.000  1.000  0.000  0.000
  0.000  0.000  0.000  1.000  0.000
  0.000  0.000  0.000  0.000  1.000
    occupations:
  0.700  0.000  0.000  0.000  0.000
  0.000  0.700  0.000  0.000  0.000
  0.000  0.000  0.700  0.000  0.000
  0.000  0.000  0.000  0.700  0.000
  0.000  0.000  0.000  0.000  0.700
atom    4   Tr[ns(na)] =   7.00000
    eigenvalues:
  0.700  0.700  0.700  0.700  0.700
    eigenvectors:
  1.000  0.000  0.000  0.000  0.000
  0.000  1.000  0.000  0.000  0.000
  0.000  0.000  1.000  0.000  0.000
  0.000  0.000  0.000  1.000  0.000
  0.000  0.000  0.000  0.000  1.000
    occupations:
  0.700  0.000  0.000  0.000  0.000
  0.000  0.700  0.000  0.000  0.000
  0.000  0.000  0.700  0.000  0.000
  0.000  0.000  0.000  0.700  0.000
  0.000  0.000  0.000  0.000  0.700
atom    9   Tr[ns(na)] =   7.00000
    eigenvalues:
  0.700  0.700  0.700  0.700  0.700
    eigenvectors:
  1.000  0.000  0.000  0.000  0.000
  0.000  1.000  0.000  0.000  0.000
  0.000  0.000  1.000  0.000  0.000
  0.000  0.000  0.000  1.000  0.000
  0.000  0.000  0.000  0.000  1.000
    occupations:
  0.700  0.000  0.000  0.000  0.000
  0.000  0.700  0.000  0.000  0.000
  0.000  0.000  0.700  0.000  0.000
  0.000  0.000  0.000  0.700  0.000
  0.000  0.000  0.000  0.000  0.700
atom   10   Tr[ns(na)] =   7.00000
    eigenvalues:
  0.700  0.700  0.700  0.700  0.700
    eigenvectors:
  1.000  0.000  0.000  0.000  0.000
  0.000  1.000  0.000  0.000  0.000
  0.000  0.000  1.000  0.000  0.000
  0.000  0.000  0.000  1.000  0.000
  0.000  0.000  0.000  0.000  1.000
    occupations:
  0.700  0.000  0.000  0.000  0.000
  0.000  0.700  0.000  0.000  0.000
  0.000  0.000  0.700  0.000  0.000
  0.000  0.000  0.000  0.700  0.000
  0.000  0.000  0.000  0.000  0.700
atom   16   Tr[ns(na)] =   7.00000
    eigenvalues:
  0.700  0.700  0.700  0.700  0.700
    eigenvectors:
  1.000  0.000  0.000  0.000  0.000
  0.000  1.000  0.000  0.000  0.000
  0.000  0.000  1.000  0.000  0.000
  0.000  0.000  0.000  1.000  0.000
  0.000  0.000  0.000  0.000  1.000
    occupations:
  0.700  0.000  0.000  0.000  0.000
  0.000  0.700  0.000  0.000  0.000
  0.000  0.000  0.700  0.000  0.000
  0.000  0.000  0.000  0.700  0.000
  0.000  0.000  0.000  0.000  0.700
atom   17   Tr[ns(na)] =   7.00000
    eigenvalues:
  0.700  0.700  0.700  0.700  0.700
    eigenvectors:
  1.000  0.000  0.000  0.000  0.000
  0.000  1.000  0.000  0.000  0.000
  0.000  0.000  1.000  0.000  0.000
  0.000  0.000  0.000  1.000  0.000
  0.000  0.000  0.000  0.000  1.000
    occupations:
  0.700  0.000  0.000  0.000  0.000
  0.000  0.700  0.000  0.000  0.000
  0.000  0.000  0.700  0.000  0.000
  0.000  0.000  0.000  0.700  0.000
  0.000  0.000  0.000  0.000  0.700
atom   22   Tr[ns(na)] =   7.00000
    eigenvalues:
  0.700  0.700  0.700  0.700  0.700
    eigenvectors:
  1.000  0.000  0.000  0.000  0.000
  0.000  1.000  0.000  0.000  0.000
  0.000  0.000  1.000  0.000  0.000
  0.000  0.000  0.000  1.000  0.000
[...]
  0.935 -0.000  0.000 -0.109 -0.001
 -0.000  0.651  0.000  0.000 -0.000
  0.000  0.000  0.846 -0.000 -0.001
 -0.109  0.000 -0.000  0.710  0.001
 -0.001 -0.000 -0.001  0.001  0.890
atom   10   Tr[ns(na)] =   8.06355
    eigenvalues:
  0.596  0.608  0.917  0.930  0.981
    eigenvectors:
  0.992  0.000  0.000  0.000  0.008
  0.000  0.000  1.000  0.000  0.000
  0.000  0.000  0.000  1.000  0.000
  0.008  0.000  0.000  0.000  0.992
  0.000  1.000  0.000  0.000  0.000
    occupations:
  0.599 -0.003  0.001  0.033 -0.000
 -0.003  0.917 -0.000  0.000 -0.000
  0.001 -0.000  0.930 -0.000  0.002
  0.033  0.000 -0.000  0.978 -0.000
 -0.000 -0.000  0.002 -0.000  0.608
atom   16   Tr[ns(na)] =   8.10395
    eigenvalues:
  0.604  0.631  0.881  0.959  0.976
    eigenvectors:
  0.003  0.183  0.003  0.001  0.811
  0.991  0.009  0.000  0.000  0.000
  0.000  0.000  0.978  0.019  0.003
  0.006  0.808  0.000  0.000  0.185
  0.000  0.000  0.019  0.979  0.002
    occupations:
  0.912  0.006  0.004 -0.134  0.002
  0.006  0.605  0.001  0.000 -0.005
  0.004  0.001  0.883 -0.004 -0.011
 -0.134  0.000 -0.004  0.695  0.000
  0.002 -0.005 -0.011  0.000  0.957
atom   17   Tr[ns(na)] =   8.08251
    eigenvalues:
  0.617  0.664  0.867  0.912  0.981
    eigenvectors:
  0.000  0.990  0.000  0.000  0.010
  0.000  0.000  0.070  0.929  0.000
  0.000  0.000  0.930  0.070  0.000
  0.000  0.010  0.000  0.000  0.990
  1.000  0.000  0.000  0.000  0.000
    occupations:
  0.667 -0.003 -0.001  0.031  0.001
 -0.003  0.909  0.012  0.000 -0.001
 -0.001  0.012  0.870 -0.000  0.000
  0.031  0.000 -0.000  0.978  0.000
  0.001 -0.001  0.000  0.000  0.617
atom   22   Tr[ns(na)] =   8.05726
    eigenvalues:
  0.651  0.666  0.840  0.892  0.979
    eigenvectors:
  0.000  0.141  0.000  0.000  0.859
  1.000  0.000  0.000  0.000  0.000
  0.000  0.000  1.000  0.000  0.000
  0.000  0.859  0.000  0.000  0.141
  0.000  0.000  0.000  1.000  0.000
    occupations:
  0.935  0.001 -0.000 -0.109 -0.000
  0.001  0.651  0.000 -0.000 -0.000
 -0.000  0.000  0.840 -0.000  0.001
 -0.109 -0.000 -0.000  0.710  0.000
 -0.000 -0.000  0.001  0.000  0.892
atom   23   Tr[ns(na)] =   8.06463
    eigenvalues:
  0.622  0.669  0.840  0.920  0.981
    eigenvectors:
  0.000  0.989  0.000  0.000  0.010
  0.000  0.000  0.000  0.999  0.000
  0.000  0.000  1.000  0.000  0.000
  0.000  0.010  0.000  0.000  0.990
  1.000  0.000  0.000  0.000  0.000
    occupations:
  0.673  0.006  0.000  0.032 -0.000
  0.006  0.920 -0.000 -0.000 -0.000
  0.000 -0.000  0.840  0.000 -0.001
  0.032 -0.000  0.000  0.978  0.000
 -0.000 -0.000 -0.001  0.000  0.622
N of occupied +U levels =  64.6215395
 --- exit write_ns ---

     Threshold (ethr) on eigenvalues was too large:
     Diagonalizing with lowered threshold

     Davidson diagonalization with overlap
     ethr =  7.46E-09,  avg # of iterations =  2.0

[...]

     total energy              =   -2106.65367415 Ry
     Harris-Foulkes estimate   =   -2106.65367416 Ry
     estimated scf accuracy    <       0.00000010 Ry

     iteration # 14     ecut=    40.00 Ry     beta=0.70
     Davidson diagonalization with overlap
     ethr =  7.91E-12,  avg # of iterations =  1.0

     negative rho (up, down):  0.313E+01 0.000E+00

     End of self-consistent calculation
 --- enter write_ns ---
 LDA+U parameters:
U( 2)     =  2.00000000
alpha( 2) =  0.00000000
atom    3   Tr[ns(na)] =   8.10431
    eigenvalues:
  0.604  0.631  0.881  0.959  0.977
    eigenvectors:
  0.002  0.183  0.003  0.000  0.811
  0.992  0.007  0.000  0.000  0.000
  0.000  0.000  0.974  0.023  0.003
  0.005  0.809  0.000  0.000  0.185
  0.000  0.000  0.023  0.976  0.001
    occupations:
  0.912 -0.006  0.004 -0.134 -0.002
 -0.006  0.604 -0.001  0.000 -0.005
  0.004 -0.001  0.884 -0.004  0.011
 -0.134  0.000 -0.004  0.695 -0.000
 -0.002 -0.005  0.011 -0.000  0.957
atom    4   Tr[ns(na)] =   8.08194
    eigenvalues:
  0.619  0.665  0.860  0.916  0.981
    eigenvectors:
  0.000  0.989  0.000  0.000  0.010
  0.000  0.000  0.036  0.964  0.000
  0.000  0.000  0.964  0.036  0.000
  0.000  0.010  0.000  0.000  0.990
  1.000  0.000  0.000  0.000  0.000
    occupations:
  0.668 -0.003 -0.000  0.032  0.001
 -0.003  0.914  0.011  0.000 -0.001
 -0.000  0.011  0.862 -0.000  0.000
  0.032  0.000 -0.000  0.978  0.000
  0.001 -0.001  0.000  0.000  0.619
atom    9   Tr[ns(na)] =   8.06261
    eigenvalues:
  0.651  0.665  0.846  0.890  0.979
    eigenvectors:
  0.000  0.142  0.000  0.000  0.858
  0.999  0.001  0.000  0.000  0.000
  0.000  0.000  0.999  0.001  0.000
  0.000  0.858  0.000  0.000  0.142
  0.000  0.000  0.001  0.999  0.000
    occupations:
  0.935 -0.000  0.000 -0.109 -0.001
 -0.000  0.651  0.000  0.000 -0.000
  0.000  0.000  0.846 -0.000 -0.001
 -0.109  0.000 -0.000  0.710  0.001
 -0.001 -0.000 -0.001  0.001  0.890
atom   10   Tr[ns(na)] =   8.06429
    eigenvalues:
  0.596  0.608  0.917  0.930  0.981
    eigenvectors:
  0.992  0.000  0.000  0.000  0.008
  0.000  0.000  1.000  0.000  0.000
  0.000  0.000  0.000  1.000  0.000
  0.008  0.000  0.000  0.000  0.992
  0.000  1.000  0.000  0.000  0.000
    occupations:
  0.599 -0.003  0.001  0.033 -0.000
 -0.003  0.917 -0.000  0.000 -0.000
  0.001 -0.000  0.930 -0.000  0.002
  0.033  0.000 -0.000  0.978 -0.000
 -0.000 -0.000  0.002 -0.000  0.608
atom   16   Tr[ns(na)] =   8.10384
    eigenvalues:
  0.605  0.631  0.881  0.959  0.976
    eigenvectors:
  0.003  0.183  0.003  0.001  0.810
  0.991  0.009  0.000  0.000  0.000
  0.000  0.000  0.978  0.019  0.003
  0.006  0.808  0.000  0.000  0.185
  0.000  0.000  0.019  0.979  0.002
    occupations:
  0.912  0.006  0.004 -0.134  0.002
  0.006  0.605  0.001  0.000 -0.005
  0.004  0.001  0.883 -0.004 -0.011
 -0.134  0.000 -0.004  0.695  0.000
  0.002 -0.005 -0.011  0.000  0.957
atom   17   Tr[ns(na)] =   8.08209
    eigenvalues:
  0.617  0.664  0.867  0.912  0.981
    eigenvectors:
  0.000  0.990  0.000  0.000  0.010
  0.000  0.000  0.070  0.930  0.000
  0.000  0.000  0.930  0.070  0.000
  0.000  0.010  0.000  0.000  0.990
  1.000  0.000  0.000  0.000  0.000
    occupations:
  0.667 -0.003 -0.001  0.031  0.001
 -0.003  0.909  0.012  0.000 -0.001
 -0.001  0.012  0.870 -0.000  0.000
  0.031  0.000 -0.000  0.978  0.000
  0.001 -0.001  0.000  0.000  0.617
atom   22   Tr[ns(na)] =   8.05750
    eigenvalues:
  0.651  0.666  0.840  0.892  0.979
    eigenvectors:
  0.000  0.141  0.000  0.000  0.859
  1.000  0.000  0.000  0.000  0.000
  0.000  0.000  1.000  0.000  0.000
  0.000  0.859  0.000  0.000  0.141
  0.000  0.000  0.000  1.000  0.000
    occupations:
  0.935  0.001 -0.000 -0.109 -0.000
  0.001  0.651  0.000 -0.000 -0.000
 -0.000  0.000  0.840 -0.000  0.001
 -0.109 -0.000 -0.000  0.710  0.000
 -0.000 -0.000  0.001  0.000  0.892
atom   23   Tr[ns(na)] =   8.06497
    eigenvalues:
  0.622  0.669  0.840  0.921  0.981
    eigenvectors:
  0.000  0.989  0.000  0.000  0.010
  0.000  0.000  0.000  0.999  0.000
  0.000  0.000  1.000  0.000  0.000
  0.000  0.010  0.000  0.000  0.990
  1.000  0.000  0.000  0.000  0.000
    occupations:
  0.673  0.006  0.000  0.032 -0.000
  0.006  0.920 -0.000 -0.000 -0.000
  0.000 -0.000  0.840  0.000 -0.001
  0.032 -0.000  0.000  0.978  0.000
 -0.000 -0.000 -0.001  0.000  0.622
N of occupied +U levels =  64.6215476
 --- exit write_ns ---

[...]

          k = 0.2500-0.4953 0.0000 ( 31088 PWs)   bands (ev):

[...]

          k =-0.2500 0.2476 0.0000 ( 31099 PWs)   bands (ev):

   -50.9799 -50.9555 -50.9381 -50.9075 -50.8370 -50.8111 -50.7988 -50.7875
   -50.7654 -50.7548 -50.7150 -50.6807 -50.6690 -50.6362 -50.5878 -50.5672
   -50.5614 -50.5472 -50.4824 -50.4698 -50.4418 -50.4401 -50.4262 -50.3055
   -21.4600 -21.0938 -21.0661 -20.9725 -20.6203 -20.5072 -20.4492 -20.3618
   -20.2569 -20.1801 -20.1139 -20.0087 -19.8998 -19.8822 -19.8049 -19.7237
   -19.5388 -18.7272 -18.6162  -9.9386  -9.8374  -9.7281  -9.3827  -8.9890
    -8.9226  -8.8924  -8.7610  -8.7194  -8.6425  -8.6348  -8.5571  -8.4880
    -8.4220  -8.1327  -8.0746  -7.9990  -7.8036  -7.6077  -7.5112  -7.3465
    -7.2604  -7.1421  -7.1193  -6.7727  -6.6361  -6.5546  -6.4116  -6.3055
    -6.2321  -6.1814  -6.1250  -6.0154  -5.9396  -5.8964  -5.7982  -5.6878
    -5.5857  -5.5328  -5.3546  -5.1634  -5.0550  -4.9423  -4.8051  -4.7335
    -4.5818  -4.5295  -4.4026  -4.2332  -4.1747  -4.0277  -3.8742  -3.6794
    -3.5317  -3.3807  -3.3090  -3.1545  -2.9596  -2.8467  -2.8068  -2.7774
    -2.7167  -2.6339  -2.5423  -2.5027  -2.4553  -2.4121  -2.3282  -2.1605
    -2.1349  -2.0363  -1.7044  -1.5309  -1.3032  -1.1295  -0.9303  -0.9128
    -0.8421  -0.6358  -0.5167  -0.3130  -0.0185   0.9755   0.9986   1.2875
     1.6449   1.7527   2.1761   2.2927   2.6707   2.7210   2.8484   2.9261
     3.1406   3.2990   3.3506   3.6952   3.8244   4.3017   4.8479   5.2691
     5.4611   5.6171   5.7084   6.0178   6.2839   6.5543   6.6508   6.6790
     6.7497   6.9364   7.1430   7.2220   7.3685   7.4460   7.5646   7.6869
     7.9193   8.0378   8.0885   8.1499   8.2605   8.4749   8.4994   8.5580
     8.7838   8.8463   8.9059   8.9663   8.9712   9.0746   9.1163   9.1308
     9.1470   9.1517   9.1751   9.2278   9.2505   9.3111   9.3164   9.4191
     9.5566   9.5971   9.7070   9.7578   9.8239   9.9563  10.0737  10.1459
    10.2230  10.3322  10.3775  10.4594  10.5118  10.5297  10.6078  10.8128
    10.8454  10.9842  11.0017  11.1007  11.1497  11.2345  11.3989  11.5240
    11.5629  11.6708  11.7110  11.7810  11.8215  11.9696  12.1794  12.1865
    12.2419  12.3369  12.3612  12.4183  12.5535  12.6369  12.6485  12.7235
    12.7827  12.8129  12.9260  12.9914  13.0562  13.1432  13.1998  13.2278
    13.3040  13.4067  13.4729  13.6416  13.6606  13.7906  13.8805  13.9207
    13.9932  14.0565  14.1378  14.2197  14.3095  14.3913  14.4659  14.5294
    14.6919  14.7467  14.7753  14.9212  15.0250  15.1716  15.2221  15.3080
    15.4207  15.4517  15.5127  15.5775  15.6144  15.7606  15.8009  15.8647
    15.9110  15.9503  15.9844  16.0847  16.1258  16.1786  16.2246  16.3042
    16.3677  16.4073  16.4214  16.5079  16.5398  16.6439  16.7104  16.7533
    16.8039  16.8892  17.0911  17.1329  17.1653  17.2995  17.3265  17.4155
    17.4674  17.5393  17.5509  17.6146  17.6865  17.7107  17.7497  17.8488
    17.9210  17.9573  17.9983  18.1242  18.2097  18.2561  18.2998  18.3724
    18.4745  18.5798  18.6390  18.6760  18.7694  18.8560  18.9103  18.9675
    19.0338  19.0990  19.1430  19.2208  19.2783  19.3280  19.3834  19.5488
    19.5711  19.6259  19.7038  19.7474  19.8555  19.9329  20.0174  20.0623
    20.1192  20.2238  20.3577  20.3848  20.4546  20.5761  20.6299  20.7089
    20.7537  20.7807  20.8808  20.9059  20.9416  21.0022  21.0674  21.1394
    21.1921  21.2963  21.3095  21.3741  21.4334  21.4604  21.5144  21.5827
    21.6956  21.7448  21.8158  21.8411  21.8881  21.9718

     the Fermi energy is    -0.9254 ev

!    total energy              =   -2106.65367415 Ry
     Harris-Foulkes estimate   =   -2106.65367415 Ry
     estimated scf accuracy    <          4.9E-09 Ry

     The total energy is the sum of the following terms:

     one-electron contribution =  -22753.37760080 Ry
     hartree contribution      =   11420.77899307 Ry
     xc contribution           =    -577.15624044 Ry
     ewald contribution        =    9802.31561741 Ry
     Hubbard energy            =       0.78607324 Ry
     smearing contrib. (-TS)   =      -0.00051663 Ry

     convergence has been achieved in  14 iterations

     Forces acting on atoms (Ry/au):

     negative rho (up, down):  0.313E+01 0.000E+00
     atom    1 type  1   force =    -0.00714595   -0.01332363   -0.00007703
     atom    2 type  1   force =     0.00039058    0.00436782   -0.00016647
     atom    3 type  2   force =     0.03231876    0.00713961    0.00002662
     atom    4 type  2   force =     0.00924443    0.00825752   -0.00000544
     atom    5 type  1   force =    -0.00310642   -0.01647739   -0.00006832
     atom    6 type  1   force =     0.00453488    0.01403962   -0.00000891
     atom    7 type  1   force =     0.00159149   -0.00191439    0.00010498
     atom    8 type  1   force =    -0.00251652   -0.00068339   -0.00003066
     atom    9 type  2   force =     0.00793805    0.00021713   -0.00003554
     atom   10 type  2   force =    -0.00757853   -0.00128873   -0.00073310
     atom   11 type  1   force =    -0.00547150    0.01064200    0.00014407
     atom   12 type  1   force =    -0.00531304   -0.01045927    0.00013249
     atom   13 type  1   force =    -0.00119895   -0.00011582    0.00000106
     atom   14 type  1   force =    -0.00796528   -0.01417136   -0.00001554
     atom   15 type  1   force =     0.00033339    0.00541016   -0.00023938
     atom   16 type  2   force =    -0.03324129    0.00634862   -0.00007624
     atom   17 type  2   force =     0.00964493    0.00851762   -0.00013119
     atom   18 type  1   force =    -0.00280864   -0.01615454   -0.00004790
     atom   19 type  1   force =     0.00378501    0.01485139    0.00000003
     atom   20 type  1   force =    -0.00127159   -0.00511030    0.00064895
     atom   21 type  1   force =    -0.00411492   -0.00058408    0.00002838
     atom   22 type  2   force =    -0.00516627    0.00051522   -0.00007053
     atom   23 type  2   force =     0.00277267   -0.00031690    0.00015094
     atom   24 type  1   force =     0.00689312    0.01444962    0.00004877
     atom   25 type  1   force =     0.00756574   -0.01455979    0.00004842
     atom   26 type  1   force =    -0.00094824   -0.00021258    0.00005893
     atom   27 type  3   force =    -0.00000698    0.00014079    0.00017983
     atom   28 type  3   force =     0.00001658    0.00023035    0.00028950
     atom   29 type  3   force =     0.00006690    0.00000360    0.00013825
     atom   30 type  3   force =    -0.00007987    0.00023437    0.00008337
     atom   31 type  1   force =     0.00004521   -0.00002750    0.00001400
     atom   32 type  3   force =     0.00079223    0.00003425   -0.00039235

     Total force =     0.001495     Total SCF correction =     0.000269
     SCF correction compared to forces is large: reduce conv_thr to get better values

     bfgs converged in   8 scf cycles and   7 bfgs steps
     (criteria: energy < 0.10E-03, force < 0.10E-02)

     End of BFGS Geometry Optimization

     Final energy   =   -2106.6536741494 Ry
Begin final coordinates

ATOMIC_POSITIONS (crystal)
O0       0.000000000   0.000000000   0.378515508    0   0   1
O0       0.000000000   0.500000000   0.402921357    0   0   1
Ir1      0.250000000   0.500000000   0.452815161    0   0   1
Ir1      0.000000000   0.000000000   0.453186565    0   0   1
O0       0.250000000   0.810000000   0.452937769    0   0   1
O0       0.250000000   0.190000000   0.452587358    0   0   1
O0       0.000000000   0.500000000   0.498722670    0   0   1
O0       0.000000000   0.000000000   0.528729937    0   0   1
Ir1      0.250000000   0.000000000   0.575728302    0   0   1
Ir1      0.000000000   0.500000000   0.571750218    0   0   1
O0       0.250000000   0.690000000   0.575646642    0   0   1
O0       0.250000000   0.310000000   0.575714724    0   0   1
O0       0.000000000   0.000000000   0.620328949    0   0   1
O0       0.500000000   0.000000000   0.378196380    0   0   1
O0       0.500000000   0.500000000   0.402233812    0   0   1
Ir1      0.750000000   0.500000000   0.452826372    0   0   1
Ir1      0.500000000   0.000000000   0.452974217    0   0   1
O0       0.750000000   0.810000000   0.452953192    0   0   1
O0       0.750000000   0.190000000   0.452575639    0   0   1
O0       0.500000000   0.500000000   0.499592276    0   0   1
O0       0.500000000   0.000000000   0.528678140    0   0   1
Ir1      0.750000000   0.000000000   0.575673169    0   0   1
Ir1      0.500000000   0.500000000   0.575240915    0   0   1
O0       0.750000000   0.690000000   0.574876836    0   0   1
O0       0.750000000   0.310000000   0.574972075    0   0   1
O0       0.500000000   0.000000000   0.619941876    0   0   1
H2      -0.000116390   0.633335444   0.383929497
H2       0.499972210   0.636585375   0.384606760
H2       0.143623853   0.033687709   0.366909241
H2       0.642983959   0.035917786   0.366602109
O0       0.516295728   0.499926632   0.648204746
H2       0.375540187   0.500384040   0.663707590
End final coordinates

     General routines

     Parallel routines
     Hubbard U routines

   This run was terminated on:  14:15:27  29Apr2014

   JOB DONE.
Running PBS batch system epilogue script
Job id: 340420.audhumbla.fysik.dtu.dk
Username: zhonxu
Groupname: campgst
Jobname: IrO2/Eads-2-layers/OH-U-2.0
Sessionid: 13831
Queuename: verylong
Accounting:
This job has allocated the following 16 nodes:
a028 a028 a028 a028 a028 a028 a028 a028 a026 a026 a026 a026 a026 a026 a026 a026
Finished epilogue job 340420.audhumbla.fysik.dtu.dk for zhonxu