     Program PWSCF v.5.0.2 (svn rev. 9656) starts on  4May2014 at 22:29: 3

     Current dimensions of program PWSCF are:
     Max number of different atomic species (ntypx) = 10
     Max number of k-points (npk) =  40000
     Max angular momentum in pseudopotentials (lmaxx) =  3
     Reading input from pwscf.in
Warning: card &CELL ignored
Warning: card / ignored

     Subspace diagonalization in iterative solution of the eigenvalue problem:
     a serial algorithm will be used

     bravais-lattice index     =            0
     lattice parameter (alat)  =      10.9604  a.u.
     unit-cell volume          =    6350.6732 (a.u.)^3
     number of atoms/cell      =           31
     number of atomic types    =            3
     number of electrons       =       230.00 (up: 122.00, down: 108.00)
     number of Kohn-Sham states=          333
     kinetic-energy cutoff     =      40.0000  Ry
     charge density cutoff     =     500.0000  Ry
     convergence threshold     =      1.0E-06
     mixing beta               =       0.7000
     number of iterations used =            8  plain     mixing
     Exchange-correlation      = SLA  PW   PBE  PBE ( 1 4 3 4 0)
     EXX-fraction              =        0.00
     nstep                     =           50

     celldm(1)=  10.960412  celldm(2)=   0.000000  celldm(3)=   0.000000
     celldm(4)=   0.000000  celldm(5)=   0.000000  celldm(6)=   0.000000

     crystal axes: (cart. coord. in units of alat)
               a(1) = (   1.000000   0.000000   0.000000 )
               a(2) = (   0.000000   1.067975   0.000000 )
               a(3) = (   0.000000   0.000000   4.516251 )

     reciprocal axes: (cart. coord. in units 2 pi/alat)
               b(1) = (  1.000000  0.000000  0.000000 )
               b(2) = (  0.000000  0.936351  0.000000 )
               b(3) = (  0.000000  0.000000  0.221423 )

     PseudoPot. # 1 for O  read from file:
     /home/camp/zhonxu/pseudo/o_pbe_v1.01.uspp.F.UPF
     MD5 check sum: 2bcb18d16ea4b960afae9ec6d52f22d2
     Pseudo is Ultrasoft + core correction, Zval =  6.0
     Generated by new atomic code, or converted to UPF format
     Using radial grid of  737 points,  5 beta functions with:
                l(1) =   0
                l(2) =   0
                l(3) =   1
                l(4) =   1
                l(5) =   2
     Q(r) pseudized with  8 coefficients,  rinner =    0.900   0.900   0.900
                                                       0.900   0.900

     PseudoPot. # 2 for Cr read from file:
     /home/camp/zhonxu/pseudo/cr_pbe_v1.uspp.F.UPF
     MD5 check sum: 68b6f918d1762dccfb11451fe85b0e0e
     Pseudo is Ultrasoft + core correction, Zval = 14.0
     Generated by new atomic code, or converted to UPF format
     Using radial grid of  857 points,  6 beta functions with:
                l(1) =   0
                l(2) =   0
                l(3) =   1
                l(4) =   1
                l(5) =   2
                l(6) =   2
     Q(r) pseudized with  6 coefficients,  rinner =    1.000   1.000   1.000
                                                       1.000   1.000

     PseudoPot. # 3 for H  read from file:
     /home/camp/zhonxu/pseudo/h_pbe_v1.uspp.F.UPF
     MD5 check sum: 3408e3ff4ec8b0a4e358431e7e038a48
     Pseudo is Ultrasoft, Zval =  1.0
     Generated by new atomic code, or converted to UPF format
     Using radial grid of  615 points,  2 beta functions with:
                l(1) =   0
                l(2) =   0
     Q(r) pseudized with  8 coefficients,  rinner =    0.700

     atomic species   valence    mass     pseudopotential
        O0             6.00    15.99940     O ( 1.00)
        Cr1           14.00    51.99600     Cr( 1.00)
        H2             1.00     1.00794     H ( 1.00)

     Starting magnetic structure
     atomic species   magnetization
        O0           0.000
        Cr1          0.600
        H2           0.000

     Simplified LDA+U calculation (l_max = 2) with parameters (eV):
     atomic species    L          U    alpha       J0     beta
        Cr1            2     4.0000   0.0000   0.0000   0.0000

     No symmetry found

   Cartesian axes

     site n.     atom                  positions (alat units)
         1           O0  tau(   1) = (   0.0000000   0.0000000   1.7030331  )
         2           O0  tau(   2) = (   0.0000000   0.5339875   1.8028422  )
         3           Cr1 tau(   3) = (   0.2500000   0.5339875   2.0350227  )
         4           Cr1 tau(   4) = (   0.0000000   0.0000000   2.0223320  )
         5           O0  tau(   5) = (   0.2500000   0.8543801   2.0287902  )
         6           O0  tau(   6) = (   0.2500000   0.2135950   2.0292419  )
         7           O0  tau(   7) = (   0.0000000   0.5339875   2.2445767  )
         8           O0  tau(   8) = (   0.0000000   0.0000000   2.3628573  )
         9           Cr1 tau(   9) = (   0.2500000   0.0000000   2.5580045  )
        10           Cr1 tau(  10) = (   0.0000000   0.5339875   2.5485656  )
        11           O0  tau(  11) = (   0.2500000   0.7475825   2.5953991  )
        12           O0  tau(  12) = (   0.2500000   0.3203925   2.5951281  )
        13           O0  tau(  13) = (   0.0000000   0.0000000   2.7889204  )
        14           O0  tau(  14) = (   0.5000000   0.0000000   1.7055170  )
        15           O0  tau(  15) = (   0.5000000   0.5339875   1.8012615  )
        16           Cr1 tau(  16) = (   0.7500000   0.5339875   2.0359259  )
        17           Cr1 tau(  17) = (   0.5000000   0.0000000   2.0265773  )
        18           O0  tau(  18) = (   0.7500000   0.8543801   2.0288354  )
        19           O0  tau(  19) = (   0.7500000   0.2135950   2.0296032  )
        20           O0  tau(  20) = (   0.5000000   0.5339875   2.2364023  )
        21           O0  tau(  21) = (   0.5000000   0.0000000   2.3615024  )
        22           Cr1 tau(  22) = (   0.7500000   0.0000000   2.6337872  )
        23           Cr1 tau(  23) = (   0.5000000   0.5339875   2.6580395  )
        24           O0  tau(  24) = (   0.7500000   0.7475825   2.5992379  )
        25           O0  tau(  25) = (   0.7500000   0.3203925   2.5991024  )
        26           O0  tau(  26) = (   0.5000000   0.0000000   2.7868881  )
        27           H2  tau(  27) = (  -0.0008000   0.6785059   1.7121107  )
        28           H2  tau(  28) = (   0.4997900   0.6815710   1.7150915  )
        29           H2  tau(  29) = (   0.1566700   0.0342393   1.6437347  )
        30           H2  tau(  30) = (   0.6553000   0.0356063   1.6443670  )
        31           O0  tau(  31) = (   0.4989300   0.5335603   2.9283823  )

     number of k points=    20  Methfessel-Paxton smearing, width (Ry)=  0.0100
                       cart. coord. in units 2pi/alat
        k(    1) = (   0.0000000   0.0000000   0.0000000), wk =   0.0625000
        k(    2) = (   0.0000000   0.2340879   0.0000000), wk =   0.1250000
        k(    3) = (   0.0000000  -0.4681757   0.0000000), wk =   0.0625000
        k(    4) = (   0.2500000   0.0000000   0.0000000), wk =   0.1250000
        k(    5) = (   0.2500000   0.2340879   0.0000000), wk =   0.1250000
        k(    6) = (   0.2500000  -0.4681757   0.0000000), wk =   0.1250000
        k(    7) = (  -0.5000000   0.0000000   0.0000000), wk =   0.0625000
        k(    8) = (  -0.5000000   0.2340879   0.0000000), wk =   0.1250000
        k(    9) = (  -0.5000000  -0.4681757   0.0000000), wk =   0.0625000
        k(   10) = (  -0.2500000   0.2340879   0.0000000), wk =   0.1250000
        k(   11) = (   0.0000000   0.0000000   0.0000000), wk =   0.0625000
        k(   12) = (   0.0000000   0.2340879   0.0000000), wk =   0.1250000
        k(   13) = (   0.0000000  -0.4681757   0.0000000), wk =   0.0625000
        k(   14) = (   0.2500000   0.0000000   0.0000000), wk =   0.1250000
        k(   15) = (   0.2500000   0.2340879   0.0000000), wk =   0.1250000
        k(   16) = (   0.2500000  -0.4681757   0.0000000), wk =   0.1250000
        k(   17) = (  -0.5000000   0.0000000   0.0000000), wk =   0.0625000
        k(   18) = (  -0.5000000   0.2340879   0.0000000), wk =   0.1250000
        k(   19) = (  -0.5000000  -0.4681757   0.0000000), wk =   0.0625000
        k(   20) = (  -0.2500000   0.2340879   0.0000000), wk =   0.1250000

     Largest allocated arrays     est. size (Mb)     dimensions
     Largest temporary arrays     est. size (Mb)     dimensions

     Check: negative/imaginary core charge=   -0.000012    0.000000

     Initial potential from superposition of free atoms
     Check: negative starting charge=(component1):   -0.001547
     Check: negative starting charge=(component2):   -0.000494

     starting charge  221.99984, renormalised to  230.00000

     negative rho (up, down):  0.160E-02 0.512E-03
     Number of +U iterations with fixed ns =  0
     Starting occupations:
 --- enter write_ns ---
 LDA+U parameters:
U( 2)     =  4.00000000
alpha( 2) =  0.00000000
atom    3   Tr[ns(na)] (up, down, total) =   5.00000  0.00000  5.00000
   spin  1
    eigenvalues:
  1.000  1.000  1.000  1.000  1.000
    eigenvectors:
  1.000  0.000  0.000  0.000  0.000
  0.000  1.000  0.000  0.000  0.000
  0.000  0.000  1.000  0.000  0.000
  0.000  0.000  0.000  1.000  0.000
  0.000  0.000  0.000  0.000  1.000
    occupations:
  1.000  0.000  0.000  0.000  0.000
  0.000  1.000  0.000  0.000  0.000
  0.000  0.000  1.000  0.000  0.000
  0.000  0.000  0.000  1.000  0.000
  0.000  0.000  0.000  0.000  1.000
   spin  2
    eigenvalues:
  0.000  0.000  0.000  0.000  0.000
    eigenvectors:
  1.000  0.000  0.000  0.000  0.000
  0.000  1.000  0.000  0.000  0.000
  0.000  0.000  1.000  0.000  0.000
  0.000  0.000  0.000  1.000  0.000
  0.000  0.000  0.000  0.000  1.000
    occupations:
  0.000  0.000  0.000  0.000  0.000
  0.000  0.000  0.000  0.000  0.000
  0.000  0.000  0.000  0.000  0.000
  0.000  0.000  0.000  0.000  0.000
  0.000  0.000  0.000  0.000  0.000
atomic mag. moment =     5.000000
atom    4   Tr[ns(na)] (up, down, total) =   5.00000  0.00000  5.00000
   spin  1
    eigenvalues:
  1.000  1.000  1.000  1.000  1.000
    eigenvectors:
  1.000  0.000  0.000  0.000  0.000
  0.000  1.000  0.000  0.000  0.000
  0.000  0.000  1.000  0.000  0.000
  0.000  0.000  0.000  1.000  0.000
  0.000  0.000  0.000  0.000  1.000
    occupations:
  1.000  0.000  0.000  0.000  0.000
  0.000  1.000  0.000  0.000  0.000
  0.000  0.000  1.000  0.000  0.000
  0.000  0.000  0.000  1.000  0.000
  0.000  0.000  0.000  0.000  1.000
   spin  2
    eigenvalues:
  0.000  0.000  0.000  0.000  0.000
    eigenvectors:
  1.000  0.000  0.000  0.000  0.000
  0.000  1.000  0.000  0.000  0.000
  0.000  0.000  1.000  0.000  0.000
  0.000  0.000  0.000  1.000  0.000
  0.000  0.000  0.000  0.000  1.000
    occupations:
  0.000  0.000  0.000  0.000  0.000
  0.000  0.000  0.000  0.000  0.000
  0.000  0.000  0.000  0.000  0.000
  0.000  0.000  0.000  0.000  0.000
  0.000  0.000  0.000  0.000  0.000
atomic mag. moment =     5.000000
atom    9   Tr[ns(na)] (up, down, total) =   5.00000  0.00000  5.00000
   spin  1
    eigenvalues:
  1.000  1.000  1.000  1.000  1.000
    eigenvectors:
  1.000  0.000  0.000  0.000  0.000
[...]
  0.149  0.000 -0.003  0.112  0.000
  0.000  0.335  0.000 -0.009  0.010
 -0.003  0.000  0.120  0.007 -0.003
  0.112 -0.009  0.007  0.302 -0.000
  0.000  0.010 -0.003 -0.000  0.106
atomic mag. moment =     2.596384
atom    4   Tr[ns(na)] (up, down, total) =   3.57684  1.04519  4.62203
   spin  1
    eigenvalues:
  0.487  0.533  0.656  0.912  0.989
    eigenvectors:
  0.003  0.991  0.000  0.001  0.005
  0.000  0.001  0.020  0.979  0.000
  0.000  0.000  0.980  0.020  0.000
  0.000  0.005  0.000  0.000  0.995
  0.997  0.003  0.000  0.000  0.000
    occupations:
  0.535 -0.012 -0.001  0.031  0.003
 -0.012  0.906  0.036  0.002 -0.000
 -0.001  0.036  0.662  0.001 -0.001
  0.031  0.002  0.001  0.986 -0.000
  0.003 -0.000 -0.001 -0.000  0.487
   spin  2
    eigenvalues:
  0.091  0.109  0.129  0.352  0.364
    eigenvectors:
  0.004  0.002  0.000  0.011  0.983
  0.004  0.921  0.073  0.000  0.002
  0.000  0.073  0.927  0.000  0.000
  0.992  0.004  0.000  0.000  0.003
  0.000  0.000  0.000  0.989  0.011
    occupations:
  0.362  0.012  0.002 -0.016  0.001
  0.012  0.111 -0.005  0.000 -0.000
  0.002 -0.005  0.128  0.000  0.000
 -0.016  0.000  0.000  0.092  0.000
  0.001 -0.000  0.000  0.000  0.353
atomic mag. moment =     2.531644
atom    9   Tr[ns(na)] (up, down, total) =   3.58309  1.08153  4.66462
   spin  1
    eigenvalues:
  0.505  0.511  0.689  0.892  0.986
    eigenvectors:
  0.067  0.121  0.000  0.000  0.812
  0.653  0.347  0.000  0.000  0.000
  0.000  0.000  0.977  0.022  0.000
  0.280  0.532  0.000  0.000  0.188
  0.000  0.000  0.022  0.977  0.000
    occupations:
  0.897  0.004 -0.000 -0.186 -0.000
  0.004  0.507  0.002  0.002 -0.001
 -0.000  0.002  0.693 -0.001 -0.030
 -0.186  0.002 -0.001  0.599  0.002
 -0.000 -0.001 -0.030  0.002  0.887
   spin  2
    eigenvalues:
  0.101  0.121  0.136  0.357  0.367
    eigenvectors:
  0.810  0.000  0.000  0.001  0.190
  0.000  0.000  0.000  0.997  0.003
  0.000  0.080  0.920  0.000  0.000
  0.190  0.000  0.000  0.002  0.807
  0.000  0.920  0.080  0.000  0.000
    occupations:
  0.151 -0.000  0.000  0.105 -0.000
 -0.000  0.357 -0.000  0.001  0.000
  0.000 -0.000  0.135  0.000  0.004
  0.105  0.001  0.000  0.316 -0.000
 -0.000  0.000  0.004 -0.000  0.122
atomic mag. moment =     2.501557
atom   10   Tr[ns(na)] (up, down, total) =   3.66133  0.92864  4.58998
   spin  1
    eigenvalues:
  0.470  0.485  0.790  0.932  0.985
    eigenvectors:
  0.000  0.992  0.000  0.000  0.007
  0.000  0.001  0.000  0.978  0.021
  0.000  0.000  0.999  0.000  0.000
  0.000  0.007  0.000  0.021  0.972
  1.000  0.000  0.000  0.000  0.000
    occupations:
  0.488 -0.013 -0.001  0.041 -0.000
 -0.013  0.933 -0.002 -0.007  0.000
 -0.001 -0.002  0.790  0.000  0.006
  0.041 -0.007  0.000  0.980  0.000
 -0.000  0.000  0.006  0.000  0.470
   spin  2
    eigenvalues:
  0.080  0.123  0.126  0.268  0.332
    eigenvectors:
  0.009  0.000  0.000  0.991  0.000
  0.001  0.999  0.000  0.000  0.000
  0.000  0.000  1.000  0.000  0.000
  0.991  0.001  0.000  0.009  0.000
  0.000  0.000  0.000  0.000  1.000
    occupations:
  0.267  0.000 -0.000 -0.017 -0.000
  0.000  0.123 -0.000  0.001  0.000
 -0.000 -0.000  0.126 -0.000  0.003
 -0.017  0.001 -0.000  0.081 -0.000
 -0.000  0.000  0.003 -0.000  0.332
atomic mag. moment =     2.732690
atom   16   Tr[ns(na)] (up, down, total) =   3.60734  1.01625  4.62359
   spin  1
    eigenvalues:
  0.471  0.518  0.701  0.930  0.987
    eigenvectors:
  0.027  0.193  0.002  0.000  0.778
  0.906  0.093  0.000  0.000  0.001
  0.000  0.000  0.986  0.012  0.002
  0.066  0.714  0.001  0.000  0.219
  0.000  0.000  0.012  0.988  0.000
    occupations:
  0.882  0.019  0.013 -0.196  0.002
  0.019  0.476  0.002  0.006 -0.007
  0.013  0.002  0.705 -0.005 -0.025
 -0.196  0.006 -0.005  0.618 -0.000
  0.002 -0.007 -0.025 -0.000  0.927
   spin  2
    eigenvalues:
  0.089  0.105  0.122  0.334  0.365
    eigenvectors:
  0.755  0.002  0.025  0.020  0.198
  0.000  0.002  0.000  0.926  0.072
  0.030  0.040  0.930  0.000  0.000
  0.214  0.000  0.004  0.053  0.729
  0.000  0.957  0.041  0.002  0.000
    occupations:
  0.150 -0.000 -0.003  0.112 -0.001
 -0.000  0.336 -0.000  0.009  0.010
 -0.003 -0.000  0.121  0.007  0.003
  0.112  0.009  0.007  0.303  0.000
 -0.001  0.010  0.003  0.000  0.107
atomic mag. moment =     2.591097
atom   17   Tr[ns(na)] (up, down, total) =   3.58617  1.03494  4.62111
   spin  1
    eigenvalues:
  0.483  0.533  0.676  0.906  0.989
    eigenvectors:
  0.002  0.992  0.000  0.001  0.004
  0.000  0.001  0.020  0.978  0.000
  0.000  0.000  0.980  0.020  0.000
  0.000  0.004  0.000  0.000  0.996
  0.998  0.002  0.000  0.000  0.000
    occupations:
  0.535 -0.014 -0.003  0.030  0.002
 -0.014  0.900  0.032  0.001 -0.000
 -0.003  0.032  0.681  0.000  0.001
  0.030  0.001  0.000  0.987 -0.000
  0.002 -0.000  0.001 -0.000  0.483
   spin  2
    eigenvalues:
  0.090  0.107  0.127  0.349  0.362
    eigenvectors:
  0.004  0.002  0.000  0.007  0.987
  0.005  0.911  0.082  0.000  0.003
  0.001  0.081  0.918  0.000  0.000
  0.990  0.006  0.000  0.000  0.004
  0.000  0.000  0.000  0.993  0.007
    occupations:
  0.360  0.013  0.003 -0.017  0.001
  0.013  0.110 -0.005  0.000 -0.000
  0.003 -0.005  0.125  0.000  0.000
 -0.017  0.000  0.000  0.091  0.000
  0.001 -0.000  0.000  0.000  0.349
atomic mag. moment =     2.551225
atom   22   Tr[ns(na)] (up, down, total) =   3.33202  1.41636  4.74838
   spin  1
    eigenvalues:
  0.526  0.565  0.589  0.741  0.911
    eigenvectors:
  0.797  0.001  0.202  0.000  0.000
  0.006  0.989  0.005  0.000  0.000
  0.000  0.000  0.000  0.096  0.904
  0.198  0.010  0.793  0.000  0.000
  0.000  0.000  0.000  0.904  0.096
    occupations:
  0.539 -0.003  0.002 -0.025  0.003
 -0.003  0.565  0.000  0.000 -0.000
  0.002  0.000  0.895 -0.000  0.050
 -0.025  0.000 -0.000  0.576 -0.001
  0.003 -0.000  0.050 -0.001  0.758
   spin  2
    eigenvalues:
  0.154  0.194  0.221  0.423  0.424
    eigenvectors:
  0.000  0.000  0.947  0.022  0.031
  0.000  0.000  0.000  0.555  0.445
  0.983  0.017  0.000  0.000  0.000
  0.000  0.000  0.053  0.423  0.524
  0.017  0.983  0.000  0.000  0.000
    occupations:
  0.232 -0.001 -0.000  0.045 -0.000
 -0.001  0.423 -0.000 -0.000 -0.000
 -0.000 -0.000  0.155  0.000 -0.005
  0.045 -0.000  0.000  0.413  0.000
 -0.000 -0.000 -0.005  0.000  0.193
atomic mag. moment =     1.915655
atom   23   Tr[ns(na)] (up, down, total) =   3.29012  1.47951  4.76964
   spin  1
    eigenvalues:
  0.501  0.596  0.602  0.603  0.989
    eigenvectors:
  0.000  0.001  0.897  0.100  0.002
  0.000  0.999  0.001  0.000  0.000
  0.001  0.000  0.101  0.899  0.000
  0.000  0.000  0.001  0.000  0.998
  0.999  0.000  0.000  0.001  0.000
    occupations:
  0.602  0.000 -0.000  0.015 -0.000
  0.000  0.596 -0.000 -0.003 -0.000
 -0.000 -0.000  0.602 -0.000  0.003
  0.015 -0.003 -0.000  0.988 -0.000
 -0.000 -0.000  0.003 -0.000  0.502
   spin  2
    eigenvalues:
  0.089  0.273  0.282  0.370  0.465
    eigenvectors:
  0.002  0.000  0.001  0.000  0.997
  0.000  0.000  0.999  0.000  0.001
  0.000  1.000  0.000  0.000  0.000
  0.998  0.000  0.000  0.000  0.002
  0.000  0.000  0.000  1.000  0.000
    occupations:
  0.464  0.006  0.000 -0.018 -0.000
  0.006  0.283  0.000  0.002  0.000
  0.000  0.000  0.273 -0.000 -0.001
 -0.018  0.002 -0.000  0.090  0.000
 -0.000  0.000 -0.001  0.000  0.370
atomic mag. moment =     1.810610
N of occupied +U levels =  37.2621785
 --- exit write_ns ---

 ------ SPIN UP ------------

[...]

 ------ SPIN DOWN ----------

[...]

          k = 0.2500-0.4682 0.0000 ( 27150 PWs)   bands (ev):

[...]

          k =-0.2500 0.2341 0.0000 ( 27132 PWs)   bands (ev):

   -74.0331 -73.7514 -72.6227 -72.5955 -72.5569 -72.5562 -72.4832 -72.4666
   -46.0584 -45.4917 -45.1231 -45.0594 -45.0046 -44.7707 -44.2678 -44.1672
   -44.1605 -44.1046 -44.0856 -44.0808 -44.0522 -43.9755 -43.9156 -43.8934
   -43.8716 -43.8660 -43.7771 -43.7737 -43.7169 -43.6353 -43.6273 -43.4941
   -21.3101 -20.9192 -20.7147 -20.6824 -20.5230 -20.3452 -20.2484 -20.1948
   -20.1276 -20.0311 -20.0004 -19.8758 -19.8457 -19.8269 -19.7628 -19.6855
   -19.5609 -19.5050 -19.4297  -8.6985  -8.5020  -8.2214  -8.0676  -7.9705
    -7.7009  -7.5958  -7.5125  -7.4341  -7.3353  -7.2138  -7.1302  -7.0956
    -6.9914  -6.9211  -6.8772  -6.7541  -6.6827  -6.5319  -6.4711  -6.4172
    -6.3689  -6.2330  -6.0415  -5.9899  -5.9506  -5.7879  -5.7187  -5.6716
    -5.5991  -5.4985  -5.4716  -5.3647  -5.3620  -5.2481  -5.1713  -5.1118
    -4.9935  -4.8748  -4.7649  -4.6465  -4.6073  -4.4587  -4.4055  -4.3333
    -4.2139  -4.1422  -4.0864  -4.0722  -4.0098  -3.9219  -3.7920  -3.7511
    -3.6543  -3.5063  -3.4135  -3.2436   0.2671   0.3602   0.4665   0.5960
     0.7209   0.8539   1.0233   1.0800   1.1826   1.2519   1.3005   1.3512
     1.4173   1.4820   1.5336   1.5948   1.6581   1.7461   1.7917   1.8552
     1.9207   1.9705   2.0438   2.0649   2.1375   2.1866   2.2496   2.3364
     2.4960   2.5460   2.7054   2.8849   2.9015   2.9567   3.1307   3.2407
     3.3061   3.4721   3.7188   3.7728   3.8624   4.2746   4.4678   4.9574
     5.4420   5.6786   5.7576   6.0907   6.2923   6.4570   6.5259   6.6844
     6.8012   6.9550   7.0472   7.3499   7.4938   7.7944   7.8753   7.9982
     8.3045   8.3517   8.4322   8.5810   8.7213   8.8409   8.9655   9.0745
     9.2274   9.2701   9.4190   9.5561   9.7027   9.7954   9.9254  10.1209
    10.1603  10.2168  10.3082  10.4263  10.4911  10.6511  10.7375  10.8381
    10.8941  11.0083  11.1842  11.2031  11.2939  11.3726  11.5310  11.6062
    11.6589  11.7513  11.8264  11.8987  12.0149  12.0641  12.1844  12.2596
    12.3497  12.4242  12.5181  12.6323  12.7179  12.7877  12.8183  12.9164
    12.9353  12.9939  13.0718  13.1216  13.2130  13.2952  13.3196  13.4047
    13.4717  13.5516  13.6657  13.7341  13.8152  13.9015  13.9620  14.0582
    14.1220  14.2240  14.2980  14.3827  14.4391  14.4942  14.6037  14.6591
    14.7359  14.8002  14.9085  14.9585  15.0174  15.1267  15.1966  15.3105
    15.3630  15.4626  15.5050  15.6279  15.7501  15.8154  15.9531  16.0260
    16.0669  16.1445  16.2012  16.2514  16.3590  16.4190  16.4768  16.5081
    16.6106  16.7329  16.7970  16.8370  16.9127  17.0274  17.0594  17.1001
    17.1788  17.2227  17.3525  17.4332  17.4777  17.5134  17.6073  17.6837
    17.6994  17.7565  17.8015  17.9009  17.9556  18.0215  18.1280  18.2378
    18.2696  18.3105  18.4000  18.4261  18.5779  18.6897  18.7569  18.8081
    18.8696  18.9359  18.9864  19.0292  19.0645  19.2338  19.3361  19.3787
    19.4325  19.5024  19.5956  19.6556  19.6982  19.7731  19.8226  19.8879
    19.9680  20.0369  20.1012  20.1763  20.2994  20.3802  20.4527  20.5272
    20.6260  20.6795  20.7552  20.8380  20.9239  21.0173  21.0893  21.1420
    21.2247  21.2498  21.3363  21.3973  21.4898

     the spin up/dw Fermi energies are    -2.1234   -2.4004 ev

!    total energy              =   -2023.76150595 Ry
     Harris-Foulkes estimate   =   -2023.76150595 Ry
     estimated scf accuracy    <          9.5E-09 Ry

     The total energy is the sum of the following terms:

     one-electron contribution =  -23700.37124793 Ry
     hartree contribution      =   11867.91601908 Ry
     xc contribution           =    -322.01065371 Ry
     ewald contribution        =   10128.77512141 Ry
     Hubbard energy            =       1.92989999 Ry
     smearing contrib. (-TS)   =      -0.00064478 Ry

     total magnetization       =    14.00 Bohr mag/cell
     absolute magnetization    =    24.55 Bohr mag/cell

     convergence has been achieved in  17 iterations

     Forces acting on atoms (Ry/au):

     negative rho (up, down):  0.513E-02 0.184E-02
     atom    1 type  1   force =    -0.00354210   -0.01078674   -0.00022617
     atom    2 type  1   force =    -0.00091012    0.00510553    0.00000929
     atom    3 type  2   force =     0.04644543    0.00044856   -0.00049125
     atom    4 type  2   force =     0.00074898    0.00683931    0.00034129
     atom    5 type  1   force =    -0.00289522    0.00747832   -0.00013879
     atom    6 type  1   force =    -0.00052432   -0.00567927   -0.00017734
     atom    7 type  1   force =     0.00235811   -0.00218737   -0.00013580
     atom    8 type  1   force =    -0.01794588   -0.00083683    0.00013864
     atom    9 type  2   force =     0.01935007    0.00093884   -0.00006825
     atom   10 type  2   force =     0.00130317    0.00005574    0.00016342
     atom   11 type  1   force =    -0.00114633   -0.05744003    0.00036986
     atom   12 type  1   force =    -0.00019460    0.05674020    0.00033638
     atom   13 type  1   force =    -0.03344042    0.00022167   -0.00082636
     atom   14 type  1   force =    -0.00766432   -0.01178172   -0.00013714
     atom   15 type  1   force =     0.00022939    0.00582333    0.00043424
     atom   16 type  2   force =    -0.05043192    0.00087561   -0.00051304
     atom   17 type  2   force =     0.00882640    0.00625226    0.00028883
     atom   18 type  1   force =     0.00248597    0.00768136   -0.00009933
     atom   19 type  1   force =     0.00534786   -0.00636251   -0.00013095
     atom   20 type  1   force =     0.00116290   -0.00278969   -0.00030490
     atom   21 type  1   force =     0.01439510    0.00027054    0.00007782
     atom   22 type  2   force =     0.01558190   -0.00020009   -0.00071870
     atom   23 type  2   force =    -0.00213946    0.00024663    0.00034430
     atom   24 type  1   force =    -0.00875759   -0.05865122    0.00046844
     atom   25 type  1   force =    -0.00771644    0.05887412    0.00048132
     atom   26 type  1   force =     0.01824814   -0.00027227   -0.00060247
     atom   27 type  3   force =    -0.00005072   -0.00022528   -0.00015595
     atom   28 type  3   force =    -0.00000009   -0.00041696    0.00007374
     atom   29 type  3   force =     0.00025197   -0.00014035    0.00031663
     atom   30 type  3   force =     0.00025417   -0.00009407    0.00041232
     atom   31 type  1   force =     0.00036997    0.00001237    0.00046992

     Total force =     0.002152     Total SCF correction =     0.000516
     SCF correction compared to forces is large: reduce conv_thr to get better values

     bfgs converged in  15 scf cycles and  14 bfgs steps
     (criteria: energy < 0.10E-03, force < 0.10E-02)

     End of BFGS Geometry Optimization

     Final energy   =   -2023.7615059477 Ry
Begin final coordinates

ATOMIC_POSITIONS (crystal)
O0       0.000000000   0.000000000   0.375864226    0   0   1
O0       0.000000000   0.500000000   0.397379279    0   0   1
Cr1      0.250000000   0.500000000   0.449369932    0   0   1
Cr1      0.000000000   0.000000000   0.448141998    0   0   1
O0       0.250000000   0.800000000   0.448638697    0   0   1
O0       0.250000000   0.200000000   0.448713687    0   0   1
O0       0.000000000   0.500000000   0.496949669    0   0   1
O0       0.000000000   0.000000000   0.523398658    0   0   1
Cr1      0.250000000   0.000000000   0.569666317    0   0   1
Cr1      0.000000000   0.500000000   0.565223705    0   0   1
O0       0.250000000   0.700000000   0.575056041    0   0   1
O0       0.250000000   0.300000000   0.575060080    0   0   1
O0       0.000000000   0.000000000   0.619072298    0   0   1
O0       0.500000000   0.000000000   0.375946255    0   0   1
O0       0.500000000   0.500000000   0.397328515    0   0   1
Cr1      0.750000000   0.500000000   0.449511450    0   0   1
Cr1      0.500000000   0.000000000   0.448554585    0   0   1
O0       0.750000000   0.800000000   0.448621253    0   0   1
O0       0.750000000   0.200000000   0.448676845    0   0   1
O0       0.500000000   0.500000000   0.497289005    0   0   1
O0       0.500000000   0.000000000   0.523564199    0   0   1
Cr1      0.750000000   0.000000000   0.582482744    0   0   1
Cr1      0.500000000   0.500000000   0.589379014    0   0   1
O0       0.750000000   0.700000000   0.576788511    0   0   1
O0       0.750000000   0.300000000   0.576803984    0   0   1
O0       0.500000000   0.000000000   0.619022430    0   0   1
H2      -0.000868365   0.636010253   0.377630090
H2       0.499585703   0.638590232   0.378498168
H2       0.158250559   0.029339315   0.363210007
H2       0.657072298   0.031170219   0.363040526
O0       0.494600226   0.499832142   0.649947831
End final coordinates

     General routines

     Parallel routines
     Hubbard U routines

   This run was terminated on:   1:42:25   6May2014

   JOB DONE.
Running PBS batch system epilogue script
Job id: 340713.audhumbla.fysik.dtu.dk
Username: zhonxu
Groupname: campgst
Jobname: CrO2/Eads-2-layers/O-U-4.0
Sessionid: 30507
Queuename: verylong
Accounting:
This job has allocated the following 16 nodes:
b131 b131 b131 b131 b131 b131 b131 b131 b111 b111 b111 b111 b111 b111 b111 b111
Finished epilogue job 340713.audhumbla.fysik.dtu.dk for zhonxu