     Program PWSCF v.5.0.2 (svn rev. 9656) starts on  1May2014 at  6:25:33

     Current dimensions of program PWSCF are:
     Max number of different atomic species (ntypx) = 10
     Max number of k-points (npk) =  40000
     Max angular momentum in pseudopotentials (lmaxx) =  3
     Reading input from pwscf.in
Warning: card &CELL ignored
Warning: card / ignored

     Subspace diagonalization in iterative solution of the eigenvalue problem:
     a serial algorithm will be used

     bravais-lattice index     =            0
     lattice parameter (alat)  =      11.2250  a.u.
     unit-cell volume          =    7005.5484 (a.u.)^3
     number of atoms/cell      =           33
     number of atomic types    =            3
     number of electrons       =       221.00
     number of Kohn-Sham states=          319
     kinetic-energy cutoff     =      40.0000  Ry
     charge density cutoff     =     500.0000  Ry
     convergence threshold     =      1.0E-06
     mixing beta               =       0.3000
     number of iterations used =            8  plain     mixing
     Exchange-correlation      = SLA  PW   PBE  PBE ( 1 4 3 4 0)
     EXX-fraction              =        0.00
     nstep                     =           50

     celldm(1)=  11.224973  celldm(2)=   0.000000  celldm(3)=   0.000000
     celldm(4)=   0.000000  celldm(5)=   0.000000  celldm(6)=   0.000000

     crystal axes: (cart. coord. in units of alat)
               a(1) = (   1.000000   0.000000   0.000000 )
               a(2) = (   0.000000   1.107086   0.000000 )
               a(3) = (   0.000000   0.000000   4.474090 )

     reciprocal axes: (cart. coord. in units 2 pi/alat)
               b(1) = (  1.000000  0.000000  0.000000 )
               b(2) = (  0.000000  0.903272  0.000000 )
               b(3) = (  0.000000  0.000000  0.223509 )

     PseudoPot. # 1 for O  read from file:
     /home/camp/zhonxu/pseudo/o_pbe_v1.01.uspp.F.UPF
     MD5 check sum: 2bcb18d16ea4b960afae9ec6d52f22d2
     Pseudo is Ultrasoft + core correction, Zval =  6.0
     Generated by new atomic code, or converted to UPF format
     Using radial grid of  737 points,  5 beta functions with:
                l(1) =   0
                l(2) =   0
                l(3) =   1
                l(4) =   1
                l(5) =   2
     Q(r) pseudized with  8 coefficients,  rinner =    0.900   0.900   0.900
                                                       0.900   0.900

     PseudoPot. # 2 for Ti read from file:
     /home/camp/zhonxu/pseudo/ti_pbe_v1.uspp.F.UPF
     MD5 check sum: bcc8f6961b3b91f0cac3ca967d22d0fb
     Pseudo is Ultrasoft + core correction, Zval = 12.0
     Generated by new atomic code, or converted to UPF format
     Using radial grid of  851 points,  6 beta functions with:
                l(1) =   0
                l(2) =   0
                l(3) =   1
                l(4) =   1
                l(5) =   2
                l(6) =   2
     Q(r) pseudized with  6 coefficients,  rinner =    1.000   1.000   1.000
                                                       1.000   1.000

     PseudoPot. # 3 for H  read from file:
     /home/camp/zhonxu/pseudo/h_pbe_v1.uspp.F.UPF
     MD5 check sum: 3408e3ff4ec8b0a4e358431e7e038a48
     Pseudo is Ultrasoft, Zval =  1.0
     Generated by new atomic code, or converted to UPF format
     Using radial grid of  615 points,  2 beta functions with:
                l(1) =   0
                l(2) =   0
     Q(r) pseudized with  8 coefficients,  rinner =    0.700

     atomic species   valence    mass     pseudopotential
        O0             6.00    15.99940     O ( 1.00)
        Ti1           12.00    47.88000     Ti( 1.00)
        H2             1.00     1.00794     H ( 1.00)

     No symmetry found

   Cartesian axes

     site n.     atom                  positions (alat units)
         1           O0  tau(   1) = (   0.0000000   0.0000000   1.6989461  )
         2           O0  tau(   2) = (   0.0000000   0.5535432   1.7901728  )
         3           Ti1 tau(   3) = (   0.2500000   0.5535432   2.0162933  )
         4           Ti1 tau(   4) = (   0.0000000   0.0000000   2.0248388  )
         5           O0  tau(   5) = (   0.2500000   0.8967400   2.0178145  )
         6           O0  tau(   6) = (   0.2500000   0.2103464   2.0226912  )
         7           O0  tau(   7) = (   0.0000000   0.5535432   2.2326603  )
         8           O0  tau(   8) = (   0.0000000   0.0000000   2.3559662  )
         9           Ti1 tau(   9) = (   0.2500000   0.0000000   2.5995804  )
        10           Ti1 tau(  10) = (   0.0000000   0.5535432   2.5483968  )
        11           O0  tau(  11) = (   0.2500000   0.7638896   2.5964932  )
        12           O0  tau(  12) = (   0.2500000   0.3431968   2.5965380  )
        13           O0  tau(  13) = (   0.0000000   0.0000000   2.7842708  )
        14           O0  tau(  14) = (   0.5000000   0.0000000   1.6989461  )
        15           O0  tau(  15) = (   0.5000000   0.5535432   1.7901728  )
        16           Ti1 tau(  16) = (   0.7500000   0.5535432   2.0162933  )
        17           Ti1 tau(  17) = (   0.5000000   0.0000000   2.0248388  )
        18           O0  tau(  18) = (   0.7500000   0.8967400   2.0178145  )
        19           O0  tau(  19) = (   0.7500000   0.2103464   2.0226912  )
        20           O0  tau(  20) = (   0.5000000   0.5535432   2.2326603  )
        21           O0  tau(  21) = (   0.5000000   0.0000000   2.3559662  )
        22           Ti1 tau(  22) = (   0.7500000   0.0000000   2.5995804  )
        23           Ti1 tau(  23) = (   0.5000000   0.5535432   2.5483968  )
        24           O0  tau(  24) = (   0.7500000   0.7638896   2.5964932  )
        25           O0  tau(  25) = (   0.7500000   0.3431968   2.5965380  )
        26           O0  tau(  26) = (   0.5000000   0.0000000   2.7842708  )
        27           H2  tau(  27) = (  -0.0005400   0.6991915   1.7063283  )
        28           H2  tau(  28) = (   0.4994600   0.6991915   1.7063283  )
        29           H2  tau(  29) = (   0.1501800   0.0252084   1.6321479  )
        30           H2  tau(  30) = (   0.6501800   0.0252084   1.6321479  )
        31           O0  tau(  31) = (   0.5000000   0.5535432   2.8851168  )
        32           O0  tau(  32) = (   0.5000000   0.3574118   3.0005930  )
        33           H2  tau(  33) = (   0.5000000   0.4072639   3.1600048  )

     number of k points=    10  Methfessel-Paxton smearing, width (Ry)=  0.0100
                       cart. coord. in units 2pi/alat
        k(    1) = (   0.0000000   0.0000000   0.0000000), wk =   0.1250000
        k(    2) = (   0.0000000   0.2258180   0.0000000), wk =   0.2500000
        k(    3) = (   0.0000000  -0.4516359   0.0000000), wk =   0.1250000
        k(    4) = (   0.2500000   0.0000000   0.0000000), wk =   0.2500000
        k(    5) = (   0.2500000   0.2258180   0.0000000), wk =   0.2500000
        k(    6) = (   0.2500000  -0.4516359   0.0000000), wk =   0.2500000
        k(    7) = (  -0.5000000   0.0000000   0.0000000), wk =   0.1250000
        k(    8) = (  -0.5000000   0.2258180   0.0000000), wk =   0.2500000
        k(    9) = (  -0.5000000  -0.4516359   0.0000000), wk =   0.1250000
        k(   10) = (  -0.2500000   0.2258180   0.0000000), wk =   0.2500000

     Largest allocated arrays     est. size (Mb)     dimensions
     Largest temporary arrays     est. size (Mb)     dimensions

     Check: negative/imaginary core charge=   -0.000006    0.000000

     Initial potential from superposition of free atoms
     Check: negative starting charge=   -0.102740

     starting charge  212.99957, renormalised to  221.00000

     negative rho (up, down):  0.107E+00 0.000E+00
     Starting wfc are  165 randomized atomic wfcs

     Self-consistent Calculation

     iteration #  1     ecut=    40.00 Ry     beta=0.30
     Davidson diagonalization with overlap
     ethr =  1.00E-02,  avg # of iterations =  6.0

     negative rho (up, down):  0.107E+00 0.000E+00

     total energy              =   -1596.17352642 Ry
     Harris-Foulkes estimate   =   -1602.23042494 Ry
     estimated scf accuracy    <      12.76696157 Ry

[...]

     End of self-consistent calculation

          k = 0.0000 0.0000 0.0000 ( 29975 PWs)   bands (ev):

   -59.9079 -59.8701 -59.2080 -58.9433 -58.4529 -58.4037 -57.9632 -57.9221
   -36.4756 -36.1753 -36.0746 -36.0609 -36.0053 -35.9696 -35.6012 -35.5807
   -35.4000 -35.2902 -35.1655 -35.1257 -35.1070 -34.8001 -34.6900 -34.6443
   -34.5747 -34.5301 -34.4742 -34.2807 -34.2516 -34.2284 -34.1280 -34.0040
   -25.8014 -21.5327 -21.2530 -20.1214 -19.8441 -19.6964 -19.5203 -19.0316
   -18.9800 -18.7959 -18.7804 -18.6954 -18.6579 -18.4628 -18.3555 -18.2627
   -17.7906 -17.6944 -17.3565 -17.3149 -10.0675  -9.2716  -8.8401  -8.3528
    -7.6619  -7.5937  -7.5097  -7.3271  -7.2244  -7.2216  -6.7782  -6.6871
    -6.5001  -6.4373  -6.3122  -6.1478  -6.0922  -6.0348  -5.9891  -5.9497
    -5.9067  -5.7411  -5.7163  -5.5739  -5.3888  -5.1960  -4.9153  -4.8190
    -4.8143  -4.7103  -4.6684  -4.6581  -4.5925  -4.4292  -4.3539  -4.2746
    -4.1271  -4.1186  -4.0260  -4.0107  -3.9814  -3.6398  -3.5303  -3.4584
    -3.4183  -3.3636  -3.1949  -3.1369  -2.9550  -2.7629  -2.7055  -2.6534
    -2.5535  -2.3787  -2.3548  -2.1965  -2.1557  -2.0542  -1.9762  -0.8878
    -0.3807  -0.2254  -0.1616  -0.0252   0.0817   0.1682   0.2272   0.6161
     0.7568   0.9621   1.1000   1.2184   1.2507   1.3237   1.3576   1.4142
     1.4192   1.6132   1.7116   1.9087   2.0655   2.0841   2.3432   2.5588
     2.5754   2.6471   2.6830   2.7947   3.0076   3.1578   3.4412   3.5547
     3.7063   3.8830   4.0008   4.1496   4.1530   4.2443   4.2653   4.5493
     4.7526   4.8126   5.1619   5.2580   5.5099   5.5949   5.6115   6.1505
     6.2302   6.3395   6.5993   6.7543   6.8749   6.9798   7.0878   7.0974
     7.1196   7.1783   7.4522   7.6255   7.6598   7.8011   7.8251   8.0868
     8.1758   8.2819   8.3435   8.4049   8.5080   8.8334   8.8815   8.9204
     9.0695   9.0815   9.2964   9.3579   9.4173   9.5645   9.5875   9.7841
     9.8384   9.8823  10.0523  10.1386  10.2073  10.2402  10.3470  10.4197
    10.6585  10.6685  10.7570  10.8372  10.9364  11.0063  11.0445  11.1691
    11.2036  11.2456  11.2622  11.3887  11.4010  11.4562  11.6027  11.6439
    11.7117  11.7377  11.8547  11.9014  12.0932  12.1225  12.2097  12.2612
    12.2709  12.3866  12.4414  12.4443  12.5278  12.6020  12.6205  12.7186
    12.7865  12.8785  12.9957  13.0731  13.2144  13.3050  13.4538  13.5212
    13.6300  13.6621  13.7093  13.7610  13.7764  14.0918  14.1287  14.1453
    14.2683  14.4788  14.5585  14.5832  14.6234  14.6296  14.7953  14.8812
    14.9188  14.9718  15.0106  15.1721  15.1841  15.3371  15.4388  15.5496
    15.6782  15.7127  15.8222  15.8438  15.9108  16.0536  16.0781  16.2872
    16.3498  16.4521  16.5263  16.6481  16.7914  16.8169  16.8386  16.9102
    16.9237  17.0052  17.0342  17.2132  17.2661  17.3035  17.3261  17.3390
    17.4088  17.5663  17.6362  17.7108  17.8351  17.9432  18.0138  18.1521
    18.1981  18.2313  18.3136  18.3837  18.4091  18.4586  18.5191  18.6781
[...]
     atom    7 type  1   force =    -0.00004658    0.00108673   -0.01392126
     atom    8 type  1   force =     0.00318152   -0.00321348   -0.00474507
     atom    9 type  2   force =     0.00846712    0.00111251    0.00503613
     atom   10 type  2   force =    -0.00007063   -0.00551843    0.00786540
     atom   11 type  1   force =    -0.02061571   -0.02077457   -0.01432046
     atom   12 type  1   force =    -0.02627830    0.02146417   -0.02195427
     atom   13 type  1   force =     0.00065508   -0.00017311    0.00549793
     atom   14 type  1   force =     0.00020375   -0.01512352   -0.00580556
     atom   15 type  1   force =     0.00002198    0.02555452   -0.00542005
     atom   16 type  2   force =    -0.00895284   -0.01598956    0.01438405
     atom   17 type  2   force =    -0.00635841    0.00786905    0.01139536
     atom   18 type  1   force =     0.00539430   -0.10314337   -0.00121148
     atom   19 type  1   force =     0.00059732    0.10285150   -0.00149972
     atom   20 type  1   force =    -0.00006637   -0.00038072   -0.05801491
     atom   21 type  1   force =     0.00336865   -0.00126368   -0.00683052
     atom   22 type  2   force =    -0.01015468    0.00110862    0.00510732
     atom   23 type  2   force =    -0.00004005   -0.00792679    0.05855825
     atom   24 type  1   force =     0.02093418   -0.02074070   -0.01428484
     atom   25 type  1   force =     0.02620309    0.02142372   -0.02193917
     atom   26 type  1   force =     0.00054924   -0.01715579   -0.00974436
     atom   27 type  3   force =     0.00003510   -0.00198101    0.00031095
     atom   28 type  3   force =     0.00002851   -0.00220979    0.00013712
     atom   29 type  3   force =     0.00037415    0.00060655    0.00018639
     atom   30 type  3   force =     0.00021372    0.00055312   -0.00003293
     atom   31 type  1   force =    -0.00000887    0.03898320    0.04580007
     atom   32 type  1   force =    -0.00017593   -0.01370105    0.02130412
     atom   33 type  3   force =     0.00008760    0.00471175    0.00153211

     Total force =     0.050536     Total SCF correction =     0.000382

     BFGS Geometry Optimization

     number of scf cycles    =   1
     number of bfgs steps    =   0

     energy   new            =   -1600.2918522315 Ry

     new trust radius        =       0.0458000719 bohr
     new conv_thr            =       0.0000010000 Ry

ATOMIC_POSITIONS (crystal)
O0       0.000000000   0.000000000   0.379730000    0   0   0
O0       0.000000000   0.500000000   0.400120000    0   0   0
Ti1      0.250000000   0.500000000   0.450660000    0   0   0
Ti1      0.000000000   0.000000000   0.452570000    0   0   0
O0       0.250000000   0.810000000   0.451000000    0   0   0
O0       0.250000000   0.190000000   0.452090000    0   0   0
O0       0.000000000   0.500000000   0.499020000    0   0   0
O0       0.000000000   0.000000000   0.526580000    0   0   0
Ti1      0.250000000   0.000000000   0.581030000    0   0   0
Ti1      0.000000000   0.500000000   0.569590000    0   0   0
O0       0.250000000   0.690000000   0.580340000    0   0   0
O0       0.250000000   0.310000000   0.580350000    0   0   0
O0       0.000000000   0.000000000   0.622310000    0   0   0
O0       0.500000000   0.000000000   0.379730000    0   0   0
O0       0.500000000   0.500000000   0.400120000    0   0   0
Ti1      0.750000000   0.500000000   0.450660000    0   0   0
Ti1      0.500000000   0.000000000   0.452570000    0   0   0
O0       0.750000000   0.810000000   0.451000000    0   0   0
O0       0.750000000   0.190000000   0.452090000    0   0   0
O0       0.500000000   0.500000000   0.499020000    0   0   0
O0       0.500000000   0.000000000   0.526580000    0   0   0
Ti1      0.750000000   0.000000000   0.581030000    0   0   0
Ti1      0.500000000   0.500000000   0.569590000    0   0   0
O0       0.750000000   0.690000000   0.580340000    0   0   0
O0       0.750000000   0.310000000   0.580350000    0   0   0
O0       0.500000000   0.000000000   0.622310000    0   0   0
H2      -0.000540000   0.631560000   0.381380000    0   0   0
H2       0.499460000   0.631560000   0.381380000    0   0   0
H2       0.150180000   0.022770000   0.364800000    0   0   0
H2       0.650180000   0.022770000   0.364800000    0   0   0
O0       0.499999210   0.500000000   0.645761961    1   0   1
O0       0.499984327   0.322840000   0.671084203    1   0   1
H2       0.500007804   0.367870000   0.706320507    1   0   1

     Check: negative starting charge=   -0.102740
     NEW-OLD atomic charge density approx. for the potential

     Check: negative/imaginary core charge=   -0.000006    0.000000
     Check: negative starting charge=   -0.102741

[...]

     energy   old            =   -1600.2918522315 Ry
     energy   new            =   -1600.2939055959 Ry

     CASE: energy  _new < energy  _old

[...]

     number of scf cycles    =   9
     number of bfgs steps    =   8

     energy   old            =   -1600.3053329738 Ry
     energy   new            =   -1600.3053675361 Ry

     CASE: energy  _new < energy  _old

     new trust radius        =       0.0148332182 bohr
     new conv_thr            =       0.0000000100 Ry

ATOMIC_POSITIONS (crystal)
O0       0.000000000   0.000000000   0.379730000    0   0   0
O0       0.000000000   0.500000000   0.400120000    0   0   0
Ti1      0.250000000   0.500000000   0.450660000    0   0   0
Ti1      0.000000000   0.000000000   0.452570000    0   0   0
O0       0.250000000   0.810000000   0.451000000    0   0   0
O0       0.250000000   0.190000000   0.452090000    0   0   0
O0       0.000000000   0.500000000   0.499020000    0   0   0
O0       0.000000000   0.000000000   0.526580000    0   0   0
Ti1      0.250000000   0.000000000   0.581030000    0   0   0
Ti1      0.000000000   0.500000000   0.569590000    0   0   0
O0       0.250000000   0.690000000   0.580340000    0   0   0
O0       0.250000000   0.310000000   0.580350000    0   0   0
O0       0.000000000   0.000000000   0.622310000    0   0   0
O0       0.500000000   0.000000000   0.379730000    0   0   0
O0       0.500000000   0.500000000   0.400120000    0   0   0
Ti1      0.750000000   0.500000000   0.450660000    0   0   0
Ti1      0.500000000   0.000000000   0.452570000    0   0   0
O0       0.750000000   0.810000000   0.451000000    0   0   0
O0       0.750000000   0.190000000   0.452090000    0   0   0
O0       0.500000000   0.500000000   0.499020000    0   0   0
O0       0.500000000   0.000000000   0.526580000    0   0   0
Ti1      0.750000000   0.000000000   0.581030000    0   0   0
Ti1      0.500000000   0.500000000   0.569590000    0   0   0
O0       0.750000000   0.690000000   0.580340000    0   0   0
O0       0.750000000   0.310000000   0.580350000    0   0   0
O0       0.500000000   0.000000000   0.622310000    0   0   0
H2      -0.000540000   0.631560000   0.381380000    0   0   0
H2       0.499460000   0.631560000   0.381380000    0   0   0
H2       0.150180000   0.022770000   0.364800000    0   0   0
H2       0.650180000   0.022770000   0.364800000    0   0   0
O0       0.500306904   0.500000000   0.654742027    1   0   1
O0       0.499119826   0.322840000   0.680958713    1   0   1
H2       0.500355763   0.367870000   0.716627490    1   0   1

     Check: negative starting charge=   -0.102727
     NEW-OLD atomic charge density approx. for the potential

     Check: negative/imaginary core charge=   -0.000006    0.000000
     Check: negative starting charge=   -0.102726

[...]

     Self-consistent Calculation

[...]

     total energy              =   -1600.30538107 Ry
     Harris-Foulkes estimate   =   -1600.30538105 Ry
     estimated scf accuracy    <       0.00000002 Ry

     iteration #  9     ecut=    40.00 Ry     beta=0.30
     Davidson diagonalization with overlap
     ethr =  9.60E-12,  avg # of iterations =  1.9

     negative rho (up, down):  0.102E+00 0.000E+00

     End of self-consistent calculation

[...]

          k = 0.2500-0.4516 0.0000 ( 29882 PWs)   bands (ev):

[...]

          k =-0.2500 0.2258 0.0000 ( 29912 PWs)   bands (ev):

   -59.9092 -59.8824 -59.2481 -59.1156 -58.4173 -58.3842 -57.9365 -57.9074
   -36.4298 -36.1692 -36.1380 -36.0948 -35.9988 -35.9759 -35.6250 -35.6138
   -35.4380 -35.4188 -35.3143 -35.3069 -35.0136 -34.7600 -34.6871 -34.6804
   -34.5361 -34.5050 -34.3883 -34.2647 -34.2412 -34.1932 -34.1162 -34.0480
   -25.6066 -21.4672 -21.2699 -20.1034 -19.9361 -19.5263 -19.3453 -19.0261
   -18.9369 -18.9184 -18.8430 -18.6669 -18.6198 -18.6140 -18.5764 -18.0410
   -17.6881 -17.5248 -17.3995 -17.3476  -9.8268  -9.1898  -8.8986  -8.0395
    -7.3790  -7.2928  -7.2503  -7.1272  -7.0452  -6.9337  -6.9053  -6.7130
    -6.6417  -6.4277  -6.2594  -6.2284  -6.2028  -6.0399  -5.9905  -5.9239
    -5.7701  -5.6523  -5.5683  -5.4824  -5.4204  -5.2456  -5.0471  -5.0163
    -4.8832  -4.8459  -4.6755  -4.6514  -4.4843  -4.4614  -4.2764  -4.2484
    -4.2307  -4.1986  -4.1611  -4.0108  -3.9698  -3.9169  -3.8312  -3.7166
    -3.6902  -3.2708  -3.1612  -3.0944  -2.9135  -2.8135  -2.7341  -2.6800
    -2.6294  -2.5014  -2.4108  -2.2874  -2.1727  -2.0551  -1.9851  -0.6862
    -0.3531  -0.2969  -0.2159   0.0599   0.0684   0.1487   0.4290   0.7069
     0.7977   0.8118   0.9830   1.0919   1.2795   1.3418   1.3959   1.5025
     1.6189   1.7574   1.9321   1.9743   2.1771   2.2274   2.2821   2.4261
     2.4975   2.5682   2.7116   2.7841   2.9631   3.1816   3.2417   3.6628
     3.7695   3.9687   4.0804   4.2103   4.3693   4.4211   4.4589   4.5763
     4.6633   4.8788   5.0748   5.1951   5.2617   5.3869   5.5077   5.6147
     5.6524   5.8955   6.0374   6.1601   6.3898   6.5230   6.6215   6.9688
     7.0557   7.2483   7.4426   7.5176   7.6998   7.8524   7.9706   8.0560
     8.1912   8.3293   8.4757   8.5457   8.6241   8.7260   8.8084   8.9813
     9.0858   9.1815   9.2628   9.4092   9.4791   9.6375   9.7070   9.7851
     9.9026  10.0225  10.1822  10.2526  10.3059  10.3467  10.4697  10.4995
    10.6942  10.7621  10.9006  10.9318  11.0038  11.1387  11.2287  11.2693
    11.3781  11.4930  11.5569  11.5893  11.6364  11.7475  11.7970  11.9329
    12.0183  12.1048  12.1649  12.2517  12.3213  12.4093  12.4829  12.5638
    12.6066  12.6679  12.7994  12.8446  12.8860  12.9900  13.0588  13.1432
    13.1721  13.2609  13.3612  13.4258  13.5546  13.6612  13.7546  13.8161
    13.8681  13.9767  14.0407  14.0948  14.1151  14.2275  14.3085  14.3568
    14.4796  14.5598  14.6032  14.6262  14.7637  14.8201  14.8952  14.9570
    15.0412  15.1346  15.1874  15.2277  15.3055  15.3821  15.4020  15.4450
    15.5451  15.5837  15.6166  15.7132  15.7376  15.8480  15.9349  15.9712
    16.0338  16.1621  16.1881  16.2389  16.2985  16.3381  16.4287  16.4701
    16.5608  16.6126  16.6432  16.7167  16.7701  16.8014  16.9245  16.9962
    17.1047  17.1568  17.2075  17.2611  17.3176  17.4177  17.4430  17.5142
    17.6221  17.6360  17.7369  17.8053  17.9386  18.0322  18.1158  18.1412
    18.1718  18.2537  18.3451  18.3937  18.4613  18.5218  18.5684  18.6656
    18.7124  18.7976  18.8163  18.8761  18.9629  19.0788  19.1422

     the Fermi energy is    -1.9793 ev

!    total energy              =   -1600.30538108 Ry
     Harris-Foulkes estimate   =   -1600.30538107 Ry
     estimated scf accuracy    <          3.8E-09 Ry

     The total energy is the sum of the following terms:

     one-electron contribution =  -19403.54438473 Ry
     hartree contribution      =    9727.00651021 Ry
     xc contribution           =    -284.73330361 Ry
     ewald contribution        =    8360.96726661 Ry
     smearing contrib. (-TS)   =      -0.00146957 Ry

     convergence has been achieved in   9 iterations

     Forces acting on atoms (Ry/au):

     negative rho (up, down):  0.102E+00 0.000E+00
     atom    1 type  1   force =     0.00008875   -0.01553815   -0.00518137
     atom    2 type  1   force =     0.00002120    0.02496579   -0.00408017
     atom    3 type  2   force =     0.00513972   -0.01601326    0.01097597
     atom    4 type  2   force =    -0.00607584    0.00835391    0.00495075
     atom    5 type  1   force =     0.00298556   -0.10512381   -0.00134461
     atom    6 type  1   force =    -0.00236351    0.10485649   -0.00164375
     atom    7 type  1   force =    -0.00005380    0.00113431   -0.01245888
     atom    8 type  1   force =     0.00321916   -0.00252187   -0.00555962
     atom    9 type  2   force =     0.00617738    0.00092412    0.00452515
     atom   10 type  2   force =     0.00002496   -0.00379457    0.00849112
     atom   11 type  1   force =    -0.01216297   -0.02942829   -0.00999906
     atom   12 type  1   force =    -0.01699058    0.02928794   -0.01546351
     atom   13 type  1   force =     0.00061683    0.00000384    0.00462654
     atom   14 type  1   force =     0.00025039   -0.01536746   -0.00570617
     atom   15 type  1   force =     0.00002081    0.02501182   -0.00420771
     atom   16 type  2   force =    -0.00478173   -0.01611393    0.01095318
     atom   17 type  2   force =    -0.00630150    0.00810988    0.01083349
     atom   18 type  1   force =     0.00475129   -0.10503592   -0.00133192
     atom   19 type  1   force =    -0.00022805    0.10490873   -0.00157937
     atom   20 type  1   force =    -0.00003673    0.00051184   -0.03592327
     atom   21 type  1   force =     0.00331799   -0.00140910   -0.00654707
     atom   22 type  2   force =    -0.00791299    0.00085630    0.00466091
     atom   23 type  2   force =    -0.00020642   -0.00846213    0.08271096
     atom   24 type  1   force =     0.01240621   -0.02944968   -0.01000450
     atom   25 type  1   force =     0.01687243    0.02914860   -0.01539576
     atom   26 type  1   force =     0.00067525   -0.00888989   -0.00677071
     atom   27 type  3   force =     0.00003287   -0.00145895    0.00034072
     atom   28 type  3   force =     0.00002892   -0.00160138    0.00025579
     atom   29 type  3   force =     0.00028879    0.00058021    0.00016115
     atom   30 type  3   force =     0.00018573    0.00054738    0.00003819
     atom   31 type  1   force =     0.00043293    0.02123732    0.00002022
     atom   32 type  1   force =    -0.00064967   -0.00587257   -0.00012150
     atom   33 type  3   force =     0.00022661    0.00564246   -0.00022521

     Total force =     0.000852     Total SCF correction =     0.000068

     bfgs converged in  10 scf cycles and   9 bfgs steps
     (criteria: energy < 0.10E-03, force < 0.10E-02)

     End of BFGS Geometry Optimization

     Final energy   =   -1600.3053810833 Ry
Begin final coordinates

ATOMIC_POSITIONS (crystal)
O0       0.000000000   0.000000000   0.379730000    0   0   0
O0       0.000000000   0.500000000   0.400120000    0   0   0
Ti1      0.250000000   0.500000000   0.450660000    0   0   0
Ti1      0.000000000   0.000000000   0.452570000    0   0   0
O0       0.250000000   0.810000000   0.451000000    0   0   0
O0       0.250000000   0.190000000   0.452090000    0   0   0
O0       0.000000000   0.500000000   0.499020000    0   0   0
O0       0.000000000   0.000000000   0.526580000    0   0   0
Ti1      0.250000000   0.000000000   0.581030000    0   0   0
Ti1      0.000000000   0.500000000   0.569590000    0   0   0
O0       0.250000000   0.690000000   0.580340000    0   0   0
O0       0.250000000   0.310000000   0.580350000    0   0   0
O0       0.000000000   0.000000000   0.622310000    0   0   0
O0       0.500000000   0.000000000   0.379730000    0   0   0
O0       0.500000000   0.500000000   0.400120000    0   0   0
Ti1      0.750000000   0.500000000   0.450660000    0   0   0
Ti1      0.500000000   0.000000000   0.452570000    0   0   0
O0       0.750000000   0.810000000   0.451000000    0   0   0
O0       0.750000000   0.190000000   0.452090000    0   0   0
O0       0.500000000   0.500000000   0.499020000    0   0   0
O0       0.500000000   0.000000000   0.526580000    0   0   0
Ti1      0.750000000   0.000000000   0.581030000    0   0   0
Ti1      0.500000000   0.500000000   0.569590000    0   0   0
O0       0.750000000   0.690000000   0.580340000    0   0   0
O0       0.750000000   0.310000000   0.580350000    0   0   0
O0       0.500000000   0.000000000   0.622310000    0   0   0
H2      -0.000540000   0.631560000   0.381380000    0   0   0
H2       0.499460000   0.631560000   0.381380000    0   0   0
H2       0.150180000   0.022770000   0.364800000    0   0   0
H2       0.650180000   0.022770000   0.364800000    0   0   0
O0       0.500306904   0.500000000   0.654742027    1   0   1
O0       0.499119826   0.322840000   0.680958713    1   0   1
H2       0.500355763   0.367870000   0.716627490    1   0   1
End final coordinates

     General routines

     Parallel routines

   This run was terminated on:  11:58:54   1May2014

   JOB DONE.