     Program PWSCF v.5.0.2 (svn rev. 9656) starts on 13Aug2014 at 10:14:38

     Current dimensions of program PWSCF are:
     Max number of different atomic species (ntypx) = 10
     Max number of k-points (npk) =  40000
     Max angular momentum in pseudopotentials (lmaxx) =  3
     Reading input from pwscf.in
Warning: card &CELL ignored
Warning: card / ignored

     Subspace diagonalization in iterative solution of the eigenvalue problem:
     a serial algorithm will be used

     bravais-lattice index     =            0
     lattice parameter (alat)  =      10.9604  a.u.
     unit-cell volume          =    6350.6732 (a.u.)^3
     number of atoms/cell      =           33
     number of atomic types    =            3
     number of electrons       =       237.00 (up: 126.00, down: 111.00)
     number of Kohn-Sham states=          343
     kinetic-energy cutoff     =      40.0000  Ry
     charge density cutoff     =     500.0000  Ry
     convergence threshold     =      1.0E-06
     mixing beta               =       0.7000
     number of iterations used =            8  plain     mixing
     Exchange-correlation      = SLA  PW   PBE  PBE ( 1 4 3 4 0)
     EXX-fraction              =        0.00
     nstep                     =           50

     celldm(1)=  10.960412  celldm(2)=   0.000000  celldm(3)=   0.000000
     celldm(4)=   0.000000  celldm(5)=   0.000000  celldm(6)=   0.000000

     crystal axes: (cart. coord. in units of alat)
               a(1) = (   1.000000   0.000000   0.000000 )
               a(2) = (   0.000000   1.067975   0.000000 )
               a(3) = (   0.000000   0.000000   4.516251 )

     reciprocal axes: (cart. coord. in units 2 pi/alat)
               b(1) = (  1.000000  0.000000  0.000000 )
               b(2) = (  0.000000  0.936351  0.000000 )
               b(3) = (  0.000000  0.000000  0.221423 )

     PseudoPot. # 1 for O  read from file:
     /home-research/zhongnanxu/gbrv_espresso_pseudo_v1.01/o_pbe_v1.01.uspp.F.UPF
     MD5 check sum: 2bcb18d16ea4b960afae9ec6d52f22d2
     Pseudo is Ultrasoft + core correction, Zval =  6.0
     Generated by new atomic code, or converted to UPF format
     Using radial grid of  737 points,  5 beta functions with:
                l(1) =   0
                l(2) =   0
                l(3) =   1
                l(4) =   1
                l(5) =   2
     Q(r) pseudized with  8 coefficients,  rinner =    0.900   0.900   0.900
                                                       0.900   0.900

     PseudoPot. # 2 for Cr read from file:
     /home-research/zhongnanxu/gbrv_espresso_pseudo_v1.01/cr_pbe_v1.uspp.F.UPF
     MD5 check sum: 68b6f918d1762dccfb11451fe85b0e0e
     Pseudo is Ultrasoft + core correction, Zval = 14.0
     Generated by new atomic code, or converted to UPF format
     Using radial grid of  857 points,  6 beta functions with:
                l(1) =   0
                l(2) =   0
                l(3) =   1
                l(4) =   1
                l(5) =   2
                l(6) =   2
     Q(r) pseudized with  6 coefficients,  rinner =    1.000   1.000   1.000
                                                       1.000   1.000

     PseudoPot. # 3 for H  read from file:
     /home-research/zhongnanxu/gbrv_espresso_pseudo_v1.01/h_pbe_v1.uspp.F.UPF
     MD5 check sum: 3408e3ff4ec8b0a4e358431e7e038a48
     Pseudo is Ultrasoft, Zval =  1.0
     Generated by new atomic code, or converted to UPF format
     Using radial grid of  615 points,  2 beta functions with:
                l(1) =   0
                l(2) =   0
     Q(r) pseudized with  8 coefficients,  rinner =    0.700

     atomic species   valence    mass     pseudopotential
        O0             6.00    15.99940     O ( 1.00)
        Cr1           14.00    51.99600     Cr( 1.00)
        H2             1.00     1.00794     H ( 1.00)

     Starting magnetic structure
     atomic species   magnetization
        O0           0.000
        Cr1          0.600
        H2           0.000

     Simplified LDA+U calculation (l_max = 2) with parameters (eV):
     atomic species    L          U    alpha       J0     beta
        Cr1            2     6.5000   0.0000   0.0000   0.0000

     No symmetry found

   Cartesian axes

     site n.     atom                  positions (alat units)
         1           O0  tau(   1) = (   0.0000000   0.0000000   1.6880843  )
         2           O0  tau(   2) = (   0.0000000   0.5339875   1.7867644  )
         3           Cr1 tau(   3) = (   0.2500000   0.5339875   2.0240933  )
         4           Cr1 tau(   4) = (   0.0000000   0.0000000   2.0268031  )
         5           O0  tau(   5) = (   0.2500000   0.8543801   2.0235062  )
         6           O0  tau(   6) = (   0.2500000   0.2135950   2.0235966  )
         7           O0  tau(   7) = (   0.0000000   0.5339875   2.2457509  )
         8           O0  tau(   8) = (   0.0000000   0.0000000   2.3711672  )
         9           Cr1 tau(   9) = (   0.2500000   0.0000000   2.6038896  )
        10           Cr1 tau(  10) = (   0.0000000   0.5339875   2.5658176  )
        11           O0  tau(  11) = (   0.2500000   0.7475825   2.6051542  )
        12           O0  tau(  12) = (   0.2500000   0.3203925   2.6109802  )
        13           O0  tau(  13) = (   0.0000000   0.0000000   2.8220697  )
        14           O0  tau(  14) = (   0.5000000   0.0000000   1.6869552  )
        15           O0  tau(  15) = (   0.5000000   0.5339875   1.7867192  )
        16           Cr1 tau(  16) = (   0.7500000   0.5339875   2.0240482  )
        17           Cr1 tau(  17) = (   0.5000000   0.0000000   2.0258547  )
        18           O0  tau(  18) = (   0.7500000   0.8543801   2.0235514  )
        19           O0  tau(  19) = (   0.7500000   0.2135950   2.0235514  )
        20           O0  tau(  20) = (   0.5000000   0.5339875   2.2552802  )
        21           O0  tau(  21) = (   0.5000000   0.0000000   2.3709866  )
        22           Cr1 tau(  22) = (   0.7500000   0.0000000   2.6023089  )
        23           Cr1 tau(  23) = (   0.5000000   0.5339875   2.6019928  )
        24           O0  tau(  24) = (   0.7500000   0.7475825   2.6058316  )
        25           O0  tau(  25) = (   0.7500000   0.3203925   2.6115221  )
        26           O0  tau(  26) = (   0.5000000   0.0000000   2.8207148  )
        27           H2  tau(  27) = (  -0.0007200   0.6804069   1.6997362  )
        28           H2  tau(  28) = (   0.4994000   0.6811972   1.7008201  )
        29           H2  tau(  29) = (   0.1592600   0.0280557   1.6320828  )
        30           H2  tau(  30) = (   0.6590700   0.0287072   1.6309989  )
        31           O0  tau(  31) = (   0.4998600   0.5867562   2.9593637  )
        32           O0  tau(  32) = (   0.5002200   0.3858274   3.0859994  )
        33           H2  tau(  33) = (   0.4998900   0.4448757   3.2465070  )

     number of k points=    20  Methfessel-Paxton smearing, width (Ry)=  0.0100
                       cart. coord. in units 2pi/alat
        k(    1) = (   0.0000000   0.0000000   0.0000000), wk =   0.0625000
        k(    2) = (   0.0000000   0.2340879   0.0000000), wk =   0.1250000
        k(    3) = (   0.0000000  -0.4681757   0.0000000), wk =   0.0625000
        k(    4) = (   0.2500000   0.0000000   0.0000000), wk =   0.1250000
        k(    5) = (   0.2500000   0.2340879   0.0000000), wk =   0.1250000
        k(    6) = (   0.2500000  -0.4681757   0.0000000), wk =   0.1250000
        k(    7) = (  -0.5000000   0.0000000   0.0000000), wk =   0.0625000
        k(    8) = (  -0.5000000   0.2340879   0.0000000), wk =   0.1250000
        k(    9) = (  -0.5000000  -0.4681757   0.0000000), wk =   0.0625000
        k(   10) = (  -0.2500000   0.2340879   0.0000000), wk =   0.1250000
        k(   11) = (   0.0000000   0.0000000   0.0000000), wk =   0.0625000
        k(   12) = (   0.0000000   0.2340879   0.0000000), wk =   0.1250000
        k(   13) = (   0.0000000  -0.4681757   0.0000000), wk =   0.0625000
        k(   14) = (   0.2500000   0.0000000   0.0000000), wk =   0.1250000
        k(   15) = (   0.2500000   0.2340879   0.0000000), wk =   0.1250000
        k(   16) = (   0.2500000  -0.4681757   0.0000000), wk =   0.1250000
        k(   17) = (  -0.5000000   0.0000000   0.0000000), wk =   0.0625000
        k(   18) = (  -0.5000000   0.2340879   0.0000000), wk =   0.1250000
        k(   19) = (  -0.5000000  -0.4681757   0.0000000), wk =   0.0625000
        k(   20) = (  -0.2500000   0.2340879   0.0000000), wk =   0.1250000

     Largest allocated arrays     est. size (Mb)     dimensions
     Largest temporary arrays     est. size (Mb)     dimensions

     Check: negative/imaginary core charge=   -0.000012    0.000000

     Initial potential from superposition of free atoms
     Check: negative starting charge=(component1):   -0.001262
     Check: negative starting charge=(component2):   -0.000439

     starting charge  228.99983, renormalised to  237.00000

     negative rho (up, down):  0.131E-02 0.455E-03
     Number of +U iterations with fixed ns =  0
     Starting occupations:
 --- enter write_ns ---
 LDA+U parameters:
U( 2)     =  6.50000000
alpha( 2) =  0.00000000
atom    3   Tr[ns(na)] (up, down, total) =   5.00000  0.00000  5.00000
   spin  1
    eigenvalues:
  1.000  1.000  1.000  1.000  1.000
    eigenvectors:
  1.000  0.000  0.000  0.000  0.000
  0.000  1.000  0.000  0.000  0.000
  0.000  0.000  1.000  0.000  0.000
  0.000  0.000  0.000  1.000  0.000
  0.000  0.000  0.000  0.000  1.000
    occupations:
  1.000  0.000  0.000  0.000  0.000
  0.000  1.000  0.000  0.000  0.000
  0.000  0.000  1.000  0.000  0.000
  0.000  0.000  0.000  1.000  0.000
  0.000  0.000  0.000  0.000  1.000
   spin  2
    eigenvalues:
  0.000  0.000  0.000  0.000  0.000
    eigenvectors:
  1.000  0.000  0.000  0.000  0.000
  0.000  1.000  0.000  0.000  0.000
  0.000  0.000  1.000  0.000  0.000
  0.000  0.000  0.000  1.000  0.000
  0.000  0.000  0.000  0.000  1.000
    occupations:
  0.000  0.000  0.000  0.000  0.000
  0.000  0.000  0.000  0.000  0.000
  0.000  0.000  0.000  0.000  0.000
  0.000  0.000  0.000  0.000  0.000
  0.000  0.000  0.000  0.000  0.000
atomic mag. moment =     5.000000
atom    4   Tr[ns(na)] (up, down, total) =   5.00000  0.00000  5.00000
   spin  1
    eigenvalues:
  1.000  1.000  1.000  1.000  1.000
    eigenvectors:
  1.000  0.000  0.000  0.000  0.000
  0.000  1.000  0.000  0.000  0.000
  0.000  0.000  1.000  0.000  0.000
  0.000  0.000  0.000  1.000  0.000
  0.000  0.000  0.000  0.000  1.000
    occupations:
  1.000  0.000  0.000  0.000  0.000
  0.000  1.000  0.000  0.000  0.000
  0.000  0.000  1.000  0.000  0.000
  0.000  0.000  0.000  1.000  0.000
  0.000  0.000  0.000  0.000  1.000
   spin  2
    eigenvalues:
  0.000  0.000  0.000  0.000  0.000
    eigenvectors:
  1.000  0.000  0.000  0.000  0.000
  0.000  1.000  0.000  0.000  0.000
  0.000  0.000  1.000  0.000  0.000
  0.000  0.000  0.000  1.000  0.000
  0.000  0.000  0.000  0.000  1.000
    occupations:
  0.000  0.000  0.000  0.000  0.000
  0.000  0.000  0.000  0.000  0.000
  0.000  0.000  0.000  0.000  0.000
  0.000  0.000  0.000  0.000  0.000
  0.000  0.000  0.000  0.000  0.000
[...]
 -0.001  0.000  0.081  0.005  0.001
  0.109  0.002  0.005  0.263  0.000
  0.000  0.008  0.001  0.000  0.077
atomic mag. moment =     2.916698
atom    4   Tr[ns(na)] (up, down, total) =   3.75046  0.81515  4.56561
   spin  1
    eigenvalues:
  0.474  0.511  0.846  0.929  0.991
    eigenvectors:
  0.000  0.996  0.000  0.001  0.002
  0.000  0.001  0.007  0.992  0.000
  0.000  0.000  0.993  0.007  0.000
  0.000  0.003  0.000  0.000  0.997
  1.000  0.000  0.000  0.000  0.000
    occupations:
  0.512 -0.015 -0.001  0.024  0.001
 -0.015  0.928  0.007  0.001  0.000
 -0.001  0.007  0.847  0.000  0.001
  0.024  0.001  0.000  0.990  0.000
  0.001  0.000  0.001  0.000  0.474
   spin  2
    eigenvalues:
  0.070  0.072  0.076  0.289  0.308
    eigenvectors:
  0.008  0.000  0.000  0.991  0.000
  0.035  0.228  0.736  0.001  0.000
  0.029  0.714  0.257  0.000  0.000
  0.928  0.058  0.006  0.007  0.000
  0.000  0.000  0.000  0.000  1.000
    occupations:
  0.287  0.007  0.001 -0.019  0.000
  0.007  0.075 -0.001  0.000  0.000
  0.001 -0.001  0.073  0.000  0.000
 -0.019  0.000  0.000  0.072  0.000
  0.000  0.000  0.000  0.000  0.308
atomic mag. moment =     2.935311
atom    9   Tr[ns(na)] (up, down, total) =   3.73855  0.86660  4.60515
   spin  1
    eigenvalues:
  0.513  0.529  0.792  0.912  0.994
    eigenvectors:
  0.000  0.212  0.000  0.000  0.788
  1.000  0.000  0.000  0.000  0.000
  0.000  0.000  0.982  0.018  0.000
  0.000  0.788  0.000  0.000  0.212
  0.000  0.000  0.018  0.982  0.000
    occupations:
  0.895 -0.001  0.001 -0.190 -0.001
 -0.001  0.513  0.000  0.000  0.000
  0.001  0.000  0.794  0.000 -0.016
 -0.190  0.000  0.000  0.627  0.000
 -0.001  0.000 -0.016  0.000  0.909
   spin  2
    eigenvalues:
  0.074  0.083  0.083  0.297  0.330
    eigenvectors:
  0.803  0.000  0.001  0.000  0.197
  0.000  0.000  0.000  0.999  0.001
  0.000  0.071  0.929  0.000  0.000
  0.197  0.000  0.000  0.001  0.802
  0.000  0.929  0.071  0.000  0.000
    occupations:
  0.124  0.000  0.001  0.102  0.000
  0.000  0.297  0.000 -0.001  0.000
  0.001  0.000  0.083  0.002  0.000
  0.102 -0.001  0.002  0.279  0.000
  0.000  0.000  0.000  0.000  0.083
atomic mag. moment =     2.871948
atom   10   Tr[ns(na)] (up, down, total) =   3.80198  0.73059  4.53257
   spin  1
    eigenvalues:
  0.481  0.496  0.898  0.936  0.992
    eigenvectors:
  0.000  0.997  0.000  0.000  0.003
  0.000  0.000  0.000  1.000  0.000
  0.000  0.000  1.000  0.000  0.000
  0.000  0.003  0.000  0.000  0.997
  1.000  0.000  0.000  0.000  0.000
    occupations:
  0.498  0.000 -0.005  0.025  0.000
  0.000  0.935  0.000  0.000 -0.005
 -0.005  0.000  0.898  0.002  0.001
  0.025  0.000  0.002  0.990  0.000
  0.000 -0.005  0.001  0.000  0.481
   spin  2
    eigenvalues:
  0.066  0.078  0.085  0.207  0.295
    eigenvectors:
  0.014  0.000  0.000  0.986  0.000
  0.000  0.000  1.000  0.000  0.000
  0.000  0.999  0.000  0.000  0.000
  0.986  0.000  0.000  0.014  0.000
  0.000  0.000  0.000  0.000  1.000
    occupations:
  0.205  0.000  0.000 -0.016  0.000
  0.000  0.085  0.000  0.000  0.003
  0.000  0.000  0.078  0.000  0.000
 -0.016  0.000  0.000  0.068  0.000
  0.000  0.003  0.000  0.000  0.295
atomic mag. moment =     3.071393
atom   16   Tr[ns(na)] (up, down, total) =   3.73637  0.81969  4.55606
   spin  1
    eigenvalues:
  0.450  0.501  0.836  0.957  0.992
    eigenvectors:
  0.000  0.247  0.001  0.000  0.752
  0.998  0.001  0.000  0.000  0.000
  0.000  0.000  0.999  0.000  0.001
  0.001  0.752  0.000  0.000  0.247
  0.000  0.000  0.000  1.000  0.000
    occupations:
  0.871  0.000  0.003 -0.212  0.000
  0.000  0.451  0.001  0.002 -0.006
  0.003  0.001  0.836 -0.004 -0.002
 -0.212  0.002 -0.004  0.622  0.000
  0.000 -0.006 -0.002  0.000  0.957
   spin  2
    eigenvalues:
  0.061  0.076  0.082  0.278  0.322
    eigenvectors:
  0.739  0.001  0.032  0.001  0.228
  0.000  0.001  0.000  0.997  0.001
  0.039  0.012  0.949  0.000  0.000
  0.222  0.000  0.006  0.001  0.771
  0.000  0.985  0.013  0.002  0.000
    occupations:
  0.122  0.001 -0.001  0.109  0.000
  0.001  0.278  0.000 -0.002  0.008
 -0.001  0.000  0.081  0.005 -0.001
  0.109 -0.002  0.005  0.263  0.000
  0.000  0.008 -0.001  0.000  0.077
atomic mag. moment =     2.916685
atom   17   Tr[ns(na)] (up, down, total) =   3.75395  0.80965  4.56359
   spin  1
    eigenvalues:
  0.471  0.507  0.856  0.928  0.991
    eigenvectors:
  0.000  0.996  0.000  0.001  0.002
  0.000  0.001  0.007  0.991  0.000
  0.000  0.000  0.993  0.007  0.000
  0.000  0.002  0.000  0.000  0.998
  1.000  0.000  0.000  0.000  0.000
    occupations:
  0.509 -0.014 -0.001  0.023  0.001
 -0.014  0.927  0.006  0.001  0.000
 -0.001  0.006  0.857  0.000  0.001
  0.023  0.001  0.000  0.990  0.000
  0.001  0.000  0.001  0.000  0.471
   spin  2
    eigenvalues:
  0.070  0.071  0.075  0.286  0.307
    eigenvectors:
  0.008  0.000  0.000  0.991  0.000
  0.048  0.186  0.764  0.001  0.000
  0.055  0.716  0.228  0.000  0.000
  0.888  0.097  0.008  0.008  0.000
  0.000  0.000  0.000  0.000  1.000
    occupations:
  0.284  0.007  0.001 -0.019  0.000
  0.007  0.074 -0.002  0.000  0.000
  0.001 -0.002  0.072  0.000  0.000
 -0.019  0.000  0.000  0.071  0.000
  0.000  0.000  0.000  0.000  0.307
atomic mag. moment =     2.944300
atom   22   Tr[ns(na)] (up, down, total) =   3.73872  0.86613  4.60485
   spin  1
    eigenvalues:
  0.513  0.529  0.791  0.912  0.994
    eigenvectors:
  0.002  0.210  0.000  0.000  0.788
  0.991  0.009  0.000  0.000  0.000
  0.000  0.000  0.982  0.018  0.000
  0.007  0.781  0.000  0.000  0.212
  0.000  0.000  0.018  0.982  0.000
    occupations:
  0.895  0.002  0.001 -0.190  0.000
  0.002  0.513  0.001  0.001  0.000
  0.001  0.001  0.793  0.000  0.016
 -0.190  0.001  0.000  0.627  0.001
  0.000  0.000  0.016  0.001  0.910
   spin  2
    eigenvalues:
  0.074  0.083  0.083  0.297  0.329
    eigenvectors:
  0.802  0.000  0.000  0.000  0.197
  0.000  0.000  0.000  0.999  0.001
  0.000  0.062  0.937  0.000  0.000
  0.198  0.000  0.000  0.000  0.802
  0.000  0.938  0.062  0.000  0.000
    occupations:
  0.124  0.000  0.001  0.102  0.000
  0.000  0.297  0.000  0.001  0.000
  0.001  0.000  0.083  0.002  0.000
  0.102  0.001  0.002  0.279  0.000
  0.000  0.000  0.000  0.000  0.083
atomic mag. moment =     2.872595
atom   23   Tr[ns(na)] (up, down, total) =   3.78509  0.73929  4.52438
   spin  1
    eigenvalues:
  0.432  0.473  0.946  0.946  0.989
    eigenvectors:
  0.996  0.000  0.000  0.003  0.001
  0.000  0.000  1.000  0.000  0.000
  0.003  0.000  0.000  0.997  0.000
  0.001  0.000  0.000  0.000  0.999
  0.000  1.000  0.000  0.000  0.000
    occupations:
  0.435  0.001  0.029  0.020  0.000
  0.001  0.945  0.000  0.000 -0.010
  0.029  0.000  0.944 -0.001 -0.001
  0.020  0.000 -0.001  0.988  0.000
  0.000 -0.010 -0.001  0.000  0.473
   spin  2
    eigenvalues:
  0.058  0.070  0.073  0.231  0.307
    eigenvectors:
  0.003  0.011  0.000  0.986  0.000
  0.000  0.000  1.000  0.000  0.000
  0.996  0.001  0.000  0.003  0.000
  0.001  0.988  0.000  0.012  0.000
  0.000  0.000  0.000  0.000  1.000
    occupations:
  0.229  0.000 -0.009 -0.017  0.000
  0.000  0.073  0.000  0.000  0.003
 -0.009  0.000  0.059  0.001  0.000
 -0.017  0.000  0.001  0.071  0.000
  0.000  0.003  0.000  0.000  0.307
atomic mag. moment =     3.045802
N of occupied +U levels =  36.5083108
 --- exit write_ns ---

 ------ SPIN UP ------------

[...]

 ------ SPIN DOWN ----------

[...]

          k = 0.2500-0.4682 0.0000 ( 27150 PWs)   bands (ev):

[...]

          k =-0.2500 0.2341 0.0000 ( 27132 PWs)   bands (ev):

   -71.2892 -71.2012 -71.1936 -71.1901 -71.1828 -71.1474 -71.1091 -71.1002
   -42.8522 -42.8417 -42.8180 -42.7248 -42.7141 -42.6825 -42.5984 -42.5787
   -42.5742 -42.5692 -42.5535 -42.5504 -42.5323 -42.5176 -42.5097 -42.4919
   -42.4774 -42.4649 -42.4500 -42.4401 -42.4004 -42.3886 -42.3302 -42.3215
   -25.7439 -20.3932 -20.0705 -19.7863 -19.7428 -19.5346 -19.4383 -19.4031
   -19.3765 -19.2028 -19.1457 -19.1207 -19.0389 -18.9993 -18.8616 -18.8168
   -18.7718 -18.6925 -18.6686 -18.0937 -10.0371  -8.3208  -7.6293  -7.6206
    -7.4966  -7.2071  -7.0260  -6.9069  -6.6487  -6.5157  -6.4225  -6.2525
    -6.1940  -6.0203  -5.9701  -5.9271  -5.8795  -5.8426  -5.6988  -5.6377
    -5.3799  -5.3356  -5.2435  -5.1685  -5.0135  -4.9509  -4.8972  -4.8475
    -4.7146  -4.6303  -4.5633  -4.5426  -4.4948  -4.4572  -4.3683  -4.3131
    -4.2230  -4.2066  -4.1266  -4.0847  -3.8565  -3.7629  -3.7005  -3.5834
    -3.5320  -3.4502  -3.3806  -3.3468  -3.3055  -3.2615  -3.2254  -3.1685
    -3.0923  -3.0569  -2.9593  -2.8625  -2.7391  -2.7158  -2.5809   2.6489
     2.8910   3.3010   3.3472   3.3897   3.4246   3.4652   3.5011   3.5365
     3.5790   3.6172   3.6380   3.6586   3.7356   3.7721   3.8551   3.9214
     3.9515   3.9903   4.0295   4.0925   4.1161   4.1644   4.2123   4.2669
     4.3047   4.4034   4.4293   4.4558   4.4956   4.5421   4.5482   4.5975
     4.6423   4.6651   4.7027   4.7508   4.8908   4.9275   4.9741   4.9947
     5.0840   5.1814   5.2466   5.3103   5.3630   5.5313   5.7141   6.1221
     6.2172   6.3668   6.4868   6.5702   6.8241   6.9618   7.1530   7.4178
     7.6094   7.7641   7.9387   8.1576   8.2141   8.3184   8.4430   8.6315
     8.6934   8.9574   9.0704   9.2439   9.3489   9.5108   9.5513   9.6996
     9.8402   9.9058  10.0138  10.0406  10.1399  10.2710  10.4088  10.4751
    10.5734  10.6430  10.7713  10.8741  11.0156  11.1071  11.2282  11.3266
    11.3792  11.4846  11.5872  11.7444  11.8068  11.9226  12.0113  12.0491
    12.1109  12.2247  12.2777  12.3526  12.4246  12.5299  12.6356  12.7044
    12.7688  12.8229  12.9745  13.0181  13.1638  13.2333  13.2977  13.3612
    13.4233  13.4744  13.5204  13.6582  13.7325  13.8595  13.9136  13.9675
    14.0613  14.1290  14.2187  14.2827  14.3651  14.3935  14.4905  14.5998
    14.6378  14.8234  14.9060  14.9274  15.0322  15.0835  15.1345  15.1855
    15.2914  15.3590  15.4504  15.5503  15.6668  15.7241  15.7949  15.8354
    15.8814  15.9559  16.0278  16.1102  16.1338  16.2480  16.2760  16.3733
    16.4166  16.4957  16.5691  16.6423  16.6915  16.7443  16.8939  16.9494
    17.0104  17.1083  17.2084  17.2332  17.2842  17.3434  17.4335  17.4672
    17.5007  17.5436  17.6400  17.7424  17.8015  17.8611  17.9551  18.0188
    18.0763  18.1395  18.1871  18.2906  18.3855  18.4442  18.4696  18.5506
    18.6087  18.7229  18.7970  18.8697  18.9249  18.9935  19.0453  19.0967
    19.1504  19.2512  19.3512  19.3987  19.4642  19.5119  19.5558  19.6615
    19.7434  19.8260  19.8785  19.9084  20.0717  20.1968  20.2404  20.3034
    20.3595  20.3815  20.4971  20.5931  20.6744  20.8249  20.8906  20.9208
    21.0214  21.1044  21.2262  21.2452  21.3385  21.4196  21.4499  21.4814
    21.6280  21.6963  21.7555  21.8828  21.9244  21.9880  22.0224

     the spin up/dw Fermi energies are    -1.5050   -1.7216 ev

!    total energy              =   -2056.03068859 Ry
     Harris-Foulkes estimate   =   -2056.03068860 Ry
     estimated scf accuracy    <          6.4E-09 Ry

     The total energy is the sum of the following terms:

     one-electron contribution =  -23967.91033682 Ry
     hartree contribution      =   12013.41628405 Ry
     xc contribution           =    -330.52087986 Ry
     ewald contribution        =   10226.48012493 Ry
     Hubbard energy            =       2.50422577 Ry
     smearing contrib. (-TS)   =      -0.00010666 Ry

     total magnetization       =    15.00 Bohr mag/cell
     absolute magnetization    =    31.98 Bohr mag/cell

     convergence has been achieved in  27 iterations

     Forces acting on atoms (Ry/au):

     negative rho (up, down):  0.550E-02 0.165E-02
     atom    1 type  1   force =    -0.00389666   -0.01075186   -0.00053359
     atom    2 type  1   force =    -0.00003337    0.00377901    0.00005725
     atom    3 type  2   force =     0.01826838    0.00211964    0.00023827
     atom    4 type  2   force =     0.00370476    0.00554382    0.00018204
     atom    5 type  1   force =     0.00064102    0.00591728    0.00034988
     atom    6 type  1   force =     0.00001444   -0.00425882    0.00029343
     atom    7 type  1   force =     0.00010385   -0.00356283    0.00022417
     atom    8 type  1   force =    -0.00069356    0.00104209    0.00014952
     atom    9 type  2   force =    -0.00044098    0.00101521   -0.00090056
     atom   10 type  2   force =     0.00034931   -0.00283382    0.00008985
     atom   11 type  1   force =    -0.02387926   -0.02690398   -0.00077949
     atom   12 type  1   force =    -0.02065717    0.03296388   -0.00017726
     atom   13 type  1   force =    -0.00070608   -0.00135944   -0.00003980
     atom   14 type  1   force =    -0.00448015   -0.01116823   -0.00048369
     atom   15 type  1   force =     0.00001855    0.00437900    0.00012743
     atom   16 type  2   force =    -0.01847889    0.00230754    0.00023919
     atom   17 type  2   force =     0.00386437    0.00554575    0.00025719
     atom   18 type  1   force =     0.00117671    0.00587864    0.00034175
     atom   19 type  1   force =     0.00046261   -0.00434641    0.00031695
     atom   20 type  1   force =    -0.00029404   -0.00524579    0.00078674
     atom   21 type  1   force =    -0.00142862    0.00086231   -0.00007962
     atom   22 type  2   force =     0.00152973    0.00050342    0.00054300
     atom   23 type  2   force =    -0.00014619   -0.00349007   -0.00059195
     atom   24 type  1   force =     0.02331643   -0.02649123    0.00001107
     atom   25 type  1   force =     0.02082613    0.03262946    0.00049488
     atom   26 type  1   force =     0.00019432   -0.00499792   -0.00010242
     atom   27 type  3   force =    -0.00000487   -0.00002014    0.00006512
     atom   28 type  3   force =     0.00000944   -0.00007336    0.00004943
     atom   29 type  3   force =     0.00030987    0.00019018    0.00003575
     atom   30 type  3   force =     0.00024250    0.00018865    0.00004036
     atom   31 type  1   force =     0.00006579   -0.00005293   -0.00041581
     atom   32 type  1   force =     0.00008172   -0.00004102   -0.00024433
     atom   33 type  3   force =    -0.00004009    0.00073195   -0.00054474

     Total force =     0.002355     Total SCF correction =     0.000231

     bfgs converged in  15 scf cycles and  14 bfgs steps
     (criteria: energy < 0.10E-03, force < 0.10E-02)

     End of BFGS Geometry Optimization

     Final energy   =   -2056.0306885925 Ry
Begin final coordinates

ATOMIC_POSITIONS (crystal)
O0       0.000000000   0.000000000   0.373628069    0   0   1
O0       0.000000000   0.500000000   0.395193725    0   0   1
Cr1      0.250000000   0.500000000   0.447859793    0   0   1
Cr1      0.000000000   0.000000000   0.448676645    0   0   1
O0       0.250000000   0.800000000   0.447922065    0   0   1
O0       0.250000000   0.200000000   0.447971002    0   0   1
O0       0.000000000   0.500000000   0.496999228    0   0   1
O0       0.000000000   0.000000000   0.525033941    0   0   1
Cr1      0.250000000   0.000000000   0.576549648    0   0   1
Cr1      0.000000000   0.500000000   0.567861684    0   0   1
O0       0.250000000   0.700000000   0.577058477    0   0   1
O0       0.250000000   0.300000000   0.578174659    0   0   1
O0       0.000000000   0.000000000   0.624971533    0   0   1
O0       0.500000000   0.000000000   0.373367372    0   0   1
O0       0.500000000   0.500000000   0.395266577    0   0   1
Cr1      0.750000000   0.500000000   0.447859060    0   0   1
Cr1      0.500000000   0.000000000   0.448468812    0   0   1
O0       0.750000000   0.800000000   0.447940143    0   0   1
O0       0.750000000   0.200000000   0.447967104    0   0   1
O0       0.500000000   0.500000000   0.499149569    0   0   1
O0       0.500000000   0.000000000   0.525005442    0   0   1
Cr1      0.750000000   0.000000000   0.576390025    0   0   1
Cr1      0.500000000   0.500000000   0.576301112    0   0   1
O0       0.750000000   0.700000000   0.576849875    0   0   1
O0       0.750000000   0.300000000   0.578006899    0   0   1
O0       0.500000000   0.000000000   0.624661012    0   0   1
H2      -0.000758421   0.637394243   0.375999294
H2       0.499318660   0.638101810   0.376327117
H2       0.159523489   0.025616745   0.361304166
H2       0.659377133   0.026159131   0.361067795
O0       0.499860000   0.553559054   0.655553106    0   1   1
O0       0.500220000   0.369839339   0.685166423    0   1   1
H2       0.499890000   0.430689339   0.720198625    0   1   1
End final coordinates

     General routines

     Parallel routines
     Hubbard U routines

   This run was terminated on:  17:41: 3  14Aug2014

   JOB DONE.
mv: inter-device move failed: `/scratch/1087940.gilgamesh.cheme.cmu.edu/pwscf.save' to `./pwscf.save'; unable to remove target: Is a directory