     Program PWSCF v.5.0.2 (svn rev. 9656) starts on  2Jun2014 at  4:36: 2

     Current dimensions of program PWSCF are:
     Max number of different atomic species (ntypx) = 10
     Max number of k-points (npk) =  40000
     Max angular momentum in pseudopotentials (lmaxx) =  3
     Reading input from pwscf.in
Warning: card &CELL ignored
Warning: card / ignored

     Subspace diagonalization in iterative solution of the eigenvalue problem:
     a serial algorithm will be used

     bravais-lattice index     =            0
     lattice parameter (alat)  =      10.1289  a.u.
     unit-cell volume          =    6836.7721 (a.u.)^3
     number of atoms/cell      =           33
     number of atomic types    =            3
     number of electrons       =       245.00
     number of Kohn-Sham states=          367
     kinetic-energy cutoff     =      40.0000  Ry
     charge density cutoff     =     500.0000  Ry
     convergence threshold     =      1.0E-06
     mixing beta               =       0.7000
     number of iterations used =            8  plain     mixing
     Exchange-correlation      = SLA  PW   PBE  PBE ( 1 4 3 4 0)
     EXX-fraction              =        0.00
     nstep                     =           50

     celldm(1)=  10.128932  celldm(2)=   0.000000  celldm(3)=   0.000000
     celldm(4)=   0.000000  celldm(5)=   0.000000  celldm(6)=   0.000000

     crystal axes: (cart. coord. in units of alat)
               a(1) = (   1.000000   0.000000   0.000000 )
               a(2) = (   0.000000   1.306037   0.000000 )
               a(3) = (   0.000000   0.000000   5.037380 )

     reciprocal axes: (cart. coord. in units 2 pi/alat)
               b(1) = (  1.000000  0.000000  0.000000 )
               b(2) = (  0.000000  0.765675  0.000000 )
               b(3) = (  0.000000  0.000000  0.198516 )

     PseudoPot. # 1 for O  read from file:
     /home/camp/zhonxu/pseudo/o_pbe_v1.01.uspp.F.UPF
     MD5 check sum: 2bcb18d16ea4b960afae9ec6d52f22d2
     Pseudo is Ultrasoft + core correction, Zval =  6.0
     Generated by new atomic code, or converted to UPF format
     Using radial grid of  737 points,  5 beta functions with:
                l(1) =   0
                l(2) =   0
                l(3) =   1
                l(4) =   1
                l(5) =   2
     Q(r) pseudized with  8 coefficients,  rinner =    0.900   0.900   0.900
                                                       0.900   0.900

     PseudoPot. # 2 for Re read from file:
     /home/camp/zhonxu/pseudo/re_pbe_v1.uspp.F.UPF
     MD5 check sum: 6f5a5dcaf9c96c20d0ffdde0de57afc6
     Pseudo is Ultrasoft + core correction, Zval = 15.0
     Generated by new atomic code, or converted to UPF format
     Using radial grid of  981 points,  8 beta functions with:
                l(1) =   0
                l(2) =   0
                l(3) =   1
                l(4) =   1
                l(5) =   2
                l(6) =   2
                l(7) =   3
                l(8) =   3
     Q(r) pseudized with  8 coefficients,  rinner =    1.000   1.000   1.000
                                                       1.000   1.000   1.000
                                                       1.000

     PseudoPot. # 3 for H  read from file:
     /home/camp/zhonxu/pseudo/h_pbe_v1.uspp.F.UPF
     MD5 check sum: 3408e3ff4ec8b0a4e358431e7e038a48
     Pseudo is Ultrasoft, Zval =  1.0
     Generated by new atomic code, or converted to UPF format
     Using radial grid of  615 points,  2 beta functions with:
                l(1) =   0
                l(2) =   0
     Q(r) pseudized with  8 coefficients,  rinner =    0.700

     atomic species   valence    mass     pseudopotential
        O0             6.00    15.99940     O ( 1.00)
        Re1           15.00   186.20700     Re( 1.00)
        H2             1.00     1.00794     H ( 1.00)

     Simplified LDA+U calculation (l_max = 2) with parameters (eV):
     atomic species    L          U    alpha       J0     beta
        Re1            2     3.0000   0.0000   0.0000   0.0000

     No symmetry found

   Cartesian axes

     site n.     atom                  positions (alat units)
         1           O0  tau(   1) = (   0.0000000   0.0000000   1.8623194  )
         2           O0  tau(   2) = (   0.0000000   0.6530184   1.9253370  )
         3           Re1 tau(   3) = (   0.2500000   0.6530184   2.2271768  )
         4           Re1 tau(   4) = (   0.0000000   0.0000000   2.2287384  )
         5           O0  tau(   5) = (   0.2500000   1.0187087   2.2217869  )
         6           O0  tau(   6) = (   0.2500000   0.2873281   2.2210816  )
         7           O0  tau(   7) = (   0.0000000   0.6530184   2.5071544  )
         8           O0  tau(   8) = (   0.0000000   0.0000000   2.5894652  )
         9           Re1 tau(   9) = (   0.2500000   0.0000000   2.8894412  )
        10           Re1 tau(  10) = (   0.0000000   0.6530184   2.8583102  )
        11           O0  tau(  11) = (   0.2500000   0.9403465   2.8756892  )
        12           O0  tau(  12) = (   0.2500000   0.3656903   2.8872751  )
        13           O0  tau(  13) = (   0.0000000   0.0000000   3.1516368  )
        14           O0  tau(  14) = (   0.5000000   0.0000000   1.8624705  )
        15           O0  tau(  15) = (   0.5000000   0.6530184   1.9269994  )
        16           Re1 tau(  16) = (   0.7500000   0.6530184   2.2271768  )
        17           Re1 tau(  17) = (   0.5000000   0.0000000   2.2274287  )
        18           O0  tau(  18) = (   0.7500000   1.0187087   2.2214342  )
        19           O0  tau(  19) = (   0.7500000   0.2873281   2.2214846  )
        20           O0  tau(  20) = (   0.5000000   0.6530184   2.5086153  )
        21           O0  tau(  21) = (   0.5000000   0.0000000   2.5899690  )
        22           Re1 tau(  22) = (   0.7500000   0.0000000   2.8888367  )
        23           Re1 tau(  23) = (   0.5000000   0.6530184   2.9018835  )
        24           O0  tau(  24) = (   0.7500000   0.9403465   2.8756892  )
        25           O0  tau(  25) = (   0.7500000   0.3656903   2.8872248  )
        26           O0  tau(  26) = (   0.5000000   0.0000000   3.1466498  )
        27           H2  tau(  27) = (  -0.0002100   0.8169913   1.8417165  )
        28           H2  tau(  28) = (   0.4996400   0.8147057   1.8388956  )
        29           H2  tau(  29) = (   0.1678400   0.0328729   1.7887233  )
        30           H2  tau(  30) = (   0.6697500   0.0291246   1.7904864  )
        31           O0  tau(  31) = (   0.4996300   0.6876806   3.2307741  )
        32           O0  tau(  32) = (   0.5002900   0.4188329   3.4291461  )
        33           H2  tau(  33) = (   0.4999500   0.5176477   3.5843478  )

     number of k points=    10  Methfessel-Paxton smearing, width (Ry)=  0.0100
                       cart. coord. in units 2pi/alat
        k(    1) = (   0.0000000   0.0000000   0.0000000), wk =   0.1250000
        k(    2) = (   0.0000000   0.1914188   0.0000000), wk =   0.2500000
        k(    3) = (   0.0000000  -0.3828376   0.0000000), wk =   0.1250000
        k(    4) = (   0.2500000   0.0000000   0.0000000), wk =   0.2500000
        k(    5) = (   0.2500000   0.1914188   0.0000000), wk =   0.2500000
        k(    6) = (   0.2500000  -0.3828376   0.0000000), wk =   0.2500000
        k(    7) = (  -0.5000000   0.0000000   0.0000000), wk =   0.1250000
        k(    8) = (  -0.5000000   0.1914188   0.0000000), wk =   0.2500000
        k(    9) = (  -0.5000000  -0.3828376   0.0000000), wk =   0.1250000
        k(   10) = (  -0.2500000   0.1914188   0.0000000), wk =   0.2500000

     Largest allocated arrays     est. size (Mb)     dimensions
     Largest temporary arrays     est. size (Mb)     dimensions

     Check: negative/imaginary core charge=   -0.000003    0.000000

     Initial potential from superposition of free atoms
     Check: negative starting charge=   -0.236968

     starting charge  240.99957, renormalised to  245.00000

     negative rho (up, down):  0.241E+00 0.000E+00
     Number of +U iterations with fixed ns =  0
     Starting occupations:
 --- enter write_ns ---
 LDA+U parameters:
U( 2)     =  3.00000000
alpha( 2) =  0.00000000
atom    3   Tr[ns(na)] =   5.00000
    eigenvalues:
  0.500  0.500  0.500  0.500  0.500
    eigenvectors:
  1.000  0.000  0.000  0.000  0.000
  0.000  1.000  0.000  0.000  0.000
  0.000  0.000  1.000  0.000  0.000
  0.000  0.000  0.000  1.000  0.000
  0.000  0.000  0.000  0.000  1.000
    occupations:
  0.500  0.000  0.000  0.000  0.000
  0.000  0.500  0.000  0.000  0.000
  0.000  0.000  0.500  0.000  0.000
  0.000  0.000  0.000  0.500  0.000
  0.000  0.000  0.000  0.000  0.500
atom    4   Tr[ns(na)] =   5.00000
    eigenvalues:
  0.500  0.500  0.500  0.500  0.500
    eigenvectors:
  1.000  0.000  0.000  0.000  0.000
  0.000  1.000  0.000  0.000  0.000
  0.000  0.000  1.000  0.000  0.000
  0.000  0.000  0.000  1.000  0.000
  0.000  0.000  0.000  0.000  1.000
    occupations:
  0.500  0.000  0.000  0.000  0.000
  0.000  0.500  0.000  0.000  0.000
  0.000  0.000  0.500  0.000  0.000
  0.000  0.000  0.000  0.500  0.000
  0.000  0.000  0.000  0.000  0.500
atom    9   Tr[ns(na)] =   5.00000
    eigenvalues:
  0.500  0.500  0.500  0.500  0.500
    eigenvectors:
  1.000  0.000  0.000  0.000  0.000
  0.000  1.000  0.000  0.000  0.000
  0.000  0.000  1.000  0.000  0.000
  0.000  0.000  0.000  1.000  0.000
  0.000  0.000  0.000  0.000  1.000
    occupations:
  0.500  0.000  0.000  0.000  0.000
  0.000  0.500  0.000  0.000  0.000
  0.000  0.000  0.500  0.000  0.000
  0.000  0.000  0.000  0.500  0.000
  0.000  0.000  0.000  0.000  0.500
atom   10   Tr[ns(na)] =   5.00000
    eigenvalues:
  0.500  0.500  0.500  0.500  0.500
    eigenvectors:
  1.000  0.000  0.000  0.000  0.000
  0.000  1.000  0.000  0.000  0.000
  0.000  0.000  1.000  0.000  0.000
  0.000  0.000  0.000  1.000  0.000
  0.000  0.000  0.000  0.000  1.000
    occupations:
  0.500  0.000  0.000  0.000  0.000
  0.000  0.500  0.000  0.000  0.000
  0.000  0.000  0.500  0.000  0.000
  0.000  0.000  0.000  0.500  0.000
  0.000  0.000  0.000  0.000  0.500
atom   16   Tr[ns(na)] =   5.00000
    eigenvalues:
  0.500  0.500  0.500  0.500  0.500
    eigenvectors:
  1.000  0.000  0.000  0.000  0.000
  0.000  1.000  0.000  0.000  0.000
  0.000  0.000  1.000  0.000  0.000
  0.000  0.000  0.000  1.000  0.000
  0.000  0.000  0.000  0.000  1.000
    occupations:
  0.500  0.000  0.000  0.000  0.000
  0.000  0.500  0.000  0.000  0.000
  0.000  0.000  0.500  0.000  0.000
  0.000  0.000  0.000  0.500  0.000
  0.000  0.000  0.000  0.000  0.500
atom   17   Tr[ns(na)] =   5.00000
    eigenvalues:
  0.500  0.500  0.500  0.500  0.500
    eigenvectors:
  1.000  0.000  0.000  0.000  0.000
  0.000  1.000  0.000  0.000  0.000
  0.000  0.000  1.000  0.000  0.000
  0.000  0.000  0.000  1.000  0.000
  0.000  0.000  0.000  0.000  1.000
    occupations:
  0.500  0.000  0.000  0.000  0.000
  0.000  0.500  0.000  0.000  0.000
  0.000  0.000  0.500  0.000  0.000
  0.000  0.000  0.000  0.500  0.000
  0.000  0.000  0.000  0.000  0.500
atom   22   Tr[ns(na)] =   5.00000
    eigenvalues:
  0.500  0.500  0.500  0.500  0.500
[...]
  0.000  0.006  0.051  0.931  0.012
    occupations:
  0.706  0.002 -0.001 -0.064  0.002
  0.002  0.609 -0.001 -0.001  0.000
 -0.001 -0.001  0.617 -0.001 -0.025
 -0.064 -0.001 -0.001  0.633 -0.002
  0.002  0.000 -0.025 -0.002  0.711
atom   10   Tr[ns(na)] =   6.53704
    eigenvalues:
  0.479  0.540  0.656  0.745  0.848
    eigenvectors:
  0.999  0.000  0.000  0.001  0.000
  0.000  0.000  0.000  0.000  1.000
  0.000  0.000  0.994  0.006  0.000
  0.001  0.000  0.006  0.993  0.000
  0.000  1.000  0.000  0.000  0.000
    occupations:
  0.479  0.000 -0.002 -0.008  0.000
  0.000  0.848  0.002 -0.000 -0.003
 -0.002  0.002  0.656  0.007 -0.000
 -0.008 -0.000  0.007  0.744 -0.000
  0.000 -0.003 -0.000 -0.000  0.540
atom   16   Tr[ns(na)] =   6.56807
    eigenvalues:
  0.544  0.572  0.596  0.770  0.803
    eigenvectors:
  0.006  0.335  0.000  0.657  0.002
  0.989  0.009  0.001  0.001  0.001
  0.001  0.004  0.975  0.005  0.015
  0.003  0.652  0.009  0.334  0.001
  0.001  0.000  0.014  0.004  0.981
    occupations:
  0.702  0.007  0.012 -0.093  0.000
  0.007  0.545 -0.000 -0.002 -0.007
  0.012 -0.000  0.600 -0.006 -0.025
 -0.093 -0.002 -0.006  0.638  0.000
  0.000 -0.007 -0.025  0.000  0.799
atom   17   Tr[ns(na)] =   6.55013
    eigenvalues:
  0.568  0.605  0.609  0.714  0.779
    eigenvectors:
  0.000  0.986  0.002  0.001  0.011
  0.000  0.000  0.005  0.994  0.000
  0.000  0.002  0.993  0.005  0.000
  0.000  0.011  0.000  0.000  0.989
  1.000  0.000  0.000  0.000  0.000
    occupations:
  0.607  0.003  0.000 -0.018  0.001
  0.003  0.713  0.008 -0.000 -0.001
  0.000  0.008  0.610  0.001 -0.000
 -0.018 -0.000  0.001  0.777 -0.000
  0.001 -0.001 -0.000 -0.000  0.568
atom   22   Tr[ns(na)] =   6.55350
    eigenvalues:
  0.595  0.607  0.609  0.717  0.748
    eigenvectors:
  0.253  0.001  0.001  0.008  0.737
  0.000  0.806  0.194  0.000  0.000
  0.009  0.181  0.753  0.057  0.001
  0.738  0.002  0.005  0.003  0.253
  0.000  0.010  0.046  0.933  0.010
    occupations:
  0.709 -0.001  0.000 -0.066  0.003
 -0.001  0.607  0.001  0.001  0.000
  0.000  0.001  0.615 -0.001  0.025
 -0.066  0.001 -0.001  0.634 -0.001
  0.003  0.000  0.025 -0.001  0.712
atom   23   Tr[ns(na)] =   6.60224
    eigenvalues:
  0.552  0.570  0.599  0.779  0.802
    eigenvectors:
  0.000  0.000  0.967  0.019  0.014
  0.053  0.947  0.000  0.000  0.000
  0.000  0.000  0.003  0.159  0.838
  0.000  0.000  0.030  0.822  0.148
  0.947  0.053  0.000  0.000  0.000
    occupations:
  0.605  0.000 -0.012 -0.032 -0.000
  0.000  0.569 -0.004 -0.001 -0.004
 -0.012 -0.004  0.797  0.006  0.000
 -0.032 -0.001  0.006  0.777  0.000
 -0.000 -0.004  0.000  0.000  0.553
N of occupied +U levels =  52.4840742
 --- exit write_ns ---

[...]

     total energy              =   -2206.64955780 Ry
     Harris-Foulkes estimate   =   -2206.64955780 Ry
     estimated scf accuracy    <       0.00000002 Ry

     iteration # 17     ecut=    40.00 Ry     beta=0.70
     Davidson diagonalization with overlap
     ethr =  5.68E-12,  avg # of iterations =  1.0

     negative rho (up, down):  0.243E+00 0.000E+00

     End of self-consistent calculation
 --- enter write_ns ---
 LDA+U parameters:
U( 2)     =  3.00000000
alpha( 2) =  0.00000000
atom    3   Tr[ns(na)] =   6.56595
    eigenvalues:
  0.544  0.572  0.595  0.770  0.803
    eigenvectors:
  0.006  0.335  0.001  0.657  0.002
  0.989  0.009  0.001  0.001  0.001
  0.001  0.003  0.975  0.005  0.017
  0.003  0.653  0.009  0.334  0.001
  0.001  0.000  0.016  0.004  0.980
    occupations:
  0.702 -0.007  0.012 -0.093 -0.000
 -0.007  0.545 -0.000  0.002 -0.007
  0.012 -0.000  0.599 -0.007  0.026
 -0.093  0.002 -0.007  0.638 -0.000
 -0.000 -0.007  0.026 -0.000  0.799
atom    4   Tr[ns(na)] =   6.55172
    eigenvalues:
  0.568  0.607  0.622  0.698  0.781
    eigenvectors:
  0.000  0.984  0.000  0.001  0.014
  0.000  0.001  0.013  0.985  0.000
  0.000  0.000  0.987  0.013  0.000
  0.000  0.014  0.000  0.000  0.986
  1.000  0.000  0.000  0.000  0.000
    occupations:
  0.610  0.003  0.000 -0.020  0.001
  0.003  0.697  0.009 -0.000 -0.002
  0.000  0.009  0.623  0.000 -0.000
 -0.020 -0.000  0.000  0.778 -0.000
  0.001 -0.002 -0.000 -0.000  0.568
atom    9   Tr[ns(na)] =   6.55031
    eigenvalues:
  0.596  0.609  0.610  0.716  0.743
    eigenvectors:
  0.251  0.000  0.002  0.010  0.738
  0.000  0.876  0.124  0.000  0.000
  0.006  0.117  0.819  0.056  0.001
  0.742  0.000  0.006  0.003  0.250
  0.001  0.007  0.050  0.931  0.012
    occupations:
  0.706  0.002 -0.001 -0.064  0.002
  0.002  0.609 -0.001 -0.001  0.000
 -0.001 -0.001  0.616 -0.001 -0.025
 -0.064 -0.001 -0.001  0.633 -0.002
  0.002  0.000 -0.025 -0.002  0.711
atom   10   Tr[ns(na)] =   6.53539
    eigenvalues:
  0.479  0.540  0.656  0.745  0.848
    eigenvectors:
  0.999  0.000  0.000  0.001  0.000
  0.000  0.000  0.000  0.000  1.000
  0.000  0.000  0.994  0.006  0.000
  0.001  0.000  0.006  0.993  0.000
  0.000  1.000  0.000  0.000  0.000
    occupations:
  0.479  0.000 -0.002 -0.009  0.000
  0.000  0.848  0.002 -0.000 -0.003
 -0.002  0.002  0.656  0.007 -0.000
 -0.009 -0.000  0.007  0.744 -0.000
  0.000 -0.003 -0.000 -0.000  0.540
atom   16   Tr[ns(na)] =   6.56596
    eigenvalues:
  0.544  0.572  0.595  0.770  0.802
    eigenvectors:
  0.006  0.335  0.000  0.657  0.002
  0.989  0.009  0.001  0.001  0.001
  0.001  0.004  0.975  0.005  0.015
  0.003  0.652  0.009  0.334  0.001
  0.001  0.000  0.014  0.004  0.981
    occupations:
  0.702  0.007  0.012 -0.093  0.000
  0.007  0.545 -0.000 -0.002 -0.007
  0.012 -0.000  0.599 -0.006 -0.025
 -0.093 -0.002 -0.006  0.638  0.000
  0.000 -0.007 -0.025  0.000  0.799
atom   17   Tr[ns(na)] =   6.54910
    eigenvalues:
  0.568  0.605  0.609  0.714  0.779
    eigenvectors:
  0.000  0.986  0.002  0.001  0.011
  0.000  0.000  0.005  0.994  0.000
  0.000  0.002  0.993  0.005  0.000
  0.000  0.011  0.000  0.000  0.989
  1.000  0.000  0.000  0.000  0.000
    occupations:
  0.607  0.003  0.000 -0.018  0.001
  0.003  0.713  0.008 -0.000 -0.001
  0.000  0.008  0.610  0.001 -0.000
 -0.018 -0.000  0.001  0.777 -0.000
  0.001 -0.001 -0.000 -0.000  0.568
atom   22   Tr[ns(na)] =   6.55287
    eigenvalues:
  0.595  0.607  0.609  0.718  0.748
    eigenvectors:
  0.252  0.001  0.001  0.008  0.737
  0.000  0.797  0.202  0.000  0.000
  0.009  0.189  0.745  0.057  0.001
  0.738  0.002  0.005  0.003  0.252
  0.000  0.011  0.046  0.933  0.010
    occupations:
  0.709 -0.001  0.000 -0.066  0.003
 -0.001  0.607  0.001  0.001  0.000
  0.000  0.001  0.615 -0.002  0.025
 -0.066  0.001 -0.002  0.634 -0.001
  0.003  0.000  0.025 -0.001  0.712
atom   23   Tr[ns(na)] =   6.59866
    eigenvalues:
  0.552  0.568  0.598  0.779  0.802
    eigenvectors:
  0.000  0.000  0.967  0.020  0.014
  0.059  0.941  0.000  0.000  0.000
  0.000  0.000  0.003  0.153  0.844
  0.000  0.000  0.031  0.828  0.142
  0.941  0.059  0.000  0.000  0.000
    occupations:
  0.605  0.000 -0.012 -0.032 -0.000
  0.000  0.568 -0.004 -0.001 -0.004
 -0.012 -0.004  0.798  0.006  0.000
 -0.032 -0.001  0.006  0.776  0.000
 -0.000 -0.004  0.000  0.000  0.553
N of occupied +U levels =  52.4699688
 --- exit write_ns ---

[...]

          k = 0.2500-0.3828 0.0000 ( 29202 PWs)   bands (ev):

[...]

          k =-0.2500 0.1914 0.0000 ( 29229 PWs)   bands (ev):

   -81.0932 -81.0528 -80.9028 -80.8554 -80.6816 -80.5890 -80.5503 -80.4165
   -43.2020 -43.0846 -43.0363 -43.0023 -42.9730 -42.9499 -42.8948 -42.8879
   -42.8205 -42.7413 -42.6840 -42.6564 -42.6449 -42.5988 -42.5833 -42.5585
   -42.5189 -42.4583 -42.4485 -42.4293 -42.3726 -42.2851 -42.0910 -41.9918
   -20.6065 -20.4709 -20.2063 -20.1567 -19.9970 -19.8650 -19.7383 -19.6662
   -19.6018 -19.5170 -19.3834 -19.2684 -19.1340 -19.0307 -18.9915 -18.8651
   -18.8512 -18.2612 -18.0270 -16.9421  -8.8065  -8.6471  -8.5712  -8.5624
    -8.4843  -8.1879  -8.1589  -8.1297  -7.7915  -7.7162  -7.6547  -7.5168
    -7.3517  -7.3095  -7.1064  -6.9887  -6.7518  -6.6743  -6.5268  -6.4222
    -6.3927  -6.2421  -6.0366  -5.9515  -5.7781  -5.6690  -5.5997  -5.4639
    -5.3919  -5.2805  -5.1547  -5.0873  -4.8853  -4.8290  -4.7702  -4.6722
    -4.5962  -4.5625  -4.5113  -4.4159  -4.3390  -4.2035  -4.0967  -3.9082
    -3.7770  -3.6729  -3.6461  -3.5783  -3.5262  -3.3454  -3.2550  -3.1572
    -3.1381  -2.9689  -2.8787  -2.6862  -2.6215  -2.5001  -2.1520  -1.9153
    -1.7874  -1.3632  -1.0427  -0.8801  -0.8237  -0.5604  -0.0875   0.0799
     0.2782   0.4825   0.6591   0.8651   0.9261   0.9800   1.2224   1.3027
     1.4846   1.5815   1.7074   1.8283   1.9214   2.0708   2.2248   2.5102
     2.9181   3.8273   3.8583   4.0154   4.0539   4.2498   4.3792   4.6001
     4.7248   4.7634   4.9801   5.0995   5.1291   5.3223   5.4124   5.8380
     5.9817   6.0183   6.2423   6.4215   6.6093   6.6861   6.7636   6.9126
     7.1139   7.2269   7.4363   7.5758   7.7760   7.8267   8.0270   8.1637
     8.3345   8.5024   8.6492   8.6975   8.7678   8.8379   9.0760   9.1501
     9.2377   9.4407   9.5335   9.6591   9.7713   9.8574   9.9188   9.9916
    10.0405  10.0867  10.1755  10.2822  10.3997  10.4756  10.5775  10.6093
    10.6254  10.7254  10.9414  11.0330  11.1648  11.2097  11.4288  11.5001
    11.5606  11.6295  11.7659  11.8270  12.0167  12.0637  12.2717  12.3761
    12.5124  12.5795  12.6353  12.6811  12.7363  12.8008  12.9014  12.9451
    13.0478  13.1253  13.2225  13.2776  13.4148  13.5289  13.6056  13.7096
    13.7388  13.8403  13.9093  13.9554  14.0168  14.0950  14.1592  14.2240
    14.3285  14.3758  14.4405  14.4682  14.5283  14.6302  14.6562  14.7495
    14.7848  14.8306  14.9047  14.9675  15.0264  15.0592  15.1170  15.1834
    15.2616  15.3780  15.4235  15.4639  15.6177  15.6897  15.7522  15.8900
    15.9944  16.0997  16.1545  16.2249  16.3254  16.3671  16.4429  16.4964
    16.5813  16.7019  16.7730  16.8373  16.9039  17.0008  17.0514  17.1779
    17.2308  17.3042  17.3601  17.3891  17.4753  17.5478  17.6190  17.7088
    17.7988  17.8222  17.9061  17.9946  18.0564  18.0982  18.2288  18.3314
    18.3555  18.4329  18.4964  18.5326  18.6326  18.6846  18.7221  18.8129
    18.8522  18.9442  19.0918  19.1062  19.1719  19.2337  19.3627  19.4504
    19.5399  19.5973  19.6737  19.7705  19.8350  19.9386  20.0255  20.1120
    20.1980  20.3078  20.3776  20.4443  20.4828  20.5845  20.6053  20.6885
    20.7569  20.8467  20.8708  20.9129  20.9312  21.0037  21.0945  21.1824
    21.2181  21.2838  21.3229  21.4064  21.5138  21.5765  21.6216  21.7079
    21.7442  21.8184  21.8761  21.9400  22.0103  22.0543  22.1126  22.1934
    22.2614  22.3262  22.3623  22.4108  22.4542  22.5020  22.5541  22.6125
    22.6863  22.7156  22.7764  22.8229  22.8554  22.9173  22.9974  23.0123
    23.1047  23.1368  23.1887  23.2218  23.2872  23.3473  23.3849

     the Fermi energy is     0.5293 ev

!    total energy              =   -2206.64955780 Ry
     Harris-Foulkes estimate   =   -2206.64955780 Ry
     estimated scf accuracy    <          3.3E-09 Ry

     The total energy is the sum of the following terms:

     one-electron contribution =  -24690.16222397 Ry
     hartree contribution      =   12367.08800786 Ry
     xc contribution           =    -602.02188088 Ry
     ewald contribution        =   10716.53611632 Ry
     Hubbard energy            =       1.91086292 Ry
     smearing contrib. (-TS)   =      -0.00044004 Ry

     convergence has been achieved in  17 iterations

     Forces acting on atoms (Ry/au):

     negative rho (up, down):  0.243E+00 0.000E+00
     atom    1 type  1   force =    -0.00434700   -0.00642825    0.00014172
     atom    2 type  1   force =     0.00004548    0.00400587   -0.00037843
     atom    3 type  2   force =     0.01969663   -0.00244862   -0.00013939
     atom    4 type  2   force =     0.00065683    0.00697240   -0.00000660
     atom    5 type  1   force =     0.00292059    0.00461294    0.00023663
     atom    6 type  1   force =     0.00155238   -0.00558598    0.00018872
     atom    7 type  1   force =    -0.00040992   -0.00255316   -0.00044488
     atom    8 type  1   force =     0.00362478    0.00249256   -0.00053756
     atom    9 type  2   force =    -0.03836297   -0.00423371   -0.00002330
     atom   10 type  2   force =    -0.00016152    0.00185478   -0.00039079
     atom   11 type  1   force =    -0.02011588   -0.00138585    0.00024437
     atom   12 type  1   force =    -0.01244916    0.01291324   -0.00063506
     atom   13 type  1   force =    -0.00003926   -0.00419729    0.00033495
     atom   14 type  1   force =    -0.00297850   -0.00580525   -0.00015144
     atom   15 type  1   force =    -0.00001907    0.00398472   -0.00052639
     atom   16 type  2   force =    -0.01937072   -0.00270618   -0.00013426
     atom   17 type  2   force =     0.00183852    0.00708879   -0.00013384
     atom   18 type  1   force =     0.00023136    0.00461527    0.00022640
     atom   19 type  1   force =    -0.00099547   -0.00543256    0.00018555
     atom   20 type  1   force =    -0.00062939    0.00096735    0.00043985
     atom   21 type  1   force =     0.00238666    0.00191708   -0.00018840
     atom   22 type  2   force =     0.03458069   -0.00197103    0.00019326
     atom   23 type  2   force =     0.00087865   -0.00894423    0.00064272
     atom   24 type  1   force =     0.01967187   -0.00293092    0.00029659
     atom   25 type  1   force =     0.01241765    0.01202417   -0.00046790
     atom   26 type  1   force =    -0.00075109   -0.01127862    0.00006408
     atom   27 type  3   force =     0.00000774    0.00035353    0.00013717
     atom   28 type  3   force =     0.00000324    0.00015987   -0.00035842
     atom   29 type  3   force =    -0.00011147   -0.00003318   -0.00015701
     atom   30 type  3   force =     0.00004706    0.00012548   -0.00008408
     atom   31 type  1   force =    -0.00017384    0.00081495    0.00096253
     atom   32 type  1   force =     0.00033154    0.00077105    0.00018042
     atom   33 type  3   force =     0.00002360    0.00026080    0.00028276

     Total force =     0.002402     Total SCF correction =     0.000188

     entering subroutine stress ...

     negative rho (up, down):  0.243E+00 0.000E+00
          total   stress  (Ry/bohr**3)                   (kbar)     P=   -9.83
  -0.00006865  -0.00000021   0.00000226        -10.10     -0.03      0.33
  -0.00000021  -0.00008916  -0.00000693         -0.03    -13.12     -1.02
   0.00000226  -0.00000693  -0.00004262          0.33     -1.02     -6.27

     bfgs converged in  16 scf cycles and  15 bfgs steps
     (criteria: energy < 0.10E-03, force < 0.10E-02)

     End of BFGS Geometry Optimization

     Final energy   =   -2206.6495577969 Ry
Begin final coordinates

ATOMIC_POSITIONS (crystal)
O0       0.000000000   0.000000000   0.370636442    0   0   1
O0       0.000000000   0.500000000   0.382745358    0   0   1
Re1      0.250000000   0.500000000   0.442236571    0   0   1
Re1      0.000000000   0.000000000   0.443046218    0   0   1
O0       0.250000000   0.780000000   0.441473425    0   0   1
O0       0.250000000   0.220000000   0.441264393    0   0   1
O0       0.000000000   0.500000000   0.497764690    0   0   1
O0       0.000000000   0.000000000   0.513963809    0   0   1
Re1      0.250000000   0.000000000   0.573895553    0   0   1
Re1      0.000000000   0.500000000   0.567533898    0   0   1
O0       0.250000000   0.720000000   0.571105377    0   0   1
O0       0.250000000   0.280000000   0.573201623    0   0   1
O0       0.000000000   0.000000000   0.625896024    0   0   1
O0       0.500000000   0.000000000   0.370493431    0   0   1
O0       0.500000000   0.500000000   0.382647084    0   0   1
Re1      0.750000000   0.500000000   0.442229391    0   0   1
Re1      0.500000000   0.000000000   0.442647715    0   0   1
O0       0.750000000   0.780000000   0.441416179    0   0   1
O0       0.750000000   0.220000000   0.441376194    0   0   1
O0       0.500000000   0.500000000   0.497997998    0   0   1
O0       0.500000000   0.000000000   0.514227521    0   0   1
Re1      0.750000000   0.000000000   0.573652487    0   0   1
Re1      0.500000000   0.500000000   0.574723270    0   0   1
O0       0.750000000   0.720000000   0.571026886    0   0   1
O0       0.750000000   0.280000000   0.573148621    0   0   1
O0       0.500000000   0.000000000   0.625004171    0   0   1
H2      -0.000253762   0.623666809   0.365286547
H2       0.499556389   0.624274319   0.365445376
H2       0.168366134   0.024614651   0.356093183
H2       0.670055520   0.021786471   0.356270499
O0       0.499038973   0.525093225   0.641441091
O0       0.501912728   0.333488787   0.676519655
H2       0.499870181   0.402913016   0.708319319
End final coordinates

     General routines

     Parallel routines
     Hubbard U routines

   This run was terminated on:  10:11:16   3Jun2014

   JOB DONE.