     Program PWSCF v.5.0.2 (svn rev. 9656) starts on 11Feb2014 at 20:53: 5

     Current dimensions of program PWSCF are:
     Max number of different atomic species (ntypx) = 10
     Max number of k-points (npk) =  40000
     Max angular momentum in pseudopotentials (lmaxx) =  3
     Reading input from alpha_-0.07/alpha_-0.07.in
Warning: card &IONS ignored
Warning: card / ignored
Warning: card &CELL ignored
Warning: card / ignored

     Subspace diagonalization in iterative solution of the eigenvalue problem:
     a serial algorithm will be used

     bravais-lattice index     =            0
     lattice parameter (alat)  =      17.3477  a.u.
     unit-cell volume          =    3673.7913 (a.u.)^3
     number of atoms/cell      =           48
     number of atomic types    =            3
     number of electrons       =       448.00
     number of Kohn-Sham states=          672
     kinetic-energy cutoff     =      40.0000  Ry
     charge density cutoff     =     500.0000  Ry
     convergence threshold     =      1.0E-06
     mixing beta               =       0.7000
     number of iterations used =            8  plain     mixing
     Exchange-correlation      = SLA  PW   PBE  PBE ( 1 4 3 4 0)
     EXX-fraction              =        0.00

     celldm(1)=  17.347686  celldm(2)=   0.000000  celldm(3)=   0.000000
     celldm(4)=   0.000000  celldm(5)=   0.000000  celldm(6)=   0.000000

     crystal axes: (cart. coord. in units of alat)
               a(1) = (   1.000000   0.000000   0.000000 )
               a(2) = (   0.000000   1.000000   0.000000 )
               a(3) = (   0.000000   0.000000   0.703704 )

     reciprocal axes: (cart. coord. in units 2 pi/alat)
               b(1) = (  1.000000  0.000000  0.000000 )
               b(2) = (  0.000000  1.000000  0.000000 )
               b(3) = (  0.000000  0.000000  1.421053 )

     PseudoPot. # 1 for Pt read from file:
     /home/camp/zhonxu/pseudo/pt_pbe_v1.uspp.F.UPF
     MD5 check sum: 4c71d6ad5ef119f1eb26a4d0b7884226
     Pseudo is Ultrasoft + core correction, Zval = 16.0
     Generated by new atomic code, or converted to UPF format
     Using radial grid of  985 points,  6 beta functions with:
                l(1) =   0
                l(2) =   0
                l(3) =   1
                l(4) =   1
                l(5) =   2
                l(6) =   2
     Q(r) pseudized with  8 coefficients,  rinner =    1.300   1.300   1.300
                                                       1.300   1.300

     PseudoPot. # 2 for Pt read from file:
     /home/camp/zhonxu/pseudo/pt_pbe_v1.uspp.F.UPF
     MD5 check sum: 4c71d6ad5ef119f1eb26a4d0b7884226
     Pseudo is Ultrasoft + core correction, Zval = 16.0
     Generated by new atomic code, or converted to UPF format
     Using radial grid of  985 points,  6 beta functions with:
                l(1) =   0
                l(2) =   0
                l(3) =   1
                l(4) =   1
                l(5) =   2
                l(6) =   2
     Q(r) pseudized with  8 coefficients,  rinner =    1.300   1.300   1.300
                                                       1.300   1.300

     PseudoPot. # 3 for O  read from file:
     /home/camp/zhonxu/pseudo/o_pbe_v1.01.uspp.F.UPF
     MD5 check sum: 2bcb18d16ea4b960afae9ec6d52f22d2
     Pseudo is Ultrasoft + core correction, Zval =  6.0
     Generated by new atomic code, or converted to UPF format
     Using radial grid of  737 points,  5 beta functions with:
                l(1) =   0
                l(2) =   0
                l(3) =   1
                l(4) =   1
                l(5) =   2
     Q(r) pseudized with  8 coefficients,  rinner =    0.900   0.900   0.900
                                                       0.900   0.900

     atomic species   valence    mass     pseudopotential
        Pt0           16.00   195.08000     Pt( 1.00)
        Pt1           16.00   195.08000     Pt( 1.00)
        O2             6.00    15.99940     O ( 1.00)

     Starting magnetic structure
     atomic species   magnetization
        Pt0          0.000
        Pt1          0.000
        O2           0.000

     Simplified LDA+U calculation (l_max = 2) with parameters (eV):
     atomic species    L          U    alpha       J0     beta
        Pt0            2     0.0000  -0.0700   0.0000   0.0000
        Pt1            2     0.0000   0.0000   0.0000   0.0000
        O2             1     0.0000   0.0000   0.0000   0.0000

      8 Sym. Ops., with inversion, found

   Cartesian axes

     site n.     atom                  positions (alat units)
         1           Pt0 tau(   1) = (   0.0000000   0.0000000   0.0000000  )
         2           Pt1 tau(   2) = (   0.2500000   0.2500000   0.1759259  )
         3           Pt1 tau(   3) = (   0.0000000   0.0000000   0.3518519  )
         4           Pt1 tau(   4) = (   0.2500000   0.2500000   0.5277778  )
         5           Pt1 tau(   5) = (   0.0000000   0.5000000   0.0000000  )
         6           Pt1 tau(   6) = (   0.2500000   0.7500000   0.1759259  )
         7           Pt1 tau(   7) = (   0.0000000   0.5000000   0.3518519  )
         8           Pt1 tau(   8) = (   0.2500000   0.7500000   0.5277778  )
         9           Pt1 tau(   9) = (   0.5000000   0.0000000   0.0000000  )
        10           Pt1 tau(  10) = (   0.7500000   0.2500000   0.1759259  )
        11           Pt1 tau(  11) = (   0.5000000   0.0000000   0.3518519  )
        12           Pt1 tau(  12) = (   0.7500000   0.2500000   0.5277778  )
        13           Pt1 tau(  13) = (   0.5000000   0.5000000   0.0000000  )
        14           Pt1 tau(  14) = (   0.7500000   0.7500000   0.1759259  )
        15           Pt1 tau(  15) = (   0.5000000   0.5000000   0.3518519  )
        16           Pt1 tau(  16) = (   0.7500000   0.7500000   0.5277778  )
        17           O2  tau(  17) = (   0.1550000   0.1550000   0.0000000  )
        18           O2  tau(  18) = (  -0.1550000  -0.1550000   0.0000000  )
        19           O2  tau(  19) = (   0.4050000   0.0950000   0.1759259  )
        20           O2  tau(  20) = (   0.0950000   0.4050000   0.1759259  )
        21           O2  tau(  21) = (   0.1550000   0.1550000   0.3518519  )
        22           O2  tau(  22) = (  -0.1550000  -0.1550000   0.3518519  )
        23           O2  tau(  23) = (   0.4050000   0.0950000   0.5277778  )
        24           O2  tau(  24) = (   0.0950000   0.4050000   0.5277778  )
        25           O2  tau(  25) = (   0.1550000   0.6550000   0.0000000  )
        26           O2  tau(  26) = (  -0.1550000   0.3450000   0.0000000  )
        27           O2  tau(  27) = (   0.4050000   0.5950000   0.1759259  )
        28           O2  tau(  28) = (   0.0950000   0.9050000   0.1759259  )
        29           O2  tau(  29) = (   0.1550000   0.6550000   0.3518519  )
        30           O2  tau(  30) = (  -0.1550000   0.3450000   0.3518519  )
        31           O2  tau(  31) = (   0.4050000   0.5950000   0.5277778  )
        32           O2  tau(  32) = (   0.0950000   0.9050000   0.5277778  )
        33           O2  tau(  33) = (   0.6550000   0.1550000   0.0000000  )
        34           O2  tau(  34) = (   0.3450000  -0.1550000   0.0000000  )
        35           O2  tau(  35) = (   0.9050000   0.0950000   0.1759259  )
        36           O2  tau(  36) = (   0.5950000   0.4050000   0.1759259  )
        37           O2  tau(  37) = (   0.6550000   0.1550000   0.3518519  )
        38           O2  tau(  38) = (   0.3450000  -0.1550000   0.3518519  )
        39           O2  tau(  39) = (   0.9050000   0.0950000   0.5277778  )
        40           O2  tau(  40) = (   0.5950000   0.4050000   0.5277778  )
        41           O2  tau(  41) = (   0.6550000   0.6550000   0.0000000  )
        42           O2  tau(  42) = (   0.3450000   0.3450000   0.0000000  )
        43           O2  tau(  43) = (   0.9050000   0.5950000   0.1759259  )
        44           O2  tau(  44) = (   0.5950000   0.9050000   0.1759259  )
        45           O2  tau(  45) = (   0.6550000   0.6550000   0.3518519  )
        46           O2  tau(  46) = (   0.3450000   0.3450000   0.3518519  )
        47           O2  tau(  47) = (   0.9050000   0.5950000   0.5277778  )
        48           O2  tau(  48) = (   0.5950000   0.9050000   0.5277778  )

     number of k points=    42  Methfessel-Paxton smearing, width (Ry)=  0.0100
                       cart. coord. in units 2pi/alat
        k(    1) = (   0.0000000   0.0000000   0.0000000), wk =   0.0156250
        k(    2) = (   0.0000000   0.0000000   0.3552632), wk =   0.0312500
        k(    3) = (   0.0000000   0.0000000  -0.7105263), wk =   0.0156250
        k(    4) = (   0.0000000   0.2500000   0.0000000), wk =   0.0625000
        k(    5) = (   0.0000000   0.2500000   0.3552632), wk =   0.1250000
        k(    6) = (   0.0000000   0.2500000  -0.7105263), wk =   0.0625000
        k(    7) = (   0.0000000  -0.5000000   0.0000000), wk =   0.0312500
        k(    8) = (   0.0000000  -0.5000000   0.3552632), wk =   0.0625000
        k(    9) = (   0.0000000  -0.5000000  -0.7105263), wk =   0.0312500
        k(   10) = (   0.2500000   0.2500000   0.0000000), wk =   0.0312500
        k(   11) = (   0.2500000   0.2500000   0.3552632), wk =   0.0625000
        k(   12) = (   0.2500000   0.2500000  -0.7105263), wk =   0.0312500
        k(   13) = (   0.2500000  -0.5000000   0.0000000), wk =   0.0625000
        k(   14) = (   0.2500000  -0.5000000   0.3552632), wk =   0.1250000
        k(   15) = (   0.2500000  -0.5000000  -0.7105263), wk =   0.0625000
        k(   16) = (  -0.5000000  -0.5000000   0.0000000), wk =   0.0156250
        k(   17) = (  -0.5000000  -0.5000000   0.3552632), wk =   0.0312500
        k(   18) = (  -0.5000000  -0.5000000  -0.7105263), wk =   0.0156250
        k(   19) = (  -0.2500000   0.2500000   0.0000000), wk =   0.0312500
        k(   20) = (  -0.2500000   0.2500000  -0.3552632), wk =   0.0625000
        k(   21) = (  -0.2500000   0.2500000   0.7105263), wk =   0.0312500
        k(   22) = (   0.0000000   0.0000000   0.0000000), wk =   0.0156250
        k(   23) = (   0.0000000   0.0000000   0.3552632), wk =   0.0312500
        k(   24) = (   0.0000000   0.0000000  -0.7105263), wk =   0.0156250
        k(   25) = (   0.0000000   0.2500000   0.0000000), wk =   0.0625000
        k(   26) = (   0.0000000   0.2500000   0.3552632), wk =   0.1250000
        k(   27) = (   0.0000000   0.2500000  -0.7105263), wk =   0.0625000
        k(   28) = (   0.0000000  -0.5000000   0.0000000), wk =   0.0312500
        k(   29) = (   0.0000000  -0.5000000   0.3552632), wk =   0.0625000
        k(   30) = (   0.0000000  -0.5000000  -0.7105263), wk =   0.0312500
        k(   31) = (   0.2500000   0.2500000   0.0000000), wk =   0.0312500
        k(   32) = (   0.2500000   0.2500000   0.3552632), wk =   0.0625000
        k(   33) = (   0.2500000   0.2500000  -0.7105263), wk =   0.0312500
        k(   34) = (   0.2500000  -0.5000000   0.0000000), wk =   0.0625000
        k(   35) = (   0.2500000  -0.5000000   0.3552632), wk =   0.1250000
        k(   36) = (   0.2500000  -0.5000000  -0.7105263), wk =   0.0625000
[...]
    eigenvectors:
  0.000  1.000  0.000
  0.500  0.000  0.500
  0.500  0.000  0.500
    occupations:
  0.848 -0.000  0.000
 -0.000  0.910 -0.064
  0.000 -0.064  0.910
   spin  2
    eigenvalues:
  0.845  0.848  0.974
    eigenvectors:
  0.000  1.000  0.000
  0.500  0.000  0.500
  0.500  0.000  0.500
    occupations:
  0.848 -0.000  0.000
 -0.000  0.910 -0.064
  0.000 -0.064  0.910
atomic mag. moment =    -0.000000
atom   42   Tr[ns(na)] (up, down, total) =   2.66724  2.66724  5.33449
   spin  1
    eigenvalues:
  0.845  0.848  0.974
    eigenvectors:
  0.000  1.000  0.000
  0.500  0.000  0.500
  0.500  0.000  0.500
    occupations:
  0.848 -0.000  0.000
 -0.000  0.910 -0.064
  0.000 -0.064  0.910
   spin  2
    eigenvalues:
  0.845  0.848  0.974
    eigenvectors:
  0.000  1.000  0.000
  0.500  0.000  0.500
  0.500  0.000  0.500
    occupations:
  0.848 -0.000  0.000
 -0.000  0.910 -0.064
  0.000 -0.064  0.910
atomic mag. moment =    -0.000000
atom   43   Tr[ns(na)] (up, down, total) =   2.66725  2.66725  5.33450
   spin  1
    eigenvalues:
  0.845  0.848  0.974
    eigenvectors:
  0.000  1.000  0.000
  0.500  0.000  0.500
  0.500  0.000  0.500
    occupations:
  0.848 -0.000 -0.000
 -0.000  0.910  0.064
 -0.000  0.064  0.910
   spin  2
    eigenvalues:
  0.845  0.848  0.974
    eigenvectors:
  0.000  1.000  0.000
  0.500  0.000  0.500
  0.500  0.000  0.500
    occupations:
  0.848 -0.000 -0.000
 -0.000  0.910  0.064
 -0.000  0.064  0.910
atomic mag. moment =    -0.000000
atom   44   Tr[ns(na)] (up, down, total) =   2.66725  2.66725  5.33450
   spin  1
    eigenvalues:
  0.845  0.848  0.974
    eigenvectors:
  0.000  1.000  0.000
  0.500  0.000  0.500
  0.500  0.000  0.500
    occupations:
  0.848 -0.000 -0.000
 -0.000  0.910  0.064
 -0.000  0.064  0.910
   spin  2
    eigenvalues:
  0.845  0.848  0.974
    eigenvectors:
  0.000  1.000  0.000
  0.500  0.000  0.500
  0.500  0.000  0.500
    occupations:
  0.848 -0.000 -0.000
 -0.000  0.910  0.064
 -0.000  0.064  0.910
atomic mag. moment =    -0.000000
atom   45   Tr[ns(na)] (up, down, total) =   2.66723  2.66723  5.33446
   spin  1
    eigenvalues:
  0.845  0.848  0.974
    eigenvectors:
  0.000  1.000  0.000
  0.500  0.000  0.500
  0.500  0.000  0.500
    occupations:
  0.848 -0.000  0.000
 -0.000  0.910 -0.064
  0.000 -0.064  0.910
   spin  2
    eigenvalues:
  0.845  0.848  0.974
    eigenvectors:
  0.000  1.000  0.000
  0.500  0.000  0.500
  0.500  0.000  0.500
    occupations:
  0.848 -0.000  0.000
 -0.000  0.910 -0.064
  0.000 -0.064  0.910
atomic mag. moment =    -0.000000
atom   46   Tr[ns(na)] (up, down, total) =   2.66723  2.66723  5.33446
   spin  1
    eigenvalues:
  0.845  0.848  0.974
    eigenvectors:
  0.000  1.000  0.000
  0.500  0.000  0.500
  0.500  0.000  0.500
    occupations:
  0.848 -0.000  0.000
 -0.000  0.910 -0.064
  0.000 -0.064  0.910
   spin  2
    eigenvalues:
  0.845  0.848  0.974
    eigenvectors:
  0.000  1.000  0.000
  0.500  0.000  0.500
  0.500  0.000  0.500
    occupations:
  0.848 -0.000  0.000
 -0.000  0.910 -0.064
  0.000 -0.064  0.910
atomic mag. moment =    -0.000000
atom   47   Tr[ns(na)] (up, down, total) =   2.66725  2.66725  5.33450
   spin  1
    eigenvalues:
  0.845  0.848  0.974
    eigenvectors:
  0.000  1.000  0.000
  0.500  0.000  0.500
  0.500  0.000  0.500
    occupations:
  0.848  0.000  0.000
  0.000  0.910  0.064
  0.000  0.064  0.910
   spin  2
    eigenvalues:
  0.845  0.848  0.974
    eigenvectors:
  0.000  1.000  0.000
  0.500  0.000  0.500
  0.500  0.000  0.500
    occupations:
  0.848  0.000  0.000
  0.000  0.910  0.064
  0.000  0.064  0.910
atomic mag. moment =    -0.000000
atom   48   Tr[ns(na)] (up, down, total) =   2.66725  2.66725  5.33450
   spin  1
    eigenvalues:
  0.845  0.848  0.974
    eigenvectors:
  0.000  1.000  0.000
  0.500  0.000  0.500
  0.500  0.000  0.500
    occupations:
  0.848  0.000  0.000
  0.000  0.910  0.064
  0.000  0.064  0.910
   spin  2
    eigenvalues:
  0.845  0.848  0.974
    eigenvectors:
  0.000  1.000  0.000
  0.500  0.000  0.500
  0.500  0.000  0.500
    occupations:
  0.848  0.000  0.000
  0.000  0.910  0.064
  0.000  0.064  0.910
atomic mag. moment =    -0.000000
N of occupied +U levels = 308.8094659
 --- exit write_ns ---

 ------ SPIN UP ------------

          k = 0.0000 0.0000 0.0000 ( 15677 PWs)   bands (ev):

   -41.9301 -41.9299 -41.9298 -41.9298 -41.9297 -41.9296 -41.9294 -41.9149
   -41.8780 -41.8749 -41.8747 -41.8746 -41.8745 -41.8745 -41.8713 -41.8462
   -41.7131 -41.7129 -41.7126 -41.7124 -41.7120 -41.7118 -41.7114 -41.7101
   -41.7087 -41.7085 -41.7084 -41.7084 -41.7081 -41.7080 -41.7078 -41.6687
   -41.6070 -41.6066 -41.6066 -41.6063 -41.6059 -41.6056 -41.6053 -41.6020
   -41.5995 -41.5995 -41.5993 -41.5992 -41.5991 -41.5991 -41.5990 -41.5603
    -7.8187  -7.1808  -7.1788  -7.0853  -7.0851  -7.0849  -7.0848  -6.6888
    -6.5540  -6.5512  -6.5499  -6.5497  -6.5444  -6.5434  -6.4289  -6.4276
    -6.2890  -6.2863  -6.1976  -6.1953  -6.1791  -6.1789  -6.1785  -6.1777
    -6.0434  -6.0408  -6.0406  -6.0397  -5.8638  -5.8637  -5.7420  -5.7419
     3.2681   3.3547   3.3567   3.4250   4.4673   4.4705   4.4715   4.4719
     4.5621   4.5673   4.5678   4.5684   4.6478   4.6508   4.7377   4.7409
     4.7921   4.7925   4.8051   4.8081   4.9034   4.9093   4.9097   4.9099
     5.0541   5.0549   5.0561   5.0564   5.3029   5.3075   5.4128   5.4151
     5.4220   5.6701   5.6705   5.9866   5.9911   6.1685   6.1713   6.1713
     6.1723   6.8724   6.8729   6.8732   6.8738   6.8866   6.8937   6.8940
     6.8942   7.0112   7.0130   7.0354   7.0370   7.3212   7.3218   7.3238
     7.3242   7.4887   7.4929   7.5381   7.5425   7.5425   7.5436   7.5564
     7.5600   7.8566   7.9696   7.9696   7.9700   7.9708   8.0705   8.0707
     8.2522   8.2525   8.3430   8.3466   8.6476   8.6481   8.9656   8.9664
     9.0436   9.0468   9.0489   9.0491   9.0702   9.1658   9.1696   9.1816
     9.1848   9.1920   9.1949   9.3535   9.3839   9.4790   9.4831   9.5406
     9.5449   9.5546   9.5546   9.5618   9.5671   9.5674   9.5676   9.5763
     9.6200   9.6209   9.9648   9.9650   9.9654   9.9656   9.9856   9.9876
     9.9877   9.9881  10.2265  10.2280  10.2280  10.2285  10.2747  10.2748
    10.4655  10.4682  10.4682  10.4692  10.9715  11.1899  11.1908  11.4146
    11.4155  11.5731  11.5738  11.7012  11.7020  11.7024  11.7025  11.8550
    12.0798  12.0813  12.0815  12.0817  12.3032  12.3037  12.3520  12.3527
    12.5684  12.5685  12.5687  12.5687  12.9268  13.5196  13.5205  13.5456
    13.5463  13.6604  13.6617  14.0195  14.0202  14.5127  14.5132  14.8812
    14.8813  14.8814  14.8817  15.0558  15.0561  15.0564  15.0567  15.4958
    15.4959  15.5113  15.5114  15.8680  15.8680  15.8684  15.8686  16.2519
    16.7696  19.3330  19.3334  19.3338  19.3352  20.7980  20.7991  21.1049
    21.1055  21.2852  21.2861  21.3123  21.3137  21.3620  21.3625  22.1046
    22.1048  22.1051  22.1079  22.1278  22.1279  22.1296  22.1296  22.1514
    22.1520  22.1523  22.1524  22.2145  22.2151  23.0233  24.2389  24.2396
    24.3539  24.3544  24.6831  24.6836  25.1668  25.1671  25.2117  25.2119
    25.4748  25.7232  25.7372  25.7374  25.7382  25.7382  25.7579  25.7581
    25.7583  25.7595  26.2563  26.2565  26.2570  26.2571  26.6511  26.6516
    26.7208  26.7221  27.2520  27.2521  27.2521  27.2527  27.2725  27.2729
    27.5323  27.5325  27.5338  27.5342  27.5786  28.0531  28.3261  28.5491
    28.5497  28.8831  28.8835  28.8843  28.8853  29.0966  29.0973  29.8177
    29.8178  29.8180  29.8201  29.8541  29.8558  29.9785  29.9788  30.0549
    30.0577  30.1027  30.1029  30.1036  30.1039  30.3898  30.3908  30.3938
    30.3941  30.3943  30.3944  30.4024  30.4118  30.4209  30.4212  30.4214
    30.4216  30.4222  30.4545  30.7872  30.7902  30.8004  31.0365  31.0370
    31.0372  31.0375  31.7052  31.7058  31.7885  31.7889  32.2833  32.2844
    32.2846  32.2849  32.7946  32.7960  32.9356  32.9360  33.3494  33.3505
    33.8693  33.8701  33.9337  33.9338  34.3425  34.3428  34.3438  34.3439
    34.7983  34.7984  34.8615  34.8627  34.8907  34.8915  34.8915  34.8923
    35.0773  35.0784  35.3349  35.3349  35.5518  36.1784  36.1790  36.1819
    36.1819  36.1834  36.1837  36.2434  36.2437  36.2444  36.2452  36.9240
    36.9250  37.0007  37.0015  37.0015  37.0022  37.2759  37.4689  37.4690
    37.4699  37.4701  37.5242  37.5252  37.5395  37.5399  37.8340  38.0339
    38.0343  38.3533  38.3535  38.3540  38.3541  38.6276  38.6285  38.7320
    38.7327  38.8318  38.8324  38.8324  38.8333  38.9477  38.9485  39.1027
    39.1028  39.1428  39.1645  39.1646  39.1646  39.1649  39.5732  39.6514
    40.1918  40.1919  40.3609  40.3613  40.6115  41.0891  41.0894  41.0896
    41.0904  41.1072  41.1084  41.2908  41.2909  41.2911  41.2922  41.3859
    41.3863  41.8740  41.8750  42.0510  42.1633  42.1634  42.1644  42.1645
[...]
    47.1404  47.2073  47.2445  47.2453  47.6957  47.6972  47.7644  47.7647
    47.7648  47.7650  47.8395  47.8399  48.1801  48.1806  48.3355  48.3357
    48.4827  48.4830  48.4923  48.4930  48.5421  48.5422  48.5437  48.5437
    48.8140  48.8146  49.1242  49.1245  49.1248  49.1273  49.2175  49.2176
    49.3032  49.3036  49.5494  49.5495  49.5501  49.5502  49.6875  50.1035
    50.1043  50.3034  50.3054  50.3768  50.3770  50.4858  50.6069  50.6070
    50.7689  50.7693  50.7696  50.7707  51.1625  51.1625  51.1628  51.1630
    51.2612  51.2616  51.5651  51.5656  51.6239  51.6240  51.6265  51.6267
    51.6271  51.6275  51.9401  52.0655  52.0657  52.1141  52.1141  52.1141
    52.1145  52.2205  52.2205  52.6722  52.6731  52.8764  52.8767  52.8772
    52.8780  53.0181  53.0892  53.0898  53.1322  53.4403  53.4405  53.4614
    53.7652  54.2385  54.2386  54.2634  54.2637  54.2638  54.2641  54.2988
    54.2994  54.3000  54.3001  54.5292  54.5293  54.5306  54.5309  54.8272
    54.8274  54.9599  54.9607  55.3563  55.3570  55.4284  55.4293  55.4297
    55.4305  55.4482  55.4482  55.4484  55.4492  55.5387  55.5392  55.8649

[...]

          k =-0.5000-0.5000 0.0000 ( 15760 PWs)   bands (ev):

[...]

 ------ SPIN DOWN ----------

[...]

          k = 0.2500-0.5000-0.7105 ( 15696 PWs)   bands (ev):

[...]

          k =-0.2500 0.2500 0.7105 ( 15684 PWs)   bands (ev):

   -41.9046 -41.9043 -41.9034 -41.9033 -41.9031 -41.9028 -41.9025 -41.9021
   -41.9018 -41.9015 -41.9015 -41.9014 -41.9010 -41.9001 -41.8997 -41.8604
   -41.7110 -41.7108 -41.7107 -41.7103 -41.7103 -41.7103 -41.7103 -41.7103
   -41.7103 -41.7100 -41.7100 -41.7099 -41.7099 -41.7099 -41.7099 -41.6688
   -41.6031 -41.6031 -41.6030 -41.6029 -41.6029 -41.6028 -41.6028 -41.6028
   -41.6028 -41.6025 -41.6024 -41.6023 -41.6023 -41.6022 -41.6018 -41.5606
    -7.2542  -7.2537  -6.9597  -6.9595  -6.9592  -6.9588  -6.8798  -6.8791
    -6.7174  -6.7161  -6.5380  -6.5380  -6.5376  -6.5374  -6.4573  -6.4548
    -6.2683  -6.2646  -6.2645  -6.2642  -6.1627  -6.1602  -6.1121  -6.1081
    -6.1081  -6.1080  -6.1027  -6.1010  -6.0661  -6.0655  -5.9919  -5.9912
     3.9483   3.9504   3.9634   3.9657   4.2977   4.2992   4.3061   4.3081
     4.3086   4.3086   4.3156   4.3164   4.8713   4.8755   4.8757   4.8758
     5.0041   5.0074   5.1256   5.1273   5.2071   5.2095   5.2155   5.2189
     5.2190   5.2198   5.3847   5.3849   5.3850   5.3862   5.4232   5.4251
     5.6045   5.6127   5.6127   5.6129   5.9453   5.9458   6.1770   6.1772
     6.1773   6.1774   6.1928   6.1934   6.2138   6.2181   6.7037   6.7042
     6.8338   6.8341   6.9318   6.9365   6.9366   6.9367   7.1456   7.1462
     7.1475   7.1476   7.2819   7.2820   7.7537   7.7539   7.7551   7.7557
     7.7674   7.7679   7.7777   7.7794   7.8019   7.8060   7.8317   7.8353
     7.9290   7.9295   7.9311   7.9313   8.1649   8.1662   8.3762   8.3764
     8.4445   8.4456   8.6075   8.6076   8.6967   8.6999   8.7000   8.7004
     9.1642   9.1651   9.2251   9.2262   9.2278   9.2284   9.2869   9.2883
     9.7406   9.7410   9.7689   9.7693  10.2860  10.2937  10.2937  10.2944
    10.2983  10.3000  10.3763  10.3794  10.4621  10.4625  10.4627  10.4628
    10.5054  10.5057  10.6089  10.6089  10.6090  10.6092  10.6885  10.6896
    10.8291  10.8295  10.9697  10.9714  10.9715  10.9719  11.2444  11.2448
    11.6725  11.6732  11.7786  11.7786  11.7788  11.7789  11.8327  11.8336
    11.9019  11.9022  12.0072  12.0077  12.0079  12.0080  12.3451  12.3451
    13.3108  13.3112  13.3112  13.3115  13.3671  13.3674  13.7020  13.7024
    13.7025  13.7033  13.7335  13.7342  13.9217  13.9222  14.2821  14.2826
    14.3647  14.3648  14.3948  14.3949  14.8090  14.8091  14.8093  14.8097
    15.0661  15.0664  15.6635  15.6636  15.6639  15.6642  15.6956  15.6958
    18.6303  18.6316  19.7592  19.7597  19.7597  19.7614  20.4539  20.4555
    21.2291  21.2301  21.2856  21.2859  21.2861  21.2884  22.2558  22.2568
    22.3485  22.3505  22.5944  22.5955  22.8241  22.8246  22.8602  22.8606
    22.8606  22.8629  22.9843  22.9859  23.0346  23.0347  23.0353  23.0380
    24.4272  24.4281  24.6502  24.6504  24.6521  24.6522  24.6533  24.6539
    25.1460  25.1468  25.6232  25.6233  25.6238  25.6243  25.9553  25.9565
    26.2109  26.2119  26.2731  26.2736  26.6896  26.6903  26.6905  26.6907
    26.9948  26.9954  26.9962  26.9963  27.0170  27.0175  27.1286  27.1292
    27.3452  27.3457  27.4217  27.4218  27.4224  27.4225  27.5164  27.5177
    27.7475  27.7485  28.3637  28.3639  28.3650  28.3652  28.5773  28.5780
    28.5828  28.5841  29.1637  29.1641  29.1642  29.1663  30.3748  30.3766
    30.3808  30.3811  30.3814  30.3887  30.3899  30.3919  30.3939  30.4043
    30.4052  30.4053  30.4054  30.4082  30.4162  30.4407  30.7100  30.7101
    30.7102  30.7132  30.8320  30.8326  31.1421  31.1425  31.6199  31.6204
    31.6209  31.6210  31.7770  31.7787  32.2743  32.2762  32.2881  32.2882
    33.0404  33.0414  33.0415  33.0417  33.1918  33.1920  33.6815  33.6821
    33.7810  33.7813  34.5156  34.5158  34.5162  34.5163  34.5978  34.5992
    34.6463  34.6472  34.6621  34.6623  34.7245  34.7256  34.8147  34.8149
    34.8152  34.8168  35.6441  35.6448  35.6686  35.6686  35.6691  35.6696
    35.7535  35.7539  35.7543  35.7543  35.9574  35.9581  37.2269  37.2271
    37.2272  37.2273  37.3208  37.3214  37.4386  37.4386  37.4839  37.4843
    37.5249  37.5249  37.5250  37.5254  37.5535  37.5549  37.8348  37.8348
    37.8483  37.8483  38.0598  38.0605  38.1192  38.1195  38.3628  38.3633
    38.3636  38.3647  38.5175  38.5176  38.5177  38.5177  38.7017  38.7029
    39.2306  39.2311  39.3703  39.3704  39.3712  39.3725  39.8322  39.8324
    40.3882  40.3891  40.4813  40.4831  40.7074  40.7077  40.8639  40.8642
    40.8645  40.8653  40.9339  40.9349  41.5107  41.5115  41.6151  41.6152
    41.6156  41.6175  41.6298  41.6303  41.8746  41.8747  41.8749  41.8752
[...]
    47.7273  47.7295  47.8577  47.8580  47.8590  47.8593  48.0479  48.0479
    48.0636  48.0641  48.1940  48.1941  48.1944  48.1945  48.3604  48.3611
    48.4061  48.4068  48.6650  48.6652  48.6664  48.6675  49.0303  49.0315
    49.1711  49.1712  49.2603  49.2604  49.2607  49.2609  49.4935  49.4949
    49.6365  49.6369  49.6373  49.6376  49.7315  49.7316  49.7781  49.7789
    49.9138  49.9139  49.9772  49.9775  49.9781  49.9789  50.5890  50.5892
    50.5896  50.5901  50.6207  50.6222  50.8410  50.8416  51.0424  51.0428
    51.1537  51.1551  51.3108  51.3110  51.3112  51.3112  51.7429  51.7433
    52.1129  52.1131  52.2374  52.2376  52.2378  52.2389  52.3523  52.3525
    52.5473  52.5474  52.8857  52.8864  52.9223  52.9232  52.9233  52.9253
    52.9657  52.9664  53.1269  53.1275  53.5653  53.5653  53.7404  53.7404
    53.7405  53.7405  53.7796  53.7798  53.7801  53.7804  53.9628  53.9629
    54.0227  54.0231  54.4506  54.4508  54.4542  54.4544  54.4545  54.4548
    54.7700  54.7709  54.7711  54.7712  54.7911  54.7918  55.2212  55.2213
    55.2827  55.2828  55.3919  55.3926  55.6158  55.6158  55.6163  55.6168

     the Fermi energy is    12.4861 ev

!    total energy              =   -4359.56447412 Ry
     Harris-Foulkes estimate   =   -4359.56447425 Ry
     estimated scf accuracy    <       0.00000013 Ry

     The total energy is the sum of the following terms:

     one-electron contribution =   -1092.73257363 Ry
     hartree contribution      =     841.63315812 Ry
     xc contribution           =   -1097.30429684 Ry
     ewald contribution        =   -3011.11594880 Ry
     Hubbard energy            =      -0.04444745 Ry
     smearing contrib. (-TS)   =      -0.00036552 Ry

     total magnetization       =     0.00 Bohr mag/cell
     absolute magnetization    =     0.00 Bohr mag/cell

     convergence has been achieved in   8 iterations

     Writing output data file pwscf.save

     General routines

     Parallel routines
     Hubbard U routines

   This run was terminated on:   2:21:51  12Feb2014

   JOB DONE.