     Program PWSCF v.5.0.2 (svn rev. 9656) starts on 12Feb2014 at  6: 6:34

     Current dimensions of program PWSCF are:
     Max number of different atomic species (ntypx) = 10
     Max number of k-points (npk) =  40000
     Max angular momentum in pseudopotentials (lmaxx) =  3
     Reading input from alpha_0.07/alpha_0.07.in
Warning: card &IONS ignored
Warning: card / ignored
Warning: card &CELL ignored
Warning: card / ignored

     Subspace diagonalization in iterative solution of the eigenvalue problem:
     a serial algorithm will be used

     bravais-lattice index     =            0
     lattice parameter (alat)  =      17.3477  a.u.
     unit-cell volume          =    3673.7913 (a.u.)^3
     number of atoms/cell      =           48
     number of atomic types    =            3
     number of electrons       =       448.00
     number of Kohn-Sham states=          672
     kinetic-energy cutoff     =      40.0000  Ry
     charge density cutoff     =     500.0000  Ry
     convergence threshold     =      1.0E-06
     mixing beta               =       0.7000
     number of iterations used =            8  plain     mixing
     Exchange-correlation      = SLA  PW   PBE  PBE ( 1 4 3 4 0)
     EXX-fraction              =        0.00

     celldm(1)=  17.347686  celldm(2)=   0.000000  celldm(3)=   0.000000
     celldm(4)=   0.000000  celldm(5)=   0.000000  celldm(6)=   0.000000

     crystal axes: (cart. coord. in units of alat)
               a(1) = (   1.000000   0.000000   0.000000 )
               a(2) = (   0.000000   1.000000   0.000000 )
               a(3) = (   0.000000   0.000000   0.703704 )

     reciprocal axes: (cart. coord. in units 2 pi/alat)
               b(1) = (  1.000000  0.000000  0.000000 )
               b(2) = (  0.000000  1.000000  0.000000 )
               b(3) = (  0.000000  0.000000  1.421053 )

     PseudoPot. # 1 for Pt read from file:
     /home/camp/zhonxu/pseudo/pt_pbe_v1.uspp.F.UPF
     MD5 check sum: 4c71d6ad5ef119f1eb26a4d0b7884226
     Pseudo is Ultrasoft + core correction, Zval = 16.0
     Generated by new atomic code, or converted to UPF format
     Using radial grid of  985 points,  6 beta functions with:
                l(1) =   0
                l(2) =   0
                l(3) =   1
                l(4) =   1
                l(5) =   2
                l(6) =   2
     Q(r) pseudized with  8 coefficients,  rinner =    1.300   1.300   1.300
                                                       1.300   1.300

     PseudoPot. # 2 for Pt read from file:
     /home/camp/zhonxu/pseudo/pt_pbe_v1.uspp.F.UPF
     MD5 check sum: 4c71d6ad5ef119f1eb26a4d0b7884226
     Pseudo is Ultrasoft + core correction, Zval = 16.0
     Generated by new atomic code, or converted to UPF format
     Using radial grid of  985 points,  6 beta functions with:
                l(1) =   0
                l(2) =   0
                l(3) =   1
                l(4) =   1
                l(5) =   2
                l(6) =   2
     Q(r) pseudized with  8 coefficients,  rinner =    1.300   1.300   1.300
                                                       1.300   1.300

     PseudoPot. # 3 for O  read from file:
     /home/camp/zhonxu/pseudo/o_pbe_v1.01.uspp.F.UPF
     MD5 check sum: 2bcb18d16ea4b960afae9ec6d52f22d2
     Pseudo is Ultrasoft + core correction, Zval =  6.0
     Generated by new atomic code, or converted to UPF format
     Using radial grid of  737 points,  5 beta functions with:
                l(1) =   0
                l(2) =   0
                l(3) =   1
                l(4) =   1
                l(5) =   2
     Q(r) pseudized with  8 coefficients,  rinner =    0.900   0.900   0.900
                                                       0.900   0.900

     atomic species   valence    mass     pseudopotential
        Pt0           16.00   195.08000     Pt( 1.00)
        Pt1           16.00   195.08000     Pt( 1.00)
        O2             6.00    15.99940     O ( 1.00)

     Starting magnetic structure
     atomic species   magnetization
        Pt0          0.000
        Pt1          0.000
        O2           0.000

     Simplified LDA+U calculation (l_max = 2) with parameters (eV):
     atomic species    L          U    alpha       J0     beta
        Pt0            2     0.0000   0.0700   0.0000   0.0000
        Pt1            2     0.0000   0.0000   0.0000   0.0000
        O2             1     0.0000   0.0000   0.0000   0.0000

      8 Sym. Ops., with inversion, found

   Cartesian axes

     site n.     atom                  positions (alat units)
         1           Pt0 tau(   1) = (   0.0000000   0.0000000   0.0000000  )
         2           Pt1 tau(   2) = (   0.2500000   0.2500000   0.1759259  )
         3           Pt1 tau(   3) = (   0.0000000   0.0000000   0.3518519  )
         4           Pt1 tau(   4) = (   0.2500000   0.2500000   0.5277778  )
         5           Pt1 tau(   5) = (   0.0000000   0.5000000   0.0000000  )
         6           Pt1 tau(   6) = (   0.2500000   0.7500000   0.1759259  )
         7           Pt1 tau(   7) = (   0.0000000   0.5000000   0.3518519  )
         8           Pt1 tau(   8) = (   0.2500000   0.7500000   0.5277778  )
         9           Pt1 tau(   9) = (   0.5000000   0.0000000   0.0000000  )
        10           Pt1 tau(  10) = (   0.7500000   0.2500000   0.1759259  )
        11           Pt1 tau(  11) = (   0.5000000   0.0000000   0.3518519  )
        12           Pt1 tau(  12) = (   0.7500000   0.2500000   0.5277778  )
        13           Pt1 tau(  13) = (   0.5000000   0.5000000   0.0000000  )
        14           Pt1 tau(  14) = (   0.7500000   0.7500000   0.1759259  )
        15           Pt1 tau(  15) = (   0.5000000   0.5000000   0.3518519  )
        16           Pt1 tau(  16) = (   0.7500000   0.7500000   0.5277778  )
        17           O2  tau(  17) = (   0.1550000   0.1550000   0.0000000  )
        18           O2  tau(  18) = (  -0.1550000  -0.1550000   0.0000000  )
        19           O2  tau(  19) = (   0.4050000   0.0950000   0.1759259  )
        20           O2  tau(  20) = (   0.0950000   0.4050000   0.1759259  )
        21           O2  tau(  21) = (   0.1550000   0.1550000   0.3518519  )
        22           O2  tau(  22) = (  -0.1550000  -0.1550000   0.3518519  )
        23           O2  tau(  23) = (   0.4050000   0.0950000   0.5277778  )
        24           O2  tau(  24) = (   0.0950000   0.4050000   0.5277778  )
        25           O2  tau(  25) = (   0.1550000   0.6550000   0.0000000  )
        26           O2  tau(  26) = (  -0.1550000   0.3450000   0.0000000  )
        27           O2  tau(  27) = (   0.4050000   0.5950000   0.1759259  )
        28           O2  tau(  28) = (   0.0950000   0.9050000   0.1759259  )
        29           O2  tau(  29) = (   0.1550000   0.6550000   0.3518519  )
        30           O2  tau(  30) = (  -0.1550000   0.3450000   0.3518519  )
        31           O2  tau(  31) = (   0.4050000   0.5950000   0.5277778  )
        32           O2  tau(  32) = (   0.0950000   0.9050000   0.5277778  )
        33           O2  tau(  33) = (   0.6550000   0.1550000   0.0000000  )
        34           O2  tau(  34) = (   0.3450000  -0.1550000   0.0000000  )
        35           O2  tau(  35) = (   0.9050000   0.0950000   0.1759259  )
        36           O2  tau(  36) = (   0.5950000   0.4050000   0.1759259  )
        37           O2  tau(  37) = (   0.6550000   0.1550000   0.3518519  )
        38           O2  tau(  38) = (   0.3450000  -0.1550000   0.3518519  )
        39           O2  tau(  39) = (   0.9050000   0.0950000   0.5277778  )
        40           O2  tau(  40) = (   0.5950000   0.4050000   0.5277778  )
        41           O2  tau(  41) = (   0.6550000   0.6550000   0.0000000  )
        42           O2  tau(  42) = (   0.3450000   0.3450000   0.0000000  )
        43           O2  tau(  43) = (   0.9050000   0.5950000   0.1759259  )
        44           O2  tau(  44) = (   0.5950000   0.9050000   0.1759259  )
        45           O2  tau(  45) = (   0.6550000   0.6550000   0.3518519  )
        46           O2  tau(  46) = (   0.3450000   0.3450000   0.3518519  )
        47           O2  tau(  47) = (   0.9050000   0.5950000   0.5277778  )
        48           O2  tau(  48) = (   0.5950000   0.9050000   0.5277778  )

     number of k points=    42  Methfessel-Paxton smearing, width (Ry)=  0.0100
                       cart. coord. in units 2pi/alat
        k(    1) = (   0.0000000   0.0000000   0.0000000), wk =   0.0156250
        k(    2) = (   0.0000000   0.0000000   0.3552632), wk =   0.0312500
        k(    3) = (   0.0000000   0.0000000  -0.7105263), wk =   0.0156250
        k(    4) = (   0.0000000   0.2500000   0.0000000), wk =   0.0625000
        k(    5) = (   0.0000000   0.2500000   0.3552632), wk =   0.1250000
        k(    6) = (   0.0000000   0.2500000  -0.7105263), wk =   0.0625000
        k(    7) = (   0.0000000  -0.5000000   0.0000000), wk =   0.0312500
        k(    8) = (   0.0000000  -0.5000000   0.3552632), wk =   0.0625000
        k(    9) = (   0.0000000  -0.5000000  -0.7105263), wk =   0.0312500
        k(   10) = (   0.2500000   0.2500000   0.0000000), wk =   0.0312500
        k(   11) = (   0.2500000   0.2500000   0.3552632), wk =   0.0625000
        k(   12) = (   0.2500000   0.2500000  -0.7105263), wk =   0.0312500
        k(   13) = (   0.2500000  -0.5000000   0.0000000), wk =   0.0625000
        k(   14) = (   0.2500000  -0.5000000   0.3552632), wk =   0.1250000
        k(   15) = (   0.2500000  -0.5000000  -0.7105263), wk =   0.0625000
        k(   16) = (  -0.5000000  -0.5000000   0.0000000), wk =   0.0156250
        k(   17) = (  -0.5000000  -0.5000000   0.3552632), wk =   0.0312500
        k(   18) = (  -0.5000000  -0.5000000  -0.7105263), wk =   0.0156250
        k(   19) = (  -0.2500000   0.2500000   0.0000000), wk =   0.0312500
        k(   20) = (  -0.2500000   0.2500000  -0.3552632), wk =   0.0625000
        k(   21) = (  -0.2500000   0.2500000   0.7105263), wk =   0.0312500
        k(   22) = (   0.0000000   0.0000000   0.0000000), wk =   0.0156250
        k(   23) = (   0.0000000   0.0000000   0.3552632), wk =   0.0312500
        k(   24) = (   0.0000000   0.0000000  -0.7105263), wk =   0.0156250
        k(   25) = (   0.0000000   0.2500000   0.0000000), wk =   0.0625000
        k(   26) = (   0.0000000   0.2500000   0.3552632), wk =   0.1250000
        k(   27) = (   0.0000000   0.2500000  -0.7105263), wk =   0.0625000
        k(   28) = (   0.0000000  -0.5000000   0.0000000), wk =   0.0312500
        k(   29) = (   0.0000000  -0.5000000   0.3552632), wk =   0.0625000
        k(   30) = (   0.0000000  -0.5000000  -0.7105263), wk =   0.0312500
        k(   31) = (   0.2500000   0.2500000   0.0000000), wk =   0.0312500
        k(   32) = (   0.2500000   0.2500000   0.3552632), wk =   0.0625000
        k(   33) = (   0.2500000   0.2500000  -0.7105263), wk =   0.0312500
        k(   34) = (   0.2500000  -0.5000000   0.0000000), wk =   0.0625000
        k(   35) = (   0.2500000  -0.5000000   0.3552632), wk =   0.1250000
        k(   36) = (   0.2500000  -0.5000000  -0.7105263), wk =   0.0625000
[...]
    eigenvectors:
  0.000  1.000  0.000
  0.500  0.000  0.500
  0.500  0.000  0.500
    occupations:
  0.848 -0.000  0.000
 -0.000  0.910 -0.064
  0.000 -0.064  0.910
   spin  2
    eigenvalues:
  0.845  0.848  0.974
    eigenvectors:
  0.000  1.000  0.000
  0.500  0.000  0.500
  0.500  0.000  0.500
    occupations:
  0.848 -0.000  0.000
 -0.000  0.910 -0.064
  0.000 -0.064  0.910
atomic mag. moment =    -0.000000
atom   42   Tr[ns(na)] (up, down, total) =   2.66725  2.66725  5.33451
   spin  1
    eigenvalues:
  0.845  0.848  0.974
    eigenvectors:
  0.000  1.000  0.000
  0.500  0.000  0.500
  0.500  0.000  0.500
    occupations:
  0.848 -0.000  0.000
 -0.000  0.910 -0.064
  0.000 -0.064  0.910
   spin  2
    eigenvalues:
  0.845  0.848  0.974
    eigenvectors:
  0.000  1.000  0.000
  0.500  0.000  0.500
  0.500  0.000  0.500
    occupations:
  0.848 -0.000  0.000
 -0.000  0.910 -0.064
  0.000 -0.064  0.910
atomic mag. moment =    -0.000000
atom   43   Tr[ns(na)] (up, down, total) =   2.66726  2.66726  5.33451
   spin  1
    eigenvalues:
  0.845  0.848  0.974
    eigenvectors:
  0.000  1.000  0.000
  0.500  0.000  0.500
  0.500  0.000  0.500
    occupations:
  0.848  0.000 -0.000
  0.000  0.910  0.064
 -0.000  0.064  0.910
   spin  2
    eigenvalues:
  0.845  0.848  0.974
    eigenvectors:
  0.000  1.000  0.000
  0.500  0.000  0.500
  0.500  0.000  0.500
    occupations:
  0.848  0.000 -0.000
  0.000  0.910  0.064
 -0.000  0.064  0.910
atomic mag. moment =    -0.000000
atom   44   Tr[ns(na)] (up, down, total) =   2.66726  2.66726  5.33451
   spin  1
    eigenvalues:
  0.845  0.848  0.974
    eigenvectors:
  0.000  1.000  0.000
  0.500  0.000  0.500
  0.500  0.000  0.500
    occupations:
  0.848 -0.000  0.000
 -0.000  0.910  0.064
  0.000  0.064  0.910
   spin  2
    eigenvalues:
  0.845  0.848  0.974
    eigenvectors:
  0.000  1.000  0.000
  0.500  0.000  0.500
  0.500  0.000  0.500
    occupations:
  0.848 -0.000  0.000
 -0.000  0.910  0.064
  0.000  0.064  0.910
atomic mag. moment =    -0.000000
atom   45   Tr[ns(na)] (up, down, total) =   2.66725  2.66725  5.33449
   spin  1
    eigenvalues:
  0.845  0.848  0.974
    eigenvectors:
  0.000  1.000  0.000
  0.500  0.000  0.500
  0.500  0.000  0.500
    occupations:
  0.848 -0.000  0.000
 -0.000  0.910 -0.064
  0.000 -0.064  0.910
   spin  2
    eigenvalues:
  0.845  0.848  0.974
    eigenvectors:
  0.000  1.000  0.000
  0.500  0.000  0.500
  0.500  0.000  0.500
    occupations:
  0.848 -0.000  0.000
 -0.000  0.910 -0.064
  0.000 -0.064  0.910
atomic mag. moment =    -0.000000
atom   46   Tr[ns(na)] (up, down, total) =   2.66725  2.66725  5.33449
   spin  1
    eigenvalues:
  0.845  0.848  0.974
    eigenvectors:
  0.000  1.000  0.000
  0.500  0.000  0.500
  0.500  0.000  0.500
    occupations:
  0.848 -0.000  0.000
 -0.000  0.910 -0.064
  0.000 -0.064  0.910
   spin  2
    eigenvalues:
  0.845  0.848  0.974
    eigenvectors:
  0.000  1.000  0.000
  0.500  0.000  0.500
  0.500  0.000  0.500
    occupations:
  0.848 -0.000  0.000
 -0.000  0.910 -0.064
  0.000 -0.064  0.910
atomic mag. moment =    -0.000000
atom   47   Tr[ns(na)] (up, down, total) =   2.66726  2.66726  5.33451
   spin  1
    eigenvalues:
  0.845  0.848  0.974
    eigenvectors:
  0.000  1.000  0.000
  0.500  0.000  0.500
  0.500  0.000  0.500
    occupations:
  0.848 -0.000  0.000
 -0.000  0.910  0.064
  0.000  0.064  0.910
   spin  2
    eigenvalues:
  0.845  0.848  0.974
    eigenvectors:
  0.000  1.000  0.000
  0.500  0.000  0.500
  0.500  0.000  0.500
    occupations:
  0.848 -0.000  0.000
 -0.000  0.910  0.064
  0.000  0.064  0.910
atomic mag. moment =    -0.000000
atom   48   Tr[ns(na)] (up, down, total) =   2.66726  2.66726  5.33451
   spin  1
    eigenvalues:
  0.845  0.848  0.974
    eigenvectors:
  0.000  1.000  0.000
  0.500  0.000  0.500
  0.500  0.000  0.500
    occupations:
  0.848  0.000 -0.000
  0.000  0.910  0.064
 -0.000  0.064  0.910
   spin  2
    eigenvalues:
  0.845  0.848  0.974
    eigenvectors:
  0.000  1.000  0.000
  0.500  0.000  0.500
  0.500  0.000  0.500
    occupations:
  0.848  0.000 -0.000
  0.000  0.910  0.064
 -0.000  0.064  0.910
atomic mag. moment =    -0.000000
N of occupied +U levels = 308.8053623
 --- exit write_ns ---

 ------ SPIN UP ------------

          k = 0.0000 0.0000 0.0000 ( 15677 PWs)   bands (ev):

   -41.9558 -41.9278 -41.9276 -41.9276 -41.9276 -41.9274 -41.9273 -41.9273
   -41.8876 -41.8756 -41.8726 -41.8724 -41.8724 -41.8724 -41.8724 -41.8689
   -41.7500 -41.7109 -41.7106 -41.7104 -41.7103 -41.7096 -41.7096 -41.7094
   -41.7083 -41.7063 -41.7061 -41.7060 -41.7060 -41.7059 -41.7058 -41.7057
   -41.6429 -41.6045 -41.6044 -41.6044 -41.6044 -41.6036 -41.6034 -41.6033
   -41.6012 -41.5972 -41.5971 -41.5970 -41.5969 -41.5969 -41.5968 -41.5968
    -7.8175  -7.1772  -7.1753  -7.0835  -7.0833  -7.0832  -7.0829  -6.6838
    -6.5476  -6.5475  -6.5464  -6.5438  -6.5424  -6.5410  -6.4266  -6.4251
    -6.2848  -6.2823  -6.1937  -6.1914  -6.1783  -6.1774  -6.1768  -6.1768
    -6.0396  -6.0385  -6.0385  -6.0358  -5.8627  -5.8623  -5.7408  -5.7405
     3.2723   3.3595   3.3614   3.4312   4.4740   4.4743   4.4752   4.4784
     4.5690   4.5698   4.5700   4.5751   4.6520   4.6550   4.7437   4.7461
     4.7934   4.7938   4.8107   4.8133   4.9114   4.9117   4.9118   4.9181
     5.0586   5.0588   5.0602   5.0608   5.3086   5.3130   5.4167   5.4188
     5.4294   5.6709   5.6714   5.9924   5.9968   6.1726   6.1736   6.1737
     6.1764   6.8731   6.8738   6.8742   6.8747   6.8955   6.8957   6.8959
     6.9025   7.0143   7.0158   7.0383   7.0398   7.3257   7.3261   7.3280
     7.3285   7.4945   7.4984   7.5436   7.5447   7.5447   7.5491   7.5618
     7.5657   7.8576   7.9701   7.9710   7.9714   7.9715   8.0715   8.0718
     8.2533   8.2535   8.3484   8.3519   8.6486   8.6493   8.9671   8.9679
     9.0512   9.0513   9.0532   9.0566   9.0760   9.1720   9.1748   9.1873
     9.1900   9.1973   9.2010   9.3594   9.3851   9.4850   9.4879   9.5469
     9.5493   9.5558   9.5559   9.5696   9.5696   9.5697   9.5743   9.5825
     9.6218   9.6228   9.9660   9.9665   9.9670   9.9670   9.9892   9.9896
     9.9897   9.9918  10.2294  10.2299  10.2300  10.2316  10.2761  10.2762
    10.4695  10.4705  10.4705  10.4732  10.9730  11.1923  11.1933  11.4170
    11.4179  11.5754  11.5759  11.7041  11.7041  11.7044  11.7051  11.8585
    12.0839  12.0839  12.0843  12.0856  12.3055  12.3058  12.3544  12.3549
    12.5704  12.5707  12.5707  12.5709  12.9287  13.5222  13.5229  13.5481
    13.5486  13.6626  13.6638  14.0216  14.0221  14.5147  14.5150  14.8831
    14.8833  14.8833  14.8835  15.0573  15.0579  15.0582  15.0583  15.4972
    15.4976  15.5128  15.5131  15.8695  15.8698  15.8701  15.8702  16.2523
    16.7707  19.3329  19.3344  19.3348  19.3352  20.7982  20.7993  21.1049
    21.1056  21.2853  21.2866  21.3121  21.3134  21.3626  21.3631  22.1032
    22.1066  22.1067  22.1069  22.1276  22.1279  22.1294  22.1295  22.1521
    22.1523  22.1525  22.1531  22.2149  22.2155  23.0231  24.2396  24.2403
    24.3538  24.3543  24.6832  24.6838  25.1672  25.1676  25.2118  25.2120
    25.4748  25.7240  25.7376  25.7378  25.7387  25.7389  25.7577  25.7587
    25.7590  25.7592  26.2566  26.2567  26.2572  26.2573  26.6516  26.6520
    26.7208  26.7222  27.2516  27.2523  27.2524  27.2525  27.2723  27.2727
    27.5321  27.5327  27.5339  27.5341  27.5788  28.0526  28.3263  28.5492
    28.5499  28.8826  28.8837  28.8844  28.8849  29.0968  29.0977  29.8165
    29.8190  29.8192  29.8193  29.8539  29.8554  29.9782  29.9786  30.0520
    30.0559  30.1025  30.1028  30.1035  30.1037  30.3608  30.3921  30.3928
    30.3964  30.3964  30.3965  30.3968  30.4099  30.4161  30.4235  30.4236
    30.4236  30.4239  30.4244  30.7853  30.7878  30.8009  31.0365  31.0367
    31.0370  31.0375  31.7052  31.7058  31.7888  31.7892  32.2833  32.2836
    32.2838  32.2850  32.7944  32.7958  32.9355  32.9359  33.3494  33.3507
    33.8693  33.8702  33.9335  33.9336  34.3427  34.3428  34.3438  34.3442
    34.7987  34.7987  34.8614  34.8628  34.8905  34.8913  34.8913  34.8921
    35.0771  35.0782  35.3348  35.3349  35.5521  36.1778  36.1793  36.1813
    36.1825  36.1832  36.1832  36.2429  36.2437  36.2443  36.2446  36.9238
    36.9250  37.0007  37.0013  37.0013  37.0022  37.2753  37.4688  37.4690
    37.4699  37.4700  37.5238  37.5249  37.5394  37.5400  37.8337  38.0338
    38.0342  38.3533  38.3533  38.3539  38.3541  38.6276  38.6286  38.7318
    38.7326  38.8318  38.8326  38.8327  38.8333  38.9474  38.9481  39.1030
    39.1030  39.1428  39.1646  39.1649  39.1650  39.1651  39.5733  39.6512
    40.1916  40.1917  40.3606  40.3610  40.6110  41.0889  41.0897  41.0899
    41.0901  41.1071  41.1083  41.2906  41.2916  41.2918  41.2919  41.3863
    41.3867  41.8737  41.8748  42.0511  42.1634  42.1634  42.1645  42.1646
[...]
    47.1399  47.2064  47.2438  47.2446  47.6954  47.6970  47.7648  47.7650
    47.7651  47.7653  47.8395  47.8400  48.1805  48.1811  48.3355  48.3357
    48.4828  48.4831  48.4921  48.4929  48.5418  48.5419  48.5434  48.5434
    48.8137  48.8144  49.1226  49.1251  49.1255  49.1259  49.2175  49.2176
    49.3035  49.3040  49.5495  49.5497  49.5503  49.5504  49.6868  50.1029
    50.1037  50.3028  50.3050  50.3770  50.3772  50.4854  50.6068  50.6068
    50.7683  50.7693  50.7697  50.7700  51.1625  51.1628  51.1631  51.1631
    51.2612  51.2616  51.5647  51.5652  51.6238  51.6239  51.6258  51.6263
    51.6267  51.6270  51.9405  52.0656  52.0659  52.1141  52.1145  52.1145
    52.1145  52.2206  52.2206  52.6722  52.6732  52.8760  52.8768  52.8773
    52.8776  53.0186  53.0891  53.0898  53.1320  53.4405  53.4407  53.4612
    53.7650  54.2384  54.2384  54.2633  54.2637  54.2637  54.2641  54.2989
    54.2990  54.2996  54.3003  54.5287  54.5290  54.5303  54.5304  54.8270
    54.8272  54.9595  54.9604  55.3561  55.3568  55.4279  55.4288  55.4292
    55.4301  55.4480  55.4489  55.4491  55.4491  55.5382  55.5388  55.8638

[...]

          k =-0.5000-0.5000 0.0000 ( 15760 PWs)   bands (ev):

[...]

 ------ SPIN DOWN ----------

[...]

          k = 0.2500-0.5000-0.7105 ( 15696 PWs)   bands (ev):

[...]

          k =-0.2500 0.2500 0.7105 ( 15684 PWs)   bands (ev):

   -41.9420 -41.9027 -41.9023 -41.9014 -41.9014 -41.9008 -41.9007 -41.9006
   -41.8999 -41.8997 -41.8996 -41.8994 -41.8992 -41.8986 -41.8978 -41.8977
   -41.7499 -41.7090 -41.7089 -41.7085 -41.7083 -41.7083 -41.7082 -41.7082
   -41.7082 -41.7079 -41.7079 -41.7079 -41.7079 -41.7076 -41.7073 -41.7069
   -41.6426 -41.6016 -41.6015 -41.6011 -41.6011 -41.6007 -41.6007 -41.6007
   -41.6007 -41.6003 -41.6002 -41.6002 -41.6002 -41.6000 -41.5996 -41.5996
    -7.2527  -7.2523  -6.9584  -6.9581  -6.9576  -6.9574  -6.8769  -6.8761
    -6.7147  -6.7133  -6.5365  -6.5361  -6.5360  -6.5358  -6.4533  -6.4509
    -6.2624  -6.2622  -6.2621  -6.2585  -6.1585  -6.1564  -6.1062  -6.1058
    -6.1058  -6.1036  -6.0998  -6.0962  -6.0645  -6.0640  -5.9902  -5.9898
     3.9525   3.9541   3.9677   3.9708   4.3020   4.3028   4.3109   4.3110
     4.3113   4.3132   4.3193   4.3208   4.8775   4.8776   4.8779   4.8819
     5.0090   5.0122   5.1306   5.1321   5.2114   5.2139   5.2222   5.2228
     5.2230   5.2264   5.3857   5.3869   5.3872   5.3877   5.4287   5.4307
     5.6144   5.6145   5.6149   5.6227   5.9478   5.9482   6.1807   6.1809
     6.1809   6.1812   6.1962   6.1965   6.2199   6.2243   6.7056   6.7060
     6.8358   6.8360   6.9384   6.9385   6.9387   6.9432   7.1495   7.1496
     7.1510   7.1516   7.2863   7.2864   7.7568   7.7571   7.7573   7.7587
     7.7695   7.7708   7.7808   7.7831   7.8091   7.8132   7.8400   7.8437
     7.9328   7.9331   7.9350   7.9356   8.1684   8.1698   8.3788   8.3790
     8.4469   8.4479   8.6097   8.6100   8.7020   8.7025   8.7027   8.7058
     9.1660   9.1668   9.2299   9.2305   9.2321   9.2330   9.2916   9.2933
     9.7429   9.7433   9.7713   9.7718  10.2952  10.2957  10.2964  10.2981
    10.3013  10.3079  10.3807  10.3847  10.4644  10.4646  10.4649  10.4653
    10.5070  10.5072  10.6105  10.6107  10.6109  10.6110  10.6916  10.6927
    10.8308  10.8311  10.9734  10.9736  10.9739  10.9753  11.2464  11.2467
    11.6753  11.6760  11.7805  11.7807  11.7808  11.7808  11.8356  11.8367
    11.9038  11.9041  12.0098  12.0099  12.0101  12.0105  12.3471  12.3473
    13.3129  13.3133  13.3134  13.3136  13.3694  13.3697  13.7040  13.7046
    13.7050  13.7052  13.7356  13.7365  13.9242  13.9248  14.2846  14.2853
    14.3664  14.3665  14.3966  14.3967  14.8106  14.8110  14.8113  14.8113
    15.0678  15.0681  15.6649  15.6655  15.6656  15.6660  15.6972  15.6973
    18.6306  18.6318  19.7592  19.7609  19.7610  19.7613  20.4538  20.4553
    21.2295  21.2305  21.2850  21.2872  21.2875  21.2876  22.2567  22.2577
    22.3483  22.3501  22.5946  22.5957  22.8249  22.8253  22.8595  22.8618
    22.8620  22.8621  22.9844  22.9859  23.0331  23.0358  23.0364  23.0365
    24.4275  24.4283  24.6500  24.6505  24.6519  24.6529  24.6536  24.6536
    25.1463  25.1471  25.6234  25.6239  25.6244  25.6244  25.9558  25.9569
    26.2111  26.2121  26.2729  26.2734  26.6900  26.6902  26.6905  26.6912
    26.9948  26.9950  26.9957  26.9962  27.0171  27.0175  27.1286  27.1292
    27.3455  27.3461  27.4224  27.4224  27.4230  27.4231  27.5159  27.5171
    27.7482  27.7491  28.3635  28.3637  28.3649  28.3651  28.5776  28.5783
    28.5825  28.5837  29.1623  29.1645  29.1645  29.1651  30.3375  30.3767
    30.3787  30.3826  30.3834  30.3844  30.3913  30.3921  30.3951  30.3960
    30.4072  30.4075  30.4076  30.4076  30.4158  30.4183  30.7083  30.7110
    30.7111  30.7112  30.8324  30.8330  31.1419  31.1422  31.6201  31.6202
    31.6206  31.6212  31.7764  31.7780  32.2738  32.2755  32.2882  32.2883
    33.0406  33.0408  33.0410  33.0420  33.1913  33.1915  33.6808  33.6813
    33.7812  33.7814  34.5158  34.5159  34.5164  34.5165  34.5981  34.5993
    34.6465  34.6473  34.6616  34.6618  34.7249  34.7259  34.8138  34.8153
    34.8158  34.8160  35.6439  35.6446  35.6683  35.6689  35.6693  35.6694
    35.7537  35.7537  35.7540  35.7544  35.9576  35.9583  37.2272  37.2273
    37.2274  37.2276  37.3205  37.3210  37.4381  37.4382  37.4833  37.4837
    37.5248  37.5250  37.5253  37.5253  37.5535  37.5548  37.8352  37.8352
    37.8486  37.8487  38.0597  38.0603  38.1195  38.1198  38.3620  38.3632
    38.3633  38.3638  38.5178  38.5178  38.5178  38.5179  38.7016  38.7027
    39.2310  39.2315  39.3691  39.3705  39.3712  39.3713  39.8325  39.8327
    40.3883  40.3891  40.4810  40.4827  40.7077  40.7079  40.8637  40.8645
    40.8650  40.8652  40.9338  40.9347  41.5107  41.5115  41.6135  41.6158
    41.6161  41.6164  41.6300  41.6302  41.8749  41.8752  41.8753  41.8755
[...]
    47.7263  47.7284  47.8575  47.8578  47.8589  47.8592  48.0490  48.0490
    48.0633  48.0638  48.1938  48.1939  48.1942  48.1943  48.3600  48.3606
    48.4057  48.4064  48.6639  48.6650  48.6661  48.6663  49.0298  49.0309
    49.1720  49.1721  49.2605  49.2607  49.2611  49.2611  49.4930  49.4943
    49.6364  49.6367  49.6371  49.6375  49.7312  49.7312  49.7779  49.7786
    49.9137  49.9138  49.9768  49.9776  49.9781  49.9785  50.5884  50.5888
    50.5893  50.5895  50.6205  50.6218  50.8413  50.8419  51.0431  51.0434
    51.1531  51.1545  51.3107  51.3107  51.3110  51.3111  51.7427  51.7432
    52.1126  52.1128  52.2370  52.2381  52.2383  52.2384  52.3522  52.3524
    52.5471  52.5471  52.8858  52.8865  52.9212  52.9233  52.9233  52.9241
    52.9654  52.9661  53.1266  53.1272  53.5644  53.5644  53.7400  53.7400
    53.7401  53.7401  53.7797  53.7801  53.7802  53.7806  53.9630  53.9630
    54.0223  54.0226  54.4505  54.4505  54.4543  54.4547  54.4549  54.4550
    54.7700  54.7701  54.7704  54.7713  54.7910  54.7916  55.2217  55.2217
    55.2831  55.2832  55.3918  55.3925  55.6152  55.6158  55.6162  55.6162

     the Fermi energy is    12.4885 ev

!    total energy              =   -4359.47565769 Ry
     Harris-Foulkes estimate   =   -4359.47565822 Ry
     estimated scf accuracy    <       0.00000057 Ry

     The total energy is the sum of the following terms:

     one-electron contribution =   -1092.70864579 Ry
     hartree contribution      =     841.60795352 Ry
     xc contribution           =   -1097.30303221 Ry
     ewald contribution        =   -3011.11594880 Ry
     Hubbard energy            =       0.04436856 Ry
     smearing contrib. (-TS)   =      -0.00035297 Ry

     total magnetization       =     0.00 Bohr mag/cell
     absolute magnetization    =     0.00 Bohr mag/cell

     convergence has been achieved in   7 iterations

     Writing output data file pwscf.save

     General routines

     Parallel routines
     Hubbard U routines

   This run was terminated on:  11: 6:13  12Feb2014

   JOB DONE.