     Program PWSCF v.5.0.2 (svn rev. 9656) starts on 11Feb2014 at 14: 3:10

     Current dimensions of program PWSCF are:
     Max number of different atomic species (ntypx) = 10
     Max number of k-points (npk) =  40000
     Max angular momentum in pseudopotentials (lmaxx) =  3
     Reading input from alpha_-0.15/alpha_-0.15.in
Warning: card &IONS ignored
Warning: card / ignored
Warning: card &CELL ignored
Warning: card / ignored

     Subspace diagonalization in iterative solution of the eigenvalue problem:
     a serial algorithm will be used

     bravais-lattice index     =            0
     lattice parameter (alat)  =      17.3477  a.u.
     unit-cell volume          =    3673.7913 (a.u.)^3
     number of atoms/cell      =           48
     number of atomic types    =            3
     number of electrons       =       448.00
     number of Kohn-Sham states=          672
     kinetic-energy cutoff     =      40.0000  Ry
     charge density cutoff     =     500.0000  Ry
     convergence threshold     =      1.0E-06
     mixing beta               =       0.7000
     number of iterations used =            8  plain     mixing
     Exchange-correlation      = SLA  PW   PBE  PBE ( 1 4 3 4 0)
     EXX-fraction              =        0.00

     celldm(1)=  17.347686  celldm(2)=   0.000000  celldm(3)=   0.000000
     celldm(4)=   0.000000  celldm(5)=   0.000000  celldm(6)=   0.000000

     crystal axes: (cart. coord. in units of alat)
               a(1) = (   1.000000   0.000000   0.000000 )
               a(2) = (   0.000000   1.000000   0.000000 )
               a(3) = (   0.000000   0.000000   0.703704 )

     reciprocal axes: (cart. coord. in units 2 pi/alat)
               b(1) = (  1.000000  0.000000  0.000000 )
               b(2) = (  0.000000  1.000000  0.000000 )
               b(3) = (  0.000000  0.000000  1.421053 )

     PseudoPot. # 1 for Pt read from file:
     /home/camp/zhonxu/pseudo/pt_pbe_v1.uspp.F.UPF
     MD5 check sum: 4c71d6ad5ef119f1eb26a4d0b7884226
     Pseudo is Ultrasoft + core correction, Zval = 16.0
     Generated by new atomic code, or converted to UPF format
     Using radial grid of  985 points,  6 beta functions with:
                l(1) =   0
                l(2) =   0
                l(3) =   1
                l(4) =   1
                l(5) =   2
                l(6) =   2
     Q(r) pseudized with  8 coefficients,  rinner =    1.300   1.300   1.300
                                                       1.300   1.300

     PseudoPot. # 2 for Pt read from file:
     /home/camp/zhonxu/pseudo/pt_pbe_v1.uspp.F.UPF
     MD5 check sum: 4c71d6ad5ef119f1eb26a4d0b7884226
     Pseudo is Ultrasoft + core correction, Zval = 16.0
     Generated by new atomic code, or converted to UPF format
     Using radial grid of  985 points,  6 beta functions with:
                l(1) =   0
                l(2) =   0
                l(3) =   1
                l(4) =   1
                l(5) =   2
                l(6) =   2
     Q(r) pseudized with  8 coefficients,  rinner =    1.300   1.300   1.300
                                                       1.300   1.300

     PseudoPot. # 3 for O  read from file:
     /home/camp/zhonxu/pseudo/o_pbe_v1.01.uspp.F.UPF
     MD5 check sum: 2bcb18d16ea4b960afae9ec6d52f22d2
     Pseudo is Ultrasoft + core correction, Zval =  6.0
     Generated by new atomic code, or converted to UPF format
     Using radial grid of  737 points,  5 beta functions with:
                l(1) =   0
                l(2) =   0
                l(3) =   1
                l(4) =   1
                l(5) =   2
     Q(r) pseudized with  8 coefficients,  rinner =    0.900   0.900   0.900
                                                       0.900   0.900

     atomic species   valence    mass     pseudopotential
        Pt0           16.00   195.08000     Pt( 1.00)
        Pt1           16.00   195.08000     Pt( 1.00)
        O2             6.00    15.99940     O ( 1.00)

     Starting magnetic structure
     atomic species   magnetization
        Pt0          0.000
        Pt1          0.000
        O2           0.000

     Simplified LDA+U calculation (l_max = 2) with parameters (eV):
     atomic species    L          U    alpha       J0     beta
        Pt0            2     0.0000  -0.1500   0.0000   0.0000
        Pt1            2     0.0000   0.0000   0.0000   0.0000
        O2             1     0.0000   0.0000   0.0000   0.0000

      8 Sym. Ops., with inversion, found

   Cartesian axes

     site n.     atom                  positions (alat units)
         1           Pt0 tau(   1) = (   0.0000000   0.0000000   0.0000000  )
         2           Pt1 tau(   2) = (   0.2500000   0.2500000   0.1759259  )
         3           Pt1 tau(   3) = (   0.0000000   0.0000000   0.3518519  )
         4           Pt1 tau(   4) = (   0.2500000   0.2500000   0.5277778  )
         5           Pt1 tau(   5) = (   0.0000000   0.5000000   0.0000000  )
         6           Pt1 tau(   6) = (   0.2500000   0.7500000   0.1759259  )
         7           Pt1 tau(   7) = (   0.0000000   0.5000000   0.3518519  )
         8           Pt1 tau(   8) = (   0.2500000   0.7500000   0.5277778  )
         9           Pt1 tau(   9) = (   0.5000000   0.0000000   0.0000000  )
        10           Pt1 tau(  10) = (   0.7500000   0.2500000   0.1759259  )
        11           Pt1 tau(  11) = (   0.5000000   0.0000000   0.3518519  )
        12           Pt1 tau(  12) = (   0.7500000   0.2500000   0.5277778  )
        13           Pt1 tau(  13) = (   0.5000000   0.5000000   0.0000000  )
        14           Pt1 tau(  14) = (   0.7500000   0.7500000   0.1759259  )
        15           Pt1 tau(  15) = (   0.5000000   0.5000000   0.3518519  )
        16           Pt1 tau(  16) = (   0.7500000   0.7500000   0.5277778  )
        17           O2  tau(  17) = (   0.1550000   0.1550000   0.0000000  )
        18           O2  tau(  18) = (  -0.1550000  -0.1550000   0.0000000  )
        19           O2  tau(  19) = (   0.4050000   0.0950000   0.1759259  )
        20           O2  tau(  20) = (   0.0950000   0.4050000   0.1759259  )
        21           O2  tau(  21) = (   0.1550000   0.1550000   0.3518519  )
        22           O2  tau(  22) = (  -0.1550000  -0.1550000   0.3518519  )
        23           O2  tau(  23) = (   0.4050000   0.0950000   0.5277778  )
        24           O2  tau(  24) = (   0.0950000   0.4050000   0.5277778  )
        25           O2  tau(  25) = (   0.1550000   0.6550000   0.0000000  )
        26           O2  tau(  26) = (  -0.1550000   0.3450000   0.0000000  )
        27           O2  tau(  27) = (   0.4050000   0.5950000   0.1759259  )
        28           O2  tau(  28) = (   0.0950000   0.9050000   0.1759259  )
        29           O2  tau(  29) = (   0.1550000   0.6550000   0.3518519  )
        30           O2  tau(  30) = (  -0.1550000   0.3450000   0.3518519  )
        31           O2  tau(  31) = (   0.4050000   0.5950000   0.5277778  )
        32           O2  tau(  32) = (   0.0950000   0.9050000   0.5277778  )
        33           O2  tau(  33) = (   0.6550000   0.1550000   0.0000000  )
        34           O2  tau(  34) = (   0.3450000  -0.1550000   0.0000000  )
        35           O2  tau(  35) = (   0.9050000   0.0950000   0.1759259  )
        36           O2  tau(  36) = (   0.5950000   0.4050000   0.1759259  )
        37           O2  tau(  37) = (   0.6550000   0.1550000   0.3518519  )
        38           O2  tau(  38) = (   0.3450000  -0.1550000   0.3518519  )
        39           O2  tau(  39) = (   0.9050000   0.0950000   0.5277778  )
        40           O2  tau(  40) = (   0.5950000   0.4050000   0.5277778  )
        41           O2  tau(  41) = (   0.6550000   0.6550000   0.0000000  )
        42           O2  tau(  42) = (   0.3450000   0.3450000   0.0000000  )
        43           O2  tau(  43) = (   0.9050000   0.5950000   0.1759259  )
        44           O2  tau(  44) = (   0.5950000   0.9050000   0.1759259  )
        45           O2  tau(  45) = (   0.6550000   0.6550000   0.3518519  )
        46           O2  tau(  46) = (   0.3450000   0.3450000   0.3518519  )
        47           O2  tau(  47) = (   0.9050000   0.5950000   0.5277778  )
        48           O2  tau(  48) = (   0.5950000   0.9050000   0.5277778  )

     number of k points=    42  Methfessel-Paxton smearing, width (Ry)=  0.0100
                       cart. coord. in units 2pi/alat
        k(    1) = (   0.0000000   0.0000000   0.0000000), wk =   0.0156250
        k(    2) = (   0.0000000   0.0000000   0.3552632), wk =   0.0312500
        k(    3) = (   0.0000000   0.0000000  -0.7105263), wk =   0.0156250
        k(    4) = (   0.0000000   0.2500000   0.0000000), wk =   0.0625000
        k(    5) = (   0.0000000   0.2500000   0.3552632), wk =   0.1250000
        k(    6) = (   0.0000000   0.2500000  -0.7105263), wk =   0.0625000
        k(    7) = (   0.0000000  -0.5000000   0.0000000), wk =   0.0312500
        k(    8) = (   0.0000000  -0.5000000   0.3552632), wk =   0.0625000
        k(    9) = (   0.0000000  -0.5000000  -0.7105263), wk =   0.0312500
        k(   10) = (   0.2500000   0.2500000   0.0000000), wk =   0.0312500
        k(   11) = (   0.2500000   0.2500000   0.3552632), wk =   0.0625000
        k(   12) = (   0.2500000   0.2500000  -0.7105263), wk =   0.0312500
        k(   13) = (   0.2500000  -0.5000000   0.0000000), wk =   0.0625000
        k(   14) = (   0.2500000  -0.5000000   0.3552632), wk =   0.1250000
        k(   15) = (   0.2500000  -0.5000000  -0.7105263), wk =   0.0625000
        k(   16) = (  -0.5000000  -0.5000000   0.0000000), wk =   0.0156250
        k(   17) = (  -0.5000000  -0.5000000   0.3552632), wk =   0.0312500
        k(   18) = (  -0.5000000  -0.5000000  -0.7105263), wk =   0.0156250
        k(   19) = (  -0.2500000   0.2500000   0.0000000), wk =   0.0312500
        k(   20) = (  -0.2500000   0.2500000  -0.3552632), wk =   0.0625000
        k(   21) = (  -0.2500000   0.2500000   0.7105263), wk =   0.0312500
        k(   22) = (   0.0000000   0.0000000   0.0000000), wk =   0.0156250
        k(   23) = (   0.0000000   0.0000000   0.3552632), wk =   0.0312500
        k(   24) = (   0.0000000   0.0000000  -0.7105263), wk =   0.0156250
        k(   25) = (   0.0000000   0.2500000   0.0000000), wk =   0.0625000
        k(   26) = (   0.0000000   0.2500000   0.3552632), wk =   0.1250000
        k(   27) = (   0.0000000   0.2500000  -0.7105263), wk =   0.0625000
        k(   28) = (   0.0000000  -0.5000000   0.0000000), wk =   0.0312500
        k(   29) = (   0.0000000  -0.5000000   0.3552632), wk =   0.0625000
        k(   30) = (   0.0000000  -0.5000000  -0.7105263), wk =   0.0312500
        k(   31) = (   0.2500000   0.2500000   0.0000000), wk =   0.0312500
        k(   32) = (   0.2500000   0.2500000   0.3552632), wk =   0.0625000
        k(   33) = (   0.2500000   0.2500000  -0.7105263), wk =   0.0312500
        k(   34) = (   0.2500000  -0.5000000   0.0000000), wk =   0.0625000
        k(   35) = (   0.2500000  -0.5000000   0.3552632), wk =   0.1250000
        k(   36) = (   0.2500000  -0.5000000  -0.7105263), wk =   0.0625000
[...]
    eigenvectors:
  0.000  1.000  0.000
  0.500  0.000  0.500
  0.500  0.000  0.500
    occupations:
  0.848 -0.000  0.000
 -0.000  0.910 -0.064
  0.000 -0.064  0.910
   spin  2
    eigenvalues:
  0.845  0.848  0.974
    eigenvectors:
  0.000  1.000  0.000
  0.500  0.000  0.500
  0.500  0.000  0.500
    occupations:
  0.848 -0.000  0.000
 -0.000  0.910 -0.064
  0.000 -0.064  0.910
atomic mag. moment =    -0.000000
atom   42   Tr[ns(na)] (up, down, total) =   2.66730  2.66730  5.33461
   spin  1
    eigenvalues:
  0.845  0.848  0.974
    eigenvectors:
  0.000  1.000  0.000
  0.500  0.000  0.500
  0.500  0.000  0.500
    occupations:
  0.848 -0.000  0.000
 -0.000  0.910 -0.064
  0.000 -0.064  0.910
   spin  2
    eigenvalues:
  0.845  0.848  0.974
    eigenvectors:
  0.000  1.000  0.000
  0.500  0.000  0.500
  0.500  0.000  0.500
    occupations:
  0.848 -0.000  0.000
 -0.000  0.910 -0.064
  0.000 -0.064  0.910
atomic mag. moment =    -0.000000
atom   43   Tr[ns(na)] (up, down, total) =   2.66722  2.66722  5.33444
   spin  1
    eigenvalues:
  0.845  0.848  0.974
    eigenvectors:
  0.000  1.000  0.000
  0.500  0.000  0.500
  0.500  0.000  0.500
    occupations:
  0.848 -0.000 -0.000
 -0.000  0.910  0.064
 -0.000  0.064  0.910
   spin  2
    eigenvalues:
  0.845  0.848  0.974
    eigenvectors:
  0.000  1.000  0.000
  0.500  0.000  0.500
  0.500  0.000  0.500
    occupations:
  0.848 -0.000 -0.000
 -0.000  0.910  0.064
 -0.000  0.064  0.910
atomic mag. moment =    -0.000000
atom   44   Tr[ns(na)] (up, down, total) =   2.66722  2.66722  5.33444
   spin  1
    eigenvalues:
  0.845  0.848  0.974
    eigenvectors:
  0.000  1.000  0.000
  0.500  0.000  0.500
  0.500  0.000  0.500
    occupations:
  0.848 -0.000 -0.000
 -0.000  0.910  0.064
 -0.000  0.064  0.910
   spin  2
    eigenvalues:
  0.845  0.848  0.974
    eigenvectors:
  0.000  1.000  0.000
  0.500  0.000  0.500
  0.500  0.000  0.500
    occupations:
  0.848 -0.000 -0.000
 -0.000  0.910  0.064
 -0.000  0.064  0.910
atomic mag. moment =    -0.000000
atom   45   Tr[ns(na)] (up, down, total) =   2.66732  2.66732  5.33463
   spin  1
    eigenvalues:
  0.845  0.848  0.974
    eigenvectors:
  0.000  1.000  0.000
  0.500  0.000  0.500
  0.500  0.000  0.500
    occupations:
  0.848 -0.000  0.000
 -0.000  0.910 -0.064
  0.000 -0.064  0.910
   spin  2
    eigenvalues:
  0.845  0.848  0.974
    eigenvectors:
  0.000  1.000  0.000
  0.500  0.000  0.500
  0.500  0.000  0.500
    occupations:
  0.848 -0.000  0.000
 -0.000  0.910 -0.064
  0.000 -0.064  0.910
atomic mag. moment =    -0.000000
atom   46   Tr[ns(na)] (up, down, total) =   2.66732  2.66732  5.33463
   spin  1
    eigenvalues:
  0.845  0.848  0.974
    eigenvectors:
  0.000  1.000  0.000
  0.500  0.000  0.500
  0.500  0.000  0.500
    occupations:
  0.848 -0.000  0.000
 -0.000  0.910 -0.064
  0.000 -0.064  0.910
   spin  2
    eigenvalues:
  0.845  0.848  0.974
    eigenvectors:
  0.000  1.000  0.000
  0.500  0.000  0.500
  0.500  0.000  0.500
    occupations:
  0.848 -0.000  0.000
 -0.000  0.910 -0.064
  0.000 -0.064  0.910
atomic mag. moment =    -0.000000
atom   47   Tr[ns(na)] (up, down, total) =   2.66722  2.66722  5.33444
   spin  1
    eigenvalues:
  0.845  0.848  0.974
    eigenvectors:
  0.000  1.000  0.000
  0.500  0.000  0.500
  0.500  0.000  0.500
    occupations:
  0.848  0.000  0.000
  0.000  0.910  0.064
  0.000  0.064  0.910
   spin  2
    eigenvalues:
  0.845  0.848  0.974
    eigenvectors:
  0.000  1.000  0.000
  0.500  0.000  0.500
  0.500  0.000  0.500
    occupations:
  0.848  0.000  0.000
  0.000  0.910  0.064
  0.000  0.064  0.910
atomic mag. moment =    -0.000000
atom   48   Tr[ns(na)] (up, down, total) =   2.66722  2.66722  5.33444
   spin  1
    eigenvalues:
  0.845  0.848  0.974
    eigenvectors:
  0.000  1.000  0.000
  0.500  0.000  0.500
  0.500  0.000  0.500
    occupations:
  0.848  0.000  0.000
  0.000  0.910  0.064
  0.000  0.064  0.910
   spin  2
    eigenvalues:
  0.845  0.848  0.974
    eigenvectors:
  0.000  1.000  0.000
  0.500  0.000  0.500
  0.500  0.000  0.500
    occupations:
  0.848  0.000  0.000
  0.000  0.910  0.064
  0.000  0.064  0.910
atomic mag. moment =    -0.000000
N of occupied +U levels = 308.8119534
 --- exit write_ns ---

 ------ SPIN UP ------------

          k = 0.0000 0.0000 0.0000 ( 15677 PWs)   bands (ev):

   -41.9311 -41.9311 -41.9309 -41.9309 -41.9308 -41.9306 -41.9302 -41.9072
   -41.8790 -41.8759 -41.8759 -41.8757 -41.8756 -41.8753 -41.8723 -41.8058
   -41.7143 -41.7142 -41.7133 -41.7133 -41.7132 -41.7131 -41.7124 -41.7099
   -41.7098 -41.7096 -41.7095 -41.7094 -41.7091 -41.7090 -41.7087 -41.6242
   -41.6081 -41.6079 -41.6077 -41.6070 -41.6067 -41.6066 -41.6055 -41.6006
   -41.6006 -41.6005 -41.6004 -41.6002 -41.6002 -41.6002 -41.5997 -41.5140
    -7.8195  -7.1841  -7.1798  -7.0865  -7.0862  -7.0860  -7.0859  -6.6919
    -6.5601  -6.5547  -6.5510  -6.5510  -6.5462  -6.5439  -6.4313  -6.4281
    -6.2928  -6.2875  -6.2008  -6.1965  -6.1802  -6.1801  -6.1795  -6.1775
    -6.0480  -6.0419  -6.0419  -6.0399  -5.8650  -5.8642  -5.7432  -5.7424
     3.2656   3.3507   3.3550   3.4217   4.4605   4.4676   4.4700   4.4707
     4.5547   4.5660   4.5666   4.5678   4.6437   4.6501   4.7321   4.7391
     4.7912   4.7920   4.8004   4.8064   4.8960   4.9082   4.9085   4.9087
     5.0501   5.0526   5.0547   5.0552   5.2972   5.3068   5.4097   5.4140
     5.4176   5.6693   5.6703   5.9809   5.9903   6.1640   6.1699   6.1701
     6.1721   6.8712   6.8721   6.8725   6.8741   6.8770   6.8925   6.8928
     6.8934   7.0086   7.0121   7.0333   7.0361   7.3168   7.3179   7.3226
     7.3235   7.4828   7.4921   7.5320   7.5413   7.5413   7.5435   7.5521
     7.5589   7.8559   7.9685   7.9686   7.9693   7.9712   8.0697   8.0701
     8.2515   8.2518   8.3381   8.3456   8.6464   8.6479   8.9641   8.9659
     9.0366   9.0429   9.0477   9.0479   9.0668   9.1601   9.1682   9.1769
     9.1833   9.1887   9.1935   9.3505   9.3831   9.4726   9.4819   9.5334
     9.5437   9.5537   9.5538   9.5575   9.5660   9.5661   9.5664   9.5756
     9.6184   9.6204   9.9637   9.9638   9.9644   9.9653   9.9826   9.9864
     9.9866   9.9874  10.2240  10.2269  10.2269  10.2278  10.2737  10.2739
    10.4614  10.4670  10.4670  10.4690  10.9705  11.1879  11.1900  11.4128
    11.4146  11.5718  11.5727  11.6993  11.7009  11.7013  11.7015  11.8531
    12.0770  12.0795  12.0804  12.0805  12.3019  12.3026  12.3505  12.3516
    12.5671  12.5672  12.5676  12.5678  12.9258  13.5181  13.5194  13.5443
    13.5452  13.6586  13.6612  14.0183  14.0193  14.5115  14.5122  14.8800
    14.8802  14.8803  14.8809  15.0547  15.0549  15.0552  15.0567  15.4946
    15.4953  15.5101  15.5109  15.8667  15.8669  15.8677  15.8680  16.2516
    16.7690  19.3318  19.3325  19.3333  19.3364  20.7972  20.7996  21.1045
    21.1059  21.2842  21.2864  21.3116  21.3151  21.3614  21.3623  22.1035
    22.1036  22.1041  22.1102  22.1268  22.1271  22.1306  22.1310  22.1505
    22.1516  22.1523  22.1525  22.2139  22.2152  23.0235  24.2380  24.2395
    24.3536  24.3548  24.6827  24.6839  25.1663  25.1670  25.2115  25.2119
    25.4748  25.7226  25.7362  25.7367  25.7382  25.7384  25.7572  25.7575
    25.7581  25.7607  26.2557  26.2560  26.2571  26.2574  26.6506  26.6515
    26.7200  26.7230  27.2517  27.2519  27.2520  27.2532  27.2725  27.2735
    27.5314  27.5316  27.5344  27.5355  27.5785  28.0535  28.3259  28.5487
    28.5501  28.8822  28.8830  28.8847  28.8868  29.0959  29.0977  29.8167
    29.8171  29.8174  29.8216  29.8533  29.8575  29.9783  29.9792  30.0544
    30.0602  30.1021  30.1027  30.1040  30.1046  30.3886  30.3907  30.3927
    30.3928  30.3932  30.3936  30.4036  30.4126  30.4198  30.4199  30.4203
    30.4209  30.4211  30.5006  30.7868  30.7950  30.8002  31.0358  31.0369
    31.0375  31.0382  31.7049  31.7062  31.7881  31.7889  32.2824  32.2846
    32.2852  32.2858  32.7938  32.7970  32.9354  32.9363  33.3486  33.3513
    33.8686  33.8706  33.9338  33.9340  34.3415  34.3424  34.3442  34.3447
    34.7981  34.7983  34.8607  34.8635  34.8899  34.8916  34.8917  34.8934
    35.0767  35.0793  35.3348  35.3350  35.5516  36.1779  36.1787  36.1811
    36.1813  36.1850  36.1851  36.2428  36.2433  36.2448  36.2465  36.9234
    36.9257  36.9998  37.0016  37.0017  37.0031  37.2763  37.4682  37.4685
    37.4704  37.4708  37.5238  37.5261  37.5391  37.5403  37.8341  38.0338
    38.0346  38.3529  38.3532  38.3545  38.3547  38.6270  38.6290  38.7316
    38.7332  38.8310  38.8321  38.8323  38.8341  38.9475  38.9491  39.1025
    39.1027  39.1429  39.1642  39.1642  39.1645  39.1651  39.5731  39.6517
    40.1919  40.1921  40.3608  40.3616  40.6117  41.0886  41.0891  41.0895
    41.0912  41.1066  41.1093  41.2902  41.2904  41.2909  41.2931  41.3854
    41.3864  41.8735  41.8758  42.0510  42.1626  42.1628  42.1650  42.1650
[...]
    47.1419  47.2079  47.2444  47.2463  47.6949  47.6983  47.7639  47.7644
    47.7647  47.7651  47.8391  47.8402  48.1794  48.1807  48.3355  48.3358
    48.4824  48.4831  48.4919  48.4935  48.5414  48.5415  48.5448  48.5448
    48.8137  48.8152  49.1233  49.1237  49.1248  49.1303  49.2173  49.2177
    49.3027  49.3036  49.5487  49.5490  49.5502  49.5506  49.6879  50.1034
    50.1051  50.3023  50.3071  50.3766  50.3769  50.4861  50.6070  50.6071
    50.7683  50.7691  50.7698  50.7720  51.1621  51.1622  51.1628  51.1632
    51.2610  51.2619  51.5650  51.5661  51.6237  51.6241  51.6265  51.6267
    51.6275  51.6285  51.9398  52.0652  52.0658  52.1138  52.1138  52.1138
    52.1148  52.2204  52.2204  52.6716  52.6736  52.8757  52.8764  52.8774
    52.8792  53.0178  53.0888  53.0902  53.1324  53.4400  53.4405  53.4614
    53.7654  54.2386  54.2388  54.2630  54.2636  54.2639  54.2646  54.2979
    54.2994  54.3006  54.3007  54.5287  54.5288  54.5315  54.5322  54.8272
    54.8277  54.9596  54.9614  55.3559  55.3576  55.4275  55.4294  55.4301
    55.4320  55.4476  55.4477  55.4481  55.4499  55.5387  55.5399  55.8648

[...]

          k =-0.5000-0.5000 0.0000 ( 15760 PWs)   bands (ev):

[...]

 ------ SPIN DOWN ----------

[...]

          k = 0.2500-0.5000-0.7105 ( 15696 PWs)   bands (ev):

[...]

          k =-0.2500 0.2500 0.7105 ( 15684 PWs)   bands (ev):

   -41.9055 -41.9055 -41.9046 -41.9045 -41.9039 -41.9038 -41.9035 -41.9033
   -41.9027 -41.9026 -41.9026 -41.9025 -41.9012 -41.9012 -41.8988 -41.8141
   -41.7120 -41.7119 -41.7118 -41.7117 -41.7117 -41.7117 -41.7114 -41.7113
   -41.7112 -41.7110 -41.7109 -41.7109 -41.7109 -41.7108 -41.7094 -41.6241
   -41.6042 -41.6042 -41.6042 -41.6041 -41.6040 -41.6040 -41.6040 -41.6040
   -41.6037 -41.6035 -41.6035 -41.6033 -41.6030 -41.6025 -41.6001 -41.5142
    -7.2553  -7.2544  -6.9610  -6.9605  -6.9599  -6.9592  -6.8822  -6.8806
    -6.7197  -6.7168  -6.5395  -6.5393  -6.5386  -6.5382  -6.4612  -6.4558
    -6.2741  -6.2664  -6.2657  -6.2655  -6.1670  -6.1612  -6.1184  -6.1093
    -6.1092  -6.1091  -6.1041  -6.1013  -6.0676  -6.0664  -5.9933  -5.9921
     3.9433   3.9493   3.9601   3.9645   4.2918   4.2966   4.3035   4.3064
     4.3075   4.3075   4.3143   4.3158   4.8650   4.8742   4.8744   4.8748
     4.9991   5.0064   5.1214   5.1254   5.2029   5.2083   5.2096   5.2168
     5.2169   5.2185   5.3828   5.3834   5.3839   5.3862   5.4193   5.4234
     5.5939   5.6115   5.6117   5.6119   5.9437   5.9447   6.1744   6.1749
     6.1751   6.1754   6.1910   6.1925   6.2078   6.2172   6.7022   6.7032
     6.8324   6.8329   6.9248   6.9353   6.9354   6.9359   7.1420   7.1435
     7.1462   7.1465   7.2793   7.2795   7.7494   7.7505   7.7541   7.7551
     7.7669   7.7671   7.7758   7.7789   7.7948   7.8037   7.8257   7.8335
     7.9257   7.9264   7.9300   7.9305   8.1621   8.1650   8.3746   8.3751
     8.4426   8.4448   8.6059   8.6063   8.6914   8.6985   8.6987   8.6996
     9.1626   9.1645   9.2203   9.2231   9.2263   9.2276   9.2838   9.2866
     9.7390   9.7398   9.7672   9.7682  10.2736  10.2924  10.2926  10.2944
    10.2972  10.3000  10.3726  10.3792  10.4605  10.4611  10.4617  10.4618
    10.5043  10.5048  10.6076  10.6077  10.6079  10.6083  10.6862  10.6887
    10.8278  10.8286  10.9665  10.9703  10.9703  10.9712  11.2430  11.2438
    11.6707  11.6721  11.7771  11.7774  11.7777  11.7779  11.8303  11.8326
    11.9006  11.9014  12.0052  12.0066  12.0068  12.0072  12.3437  12.3441
    13.3089  13.3100  13.3100  13.3108  13.3657  13.3664  13.7000  13.7013
    13.7013  13.7034  13.7320  13.7338  13.9202  13.9215  14.2803  14.2818
    14.3636  14.3638  14.3936  14.3939  14.8078  14.8079  14.8084  14.8093
    15.0651  15.0656  15.6623  15.6624  15.6632  15.6637  15.6948  15.6950
    18.6295  18.6320  19.7580  19.7589  19.7590  19.7624  20.4532  20.4565
    21.2283  21.2302  21.2845  21.2851  21.2856  21.2904  22.2548  22.2568
    22.3477  22.3517  22.5937  22.5959  22.8234  22.8243  22.8591  22.8598
    22.8601  22.8646  22.9835  22.9868  23.0336  23.0337  23.0351  23.0407
    24.4265  24.4284  24.6500  24.6502  24.6513  24.6515  24.6538  24.6548
    25.1454  25.1470  25.6225  25.6227  25.6236  25.6248  25.9545  25.9568
    26.2102  26.2123  26.2730  26.2740  26.6887  26.6901  26.6906  26.6911
    26.9941  26.9952  26.9968  26.9971  27.0167  27.0178  27.1282  27.1295
    27.3447  27.3458  27.4208  27.4210  27.4225  27.4225  27.5162  27.5188
    27.7465  27.7485  28.3630  28.3633  28.3657  28.3661  28.5767  28.5782
    28.5824  28.5849  29.1629  29.1640  29.1641  29.1686  30.3746  30.3757
    30.3799  30.3801  30.3824  30.3878  30.3888  30.3910  30.3934  30.4038
    30.4038  30.4039  30.4044  30.4091  30.4158  30.4902  30.7095  30.7096
    30.7097  30.7169  30.8315  30.8326  31.1420  31.1428  31.6192  31.6203
    31.6213  31.6214  31.7765  31.7800  32.2737  32.2775  32.2880  32.2882
    33.0395  33.0416  33.0419  33.0422  33.1921  33.1924  33.6818  33.6828
    33.7808  33.7812  34.5152  34.5154  34.5164  34.5166  34.5970  34.5997
    34.6457  34.6475  34.6624  34.6627  34.7237  34.7258  34.8141  34.8144
    34.8151  34.8185  35.6438  35.6453  35.6681  35.6683  35.6693  35.6703
    35.7530  35.7539  35.7545  35.7547  35.9569  35.9583  37.2265  37.2270
    37.2271  37.2274  37.3207  37.3219  37.4388  37.4389  37.4841  37.4848
    37.5247  37.5248  37.5249  37.5258  37.5529  37.5557  37.8345  37.8345
    37.8481  37.8481  38.0596  38.0609  38.1189  38.1195  38.3624  38.3633
    38.3638  38.3661  38.5173  38.5175  38.5176  38.5176  38.7012  38.7036
    39.2302  39.2311  39.3698  39.3700  39.3717  39.3743  39.8319  39.8324
    40.3878  40.3894  40.4807  40.4842  40.7071  40.7077  40.8633  40.8638
    40.8645  40.8662  40.9335  40.9356  41.5102  41.5119  41.6145  41.6148
    41.6157  41.6191  41.6296  41.6310  41.8742  41.8744  41.8747  41.8753
[...]
    47.7268  47.7312  47.8569  47.8575  47.8596  47.8604  48.0471  48.0471
    48.0636  48.0645  48.1938  48.1940  48.1946  48.1949  48.3604  48.3617
    48.4060  48.4074  48.6643  48.6649  48.6672  48.6694  49.0300  49.0324
    49.1704  49.1707  49.2599  49.2600  49.2607  49.2611  49.4932  49.4960
    49.6360  49.6367  49.6376  49.6382  49.7318  49.7318  49.7779  49.7794
    49.9138  49.9141  49.9765  49.9772  49.9784  49.9801  50.5888  50.5893
    50.5901  50.5911  50.6202  50.6231  50.8404  50.8417  51.0419  51.0426
    51.1533  51.1563  51.3107  51.3110  51.3114  51.3115  51.7428  51.7437
    52.1130  52.1134  52.2368  52.2372  52.2378  52.2400  52.3522  52.3528
    52.5475  52.5476  52.8853  52.8867  52.9214  52.9232  52.9232  52.9275
    52.9654  52.9668  53.1267  53.1280  53.5659  53.5659  53.7406  53.7406
    53.7408  53.7408  53.7790  53.7796  53.7801  53.7808  53.9627  53.9628
    54.0229  54.0236  54.4503  54.4509  54.4537  54.4544  54.4545  54.4551
    54.7694  54.7712  54.7716  54.7718  54.7909  54.7923  55.2209  55.2210
    55.2824  55.2826  55.3916  55.3931  55.6156  55.6157  55.6166  55.6178

     the Fermi energy is    12.4848 ev

!    total energy              =   -4359.61529577 Ry
     Harris-Foulkes estimate   =   -4359.61529664 Ry
     estimated scf accuracy    <       0.00000091 Ry

     The total energy is the sum of the following terms:

     one-electron contribution =   -1092.74206726 Ry
     hartree contribution      =     841.64321059 Ry
     xc contribution           =   -1097.30477747 Ry
     ewald contribution        =   -3011.11594880 Ry
     Hubbard energy            =      -0.09534126 Ry
     smearing contrib. (-TS)   =      -0.00037158 Ry

     total magnetization       =     0.00 Bohr mag/cell
     absolute magnetization    =     0.00 Bohr mag/cell

     convergence has been achieved in  10 iterations

     Writing output data file pwscf.save

     General routines

     Parallel routines
     Hubbard U routines

   This run was terminated on:  20:46:55  11Feb2014

   JOB DONE.