     Program PWSCF v.5.0.2 (svn rev. 9656) starts on 12Feb2014 at 11:10:40

     Current dimensions of program PWSCF are:
     Max number of different atomic species (ntypx) = 10
     Max number of k-points (npk) =  40000
     Max angular momentum in pseudopotentials (lmaxx) =  3
     Reading input from alpha_0.15/alpha_0.15.in
Warning: card &IONS ignored
Warning: card / ignored
Warning: card &CELL ignored
Warning: card / ignored

     Subspace diagonalization in iterative solution of the eigenvalue problem:
     a serial algorithm will be used

     bravais-lattice index     =            0
     lattice parameter (alat)  =      17.3477  a.u.
     unit-cell volume          =    3673.7913 (a.u.)^3
     number of atoms/cell      =           48
     number of atomic types    =            3
     number of electrons       =       448.00
     number of Kohn-Sham states=          672
     kinetic-energy cutoff     =      40.0000  Ry
     charge density cutoff     =     500.0000  Ry
     convergence threshold     =      1.0E-06
     mixing beta               =       0.7000
     number of iterations used =            8  plain     mixing
     Exchange-correlation      = SLA  PW   PBE  PBE ( 1 4 3 4 0)
     EXX-fraction              =        0.00

     celldm(1)=  17.347686  celldm(2)=   0.000000  celldm(3)=   0.000000
     celldm(4)=   0.000000  celldm(5)=   0.000000  celldm(6)=   0.000000

     crystal axes: (cart. coord. in units of alat)
               a(1) = (   1.000000   0.000000   0.000000 )
               a(2) = (   0.000000   1.000000   0.000000 )
               a(3) = (   0.000000   0.000000   0.703704 )

     reciprocal axes: (cart. coord. in units 2 pi/alat)
               b(1) = (  1.000000  0.000000  0.000000 )
               b(2) = (  0.000000  1.000000  0.000000 )
               b(3) = (  0.000000  0.000000  1.421053 )

     PseudoPot. # 1 for Pt read from file:
     /home/camp/zhonxu/pseudo/pt_pbe_v1.uspp.F.UPF
     MD5 check sum: 4c71d6ad5ef119f1eb26a4d0b7884226
     Pseudo is Ultrasoft + core correction, Zval = 16.0
     Generated by new atomic code, or converted to UPF format
     Using radial grid of  985 points,  6 beta functions with:
                l(1) =   0
                l(2) =   0
                l(3) =   1
                l(4) =   1
                l(5) =   2
                l(6) =   2
     Q(r) pseudized with  8 coefficients,  rinner =    1.300   1.300   1.300
                                                       1.300   1.300

     PseudoPot. # 2 for Pt read from file:
     /home/camp/zhonxu/pseudo/pt_pbe_v1.uspp.F.UPF
     MD5 check sum: 4c71d6ad5ef119f1eb26a4d0b7884226
     Pseudo is Ultrasoft + core correction, Zval = 16.0
     Generated by new atomic code, or converted to UPF format
     Using radial grid of  985 points,  6 beta functions with:
                l(1) =   0
                l(2) =   0
                l(3) =   1
                l(4) =   1
                l(5) =   2
                l(6) =   2
     Q(r) pseudized with  8 coefficients,  rinner =    1.300   1.300   1.300
                                                       1.300   1.300

     PseudoPot. # 3 for O  read from file:
     /home/camp/zhonxu/pseudo/o_pbe_v1.01.uspp.F.UPF
     MD5 check sum: 2bcb18d16ea4b960afae9ec6d52f22d2
     Pseudo is Ultrasoft + core correction, Zval =  6.0
     Generated by new atomic code, or converted to UPF format
     Using radial grid of  737 points,  5 beta functions with:
                l(1) =   0
                l(2) =   0
                l(3) =   1
                l(4) =   1
                l(5) =   2
     Q(r) pseudized with  8 coefficients,  rinner =    0.900   0.900   0.900
                                                       0.900   0.900

     atomic species   valence    mass     pseudopotential
        Pt0           16.00   195.08000     Pt( 1.00)
        Pt1           16.00   195.08000     Pt( 1.00)
        O2             6.00    15.99940     O ( 1.00)

     Starting magnetic structure
     atomic species   magnetization
        Pt0          0.000
        Pt1          0.000
        O2           0.000

     Simplified LDA+U calculation (l_max = 2) with parameters (eV):
     atomic species    L          U    alpha       J0     beta
        Pt0            2     0.0000   0.1500   0.0000   0.0000
        Pt1            2     0.0000   0.0000   0.0000   0.0000
        O2             1     0.0000   0.0000   0.0000   0.0000

      8 Sym. Ops., with inversion, found

   Cartesian axes

     site n.     atom                  positions (alat units)
         1           Pt0 tau(   1) = (   0.0000000   0.0000000   0.0000000  )
         2           Pt1 tau(   2) = (   0.2500000   0.2500000   0.1759259  )
         3           Pt1 tau(   3) = (   0.0000000   0.0000000   0.3518519  )
         4           Pt1 tau(   4) = (   0.2500000   0.2500000   0.5277778  )
         5           Pt1 tau(   5) = (   0.0000000   0.5000000   0.0000000  )
         6           Pt1 tau(   6) = (   0.2500000   0.7500000   0.1759259  )
         7           Pt1 tau(   7) = (   0.0000000   0.5000000   0.3518519  )
         8           Pt1 tau(   8) = (   0.2500000   0.7500000   0.5277778  )
         9           Pt1 tau(   9) = (   0.5000000   0.0000000   0.0000000  )
        10           Pt1 tau(  10) = (   0.7500000   0.2500000   0.1759259  )
        11           Pt1 tau(  11) = (   0.5000000   0.0000000   0.3518519  )
        12           Pt1 tau(  12) = (   0.7500000   0.2500000   0.5277778  )
        13           Pt1 tau(  13) = (   0.5000000   0.5000000   0.0000000  )
        14           Pt1 tau(  14) = (   0.7500000   0.7500000   0.1759259  )
        15           Pt1 tau(  15) = (   0.5000000   0.5000000   0.3518519  )
        16           Pt1 tau(  16) = (   0.7500000   0.7500000   0.5277778  )
        17           O2  tau(  17) = (   0.1550000   0.1550000   0.0000000  )
        18           O2  tau(  18) = (  -0.1550000  -0.1550000   0.0000000  )
        19           O2  tau(  19) = (   0.4050000   0.0950000   0.1759259  )
        20           O2  tau(  20) = (   0.0950000   0.4050000   0.1759259  )
        21           O2  tau(  21) = (   0.1550000   0.1550000   0.3518519  )
        22           O2  tau(  22) = (  -0.1550000  -0.1550000   0.3518519  )
        23           O2  tau(  23) = (   0.4050000   0.0950000   0.5277778  )
        24           O2  tau(  24) = (   0.0950000   0.4050000   0.5277778  )
        25           O2  tau(  25) = (   0.1550000   0.6550000   0.0000000  )
        26           O2  tau(  26) = (  -0.1550000   0.3450000   0.0000000  )
        27           O2  tau(  27) = (   0.4050000   0.5950000   0.1759259  )
        28           O2  tau(  28) = (   0.0950000   0.9050000   0.1759259  )
        29           O2  tau(  29) = (   0.1550000   0.6550000   0.3518519  )
        30           O2  tau(  30) = (  -0.1550000   0.3450000   0.3518519  )
        31           O2  tau(  31) = (   0.4050000   0.5950000   0.5277778  )
        32           O2  tau(  32) = (   0.0950000   0.9050000   0.5277778  )
        33           O2  tau(  33) = (   0.6550000   0.1550000   0.0000000  )
        34           O2  tau(  34) = (   0.3450000  -0.1550000   0.0000000  )
        35           O2  tau(  35) = (   0.9050000   0.0950000   0.1759259  )
        36           O2  tau(  36) = (   0.5950000   0.4050000   0.1759259  )
        37           O2  tau(  37) = (   0.6550000   0.1550000   0.3518519  )
        38           O2  tau(  38) = (   0.3450000  -0.1550000   0.3518519  )
        39           O2  tau(  39) = (   0.9050000   0.0950000   0.5277778  )
        40           O2  tau(  40) = (   0.5950000   0.4050000   0.5277778  )
        41           O2  tau(  41) = (   0.6550000   0.6550000   0.0000000  )
        42           O2  tau(  42) = (   0.3450000   0.3450000   0.0000000  )
        43           O2  tau(  43) = (   0.9050000   0.5950000   0.1759259  )
        44           O2  tau(  44) = (   0.5950000   0.9050000   0.1759259  )
        45           O2  tau(  45) = (   0.6550000   0.6550000   0.3518519  )
        46           O2  tau(  46) = (   0.3450000   0.3450000   0.3518519  )
        47           O2  tau(  47) = (   0.9050000   0.5950000   0.5277778  )
        48           O2  tau(  48) = (   0.5950000   0.9050000   0.5277778  )

     number of k points=    42  Methfessel-Paxton smearing, width (Ry)=  0.0100
                       cart. coord. in units 2pi/alat
        k(    1) = (   0.0000000   0.0000000   0.0000000), wk =   0.0156250
        k(    2) = (   0.0000000   0.0000000   0.3552632), wk =   0.0312500
        k(    3) = (   0.0000000   0.0000000  -0.7105263), wk =   0.0156250
        k(    4) = (   0.0000000   0.2500000   0.0000000), wk =   0.0625000
        k(    5) = (   0.0000000   0.2500000   0.3552632), wk =   0.1250000
        k(    6) = (   0.0000000   0.2500000  -0.7105263), wk =   0.0625000
        k(    7) = (   0.0000000  -0.5000000   0.0000000), wk =   0.0312500
        k(    8) = (   0.0000000  -0.5000000   0.3552632), wk =   0.0625000
        k(    9) = (   0.0000000  -0.5000000  -0.7105263), wk =   0.0312500
        k(   10) = (   0.2500000   0.2500000   0.0000000), wk =   0.0312500
        k(   11) = (   0.2500000   0.2500000   0.3552632), wk =   0.0625000
        k(   12) = (   0.2500000   0.2500000  -0.7105263), wk =   0.0312500
        k(   13) = (   0.2500000  -0.5000000   0.0000000), wk =   0.0625000
        k(   14) = (   0.2500000  -0.5000000   0.3552632), wk =   0.1250000
        k(   15) = (   0.2500000  -0.5000000  -0.7105263), wk =   0.0625000
        k(   16) = (  -0.5000000  -0.5000000   0.0000000), wk =   0.0156250
        k(   17) = (  -0.5000000  -0.5000000   0.3552632), wk =   0.0312500
        k(   18) = (  -0.5000000  -0.5000000  -0.7105263), wk =   0.0156250
        k(   19) = (  -0.2500000   0.2500000   0.0000000), wk =   0.0312500
        k(   20) = (  -0.2500000   0.2500000  -0.3552632), wk =   0.0625000
        k(   21) = (  -0.2500000   0.2500000   0.7105263), wk =   0.0312500
        k(   22) = (   0.0000000   0.0000000   0.0000000), wk =   0.0156250
        k(   23) = (   0.0000000   0.0000000   0.3552632), wk =   0.0312500
        k(   24) = (   0.0000000   0.0000000  -0.7105263), wk =   0.0156250
        k(   25) = (   0.0000000   0.2500000   0.0000000), wk =   0.0625000
        k(   26) = (   0.0000000   0.2500000   0.3552632), wk =   0.1250000
        k(   27) = (   0.0000000   0.2500000  -0.7105263), wk =   0.0625000
        k(   28) = (   0.0000000  -0.5000000   0.0000000), wk =   0.0312500
        k(   29) = (   0.0000000  -0.5000000   0.3552632), wk =   0.0625000
        k(   30) = (   0.0000000  -0.5000000  -0.7105263), wk =   0.0312500
        k(   31) = (   0.2500000   0.2500000   0.0000000), wk =   0.0312500
        k(   32) = (   0.2500000   0.2500000   0.3552632), wk =   0.0625000
        k(   33) = (   0.2500000   0.2500000  -0.7105263), wk =   0.0312500
        k(   34) = (   0.2500000  -0.5000000   0.0000000), wk =   0.0625000
        k(   35) = (   0.2500000  -0.5000000   0.3552632), wk =   0.1250000
        k(   36) = (   0.2500000  -0.5000000  -0.7105263), wk =   0.0625000
[...]
    eigenvectors:
  0.000  1.000  0.000
  0.500  0.000  0.500
  0.500  0.000  0.500
    occupations:
  0.848 -0.000  0.000
 -0.000  0.910 -0.064
  0.000 -0.064  0.910
   spin  2
    eigenvalues:
  0.845  0.848  0.974
    eigenvectors:
  0.000  1.000  0.000
  0.500  0.000  0.500
  0.500  0.000  0.500
    occupations:
  0.848 -0.000  0.000
 -0.000  0.910 -0.064
  0.000 -0.064  0.910
atomic mag. moment =    -0.000000
atom   42   Tr[ns(na)] (up, down, total) =   2.66724  2.66724  5.33447
   spin  1
    eigenvalues:
  0.845  0.848  0.974
    eigenvectors:
  0.000  1.000  0.000
  0.500  0.000  0.500
  0.500  0.000  0.500
    occupations:
  0.848 -0.000  0.000
 -0.000  0.910 -0.064
  0.000 -0.064  0.910
   spin  2
    eigenvalues:
  0.845  0.848  0.974
    eigenvectors:
  0.000  1.000  0.000
  0.500  0.000  0.500
  0.500  0.000  0.500
    occupations:
  0.848 -0.000  0.000
 -0.000  0.910 -0.064
  0.000 -0.064  0.910
atomic mag. moment =    -0.000000
atom   43   Tr[ns(na)] (up, down, total) =   2.66730  2.66730  5.33459
   spin  1
    eigenvalues:
  0.845  0.848  0.974
    eigenvectors:
  0.000  1.000  0.000
  0.500  0.000  0.500
  0.500  0.000  0.500
    occupations:
  0.848  0.000  0.000
  0.000  0.910  0.064
  0.000  0.064  0.910
   spin  2
    eigenvalues:
  0.845  0.848  0.974
    eigenvectors:
  0.000  1.000  0.000
  0.500  0.000  0.500
  0.500  0.000  0.500
    occupations:
  0.848  0.000  0.000
  0.000  0.910  0.064
  0.000  0.064  0.910
atomic mag. moment =    -0.000000
atom   44   Tr[ns(na)] (up, down, total) =   2.66730  2.66730  5.33459
   spin  1
    eigenvalues:
  0.845  0.848  0.974
    eigenvectors:
  0.000  1.000  0.000
  0.500  0.000  0.500
  0.500  0.000  0.500
    occupations:
  0.848  0.000  0.000
  0.000  0.910  0.064
  0.000  0.064  0.910
   spin  2
    eigenvalues:
  0.845  0.848  0.974
    eigenvectors:
  0.000  1.000  0.000
  0.500  0.000  0.500
  0.500  0.000  0.500
    occupations:
  0.848  0.000  0.000
  0.000  0.910  0.064
  0.000  0.064  0.910
atomic mag. moment =    -0.000000
atom   45   Tr[ns(na)] (up, down, total) =   2.66725  2.66725  5.33449
   spin  1
    eigenvalues:
  0.845  0.848  0.974
    eigenvectors:
  0.000  1.000  0.000
  0.500  0.000  0.500
  0.500  0.000  0.500
    occupations:
  0.848 -0.000  0.000
 -0.000  0.910 -0.064
  0.000 -0.064  0.910
   spin  2
    eigenvalues:
  0.845  0.848  0.974
    eigenvectors:
  0.000  1.000  0.000
  0.500  0.000  0.500
  0.500  0.000  0.500
    occupations:
  0.848 -0.000  0.000
 -0.000  0.910 -0.064
  0.000 -0.064  0.910
atomic mag. moment =    -0.000000
atom   46   Tr[ns(na)] (up, down, total) =   2.66725  2.66725  5.33449
   spin  1
    eigenvalues:
  0.845  0.848  0.974
    eigenvectors:
  0.000  1.000  0.000
  0.500  0.000  0.500
  0.500  0.000  0.500
    occupations:
  0.848 -0.000  0.000
 -0.000  0.910 -0.064
  0.000 -0.064  0.910
   spin  2
    eigenvalues:
  0.845  0.848  0.974
    eigenvectors:
  0.000  1.000  0.000
  0.500  0.000  0.500
  0.500  0.000  0.500
    occupations:
  0.848 -0.000  0.000
 -0.000  0.910 -0.064
  0.000 -0.064  0.910
atomic mag. moment =    -0.000000
atom   47   Tr[ns(na)] (up, down, total) =   2.66730  2.66730  5.33459
   spin  1
    eigenvalues:
  0.845  0.848  0.974
    eigenvectors:
  0.000  1.000  0.000
  0.500  0.000  0.500
  0.500  0.000  0.500
    occupations:
  0.848 -0.000 -0.000
 -0.000  0.910  0.064
 -0.000  0.064  0.910
   spin  2
    eigenvalues:
  0.845  0.848  0.974
    eigenvectors:
  0.000  1.000  0.000
  0.500  0.000  0.500
  0.500  0.000  0.500
    occupations:
  0.848 -0.000 -0.000
 -0.000  0.910  0.064
 -0.000  0.064  0.910
atomic mag. moment =    -0.000000
atom   48   Tr[ns(na)] (up, down, total) =   2.66730  2.66730  5.33459
   spin  1
    eigenvalues:
  0.845  0.848  0.974
    eigenvectors:
  0.000  1.000  0.000
  0.500  0.000  0.500
  0.500  0.000  0.500
    occupations:
  0.848 -0.000 -0.000
 -0.000  0.910  0.064
 -0.000  0.064  0.910
   spin  2
    eigenvalues:
  0.845  0.848  0.974
    eigenvectors:
  0.000  1.000  0.000
  0.500  0.000  0.500
  0.500  0.000  0.500
    occupations:
  0.848 -0.000 -0.000
 -0.000  0.910  0.064
 -0.000  0.064  0.910
atomic mag. moment =    -0.000000
N of occupied +U levels = 308.8028520
 --- exit write_ns ---

 ------ SPIN UP ------------

          k = 0.0000 0.0000 0.0000 ( 15677 PWs)   bands (ev):

   -41.9970 -41.9268 -41.9265 -41.9262 -41.9262 -41.9262 -41.9260 -41.9259
   -41.8946 -41.8744 -41.8714 -41.8713 -41.8711 -41.8710 -41.8710 -41.8677
   -41.7964 -41.7107 -41.7093 -41.7092 -41.7090 -41.7084 -41.7082 -41.7081
   -41.7080 -41.7051 -41.7048 -41.7048 -41.7048 -41.7046 -41.7046 -41.7044
   -41.6890 -41.6034 -41.6034 -41.6030 -41.6030 -41.6025 -41.6022 -41.6019
   -41.6019 -41.5962 -41.5960 -41.5959 -41.5955 -41.5955 -41.5955 -41.5955
    -7.8168  -7.1762  -7.1722  -7.0827  -7.0822  -7.0820  -7.0818  -6.6810
    -6.5464  -6.5462  -6.5441  -6.5419  -6.5383  -6.5380  -6.4261  -6.4228
    -6.2838  -6.2786  -6.1927  -6.1876  -6.1783  -6.1766  -6.1757  -6.1755
    -6.0393  -6.0375  -6.0371  -6.0313  -5.8620  -5.8614  -5.7402  -5.7395
     3.2746   3.3612   3.3649   3.4349   4.4753   4.4757   4.4777   4.4844
     4.5694   4.5711   4.5714   4.5826   4.6527   4.6591   4.7453   4.7498
     4.7939   4.7949   4.8123   4.8175   4.9123   4.9130   4.9130   4.9269
     5.0599   5.0601   5.0639   5.0647   5.3093   5.3187   5.4177   5.4222
     5.4335   5.6712   5.6722   5.9932   6.0026   6.1730   6.1747   6.1752
     6.1809   6.8729   6.8742   6.8751   6.8758   6.8965   6.8967   6.8972
     6.9110   7.0151   7.0182   7.0392   7.0425   7.3266   7.3273   7.3314
     7.3324   7.4954   7.5032   7.5438   7.5458   7.5461   7.5555   7.5628
     7.5720   7.8582   7.9699   7.9715   7.9723   7.9727   8.0721   8.0725
     8.2539   8.2542   8.3494   8.3570   8.6489   8.6503   8.9676   8.9692
     9.0523   9.0526   9.0565   9.0639   9.0789   9.1734   9.1786   9.1887
     9.1944   9.1987   9.2078   9.3630   9.3858   9.4862   9.4916   9.5480
     9.5518   9.5566   9.5567   9.5708   9.5709   9.5711   9.5765   9.5944
     9.6224   9.6244   9.9665   9.9672   9.9680   9.9682   9.9898   9.9908
     9.9908   9.9955  10.2300  10.2310  10.2311  10.2347  10.2769  10.2771
    10.4699  10.4716  10.4719  10.4776  10.9740  11.1931  11.1953  11.4180
    11.4198  11.5765  11.5774  11.7050  11.7053  11.7056  11.7073  11.8605
    12.0851  12.0853  12.0859  12.0888  12.3066  12.3073  12.3554  12.3565
    12.5715  12.5719  12.5720  12.5721  12.9298  13.5233  13.5246  13.5492
    13.5502  13.6631  13.6657  14.0224  14.0235  14.5156  14.5164  14.8841
    14.8843  14.8843  14.8848  15.0575  15.0587  15.0595  15.0596  15.4979
    15.4987  15.5136  15.5142  15.8700  15.8707  15.8712  15.8716  16.2525
    16.7714  19.3316  19.3350  19.3355  19.3364  20.7977  20.8001  21.1045
    21.1060  21.2845  21.2875  21.3114  21.3141  21.3627  21.3637  22.1003
    22.1076  22.1078  22.1081  22.1264  22.1273  22.1301  22.1306  22.1519
    22.1526  22.1527  22.1541  22.2149  22.2161  23.0231  24.2396  24.2411
    24.3534  24.3546  24.6830  24.6842  25.1673  25.1680  25.2118  25.2122
    25.4747  25.7245  25.7370  25.7377  25.7393  25.7398  25.7569  25.7590
    25.7596  25.7599  26.2563  26.2565  26.2576  26.2580  26.6517  26.6526
    26.7200  26.7230  27.2507  27.2523  27.2526  27.2527  27.2722  27.2728
    27.5308  27.5321  27.5347  27.5351  27.5789  28.0523  28.3265  28.5489
    28.5503  28.8811  28.8834  28.8848  28.8858  29.0965  29.0983  29.8139
    29.8197  29.8200  29.8202  29.8533  29.8562  29.9779  29.9787  30.0464
    30.0565  30.1017  30.1024  30.1038  30.1043  30.3149  30.3935  30.3937
    30.3976  30.3978  30.3979  30.3980  30.4094  30.4159  30.4248  30.4250
    30.4250  30.4251  30.4257  30.7834  30.7882  30.8011  31.0359  31.0364
    31.0370  31.0382  31.7048  31.7061  31.7888  31.7897  32.2825  32.2831
    32.2835  32.2859  32.7934  32.7966  32.9352  32.9361  33.3487  33.3514
    33.8689  33.8708  33.9333  33.9336  34.3420  34.3423  34.3442  34.3452
    34.7988  34.7989  34.8607  34.8635  34.8894  34.8911  34.8912  34.8930
    35.0762  35.0788  35.3347  35.3349  35.5523  36.1759  36.1797  36.1800
    36.1829  36.1839  36.1840  36.2415  36.2434  36.2447  36.2453  36.9230
    36.9256  37.0000  37.0011  37.0013  37.0031  37.2750  37.4681  37.4684
    37.4704  37.4707  37.5230  37.5253  37.5391  37.5403  37.8335  38.0335
    38.0344  38.3528  38.3529  38.3542  38.3546  38.6271  38.6291  38.7313
    38.7329  38.8310  38.8327  38.8330  38.8341  38.9467  38.9484  39.1031
    39.1032  39.1428  39.1645  39.1651  39.1654  39.1654  39.5734  39.6510
    40.1914  40.1916  40.3602  40.3611  40.6108  41.0880  41.0898  41.0901
    41.0907  41.1063  41.1090  41.2897  41.2919  41.2923  41.2925  41.3863
    41.3872  41.8730  41.8753  42.0511  42.1628  42.1630  42.1650  42.1653
[...]
    47.1407  47.2058  47.2429  47.2446  47.6943  47.6979  47.7648  47.7651
    47.7653  47.7658  47.8393  47.8404  48.1805  48.1818  48.3354  48.3357
    48.4827  48.4834  48.4916  48.4932  48.5407  48.5409  48.5441  48.5442
    48.8130  48.8147  49.1198  49.1252  49.1262  49.1269  49.2174  49.2178
    49.3035  49.3044  49.5492  49.5494  49.5507  49.5510  49.6864  50.1021
    50.1038  50.3012  50.3060  50.3770  50.3774  50.4851  50.6067  50.6068
    50.7669  50.7691  50.7700  50.7706  51.1623  51.1628  51.1634  51.1634
    51.2609  51.2618  51.5642  51.5653  51.6236  51.6238  51.6249  51.6259
    51.6268  51.6275  51.9407  52.0656  52.0661  52.1138  52.1148  52.1148
    52.1149  52.2207  52.2207  52.6717  52.6737  52.8748  52.8765  52.8777
    52.8783  53.0189  53.0887  53.0902  53.1319  53.4405  53.4410  53.4612
    53.7648  54.2382  54.2383  54.2629  54.2636  54.2638  54.2645  54.2982
    54.2985  54.2996  54.3012  54.5273  54.5282  54.5308  54.5310  54.8267
    54.8272  54.9588  54.9607  55.3555  55.3571  55.4264  55.4284  55.4291
    55.4310  55.4473  55.4492  55.4496  55.4496  55.5376  55.5389  55.8623

[...]

          k =-0.5000-0.5000 0.0000 ( 15760 PWs)   bands (ev):

[...]

 ------ SPIN DOWN ----------

[...]

          k = 0.2500-0.5000-0.7105 ( 15696 PWs)   bands (ev):

[...]

          k =-0.2500 0.2500 0.7105 ( 15684 PWs)   bands (ev):

   -41.9891 -41.9028 -41.9010 -41.9008 -41.8999 -41.8998 -41.8996 -41.8993
   -41.8987 -41.8986 -41.8982 -41.8980 -41.8979 -41.8978 -41.8966 -41.8965
   -41.7963 -41.7084 -41.7082 -41.7073 -41.7070 -41.7069 -41.7069 -41.7069
   -41.7068 -41.7067 -41.7067 -41.7067 -41.7067 -41.7063 -41.7062 -41.7061
   -41.6888 -41.6024 -41.6002 -41.5997 -41.5997 -41.5993 -41.5993 -41.5992
   -41.5992 -41.5992 -41.5990 -41.5990 -41.5989 -41.5989 -41.5987 -41.5987
    -7.2521  -7.2512  -6.9580  -6.9572  -6.9567  -6.9562  -6.8755  -6.8740
    -6.7139  -6.7111  -6.5359  -6.5351  -6.5346  -6.5345  -6.4524  -6.4473
    -6.2611  -6.2609  -6.2608  -6.2526  -6.1575  -6.1535  -6.1050  -6.1048
    -6.1047  -6.1016  -6.0989  -6.0887  -6.0638  -6.0626  -5.9895  -5.9884
     3.9537   3.9563   3.9690   3.9759   4.3028   4.3043   4.3121   4.3121
     4.3128   4.3157   4.3218   4.3267   4.8782   4.8791   4.8792   4.8881
     5.0100   5.0164   5.1323   5.1353   5.2125   5.2176   5.2234   5.2249
     5.2254   5.2329   5.3856   5.3883   5.3884   5.3894   5.4307   5.4353
     5.6152   5.6157   5.6160   5.6333   5.9489   5.9498   6.1825   6.1825
     6.1826   6.1833   6.1985   6.1988   6.2209   6.2303   6.7065   6.7074
     6.8369   6.8373   6.9394   6.9397   6.9397   6.9496   7.1508   7.1508
     7.1538   7.1551   7.2887   7.2891   7.7573   7.7575   7.7585   7.7610
     7.7703   7.7732   7.7815   7.7874   7.8104   7.8186   7.8437   7.8509
     7.9337   7.9343   7.9383   7.9400   8.1698   8.1727   8.3801   8.3806
     8.4477   8.4499   8.6110   8.6115   8.7030   8.7037   8.7041   8.7112
     9.1665   9.1684   9.2308   9.2321   9.2353   9.2372   9.2937   9.2976
     9.7441   9.7449   9.7724   9.7734  10.2950  10.2972  10.2975  10.2998
    10.3019  10.3174  10.3813  10.3907  10.4655  10.4655  10.4663  10.4676
    10.5079  10.5083  10.6112  10.6117  10.6122  10.6124  10.6926  10.6951
    10.8316  10.8323  10.9740  10.9750  10.9750  10.9789  11.2473  11.2480
    11.6764  11.6779  11.7815  11.7818  11.7821  11.7822  11.8368  11.8391
    11.9047  11.9054  12.0106  12.0111  12.0113  12.0127  12.3482  12.3487
    13.3135  13.3147  13.3147  13.3153  13.3705  13.3712  13.7041  13.7060
    13.7060  13.7073  13.7363  13.7381  13.9252  13.9264  14.2856  14.2871
    14.3674  14.3676  14.3976  14.3978  14.8111  14.8120  14.8124  14.8125
    15.0686  15.0691  15.6656  15.6661  15.6670  15.6670  15.6980  15.6982
    18.6300  18.6326  19.7582  19.7616  19.7617  19.7625  20.4528  20.4561
    21.2290  21.2314  21.2834  21.2878  21.2882  21.2888  22.2567  22.2587
    22.3470  22.3510  22.5941  22.5964  22.8251  22.8261  22.8578  22.8624
    22.8626  22.8633  22.9836  22.9868  23.0305  23.0359  23.0375  23.0376
    24.4271  24.4290  24.6494  24.6507  24.6508  24.6532  24.6544  24.6545
    25.1460  25.1477  25.6229  25.6240  25.6251  25.6251  25.9554  25.9578
    26.2106  26.2127  26.2725  26.2736  26.6896  26.6901  26.6906  26.6920
    26.9939  26.9942  26.9959  26.9971  27.0169  27.0179  27.1283  27.1295
    27.3454  27.3466  27.4224  27.4225  27.4236  27.4239  27.5149  27.5175
    27.7482  27.7501  28.3626  28.3631  28.3654  28.3658  28.5774  28.5789
    28.5817  28.5842  29.1601  29.1646  29.1648  29.1658  30.2837  30.3775
    30.3804  30.3828  30.3848  30.3850  30.3927  30.3933  30.3961  30.3972
    30.4086  30.4087  30.4088  30.4090  30.4164  30.4194  30.7062  30.7115
    30.7116  30.7117  30.8324  30.8335  31.1416  31.1423  31.6197  31.6197
    31.6208  31.6218  31.7752  31.7785  32.2724  32.2762  32.2882  32.2884
    33.0400  33.0405  33.0408  33.0428  33.1909  33.1913  33.6801  33.6812
    33.7812  33.7816  34.5155  34.5156  34.5167  34.5170  34.5974  34.6002
    34.6461  34.6479  34.6612  34.6617  34.7245  34.7267  34.8123  34.8155
    34.8162  34.8166  35.6434  35.6449  35.6676  35.6687  35.6697  35.6698
    35.7533  35.7534  35.7541  35.7550  35.9574  35.9589  37.2271  37.2273
    37.2276  37.2280  37.3199  37.3211  37.4378  37.4379  37.4827  37.4834
    37.5245  37.5250  37.5255  37.5256  37.5529  37.5555  37.8354  37.8354
    37.8489  37.8489  38.0591  38.0606  38.1195  38.1201  38.3605  38.3628
    38.3634  38.3642  38.5178  38.5179  38.5180  38.5182  38.7009  38.7033
    39.2310  39.2319  39.3673  39.3700  39.3716  39.3719  39.8325  39.8330
    40.3879  40.3896  40.4799  40.4834  40.7076  40.7082  40.8629  40.8646
    40.8653  40.8658  40.9331  40.9352  41.5102  41.5120  41.6110  41.6158
    41.6167  41.6170  41.6303  41.6304  41.8748  41.8754  41.8757  41.8759
[...]
    47.7245  47.7290  47.8565  47.8570  47.8594  47.8600  48.0497  48.0497
    48.0629  48.0639  48.1934  48.1935  48.1942  48.1945  48.3593  48.3606
    48.4051  48.4066  48.6620  48.6641  48.6665  48.6670  49.0289  49.0313
    49.1725  49.1727  49.2603  49.2608  49.2615  49.2616  49.4918  49.4946
    49.6358  49.6363  49.6372  49.6380  49.7310  49.7310  49.7774  49.7789
    49.9136  49.9138  49.9756  49.9772  49.9785  49.9792  50.5874  50.5884
    50.5892  50.5897  50.6195  50.6224  50.8412  50.8424  51.0433  51.0440
    51.1520  51.1549  51.3105  51.3105  51.3109  51.3112  51.7424  51.7433
    52.1123  52.1127  52.2359  52.2382  52.2387  52.2391  52.3519  52.3525
    52.5469  52.5470  52.8854  52.8869  52.9191  52.9233  52.9233  52.9251
    52.9649  52.9663  53.1261  53.1274  53.5639  53.5639  53.7397  53.7398
    53.7399  53.7399  53.7793  53.7801  53.7805  53.7811  53.9631  53.9631
    54.0218  54.0225  54.4502  54.4503  54.4541  54.4548  54.4554  54.4555
    54.7694  54.7696  54.7700  54.7719  54.7905  54.7919  55.2219  55.2221
    55.2833  55.2834  55.3913  55.3928  55.6143  55.6154  55.6163  55.6164

     the Fermi energy is    12.4898 ev

!    total energy              =   -4359.42497657 Ry
     Harris-Foulkes estimate   =   -4359.42497692 Ry
     estimated scf accuracy    <       0.00000038 Ry

     The total energy is the sum of the following terms:

     one-electron contribution =   -1092.69652164 Ry
     hartree contribution      =     841.59516751 Ry
     xc contribution           =   -1097.30230542 Ry
     ewald contribution        =   -3011.11594880 Ry
     Hubbard energy            =       0.09497868 Ry
     smearing contrib. (-TS)   =      -0.00034690 Ry

     total magnetization       =     0.00 Bohr mag/cell
     absolute magnetization    =     0.00 Bohr mag/cell

     convergence has been achieved in  10 iterations

     Writing output data file pwscf.save

     General routines

     Parallel routines
     Hubbard U routines

   This run was terminated on:  17:55:59  12Feb2014

   JOB DONE.