     Program PWSCF v.5.0.2 (svn rev. 9656) starts on  5Jun2014 at 21:42: 6

     Current dimensions of program PWSCF are:
     Max number of different atomic species (ntypx) = 10
     Max number of k-points (npk) =  40000
     Max angular momentum in pseudopotentials (lmaxx) =  3
     Reading input from pwscf.in
Warning: card &CELL ignored
Warning: card / ignored

     Subspace diagonalization in iterative solution of the eigenvalue problem:
     a serial algorithm will be used

     bravais-lattice index     =            0
     lattice parameter (alat)  =      11.7541  a.u.
     unit-cell volume          =    7139.8207 (a.u.)^3
     number of atoms/cell      =           33
     number of atomic types    =            3
     number of electrons       =       245.00
     number of Kohn-Sham states=          367
     kinetic-energy cutoff     =      40.0000  Ry
     charge density cutoff     =     500.0000  Ry
     convergence threshold     =      1.0E-06
     mixing beta               =       0.3000
     number of iterations used =            8  plain     mixing
     Exchange-correlation      = SLA  PW   PBE  PBE ( 1 4 3 4 0)
     EXX-fraction              =        0.00
     nstep                     =           50

     celldm(1)=  11.754097  celldm(2)=   0.000000  celldm(3)=   0.000000
     celldm(4)=   0.000000  celldm(5)=   0.000000  celldm(6)=   0.000000

     crystal axes: (cart. coord. in units of alat)
               a(1) = (   1.000000   0.000000   0.000000 )
               a(2) = (   0.000000   1.034513   0.000000 )
               a(3) = (   0.000000   0.000000   4.249947 )

     reciprocal axes: (cart. coord. in units 2 pi/alat)
               b(1) = (  1.000000  0.000000  0.000000 )
               b(2) = (  0.000000  0.966638  0.000000 )
               b(3) = (  0.000000  0.000000  0.235297 )

     PseudoPot. # 1 for O  read from file:
     /home/camp/zhonxu/pseudo/o_pbe_v1.01.uspp.F.UPF
     MD5 check sum: 2bcb18d16ea4b960afae9ec6d52f22d2
     Pseudo is Ultrasoft + core correction, Zval =  6.0
     Generated by new atomic code, or converted to UPF format
     Using radial grid of  737 points,  5 beta functions with:
                l(1) =   0
                l(2) =   0
                l(3) =   1
                l(4) =   1
                l(5) =   2
     Q(r) pseudized with  8 coefficients,  rinner =    0.900   0.900   0.900
                                                       0.900   0.900

     PseudoPot. # 2 for Rh read from file:
     /home/camp/zhonxu/pseudo/rh_pbe_v1.uspp.F.UPF
     MD5 check sum: 37b626987ad0dd8ec6bf4cc9ef289918
     Pseudo is Ultrasoft + core correction, Zval = 15.0
     Generated by new atomic code, or converted to UPF format
     Using radial grid of  969 points,  7 beta functions with:
                l(1) =   0
                l(2) =   0
                l(3) =   1
                l(4) =   1
                l(5) =   2
                l(6) =   2
                l(7) =   2
     Q(r) pseudized with  6 coefficients,  rinner =    1.050   1.050   1.050
                                                       1.050   1.050

     PseudoPot. # 3 for H  read from file:
     /home/camp/zhonxu/pseudo/h_pbe_v1.uspp.F.UPF
     MD5 check sum: 3408e3ff4ec8b0a4e358431e7e038a48
     Pseudo is Ultrasoft, Zval =  1.0
     Generated by new atomic code, or converted to UPF format
     Using radial grid of  615 points,  2 beta functions with:
                l(1) =   0
                l(2) =   0
     Q(r) pseudized with  8 coefficients,  rinner =    0.700

     atomic species   valence    mass     pseudopotential
        O0             6.00    15.99940     O ( 1.00)
        Rh1           15.00   102.90550     Rh( 1.00)
        H2             1.00     1.00794     H ( 1.00)

     Simplified LDA+U calculation (l_max = 2) with parameters (eV):
     atomic species    L          U    alpha       J0     beta
        Rh1            2     7.0000   0.0000   0.0000   0.0000

     No symmetry found

   Cartesian axes

     site n.     atom                  positions (alat units)
         1           O0  tau(   1) = (   0.0000000   0.0000000   1.6055876  )
         2           O0  tau(   2) = (   0.0000000   0.5172566   1.7058013  )
         3           Rh1 tau(   3) = (   0.2500000   0.5172566   1.9245886  )
         4           Rh1 tau(   4) = (   0.0000000   0.0000000   1.9225486  )
         5           O0  tau(   5) = (   0.2500000   0.8379556   1.9216561  )
         6           O0  tau(   6) = (   0.2500000   0.1965575   1.9210611  )
         7           O0  tau(   7) = (   0.0000000   0.5172566   2.1183012  )
         8           O0  tau(   8) = (   0.0000000   0.0000000   2.2433346  )
         9           Rh1 tau(   9) = (   0.2500000   0.0000000   2.4442296  )
        10           Rh1 tau(  10) = (   0.0000000   0.5172566   2.4248924  )
        11           O0  tau(  11) = (   0.2500000   0.7138141   2.4423597  )
        12           O0  tau(  12) = (   0.2500000   0.3206991   2.4526445  )
        13           O0  tau(  13) = (   0.0000000   0.0000000   2.6373472  )
        14           O0  tau(  14) = (   0.5000000   0.0000000   1.6058426  )
        15           O0  tau(  15) = (   0.5000000   0.5172566   1.7065663  )
        16           Rh1 tau(  16) = (   0.7500000   0.5172566   1.9245461  )
        17           Rh1 tau(  17) = (   0.5000000   0.0000000   1.9225486  )
        18           O0  tau(  18) = (   0.7500000   0.8379556   1.9215286  )
        19           O0  tau(  19) = (   0.7500000   0.1965575   1.9212311  )
        20           O0  tau(  20) = (   0.5000000   0.5172566   2.1254411  )
        21           O0  tau(  21) = (   0.5000000   0.0000000   2.2428246  )
        22           Rh1 tau(  22) = (   0.7500000   0.0000000   2.4442296  )
        23           Rh1 tau(  23) = (   0.5000000   0.5172566   2.4566820  )
        24           O0  tau(  24) = (   0.7500000   0.7138141   2.4423172  )
        25           O0  tau(  25) = (   0.7500000   0.3206991   2.4526445  )
        26           O0  tau(  26) = (   0.5000000   0.0000000   2.6350523  )
        27           H2  tau(  27) = (   0.0000500   0.6607849   1.6355072  )
        28           H2  tau(  28) = (   0.4999200   0.6608884   1.6361872  )
        29           H2  tau(  29) = (   0.1477700   0.0372011   1.5603681  )
        30           H2  tau(  30) = (   0.6484400   0.0346148   1.5604531  )
        31           O0  tau(  31) = (   0.4997300   0.5556577   2.7651007  )
        32           O0  tau(  32) = (   0.5003300   0.3573415   2.8834192  )
        33           H2  tau(  33) = (   0.4999300   0.4160398   3.0312324  )

     number of k points=    10  Methfessel-Paxton smearing, width (Ry)=  0.0100
                       cart. coord. in units 2pi/alat
        k(    1) = (   0.0000000   0.0000000   0.0000000), wk =   0.1250000
        k(    2) = (   0.0000000   0.2416596   0.0000000), wk =   0.2500000
        k(    3) = (   0.0000000  -0.4833191   0.0000000), wk =   0.1250000
        k(    4) = (   0.2500000   0.0000000   0.0000000), wk =   0.2500000
        k(    5) = (   0.2500000   0.2416596   0.0000000), wk =   0.2500000
        k(    6) = (   0.2500000  -0.4833191   0.0000000), wk =   0.2500000
        k(    7) = (  -0.5000000   0.0000000   0.0000000), wk =   0.1250000
        k(    8) = (  -0.5000000   0.2416596   0.0000000), wk =   0.2500000
        k(    9) = (  -0.5000000  -0.4833191   0.0000000), wk =   0.1250000
        k(   10) = (  -0.2500000   0.2416596   0.0000000), wk =   0.2500000

     Largest allocated arrays     est. size (Mb)     dimensions
     Largest temporary arrays     est. size (Mb)     dimensions

     Check: negative/imaginary core charge=   -0.000003    0.000000

     Initial potential from superposition of free atoms
     Check: negative starting charge=   -0.646062

     starting charge  240.99914, renormalised to  245.00000

     negative rho (up, down):  0.657E+00 0.000E+00
     Number of +U iterations with fixed ns =  0
     Starting occupations:
 --- enter write_ns ---
 LDA+U parameters:
U( 2)     =  7.00000000
alpha( 2) =  0.00000000
atom    3   Tr[ns(na)] =   7.00000
    eigenvalues:
  0.700  0.700  0.700  0.700  0.700
    eigenvectors:
  1.000  0.000  0.000  0.000  0.000
  0.000  1.000  0.000  0.000  0.000
  0.000  0.000  1.000  0.000  0.000
  0.000  0.000  0.000  1.000  0.000
  0.000  0.000  0.000  0.000  1.000
    occupations:
  0.700  0.000  0.000  0.000  0.000
  0.000  0.700  0.000  0.000  0.000
  0.000  0.000  0.700  0.000  0.000
  0.000  0.000  0.000  0.700  0.000
  0.000  0.000  0.000  0.000  0.700
atom    4   Tr[ns(na)] =   7.00000
    eigenvalues:
  0.700  0.700  0.700  0.700  0.700
    eigenvectors:
  1.000  0.000  0.000  0.000  0.000
  0.000  1.000  0.000  0.000  0.000
  0.000  0.000  1.000  0.000  0.000
  0.000  0.000  0.000  1.000  0.000
  0.000  0.000  0.000  0.000  1.000
    occupations:
  0.700  0.000  0.000  0.000  0.000
  0.000  0.700  0.000  0.000  0.000
  0.000  0.000  0.700  0.000  0.000
  0.000  0.000  0.000  0.700  0.000
  0.000  0.000  0.000  0.000  0.700
atom    9   Tr[ns(na)] =   7.00000
    eigenvalues:
  0.700  0.700  0.700  0.700  0.700
    eigenvectors:
  1.000  0.000  0.000  0.000  0.000
  0.000  1.000  0.000  0.000  0.000
  0.000  0.000  1.000  0.000  0.000
  0.000  0.000  0.000  1.000  0.000
  0.000  0.000  0.000  0.000  1.000
    occupations:
  0.700  0.000  0.000  0.000  0.000
  0.000  0.700  0.000  0.000  0.000
  0.000  0.000  0.700  0.000  0.000
  0.000  0.000  0.000  0.700  0.000
  0.000  0.000  0.000  0.000  0.700
atom   10   Tr[ns(na)] =   7.00000
    eigenvalues:
  0.700  0.700  0.700  0.700  0.700
    eigenvectors:
  1.000  0.000  0.000  0.000  0.000
  0.000  1.000  0.000  0.000  0.000
  0.000  0.000  1.000  0.000  0.000
  0.000  0.000  0.000  1.000  0.000
  0.000  0.000  0.000  0.000  1.000
    occupations:
  0.700  0.000  0.000  0.000  0.000
  0.000  0.700  0.000  0.000  0.000
  0.000  0.000  0.700  0.000  0.000
  0.000  0.000  0.000  0.700  0.000
  0.000  0.000  0.000  0.000  0.700
atom   16   Tr[ns(na)] =   7.00000
    eigenvalues:
  0.700  0.700  0.700  0.700  0.700
    eigenvectors:
  1.000  0.000  0.000  0.000  0.000
  0.000  1.000  0.000  0.000  0.000
  0.000  0.000  1.000  0.000  0.000
  0.000  0.000  0.000  1.000  0.000
  0.000  0.000  0.000  0.000  1.000
    occupations:
  0.700  0.000  0.000  0.000  0.000
  0.000  0.700  0.000  0.000  0.000
  0.000  0.000  0.700  0.000  0.000
  0.000  0.000  0.000  0.700  0.000
  0.000  0.000  0.000  0.000  0.700
atom   17   Tr[ns(na)] =   7.00000
    eigenvalues:
  0.700  0.700  0.700  0.700  0.700
    eigenvectors:
  1.000  0.000  0.000  0.000  0.000
  0.000  1.000  0.000  0.000  0.000
  0.000  0.000  1.000  0.000  0.000
  0.000  0.000  0.000  1.000  0.000
  0.000  0.000  0.000  0.000  1.000
    occupations:
  0.700  0.000  0.000  0.000  0.000
  0.000  0.700  0.000  0.000  0.000
  0.000  0.000  0.700  0.000  0.000
  0.000  0.000  0.000  0.700  0.000
  0.000  0.000  0.000  0.000  0.700
atom   22   Tr[ns(na)] =   7.00000
    eigenvalues:
  0.700  0.700  0.700  0.700  0.700
    eigenvectors:
  1.000  0.000  0.000  0.000  0.000
  0.000  1.000  0.000  0.000  0.000
[...]
  0.000  0.945 -0.000  0.000 -0.010
  0.008 -0.000  0.942 -0.000 -0.000
  0.036  0.000 -0.000  0.978  0.000
 -0.000 -0.010 -0.000  0.000  0.593
atom   16   Tr[ns(na)] =   8.10027
    eigenvalues:
  0.579  0.600  0.923  0.968  0.981
    eigenvectors:
  0.018  0.183  0.003  0.000  0.796
  0.917  0.082  0.000  0.000  0.000
  0.000  0.000  0.986  0.011  0.003
  0.064  0.734  0.000  0.000  0.202
  0.000  0.000  0.011  0.988  0.000
    occupations:
  0.903  0.005  0.001 -0.153  0.000
  0.005  0.581 -0.000  0.004 -0.006
  0.001 -0.000  0.924 -0.005 -0.005
 -0.153  0.004 -0.005  0.675 -0.000
  0.000 -0.006 -0.005 -0.000  0.967
atom   17   Tr[ns(na)] =   8.11817
    eigenvalues:
  0.596  0.649  0.895  0.938  0.982
    eigenvectors:
  0.001  0.991  0.000  0.000  0.008
  0.000  0.000  0.063  0.937  0.000
  0.000  0.000  0.937  0.063  0.000
  0.000  0.008  0.000  0.000  0.992
  0.999  0.001  0.000  0.000  0.000
    occupations:
  0.652 -0.004 -0.001  0.030  0.002
 -0.004  0.935  0.011  0.001 -0.001
 -0.001  0.011  0.897 -0.000  0.001
  0.030  0.001 -0.000  0.979 -0.000
  0.002 -0.001  0.001 -0.000  0.596
atom   22   Tr[ns(na)] =   8.12212
    eigenvalues:
  0.635  0.642  0.884  0.917  0.983
    eigenvectors:
  0.000  0.152  0.000  0.000  0.847
  0.998  0.002  0.000  0.000  0.000
  0.000  0.000  0.983  0.017  0.000
  0.002  0.845  0.000  0.000  0.153
  0.000  0.000  0.017  0.983  0.000
    occupations:
  0.931  0.001 -0.000 -0.122  0.000
  0.001  0.635  0.001 -0.001 -0.000
 -0.000  0.001  0.885 -0.005  0.004
 -0.122 -0.001 -0.005  0.694  0.001
  0.000 -0.000  0.004  0.001  0.917
atom   23   Tr[ns(na)] =   8.12267
    eigenvalues:
  0.597  0.631  0.891  0.962  0.980
    eigenvectors:
  0.000  0.993  0.000  0.003  0.003
  0.001  0.000  0.999  0.000  0.000
  0.000  0.003  0.000  0.996  0.001
  0.000  0.004  0.000  0.001  0.996
  0.999  0.000  0.001  0.000  0.000
    occupations:
  0.634 -0.000  0.018  0.021 -0.000
 -0.000  0.891 -0.001 -0.000 -0.010
  0.018 -0.001  0.961 -0.002  0.000
  0.021 -0.000 -0.002  0.979  0.000
 -0.000 -0.010  0.000  0.000  0.597
N of occupied +U levels =  64.8972165
 --- exit write_ns ---

     Threshold (ethr) on eigenvalues was too large:
     Diagonalizing with lowered threshold

     Davidson diagonalization with overlap
     ethr =  6.07E-08,  avg # of iterations =  1.8

[...]

     total energy              =   -2010.91491350 Ry
     Harris-Foulkes estimate   =   -2010.91491350 Ry
     estimated scf accuracy    <       0.00000001 Ry

     iteration # 17     ecut=    40.00 Ry     beta=0.30
     Davidson diagonalization with overlap
     ethr =  4.97E-12,  avg # of iterations =  1.0

     negative rho (up, down):  0.688E+00 0.000E+00

     End of self-consistent calculation
 --- enter write_ns ---
 LDA+U parameters:
U( 2)     =  7.00000000
alpha( 2) =  0.00000000
atom    3   Tr[ns(na)] =   8.09997
    eigenvalues:
  0.579  0.600  0.923  0.968  0.980
    eigenvectors:
  0.019  0.183  0.003  0.000  0.796
  0.914  0.086  0.000  0.000  0.000
  0.000  0.000  0.979  0.018  0.002
  0.067  0.731  0.000  0.000  0.202
  0.000  0.000  0.018  0.982  0.000
    occupations:
  0.903 -0.005  0.001 -0.153 -0.001
 -0.005  0.581 -0.001 -0.004 -0.005
  0.001 -0.001  0.924 -0.005  0.006
 -0.153 -0.004 -0.005  0.676 -0.000
 -0.001 -0.005  0.006 -0.000  0.967
atom    4   Tr[ns(na)] =   8.11825
    eigenvalues:
  0.595  0.648  0.897  0.937  0.981
    eigenvectors:
  0.001  0.991  0.000  0.000  0.008
  0.000  0.000  0.097  0.902  0.000
  0.000  0.000  0.903  0.097  0.000
  0.000  0.008  0.000  0.000  0.992
  0.999  0.001  0.000  0.000  0.000
    occupations:
  0.651 -0.004 -0.001  0.029  0.002
 -0.004  0.933  0.012  0.001 -0.001
 -0.001  0.012  0.901 -0.000  0.001
  0.029  0.001 -0.000  0.979  0.000
  0.002 -0.001  0.001  0.000  0.595
atom    9   Tr[ns(na)] =   8.12209
    eigenvalues:
  0.634  0.643  0.884  0.917  0.983
    eigenvectors:
  0.004  0.149  0.000  0.000  0.847
  0.973  0.027  0.000  0.000  0.000
  0.000  0.000  0.981  0.018  0.000
  0.023  0.824  0.000  0.000  0.153
  0.000  0.000  0.018  0.981  0.000
    occupations:
  0.931 -0.000 -0.000 -0.122 -0.001
 -0.000  0.635  0.000  0.002 -0.000
 -0.000  0.000  0.885 -0.005 -0.004
 -0.122  0.002 -0.005  0.694  0.001
 -0.001 -0.000 -0.004  0.001  0.917
atom   10   Tr[ns(na)] =   8.09303
    eigenvalues:
  0.584  0.593  0.942  0.945  0.981
    eigenvectors:
  0.991  0.000  0.000  0.000  0.009
  0.000  0.001  0.002  0.997  0.000
  0.000  0.000  0.997  0.002  0.000
  0.008  0.000  0.000  0.000  0.991
  0.000  0.999  0.000  0.001  0.000
    occupations:
  0.588  0.000  0.008  0.036 -0.000
  0.000  0.945 -0.000  0.000 -0.010
  0.008 -0.000  0.942 -0.000 -0.000
  0.036  0.000 -0.000  0.978  0.000
 -0.000 -0.010 -0.000  0.000  0.593
atom   16   Tr[ns(na)] =   8.09994
    eigenvalues:
  0.579  0.600  0.923  0.968  0.981
    eigenvectors:
  0.018  0.183  0.003  0.000  0.796
  0.917  0.083  0.000  0.000  0.000
  0.000  0.000  0.986  0.012  0.002
  0.064  0.734  0.000  0.000  0.201
  0.000  0.000  0.011  0.988  0.000
    occupations:
  0.903  0.005  0.001 -0.153  0.000
  0.005  0.581 -0.000  0.004 -0.006
  0.001 -0.000  0.924 -0.005 -0.005
 -0.153  0.004 -0.005  0.676 -0.000
  0.000 -0.006 -0.005 -0.000  0.967
atom   17   Tr[ns(na)] =   8.11752
    eigenvalues:
  0.596  0.649  0.894  0.938  0.982
    eigenvectors:
  0.001  0.991  0.000  0.000  0.008
  0.000  0.000  0.063  0.937  0.000
  0.000  0.000  0.937  0.063  0.000
  0.000  0.008  0.000  0.000  0.992
  0.999  0.001  0.000  0.000  0.000
    occupations:
  0.652 -0.004 -0.001  0.030  0.002
 -0.004  0.935  0.011  0.001 -0.001
 -0.001  0.011  0.897 -0.000  0.001
  0.030  0.001 -0.000  0.979 -0.000
  0.002 -0.001  0.001 -0.000  0.596
atom   22   Tr[ns(na)] =   8.12213
    eigenvalues:
  0.635  0.642  0.884  0.917  0.983
    eigenvectors:
  0.000  0.152  0.000  0.000  0.847
  0.998  0.002  0.000  0.000  0.000
  0.000  0.000  0.983  0.017  0.000
  0.002  0.846  0.000  0.000  0.153
  0.000  0.000  0.017  0.983  0.000
    occupations:
  0.931  0.001 -0.000 -0.122  0.000
  0.001  0.635  0.001 -0.001 -0.000
 -0.000  0.001  0.885 -0.005  0.004
 -0.122 -0.001 -0.005  0.694  0.001
  0.000 -0.000  0.004  0.001  0.917
atom   23   Tr[ns(na)] =   8.12337
    eigenvalues:
  0.597  0.631  0.891  0.962  0.980
    eigenvectors:
  0.000  0.993  0.000  0.003  0.003
  0.001  0.000  0.999  0.000  0.000
  0.000  0.003  0.000  0.996  0.001
  0.000  0.004  0.000  0.001  0.996
  0.999  0.000  0.001  0.000  0.000
    occupations:
  0.634 -0.000  0.018  0.021 -0.000
 -0.000  0.891 -0.001 -0.000 -0.010
  0.018 -0.001  0.961 -0.002  0.000
  0.021 -0.000 -0.002  0.979  0.000
 -0.000 -0.010  0.000  0.000  0.597
N of occupied +U levels =  64.8962942
 --- exit write_ns ---

[...]

          k = 0.2500-0.4833 0.0000 ( 30510 PWs)   bands (ev):

[...]

          k =-0.2500 0.2417 0.0000 ( 30481 PWs)   bands (ev):

   -47.9615 -47.8412 -47.8239 -47.8116 -47.7981 -47.7684 -47.7614 -47.7448
   -47.7271 -47.7062 -47.6906 -47.6228 -47.6075 -47.5951 -47.5150 -47.4936
   -47.4727 -47.4706 -47.4663 -47.3953 -47.3838 -47.3703 -47.3621 -47.3483
   -24.5733 -20.6394 -20.3534 -20.3017 -20.2459 -19.9098 -19.8297 -19.8059
   -19.7759 -19.6647 -19.5321 -19.4714 -19.4481 -19.2740 -19.2603 -19.2083
   -19.0914 -18.5389 -18.3729 -17.6827  -9.8367  -9.7527  -9.6958  -9.4689
    -9.3928  -9.2472  -9.0527  -9.0326  -8.9421  -8.6709  -8.2685  -8.1898
    -8.1755  -8.0633  -8.0111  -7.9020  -7.8390  -7.6486  -7.5961  -7.4474
    -7.2901  -7.1578  -7.0435  -6.9661  -6.9023  -6.7388  -6.6249  -6.5453
    -6.4714  -6.4119  -6.3495  -6.2284  -6.2038  -6.1473  -6.0813  -5.9847
    -5.9539  -5.8356  -5.7513  -5.7192  -5.5944  -5.5362  -5.4324  -5.2940
    -4.9073  -4.8888  -4.6659  -4.5244  -4.4379  -4.3227  -4.2321  -4.1687
    -4.0511  -3.9601  -3.9169  -3.8761  -3.7891  -3.5820  -3.5200  -3.4025
    -3.2775  -3.1134  -3.0806  -3.0267  -2.9679  -2.9293  -2.8743  -2.7848
    -2.7624  -2.6299  -2.5217  -2.4633  -2.2034  -1.9981  -1.8651  -1.7930
    -1.7060  -1.6738  -1.5238  -1.4098  -1.2639  -1.1933  -1.1210  -0.1131
     0.4592   0.5287   0.7151   1.0630   1.3329   1.6266   1.8135   2.0302
     2.1473   2.3168   2.3738   2.5002   2.5358   2.6470   2.9334   3.2616
     3.8690   4.1862   4.4274   4.9692   5.1989   5.5046   5.8380   5.9796
     6.0263   6.1994   6.3004   6.4723   6.6236   6.8719   6.9131   7.2275
     7.3970   7.4900   7.6723   7.8230   7.8651   8.1478   8.2067   8.3041
     8.4084   8.5105   8.6957   8.8264   8.8724   9.0335   9.1514   9.1959
     9.3377   9.4070   9.4893   9.6291   9.7891   9.8335   9.9449   9.9859
    10.0854  10.1766  10.3055  10.3699  10.4772  10.5294  10.6288  10.7080
    10.7824  10.9082  11.0004  11.1327  11.1796  11.3039  11.3295  11.4243
    11.5106  11.6070  11.6730  11.7095  11.7906  11.8398  11.9291  11.9679
    12.0285  12.1392  12.2646  12.3462  12.4336  12.5043  12.5403  12.5879
    12.6450  12.7525  12.8357  12.9623  13.0297  13.0789  13.1012  13.1831
    13.3034  13.4270  13.4577  13.6096  13.6504  13.7310  13.8000  13.8831
    13.9970  14.0529  14.1400  14.1711  14.2754  14.3657  14.4425  14.4642
    14.5436  14.5617  14.6939  14.7333  14.8128  14.8728  15.0163  15.0342
    15.1082  15.2127  15.2735  15.3407  15.4633  15.5067  15.5849  15.6264
    15.6811  15.7762  15.8153  15.8566  15.9472  15.9786  16.0250  16.0948
    16.1366  16.1926  16.3233  16.3825  16.4517  16.4995  16.5338  16.6273
    16.6407  16.7353  16.7919  16.8898  16.9783  17.0671  17.1061  17.1679
    17.2323  17.2740  17.3077  17.4350  17.4684  17.5275  17.5706  17.6046
    17.7238  17.7357  17.7830  17.8627  17.9603  18.0015  18.0798  18.1270
    18.1960  18.2606  18.3615  18.4084  18.5327  18.6188  18.6486  18.6943
    18.8525  18.9239  18.9797  19.0092  19.0585  19.1807  19.2391  19.3324
    19.3964  19.4689  19.4978  19.5870  19.6432  19.6978  19.7843  19.9128
    19.9574  20.0598  20.1337  20.2210  20.3035  20.3370  20.3649  20.4980
    20.6103  20.6934  20.7234  20.7537  20.7916  20.8744  20.9656  20.9904
    21.0850  21.1250  21.1562  21.2037  21.2877  21.3695  21.4341  21.4534
    21.5213  21.5947  21.6822  21.7039  21.7694  21.8212  21.8496  21.9473
    22.0677  22.0898  22.1344  22.2207  22.2811  22.3532  22.4244  22.4606
    22.5535  22.6188  22.6643  22.7226  22.8093  22.8879  22.9284

     the Fermi energy is    -1.5777 ev

!    total energy              =   -2010.91491350 Ry
     Harris-Foulkes estimate   =   -2010.91491350 Ry
     estimated scf accuracy    <          2.9E-09 Ry

     The total energy is the sum of the following terms:

     one-electron contribution =  -23747.16791758 Ry
     hartree contribution      =   11932.18538761 Ry
     xc contribution           =    -380.14157555 Ry
     ewald contribution        =   10181.61872669 Ry
     Hubbard energy            =       2.59134239 Ry
     smearing contrib. (-TS)   =      -0.00087706 Ry

     convergence has been achieved in  17 iterations

     Forces acting on atoms (Ry/au):

     negative rho (up, down):  0.688E+00 0.000E+00
     atom    1 type  1   force =    -0.00706112   -0.01173174    0.00004536
     atom    2 type  1   force =     0.00014568    0.00326794   -0.00023750
     atom    3 type  2   force =     0.03032430    0.00564839   -0.00033072
     atom    4 type  2   force =     0.00782594    0.00781783    0.00012945
     atom    5 type  1   force =    -0.00420819   -0.02927102    0.00014353
     atom    6 type  1   force =     0.00312568    0.02764630    0.00030634
     atom    7 type  1   force =    -0.00028005   -0.00501896   -0.00026545
     atom    8 type  1   force =    -0.00276111    0.00114284   -0.00042105
     atom    9 type  2   force =     0.00399082    0.00036439   -0.00014224
     atom   10 type  2   force =    -0.00019516    0.00125515   -0.00045214
     atom   11 type  1   force =    -0.00969049    0.02337340    0.00025529
     atom   12 type  1   force =    -0.00305206   -0.01774099    0.00036148
     atom   13 type  1   force =    -0.00061822   -0.00255244   -0.00010461
     atom   14 type  1   force =    -0.00571076   -0.01139720    0.00042111
     atom   15 type  1   force =     0.00007882    0.00301425   -0.00012171
     atom   16 type  2   force =    -0.03029080    0.00575944   -0.00032096
     atom   17 type  2   force =     0.00747981    0.00848352   -0.00008368
     atom   18 type  1   force =    -0.00181514   -0.03005693    0.00013853
     atom   19 type  1   force =     0.00545323    0.02701447    0.00031173
     atom   20 type  1   force =    -0.00013352   -0.00665236    0.00080877
     atom   21 type  1   force =    -0.00291594    0.00136512   -0.00060018
     atom   22 type  2   force =    -0.00152231    0.00026202   -0.00015160
     atom   23 type  2   force =    -0.00053538    0.00292200   -0.00072748
     atom   24 type  1   force =     0.00913985    0.02312534    0.00025481
     atom   25 type  1   force =     0.00425737   -0.01789245    0.00042954
     atom   26 type  1   force =    -0.00086691   -0.01030095    0.00030747
     atom   27 type  3   force =    -0.00000328    0.00016012    0.00034345
     atom   28 type  3   force =    -0.00000013    0.00012226    0.00047399
     atom   29 type  3   force =    -0.00001373    0.00010961    0.00021825
     atom   30 type  3   force =    -0.00027162    0.00006538    0.00008100
     atom   31 type  1   force =    -0.00023553   -0.00019943    0.00051722
     atom   32 type  1   force =     0.00038383   -0.00010166   -0.00059162
     atom   33 type  3   force =    -0.00002392   -0.00000365   -0.00099638

     Total force =     0.002387     Total SCF correction =     0.000110

     entering subroutine stress ...

     negative rho (up, down):  0.688E+00 0.000E+00
          total   stress  (Ry/bohr**3)                   (kbar)     P=  -17.50
  -0.00012349   0.00000633   0.00000406        -18.17      0.93      0.60
   0.00000633  -0.00014276   0.00000413          0.93    -21.00      0.61
   0.00000406   0.00000413  -0.00009069          0.60      0.61    -13.34

     bfgs converged in   9 scf cycles and   8 bfgs steps
     (criteria: energy < 0.10E-03, force < 0.10E-02)

     End of BFGS Geometry Optimization

     Final energy   =   -2010.9149135023 Ry
Begin final coordinates

ATOMIC_POSITIONS (crystal)
O0       0.000000000   0.000000000   0.378073191    0   0   1
O0       0.000000000   0.500000000   0.401943383    0   0   1
Rh1      0.250000000   0.500000000   0.452997140    0   0   1
Rh1      0.000000000   0.000000000   0.452417815    0   0   1
O0       0.250000000   0.810000000   0.452401715    0   0   1
O0       0.250000000   0.190000000   0.452053863    0   0   1
O0       0.000000000   0.500000000   0.499414652    0   0   1
O0       0.000000000   0.000000000   0.527729939    0   0   1
Rh1      0.250000000   0.000000000   0.574761259    0   0   1
Rh1      0.000000000   0.500000000   0.570888730    0   0   1
O0       0.250000000   0.690000000   0.574125873    0   0   1
O0       0.250000000   0.310000000   0.576462585    0   0   1
O0       0.000000000   0.000000000   0.620405918    0   0   1
O0       0.500000000   0.000000000   0.377955009    0   0   1
O0       0.500000000   0.500000000   0.402020529    0   0   1
Rh1      0.750000000   0.500000000   0.452987528    0   0   1
Rh1      0.500000000   0.000000000   0.452209516    0   0   1
O0       0.750000000   0.810000000   0.452366693    0   0   1
O0       0.750000000   0.190000000   0.452089288    0   0   1
O0       0.500000000   0.500000000   0.500504867    0   0   1
O0       0.500000000   0.000000000   0.527596023    0   0   1
Rh1      0.750000000   0.000000000   0.574759174    0   0   1
Rh1      0.500000000   0.500000000   0.577503720    0   0   1
O0       0.750000000   0.690000000   0.574129720    0   0   1
O0       0.750000000   0.310000000   0.576454980    0   0   1
O0       0.500000000   0.000000000   0.620002977    0   0   1
H2      -0.000155499   0.637396716   0.384994206
H2       0.499736304   0.637807623   0.385226775
H2       0.147763529   0.036241500   0.367428204
H2       0.648611175   0.033826584   0.367405648
O0       0.499311572   0.535798156   0.650610918
O0       0.500799994   0.346853335   0.677988363
H2       0.499936125   0.401557166   0.713019799
End final coordinates

     General routines

     Parallel routines
     Hubbard U routines

   This run was terminated on:  10: 8: 9   6Jun2014

   JOB DONE.
Running PBS batch system epilogue script
Job id: 381423.audhumbla.fysik.dtu.dk
Username: zhonxu
Groupname: campgst
Jobname: RhO2/Eads-2-layers/OOH-U-7.0
Sessionid: 29111
Queuename: verylong
Accounting:
This job has allocated the following 16 nodes:
a025 a025 a025 a025 a025 a025 a025 a025 a014 a014 a014 a014 a014 a014 a014 a014
Finished epilogue job 381423.audhumbla.fysik.dtu.dk for zhonxu