     Program PWSCF v.5.0.2 (svn rev. 9656) starts on 24Jan2014 at 14:52:30

     Current dimensions of program PWSCF are:
     Max number of different atomic species (ntypx) = 10
     Max number of k-points (npk) =  40000
     Max angular momentum in pseudopotentials (lmaxx) =  3
     Reading input from ReO2-v-0.90.in

     Subspace diagonalization in iterative solution of the eigenvalue problem:
     a serial algorithm will be used

     bravais-lattice index     =            0
     lattice parameter (alat)  =       8.4762  a.u.
     unit-cell volume          =     392.4514 (a.u.)^3
     number of atoms/cell      =            6
     number of atomic types    =            2
     number of electrons       =        54.00
     number of Kohn-Sham states=           81
     kinetic-energy cutoff     =      40.0000  Ry
     charge density cutoff     =     500.0000  Ry
     convergence threshold     =      1.0E-06
     mixing beta               =       0.3000
     number of iterations used =            8  plain     mixing
     Exchange-correlation      = SLA  PW   PBE  PBE ( 1 4 3 4 0)
     EXX-fraction              =        0.00
     nstep                     =           50

     celldm(1)=   8.476179  celldm(2)=   0.000000  celldm(3)=   0.000000
     celldm(4)=   0.000000  celldm(5)=   0.000000  celldm(6)=   0.000000

     crystal axes: (cart. coord. in units of alat)
               a(1) = (   1.000000   0.000000   0.000000 )
               a(2) = (   0.000000   1.000000   0.000000 )
               a(3) = (   0.000000   0.000000   0.644444 )

     reciprocal axes: (cart. coord. in units 2 pi/alat)
               b(1) = (  1.000000  0.000000  0.000000 )
               b(2) = (  0.000000  1.000000  0.000000 )
               b(3) = (  0.000000  0.000000  1.551724 )

     PseudoPot. # 1 for Re read from file:
     /home/camp/zhonxu/pseudo/re_pbe_v1.uspp.F.UPF
     MD5 check sum: 6f5a5dcaf9c96c20d0ffdde0de57afc6
     Pseudo is Ultrasoft + core correction, Zval = 15.0
     Generated by new atomic code, or converted to UPF format
     Using radial grid of  981 points,  8 beta functions with:
                l(1) =   0
                l(2) =   0
                l(3) =   1
                l(4) =   1
                l(5) =   2
                l(6) =   2
                l(7) =   3
                l(8) =   3
     Q(r) pseudized with  8 coefficients,  rinner =    1.000   1.000   1.000
                                                       1.000   1.000   1.000
                                                       1.000

     PseudoPot. # 2 for O  read from file:
     /home/camp/zhonxu/pseudo/o_pbe_v1.01.uspp.F.UPF
     MD5 check sum: 2bcb18d16ea4b960afae9ec6d52f22d2
     Pseudo is Ultrasoft + core correction, Zval =  6.0
     Generated by new atomic code, or converted to UPF format
     Using radial grid of  737 points,  5 beta functions with:
                l(1) =   0
                l(2) =   0
                l(3) =   1
                l(4) =   1
                l(5) =   2
     Q(r) pseudized with  8 coefficients,  rinner =    0.900   0.900   0.900
                                                       0.900   0.900

     atomic species   valence    mass     pseudopotential
        Re0           15.00   186.20700     Re( 1.00)
        O1             6.00    15.99940     O ( 1.00)

     Starting magnetic structure
     atomic species   magnetization
        Re0          0.600
        O1           0.000

     16 Sym. Ops., with inversion, found ( 8 have fractional translation)

   Cartesian axes

     site n.     atom                  positions (alat units)
         1           Re0 tau(   1) = (   0.0000000   0.0000000   0.0000000  )
         2           Re0 tau(   2) = (   0.5000000   0.5000000   0.3222222  )
         3           O1  tau(   3) = (   0.3050000   0.3050000   0.0000000  )
         4           O1  tau(   4) = (  -0.3050000  -0.3050000   0.0000000  )
         5           O1  tau(   5) = (   0.8050000   0.1950000   0.3222222  )
         6           O1  tau(   6) = (   0.1950000   0.8050000   0.3222222  )

     number of k points=    36  Methfessel-Paxton smearing, width (Ry)=  0.0100
                       cart. coord. in units 2pi/alat
        k(    1) = (   0.0000000   0.0000000   0.0000000), wk =   0.0080000
        k(    2) = (   0.0000000   0.0000000   0.3103448), wk =   0.0160000
        k(    3) = (   0.0000000   0.0000000   0.6206897), wk =   0.0160000
        k(    4) = (   0.0000000   0.2000000   0.0000000), wk =   0.0320000
        k(    5) = (   0.0000000   0.2000000   0.3103448), wk =   0.0640000
        k(    6) = (   0.0000000   0.2000000   0.6206897), wk =   0.0640000
        k(    7) = (   0.0000000   0.4000000   0.0000000), wk =   0.0320000
        k(    8) = (   0.0000000   0.4000000   0.3103448), wk =   0.0640000
        k(    9) = (   0.0000000   0.4000000   0.6206897), wk =   0.0640000
        k(   10) = (   0.2000000   0.2000000   0.0000000), wk =   0.0320000
        k(   11) = (   0.2000000   0.2000000   0.3103448), wk =   0.0640000
        k(   12) = (   0.2000000   0.2000000   0.6206897), wk =   0.0640000
        k(   13) = (   0.2000000   0.4000000   0.0000000), wk =   0.0640000
        k(   14) = (   0.2000000   0.4000000   0.3103448), wk =   0.1280000
        k(   15) = (   0.2000000   0.4000000   0.6206897), wk =   0.1280000
        k(   16) = (   0.4000000   0.4000000   0.0000000), wk =   0.0320000
        k(   17) = (   0.4000000   0.4000000   0.3103448), wk =   0.0640000
        k(   18) = (   0.4000000   0.4000000   0.6206897), wk =   0.0640000
        k(   19) = (   0.0000000   0.0000000   0.0000000), wk =   0.0080000
        k(   20) = (   0.0000000   0.0000000   0.3103448), wk =   0.0160000
        k(   21) = (   0.0000000   0.0000000   0.6206897), wk =   0.0160000
        k(   22) = (   0.0000000   0.2000000   0.0000000), wk =   0.0320000
        k(   23) = (   0.0000000   0.2000000   0.3103448), wk =   0.0640000
        k(   24) = (   0.0000000   0.2000000   0.6206897), wk =   0.0640000
        k(   25) = (   0.0000000   0.4000000   0.0000000), wk =   0.0320000
        k(   26) = (   0.0000000   0.4000000   0.3103448), wk =   0.0640000
        k(   27) = (   0.0000000   0.4000000   0.6206897), wk =   0.0640000
        k(   28) = (   0.2000000   0.2000000   0.0000000), wk =   0.0320000
        k(   29) = (   0.2000000   0.2000000   0.3103448), wk =   0.0640000
        k(   30) = (   0.2000000   0.2000000   0.6206897), wk =   0.0640000
        k(   31) = (   0.2000000   0.4000000   0.0000000), wk =   0.0640000
        k(   32) = (   0.2000000   0.4000000   0.3103448), wk =   0.1280000
        k(   33) = (   0.2000000   0.4000000   0.6206897), wk =   0.1280000
        k(   34) = (   0.4000000   0.4000000   0.0000000), wk =   0.0320000
        k(   35) = (   0.4000000   0.4000000   0.3103448), wk =   0.0640000
        k(   36) = (   0.4000000   0.4000000   0.6206897), wk =   0.0640000

     Largest allocated arrays     est. size (Mb)     dimensions
     Largest temporary arrays     est. size (Mb)     dimensions

     Check: negative/imaginary core charge=   -0.000004    0.000000

     Initial potential from superposition of free atoms
     Check: negative starting charge=(component1):   -0.047437
     Check: negative starting charge=(component2):   -0.011415

     starting charge   52.99990, renormalised to   54.00000

     negative rho (up, down):  0.483E-01 0.116E-01
     Starting wfc are   42 randomized atomic wfcs

     Self-consistent Calculation

     iteration #  1     ecut=    40.00 Ry     beta=0.30
     Davidson diagonalization with overlap
     ethr =  1.00E-02,  avg # of iterations =  5.1

     negative rho (up, down):  0.342E-01 0.281E-01

     total energy              =    -517.53970998 Ry
     Harris-Foulkes estimate   =    -517.66323179 Ry
     estimated scf accuracy    <       2.21209329 Ry

     total magnetization       =     5.92 Bohr mag/cell
     absolute magnetization    =     6.15 Bohr mag/cell

[...]

     End of self-consistent calculation

 ------ SPIN UP ------------

          k = 0.0000 0.0000 0.0000 (  1667 PWs)   bands (ev):

   -63.7667 -63.7600 -25.8538 -25.8538 -25.7858 -25.7380 -25.6797 -25.6797
    -5.4272  -4.2232  -2.5938  -2.5938   6.2049   6.4758   7.7780   8.5463
     8.5463  11.1233  11.1233  11.7484  12.9098  13.0985  13.0985  13.7406
    15.6777  15.7565  16.6910  16.8146  16.8146  20.7722  20.8510  21.7004
    24.3045  24.3045  25.7854  25.7854  26.0638  29.8798  30.6683  31.4307
    33.0314  33.3331  34.3451  34.3451  36.7899  37.3104  37.9197  37.9197
    39.0147  39.0147  40.0571  44.6653  44.7923  44.7923  45.5687  45.6506
    47.3899  48.3961  48.3961  49.0949  49.2152  49.2152  49.5875  50.4857
    50.5241  51.3973  51.5971  51.5971  54.6116  56.6266  56.9143  56.9143
    57.8566  57.8566  57.9746  58.5954  58.6847  58.9030  58.9359  58.9359
    60.3111

[...]

 ------ SPIN DOWN ----------

[...]

     the Fermi energy is    17.7644 ev

!    total energy              =    -518.35261153 Ry
     Harris-Foulkes estimate   =    -518.35261088 Ry
     estimated scf accuracy    <       0.00000026 Ry

     The total energy is the sum of the following terms:

     one-electron contribution =    -101.05367557 Ry
     hartree contribution      =      85.97394771 Ry
     xc contribution           =    -143.40340010 Ry
     ewald contribution        =    -359.86922777 Ry
     smearing contrib. (-TS)   =      -0.00025580 Ry

[...]

     convergence has been achieved in  15 iterations

     Forces acting on atoms (Ry/au):

     negative rho (up, down):  0.278E-01 0.310E-01
     atom    1 type  1   force =     0.00000000    0.00000000    0.00000000
     atom    2 type  1   force =     0.00000000    0.00000000   -0.00000000
     atom    3 type  2   force =    -0.09046592   -0.09046592    0.00000000
     atom    4 type  2   force =     0.09046592    0.09046592    0.00000000
     atom    5 type  2   force =    -0.09046592    0.09046592    0.00000000
     atom    6 type  2   force =     0.09046592   -0.09046592   -0.00000000

     Total force =     0.255876     Total SCF correction =     0.000311

     entering subroutine stress ...

     negative rho (up, down):  0.278E-01 0.310E-01
          total   stress  (Ry/bohr**3)                   (kbar)     P=  582.28
   0.00379632   0.00000000   0.00000000        558.46      0.00      0.00
   0.00000000   0.00379632   0.00000000          0.00    558.46      0.00
   0.00000000   0.00000000   0.00428213          0.00      0.00    629.92

     Volume is kept fixed: isostatic pressure set to zero

     BFGS Geometry Optimization

     number of scf cycles    =   1
     number of bfgs steps    =   0

     enthalpy new            =    -518.3526115296 Ry

     new trust radius        =       0.1279381279 bohr
     new conv_thr            =       0.0000010000 Ry

     new unit-cell volume =    392.45142 a.u.^3 (    58.15530 Ang^3 )

CELL_PARAMETERS (alat=  8.47617942)
   0.995967880   0.000000000   0.000000000
   0.000000000   0.995967880   0.000000000
   0.000000000   0.000000000   0.649673001

ATOMIC_POSITIONS (crystal)
Re0      0.000000000   0.000000000   0.000000000    0   0   0
[...]
        k(   29) = (   0.2008097   0.2008097   0.3078472), wk =   0.0640000
        k(   30) = (   0.2008097   0.2008097   0.6156944), wk =   0.0640000
        k(   31) = (   0.2008097   0.4016194   0.0000000), wk =   0.0640000
        k(   32) = (   0.2008097   0.4016194   0.3078472), wk =   0.1280000
        k(   33) = (   0.2008097   0.4016194   0.6156944), wk =   0.1280000
        k(   34) = (   0.4016194   0.4016194   0.0000000), wk =   0.0320000
        k(   35) = (   0.4016194   0.4016194   0.3078472), wk =   0.0640000
        k(   36) = (   0.4016194   0.4016194   0.6156944), wk =   0.0640000

     Check: negative/imaginary core charge=   -0.000004    0.000000
     Check: negative starting charge=(component1):   -0.058840

[...]

     enthalpy old            =    -518.3526115296 Ry
     enthalpy new            =    -518.3847766907 Ry

     CASE: enthalpy_new < enthalpy_old

[...]

     WARNING: bfgs curvature condition failed, Theta= 0.839
     new trust radius        =       0.1491176033 bohr
     new conv_thr            =       0.0000000332 Ry

[...]

     Threshold (ethr) on eigenvalues was too large:
     Diagonalizing with lowered threshold

     Davidson diagonalization with overlap
     ethr =  5.73E-08,  avg # of iterations =  1.0

[...]

     number of scf cycles    =   8
     number of bfgs steps    =   7

     enthalpy old            =    -518.4746237690 Ry
     enthalpy new            =    -518.4746447013 Ry

     CASE: enthalpy_new < enthalpy_old

     new trust radius        =       0.0011640707 bohr
     new conv_thr            =       0.0000000100 Ry

     new unit-cell volume =    392.45142 a.u.^3 (    58.15530 Ang^3 )

[...]

ATOMIC_POSITIONS (crystal)
Re0      0.000000000   0.000000000   0.000000000    0   0   0
Re0      0.500000000   0.500000000   0.500000000    0   0   0
O1       0.279375341   0.279375341   0.000000000    1   1   0
O1      -0.279375341  -0.279375341   0.000000000    1   1   0
O1       0.779375341   0.220624659   0.500000000    1   1   0
O1       0.220624659   0.779375341   0.500000000    1   1   0

     Check: negative starting charge=(component1):   -0.057773
     NEW-OLD atomic charge density approx. for the potential
     NEW k-points:
        k(    1) = (   0.0000000   0.0000000   0.0000000), wk =   0.0080000
        k(    2) = (   0.0000000   0.0000000   0.3515972), wk =   0.0160000
        k(    3) = (   0.0000000   0.0000000   0.7031944), wk =   0.0160000
        k(    4) = (   0.0000000   0.1879012   0.0000000), wk =   0.0320000
        k(    5) = (   0.0000000   0.1879012   0.3515972), wk =   0.0640000
        k(    6) = (   0.0000000   0.1879012   0.7031944), wk =   0.0640000
        k(    7) = (   0.0000000   0.3758024   0.0000000), wk =   0.0320000
        k(    8) = (   0.0000000   0.3758024   0.3515972), wk =   0.0640000
        k(    9) = (   0.0000000   0.3758024   0.7031944), wk =   0.0640000
        k(   10) = (   0.1879012   0.1879012   0.0000000), wk =   0.0320000
        k(   11) = (   0.1879012   0.1879012   0.3515972), wk =   0.0640000
        k(   12) = (   0.1879012   0.1879012   0.7031944), wk =   0.0640000
        k(   13) = (   0.1879012   0.3758024   0.0000000), wk =   0.0640000
        k(   14) = (   0.1879012   0.3758024   0.3515972), wk =   0.1280000
        k(   15) = (   0.1879012   0.3758024   0.7031944), wk =   0.1280000
        k(   16) = (   0.3758024   0.3758024   0.0000000), wk =   0.0320000
        k(   17) = (   0.3758024   0.3758024   0.3515972), wk =   0.0640000
        k(   18) = (   0.3758024   0.3758024   0.7031944), wk =   0.0640000
        k(   19) = (   0.0000000   0.0000000   0.0000000), wk =   0.0080000
        k(   20) = (   0.0000000   0.0000000   0.3515972), wk =   0.0160000
        k(   21) = (   0.0000000   0.0000000   0.7031944), wk =   0.0160000
        k(   22) = (   0.0000000   0.1879012   0.0000000), wk =   0.0320000
        k(   23) = (   0.0000000   0.1879012   0.3515972), wk =   0.0640000
        k(   24) = (   0.0000000   0.1879012   0.7031944), wk =   0.0640000
        k(   25) = (   0.0000000   0.3758024   0.0000000), wk =   0.0320000
        k(   26) = (   0.0000000   0.3758024   0.3515972), wk =   0.0640000
        k(   27) = (   0.0000000   0.3758024   0.7031944), wk =   0.0640000
        k(   28) = (   0.1879012   0.1879012   0.0000000), wk =   0.0320000
        k(   29) = (   0.1879012   0.1879012   0.3515972), wk =   0.0640000
        k(   30) = (   0.1879012   0.1879012   0.7031944), wk =   0.0640000
        k(   31) = (   0.1879012   0.3758024   0.0000000), wk =   0.0640000
        k(   32) = (   0.1879012   0.3758024   0.3515972), wk =   0.1280000
        k(   33) = (   0.1879012   0.3758024   0.7031944), wk =   0.1280000
        k(   34) = (   0.3758024   0.3758024   0.0000000), wk =   0.0320000
        k(   35) = (   0.3758024   0.3758024   0.3515972), wk =   0.0640000
        k(   36) = (   0.3758024   0.3758024   0.7031944), wk =   0.0640000

     Check: negative/imaginary core charge=   -0.000003    0.000000
     Check: negative starting charge=(component1):   -0.057773

[...]

     Threshold (ethr) on eigenvalues was too large:
     Diagonalizing with lowered threshold

     Davidson diagonalization with overlap
     ethr =  1.42E-09,  avg # of iterations =  1.1

[...]

     Total force =     0.000160     Total SCF correction =     0.000033
     SCF correction compared to forces is large: reduce conv_thr to get better values

[...]

     Volume is kept fixed: isostatic pressure set to zero

     bfgs converged in   9 scf cycles and   8 bfgs steps
     (criteria: energy < 0.10E-03, force < 0.10E-02, cell < 0.50E+00)

     End of BFGS Geometry Optimization

     Final enthalpy =    -518.4746471711 Ry
Begin final coordinates
     new unit-cell volume =    392.45142 a.u.^3 (    58.15530 Ang^3 )

CELL_PARAMETERS (alat=  8.47617942)
   1.064389206   0.000000000   0.000000000
   0.000000000   1.064389206   0.000000000
   0.000000000   0.000000000   0.568832708

ATOMIC_POSITIONS (crystal)
Re0      0.000000000   0.000000000   0.000000000    0   0   0
Re0      0.500000000   0.500000000   0.500000000    0   0   0
O1       0.279375341   0.279375341   0.000000000    1   1   0
O1      -0.279375341  -0.279375341   0.000000000    1   1   0
O1       0.779375341   0.220624659   0.500000000    1   1   0
O1       0.220624659   0.779375341   0.500000000    1   1   0
End final coordinates

     A final scf calculation at the relaxed structure.
     The G-vectors are recalculated for the final unit cell
     Results may differ from those at the preceding step.

     bravais-lattice index     =            0
     lattice parameter (alat)  =       8.4762  a.u.
     unit-cell volume          =     392.4514 (a.u.)^3
     number of atoms/cell      =            6
     number of atomic types    =            2
     number of electrons       =        54.00
     number of Kohn-Sham states=           81
     kinetic-energy cutoff     =      40.0000  Ry
     charge density cutoff     =     500.0000  Ry
     convergence threshold     =      1.0E-08
     mixing beta               =       0.3000
     number of iterations used =            8  plain     mixing
     Exchange-correlation      = SLA  PW   PBE  PBE ( 1 4 3 4 0)
     EXX-fraction              =        0.00

     celldm(1)=   8.476179  celldm(2)=   0.000000  celldm(3)=   0.000000
     celldm(4)=   0.000000  celldm(5)=   0.000000  celldm(6)=   0.000000

     crystal axes: (cart. coord. in units of alat)
               a(1) = (   1.064389   0.000000   0.000000 )
               a(2) = (   0.000000   1.064389   0.000000 )
               a(3) = (   0.000000   0.000000   0.568833 )

     reciprocal axes: (cart. coord. in units 2 pi/alat)
               b(1) = (  0.939506  0.000000  0.000000 )
               b(2) = (  0.000000  0.939506  0.000000 )
               b(3) = (  0.000000  0.000000  1.757986 )

     PseudoPot. # 1 for Re read from file:
     /home/camp/zhonxu/pseudo/re_pbe_v1.uspp.F.UPF
     MD5 check sum: 6f5a5dcaf9c96c20d0ffdde0de57afc6
     Pseudo is Ultrasoft + core correction, Zval = 15.0
     Generated by new atomic code, or converted to UPF format
     Using radial grid of  981 points,  8 beta functions with:
                l(1) =   0
                l(2) =   0
                l(3) =   1
                l(4) =   1
                l(5) =   2
                l(6) =   2
                l(7) =   3
                l(8) =   3
     Q(r) pseudized with  8 coefficients,  rinner =    1.000   1.000   1.000
                                                       1.000   1.000   1.000
                                                       1.000

     PseudoPot. # 2 for O  read from file:
     /home/camp/zhonxu/pseudo/o_pbe_v1.01.uspp.F.UPF
     MD5 check sum: 2bcb18d16ea4b960afae9ec6d52f22d2
     Pseudo is Ultrasoft + core correction, Zval =  6.0
     Generated by new atomic code, or converted to UPF format
     Using radial grid of  737 points,  5 beta functions with:
                l(1) =   0
                l(2) =   0
                l(3) =   1
                l(4) =   1
                l(5) =   2
     Q(r) pseudized with  8 coefficients,  rinner =    0.900   0.900   0.900
                                                       0.900   0.900

     atomic species   valence    mass     pseudopotential
        Re0           15.00   186.20700     Re( 1.00)
        O1             6.00    15.99940     O ( 1.00)

     Starting magnetic structure
     atomic species   magnetization
        Re0          0.600
        O1           0.000

     16 Sym. Ops., with inversion, found ( 8 have fractional translation)

   Cartesian axes

     site n.     atom                  positions (alat units)
         1           Re0 tau(   1) = (   0.0000000   0.0000000   0.0000000  )
         2           Re0 tau(   2) = (   0.5321946   0.5321946   0.2844164  )
         3           O1  tau(   3) = (   0.2973641   0.2973641   0.0000000  )
         4           O1  tau(   4) = (  -0.2973641  -0.2973641   0.0000000  )
         5           O1  tau(   5) = (   0.8295587   0.2348305   0.2844164  )
         6           O1  tau(   6) = (   0.2348305   0.8295587   0.2844164  )

     number of k points=    36  Methfessel-Paxton smearing, width (Ry)=  0.0100
                       cart. coord. in units 2pi/alat
        k(    1) = (   0.0000000   0.0000000   0.0000000), wk =   0.0080000
        k(    2) = (   0.0000000   0.0000000   0.3515972), wk =   0.0160000
        k(    3) = (   0.0000000   0.0000000   0.7031944), wk =   0.0160000
        k(    4) = (   0.0000000   0.1879012   0.0000000), wk =   0.0320000
        k(    5) = (   0.0000000   0.1879012   0.3515972), wk =   0.0640000
        k(    6) = (   0.0000000   0.1879012   0.7031944), wk =   0.0640000
        k(    7) = (   0.0000000   0.3758024   0.0000000), wk =   0.0320000
        k(    8) = (   0.0000000   0.3758024   0.3515972), wk =   0.0640000
        k(    9) = (   0.0000000   0.3758024   0.7031944), wk =   0.0640000
        k(   10) = (   0.1879012   0.1879012   0.0000000), wk =   0.0320000
        k(   11) = (   0.1879012   0.1879012   0.3515972), wk =   0.0640000
        k(   12) = (   0.1879012   0.1879012   0.7031944), wk =   0.0640000
        k(   13) = (   0.1879012   0.3758024   0.0000000), wk =   0.0640000
        k(   14) = (   0.1879012   0.3758024   0.3515972), wk =   0.1280000
        k(   15) = (   0.1879012   0.3758024   0.7031944), wk =   0.1280000
        k(   16) = (   0.3758024   0.3758024   0.0000000), wk =   0.0320000
        k(   17) = (   0.3758024   0.3758024   0.3515972), wk =   0.0640000
        k(   18) = (   0.3758024   0.3758024   0.7031944), wk =   0.0640000
        k(   19) = (   0.0000000   0.0000000   0.0000000), wk =   0.0080000
        k(   20) = (   0.0000000   0.0000000   0.3515972), wk =   0.0160000
        k(   21) = (   0.0000000   0.0000000   0.7031944), wk =   0.0160000
        k(   22) = (   0.0000000   0.1879012   0.0000000), wk =   0.0320000
        k(   23) = (   0.0000000   0.1879012   0.3515972), wk =   0.0640000
        k(   24) = (   0.0000000   0.1879012   0.7031944), wk =   0.0640000
        k(   25) = (   0.0000000   0.3758024   0.0000000), wk =   0.0320000
        k(   26) = (   0.0000000   0.3758024   0.3515972), wk =   0.0640000
        k(   27) = (   0.0000000   0.3758024   0.7031944), wk =   0.0640000
        k(   28) = (   0.1879012   0.1879012   0.0000000), wk =   0.0320000
        k(   29) = (   0.1879012   0.1879012   0.3515972), wk =   0.0640000
        k(   30) = (   0.1879012   0.1879012   0.7031944), wk =   0.0640000
        k(   31) = (   0.1879012   0.3758024   0.0000000), wk =   0.0640000
        k(   32) = (   0.1879012   0.3758024   0.3515972), wk =   0.1280000
        k(   33) = (   0.1879012   0.3758024   0.7031944), wk =   0.1280000
        k(   34) = (   0.3758024   0.3758024   0.0000000), wk =   0.0320000
        k(   35) = (   0.3758024   0.3758024   0.3515972), wk =   0.0640000
        k(   36) = (   0.3758024   0.3758024   0.7031944), wk =   0.0640000

     Largest allocated arrays     est. size (Mb)     dimensions
     Largest temporary arrays     est. size (Mb)     dimensions

     Check: negative/imaginary core charge=   -0.000004    0.000000

     Initial potential from superposition of free atoms
     Check: negative starting charge=(component1):   -0.048227
     Check: negative starting charge=(component2):   -0.011700

     starting charge   52.99990, renormalised to   54.00000

     negative rho (up, down):  0.491E-01 0.119E-01
     Starting wfc are   42 randomized atomic wfcs

     Self-consistent Calculation

[...]

     total energy              =    -518.47680034 Ry
     Harris-Foulkes estimate   =    -518.47680034 Ry
     estimated scf accuracy    <       0.00000003 Ry

[...]

     iteration # 15     ecut=    40.00 Ry     beta=0.30
     Davidson diagonalization with overlap
     ethr =  5.08E-11,  avg # of iterations =  2.0

     negative rho (up, down):  0.312E-01 0.312E-01

     End of self-consistent calculation

 ------ SPIN UP ------------

[...]

 ------ SPIN DOWN ----------

[...]

          k = 0.3758 0.3758 0.7032 (  1685 PWs)   bands (ev):

   -64.2951 -64.2950 -26.8964 -26.8957 -26.3238 -26.3197 -26.2755 -26.2724
    -3.6883  -3.4036  -3.1517  -2.8181   7.5392   8.0704   8.0808   8.5023
     8.7608   9.4355   9.6247  10.5855  11.5726  11.8066  12.8463  13.0682
    15.9131  16.1736  17.3311  17.7674  19.6207  19.7466  21.8028  22.8924
    23.2758  24.0807  26.3943  26.6860  27.3883  27.4824  31.2137  31.2190
    33.0796  33.2385  33.5690  33.9456  36.0289  36.6917  37.1923  37.8581
    40.6012  40.8692  41.5642  41.8135  44.1737  44.6977  45.6733  46.2854
    46.3104  46.6930  48.2127  48.9063  49.4197  49.8326  50.4472  50.5690
    51.1555  51.9192  52.0565  52.7354  53.7443  54.0544  54.3585  54.5596
    56.1852  57.1392  59.2853  60.2997  60.7514  60.8460  61.8776  62.0337
    63.4000

     the Fermi energy is    17.5654 ev

!    total energy              =    -518.47680072 Ry
     Harris-Foulkes estimate   =    -518.47680059 Ry
     estimated scf accuracy    <          2.0E-09 Ry

     The total energy is the sum of the following terms:

     one-electron contribution =    -106.62776526 Ry
     hartree contribution      =      88.24314825 Ry
     xc contribution           =    -143.30536735 Ry
     ewald contribution        =    -356.78659278 Ry
     smearing contrib. (-TS)   =      -0.00022358 Ry

     total magnetization       =     0.00 Bohr mag/cell
     absolute magnetization    =     0.00 Bohr mag/cell

     convergence has been achieved in  15 iterations

     Forces acting on atoms (Ry/au):

     negative rho (up, down):  0.312E-01 0.312E-01
     atom    1 type  1   force =     0.00000000    0.00000000   -0.00000000
     atom    2 type  1   force =     0.00000000    0.00000000   -0.00000000
     atom    3 type  2   force =    -0.00028185   -0.00028185    0.00000000
     atom    4 type  2   force =     0.00028185    0.00028185    0.00000000
     atom    5 type  2   force =    -0.00028185    0.00028185    0.00000000
     atom    6 type  2   force =     0.00028185   -0.00028185    0.00000000

     Total force =     0.000797     Total SCF correction =     0.000016

     entering subroutine stress ...

     negative rho (up, down):  0.312E-01 0.312E-01
          total   stress  (Ry/bohr**3)                   (kbar)     P=  457.63
   0.00313537   0.00000000   0.00000000        461.23      0.00      0.00
   0.00000000   0.00313537   0.00000000          0.00    461.23      0.00
   0.00000000   0.00000000   0.00306191          0.00      0.00    450.42

     General routines

     Parallel routines

   This run was terminated on:  15:30: 3  24Jan2014

   JOB DONE.