     Program PWSCF v.5.0.2 (svn rev. 9656) starts on 25May2014 at  6:54:32

     Current dimensions of program PWSCF are:
     Max number of different atomic species (ntypx) = 10
     Max number of k-points (npk) =  40000
     Max angular momentum in pseudopotentials (lmaxx) =  3
     Reading input from pwscf.in
Warning: card &CELL ignored
Warning: card / ignored

     Subspace diagonalization in iterative solution of the eigenvalue problem:
     a serial algorithm will be used

     bravais-lattice index     =            0
     lattice parameter (alat)  =      10.9604  a.u.
     unit-cell volume          =    6350.6732 (a.u.)^3
     number of atoms/cell      =           32
     number of atomic types    =            3
     number of electrons       =       231.00 (up: 123.00, down: 108.00)
     number of Kohn-Sham states=          334
     kinetic-energy cutoff     =      40.0000  Ry
     charge density cutoff     =     500.0000  Ry
     convergence threshold     =      1.0E-06
     mixing beta               =       0.7000
     number of iterations used =            8  plain     mixing
     Exchange-correlation      = SLA  PW   PBE  PBE ( 1 4 3 4 0)
     EXX-fraction              =        0.00
     nstep                     =           50

     celldm(1)=  10.960412  celldm(2)=   0.000000  celldm(3)=   0.000000
     celldm(4)=   0.000000  celldm(5)=   0.000000  celldm(6)=   0.000000

     crystal axes: (cart. coord. in units of alat)
               a(1) = (   1.000000   0.000000   0.000000 )
               a(2) = (   0.000000   1.067975   0.000000 )
               a(3) = (   0.000000   0.000000   4.516251 )

     reciprocal axes: (cart. coord. in units 2 pi/alat)
               b(1) = (  1.000000  0.000000  0.000000 )
               b(2) = (  0.000000  0.936351  0.000000 )
               b(3) = (  0.000000  0.000000  0.221423 )

     PseudoPot. # 1 for O  read from file:
     /home/camp/zhonxu/pseudo/o_pbe_v1.01.uspp.F.UPF
     MD5 check sum: 2bcb18d16ea4b960afae9ec6d52f22d2
     Pseudo is Ultrasoft + core correction, Zval =  6.0
     Generated by new atomic code, or converted to UPF format
     Using radial grid of  737 points,  5 beta functions with:
                l(1) =   0
                l(2) =   0
                l(3) =   1
                l(4) =   1
                l(5) =   2
     Q(r) pseudized with  8 coefficients,  rinner =    0.900   0.900   0.900
                                                       0.900   0.900

     PseudoPot. # 2 for Cr read from file:
     /home/camp/zhonxu/pseudo/cr_pbe_v1.uspp.F.UPF
     MD5 check sum: 68b6f918d1762dccfb11451fe85b0e0e
     Pseudo is Ultrasoft + core correction, Zval = 14.0
     Generated by new atomic code, or converted to UPF format
     Using radial grid of  857 points,  6 beta functions with:
                l(1) =   0
                l(2) =   0
                l(3) =   1
                l(4) =   1
                l(5) =   2
                l(6) =   2
     Q(r) pseudized with  6 coefficients,  rinner =    1.000   1.000   1.000
                                                       1.000   1.000

     PseudoPot. # 3 for H  read from file:
     /home/camp/zhonxu/pseudo/h_pbe_v1.uspp.F.UPF
     MD5 check sum: 3408e3ff4ec8b0a4e358431e7e038a48
     Pseudo is Ultrasoft, Zval =  1.0
     Generated by new atomic code, or converted to UPF format
     Using radial grid of  615 points,  2 beta functions with:
                l(1) =   0
                l(2) =   0
     Q(r) pseudized with  8 coefficients,  rinner =    0.700

     atomic species   valence    mass     pseudopotential
        O0             6.00    15.99940     O ( 1.00)
        Cr1           14.00    51.99600     Cr( 1.00)
        H2             1.00     1.00794     H ( 1.00)

     Starting magnetic structure
     atomic species   magnetization
        O0           0.000
        Cr1          0.600
        H2           0.000

     Simplified LDA+U calculation (l_max = 2) with parameters (eV):
     atomic species    L          U    alpha       J0     beta
        Cr1            2     7.5000   0.0000   0.0000   0.0000

     No symmetry found

   Cartesian axes

     site n.     atom                  positions (alat units)
         1           O0  tau(   1) = (   0.0000000   0.0000000   1.6832067  )
         2           O0  tau(   2) = (   0.0000000   0.5339875   1.7779577  )
         3           Cr1 tau(   3) = (   0.2500000   0.5339875   2.0177254  )
         4           Cr1 tau(   4) = (   0.0000000   0.0000000   2.0269837  )
         5           O0  tau(   5) = (   0.2500000   0.8543801   2.0222868  )
         6           O0  tau(   6) = (   0.2500000   0.2135950   2.0223320  )
         7           O0  tau(   7) = (   0.0000000   0.5339875   2.2415057  )
         8           O0  tau(   8) = (   0.0000000   0.0000000   2.3736060  )
         9           Cr1 tau(   9) = (   0.2500000   0.0000000   2.6089478  )
        10           Cr1 tau(  10) = (   0.0000000   0.5339875   2.5617079  )
        11           O0  tau(  11) = (   0.2500000   0.7475825   2.6105737  )
        12           O0  tau(  12) = (   0.2500000   0.3203925   2.6107995  )
        13           O0  tau(  13) = (   0.0000000   0.0000000   2.8304699  )
        14           O0  tau(  14) = (   0.5000000   0.0000000   1.6823035  )
        15           O0  tau(  15) = (   0.5000000   0.5339875   1.7790416  )
        16           Cr1 tau(  16) = (   0.7500000   0.5339875   2.0176803  )
        17           Cr1 tau(  17) = (   0.5000000   0.0000000   2.0258095  )
        18           O0  tau(  18) = (   0.7500000   0.8543801   2.0221514  )
        19           O0  tau(  19) = (   0.7500000   0.2135950   2.0222868  )
        20           O0  tau(  20) = (   0.5000000   0.5339875   2.2570416  )
        21           O0  tau(  21) = (   0.5000000   0.0000000   2.3738770  )
        22           Cr1 tau(  22) = (   0.7500000   0.0000000   2.6092640  )
        23           Cr1 tau(  23) = (   0.5000000   0.5339875   2.6235805  )
        24           O0  tau(  24) = (   0.7500000   0.7475825   2.6049284  )
        25           O0  tau(  25) = (   0.7500000   0.3203925   2.6047477  )
        26           O0  tau(  26) = (   0.5000000   0.0000000   2.8310119  )
        27           H2  tau(  27) = (  -0.0006600   0.6796593   1.6894843  )
        28           H2  tau(  28) = (   0.4993600   0.6800652   1.6912456  )
        29           H2  tau(  29) = (   0.1585600   0.0299887   1.6258052  )
        30           H2  tau(  30) = (   0.6588500   0.0296683   1.6255342  )
        31           O0  tau(  31) = (   0.5196400   0.5332293   2.9551185  )
        32           H2  tau(  32) = (   0.3676100   0.5312322   3.0302689  )

     number of k points=    20  Methfessel-Paxton smearing, width (Ry)=  0.0100
                       cart. coord. in units 2pi/alat
        k(    1) = (   0.0000000   0.0000000   0.0000000), wk =   0.0625000
        k(    2) = (   0.0000000   0.2340879   0.0000000), wk =   0.1250000
        k(    3) = (   0.0000000  -0.4681757   0.0000000), wk =   0.0625000
        k(    4) = (   0.2500000   0.0000000   0.0000000), wk =   0.1250000
        k(    5) = (   0.2500000   0.2340879   0.0000000), wk =   0.1250000
        k(    6) = (   0.2500000  -0.4681757   0.0000000), wk =   0.1250000
        k(    7) = (  -0.5000000   0.0000000   0.0000000), wk =   0.0625000
        k(    8) = (  -0.5000000   0.2340879   0.0000000), wk =   0.1250000
        k(    9) = (  -0.5000000  -0.4681757   0.0000000), wk =   0.0625000
        k(   10) = (  -0.2500000   0.2340879   0.0000000), wk =   0.1250000
        k(   11) = (   0.0000000   0.0000000   0.0000000), wk =   0.0625000
        k(   12) = (   0.0000000   0.2340879   0.0000000), wk =   0.1250000
        k(   13) = (   0.0000000  -0.4681757   0.0000000), wk =   0.0625000
        k(   14) = (   0.2500000   0.0000000   0.0000000), wk =   0.1250000
        k(   15) = (   0.2500000   0.2340879   0.0000000), wk =   0.1250000
        k(   16) = (   0.2500000  -0.4681757   0.0000000), wk =   0.1250000
        k(   17) = (  -0.5000000   0.0000000   0.0000000), wk =   0.0625000
        k(   18) = (  -0.5000000   0.2340879   0.0000000), wk =   0.1250000
        k(   19) = (  -0.5000000  -0.4681757   0.0000000), wk =   0.0625000
        k(   20) = (  -0.2500000   0.2340879   0.0000000), wk =   0.1250000

     Largest allocated arrays     est. size (Mb)     dimensions
     Largest temporary arrays     est. size (Mb)     dimensions

     Check: negative/imaginary core charge=   -0.000012    0.000000

     Initial potential from superposition of free atoms
     Check: negative starting charge=(component1):   -0.001395
     Check: negative starting charge=(component2):   -0.000478

     starting charge  222.99983, renormalised to  231.00000

     negative rho (up, down):  0.145E-02 0.495E-03
     Number of +U iterations with fixed ns =  0
     Starting occupations:
 --- enter write_ns ---
 LDA+U parameters:
U( 2)     =  7.50000000
alpha( 2) =  0.00000000
atom    3   Tr[ns(na)] (up, down, total) =   5.00000  0.00000  5.00000
   spin  1
    eigenvalues:
  1.000  1.000  1.000  1.000  1.000
    eigenvectors:
  1.000  0.000  0.000  0.000  0.000
  0.000  1.000  0.000  0.000  0.000
  0.000  0.000  1.000  0.000  0.000
  0.000  0.000  0.000  1.000  0.000
  0.000  0.000  0.000  0.000  1.000
    occupations:
  1.000  0.000  0.000  0.000  0.000
  0.000  1.000  0.000  0.000  0.000
  0.000  0.000  1.000  0.000  0.000
  0.000  0.000  0.000  1.000  0.000
  0.000  0.000  0.000  0.000  1.000
   spin  2
    eigenvalues:
  0.000  0.000  0.000  0.000  0.000
    eigenvectors:
  1.000  0.000  0.000  0.000  0.000
  0.000  1.000  0.000  0.000  0.000
  0.000  0.000  1.000  0.000  0.000
  0.000  0.000  0.000  1.000  0.000
  0.000  0.000  0.000  0.000  1.000
    occupations:
  0.000  0.000  0.000  0.000  0.000
  0.000  0.000  0.000  0.000  0.000
  0.000  0.000  0.000  0.000  0.000
  0.000  0.000  0.000  0.000  0.000
  0.000  0.000  0.000  0.000  0.000
atomic mag. moment =     5.000000
atom    4   Tr[ns(na)] (up, down, total) =   5.00000  0.00000  5.00000
   spin  1
    eigenvalues:
  1.000  1.000  1.000  1.000  1.000
    eigenvectors:
  1.000  0.000  0.000  0.000  0.000
  0.000  1.000  0.000  0.000  0.000
  0.000  0.000  1.000  0.000  0.000
  0.000  0.000  0.000  1.000  0.000
  0.000  0.000  0.000  0.000  1.000
    occupations:
  1.000  0.000  0.000  0.000  0.000
  0.000  1.000  0.000  0.000  0.000
  0.000  0.000  1.000  0.000  0.000
  0.000  0.000  0.000  1.000  0.000
  0.000  0.000  0.000  0.000  1.000
   spin  2
    eigenvalues:
  0.000  0.000  0.000  0.000  0.000
    eigenvectors:
  1.000  0.000  0.000  0.000  0.000
  0.000  1.000  0.000  0.000  0.000
  0.000  0.000  1.000  0.000  0.000
  0.000  0.000  0.000  1.000  0.000
  0.000  0.000  0.000  0.000  1.000
    occupations:
  0.000  0.000  0.000  0.000  0.000
  0.000  0.000  0.000  0.000  0.000
  0.000  0.000  0.000  0.000  0.000
  0.000  0.000  0.000  0.000  0.000
  0.000  0.000  0.000  0.000  0.000
atomic mag. moment =     5.000000
atom    9   Tr[ns(na)] (up, down, total) =   5.00000  0.00000  5.00000
   spin  1
    eigenvalues:
  1.000  1.000  1.000  1.000  1.000
[...]
  0.000  0.000  0.989  0.011  0.000
  0.000  0.002  0.000  0.000  0.998
  1.000  0.000  0.000  0.000  0.000
    occupations:
  0.502 -0.015 -0.001  0.021  0.001
 -0.015  0.933  0.004  0.002  0.000
 -0.001  0.004  0.897 -0.000  0.001
  0.021  0.002 -0.000  0.991  0.000
  0.001  0.000  0.001  0.000  0.469
   spin  2
    eigenvalues:
  0.061  0.064  0.066  0.264  0.293
    eigenvectors:
  0.001  0.009  0.000  0.990  0.000
  0.066  0.024  0.909  0.001  0.000
  0.914  0.034  0.052  0.000  0.000
  0.019  0.933  0.039  0.009  0.000
  0.000  0.000  0.000  0.000  1.000
    occupations:
  0.262  0.006  0.001 -0.019  0.000
  0.006  0.066 -0.001 -0.000 -0.000
  0.001 -0.001  0.062  0.000  0.000
 -0.019 -0.000  0.000  0.066 -0.000
  0.000 -0.000  0.000 -0.000  0.293
atomic mag. moment =     3.043924
atom    9   Tr[ns(na)] (up, down, total) =   3.79129  0.79200  4.58329
   spin  1
    eigenvalues:
  0.516  0.526  0.821  0.934  0.994
    eigenvectors:
  0.002  0.217  0.000  0.000  0.781
  0.991  0.009  0.000  0.000  0.000
  0.000  0.000  0.960  0.040  0.000
  0.007  0.774  0.000  0.000  0.219
  0.000  0.000  0.040  0.960  0.000
    occupations:
  0.892  0.001 -0.000 -0.193 -0.000
  0.001  0.516  0.001 -0.002 -0.000
 -0.000  0.001  0.825  0.000 -0.022
 -0.193 -0.002  0.000  0.629  0.001
 -0.000 -0.000 -0.022  0.001  0.930
   spin  2
    eigenvalues:
  0.064  0.073  0.074  0.270  0.311
    eigenvectors:
  0.798  0.000  0.000  0.000  0.202
  0.000  0.000  0.000  1.000  0.000
  0.000  0.223  0.777  0.000  0.000
  0.202  0.000  0.000  0.000  0.798
  0.000  0.777  0.223  0.000  0.000
    occupations:
  0.114 -0.000  0.000  0.099 -0.000
 -0.000  0.270 -0.000 -0.000  0.000
  0.000 -0.000  0.073  0.000  0.000
  0.099 -0.000  0.000  0.261 -0.000
 -0.000  0.000  0.000 -0.000  0.073
atomic mag. moment =     2.999285
atom   10   Tr[ns(na)] (up, down, total) =   3.82723  0.68302  4.51026
   spin  1
    eigenvalues:
  0.485  0.499  0.907  0.943  0.993
    eigenvectors:
  0.000  0.996  0.000  0.000  0.003
  0.000  0.000  0.000  1.000  0.000
  0.000  0.000  0.999  0.000  0.000
  0.000  0.003  0.000  0.000  0.997
  1.000  0.000  0.000  0.000  0.000
    occupations:
  0.501 -0.003 -0.005  0.029 -0.000
 -0.003  0.943 -0.000 -0.000  0.000
 -0.005 -0.000  0.907  0.000  0.008
  0.029 -0.000  0.000  0.991  0.000
 -0.000  0.000  0.008  0.000  0.486
   spin  2
    eigenvalues:
  0.060  0.071  0.077  0.193  0.282
    eigenvectors:
  0.014  0.000  0.000  0.986  0.000
  0.000  0.000  1.000  0.000  0.000
  0.000  1.000  0.000  0.000  0.000
  0.985  0.000  0.000  0.014  0.000
  0.000  0.000  0.000  0.000  1.000
    occupations:
  0.192  0.000  0.000 -0.016 -0.000
  0.000  0.077 -0.000 -0.000  0.000
  0.000 -0.000  0.071 -0.000 -0.003
 -0.016 -0.000 -0.000  0.062  0.000
 -0.000  0.000 -0.003  0.000  0.282
atomic mag. moment =     3.144209
atom   16   Tr[ns(na)] (up, down, total) =   3.77760  0.75062  4.52822
   spin  1
    eigenvalues:
  0.444  0.496  0.878  0.967  0.994
    eigenvectors:
  0.000  0.255  0.001  0.000  0.744
  0.999  0.001  0.000  0.000  0.000
  0.000  0.000  0.999  0.000  0.001
  0.001  0.743  0.000  0.000  0.256
  0.000  0.000  0.000  1.000  0.000
    occupations:
  0.866 -0.001 -0.000 -0.217  0.000
 -0.001  0.444 -0.000  0.003 -0.007
 -0.000 -0.000  0.878 -0.005 -0.001
 -0.217  0.003 -0.005  0.623 -0.000
  0.000 -0.007 -0.001 -0.000  0.967
   spin  2
    eigenvalues:
  0.054  0.067  0.071  0.253  0.305
    eigenvectors:
  0.733  0.007  0.029  0.003  0.227
  0.000  0.001  0.000  0.989  0.009
  0.043  0.112  0.845  0.000  0.000
  0.224  0.002  0.006  0.006  0.763
  0.000  0.878  0.120  0.001  0.000
    occupations:
  0.112  0.000 -0.001  0.105  0.000
  0.000  0.253  0.000 -0.006  0.007
 -0.001  0.000  0.070  0.005 -0.002
  0.105 -0.006  0.005  0.247 -0.000
  0.000  0.007 -0.002 -0.000  0.068
atomic mag. moment =     3.026987
atom   17   Tr[ns(na)] (up, down, total) =   3.79465  0.74479  4.53944
   spin  1
    eigenvalues:
  0.467  0.497  0.902  0.936  0.992
    eigenvectors:
  0.000  0.997  0.000  0.001  0.002
  0.000  0.001  0.010  0.988  0.000
  0.000  0.000  0.990  0.010  0.000
  0.000  0.002  0.000  0.000  0.998
  1.000  0.000  0.000  0.000  0.000
    occupations:
  0.499 -0.015 -0.000  0.021  0.000
 -0.015  0.936  0.003  0.001  0.000
 -0.000  0.003  0.903 -0.000  0.002
  0.021  0.001 -0.000  0.991 -0.000
  0.000  0.000  0.002 -0.000  0.467
   spin  2
    eigenvalues:
  0.061  0.064  0.066  0.261  0.293
    eigenvectors:
  0.001  0.009  0.000  0.990  0.000
  0.068  0.042  0.889  0.001  0.000
  0.915  0.033  0.051  0.000  0.000
  0.016  0.915  0.060  0.009  0.000
  0.000  0.000  0.000  0.000  1.000
    occupations:
  0.259  0.006  0.001 -0.019  0.000
  0.006  0.066 -0.001  0.000 -0.000
  0.001 -0.001  0.061  0.000  0.000
 -0.019  0.000  0.000  0.066 -0.000
  0.000 -0.000  0.000 -0.000  0.293
atomic mag. moment =     3.049868
atom   22   Tr[ns(na)] (up, down, total) =   3.79122  0.79139  4.58262
   spin  1
    eigenvalues:
  0.515  0.527  0.822  0.934  0.994
    eigenvectors:
  0.007  0.211  0.000  0.000  0.781
  0.965  0.035  0.000  0.000  0.000
  0.000  0.000  0.963  0.037  0.000
  0.028  0.753  0.000  0.000  0.219
  0.000  0.000  0.037  0.963  0.000
    occupations:
  0.892 -0.000 -0.000 -0.193 -0.000
 -0.000  0.515  0.001  0.003 -0.000
 -0.000  0.001  0.826  0.000  0.021
 -0.193  0.003  0.000  0.628  0.000
 -0.000 -0.000  0.021  0.000  0.930
   spin  2
    eigenvalues:
  0.064  0.073  0.073  0.270  0.311
    eigenvectors:
  0.798  0.000  0.000  0.000  0.201
  0.000  0.000  0.000  1.000  0.000
  0.000  0.242  0.758  0.000  0.000
  0.201  0.000  0.000  0.000  0.799
  0.000  0.758  0.242  0.000  0.000
    occupations:
  0.114 -0.000 -0.000  0.099 -0.000
 -0.000  0.270 -0.000  0.000  0.000
 -0.000 -0.000  0.073 -0.000 -0.000
  0.099  0.000 -0.000  0.261 -0.000
 -0.000  0.000 -0.000 -0.000  0.073
atomic mag. moment =     2.999829
atom   23   Tr[ns(na)] (up, down, total) =   3.78968  0.73610  4.52578
   spin  1
    eigenvalues:
  0.467  0.493  0.881  0.959  0.990
    eigenvectors:
  0.000  0.997  0.000  0.000  0.003
  0.000  0.001  0.000  0.998  0.001
  0.000  0.000  0.999  0.000  0.000
  0.000  0.003  0.000  0.001  0.996
  1.000  0.000  0.000  0.000  0.000
    occupations:
  0.494  0.011 -0.002  0.026  0.000
  0.011  0.958  0.001  0.000  0.000
 -0.002  0.001  0.881  0.000 -0.009
  0.026  0.000  0.000  0.988  0.000
  0.000  0.000 -0.009  0.000  0.467
   spin  2
    eigenvalues:
  0.063  0.063  0.065  0.252  0.293
    eigenvectors:
  0.009  0.000  0.000  0.991  0.000
  0.002  0.004  0.993  0.000  0.000
  0.004  0.991  0.005  0.000  0.000
  0.985  0.004  0.002  0.009  0.000
  0.000  0.000  0.000  0.000  1.000
    occupations:
  0.250 -0.003  0.001 -0.018 -0.000
 -0.003  0.065 -0.000  0.000 -0.000
  0.001 -0.000  0.063 -0.000  0.003
 -0.018  0.000 -0.000  0.065  0.000
 -0.000 -0.000  0.003  0.000  0.293
atomic mag. moment =     3.053580
N of occupied +U levels =  36.3395044
 --- exit write_ns ---

 ------ SPIN UP ------------

[...]

 ------ SPIN DOWN ----------

[...]

          k = 0.2500-0.4682 0.0000 ( 27150 PWs)   bands (ev):

[...]

          k =-0.2500 0.2341 0.0000 ( 27132 PWs)   bands (ev):

   -72.0997 -71.8961 -71.8606 -71.8507 -71.8498 -71.8360 -71.8216 -71.7872
   -43.6197 -43.4986 -43.4826 -43.4582 -43.3754 -43.3683 -43.3605 -43.2991
   -43.2891 -43.2736 -43.2587 -43.2360 -43.2350 -43.2247 -43.2044 -43.1841
   -43.1706 -43.1614 -43.1506 -43.1372 -43.1182 -43.0869 -43.0424 -42.9793
   -21.2299 -20.9436 -20.6076 -20.5547 -20.4924 -20.3275 -20.2572 -20.2384
   -20.2247 -20.0390 -19.9881 -19.9626 -19.8974 -19.8107 -19.7264 -19.6665
   -19.6329 -19.5619 -19.4705  -8.3935  -8.2947  -7.9946  -7.9046  -7.7119
    -7.6670  -7.4174  -7.3170  -7.1955  -7.0361  -6.9778  -6.7920  -6.7732
    -6.7107  -6.6681  -6.6030  -6.4790  -6.4368  -6.1349  -6.0988  -5.9986
    -5.8970  -5.8077  -5.7316  -5.6975  -5.6363  -5.5173  -5.4128  -5.3894
    -5.3429  -5.2823  -5.2734  -5.1743  -5.1243  -5.0440  -4.9701  -4.8832
    -4.8230  -4.5956  -4.5850  -4.5317  -4.3677  -4.3634  -4.3010  -4.2325
    -4.1907  -4.1593  -4.1215  -4.0404  -3.9992  -3.9546  -3.8957  -3.8569
    -3.7067  -3.6325  -3.6028  -3.4624   2.3510   2.9615   2.9862   3.0303
     3.0494   3.1185   3.1849   3.2157   3.2336   3.2565   3.2828   3.3631
     3.4036   3.4728   3.5127   3.5488   3.6294   3.6991   3.7002   3.7552
     3.8301   3.8555   3.8943   3.9288   4.0108   4.0557   4.0799   4.1142
     4.1540   4.2274   4.2354   4.2687   4.3356   4.3541   4.3897   4.4444
     4.4832   4.5216   4.5834   4.6495   4.7215   4.7772   4.8055   4.9569
     5.4332   5.7616   5.8678   6.0054   6.2549   6.3514   6.5141   6.6459
     6.7851   6.9174   7.0585   7.3489   7.4795   7.7369   7.7893   7.9724
     8.1075   8.3380   8.4600   8.5848   8.6548   8.8074   8.8655   8.9994
     9.1299   9.2283   9.3364   9.4389   9.5160   9.6597   9.7868  10.0306
    10.1143  10.1863  10.2104  10.3332  10.3674  10.6588  10.6842  10.7550
    10.8474  10.9966  11.0447  11.0997  11.2920  11.3194  11.4375  11.5477
    11.5934  11.7248  11.7502  11.8593  11.9200  12.0099  12.1077  12.2270
    12.2921  12.3942  12.4397  12.5469  12.6707  12.7065  12.7640  12.8576
    12.9032  12.9800  13.0367  13.1026  13.1553  13.2410  13.2853  13.3470
    13.4116  13.5204  13.5552  13.6358  13.7399  13.8117  13.8796  13.9513
    14.0893  14.1353  14.2054  14.2674  14.3529  14.4951  14.5478  14.5905
    14.6471  14.7243  14.7772  14.8707  14.9492  15.0349  15.1123  15.2271
    15.2421  15.3066  15.4713  15.5574  15.6238  15.7231  15.8315  15.9449
    16.0127  16.1067  16.1445  16.2048  16.2854  16.3140  16.3725  16.4368
    16.4881  16.6391  16.7172  16.7740  16.8509  16.9305  16.9916  17.0434
    17.1212  17.1876  17.2399  17.3307  17.4108  17.4858  17.5536  17.6072
    17.7325  17.7960  17.8231  17.8666  17.9447  17.9850  18.0915  18.1750
    18.2212  18.2867  18.3473  18.4073  18.4507  18.5900  18.7088  18.7256
    18.8436  18.8774  18.9556  19.0065  19.0680  19.1734  19.2605  19.3279
    19.4466  19.4789  19.5868  19.6683  19.7045  19.7393  19.8120  19.9200
    19.9444  19.9926  20.0889  20.1560  20.2799  20.3182  20.4023  20.4722
    20.5621  20.5835  20.6603  20.8657  20.8807  20.9438  21.0340  21.0763
    21.1677  21.2189  21.3170  21.3825  21.4387  21.5085

     the spin up/dw Fermi energies are    -2.3911   -2.3057 ev

!    total energy              =   -2023.60641505 Ry
     Harris-Foulkes estimate   =   -2023.60641505 Ry
     estimated scf accuracy    <          6.5E-09 Ry

     The total energy is the sum of the following terms:

     one-electron contribution =  -23464.81665243 Ry
     hartree contribution      =   11753.90552312 Ry
     xc contribution           =    -323.56257318 Ry
     ewald contribution        =   10008.11413776 Ry
     Hubbard energy            =       2.75289274 Ry
     smearing contrib. (-TS)   =       0.00025694 Ry

     total magnetization       =    15.00 Bohr mag/cell
     absolute magnetization    =    33.36 Bohr mag/cell

     convergence has been achieved in  21 iterations

     Forces acting on atoms (Ry/au):

     negative rho (up, down):  0.581E-02 0.165E-02
     atom    1 type  1   force =    -0.00256554   -0.00932475    0.00014617
     atom    2 type  1   force =     0.00003208    0.00281088    0.00028212
     atom    3 type  2   force =     0.02071495    0.00284311   -0.00018339
     atom    4 type  2   force =     0.00323738    0.00463299    0.00017499
     atom    5 type  1   force =     0.00156493    0.00715538   -0.00028646
     atom    6 type  1   force =     0.00036499   -0.00592776   -0.00026100
     atom    7 type  1   force =     0.00172969   -0.00265910   -0.00041638
     atom    8 type  1   force =     0.00038927   -0.00013057   -0.00002518
     atom    9 type  2   force =     0.00565290    0.00038787   -0.00016771
     atom   10 type  2   force =     0.00068369    0.00010414   -0.00031163
     atom   11 type  1   force =    -0.02496346   -0.03361269    0.00032014
     atom   12 type  1   force =    -0.02462244    0.03345139    0.00034467
     atom   13 type  1   force =    -0.00106930    0.00002861    0.00034404
     atom   14 type  1   force =    -0.00281864   -0.00977411    0.00015914
     atom   15 type  1   force =    -0.00000948    0.00319461    0.00009753
     atom   16 type  2   force =    -0.02023366    0.00330534   -0.00024902
     atom   17 type  2   force =     0.00329661    0.00526335    0.00025500
     atom   18 type  1   force =     0.00029023    0.00720970   -0.00030654
     atom   19 type  1   force =    -0.00089218   -0.00600367   -0.00026015
     atom   20 type  1   force =    -0.00117597   -0.00323596    0.00071343
     atom   21 type  1   force =    -0.00306802   -0.00010251    0.00009617
     atom   22 type  2   force =    -0.00034618    0.00011016    0.00099332
     atom   23 type  2   force =    -0.00099032    0.00073801   -0.00024763
     atom   24 type  1   force =     0.02189603   -0.02674471    0.00018920
     atom   25 type  1   force =     0.02238295    0.02658433    0.00015336
     atom   26 type  1   force =    -0.00005869    0.00019396    0.00000303
     atom   27 type  3   force =     0.00002504   -0.00018901    0.00010601
     atom   28 type  3   force =     0.00002006   -0.00010683   -0.00001362
     atom   29 type  3   force =    -0.00039433   -0.00004090   -0.00093967
     atom   30 type  3   force =    -0.00034569   -0.00002948   -0.00081681
     atom   31 type  1   force =     0.00048503   -0.00001858    0.00000469
     atom   32 type  3   force =     0.00078806   -0.00011322    0.00010216

     Total force =     0.002381     Total SCF correction =     0.000214

     entering subroutine stress ...

     negative rho (up, down):  0.581E-02 0.165E-02
          total   stress  (Ry/bohr**3)                   (kbar)     P=   37.05
   0.00036601   0.00000099   0.00000168         53.84      0.15      0.25
   0.00000099   0.00041771   0.00000747          0.15     61.45      1.10
   0.00000168   0.00000747  -0.00002816          0.25      1.10     -4.14

     bfgs converged in  12 scf cycles and  11 bfgs steps
     (criteria: energy < 0.10E-03, force < 0.10E-02)

     End of BFGS Geometry Optimization

     Final energy   =   -2023.6064150469 Ry
Begin final coordinates

ATOMIC_POSITIONS (crystal)
O0       0.000000000   0.000000000   0.372746759    0   0   1
O0       0.000000000   0.500000000   0.393908517    0   0   1
Cr1      0.250000000   0.500000000   0.446954482    0   0   1
Cr1      0.000000000   0.000000000   0.448700447    0   0   1
O0       0.250000000   0.800000000   0.447659213    0   0   1
O0       0.250000000   0.200000000   0.447638896    0   0   1
O0       0.000000000   0.500000000   0.496444825    0   0   1
O0       0.000000000   0.000000000   0.525180252    0   0   1
Cr1      0.250000000   0.000000000   0.577019435    0   0   1
Cr1      0.000000000   0.500000000   0.567421267    0   0   1
O0       0.250000000   0.700000000   0.578222042    0   0   1
O0       0.250000000   0.300000000   0.578235843    0   0   1
O0       0.000000000   0.000000000   0.626218590    0   0   1
O0       0.500000000   0.000000000   0.372500806    0   0   1
O0       0.500000000   0.500000000   0.394120607    0   0   1
Cr1      0.750000000   0.500000000   0.446946533    0   0   1
Cr1      0.500000000   0.000000000   0.448410103    0   0   1
O0       0.750000000   0.800000000   0.447651731    0   0   1
O0       0.750000000   0.200000000   0.447640717    0   0   1
O0       0.500000000   0.500000000   0.499942500    0   0   1
O0       0.500000000   0.000000000   0.525223989    0   0   1
Cr1      0.750000000   0.000000000   0.577202131    0   0   1
Cr1      0.500000000   0.500000000   0.580927475    0   0   1
O0       0.750000000   0.700000000   0.576528776    0   0   1
O0       0.750000000   0.300000000   0.576462431    0   0   1
O0       0.500000000   0.000000000   0.626299483    0   0   1
H2      -0.000756688   0.636215968   0.374291376
H2       0.499243312   0.636887983   0.374751997
H2       0.159376389   0.027813601   0.360530211
H2       0.659523269   0.027286875   0.360329113
O0       0.524069636   0.498998528   0.654409973
H2       0.374622936   0.496860172   0.672179481
End final coordinates

     General routines

     Parallel routines
     Hubbard U routines

   This run was terminated on:   5:22:14  26May2014

   JOB DONE.
Running PBS batch system epilogue script
Job id: 366689.audhumbla.fysik.dtu.dk
Username: zhonxu
Groupname: campgst
Jobname: CrO2/Eads-2-layers/OH-U-7.5
Sessionid: 16408
Queuename: verylong
Accounting:
This job has allocated the following 16 nodes:
b028 b028 b028 b028 b028 b028 b028 b028 b022 b022 b022 b022 b022 b022 b022 b022
Finished epilogue job 366689.audhumbla.fysik.dtu.dk for zhonxu