     Program PWSCF v.5.0.2 (svn rev. 9656) starts on 24Jan2014 at 15:56: 6

     Current dimensions of program PWSCF are:
     Max number of different atomic species (ntypx) = 10
     Max number of k-points (npk) =  40000
     Max angular momentum in pseudopotentials (lmaxx) =  3
     Reading input from IrO2-v-0.95.in

     Subspace diagonalization in iterative solution of the eigenvalue problem:
     a serial algorithm will be used

     bravais-lattice index     =            0
     lattice parameter (alat)  =       8.6764  a.u.
     unit-cell volume          =     420.9216 (a.u.)^3
     number of atoms/cell      =            6
     number of atomic types    =            2
     number of electrons       =        54.00
     number of Kohn-Sham states=           78
     kinetic-energy cutoff     =      40.0000  Ry
     charge density cutoff     =     500.0000  Ry
     convergence threshold     =      1.0E-06
     mixing beta               =       0.3000
     number of iterations used =            8  plain     mixing
     Exchange-correlation      = SLA  PW   PBE  PBE ( 1 4 3 4 0)
     EXX-fraction              =        0.00
     nstep                     =           50

     celldm(1)=   8.676380  celldm(2)=   0.000000  celldm(3)=   0.000000
     celldm(4)=   0.000000  celldm(5)=   0.000000  celldm(6)=   0.000000

     crystal axes: (cart. coord. in units of alat)
               a(1) = (   1.000000   0.000000   0.000000 )
               a(2) = (   0.000000   1.000000   0.000000 )
               a(3) = (   0.000000   0.000000   0.644444 )

     reciprocal axes: (cart. coord. in units 2 pi/alat)
               b(1) = (  1.000000  0.000000  0.000000 )
               b(2) = (  0.000000  1.000000  0.000000 )
               b(3) = (  0.000000  0.000000  1.551724 )

     PseudoPot. # 1 for Ir read from file:
     /home/camp/zhonxu/pseudo/ir_pbe_v1.uspp.F.UPF
     MD5 check sum: abf987a9674477536ede83817f8f8b70
     Pseudo is Ultrasoft + core correction, Zval = 15.0
     Generated by new atomic code, or converted to UPF format
     Using radial grid of  983 points,  7 beta functions with:
                l(1) =   0
                l(2) =   0
                l(3) =   1
                l(4) =   1
                l(5) =   1
                l(6) =   2
                l(7) =   2
     Q(r) pseudized with  8 coefficients,  rinner =    1.350   1.350   1.350
                                                       1.350   1.350

     PseudoPot. # 2 for O  read from file:
     /home/camp/zhonxu/pseudo/o_pbe_v1.01.uspp.F.UPF
     MD5 check sum: 2bcb18d16ea4b960afae9ec6d52f22d2
     Pseudo is Ultrasoft + core correction, Zval =  6.0
     Generated by new atomic code, or converted to UPF format
     Using radial grid of  737 points,  5 beta functions with:
                l(1) =   0
                l(2) =   0
                l(3) =   1
                l(4) =   1
                l(5) =   2
     Q(r) pseudized with  8 coefficients,  rinner =    0.900   0.900   0.900
                                                       0.900   0.900

     atomic species   valence    mass     pseudopotential
        Ir0           15.00   192.22000     Ir( 1.00)
        O1             6.00    15.99940     O ( 1.00)

     Starting magnetic structure
     atomic species   magnetization
        Ir0          0.000
        O1           0.000

     16 Sym. Ops., with inversion, found ( 8 have fractional translation)

   Cartesian axes

     site n.     atom                  positions (alat units)
         1           Ir0 tau(   1) = (   0.0000000   0.0000000   0.0000000  )
         2           Ir0 tau(   2) = (   0.5000000   0.5000000   0.3222222  )
         3           O1  tau(   3) = (   0.3050000   0.3050000   0.0000000  )
         4           O1  tau(   4) = (  -0.3050000  -0.3050000   0.0000000  )
         5           O1  tau(   5) = (   0.8050000   0.1950000   0.3222222  )
         6           O1  tau(   6) = (   0.1950000   0.8050000   0.3222222  )

     number of k points=    36  Methfessel-Paxton smearing, width (Ry)=  0.0100
                       cart. coord. in units 2pi/alat
        k(    1) = (   0.0000000   0.0000000   0.0000000), wk =   0.0080000
        k(    2) = (   0.0000000   0.0000000   0.3103448), wk =   0.0160000
        k(    3) = (   0.0000000   0.0000000   0.6206897), wk =   0.0160000
        k(    4) = (   0.0000000   0.2000000   0.0000000), wk =   0.0320000
        k(    5) = (   0.0000000   0.2000000   0.3103448), wk =   0.0640000
        k(    6) = (   0.0000000   0.2000000   0.6206897), wk =   0.0640000
        k(    7) = (   0.0000000   0.4000000   0.0000000), wk =   0.0320000
        k(    8) = (   0.0000000   0.4000000   0.3103448), wk =   0.0640000
        k(    9) = (   0.0000000   0.4000000   0.6206897), wk =   0.0640000
        k(   10) = (   0.2000000   0.2000000   0.0000000), wk =   0.0320000
        k(   11) = (   0.2000000   0.2000000   0.3103448), wk =   0.0640000
        k(   12) = (   0.2000000   0.2000000   0.6206897), wk =   0.0640000
        k(   13) = (   0.2000000   0.4000000   0.0000000), wk =   0.0640000
        k(   14) = (   0.2000000   0.4000000   0.3103448), wk =   0.1280000
        k(   15) = (   0.2000000   0.4000000   0.6206897), wk =   0.1280000
        k(   16) = (   0.4000000   0.4000000   0.0000000), wk =   0.0320000
        k(   17) = (   0.4000000   0.4000000   0.3103448), wk =   0.0640000
        k(   18) = (   0.4000000   0.4000000   0.6206897), wk =   0.0640000
        k(   19) = (   0.0000000   0.0000000   0.0000000), wk =   0.0080000
        k(   20) = (   0.0000000   0.0000000   0.3103448), wk =   0.0160000
        k(   21) = (   0.0000000   0.0000000   0.6206897), wk =   0.0160000
        k(   22) = (   0.0000000   0.2000000   0.0000000), wk =   0.0320000
        k(   23) = (   0.0000000   0.2000000   0.3103448), wk =   0.0640000
        k(   24) = (   0.0000000   0.2000000   0.6206897), wk =   0.0640000
        k(   25) = (   0.0000000   0.4000000   0.0000000), wk =   0.0320000
        k(   26) = (   0.0000000   0.4000000   0.3103448), wk =   0.0640000
        k(   27) = (   0.0000000   0.4000000   0.6206897), wk =   0.0640000
        k(   28) = (   0.2000000   0.2000000   0.0000000), wk =   0.0320000
        k(   29) = (   0.2000000   0.2000000   0.3103448), wk =   0.0640000
        k(   30) = (   0.2000000   0.2000000   0.6206897), wk =   0.0640000
        k(   31) = (   0.2000000   0.4000000   0.0000000), wk =   0.0640000
        k(   32) = (   0.2000000   0.4000000   0.3103448), wk =   0.1280000
        k(   33) = (   0.2000000   0.4000000   0.6206897), wk =   0.1280000
        k(   34) = (   0.4000000   0.4000000   0.0000000), wk =   0.0320000
        k(   35) = (   0.4000000   0.4000000   0.3103448), wk =   0.0640000
        k(   36) = (   0.4000000   0.4000000   0.6206897), wk =   0.0640000

     Largest allocated arrays     est. size (Mb)     dimensions
     Largest temporary arrays     est. size (Mb)     dimensions

     Check: negative/imaginary core charge=   -0.000004    0.000000

     Initial potential from superposition of free atoms
     Check: negative starting charge=(component1):   -0.417409
     Check: negative starting charge=(component2):   -0.417409

     starting charge   52.99993, renormalised to   54.00000

     negative rho (up, down):  0.425E+00 0.425E+00
     Starting wfc are   40 randomized atomic wfcs

     Self-consistent Calculation

     iteration #  1     ecut=    40.00 Ry     beta=0.30
     Davidson diagonalization with overlap
     ethr =  1.00E-02,  avg # of iterations =  5.2

     negative rho (up, down):  0.401E+00 0.401E+00

     total energy              =    -500.52084529 Ry
     Harris-Foulkes estimate   =    -502.33357070 Ry
     estimated scf accuracy    <       3.96585578 Ry

     total magnetization       =    -0.00 Bohr mag/cell
     absolute magnetization    =     0.00 Bohr mag/cell

[...]

     End of self-consistent calculation

 ------ SPIN UP ------------

          k = 0.0000 0.0000 0.0000 (  1827 PWs)   bands (ev):

   -35.7826 -35.7826 -35.6354 -35.6354 -35.5682 -35.5531  -6.8431  -5.6142
    -4.5419  -4.5419   4.4580   4.7314   6.3675   6.5450   6.5450   9.2693
     9.2693   9.7958  11.0672  11.4608  11.4608  11.6436  11.7034  12.0433
    12.4387  12.4387  12.8252  15.4561  16.0512  18.9714  19.1697  19.1697
    20.6274  23.5069  23.5069  24.2776  24.2779  27.0745  27.4053  27.4628
    30.1722  31.1001  31.1001  31.3628  32.7198  34.7909  35.4303  35.4303
    36.6848  36.6848  38.1297  41.0184  41.2610  41.2610  41.2957  43.1184
    43.9073  44.1327  44.1841  45.4015  45.4015  45.9151  46.0147  46.0147
    46.8687  46.9833  46.9833  48.8951  50.8949  52.7641  52.7641  53.0656
    53.4022  53.7619  53.7619  54.8073  55.1234  55.1235

[...]

 ------ SPIN DOWN ----------

[...]

     the Fermi energy is    14.7110 ev

!    total energy              =    -501.23433242 Ry
     Harris-Foulkes estimate   =    -501.23432382 Ry
     estimated scf accuracy    <       0.00000028 Ry

     The total energy is the sum of the following terms:

     one-electron contribution =     -99.82837971 Ry
     hartree contribution      =      88.67974587 Ry
     xc contribution           =    -138.52000568 Ry
     ewald contribution        =    -351.56551232 Ry
     smearing contrib. (-TS)   =      -0.00018060 Ry

[...]

     convergence has been achieved in   8 iterations

     Forces acting on atoms (Ry/au):

     negative rho (up, down):  0.391E+00 0.391E+00
     atom    1 type  1   force =     0.00000000    0.00000000   -0.00000000
     atom    2 type  1   force =     0.00000000    0.00000000   -0.00000000
     atom    3 type  2   force =    -0.02681880   -0.02681880   -0.00000000
     atom    4 type  2   force =     0.02681880    0.02681880    0.00000000
     atom    5 type  2   force =    -0.02681880    0.02681880   -0.00000000
     atom    6 type  2   force =     0.02681880   -0.02681880    0.00000000

     Total force =     0.075855     Total SCF correction =     0.000852

     entering subroutine stress ...

     negative rho (up, down):  0.391E+00 0.391E+00
          total   stress  (Ry/bohr**3)                   (kbar)     P=  192.63
   0.00047488   0.00000000   0.00000000         69.86      0.00      0.00
   0.00000000   0.00047488   0.00000000          0.00     69.86      0.00
   0.00000000   0.00000000   0.00297870          0.00      0.00    438.18

     Volume is kept fixed: isostatic pressure set to zero

     BFGS Geometry Optimization

     number of scf cycles    =   1
     number of bfgs steps    =   0

     enthalpy new            =    -501.2343324247 Ry

     new trust radius        =       0.1712307930 bohr
     new conv_thr            =       0.0000010000 Ry

     new unit-cell volume =    420.92163 a.u.^3 (    62.37415 Ang^3 )

CELL_PARAMETERS (alat=  8.67638046)
   0.979555564   0.000000000   0.000000000
   0.000000000   0.979555564   0.000000000
   0.000000000   0.000000000   0.671625740

ATOMIC_POSITIONS (crystal)
Ir0      0.000000000   0.000000000   0.000000000    0   0   0
Ir0      0.500000000   0.500000000   0.500000000    0   0   0
O1       0.301908988   0.301908988   0.000000000    1   1   0
[...]
        k(   29) = (   0.2041742   0.2041742   0.2977849), wk =   0.0640000
        k(   30) = (   0.2041742   0.2041742   0.5955698), wk =   0.0640000
        k(   31) = (   0.2041742   0.4083485   0.0000000), wk =   0.0640000
        k(   32) = (   0.2041742   0.4083485   0.2977849), wk =   0.1280000
        k(   33) = (   0.2041742   0.4083485   0.5955698), wk =   0.1280000
        k(   34) = (   0.4083485   0.4083485   0.0000000), wk =   0.0320000
        k(   35) = (   0.4083485   0.4083485   0.2977849), wk =   0.0640000
        k(   36) = (   0.4083485   0.4083485   0.5955698), wk =   0.0640000

     Check: negative/imaginary core charge=   -0.000004    0.000000
     Check: negative starting charge=(component1):   -0.833132

[...]

     enthalpy old            =    -501.2343324247 Ry
     enthalpy new            =    -501.2581481055 Ry

     CASE: enthalpy_new < enthalpy_old

[...]

     Total force =     0.015344     Total SCF correction =     0.000525

[...]

     Total force =     0.000222     Total SCF correction =     0.000169
     SCF correction compared to forces is large: reduce conv_thr to get better values

[...]

     number of scf cycles    =   5
     number of bfgs steps    =   4

     enthalpy old            =    -501.2655174852 Ry
     enthalpy new            =    -501.2657677640 Ry

     CASE: enthalpy_new < enthalpy_old

     new trust radius        =       0.0015816287 bohr
     new conv_thr            =       0.0000000100 Ry

     new unit-cell volume =    420.92163 a.u.^3 (    62.37415 Ang^3 )

[...]

ATOMIC_POSITIONS (crystal)
Ir0      0.000000000   0.000000000   0.000000000    0   0   0
Ir0      0.500000000   0.500000000   0.500000000    0   0   0
O1       0.309031575   0.309031575   0.000000000    1   1   0
O1      -0.309031575  -0.309031575   0.000000000    1   1   0
O1       0.809031575   0.190968425   0.500000000    1   1   0
O1       0.190968425   0.809031575   0.500000000    1   1   0

     Check: negative starting charge=(component1):   -0.832011
     NEW-OLD atomic charge density approx. for the potential
     NEW k-points:
        k(    1) = (   0.0000000   0.0000000   0.0000000), wk =   0.0080000
        k(    2) = (   0.0000000   0.0000000   0.2912605), wk =   0.0160000
        k(    3) = (   0.0000000   0.0000000   0.5825210), wk =   0.0160000
        k(    4) = (   0.0000000   0.2064484   0.0000000), wk =   0.0320000
        k(    5) = (   0.0000000   0.2064484   0.2912605), wk =   0.0640000
        k(    6) = (   0.0000000   0.2064484   0.5825210), wk =   0.0640000
        k(    7) = (   0.0000000   0.4128967   0.0000000), wk =   0.0320000
        k(    8) = (   0.0000000   0.4128967   0.2912605), wk =   0.0640000
        k(    9) = (   0.0000000   0.4128967   0.5825210), wk =   0.0640000
        k(   10) = (   0.2064484   0.2064484   0.0000000), wk =   0.0320000
        k(   11) = (   0.2064484   0.2064484   0.2912605), wk =   0.0640000
        k(   12) = (   0.2064484   0.2064484   0.5825210), wk =   0.0640000
        k(   13) = (   0.2064484   0.4128967   0.0000000), wk =   0.0640000
        k(   14) = (   0.2064484   0.4128967   0.2912605), wk =   0.1280000
        k(   15) = (   0.2064484   0.4128967   0.5825210), wk =   0.1280000
        k(   16) = (   0.4128967   0.4128967   0.0000000), wk =   0.0320000
        k(   17) = (   0.4128967   0.4128967   0.2912605), wk =   0.0640000
        k(   18) = (   0.4128967   0.4128967   0.5825210), wk =   0.0640000
        k(   19) = (   0.0000000   0.0000000   0.0000000), wk =   0.0080000
        k(   20) = (   0.0000000   0.0000000   0.2912605), wk =   0.0160000
        k(   21) = (   0.0000000   0.0000000   0.5825210), wk =   0.0160000
        k(   22) = (   0.0000000   0.2064484   0.0000000), wk =   0.0320000
        k(   23) = (   0.0000000   0.2064484   0.2912605), wk =   0.0640000
        k(   24) = (   0.0000000   0.2064484   0.5825210), wk =   0.0640000
        k(   25) = (   0.0000000   0.4128967   0.0000000), wk =   0.0320000
        k(   26) = (   0.0000000   0.4128967   0.2912605), wk =   0.0640000
        k(   27) = (   0.0000000   0.4128967   0.5825210), wk =   0.0640000
        k(   28) = (   0.2064484   0.2064484   0.0000000), wk =   0.0320000
        k(   29) = (   0.2064484   0.2064484   0.2912605), wk =   0.0640000
        k(   30) = (   0.2064484   0.2064484   0.5825210), wk =   0.0640000
        k(   31) = (   0.2064484   0.4128967   0.0000000), wk =   0.0640000
        k(   32) = (   0.2064484   0.4128967   0.2912605), wk =   0.1280000
        k(   33) = (   0.2064484   0.4128967   0.5825210), wk =   0.1280000
        k(   34) = (   0.4128967   0.4128967   0.0000000), wk =   0.0320000
        k(   35) = (   0.4128967   0.4128967   0.2912605), wk =   0.0640000
        k(   36) = (   0.4128967   0.4128967   0.5825210), wk =   0.0640000

     Check: negative/imaginary core charge=   -0.000004    0.000000
     Check: negative starting charge=(component1):   -0.832002

[...]

     Threshold (ethr) on eigenvalues was too large:
     Diagonalizing with lowered threshold

     Davidson diagonalization with overlap
     ethr =  5.36E-10,  avg # of iterations =  2.0

[...]

     Volume is kept fixed: isostatic pressure set to zero

     bfgs converged in   6 scf cycles and   5 bfgs steps
     (criteria: energy < 0.10E-03, force < 0.10E-02, cell < 0.50E+00)

     End of BFGS Geometry Optimization

     Final enthalpy =    -501.2657691953 Ry
Begin final coordinates
     new unit-cell volume =    420.92163 a.u.^3 (    62.37415 Ang^3 )

CELL_PARAMETERS (alat=  8.67638046)
   0.968765218   0.000000000   0.000000000
   0.000000000   0.968765218   0.000000000
   0.000000000   0.000000000   0.686670530

ATOMIC_POSITIONS (crystal)
Ir0      0.000000000   0.000000000   0.000000000    0   0   0
Ir0      0.500000000   0.500000000   0.500000000    0   0   0
O1       0.309031575   0.309031575   0.000000000    1   1   0
O1      -0.309031575  -0.309031575   0.000000000    1   1   0
O1       0.809031575   0.190968425   0.500000000    1   1   0
O1       0.190968425   0.809031575   0.500000000    1   1   0
End final coordinates

     A final scf calculation at the relaxed structure.
     The G-vectors are recalculated for the final unit cell
     Results may differ from those at the preceding step.

     bravais-lattice index     =            0
     lattice parameter (alat)  =       8.6764  a.u.
     unit-cell volume          =     420.9216 (a.u.)^3
     number of atoms/cell      =            6
     number of atomic types    =            2
     number of electrons       =        54.00
     number of Kohn-Sham states=           78
     kinetic-energy cutoff     =      40.0000  Ry
     charge density cutoff     =     500.0000  Ry
     convergence threshold     =      1.0E-08
     mixing beta               =       0.3000
     number of iterations used =            8  plain     mixing
     Exchange-correlation      = SLA  PW   PBE  PBE ( 1 4 3 4 0)
     EXX-fraction              =        0.00

     celldm(1)=   8.676380  celldm(2)=   0.000000  celldm(3)=   0.000000
     celldm(4)=   0.000000  celldm(5)=   0.000000  celldm(6)=   0.000000

     crystal axes: (cart. coord. in units of alat)
               a(1) = (   0.968765   0.000000   0.000000 )
               a(2) = (   0.000000   0.968765   0.000000 )
               a(3) = (   0.000000   0.000000   0.686671 )

     reciprocal axes: (cart. coord. in units 2 pi/alat)
               b(1) = (  1.032242  0.000000  0.000000 )
               b(2) = (  0.000000  1.032242  0.000000 )
               b(3) = (  0.000000  0.000000  1.456302 )

     PseudoPot. # 1 for Ir read from file:
     /home/camp/zhonxu/pseudo/ir_pbe_v1.uspp.F.UPF
     MD5 check sum: abf987a9674477536ede83817f8f8b70
     Pseudo is Ultrasoft + core correction, Zval = 15.0
     Generated by new atomic code, or converted to UPF format
     Using radial grid of  983 points,  7 beta functions with:
                l(1) =   0
                l(2) =   0
                l(3) =   1
                l(4) =   1
                l(5) =   1
                l(6) =   2
                l(7) =   2
     Q(r) pseudized with  8 coefficients,  rinner =    1.350   1.350   1.350
                                                       1.350   1.350

     PseudoPot. # 2 for O  read from file:
     /home/camp/zhonxu/pseudo/o_pbe_v1.01.uspp.F.UPF
     MD5 check sum: 2bcb18d16ea4b960afae9ec6d52f22d2
     Pseudo is Ultrasoft + core correction, Zval =  6.0
     Generated by new atomic code, or converted to UPF format
     Using radial grid of  737 points,  5 beta functions with:
                l(1) =   0
                l(2) =   0
                l(3) =   1
                l(4) =   1
                l(5) =   2
     Q(r) pseudized with  8 coefficients,  rinner =    0.900   0.900   0.900
                                                       0.900   0.900

     atomic species   valence    mass     pseudopotential
        Ir0           15.00   192.22000     Ir( 1.00)
        O1             6.00    15.99940     O ( 1.00)

     Starting magnetic structure
     atomic species   magnetization
        Ir0          0.000
        O1           0.000

     16 Sym. Ops., with inversion, found ( 8 have fractional translation)

   Cartesian axes

     site n.     atom                  positions (alat units)
         1           Ir0 tau(   1) = (   0.0000000   0.0000000   0.0000000  )
         2           Ir0 tau(   2) = (   0.4843826   0.4843826   0.3433353  )
         3           O1  tau(   3) = (   0.2993790   0.2993790   0.0000000  )
         4           O1  tau(   4) = (  -0.2993790  -0.2993790   0.0000000  )
         5           O1  tau(   5) = (   0.7837617   0.1850036   0.3433353  )
         6           O1  tau(   6) = (   0.1850036   0.7837617   0.3433353  )

     number of k points=    36  Methfessel-Paxton smearing, width (Ry)=  0.0100
                       cart. coord. in units 2pi/alat
        k(    1) = (   0.0000000   0.0000000   0.0000000), wk =   0.0080000
        k(    2) = (   0.0000000   0.0000000   0.2912605), wk =   0.0160000
        k(    3) = (   0.0000000   0.0000000   0.5825210), wk =   0.0160000
        k(    4) = (   0.0000000   0.2064484   0.0000000), wk =   0.0320000
        k(    5) = (   0.0000000   0.2064484   0.2912605), wk =   0.0640000
        k(    6) = (   0.0000000   0.2064484   0.5825210), wk =   0.0640000
        k(    7) = (   0.0000000   0.4128967   0.0000000), wk =   0.0320000
        k(    8) = (   0.0000000   0.4128967   0.2912605), wk =   0.0640000
        k(    9) = (   0.0000000   0.4128967   0.5825210), wk =   0.0640000
        k(   10) = (   0.2064484   0.2064484   0.0000000), wk =   0.0320000
        k(   11) = (   0.2064484   0.2064484   0.2912605), wk =   0.0640000
        k(   12) = (   0.2064484   0.2064484   0.5825210), wk =   0.0640000
        k(   13) = (   0.2064484   0.4128967   0.0000000), wk =   0.0640000
        k(   14) = (   0.2064484   0.4128967   0.2912605), wk =   0.1280000
        k(   15) = (   0.2064484   0.4128967   0.5825210), wk =   0.1280000
        k(   16) = (   0.4128967   0.4128967   0.0000000), wk =   0.0320000
        k(   17) = (   0.4128967   0.4128967   0.2912605), wk =   0.0640000
        k(   18) = (   0.4128967   0.4128967   0.5825210), wk =   0.0640000
        k(   19) = (   0.0000000   0.0000000   0.0000000), wk =   0.0080000
        k(   20) = (   0.0000000   0.0000000   0.2912605), wk =   0.0160000
        k(   21) = (   0.0000000   0.0000000   0.5825210), wk =   0.0160000
        k(   22) = (   0.0000000   0.2064484   0.0000000), wk =   0.0320000
        k(   23) = (   0.0000000   0.2064484   0.2912605), wk =   0.0640000
        k(   24) = (   0.0000000   0.2064484   0.5825210), wk =   0.0640000
        k(   25) = (   0.0000000   0.4128967   0.0000000), wk =   0.0320000
        k(   26) = (   0.0000000   0.4128967   0.2912605), wk =   0.0640000
        k(   27) = (   0.0000000   0.4128967   0.5825210), wk =   0.0640000
        k(   28) = (   0.2064484   0.2064484   0.0000000), wk =   0.0320000
        k(   29) = (   0.2064484   0.2064484   0.2912605), wk =   0.0640000
        k(   30) = (   0.2064484   0.2064484   0.5825210), wk =   0.0640000
        k(   31) = (   0.2064484   0.4128967   0.0000000), wk =   0.0640000
        k(   32) = (   0.2064484   0.4128967   0.2912605), wk =   0.1280000
        k(   33) = (   0.2064484   0.4128967   0.5825210), wk =   0.1280000
        k(   34) = (   0.4128967   0.4128967   0.0000000), wk =   0.0320000
        k(   35) = (   0.4128967   0.4128967   0.2912605), wk =   0.0640000
        k(   36) = (   0.4128967   0.4128967   0.5825210), wk =   0.0640000

     Largest allocated arrays     est. size (Mb)     dimensions
     Largest temporary arrays     est. size (Mb)     dimensions

     Check: negative/imaginary core charge=   -0.000005    0.000000

     Initial potential from superposition of free atoms
     Check: negative starting charge=(component1):   -0.416477
     Check: negative starting charge=(component2):   -0.416477

     starting charge   52.99993, renormalised to   54.00000

     negative rho (up, down):  0.424E+00 0.424E+00
     Starting wfc are   40 randomized atomic wfcs

     Self-consistent Calculation

[...]

     total energy              =    -501.26638497 Ry
     Harris-Foulkes estimate   =    -501.26638094 Ry
     estimated scf accuracy    <       0.00000082 Ry

[...]

     iteration #  9     ecut=    40.00 Ry     beta=0.30
     Davidson diagonalization with overlap
     ethr =  1.52E-09,  avg # of iterations =  1.0

     negative rho (up, down):  0.390E+00 0.390E+00

     End of self-consistent calculation

 ------ SPIN UP ------------

[...]

 ------ SPIN DOWN ----------

[...]

          k = 0.4129 0.4129 0.5825 (  1805 PWs)   bands (ev):

   -35.8266 -35.8182 -35.8134 -35.8048 -35.5327 -35.5327  -5.3389  -5.2736
    -5.0173  -4.9731   5.9665   6.0577   6.4816   6.5408   7.1988   7.5916
     9.0033   9.0102   9.8894  10.1261  10.9048  11.2605  12.8049  12.9034
    12.9036  13.6442  14.0263  14.6493  16.6340  17.1536  18.1364  18.6463
    23.8747  24.2209  24.2216  24.3127  24.8693  25.0140  26.2829  26.5837
    27.9825  28.6160  31.5617  31.5999  33.7194  34.2823  35.4467  36.0875
    36.9131  37.2773  37.3010  38.8647  41.4475  41.7341  41.7725  41.9023
    42.9762  43.8016  45.3415  46.3527  46.7736  46.9459  47.5274  47.8271
    48.2269  48.3641  49.4094  49.7453  50.3697  51.0707  51.5482  51.9306
    52.1904  53.1130  53.2234  54.0866  54.6223  55.1680

     the Fermi energy is    14.6888 ev

!    total energy              =    -501.26638930 Ry
     Harris-Foulkes estimate   =    -501.26638511 Ry
     estimated scf accuracy    <          7.6E-09 Ry

     The total energy is the sum of the following terms:

     one-electron contribution =     -93.95810825 Ry
     hartree contribution      =      85.73129619 Ry
     xc contribution           =    -138.40851315 Ry
     ewald contribution        =    -354.63027031 Ry
     smearing contrib. (-TS)   =      -0.00079378 Ry

     total magnetization       =    -0.00 Bohr mag/cell
     absolute magnetization    =     0.00 Bohr mag/cell

     convergence has been achieved in   9 iterations

     Forces acting on atoms (Ry/au):

     negative rho (up, down):  0.390E+00 0.390E+00
     atom    1 type  1   force =     0.00000000    0.00000000    0.00000000
     atom    2 type  1   force =     0.00000000    0.00000000    0.00000000
     atom    3 type  2   force =    -0.00007148   -0.00007148    0.00000000
     atom    4 type  2   force =     0.00007148    0.00007148    0.00000000
     atom    5 type  2   force =    -0.00007148    0.00007148   -0.00000000
     atom    6 type  2   force =     0.00007148   -0.00007148    0.00000000

     Total force =     0.000202     Total SCF correction =     0.000025
     SCF correction compared to forces is large: reduce conv_thr to get better values

     entering subroutine stress ...

     negative rho (up, down):  0.390E+00 0.390E+00
          total   stress  (Ry/bohr**3)                   (kbar)     P=  124.19
   0.00083109   0.00000000   0.00000000        122.26      0.00      0.00
   0.00000000   0.00083109   0.00000000          0.00    122.26      0.00
   0.00000000   0.00000000   0.00087053          0.00      0.00    128.06

     General routines

     Parallel routines

   This run was terminated on:  16:16: 6  24Jan2014

   JOB DONE.
Running PBS batch system epilogue script
Job id: 251955.audhumbla.fysik.dtu.dk
Username: zhonxu
Groupname: campgst
Jobname: IrO2/fine-EOS/non-mag/IrO2-v-0.95
Sessionid: 24692
Queuename: verylong
Accounting:
This job has allocated the following 4 nodes:
q021 q021 q021 q021
Finished epilogue job 251955.audhumbla.fysik.dtu.dk for zhonxu