     Program PWSCF v.5.0.2 (svn rev. 9656) starts on  9May2014 at 18:44:49

     Current dimensions of program PWSCF are:
     Max number of different atomic species (ntypx) = 10
     Max number of k-points (npk) =  40000
     Max angular momentum in pseudopotentials (lmaxx) =  3
     Reading input from pwscf.in
Warning: card &CELL ignored
Warning: card / ignored

     Subspace diagonalization in iterative solution of the eigenvalue problem:
     a serial algorithm will be used

     bravais-lattice index     =            0
     lattice parameter (alat)  =      10.9604  a.u.
     unit-cell volume          =    6350.6732 (a.u.)^3
     number of atoms/cell      =           30
     number of atomic types    =            3
     number of electrons       =       224.00 (up: 120.00, down: 104.00)
     number of Kohn-Sham states=          324
     kinetic-energy cutoff     =      40.0000  Ry
     charge density cutoff     =     500.0000  Ry
     convergence threshold     =      1.0E-06
     mixing beta               =       0.7000
     number of iterations used =            8  plain     mixing
     Exchange-correlation      = SLA  PW   PBE  PBE ( 1 4 3 4 0)
     EXX-fraction              =        0.00
     nstep                     =           50

     celldm(1)=  10.960412  celldm(2)=   0.000000  celldm(3)=   0.000000
     celldm(4)=   0.000000  celldm(5)=   0.000000  celldm(6)=   0.000000

     crystal axes: (cart. coord. in units of alat)
               a(1) = (   1.000000   0.000000   0.000000 )
               a(2) = (   0.000000   1.067975   0.000000 )
               a(3) = (   0.000000   0.000000   4.516251 )

     reciprocal axes: (cart. coord. in units 2 pi/alat)
               b(1) = (  1.000000  0.000000  0.000000 )
               b(2) = (  0.000000  0.936351  0.000000 )
               b(3) = (  0.000000  0.000000  0.221423 )

     PseudoPot. # 1 for O  read from file:
     /home/camp/zhonxu/pseudo/o_pbe_v1.01.uspp.F.UPF
     MD5 check sum: 2bcb18d16ea4b960afae9ec6d52f22d2
     Pseudo is Ultrasoft + core correction, Zval =  6.0
     Generated by new atomic code, or converted to UPF format
     Using radial grid of  737 points,  5 beta functions with:
                l(1) =   0
                l(2) =   0
                l(3) =   1
                l(4) =   1
                l(5) =   2
     Q(r) pseudized with  8 coefficients,  rinner =    0.900   0.900   0.900
                                                       0.900   0.900

     PseudoPot. # 2 for Cr read from file:
     /home/camp/zhonxu/pseudo/cr_pbe_v1.uspp.F.UPF
     MD5 check sum: 68b6f918d1762dccfb11451fe85b0e0e
     Pseudo is Ultrasoft + core correction, Zval = 14.0
     Generated by new atomic code, or converted to UPF format
     Using radial grid of  857 points,  6 beta functions with:
                l(1) =   0
                l(2) =   0
                l(3) =   1
                l(4) =   1
                l(5) =   2
                l(6) =   2
     Q(r) pseudized with  6 coefficients,  rinner =    1.000   1.000   1.000
                                                       1.000   1.000

     PseudoPot. # 3 for H  read from file:
     /home/camp/zhonxu/pseudo/h_pbe_v1.uspp.F.UPF
     MD5 check sum: 3408e3ff4ec8b0a4e358431e7e038a48
     Pseudo is Ultrasoft, Zval =  1.0
     Generated by new atomic code, or converted to UPF format
     Using radial grid of  615 points,  2 beta functions with:
                l(1) =   0
                l(2) =   0
     Q(r) pseudized with  8 coefficients,  rinner =    0.700

     atomic species   valence    mass     pseudopotential
        O0             6.00    15.99940     O ( 1.00)
        Cr1           14.00    51.99600     Cr( 1.00)
        H2             1.00     1.00794     H ( 1.00)

     Starting magnetic structure
     atomic species   magnetization
        O0           0.000
        Cr1          0.600
        H2           0.000

     Simplified LDA+U calculation (l_max = 2) with parameters (eV):
     atomic species    L          U    alpha       J0     beta
        Cr1            2     0.5000   0.0000   0.0000   0.0000

     No symmetry found

   Cartesian axes

     site n.     atom                  positions (alat units)
         1           O0  tau(   1) = (   0.0000000   0.0000000   1.7181625  )
         2           O0  tau(   2) = (   0.0000000   0.5339875   1.8008551  )
         3           Cr1 tau(   3) = (   0.2500000   0.5339875   2.0300096  )
         4           Cr1 tau(   4) = (   0.0000000   0.0000000   2.0413454  )
         5           O0  tau(   5) = (   0.2500000   0.8543801   2.0369195  )
         6           O0  tau(   6) = (   0.2500000   0.2135950   2.0378227  )
         7           O0  tau(   7) = (   0.0000000   0.5339875   2.2471058  )
         8           O0  tau(   8) = (   0.0000000   0.0000000   2.3700833  )
         9           Cr1 tau(   9) = (   0.2500000   0.0000000   2.6079543  )
        10           Cr1 tau(  10) = (   0.0000000   0.5339875   2.5535334  )
        11           O0  tau(  11) = (   0.2500000   0.7475825   2.5983798  )
        12           O0  tau(  12) = (   0.2500000   0.3203925   2.5982895  )
        13           O0  tau(  13) = (   0.0000000   0.0000000   2.7910882  )
        14           O0  tau(  14) = (   0.5000000   0.0000000   1.7181625  )
        15           O0  tau(  15) = (   0.5000000   0.5339875   1.8008551  )
        16           Cr1 tau(  16) = (   0.7500000   0.5339875   2.0300096  )
        17           Cr1 tau(  17) = (   0.5000000   0.0000000   2.0413454  )
        18           O0  tau(  18) = (   0.7500000   0.8543801   2.0369195  )
        19           O0  tau(  19) = (   0.7500000   0.2135950   2.0378227  )
        20           O0  tau(  20) = (   0.5000000   0.5339875   2.2471058  )
        21           O0  tau(  21) = (   0.5000000   0.0000000   2.3700833  )
        22           Cr1 tau(  22) = (   0.7500000   0.0000000   2.6079543  )
        23           Cr1 tau(  23) = (   0.5000000   0.5339875   2.5535334  )
        24           O0  tau(  24) = (   0.7500000   0.7475825   2.5983798  )
        25           O0  tau(  25) = (   0.7500000   0.3203925   2.5982895  )
        26           O0  tau(  26) = (   0.5000000   0.0000000   2.7910882  )
        27           H2  tau(  27) = (  -0.0006900   0.6851274   1.7196980  )
        28           H2  tau(  28) = (   0.4993100   0.6851274   1.7196980  )
        29           H2  tau(  29) = (   0.1573400   0.0316548   1.6594512  )
        30           H2  tau(  30) = (   0.6573500   0.0316548   1.6594512  )

     number of k points=    20  Methfessel-Paxton smearing, width (Ry)=  0.0100
                       cart. coord. in units 2pi/alat
        k(    1) = (   0.0000000   0.0000000   0.0000000), wk =   0.0625000
        k(    2) = (   0.0000000   0.2340879   0.0000000), wk =   0.1250000
        k(    3) = (   0.0000000  -0.4681757   0.0000000), wk =   0.0625000
        k(    4) = (   0.2500000   0.0000000   0.0000000), wk =   0.1250000
        k(    5) = (   0.2500000   0.2340879   0.0000000), wk =   0.1250000
        k(    6) = (   0.2500000  -0.4681757   0.0000000), wk =   0.1250000
        k(    7) = (  -0.5000000   0.0000000   0.0000000), wk =   0.0625000
        k(    8) = (  -0.5000000   0.2340879   0.0000000), wk =   0.1250000
        k(    9) = (  -0.5000000  -0.4681757   0.0000000), wk =   0.0625000
        k(   10) = (  -0.2500000   0.2340879   0.0000000), wk =   0.1250000
        k(   11) = (   0.0000000   0.0000000   0.0000000), wk =   0.0625000
        k(   12) = (   0.0000000   0.2340879   0.0000000), wk =   0.1250000
        k(   13) = (   0.0000000  -0.4681757   0.0000000), wk =   0.0625000
        k(   14) = (   0.2500000   0.0000000   0.0000000), wk =   0.1250000
        k(   15) = (   0.2500000   0.2340879   0.0000000), wk =   0.1250000
        k(   16) = (   0.2500000  -0.4681757   0.0000000), wk =   0.1250000
        k(   17) = (  -0.5000000   0.0000000   0.0000000), wk =   0.0625000
        k(   18) = (  -0.5000000   0.2340879   0.0000000), wk =   0.1250000
        k(   19) = (  -0.5000000  -0.4681757   0.0000000), wk =   0.0625000
        k(   20) = (  -0.2500000   0.2340879   0.0000000), wk =   0.1250000

     Largest allocated arrays     est. size (Mb)     dimensions
     Largest temporary arrays     est. size (Mb)     dimensions

     Check: negative/imaginary core charge=   -0.000012    0.000000

     Initial potential from superposition of free atoms
     Check: negative starting charge=(component1):   -0.001590
     Check: negative starting charge=(component2):   -0.000511

     starting charge  215.99984, renormalised to  224.00000

     negative rho (up, down):  0.165E-02 0.530E-03
     Number of +U iterations with fixed ns =  0
     Starting occupations:
 --- enter write_ns ---
 LDA+U parameters:
U( 2)     =  0.50000000
alpha( 2) =  0.00000000
atom    3   Tr[ns(na)] (up, down, total) =   5.00000  0.00000  5.00000
   spin  1
    eigenvalues:
  1.000  1.000  1.000  1.000  1.000
    eigenvectors:
  1.000  0.000  0.000  0.000  0.000
  0.000  1.000  0.000  0.000  0.000
  0.000  0.000  1.000  0.000  0.000
  0.000  0.000  0.000  1.000  0.000
  0.000  0.000  0.000  0.000  1.000
    occupations:
  1.000  0.000  0.000  0.000  0.000
  0.000  1.000  0.000  0.000  0.000
  0.000  0.000  1.000  0.000  0.000
  0.000  0.000  0.000  1.000  0.000
  0.000  0.000  0.000  0.000  1.000
   spin  2
    eigenvalues:
  0.000  0.000  0.000  0.000  0.000
    eigenvectors:
  1.000  0.000  0.000  0.000  0.000
  0.000  1.000  0.000  0.000  0.000
  0.000  0.000  1.000  0.000  0.000
  0.000  0.000  0.000  1.000  0.000
  0.000  0.000  0.000  0.000  1.000
    occupations:
  0.000  0.000  0.000  0.000  0.000
  0.000  0.000  0.000  0.000  0.000
  0.000  0.000  0.000  0.000  0.000
  0.000  0.000  0.000  0.000  0.000
  0.000  0.000  0.000  0.000  0.000
atomic mag. moment =     5.000000
atom    4   Tr[ns(na)] (up, down, total) =   5.00000  0.00000  5.00000
   spin  1
    eigenvalues:
  1.000  1.000  1.000  1.000  1.000
    eigenvectors:
  1.000  0.000  0.000  0.000  0.000
  0.000  1.000  0.000  0.000  0.000
  0.000  0.000  1.000  0.000  0.000
  0.000  0.000  0.000  1.000  0.000
  0.000  0.000  0.000  0.000  1.000
    occupations:
  1.000  0.000  0.000  0.000  0.000
  0.000  1.000  0.000  0.000  0.000
  0.000  0.000  1.000  0.000  0.000
  0.000  0.000  0.000  1.000  0.000
  0.000  0.000  0.000  0.000  1.000
   spin  2
    eigenvalues:
  0.000  0.000  0.000  0.000  0.000
    eigenvectors:
  1.000  0.000  0.000  0.000  0.000
  0.000  1.000  0.000  0.000  0.000
  0.000  0.000  1.000  0.000  0.000
  0.000  0.000  0.000  1.000  0.000
  0.000  0.000  0.000  0.000  1.000
    occupations:
  0.000  0.000  0.000  0.000  0.000
  0.000  0.000  0.000  0.000  0.000
  0.000  0.000  0.000  0.000  0.000
  0.000  0.000  0.000  0.000  0.000
  0.000  0.000  0.000  0.000  0.000
atomic mag. moment =     5.000000
atom    9   Tr[ns(na)] (up, down, total) =   5.00000  0.00000  5.00000
   spin  1
    eigenvalues:
  1.000  1.000  1.000  1.000  1.000
    eigenvectors:
  1.000  0.000  0.000  0.000  0.000
  0.000  1.000  0.000  0.000  0.000
  0.000  0.000  1.000  0.000  0.000
[...]
   spin  2
    eigenvalues:
  0.117  0.146  0.187  0.353  0.382
    eigenvectors:
  0.763  0.000  0.014  0.000  0.223
  0.000  0.003  0.000  0.997  0.000
  0.014  0.000  0.985  0.000  0.001
  0.222  0.000  0.001  0.000  0.776
  0.000  0.997  0.000  0.003  0.000
    occupations:
  0.177 -0.000 -0.005  0.110 -0.000
 -0.000  0.352 -0.000 -0.000  0.011
 -0.005 -0.000  0.186  0.008  0.000
  0.110 -0.000  0.008  0.323 -0.000
 -0.000  0.011  0.000 -0.000  0.147
atomic mag. moment =     2.325024
atom    4   Tr[ns(na)] (up, down, total) =   3.36569  1.34061  4.70629
   spin  1
    eigenvalues:
  0.480  0.524  0.598  0.787  0.977
    eigenvectors:
  0.001  0.995  0.001  0.001  0.003
  0.000  0.001  0.013  0.986  0.000
  0.000  0.001  0.986  0.013  0.000
  0.000  0.003  0.000  0.000  0.997
  0.999  0.001  0.000  0.000  0.000
    occupations:
  0.525 -0.007 -0.003  0.023  0.001
 -0.007  0.784  0.021  0.001  0.001
 -0.003  0.021  0.601  0.002 -0.000
  0.023  0.001  0.002  0.976  0.000
  0.001  0.001 -0.000  0.000  0.480
   spin  2
    eigenvalues:
  0.129  0.176  0.230  0.386  0.419
    eigenvectors:
  0.002  0.004  0.000  0.000  0.994
  0.001  0.966  0.030  0.000  0.004
  0.000  0.029  0.970  0.000  0.000
  0.997  0.001  0.000  0.000  0.002
  0.000  0.000  0.000  1.000  0.000
    occupations:
  0.418  0.015  0.003 -0.013  0.001
  0.015  0.179 -0.009  0.001 -0.000
  0.003 -0.009  0.229  0.000 -0.000
 -0.013  0.001  0.000  0.130 -0.000
  0.001 -0.000 -0.000 -0.000  0.386
atomic mag. moment =     2.025081
atom    9   Tr[ns(na)] (up, down, total) =   3.28147  1.48843  4.76990
   spin  1
    eigenvalues:
  0.520  0.530  0.682  0.762  0.787
    eigenvectors:
  0.001  0.180  0.001  0.811  0.007
  0.994  0.006  0.000  0.000  0.000
  0.000  0.000  0.999  0.001  0.000
  0.004  0.814  0.000  0.180  0.002
  0.000  0.000  0.000  0.008  0.992
    occupations:
  0.720  0.001 -0.003 -0.090  0.002
  0.001  0.520  0.002  0.000  0.000
 -0.003  0.002  0.682  0.001 -0.000
 -0.090  0.000  0.001  0.572 -0.001
  0.002  0.000 -0.000 -0.001  0.787
   spin  2
    eigenvalues:
  0.212  0.214  0.219  0.417  0.426
    eigenvectors:
  0.841  0.011  0.001  0.147  0.000
  0.000  0.000  0.000  0.001  0.999
  0.013  0.987  0.000  0.000  0.000
  0.145  0.002  0.000  0.852  0.000
  0.001  0.000  0.999  0.000  0.000
    occupations:
  0.242 -0.000  0.000  0.073 -0.000
 -0.000  0.426 -0.000 -0.000  0.000
  0.000 -0.000  0.214 -0.000  0.000
  0.073 -0.000 -0.000  0.387  0.000
 -0.000  0.000  0.000  0.000  0.219
atomic mag. moment =     1.793039
atom   10   Tr[ns(na)] (up, down, total) =   3.52420  1.15383  4.67804
   spin  1
    eigenvalues:
  0.472  0.479  0.750  0.862  0.962
    eigenvectors:
  0.000  0.998  0.000  0.000  0.002
  0.000  0.000  0.000  1.000  0.000
  0.000  0.000  1.000  0.000  0.000
  0.000  0.002  0.000  0.000  0.998
  1.000  0.000  0.000  0.000  0.000
    occupations:
  0.480  0.000  0.002  0.022 -0.000
  0.000  0.862 -0.001 -0.000 -0.001
  0.002 -0.001  0.750 -0.003  0.000
  0.022 -0.000 -0.003  0.960 -0.000
 -0.000 -0.001  0.000 -0.000  0.472
   spin  2
    eigenvalues:
  0.117  0.171  0.188  0.311  0.367
    eigenvectors:
  0.006  0.000  0.000  0.994  0.000
  0.000  1.000  0.000  0.000  0.000
  0.000  0.000  1.000  0.000  0.000
  0.994  0.000  0.000  0.006  0.000
  0.000  0.000  0.000  0.000  1.000
    occupations:
  0.309 -0.000 -0.000 -0.015 -0.000
 -0.000  0.171 -0.000 -0.000 -0.000
 -0.000 -0.000  0.188  0.000  0.000
 -0.015 -0.000  0.000  0.118  0.000
 -0.000 -0.000  0.000  0.000  0.367
atomic mag. moment =     2.370367
atom   16   Tr[ns(na)] (up, down, total) =   3.50989  1.18488  4.69477
   spin  1
    eigenvalues:
  0.456  0.500  0.696  0.896  0.962
    eigenvectors:
  0.000  0.228  0.003  0.000  0.769
  0.999  0.000  0.000  0.001  0.000
  0.000  0.000  0.995  0.000  0.004
  0.000  0.772  0.001  0.000  0.227
  0.001  0.000  0.000  0.999  0.000
    occupations:
  0.856 -0.000  0.016 -0.194 -0.000
 -0.000  0.457 -0.000 -0.000 -0.011
  0.016 -0.000  0.697 -0.008  0.001
 -0.194 -0.000 -0.008  0.605 -0.000
 -0.000 -0.011  0.001 -0.000  0.896
   spin  2
    eigenvalues:
  0.117  0.146  0.187  0.353  0.382
    eigenvectors:
  0.763  0.000  0.014  0.000  0.223
  0.000  0.003  0.000  0.997  0.000
  0.014  0.000  0.985  0.000  0.001
  0.222  0.000  0.001  0.000  0.776
  0.000  0.997  0.000  0.003  0.000
    occupations:
  0.177 -0.000 -0.005  0.110 -0.000
 -0.000  0.352 -0.000 -0.000  0.011
 -0.005 -0.000  0.186  0.008  0.000
  0.110 -0.000  0.008  0.323 -0.000
 -0.000  0.011  0.000 -0.000  0.147
atomic mag. moment =     2.325008
atom   17   Tr[ns(na)] (up, down, total) =   3.36574  1.34049  4.70623
   spin  1
    eigenvalues:
  0.480  0.524  0.598  0.787  0.977
    eigenvectors:
  0.001  0.995  0.001  0.001  0.003
  0.000  0.001  0.013  0.986  0.000
  0.000  0.001  0.986  0.013  0.000
  0.000  0.003  0.000  0.000  0.997
  0.999  0.001  0.000  0.000  0.000
    occupations:
  0.525 -0.007 -0.003  0.023  0.001
 -0.007  0.785  0.021  0.001  0.001
 -0.003  0.021  0.601  0.002 -0.000
  0.023  0.001  0.002  0.976  0.000
  0.001  0.001 -0.000  0.000  0.480
   spin  2
    eigenvalues:
  0.129  0.176  0.230  0.386  0.419
    eigenvectors:
  0.002  0.004  0.000  0.000  0.994
  0.001  0.966  0.030  0.000  0.004
  0.000  0.029  0.970  0.000  0.000
  0.997  0.001  0.000  0.000  0.002
  0.000  0.000  0.000  1.000  0.000
    occupations:
  0.418  0.015  0.003 -0.013  0.001
  0.015  0.179 -0.009  0.001 -0.000
  0.003 -0.009  0.229  0.000 -0.000
 -0.013  0.001  0.000  0.130 -0.000
  0.001 -0.000 -0.000 -0.000  0.386
atomic mag. moment =     2.025245
atom   22   Tr[ns(na)] (up, down, total) =   3.28148  1.48840  4.76988
   spin  1
    eigenvalues:
  0.520  0.530  0.682  0.762  0.787
    eigenvectors:
  0.001  0.180  0.001  0.811  0.007
  0.994  0.006  0.000  0.000  0.000
  0.000  0.000  0.999  0.001  0.000
  0.004  0.814  0.000  0.180  0.002
  0.000  0.000  0.000  0.008  0.992
    occupations:
  0.720  0.001 -0.003 -0.090  0.002
  0.001  0.520  0.002  0.000  0.000
 -0.003  0.002  0.682  0.001 -0.000
 -0.090  0.000  0.001  0.572 -0.001
  0.002  0.000 -0.000 -0.001  0.787
   spin  2
    eigenvalues:
  0.212  0.214  0.219  0.417  0.426
    eigenvectors:
  0.841  0.011  0.001  0.147  0.000
  0.000  0.000  0.000  0.001  0.999
  0.013  0.987  0.000  0.000  0.000
  0.145  0.002  0.000  0.852  0.001
  0.001  0.000  0.999  0.000  0.000
    occupations:
  0.242 -0.000  0.000  0.073 -0.000
 -0.000  0.426 -0.000 -0.000  0.000
  0.000 -0.000  0.214 -0.000  0.000
  0.073 -0.000 -0.000  0.387  0.000
 -0.000  0.000  0.000  0.000  0.219
atomic mag. moment =     1.793086
atom   23   Tr[ns(na)] (up, down, total) =   3.52413  1.15382  4.67795
   spin  1
    eigenvalues:
  0.472  0.479  0.750  0.862  0.962
    eigenvectors:
  0.000  0.998  0.000  0.000  0.002
  0.000  0.000  0.000  1.000  0.000
  0.000  0.000  1.000  0.000  0.000
  0.000  0.002  0.000  0.000  0.998
  1.000  0.000  0.000  0.000  0.000
    occupations:
  0.480  0.000  0.002  0.022 -0.000
  0.000  0.862 -0.001 -0.000 -0.001
  0.002 -0.001  0.750 -0.003  0.000
  0.022 -0.000 -0.003  0.960 -0.000
 -0.000 -0.001  0.000 -0.000  0.472
   spin  2
    eigenvalues:
  0.117  0.171  0.188  0.311  0.367
    eigenvectors:
  0.006  0.000  0.000  0.994  0.000
  0.000  1.000  0.000  0.000  0.000
  0.000  0.000  1.000  0.000  0.000
  0.994  0.000  0.000  0.006  0.000
  0.000  0.000  0.000  0.000  1.000
    occupations:
  0.309 -0.000 -0.000 -0.015 -0.000
 -0.000  0.171 -0.000 -0.000 -0.000
 -0.000 -0.000  0.188  0.000  0.000
 -0.015 -0.000  0.000  0.118  0.000
 -0.000 -0.000  0.000  0.000  0.367
atomic mag. moment =     2.370314
N of occupied +U levels =  37.6978623
 --- exit write_ns ---

 ------ SPIN UP ------------

[...]

 ------ SPIN DOWN ----------

[...]

          k = 0.2500-0.4682 0.0000 ( 27150 PWs)   bands (ev):

[...]

          k =-0.2500 0.2341 0.0000 ( 27132 PWs)   bands (ev):

   -73.2066 -73.1948 -72.7815 -72.7703 -72.5457 -72.5345 -72.4903 -72.4794
   -44.6184 -44.6025 -44.5914 -44.5513 -44.5242 -44.4681 -44.4008 -44.3913
   -44.1971 -44.1852 -44.1128 -44.0893 -44.0397 -44.0351 -43.9508 -43.9137
   -43.8904 -43.8353 -43.8328 -43.8196 -43.8098 -43.7031 -43.6952 -43.5687
   -21.3237 -20.8537 -20.7904 -20.4797 -20.4261 -20.3887 -20.0667 -19.9479
   -19.9317 -19.7741 -19.7302 -19.6891 -19.5216 -19.5106 -19.4915 -19.4324
   -19.2468 -19.1214  -8.9138  -8.6236  -8.1734  -8.1277  -8.0286  -7.7250
    -7.5851  -7.5424  -7.5379  -7.4336  -7.3852  -7.2865  -7.1186  -7.0397
    -6.9465  -6.8356  -6.7830  -6.6465  -6.6142  -6.5407  -6.4502  -6.2893
    -6.2680  -5.9882  -5.8931  -5.8736  -5.5770  -5.4697  -5.3903  -5.3565
    -5.3117  -5.2340  -5.1611  -5.0919  -4.9837  -4.9811  -4.8552  -4.6459
    -4.5637  -4.5499  -4.4230  -4.3065  -4.2012  -4.1590  -4.0160  -3.9585
    -3.8922  -3.7330  -3.6540  -3.5275  -3.3770  -3.1285  -3.1245  -2.8099
    -0.4700  -0.3495  -0.2019  -0.1550  -0.0985  -0.0169   0.0286   0.1085
     0.1510   0.2193   0.2580   0.4004   0.4380   0.4660   0.5546   0.6396
     0.6446   0.7190   0.7723   0.8340   0.9324   1.0582   1.1086   1.1656
     1.3430   1.4597   1.7618   1.9678   2.0334   2.3009   2.4523   2.4961
     2.6285   2.8146   2.8897   3.0554   3.0779   3.4024   3.5165   3.5795
     3.8310   3.9354   4.2664   4.7318   5.2561   5.6722   5.7872   5.8857
     5.9632   6.1252   6.3207   6.4355   6.6676   6.8068   6.8411   7.1931
     7.3681   7.5478   7.7216   7.9597   7.9928   8.2222   8.2749   8.4096
     8.6006   8.7067   8.9301   8.9909   9.2219   9.2532   9.2776   9.4248
     9.5317   9.6915   9.7846   9.8481  10.0308  10.0787  10.2635  10.2669
    10.4154  10.4752  10.6173  10.7200  10.7633  10.9526  11.0405  11.0934
    11.1610  11.3438  11.5004  11.5473  11.5868  11.6231  11.7970  11.8345
    11.8853  12.0221  12.0755  12.1617  12.2765  12.3145  12.4094  12.5801
    12.6652  12.6982  12.8129  12.9076  12.9252  12.9966  13.0726  13.1030
    13.1054  13.1928  13.2500  13.3234  13.5546  13.6455  13.7144  13.8034
    13.8550  13.9079  13.9802  14.0144  14.1171  14.2631  14.3588  14.4477
    14.5335  14.5609  14.6232  14.7019  14.7909  14.8641  14.9052  15.0546
    15.1813  15.2751  15.3857  15.4512  15.5006  15.5053  15.5972  15.6272
    15.7808  15.8137  15.9135  15.9194  16.0300  16.0886  16.1688  16.1709
    16.2509  16.2917  16.3979  16.5585  16.6199  16.6608  16.8119  16.8316
    16.8847  16.9517  17.0051  17.1120  17.1963  17.2238  17.3855  17.3916
    17.4407  17.4548  17.5413  17.6229  17.6361  17.7254  17.7577  17.8531
    17.9150  18.0069  18.0520  18.1474  18.2203  18.2862  18.3537  18.3680
    18.4340  18.6252  18.6312  18.7547  18.7904  18.8654  18.9270  19.0678
    19.1029  19.1680  19.2740  19.3439  19.3783  19.4152  19.4893  19.5666
    19.6215  19.6541  19.7365  19.7840  19.8281  19.9463  20.1079  20.1233
    20.2609  20.3383  20.4002  20.4686  20.5166  20.6561  20.7108  20.8233
    20.8531  20.9096  21.1046  21.1072

     the spin up/dw Fermi energies are    -1.4969   -2.6689 ev

!    total energy              =   -1993.44442692 Ry
     Harris-Foulkes estimate   =   -1993.44442693 Ry
     estimated scf accuracy    <          7.4E-09 Ry

     The total energy is the sum of the following terms:

     one-electron contribution =  -23561.37630400 Ry
     hartree contribution      =   11797.43149519 Ry
     xc contribution           =    -314.98103306 Ry
     ewald contribution        =   10085.21314372 Ry
     Hubbard energy            =       0.26729232 Ry
     smearing contrib. (-TS)   =       0.00097891 Ry

     total magnetization       =    16.00 Bohr mag/cell
     absolute magnetization    =    19.11 Bohr mag/cell

     convergence has been achieved in  21 iterations

     Forces acting on atoms (Ry/au):

     negative rho (up, down):  0.496E-02 0.182E-02
     atom    1 type  1   force =    -0.00423127   -0.01454279   -0.00042243
     atom    2 type  1   force =    -0.00005784    0.01251131   -0.00048826
     atom    3 type  2   force =    -0.00013811   -0.00511000    0.00015595
     atom    4 type  2   force =     0.00128920    0.00796023   -0.00022033
     atom    5 type  1   force =     0.00313186    0.00674320   -0.00018015
     atom    6 type  1   force =    -0.00052279   -0.00645715   -0.00028656
     atom    7 type  1   force =    -0.00010832   -0.00080178    0.00054758
     atom    8 type  1   force =     0.00045998   -0.00065755    0.00034286
     atom    9 type  2   force =     0.00053973   -0.00019928    0.00088250
     atom   10 type  2   force =     0.00002987   -0.00052645   -0.00026659
     atom   11 type  1   force =    -0.00010085   -0.05785779    0.00011888
     atom   12 type  1   force =     0.00021462    0.05829280    0.00012291
     atom   13 type  1   force =    -0.00068662    0.00018380    0.00078475
     atom   14 type  1   force =    -0.00427960   -0.01455547   -0.00034679
     atom   15 type  1   force =    -0.00005306    0.01250674   -0.00047323
     atom   16 type  2   force =    -0.00015858   -0.00511096    0.00015844
     atom   17 type  2   force =     0.00129197    0.00796091   -0.00023330
     atom   18 type  1   force =     0.00311599    0.00674127   -0.00017776
     atom   19 type  1   force =    -0.00053929   -0.00645364   -0.00028364
     atom   20 type  1   force =    -0.00009920   -0.00080146    0.00055324
     atom   21 type  1   force =     0.00046478   -0.00065770    0.00029343
     atom   22 type  2   force =     0.00050065   -0.00019921    0.00088075
     atom   23 type  2   force =     0.00003526   -0.00052647   -0.00026401
     atom   24 type  1   force =    -0.00011473   -0.05785760    0.00011792
     atom   25 type  1   force =     0.00020083    0.05829232    0.00012182
     atom   26 type  1   force =    -0.00068702    0.00018376    0.00078700
     atom   27 type  3   force =     0.00007792    0.00012178   -0.00086165
     atom   28 type  3   force =     0.00007800    0.00012947   -0.00086625
     atom   29 type  3   force =     0.00014972    0.00033847   -0.00023503
     atom   30 type  3   force =     0.00019688    0.00034927   -0.00026204

     Total force =     0.002626     Total SCF correction =     0.000169

     bfgs converged in   3 scf cycles and   2 bfgs steps
     (criteria: energy < 0.10E-03, force < 0.10E-02)

     End of BFGS Geometry Optimization

     Final energy   =   -1993.4444269242 Ry
Begin final coordinates

ATOMIC_POSITIONS (crystal)
O0       0.000000000   0.000000000   0.380395425    0   0   1
O0       0.000000000   0.500000000   0.398695839    0   0   1
Cr1      0.250000000   0.500000000   0.449448734    0   0   1
Cr1      0.000000000   0.000000000   0.451971656    0   0   1
O0       0.250000000   0.800000000   0.451024765    0   0   1
O0       0.250000000   0.200000000   0.451216057    0   0   1
O0       0.000000000   0.500000000   0.497522504    0   0   1
O0       0.000000000   0.000000000   0.524797114    0   0   1
Cr1      0.250000000   0.000000000   0.577456470    0   0   1
Cr1      0.000000000   0.500000000   0.565527910    0   0   1
O0       0.250000000   0.700000000   0.575331401    0   0   1
O0       0.250000000   0.300000000   0.575311685    0   0   1
O0       0.000000000   0.000000000   0.618144117    0   0   1
O0       0.500000000   0.000000000   0.380391445    0   0   1
O0       0.500000000   0.500000000   0.398695215    0   0   1
Cr1      0.750000000   0.500000000   0.449448622    0   0   1
Cr1      0.500000000   0.000000000   0.451970771    0   0   1
O0       0.750000000   0.800000000   0.451024327    0   0   1
O0       0.750000000   0.200000000   0.451215656    0   0   1
O0       0.500000000   0.500000000   0.497523052    0   0   1
O0       0.500000000   0.000000000   0.524800432    0   0   1
Cr1      0.750000000   0.000000000   0.577455726    0   0   1
Cr1      0.500000000   0.500000000   0.565528293    0   0   1
O0       0.750000000   0.700000000   0.575331382    0   0   1
O0       0.750000000   0.300000000   0.575311666    0   0   1
O0       0.500000000   0.000000000   0.618144495    0   0   1
H2      -0.000666364   0.641396777   0.380753202
H2       0.499333781   0.641397346   0.380753082
H2       0.157353936   0.029720867   0.367434156
H2       0.657356169   0.029719332   0.367434801
End final coordinates

     General routines

     Parallel routines
     Hubbard U routines

   This run was terminated on:   0:56:26  10May2014

   JOB DONE.
Running PBS batch system epilogue script
Job id: 340911.audhumbla.fysik.dtu.dk
Username: zhonxu
Groupname: campgst
Jobname: CrO2/Eads-2-layers/bare-U-0.5
Sessionid: 14878
Queuename: verylong
Accounting:
This job has allocated the following 16 nodes:
a028 a028 a028 a028 a028 a028 a028 a028 a026 a026 a026 a026 a026 a026 a026 a026
Finished epilogue job 340911.audhumbla.fysik.dtu.dk for zhonxu