     Program PWSCF v.5.0.2 (svn rev. 9656) starts on 14Aug2014 at  9:49:58

     Current dimensions of program PWSCF are:
     Max number of different atomic species (ntypx) = 10
     Max number of k-points (npk) =  40000
     Max angular momentum in pseudopotentials (lmaxx) =  3
     Reading input from pwscf.in
Warning: card &CELL ignored
Warning: card / ignored

     Subspace diagonalization in iterative solution of the eigenvalue problem:
     a serial algorithm will be used

     bravais-lattice index     =            0
     lattice parameter (alat)  =      10.9604  a.u.
     unit-cell volume          =    6350.6732 (a.u.)^3
     number of atoms/cell      =           33
     number of atomic types    =            3
     number of electrons       =       237.00 (up: 126.00, down: 111.00)
     number of Kohn-Sham states=          343
     kinetic-energy cutoff     =      40.0000  Ry
     charge density cutoff     =     500.0000  Ry
     convergence threshold     =      1.0E-06
     mixing beta               =       0.7000
     number of iterations used =            8  plain     mixing
     Exchange-correlation      = SLA  PW   PBE  PBE ( 1 4 3 4 0)
     EXX-fraction              =        0.00
     nstep                     =           50

     celldm(1)=  10.960412  celldm(2)=   0.000000  celldm(3)=   0.000000
     celldm(4)=   0.000000  celldm(5)=   0.000000  celldm(6)=   0.000000

     crystal axes: (cart. coord. in units of alat)
               a(1) = (   1.000000   0.000000   0.000000 )
               a(2) = (   0.000000   1.067975   0.000000 )
               a(3) = (   0.000000   0.000000   4.516251 )

     reciprocal axes: (cart. coord. in units 2 pi/alat)
               b(1) = (  1.000000  0.000000  0.000000 )
               b(2) = (  0.000000  0.936351  0.000000 )
               b(3) = (  0.000000  0.000000  0.221423 )

     PseudoPot. # 1 for O  read from file:
     /home-research/zhongnanxu/gbrv_espresso_pseudo_v1.01/o_pbe_v1.01.uspp.F.UPF
     MD5 check sum: 2bcb18d16ea4b960afae9ec6d52f22d2
     Pseudo is Ultrasoft + core correction, Zval =  6.0
     Generated by new atomic code, or converted to UPF format
     Using radial grid of  737 points,  5 beta functions with:
                l(1) =   0
                l(2) =   0
                l(3) =   1
                l(4) =   1
                l(5) =   2
     Q(r) pseudized with  8 coefficients,  rinner =    0.900   0.900   0.900
                                                       0.900   0.900

     PseudoPot. # 2 for Cr read from file:
     /home-research/zhongnanxu/gbrv_espresso_pseudo_v1.01/cr_pbe_v1.uspp.F.UPF
     MD5 check sum: 68b6f918d1762dccfb11451fe85b0e0e
     Pseudo is Ultrasoft + core correction, Zval = 14.0
     Generated by new atomic code, or converted to UPF format
     Using radial grid of  857 points,  6 beta functions with:
                l(1) =   0
                l(2) =   0
                l(3) =   1
                l(4) =   1
                l(5) =   2
                l(6) =   2
     Q(r) pseudized with  6 coefficients,  rinner =    1.000   1.000   1.000
                                                       1.000   1.000

     PseudoPot. # 3 for H  read from file:
     /home-research/zhongnanxu/gbrv_espresso_pseudo_v1.01/h_pbe_v1.uspp.F.UPF
     MD5 check sum: 3408e3ff4ec8b0a4e358431e7e038a48
     Pseudo is Ultrasoft, Zval =  1.0
     Generated by new atomic code, or converted to UPF format
     Using radial grid of  615 points,  2 beta functions with:
                l(1) =   0
                l(2) =   0
     Q(r) pseudized with  8 coefficients,  rinner =    0.700

     atomic species   valence    mass     pseudopotential
        O0             6.00    15.99940     O ( 1.00)
        Cr1           14.00    51.99600     Cr( 1.00)
        H2             1.00     1.00794     H ( 1.00)

     Starting magnetic structure
     atomic species   magnetization
        O0           0.000
        Cr1          0.600
        H2           0.000

     Simplified LDA+U calculation (l_max = 2) with parameters (eV):
     atomic species    L          U    alpha       J0     beta
        Cr1            2     5.0000   0.0000   0.0000   0.0000

     No symmetry found

   Cartesian axes

     site n.     atom                  positions (alat units)
         1           O0  tau(   1) = (   0.0000000   0.0000000   1.6983362  )
         2           O0  tau(   2) = (   0.0000000   0.5339875   1.7934936  )
         3           Cr1 tau(   3) = (   0.2500000   0.5339875   2.0290612  )
         4           Cr1 tau(   4) = (   0.0000000   0.0000000   2.0299193  )
         5           O0  tau(   5) = (   0.2500000   0.8543801   2.0277063  )
         6           O0  tau(   6) = (   0.2500000   0.2135950   2.0281128  )
         7           O0  tau(   7) = (   0.0000000   0.5339875   2.2457058  )
         8           O0  tau(   8) = (   0.0000000   0.0000000   2.3680962  )
         9           Cr1 tau(   9) = (   0.2500000   0.0000000   2.6000508  )
        10           Cr1 tau(  10) = (   0.0000000   0.5339875   2.5592239  )
        11           O0  tau(  11) = (   0.2500000   0.7475825   2.5970249  )
        12           O0  tau(  12) = (   0.2500000   0.3203925   2.6036187  )
        13           O0  tau(  13) = (   0.0000000   0.0000000   2.8107339  )
        14           O0  tau(  14) = (   0.5000000   0.0000000   1.6972071  )
        15           O0  tau(  15) = (   0.5000000   0.5339875   1.7935387  )
        16           Cr1 tau(  16) = (   0.7500000   0.5339875   2.0291064  )
        17           Cr1 tau(  17) = (   0.5000000   0.0000000   2.0287902  )
        18           O0  tau(  18) = (   0.7500000   0.8543801   2.0278870  )
        19           O0  tau(  19) = (   0.7500000   0.2135950   2.0280225  )
        20           O0  tau(  20) = (   0.5000000   0.5339875   2.2536092  )
        21           O0  tau(  21) = (   0.5000000   0.0000000   2.3682768  )
        22           Cr1 tau(  22) = (   0.7500000   0.0000000   2.5994185  )
        23           Cr1 tau(  23) = (   0.5000000   0.5339875   2.6013154  )
        24           O0  tau(  24) = (   0.7500000   0.7475825   2.5972507  )
        25           O0  tau(  25) = (   0.7500000   0.3203925   2.6036638  )
        26           O0  tau(  26) = (   0.5000000   0.0000000   2.8096049  )
        27           H2  tau(  27) = (  -0.0006100   0.6816992   1.7081816  )
        28           H2  tau(  28) = (   0.4995100   0.6829167   1.7103042  )
        29           H2  tau(  29) = (   0.1586900   0.0299247   1.6417927  )
        30           H2  tau(  30) = (   0.6583300   0.0310140   1.6406185  )
        31           O0  tau(  31) = (   0.4998600   0.5834027   2.9483893  )
        32           O0  tau(  32) = (   0.5002200   0.3828370   3.0776444  )
        33           H2  tau(  33) = (   0.4998900   0.4445553   3.2369777  )

     number of k points=    20  Methfessel-Paxton smearing, width (Ry)=  0.0100
                       cart. coord. in units 2pi/alat
        k(    1) = (   0.0000000   0.0000000   0.0000000), wk =   0.0625000
        k(    2) = (   0.0000000   0.2340879   0.0000000), wk =   0.1250000
        k(    3) = (   0.0000000  -0.4681757   0.0000000), wk =   0.0625000
        k(    4) = (   0.2500000   0.0000000   0.0000000), wk =   0.1250000
        k(    5) = (   0.2500000   0.2340879   0.0000000), wk =   0.1250000
        k(    6) = (   0.2500000  -0.4681757   0.0000000), wk =   0.1250000
        k(    7) = (  -0.5000000   0.0000000   0.0000000), wk =   0.0625000
        k(    8) = (  -0.5000000   0.2340879   0.0000000), wk =   0.1250000
        k(    9) = (  -0.5000000  -0.4681757   0.0000000), wk =   0.0625000
        k(   10) = (  -0.2500000   0.2340879   0.0000000), wk =   0.1250000
        k(   11) = (   0.0000000   0.0000000   0.0000000), wk =   0.0625000
        k(   12) = (   0.0000000   0.2340879   0.0000000), wk =   0.1250000
        k(   13) = (   0.0000000  -0.4681757   0.0000000), wk =   0.0625000
        k(   14) = (   0.2500000   0.0000000   0.0000000), wk =   0.1250000
        k(   15) = (   0.2500000   0.2340879   0.0000000), wk =   0.1250000
        k(   16) = (   0.2500000  -0.4681757   0.0000000), wk =   0.1250000
        k(   17) = (  -0.5000000   0.0000000   0.0000000), wk =   0.0625000
        k(   18) = (  -0.5000000   0.2340879   0.0000000), wk =   0.1250000
        k(   19) = (  -0.5000000  -0.4681757   0.0000000), wk =   0.0625000
        k(   20) = (  -0.2500000   0.2340879   0.0000000), wk =   0.1250000

     Largest allocated arrays     est. size (Mb)     dimensions
     Largest temporary arrays     est. size (Mb)     dimensions

     Check: negative/imaginary core charge=   -0.000012    0.000000

     Initial potential from superposition of free atoms
     Check: negative starting charge=(component1):   -0.001295
     Check: negative starting charge=(component2):   -0.000447

     starting charge  228.99983, renormalised to  237.00000

     negative rho (up, down):  0.134E-02 0.462E-03
     Number of +U iterations with fixed ns =  0
     Starting occupations:
 --- enter write_ns ---
 LDA+U parameters:
U( 2)     =  5.00000000
alpha( 2) =  0.00000000
atom    3   Tr[ns(na)] (up, down, total) =   5.00000  0.00000  5.00000
   spin  1
    eigenvalues:
  1.000  1.000  1.000  1.000  1.000
    eigenvectors:
  1.000  0.000  0.000  0.000  0.000
  0.000  1.000  0.000  0.000  0.000
  0.000  0.000  1.000  0.000  0.000
  0.000  0.000  0.000  1.000  0.000
  0.000  0.000  0.000  0.000  1.000
    occupations:
  1.000  0.000  0.000  0.000  0.000
  0.000  1.000  0.000  0.000  0.000
  0.000  0.000  1.000  0.000  0.000
  0.000  0.000  0.000  1.000  0.000
  0.000  0.000  0.000  0.000  1.000
   spin  2
    eigenvalues:
  0.000  0.000  0.000  0.000  0.000
    eigenvectors:
  1.000  0.000  0.000  0.000  0.000
  0.000  1.000  0.000  0.000  0.000
  0.000  0.000  1.000  0.000  0.000
  0.000  0.000  0.000  1.000  0.000
  0.000  0.000  0.000  0.000  1.000
    occupations:
  0.000  0.000  0.000  0.000  0.000
  0.000  0.000  0.000  0.000  0.000
  0.000  0.000  0.000  0.000  0.000
  0.000  0.000  0.000  0.000  0.000
  0.000  0.000  0.000  0.000  0.000
atomic mag. moment =     5.000000
atom    4   Tr[ns(na)] (up, down, total) =   5.00000  0.00000  5.00000
   spin  1
    eigenvalues:
  1.000  1.000  1.000  1.000  1.000
    eigenvectors:
  1.000  0.000  0.000  0.000  0.000
  0.000  1.000  0.000  0.000  0.000
  0.000  0.000  1.000  0.000  0.000
  0.000  0.000  0.000  1.000  0.000
  0.000  0.000  0.000  0.000  1.000
    occupations:
  1.000  0.000  0.000  0.000  0.000
  0.000  1.000  0.000  0.000  0.000
  0.000  0.000  1.000  0.000  0.000
  0.000  0.000  0.000  1.000  0.000
  0.000  0.000  0.000  0.000  1.000
   spin  2
    eigenvalues:
  0.000  0.000  0.000  0.000  0.000
    eigenvectors:
  1.000  0.000  0.000  0.000  0.000
  0.000  1.000  0.000  0.000  0.000
  0.000  0.000  1.000  0.000  0.000
  0.000  0.000  0.000  1.000  0.000
  0.000  0.000  0.000  0.000  1.000
    occupations:
  0.000  0.000  0.000  0.000  0.000
  0.000  0.000  0.000  0.000  0.000
  0.000  0.000  0.000  0.000  0.000
  0.000  0.000  0.000  0.000  0.000
  0.000  0.000  0.000  0.000  0.000
[...]
  0.137 -0.002 -0.002  0.113  0.000
 -0.002  0.312  0.000  0.000  0.009
 -0.002  0.000  0.103  0.006  0.000
  0.113  0.000  0.006  0.286  0.000
  0.000  0.009  0.000  0.000  0.093
atomic mag. moment =     2.730845
atom    4   Tr[ns(na)] (up, down, total) =   3.63534  0.96609  4.60143
   spin  1
    eigenvalues:
  0.486  0.534  0.700  0.926  0.990
    eigenvectors:
  0.002  0.993  0.000  0.001  0.004
  0.000  0.001  0.011  0.988  0.000
  0.000  0.000  0.989  0.011  0.000
  0.000  0.004  0.000  0.000  0.995
  0.998  0.002  0.000  0.000  0.000
    occupations:
  0.536 -0.013 -0.002  0.031  0.002
 -0.013  0.923  0.024  0.001  0.000
 -0.002  0.024  0.702  0.000  0.001
  0.031  0.001  0.000  0.988  0.000
  0.002  0.000  0.001  0.000  0.486
   spin  2
    eigenvalues:
  0.082  0.095  0.107  0.338  0.344
    eigenvectors:
  0.005  0.001  0.000  0.015  0.979
  0.005  0.901  0.092  0.000  0.002
  0.001  0.091  0.908  0.000  0.000
  0.990  0.006  0.000  0.000  0.004
  0.000  0.000  0.000  0.985  0.015
    occupations:
  0.343  0.010  0.002 -0.017  0.001
  0.010  0.096 -0.003  0.000  0.000
  0.002 -0.003  0.105  0.000  0.000
 -0.017  0.000  0.000  0.083  0.000
  0.001  0.000  0.000  0.000  0.338
atomic mag. moment =     2.669252
atom    9   Tr[ns(na)] (up, down, total) =   3.63364  1.00516  4.63880
   spin  1
    eigenvalues:
  0.521  0.538  0.706  0.877  0.992
    eigenvectors:
  0.001  0.191  0.000  0.000  0.808
  0.994  0.006  0.000  0.000  0.000
  0.000  0.000  0.961  0.039  0.000
  0.005  0.803  0.000  0.000  0.192
  0.000  0.000  0.039  0.960  0.000
    occupations:
  0.905  0.000  0.003 -0.179 -0.002
  0.000  0.521  0.000  0.002  0.001
  0.003  0.000  0.713 -0.001 -0.033
 -0.179  0.002 -0.001  0.625  0.000
 -0.002  0.001 -0.033  0.000  0.870
   spin  2
    eigenvalues:
  0.095  0.104  0.107  0.340  0.359
    eigenvectors:
  0.813  0.000  0.001  0.000  0.186
  0.000  0.000  0.000  1.000  0.000
  0.001  0.189  0.810  0.000  0.000
  0.187  0.000  0.000  0.000  0.813
  0.000  0.810  0.190  0.000  0.000
    occupations:
  0.145  0.001  0.001  0.103  0.000
  0.001  0.340  0.000 -0.001  0.000
  0.001  0.000  0.106  0.003  0.001
  0.103 -0.001  0.003  0.310  0.000
  0.000  0.000  0.001  0.000  0.105
atomic mag. moment =     2.628485
atom   10   Tr[ns(na)] (up, down, total) =   3.73643  0.84356  4.57999
   spin  1
    eigenvalues:
  0.483  0.505  0.833  0.925  0.990
    eigenvectors:
  0.000  0.996  0.000  0.000  0.004
  0.000  0.000  0.000  1.000  0.000
  0.000  0.000  1.000  0.000  0.000
  0.000  0.004  0.000  0.000  0.996
  1.000  0.000  0.000  0.000  0.000
    occupations:
  0.507  0.000 -0.002  0.029  0.000
  0.000  0.925  0.000  0.000 -0.006
 -0.002  0.000  0.833  0.002  0.000
  0.029  0.000  0.002  0.988  0.000
  0.000 -0.006  0.000  0.000  0.484
   spin  2
    eigenvalues:
  0.076  0.101  0.104  0.244  0.319
    eigenvectors:
  0.010  0.000  0.000  0.990  0.000
  0.000  0.000  1.000  0.000  0.000
  0.000  1.000  0.000  0.000  0.000
  0.990  0.000  0.000  0.010  0.000
  0.000  0.000  0.000  0.000  1.000
    occupations:
  0.242  0.000  0.000 -0.016  0.000
  0.000  0.104  0.000  0.000  0.003
  0.000  0.000  0.101  0.000  0.000
 -0.016  0.000  0.000  0.078  0.000
  0.000  0.003  0.000  0.000  0.319
atomic mag. moment =     2.892867
atom   16   Tr[ns(na)] (up, down, total) =   3.66199  0.93150  4.59349
   spin  1
    eigenvalues:
  0.462  0.507  0.751  0.952  0.990
    eigenvectors:
  0.002  0.229  0.002  0.000  0.768
  0.992  0.008  0.000  0.000  0.000
  0.000  0.000  0.993  0.004  0.002
  0.006  0.764  0.001  0.000  0.230
  0.000  0.000  0.004  0.995  0.000
    occupations:
  0.878  0.002  0.011 -0.203  0.001
  0.002  0.463  0.003  0.003 -0.008
  0.011  0.003  0.752 -0.005 -0.013
 -0.203  0.003 -0.005  0.618  0.001
  0.001 -0.008 -0.013  0.001  0.951
   spin  2
    eigenvalues:
  0.075  0.092  0.104  0.313  0.347
    eigenvectors:
  0.749  0.000  0.026  0.000  0.225
  0.000  0.002  0.000  0.997  0.001
  0.030  0.002  0.968  0.000  0.000
  0.221  0.000  0.004  0.001  0.773
  0.000  0.996  0.002  0.002  0.000
    occupations:
  0.137  0.002 -0.002  0.113  0.000
  0.002  0.312  0.000  0.000  0.009
 -0.002  0.000  0.103  0.006  0.000
  0.113  0.000  0.006  0.286  0.000
  0.000  0.009  0.000  0.000  0.093
atomic mag. moment =     2.730488
atom   17   Tr[ns(na)] (up, down, total) =   3.64153  0.95834  4.59987
   spin  1
    eigenvalues:
  0.484  0.532  0.713  0.923  0.990
    eigenvectors:
  0.002  0.993  0.000  0.001  0.004
  0.000  0.001  0.012  0.987  0.000
  0.000  0.000  0.988  0.012  0.000
  0.000  0.004  0.000  0.000  0.996
  0.998  0.002  0.000  0.000  0.000
    occupations:
  0.534 -0.013 -0.002  0.030  0.002
 -0.013  0.920  0.023  0.001  0.000
 -0.002  0.023  0.715  0.000  0.001
  0.030  0.001  0.000  0.988  0.000
  0.002  0.000  0.001  0.000  0.484
   spin  2
    eigenvalues:
  0.082  0.094  0.105  0.336  0.341
    eigenvectors:
  0.005  0.001  0.000  0.023  0.971
  0.006  0.884  0.109  0.000  0.002
  0.001  0.108  0.891  0.000  0.000
  0.989  0.007  0.000  0.000  0.004
  0.000  0.000  0.000  0.977  0.023
    occupations:
  0.340  0.010  0.002 -0.017  0.001
  0.010  0.095 -0.003  0.000  0.000
  0.002 -0.003  0.104  0.000  0.000
 -0.017  0.000  0.000  0.083  0.000
  0.001  0.000  0.000  0.000  0.336
atomic mag. moment =     2.683196
atom   22   Tr[ns(na)] (up, down, total) =   3.63404  1.00445  4.63849
   spin  1
    eigenvalues:
  0.521  0.538  0.706  0.877  0.992
    eigenvectors:
  0.000  0.192  0.000  0.000  0.808
  1.000  0.000  0.000  0.000  0.000
  0.000  0.000  0.961  0.039  0.000
  0.000  0.808  0.000  0.000  0.192
  0.000  0.000  0.039  0.961  0.000
    occupations:
  0.905  0.001  0.002 -0.179  0.000
  0.001  0.521  0.002  0.000  0.001
  0.002  0.002  0.713 -0.001  0.033
 -0.179  0.000 -0.001  0.625  0.002
  0.000  0.001  0.033  0.002  0.871
   spin  2
    eigenvalues:
  0.095  0.104  0.107  0.340  0.359
    eigenvectors:
  0.812  0.000  0.001  0.000  0.187
  0.000  0.000  0.000  1.000  0.000
  0.001  0.180  0.819  0.000  0.000
  0.187  0.000  0.000  0.000  0.813
  0.000  0.819  0.181  0.000  0.000
    occupations:
  0.144 -0.001  0.001  0.103  0.000
 -0.001  0.340  0.000  0.000  0.000
  0.001  0.000  0.106  0.003 -0.001
  0.103  0.000  0.003  0.310  0.000
  0.000  0.000 -0.001  0.000  0.105
atomic mag. moment =     2.629583
atom   23   Tr[ns(na)] (up, down, total) =   3.74471  0.82588  4.57058
   spin  1
    eigenvalues:
  0.452  0.469  0.902  0.936  0.986
    eigenvectors:
  0.996  0.000  0.000  0.003  0.001
  0.000  0.000  0.999  0.000  0.000
  0.003  0.000  0.000  0.997  0.000
  0.001  0.000  0.000  0.000  0.999
  0.000  0.999  0.000  0.000  0.000
    occupations:
  0.454  0.000  0.026  0.014  0.000
  0.000  0.901  0.000  0.000 -0.010
  0.026  0.000  0.935 -0.001  0.000
  0.014  0.000 -0.001  0.985  0.000
  0.000 -0.010  0.000  0.000  0.469
   spin  2
    eigenvalues:
  0.070  0.079  0.088  0.265  0.324
    eigenvectors:
  0.002  0.008  0.000  0.989  0.000
  0.000  0.000  1.000  0.000  0.000
  0.997  0.001  0.000  0.002  0.000
  0.001  0.991  0.000  0.009  0.000
  0.000  0.000  0.000  0.000  1.000
    occupations:
  0.263  0.000 -0.009 -0.017  0.000
  0.000  0.088  0.000  0.000  0.003
 -0.009  0.000  0.070  0.001  0.000
 -0.017  0.000  0.001  0.080  0.000
  0.000  0.003  0.000  0.000  0.324
atomic mag. moment =     2.918829
N of occupied +U levels =  36.8161849
 --- exit write_ns ---

 ------ SPIN UP ------------

[...]

 ------ SPIN DOWN ----------

[...]

          k = 0.2500-0.4682 0.0000 ( 27150 PWs)   bands (ev):

[...]

          k =-0.2500 0.2341 0.0000 ( 27132 PWs)   bands (ev):

   -71.6430 -71.6068 -71.5600 -71.5488 -71.5302 -71.5139 -71.5030 -71.1909
   -43.2638 -43.2529 -43.1430 -43.1182 -43.1067 -43.1016 -43.0808 -43.0619
   -43.0275 -42.9477 -42.9243 -42.8686 -42.8492 -42.8341 -42.8265 -42.8197
   -42.7215 -42.7093 -42.6891 -42.6494 -42.6112 -42.6044 -42.5585 -42.4456
   -25.5144 -20.4665 -20.0835 -19.8769 -19.8503 -19.5852 -19.4772 -19.4151
   -19.3785 -19.2603 -19.1808 -19.1280 -19.0425 -19.0334 -18.8379 -18.7663
   -18.7245 -18.6271 -18.5617 -18.0042  -9.8939  -8.2252  -7.8083  -7.6378
    -7.4333  -7.3511  -7.1464  -7.0650  -6.7604  -6.6246  -6.5186  -6.4430
    -6.3469  -6.1878  -6.1217  -6.0656  -6.0274  -5.9805  -5.8053  -5.7385
    -5.5529  -5.5087  -5.3900  -5.3053  -5.1275  -5.0460  -4.9878  -4.9308
    -4.8498  -4.7912  -4.6222  -4.5779  -4.5535  -4.4885  -4.4002  -4.3551
    -4.3039  -4.2486  -4.1906  -4.1149  -3.8520  -3.7364  -3.6570  -3.5491
    -3.5030  -3.4599  -3.4261  -3.3110  -3.2978  -3.2663  -3.2167  -3.1168
    -3.0440  -3.0011  -2.9279  -2.7434  -2.7015  -2.6265  -2.4969   2.2491
     2.3950   2.4427   2.5199   2.5888   2.6219   2.6629   2.7106   2.7401
     2.7938   2.8351   2.8721   2.9211   2.9946   3.0229   3.0918   3.1282
     3.2200   3.2650   3.2881   3.3282   3.3757   3.4375   3.5291   3.5713
     3.6101   3.6434   3.7258   3.7777   3.8731   3.9097   3.9719   4.0109
     4.1069   4.1687   4.2575   4.3487   4.3939   4.4315   4.4655   4.5757
     4.7499   4.8475   4.8568   4.9998   5.2027   5.5052   5.7158   6.1078
     6.2031   6.3226   6.4270   6.5361   6.8088   6.9326   7.1437   7.4511
     7.5850   7.7408   7.9086   8.1271   8.2698   8.3502   8.4613   8.6443
     8.6917   8.9339   9.0780   9.2390   9.3889   9.4897   9.5555   9.7645
     9.8618   9.9629  10.0492  10.0947  10.1463  10.3322  10.4089  10.4718
    10.5778  10.6721  10.7809  10.9039  11.0553  11.0988  11.2382  11.3331
    11.4069  11.4944  11.6062  11.7659  11.8246  11.9251  12.0305  12.0795
    12.1230  12.2684  12.3139  12.3884  12.4601  12.5599  12.6783  12.7143
    12.8029  12.8384  13.0064  13.0392  13.1626  13.2288  13.3205  13.4111
    13.4796  13.5321  13.5567  13.6520  13.7600  13.8687  13.9229  14.0061
    14.1097  14.1778  14.2665  14.2885  14.3892  14.4448  14.5251  14.5892
    14.6922  14.8500  14.8979  14.9243  15.0713  15.1347  15.1784  15.2258
    15.3335  15.4333  15.5334  15.5880  15.7138  15.7977  15.8481  15.8774
    16.0002  16.0534  16.0697  16.1214  16.1785  16.2464  16.2786  16.3835
    16.4562  16.5357  16.6137  16.6992  16.7183  16.7541  16.8641  16.9468
    17.0190  17.1175  17.1940  17.2478  17.2844  17.3401  17.4626  17.4786
    17.5195  17.5351  17.6892  17.7622  17.7972  17.8452  17.9617  18.0116
    18.0614  18.1527  18.1904  18.2982  18.3966  18.4629  18.5002  18.5490
    18.6044  18.7168  18.7832  18.8623  18.9152  18.9947  19.0493  19.1052
    19.1477  19.2603  19.3658  19.3884  19.4629  19.4868  19.5648  19.6422
    19.7278  19.8014  19.8531  19.8992  20.0341  20.1605  20.2131  20.3022
    20.3536  20.3934  20.4993  20.5852  20.6758  20.8326  20.8901  20.9399
    21.0321  21.0823  21.1947  21.2225  21.3165  21.4041  21.4596  21.4957
    21.6202  21.7197  21.7488  21.8709  21.9283  21.9845  22.0507

     the spin up/dw Fermi energies are    -1.4140   -1.7513 ev

!    total energy              =   -2056.63944048 Ry
     Harris-Foulkes estimate   =   -2056.63944048 Ry
     estimated scf accuracy    <          9.2E-09 Ry

     The total energy is the sum of the following terms:

     one-electron contribution =  -24282.00496165 Ry
     hartree contribution      =   12169.35812092 Ry
     xc contribution           =    -330.30568954 Ry
     ewald contribution        =   10384.18057502 Ry
     Hubbard energy            =       2.13242902 Ry
     smearing contrib. (-TS)   =       0.00008574 Ry

     total magnetization       =    15.00 Bohr mag/cell
     absolute magnetization    =    28.78 Bohr mag/cell

     convergence has been achieved in  14 iterations

     Forces acting on atoms (Ry/au):

     negative rho (up, down):  0.532E-02 0.175E-02
     atom    1 type  1   force =    -0.00492574   -0.01098411   -0.00003234
     atom    2 type  1   force =    -0.00000626    0.00553010    0.00000559
     atom    3 type  2   force =     0.02790088    0.00134282    0.00008842
     atom    4 type  2   force =     0.00483083    0.00590257   -0.00025230
     atom    5 type  1   force =    -0.00104819    0.00573551   -0.00000274
     atom    6 type  1   force =     0.00046293   -0.00471476   -0.00008193
     atom    7 type  1   force =    -0.00016722   -0.00411943   -0.00006288
     atom    8 type  1   force =    -0.00116822    0.00115341   -0.00032831
     atom    9 type  2   force =    -0.00042559    0.00010486   -0.00067705
     atom   10 type  2   force =    -0.00002113   -0.00076559    0.00000791
     atom   11 type  1   force =    -0.02772264   -0.02628222    0.00001964
     atom   12 type  1   force =    -0.02270604    0.03396292    0.00017174
     atom   13 type  1   force =    -0.00030862   -0.00125437   -0.00021424
     atom   14 type  1   force =    -0.00579634   -0.01151219    0.00007131
     atom   15 type  1   force =     0.00010222    0.00572401   -0.00007274
     atom   16 type  2   force =    -0.02810850    0.00146902   -0.00000864
     atom   17 type  2   force =     0.00497437    0.00614014   -0.00016011
     atom   18 type  1   force =     0.00109590    0.00571712    0.00001114
     atom   19 type  1   force =     0.00221568   -0.00474245   -0.00007192
     atom   20 type  1   force =    -0.00008536   -0.00522348    0.00018971
     atom   21 type  1   force =    -0.00121495    0.00180990   -0.00045271
     atom   22 type  2   force =     0.00130543   -0.00096092    0.00005802
     atom   23 type  2   force =    -0.00005161   -0.00426562   -0.00024953
     atom   24 type  1   force =     0.02732589   -0.02619741   -0.00014345
     atom   25 type  1   force =     0.02340306    0.03414519    0.00013025
     atom   26 type  1   force =    -0.00020567   -0.00870837   -0.00013391
     atom   27 type  3   force =    -0.00004392   -0.00022988   -0.00049634
     atom   28 type  3   force =    -0.00003643   -0.00015031   -0.00035394
     atom   29 type  3   force =     0.00021546   -0.00015399    0.00048502
     atom   30 type  3   force =     0.00019397   -0.00016307    0.00050897
     atom   31 type  1   force =    -0.00003402    0.00032763    0.00059620
     atom   32 type  1   force =     0.00006408    0.00045674    0.00081577
     atom   33 type  3   force =    -0.00001424    0.00090622    0.00063540

     Total force =     0.002184     Total SCF correction =     0.000448
     SCF correction compared to forces is large: reduce conv_thr to get better values

     bfgs converged in   3 scf cycles and   2 bfgs steps
     (criteria: energy < 0.10E-03, force < 0.10E-02)

     End of BFGS Geometry Optimization

     Final energy   =   -2056.6394404810 Ry
Begin final coordinates

ATOMIC_POSITIONS (crystal)
O0       0.000000000   0.000000000   0.376055403    0   0   1
O0       0.000000000   0.500000000   0.397113712    0   0   1
Cr1      0.250000000   0.500000000   0.449296588    0   0   1
Cr1      0.000000000   0.000000000   0.449443006    0   0   1
O0       0.250000000   0.800000000   0.448981040    0   0   1
O0       0.250000000   0.200000000   0.449066752    0   0   1
O0       0.000000000   0.500000000   0.497237711    0   0   1
O0       0.000000000   0.000000000   0.524327091    0   0   1
Cr1      0.250000000   0.000000000   0.575666012    0   0   1
Cr1      0.000000000   0.500000000   0.566658412    0   0   1
O0       0.250000000   0.700000000   0.575044481    0   0   1
O0       0.250000000   0.300000000   0.576513333    0   0   1
O0       0.000000000   0.000000000   0.622363720    0   0   1
O0       0.500000000   0.000000000   0.375806966    0   0   1
O0       0.500000000   0.500000000   0.397120056    0   0   1
Cr1      0.750000000   0.500000000   0.449297297    0   0   1
Cr1      0.500000000   0.000000000   0.449206389    0   0   1
O0       0.750000000   0.800000000   0.449022660    0   0   1
O0       0.750000000   0.200000000   0.449048046    0   0   1
O0       0.500000000   0.500000000   0.499016287    0   0   1
O0       0.500000000   0.000000000   0.524354644    0   0   1
Cr1      0.750000000   0.000000000   0.575571953    0   0   1
Cr1      0.500000000   0.500000000   0.575963058    0   0   1
O0       0.750000000   0.700000000   0.575084917    0   0   1
O0       0.750000000   0.300000000   0.576521240    0   0   1
O0       0.500000000   0.000000000   0.622115168    0   0   1
H2      -0.000621070   0.638246896   0.378207450
H2       0.499502427   0.639431639   0.378680351
H2       0.158723315   0.027983193   0.363558430
H2       0.658373951   0.029003548   0.363298250
O0       0.499860000   0.546353823   0.652893115    0   1   1
O0       0.500220000   0.358507977   0.681499366    0   1   1
H2       0.499890000   0.416477990   0.716757095    0   1   1
End final coordinates

     General routines

     Parallel routines
     Hubbard U routines

   This run was terminated on:  19: 5:48  14Aug2014

   JOB DONE.