     Program PWSCF v.5.0.2 (svn rev. 9656) starts on 23Jan2014 at 17:46:57

     Current dimensions of program PWSCF are:
     Max number of different atomic species (ntypx) = 10
     Max number of k-points (npk) =  40000
     Max angular momentum in pseudopotentials (lmaxx) =  3
     Reading input from RuO2-v-1.2.in

     Subspace diagonalization in iterative solution of the eigenvalue problem:
     a serial algorithm will be used

     bravais-lattice index     =            0
     lattice parameter (alat)  =       9.2016  a.u.
     unit-cell volume          =     502.0761 (a.u.)^3
     number of atoms/cell      =            6
     number of atomic types    =            2
     number of electrons       =        56.00
     number of Kohn-Sham states=           81
     kinetic-energy cutoff     =      40.0000  Ry
     charge density cutoff     =     500.0000  Ry
     convergence threshold     =      1.0E-06
     mixing beta               =       0.7000
     number of iterations used =            8  plain     mixing
     Exchange-correlation      = SLA  PW   PBE  PBE ( 1 4 3 4 0)
     EXX-fraction              =        0.00
     nstep                     =           50

     celldm(1)=   9.201558  celldm(2)=   0.000000  celldm(3)=   0.000000
     celldm(4)=   0.000000  celldm(5)=   0.000000  celldm(6)=   0.000000

     crystal axes: (cart. coord. in units of alat)
               a(1) = (   1.000000   0.000000   0.000000 )
               a(2) = (   0.000000   1.000000   0.000000 )
               a(3) = (   0.000000   0.000000   0.644444 )

     reciprocal axes: (cart. coord. in units 2 pi/alat)
               b(1) = (  1.000000  0.000000  0.000000 )
               b(2) = (  0.000000  1.000000  0.000000 )
               b(3) = (  0.000000  0.000000  1.551724 )

     PseudoPot. # 1 for Ru read from file:
     /home/camp/zhonxu/pseudo/ru_pbe_v1.uspp.F.UPF
     MD5 check sum: df00be1c11b23341d9806d8f1dfa10cf
     Pseudo is Ultrasoft + core correction, Zval = 16.0
     Generated by new atomic code, or converted to UPF format
     Using radial grid of  967 points,  6 beta functions with:
                l(1) =   0
                l(2) =   0
                l(3) =   1
                l(4) =   1
                l(5) =   2
                l(6) =   2
     Q(r) pseudized with  8 coefficients,  rinner =    1.300   1.300   1.300
                                                       1.300   1.300

     PseudoPot. # 2 for O  read from file:
     /home/camp/zhonxu/pseudo/o_pbe_v1.01.uspp.F.UPF
     MD5 check sum: 2bcb18d16ea4b960afae9ec6d52f22d2
     Pseudo is Ultrasoft + core correction, Zval =  6.0
     Generated by new atomic code, or converted to UPF format
     Using radial grid of  737 points,  5 beta functions with:
                l(1) =   0
                l(2) =   0
                l(3) =   1
                l(4) =   1
                l(5) =   2
     Q(r) pseudized with  8 coefficients,  rinner =    0.900   0.900   0.900
                                                       0.900   0.900

     atomic species   valence    mass     pseudopotential
        Ru0           16.00   101.07000     Ru( 1.00)
        O1             6.00    15.99940     O ( 1.00)

     Starting magnetic structure
     atomic species   magnetization
        Ru0          0.600
        O1           0.000

      8 Sym. Ops., with inversion, found
          (note:  8 additional sym.ops. were found but ignored
           their fractional translations are incommensurate with FFT grid)

   Cartesian axes

     site n.     atom                  positions (alat units)
         1           Ru0 tau(   1) = (   0.0000000   0.0000000   0.0000000  )
         2           Ru0 tau(   2) = (   0.5000000   0.5000000   0.3222222  )
         3           O1  tau(   3) = (   0.3050000   0.3050000   0.0000000  )
         4           O1  tau(   4) = (  -0.3050000  -0.3050000   0.0000000  )
         5           O1  tau(   5) = (   0.8050000   0.1950000   0.3222222  )
         6           O1  tau(   6) = (   0.1950000   0.8050000   0.3222222  )

     number of k points=    54  Methfessel-Paxton smearing, width (Ry)=  0.0100
                       cart. coord. in units 2pi/alat
        k(    1) = (   0.0000000   0.0000000   0.0000000), wk =   0.0080000
        k(    2) = (   0.0000000   0.0000000   0.3103448), wk =   0.0160000
        k(    3) = (   0.0000000   0.0000000   0.6206897), wk =   0.0160000
        k(    4) = (   0.0000000   0.2000000   0.0000000), wk =   0.0320000
        k(    5) = (   0.0000000   0.2000000   0.3103448), wk =   0.0640000
        k(    6) = (   0.0000000   0.2000000   0.6206897), wk =   0.0640000
        k(    7) = (   0.0000000   0.4000000   0.0000000), wk =   0.0320000
        k(    8) = (   0.0000000   0.4000000   0.3103448), wk =   0.0640000
        k(    9) = (   0.0000000   0.4000000   0.6206897), wk =   0.0640000
        k(   10) = (   0.2000000   0.2000000   0.0000000), wk =   0.0160000
        k(   11) = (   0.2000000   0.2000000   0.3103448), wk =   0.0320000
        k(   12) = (   0.2000000   0.2000000   0.6206897), wk =   0.0320000
        k(   13) = (   0.2000000   0.4000000   0.0000000), wk =   0.0320000
        k(   14) = (   0.2000000   0.4000000   0.3103448), wk =   0.0640000
        k(   15) = (   0.2000000   0.4000000   0.6206897), wk =   0.0640000
        k(   16) = (   0.4000000   0.4000000   0.0000000), wk =   0.0160000
        k(   17) = (   0.4000000   0.4000000   0.3103448), wk =   0.0320000
        k(   18) = (   0.4000000   0.4000000   0.6206897), wk =   0.0320000
        k(   19) = (  -0.2000000   0.2000000   0.0000000), wk =   0.0160000
        k(   20) = (  -0.2000000   0.2000000  -0.3103448), wk =   0.0320000
        k(   21) = (  -0.2000000   0.2000000  -0.6206897), wk =   0.0320000
        k(   22) = (  -0.2000000   0.4000000   0.0000000), wk =   0.0320000
        k(   23) = (  -0.2000000   0.4000000  -0.3103448), wk =   0.0640000
        k(   24) = (  -0.2000000   0.4000000  -0.6206897), wk =   0.0640000
        k(   25) = (  -0.4000000   0.4000000   0.0000000), wk =   0.0160000
        k(   26) = (  -0.4000000   0.4000000  -0.3103448), wk =   0.0320000
        k(   27) = (  -0.4000000   0.4000000  -0.6206897), wk =   0.0320000
        k(   28) = (   0.0000000   0.0000000   0.0000000), wk =   0.0080000
        k(   29) = (   0.0000000   0.0000000   0.3103448), wk =   0.0160000
        k(   30) = (   0.0000000   0.0000000   0.6206897), wk =   0.0160000
        k(   31) = (   0.0000000   0.2000000   0.0000000), wk =   0.0320000
        k(   32) = (   0.0000000   0.2000000   0.3103448), wk =   0.0640000
        k(   33) = (   0.0000000   0.2000000   0.6206897), wk =   0.0640000
        k(   34) = (   0.0000000   0.4000000   0.0000000), wk =   0.0320000
        k(   35) = (   0.0000000   0.4000000   0.3103448), wk =   0.0640000
        k(   36) = (   0.0000000   0.4000000   0.6206897), wk =   0.0640000
        k(   37) = (   0.2000000   0.2000000   0.0000000), wk =   0.0160000
        k(   38) = (   0.2000000   0.2000000   0.3103448), wk =   0.0320000
        k(   39) = (   0.2000000   0.2000000   0.6206897), wk =   0.0320000
        k(   40) = (   0.2000000   0.4000000   0.0000000), wk =   0.0320000
        k(   41) = (   0.2000000   0.4000000   0.3103448), wk =   0.0640000
        k(   42) = (   0.2000000   0.4000000   0.6206897), wk =   0.0640000
        k(   43) = (   0.4000000   0.4000000   0.0000000), wk =   0.0160000
        k(   44) = (   0.4000000   0.4000000   0.3103448), wk =   0.0320000
        k(   45) = (   0.4000000   0.4000000   0.6206897), wk =   0.0320000
        k(   46) = (  -0.2000000   0.2000000   0.0000000), wk =   0.0160000
        k(   47) = (  -0.2000000   0.2000000  -0.3103448), wk =   0.0320000
        k(   48) = (  -0.2000000   0.2000000  -0.6206897), wk =   0.0320000
        k(   49) = (  -0.2000000   0.4000000   0.0000000), wk =   0.0320000
        k(   50) = (  -0.2000000   0.4000000  -0.3103448), wk =   0.0640000
        k(   51) = (  -0.2000000   0.4000000  -0.6206897), wk =   0.0640000
        k(   52) = (  -0.4000000   0.4000000   0.0000000), wk =   0.0160000
        k(   53) = (  -0.4000000   0.4000000  -0.3103448), wk =   0.0320000
        k(   54) = (  -0.4000000   0.4000000  -0.6206897), wk =   0.0320000

     Largest allocated arrays     est. size (Mb)     dimensions
     Largest temporary arrays     est. size (Mb)     dimensions

     Check: negative/imaginary core charge=   -0.000007    0.000000

     Initial potential from superposition of free atoms
     Check: negative starting charge=(component1):   -0.106295
     Check: negative starting charge=(component2):   -0.026385

     starting charge   53.99996, renormalised to   56.00000

     negative rho (up, down):  0.110E+00 0.274E-01
     Starting wfc are   42 randomized atomic wfcs

     Self-consistent Calculation

     iteration #  1     ecut=    40.00 Ry     beta=0.70
     Davidson diagonalization with overlap
     ethr =  1.00E-02,  avg # of iterations =  5.2

     negative rho (up, down):  0.708E-01 0.866E-01

     total energy              =    -513.00209645 Ry
     Harris-Foulkes estimate   =    -515.31448576 Ry
     estimated scf accuracy    <       4.92275919 Ry

     total magnetization       =     8.00 Bohr mag/cell
     absolute magnetization    =     8.17 Bohr mag/cell

[...]

     End of self-consistent calculation

 ------ SPIN UP ------------

          k = 0.0000 0.0000 0.0000 (  2127 PWs)   bands (ev):

   -63.6141 -63.6068 -33.6712 -33.6654 -33.4901 -33.4826 -33.3802 -33.3680
    -9.1282  -8.3041  -7.7989  -7.7973   2.8007   2.8493   4.0863   4.2501
     4.2529   6.1526   6.1526   6.5715   7.6109   7.9111   7.9117   8.0895
     8.2869   8.7360   8.7611   8.7680   8.9454  10.4469  11.0981  13.4775
    13.4813  14.2766  14.9751  19.2177  19.2186  22.2851  22.4654  23.3864
    24.6222  25.5733  25.5741  27.0194  27.3959  29.1738  30.5143  30.5144
    31.5258  31.5270  32.7083  33.8582  34.1581  34.1594  34.9838  36.5221
    36.6619  36.8615  37.5217  37.9771  38.6445  38.6447  39.2185  39.2195
    39.6369  39.6370  40.6126  42.3273  42.9480  44.4175  44.4191  45.2826
    46.0971  46.1077  46.1081  46.3716  46.4492  46.6887  46.6895  47.2175
    47.5181

[...]

          k =-0.2000 0.2000 0.0000 (  2131 PWs)   bands (ev):

[...]

 ------ SPIN DOWN ----------

[...]

     the Fermi energy is     9.8884 ev

!    total energy              =    -515.51907760 Ry
     Harris-Foulkes estimate   =    -515.51907785 Ry
     estimated scf accuracy    <       0.00000098 Ry

     The total energy is the sum of the following terms:

     one-electron contribution =    -202.72869043 Ry
     hartree contribution      =     127.54760472 Ry
     xc contribution           =     -77.82804233 Ry
     ewald contribution        =    -362.50986180 Ry
     smearing contrib. (-TS)   =      -0.00008776 Ry

[...]

     convergence has been achieved in  14 iterations

     Forces acting on atoms (Ry/au):

     negative rho (up, down):  0.709E-01 0.747E-01
     atom    1 type  1   force =     0.00000000    0.00000000    0.00000000
     atom    2 type  1   force =     0.00000000    0.00000000    0.00000000
[...]
        k(   13) = (   0.2019709   0.4039334   0.0000000), wk =   0.0320000
        k(   14) = (   0.2019709   0.4039334   0.3043344), wk =   0.0640000
        k(   15) = (   0.2019709   0.4039334   0.6086687), wk =   0.0640000
        k(   16) = (   0.4039362   0.4039362   0.0000000), wk =   0.0160000
        k(   17) = (   0.4039362   0.4039362   0.3043344), wk =   0.0320000
        k(   18) = (   0.4039362   0.4039362   0.6086687), wk =   0.0320000
        k(   19) = (  -0.2019625   0.2019625   0.0000000), wk =   0.0160000
        k(   20) = (  -0.2019625   0.2019625  -0.3043344), wk =   0.0320000
        k(   21) = (  -0.2019625   0.2019625  -0.6086687), wk =   0.0320000
        k(   22) = (  -0.2019597   0.4039278   0.0000000), wk =   0.0320000
        k(   23) = (  -0.2019597   0.4039278  -0.3043344), wk =   0.0640000
        k(   24) = (  -0.2019597   0.4039278  -0.6086687), wk =   0.0640000
        k(   25) = (  -0.4039250   0.4039250   0.0000000), wk =   0.0160000
        k(   26) = (  -0.4039250   0.4039250  -0.3043344), wk =   0.0320000
        k(   27) = (  -0.4039250   0.4039250  -0.6086687), wk =   0.0320000
        k(   28) = (   0.0000000   0.0000000   0.0000000), wk =   0.0080000
        k(   29) = (   0.0000000   0.0000000   0.3043344), wk =   0.0160000
        k(   30) = (   0.0000000   0.0000000   0.6086687), wk =   0.0160000
        k(   31) = (   0.0000028   0.2019653   0.0000000), wk =   0.0320000
        k(   32) = (   0.0000028   0.2019653   0.3043344), wk =   0.0640000
        k(   33) = (   0.0000028   0.2019653   0.6086687), wk =   0.0640000
        k(   34) = (   0.0000056   0.4039306   0.0000000), wk =   0.0320000
        k(   35) = (   0.0000056   0.4039306   0.3043344), wk =   0.0640000
        k(   36) = (   0.0000056   0.4039306   0.6086687), wk =   0.0640000
        k(   37) = (   0.2019681   0.2019681   0.0000000), wk =   0.0160000
        k(   38) = (   0.2019681   0.2019681   0.3043344), wk =   0.0320000
        k(   39) = (   0.2019681   0.2019681   0.6086687), wk =   0.0320000
        k(   40) = (   0.2019709   0.4039334   0.0000000), wk =   0.0320000
        k(   41) = (   0.2019709   0.4039334   0.3043344), wk =   0.0640000
        k(   42) = (   0.2019709   0.4039334   0.6086687), wk =   0.0640000
        k(   43) = (   0.4039362   0.4039362   0.0000000), wk =   0.0160000
        k(   44) = (   0.4039362   0.4039362   0.3043344), wk =   0.0320000
        k(   45) = (   0.4039362   0.4039362   0.6086687), wk =   0.0320000
        k(   46) = (  -0.2019625   0.2019625   0.0000000), wk =   0.0160000
        k(   47) = (  -0.2019625   0.2019625  -0.3043344), wk =   0.0320000
        k(   48) = (  -0.2019625   0.2019625  -0.6086687), wk =   0.0320000
        k(   49) = (  -0.2019597   0.4039278   0.0000000), wk =   0.0320000
        k(   50) = (  -0.2019597   0.4039278  -0.3043344), wk =   0.0640000
        k(   51) = (  -0.2019597   0.4039278  -0.6086687), wk =   0.0640000
        k(   52) = (  -0.4039250   0.4039250   0.0000000), wk =   0.0160000
        k(   53) = (  -0.4039250   0.4039250  -0.3043344), wk =   0.0320000
        k(   54) = (  -0.4039250   0.4039250  -0.6086687), wk =   0.0320000

     Check: negative/imaginary core charge=   -0.000007    0.000000
     Check: negative starting charge=(component1):   -0.132701

[...]

     Threshold (ethr) on eigenvalues was too large:
     Diagonalizing with lowered threshold

     Davidson diagonalization with overlap
     ethr =  1.00E-09,  avg # of iterations =  3.0

[...]

     Total force =     0.000207     Total SCF correction =     0.000010

[...]

     Volume is kept fixed: isostatic pressure set to zero

     bfgs converged in   8 scf cycles and   7 bfgs steps
     (criteria: energy < 0.10E-03, force < 0.10E-02, cell < 0.50E+00)

     End of BFGS Geometry Optimization

     Final enthalpy =    -515.5224528407 Ry
Begin final coordinates
     new unit-cell volume =    502.07609 a.u.^3 (    74.40000 Ang^3 )

CELL_PARAMETERS (alat=  9.20155768)
   0.990269123  -0.000013645   0.000000000
  -0.000013645   0.990269123   0.000000000
   0.000000000   0.000000000   0.657171935

ATOMIC_POSITIONS (crystal)
Ru0      0.000000000   0.000000000   0.000000000    0   0   0
Ru0      0.500000000   0.500000000   0.500000000    0   0   0
O1       0.310266884   0.310266884   0.000000000    1   1   0
O1      -0.310266884  -0.310266884   0.000000000    1   1   0
O1       0.810280604   0.189719396   0.500000000    1   1   0
O1       0.189719396   0.810280604   0.500000000    1   1   0
End final coordinates

     A final scf calculation at the relaxed structure.
     The G-vectors are recalculated for the final unit cell
     Results may differ from those at the preceding step.

     bravais-lattice index     =            0
     lattice parameter (alat)  =       9.2016  a.u.
     unit-cell volume          =     502.0761 (a.u.)^3
     number of atoms/cell      =            6
     number of atomic types    =            2
     number of electrons       =        56.00
     number of Kohn-Sham states=           81
     kinetic-energy cutoff     =      40.0000  Ry
     charge density cutoff     =     500.0000  Ry
     convergence threshold     =      1.0E-08
     mixing beta               =       0.7000
     number of iterations used =            8  plain     mixing
     Exchange-correlation      = SLA  PW   PBE  PBE ( 1 4 3 4 0)
     EXX-fraction              =        0.00

     celldm(1)=   9.201558  celldm(2)=   0.000000  celldm(3)=   0.000000
     celldm(4)=   0.000000  celldm(5)=   0.000000  celldm(6)=   0.000000

     crystal axes: (cart. coord. in units of alat)
               a(1) = (   0.990269  -0.000014   0.000000 )
               a(2) = (  -0.000014   0.990269   0.000000 )
               a(3) = (   0.000000   0.000000   0.657172 )

     reciprocal axes: (cart. coord. in units 2 pi/alat)
               b(1) = (  1.009826  0.000014 -0.000000 )
               b(2) = (  0.000014  1.009826 -0.000000 )
               b(3) = ( -0.000000 -0.000000  1.521672 )

     PseudoPot. # 1 for Ru read from file:
     /home/camp/zhonxu/pseudo/ru_pbe_v1.uspp.F.UPF
     MD5 check sum: df00be1c11b23341d9806d8f1dfa10cf
     Pseudo is Ultrasoft + core correction, Zval = 16.0
     Generated by new atomic code, or converted to UPF format
     Using radial grid of  967 points,  6 beta functions with:
                l(1) =   0
                l(2) =   0
                l(3) =   1
                l(4) =   1
                l(5) =   2
                l(6) =   2
     Q(r) pseudized with  8 coefficients,  rinner =    1.300   1.300   1.300
                                                       1.300   1.300

     PseudoPot. # 2 for O  read from file:
     /home/camp/zhonxu/pseudo/o_pbe_v1.01.uspp.F.UPF
     MD5 check sum: 2bcb18d16ea4b960afae9ec6d52f22d2
     Pseudo is Ultrasoft + core correction, Zval =  6.0
     Generated by new atomic code, or converted to UPF format
     Using radial grid of  737 points,  5 beta functions with:
                l(1) =   0
                l(2) =   0
                l(3) =   1
                l(4) =   1
                l(5) =   2
     Q(r) pseudized with  8 coefficients,  rinner =    0.900   0.900   0.900
                                                       0.900   0.900

     atomic species   valence    mass     pseudopotential
        Ru0           16.00   101.07000     Ru( 1.00)
        O1             6.00    15.99940     O ( 1.00)

     Starting magnetic structure
     atomic species   magnetization
        Ru0          0.600
        O1           0.000

      8 Sym. Ops., with inversion, found
          (note:  8 additional sym.ops. were found but ignored
           their fractional translations are incommensurate with FFT grid)

   Cartesian axes

     site n.     atom                  positions (alat units)
         1           Ru0 tau(   1) = (   0.0000000   0.0000000   0.0000000  )
         2           Ru0 tau(   2) = (   0.4951277   0.4951277   0.3285860  )
         3           O1  tau(   3) = (   0.3072435   0.3072435   0.0000000  )
         4           O1  tau(   4) = (  -0.3072435  -0.3072435   0.0000000  )
         5           O1  tau(   5) = (   0.8023933   0.1878622   0.3285860  )
         6           O1  tau(   6) = (   0.1878622   0.8023933   0.3285860  )

     number of k points=    54  Methfessel-Paxton smearing, width (Ry)=  0.0100
                       cart. coord. in units 2pi/alat
        k(    1) = (   0.0000000   0.0000000   0.0000000), wk =   0.0080000
        k(    2) = (   0.0000000   0.0000000   0.3043344), wk =   0.0160000
        k(    3) = (   0.0000000   0.0000000   0.6086687), wk =   0.0160000
        k(    4) = (   0.0000028   0.2019653   0.0000000), wk =   0.0320000
        k(    5) = (   0.0000028   0.2019653   0.3043344), wk =   0.0640000
        k(    6) = (   0.0000028   0.2019653   0.6086687), wk =   0.0640000
        k(    7) = (   0.0000056   0.4039306   0.0000000), wk =   0.0320000
        k(    8) = (   0.0000056   0.4039306   0.3043344), wk =   0.0640000
        k(    9) = (   0.0000056   0.4039306   0.6086687), wk =   0.0640000
        k(   10) = (   0.2019681   0.2019681   0.0000000), wk =   0.0160000
        k(   11) = (   0.2019681   0.2019681   0.3043344), wk =   0.0320000
        k(   12) = (   0.2019681   0.2019681   0.6086687), wk =   0.0320000
        k(   13) = (   0.2019709   0.4039334   0.0000000), wk =   0.0320000
        k(   14) = (   0.2019709   0.4039334   0.3043344), wk =   0.0640000
        k(   15) = (   0.2019709   0.4039334   0.6086687), wk =   0.0640000
        k(   16) = (   0.4039362   0.4039362   0.0000000), wk =   0.0160000
        k(   17) = (   0.4039362   0.4039362   0.3043344), wk =   0.0320000
        k(   18) = (   0.4039362   0.4039362   0.6086687), wk =   0.0320000
        k(   19) = (  -0.2019625   0.2019625   0.0000000), wk =   0.0160000
        k(   20) = (  -0.2019625   0.2019625  -0.3043344), wk =   0.0320000
        k(   21) = (  -0.2019625   0.2019625  -0.6086687), wk =   0.0320000
        k(   22) = (  -0.2019597   0.4039278   0.0000000), wk =   0.0320000
        k(   23) = (  -0.2019597   0.4039278  -0.3043344), wk =   0.0640000
        k(   24) = (  -0.2019597   0.4039278  -0.6086687), wk =   0.0640000
        k(   25) = (  -0.4039250   0.4039250   0.0000000), wk =   0.0160000
        k(   26) = (  -0.4039250   0.4039250  -0.3043344), wk =   0.0320000
        k(   27) = (  -0.4039250   0.4039250  -0.6086687), wk =   0.0320000
        k(   28) = (   0.0000000   0.0000000   0.0000000), wk =   0.0080000
        k(   29) = (   0.0000000   0.0000000   0.3043344), wk =   0.0160000
        k(   30) = (   0.0000000   0.0000000   0.6086687), wk =   0.0160000
        k(   31) = (   0.0000028   0.2019653   0.0000000), wk =   0.0320000
        k(   32) = (   0.0000028   0.2019653   0.3043344), wk =   0.0640000
        k(   33) = (   0.0000028   0.2019653   0.6086687), wk =   0.0640000
        k(   34) = (   0.0000056   0.4039306   0.0000000), wk =   0.0320000
        k(   35) = (   0.0000056   0.4039306   0.3043344), wk =   0.0640000
        k(   36) = (   0.0000056   0.4039306   0.6086687), wk =   0.0640000
        k(   37) = (   0.2019681   0.2019681   0.0000000), wk =   0.0160000
        k(   38) = (   0.2019681   0.2019681   0.3043344), wk =   0.0320000
        k(   39) = (   0.2019681   0.2019681   0.6086687), wk =   0.0320000
        k(   40) = (   0.2019709   0.4039334   0.0000000), wk =   0.0320000
        k(   41) = (   0.2019709   0.4039334   0.3043344), wk =   0.0640000
        k(   42) = (   0.2019709   0.4039334   0.6086687), wk =   0.0640000
        k(   43) = (   0.4039362   0.4039362   0.0000000), wk =   0.0160000
        k(   44) = (   0.4039362   0.4039362   0.3043344), wk =   0.0320000
        k(   45) = (   0.4039362   0.4039362   0.6086687), wk =   0.0320000
        k(   46) = (  -0.2019625   0.2019625   0.0000000), wk =   0.0160000
        k(   47) = (  -0.2019625   0.2019625  -0.3043344), wk =   0.0320000
        k(   48) = (  -0.2019625   0.2019625  -0.6086687), wk =   0.0320000
        k(   49) = (  -0.2019597   0.4039278   0.0000000), wk =   0.0320000
        k(   50) = (  -0.2019597   0.4039278  -0.3043344), wk =   0.0640000
        k(   51) = (  -0.2019597   0.4039278  -0.6086687), wk =   0.0640000
        k(   52) = (  -0.4039250   0.4039250   0.0000000), wk =   0.0160000
        k(   53) = (  -0.4039250   0.4039250  -0.3043344), wk =   0.0320000
        k(   54) = (  -0.4039250   0.4039250  -0.6086687), wk =   0.0320000

     Largest allocated arrays     est. size (Mb)     dimensions
     Largest temporary arrays     est. size (Mb)     dimensions

     Check: negative/imaginary core charge=   -0.000007    0.000000

     Initial potential from superposition of free atoms
     Check: negative starting charge=(component1):   -0.106310
     Check: negative starting charge=(component2):   -0.026391

     starting charge   53.99996, renormalised to   56.00000

     negative rho (up, down):  0.110E+00 0.274E-01
     Starting wfc are   42 randomized atomic wfcs

     Self-consistent Calculation

[...]

     total energy              =    -515.52249538 Ry
     Harris-Foulkes estimate   =    -515.52249540 Ry
     estimated scf accuracy    <       0.00000002 Ry

[...]

     iteration # 21     ecut=    40.00 Ry     beta=0.70
     Davidson diagonalization with overlap
     ethr =  3.31E-11,  avg # of iterations =  2.0

     negative rho (up, down):  0.727E-01 0.727E-01

     End of self-consistent calculation

 ------ SPIN UP ------------

[...]

 ------ SPIN DOWN ----------

[...]

          k = 0.4039 0.4039 0.6087 (  2134 PWs)   bands (ev):

[...]

          k =-0.4039 0.4039-0.6087 (  2134 PWs)   bands (ev):

   -63.4913 -63.4894 -33.5948 -33.5932 -33.3915 -33.3899 -33.2860 -33.2839
    -8.2151  -8.1489  -8.1125  -8.0534   3.9206   4.0184   4.1923   4.2345
     4.6370   4.9119   5.7537   5.8382   6.8279   6.9523   7.3344   7.6112
     9.0690   9.4448   9.4763   9.4973  10.0373  10.3344  11.7780  12.4679
    12.5204  13.1932  19.5153  19.9729  20.7573  21.1043  22.0425  22.0508
    22.9768  23.4193  26.2055  26.2666  27.6760  28.1816  29.4924  30.6079
    30.9560  31.1840  31.3615  32.4744  34.8698  34.9129  35.7663  36.2815
    37.4880  38.1371  38.1490  39.3243  39.3993  40.1623  40.3849  40.8923
    41.0958  41.1633  41.4359  42.5422  42.9327  43.4693  43.8731  45.0969
    45.4579  45.8097  45.9837  46.0646  46.7643  47.2750  48.4425  48.9465
    49.6272

     the Fermi energy is     9.8646 ev

!    total energy              =    -515.52249541 Ry
     Harris-Foulkes estimate   =    -515.52249541 Ry
     estimated scf accuracy    <          2.1E-09 Ry

     The total energy is the sum of the following terms:

     one-electron contribution =    -202.00441528 Ry
     hartree contribution      =     127.22310097 Ry
     xc contribution           =     -77.82602050 Ry
     ewald contribution        =    -362.91502202 Ry
     smearing contrib. (-TS)   =      -0.00013858 Ry

     total magnetization       =     0.00 Bohr mag/cell
     absolute magnetization    =     0.01 Bohr mag/cell

     convergence has been achieved in  21 iterations

     Forces acting on atoms (Ry/au):

     negative rho (up, down):  0.727E-01 0.727E-01
     atom    1 type  1   force =     0.00000000    0.00000000    0.00000000
     atom    2 type  1   force =     0.00000000    0.00000000    0.00000000
     atom    3 type  2   force =     0.00000472    0.00000472   -0.00000000
     atom    4 type  2   force =    -0.00000472   -0.00000472   -0.00000000
     atom    5 type  2   force =    -0.00002678    0.00002678    0.00000000
     atom    6 type  2   force =     0.00002678   -0.00002678    0.00000000

     Total force =     0.000054     Total SCF correction =     0.000023
     SCF correction compared to forces is large: reduce conv_thr to get better values

     entering subroutine stress ...

     negative rho (up, down):  0.727E-01 0.727E-01
          total   stress  (Ry/bohr**3)                   (kbar)     P= -266.45
  -0.00181271   0.00000005   0.00000000       -266.66      0.01      0.00
   0.00000005  -0.00181271   0.00000000          0.01   -266.66      0.00
   0.00000000   0.00000000  -0.00180838          0.00      0.00   -266.02

     General routines

     Parallel routines

   This run was terminated on:  19: 2:28  23Jan2014

   JOB DONE.
Running PBS batch system epilogue script
Job id: 251190.audhumbla.fysik.dtu.dk
Username: zhonxu
Groupname: campgst
Jobname: RuO2/coarse-EOS/RuO2-v-1.2
Sessionid: 1622
Queuename: verylong
Accounting:
This job has allocated the following 4 nodes:
q099 q099 q099 q099
Finished epilogue job 251190.audhumbla.fysik.dtu.dk for zhonxu