     Program PWSCF v.5.0.2 (svn rev. 9656) starts on  1Jun2014 at 23:17:22

     Current dimensions of program PWSCF are:
     Max number of different atomic species (ntypx) = 10
     Max number of k-points (npk) =  40000
     Max angular momentum in pseudopotentials (lmaxx) =  3
     Reading input from pwscf.in
Warning: card &CELL ignored
Warning: card / ignored

     Subspace diagonalization in iterative solution of the eigenvalue problem:
     a serial algorithm will be used

     bravais-lattice index     =            0
     lattice parameter (alat)  =      10.9604  a.u.
     unit-cell volume          =    6350.6732 (a.u.)^3
     number of atoms/cell      =           33
     number of atomic types    =            3
     number of electrons       =       237.00 (up: 126.00, down: 111.00)
     number of Kohn-Sham states=          343
     kinetic-energy cutoff     =      40.0000  Ry
     charge density cutoff     =     500.0000  Ry
     convergence threshold     =      1.0E-06
     mixing beta               =       0.7000
     number of iterations used =            8  plain     mixing
     Exchange-correlation      = SLA  PW   PBE  PBE ( 1 4 3 4 0)
     EXX-fraction              =        0.00
     nstep                     =           50

     celldm(1)=  10.960412  celldm(2)=   0.000000  celldm(3)=   0.000000
     celldm(4)=   0.000000  celldm(5)=   0.000000  celldm(6)=   0.000000

     crystal axes: (cart. coord. in units of alat)
               a(1) = (   1.000000   0.000000   0.000000 )
               a(2) = (   0.000000   1.067975   0.000000 )
               a(3) = (   0.000000   0.000000   4.516251 )

     reciprocal axes: (cart. coord. in units 2 pi/alat)
               b(1) = (  1.000000  0.000000  0.000000 )
               b(2) = (  0.000000  0.936351  0.000000 )
               b(3) = (  0.000000  0.000000  0.221423 )

     PseudoPot. # 1 for O  read from file:
     /home/camp/zhonxu/pseudo/o_pbe_v1.01.uspp.F.UPF
     MD5 check sum: 2bcb18d16ea4b960afae9ec6d52f22d2
     Pseudo is Ultrasoft + core correction, Zval =  6.0
     Generated by new atomic code, or converted to UPF format
     Using radial grid of  737 points,  5 beta functions with:
                l(1) =   0
                l(2) =   0
                l(3) =   1
                l(4) =   1
                l(5) =   2
     Q(r) pseudized with  8 coefficients,  rinner =    0.900   0.900   0.900
                                                       0.900   0.900

     PseudoPot. # 2 for Cr read from file:
     /home/camp/zhonxu/pseudo/cr_pbe_v1.uspp.F.UPF
     MD5 check sum: 68b6f918d1762dccfb11451fe85b0e0e
     Pseudo is Ultrasoft + core correction, Zval = 14.0
     Generated by new atomic code, or converted to UPF format
     Using radial grid of  857 points,  6 beta functions with:
                l(1) =   0
                l(2) =   0
                l(3) =   1
                l(4) =   1
                l(5) =   2
                l(6) =   2
     Q(r) pseudized with  6 coefficients,  rinner =    1.000   1.000   1.000
                                                       1.000   1.000

     PseudoPot. # 3 for H  read from file:
     /home/camp/zhonxu/pseudo/h_pbe_v1.uspp.F.UPF
     MD5 check sum: 3408e3ff4ec8b0a4e358431e7e038a48
     Pseudo is Ultrasoft, Zval =  1.0
     Generated by new atomic code, or converted to UPF format
     Using radial grid of  615 points,  2 beta functions with:
                l(1) =   0
                l(2) =   0
     Q(r) pseudized with  8 coefficients,  rinner =    0.700

     atomic species   valence    mass     pseudopotential
        O0             6.00    15.99940     O ( 1.00)
        Cr1           14.00    51.99600     Cr( 1.00)
        H2             1.00     1.00794     H ( 1.00)

     Starting magnetic structure
     atomic species   magnetization
        O0           0.000
        Cr1          0.600
        H2           0.000

     Simplified LDA+U calculation (l_max = 2) with parameters (eV):
     atomic species    L          U    alpha       J0     beta
        Cr1            2     1.0000   0.0000   0.0000   0.0000

     No symmetry found

   Cartesian axes

     site n.     atom                  positions (alat units)
         1           O0  tau(   1) = (   0.0000000   0.0000000   1.7057880  )
         2           O0  tau(   2) = (   0.0000000   0.5339875   1.8101134  )
         3           Cr1 tau(   3) = (   0.2500000   0.5339875   2.0412099  )
         4           Cr1 tau(   4) = (   0.0000000   0.0000000   2.0263515  )
         5           O0  tau(   5) = (   0.2500000   0.8543801   2.0311839  )
         6           O0  tau(   6) = (   0.2500000   0.2135950   2.0319065  )
         7           O0  tau(   7) = (   0.0000000   0.5339875   2.2504478  )
         8           O0  tau(   8) = (   0.0000000   0.0000000   2.3617283  )
         9           Cr1 tau(   9) = (   0.2500000   0.0000000   2.5571464  )
        10           Cr1 tau(  10) = (   0.0000000   0.5339875   2.5545270  )
        11           O0  tau(  11) = (   0.2500000   0.7475825   2.5883086  )
        12           O0  tau(  12) = (   0.2500000   0.3203925   2.5986508  )
        13           O0  tau(  13) = (   0.0000000   0.0000000   2.7891463  )
        14           O0  tau(  14) = (   0.5000000   0.0000000   1.7052460  )
        15           O0  tau(  15) = (   0.5000000   0.5339875   1.8091650  )
        16           Cr1 tau(  16) = (   0.7500000   0.5339875   2.0419325  )
        17           Cr1 tau(  17) = (   0.5000000   0.0000000   2.0263063  )
        18           O0  tau(  18) = (   0.7500000   0.8543801   2.0310484  )
        19           O0  tau(  19) = (   0.7500000   0.2135950   2.0321774  )
        20           O0  tau(  20) = (   0.5000000   0.5339875   2.2541963  )
        21           O0  tau(  21) = (   0.5000000   0.0000000   2.3617283  )
        22           Cr1 tau(  22) = (   0.7500000   0.0000000   2.6331549  )
        23           Cr1 tau(  23) = (   0.5000000   0.5339875   2.6097156  )
        24           O0  tau(  24) = (   0.7500000   0.7475825   2.5944507  )
        25           O0  tau(  25) = (   0.7500000   0.3203925   2.6044767  )
        26           O0  tau(  26) = (   0.5000000   0.0000000   2.7840880  )
        27           H2  tau(  27) = (  -0.0006600   0.6808768   1.7228142  )
        28           H2  tau(  28) = (   0.4998000   0.6828846   1.7250724  )
        29           H2  tau(  29) = (   0.1568300   0.0328936   1.6463090  )
        30           H2  tau(  30) = (   0.6565800   0.0331499   1.6456315  )
        31           O0  tau(  31) = (   0.4998600   0.5715162   2.9254467  )
        32           O0  tau(  32) = (   0.5002200   0.3713883   3.0709603  )
        33           H2  tau(  33) = (   0.4998900   0.4494573   3.2222096  )

     number of k points=    20  Methfessel-Paxton smearing, width (Ry)=  0.0100
                       cart. coord. in units 2pi/alat
        k(    1) = (   0.0000000   0.0000000   0.0000000), wk =   0.0625000
        k(    2) = (   0.0000000   0.2340879   0.0000000), wk =   0.1250000
        k(    3) = (   0.0000000  -0.4681757   0.0000000), wk =   0.0625000
        k(    4) = (   0.2500000   0.0000000   0.0000000), wk =   0.1250000
        k(    5) = (   0.2500000   0.2340879   0.0000000), wk =   0.1250000
        k(    6) = (   0.2500000  -0.4681757   0.0000000), wk =   0.1250000
        k(    7) = (  -0.5000000   0.0000000   0.0000000), wk =   0.0625000
        k(    8) = (  -0.5000000   0.2340879   0.0000000), wk =   0.1250000
        k(    9) = (  -0.5000000  -0.4681757   0.0000000), wk =   0.0625000
        k(   10) = (  -0.2500000   0.2340879   0.0000000), wk =   0.1250000
        k(   11) = (   0.0000000   0.0000000   0.0000000), wk =   0.0625000
        k(   12) = (   0.0000000   0.2340879   0.0000000), wk =   0.1250000
        k(   13) = (   0.0000000  -0.4681757   0.0000000), wk =   0.0625000
        k(   14) = (   0.2500000   0.0000000   0.0000000), wk =   0.1250000
        k(   15) = (   0.2500000   0.2340879   0.0000000), wk =   0.1250000
        k(   16) = (   0.2500000  -0.4681757   0.0000000), wk =   0.1250000
        k(   17) = (  -0.5000000   0.0000000   0.0000000), wk =   0.0625000
        k(   18) = (  -0.5000000   0.2340879   0.0000000), wk =   0.1250000
        k(   19) = (  -0.5000000  -0.4681757   0.0000000), wk =   0.0625000
        k(   20) = (  -0.2500000   0.2340879   0.0000000), wk =   0.1250000

     Largest allocated arrays     est. size (Mb)     dimensions
     Largest temporary arrays     est. size (Mb)     dimensions

     Check: negative/imaginary core charge=   -0.000012    0.000000

     Initial potential from superposition of free atoms
     Check: negative starting charge=(component1):   -0.001299
     Check: negative starting charge=(component2):   -0.000449

     starting charge  228.99983, renormalised to  237.00000

     negative rho (up, down):  0.134E-02 0.465E-03
     Number of +U iterations with fixed ns =  0
     Starting occupations:
 --- enter write_ns ---
 LDA+U parameters:
U( 2)     =  1.00000000
alpha( 2) =  0.00000000
atom    3   Tr[ns(na)] (up, down, total) =   5.00000  0.00000  5.00000
   spin  1
    eigenvalues:
  1.000  1.000  1.000  1.000  1.000
    eigenvectors:
  1.000  0.000  0.000  0.000  0.000
  0.000  1.000  0.000  0.000  0.000
  0.000  0.000  1.000  0.000  0.000
  0.000  0.000  0.000  1.000  0.000
  0.000  0.000  0.000  0.000  1.000
    occupations:
  1.000  0.000  0.000  0.000  0.000
  0.000  1.000  0.000  0.000  0.000
  0.000  0.000  1.000  0.000  0.000
  0.000  0.000  0.000  1.000  0.000
  0.000  0.000  0.000  0.000  1.000
   spin  2
    eigenvalues:
  0.000  0.000  0.000  0.000  0.000
    eigenvectors:
  1.000  0.000  0.000  0.000  0.000
  0.000  1.000  0.000  0.000  0.000
  0.000  0.000  1.000  0.000  0.000
  0.000  0.000  0.000  1.000  0.000
  0.000  0.000  0.000  0.000  1.000
    occupations:
  0.000  0.000  0.000  0.000  0.000
  0.000  0.000  0.000  0.000  0.000
  0.000  0.000  0.000  0.000  0.000
  0.000  0.000  0.000  0.000  0.000
  0.000  0.000  0.000  0.000  0.000
atomic mag. moment =     5.000000
atom    4   Tr[ns(na)] (up, down, total) =   5.00000  0.00000  5.00000
   spin  1
    eigenvalues:
  1.000  1.000  1.000  1.000  1.000
    eigenvectors:
  1.000  0.000  0.000  0.000  0.000
  0.000  1.000  0.000  0.000  0.000
  0.000  0.000  1.000  0.000  0.000
  0.000  0.000  0.000  1.000  0.000
  0.000  0.000  0.000  0.000  1.000
    occupations:
  1.000  0.000  0.000  0.000  0.000
  0.000  1.000  0.000  0.000  0.000
  0.000  0.000  1.000  0.000  0.000
  0.000  0.000  0.000  1.000  0.000
  0.000  0.000  0.000  0.000  1.000
   spin  2
    eigenvalues:
  0.000  0.000  0.000  0.000  0.000
    eigenvectors:
  1.000  0.000  0.000  0.000  0.000
  0.000  1.000  0.000  0.000  0.000
  0.000  0.000  1.000  0.000  0.000
  0.000  0.000  0.000  1.000  0.000
  0.000  0.000  0.000  0.000  1.000
    occupations:
  0.000  0.000  0.000  0.000  0.000
  0.000  0.000  0.000  0.000  0.000
  0.000  0.000  0.000  0.000  0.000
  0.000  0.000  0.000  0.000  0.000
  0.000  0.000  0.000  0.000  0.000
atomic mag. moment =     5.000000
[...]
  0.029  0.003  0.001  0.976 -0.000
  0.002  0.000 -0.001 -0.000  0.482
   spin  2
    eigenvalues:
  0.123  0.161  0.212  0.383  0.406
    eigenvectors:
  0.002  0.004  0.000  0.001  0.993
  0.002  0.957  0.038  0.000  0.004
  0.000  0.038  0.962  0.000  0.000
  0.996  0.002  0.000  0.000  0.002
  0.000  0.000  0.000  0.999  0.001
    occupations:
  0.404  0.015  0.003 -0.013  0.001
  0.015  0.164 -0.010  0.001 -0.000
  0.003 -0.010  0.210  0.001 -0.000
 -0.013  0.001  0.001  0.124  0.000
  0.001 -0.000 -0.000  0.000  0.383
atomic mag. moment =     2.122247
atom    9   Tr[ns(na)] (up, down, total) =   3.42025  1.31123  4.73148
   spin  1
    eigenvalues:
  0.496  0.507  0.624  0.818  0.975
    eigenvectors:
  0.004  0.165  0.000  0.000  0.830
  0.975  0.025  0.000  0.000  0.000
  0.000  0.001  0.990  0.008  0.000
  0.020  0.809  0.001  0.000  0.170
  0.000  0.000  0.009  0.991  0.000
    occupations:
  0.895  0.001 -0.001 -0.176 -0.001
  0.001  0.496  0.002  0.001  0.000
 -0.001  0.002  0.625 -0.004 -0.018
 -0.176  0.001 -0.004  0.586  0.003
 -0.001  0.000 -0.018  0.003  0.817
   spin  2
    eigenvalues:
  0.144  0.180  0.199  0.394  0.396
    eigenvectors:
  0.819  0.000  0.000  0.180  0.001
  0.000  0.000  0.000  0.007  0.993
  0.000  0.018  0.982  0.000  0.000
  0.181  0.000  0.000  0.813  0.006
  0.000  0.982  0.018  0.000  0.000
    occupations:
  0.189  0.001  0.001  0.096 -0.000
  0.001  0.396 -0.000 -0.001  0.000
  0.001 -0.000  0.198  0.003  0.003
  0.096 -0.001  0.003  0.348 -0.000
 -0.000  0.000  0.003 -0.000  0.180
atomic mag. moment =     2.109017
atom   10   Tr[ns(na)] (up, down, total) =   3.53311  1.14382  4.67693
   spin  1
    eigenvalues:
  0.472  0.499  0.709  0.876  0.977
    eigenvectors:
  0.000  0.996  0.000  0.000  0.004
  0.000  0.000  0.000  0.968  0.031
  0.000  0.000  1.000  0.000  0.000
  0.000  0.004  0.000  0.031  0.965
  0.999  0.000  0.000  0.000  0.000
    occupations:
  0.500 -0.004  0.001  0.029  0.000
 -0.004  0.879 -0.001 -0.017 -0.008
  0.001 -0.001  0.709  0.001  0.004
  0.029 -0.017  0.001  0.972  0.000
  0.000 -0.008  0.004  0.000  0.472
   spin  2
    eigenvalues:
  0.114  0.169  0.182  0.312  0.367
    eigenvectors:
  0.005  0.000  0.000  0.995  0.000
  0.001  0.997  0.001  0.000  0.000
  0.000  0.001  0.998  0.000  0.000
  0.994  0.001  0.000  0.005  0.000
  0.000  0.000  0.000  0.000  0.999
    occupations:
  0.311 -0.000 -0.001 -0.014  0.000
 -0.000  0.169 -0.000  0.002  0.004
 -0.001 -0.000  0.182 -0.001  0.003
 -0.014  0.002 -0.001  0.115 -0.000
  0.000  0.004  0.003 -0.000  0.367
atomic mag. moment =     2.389295
atom   16   Tr[ns(na)] (up, down, total) =   3.48556  1.19944  4.68500
   spin  1
    eigenvalues:
  0.460  0.506  0.668  0.879  0.973
    eigenvectors:
  0.005  0.219  0.002  0.000  0.774
  0.985  0.015  0.000  0.000  0.000
  0.000  0.000  0.974  0.024  0.002
  0.010  0.766  0.001  0.000  0.223
  0.000  0.000  0.023  0.976  0.000
    occupations:
  0.867  0.009  0.014 -0.194  0.003
  0.009  0.461  0.002  0.001 -0.006
  0.014  0.002  0.673 -0.006 -0.032
 -0.194  0.001 -0.006  0.610 -0.001
  0.003 -0.006 -0.032 -0.001  0.874
   spin  2
    eigenvalues:
  0.119  0.147  0.182  0.364  0.387
    eigenvectors:
  0.764  0.001  0.013  0.017  0.206
  0.000  0.003  0.000  0.926  0.071
  0.014  0.034  0.951  0.000  0.000
  0.222  0.000  0.001  0.055  0.722
  0.000  0.962  0.035  0.002  0.000
    occupations:
  0.179  0.002 -0.004  0.111 -0.001
  0.002  0.365 -0.001  0.006  0.011
 -0.004 -0.001  0.180  0.008  0.006
  0.111  0.006  0.008  0.326  0.000
 -0.001  0.011  0.006  0.000  0.148
atomic mag. moment =     2.286118
atom   17   Tr[ns(na)] (up, down, total) =   3.41441  1.27433  4.68874
   spin  1
    eigenvalues:
  0.480  0.524  0.604  0.826  0.980
    eigenvectors:
  0.001  0.994  0.001  0.001  0.003
  0.000  0.001  0.014  0.985  0.000
  0.001  0.001  0.985  0.014  0.000
  0.000  0.003  0.000  0.000  0.997
  0.998  0.001  0.001  0.000  0.000
    occupations:
  0.526 -0.011 -0.003  0.025  0.001
 -0.011  0.823  0.026  0.001 -0.000
 -0.003  0.026  0.607  0.001  0.003
  0.025  0.001  0.001  0.979 -0.000
  0.001 -0.000  0.003 -0.000  0.480
   spin  2
    eigenvalues:
  0.122  0.160  0.209  0.380  0.405
    eigenvectors:
  0.003  0.005  0.000  0.001  0.992
  0.002  0.953  0.041  0.000  0.005
  0.000  0.041  0.959  0.000  0.000
  0.996  0.002  0.000  0.000  0.002
  0.000  0.000  0.000  0.999  0.001
    occupations:
  0.403  0.017  0.004 -0.014  0.001
  0.017  0.163 -0.009  0.001 -0.000
  0.004 -0.009  0.207  0.001 -0.000
 -0.014  0.001  0.001  0.123  0.000
  0.001 -0.000 -0.000  0.000  0.380
atomic mag. moment =     2.140075
atom   22   Tr[ns(na)] (up, down, total) =   2.96274  1.89030  4.85303
   spin  1
    eigenvalues:
  0.508  0.536  0.550  0.633  0.737
    eigenvectors:
  0.992  0.000  0.008  0.000  0.000
  0.000  1.000  0.000  0.000  0.000
  0.000  0.000  0.000  0.026  0.973
  0.008  0.000  0.992  0.000  0.000
  0.000  0.000  0.000  0.974  0.026
    occupations:
  0.508 -0.001  0.003  0.004  0.000
 -0.001  0.536  0.001 -0.000 -0.000
  0.003  0.001  0.734 -0.002  0.017
  0.004 -0.000 -0.002  0.550 -0.000
  0.000 -0.000  0.017 -0.000  0.635
   spin  2
    eigenvalues:
  0.268  0.330  0.348  0.470  0.475
    eigenvectors:
  0.000  0.001  0.995  0.004  0.001
  0.000  0.000  0.000  0.008  0.992
  0.996  0.004  0.000  0.000  0.000
  0.000  0.000  0.004  0.988  0.008
  0.004  0.995  0.001  0.000  0.000
    occupations:
  0.349 -0.002 -0.000  0.008 -0.001
 -0.002  0.475 -0.000 -0.000  0.001
 -0.000 -0.000  0.268  0.002 -0.004
  0.008 -0.000  0.002  0.469  0.001
 -0.001  0.001 -0.004  0.001  0.330
atomic mag. moment =     1.072443
atom   23   Tr[ns(na)] (up, down, total) =   3.49151  1.18661  4.67812
   spin  1
    eigenvalues:
  0.472  0.496  0.678  0.886  0.960
    eigenvectors:
  0.000  0.997  0.002  0.001  0.000
  0.001  0.002  0.993  0.000  0.004
  0.000  0.001  0.000  0.999  0.000
  0.000  0.000  0.004  0.000  0.995
  0.999  0.000  0.001  0.000  0.000
    occupations:
  0.496  0.008  0.009 -0.003 -0.001
  0.008  0.678  0.000  0.019 -0.005
  0.009  0.000  0.885 -0.001 -0.004
 -0.003  0.019 -0.001  0.959 -0.001
 -0.001 -0.005 -0.004 -0.001  0.472
   spin  2
    eigenvalues:
  0.117  0.131  0.198  0.364  0.376
    eigenvectors:
  0.003  0.000  0.000  0.996  0.001
  0.001  0.000  0.999  0.000  0.000
  0.008  0.992  0.000  0.000  0.000
  0.988  0.008  0.001  0.003  0.000
  0.000  0.000  0.000  0.001  0.999
    occupations:
  0.363  0.001 -0.003 -0.013 -0.000
  0.001  0.198 -0.000 -0.003  0.002
 -0.003 -0.000  0.131  0.001 -0.004
 -0.013 -0.003  0.001  0.118  0.000
 -0.000  0.002 -0.004  0.000  0.376
atomic mag. moment =     2.304894
N of occupied +U levels =  37.6898023
 --- exit write_ns ---

 ------ SPIN UP ------------

[...]

 ------ SPIN DOWN ----------

[...]

          k = 0.2500-0.4682 0.0000 ( 27150 PWs)   bands (ev):

[...]

          k =-0.2500 0.2341 0.0000 ( 27132 PWs)   bands (ev):

   -73.7544 -72.1215 -72.1091 -72.0790 -72.0269 -71.9893 -71.9320 -71.9065
   -45.4130 -45.0525 -44.8271 -43.8055 -43.7301 -43.7077 -43.6838 -43.5595
   -43.5492 -43.5238 -43.4997 -43.4685 -43.4339 -43.3693 -43.3423 -43.3185
   -43.2853 -43.2580 -43.2438 -43.1725 -43.1097 -43.0997 -43.0470 -42.9647
   -24.2230 -20.6431 -20.1907 -20.0954 -19.9833 -19.8530 -19.5367 -19.4621
   -19.3911 -19.3239 -19.1992 -19.1423 -18.9953 -18.9858 -18.9679 -18.8973
   -18.7738 -18.7344 -18.6480 -17.5205  -9.1505  -8.2056  -7.9452  -7.6827
    -7.6111  -7.5463  -7.3834  -7.0905  -7.0203  -6.9776  -6.8857  -6.8400
    -6.7714  -6.6247  -6.5612  -6.4419  -6.3274  -6.2996  -6.2042  -6.1417
    -5.9777  -5.8684  -5.8220  -5.7337  -5.6824  -5.4120  -5.3121  -5.2163
    -5.1242  -5.0155  -4.8566  -4.7851  -4.7482  -4.6907  -4.6694  -4.5879
    -4.4677  -4.4241  -4.3001  -4.2703  -4.1224  -3.9917  -3.8457  -3.7851
    -3.6754  -3.5775  -3.5289  -3.4430  -3.4042  -3.3363  -3.2806  -3.1442
    -3.0047  -2.9674  -2.8492  -2.6906  -2.5668  -2.3306  -2.0558  -0.0470
     0.1210   0.1417   0.5495   0.5648   0.6822   0.7490   0.8388   0.8944
     0.9528   1.0496   1.0816   1.1798   1.2162   1.3159   1.3826   1.4213
     1.4961   1.5403   1.5755   1.6067   1.7581   1.8353   1.8838   2.0109
     2.0751   2.4110   2.5209   2.6861   2.9632   3.0981   3.1894   3.2252
     3.3389   3.4018   3.5353   3.6054   3.6651   3.9030   3.9987   4.1284
     4.1583   4.3036   4.4110   4.8828   5.3235   5.5194   5.7984   6.0701
     6.2330   6.2919   6.3623   6.5358   6.8101   6.9299   7.1500   7.4821
     7.5723   7.7037   7.9124   8.0862   8.3233   8.3721   8.4852   8.6286
     8.7633   8.9247   9.1426   9.2475   9.4395   9.5112   9.5769   9.7765
     9.9125   9.9713  10.0617  10.1272  10.1660  10.3892  10.4689  10.4933
    10.6129  10.6945  10.8171  10.9345  11.0598  11.1517  11.2688  11.3332
    11.3972  11.5354  11.6514  11.7658  11.8343  11.9193  12.0523  12.1001
    12.1661  12.3303  12.3688  12.4044  12.4803  12.5698  12.7013  12.7254
    12.8569  12.8724  13.0200  13.0807  13.1904  13.2811  13.3455  13.4313
    13.4960  13.5470  13.6120  13.6985  13.7866  13.8474  13.9449  14.0201
    14.1410  14.1750  14.2456  14.3016  14.3533  14.4561  14.4800  14.5725
    14.7579  14.8326  14.8828  14.9716  15.0916  15.1637  15.2359  15.2803
    15.4132  15.4549  15.5830  15.6482  15.7019  15.7801  15.8597  15.9361
    15.9720  16.0175  16.0611  16.1533  16.2029  16.2432  16.3184  16.3778
    16.4662  16.5229  16.6074  16.7196  16.7811  16.8316  16.9154  16.9985
    17.0487  17.1297  17.1892  17.2480  17.3230  17.3631  17.4610  17.4812
    17.5397  17.5850  17.7314  17.7714  17.8163  17.8847  17.9487  18.0098
    18.0620  18.1713  18.2274  18.2973  18.4023  18.4729  18.5178  18.5766
    18.6014  18.6920  18.7750  18.8610  18.9152  18.9969  19.0210  19.0855
    19.1589  19.2900  19.3784  19.4179  19.4397  19.5152  19.5643  19.6710
    19.7081  19.8004  19.8557  19.9340  20.0024  20.1460  20.2005  20.2955
    20.3303  20.4043  20.5166  20.5803  20.6894  20.8280  20.8721  20.9506
    21.0367  21.1095  21.1695  21.2283  21.2887  21.3598  21.4163  21.5104
    21.5965  21.6893  21.8088  21.8490  21.9297  21.9731  22.0371

     the spin up/dw Fermi energies are    -0.9985   -1.9391 ev

!    total energy              =   -2058.57222414 Ry
     Harris-Foulkes estimate   =   -2058.57222415 Ry
     estimated scf accuracy    <          3.8E-09 Ry

     The total energy is the sum of the following terms:

     one-electron contribution =  -24584.73537901 Ry
     hartree contribution      =   12318.31945345 Ry
     xc contribution           =    -329.73285567 Ry
     ewald contribution        =   10537.04479428 Ry
     Hubbard energy            =       0.53166451 Ry
     smearing contrib. (-TS)   =       0.00009830 Ry

     total magnetization       =    15.00 Bohr mag/cell
     absolute magnetization    =    19.34 Bohr mag/cell

     convergence has been achieved in  20 iterations

     Forces acting on atoms (Ry/au):

     negative rho (up, down):  0.458E-02 0.168E-02
     atom    1 type  1   force =    -0.00328207   -0.01204775    0.00018766
     atom    2 type  1   force =    -0.00041901    0.00753147   -0.00005201
     atom    3 type  2   force =     0.04532135   -0.00351535   -0.00083772
     atom    4 type  2   force =    -0.00208141    0.00840704    0.00026752
     atom    5 type  1   force =    -0.00072541    0.00960917    0.00006304
     atom    6 type  1   force =    -0.00213043   -0.00707429    0.00006847
     atom    7 type  1   force =     0.00009895   -0.00457371   -0.00008469
     atom    8 type  1   force =    -0.01269932    0.00242239    0.00003895
     atom    9 type  2   force =     0.00712909   -0.00199032   -0.00027859
     atom   10 type  2   force =     0.00605509    0.00278824   -0.00020056
     atom   11 type  1   force =    -0.02847970   -0.02676204    0.00002699
     atom   12 type  1   force =    -0.02056103    0.03331459    0.00000230
     atom   13 type  1   force =    -0.04841167   -0.00312833    0.00037013
     atom   14 type  1   force =    -0.00510986   -0.01237961    0.00001763
     atom   15 type  1   force =     0.00027192    0.00744624   -0.00006185
     atom   16 type  2   force =    -0.04757307   -0.00267828   -0.00070734
     atom   17 type  2   force =     0.00571854    0.00812663    0.00023129
     atom   18 type  1   force =     0.00487221    0.00862187    0.00005357
     atom   19 type  1   force =     0.00323146   -0.00736437   -0.00000105
     atom   20 type  1   force =     0.00197568   -0.00374572   -0.00073368
     atom   21 type  1   force =     0.00767613    0.00359769    0.00007206
     atom   22 type  2   force =     0.01675911   -0.00507392    0.00029243
     atom   23 type  2   force =    -0.00543101   -0.00505105    0.00068953
     atom   24 type  1   force =     0.02340934   -0.01815564    0.00007288
     atom   25 type  1   force =     0.01594315    0.03046545    0.00013935
     atom   26 type  1   force =     0.03916657   -0.00832705    0.00025384
     atom   27 type  3   force =     0.00003185   -0.00025142   -0.00011143
     atom   28 type  3   force =    -0.00003846   -0.00024080   -0.00012185
     atom   29 type  3   force =     0.00003325   -0.00023759    0.00027508
     atom   30 type  3   force =     0.00000797   -0.00017269    0.00013665
     atom   31 type  1   force =    -0.00074840    0.00016298    0.00080855
     atom   32 type  1   force =    -0.00017687    0.00002339   -0.00087331
     atom   33 type  3   force =     0.00016607    0.00025277   -0.00000385

     Total force =     0.002302     Total SCF correction =     0.000139

     entering subroutine stress ...

     negative rho (up, down):  0.458E-02 0.168E-02
          total   stress  (Ry/bohr**3)                   (kbar)     P=    5.67
   0.00003077   0.00000003   0.00000405          4.53      0.00      0.60
   0.00000003   0.00011713   0.00000400          0.00     17.23      0.59
   0.00000405   0.00000400  -0.00003232          0.60      0.59     -4.75

     bfgs converged in   7 scf cycles and   6 bfgs steps
     (criteria: energy < 0.10E-03, force < 0.10E-02)

     End of BFGS Geometry Optimization

     Final energy   =   -2058.5722241392 Ry
Begin final coordinates

ATOMIC_POSITIONS (crystal)
O0       0.000000000   0.000000000   0.377600081    0   0   1
O0       0.000000000   0.500000000   0.400383681    0   0   1
Cr1      0.250000000   0.500000000   0.451761309    0   0   1
Cr1      0.000000000   0.000000000   0.448776462    0   0   1
O0       0.250000000   0.800000000   0.449641084    0   0   1
O0       0.250000000   0.200000000   0.449802769    0   0   1
O0       0.000000000   0.500000000   0.498344486    0   0   1
O0       0.000000000   0.000000000   0.522965650    0   0   1
Cr1      0.250000000   0.000000000   0.566867423    0   0   1
Cr1      0.000000000   0.500000000   0.565770381    0   0   1
O0       0.250000000   0.700000000   0.573150015    0   0   1
O0       0.250000000   0.300000000   0.575297148    0   0   1
O0       0.000000000   0.000000000   0.617607769    0   0   1
O0       0.500000000   0.000000000   0.377410154    0   0   1
O0       0.500000000   0.500000000   0.400355870    0   0   1
Cr1      0.750000000   0.500000000   0.451821058    0   0   1
Cr1      0.500000000   0.000000000   0.448672846    0   0   1
O0       0.750000000   0.800000000   0.449631506    0   0   1
O0       0.750000000   0.200000000   0.449856342    0   0   1
O0       0.500000000   0.500000000   0.499564559    0   0   1
O0       0.500000000   0.000000000   0.522909950    0   0   1
Cr1      0.750000000   0.000000000   0.582859575    0   0   1
Cr1      0.500000000   0.500000000   0.577270336    0   0   1
O0       0.750000000   0.700000000   0.574781670    0   0   1
O0       0.750000000   0.300000000   0.576851609    0   0   1
O0       0.500000000   0.000000000   0.616654645    0   0   1
H2      -0.000634986   0.638098452   0.381300586
H2       0.499765122   0.639704708   0.381881527
H2       0.157329690   0.030525183   0.364645058
H2       0.657070767   0.030893035   0.364458546
O0       0.499081420   0.536494066   0.648258483
O0       0.499879733   0.349141401   0.679900290
H2       0.500155606   0.419558358   0.713727133
End final coordinates

     General routines

     Parallel routines
     Hubbard U routines

   This run was terminated on:  16:14:18   2Jun2014

   JOB DONE.
Running PBS batch system epilogue script
Job id: 373411.audhumbla.fysik.dtu.dk
Username: zhonxu
Groupname: campgst
Jobname: CrO2/Eads-2-layers/OOH-U-1.0
Sessionid: 3369
Queuename: verylong
Accounting:
This job has allocated the following 16 nodes:
b061 b061 b061 b061 b061 b061 b061 b061 b036 b036 b036 b036 b036 b036 b036 b036
Finished epilogue job 373411.audhumbla.fysik.dtu.dk for zhonxu