     Program PWSCF v.5.0.2 (svn rev. 9656) starts on  8Aug2014 at 17:24:17

     Current dimensions of program PWSCF are:
     Max number of different atomic species (ntypx) = 10
     Max number of k-points (npk) =  40000
     Max angular momentum in pseudopotentials (lmaxx) =  3
     Reading input from pwscf.in
Warning: card &CELL ignored
Warning: card / ignored

     Subspace diagonalization in iterative solution of the eigenvalue problem:
     a serial algorithm will be used

     bravais-lattice index     =            0
     lattice parameter (alat)  =      11.2250  a.u.
     unit-cell volume          =    7005.5484 (a.u.)^3
     number of atoms/cell      =           33
     number of atomic types    =            3
     number of electrons       =       221.00
     number of Kohn-Sham states=          319
     kinetic-energy cutoff     =      40.0000  Ry
     charge density cutoff     =     500.0000  Ry
     convergence threshold     =      1.0E-06
     mixing beta               =       0.7000
     number of iterations used =            8  plain     mixing
     Exchange-correlation      = SLA  PW   PBE  PBE ( 1 4 3 4 0)
     EXX-fraction              =        0.00
     nstep                     =           50

     celldm(1)=  11.224973  celldm(2)=   0.000000  celldm(3)=   0.000000
     celldm(4)=   0.000000  celldm(5)=   0.000000  celldm(6)=   0.000000

     crystal axes: (cart. coord. in units of alat)
               a(1) = (   1.000000   0.000000   0.000000 )
               a(2) = (   0.000000   1.107086   0.000000 )
               a(3) = (   0.000000   0.000000   4.474090 )

     reciprocal axes: (cart. coord. in units 2 pi/alat)
               b(1) = (  1.000000  0.000000  0.000000 )
               b(2) = (  0.000000  0.903272  0.000000 )
               b(3) = (  0.000000  0.000000  0.223509 )

     PseudoPot. # 1 for O  read from file:
     /home-research/zhongnanxu/gbrv_espresso_pseudo_v1.01/o_pbe_v1.01.uspp.F.UPF
     MD5 check sum: 2bcb18d16ea4b960afae9ec6d52f22d2
     Pseudo is Ultrasoft + core correction, Zval =  6.0
     Generated by new atomic code, or converted to UPF format
     Using radial grid of  737 points,  5 beta functions with:
                l(1) =   0
                l(2) =   0
                l(3) =   1
                l(4) =   1
                l(5) =   2
     Q(r) pseudized with  8 coefficients,  rinner =    0.900   0.900   0.900
                                                       0.900   0.900

     PseudoPot. # 2 for Ti read from file:
     /home-research/zhongnanxu/gbrv_espresso_pseudo_v1.01/ti_pbe_v1.uspp.F.UPF
     MD5 check sum: bcc8f6961b3b91f0cac3ca967d22d0fb
     Pseudo is Ultrasoft + core correction, Zval = 12.0
     Generated by new atomic code, or converted to UPF format
     Using radial grid of  851 points,  6 beta functions with:
                l(1) =   0
                l(2) =   0
                l(3) =   1
                l(4) =   1
                l(5) =   2
                l(6) =   2
     Q(r) pseudized with  6 coefficients,  rinner =    1.000   1.000   1.000
                                                       1.000   1.000

     PseudoPot. # 3 for H  read from file:
     /home-research/zhongnanxu/gbrv_espresso_pseudo_v1.01/h_pbe_v1.uspp.F.UPF
     MD5 check sum: 3408e3ff4ec8b0a4e358431e7e038a48
     Pseudo is Ultrasoft, Zval =  1.0
     Generated by new atomic code, or converted to UPF format
     Using radial grid of  615 points,  2 beta functions with:
                l(1) =   0
                l(2) =   0
     Q(r) pseudized with  8 coefficients,  rinner =    0.700

     atomic species   valence    mass     pseudopotential
        O0             6.00    15.99940     O ( 1.00)
        Ti1           12.00    47.88000     Ti( 1.00)
        H2             1.00     1.00794     H ( 1.00)

     Simplified LDA+U calculation (l_max = 2) with parameters (eV):
     atomic species    L          U    alpha       J0     beta
        Ti1            2     5.0000   0.0000   0.0000   0.0000

     No symmetry found

   Cartesian axes

     site n.     atom                  positions (alat units)
         1           O0  tau(   1) = (   0.0000000   0.0000000   1.6912954  )
         2           O0  tau(   2) = (   0.0000000   0.5535432   1.7865040  )
         3           Ti1 tau(   3) = (   0.2500000   0.5535432   2.0182619  )
         4           Ti1 tau(   4) = (   0.0000000   0.0000000   2.0215280  )
         5           O0  tau(   5) = (   0.2500000   0.8967400   2.0132062  )
         6           O0  tau(   6) = (   0.2500000   0.2103464   2.0173223  )
         7           O0  tau(   7) = (   0.0000000   0.5535432   2.2297074  )
         8           O0  tau(   8) = (   0.0000000   0.0000000   2.3520737  )
         9           Ti1 tau(   9) = (   0.2500000   0.0000000   2.5974328  )
        10           Ti1 tau(  10) = (   0.0000000   0.5535432   2.5411040  )
        11           O0  tau(  11) = (   0.2500000   0.7638896   2.5876345  )
        12           O0  tau(  12) = (   0.2500000   0.3431968   2.5923323  )
        13           O0  tau(  13) = (   0.0000000   0.0000000   2.7826601  )
        14           O0  tau(  14) = (   0.5000000   0.0000000   1.6946510  )
        15           O0  tau(  15) = (   0.5000000   0.5535432   1.7849381  )
        16           Ti1 tau(  16) = (   0.7500000   0.5535432   2.0183066  )
        17           Ti1 tau(  17) = (   0.5000000   0.0000000   2.0277470  )
        18           O0  tau(  18) = (   0.7500000   0.8967400   2.0129377  )
        19           O0  tau(  19) = (   0.7500000   0.2103464   2.0175013  )
        20           O0  tau(  20) = (   0.5000000   0.5535432   2.2179405  )
        21           O0  tau(  21) = (   0.5000000   0.0000000   2.3528791  )
        22           Ti1 tau(  22) = (   0.7500000   0.0000000   2.5974328  )
        23           Ti1 tau(  23) = (   0.5000000   0.5535432   2.6181478  )
        24           O0  tau(  24) = (   0.7500000   0.7638896   2.5875898  )
        25           O0  tau(  25) = (   0.7500000   0.3431968   2.5922429  )
        26           O0  tau(  26) = (   0.5000000   0.0000000   2.7811837  )
        27           H2  tau(  27) = (  -0.0004600   0.6930693   1.6949194  )
        28           H2  tau(  28) = (   0.4997200   0.6918293   1.6916086  )
        29           H2  tau(  29) = (   0.1490000   0.0365781   1.6268238  )
        30           H2  tau(  30) = (   0.6482800   0.0381834   1.6297319  )
        31           O0  tau(  31) = (   0.5003100   0.5833902   2.9430115  )
        32           O0  tau(  32) = (   0.4991200   0.3876242   3.0783974  )
        33           H2  tau(  33) = (   0.5003600   0.4575034   3.2295322  )

     number of k points=    10  Methfessel-Paxton smearing, width (Ry)=  0.0100
                       cart. coord. in units 2pi/alat
        k(    1) = (   0.0000000   0.0000000   0.0000000), wk =   0.1250000
        k(    2) = (   0.0000000   0.2258180   0.0000000), wk =   0.2500000
        k(    3) = (   0.0000000  -0.4516359   0.0000000), wk =   0.1250000
        k(    4) = (   0.2500000   0.0000000   0.0000000), wk =   0.2500000
        k(    5) = (   0.2500000   0.2258180   0.0000000), wk =   0.2500000
        k(    6) = (   0.2500000  -0.4516359   0.0000000), wk =   0.2500000
        k(    7) = (  -0.5000000   0.0000000   0.0000000), wk =   0.1250000
        k(    8) = (  -0.5000000   0.2258180   0.0000000), wk =   0.2500000
        k(    9) = (  -0.5000000  -0.4516359   0.0000000), wk =   0.1250000
        k(   10) = (  -0.2500000   0.2258180   0.0000000), wk =   0.2500000

     Largest allocated arrays     est. size (Mb)     dimensions
     Largest temporary arrays     est. size (Mb)     dimensions

     Check: negative/imaginary core charge=   -0.000006    0.000000

     Initial potential from superposition of free atoms
     Check: negative starting charge=   -0.102033

     starting charge  212.99957, renormalised to  221.00000

     negative rho (up, down):  0.106E+00 0.000E+00
     Number of +U iterations with fixed ns =  0
     Starting occupations:
 --- enter write_ns ---
 LDA+U parameters:
U( 2)     =  5.00000000
alpha( 2) =  0.00000000
atom    3   Tr[ns(na)] =   2.00000
    eigenvalues:
  0.200  0.200  0.200  0.200  0.200
    eigenvectors:
  1.000  0.000  0.000  0.000  0.000
  0.000  1.000  0.000  0.000  0.000
  0.000  0.000  1.000  0.000  0.000
  0.000  0.000  0.000  1.000  0.000
  0.000  0.000  0.000  0.000  1.000
    occupations:
  0.200  0.000  0.000  0.000  0.000
  0.000  0.200  0.000  0.000  0.000
  0.000  0.000  0.200  0.000  0.000
  0.000  0.000  0.000  0.200  0.000
  0.000  0.000  0.000  0.000  0.200
atom    4   Tr[ns(na)] =   2.00000
    eigenvalues:
  0.200  0.200  0.200  0.200  0.200
    eigenvectors:
  1.000  0.000  0.000  0.000  0.000
  0.000  1.000  0.000  0.000  0.000
  0.000  0.000  1.000  0.000  0.000
  0.000  0.000  0.000  1.000  0.000
  0.000  0.000  0.000  0.000  1.000
    occupations:
  0.200  0.000  0.000  0.000  0.000
  0.000  0.200  0.000  0.000  0.000
  0.000  0.000  0.200  0.000  0.000
  0.000  0.000  0.000  0.200  0.000
  0.000  0.000  0.000  0.000  0.200
atom    9   Tr[ns(na)] =   2.00000
    eigenvalues:
  0.200  0.200  0.200  0.200  0.200
    eigenvectors:
  1.000  0.000  0.000  0.000  0.000
  0.000  1.000  0.000  0.000  0.000
  0.000  0.000  1.000  0.000  0.000
  0.000  0.000  0.000  1.000  0.000
  0.000  0.000  0.000  0.000  1.000
    occupations:
  0.200  0.000  0.000  0.000  0.000
  0.000  0.200  0.000  0.000  0.000
  0.000  0.000  0.200  0.000  0.000
  0.000  0.000  0.000  0.200  0.000
  0.000  0.000  0.000  0.000  0.200
atom   10   Tr[ns(na)] =   2.00000
    eigenvalues:
  0.200  0.200  0.200  0.200  0.200
    eigenvectors:
  1.000  0.000  0.000  0.000  0.000
  0.000  1.000  0.000  0.000  0.000
  0.000  0.000  1.000  0.000  0.000
  0.000  0.000  0.000  1.000  0.000
  0.000  0.000  0.000  0.000  1.000
    occupations:
  0.200  0.000  0.000  0.000  0.000
  0.000  0.200  0.000  0.000  0.000
  0.000  0.000  0.200  0.000  0.000
  0.000  0.000  0.000  0.200  0.000
  0.000  0.000  0.000  0.000  0.200
atom   16   Tr[ns(na)] =   2.00000
    eigenvalues:
  0.200  0.200  0.200  0.200  0.200
    eigenvectors:
  1.000  0.000  0.000  0.000  0.000
  0.000  1.000  0.000  0.000  0.000
  0.000  0.000  1.000  0.000  0.000
  0.000  0.000  0.000  1.000  0.000
  0.000  0.000  0.000  0.000  1.000
    occupations:
  0.200  0.000  0.000  0.000  0.000
  0.000  0.200  0.000  0.000  0.000
  0.000  0.000  0.200  0.000  0.000
  0.000  0.000  0.000  0.200  0.000
  0.000  0.000  0.000  0.000  0.200
atom   17   Tr[ns(na)] =   2.00000
    eigenvalues:
  0.200  0.200  0.200  0.200  0.200
    eigenvectors:
  1.000  0.000  0.000  0.000  0.000
  0.000  1.000  0.000  0.000  0.000
  0.000  0.000  1.000  0.000  0.000
  0.000  0.000  0.000  1.000  0.000
  0.000  0.000  0.000  0.000  1.000
    occupations:
  0.200  0.000  0.000  0.000  0.000
  0.000  0.200  0.000  0.000  0.000
  0.000  0.000  0.200  0.000  0.000
  0.000  0.000  0.000  0.200  0.000
  0.000  0.000  0.000  0.000  0.200
atom   22   Tr[ns(na)] =   2.00000
    eigenvalues:
  0.200  0.200  0.200  0.200  0.200
    eigenvectors:
[...]
  0.106 -0.010  0.007  0.362 -0.001
  0.001  0.013 -0.008 -0.001  0.162
atom    4   Tr[ns(na)] =   2.74972
    eigenvalues:
  0.142  0.171  0.190  0.429  0.442
    eigenvectors:
  0.007  0.003  0.000  0.000  0.990
  0.002  0.885  0.110  0.000  0.003
  0.001  0.109  0.889  0.000  0.000
  0.990  0.003  0.000  0.000  0.006
  0.000  0.000  0.000  1.000  0.000
    occupations:
  0.440  0.015  0.005 -0.024  0.000
  0.015  0.174 -0.006  0.000 -0.003
  0.005 -0.006  0.188  0.001  0.000
 -0.024  0.000  0.001  0.144  0.000
  0.000 -0.003  0.000  0.000  0.429
atom    9   Tr[ns(na)] =   2.74908
    eigenvalues:
  0.147  0.191  0.204  0.380  0.453
    eigenvectors:
  0.000  0.001  0.908  0.091  0.000
  0.000  0.000  0.000  0.000  1.000
  0.999  0.001  0.000  0.000  0.000
  0.000  0.000  0.091  0.909  0.000
  0.001  0.998  0.001  0.000  0.000
    occupations:
  0.220  0.001  0.001  0.051  0.000
  0.001  0.453  0.000 -0.001  0.000
  0.001  0.000  0.147  0.002 -0.001
  0.051 -0.001  0.002  0.364  0.000
  0.000  0.000 -0.001  0.000  0.191
atom   10   Tr[ns(na)] =   2.68175
    eigenvalues:
  0.152  0.190  0.209  0.331  0.459
    eigenvectors:
  0.020  0.000  0.000  0.980  0.000
  0.000  0.000  1.000  0.000  0.000
  0.001  0.999  0.000  0.000  0.000
  0.980  0.001  0.000  0.020  0.000
  0.000  0.000  0.000  0.000  1.000
    occupations:
  0.327  0.000 -0.001 -0.025  0.000
  0.000  0.209  0.000  0.000  0.003
 -0.001  0.000  0.190 -0.001  0.000
 -0.025  0.000 -0.001  0.156  0.000
  0.000  0.003  0.000  0.000  0.459
atom   16   Tr[ns(na)] =   2.63953
    eigenvalues:
  0.142  0.157  0.175  0.411  0.434
    eigenvectors:
  0.730  0.036  0.041  0.168  0.024
  0.001  0.002  0.001  0.154  0.843
  0.085  0.200  0.715  0.000  0.000
  0.179  0.007  0.007  0.677  0.130
  0.006  0.755  0.237  0.000  0.002
    occupations:
  0.196 -0.001 -0.005  0.106 -0.001
 -0.001  0.430 -0.001  0.010  0.013
 -0.005 -0.001  0.169  0.007  0.008
  0.106  0.010  0.007  0.362  0.000
 -0.001  0.013  0.008  0.000  0.162
atom   17   Tr[ns(na)] =   2.74985
    eigenvalues:
  0.140  0.174  0.191  0.425  0.444
    eigenvectors:
  0.007  0.002  0.000  0.000  0.991
  0.001  0.897  0.099  0.000  0.002
  0.001  0.098  0.901  0.000  0.000
  0.992  0.002  0.000  0.000  0.006
  0.000  0.000  0.000  1.000  0.000
    occupations:
  0.442  0.013  0.005 -0.024  0.000
  0.013  0.177 -0.005  0.000 -0.003
  0.005 -0.005  0.189  0.001  0.000
 -0.024  0.000  0.001  0.142  0.000
  0.000 -0.003  0.000  0.000  0.425
atom   22   Tr[ns(na)] =   2.74913
    eigenvalues:
  0.147  0.191  0.204  0.380  0.453
    eigenvectors:
  0.000  0.000  0.909  0.091  0.000
  0.000  0.000  0.000  0.000  1.000
  0.999  0.001  0.000  0.000  0.000
  0.000  0.000  0.091  0.909  0.000
  0.001  0.999  0.001  0.000  0.000
    occupations:
  0.220 -0.001  0.001  0.050  0.000
 -0.001  0.453  0.000  0.001  0.000
  0.001  0.000  0.147  0.002  0.001
  0.050  0.001  0.002  0.364  0.000
  0.000  0.000  0.001  0.000  0.191
atom   23   Tr[ns(na)] =   2.66450
    eigenvalues:
  0.140  0.156  0.198  0.376  0.463
    eigenvectors:
  0.001  0.009  0.000  0.990  0.000
  0.000  0.000  1.000  0.000  0.000
  0.999  0.000  0.000  0.001  0.000
  0.000  0.991  0.000  0.009  0.000
  0.000  0.000  0.000  0.000  1.000
    occupations:
  0.374  0.000 -0.007 -0.021  0.000
  0.000  0.198  0.000  0.000  0.002
 -0.007  0.000  0.140  0.001  0.000
 -0.021  0.000  0.001  0.158  0.000
  0.000  0.002  0.000  0.000  0.463
N of occupied +U levels =  21.6228229
 --- exit write_ns ---

[...]

     total energy              =   -1597.52981904 Ry
     Harris-Foulkes estimate   =   -1597.52981905 Ry
     estimated scf accuracy    <       0.00000033 Ry

     iteration # 12     ecut=    40.00 Ry     beta=0.70
     Davidson diagonalization with overlap
     ethr =  1.50E-10,  avg # of iterations =  1.0

     negative rho (up, down):  0.107E+00 0.000E+00

     End of self-consistent calculation
 --- enter write_ns ---
 LDA+U parameters:
U( 2)     =  5.00000000
alpha( 2) =  0.00000000
atom    3   Tr[ns(na)] =   2.63939
    eigenvalues:
  0.142  0.157  0.175  0.411  0.434
    eigenvectors:
  0.725  0.041  0.042  0.168  0.025
  0.001  0.002  0.001  0.155  0.842
  0.089  0.206  0.704  0.000  0.000
  0.178  0.008  0.007  0.676  0.131
  0.007  0.744  0.246  0.000  0.002
    occupations:
  0.196  0.001 -0.005  0.106  0.001
  0.001  0.430  0.001 -0.010  0.013
 -0.005  0.001  0.169  0.007 -0.008
  0.106 -0.010  0.007  0.362 -0.001
  0.001  0.013 -0.008 -0.001  0.162
atom    4   Tr[ns(na)] =   2.74950
    eigenvalues:
  0.142  0.171  0.190  0.429  0.442
    eigenvectors:
  0.007  0.003  0.000  0.000  0.990
  0.002  0.885  0.110  0.000  0.003
  0.001  0.109  0.890  0.000  0.000
  0.990  0.003  0.000  0.000  0.006
  0.000  0.000  0.000  1.000  0.000
    occupations:
  0.440  0.015  0.005 -0.024  0.000
  0.015  0.174 -0.006  0.000 -0.003
  0.005 -0.006  0.188  0.001  0.000
 -0.024  0.000  0.001  0.143  0.000
  0.000 -0.003  0.000  0.000  0.429
atom    9   Tr[ns(na)] =   2.74788
    eigenvalues:
  0.146  0.191  0.204  0.380  0.453
    eigenvectors:
  0.000  0.001  0.908  0.091  0.000
  0.000  0.000  0.000  0.000  1.000
  0.999  0.001  0.000  0.000  0.000
  0.000  0.000  0.091  0.909  0.000
  0.001  0.998  0.001  0.000  0.000
    occupations:
  0.220  0.001  0.001  0.051  0.000
  0.001  0.453  0.000 -0.001  0.000
  0.001  0.000  0.146  0.002 -0.001
  0.051 -0.001  0.002  0.364  0.000
  0.000  0.000 -0.001  0.000  0.191
atom   10   Tr[ns(na)] =   2.68208
    eigenvalues:
  0.152  0.190  0.209  0.331  0.459
    eigenvectors:
  0.020  0.000  0.000  0.980  0.000
  0.000  0.000  1.000  0.000  0.000
  0.001  0.999  0.000  0.000  0.000
  0.980  0.001  0.000  0.020  0.000
  0.000  0.000  0.000  0.000  1.000
    occupations:
  0.327  0.000 -0.001 -0.025  0.000
  0.000  0.210  0.000  0.000  0.003
 -0.001  0.000  0.190 -0.001  0.000
 -0.025  0.000 -0.001  0.156  0.000
  0.000  0.003  0.000  0.000  0.459
atom   16   Tr[ns(na)] =   2.63966
    eigenvalues:
  0.142  0.157  0.175  0.411  0.434
    eigenvectors:
  0.729  0.037  0.041  0.168  0.025
  0.001  0.002  0.001  0.155  0.843
  0.086  0.203  0.711  0.000  0.000
  0.179  0.007  0.007  0.676  0.131
  0.006  0.751  0.240  0.000  0.002
    occupations:
  0.196 -0.001 -0.005  0.106 -0.001
 -0.001  0.430 -0.001  0.010  0.013
 -0.005 -0.001  0.169  0.007  0.008
  0.106  0.010  0.007  0.362  0.000
 -0.001  0.013  0.008  0.000  0.162
atom   17   Tr[ns(na)] =   2.74963
    eigenvalues:
  0.140  0.174  0.191  0.425  0.444
    eigenvectors:
  0.007  0.002  0.000  0.000  0.991
  0.001  0.898  0.099  0.000  0.002
  0.001  0.098  0.901  0.000  0.000
  0.992  0.002  0.000  0.000  0.006
  0.000  0.000  0.000  1.000  0.000
    occupations:
  0.442  0.013  0.005 -0.024  0.000
  0.013  0.177 -0.005  0.000 -0.003
  0.005 -0.005  0.189  0.001  0.000
 -0.024  0.000  0.001  0.142  0.000
  0.000 -0.003  0.000  0.000  0.425
atom   22   Tr[ns(na)] =   2.74791
    eigenvalues:
  0.146  0.191  0.204  0.380  0.453
    eigenvectors:
  0.000  0.000  0.909  0.091  0.000
  0.000  0.000  0.000  0.000  1.000
  0.999  0.001  0.000  0.000  0.000
  0.000  0.000  0.091  0.909  0.000
  0.001  0.999  0.000  0.000  0.000
    occupations:
  0.220 -0.001  0.001  0.051  0.000
 -0.001  0.453  0.000  0.001  0.000
  0.001  0.000  0.146  0.002  0.001
  0.051  0.001  0.002  0.364  0.000
  0.000  0.000  0.001  0.000  0.191
atom   23   Tr[ns(na)] =   2.66464
    eigenvalues:
  0.140  0.156  0.198  0.376  0.463
    eigenvectors:
  0.001  0.009  0.000  0.990  0.000
  0.000  0.000  1.000  0.000  0.000
  0.999  0.000  0.000  0.001  0.000
  0.000  0.991  0.000  0.009  0.000
  0.000  0.000  0.000  0.000  1.000
    occupations:
  0.373  0.000 -0.007 -0.021  0.000
  0.000  0.198  0.000  0.000  0.002
 -0.007  0.000  0.140  0.001  0.000
 -0.021  0.000  0.001  0.158  0.000
  0.000  0.002  0.000  0.000  0.463
N of occupied +U levels =  21.6206932
 --- exit write_ns ---

[...]

          k = 0.2500-0.4516 0.0000 ( 29882 PWs)   bands (ev):

[...]

          k =-0.2500 0.2258 0.0000 ( 29912 PWs)   bands (ev):

   -60.9084 -60.8834 -60.6195 -60.3939 -59.6236 -59.5903 -59.1578 -59.1311
   -37.3211 -37.1030 -37.0811 -37.0019 -36.9962 -36.9749 -36.9516 -36.8572
   -36.7507 -36.5959 -36.5830 -36.5270 -36.1209 -35.9181 -35.8462 -35.8175
   -35.6764 -35.6443 -35.4714 -35.4692 -35.4493 -35.3508 -35.2855 -35.1675
   -24.8604 -21.2615 -21.0393 -20.1930 -19.6854 -19.6184 -19.2586 -19.1806
   -19.0738 -18.9890 -18.9502 -18.9287 -18.8671 -18.7157 -18.7065 -18.1216
   -17.8278 -17.6544 -17.4521 -17.4257  -9.5394  -8.9206  -8.6851  -7.9101
    -7.2722  -7.1783  -7.1054  -7.0318  -6.9691  -6.6734  -6.6379  -6.5198
    -6.4802  -6.4392  -6.3951  -6.3108  -6.2362  -6.1578  -6.0867  -5.9271
    -5.8552  -5.6863  -5.5805  -5.4661  -5.3371  -5.0870  -4.9668  -4.8603
    -4.8513  -4.7647  -4.6966  -4.6507  -4.5471  -4.4884  -4.4084  -4.3448
    -4.3001  -4.2612  -4.2249  -4.0900  -4.0634  -3.8954  -3.8318  -3.7336
    -3.6556  -3.5077  -3.3068  -3.1295  -2.9250  -2.8451  -2.8193  -2.7223
    -2.6097  -2.5201  -2.4375  -2.3416  -2.2534  -2.1380  -2.0911   0.0566
     0.2406   0.3365   0.4385   0.4987   0.7150   0.7693   0.7930   0.9049
     0.9584   1.0435   1.1733   1.2979   1.4033   1.5660   1.6478   1.7063
     1.7632   1.8647   2.0562   2.1328   2.1864   2.2317   2.2608   2.2899
     2.3530   2.3727   2.4573   2.5470   2.7031   2.8146   3.0749   3.2689
     3.3436   3.5244   3.6968   3.7394   3.8143   3.9467   4.0557   4.1280
     4.2366   4.4623   4.5407   4.6938   5.1475   5.2277   5.5770   5.6748
     5.6892   5.9872   6.0750   6.2676   6.4071   6.6160   6.7104   7.0303
     7.1453   7.3258   7.4932   7.5867   7.7469   7.9678   8.0270   8.1139
     8.2155   8.3134   8.4752   8.4990   8.7054   8.7752   8.8887   8.9769
     9.1243   9.1778   9.2449   9.3724   9.5067   9.6535   9.7026   9.7511
     9.8536   9.9841  10.1405  10.2931  10.3437  10.3914  10.4632  10.5771
    10.6105  10.8078  10.8487  10.9511  11.0162  11.1054  11.1861  11.2897
    11.3651  11.4182  11.5027  11.5843  11.6443  11.7569  11.7747  11.8875
    11.9807  12.0842  12.1410  12.1965  12.2382  12.2997  12.3565  12.4635
    12.5234  12.5725  12.6568  12.7153  12.7791  12.9556  12.9938  13.0566
    13.0726  13.1929  13.2179  13.3284  13.4489  13.5629  13.6076  13.7553
    13.8082  13.9067  13.9316  14.0317  14.0852  14.1784  14.2509  14.2718
    14.3274  14.3454  14.4955  14.5605  14.5831  14.6225  14.7165  14.8044
    14.8670  15.0123  15.0393  15.1165  15.1708  15.2507  15.3547  15.3862
    15.4927  15.5397  15.6012  15.6509  15.6761  15.7521  15.8237  15.9024
    15.9833  16.0641  16.1132  16.1627  16.2312  16.3048  16.3966  16.4536
    16.5040  16.5815  16.6285  16.7058  16.8066  16.8381  16.8872  16.9260
    17.0286  17.1207  17.1523  17.2430  17.2976  17.3397  17.4318  17.4583
    17.5419  17.5890  17.6582  17.7971  17.9042  17.9454  17.9759  18.0589
    18.1452  18.1891  18.2953  18.3621  18.4203  18.4837  18.5947  18.6346
    18.6724  18.7415  18.7984  18.8687  18.9647  19.0759  19.1121

     the Fermi energy is    -2.0777 ev

!    total energy              =   -1597.52981904 Ry
     Harris-Foulkes estimate   =   -1597.52981904 Ry
     estimated scf accuracy    <          2.9E-09 Ry

     The total energy is the sum of the following terms:

     one-electron contribution =  -19128.48970750 Ry
     hartree contribution      =    9585.97135620 Ry
     xc contribution           =    -284.47562229 Ry
     ewald contribution        =    8226.79966095 Ry
     Hubbard energy            =       2.66594168 Ry
     smearing contrib. (-TS)   =      -0.00144808 Ry

     convergence has been achieved in  12 iterations

     Forces acting on atoms (Ry/au):

     negative rho (up, down):  0.107E+00 0.000E+00
     atom    1 type  1   force =    -0.00198448   -0.01438140    0.00046703
     atom    2 type  1   force =     0.00007886    0.01698347   -0.00012878
     atom    3 type  2   force =     0.04334331   -0.00905191    0.00023419
     atom    4 type  2   force =    -0.00003071    0.00917544    0.00051415
     atom    5 type  1   force =    -0.00112039   -0.08783944   -0.00029408
     atom    6 type  1   force =    -0.00460884    0.08666486   -0.00031600
     atom    7 type  1   force =     0.00011251   -0.00102125    0.00047365
     atom    8 type  1   force =     0.00111659   -0.00069634   -0.00032891
     atom    9 type  2   force =     0.00077654    0.00001967    0.00031344
     atom   10 type  2   force =    -0.00000976   -0.00059349   -0.00022900
     atom   11 type  1   force =    -0.02302815   -0.01482845   -0.00006955
     atom   12 type  1   force =    -0.01964718    0.02011843   -0.00028276
     atom   13 type  1   force =     0.00016477   -0.00250454   -0.00010484
     atom   14 type  1   force =    -0.00392297   -0.01447689    0.00052678
     atom   15 type  1   force =     0.00010395    0.01722396   -0.00020854
     atom   16 type  2   force =    -0.04317975   -0.00976519    0.00023542
     atom   17 type  2   force =    -0.00008779    0.00861950    0.00034166
     atom   18 type  1   force =     0.00577353   -0.08791395   -0.00026352
     atom   19 type  1   force =     0.00378400    0.08714335   -0.00036870
     atom   20 type  1   force =    -0.00010405   -0.00037836    0.00080399
     atom   21 type  1   force =     0.00104200    0.00000046   -0.00038057
     atom   22 type  2   force =    -0.00133593    0.00006507    0.00031399
     atom   23 type  2   force =    -0.00005341   -0.00283344   -0.00046535
     atom   24 type  1   force =     0.02318975   -0.01473272   -0.00006271
     atom   25 type  1   force =     0.01954482    0.02000053   -0.00028505
     atom   26 type  1   force =     0.00022069   -0.00526552   -0.00000822
     atom   27 type  3   force =    -0.00002793    0.00017725   -0.00014452
     atom   28 type  3   force =    -0.00000608    0.00008896   -0.00041059
     atom   29 type  3   force =    -0.00003803   -0.00010939    0.00020576
     atom   30 type  3   force =    -0.00006478   -0.00013338    0.00025602
     atom   31 type  1   force =     0.00014490   -0.00031431   -0.00057372
     atom   32 type  1   force =    -0.00018093    0.00018834    0.00024171
     atom   33 type  3   force =     0.00003496    0.00037068   -0.00000236

     Total force =     0.002060     Total SCF correction =     0.000091

     bfgs converged in  20 scf cycles and  19 bfgs steps
     (criteria: energy < 0.10E-03, force < 0.10E-02)

     End of BFGS Geometry Optimization

     Final energy   =   -1597.5298190424 Ry
Begin final coordinates

ATOMIC_POSITIONS (crystal)
O0       0.000000000   0.000000000   0.376559914    0   0   1
O0       0.000000000   0.500000000   0.398524142    0   0   1
Ti1      0.250000000   0.500000000   0.450843915    0   0   1
Ti1      0.000000000   0.000000000   0.450625678    0   0   1
O0       0.250000000   0.810000000   0.449578024    0   0   1
O0       0.250000000   0.190000000   0.450642376    0   0   1
O0       0.000000000   0.500000000   0.498403259    0   0   1
O0       0.000000000   0.000000000   0.526486171    0   0   1
Ti1      0.250000000   0.000000000   0.580975939    0   0   1
Ti1      0.000000000   0.500000000   0.569790494    0   0   1
O0       0.250000000   0.690000000   0.578823805    0   0   1
O0       0.250000000   0.310000000   0.580420956    0   0   1
O0       0.000000000   0.000000000   0.623838802    0   0   1
O0       0.500000000   0.000000000   0.377435025    0   0   1
O0       0.500000000   0.500000000   0.398528074    0   0   1
Ti1      0.750000000   0.500000000   0.450854594    0   0   1
Ti1      0.500000000   0.000000000   0.452550636    0   0   1
O0       0.750000000   0.810000000   0.449528875    0   0   1
O0       0.750000000   0.190000000   0.450738889    0   0   1
O0       0.500000000   0.500000000   0.497814176    0   0   1
O0       0.500000000   0.000000000   0.526697345    0   0   1
Ti1      0.750000000   0.000000000   0.580982268    0   0   1
Ti1      0.500000000   0.500000000   0.581792300    0   0   1
O0       0.750000000   0.690000000   0.578812286    0   0   1
O0       0.750000000   0.310000000   0.580413662    0   0   1
O0       0.500000000   0.000000000   0.623335133    0   0   1
H2      -0.000246085   0.628985826   0.379099158
H2       0.499784083   0.630195471   0.379563546
H2       0.151583540   0.030674912   0.363209315
H2       0.650560117   0.032255602   0.363806643
O0       0.500310000   0.537781684   0.657981232    0   1   1
O0       0.499120000   0.356882830   0.686116742    0   1   1
H2       0.500360000   0.412733227   0.720696626    0   1   1
End final coordinates

     General routines

     Parallel routines
     Hubbard U routines

   This run was terminated on:  11:21:32   9Aug2014

   JOB DONE.