     Program PWSCF v.5.0.2 (svn rev. 9656) starts on  1Jun2014 at  4:38: 4

     Current dimensions of program PWSCF are:
     Max number of different atomic species (ntypx) = 10
     Max number of k-points (npk) =  40000
     Max angular momentum in pseudopotentials (lmaxx) =  3
     Reading input from pwscf.in
Warning: card &CELL ignored
Warning: card / ignored

     Subspace diagonalization in iterative solution of the eigenvalue problem:
     a serial algorithm will be used

     bravais-lattice index     =            0
     lattice parameter (alat)  =      11.7541  a.u.
     unit-cell volume          =    7139.8207 (a.u.)^3
     number of atoms/cell      =           33
     number of atomic types    =            3
     number of electrons       =       245.00
     number of Kohn-Sham states=          367
     kinetic-energy cutoff     =      40.0000  Ry
     charge density cutoff     =     500.0000  Ry
     convergence threshold     =      1.0E-06
     mixing beta               =       0.7000
     number of iterations used =            8  plain     mixing
     Exchange-correlation      = SLA  PW   PBE  PBE ( 1 4 3 4 0)
     EXX-fraction              =        0.00
     nstep                     =           50

     celldm(1)=  11.754097  celldm(2)=   0.000000  celldm(3)=   0.000000
     celldm(4)=   0.000000  celldm(5)=   0.000000  celldm(6)=   0.000000

     crystal axes: (cart. coord. in units of alat)
               a(1) = (   1.000000   0.000000   0.000000 )
               a(2) = (   0.000000   1.034513   0.000000 )
               a(3) = (   0.000000   0.000000   4.249947 )

     reciprocal axes: (cart. coord. in units 2 pi/alat)
               b(1) = (  1.000000  0.000000  0.000000 )
               b(2) = (  0.000000  0.966638  0.000000 )
               b(3) = (  0.000000  0.000000  0.235297 )

     PseudoPot. # 1 for O  read from file:
     /home/camp/zhonxu/pseudo/o_pbe_v1.01.uspp.F.UPF
     MD5 check sum: 2bcb18d16ea4b960afae9ec6d52f22d2
     Pseudo is Ultrasoft + core correction, Zval =  6.0
     Generated by new atomic code, or converted to UPF format
     Using radial grid of  737 points,  5 beta functions with:
                l(1) =   0
                l(2) =   0
                l(3) =   1
                l(4) =   1
                l(5) =   2
     Q(r) pseudized with  8 coefficients,  rinner =    0.900   0.900   0.900
                                                       0.900   0.900

     PseudoPot. # 2 for Rh read from file:
     /home/camp/zhonxu/pseudo/rh_pbe_v1.uspp.F.UPF
     MD5 check sum: 37b626987ad0dd8ec6bf4cc9ef289918
     Pseudo is Ultrasoft + core correction, Zval = 15.0
     Generated by new atomic code, or converted to UPF format
     Using radial grid of  969 points,  7 beta functions with:
                l(1) =   0
                l(2) =   0
                l(3) =   1
                l(4) =   1
                l(5) =   2
                l(6) =   2
                l(7) =   2
     Q(r) pseudized with  6 coefficients,  rinner =    1.050   1.050   1.050
                                                       1.050   1.050

     PseudoPot. # 3 for H  read from file:
     /home/camp/zhonxu/pseudo/h_pbe_v1.uspp.F.UPF
     MD5 check sum: 3408e3ff4ec8b0a4e358431e7e038a48
     Pseudo is Ultrasoft, Zval =  1.0
     Generated by new atomic code, or converted to UPF format
     Using radial grid of  615 points,  2 beta functions with:
                l(1) =   0
                l(2) =   0
     Q(r) pseudized with  8 coefficients,  rinner =    0.700

     atomic species   valence    mass     pseudopotential
        O0             6.00    15.99940     O ( 1.00)
        Rh1           15.00   102.90550     Rh( 1.00)
        H2             1.00     1.00794     H ( 1.00)

     Simplified LDA+U calculation (l_max = 2) with parameters (eV):
     atomic species    L          U    alpha       J0     beta
        Rh1            2     6.0000   0.0000   0.0000   0.0000

     No symmetry found

   Cartesian axes

     site n.     atom                  positions (alat units)
         1           O0  tau(   1) = (   0.0000000   0.0000000   1.6055876  )
         2           O0  tau(   2) = (   0.0000000   0.5172566   1.7058013  )
         3           Rh1 tau(   3) = (   0.2500000   0.5172566   1.9245886  )
         4           Rh1 tau(   4) = (   0.0000000   0.0000000   1.9225486  )
         5           O0  tau(   5) = (   0.2500000   0.8379556   1.9216561  )
         6           O0  tau(   6) = (   0.2500000   0.1965575   1.9210611  )
         7           O0  tau(   7) = (   0.0000000   0.5172566   2.1183012  )
         8           O0  tau(   8) = (   0.0000000   0.0000000   2.2433346  )
         9           Rh1 tau(   9) = (   0.2500000   0.0000000   2.4442296  )
        10           Rh1 tau(  10) = (   0.0000000   0.5172566   2.4248924  )
        11           O0  tau(  11) = (   0.2500000   0.7138141   2.4423597  )
        12           O0  tau(  12) = (   0.2500000   0.3206991   2.4526445  )
        13           O0  tau(  13) = (   0.0000000   0.0000000   2.6373472  )
        14           O0  tau(  14) = (   0.5000000   0.0000000   1.6058426  )
        15           O0  tau(  15) = (   0.5000000   0.5172566   1.7065663  )
        16           Rh1 tau(  16) = (   0.7500000   0.5172566   1.9245461  )
        17           Rh1 tau(  17) = (   0.5000000   0.0000000   1.9225486  )
        18           O0  tau(  18) = (   0.7500000   0.8379556   1.9215286  )
        19           O0  tau(  19) = (   0.7500000   0.1965575   1.9212311  )
        20           O0  tau(  20) = (   0.5000000   0.5172566   2.1254411  )
        21           O0  tau(  21) = (   0.5000000   0.0000000   2.2428246  )
        22           Rh1 tau(  22) = (   0.7500000   0.0000000   2.4442296  )
        23           Rh1 tau(  23) = (   0.5000000   0.5172566   2.4566820  )
        24           O0  tau(  24) = (   0.7500000   0.7138141   2.4423172  )
        25           O0  tau(  25) = (   0.7500000   0.3206991   2.4526445  )
        26           O0  tau(  26) = (   0.5000000   0.0000000   2.6350523  )
        27           H2  tau(  27) = (   0.0000500   0.6607849   1.6355072  )
        28           H2  tau(  28) = (   0.4999200   0.6608884   1.6361872  )
        29           H2  tau(  29) = (   0.1477700   0.0372011   1.5603681  )
        30           H2  tau(  30) = (   0.6484400   0.0346148   1.5604531  )
        31           O0  tau(  31) = (   0.4997300   0.5556577   2.7651007  )
        32           O0  tau(  32) = (   0.5003300   0.3573415   2.8834192  )
        33           H2  tau(  33) = (   0.4999300   0.4160398   3.0312324  )

     number of k points=    10  Methfessel-Paxton smearing, width (Ry)=  0.0100
                       cart. coord. in units 2pi/alat
        k(    1) = (   0.0000000   0.0000000   0.0000000), wk =   0.1250000
        k(    2) = (   0.0000000   0.2416596   0.0000000), wk =   0.2500000
        k(    3) = (   0.0000000  -0.4833191   0.0000000), wk =   0.1250000
        k(    4) = (   0.2500000   0.0000000   0.0000000), wk =   0.2500000
        k(    5) = (   0.2500000   0.2416596   0.0000000), wk =   0.2500000
        k(    6) = (   0.2500000  -0.4833191   0.0000000), wk =   0.2500000
        k(    7) = (  -0.5000000   0.0000000   0.0000000), wk =   0.1250000
        k(    8) = (  -0.5000000   0.2416596   0.0000000), wk =   0.2500000
        k(    9) = (  -0.5000000  -0.4833191   0.0000000), wk =   0.1250000
        k(   10) = (  -0.2500000   0.2416596   0.0000000), wk =   0.2500000

     Largest allocated arrays     est. size (Mb)     dimensions
     Largest temporary arrays     est. size (Mb)     dimensions

     Check: negative/imaginary core charge=   -0.000003    0.000000

     Initial potential from superposition of free atoms
     Check: negative starting charge=   -0.646062

     starting charge  240.99914, renormalised to  245.00000

     negative rho (up, down):  0.657E+00 0.000E+00
     Number of +U iterations with fixed ns =  0
     Starting occupations:
 --- enter write_ns ---
 LDA+U parameters:
U( 2)     =  6.00000000
alpha( 2) =  0.00000000
atom    3   Tr[ns(na)] =   7.00000
    eigenvalues:
  0.700  0.700  0.700  0.700  0.700
    eigenvectors:
  1.000  0.000  0.000  0.000  0.000
  0.000  1.000  0.000  0.000  0.000
  0.000  0.000  1.000  0.000  0.000
  0.000  0.000  0.000  1.000  0.000
  0.000  0.000  0.000  0.000  1.000
    occupations:
  0.700  0.000  0.000  0.000  0.000
  0.000  0.700  0.000  0.000  0.000
  0.000  0.000  0.700  0.000  0.000
  0.000  0.000  0.000  0.700  0.000
  0.000  0.000  0.000  0.000  0.700
atom    4   Tr[ns(na)] =   7.00000
    eigenvalues:
  0.700  0.700  0.700  0.700  0.700
    eigenvectors:
  1.000  0.000  0.000  0.000  0.000
  0.000  1.000  0.000  0.000  0.000
  0.000  0.000  1.000  0.000  0.000
  0.000  0.000  0.000  1.000  0.000
  0.000  0.000  0.000  0.000  1.000
    occupations:
  0.700  0.000  0.000  0.000  0.000
  0.000  0.700  0.000  0.000  0.000
  0.000  0.000  0.700  0.000  0.000
  0.000  0.000  0.000  0.700  0.000
  0.000  0.000  0.000  0.000  0.700
atom    9   Tr[ns(na)] =   7.00000
    eigenvalues:
  0.700  0.700  0.700  0.700  0.700
    eigenvectors:
  1.000  0.000  0.000  0.000  0.000
  0.000  1.000  0.000  0.000  0.000
  0.000  0.000  1.000  0.000  0.000
  0.000  0.000  0.000  1.000  0.000
  0.000  0.000  0.000  0.000  1.000
    occupations:
  0.700  0.000  0.000  0.000  0.000
  0.000  0.700  0.000  0.000  0.000
  0.000  0.000  0.700  0.000  0.000
  0.000  0.000  0.000  0.700  0.000
  0.000  0.000  0.000  0.000  0.700
atom   10   Tr[ns(na)] =   7.00000
    eigenvalues:
  0.700  0.700  0.700  0.700  0.700
    eigenvectors:
  1.000  0.000  0.000  0.000  0.000
  0.000  1.000  0.000  0.000  0.000
  0.000  0.000  1.000  0.000  0.000
  0.000  0.000  0.000  1.000  0.000
  0.000  0.000  0.000  0.000  1.000
    occupations:
  0.700  0.000  0.000  0.000  0.000
  0.000  0.700  0.000  0.000  0.000
  0.000  0.000  0.700  0.000  0.000
  0.000  0.000  0.000  0.700  0.000
  0.000  0.000  0.000  0.000  0.700
atom   16   Tr[ns(na)] =   7.00000
    eigenvalues:
  0.700  0.700  0.700  0.700  0.700
    eigenvectors:
  1.000  0.000  0.000  0.000  0.000
  0.000  1.000  0.000  0.000  0.000
  0.000  0.000  1.000  0.000  0.000
  0.000  0.000  0.000  1.000  0.000
  0.000  0.000  0.000  0.000  1.000
    occupations:
  0.700  0.000  0.000  0.000  0.000
  0.000  0.700  0.000  0.000  0.000
  0.000  0.000  0.700  0.000  0.000
  0.000  0.000  0.000  0.700  0.000
  0.000  0.000  0.000  0.000  0.700
atom   17   Tr[ns(na)] =   7.00000
    eigenvalues:
  0.700  0.700  0.700  0.700  0.700
    eigenvectors:
  1.000  0.000  0.000  0.000  0.000
  0.000  1.000  0.000  0.000  0.000
  0.000  0.000  1.000  0.000  0.000
  0.000  0.000  0.000  1.000  0.000
  0.000  0.000  0.000  0.000  1.000
    occupations:
  0.700  0.000  0.000  0.000  0.000
  0.000  0.700  0.000  0.000  0.000
  0.000  0.000  0.700  0.000  0.000
  0.000  0.000  0.000  0.700  0.000
  0.000  0.000  0.000  0.000  0.700
atom   22   Tr[ns(na)] =   7.00000
    eigenvalues:
  0.700  0.700  0.700  0.700  0.700
    eigenvectors:
  1.000  0.000  0.000  0.000  0.000
  0.000  1.000  0.000  0.000  0.000
[...]
  0.000  0.941 -0.000  0.000 -0.010
  0.008 -0.000  0.937 -0.000 -0.000
  0.036  0.000 -0.000  0.977  0.000
 -0.000 -0.010 -0.000  0.000  0.593
atom   16   Tr[ns(na)] =   8.08421
    eigenvalues:
  0.580  0.602  0.915  0.965  0.979
    eigenvectors:
  0.018  0.183  0.003  0.000  0.796
  0.919  0.081  0.000  0.000  0.000
  0.000  0.000  0.987  0.010  0.003
  0.063  0.736  0.000  0.000  0.201
  0.000  0.000  0.010  0.989  0.000
    occupations:
  0.903  0.005  0.001 -0.152  0.000
  0.005  0.582 -0.000  0.004 -0.006
  0.001 -0.000  0.916 -0.005 -0.005
 -0.152  0.004 -0.005  0.676 -0.000
  0.000 -0.006 -0.005 -0.000  0.965
atom   17   Tr[ns(na)] =   8.09610
    eigenvalues:
  0.597  0.649  0.888  0.934  0.981
    eigenvectors:
  0.001  0.991  0.000  0.000  0.008
  0.000  0.000  0.060  0.940  0.000
  0.000  0.000  0.940  0.060  0.000
  0.000  0.008  0.000  0.000  0.992
  0.999  0.001  0.000  0.000  0.000
    occupations:
  0.652 -0.004 -0.001  0.029  0.002
 -0.004  0.931  0.011  0.001 -0.001
 -0.001  0.011  0.890 -0.001  0.001
  0.029  0.001 -0.001  0.978  0.000
  0.002 -0.001  0.001  0.000  0.597
atom   22   Tr[ns(na)] =   8.09770
    eigenvalues:
  0.635  0.644  0.876  0.912  0.982
    eigenvectors:
  0.000  0.152  0.001  0.000  0.848
  0.998  0.002  0.000  0.000  0.000
  0.000  0.000  0.983  0.016  0.000
  0.002  0.846  0.000  0.000  0.152
  0.000  0.000  0.016  0.984  0.000
    occupations:
  0.930  0.001 -0.000 -0.121  0.000
  0.001  0.635  0.001 -0.001 -0.000
 -0.000  0.001  0.877 -0.005  0.004
 -0.121 -0.001 -0.005  0.695  0.001
  0.000 -0.000  0.004  0.001  0.911
atom   23   Tr[ns(na)] =   8.10242
    eigenvalues:
  0.598  0.632  0.883  0.960  0.979
    eigenvectors:
  0.000  0.994  0.000  0.003  0.003
  0.001  0.000  0.999  0.000  0.000
  0.000  0.003  0.000  0.996  0.001
  0.000  0.003  0.000  0.001  0.996
  0.999  0.000  0.001  0.000  0.000
    occupations:
  0.634 -0.000  0.018  0.020 -0.000
 -0.000  0.882 -0.001 -0.000 -0.010
  0.018 -0.001  0.959 -0.002  0.000
  0.020 -0.000 -0.002  0.978  0.000
 -0.000 -0.010  0.000  0.000  0.598
N of occupied +U levels =  64.7359535
 --- exit write_ns ---

     Threshold (ethr) on eigenvalues was too large:
     Diagonalizing with lowered threshold

     Davidson diagonalization with overlap
     ethr =  5.03E-08,  avg # of iterations =  1.5

[...]

     total energy              =   -2011.28797173 Ry
     Harris-Foulkes estimate   =   -2011.28797174 Ry
     estimated scf accuracy    <       0.00000003 Ry

     iteration # 17     ecut=    40.00 Ry     beta=0.70
     Davidson diagonalization with overlap
     ethr =  1.30E-11,  avg # of iterations =  1.0

     negative rho (up, down):  0.689E+00 0.000E+00

     End of self-consistent calculation
 --- enter write_ns ---
 LDA+U parameters:
U( 2)     =  6.00000000
alpha( 2) =  0.00000000
atom    3   Tr[ns(na)] =   8.08368
    eigenvalues:
  0.580  0.602  0.915  0.966  0.979
    eigenvectors:
  0.019  0.183  0.003  0.000  0.796
  0.915  0.084  0.000  0.000  0.000
  0.000  0.000  0.981  0.016  0.003
  0.066  0.733  0.000  0.000  0.201
  0.000  0.000  0.016  0.983  0.000
    occupations:
  0.903 -0.006  0.001 -0.152 -0.001
 -0.006  0.582 -0.001 -0.004 -0.006
  0.001 -0.001  0.916 -0.005  0.006
 -0.152 -0.004 -0.005  0.676 -0.000
 -0.001 -0.006  0.006 -0.000  0.965
atom    4   Tr[ns(na)] =   8.09641
    eigenvalues:
  0.596  0.648  0.890  0.933  0.980
    eigenvectors:
  0.001  0.991  0.000  0.000  0.008
  0.000  0.000  0.094  0.906  0.000
  0.000  0.000  0.906  0.094  0.000
  0.000  0.008  0.000  0.000  0.992
  0.999  0.001  0.000  0.000  0.000
    occupations:
  0.651 -0.004 -0.001  0.029  0.001
 -0.004  0.929  0.012  0.001 -0.001
 -0.001  0.012  0.894 -0.000  0.001
  0.029  0.001 -0.000  0.978  0.000
  0.001 -0.001  0.001  0.000  0.596
atom    9   Tr[ns(na)] =   8.09764
    eigenvalues:
  0.635  0.644  0.877  0.911  0.982
    eigenvectors:
  0.003  0.149  0.000  0.000  0.847
  0.977  0.023  0.000  0.000  0.000
  0.000  0.000  0.981  0.018  0.000
  0.020  0.828  0.000  0.000  0.152
  0.000  0.000  0.018  0.982  0.000
    occupations:
  0.930 -0.001 -0.000 -0.121 -0.001
 -0.001  0.636  0.000  0.002 -0.000
 -0.000  0.000  0.877 -0.005 -0.005
 -0.121  0.002 -0.005  0.695  0.001
 -0.001 -0.000 -0.005  0.001  0.911
atom   10   Tr[ns(na)] =   8.07704
    eigenvalues:
  0.587  0.593  0.937  0.941  0.980
    eigenvectors:
  0.991  0.000  0.000  0.000  0.008
  0.000  0.001  0.002  0.998  0.000
  0.000  0.000  0.998  0.002  0.000
  0.008  0.000  0.000  0.000  0.991
  0.000  0.999  0.000  0.001  0.000
    occupations:
  0.591  0.000  0.008  0.036 -0.000
  0.000  0.941 -0.000  0.000 -0.009
  0.008 -0.000  0.937 -0.000 -0.000
  0.036  0.000 -0.000  0.977  0.000
 -0.000 -0.009 -0.000  0.000  0.593
atom   16   Tr[ns(na)] =   8.08365
    eigenvalues:
  0.580  0.602  0.915  0.965  0.979
    eigenvectors:
  0.018  0.183  0.003  0.000  0.796
  0.919  0.081  0.000  0.000  0.000
  0.000  0.000  0.987  0.011  0.003
  0.063  0.736  0.000  0.000  0.201
  0.000  0.000  0.010  0.989  0.000
    occupations:
  0.903  0.005  0.001 -0.152  0.000
  0.005  0.582 -0.000  0.004 -0.006
  0.001 -0.000  0.916 -0.005 -0.005
 -0.152  0.004 -0.005  0.676 -0.000
  0.000 -0.006 -0.005 -0.000  0.965
atom   17   Tr[ns(na)] =   8.09549
    eigenvalues:
  0.597  0.649  0.887  0.934  0.981
    eigenvectors:
  0.001  0.991  0.000  0.000  0.008
  0.000  0.000  0.060  0.940  0.000
  0.000  0.000  0.940  0.060  0.000
  0.000  0.008  0.000  0.000  0.992
  0.999  0.001  0.000  0.000  0.000
    occupations:
  0.652 -0.004 -0.001  0.029  0.002
 -0.004  0.931  0.011  0.001 -0.001
 -0.001  0.011  0.890 -0.001  0.001
  0.029  0.001 -0.001  0.978  0.000
  0.002 -0.001  0.001  0.000  0.597
atom   22   Tr[ns(na)] =   8.09769
    eigenvalues:
  0.635  0.644  0.876  0.912  0.982
    eigenvectors:
  0.000  0.152  0.001  0.000  0.848
  0.998  0.002  0.000  0.000  0.000
  0.000  0.000  0.983  0.016  0.000
  0.002  0.846  0.000  0.000  0.152
  0.000  0.000  0.016  0.984  0.000
    occupations:
  0.930  0.002 -0.000 -0.121  0.000
  0.002  0.635  0.001 -0.001 -0.000
 -0.000  0.001  0.877 -0.005  0.004
 -0.121 -0.001 -0.005  0.695  0.001
  0.000 -0.000  0.004  0.001  0.911
atom   23   Tr[ns(na)] =   8.10304
    eigenvalues:
  0.598  0.632  0.883  0.960  0.979
    eigenvectors:
  0.000  0.994  0.000  0.003  0.003
  0.001  0.000  0.999  0.000  0.000
  0.000  0.003  0.000  0.996  0.001
  0.000  0.003  0.000  0.001  0.996
  0.999  0.000  0.001  0.000  0.000
    occupations:
  0.634 -0.000  0.018  0.020 -0.000
 -0.000  0.883 -0.001 -0.000 -0.010
  0.018 -0.001  0.959 -0.002  0.000
  0.020 -0.000 -0.002  0.978  0.000
 -0.000 -0.010  0.000  0.000  0.598
N of occupied +U levels =  64.7346244
 --- exit write_ns ---

[...]

          k = 0.2500-0.4833 0.0000 ( 30510 PWs)   bands (ev):

[...]

          k =-0.2500 0.2417 0.0000 ( 30481 PWs)   bands (ev):

   -48.1016 -47.9672 -47.9605 -47.9462 -47.9372 -47.9324 -47.9227 -47.8939
   -47.8803 -47.8623 -47.8446 -47.7729 -47.7618 -47.7449 -47.6382 -47.6250
   -47.6173 -47.6126 -47.6056 -47.5419 -47.5302 -47.5286 -47.5093 -47.4947
   -24.4920 -20.6694 -20.3816 -20.3077 -20.2436 -19.9315 -19.8206 -19.7972
   -19.7747 -19.6468 -19.5179 -19.4760 -19.4530 -19.2753 -19.2553 -19.2134
   -19.0893 -18.5225 -18.3577 -17.6524  -9.6294  -9.5875  -9.5552  -9.3211
    -9.1858  -9.0114  -8.8623  -8.7952  -8.6960  -8.4506  -8.2023  -8.1439
    -8.1136  -8.0017  -7.9670  -7.8340  -7.7430  -7.5767  -7.5196  -7.3458
    -7.1548  -7.0277  -6.9372  -6.8562  -6.7940  -6.6519  -6.5486  -6.4509
    -6.4169  -6.2828  -6.1841  -6.0962  -6.0673  -6.0020  -5.9325  -5.8639
    -5.8150  -5.6767  -5.6064  -5.5638  -5.4819  -5.3882  -5.3167  -5.2193
    -4.8701  -4.7928  -4.6002  -4.4890  -4.3870  -4.2784  -4.1780  -4.1291
    -3.9913  -3.9105  -3.8403  -3.7918  -3.7100  -3.5527  -3.4831  -3.3448
    -3.2293  -3.0702  -3.0307  -2.9908  -2.9190  -2.8848  -2.8202  -2.7412
    -2.7252  -2.5965  -2.4968  -2.4238  -2.1620  -1.9522  -1.8107  -1.7484
    -1.6539  -1.6177  -1.4656  -1.3518  -1.2085  -1.1372  -1.0615  -0.1493
     0.4178   0.4833   0.6814   1.0373   1.2939   1.5883   1.7686   1.9882
     2.1050   2.2767   2.3302   2.4592   2.5068   2.6113   2.8996   3.2786
     3.8734   4.1816   4.4430   4.9822   5.2122   5.5139   5.8566   5.9816
     6.0200   6.2093   6.3155   6.4847   6.6230   6.8822   6.9199   7.2295
     7.4018   7.4997   7.6814   7.8265   7.8689   8.1625   8.2142   8.3074
     8.4084   8.5058   8.6927   8.8188   8.8787   9.0261   9.1465   9.2006
     9.3344   9.4002   9.4873   9.6295   9.7914   9.8414   9.9401   9.9852
    10.0844  10.1797  10.3105  10.3601  10.4737  10.5293  10.6259  10.7063
    10.7818  10.9063  11.0056  11.1305  11.1783  11.2970  11.3221  11.4124
    11.5050  11.5949  11.6759  11.7185  11.7872  11.8311  11.9187  11.9625
    12.0198  12.1430  12.2618  12.3414  12.4185  12.4988  12.5422  12.5828
    12.6444  12.7453  12.8251  12.9540  13.0067  13.0611  13.0957  13.1806
    13.2967  13.4205  13.4499  13.6032  13.6472  13.7156  13.7982  13.8780
    13.9862  14.0338  14.1258  14.1588  14.2663  14.3578  14.4366  14.4490
    14.5351  14.5528  14.6742  14.7286  14.8035  14.8550  15.0108  15.0283
    15.1053  15.2056  15.2730  15.3295  15.4578  15.5075  15.5767  15.6247
    15.6866  15.7735  15.8130  15.8523  15.9459  15.9819  16.0286  16.0871
    16.1371  16.1897  16.3269  16.3844  16.4491  16.4925  16.5335  16.6246
    16.6351  16.7305  16.7877  16.8838  16.9664  17.0668  17.0958  17.1695
    17.2297  17.2717  17.2997  17.4253  17.4601  17.5213  17.5696  17.6065
    17.7210  17.7324  17.7812  17.8692  17.9596  17.9936  18.0817  18.1251
    18.1986  18.2552  18.3594  18.4050  18.5300  18.6185  18.6493  18.6956
    18.8553  18.9228  18.9802  19.0099  19.0574  19.1798  19.2406  19.3257
    19.3854  19.4615  19.4931  19.5843  19.6394  19.6940  19.7805  19.9110
    19.9542  20.0448  20.1260  20.2126  20.2825  20.3356  20.3658  20.4944
    20.6085  20.6919  20.7211  20.7465  20.7840  20.8701  20.9566  20.9929
    21.0870  21.1254  21.1537  21.2047  21.2815  21.3667  21.4332  21.4551
    21.5241  21.5922  21.6783  21.7006  21.7671  21.8202  21.8455  21.9450
    22.0636  22.0891  22.1307  22.2151  22.2836  22.3526  22.4221  22.4577
    22.5478  22.6161  22.6617  22.7198  22.8094  22.8803  22.9261

     the Fermi energy is    -1.5212 ev

!    total energy              =   -2011.28797173 Ry
     Harris-Foulkes estimate   =   -2011.28797174 Ry
     estimated scf accuracy    <          9.9E-09 Ry

     The total energy is the sum of the following terms:

     one-electron contribution =  -23746.06357068 Ry
     hartree contribution      =   11931.02281036 Ry
     xc contribution           =    -380.09855235 Ry
     ewald contribution        =   10181.59639976 Ry
     Hubbard energy            =       2.25583549 Ry
     smearing contrib. (-TS)   =      -0.00089431 Ry

     convergence has been achieved in  17 iterations

     Forces acting on atoms (Ry/au):

     negative rho (up, down):  0.689E+00 0.000E+00
     atom    1 type  1   force =    -0.00706696   -0.01196819    0.00007714
     atom    2 type  1   force =     0.00014973    0.00349091   -0.00036278
     atom    3 type  2   force =     0.03070009    0.00539852   -0.00021047
     atom    4 type  2   force =     0.00788779    0.00793121    0.00007296
     atom    5 type  1   force =    -0.00405020   -0.03019919    0.00006483
     atom    6 type  1   force =     0.00293689    0.02853363    0.00022398
     atom    7 type  1   force =    -0.00028694   -0.00482927   -0.00006637
     atom    8 type  1   force =    -0.00277397    0.00115056   -0.00039270
     atom    9 type  2   force =     0.00418945    0.00049088   -0.00009653
     atom   10 type  2   force =    -0.00019116    0.00101820   -0.00028976
     atom   11 type  1   force =    -0.00992840    0.02241862    0.00018623
     atom   12 type  1   force =    -0.00332892   -0.01675451    0.00027027
     atom   13 type  1   force =    -0.00063643   -0.00264692   -0.00007581
     atom   14 type  1   force =    -0.00573501   -0.01165480    0.00042123
     atom   15 type  1   force =     0.00007928    0.00329298   -0.00022099
     atom   16 type  2   force =    -0.03068517    0.00550930   -0.00019888
     atom   17 type  2   force =     0.00755440    0.00861238   -0.00009175
     atom   18 type  1   force =    -0.00166199   -0.03098268    0.00006202
     atom   19 type  1   force =     0.00526840    0.02790875    0.00023026
     atom   20 type  1   force =    -0.00014363   -0.00642044    0.00063107
     atom   21 type  1   force =    -0.00292748    0.00133663   -0.00052019
     atom   22 type  2   force =    -0.00168882    0.00041286   -0.00010890
     atom   23 type  2   force =    -0.00052518    0.00265102   -0.00047332
     atom   24 type  1   force =     0.00940716    0.02217316    0.00018599
     atom   25 type  1   force =     0.00451596   -0.01690583    0.00033602
     atom   26 type  1   force =    -0.00088825   -0.01034001    0.00042986
     atom   27 type  3   force =     0.00000274    0.00025929    0.00028456
     atom   28 type  3   force =     0.00000480    0.00020222    0.00040103
     atom   29 type  3   force =    -0.00003737    0.00009187    0.00018405
     atom   30 type  3   force =    -0.00026803    0.00004935    0.00005065
     atom   31 type  1   force =    -0.00021922   -0.00011320    0.00030685
     atom   32 type  1   force =     0.00036883   -0.00004895   -0.00049082
     atom   33 type  3   force =    -0.00002238   -0.00006836   -0.00081974

     Total force =     0.001964     Total SCF correction =     0.000188

     entering subroutine stress ...

     negative rho (up, down):  0.689E+00 0.000E+00
          total   stress  (Ry/bohr**3)                   (kbar)     P=  -17.38
  -0.00012167   0.00000608   0.00000407        -17.90      0.89      0.60
   0.00000608  -0.00014394   0.00000412          0.89    -21.17      0.61
   0.00000407   0.00000412  -0.00008880          0.60      0.61    -13.06

     bfgs converged in   9 scf cycles and   8 bfgs steps
     (criteria: energy < 0.10E-03, force < 0.10E-02)

     End of BFGS Geometry Optimization

     Final energy   =   -2011.2879717291 Ry
Begin final coordinates

ATOMIC_POSITIONS (crystal)
O0       0.000000000   0.000000000   0.378075048    0   0   1
O0       0.000000000   0.500000000   0.401926856    0   0   1
Rh1      0.250000000   0.500000000   0.453009911    0   0   1
Rh1      0.000000000   0.000000000   0.452423666    0   0   1
O0       0.250000000   0.810000000   0.452395915    0   0   1
O0       0.250000000   0.190000000   0.452065273    0   0   1
O0       0.000000000   0.500000000   0.499334236    0   0   1
O0       0.000000000   0.000000000   0.527743483    0   0   1
Rh1      0.250000000   0.000000000   0.574773558    0   0   1
Rh1      0.000000000   0.500000000   0.570828827    0   0   1
O0       0.250000000   0.690000000   0.574158327    0   0   1
O0       0.250000000   0.310000000   0.576502262    0   0   1
O0       0.000000000   0.000000000   0.620378714    0   0   1
O0       0.500000000   0.000000000   0.377957253    0   0   1
O0       0.500000000   0.500000000   0.402019441    0   0   1
Rh1      0.750000000   0.500000000   0.453000401    0   0   1
Rh1      0.500000000   0.000000000   0.452215502    0   0   1
O0       0.750000000   0.810000000   0.452360254    0   0   1
O0       0.750000000   0.190000000   0.452100121    0   0   1
O0       0.500000000   0.500000000   0.500462990    0   0   1
O0       0.500000000   0.000000000   0.527601380    0   0   1
Rh1      0.750000000   0.000000000   0.574771376    0   0   1
Rh1      0.500000000   0.500000000   0.577576964    0   0   1
O0       0.750000000   0.690000000   0.574161445    0   0   1
O0       0.750000000   0.310000000   0.576497376    0   0   1
O0       0.500000000   0.000000000   0.619953756    0   0   1
H2      -0.000137702   0.637495117   0.385004794
H2       0.499753996   0.637880138   0.385234914
H2       0.147748975   0.036231230   0.367423776
H2       0.648593138   0.033808204   0.367397807
O0       0.499317703   0.535862290   0.650558935
O0       0.500808906   0.346618493   0.678016276
H2       0.499934135   0.401741576   0.712999162
End final coordinates

     General routines

     Parallel routines
     Hubbard U routines

   This run was terminated on:  18:32:49   1Jun2014

   JOB DONE.
Running PBS batch system epilogue script
Job id: 373353.audhumbla.fysik.dtu.dk
Username: zhonxu
Groupname: campgst
Jobname: RhO2/Eads-2-layers/OOH-U-6.0
Sessionid: 8779
Queuename: verylong
Accounting:
This job has allocated the following 16 nodes:
c067 c067 c067 c067 c067 c067 c067 c067 c066 c066 c066 c066 c066 c066 c066 c066
Finished epilogue job 373353.audhumbla.fysik.dtu.dk for zhonxu