     Program PWSCF v.5.0.2 (svn rev. 9656) starts on  8Feb2014 at 20:31:29

     Current dimensions of program PWSCF are:
     Max number of different atomic species (ntypx) = 10
     Max number of k-points (npk) =  40000
     Max angular momentum in pseudopotentials (lmaxx) =  3
     Reading input from RhO2-2-pert.in
Warning: card &IONS ignored
Warning: card / ignored
Warning: card &CELL ignored
Warning: card / ignored

     Subspace diagonalization in iterative solution of the eigenvalue problem:
     a serial algorithm will be used

     bravais-lattice index     =            0
     lattice parameter (alat)  =      17.1965  a.u.
     unit-cell volume          =    3475.9200 (a.u.)^3
     number of atoms/cell      =           48
     number of atomic types    =            3
     number of electrons       =       432.00
     number of Kohn-Sham states=          648
     kinetic-energy cutoff     =      40.0000  Ry
     charge density cutoff     =     500.0000  Ry
     convergence threshold     =      1.0E-06
     mixing beta               =       0.7000
     number of iterations used =            8  plain     mixing
     Exchange-correlation      = SLA  PW   PBE  PBE ( 1 4 3 4 0)
     EXX-fraction              =        0.00

     celldm(1)=  17.196508  celldm(2)=   0.000000  celldm(3)=   0.000000
     celldm(4)=   0.000000  celldm(5)=   0.000000  celldm(6)=   0.000000

     crystal axes: (cart. coord. in units of alat)
               a(1) = (   1.000000   0.000000   0.000000 )
               a(2) = (   0.000000   1.000000   0.000000 )
               a(3) = (   0.000000   0.000000   0.683516 )

     reciprocal axes: (cart. coord. in units 2 pi/alat)
               b(1) = (  1.000000  0.000000  0.000000 )
               b(2) = (  0.000000  1.000000  0.000000 )
               b(3) = (  0.000000  0.000000  1.463023 )

     PseudoPot. # 1 for Rh read from file:
     /home/camp/zhonxu/pseudo/rh_pbe_v1.uspp.F.UPF
     MD5 check sum: 37b626987ad0dd8ec6bf4cc9ef289918
     Pseudo is Ultrasoft + core correction, Zval = 15.0
     Generated by new atomic code, or converted to UPF format
     Using radial grid of  969 points,  7 beta functions with:
                l(1) =   0
                l(2) =   0
                l(3) =   1
                l(4) =   1
                l(5) =   2
                l(6) =   2
                l(7) =   2
     Q(r) pseudized with  6 coefficients,  rinner =    1.050   1.050   1.050
                                                       1.050   1.050

     PseudoPot. # 2 for O  read from file:
     /home/camp/zhonxu/pseudo/o_pbe_v1.01.uspp.F.UPF
     MD5 check sum: 2bcb18d16ea4b960afae9ec6d52f22d2
     Pseudo is Ultrasoft + core correction, Zval =  6.0
     Generated by new atomic code, or converted to UPF format
     Using radial grid of  737 points,  5 beta functions with:
                l(1) =   0
                l(2) =   0
                l(3) =   1
                l(4) =   1
                l(5) =   2
     Q(r) pseudized with  8 coefficients,  rinner =    0.900   0.900   0.900
                                                       0.900   0.900

     PseudoPot. # 3 for O  read from file:
     /home/camp/zhonxu/pseudo/o_pbe_v1.01.uspp.F.UPF
     MD5 check sum: 2bcb18d16ea4b960afae9ec6d52f22d2
     Pseudo is Ultrasoft + core correction, Zval =  6.0
     Generated by new atomic code, or converted to UPF format
     Using radial grid of  737 points,  5 beta functions with:
                l(1) =   0
                l(2) =   0
                l(3) =   1
                l(4) =   1
                l(5) =   2
     Q(r) pseudized with  8 coefficients,  rinner =    0.900   0.900   0.900
                                                       0.900   0.900

     atomic species   valence    mass     pseudopotential
        Rh0           15.00   102.90550     Rh( 1.00)
        O1             6.00    15.99940     O ( 1.00)
        O2             6.00    15.99940     O ( 1.00)

     Starting magnetic structure
     atomic species   magnetization
        Rh0          0.000
        O1           0.000
        O2           0.000

     Simplified LDA+U calculation (l_max = 2) with parameters (eV):
     atomic species    L          U    alpha       J0     beta
        Rh0            2     0.0000   0.0000   0.0000   0.0000
        O1             1     0.0000   0.0000   0.0000   0.0000
        O2             1     0.0000   0.0000   0.0000   0.0000

      4 Sym. Ops. (no inversion) found

   Cartesian axes

     site n.     atom                  positions (alat units)
         1           Rh0 tau(   1) = (  -0.1550000  -0.1550000   0.0000000  )
         2           Rh0 tau(   2) = (   0.0950000   0.0950000   0.1708791  )
         3           Rh0 tau(   3) = (  -0.1550000  -0.1550000   0.3417582  )
         4           Rh0 tau(   4) = (   0.0950000   0.0950000   0.5126374  )
         5           Rh0 tau(   5) = (  -0.1550000   0.3450000   0.0000000  )
         6           Rh0 tau(   6) = (   0.0950000   0.5950000   0.1708791  )
         7           Rh0 tau(   7) = (  -0.1550000   0.3450000   0.3417582  )
         8           Rh0 tau(   8) = (   0.0950000   0.5950000   0.5126374  )
         9           Rh0 tau(   9) = (   0.3450000  -0.1550000   0.0000000  )
        10           Rh0 tau(  10) = (   0.5950000   0.0950000   0.1708791  )
        11           Rh0 tau(  11) = (   0.3450000  -0.1550000   0.3417582  )
        12           Rh0 tau(  12) = (   0.5950000   0.0950000   0.5126374  )
        13           Rh0 tau(  13) = (   0.3450000   0.3450000   0.0000000  )
        14           Rh0 tau(  14) = (   0.5950000   0.5950000   0.1708791  )
        15           Rh0 tau(  15) = (   0.3450000   0.3450000   0.3417582  )
        16           Rh0 tau(  16) = (   0.5950000   0.5950000   0.5126374  )
        17           O1  tau(  17) = (   0.0000000   0.0000000   0.0000000  )
        18           O2  tau(  18) = (  -0.3100000  -0.3100000   0.0000000  )
        19           O2  tau(  19) = (   0.2500000  -0.0600000   0.1708791  )
        20           O2  tau(  20) = (  -0.0600000   0.2500000   0.1708791  )
        21           O2  tau(  21) = (   0.0000000   0.0000000   0.3417582  )
        22           O2  tau(  22) = (  -0.3100000  -0.3100000   0.3417582  )
        23           O2  tau(  23) = (   0.2500000  -0.0600000   0.5126374  )
        24           O2  tau(  24) = (  -0.0600000   0.2500000   0.5126374  )
        25           O2  tau(  25) = (   0.0000000   0.5000000   0.0000000  )
        26           O2  tau(  26) = (  -0.3100000   0.1900000   0.0000000  )
        27           O2  tau(  27) = (   0.2500000   0.4400000   0.1708791  )
        28           O2  tau(  28) = (  -0.0600000   0.7500000   0.1708791  )
        29           O2  tau(  29) = (   0.0000000   0.5000000   0.3417582  )
        30           O2  tau(  30) = (  -0.3100000   0.1900000   0.3417582  )
        31           O2  tau(  31) = (   0.2500000   0.4400000   0.5126374  )
        32           O2  tau(  32) = (  -0.0600000   0.7500000   0.5126374  )
        33           O2  tau(  33) = (   0.5000000   0.0000000   0.0000000  )
        34           O2  tau(  34) = (   0.1900000  -0.3100000   0.0000000  )
        35           O2  tau(  35) = (   0.7500000  -0.0600000   0.1708791  )
        36           O2  tau(  36) = (   0.4400000   0.2500000   0.1708791  )
        37           O2  tau(  37) = (   0.5000000   0.0000000   0.3417582  )
        38           O2  tau(  38) = (   0.1900000  -0.3100000   0.3417582  )
        39           O2  tau(  39) = (   0.7500000  -0.0600000   0.5126374  )
        40           O2  tau(  40) = (   0.4400000   0.2500000   0.5126374  )
        41           O2  tau(  41) = (   0.5000000   0.5000000   0.0000000  )
        42           O2  tau(  42) = (   0.1900000   0.1900000   0.0000000  )
        43           O2  tau(  43) = (   0.7500000   0.4400000   0.1708791  )
        44           O2  tau(  44) = (   0.4400000   0.7500000   0.1708791  )
        45           O2  tau(  45) = (   0.5000000   0.5000000   0.3417582  )
        46           O2  tau(  46) = (   0.1900000   0.1900000   0.3417582  )
        47           O2  tau(  47) = (   0.7500000   0.4400000   0.5126374  )
        48           O2  tau(  48) = (   0.4400000   0.7500000   0.5126374  )

     number of k points=    42  Methfessel-Paxton smearing, width (Ry)=  0.0100
                       cart. coord. in units 2pi/alat
        k(    1) = (   0.0000000   0.0000000   0.0000000), wk =   0.0156250
        k(    2) = (   0.0000000   0.0000000   0.3657556), wk =   0.0312500
        k(    3) = (   0.0000000   0.0000000  -0.7315113), wk =   0.0156250
        k(    4) = (   0.0000000   0.2500000   0.0000000), wk =   0.0625000
        k(    5) = (   0.0000000   0.2500000   0.3657556), wk =   0.1250000
        k(    6) = (   0.0000000   0.2500000  -0.7315113), wk =   0.0625000
        k(    7) = (   0.0000000  -0.5000000   0.0000000), wk =   0.0312500
        k(    8) = (   0.0000000  -0.5000000   0.3657556), wk =   0.0625000
        k(    9) = (   0.0000000  -0.5000000  -0.7315113), wk =   0.0312500
        k(   10) = (   0.2500000   0.2500000   0.0000000), wk =   0.0312500
        k(   11) = (   0.2500000   0.2500000   0.3657556), wk =   0.0625000
        k(   12) = (   0.2500000   0.2500000  -0.7315113), wk =   0.0312500
        k(   13) = (   0.2500000  -0.5000000   0.0000000), wk =   0.0625000
        k(   14) = (   0.2500000  -0.5000000   0.3657556), wk =   0.1250000
        k(   15) = (   0.2500000  -0.5000000  -0.7315113), wk =   0.0625000
        k(   16) = (  -0.5000000  -0.5000000   0.0000000), wk =   0.0156250
        k(   17) = (  -0.5000000  -0.5000000   0.3657556), wk =   0.0312500
        k(   18) = (  -0.5000000  -0.5000000  -0.7315113), wk =   0.0156250
        k(   19) = (   0.2500000  -0.2500000   0.0000000), wk =   0.0312500
        k(   20) = (   0.2500000  -0.2500000   0.3657556), wk =   0.0625000
        k(   21) = (   0.2500000  -0.2500000  -0.7315113), wk =   0.0312500
        k(   22) = (   0.0000000   0.0000000   0.0000000), wk =   0.0156250
        k(   23) = (   0.0000000   0.0000000   0.3657556), wk =   0.0312500
        k(   24) = (   0.0000000   0.0000000  -0.7315113), wk =   0.0156250
        k(   25) = (   0.0000000   0.2500000   0.0000000), wk =   0.0625000
        k(   26) = (   0.0000000   0.2500000   0.3657556), wk =   0.1250000
        k(   27) = (   0.0000000   0.2500000  -0.7315113), wk =   0.0625000
        k(   28) = (   0.0000000  -0.5000000   0.0000000), wk =   0.0312500
        k(   29) = (   0.0000000  -0.5000000   0.3657556), wk =   0.0625000
        k(   30) = (   0.0000000  -0.5000000  -0.7315113), wk =   0.0312500
        k(   31) = (   0.2500000   0.2500000   0.0000000), wk =   0.0312500
        k(   32) = (   0.2500000   0.2500000   0.3657556), wk =   0.0625000
        k(   33) = (   0.2500000   0.2500000  -0.7315113), wk =   0.0312500
        k(   34) = (   0.2500000  -0.5000000   0.0000000), wk =   0.0625000
        k(   35) = (   0.2500000  -0.5000000   0.3657556), wk =   0.1250000
        k(   36) = (   0.2500000  -0.5000000  -0.7315113), wk =   0.0625000
[...]
    eigenvectors:
  0.000  1.000  0.000
  0.500  0.000  0.500
  0.500  0.000  0.500
    occupations:
  0.866 -0.000 -0.000
 -0.000  0.882 -0.024
 -0.000 -0.024  0.882
   spin  2
    eigenvalues:
  0.858  0.866  0.906
    eigenvectors:
  0.000  1.000  0.000
  0.500  0.000  0.500
  0.500  0.000  0.500
    occupations:
  0.866 -0.000 -0.000
 -0.000  0.882 -0.024
 -0.000 -0.024  0.882
atomic mag. moment =     0.000000
atom   42   Tr[ns(na)] (up, down, total) =   2.63045  2.63045  5.26090
   spin  1
    eigenvalues:
  0.858  0.866  0.906
    eigenvectors:
  0.000  1.000  0.000
  0.500  0.000  0.500
  0.500  0.000  0.500
    occupations:
  0.866 -0.000 -0.000
 -0.000  0.882 -0.024
 -0.000 -0.024  0.882
   spin  2
    eigenvalues:
  0.858  0.866  0.906
    eigenvectors:
  0.000  1.000  0.000
  0.500  0.000  0.500
  0.500  0.000  0.500
    occupations:
  0.866 -0.000 -0.000
 -0.000  0.882 -0.024
 -0.000 -0.024  0.882
atomic mag. moment =     0.000000
atom   43   Tr[ns(na)] (up, down, total) =   2.63041  2.63041  5.26081
   spin  1
    eigenvalues:
  0.858  0.866  0.906
    eigenvectors:
  0.000  1.000  0.000
  0.500  0.000  0.500
  0.500  0.000  0.500
    occupations:
  0.866  0.000 -0.000
  0.000  0.882  0.024
 -0.000  0.024  0.882
   spin  2
    eigenvalues:
  0.858  0.866  0.906
    eigenvectors:
  0.000  1.000  0.000
  0.500  0.000  0.500
  0.500  0.000  0.500
    occupations:
  0.866  0.000 -0.000
  0.000  0.882  0.024
 -0.000  0.024  0.882
atomic mag. moment =     0.000001
atom   44   Tr[ns(na)] (up, down, total) =   2.63041  2.63041  5.26081
   spin  1
    eigenvalues:
  0.858  0.866  0.906
    eigenvectors:
  0.000  1.000  0.000
  0.500  0.000  0.500
  0.500  0.000  0.500
    occupations:
  0.866 -0.000  0.000
 -0.000  0.882  0.024
  0.000  0.024  0.882
   spin  2
    eigenvalues:
  0.858  0.866  0.906
    eigenvectors:
  0.000  1.000  0.000
  0.500  0.000  0.500
  0.500  0.000  0.500
    occupations:
  0.866 -0.000  0.000
 -0.000  0.882  0.024
  0.000  0.024  0.882
atomic mag. moment =     0.000001
atom   45   Tr[ns(na)] (up, down, total) =   2.63040  2.63040  5.26080
   spin  1
    eigenvalues:
  0.858  0.866  0.906
    eigenvectors:
  0.000  1.000  0.000
  0.500  0.000  0.500
  0.500  0.000  0.500
    occupations:
  0.866 -0.000 -0.000
 -0.000  0.882 -0.024
 -0.000 -0.024  0.882
   spin  2
    eigenvalues:
  0.858  0.866  0.906
    eigenvectors:
  0.000  1.000  0.000
  0.500  0.000  0.500
  0.500  0.000  0.500
    occupations:
  0.866 -0.000 -0.000
 -0.000  0.882 -0.024
 -0.000 -0.024  0.882
atomic mag. moment =     0.000000
atom   46   Tr[ns(na)] (up, down, total) =   2.63039  2.63039  5.26078
   spin  1
    eigenvalues:
  0.858  0.866  0.906
    eigenvectors:
  0.000  1.000  0.000
  0.500  0.000  0.500
  0.500  0.000  0.500
    occupations:
  0.866 -0.000 -0.000
 -0.000  0.882 -0.024
 -0.000 -0.024  0.882
   spin  2
    eigenvalues:
  0.858  0.866  0.906
    eigenvectors:
  0.000  1.000  0.000
  0.500  0.000  0.500
  0.500  0.000  0.500
    occupations:
  0.866 -0.000 -0.000
 -0.000  0.882 -0.024
 -0.000 -0.024  0.882
atomic mag. moment =     0.000000
atom   47   Tr[ns(na)] (up, down, total) =   2.63041  2.63041  5.26081
   spin  1
    eigenvalues:
  0.858  0.866  0.906
    eigenvectors:
  0.000  1.000  0.000
  0.500  0.000  0.500
  0.500  0.000  0.500
    occupations:
  0.866 -0.000  0.000
 -0.000  0.882  0.024
  0.000  0.024  0.882
   spin  2
    eigenvalues:
  0.858  0.866  0.906
    eigenvectors:
  0.000  1.000  0.000
  0.500  0.000  0.500
  0.500  0.000  0.500
    occupations:
  0.866 -0.000  0.000
 -0.000  0.882  0.024
  0.000  0.024  0.882
atomic mag. moment =     0.000001
atom   48   Tr[ns(na)] (up, down, total) =   2.63041  2.63041  5.26081
   spin  1
    eigenvalues:
  0.858  0.866  0.906
    eigenvectors:
  0.000  1.000  0.000
  0.500  0.000  0.500
  0.500  0.000  0.500
    occupations:
  0.866  0.000 -0.000
  0.000  0.882  0.024
 -0.000  0.024  0.882
   spin  2
    eigenvalues:
  0.858  0.866  0.906
    eigenvectors:
  0.000  1.000  0.000
  0.500  0.000  0.500
  0.500  0.000  0.500
    occupations:
  0.866  0.000 -0.000
  0.000  0.882  0.024
 -0.000  0.024  0.882
atomic mag. moment =     0.000001
N of occupied +U levels = 295.7071221
 --- exit write_ns ---

 ------ SPIN UP ------------

          k = 0.0000 0.0000 0.0000 ( 14907 PWs)   bands (ev):

   -36.1831 -36.1829 -36.1828 -36.1827 -36.1769 -36.1767 -36.1764 -36.1763
   -36.1589 -36.1587 -36.1582 -36.1581 -36.1567 -36.1564 -36.1563 -36.1562
   -36.1489 -36.1487 -36.1484 -36.1483 -36.1435 -36.1433 -36.1431 -36.1430
   -36.0682 -36.0618 -36.0616 -36.0615 -36.0613 -36.0611 -36.0611 -36.0553
   -35.9683 -35.9681 -35.9679 -35.9678 -35.9662 -35.9660 -35.9655 -35.9655
   -35.9501 -35.9500 -35.9498 -35.9498 -35.9497 -35.9496 -35.9495 -35.9494
    -8.2672  -7.6432  -7.6432  -7.5756  -7.5755  -7.5754  -7.5753  -7.1897
    -7.1062  -7.1061  -7.1060  -7.1059  -7.0098  -7.0098  -6.8969  -6.8969
    -6.8932  -6.8932  -6.8010  -6.8010  -6.6907  -6.6906  -6.6905  -6.6904
    -6.5751  -6.5751  -6.5749  -6.5749  -6.4509  -6.4509  -6.3181  -6.3181
     3.3293   3.3976   3.3976   3.4375   4.3396   4.3396   4.3398   4.3398
     4.3579   4.3580   4.3581   4.3582   4.5261   4.5262   4.6262   4.6262
     4.6907   4.6907   4.7754   4.7756   4.7756   4.7758   4.8671   4.9035
     4.9035   4.9186   4.9186   5.0358   5.0358   5.0360   5.0360   5.3796
     5.3796   5.6878   5.6878   5.9016   5.9016   6.1332   6.1332   6.1334
     6.1334   6.4467   6.4468   6.4468   6.4469   6.5569   6.5570   6.5570
     6.5571   6.7248   6.7248   6.7440   6.7440   7.1517   7.1517   7.1650
     7.1651   7.1774   7.1775   7.1775   7.1776   7.3892   7.3892   7.4962
     7.4963   7.4965   7.4965   7.5341   7.5342   7.5343   7.5343   7.6161
     7.6630   7.6630   8.1082   8.1082   8.3804   8.3804   8.4640   8.4640
     9.0778   9.0879   9.0879   9.0881   9.0881   9.0886   9.0886   9.1550
     9.1706   9.1706   9.2250   9.2251   9.2252   9.2252   9.2633   9.3076
     9.3077   9.3156   9.3156   9.3370   9.3370   9.3803   9.3804   9.3805
     9.3805   9.7003   9.7003   9.8191   9.8191   9.8579   9.8581   9.8582
     9.8583   9.8741   9.8741   9.9448  10.3214  10.3344  10.3346  10.3347
    10.3348  10.3669  10.3670  10.3671  10.3672  10.5950  10.5950  10.8762
    10.8763  11.2542  11.2543  11.3457  11.3459  11.3459  11.3460  11.7479
    11.8828  11.8828  11.9167  11.9168  12.0290  12.0291  12.0291  12.0292
    12.2795  12.2795  12.2796  12.2796  12.4327  13.5863  13.5863  13.6094
    13.6095  13.6229  13.6229  13.7877  13.7878  14.0667  14.0667  14.4431
    14.4432  14.4433  14.4434  14.8097  14.8099  14.8099  14.8101  15.1769
    15.1769  15.1929  15.1929  15.4362  15.4362  15.4364  15.4364  16.0972
    17.6201  20.0475  20.0476  20.0476  20.0477  21.3948  21.3948  21.5070
    21.5070  22.0627  22.0627  22.2913  22.2914  22.2914  22.2914  22.3157
    22.3157  22.3512  22.3512  23.0786  23.0786  23.0786  23.0787  23.9362
    23.9362  23.9872  23.9873  23.9873  23.9874  24.4601  24.4601  25.0150
    25.0979  25.0979  25.1513  25.2255  25.2255  25.6030  25.6030  26.1135
    26.1135  26.1135  26.1135  26.1488  26.1488  26.1488  26.1488  26.1496
    26.1496  26.2947  26.2947  26.5885  26.7890  26.7890  26.7891  26.7891
    27.1454  27.1454  27.7762  27.8038  27.8038  27.8039  27.8039  27.8770
    27.8770  28.1153  28.1153  28.1154  28.1154  28.4555  28.4555  28.4556
    28.4556  28.8194  29.0672  29.0672  29.4889  29.4889  29.5153  29.7563
    29.7563  30.2531  30.2531  30.2532  30.2532  30.7201  30.7201  30.7201
    30.7201  31.0557  31.0557  31.2218  31.2218  31.3083  31.3083  31.7508
    31.8756  31.8757  31.8757  31.8758  31.9097  31.9097  33.0785  33.0785
    33.0923  33.0924  33.0924  33.0924  33.1350  33.1350  33.5662  33.5662
    34.1007  34.1007  34.4645  34.4645  34.9778  34.9779  34.9779  34.9779
    35.0545  35.0546  35.4640  35.4640  35.4641  35.4641  35.5195  35.8478
    35.8478  35.8557  35.8557  35.9736  35.9736  36.6537  36.6537  37.2175
    37.2175  37.2175  37.2175  37.2954  37.2954  37.2955  37.2955  37.3409
    37.3409  37.3410  37.3410  37.4730  37.4731  37.4731  37.4731  37.6647
    37.6647  38.1914  38.4769  38.4769  38.5812  38.5812  38.6880  38.6880
    38.6880  38.6880  38.8769  38.8769  39.0222  39.0788  39.0788  39.2140
    39.2140  39.2140  39.2140  39.3591  39.4215  39.4215  39.7020  39.7020
    39.7178  39.8198  39.8198  39.8218  39.8554  39.8554  39.8561  39.8564
    39.8566  39.8567  39.8577  39.8578  39.8622  39.8625  39.8627  39.8628
    39.8658  39.8658  39.8659  39.8659  39.9077  39.9092  39.9093  40.0616
    41.3664  41.3664  41.7859  41.7859  41.9471  41.9471  42.1515  42.1515
    42.1515  42.1516  42.1537  42.1693  42.1693  42.1693  42.1693  42.4756
    42.4910  42.4910  42.6317  42.6317  42.6318  42.6318  42.7152  42.7152
[...]
    47.5683  47.8037  47.8037  48.0574  48.0574  48.2313  48.2313  48.2314
    48.2314  48.3048  48.3048  48.3048  48.3048  48.3601  48.3601  48.6955
    48.6956  48.6956  48.6956  48.6996  48.6996  48.8266  48.8267  48.8267
    48.8267  48.9379  48.9379  48.9407  48.9407  49.1639  49.1639  49.2684
    49.2684  49.5539  49.5539  49.5540  49.5540  49.6113  49.6114  49.6114
    49.6115  49.8331  49.8331  50.3546  50.3546  50.5673  50.5674  50.5841
    50.5841  50.6605  50.6606  50.6606  50.6606  50.8069  50.8069  50.9888
    50.9888  51.3071  51.3071  51.3375  51.3463  51.3463  51.3464  51.3464
    51.5302  51.5302  51.5302  51.5303  51.5554  51.5554  51.8604  51.9183
    51.9183  51.9745  52.0760  52.0760  52.3313  52.3314  52.3314  52.3314
    52.4458  52.4458  52.4823  52.4823  52.7764  52.7765  52.7765  52.7765
    52.8477  53.2995  53.5379  53.5379  53.5589  53.5589  53.6855  53.8321
    53.8441  53.8441  53.9759  53.9759  53.9759  53.9759  54.4500  54.4500
    54.8807  54.8807  54.8807  54.8807  54.9250  54.9251  54.9251  54.9251
    55.1512  55.1512  55.3500  55.3500  55.4800  55.4801  55.5047  55.5752

[...]

          k =-0.5000-0.5000 0.0000 ( 14848 PWs)   bands (ev):

[...]

 ------ SPIN DOWN ----------

[...]

          k =-0.5000-0.5000-0.7315 ( 14864 PWs)   bands (ev):

[...]

          k = 0.2500-0.2500-0.7315 ( 14880 PWs)   bands (ev):

   -36.1554 -36.1553 -36.1552 -36.1550 -36.1548 -36.1548 -36.1547 -36.1547
   -36.1543 -36.1543 -36.1543 -36.1542 -36.1538 -36.1538 -36.1534 -36.1532
   -36.1221 -36.1221 -36.1199 -36.1199 -36.1190 -36.1190 -36.1188 -36.1188
   -36.1179 -36.1178 -36.1160 -36.1159 -36.1157 -36.1156 -36.1149 -36.1149
   -35.9589 -35.9589 -35.9586 -35.9584 -35.9584 -35.9584 -35.9583 -35.9583
   -35.9582 -35.9581 -35.9581 -35.9580 -35.9579 -35.9579 -35.9576 -35.9576
    -7.7065  -7.7064  -7.4340  -7.4339  -7.4338  -7.4338  -7.3439  -7.3439
    -7.1919  -7.1919  -7.0458  -7.0457  -7.0456  -7.0455  -6.9539  -6.9538
    -6.8046  -6.8046  -6.8045  -6.8044  -6.7347  -6.7347  -6.6800  -6.6800
    -6.6799  -6.6799  -6.6699  -6.6699  -6.6627  -6.6627  -6.5831  -6.5831
     3.9762   3.9762   4.0383   4.0383   4.3161   4.3161   4.3163   4.3163
     4.3352   4.3352   4.3555   4.3555   4.7035   4.7035   4.7306   4.7306
     4.7308   4.7309   4.8325   4.8325   4.9209   4.9210   4.9210   4.9211
     4.9272   4.9272   5.1617   5.1617   5.1619   5.1619   5.1771   5.1771
     5.5769   5.5769   5.5771   5.5771   5.7657   5.7657   5.9289   5.9289
     6.0424   6.0425   6.0425   6.0426   6.1042   6.1042   6.5803   6.5804
     6.6185   6.6186   6.6186   6.6186   6.7353   6.7353   6.9246   6.9246
     7.0139   7.0139   7.0141   7.0142   7.5242   7.5242   7.5251   7.5251
     7.5251   7.5252   7.5493   7.5493   7.5803   7.5803   7.5914   7.5914
     7.6754   7.6754   7.6754   7.6755   7.8797   7.8797   8.0805   8.0806
     8.1374   8.1374   8.2481   8.2481   8.4127   8.4128   8.4128   8.4129
     8.7442   8.7442   9.0081   9.0081   9.0081   9.0081   9.2354   9.2354
     9.7626   9.7626   9.9320   9.9320   9.9735   9.9735   9.9790   9.9790
     9.9791   9.9791  10.3688  10.3688  10.3971  10.3972  10.4089  10.4089
    10.4090  10.4090  10.4969  10.4969  10.5624  10.5625  10.5625  10.5626
    10.6222  10.6222  10.8410  10.8411  10.8413  10.8413  10.9553  10.9553
    11.2723  11.2724  11.3378  11.3378  11.3732  11.3732  11.3732  11.3732
    11.4478  11.4478  11.5891  11.5892  11.5892  11.5893  11.8741  11.8741
    13.0344  13.0344  13.1118  13.1119  13.1121  13.1122  13.4781  13.4782
    13.4783  13.4783  13.5177  13.5177  13.7844  13.7844  14.0287  14.0287
    14.2085  14.2085  14.2332  14.2332  14.5412  14.5412  14.5412  14.5412
    14.7629  14.7629  15.2329  15.2329  15.2329  15.2330  15.2361  15.2361
    19.6084  19.6084  20.5895  20.5896  20.5896  20.5896  21.3044  21.3044
    22.0127  22.0127  22.0127  22.0127  22.2109  22.2109  23.1082  23.1082
    23.1365  23.1366  23.1955  23.1955  23.8001  23.8001  23.8001  23.8001
    23.8661  23.8661  24.5834  24.5834  24.5834  24.5834  24.6239  24.6239
    24.9525  24.9525  25.3047  25.3047  25.3047  25.3047  25.3498  25.3498
    25.5380  25.5380  25.8244  25.8244  25.8245  25.8245  26.1975  26.1975
    26.8192  26.8192  26.8192  26.8193  26.9577  26.9577  26.9872  26.9872
    27.1865  27.1865  27.3451  27.3451  27.3451  27.3452  27.6040  27.6040
    27.6858  27.6858  27.8726  27.8726  27.8727  27.8727  28.0826  28.0826
    28.1653  28.1653  28.7248  28.7248  28.7249  28.7249  28.7917  28.7917
    28.9803  28.9804  29.8366  29.8366  29.8367  29.8367  30.7049  30.7049
    31.0292  31.0292  31.0292  31.0293  31.7851  31.7851  31.8302  31.8302
    31.8944  31.8945  31.8945  31.8945  32.4278  32.4278  32.9662  32.9662
    33.2247  33.2247  33.7109  33.7109  33.7110  33.7111  34.3076  34.3076
    34.5436  34.5436  34.7626  34.7626  35.0442  35.0443  35.0531  35.0531
    35.0531  35.0531  35.1511  35.1511  35.4100  35.4100  35.4411  35.4411
    35.4411  35.4411  36.2413  36.2413  36.3047  36.3047  36.3048  36.3048
    36.5421  36.5421  36.5421  36.5421  36.7362  36.7362  37.7346  37.7346
    37.7346  37.7346  37.7512  37.7512  38.1454  38.1455  38.2308  38.2308
    38.2340  38.2340  38.3511  38.3511  38.3511  38.3511  38.5535  38.5535
    38.6613  38.6613  38.7549  38.7550  38.7550  38.7550  38.8221  38.8222
    38.8882  38.8882  39.2464  39.2464  39.2829  39.2829  39.2829  39.2829
    39.8494  39.8495  39.8498  39.8498  39.8501  39.8503  39.8515  39.8516
    39.8535  39.8535  39.8543  39.8543  39.8563  39.8563  39.8569  39.8569
    40.0164  40.0164  40.0537  40.0537  40.0538  40.0538  40.9770  40.9770
    41.3572  41.3572  41.4663  41.4663  41.4663  41.4663  41.5118  41.5118
    41.5486  41.5486  42.0467  42.0467  42.0677  42.0677  42.5318  42.5318
    42.5318  42.5318  43.0411  43.0411  43.0411  43.0412  43.5436  43.5436
[...]
    47.3563  47.3563  47.3901  47.3901  47.5900  47.5900  47.5900  47.5900
    47.7343  47.7343  47.7343  47.7344  47.9584  47.9584  48.4935  48.4935
    48.6975  48.6975  48.8435  48.8435  48.8436  48.8436  48.8774  48.8774
    48.9917  48.9917  49.0158  49.0158  49.0159  49.0159  49.2395  49.2395
    49.2763  49.2763  49.5368  49.5369  49.5755  49.5755  49.5756  49.5756
    49.7956  49.7956  49.8151  49.8152  50.0017  50.0017  50.2169  50.2169
    50.2169  50.2170  50.4138  50.4139  50.4139  50.4139  50.8895  50.8895
    50.8922  50.8922  50.8922  50.8922  50.9694  50.9694  51.4647  51.4647
    51.4647  51.4647  51.5127  51.5127  51.5589  51.5589  52.0107  52.0107
    52.1121  52.1121  52.3691  52.3691  52.7275  52.7276  52.7276  52.7276
    52.8517  52.8517  53.1035  53.1035  53.2708  53.2708  53.2791  53.2791
    53.2791  53.2791  53.6883  53.6883  54.1204  54.1204  54.1204  54.1205
    54.2603  54.2603  54.3520  54.3520  54.4385  54.4385  54.4385  54.4385
    54.4533  54.4534  54.4941  54.4941  54.9122  54.9122  54.9122  54.9122
    55.0379  55.0379  55.1794  55.1794  55.5151  55.5151  55.5151  55.5151

     the Fermi energy is    11.6248 ev

!    total energy              =   -3758.56840643 Ry
     Harris-Foulkes estimate   =   -3758.56840711 Ry
     estimated scf accuracy    <       0.00000071 Ry

     The total energy is the sum of the following terms:

     one-electron contribution =   -1108.35086833 Ry
     hartree contribution      =     841.92371061 Ry
     xc contribution           =    -696.48207396 Ry
     ewald contribution        =   -2795.66030549 Ry
     Hubbard energy            =       0.00000000 Ry
     smearing contrib. (-TS)   =       0.00113073 Ry

     total magnetization       =     0.00 Bohr mag/cell
     absolute magnetization    =     0.00 Bohr mag/cell

     convergence has been achieved in  20 iterations

     Writing output data file pwscf.save

     General routines

     Parallel routines
     Hubbard U routines

   This run was terminated on:   7:16:14   9Feb2014

   JOB DONE.