     Program PWSCF v.5.0.2 (svn rev. 9656) starts on 23Jan2014 at 20:47:20

     Current dimensions of program PWSCF are:
     Max number of different atomic species (ntypx) = 10
     Max number of k-points (npk) =  40000
     Max angular momentum in pseudopotentials (lmaxx) =  3
     Reading input from MoO2-v-0.9.in

     Subspace diagonalization in iterative solution of the eigenvalue problem:
     a serial algorithm will be used

     bravais-lattice index     =            0
     lattice parameter (alat)  =       8.3602  a.u.
     unit-cell volume          =     376.5571 (a.u.)^3
     number of atoms/cell      =            6
     number of atomic types    =            2
     number of electrons       =        52.00
     number of Kohn-Sham states=           78
     kinetic-energy cutoff     =      40.0000  Ry
     charge density cutoff     =     500.0000  Ry
     convergence threshold     =      1.0E-06
     mixing beta               =       0.7000
     number of iterations used =            8  plain     mixing
     Exchange-correlation      = SLA  PW   PBE  PBE ( 1 4 3 4 0)
     EXX-fraction              =        0.00
     nstep                     =           50

     celldm(1)=   8.360170  celldm(2)=   0.000000  celldm(3)=   0.000000
     celldm(4)=   0.000000  celldm(5)=   0.000000  celldm(6)=   0.000000

     crystal axes: (cart. coord. in units of alat)
               a(1) = (   1.000000   0.000000   0.000000 )
               a(2) = (   0.000000   1.000000   0.000000 )
               a(3) = (   0.000000   0.000000   0.644444 )

     reciprocal axes: (cart. coord. in units 2 pi/alat)
               b(1) = (  1.000000  0.000000  0.000000 )
               b(2) = (  0.000000  1.000000  0.000000 )
               b(3) = (  0.000000  0.000000  1.551724 )

     PseudoPot. # 1 for Mo read from file:
     /home/camp/zhonxu/pseudo/mo_pbe_v1.uspp.F.UPF
     MD5 check sum: 30c4dcd161f5d35cd49bb5239c51a633
     Pseudo is Ultrasoft + core correction, Zval = 14.0
     Generated by new atomic code, or converted to UPF format
     Using radial grid of  889 points,  6 beta functions with:
                l(1) =   0
                l(2) =   0
                l(3) =   1
                l(4) =   1
                l(5) =   2
                l(6) =   2
     Q(r) pseudized with  6 coefficients,  rinner =    1.000   1.000   1.000
                                                       1.000   1.000

     PseudoPot. # 2 for O  read from file:
     /home/camp/zhonxu/pseudo/o_pbe_v1.01.uspp.F.UPF
     MD5 check sum: 2bcb18d16ea4b960afae9ec6d52f22d2
     Pseudo is Ultrasoft + core correction, Zval =  6.0
     Generated by new atomic code, or converted to UPF format
     Using radial grid of  737 points,  5 beta functions with:
                l(1) =   0
                l(2) =   0
                l(3) =   1
                l(4) =   1
                l(5) =   2
     Q(r) pseudized with  8 coefficients,  rinner =    0.900   0.900   0.900
                                                       0.900   0.900

     atomic species   valence    mass     pseudopotential
        Mo0           14.00    95.94000     Mo( 1.00)
        O1             6.00    15.99940     O ( 1.00)

     Starting magnetic structure
     atomic species   magnetization
        Mo0          0.600
        O1           0.000

     16 Sym. Ops., with inversion, found ( 8 have fractional translation)

   Cartesian axes

     site n.     atom                  positions (alat units)
         1           Mo0 tau(   1) = (   0.0000000   0.0000000   0.0000000  )
         2           Mo0 tau(   2) = (   0.5000000   0.5000000   0.3222222  )
         3           O1  tau(   3) = (   0.3050000   0.3050000   0.0000000  )
         4           O1  tau(   4) = (  -0.3050000  -0.3050000   0.0000000  )
         5           O1  tau(   5) = (   0.8050000   0.1950000   0.3222222  )
         6           O1  tau(   6) = (   0.1950000   0.8050000   0.3222222  )

     number of k points=    36  Methfessel-Paxton smearing, width (Ry)=  0.0100
                       cart. coord. in units 2pi/alat
        k(    1) = (   0.0000000   0.0000000   0.0000000), wk =   0.0080000
        k(    2) = (   0.0000000   0.0000000   0.3103448), wk =   0.0160000
        k(    3) = (   0.0000000   0.0000000   0.6206897), wk =   0.0160000
        k(    4) = (   0.0000000   0.2000000   0.0000000), wk =   0.0320000
        k(    5) = (   0.0000000   0.2000000   0.3103448), wk =   0.0640000
        k(    6) = (   0.0000000   0.2000000   0.6206897), wk =   0.0640000
        k(    7) = (   0.0000000   0.4000000   0.0000000), wk =   0.0320000
        k(    8) = (   0.0000000   0.4000000   0.3103448), wk =   0.0640000
        k(    9) = (   0.0000000   0.4000000   0.6206897), wk =   0.0640000
        k(   10) = (   0.2000000   0.2000000   0.0000000), wk =   0.0320000
        k(   11) = (   0.2000000   0.2000000   0.3103448), wk =   0.0640000
        k(   12) = (   0.2000000   0.2000000   0.6206897), wk =   0.0640000
        k(   13) = (   0.2000000   0.4000000   0.0000000), wk =   0.0640000
        k(   14) = (   0.2000000   0.4000000   0.3103448), wk =   0.1280000
        k(   15) = (   0.2000000   0.4000000   0.6206897), wk =   0.1280000
        k(   16) = (   0.4000000   0.4000000   0.0000000), wk =   0.0320000
        k(   17) = (   0.4000000   0.4000000   0.3103448), wk =   0.0640000
        k(   18) = (   0.4000000   0.4000000   0.6206897), wk =   0.0640000
        k(   19) = (   0.0000000   0.0000000   0.0000000), wk =   0.0080000
        k(   20) = (   0.0000000   0.0000000   0.3103448), wk =   0.0160000
        k(   21) = (   0.0000000   0.0000000   0.6206897), wk =   0.0160000
        k(   22) = (   0.0000000   0.2000000   0.0000000), wk =   0.0320000
        k(   23) = (   0.0000000   0.2000000   0.3103448), wk =   0.0640000
        k(   24) = (   0.0000000   0.2000000   0.6206897), wk =   0.0640000
        k(   25) = (   0.0000000   0.4000000   0.0000000), wk =   0.0320000
        k(   26) = (   0.0000000   0.4000000   0.3103448), wk =   0.0640000
        k(   27) = (   0.0000000   0.4000000   0.6206897), wk =   0.0640000
        k(   28) = (   0.2000000   0.2000000   0.0000000), wk =   0.0320000
        k(   29) = (   0.2000000   0.2000000   0.3103448), wk =   0.0640000
        k(   30) = (   0.2000000   0.2000000   0.6206897), wk =   0.0640000
        k(   31) = (   0.2000000   0.4000000   0.0000000), wk =   0.0640000
        k(   32) = (   0.2000000   0.4000000   0.3103448), wk =   0.1280000
        k(   33) = (   0.2000000   0.4000000   0.6206897), wk =   0.1280000
        k(   34) = (   0.4000000   0.4000000   0.0000000), wk =   0.0320000
        k(   35) = (   0.4000000   0.4000000   0.3103448), wk =   0.0640000
        k(   36) = (   0.4000000   0.4000000   0.6206897), wk =   0.0640000

     Largest allocated arrays     est. size (Mb)     dimensions
     Largest temporary arrays     est. size (Mb)     dimensions

     Check: negative/imaginary core charge=   -0.000008    0.000000

     Initial potential from superposition of free atoms

     starting charge   51.99787, renormalised to   52.00000
     Starting wfc are   42 randomized atomic wfcs

     Self-consistent Calculation

     iteration #  1     ecut=    40.00 Ry     beta=0.70
     Davidson diagonalization with overlap
     ethr =  1.00E-02,  avg # of iterations =  5.2

     negative rho (up, down):  0.000E+00 0.144E-02

     total energy              =    -406.57194985 Ry
     Harris-Foulkes estimate   =    -406.88076423 Ry
     estimated scf accuracy    <       2.44528697 Ry

     total magnetization       =     4.00 Bohr mag/cell
     absolute magnetization    =     4.75 Bohr mag/cell

[...]

     End of self-consistent calculation

 ------ SPIN UP ------------

          k = 0.0000 0.0000 0.0000 (  1623 PWs)   bands (ev):

   -45.1003 -45.0603 -19.6002 -19.6002 -19.2961 -19.2012 -19.1961 -19.1961
    -4.9083  -4.1131  -2.1247  -2.1247   6.5701   6.9710   7.5835   8.6488
     8.6488  11.3616  11.3616  12.0344  13.0104  13.0901  13.0901  13.7525
    15.9809  16.5258  16.9977  17.0642  17.0642  21.0064  21.1897  22.6377
    24.4216  24.4216  26.1827  26.2493  26.2493  29.9628  32.3949  32.9288
    33.1047  34.3962  35.1532  35.1532  37.6125  38.1082  38.3805  38.3805
    39.1472  39.1472  40.3625  44.8249  44.8249  45.1649  45.3846  46.3964
    48.1181  48.8938  48.8938  49.1192  49.6808  49.6808  50.2864  50.6417
    52.0773  52.2011  52.2011  52.5041  54.1742  56.0038  57.1722  57.1722
    57.7832  57.9889  58.4510  58.4510  59.3167  59.3171

[...]

 ------ SPIN DOWN ----------

[...]

     the Fermi energy is    17.5695 ev

!    total energy              =    -407.56123050 Ry
     Harris-Foulkes estimate   =    -407.56123026 Ry
     estimated scf accuracy    <       0.00000085 Ry

     The total energy is the sum of the following terms:

     one-electron contribution =     -84.31149889 Ry
     hartree contribution      =      77.96753904 Ry
     xc contribution           =     -68.49948842 Ry
     ewald contribution        =    -332.71784009 Ry
     smearing contrib. (-TS)   =       0.00005787 Ry

[...]

     convergence has been achieved in  12 iterations

     Forces acting on atoms (Ry/au):

     negative rho (up, down):  0.000E+00 0.473E-04
     atom    1 type  1   force =     0.00000000    0.00000000    0.00000000
     atom    2 type  1   force =     0.00000000    0.00000000   -0.00000000
     atom    3 type  2   force =    -0.08678638   -0.08678638    0.00000000
     atom    4 type  2   force =     0.08678638    0.08678638    0.00000000
     atom    5 type  2   force =    -0.08678638    0.08678638    0.00000000
     atom    6 type  2   force =     0.08678638   -0.08678638    0.00000000

     Total force =     0.245469     Total SCF correction =     0.000629

     entering subroutine stress ...

     negative rho (up, down):  0.000E+00 0.473E-04
          total   stress  (Ry/bohr**3)                   (kbar)     P=  804.50
   0.00529762   0.00000000   0.00000000        779.31      0.00      0.00
   0.00000000   0.00529762   0.00000000          0.00    779.31      0.00
   0.00000000   0.00000000   0.00581134          0.00      0.00    854.88

     Volume is kept fixed: isostatic pressure set to zero

     BFGS Geometry Optimization

     number of scf cycles    =   1
     number of bfgs steps    =   0

     enthalpy new            =    -407.5612304968 Ry

     new trust radius        =       0.1227344759 bohr
     new conv_thr            =       0.0000010000 Ry

     new unit-cell volume =    376.55707 a.u.^3 (    55.80000 Ang^3 )

CELL_PARAMETERS (alat=  8.36016997)
   0.995737202   0.000000000   0.000000000
   0.000000000   0.995737202   0.000000000
   0.000000000   0.000000000   0.649974050

ATOMIC_POSITIONS (crystal)
Mo0      0.000000000   0.000000000   0.000000000    0   0   0
Mo0      0.500000000   0.500000000   0.500000000    0   0   0
O1       0.294619065   0.294619065   0.000000000    1   1   0
O1      -0.294619065  -0.294619065   0.000000000    1   1   0
O1       0.794619065   0.205380935   0.500000000    1   1   0
O1       0.205380935   0.794619065   0.500000000    1   1   0

[...]
        k(   20) = (   0.0000000   0.0000000   0.3493969), wk =   0.0160000
        k(   21) = (   0.0000000   0.0000000   0.6987939), wk =   0.0160000
        k(   22) = (   0.0000000   0.1884919   0.0000000), wk =   0.0320000
        k(   23) = (   0.0000000   0.1884919   0.3493969), wk =   0.0640000
        k(   24) = (   0.0000000   0.1884919   0.6987939), wk =   0.0640000
        k(   25) = (   0.0000000   0.3769838   0.0000000), wk =   0.0320000
        k(   26) = (   0.0000000   0.3769838   0.3493969), wk =   0.0640000
        k(   27) = (   0.0000000   0.3769838   0.6987939), wk =   0.0640000
        k(   28) = (   0.1884919   0.1884919   0.0000000), wk =   0.0320000
        k(   29) = (   0.1884919   0.1884919   0.3493969), wk =   0.0640000
        k(   30) = (   0.1884919   0.1884919   0.6987939), wk =   0.0640000
        k(   31) = (   0.1884919   0.3769838   0.0000000), wk =   0.0640000
        k(   32) = (   0.1884919   0.3769838   0.3493969), wk =   0.1280000
        k(   33) = (   0.1884919   0.3769838   0.6987939), wk =   0.1280000
        k(   34) = (   0.3769838   0.3769838   0.0000000), wk =   0.0320000
        k(   35) = (   0.3769838   0.3769838   0.3493969), wk =   0.0640000
        k(   36) = (   0.3769838   0.3769838   0.6987939), wk =   0.0640000

[...]

     Threshold (ethr) on eigenvalues was too large:
     Diagonalizing with lowered threshold

     Davidson diagonalization with overlap
     ethr =  2.29E-09,  avg # of iterations =  2.1

[...]

     Total force =     0.000148     Total SCF correction =     0.000016
     SCF correction compared to forces is large: reduce conv_thr to get better values

[...]

     Volume is kept fixed: isostatic pressure set to zero
Begin final coordinates
     new unit-cell volume =    376.55707 a.u.^3 (    55.80000 Ang^3 )

[...]

ATOMIC_POSITIONS (crystal)
Mo0      0.000000000   0.000000000   0.000000000    0   0   0
Mo0      0.500000000   0.500000000   0.500000000    0   0   0
O1       0.278465588   0.278465588   0.000000000    1   1   0
O1      -0.278465588  -0.278465588   0.000000000    1   1   0
O1       0.778465588   0.221534412   0.500000000    1   1   0
O1       0.221534412   0.778465588   0.500000000    1   1   0
End final coordinates

     lsda relaxation :  a final configuration with zero
                        absolute magnetization has been found

     the program is checking if it is really the minimum energy structure
     by performing a new scf iteration without any "electronic" history

[...]

     starting charge   51.99787, renormalised to   52.00000
     Starting wfc are   42 randomized atomic wfcs
     NEW-OLD atomic charge density approx. for the potential
     NEW k-points:
        k(    1) = (   0.0000000   0.0000000   0.0000000), wk =   0.0080000
        k(    2) = (   0.0000000   0.0000000   0.3493969), wk =   0.0160000
        k(    3) = (   0.0000000   0.0000000   0.6987939), wk =   0.0160000
        k(    4) = (   0.0000000   0.1884919   0.0000000), wk =   0.0320000
        k(    5) = (   0.0000000   0.1884919   0.3493969), wk =   0.0640000
        k(    6) = (   0.0000000   0.1884919   0.6987939), wk =   0.0640000
        k(    7) = (   0.0000000   0.3769838   0.0000000), wk =   0.0320000
        k(    8) = (   0.0000000   0.3769838   0.3493969), wk =   0.0640000
        k(    9) = (   0.0000000   0.3769838   0.6987939), wk =   0.0640000
        k(   10) = (   0.1884919   0.1884919   0.0000000), wk =   0.0320000
        k(   11) = (   0.1884919   0.1884919   0.3493969), wk =   0.0640000
        k(   12) = (   0.1884919   0.1884919   0.6987939), wk =   0.0640000
        k(   13) = (   0.1884919   0.3769838   0.0000000), wk =   0.0640000
        k(   14) = (   0.1884919   0.3769838   0.3493969), wk =   0.1280000
        k(   15) = (   0.1884919   0.3769838   0.6987939), wk =   0.1280000
        k(   16) = (   0.3769838   0.3769838   0.0000000), wk =   0.0320000
        k(   17) = (   0.3769838   0.3769838   0.3493969), wk =   0.0640000
        k(   18) = (   0.3769838   0.3769838   0.6987939), wk =   0.0640000
        k(   19) = (   0.0000000   0.0000000   0.0000000), wk =   0.0080000
        k(   20) = (   0.0000000   0.0000000   0.3493969), wk =   0.0160000
        k(   21) = (   0.0000000   0.0000000   0.6987939), wk =   0.0160000
        k(   22) = (   0.0000000   0.1884919   0.0000000), wk =   0.0320000
        k(   23) = (   0.0000000   0.1884919   0.3493969), wk =   0.0640000
        k(   24) = (   0.0000000   0.1884919   0.6987939), wk =   0.0640000
        k(   25) = (   0.0000000   0.3769838   0.0000000), wk =   0.0320000
        k(   26) = (   0.0000000   0.3769838   0.3493969), wk =   0.0640000
        k(   27) = (   0.0000000   0.3769838   0.6987939), wk =   0.0640000
        k(   28) = (   0.1884919   0.1884919   0.0000000), wk =   0.0320000
        k(   29) = (   0.1884919   0.1884919   0.3493969), wk =   0.0640000
        k(   30) = (   0.1884919   0.1884919   0.6987939), wk =   0.0640000
        k(   31) = (   0.1884919   0.3769838   0.0000000), wk =   0.0640000
        k(   32) = (   0.1884919   0.3769838   0.3493969), wk =   0.1280000
        k(   33) = (   0.1884919   0.3769838   0.6987939), wk =   0.1280000
        k(   34) = (   0.3769838   0.3769838   0.0000000), wk =   0.0320000
        k(   35) = (   0.3769838   0.3769838   0.3493969), wk =   0.0640000
        k(   36) = (   0.3769838   0.3769838   0.6987939), wk =   0.0640000

[...]

     Volume is kept fixed: isostatic pressure set to zero

     bfgs converged in  15 scf cycles and  13 bfgs steps
     (criteria: energy < 0.10E-03, force < 0.10E-02, cell < 0.50E+00)

     End of BFGS Geometry Optimization

     Final enthalpy =    -407.6796719571 Ry
Begin final coordinates
     new unit-cell volume =    376.55707 a.u.^3 (    55.80000 Ang^3 )

CELL_PARAMETERS (alat=  8.36016997)
   1.061053536   0.000000000   0.000000000
   0.000000000   1.061053536   0.000000000
   0.000000000   0.000000000   0.572414847

ATOMIC_POSITIONS (crystal)
Mo0      0.000000000   0.000000000   0.000000000    0   0   0
Mo0      0.500000000   0.500000000   0.500000000    0   0   0
O1       0.278465588   0.278465588   0.000000000    1   1   0
O1      -0.278465588  -0.278465588   0.000000000    1   1   0
O1       0.778465588   0.221534412   0.500000000    1   1   0
O1       0.221534412   0.778465588   0.500000000    1   1   0
End final coordinates

     A final scf calculation at the relaxed structure.
     The G-vectors are recalculated for the final unit cell
     Results may differ from those at the preceding step.

     bravais-lattice index     =            0
     lattice parameter (alat)  =       8.3602  a.u.
     unit-cell volume          =     376.5571 (a.u.)^3
     number of atoms/cell      =            6
     number of atomic types    =            2
     number of electrons       =        52.00
     number of Kohn-Sham states=           78
     kinetic-energy cutoff     =      40.0000  Ry
     charge density cutoff     =     500.0000  Ry
     convergence threshold     =      1.0E-08
     mixing beta               =       0.7000
     number of iterations used =            8  plain     mixing
     Exchange-correlation      = SLA  PW   PBE  PBE ( 1 4 3 4 0)
     EXX-fraction              =        0.00

     celldm(1)=   8.360170  celldm(2)=   0.000000  celldm(3)=   0.000000
     celldm(4)=   0.000000  celldm(5)=   0.000000  celldm(6)=   0.000000

     crystal axes: (cart. coord. in units of alat)
               a(1) = (   1.061054   0.000000   0.000000 )
               a(2) = (   0.000000   1.061054   0.000000 )
               a(3) = (   0.000000   0.000000   0.572415 )

     reciprocal axes: (cart. coord. in units 2 pi/alat)
               b(1) = (  0.942460  0.000000  0.000000 )
               b(2) = (  0.000000  0.942460  0.000000 )
               b(3) = (  0.000000  0.000000  1.746985 )

     PseudoPot. # 1 for Mo read from file:
     /home/camp/zhonxu/pseudo/mo_pbe_v1.uspp.F.UPF
     MD5 check sum: 30c4dcd161f5d35cd49bb5239c51a633
     Pseudo is Ultrasoft + core correction, Zval = 14.0
     Generated by new atomic code, or converted to UPF format
     Using radial grid of  889 points,  6 beta functions with:
                l(1) =   0
                l(2) =   0
                l(3) =   1
                l(4) =   1
                l(5) =   2
                l(6) =   2
     Q(r) pseudized with  6 coefficients,  rinner =    1.000   1.000   1.000
                                                       1.000   1.000

     PseudoPot. # 2 for O  read from file:
     /home/camp/zhonxu/pseudo/o_pbe_v1.01.uspp.F.UPF
     MD5 check sum: 2bcb18d16ea4b960afae9ec6d52f22d2
     Pseudo is Ultrasoft + core correction, Zval =  6.0
     Generated by new atomic code, or converted to UPF format
     Using radial grid of  737 points,  5 beta functions with:
                l(1) =   0
                l(2) =   0
                l(3) =   1
                l(4) =   1
                l(5) =   2
     Q(r) pseudized with  8 coefficients,  rinner =    0.900   0.900   0.900
                                                       0.900   0.900

     atomic species   valence    mass     pseudopotential
        Mo0           14.00    95.94000     Mo( 1.00)
        O1             6.00    15.99940     O ( 1.00)

     Starting magnetic structure
     atomic species   magnetization
        Mo0          0.600
        O1           0.000

     16 Sym. Ops., with inversion, found ( 8 have fractional translation)

   Cartesian axes

     site n.     atom                  positions (alat units)
         1           Mo0 tau(   1) = (   0.0000000   0.0000000   0.0000000  )
         2           Mo0 tau(   2) = (   0.5305268   0.5305268   0.2862074  )
         3           O1  tau(   3) = (   0.2954669   0.2954669   0.0000000  )
         4           O1  tau(   4) = (  -0.2954669  -0.2954669   0.0000000  )
         5           O1  tau(   5) = (   0.8259937   0.2350599   0.2862074  )
         6           O1  tau(   6) = (   0.2350599   0.8259937   0.2862074  )

     number of k points=    36  Methfessel-Paxton smearing, width (Ry)=  0.0100
                       cart. coord. in units 2pi/alat
        k(    1) = (   0.0000000   0.0000000   0.0000000), wk =   0.0080000
        k(    2) = (   0.0000000   0.0000000   0.3493969), wk =   0.0160000
        k(    3) = (   0.0000000   0.0000000   0.6987939), wk =   0.0160000
        k(    4) = (   0.0000000   0.1884919   0.0000000), wk =   0.0320000
        k(    5) = (   0.0000000   0.1884919   0.3493969), wk =   0.0640000
        k(    6) = (   0.0000000   0.1884919   0.6987939), wk =   0.0640000
        k(    7) = (   0.0000000   0.3769838   0.0000000), wk =   0.0320000
        k(    8) = (   0.0000000   0.3769838   0.3493969), wk =   0.0640000
        k(    9) = (   0.0000000   0.3769838   0.6987939), wk =   0.0640000
        k(   10) = (   0.1884919   0.1884919   0.0000000), wk =   0.0320000
        k(   11) = (   0.1884919   0.1884919   0.3493969), wk =   0.0640000
        k(   12) = (   0.1884919   0.1884919   0.6987939), wk =   0.0640000
        k(   13) = (   0.1884919   0.3769838   0.0000000), wk =   0.0640000
        k(   14) = (   0.1884919   0.3769838   0.3493969), wk =   0.1280000
        k(   15) = (   0.1884919   0.3769838   0.6987939), wk =   0.1280000
        k(   16) = (   0.3769838   0.3769838   0.0000000), wk =   0.0320000
        k(   17) = (   0.3769838   0.3769838   0.3493969), wk =   0.0640000
        k(   18) = (   0.3769838   0.3769838   0.6987939), wk =   0.0640000
        k(   19) = (   0.0000000   0.0000000   0.0000000), wk =   0.0080000
        k(   20) = (   0.0000000   0.0000000   0.3493969), wk =   0.0160000
        k(   21) = (   0.0000000   0.0000000   0.6987939), wk =   0.0160000
        k(   22) = (   0.0000000   0.1884919   0.0000000), wk =   0.0320000
        k(   23) = (   0.0000000   0.1884919   0.3493969), wk =   0.0640000
        k(   24) = (   0.0000000   0.1884919   0.6987939), wk =   0.0640000
        k(   25) = (   0.0000000   0.3769838   0.0000000), wk =   0.0320000
        k(   26) = (   0.0000000   0.3769838   0.3493969), wk =   0.0640000
        k(   27) = (   0.0000000   0.3769838   0.6987939), wk =   0.0640000
        k(   28) = (   0.1884919   0.1884919   0.0000000), wk =   0.0320000
        k(   29) = (   0.1884919   0.1884919   0.3493969), wk =   0.0640000
        k(   30) = (   0.1884919   0.1884919   0.6987939), wk =   0.0640000
        k(   31) = (   0.1884919   0.3769838   0.0000000), wk =   0.0640000
        k(   32) = (   0.1884919   0.3769838   0.3493969), wk =   0.1280000
        k(   33) = (   0.1884919   0.3769838   0.6987939), wk =   0.1280000
        k(   34) = (   0.3769838   0.3769838   0.0000000), wk =   0.0320000
        k(   35) = (   0.3769838   0.3769838   0.3493969), wk =   0.0640000
        k(   36) = (   0.3769838   0.3769838   0.6987939), wk =   0.0640000

     Largest allocated arrays     est. size (Mb)     dimensions
     Largest temporary arrays     est. size (Mb)     dimensions

     Check: negative/imaginary core charge=   -0.000008    0.000000

     Initial potential from superposition of free atoms

     starting charge   51.99787, renormalised to   52.00000
     Starting wfc are   42 randomized atomic wfcs

     Self-consistent Calculation

[...]

     total energy              =    -407.68010068 Ry
     Harris-Foulkes estimate   =    -407.68010067 Ry
     estimated scf accuracy    <       0.00000002 Ry

[...]

     iteration # 11     ecut=    40.00 Ry     beta=0.70
     Davidson diagonalization with overlap
     ethr =  4.52E-11,  avg # of iterations =  2.0

     negative rho (up, down):  0.149E-04 0.149E-04

     End of self-consistent calculation

 ------ SPIN UP ------------

[...]

 ------ SPIN DOWN ----------

[...]

          k = 0.3770 0.3770 0.6988 (  1611 PWs)   bands (ev):

   -45.2966 -45.2959 -20.5546 -20.5505 -19.9204 -19.9125 -19.4427 -19.4407
    -3.5765  -3.2212  -2.9343  -2.5174   7.7718   8.1553   8.5223   8.8566
     9.3912   9.6368   9.9868  11.0868  11.4782  11.7460  12.9110  13.0391
    16.3457  16.5563  17.6658  18.1040  20.0315  20.1624  22.1760  23.2484
    23.7261  24.4954  26.4471  26.6247  28.7421  28.8332  31.4475  31.5691
    33.5617  33.8956  35.2183  35.4015  36.5679  36.8588  37.9022  38.3693
    41.8746  41.8930  42.2249  42.7785  44.3541  45.2460  45.8668  46.3993
    47.8441  48.1811  48.6076  49.0404  49.7948  50.2709  50.9830  51.0071
    51.6464  52.2313  52.5761  53.2539  53.9142  53.9645  54.7491  54.8383
    56.2558  57.3465  59.8606  60.4009  60.6477  61.2457

     the Fermi energy is    16.5812 ev

!    total energy              =    -407.68010076 Ry
     Harris-Foulkes estimate   =    -407.68010076 Ry
     estimated scf accuracy    <          1.0E-09 Ry

     The total energy is the sum of the following terms:

     one-electron contribution =     -88.24704128 Ry
     hartree contribution      =      79.54474634 Ry
     xc contribution           =     -68.41876133 Ry
     ewald contribution        =    -330.55889034 Ry
     smearing contrib. (-TS)   =      -0.00015415 Ry

     total magnetization       =     0.00 Bohr mag/cell
     absolute magnetization    =     0.00 Bohr mag/cell

     convergence has been achieved in  11 iterations

     Forces acting on atoms (Ry/au):

     negative rho (up, down):  0.149E-04 0.149E-04
     atom    1 type  1   force =     0.00000000    0.00000000   -0.00000000
     atom    2 type  1   force =     0.00000000    0.00000000   -0.00000000
     atom    3 type  2   force =    -0.00002946   -0.00002946    0.00000000
     atom    4 type  2   force =     0.00002946    0.00002946    0.00000000
     atom    5 type  2   force =    -0.00002946    0.00002946    0.00000000
     atom    6 type  2   force =     0.00002946   -0.00002946    0.00000000

     Total force =     0.000083     Total SCF correction =     0.000008

     entering subroutine stress ...

     negative rho (up, down):  0.149E-04 0.149E-04
          total   stress  (Ry/bohr**3)                   (kbar)     P=  692.96
   0.00472079   0.00000000   0.00000000        694.45      0.00      0.00
   0.00000000   0.00472079   0.00000000          0.00    694.45      0.00
   0.00000000   0.00000000   0.00469030          0.00      0.00    689.97

     General routines

     Parallel routines

   This run was terminated on:  21:34: 0  23Jan2014

   JOB DONE.
Running PBS batch system epilogue script
Job id: 251177.audhumbla.fysik.dtu.dk
Username: zhonxu
Groupname: campgst
Jobname: MoO2/coarse-EOS/MoO2-v-0.9
Sessionid: 27832
Queuename: verylong
Accounting:
This job has allocated the following 4 nodes:
q005 q005 q005 q005
Finished epilogue job 251177.audhumbla.fysik.dtu.dk for zhonxu