     Program PWSCF v.5.0.2 (svn rev. 9656) starts on  4May2014 at 19:32:27

     Current dimensions of program PWSCF are:
     Max number of different atomic species (ntypx) = 10
     Max number of k-points (npk) =  40000
     Max angular momentum in pseudopotentials (lmaxx) =  3
     Reading input from pwscf.in
Warning: card &CELL ignored
Warning: card / ignored

     Subspace diagonalization in iterative solution of the eigenvalue problem:
     a serial algorithm will be used

     bravais-lattice index     =            0
     lattice parameter (alat)  =      10.7336  a.u.
     unit-cell volume          =    6184.1966 (a.u.)^3
     number of atoms/cell      =           32
     number of atomic types    =            3
     number of electrons       =       239.00 (up: 131.00, down: 108.00)
     number of Kohn-Sham states=          346
     kinetic-energy cutoff     =      40.0000  Ry
     charge density cutoff     =     500.0000  Ry
     convergence threshold     =      1.0E-06
     mixing beta               =       0.7000
     number of iterations used =            8  plain     mixing
     Exchange-correlation      = SLA  PW   PBE  PBE ( 1 4 3 4 0)
     EXX-fraction              =        0.00
     nstep                     =           50

     celldm(1)=  10.733644  celldm(2)=   0.000000  celldm(3)=   0.000000
     celldm(4)=   0.000000  celldm(5)=   0.000000  celldm(6)=   0.000000

     crystal axes: (cart. coord. in units of alat)
               a(1) = (   1.000000   0.000000   0.000000 )
               a(2) = (   0.000000   1.085558   0.000000 )
               a(3) = (   0.000000   0.000000   4.606685 )

     reciprocal axes: (cart. coord. in units 2 pi/alat)
               b(1) = (  1.000000  0.000000  0.000000 )
               b(2) = (  0.000000  0.921185  0.000000 )
               b(3) = (  0.000000  0.000000  0.217076 )

     PseudoPot. # 1 for O  read from file:
     /home/camp/zhonxu/pseudo/o_pbe_v1.01.uspp.F.UPF
     MD5 check sum: 2bcb18d16ea4b960afae9ec6d52f22d2
     Pseudo is Ultrasoft + core correction, Zval =  6.0
     Generated by new atomic code, or converted to UPF format
     Using radial grid of  737 points,  5 beta functions with:
                l(1) =   0
                l(2) =   0
                l(3) =   1
                l(4) =   1
                l(5) =   2
     Q(r) pseudized with  8 coefficients,  rinner =    0.900   0.900   0.900
                                                       0.900   0.900

     PseudoPot. # 2 for Mn read from file:
     /home/camp/zhonxu/pseudo/mn_pbe_v1.uspp.F.UPF
     MD5 check sum: 5fd7c7b5c956fd19902447332617373a
     Pseudo is Ultrasoft + core correction, Zval = 15.0
     Generated by new atomic code, or converted to UPF format
     Using radial grid of  859 points,  6 beta functions with:
                l(1) =   0
                l(2) =   0
                l(3) =   1
                l(4) =   1
                l(5) =   2
                l(6) =   2
     Q(r) pseudized with  6 coefficients,  rinner =    1.150   1.150   1.150
                                                       1.150   1.150

     PseudoPot. # 3 for H  read from file:
     /home/camp/zhonxu/pseudo/h_pbe_v1.uspp.F.UPF
     MD5 check sum: 3408e3ff4ec8b0a4e358431e7e038a48
     Pseudo is Ultrasoft, Zval =  1.0
     Generated by new atomic code, or converted to UPF format
     Using radial grid of  615 points,  2 beta functions with:
                l(1) =   0
                l(2) =   0
     Q(r) pseudized with  8 coefficients,  rinner =    0.700

     atomic species   valence    mass     pseudopotential
        O0             6.00    15.99940     O ( 1.00)
        Mn1           15.00    54.93800     Mn( 1.00)
        H2             1.00     1.00794     H ( 1.00)

     Starting magnetic structure
     atomic species   magnetization
        O0           0.000
        Mn1          0.600
        H2           0.000

     Simplified LDA+U calculation (l_max = 2) with parameters (eV):
     atomic species    L          U    alpha       J0     beta
        Mn1            2     4.0000   0.0000   0.0000   0.0000

     No symmetry found

   Cartesian axes

     site n.     atom                  positions (alat units)
         1           O0  tau(   1) = (   0.0000000   0.0000000   1.7414191  )
         2           O0  tau(   2) = (   0.0000000   0.5427791   1.8381134  )
         3           Mn1 tau(   3) = (   0.2500000   0.5427791   2.0740217  )
         4           Mn1 tau(   4) = (   0.0000000   0.0000000   2.0686319  )
         5           O0  tau(   5) = (   0.2500000   0.8684466   2.0678488  )
         6           O0  tau(   6) = (   0.2500000   0.2171117   2.0737453  )
         7           O0  tau(   7) = (   0.0000000   0.5427791   2.2873573  )
         8           O0  tau(   8) = (   0.0000000   0.0000000   2.4132120  )
         9           Mn1 tau(   9) = (   0.2500000   0.0000000   2.6399991  )
        10           Mn1 tau(  10) = (   0.0000000   0.5427791   2.6085815  )
        11           O0  tau(  11) = (   0.2500000   0.7598908   2.6551551  )
        12           O0  tau(  12) = (   0.2500000   0.3256675   2.6556157  )
        13           O0  tau(  13) = (   0.0000000   0.0000000   2.8417258  )
        14           O0  tau(  14) = (   0.5000000   0.0000000   1.7428932  )
        15           O0  tau(  15) = (   0.5000000   0.5427791   1.8386662  )
        16           Mn1 tau(  16) = (   0.7500000   0.5427791   2.0740678  )
        17           Mn1 tau(  17) = (   0.5000000   0.0000000   2.0707510  )
        18           O0  tau(  18) = (   0.7500000   0.8684466   2.0677106  )
        19           O0  tau(  19) = (   0.7500000   0.2171117   2.0738835  )
        20           O0  tau(  20) = (   0.5000000   0.5427791   2.2871270  )
        21           O0  tau(  21) = (   0.5000000   0.0000000   2.4132120  )
        22           Mn1 tau(  22) = (   0.7500000   0.0000000   2.6413811  )
        23           Mn1 tau(  23) = (   0.5000000   0.5427791   2.6662572  )
        24           O0  tau(  24) = (   0.7500000   0.7598908   2.6473698  )
        25           O0  tau(  25) = (   0.7500000   0.3256675   2.6477844  )
        26           O0  tau(  26) = (   0.5000000   0.0000000   2.8412191  )
        27           H2  tau(  27) = (   0.0000400   0.7014118   1.7620570  )
        28           H2  tau(  28) = (   0.5000900   0.7016832   1.7629323  )
        29           H2  tau(  29) = (   0.1613600   0.0398291   1.6869220  )
        30           H2  tau(  30) = (   0.6610200   0.0399703   1.6876591  )
        31           O0  tau(  31) = (   0.5153900   0.5432351   2.9826904  )
        32           H2  tau(  32) = (   0.3575300   0.5430397   3.0540479  )

     number of k points=    20  Methfessel-Paxton smearing, width (Ry)=  0.0100
                       cart. coord. in units 2pi/alat
        k(    1) = (   0.0000000   0.0000000   0.0000000), wk =   0.0625000
        k(    2) = (   0.0000000   0.2302962   0.0000000), wk =   0.1250000
        k(    3) = (   0.0000000  -0.4605925   0.0000000), wk =   0.0625000
        k(    4) = (   0.2500000   0.0000000   0.0000000), wk =   0.1250000
        k(    5) = (   0.2500000   0.2302962   0.0000000), wk =   0.1250000
        k(    6) = (   0.2500000  -0.4605925   0.0000000), wk =   0.1250000
        k(    7) = (  -0.5000000   0.0000000   0.0000000), wk =   0.0625000
        k(    8) = (  -0.5000000   0.2302962   0.0000000), wk =   0.1250000
        k(    9) = (  -0.5000000  -0.4605925   0.0000000), wk =   0.0625000
        k(   10) = (  -0.2500000   0.2302962   0.0000000), wk =   0.1250000
        k(   11) = (   0.0000000   0.0000000   0.0000000), wk =   0.0625000
        k(   12) = (   0.0000000   0.2302962   0.0000000), wk =   0.1250000
        k(   13) = (   0.0000000  -0.4605925   0.0000000), wk =   0.0625000
        k(   14) = (   0.2500000   0.0000000   0.0000000), wk =   0.1250000
        k(   15) = (   0.2500000   0.2302962   0.0000000), wk =   0.1250000
        k(   16) = (   0.2500000  -0.4605925   0.0000000), wk =   0.1250000
        k(   17) = (  -0.5000000   0.0000000   0.0000000), wk =   0.0625000
        k(   18) = (  -0.5000000   0.2302962   0.0000000), wk =   0.1250000
        k(   19) = (  -0.5000000  -0.4605925   0.0000000), wk =   0.0625000
        k(   20) = (  -0.2500000   0.2302962   0.0000000), wk =   0.1250000

     Largest allocated arrays     est. size (Mb)     dimensions
     Largest temporary arrays     est. size (Mb)     dimensions

     Check: negative/imaginary core charge=   -0.000022    0.000000

     Initial potential from superposition of free atoms
     Check: negative starting charge=(component1):   -0.000716
     Check: negative starting charge=(component2):   -0.000389

     starting charge  230.99986, renormalised to  239.00000

     negative rho (up, down):  0.741E-03 0.403E-03
     Number of +U iterations with fixed ns =  0
     Starting occupations:
 --- enter write_ns ---
 LDA+U parameters:
U( 2)     =  4.00000000
alpha( 2) =  0.00000000
atom    3   Tr[ns(na)] (up, down, total) =   5.00000  0.00000  5.00000
   spin  1
    eigenvalues:
  1.000  1.000  1.000  1.000  1.000
    eigenvectors:
  1.000  0.000  0.000  0.000  0.000
  0.000  1.000  0.000  0.000  0.000
  0.000  0.000  1.000  0.000  0.000
  0.000  0.000  0.000  1.000  0.000
  0.000  0.000  0.000  0.000  1.000
    occupations:
  1.000  0.000  0.000  0.000  0.000
  0.000  1.000  0.000  0.000  0.000
  0.000  0.000  1.000  0.000  0.000
  0.000  0.000  0.000  1.000  0.000
  0.000  0.000  0.000  0.000  1.000
   spin  2
    eigenvalues:
  0.000  0.000  0.000  0.000  0.000
    eigenvectors:
  1.000  0.000  0.000  0.000  0.000
  0.000  1.000  0.000  0.000  0.000
  0.000  0.000  1.000  0.000  0.000
  0.000  0.000  0.000  1.000  0.000
  0.000  0.000  0.000  0.000  1.000
    occupations:
  0.000  0.000  0.000  0.000  0.000
  0.000  0.000  0.000  0.000  0.000
  0.000  0.000  0.000  0.000  0.000
  0.000  0.000  0.000  0.000  0.000
  0.000  0.000  0.000  0.000  0.000
atomic mag. moment =     5.000000
atom    4   Tr[ns(na)] (up, down, total) =   5.00000  0.00000  5.00000
   spin  1
    eigenvalues:
  1.000  1.000  1.000  1.000  1.000
    eigenvectors:
  1.000  0.000  0.000  0.000  0.000
  0.000  1.000  0.000  0.000  0.000
  0.000  0.000  1.000  0.000  0.000
  0.000  0.000  0.000  1.000  0.000
  0.000  0.000  0.000  0.000  1.000
    occupations:
  1.000  0.000  0.000  0.000  0.000
  0.000  1.000  0.000  0.000  0.000
  0.000  0.000  1.000  0.000  0.000
  0.000  0.000  0.000  1.000  0.000
  0.000  0.000  0.000  0.000  1.000
   spin  2
    eigenvalues:
  0.000  0.000  0.000  0.000  0.000
    eigenvectors:
  1.000  0.000  0.000  0.000  0.000
  0.000  1.000  0.000  0.000  0.000
  0.000  0.000  1.000  0.000  0.000
  0.000  0.000  0.000  1.000  0.000
  0.000  0.000  0.000  0.000  1.000
    occupations:
  0.000  0.000  0.000  0.000  0.000
  0.000  0.000  0.000  0.000  0.000
  0.000  0.000  0.000  0.000  0.000
  0.000  0.000  0.000  0.000  0.000
  0.000  0.000  0.000  0.000  0.000
atomic mag. moment =     5.000000
atom    9   Tr[ns(na)] (up, down, total) =   5.00000  0.00000  5.00000
   spin  1
    eigenvalues:
  1.000  1.000  1.000  1.000  1.000
[...]
    eigenvectors:
  0.780  0.000  0.003  0.002  0.215
  0.000  0.002  0.000  0.985  0.013
  0.003  0.002  0.995  0.000  0.000
  0.217  0.000  0.000  0.012  0.771
  0.000  0.996  0.002  0.002  0.000
    occupations:
  0.158 -0.003 -0.002  0.114 -0.000
 -0.003  0.368  0.000  0.001  0.011
 -0.002  0.000  0.146  0.002 -0.001
  0.114  0.001  0.002  0.315 -0.000
 -0.000  0.011 -0.001 -0.000  0.128
atomic mag. moment =     3.194056
atom    4   Tr[ns(na)] (up, down, total) =   4.30373  1.11094  5.41467
   spin  1
    eigenvalues:
  0.621  0.680  0.995  1.004  1.004
    eigenvectors:
  0.000  0.998  0.000  0.001  0.000
  0.000  0.001  0.000  0.926  0.073
  0.000  0.000  0.000  0.073  0.927
  0.000  0.000  0.999  0.000  0.000
  1.000  0.000  0.000  0.000  0.000
    occupations:
  0.681 -0.010 -0.006  0.007 -0.001
 -0.010  1.003 -0.000  0.000 -0.000
 -0.006 -0.000  1.004  0.000  0.000
  0.007  0.000  0.000  0.995  0.000
 -0.001 -0.000  0.000  0.000  0.621
   spin  2
    eigenvalues:
  0.095  0.126  0.145  0.366  0.380
    eigenvectors:
  0.003  0.003  0.000  0.994  0.000
  0.001  0.862  0.133  0.003  0.000
  0.001  0.132  0.867  0.001  0.000
  0.995  0.002  0.000  0.003  0.000
  0.000  0.000  0.000  0.000  1.000
    occupations:
  0.365  0.013  0.006 -0.014  0.000
  0.013  0.129 -0.006  0.000 -0.005
  0.006 -0.006  0.142  0.001 -0.000
 -0.014  0.000  0.001  0.096 -0.000
  0.000 -0.005 -0.000 -0.000  0.379
atomic mag. moment =     3.192784
atom    9   Tr[ns(na)] (up, down, total) =   4.28659  1.16523  5.45183
   spin  1
    eigenvalues:
  0.659  0.675  0.966  0.989  0.998
    eigenvectors:
  0.222  0.000  0.000  0.000  0.778
  0.000  1.000  0.000  0.000  0.000
  0.000  0.000  0.013  0.987  0.000
  0.778  0.000  0.000  0.000  0.222
  0.000  0.000  0.987  0.013  0.000
    occupations:
  0.923  0.001 -0.000 -0.141  0.000
  0.001  0.675  0.000 -0.001  0.000
 -0.000  0.000  0.988 -0.000  0.003
 -0.141 -0.001 -0.000  0.734  0.000
  0.000  0.000  0.003  0.000  0.966
   spin  2
    eigenvalues:
  0.116  0.135  0.139  0.377  0.399
    eigenvectors:
  0.814  0.000  0.000  0.186  0.000
  0.000  0.000  0.000  0.004  0.996
  0.000  0.001  0.999  0.000  0.000
  0.186  0.000  0.000  0.810  0.004
  0.000  0.999  0.001  0.000  0.000
    occupations:
  0.164 -0.001  0.000  0.102 -0.000
 -0.001  0.399 -0.000  0.002 -0.000
  0.000 -0.000  0.139  0.000  0.000
  0.102  0.002  0.000  0.328 -0.000
 -0.000 -0.000  0.000 -0.000  0.135
atomic mag. moment =     3.121358
atom   10   Tr[ns(na)] (up, down, total) =   4.53477  0.80897  5.34374
   spin  1
    eigenvalues:
  0.627  0.912  0.996  0.998  1.001
    eigenvectors:
  0.000  0.979  0.021  0.001  0.000
  0.000  0.002  0.011  0.987  0.000
  0.000  0.000  0.000  0.000  1.000
  0.000  0.020  0.968  0.012  0.000
  1.000  0.000  0.000  0.000  0.000
    occupations:
  0.914 -0.003  0.001  0.012  0.000
 -0.003  0.998  0.000  0.001 -0.001
  0.001  0.000  1.001 -0.000  0.006
  0.012  0.001 -0.000  0.994 -0.000
  0.000 -0.001  0.006 -0.000  0.627
   spin  2
    eigenvalues:
  0.081  0.100  0.106  0.184  0.338
    eigenvectors:
  0.021  0.000  0.000  0.979  0.000
  0.000  0.000  1.000  0.000  0.000
  0.000  1.000  0.000  0.000  0.000
  0.979  0.000  0.000  0.021  0.000
  0.000  0.000  0.000  0.000  1.000
    occupations:
  0.182  0.001 -0.000 -0.015  0.000
  0.001  0.106  0.000 -0.000  0.001
 -0.000  0.000  0.100 -0.000 -0.004
 -0.015 -0.000 -0.000  0.083 -0.000
  0.000  0.001 -0.004 -0.000  0.338
atomic mag. moment =     3.725793
atom   16   Tr[ns(na)] (up, down, total) =   4.30833  1.11361  5.42194
   spin  1
    eigenvalues:
  0.646  0.663  0.998  0.998  1.003
    eigenvectors:
  0.224  0.020  0.009  0.714  0.033
  0.112  0.887  0.001  0.001  0.000
  0.000  0.000  0.000  0.041  0.959
  0.664  0.092  0.003  0.233  0.007
  0.000  0.001  0.988  0.011  0.000
    occupations:
  0.913 -0.011 -0.004 -0.150 -0.000
 -0.011  0.661 -0.000  0.000 -0.009
 -0.004 -0.000  1.003 -0.004 -0.000
 -0.150  0.000 -0.004  0.733  0.000
 -0.000 -0.009 -0.000  0.000  0.998
   spin  2
    eigenvalues:
  0.098  0.127  0.147  0.367  0.374
    eigenvectors:
  0.780  0.000  0.003  0.000  0.217
  0.000  0.002  0.000  0.995  0.003
  0.003  0.001  0.996  0.000  0.000
  0.217  0.000  0.000  0.003  0.780
  0.000  0.997  0.001  0.002  0.000
    occupations:
  0.158  0.003 -0.002  0.114  0.000
  0.003  0.367 -0.000 -0.001  0.011
 -0.002 -0.000  0.147  0.002  0.001
  0.114 -0.001  0.002  0.314 -0.000
  0.000  0.011  0.001 -0.000  0.128
atomic mag. moment =     3.194714
atom   17   Tr[ns(na)] (up, down, total) =   4.30292  1.11062  5.41354
   spin  1
    eigenvalues:
  0.622  0.678  0.995  1.003  1.004
    eigenvectors:
  0.000  0.998  0.000  0.001  0.001
  0.000  0.001  0.000  0.971  0.027
  0.000  0.000  0.000  0.028  0.972
  0.000  0.000  0.999  0.000  0.000
  1.000  0.000  0.000  0.000  0.000
    occupations:
  0.679 -0.010 -0.006  0.006 -0.001
 -0.010  1.003 -0.000  0.000 -0.000
 -0.006 -0.000  1.003  0.000 -0.000
  0.006  0.000  0.000  0.995  0.000
 -0.001 -0.000 -0.000  0.000  0.622
   spin  2
    eigenvalues:
  0.095  0.126  0.144  0.366  0.380
    eigenvectors:
  0.003  0.003  0.000  0.994  0.000
  0.001  0.859  0.136  0.003  0.000
  0.001  0.135  0.863  0.001  0.000
  0.995  0.002  0.000  0.003  0.000
  0.000  0.000  0.000  0.000  1.000
    occupations:
  0.365  0.013  0.006 -0.014  0.000
  0.013  0.129 -0.006  0.000 -0.005
  0.006 -0.006  0.142  0.001  0.000
 -0.014  0.000  0.001  0.096 -0.000
  0.000 -0.005  0.000 -0.000  0.380
atomic mag. moment =     3.192305
atom   22   Tr[ns(na)] (up, down, total) =   4.28052  1.17350  5.45402
   spin  1
    eigenvalues:
  0.657  0.674  0.963  0.989  0.998
    eigenvectors:
  0.223  0.001  0.000  0.000  0.775
  0.004  0.995  0.000  0.000  0.000
  0.000  0.000  0.051  0.949  0.000
  0.772  0.003  0.000  0.000  0.224
  0.000  0.000  0.949  0.051  0.000
    occupations:
  0.922 -0.001 -0.000 -0.142 -0.000
 -0.001  0.673  0.000  0.002 -0.000
 -0.000  0.000  0.987 -0.000 -0.006
 -0.142  0.002 -0.000  0.734 -0.000
 -0.000 -0.000 -0.006 -0.000  0.965
   spin  2
    eigenvalues:
  0.115  0.136  0.141  0.382  0.399
    eigenvectors:
  0.811  0.000  0.000  0.188  0.001
  0.000  0.000  0.000  0.006  0.994
  0.000  0.005  0.995  0.000  0.000
  0.189  0.000  0.000  0.806  0.005
  0.000  0.995  0.005  0.000  0.000
    occupations:
  0.166  0.001  0.000  0.104 -0.000
  0.001  0.399 -0.000 -0.002 -0.000
  0.000 -0.000  0.141  0.000 -0.000
  0.104 -0.002  0.000  0.332  0.000
 -0.000 -0.000 -0.000  0.000  0.136
atomic mag. moment =     3.107013
atom   23   Tr[ns(na)] (up, down, total) =   4.32651  1.07292  5.39943
   spin  1
    eigenvalues:
  0.635  0.698  0.996  0.998  0.999
    eigenvectors:
  0.000  1.000  0.000  0.000  0.000
  0.000  0.000  0.285  0.715  0.000
  0.000  0.000  0.000  0.001  0.999
  0.000  0.000  0.715  0.284  0.000
  1.000  0.000  0.000  0.000  0.000
    occupations:
  0.698  0.004  0.002  0.004 -0.000
  0.004  0.997  0.000 -0.001 -0.001
  0.002  0.000  0.999 -0.000 -0.005
  0.004 -0.001 -0.000  0.997 -0.000
 -0.000 -0.001 -0.005 -0.000  0.635
   spin  2
    eigenvalues:
  0.096  0.118  0.132  0.344  0.383
    eigenvectors:
  0.003  0.000  0.000  0.997  0.000
  0.000  0.999  0.000  0.000  0.000
  0.000  0.000  0.999  0.000  0.000
  0.997  0.000  0.000  0.003  0.000
  0.000  0.000  0.000  0.000  1.000
    occupations:
  0.344  0.001 -0.001 -0.014  0.000
  0.001  0.118 -0.000 -0.000  0.001
 -0.001 -0.000  0.132  0.000  0.005
 -0.014 -0.000  0.000  0.097  0.000
  0.000  0.001  0.005  0.000  0.383
atomic mag. moment =     3.253595
N of occupied +U levels =  43.3219500
 --- exit write_ns ---

 ------ SPIN UP ------------

[...]

 ------ SPIN DOWN ----------

[...]

          k = 0.2500-0.4606 0.0000 ( 26462 PWs)   bands (ev):

[...]

          k =-0.2500 0.2303 0.0000 ( 26396 PWs)   bands (ev):

   -80.4859 -80.4770 -80.3816 -80.3767 -80.3722 -80.3417 -80.3161 -79.5210
   -49.3758 -49.3103 -49.3001 -49.2924 -49.2863 -49.2790 -49.2789 -49.2417
   -49.2293 -49.2037 -49.2002 -49.1860 -49.1796 -49.1765 -49.1640 -49.1364
   -49.0329 -49.0190 -49.0143 -48.9559 -48.9253 -48.6222 -48.4875 -47.9222
   -21.6763 -21.2309 -21.1353 -20.8241 -20.5236 -20.4041 -20.2564 -20.2413
   -20.1339 -20.0004 -19.9440 -19.9088 -19.7819 -19.7455 -19.7287 -19.6522
   -19.5112 -19.4103 -19.3781  -9.0816  -8.8491  -8.4148  -8.3494  -8.2980
    -8.0409  -7.9127  -7.8012  -7.5602  -7.4901  -7.4132  -7.2502  -7.1731
    -7.0931  -7.0485  -6.9756  -6.8803  -6.8018  -6.6834  -6.6229  -6.4537
    -6.3979  -6.3296  -6.1835  -6.1372  -6.0677  -5.8333  -5.7303  -5.6593
    -5.5949  -5.4825  -5.4153  -5.3463  -5.2548  -5.2050  -5.0912  -4.9780
    -4.8393  -4.6988  -4.6563  -4.5861  -4.5188  -4.4112  -4.3460  -4.2849
    -4.1387  -4.0523  -3.9932  -3.8687  -3.7132  -3.5997  -3.5644  -3.4528
    -3.1689  -3.1367  -3.0505  -2.7233   0.2974   0.3298   0.3628   0.4098
     0.4339   0.4905   0.5092   0.5408   0.6369   0.6572   0.7443   0.7970
     0.8862   0.9096   0.9880   1.0556   1.0882   1.1533   1.1689   1.2972
     1.3675   1.4346   1.4770   1.5014   1.5472   1.6003   1.6850   1.7473
     1.8381   1.9919   2.0636   2.1750   2.2402   2.3562   2.4671   2.5108
     2.6180   2.8354   2.9394   3.0347   3.8109   4.0456   4.3779   4.8493
     5.3735   5.7103   5.8725   6.0242   6.2815   6.4521   6.5614   6.7050
     6.8048   6.9546   7.0872   7.3903   7.5046   7.7740   7.9005   7.9867
     8.2789   8.4030   8.4901   8.6519   8.7565   8.9214   8.9694   9.1177
     9.2114   9.3271   9.4584   9.5511   9.7075   9.8355   9.9363  10.0685
    10.1643  10.2143  10.3326  10.4331  10.5769  10.7180  10.7980  10.9825
    11.0241  11.1202  11.1816  11.2802  11.3913  11.4604  11.5273  11.6949
    11.7337  11.7977  11.8635  11.9860  12.0110  12.1391  12.2046  12.3241
    12.4257  12.4830  12.6125  12.7095  12.8369  12.8935  12.9139  12.9966
    13.0634  13.1192  13.1743  13.2609  13.3491  13.3943  13.4670  13.5823
    13.6309  13.7124  13.7770  13.8269  13.8698  13.9499  14.0472  14.0895
    14.1676  14.2688  14.3047  14.3734  14.4564  14.5094  14.5490  14.6724
    14.7521  14.8151  14.8503  14.9485  15.0503  15.1145  15.1289  15.2511
    15.3452  15.4015  15.5321  15.6526  15.7080  15.8398  15.8535  16.0378
    16.0914  16.1899  16.2660  16.3105  16.3933  16.4654  16.4904  16.5567
    16.6385  16.7139  16.8454  16.8955  16.9693  17.0394  17.1377  17.1926
    17.2624  17.3232  17.3908  17.4608  17.5437  17.6196  17.6887  17.7698
    17.8605  17.8950  17.9929  18.0709  18.0940  18.2190  18.3033  18.3114
    18.3990  18.4759  18.5562  18.5906  18.6509  18.7934  18.8467  18.9342
    19.0421  19.0801  19.1342  19.2091  19.2410  19.3319  19.4082  19.4744
    19.5323  19.6567  19.8021  19.8626  19.8996  19.9846  20.0634  20.0859
    20.1300  20.2359  20.2943  20.3323  20.3730  20.4407  20.5890  20.6386
    20.7202  20.8719  20.9726  21.0208  21.0683  21.1288  21.1959  21.2327
    21.3660  21.4182  21.4951  21.5875  21.6594  21.7243  21.7539  21.8109
    21.8497  21.9863  22.0683  22.1472  22.2303  22.3474  22.4281  22.4654
    22.5409  22.6468

     the spin up/dw Fermi energies are    -2.2776   -0.3139 ev

!    total energy              =   -2320.66339065 Ry
     Harris-Foulkes estimate   =   -2320.66339065 Ry
     estimated scf accuracy    <          3.8E-09 Ry

     The total energy is the sum of the following terms:

     one-electron contribution =  -26409.07019443 Ry
     hartree contribution      =   13223.22675417 Ry
     xc contribution           =    -349.38511127 Ry
     ewald contribution        =   11213.13252822 Ry
     Hubbard energy            =       1.43236166 Ry
     smearing contrib. (-TS)   =       0.00027100 Ry

     total magnetization       =    23.00 Bohr mag/cell
     absolute magnetization    =    30.76 Bohr mag/cell

     convergence has been achieved in  16 iterations

     Forces acting on atoms (Ry/au):

     negative rho (up, down):  0.199E-02 0.140E-02
     atom    1 type  1   force =    -0.00555376   -0.01473525    0.00035965
     atom    2 type  1   force =     0.00033235    0.00885371    0.00046651
     atom    3 type  2   force =     0.01995895    0.00015084   -0.00011293
     atom    4 type  2   force =     0.00689939    0.01238702   -0.00002778
     atom    5 type  1   force =     0.00191673    0.01445514   -0.00007128
     atom    6 type  1   force =    -0.00222274   -0.01991103   -0.00022576
     atom    7 type  1   force =     0.00276421    0.00164834   -0.00047282
     atom    8 type  1   force =     0.00090512   -0.00227584   -0.00073633
     atom    9 type  2   force =     0.00697086    0.00010150    0.00037331
     atom   10 type  2   force =    -0.00106829   -0.00118600    0.00004633
     atom   11 type  1   force =    -0.01438922   -0.03379109    0.00002738
     atom   12 type  1   force =    -0.01449296    0.03417100    0.00016891
     atom   13 type  1   force =    -0.00193819   -0.00047678   -0.00007618
     atom   14 type  1   force =    -0.00525788   -0.01415496    0.00018032
     atom   15 type  1   force =     0.00053592    0.00814527   -0.00021535
     atom   16 type  2   force =    -0.02164887    0.00015453   -0.00011844
     atom   17 type  2   force =     0.00709402    0.01224908   -0.00029838
     atom   18 type  1   force =     0.00223642    0.01430750   -0.00004744
     atom   19 type  1   force =    -0.00214310   -0.01983120   -0.00017317
     atom   20 type  1   force =    -0.00259844    0.00171933    0.00006708
     atom   21 type  1   force =    -0.00375381   -0.00228864   -0.00085223
     atom   22 type  2   force =    -0.00574822    0.00038309    0.00035403
     atom   23 type  2   force =     0.00400956   -0.00043071   -0.00052340
     atom   24 type  1   force =     0.01271385   -0.02872137    0.00030387
     atom   25 type  1   force =     0.01329496    0.02895420    0.00039329
     atom   26 type  1   force =     0.00144761   -0.00039778   -0.00020421
     atom   27 type  3   force =     0.00001818   -0.00010347    0.00046200
     atom   28 type  3   force =     0.00000260    0.00034278    0.00044343
     atom   29 type  3   force =    -0.00026103    0.00007483   -0.00014121
     atom   30 type  3   force =    -0.00015708    0.00011759    0.00002087
     atom   31 type  1   force =     0.00023023    0.00009823   -0.00013405
     atom   32 type  3   force =    -0.00009739   -0.00000986    0.00076398

     Total force =     0.002083     Total SCF correction =     0.000094

     bfgs converged in  19 scf cycles and  18 bfgs steps
     (criteria: energy < 0.10E-03, force < 0.10E-02)

     End of BFGS Geometry Optimization

     Final energy   =   -2320.6633906489 Ry
Begin final coordinates

ATOMIC_POSITIONS (crystal)
O0       0.000000000   0.000000000   0.375347674    0   0   1
O0       0.000000000   0.500000000   0.396421068    0   0   1
Mn1      0.250000000   0.500000000   0.448713953    0   0   1
Mn1      0.000000000   0.000000000   0.447470727    0   0   1
O0       0.250000000   0.800000000   0.447004584    0   0   1
O0       0.250000000   0.200000000   0.449705536    0   0   1
O0       0.000000000   0.500000000   0.494774016    0   0   1
O0       0.000000000   0.000000000   0.524732499    0   0   1
Mn1      0.250000000   0.000000000   0.573297378    0   0   1
Mn1      0.000000000   0.500000000   0.569187097    0   0   1
O0       0.250000000   0.700000000   0.580519263    0   0   1
O0       0.250000000   0.300000000   0.580835278    0   0   1
O0       0.000000000   0.000000000   0.620460082    0   0   1
O0       0.500000000   0.000000000   0.375536484    0   0   1
O0       0.500000000   0.500000000   0.396619670    0   0   1
Mn1      0.750000000   0.500000000   0.448746657    0   0   1
Mn1      0.500000000   0.000000000   0.447635738    0   0   1
O0       0.750000000   0.800000000   0.446898899    0   0   1
O0       0.750000000   0.200000000   0.449627390    0   0   1
O0       0.500000000   0.500000000   0.497315966    0   0   1
O0       0.500000000   0.000000000   0.524812956    0   0   1
Mn1      0.750000000   0.000000000   0.573377796    0   0   1
Mn1      0.500000000   0.500000000   0.578364214    0   0   1
O0       0.750000000   0.700000000   0.577662776    0   0   1
O0       0.750000000   0.300000000   0.578087035    0   0   1
O0       0.500000000   0.000000000   0.620945117    0   0   1
H2       0.000323891   0.647134345   0.380400521
H2       0.500382815   0.646560272   0.380402997
H2       0.161657093   0.040455910   0.364449742
H2       0.661816022   0.040047680   0.364608681
O0       0.518939791   0.501159521   0.650002670
H2       0.357842095   0.500229956   0.663915531
End final coordinates

     General routines

     Parallel routines
     Hubbard U routines

   This run was terminated on:  22:58:16   5May2014

   JOB DONE.