     Program PWSCF v.5.0.2 (svn rev. 9656) starts on 28May2014 at  5:10:17

     Current dimensions of program PWSCF are:
     Max number of different atomic species (ntypx) = 10
     Max number of k-points (npk) =  40000
     Max angular momentum in pseudopotentials (lmaxx) =  3
     Reading input from pwscf.in
Warning: card &CELL ignored
Warning: card / ignored

     Subspace diagonalization in iterative solution of the eigenvalue problem:
     a serial algorithm will be used

     bravais-lattice index     =            0
     lattice parameter (alat)  =      12.0187  a.u.
     unit-cell volume          =    7280.5819 (a.u.)^3
     number of atoms/cell      =           33
     number of atomic types    =            3
     number of electrons       =       245.00
     number of Kohn-Sham states=          367
     kinetic-energy cutoff     =      40.0000  Ry
     charge density cutoff     =     500.0000  Ry
     convergence threshold     =      1.0E-06
     mixing beta               =       0.7000
     number of iterations used =            8  plain     mixing
     Exchange-correlation      = SLA  PW   PBE  PBE ( 1 4 3 4 0)
     EXX-fraction              =        0.00
     nstep                     =           50

     celldm(1)=  12.018658  celldm(2)=   0.000000  celldm(3)=   0.000000
     celldm(4)=   0.000000  celldm(5)=   0.000000  celldm(6)=   0.000000

     crystal axes: (cart. coord. in units of alat)
               a(1) = (   1.000000   0.000000   0.000000 )
               a(2) = (   0.000000   1.009517   0.000000 )
               a(3) = (   0.000000   0.000000   4.154171 )

     reciprocal axes: (cart. coord. in units 2 pi/alat)
               b(1) = (  1.000000  0.000000  0.000000 )
               b(2) = (  0.000000  0.990572  0.000000 )
               b(3) = (  0.000000  0.000000  0.240722 )

     PseudoPot. # 1 for O  read from file:
     /home/camp/zhonxu/pseudo/o_pbe_v1.01.uspp.F.UPF
     MD5 check sum: 2bcb18d16ea4b960afae9ec6d52f22d2
     Pseudo is Ultrasoft + core correction, Zval =  6.0
     Generated by new atomic code, or converted to UPF format
     Using radial grid of  737 points,  5 beta functions with:
                l(1) =   0
                l(2) =   0
                l(3) =   1
                l(4) =   1
                l(5) =   2
     Q(r) pseudized with  8 coefficients,  rinner =    0.900   0.900   0.900
                                                       0.900   0.900

     PseudoPot. # 2 for Ir read from file:
     /home/camp/zhonxu/pseudo/ir_pbe_v1.uspp.F.UPF
     MD5 check sum: abf987a9674477536ede83817f8f8b70
     Pseudo is Ultrasoft + core correction, Zval = 15.0
     Generated by new atomic code, or converted to UPF format
     Using radial grid of  983 points,  7 beta functions with:
                l(1) =   0
                l(2) =   0
                l(3) =   1
                l(4) =   1
                l(5) =   1
                l(6) =   2
                l(7) =   2
     Q(r) pseudized with  8 coefficients,  rinner =    1.350   1.350   1.350
                                                       1.350   1.350

     PseudoPot. # 3 for H  read from file:
     /home/camp/zhonxu/pseudo/h_pbe_v1.uspp.F.UPF
     MD5 check sum: 3408e3ff4ec8b0a4e358431e7e038a48
     Pseudo is Ultrasoft, Zval =  1.0
     Generated by new atomic code, or converted to UPF format
     Using radial grid of  615 points,  2 beta functions with:
                l(1) =   0
                l(2) =   0
     Q(r) pseudized with  8 coefficients,  rinner =    0.700

     atomic species   valence    mass     pseudopotential
        O0             6.00    15.99940     O ( 1.00)
        Ir1           15.00   192.22000     Ir( 1.00)
        H2             1.00     1.00794     H ( 1.00)

     Simplified LDA+U calculation (l_max = 2) with parameters (eV):
     atomic species    L          U    alpha       J0     beta
        Ir1            2     0.0000   0.0000   0.0000   0.0000

     No symmetry found

   Cartesian axes

     site n.     atom                  positions (alat units)
         1           O0  tau(   1) = (   0.0000000   0.0000000   1.5694875  )
         2           O0  tau(   2) = (   0.0000000   0.5047586   1.6702677  )
         3           Ir1 tau(   3) = (   0.2500000   0.5047586   1.8805934  )
         4           Ir1 tau(   4) = (   0.0000000   0.0000000   1.8807595  )
         5           O0  tau(   5) = (   0.2500000   0.8177090   1.8801779  )
         6           O0  tau(   6) = (   0.2500000   0.1918083   1.8787655  )
         7           O0  tau(   7) = (   0.0000000   0.5047586   2.0695666  )
         8           O0  tau(   8) = (   0.0000000   0.0000000   2.1948564  )
         9           Ir1 tau(   9) = (   0.2500000   0.0000000   2.3901025  )
        10           Ir1 tau(  10) = (   0.0000000   0.5047586   2.3742751  )
        11           O0  tau(  11) = (   0.2500000   0.6965669   2.3856575  )
        12           O0  tau(  12) = (   0.2500000   0.3129503   2.3949628  )
        13           O0  tau(  13) = (   0.0000000   0.0000000   2.5754200  )
        14           O0  tau(  14) = (   0.5000000   0.0000000   1.5694875  )
        15           O0  tau(  15) = (   0.5000000   0.5047586   1.6704338  )
        16           Ir1 tau(  16) = (   0.7500000   0.5047586   1.8805934  )
        17           Ir1 tau(  17) = (   0.5000000   0.0000000   1.8805518  )
        18           O0  tau(  18) = (   0.7500000   0.8177090   1.8801364  )
        19           O0  tau(  19) = (   0.7500000   0.1918083   1.8788486  )
        20           O0  tau(  20) = (   0.5000000   0.5047586   2.0759640  )
        21           O0  tau(  21) = (   0.5000000   0.0000000   2.1945241  )
        22           Ir1 tau(  22) = (   0.7500000   0.0000000   2.3900609  )
        23           Ir1 tau(  23) = (   0.5000000   0.5047586   2.3998648  )
        24           O0  tau(  24) = (   0.7500000   0.6965669   2.3856575  )
        25           O0  tau(  25) = (   0.7500000   0.3129503   2.3949628  )
        26           O0  tau(  26) = (   0.5000000   0.0000000   2.5728445  )
        27           H2  tau(  27) = (   0.0000400   0.6420328   1.5957418  )
        28           H2  tau(  28) = (   0.4999400   0.6424971   1.5965311  )
        29           H2  tau(  29) = (   0.1432100   0.0360095   1.5217560  )
        30           H2  tau(  30) = (   0.6436700   0.0339703   1.5215899  )
        31           O0  tau(  31) = (   0.4997900   0.5432313   2.6993805  )
        32           O0  tau(  32) = (   0.5001800   0.3480815   2.8224271  )
        33           H2  tau(  33) = (   0.4999800   0.4114489   2.9642920  )

     number of k points=    10  Methfessel-Paxton smearing, width (Ry)=  0.0100
                       cart. coord. in units 2pi/alat
        k(    1) = (   0.0000000   0.0000000   0.0000000), wk =   0.1250000
        k(    2) = (   0.0000000   0.2476431   0.0000000), wk =   0.2500000
        k(    3) = (   0.0000000  -0.4952862   0.0000000), wk =   0.1250000
        k(    4) = (   0.2500000   0.0000000   0.0000000), wk =   0.2500000
        k(    5) = (   0.2500000   0.2476431   0.0000000), wk =   0.2500000
        k(    6) = (   0.2500000  -0.4952862   0.0000000), wk =   0.2500000
        k(    7) = (  -0.5000000   0.0000000   0.0000000), wk =   0.1250000
        k(    8) = (  -0.5000000   0.2476431   0.0000000), wk =   0.2500000
        k(    9) = (  -0.5000000  -0.4952862   0.0000000), wk =   0.1250000
        k(   10) = (  -0.2500000   0.2476431   0.0000000), wk =   0.2500000

     Largest allocated arrays     est. size (Mb)     dimensions
     Largest temporary arrays     est. size (Mb)     dimensions

     Check: negative/imaginary core charge=   -0.000003    0.000000

     Initial potential from superposition of free atoms
     Check: negative starting charge=   -3.336869

     starting charge  240.99967, renormalised to  245.00000

     negative rho (up, down):  0.339E+01 0.000E+00
     Number of +U iterations with fixed ns =  0
     Starting occupations:
 --- enter write_ns ---
 LDA+U parameters:
U( 2)     =  0.00000000
alpha( 2) =  0.00000000
atom    3   Tr[ns(na)] =   7.00000
    eigenvalues:
  0.700  0.700  0.700  0.700  0.700
    eigenvectors:
  1.000  0.000  0.000  0.000  0.000
  0.000  1.000  0.000  0.000  0.000
  0.000  0.000  1.000  0.000  0.000
  0.000  0.000  0.000  1.000  0.000
  0.000  0.000  0.000  0.000  1.000
    occupations:
  0.700  0.000  0.000  0.000  0.000
  0.000  0.700  0.000  0.000  0.000
  0.000  0.000  0.700  0.000  0.000
  0.000  0.000  0.000  0.700  0.000
  0.000  0.000  0.000  0.000  0.700
atom    4   Tr[ns(na)] =   7.00000
    eigenvalues:
  0.700  0.700  0.700  0.700  0.700
    eigenvectors:
  1.000  0.000  0.000  0.000  0.000
  0.000  1.000  0.000  0.000  0.000
  0.000  0.000  1.000  0.000  0.000
  0.000  0.000  0.000  1.000  0.000
  0.000  0.000  0.000  0.000  1.000
    occupations:
  0.700  0.000  0.000  0.000  0.000
  0.000  0.700  0.000  0.000  0.000
  0.000  0.000  0.700  0.000  0.000
  0.000  0.000  0.000  0.700  0.000
  0.000  0.000  0.000  0.000  0.700
atom    9   Tr[ns(na)] =   7.00000
    eigenvalues:
  0.700  0.700  0.700  0.700  0.700
    eigenvectors:
  1.000  0.000  0.000  0.000  0.000
  0.000  1.000  0.000  0.000  0.000
  0.000  0.000  1.000  0.000  0.000
  0.000  0.000  0.000  1.000  0.000
  0.000  0.000  0.000  0.000  1.000
    occupations:
  0.700  0.000  0.000  0.000  0.000
  0.000  0.700  0.000  0.000  0.000
  0.000  0.000  0.700  0.000  0.000
  0.000  0.000  0.000  0.700  0.000
  0.000  0.000  0.000  0.000  0.700
atom   10   Tr[ns(na)] =   7.00000
    eigenvalues:
  0.700  0.700  0.700  0.700  0.700
    eigenvectors:
  1.000  0.000  0.000  0.000  0.000
  0.000  1.000  0.000  0.000  0.000
  0.000  0.000  1.000  0.000  0.000
  0.000  0.000  0.000  1.000  0.000
  0.000  0.000  0.000  0.000  1.000
    occupations:
  0.700  0.000  0.000  0.000  0.000
  0.000  0.700  0.000  0.000  0.000
  0.000  0.000  0.700  0.000  0.000
  0.000  0.000  0.000  0.700  0.000
  0.000  0.000  0.000  0.000  0.700
atom   16   Tr[ns(na)] =   7.00000
    eigenvalues:
  0.700  0.700  0.700  0.700  0.700
    eigenvectors:
  1.000  0.000  0.000  0.000  0.000
  0.000  1.000  0.000  0.000  0.000
  0.000  0.000  1.000  0.000  0.000
  0.000  0.000  0.000  1.000  0.000
  0.000  0.000  0.000  0.000  1.000
    occupations:
  0.700  0.000  0.000  0.000  0.000
  0.000  0.700  0.000  0.000  0.000
  0.000  0.000  0.700  0.000  0.000
  0.000  0.000  0.000  0.700  0.000
  0.000  0.000  0.000  0.000  0.700
atom   17   Tr[ns(na)] =   7.00000
    eigenvalues:
  0.700  0.700  0.700  0.700  0.700
    eigenvectors:
  1.000  0.000  0.000  0.000  0.000
  0.000  1.000  0.000  0.000  0.000
  0.000  0.000  1.000  0.000  0.000
  0.000  0.000  0.000  1.000  0.000
  0.000  0.000  0.000  0.000  1.000
    occupations:
  0.700  0.000  0.000  0.000  0.000
  0.000  0.700  0.000  0.000  0.000
  0.000  0.000  0.700  0.000  0.000
  0.000  0.000  0.000  0.700  0.000
  0.000  0.000  0.000  0.000  0.700
atom   22   Tr[ns(na)] =   7.00000
    eigenvalues:
  0.700  0.700  0.700  0.700  0.700
    eigenvectors:
  1.000  0.000  0.000  0.000  0.000
  0.000  1.000  0.000  0.000  0.000
[...]
atom    4   Tr[ns(na)] =   8.01824
    eigenvalues:
  0.618  0.662  0.852  0.900  0.977
    eigenvectors:
  0.000  0.990  0.000  0.000  0.009
  0.000  0.000  0.048  0.952  0.000
  0.000  0.000  0.952  0.048  0.000
  0.000  0.009  0.000  0.000  0.991
  1.000  0.000  0.000  0.000  0.000
    occupations:
  0.665 -0.003 -0.001  0.030  0.001
 -0.003  0.897  0.010  0.000 -0.001
 -0.001  0.010  0.854 -0.000  0.000
  0.030  0.000 -0.000  0.974  0.000
  0.001 -0.001  0.000  0.000  0.618
atom    9   Tr[ns(na)] =   7.99226
    eigenvalues:
  0.650  0.666  0.832  0.875  0.973
    eigenvectors:
  0.000  0.142  0.001  0.000  0.857
  0.999  0.001  0.000  0.000  0.000
  0.000  0.000  0.993  0.006  0.001
  0.001  0.857  0.000  0.000  0.142
  0.000  0.000  0.007  0.993  0.000
    occupations:
  0.929 -0.001  0.002 -0.107 -0.002
 -0.001  0.650 -0.000  0.001 -0.000
  0.002 -0.000  0.832 -0.004 -0.004
 -0.107  0.001 -0.004  0.710  0.001
 -0.002 -0.000 -0.004  0.001  0.875
atom   10   Tr[ns(na)] =   8.00294
    eigenvalues:
  0.604  0.608  0.902  0.911  0.976
    eigenvectors:
  0.992  0.000  0.000  0.000  0.008
  0.000  0.001  0.001  0.999  0.000
  0.000  0.000  0.999  0.001  0.000
  0.008  0.000  0.000  0.000  0.992
  0.000  0.999  0.000  0.001  0.000
    occupations:
  0.607  0.000  0.006  0.033 -0.000
  0.000  0.911 -0.000  0.000 -0.008
  0.006 -0.000  0.901  0.000  0.000
  0.033  0.000  0.000  0.973  0.000
 -0.000 -0.008  0.000  0.000  0.609
atom   16   Tr[ns(na)] =   8.03857
    eigenvalues:
  0.607  0.632  0.864  0.951  0.967
    eigenvectors:
  0.005  0.183  0.003  0.003  0.805
  0.980  0.019  0.000  0.000  0.000
  0.000  0.000  0.995  0.002  0.003
  0.015  0.797  0.000  0.001  0.187
  0.000  0.000  0.002  0.994  0.004
    occupations:
  0.903  0.004  0.005 -0.131  0.001
  0.004  0.607 -0.000  0.002 -0.006
  0.005 -0.000  0.864 -0.004 -0.003
 -0.131  0.002 -0.004  0.694 -0.000
  0.001 -0.006 -0.003 -0.000  0.951
atom   17   Tr[ns(na)] =   8.01636
    eigenvalues:
  0.618  0.663  0.850  0.900  0.978
    eigenvectors:
  0.000  0.990  0.000  0.000  0.009
  0.000  0.000  0.034  0.966  0.000
  0.000  0.000  0.966  0.034  0.000
  0.000  0.009  0.000  0.000  0.991
  1.000  0.000  0.000  0.000  0.000
    occupations:
  0.666 -0.003 -0.001  0.031  0.001
 -0.003  0.898  0.009  0.000 -0.001
 -0.001  0.009  0.852 -0.000  0.000
  0.031  0.000 -0.000  0.975  0.000
  0.001 -0.001  0.000  0.000  0.618
atom   22   Tr[ns(na)] =   7.99239
    eigenvalues:
  0.650  0.666  0.831  0.875  0.973
    eigenvectors:
  0.000  0.142  0.001  0.000  0.857
  1.000  0.000  0.000  0.000  0.000
  0.000  0.000  0.994  0.006  0.000
  0.000  0.858  0.000  0.000  0.142
  0.000  0.000  0.006  0.994  0.000
    occupations:
  0.930  0.002  0.002 -0.107  0.000
  0.002  0.650  0.001 -0.001 -0.000
  0.002  0.001  0.832 -0.004  0.003
 -0.107 -0.001 -0.004  0.710  0.000
  0.000 -0.000  0.003  0.000  0.875
atom   23   Tr[ns(na)] =   8.03285
    eigenvalues:
  0.616  0.656  0.842  0.928  0.974
    eigenvectors:
  0.000  0.993  0.000  0.003  0.004
  0.001  0.000  0.998  0.000  0.000
  0.000  0.003  0.000  0.996  0.001
  0.000  0.004  0.000  0.001  0.995
  0.999  0.000  0.001  0.000  0.000
    occupations:
  0.658 -0.000  0.014  0.020 -0.000
 -0.000  0.841 -0.000 -0.000 -0.009
  0.014 -0.000  0.927 -0.002  0.000
  0.020 -0.000 -0.002  0.973 -0.000
 -0.000 -0.009  0.000 -0.000  0.617
N of occupied +U levels =  64.1322142
 --- exit write_ns ---

          k = 0.0000 0.0000 0.0000 ( 31045 PWs)   bands (ev):

   -50.8116 -50.8058 -50.8044 -50.7113 -50.6881 -50.6692 -50.6599 -50.6448
   -50.6095 -50.5646 -50.4883 -50.4862 -50.4638 -50.4593 -50.4383 -50.4346
   -50.4097 -50.3308 -50.3257 -50.3125 -50.3103 -50.2977 -50.2956 -50.1476
   -22.9424 -21.2334 -20.8039 -20.6725 -20.6029 -20.1475 -19.9598 -19.8809
   -19.8481 -19.7726 -19.6826 -19.5398 -19.3339 -19.2655 -19.2117 -19.1640
   -19.0619 -18.2115 -18.0743 -17.0736  -9.7947  -9.7747  -9.3144  -8.5105
    -8.3956  -8.3188  -8.2749  -8.2430  -8.2373  -8.1805  -8.1343  -8.0380
    -8.0261  -7.8732  -7.7168  -7.5968  -7.5305  -7.4888  -7.4415  -7.3870
    -7.0534  -6.7623  -6.7123  -6.5570  -6.4863  -6.3799  -5.9317  -5.8716
    -5.7914  -5.6139  -5.3369  -5.2726  -5.1886  -5.0299  -4.8903  -4.8472
    -4.7968  -4.7742  -4.7000  -4.5904  -4.5150  -4.3771  -4.3523  -4.2576
    -4.1463  -4.0950  -3.9934  -3.9830  -3.7481  -3.6066  -3.5497  -3.4067
    -3.3839  -3.1200  -3.0906  -2.9535  -2.9072  -2.6833  -2.6416  -2.5384
    -2.4840  -2.4248  -2.4144  -2.1598  -2.1091  -2.0402  -2.0078  -1.9290
    -1.8054  -1.6506  -1.3956  -1.3689  -1.1801  -1.0994  -1.0522  -0.9845
    -0.5298  -0.5234  -0.3138  -0.1266   0.0130   0.0768   0.3470   0.6109
     1.2255   1.6974   1.8354   1.8744   1.9404   2.0893   2.4789   2.7611
     2.9135   3.0435   3.4295   3.5922   3.6607   3.7828   3.8284   3.8432
     4.2285   4.3535   4.4993   4.9385   4.9723   5.8380   6.1201   6.5572
     6.7277   6.7631   7.2455   7.2958   7.5687   7.6231   7.6734   7.7295
     7.8455   8.0457   8.0906   8.1228   8.1783   8.1811   8.3258   8.3642
     8.4099   8.4451   8.4765   8.6176   8.6618   8.7828   8.7894   8.9389
     9.0344   9.0797   9.2274   9.2460   9.2511   9.2606   9.2754   9.2775
     9.3348   9.3385   9.4267   9.4316   9.4323   9.4872   9.4958   9.7601
     9.9088  10.0017  10.0300  10.1676  10.2051  10.2733  10.4992  10.5080
    10.6518  10.6926  10.7304  10.8663  11.0699  11.1912  11.2112  11.2433
    11.3448  11.3608  11.4411  11.4786  11.5225  11.5707  11.6214  11.7588
    11.7704  11.8164  11.8459  11.8967  11.9533  11.9965  12.1728  12.2583
    12.2761  12.3251  12.3681  12.4753  12.5326  12.5616  12.6187  12.7080
    12.8048  12.8435  12.8548  12.9306  13.0168  13.0944  13.3182  13.3781
    13.5894  13.6790  13.7704  13.7918  13.8868  13.9638  14.0410  14.1704
    14.1940  14.3893  14.3989  14.4970  14.5755  14.6401  14.8384  14.9114
    14.9280  15.1041  15.3516  15.4401  15.4744  15.5173  15.5849  15.6487
    15.6666  15.7249  15.8410  15.8915  16.0322  16.1121  16.2185  16.2970
    16.4490  16.4956  16.5426  16.7330  16.8759  16.9573  17.0205  17.0517
    17.2102  17.3521  17.3658  17.3719  17.4641  17.5006  17.5505  17.7338
    17.7686  17.8161  17.9277  18.1007  18.1410  18.1818  18.2120  18.4153
    18.4388  18.5251  18.5609  18.5921  18.7072  18.7936  18.9330  18.9460
    18.9617  19.0619  19.0679  19.1265  19.1368  19.2177  19.2482  19.2720
    19.3623  19.4081  19.4293  19.4787  19.5023  19.6095  19.6517  19.7207
    19.7344  19.8029  19.8233  19.9832  20.0412  20.0583  20.1663  20.1954
    20.3509  20.4535  20.4880  20.5134  20.5462  20.6114  20.6731  20.6823
    20.7760  20.8318  20.8537  21.0072  21.0631  21.1174  21.2266  21.2828
    21.3131  21.3405  21.4230  21.5551  21.6791  21.7530  21.7935  21.8169
    21.9338  21.9709  22.0022  22.0628  22.1522  22.1661  22.2080  22.2588
    22.3041  22.3158  22.3722  22.4036  22.5043  22.5431  22.5541

[...]

          k = 0.2500-0.4953 0.0000 ( 31088 PWs)   bands (ev):

[...]

          k =-0.5000 0.0000 0.0000 ( 31104 PWs)   bands (ev):

[...]

          k =-0.2500 0.2476 0.0000 ( 31099 PWs)   bands (ev):

   -50.8125 -50.8093 -50.7961 -50.6973 -50.6881 -50.6618 -50.6541 -50.6436
   -50.6234 -50.5797 -50.4861 -50.4829 -50.4662 -50.4631 -50.4386 -50.4378
   -50.3963 -50.3387 -50.3233 -50.3107 -50.3101 -50.3036 -50.2998 -50.1479
   -22.9416 -21.0533 -20.6671 -20.5929 -20.5066 -20.2203 -20.0523 -20.0042
   -19.8283 -19.7514 -19.6427 -19.5099 -19.4992 -19.3989 -19.2685 -19.2018
   -19.0930 -18.2588 -18.1275 -17.0706  -9.2449  -9.1307  -9.0824  -8.7430
    -8.4387  -8.3733  -8.3254  -8.2730  -8.1540  -8.1068  -8.0174  -7.9661
    -7.8932  -7.8108  -7.6620  -7.5367  -7.4742  -7.3282  -7.1940  -7.0472
    -6.9319  -6.8212  -6.6672  -6.5653  -6.5268  -6.2527  -5.9876  -5.9070
    -5.7625  -5.7351  -5.6759  -5.6029  -5.5401  -5.4705  -5.4345  -5.4046
    -5.2548  -5.1226  -4.9903  -4.8612  -4.7831  -4.7145  -4.5558  -4.4516
    -4.2632  -4.1881  -4.1332  -3.9809  -3.8787  -3.7778  -3.6638  -3.5777
    -3.4072  -3.2178  -3.1501  -2.8737  -2.8234  -2.6175  -2.4581  -2.3064
    -2.0684  -2.0355  -1.9576  -1.9179  -1.8123  -1.7900  -1.7012  -1.6751
    -1.6333  -1.5666  -1.5137  -1.2912  -1.2064  -1.0224  -0.7859  -0.6603
    -0.5612  -0.5240  -0.3193  -0.1812  -0.0641   0.0440   0.2009   0.4202
     1.3302   1.4056   1.6029   2.0345   2.1102   2.5555   2.6101   2.9102
     3.0271   3.2147   3.2451   3.5154   3.5534   3.7132   3.7940   4.0704
     4.1895   4.4454   4.8580   5.3474   5.3906   5.9104   5.9754   6.0758
     6.3508   6.4849   6.6149   6.7383   6.8274   7.0738   7.2314   7.3173
     7.5342   7.6569   7.7914   7.9021   8.0147   8.1325   8.2576   8.3416
     8.3663   8.5377   8.7021   8.7750   8.8653   9.0078   9.0773   9.1661
     9.1900   9.2460   9.2513   9.2611   9.2748   9.2769   9.3335   9.4262
     9.4297   9.4322   9.5178   9.5617   9.6334   9.7438   9.8180   9.9205
     9.9894  10.1313  10.2029  10.2493  10.3476  10.3996  10.5044  10.5400
    10.6241  10.7098  10.8091  10.8595  10.9572  11.0180  11.1413  11.1843
    11.3172  11.3977  11.4478  11.5919  11.6372  11.7617  11.8020  11.9113
    11.9798  12.0553  12.2020  12.2563  12.3418  12.4418  12.4840  12.5376
    12.5819  12.6965  12.7773  12.8544  12.9304  13.0146  13.0529  13.1193
    13.1953  13.3081  13.3576  13.4295  13.5260  13.6501  13.6697  13.7690
    13.8750  13.9406  14.0260  14.0571  14.0973  14.1630  14.2775  14.3818
    14.4630  14.5058  14.6244  14.6940  14.8323  14.8758  14.9964  15.0648
    15.1233  15.2322  15.3768  15.4432  15.4735  15.6090  15.6601  15.6838
    15.7341  15.7615  15.8642  15.8735  15.9546  16.0073  16.0744  16.0979
    16.2209  16.2522  16.3482  16.3785  16.4588  16.5071  16.5439  16.5778
    16.6932  16.7495  16.7822  16.8185  16.8739  16.9591  17.1477  17.2378
    17.2923  17.3497  17.4072  17.5087  17.5554  17.5869  17.6166  17.6811
    17.7486  17.8224  17.8731  17.9043  17.9214  18.0197  18.0605  18.1427
    18.2434  18.3398  18.3743  18.5108  18.6082  18.7098  18.7366  18.7877
    18.8410  18.8700  18.9990  19.0306  19.0746  19.1629  19.2309  19.3418
    19.3759  19.3964  19.5332  19.6168  19.6743  19.7548  19.7828  19.8391
    19.9098  19.9827  20.1228  20.1311  20.2280  20.3077  20.4458  20.5102
    20.5433  20.6198  20.7126  20.7585  20.7995  20.8513  20.9024  21.0336
    21.0809  21.1410  21.1622  21.2406  21.2691  21.2947  21.3428  21.4118
    21.4967  21.5340  21.6152  21.6714  21.7523  21.7849  21.8422  21.8896
    21.9651  21.9809  22.0575  22.1179  22.1841  22.2637  22.3757

     the Fermi energy is    -0.3777 ev

!    total energy              =   -2139.47543599 Ry
     Harris-Foulkes estimate   =   -2139.47543626 Ry
     estimated scf accuracy    <       0.00000028 Ry

     The total energy is the sum of the following terms:

     one-electron contribution =  -23085.70737066 Ry
     hartree contribution      =   11591.85658451 Ry
     xc contribution           =    -584.09710210 Ry
     ewald contribution        =    9938.47202558 Ry
     Hubbard energy            =       0.00000000 Ry
     smearing contrib. (-TS)   =       0.00042668 Ry

     convergence has been achieved in  30 iterations

     Forces acting on atoms (Ry/au):

     negative rho (up, down):  0.313E+01 0.000E+00
     atom    1 type  1   force =    -0.00736166   -0.01396661   -0.00000679
     atom    2 type  1   force =     0.00018165    0.00689480    0.00052753
     atom    3 type  2   force =     0.03022352    0.00380750   -0.00005446
     atom    4 type  2   force =     0.00909032    0.00787077    0.00023796
     atom    5 type  1   force =    -0.00246583   -0.02094847   -0.00012612
     atom    6 type  1   force =     0.00249933    0.01961617    0.00012389
     atom    7 type  1   force =    -0.00025581   -0.00300137    0.00012287
     atom    8 type  1   force =    -0.00305145    0.00022359    0.00041789
     atom    9 type  2   force =     0.00700469    0.00186669    0.00008543
     atom   10 type  2   force =    -0.00010792   -0.00126399    0.00014202
     atom   11 type  1   force =    -0.00733084    0.01144503   -0.00035883
     atom   12 type  1   force =    -0.00159323   -0.00599313    0.00018085
     atom   13 type  1   force =    -0.00094746   -0.00297331   -0.00002173
     atom   14 type  1   force =    -0.00728495   -0.01418775   -0.00025994
     atom   15 type  1   force =     0.00013222    0.00713689    0.00017695
     atom   16 type  2   force =    -0.03031229    0.00369455   -0.00017966
     atom   17 type  2   force =     0.00915905    0.00849360   -0.00025028
     atom   18 type  1   force =    -0.00113820   -0.02131259   -0.00007222
     atom   19 type  1   force =     0.00346166    0.01930107    0.00014782
     atom   20 type  1   force =    -0.00025582   -0.00601752   -0.00096856
     atom   21 type  1   force =    -0.00327943    0.00120893    0.00031413
     atom   22 type  2   force =    -0.00451275    0.00164371    0.00027753
     atom   23 type  2   force =    -0.00015354    0.00216772   -0.00055787
     atom   24 type  1   force =     0.00724611    0.01144523   -0.00037797
     atom   25 type  1   force =     0.00208467   -0.00610691    0.00016143
     atom   26 type  1   force =    -0.00104419   -0.01042602    0.00022875
     atom   27 type  3   force =    -0.00000642   -0.00048926    0.00011515
     atom   28 type  3   force =    -0.00000345   -0.00037563    0.00011897
     atom   29 type  3   force =    -0.00015547   -0.00008393   -0.00018567
     atom   30 type  3   force =     0.00017116    0.00008031   -0.00013742
     atom   31 type  1   force =    -0.00014640   -0.00012876    0.00093264
     atom   32 type  1   force =     0.00014872    0.00030122   -0.00006648
     atom   33 type  3   force =     0.00000401    0.00007744   -0.00068784

     Total force =     0.002156     Total SCF correction =     0.001054
     SCF correction compared to forces is large: reduce conv_thr to get better values

     entering subroutine stress ...

     negative rho (up, down):  0.313E+01 0.000E+00
          total   stress  (Ry/bohr**3)                   (kbar)     P=  -12.45
  -0.00009311   0.00000457   0.00000387        -13.70      0.67      0.57
   0.00000457  -0.00011372   0.00000537          0.67    -16.73      0.79
   0.00000387   0.00000537  -0.00004715          0.57      0.79     -6.94

     BFGS Geometry Optimization

     bfgs converged in   1 scf cycles and   0 bfgs steps
     (criteria: energy < 0.10E-03, force < 0.10E-02)

     End of BFGS Geometry Optimization

     Final energy   =   -2139.4754359916 Ry
Begin final coordinates

ATOMIC_POSITIONS (crystal)
O0       0.000000000   0.000000000   0.377810000    0   0   1
O0       0.000000000   0.500000000   0.402070000    0   0   1
Ir1      0.250000000   0.500000000   0.452700000    0   0   1
Ir1      0.000000000   0.000000000   0.452740000    0   0   1
O0       0.250000000   0.810000000   0.452600000    0   0   1
O0       0.250000000   0.190000000   0.452260000    0   0   1
O0       0.000000000   0.500000000   0.498190000    0   0   1
O0       0.000000000   0.000000000   0.528350000    0   0   1
Ir1      0.250000000   0.000000000   0.575350000    0   0   1
Ir1      0.000000000   0.500000000   0.571540000    0   0   1
O0       0.250000000   0.690000000   0.574280000    0   0   1
O0       0.250000000   0.310000000   0.576520000    0   0   1
O0       0.000000000   0.000000000   0.619960000    0   0   1
O0       0.500000000   0.000000000   0.377810000    0   0   1
O0       0.500000000   0.500000000   0.402110000    0   0   1
Ir1      0.750000000   0.500000000   0.452700000    0   0   1
Ir1      0.500000000   0.000000000   0.452690000    0   0   1
O0       0.750000000   0.810000000   0.452590000    0   0   1
O0       0.750000000   0.190000000   0.452280000    0   0   1
O0       0.500000000   0.500000000   0.499730000    0   0   1
O0       0.500000000   0.000000000   0.528270000    0   0   1
Ir1      0.750000000   0.000000000   0.575340000    0   0   1
Ir1      0.500000000   0.500000000   0.577700000    0   0   1
O0       0.750000000   0.690000000   0.574280000    0   0   1
O0       0.750000000   0.310000000   0.576520000    0   0   1
O0       0.500000000   0.000000000   0.619340000    0   0   1
H2       0.000040000   0.635980000   0.384130000
H2       0.499940000   0.636440000   0.384320000
H2       0.143210000   0.035670000   0.366320000
H2       0.643670000   0.033650000   0.366280000
O0       0.499790000   0.538110000   0.649800000
O0       0.500180000   0.344800000   0.679420000
H2       0.499980000   0.407570000   0.713570000
End final coordinates

     General routines

     Parallel routines
     Hubbard U routines

   This run was terminated on:   7:16:55  28May2014

   JOB DONE.