     Program PWSCF v.5.0.2 (svn rev. 9656) starts on 31Jan2014 at 16: 5:23

     Current dimensions of program PWSCF are:
     Max number of different atomic species (ntypx) = 10
     Max number of k-points (npk) =  40000
     Max angular momentum in pseudopotentials (lmaxx) =  3
     Waiting for input...
     Reading input from standard input

     Subspace diagonalization in iterative solution of the eigenvalue problem:
     a serial algorithm will be used

     bravais-lattice index     =            0
     lattice parameter (alat)  =       8.8753  a.u.
     unit-cell volume          =     450.5458 (a.u.)^3
     number of atoms/cell      =            6
     number of atomic types    =            2
     number of electrons       =        52.00
     number of Kohn-Sham states=           78
     kinetic-energy cutoff     =      40.0000  Ry
     charge density cutoff     =     500.0000  Ry
     convergence threshold     =      1.0E-06
     mixing beta               =       0.3000
     number of iterations used =            8  plain     mixing
     Exchange-correlation      = SLA  PW   PBE  PBE ( 1 4 3 4 0)
     EXX-fraction              =        0.00
     nstep                     =           50

     celldm(1)=   8.875330  celldm(2)=   0.000000  celldm(3)=   0.000000
     celldm(4)=   0.000000  celldm(5)=   0.000000  celldm(6)=   0.000000

     crystal axes: (cart. coord. in units of alat)
               a(1) = (   1.000000   0.000000   0.000000 )
               a(2) = (   0.000000   1.000000   0.000000 )
               a(3) = (   0.000000   0.000000   0.644444 )

     reciprocal axes: (cart. coord. in units 2 pi/alat)
               b(1) = (  1.000000  0.000000  0.000000 )
               b(2) = (  0.000000  1.000000  0.000000 )
               b(3) = (  0.000000  0.000000  1.551724 )

     PseudoPot. # 1 for Mo read from file:
     /home/camp/zhonxu/pseudo/mo_pbe_v1.uspp.F.UPF
     MD5 check sum: 30c4dcd161f5d35cd49bb5239c51a633
     Pseudo is Ultrasoft + core correction, Zval = 14.0
     Generated by new atomic code, or converted to UPF format
     Using radial grid of  889 points,  6 beta functions with:
                l(1) =   0
                l(2) =   0
                l(3) =   1
                l(4) =   1
                l(5) =   2
                l(6) =   2
     Q(r) pseudized with  6 coefficients,  rinner =    1.000   1.000   1.000
                                                       1.000   1.000

     PseudoPot. # 2 for O  read from file:
     /home/camp/zhonxu/pseudo/o_pbe_v1.01.uspp.F.UPF
     MD5 check sum: 2bcb18d16ea4b960afae9ec6d52f22d2
     Pseudo is Ultrasoft + core correction, Zval =  6.0
     Generated by new atomic code, or converted to UPF format
     Using radial grid of  737 points,  5 beta functions with:
                l(1) =   0
                l(2) =   0
                l(3) =   1
                l(4) =   1
                l(5) =   2
     Q(r) pseudized with  8 coefficients,  rinner =    0.900   0.900   0.900
                                                       0.900   0.900

     atomic species   valence    mass     pseudopotential
        Mo0           14.00    95.94000     Mo( 1.00)
        O1             6.00    15.99940     O ( 1.00)

     Starting magnetic structure
     atomic species   magnetization
        Mo0          0.000
        O1           0.000

      8 Sym. Ops., with inversion, found
          (note:  8 additional sym.ops. were found but ignored
           their fractional translations are incommensurate with FFT grid)

   Cartesian axes

     site n.     atom                  positions (alat units)
         1           Mo0 tau(   1) = (   0.0000000   0.0000000   0.0000000  )
         2           Mo0 tau(   2) = (   0.5000000   0.5000000   0.3222222  )
         3           O1  tau(   3) = (   0.3050000   0.3050000   0.0000000  )
         4           O1  tau(   4) = (  -0.3050000  -0.3050000   0.0000000  )
         5           O1  tau(   5) = (   0.8050000   0.1950000   0.3222222  )
         6           O1  tau(   6) = (   0.1950000   0.8050000   0.3222222  )

     number of k points=    54  Methfessel-Paxton smearing, width (Ry)=  0.0100
                       cart. coord. in units 2pi/alat
        k(    1) = (   0.0000000   0.0000000   0.0000000), wk =   0.0080000
        k(    2) = (   0.0000000   0.0000000   0.3103448), wk =   0.0160000
        k(    3) = (   0.0000000   0.0000000   0.6206897), wk =   0.0160000
        k(    4) = (   0.0000000   0.2000000   0.0000000), wk =   0.0320000
        k(    5) = (   0.0000000   0.2000000   0.3103448), wk =   0.0640000
        k(    6) = (   0.0000000   0.2000000   0.6206897), wk =   0.0640000
        k(    7) = (   0.0000000   0.4000000   0.0000000), wk =   0.0320000
        k(    8) = (   0.0000000   0.4000000   0.3103448), wk =   0.0640000
        k(    9) = (   0.0000000   0.4000000   0.6206897), wk =   0.0640000
        k(   10) = (   0.2000000   0.2000000   0.0000000), wk =   0.0160000
        k(   11) = (   0.2000000   0.2000000   0.3103448), wk =   0.0320000
        k(   12) = (   0.2000000   0.2000000   0.6206897), wk =   0.0320000
        k(   13) = (   0.2000000   0.4000000   0.0000000), wk =   0.0320000
        k(   14) = (   0.2000000   0.4000000   0.3103448), wk =   0.0640000
        k(   15) = (   0.2000000   0.4000000   0.6206897), wk =   0.0640000
        k(   16) = (   0.4000000   0.4000000   0.0000000), wk =   0.0160000
        k(   17) = (   0.4000000   0.4000000   0.3103448), wk =   0.0320000
        k(   18) = (   0.4000000   0.4000000   0.6206897), wk =   0.0320000
        k(   19) = (  -0.2000000   0.2000000   0.0000000), wk =   0.0160000
        k(   20) = (  -0.2000000   0.2000000  -0.3103448), wk =   0.0320000
        k(   21) = (  -0.2000000   0.2000000  -0.6206897), wk =   0.0320000
        k(   22) = (  -0.2000000   0.4000000   0.0000000), wk =   0.0320000
        k(   23) = (  -0.2000000   0.4000000  -0.3103448), wk =   0.0640000
        k(   24) = (  -0.2000000   0.4000000  -0.6206897), wk =   0.0640000
        k(   25) = (  -0.4000000   0.4000000   0.0000000), wk =   0.0160000
        k(   26) = (  -0.4000000   0.4000000  -0.3103448), wk =   0.0320000
        k(   27) = (  -0.4000000   0.4000000  -0.6206897), wk =   0.0320000
        k(   28) = (   0.0000000   0.0000000   0.0000000), wk =   0.0080000
        k(   29) = (   0.0000000   0.0000000   0.3103448), wk =   0.0160000
        k(   30) = (   0.0000000   0.0000000   0.6206897), wk =   0.0160000
        k(   31) = (   0.0000000   0.2000000   0.0000000), wk =   0.0320000
        k(   32) = (   0.0000000   0.2000000   0.3103448), wk =   0.0640000
        k(   33) = (   0.0000000   0.2000000   0.6206897), wk =   0.0640000
        k(   34) = (   0.0000000   0.4000000   0.0000000), wk =   0.0320000
        k(   35) = (   0.0000000   0.4000000   0.3103448), wk =   0.0640000
        k(   36) = (   0.0000000   0.4000000   0.6206897), wk =   0.0640000
        k(   37) = (   0.2000000   0.2000000   0.0000000), wk =   0.0160000
        k(   38) = (   0.2000000   0.2000000   0.3103448), wk =   0.0320000
        k(   39) = (   0.2000000   0.2000000   0.6206897), wk =   0.0320000
        k(   40) = (   0.2000000   0.4000000   0.0000000), wk =   0.0320000
        k(   41) = (   0.2000000   0.4000000   0.3103448), wk =   0.0640000
        k(   42) = (   0.2000000   0.4000000   0.6206897), wk =   0.0640000
        k(   43) = (   0.4000000   0.4000000   0.0000000), wk =   0.0160000
        k(   44) = (   0.4000000   0.4000000   0.3103448), wk =   0.0320000
        k(   45) = (   0.4000000   0.4000000   0.6206897), wk =   0.0320000
        k(   46) = (  -0.2000000   0.2000000   0.0000000), wk =   0.0160000
        k(   47) = (  -0.2000000   0.2000000  -0.3103448), wk =   0.0320000
        k(   48) = (  -0.2000000   0.2000000  -0.6206897), wk =   0.0320000
        k(   49) = (  -0.2000000   0.4000000   0.0000000), wk =   0.0320000
        k(   50) = (  -0.2000000   0.4000000  -0.3103448), wk =   0.0640000
        k(   51) = (  -0.2000000   0.4000000  -0.6206897), wk =   0.0640000
        k(   52) = (  -0.4000000   0.4000000   0.0000000), wk =   0.0160000
        k(   53) = (  -0.4000000   0.4000000  -0.3103448), wk =   0.0320000
        k(   54) = (  -0.4000000   0.4000000  -0.6206897), wk =   0.0320000

     Largest allocated arrays     est. size (Mb)     dimensions
     Largest temporary arrays     est. size (Mb)     dimensions

     Check: negative/imaginary core charge=   -0.000007    0.000000

     Initial potential from superposition of free atoms

     starting charge   51.99787, renormalised to   52.00000
     Starting wfc are   42 randomized atomic wfcs

     Self-consistent Calculation

     iteration #  1     ecut=    40.00 Ry     beta=0.30
     Davidson diagonalization with overlap
     ethr =  1.00E-02,  avg # of iterations =  5.4

     total energy              =    -407.42219588 Ry
     Harris-Foulkes estimate   =    -408.13975877 Ry
     estimated scf accuracy    <       1.65086438 Ry

     total magnetization       =     0.00 Bohr mag/cell
     absolute magnetization    =     0.00 Bohr mag/cell

[...]

     End of self-consistent calculation

 ------ SPIN UP ------------

          k = 0.0000 0.0000 0.0000 (  1931 PWs)   bands (ev):

   -48.8701 -48.8552 -23.0439 -23.0439 -22.9570 -22.9145 -22.8621 -22.8621
    -7.2768  -6.5183  -5.3901  -5.3900   4.6155   4.7188   5.7281   6.3327
     6.3327   8.4146   8.4146   8.9081   9.8603  10.0267  10.0267  10.6171
    12.5173  12.8198  13.2730  13.3525  13.3525  16.1482  16.2983  18.0456
    19.0691  19.0691  20.3899  22.0201  22.0201  25.3540  27.2797  27.7317
    28.2566  29.0036  29.6440  29.6440  32.1530  32.4350  33.2804  33.2804
    34.1679  34.1679  35.4332  38.7187  38.7187  38.8688  39.6344  39.9323
    41.4819  42.4317  42.4317  42.6592  42.8677  43.0363  43.0363  43.0871
    43.9598  44.8281  44.8281  45.7818  47.1249  49.2001  49.2001  49.4576
    49.8138  50.4631  50.4631  50.7671  51.2622  51.7813

[...]

          k =-0.2000 0.2000 0.0000 (  1925 PWs)   bands (ev):

[...]

 ------ SPIN DOWN ----------

[...]

     the Fermi energy is    13.6245 ev

!    total energy              =    -407.76042230 Ry
     Harris-Foulkes estimate   =    -407.76041930 Ry
     estimated scf accuracy    <       0.00000012 Ry

     The total energy is the sum of the following terms:

     one-electron contribution =    -112.10400807 Ry
     hartree contribution      =      85.24426148 Ry
     xc contribution           =     -67.49470881 Ry
     ewald contribution        =    -313.40556580 Ry
     smearing contrib. (-TS)   =      -0.00040110 Ry

[...]

     convergence has been achieved in   9 iterations

     Forces acting on atoms (Ry/au):

     atom    1 type  1   force =     0.00000000    0.00000000    0.00000000
     atom    2 type  1   force =     0.00000000    0.00000000    0.00000000
     atom    3 type  2   force =    -0.04287186   -0.04287186   -0.00000000
     atom    4 type  2   force =     0.04287186    0.04287186   -0.00000000
     atom    5 type  2   force =    -0.04286921    0.04286921    0.00000000
[...]
        k(   14) = (   0.1898166   0.3796340   0.3445353), wk =   0.0640000
        k(   15) = (   0.1898166   0.3796340   0.6890706), wk =   0.0640000
        k(   16) = (   0.3796337   0.3796337   0.0000000), wk =   0.0160000
        k(   17) = (   0.3796337   0.3796337   0.3445353), wk =   0.0320000
        k(   18) = (   0.3796337   0.3796337   0.6890706), wk =   0.0320000
        k(   19) = (  -0.1898174   0.1898174   0.0000000), wk =   0.0160000
        k(   20) = (  -0.1898174   0.1898174  -0.3445353), wk =   0.0320000
        k(   21) = (  -0.1898174   0.1898174  -0.6890706), wk =   0.0320000
        k(   22) = (  -0.1898176   0.3796345   0.0000000), wk =   0.0320000
        k(   23) = (  -0.1898176   0.3796345  -0.3445353), wk =   0.0640000
        k(   24) = (  -0.1898176   0.3796345  -0.6890706), wk =   0.0640000
        k(   25) = (  -0.3796348   0.3796348   0.0000000), wk =   0.0160000
        k(   26) = (  -0.3796348   0.3796348  -0.3445353), wk =   0.0320000
        k(   27) = (  -0.3796348   0.3796348  -0.6890706), wk =   0.0320000
        k(   28) = (   0.0000000   0.0000000   0.0000000), wk =   0.0080000
        k(   29) = (   0.0000000   0.0000000   0.3445353), wk =   0.0160000
        k(   30) = (   0.0000000   0.0000000   0.6890706), wk =   0.0160000
        k(   31) = (  -0.0000003   0.1898171   0.0000000), wk =   0.0320000
        k(   32) = (  -0.0000003   0.1898171   0.3445353), wk =   0.0640000
        k(   33) = (  -0.0000003   0.1898171   0.6890706), wk =   0.0640000
        k(   34) = (  -0.0000005   0.3796343   0.0000000), wk =   0.0320000
        k(   35) = (  -0.0000005   0.3796343   0.3445353), wk =   0.0640000
        k(   36) = (  -0.0000005   0.3796343   0.6890706), wk =   0.0640000
        k(   37) = (   0.1898169   0.1898169   0.0000000), wk =   0.0160000
        k(   38) = (   0.1898169   0.1898169   0.3445353), wk =   0.0320000
        k(   39) = (   0.1898169   0.1898169   0.6890706), wk =   0.0320000
        k(   40) = (   0.1898166   0.3796340   0.0000000), wk =   0.0320000
        k(   41) = (   0.1898166   0.3796340   0.3445353), wk =   0.0640000
        k(   42) = (   0.1898166   0.3796340   0.6890706), wk =   0.0640000
        k(   43) = (   0.3796337   0.3796337   0.0000000), wk =   0.0160000
        k(   44) = (   0.3796337   0.3796337   0.3445353), wk =   0.0320000
        k(   45) = (   0.3796337   0.3796337   0.6890706), wk =   0.0320000
        k(   46) = (  -0.1898174   0.1898174   0.0000000), wk =   0.0160000
        k(   47) = (  -0.1898174   0.1898174  -0.3445353), wk =   0.0320000
        k(   48) = (  -0.1898174   0.1898174  -0.6890706), wk =   0.0320000
        k(   49) = (  -0.1898176   0.3796345   0.0000000), wk =   0.0320000
        k(   50) = (  -0.1898176   0.3796345  -0.3445353), wk =   0.0640000
        k(   51) = (  -0.1898176   0.3796345  -0.6890706), wk =   0.0640000
        k(   52) = (  -0.3796348   0.3796348   0.0000000), wk =   0.0160000
        k(   53) = (  -0.3796348   0.3796348  -0.3445353), wk =   0.0320000
        k(   54) = (  -0.3796348   0.3796348  -0.6890706), wk =   0.0320000

[...]

     Threshold (ethr) on eigenvalues was too large:
     Diagonalizing with lowered threshold

     Davidson diagonalization with overlap
     ethr =  1.88E-08,  avg # of iterations =  1.9

[...]

     negative rho (up, down):  0.304E-06 0.304E-06

[...]

     negative rho (up, down):  0.304E-06 0.304E-06
     atom    1 type  1   force =     0.00000000    0.00000000    0.00000000
     atom    2 type  1   force =     0.00000000    0.00000000    0.00000000
     atom    3 type  2   force =    -0.00001943   -0.00001943   -0.00000000
     atom    4 type  2   force =     0.00001943    0.00001943   -0.00000000
     atom    5 type  2   force =    -0.00002607    0.00002607    0.00000000
     atom    6 type  2   force =     0.00002607   -0.00002607    0.00000000

     Total force =     0.000065     Total SCF correction =     0.000022
     SCF correction compared to forces is large: reduce conv_thr to get better values

[...]

     negative rho (up, down):  0.304E-06 0.304E-06
          total   stress  (Ry/bohr**3)                   (kbar)     P=  -14.08
  -0.00009510  -0.00000006   0.00000000        -13.99     -0.01      0.00
  -0.00000006  -0.00009510   0.00000000         -0.01    -13.99      0.00
   0.00000000   0.00000000  -0.00009687          0.00      0.00    -14.25

     Volume is kept fixed: isostatic pressure set to zero

     bfgs converged in   9 scf cycles and   8 bfgs steps
     (criteria: energy < 0.10E-03, force < 0.10E-02, cell < 0.50E+00)

     End of BFGS Geometry Optimization

     Final enthalpy =    -407.8325763001 Ry
Begin final coordinates
     new unit-cell volume =    450.54581 a.u.^3 (    66.76400 Ang^3 )

CELL_PARAMETERS (alat=  8.87532960)
   1.053645691   0.000001419   0.000000000
   0.000001419   1.053645691   0.000000000
   0.000000000   0.000000000   0.580492073

ATOMIC_POSITIONS (crystal)
Mo0      0.000000000   0.000000000   0.000000000    0   0   0
Mo0      0.500000000   0.500000000   0.500000000    0   0   0
O1       0.281220220   0.281220220   0.000000000    1   1   0
O1      -0.281220220  -0.281220220   0.000000000    1   1   0
O1       0.781221536   0.218778464   0.500000000    1   1   0
O1       0.218778464   0.781221536   0.500000000    1   1   0
End final coordinates

     A final scf calculation at the relaxed structure.
     The G-vectors are recalculated for the final unit cell
     Results may differ from those at the preceding step.

     bravais-lattice index     =            0
     lattice parameter (alat)  =       8.8753  a.u.
     unit-cell volume          =     450.5458 (a.u.)^3
     number of atoms/cell      =            6
     number of atomic types    =            2
     number of electrons       =        52.00
     number of Kohn-Sham states=           78
     kinetic-energy cutoff     =      40.0000  Ry
     charge density cutoff     =     500.0000  Ry
     convergence threshold     =      1.2E-08
     mixing beta               =       0.3000
     number of iterations used =            8  plain     mixing
     Exchange-correlation      = SLA  PW   PBE  PBE ( 1 4 3 4 0)
     EXX-fraction              =        0.00

     celldm(1)=   8.875330  celldm(2)=   0.000000  celldm(3)=   0.000000
     celldm(4)=   0.000000  celldm(5)=   0.000000  celldm(6)=   0.000000

     crystal axes: (cart. coord. in units of alat)
               a(1) = (   1.053646   0.000001   0.000000 )
               a(2) = (   0.000001   1.053646   0.000000 )
               a(3) = (   0.000000   0.000000   0.580492 )

     reciprocal axes: (cart. coord. in units 2 pi/alat)
               b(1) = (  0.949086 -0.000001  0.000000 )
               b(2) = ( -0.000001  0.949086  0.000000 )
               b(3) = (  0.000000  0.000000  1.722676 )

     PseudoPot. # 1 for Mo read from file:
     /home/camp/zhonxu/pseudo/mo_pbe_v1.uspp.F.UPF
     MD5 check sum: 30c4dcd161f5d35cd49bb5239c51a633
     Pseudo is Ultrasoft + core correction, Zval = 14.0
     Generated by new atomic code, or converted to UPF format
     Using radial grid of  889 points,  6 beta functions with:
                l(1) =   0
                l(2) =   0
                l(3) =   1
                l(4) =   1
                l(5) =   2
                l(6) =   2
     Q(r) pseudized with  6 coefficients,  rinner =    1.000   1.000   1.000
                                                       1.000   1.000

     PseudoPot. # 2 for O  read from file:
     /home/camp/zhonxu/pseudo/o_pbe_v1.01.uspp.F.UPF
     MD5 check sum: 2bcb18d16ea4b960afae9ec6d52f22d2
     Pseudo is Ultrasoft + core correction, Zval =  6.0
     Generated by new atomic code, or converted to UPF format
     Using radial grid of  737 points,  5 beta functions with:
                l(1) =   0
                l(2) =   0
                l(3) =   1
                l(4) =   1
                l(5) =   2
     Q(r) pseudized with  8 coefficients,  rinner =    0.900   0.900   0.900
                                                       0.900   0.900

     atomic species   valence    mass     pseudopotential
        Mo0           14.00    95.94000     Mo( 1.00)
        O1             6.00    15.99940     O ( 1.00)

     Starting magnetic structure
     atomic species   magnetization
        Mo0          0.000
        O1           0.000

      8 Sym. Ops., with inversion, found
          (note:  8 additional sym.ops. were found but ignored
           their fractional translations are incommensurate with FFT grid)

   Cartesian axes

     site n.     atom                  positions (alat units)
         1           Mo0 tau(   1) = (   0.0000000   0.0000000   0.0000000  )
         2           Mo0 tau(   2) = (   0.5268236   0.5268236   0.2902460  )
         3           O1  tau(   3) = (   0.2963069   0.2963069   0.0000000  )
         4           O1  tau(   4) = (  -0.2963069  -0.2963069   0.0000000  )
         5           O1  tau(   5) = (   0.8231310   0.2305161   0.2902460  )
         6           O1  tau(   6) = (   0.2305161   0.8231310   0.2902460  )

     number of k points=    54  Methfessel-Paxton smearing, width (Ry)=  0.0100
                       cart. coord. in units 2pi/alat
        k(    1) = (   0.0000000   0.0000000   0.0000000), wk =   0.0080000
        k(    2) = (   0.0000000   0.0000000   0.3445353), wk =   0.0160000
        k(    3) = (   0.0000000   0.0000000   0.6890706), wk =   0.0160000
        k(    4) = (  -0.0000003   0.1898171   0.0000000), wk =   0.0320000
        k(    5) = (  -0.0000003   0.1898171   0.3445353), wk =   0.0640000
        k(    6) = (  -0.0000003   0.1898171   0.6890706), wk =   0.0640000
        k(    7) = (  -0.0000005   0.3796343   0.0000000), wk =   0.0320000
        k(    8) = (  -0.0000005   0.3796343   0.3445353), wk =   0.0640000
        k(    9) = (  -0.0000005   0.3796343   0.6890706), wk =   0.0640000
        k(   10) = (   0.1898169   0.1898169   0.0000000), wk =   0.0160000
        k(   11) = (   0.1898169   0.1898169   0.3445353), wk =   0.0320000
        k(   12) = (   0.1898169   0.1898169   0.6890706), wk =   0.0320000
        k(   13) = (   0.1898166   0.3796340   0.0000000), wk =   0.0320000
        k(   14) = (   0.1898166   0.3796340   0.3445353), wk =   0.0640000
        k(   15) = (   0.1898166   0.3796340   0.6890706), wk =   0.0640000
        k(   16) = (   0.3796337   0.3796337   0.0000000), wk =   0.0160000
        k(   17) = (   0.3796337   0.3796337   0.3445353), wk =   0.0320000
        k(   18) = (   0.3796337   0.3796337   0.6890706), wk =   0.0320000
        k(   19) = (  -0.1898174   0.1898174   0.0000000), wk =   0.0160000
        k(   20) = (  -0.1898174   0.1898174  -0.3445353), wk =   0.0320000
        k(   21) = (  -0.1898174   0.1898174  -0.6890706), wk =   0.0320000
        k(   22) = (  -0.1898176   0.3796345   0.0000000), wk =   0.0320000
        k(   23) = (  -0.1898176   0.3796345  -0.3445353), wk =   0.0640000
        k(   24) = (  -0.1898176   0.3796345  -0.6890706), wk =   0.0640000
        k(   25) = (  -0.3796348   0.3796348   0.0000000), wk =   0.0160000
        k(   26) = (  -0.3796348   0.3796348  -0.3445353), wk =   0.0320000
        k(   27) = (  -0.3796348   0.3796348  -0.6890706), wk =   0.0320000
        k(   28) = (   0.0000000   0.0000000   0.0000000), wk =   0.0080000
        k(   29) = (   0.0000000   0.0000000   0.3445353), wk =   0.0160000
        k(   30) = (   0.0000000   0.0000000   0.6890706), wk =   0.0160000
        k(   31) = (  -0.0000003   0.1898171   0.0000000), wk =   0.0320000
        k(   32) = (  -0.0000003   0.1898171   0.3445353), wk =   0.0640000
        k(   33) = (  -0.0000003   0.1898171   0.6890706), wk =   0.0640000
        k(   34) = (  -0.0000005   0.3796343   0.0000000), wk =   0.0320000
        k(   35) = (  -0.0000005   0.3796343   0.3445353), wk =   0.0640000
        k(   36) = (  -0.0000005   0.3796343   0.6890706), wk =   0.0640000
        k(   37) = (   0.1898169   0.1898169   0.0000000), wk =   0.0160000
        k(   38) = (   0.1898169   0.1898169   0.3445353), wk =   0.0320000
        k(   39) = (   0.1898169   0.1898169   0.6890706), wk =   0.0320000
        k(   40) = (   0.1898166   0.3796340   0.0000000), wk =   0.0320000
        k(   41) = (   0.1898166   0.3796340   0.3445353), wk =   0.0640000
        k(   42) = (   0.1898166   0.3796340   0.6890706), wk =   0.0640000
        k(   43) = (   0.3796337   0.3796337   0.0000000), wk =   0.0160000
        k(   44) = (   0.3796337   0.3796337   0.3445353), wk =   0.0320000
        k(   45) = (   0.3796337   0.3796337   0.6890706), wk =   0.0320000
        k(   46) = (  -0.1898174   0.1898174   0.0000000), wk =   0.0160000
        k(   47) = (  -0.1898174   0.1898174  -0.3445353), wk =   0.0320000
        k(   48) = (  -0.1898174   0.1898174  -0.6890706), wk =   0.0320000
        k(   49) = (  -0.1898176   0.3796345   0.0000000), wk =   0.0320000
        k(   50) = (  -0.1898176   0.3796345  -0.3445353), wk =   0.0640000
        k(   51) = (  -0.1898176   0.3796345  -0.6890706), wk =   0.0640000
        k(   52) = (  -0.3796348   0.3796348   0.0000000), wk =   0.0160000
        k(   53) = (  -0.3796348   0.3796348  -0.3445353), wk =   0.0320000
        k(   54) = (  -0.3796348   0.3796348  -0.6890706), wk =   0.0320000

     Largest allocated arrays     est. size (Mb)     dimensions
     Largest temporary arrays     est. size (Mb)     dimensions

     Check: negative/imaginary core charge=   -0.000007    0.000000

     Initial potential from superposition of free atoms

     starting charge   51.99787, renormalised to   52.00000
     Starting wfc are   42 randomized atomic wfcs

     Self-consistent Calculation

[...]

     total energy              =    -407.83278736 Ry
     Harris-Foulkes estimate   =    -407.83278662 Ry
     estimated scf accuracy    <       0.00000004 Ry

[...]

     iteration # 11     ecut=    40.00 Ry     beta=0.30
     Davidson diagonalization with overlap
     ethr =  8.56E-11,  avg # of iterations =  1.0

     End of self-consistent calculation

 ------ SPIN UP ------------

[...]

 ------ SPIN DOWN ----------

[...]

          k = 0.3796 0.3796 0.6891 (  1928 PWs)   bands (ev):

[...]

          k =-0.3796 0.3796-0.6891 (  1928 PWs)   bands (ev):

   -49.1944 -49.1942 -23.7714 -23.7687 -23.5123 -23.5086 -23.1604 -23.1599
    -6.2304  -6.0093  -5.8519  -5.6072   5.5631   5.9274   6.0478   6.3468
     6.5427   7.0188   7.1591   7.8857   8.8011   8.9885   9.8395   9.9794
    12.7166  12.9619  13.7244  14.0897  15.3197  15.4085  17.0501  17.9553
    18.2824  19.0209  22.4613  22.8117  23.3757  23.5175  26.5899  26.6416
    28.8210  28.8958  29.1707  29.3998  30.6034  31.0462  32.0312  32.5612
    35.4103  35.7174  36.1804  36.5282  38.2330  38.7842  40.0364  40.3769
    41.3074  41.6298  42.2974  43.0834  43.2073  43.7239  43.9016  44.7121
    45.1143  45.2144  45.2796  46.0920  46.4632  46.6527  47.2475  47.3373
    48.7898  49.8997  52.5770  52.6130  53.1064  53.3420

     the Fermi energy is    12.9930 ev

!    total energy              =    -407.83278809 Ry
     Harris-Foulkes estimate   =    -407.83278737 Ry
     estimated scf accuracy    <          6.0E-09 Ry

     The total energy is the sum of the following terms:

     one-electron contribution =    -115.09330483 Ry
     hartree contribution      =      86.35454853 Ry
     xc contribution           =     -67.41077797 Ry
     ewald contribution        =    -311.68320755 Ry
     smearing contrib. (-TS)   =      -0.00004628 Ry

     total magnetization       =    -0.00 Bohr mag/cell
     absolute magnetization    =     0.00 Bohr mag/cell

     convergence has been achieved in  11 iterations

     Forces acting on atoms (Ry/au):

     atom    1 type  1   force =     0.00000000    0.00000000    0.00000000
     atom    2 type  1   force =     0.00000000    0.00000000    0.00000000
     atom    3 type  2   force =    -0.00005628   -0.00005628    0.00000000
     atom    4 type  2   force =     0.00005628    0.00005628    0.00000000
     atom    5 type  2   force =    -0.00006194    0.00006194   -0.00000000
     atom    6 type  2   force =     0.00006194   -0.00006194   -0.00000000

     Total force =     0.000167     Total SCF correction =     0.000006

     entering subroutine stress ...

          total   stress  (Ry/bohr**3)                   (kbar)     P=  -16.45
  -0.00010757  -0.00000002   0.00000000        -15.82     -0.00      0.00
  -0.00000002  -0.00010757   0.00000000         -0.00    -15.82      0.00
   0.00000000   0.00000000  -0.00012043          0.00      0.00    -17.72

     General routines

     Parallel routines

   This run was terminated on:  18:26:16  31Jan2014

   JOB DONE.