     Program PWSCF v.5.0.2 (svn rev. 9656) starts on 27Feb2014 at 21:25:11

     Current dimensions of program PWSCF are:
     Max number of different atomic species (ntypx) = 10
     Max number of k-points (npk) =  40000
     Max angular momentum in pseudopotentials (lmaxx) =  3
     Reading input from slab-relax.in
Warning: card &CELL ignored
Warning: card / ignored

     Subspace diagonalization in iterative solution of the eigenvalue problem:
     a serial algorithm will be used

     Found symmetry operation: I + ( -0.5000  0.0000  0.0000)
     This is a supercell, fractional translations are disabled

     bravais-lattice index     =            0
     lattice parameter (alat)  =      11.1872  a.u.
     unit-cell volume          =   10442.1272 (a.u.)^3
     number of atoms/cell      =           48
     number of atomic types    =            2
     number of electrons       =       400.00
     number of Kohn-Sham states=          600
     kinetic-energy cutoff     =      40.0000  Ry
     charge density cutoff     =     500.0000  Ry
     convergence threshold     =      1.0E-06
     mixing beta               =       0.3000
     number of iterations used =            8  plain     mixing
     Exchange-correlation      = SLA  PW   PBE  PBE ( 1 4 3 4 0)
     EXX-fraction              =        0.00
     nstep                     =           50

     celldm(1)=  11.187179  celldm(2)=   0.000000  celldm(3)=   0.000000
     celldm(4)=   0.000000  celldm(5)=   0.000000  celldm(6)=   0.000000

     crystal axes: (cart. coord. in units of alat)
               a(1) = (   1.000000   0.000000   0.000000 )
               a(2) = (   0.000000   1.180104   0.000000 )
               a(3) = (   0.000000   0.000000   6.319854 )

     reciprocal axes: (cart. coord. in units 2 pi/alat)
               b(1) = (  1.000000  0.000000  0.000000 )
               b(2) = (  0.000000  0.847383  0.000000 )
               b(3) = (  0.000000  0.000000  0.158232 )

     PseudoPot. # 1 for O  read from file:
     /home/camp/zhonxu/pseudo/o_pbe_v1.01.uspp.F.UPF
     MD5 check sum: 2bcb18d16ea4b960afae9ec6d52f22d2
     Pseudo is Ultrasoft + core correction, Zval =  6.0
     Generated by new atomic code, or converted to UPF format
     Using radial grid of  737 points,  5 beta functions with:
                l(1) =   0
                l(2) =   0
                l(3) =   1
                l(4) =   1
                l(5) =   2
     Q(r) pseudized with  8 coefficients,  rinner =    0.900   0.900   0.900
                                                       0.900   0.900

     PseudoPot. # 2 for Nb read from file:
     /home/camp/zhonxu/pseudo/nb_pbe_v1.uspp.F.UPF
     MD5 check sum: 573aab8a2fa660278ed4a62cd769473f
     Pseudo is Ultrasoft + core correction, Zval = 13.0
     Generated by new atomic code, or converted to UPF format
     Using radial grid of  887 points,  6 beta functions with:
                l(1) =   0
                l(2) =   0
                l(3) =   1
                l(4) =   1
                l(5) =   2
                l(6) =   2
     Q(r) pseudized with  6 coefficients,  rinner =    1.000   1.000   1.000
                                                       1.000   1.000

     atomic species   valence    mass     pseudopotential
        O0             6.00    15.99940     O ( 1.00)
        Nb1           13.00    92.90640     Nb( 1.00)

      4 Sym. Ops. (no inversion) found

   Cartesian axes

     site n.     atom                  positions (alat units)
         1           O0  tau(   1) = (   0.0000000   0.5900519   2.0270298  )
         2           Nb1 tau(   2) = (   0.2500000   0.5900519   2.2748313  )
         3           Nb1 tau(   3) = (   0.0000000   0.0000000   2.2748313  )
         4           O0  tau(   4) = (   0.2500000   0.9322821   2.2748313  )
         5           O0  tau(   5) = (   0.2500000   0.2478218   2.2748313  )
         6           O0  tau(   6) = (   0.0000000   0.5900519   2.5226959  )
         7           O0  tau(   7) = (   0.0000000   0.0000000   2.6170513  )
         8           Nb1 tau(   8) = (   0.2500000   0.0000000   2.8649160  )
         9           Nb1 tau(   9) = (   0.0000000   0.5900519   2.8649160  )
        10           O0  tau(  10) = (   0.2500000   0.8378738   2.8649160  )
        11           O0  tau(  11) = (   0.2500000   0.3422301   2.8649160  )
        12           O0  tau(  12) = (   0.0000000   0.0000000   3.1127175  )
        13           O0  tau(  13) = (   0.0000000   0.5900519   3.2015114  )
        14           Nb1 tau(  14) = (   0.2500000   0.5900519   3.4437514  )
        15           Nb1 tau(  15) = (   0.0000000   0.0000000   3.4611310  )
        16           O0  tau(  16) = (   0.2500000   0.9314678   3.4610046  )
        17           O0  tau(  17) = (   0.2500000   0.2486361   3.4610046  )
        18           O0  tau(  18) = (   0.0000000   0.5900519   3.6987575  )
        19           O0  tau(  19) = (   0.0000000   0.0000000   3.8174443  )
        20           Nb1 tau(  20) = (   0.2500000   0.0000000   4.0701753  )
        21           Nb1 tau(  21) = (   0.0000000   0.5900519   4.0169621  )
        22           O0  tau(  22) = (   0.2500000   0.8262379   4.0818038  )
        23           O0  tau(  23) = (   0.2500000   0.3538660   4.0818038  )
        24           O0  tau(  24) = (   0.0000000   0.0000000   4.2710834  )
        25           O0  tau(  25) = (   0.5000000   0.5900519   2.0270298  )
        26           Nb1 tau(  26) = (   0.7500000   0.5900519   2.2748313  )
        27           Nb1 tau(  27) = (   0.5000000   0.0000000   2.2748313  )
        28           O0  tau(  28) = (   0.7500000   0.9322821   2.2748313  )
        29           O0  tau(  29) = (   0.7500000   0.2478218   2.2748313  )
        30           O0  tau(  30) = (   0.5000000   0.5900519   2.5226959  )
        31           O0  tau(  31) = (   0.5000000   0.0000000   2.6170513  )
        32           Nb1 tau(  32) = (   0.7500000   0.0000000   2.8649160  )
        33           Nb1 tau(  33) = (   0.5000000   0.5900519   2.8649160  )
        34           O0  tau(  34) = (   0.7500000   0.8378738   2.8649160  )
        35           O0  tau(  35) = (   0.7500000   0.3422301   2.8649160  )
        36           O0  tau(  36) = (   0.5000000   0.0000000   3.1127175  )
        37           O0  tau(  37) = (   0.5000000   0.5900519   3.2015114  )
        38           Nb1 tau(  38) = (   0.7500000   0.5900519   3.4437514  )
        39           Nb1 tau(  39) = (   0.5000000   0.0000000   3.4611310  )
        40           O0  tau(  40) = (   0.7500000   0.9314678   3.4610046  )
        41           O0  tau(  41) = (   0.7500000   0.2486361   3.4610046  )
        42           O0  tau(  42) = (   0.5000000   0.5900519   3.6987575  )
        43           O0  tau(  43) = (   0.5000000   0.0000000   3.8174443  )
        44           Nb1 tau(  44) = (   0.7500000   0.0000000   4.0701753  )
        45           Nb1 tau(  45) = (   0.5000000   0.5900519   4.0169621  )
        46           O0  tau(  46) = (   0.7500000   0.8262379   4.0818038  )
        47           O0  tau(  47) = (   0.7500000   0.3538660   4.0818038  )
        48           O0  tau(  48) = (   0.5000000   0.0000000   4.2710834  )

     number of k points=     9  Methfessel-Paxton smearing, width (Ry)=  0.0100
                       cart. coord. in units 2pi/alat
        k(    1) = (   0.0000000   0.0000000   0.0000000), wk =   0.1250000
        k(    2) = (   0.0000000   0.2118458   0.0000000), wk =   0.2500000
        k(    3) = (   0.0000000  -0.4236915   0.0000000), wk =   0.1250000
        k(    4) = (   0.2500000   0.0000000   0.0000000), wk =   0.2500000
        k(    5) = (   0.2500000   0.2118458   0.0000000), wk =   0.5000000
        k(    6) = (   0.2500000  -0.4236915   0.0000000), wk =   0.2500000
        k(    7) = (  -0.5000000   0.0000000   0.0000000), wk =   0.1250000
        k(    8) = (  -0.5000000   0.2118458   0.0000000), wk =   0.2500000
        k(    9) = (  -0.5000000  -0.4236915   0.0000000), wk =   0.1250000

     Largest allocated arrays     est. size (Mb)     dimensions
     Largest temporary arrays     est. size (Mb)     dimensions

     Check: negative/imaginary core charge=   -0.000003    0.000000

     Initial potential from superposition of free atoms
     Check: negative starting charge=   -0.005554

     starting charge  399.95622, renormalised to  400.00000

     negative rho (up, down):  0.555E-02 0.000E+00
     Starting wfc are  336 randomized atomic wfcs

     Self-consistent Calculation

     iteration #  1     ecut=    40.00 Ry     beta=0.30
     Davidson diagonalization with overlap
     ethr =  1.00E-02,  avg # of iterations =  6.4

     negative rho (up, down):  0.499E-02 0.000E+00

     total energy              =   -2916.99012172 Ry
     Harris-Foulkes estimate   =   -2928.57533246 Ry
     estimated scf accuracy    <      25.87697987 Ry

[...]

     End of self-consistent calculation

          k = 0.0000 0.0000 0.0000 ( 44615 PWs)   bands (ev):

   -55.2369 -55.1465 -54.7948 -54.7167 -54.7077 -54.6953 -54.6917 -54.6828
   -54.6688 -54.6531 -54.6267 -54.6179 -54.6130 -54.6031 -54.5903 -54.5743
   -32.2128 -31.4336 -31.4050 -31.3169 -31.3035 -31.2954 -31.2730 -31.2644
   -31.2340 -31.2291 -31.1835 -31.1698 -31.1633 -31.1628 -31.1000 -31.0707
   -31.0547 -31.0278 -31.0006 -30.9892 -30.9414 -30.9349 -30.9264 -30.8920
   -30.8915 -30.8440 -30.8383 -30.7859 -30.7648 -30.7533 -30.7386 -30.6791
   -30.6737 -30.6690 -30.5886 -30.5796 -30.5794 -30.5709 -30.5687 -30.5386
   -30.5247 -30.5082 -30.4506 -30.4301 -30.4227 -30.4020 -30.3671 -30.2972
   -18.4386 -18.2124 -18.1608 -18.1345 -18.0533 -18.0091 -17.8835 -17.8703
   -17.7550 -17.6777 -17.6207 -17.6091 -17.5464 -17.4783 -17.4318 -17.3820
   -17.2536 -17.1996 -17.1554 -17.1329 -17.1261 -17.0625 -17.0510 -16.9691
   -16.9083 -16.8008 -16.7741 -16.7734 -16.7029 -16.6064 -15.5759 -15.4517
    -6.3247  -6.2690  -6.2495  -6.2377  -6.1764  -5.9712  -5.8642  -5.5706
    -5.5539  -5.4843  -5.4496  -5.2975  -5.2451  -5.2093  -5.1845  -5.1465
    -5.0833  -5.0766  -5.0634  -5.0099  -4.8589  -4.8430  -4.7949  -4.7627
    -4.7109  -4.5132  -4.4985  -4.4866  -4.4331  -4.4047  -4.4028  -4.3757
    -4.2021  -4.1356  -4.1149  -4.0702  -4.0401  -4.0339  -3.9997  -3.9994
    -3.9874  -3.9449  -3.9424  -3.8891  -3.8862  -3.8752  -3.8032  -3.6113
    -3.3854  -3.2897  -3.2617  -3.2321  -3.2058  -3.2011  -3.1951  -3.1415
    -3.0343  -3.0217  -2.9519  -2.8001  -2.7486  -2.7435  -2.6987  -2.6980
    -2.5317  -2.5186  -2.4663  -2.4555  -2.4453  -2.3327  -2.3190  -2.3129
    -2.2540  -2.2013  -2.1982  -2.1537  -2.1469  -2.1187  -2.0827  -2.0464
    -1.9017  -1.8874  -1.8629  -1.8429  -1.7432  -1.7416  -1.6818  -1.6307
    -1.5780  -1.5272  -1.4926  -1.2991  -1.0598  -0.8196  -0.7079  -0.6236
     0.8359   0.8437   0.8888   0.9398   1.0340   1.1115   1.8073   1.9028
     2.0895   2.2169   2.2642   2.2643   2.3195   2.4763   2.5353   2.5738
     2.6486   2.7940   2.8000   2.8870   2.9391   2.9397   2.9413   2.9512
     2.9618   2.9720   3.0330   3.0647   3.1151   3.1210   3.3579   3.4124
[...]

     new trust radius        =       0.0028157707 bohr
     new conv_thr            =       0.0000000100 Ry

ATOMIC_POSITIONS (crystal)
O0       0.000000000   0.500000000   0.320740000    0   0   0
Nb1      0.250000000   0.500000000   0.359950000    0   0   0
Nb1      0.000000000   0.000000000   0.359950000    0   0   0
O0       0.250000000   0.790000000   0.359950000    0   0   0
O0       0.250000000   0.210000000   0.359950000    0   0   0
O0       0.000000000   0.500000000   0.399170000    0   0   0
O0       0.000000000   0.000000000   0.414100000    0   0   0
Nb1      0.250000000   0.000000000   0.453320000    0   0   0
Nb1      0.000000000   0.500000000   0.453320000    0   0   0
O0       0.250000000   0.710000000   0.453320000    0   0   0
O0       0.250000000   0.290000000   0.453320000    0   0   0
O0       0.000000000   0.000000000   0.492530000    0   0   0
O0       0.000000000   0.500000000   0.506595003
Nb1      0.249999999   0.500000000   0.544903348
Nb1      0.000000000   0.000000000   0.547677989
O0       0.250000005   0.788980031   0.547664421
O0       0.250000005   0.211019969   0.547664421
O0       0.000000000   0.500000000   0.585288319
O0       0.000000000   0.000000000   0.604037798
Nb1      0.250000000   0.000000000   0.644028501
Nb1      0.000000000   0.500000000   0.635610465
O0       0.250000002   0.700184218   0.645868531
O0       0.250000002   0.299815782   0.645868531
O0       0.000000000   0.000000000   0.675832528
O0       0.500000000   0.500000000   0.320740000    0   0   0
Nb1      0.750000000   0.500000000   0.359950000    0   0   0
Nb1      0.500000000   0.000000000   0.359950000    0   0   0
O0       0.750000000   0.790000000   0.359950000    0   0   0
O0       0.750000000   0.210000000   0.359950000    0   0   0
O0       0.500000000   0.500000000   0.399170000    0   0   0
O0       0.500000000   0.000000000   0.414100000    0   0   0
Nb1      0.750000000   0.000000000   0.453320000    0   0   0
Nb1      0.500000000   0.500000000   0.453320000    0   0   0
O0       0.750000000   0.710000000   0.453320000    0   0   0
O0       0.750000000   0.290000000   0.453320000    0   0   0
O0       0.500000000   0.000000000   0.492530000    0   0   0
O0       0.500000000   0.500000000   0.506595003
Nb1      0.750000001   0.500000000   0.544903348
Nb1      0.500000000   0.000000000   0.547677989
O0       0.749999995   0.788980031   0.547664421
O0       0.749999995   0.211019969   0.547664421
O0       0.500000000   0.500000000   0.585288319
O0       0.500000000   0.000000000   0.604037797
Nb1      0.750000000   0.000000000   0.644028501
Nb1      0.500000000   0.500000000   0.635610465
O0       0.749999998   0.700184218   0.645868531
O0       0.749999998   0.299815782   0.645868531
O0       0.500000000   0.000000000   0.675832527

     Check: negative starting charge=   -0.005554
     NEW-OLD atomic charge density approx. for the potential

     Check: negative/imaginary core charge=   -0.000003    0.000000
     Check: negative starting charge=   -0.005553

[...]

     Self-consistent Calculation

[...]

     total energy              =   -2921.97800745 Ry
     Harris-Foulkes estimate   =   -2921.97800746 Ry
     estimated scf accuracy    <       0.00000034 Ry

     iteration # 14     ecut=    40.00 Ry     beta=0.30
     Davidson diagonalization with overlap
     ethr =  3.06E-12,  avg # of iterations =  1.0

     negative rho (up, down):  0.492E-02 0.000E+00

     End of self-consistent calculation

[...]

          k = 0.2500-0.4237 0.0000 ( 44580 PWs)   bands (ev):

[...]

          k =-0.5000-0.4237 0.0000 ( 44696 PWs)   bands (ev):

   -55.1934 -55.1934 -54.7565 -54.7565 -54.6673 -54.6673 -54.6596 -54.6596
   -54.6510 -54.6510 -54.6455 -54.6455 -54.6306 -54.6306 -54.6153 -54.6153
   -31.7280 -31.7280 -31.2915 -31.2915 -31.2233 -31.2233 -31.1809 -31.1809
   -31.0499 -31.0499 -30.9920 -30.9920 -30.9808 -30.9808 -30.9774 -30.9774
   -30.9617 -30.9617 -30.9363 -30.9363 -30.9121 -30.9121 -30.8485 -30.8485
   -30.8461 -30.8461 -30.8347 -30.8347 -30.7932 -30.7932 -30.7870 -30.7870
   -30.7514 -30.7514 -30.6909 -30.6909 -30.6865 -30.6865 -30.6706 -30.6706
   -30.6589 -30.6589 -30.6418 -30.6418 -30.6344 -30.6344 -30.6186 -30.6186
   -17.9764 -17.9764 -17.7903 -17.7903 -17.6547 -17.6547 -17.6011 -17.6011
   -17.5934 -17.5934 -17.5381 -17.5381 -17.4767 -17.4767 -17.4217 -17.4217
   -17.3419 -17.3419 -17.3070 -17.3070 -17.2102 -17.2102 -17.1323 -17.1323
   -17.0934 -17.0934 -17.0631 -17.0631 -17.0411 -17.0411 -15.6058 -15.6058
    -5.5759  -5.5759  -5.5177  -5.5177  -5.4750  -5.4750  -5.3714  -5.3714
    -5.3560  -5.3560  -5.3290  -5.3290  -5.2254  -5.2254  -5.1190  -5.1190
    -4.9347  -4.9347  -4.8377  -4.8377  -4.8298  -4.8298  -4.7039  -4.7039
    -4.6655  -4.6655  -4.4714  -4.4714  -4.4488  -4.4488  -4.3664  -4.3664
    -4.2298  -4.2298  -4.1296  -4.1296  -4.0756  -4.0756  -4.0705  -4.0705
    -4.0259  -4.0259  -4.0081  -4.0081  -3.9507  -3.9507  -3.6931  -3.6931
    -3.6696  -3.6696  -3.5297  -3.5297  -3.5064  -3.5064  -3.2424  -3.2424
    -3.2410  -3.2410  -3.0785  -3.0785  -2.9266  -2.9266  -2.8799  -2.8799
    -2.8620  -2.8620  -2.8402  -2.8402  -2.7315  -2.7315  -2.6559  -2.6559
    -2.4596  -2.4596  -2.2945  -2.2945  -2.2835  -2.2835  -2.0920  -2.0920
    -2.0517  -2.0517  -1.9165  -1.9165  -1.8790  -1.8790  -1.7406  -1.7406
    -1.5614  -1.5614  -1.5070  -1.5070  -0.9085  -0.9085  -0.7878  -0.7878
     1.8291   1.8291   1.9733   1.9733   2.0773   2.0773   2.1826   2.1826
     2.2425   2.2425   2.3501   2.3501   2.3669   2.3669   2.4150   2.4150
     2.6401   2.6401   2.6986   2.6986   2.9859   2.9859   3.0704   3.0704
     3.1004   3.1004   3.1431   3.1431   3.2617   3.2617   3.2861   3.2861
     3.4068   3.4068   3.4768   3.4768   3.6787   3.6787   3.7851   3.7851
     3.8605   3.8605   3.9877   3.9877   4.0276   4.0276   4.0633   4.0633
     4.2596   4.2596   4.6561   4.6561   5.5944   5.5944   5.7428   5.7428
     5.7863   5.7863   5.7945   5.7945   6.1858   6.1858   6.2507   6.2507
     6.8860   6.8860   6.9547   6.9547   6.9939   6.9939   7.0058   7.0058
     7.2231   7.2231   7.2619   7.2619   7.5790   7.5790   7.6403   7.6403
     7.6628   7.6628   7.6899   7.6899   7.8342   7.8342   7.9327   7.9327
     7.9469   7.9469   8.1056   8.1056   8.1207   8.1207   8.2450   8.2450
     8.4804   8.4804   8.5583   8.5583   8.9303   8.9303   8.9662   8.9662
     9.1738   9.1738   9.2341   9.2341   9.6576   9.6576   9.6697   9.6697
     9.7264   9.7264   9.7968   9.7968  10.3960  10.3960  10.4497  10.4497
    10.4959  10.4959  10.6034  10.6034  11.2107  11.2107  11.3260  11.3260
    11.6825  11.6825  11.7412  11.7412  12.3396  12.3396  12.5314  12.5314
    12.6062  12.6062  12.6885  12.6885  12.7309  12.7309  12.9228  12.9228
    13.1106  13.1106  13.1166  13.1166  13.2664  13.2664  13.3580  13.3580
    13.5546  13.5546  13.6474  13.6474  13.7186  13.7186  13.7956  13.7956
    13.8088  13.8088  13.8576  13.8576  13.9704  13.9704  13.9714  13.9714
    13.9791  13.9791  14.1042  14.1042  14.1478  14.1478  14.2282  14.2282
    14.2333  14.2333  14.3676  14.3676  14.3775  14.3775  14.4807  14.4807
    14.5314  14.5314  14.6091  14.6091  14.6829  14.6829  14.6885  14.6885
    14.8234  14.8234  14.8709  14.8709  14.9844  14.9844  15.1363  15.1363
    15.2670  15.2670  15.3201  15.3201  15.3240  15.3240  15.4725  15.4725
    15.5206  15.5206  15.5992  15.5992  15.7007  15.7007  15.8371  15.8371
    16.0800  16.0800  16.1502  16.1502  16.2954  16.2954  16.3136  16.3136
    16.4512  16.4512  16.4546  16.4546  16.4554  16.4554  16.4648  16.4648
    16.6168  16.6168  16.6175  16.6175  16.8533  16.8533  16.9011  16.9011
    16.9951  16.9951  16.9962  16.9962  17.2056  17.2056  17.2320  17.2320
    17.3178  17.3178  17.3741  17.3741  17.4647  17.4647  17.4758  17.4758
    17.6055  17.6055  17.7276  17.7276  17.9073  17.9073  18.0620  18.0620
    18.1986  18.1986  18.2132  18.2132  18.3492  18.3492  18.3534  18.3534
    18.5928  18.5928  18.7017  18.7017  18.8623  18.8623  18.9406  18.9406
    19.0625  19.0625  19.0980  19.0980  19.1917  19.1917  19.2158  19.2158
    19.2847  19.2847  19.4403  19.4403  19.5724  19.5724  19.5943  19.5943
    19.6657  19.6657  19.6827  19.6827  19.9692  19.9692  20.0223  20.0223
    20.0980  20.0980  20.1166  20.1166  20.2777  20.2777  20.4268  20.4268
    20.6298  20.6298  20.8619  20.8619  20.8845  20.8845  20.9515  20.9515
    21.0167  21.0167  21.1478  21.1478  21.2310  21.2310  21.3084  21.3084
    21.3803  21.3803  21.5291  21.5291  21.7270  21.7270  21.7616  21.7616
    21.9740  21.9740  22.0595  22.0595  22.0640  22.0640  22.1932  22.1932
    22.2374  22.2374  22.3474  22.3474  22.4585  22.4585  22.5015  22.5015
    22.5291  22.5291  22.5851  22.5851  22.6193  22.6193  22.6326  22.6326
    22.6964  22.6964  22.7526  22.7526  22.7743  22.7743  22.8039  22.8039
    22.8346  22.8346  22.9206  22.9206  22.9612  22.9612  22.9942  22.9942
    23.0577  23.0577  23.1644  23.1644  23.2497  23.2497  23.2522  23.2522
    23.3840  23.3840  23.4234  23.4234  23.5901  23.5901  23.5975  23.5975
    23.7473  23.7473  23.8052  23.8052  23.9547  23.9547  23.9960  23.9960
    24.1319  24.1319  24.1524  24.1524  24.2863  24.2863  24.3152  24.3152

     the Fermi energy is     1.9896 ev

!    total energy              =   -2921.97800746 Ry
     Harris-Foulkes estimate   =   -2921.97800746 Ry
     estimated scf accuracy    <          2.3E-09 Ry

     The total energy is the sum of the following terms:

     one-electron contribution =  -64396.14051964 Ry
     hartree contribution      =   32256.13448709 Ry
     xc contribution           =    -524.62704501 Ry
     ewald contribution        =   29742.65679047 Ry
     smearing contrib. (-TS)   =      -0.00172036 Ry

     convergence has been achieved in  14 iterations

     Forces acting on atoms (Ry/au):

     negative rho (up, down):  0.492E-02 0.000E+00
     atom    1 type  1   force =     0.00000000    0.00000000    0.14346242
     atom    2 type  2   force =     0.00000000    0.00000000   -0.14870153
     atom    3 type  2   force =     0.00000000    0.00000000    0.07711808
     atom    4 type  1   force =    -0.00000000    0.01664525   -0.01257200
     atom    5 type  1   force =    -0.00000000   -0.01664525   -0.01257200
     atom    6 type  1   force =     0.00000000    0.00000000   -0.02409321
     atom    7 type  1   force =     0.00000000    0.00000000   -0.03228062
     atom    8 type  2   force =     0.00000000    0.00000000   -0.00022646
     atom    9 type  2   force =     0.00000000    0.00000000   -0.01147196
     atom   10 type  1   force =     0.00000000   -0.00267975   -0.00063686
     atom   11 type  1   force =     0.00000000    0.00267975   -0.00063686
     atom   12 type  1   force =     0.00000000    0.00000000    0.02052104
     atom   13 type  1   force =     0.00000000    0.00000000    0.00001866
     atom   14 type  2   force =    -0.00000000    0.00000000    0.00013100
     atom   15 type  2   force =     0.00000000    0.00000000    0.00017304
     atom   16 type  1   force =    -0.00000000   -0.00024872    0.00051356
     atom   17 type  1   force =    -0.00000000    0.00024872    0.00051356
     atom   18 type  1   force =     0.00000000    0.00000000    0.00022751
     atom   19 type  1   force =     0.00000000    0.00000000    0.00009537
     atom   20 type  2   force =     0.00000001    0.00000000    0.00030841
     atom   21 type  2   force =     0.00000000    0.00000000    0.00019442
     atom   22 type  1   force =    -0.00000000    0.00006542    0.00001144
     atom   23 type  1   force =    -0.00000000   -0.00006542    0.00001144
     atom   24 type  1   force =     0.00000000    0.00000000   -0.00010846
     atom   25 type  1   force =     0.00000000    0.00000000    0.14346242
     atom   26 type  2   force =    -0.00000000    0.00000000   -0.14870153
     atom   27 type  2   force =     0.00000000    0.00000000    0.07711808
     atom   28 type  1   force =     0.00000000    0.01664525   -0.01257200
     atom   29 type  1   force =     0.00000000   -0.01664525   -0.01257200
     atom   30 type  1   force =     0.00000000    0.00000000   -0.02409321
     atom   31 type  1   force =     0.00000000    0.00000000   -0.03228062
     atom   32 type  2   force =    -0.00000000    0.00000000   -0.00022646
     atom   33 type  2   force =     0.00000000    0.00000000   -0.01147196
     atom   34 type  1   force =    -0.00000000   -0.00267975   -0.00063686
     atom   35 type  1   force =    -0.00000000    0.00267975   -0.00063686
     atom   36 type  1   force =     0.00000000    0.00000000    0.02052103
     atom   37 type  1   force =     0.00000000    0.00000000    0.00001866
     atom   38 type  2   force =     0.00000000    0.00000000    0.00013100
     atom   39 type  2   force =     0.00000000    0.00000000    0.00017305
     atom   40 type  1   force =     0.00000000   -0.00024872    0.00051356
     atom   41 type  1   force =     0.00000000    0.00024872    0.00051356
     atom   42 type  1   force =     0.00000000    0.00000000    0.00022751
     atom   43 type  1   force =     0.00000000    0.00000000    0.00009538
     atom   44 type  2   force =    -0.00000001    0.00000000    0.00030841
     atom   45 type  2   force =     0.00000000    0.00000000    0.00019441
     atom   46 type  1   force =     0.00000000    0.00006542    0.00001144
     atom   47 type  1   force =     0.00000000   -0.00006542    0.00001144
     atom   48 type  1   force =     0.00000000    0.00000000   -0.00010846

     Total force =     0.001351     Total SCF correction =     0.000175
     SCF correction compared to forces is large: reduce conv_thr to get better values

     bfgs converged in   3 scf cycles and   2 bfgs steps
     (criteria: energy < 0.10E-03, force < 0.10E-02)

     End of BFGS Geometry Optimization

     Final energy   =   -2921.9780074568 Ry
Begin final coordinates

ATOMIC_POSITIONS (crystal)
O0       0.000000000   0.500000000   0.320740000    0   0   0
Nb1      0.250000000   0.500000000   0.359950000    0   0   0
Nb1      0.000000000   0.000000000   0.359950000    0   0   0
O0       0.250000000   0.790000000   0.359950000    0   0   0
O0       0.250000000   0.210000000   0.359950000    0   0   0
O0       0.000000000   0.500000000   0.399170000    0   0   0
O0       0.000000000   0.000000000   0.414100000    0   0   0
Nb1      0.250000000   0.000000000   0.453320000    0   0   0
Nb1      0.000000000   0.500000000   0.453320000    0   0   0
O0       0.250000000   0.710000000   0.453320000    0   0   0
O0       0.250000000   0.290000000   0.453320000    0   0   0
O0       0.000000000   0.000000000   0.492530000    0   0   0
O0       0.000000000   0.500000000   0.506595003
Nb1      0.249999999   0.500000000   0.544903348
Nb1      0.000000000   0.000000000   0.547677989
O0       0.250000005   0.788980031   0.547664421
O0       0.250000005   0.211019969   0.547664421
O0       0.000000000   0.500000000   0.585288319
O0       0.000000000   0.000000000   0.604037798
Nb1      0.250000000   0.000000000   0.644028501
Nb1      0.000000000   0.500000000   0.635610465
O0       0.250000002   0.700184218   0.645868531
O0       0.250000002   0.299815782   0.645868531
O0       0.000000000   0.000000000   0.675832528
O0       0.500000000   0.500000000   0.320740000    0   0   0
Nb1      0.750000000   0.500000000   0.359950000    0   0   0
Nb1      0.500000000   0.000000000   0.359950000    0   0   0
O0       0.750000000   0.790000000   0.359950000    0   0   0
O0       0.750000000   0.210000000   0.359950000    0   0   0
O0       0.500000000   0.500000000   0.399170000    0   0   0
O0       0.500000000   0.000000000   0.414100000    0   0   0
Nb1      0.750000000   0.000000000   0.453320000    0   0   0
Nb1      0.500000000   0.500000000   0.453320000    0   0   0
O0       0.750000000   0.710000000   0.453320000    0   0   0
O0       0.750000000   0.290000000   0.453320000    0   0   0
O0       0.500000000   0.000000000   0.492530000    0   0   0
O0       0.500000000   0.500000000   0.506595003
Nb1      0.750000001   0.500000000   0.544903348
Nb1      0.500000000   0.000000000   0.547677989
O0       0.749999995   0.788980031   0.547664421
O0       0.749999995   0.211019969   0.547664421
O0       0.500000000   0.500000000   0.585288319
O0       0.500000000   0.000000000   0.604037797
Nb1      0.750000000   0.000000000   0.644028501
Nb1      0.500000000   0.500000000   0.635610465
O0       0.749999998   0.700184218   0.645868531
O0       0.749999998   0.299815782   0.645868531
O0       0.500000000   0.000000000   0.675832527
End final coordinates

     General routines

     Parallel routines

   This run was terminated on:   4:19:27  28Feb2014

   JOB DONE.