     Program PWSCF v.5.0.2 (svn rev. 9656) starts on 24Jan2014 at 15:47:26

     Current dimensions of program PWSCF are:
     Max number of different atomic species (ntypx) = 10
     Max number of k-points (npk) =  40000
     Max angular momentum in pseudopotentials (lmaxx) =  3
     Reading input from RhO2-v-1.10.in

     Subspace diagonalization in iterative solution of the eigenvalue problem:
     a serial algorithm will be used

     bravais-lattice index     =            0
     lattice parameter (alat)  =       9.0526  a.u.
     unit-cell volume          =     478.0891 (a.u.)^3
     number of atoms/cell      =            6
     number of atomic types    =            2
     number of electrons       =        54.00
     number of Kohn-Sham states=           81
     kinetic-energy cutoff     =      40.0000  Ry
     charge density cutoff     =     500.0000  Ry
     convergence threshold     =      1.0E-06
     mixing beta               =       0.3000
     number of iterations used =            8  plain     mixing
     Exchange-correlation      = SLA  PW   PBE  PBE ( 1 4 3 4 0)
     EXX-fraction              =        0.00
     nstep                     =           50

     celldm(1)=   9.052624  celldm(2)=   0.000000  celldm(3)=   0.000000
     celldm(4)=   0.000000  celldm(5)=   0.000000  celldm(6)=   0.000000

     crystal axes: (cart. coord. in units of alat)
               a(1) = (   1.000000   0.000000   0.000000 )
               a(2) = (   0.000000   1.000000   0.000000 )
               a(3) = (   0.000000   0.000000   0.644444 )

     reciprocal axes: (cart. coord. in units 2 pi/alat)
               b(1) = (  1.000000  0.000000  0.000000 )
               b(2) = (  0.000000  1.000000  0.000000 )
               b(3) = (  0.000000  0.000000  1.551724 )

     PseudoPot. # 1 for Rh read from file:
     /home/camp/zhonxu/pseudo/rh_pbe_v1.uspp.F.UPF
     MD5 check sum: 37b626987ad0dd8ec6bf4cc9ef289918
     Pseudo is Ultrasoft + core correction, Zval = 15.0
     Generated by new atomic code, or converted to UPF format
     Using radial grid of  969 points,  7 beta functions with:
                l(1) =   0
                l(2) =   0
                l(3) =   1
                l(4) =   1
                l(5) =   2
                l(6) =   2
                l(7) =   2
     Q(r) pseudized with  6 coefficients,  rinner =    1.050   1.050   1.050
                                                       1.050   1.050

     PseudoPot. # 2 for O  read from file:
     /home/camp/zhonxu/pseudo/o_pbe_v1.01.uspp.F.UPF
     MD5 check sum: 2bcb18d16ea4b960afae9ec6d52f22d2
     Pseudo is Ultrasoft + core correction, Zval =  6.0
     Generated by new atomic code, or converted to UPF format
     Using radial grid of  737 points,  5 beta functions with:
                l(1) =   0
                l(2) =   0
                l(3) =   1
                l(4) =   1
                l(5) =   2
     Q(r) pseudized with  8 coefficients,  rinner =    0.900   0.900   0.900
                                                       0.900   0.900

     atomic species   valence    mass     pseudopotential
        Rh0           15.00   102.90550     Rh( 1.00)
        O1             6.00    15.99940     O ( 1.00)

     Starting magnetic structure
     atomic species   magnetization
        Rh0          0.600
        O1           0.000

      8 Sym. Ops., with inversion, found
          (note:  8 additional sym.ops. were found but ignored
           their fractional translations are incommensurate with FFT grid)

   Cartesian axes

     site n.     atom                  positions (alat units)
         1           Rh0 tau(   1) = (   0.0000000   0.0000000   0.0000000  )
         2           Rh0 tau(   2) = (   0.5000000   0.5000000   0.3222222  )
         3           O1  tau(   3) = (   0.3050000   0.3050000   0.0000000  )
         4           O1  tau(   4) = (  -0.3050000  -0.3050000   0.0000000  )
         5           O1  tau(   5) = (   0.8050000   0.1950000   0.3222222  )
         6           O1  tau(   6) = (   0.1950000   0.8050000   0.3222222  )

     number of k points=    54  Methfessel-Paxton smearing, width (Ry)=  0.0100
                       cart. coord. in units 2pi/alat
        k(    1) = (   0.0000000   0.0000000   0.0000000), wk =   0.0080000
        k(    2) = (   0.0000000   0.0000000   0.3103448), wk =   0.0160000
        k(    3) = (   0.0000000   0.0000000   0.6206897), wk =   0.0160000
        k(    4) = (   0.0000000   0.2000000   0.0000000), wk =   0.0320000
        k(    5) = (   0.0000000   0.2000000   0.3103448), wk =   0.0640000
        k(    6) = (   0.0000000   0.2000000   0.6206897), wk =   0.0640000
        k(    7) = (   0.0000000   0.4000000   0.0000000), wk =   0.0320000
        k(    8) = (   0.0000000   0.4000000   0.3103448), wk =   0.0640000
        k(    9) = (   0.0000000   0.4000000   0.6206897), wk =   0.0640000
        k(   10) = (   0.2000000   0.2000000   0.0000000), wk =   0.0160000
        k(   11) = (   0.2000000   0.2000000   0.3103448), wk =   0.0320000
        k(   12) = (   0.2000000   0.2000000   0.6206897), wk =   0.0320000
        k(   13) = (   0.2000000   0.4000000   0.0000000), wk =   0.0320000
        k(   14) = (   0.2000000   0.4000000   0.3103448), wk =   0.0640000
        k(   15) = (   0.2000000   0.4000000   0.6206897), wk =   0.0640000
        k(   16) = (   0.4000000   0.4000000   0.0000000), wk =   0.0160000
        k(   17) = (   0.4000000   0.4000000   0.3103448), wk =   0.0320000
        k(   18) = (   0.4000000   0.4000000   0.6206897), wk =   0.0320000
        k(   19) = (  -0.2000000   0.2000000   0.0000000), wk =   0.0160000
        k(   20) = (  -0.2000000   0.2000000  -0.3103448), wk =   0.0320000
        k(   21) = (  -0.2000000   0.2000000  -0.6206897), wk =   0.0320000
        k(   22) = (  -0.2000000   0.4000000   0.0000000), wk =   0.0320000
        k(   23) = (  -0.2000000   0.4000000  -0.3103448), wk =   0.0640000
        k(   24) = (  -0.2000000   0.4000000  -0.6206897), wk =   0.0640000
        k(   25) = (  -0.4000000   0.4000000   0.0000000), wk =   0.0160000
        k(   26) = (  -0.4000000   0.4000000  -0.3103448), wk =   0.0320000
        k(   27) = (  -0.4000000   0.4000000  -0.6206897), wk =   0.0320000
        k(   28) = (   0.0000000   0.0000000   0.0000000), wk =   0.0080000
        k(   29) = (   0.0000000   0.0000000   0.3103448), wk =   0.0160000
        k(   30) = (   0.0000000   0.0000000   0.6206897), wk =   0.0160000
        k(   31) = (   0.0000000   0.2000000   0.0000000), wk =   0.0320000
        k(   32) = (   0.0000000   0.2000000   0.3103448), wk =   0.0640000
        k(   33) = (   0.0000000   0.2000000   0.6206897), wk =   0.0640000
        k(   34) = (   0.0000000   0.4000000   0.0000000), wk =   0.0320000
        k(   35) = (   0.0000000   0.4000000   0.3103448), wk =   0.0640000
        k(   36) = (   0.0000000   0.4000000   0.6206897), wk =   0.0640000
        k(   37) = (   0.2000000   0.2000000   0.0000000), wk =   0.0160000
        k(   38) = (   0.2000000   0.2000000   0.3103448), wk =   0.0320000
        k(   39) = (   0.2000000   0.2000000   0.6206897), wk =   0.0320000
        k(   40) = (   0.2000000   0.4000000   0.0000000), wk =   0.0320000
        k(   41) = (   0.2000000   0.4000000   0.3103448), wk =   0.0640000
        k(   42) = (   0.2000000   0.4000000   0.6206897), wk =   0.0640000
        k(   43) = (   0.4000000   0.4000000   0.0000000), wk =   0.0160000
        k(   44) = (   0.4000000   0.4000000   0.3103448), wk =   0.0320000
        k(   45) = (   0.4000000   0.4000000   0.6206897), wk =   0.0320000
        k(   46) = (  -0.2000000   0.2000000   0.0000000), wk =   0.0160000
        k(   47) = (  -0.2000000   0.2000000  -0.3103448), wk =   0.0320000
        k(   48) = (  -0.2000000   0.2000000  -0.6206897), wk =   0.0320000
        k(   49) = (  -0.2000000   0.4000000   0.0000000), wk =   0.0320000
        k(   50) = (  -0.2000000   0.4000000  -0.3103448), wk =   0.0640000
        k(   51) = (  -0.2000000   0.4000000  -0.6206897), wk =   0.0640000
        k(   52) = (  -0.4000000   0.4000000   0.0000000), wk =   0.0160000
        k(   53) = (  -0.4000000   0.4000000  -0.3103448), wk =   0.0320000
        k(   54) = (  -0.4000000   0.4000000  -0.6206897), wk =   0.0320000

     Largest allocated arrays     est. size (Mb)     dimensions
     Largest temporary arrays     est. size (Mb)     dimensions

     Check: negative/imaginary core charge=   -0.000005    0.000000

     Initial potential from superposition of free atoms
     Check: negative starting charge=(component1):   -0.129720
     Check: negative starting charge=(component2):   -0.032202

     starting charge   52.99980, renormalised to   54.00000

     negative rho (up, down):  0.132E+00 0.328E-01
     Starting wfc are   40 randomized atomic wfcs

     Self-consistent Calculation

     iteration #  1     ecut=    40.00 Ry     beta=0.30
     Davidson diagonalization with overlap
     ethr =  1.00E-02,  avg # of iterations =  7.7

     negative rho (up, down):  0.117E+00 0.505E-01

     total energy              =    -467.77765079 Ry
     Harris-Foulkes estimate   =    -469.75187958 Ry
     estimated scf accuracy    <       5.29690215 Ry

     total magnetization       =     9.94 Bohr mag/cell
     absolute magnetization    =     9.95 Bohr mag/cell

[...]

     End of self-consistent calculation

 ------ SPIN UP ------------

          k = 0.0000 0.0000 0.0000 (  2023 PWs)   bands (ev):

   -37.7741 -37.7741 -37.6515 -37.6515 -37.6078 -37.6002  -9.3240  -8.3773
    -7.8500  -7.8497   2.3871   2.4212   3.7495   3.7496   3.7837   6.0753
     6.0753   6.4904   7.3960   7.4779   7.6507   7.7949   7.7950   7.9390
     8.0515   8.0515   8.8077   9.5698  10.4315  12.8065  12.8067  13.6782
    15.2609  19.5532  19.5533  22.5893  22.7158  23.5102  24.8674  26.0328
    26.0328  27.5926  27.7825  29.9581  31.4725  31.4725  32.7819  32.7819
    33.3544  34.2692  34.5513  34.5514  35.3283  36.8761  37.0237  37.1809
    38.1616  38.1843  38.9371  39.5673  39.5673  39.8727  39.9706  39.9707
    41.8601  41.8601  43.1036  43.3285  45.2755  46.9330  46.9331  47.2521
    47.5051  47.5051  47.6183  48.3327  48.9365  48.9365  49.2637  49.3453
    50.0224

[...]

          k =-0.2000 0.2000 0.0000 (  2031 PWs)   bands (ev):

[...]

 ------ SPIN DOWN ----------

[...]

     the Fermi energy is     9.7706 ev

!    total energy              =    -469.78998161 Ry
     Harris-Foulkes estimate   =    -469.78998114 Ry
     estimated scf accuracy    <       0.00000058 Ry

     The total energy is the sum of the following terms:

     one-electron contribution =    -158.03113834 Ry
     hartree contribution      =     111.88670840 Ry
     xc contribution           =     -86.69156705 Ry
     ewald contribution        =    -336.95382355 Ry
     smearing contrib. (-TS)   =      -0.00016107 Ry

[...]

     convergence has been achieved in  20 iterations

     Forces acting on atoms (Ry/au):

     negative rho (up, down):  0.861E-01 0.863E-01
     atom    1 type  1   force =     0.00000000    0.00000000    0.00000000
[...]
        k(   10) = (   0.2027398   0.2027398   0.0000000), wk =   0.0160000
        k(   11) = (   0.2027398   0.2027398   0.3020216), wk =   0.0320000
        k(   12) = (   0.2027398   0.2027398   0.6040431), wk =   0.0320000
        k(   13) = (   0.2027425   0.4054769   0.0000000), wk =   0.0320000
        k(   14) = (   0.2027425   0.4054769   0.3020216), wk =   0.0640000
        k(   15) = (   0.2027425   0.4054769   0.6040431), wk =   0.0640000
        k(   16) = (   0.4054796   0.4054796   0.0000000), wk =   0.0160000
        k(   17) = (   0.4054796   0.4054796   0.3020216), wk =   0.0320000
        k(   18) = (   0.4054796   0.4054796   0.6040431), wk =   0.0320000
        k(   19) = (  -0.2027344   0.2027344   0.0000000), wk =   0.0160000
        k(   20) = (  -0.2027344   0.2027344  -0.3020216), wk =   0.0320000
        k(   21) = (  -0.2027344   0.2027344  -0.6040431), wk =   0.0320000
        k(   22) = (  -0.2027317   0.4054715   0.0000000), wk =   0.0320000
        k(   23) = (  -0.2027317   0.4054715  -0.3020216), wk =   0.0640000
        k(   24) = (  -0.2027317   0.4054715  -0.6040431), wk =   0.0640000
        k(   25) = (  -0.4054689   0.4054689   0.0000000), wk =   0.0160000
        k(   26) = (  -0.4054689   0.4054689  -0.3020216), wk =   0.0320000
        k(   27) = (  -0.4054689   0.4054689  -0.6040431), wk =   0.0320000
        k(   28) = (   0.0000000   0.0000000   0.0000000), wk =   0.0080000
        k(   29) = (   0.0000000   0.0000000   0.3020216), wk =   0.0160000
        k(   30) = (   0.0000000   0.0000000   0.6040431), wk =   0.0160000
        k(   31) = (   0.0000027   0.2027371   0.0000000), wk =   0.0320000
        k(   32) = (   0.0000027   0.2027371   0.3020216), wk =   0.0640000
        k(   33) = (   0.0000027   0.2027371   0.6040431), wk =   0.0640000
        k(   34) = (   0.0000054   0.4054742   0.0000000), wk =   0.0320000
        k(   35) = (   0.0000054   0.4054742   0.3020216), wk =   0.0640000
        k(   36) = (   0.0000054   0.4054742   0.6040431), wk =   0.0640000
        k(   37) = (   0.2027398   0.2027398   0.0000000), wk =   0.0160000
        k(   38) = (   0.2027398   0.2027398   0.3020216), wk =   0.0320000
        k(   39) = (   0.2027398   0.2027398   0.6040431), wk =   0.0320000
        k(   40) = (   0.2027425   0.4054769   0.0000000), wk =   0.0320000
        k(   41) = (   0.2027425   0.4054769   0.3020216), wk =   0.0640000
        k(   42) = (   0.2027425   0.4054769   0.6040431), wk =   0.0640000
        k(   43) = (   0.4054796   0.4054796   0.0000000), wk =   0.0160000
        k(   44) = (   0.4054796   0.4054796   0.3020216), wk =   0.0320000
        k(   45) = (   0.4054796   0.4054796   0.6040431), wk =   0.0320000
        k(   46) = (  -0.2027344   0.2027344   0.0000000), wk =   0.0160000
        k(   47) = (  -0.2027344   0.2027344  -0.3020216), wk =   0.0320000
        k(   48) = (  -0.2027344   0.2027344  -0.6040431), wk =   0.0320000
        k(   49) = (  -0.2027317   0.4054715   0.0000000), wk =   0.0320000
        k(   50) = (  -0.2027317   0.4054715  -0.3020216), wk =   0.0640000
        k(   51) = (  -0.2027317   0.4054715  -0.6040431), wk =   0.0640000
        k(   52) = (  -0.4054689   0.4054689   0.0000000), wk =   0.0160000
        k(   53) = (  -0.4054689   0.4054689  -0.3020216), wk =   0.0320000
        k(   54) = (  -0.4054689   0.4054689  -0.6040431), wk =   0.0320000

     Check: negative/imaginary core charge=   -0.000005    0.000000
     Check: negative starting charge=(component1):   -0.161866

[...]

     Threshold (ethr) on eigenvalues was too large:
     Diagonalizing with lowered threshold

     Davidson diagonalization with overlap
     ethr =  2.68E-09,  avg # of iterations =  1.7

[...]

     Total force =     0.000025     Total SCF correction =     0.000030
     SCF correction compared to forces is large: reduce conv_thr to get better values

[...]

     Volume is kept fixed: isostatic pressure set to zero

     bfgs converged in   6 scf cycles and   5 bfgs steps
     (criteria: energy < 0.10E-03, force < 0.10E-02, cell < 0.50E+00)

     End of BFGS Geometry Optimization

     Final enthalpy =    -469.7945799461 Ry
Begin final coordinates
     new unit-cell volume =    478.08914 a.u.^3 (    70.84550 Ang^3 )

CELL_PARAMETERS (alat=  9.05262362)
   0.986499177  -0.000013080   0.000000000
  -0.000013080   0.986499177   0.000000000
   0.000000000   0.000000000   0.662204350

ATOMIC_POSITIONS (crystal)
Rh0      0.000000000   0.000000000   0.000000000    0   0   0
Rh0      0.500000000   0.500000000   0.500000000    0   0   0
O1       0.308278896   0.308278896   0.000000000    1   1   0
O1      -0.308278896  -0.308278896   0.000000000    1   1   0
O1       0.808275534   0.191724466   0.500000000    1   1   0
O1       0.191724466   0.808275534   0.500000000    1   1   0
End final coordinates

     A final scf calculation at the relaxed structure.
     The G-vectors are recalculated for the final unit cell
     Results may differ from those at the preceding step.

     bravais-lattice index     =            0
     lattice parameter (alat)  =       9.0526  a.u.
     unit-cell volume          =     478.0891 (a.u.)^3
     number of atoms/cell      =            6
     number of atomic types    =            2
     number of electrons       =        54.00
     number of Kohn-Sham states=           81
     kinetic-energy cutoff     =      40.0000  Ry
     charge density cutoff     =     500.0000  Ry
     convergence threshold     =      1.0E-08
     mixing beta               =       0.3000
     number of iterations used =            8  plain     mixing
     Exchange-correlation      = SLA  PW   PBE  PBE ( 1 4 3 4 0)
     EXX-fraction              =        0.00

     celldm(1)=   9.052624  celldm(2)=   0.000000  celldm(3)=   0.000000
     celldm(4)=   0.000000  celldm(5)=   0.000000  celldm(6)=   0.000000

     crystal axes: (cart. coord. in units of alat)
               a(1) = (   0.986499  -0.000013   0.000000 )
               a(2) = (  -0.000013   0.986499   0.000000 )
               a(3) = (   0.000000   0.000000   0.662204 )

     reciprocal axes: (cart. coord. in units 2 pi/alat)
               b(1) = (  1.013686  0.000013 -0.000000 )
               b(2) = (  0.000013  1.013686 -0.000000 )
               b(3) = ( -0.000000 -0.000000  1.510108 )

     PseudoPot. # 1 for Rh read from file:
     /home/camp/zhonxu/pseudo/rh_pbe_v1.uspp.F.UPF
     MD5 check sum: 37b626987ad0dd8ec6bf4cc9ef289918
     Pseudo is Ultrasoft + core correction, Zval = 15.0
     Generated by new atomic code, or converted to UPF format
     Using radial grid of  969 points,  7 beta functions with:
                l(1) =   0
                l(2) =   0
                l(3) =   1
                l(4) =   1
                l(5) =   2
                l(6) =   2
                l(7) =   2
     Q(r) pseudized with  6 coefficients,  rinner =    1.050   1.050   1.050
                                                       1.050   1.050

     PseudoPot. # 2 for O  read from file:
     /home/camp/zhonxu/pseudo/o_pbe_v1.01.uspp.F.UPF
     MD5 check sum: 2bcb18d16ea4b960afae9ec6d52f22d2
     Pseudo is Ultrasoft + core correction, Zval =  6.0
     Generated by new atomic code, or converted to UPF format
     Using radial grid of  737 points,  5 beta functions with:
                l(1) =   0
                l(2) =   0
                l(3) =   1
                l(4) =   1
                l(5) =   2
     Q(r) pseudized with  8 coefficients,  rinner =    0.900   0.900   0.900
                                                       0.900   0.900

     atomic species   valence    mass     pseudopotential
        Rh0           15.00   102.90550     Rh( 1.00)
        O1             6.00    15.99940     O ( 1.00)

     Starting magnetic structure
     atomic species   magnetization
        Rh0          0.600
        O1           0.000

      8 Sym. Ops., with inversion, found
          (note:  8 additional sym.ops. were found but ignored
           their fractional translations are incommensurate with FFT grid)

   Cartesian axes

     site n.     atom                  positions (alat units)
         1           Rh0 tau(   1) = (   0.0000000   0.0000000   0.0000000  )
         2           Rh0 tau(   2) = (   0.4932430   0.4932430   0.3311022  )
         3           O1  tau(   3) = (   0.3041128   0.3041128   0.0000000  )
         4           O1  tau(   4) = (  -0.3041128  -0.3041128   0.0000000  )
         5           O1  tau(   5) = (   0.7973606   0.1891255   0.3311022  )
         6           O1  tau(   6) = (   0.1891255   0.7973606   0.3311022  )

     number of k points=    54  Methfessel-Paxton smearing, width (Ry)=  0.0100
                       cart. coord. in units 2pi/alat
        k(    1) = (   0.0000000   0.0000000   0.0000000), wk =   0.0080000
        k(    2) = (   0.0000000   0.0000000   0.3020216), wk =   0.0160000
        k(    3) = (   0.0000000   0.0000000   0.6040431), wk =   0.0160000
        k(    4) = (   0.0000027   0.2027371   0.0000000), wk =   0.0320000
        k(    5) = (   0.0000027   0.2027371   0.3020216), wk =   0.0640000
        k(    6) = (   0.0000027   0.2027371   0.6040431), wk =   0.0640000
        k(    7) = (   0.0000054   0.4054742   0.0000000), wk =   0.0320000
        k(    8) = (   0.0000054   0.4054742   0.3020216), wk =   0.0640000
        k(    9) = (   0.0000054   0.4054742   0.6040431), wk =   0.0640000
        k(   10) = (   0.2027398   0.2027398   0.0000000), wk =   0.0160000
        k(   11) = (   0.2027398   0.2027398   0.3020216), wk =   0.0320000
        k(   12) = (   0.2027398   0.2027398   0.6040431), wk =   0.0320000
        k(   13) = (   0.2027425   0.4054769   0.0000000), wk =   0.0320000
        k(   14) = (   0.2027425   0.4054769   0.3020216), wk =   0.0640000
        k(   15) = (   0.2027425   0.4054769   0.6040431), wk =   0.0640000
        k(   16) = (   0.4054796   0.4054796   0.0000000), wk =   0.0160000
        k(   17) = (   0.4054796   0.4054796   0.3020216), wk =   0.0320000
        k(   18) = (   0.4054796   0.4054796   0.6040431), wk =   0.0320000
        k(   19) = (  -0.2027344   0.2027344   0.0000000), wk =   0.0160000
        k(   20) = (  -0.2027344   0.2027344  -0.3020216), wk =   0.0320000
        k(   21) = (  -0.2027344   0.2027344  -0.6040431), wk =   0.0320000
        k(   22) = (  -0.2027317   0.4054715   0.0000000), wk =   0.0320000
        k(   23) = (  -0.2027317   0.4054715  -0.3020216), wk =   0.0640000
        k(   24) = (  -0.2027317   0.4054715  -0.6040431), wk =   0.0640000
        k(   25) = (  -0.4054689   0.4054689   0.0000000), wk =   0.0160000
        k(   26) = (  -0.4054689   0.4054689  -0.3020216), wk =   0.0320000
        k(   27) = (  -0.4054689   0.4054689  -0.6040431), wk =   0.0320000
        k(   28) = (   0.0000000   0.0000000   0.0000000), wk =   0.0080000
        k(   29) = (   0.0000000   0.0000000   0.3020216), wk =   0.0160000
        k(   30) = (   0.0000000   0.0000000   0.6040431), wk =   0.0160000
        k(   31) = (   0.0000027   0.2027371   0.0000000), wk =   0.0320000
        k(   32) = (   0.0000027   0.2027371   0.3020216), wk =   0.0640000
        k(   33) = (   0.0000027   0.2027371   0.6040431), wk =   0.0640000
        k(   34) = (   0.0000054   0.4054742   0.0000000), wk =   0.0320000
        k(   35) = (   0.0000054   0.4054742   0.3020216), wk =   0.0640000
        k(   36) = (   0.0000054   0.4054742   0.6040431), wk =   0.0640000
        k(   37) = (   0.2027398   0.2027398   0.0000000), wk =   0.0160000
        k(   38) = (   0.2027398   0.2027398   0.3020216), wk =   0.0320000
        k(   39) = (   0.2027398   0.2027398   0.6040431), wk =   0.0320000
        k(   40) = (   0.2027425   0.4054769   0.0000000), wk =   0.0320000
        k(   41) = (   0.2027425   0.4054769   0.3020216), wk =   0.0640000
        k(   42) = (   0.2027425   0.4054769   0.6040431), wk =   0.0640000
        k(   43) = (   0.4054796   0.4054796   0.0000000), wk =   0.0160000
        k(   44) = (   0.4054796   0.4054796   0.3020216), wk =   0.0320000
        k(   45) = (   0.4054796   0.4054796   0.6040431), wk =   0.0320000
        k(   46) = (  -0.2027344   0.2027344   0.0000000), wk =   0.0160000
        k(   47) = (  -0.2027344   0.2027344  -0.3020216), wk =   0.0320000
        k(   48) = (  -0.2027344   0.2027344  -0.6040431), wk =   0.0320000
        k(   49) = (  -0.2027317   0.4054715   0.0000000), wk =   0.0320000
        k(   50) = (  -0.2027317   0.4054715  -0.3020216), wk =   0.0640000
        k(   51) = (  -0.2027317   0.4054715  -0.6040431), wk =   0.0640000
        k(   52) = (  -0.4054689   0.4054689   0.0000000), wk =   0.0160000
        k(   53) = (  -0.4054689   0.4054689  -0.3020216), wk =   0.0320000
        k(   54) = (  -0.4054689   0.4054689  -0.6040431), wk =   0.0320000

     Largest allocated arrays     est. size (Mb)     dimensions
     Largest temporary arrays     est. size (Mb)     dimensions

     Check: negative/imaginary core charge=   -0.000005    0.000000

     Initial potential from superposition of free atoms
     Check: negative starting charge=(component1):   -0.128888
     Check: negative starting charge=(component2):   -0.031964

     starting charge   52.99980, renormalised to   54.00000

     negative rho (up, down):  0.131E+00 0.326E-01
     Starting wfc are   40 randomized atomic wfcs

     Self-consistent Calculation

[...]

     total energy              =    -469.79474862 Ry
     Harris-Foulkes estimate   =    -469.79475277 Ry
     estimated scf accuracy    <       0.00000002 Ry

[...]

     iteration # 23     ecut=    40.00 Ry     beta=0.30
     Davidson diagonalization with overlap
     ethr =  3.47E-11,  avg # of iterations =  3.0

     negative rho (up, down):  0.860E-01 0.861E-01

     End of self-consistent calculation

 ------ SPIN UP ------------

[...]

 ------ SPIN DOWN ----------

[...]

          k = 0.4055 0.4055 0.6040 (  2056 PWs)   bands (ev):

[...]

          k =-0.4055 0.4055-0.6040 (  2056 PWs)   bands (ev):

   -37.7295 -37.7285 -37.7113 -37.7099 -37.5550 -37.5548  -8.2900  -8.2433
    -8.1416  -8.1156   3.5288   3.5997   3.8445   3.8455   4.3205   4.6063
     5.4061   5.5562   6.4857   6.6351   7.2919   7.6061   8.3113   8.3722
     8.5643   9.0766   9.3845   9.7504  10.8956  11.5851  11.8657  12.5160
    19.8839  20.3938  20.9765  21.2139  22.3786  22.5081  23.3432  23.7715
    26.6043  26.6251  28.0864  28.5579  29.9746  31.4908  31.5221  31.7381
    32.1206  33.0362  36.0217  36.0465  36.3677  36.9916  38.1402  38.1544
    38.5385  39.2440  39.3561  40.3525  41.0020  41.4614  41.9567  42.4075
    42.7628  43.0785  43.8525  44.7922  44.9928  45.8609  46.1472  46.9207
    47.0328  47.4027  47.8899  48.5318  48.8703  49.1671  50.3901  51.0022
    51.8713

     the Fermi energy is     9.7707 ev

!    total energy              =    -469.79475323 Ry
     Harris-Foulkes estimate   =    -469.79475312 Ry
     estimated scf accuracy    <          8.1E-09 Ry

     The total energy is the sum of the following terms:

     one-electron contribution =    -155.95868250 Ry
     hartree contribution      =     110.86425160 Ry
     xc contribution           =     -86.66661556 Ry
     ewald contribution        =    -338.03341582 Ry
     smearing contrib. (-TS)   =      -0.00029096 Ry

     total magnetization       =     0.03 Bohr mag/cell
     absolute magnetization    =     0.04 Bohr mag/cell

     convergence has been achieved in  23 iterations

     Forces acting on atoms (Ry/au):

     negative rho (up, down):  0.860E-01 0.861E-01
     atom    1 type  1   force =     0.00000000    0.00000000    0.00000000
     atom    2 type  1   force =     0.00000000    0.00000000    0.00000000
     atom    3 type  2   force =    -0.00002713   -0.00002713    0.00000000
     atom    4 type  2   force =     0.00002713    0.00002713    0.00000000
     atom    5 type  2   force =    -0.00000588    0.00000588    0.00000000
     atom    6 type  2   force =     0.00000588   -0.00000588    0.00000000

     Total force =     0.000056     Total SCF correction =     0.000055
     SCF correction compared to forces is large: reduce conv_thr to get better values

     entering subroutine stress ...

     negative rho (up, down):  0.860E-01 0.861E-01
          total   stress  (Ry/bohr**3)                   (kbar)     P= -210.58
  -0.00143900   0.00000028   0.00000000       -211.68      0.04      0.00
   0.00000028  -0.00143900   0.00000000          0.04   -211.68      0.00
   0.00000000   0.00000000  -0.00141657          0.00      0.00   -208.38

     General routines

     Parallel routines

   This run was terminated on:  16:58: 0  24Jan2014

   JOB DONE.