     Program PWSCF v.5.0.2 (svn rev. 9656) starts on 31May2014 at 13:40:52

     Current dimensions of program PWSCF are:
     Max number of different atomic species (ntypx) = 10
     Max number of k-points (npk) =  40000
     Max angular momentum in pseudopotentials (lmaxx) =  3
     Reading input from pwscf.in
Warning: card &CELL ignored
Warning: card / ignored

     Subspace diagonalization in iterative solution of the eigenvalue problem:
     a serial algorithm will be used

     bravais-lattice index     =            0
     lattice parameter (alat)  =      11.2250  a.u.
     unit-cell volume          =    7005.5484 (a.u.)^3
     number of atoms/cell      =           33
     number of atomic types    =            3
     number of electrons       =       221.00
     number of Kohn-Sham states=          319
     kinetic-energy cutoff     =      40.0000  Ry
     charge density cutoff     =     500.0000  Ry
     convergence threshold     =      1.0E-06
     mixing beta               =       0.7000
     number of iterations used =            8  plain     mixing
     Exchange-correlation      = SLA  PW   PBE  PBE ( 1 4 3 4 0)
     EXX-fraction              =        0.00
     nstep                     =           50

     celldm(1)=  11.224973  celldm(2)=   0.000000  celldm(3)=   0.000000
     celldm(4)=   0.000000  celldm(5)=   0.000000  celldm(6)=   0.000000

     crystal axes: (cart. coord. in units of alat)
               a(1) = (   1.000000   0.000000   0.000000 )
               a(2) = (   0.000000   1.107086   0.000000 )
               a(3) = (   0.000000   0.000000   4.474090 )

     reciprocal axes: (cart. coord. in units 2 pi/alat)
               b(1) = (  1.000000  0.000000  0.000000 )
               b(2) = (  0.000000  0.903272  0.000000 )
               b(3) = (  0.000000  0.000000  0.223509 )

     PseudoPot. # 1 for O  read from file:
     /home/camp/zhonxu/pseudo/o_pbe_v1.01.uspp.F.UPF
     MD5 check sum: 2bcb18d16ea4b960afae9ec6d52f22d2
     Pseudo is Ultrasoft + core correction, Zval =  6.0
     Generated by new atomic code, or converted to UPF format
     Using radial grid of  737 points,  5 beta functions with:
                l(1) =   0
                l(2) =   0
                l(3) =   1
                l(4) =   1
                l(5) =   2
     Q(r) pseudized with  8 coefficients,  rinner =    0.900   0.900   0.900
                                                       0.900   0.900

     PseudoPot. # 2 for Ti read from file:
     /home/camp/zhonxu/pseudo/ti_pbe_v1.uspp.F.UPF
     MD5 check sum: bcc8f6961b3b91f0cac3ca967d22d0fb
     Pseudo is Ultrasoft + core correction, Zval = 12.0
     Generated by new atomic code, or converted to UPF format
     Using radial grid of  851 points,  6 beta functions with:
                l(1) =   0
                l(2) =   0
                l(3) =   1
                l(4) =   1
                l(5) =   2
                l(6) =   2
     Q(r) pseudized with  6 coefficients,  rinner =    1.000   1.000   1.000
                                                       1.000   1.000

     PseudoPot. # 3 for H  read from file:
     /home/camp/zhonxu/pseudo/h_pbe_v1.uspp.F.UPF
     MD5 check sum: 3408e3ff4ec8b0a4e358431e7e038a48
     Pseudo is Ultrasoft, Zval =  1.0
     Generated by new atomic code, or converted to UPF format
     Using radial grid of  615 points,  2 beta functions with:
                l(1) =   0
                l(2) =   0
     Q(r) pseudized with  8 coefficients,  rinner =    0.700

     atomic species   valence    mass     pseudopotential
        O0             6.00    15.99940     O ( 1.00)
        Ti1           12.00    47.88000     Ti( 1.00)
        H2             1.00     1.00794     H ( 1.00)

     Simplified LDA+U calculation (l_max = 2) with parameters (eV):
     atomic species    L          U    alpha       J0     beta
        Ti1            2     1.0000   0.0000   0.0000   0.0000

     No symmetry found

   Cartesian axes

     site n.     atom                  positions (alat units)
         1           O0  tau(   1) = (   0.0000000   0.0000000   1.6912954  )
         2           O0  tau(   2) = (   0.0000000   0.5535432   1.7865040  )
         3           Ti1 tau(   3) = (   0.2500000   0.5535432   2.0182619  )
         4           Ti1 tau(   4) = (   0.0000000   0.0000000   2.0215280  )
         5           O0  tau(   5) = (   0.2500000   0.8967400   2.0132062  )
         6           O0  tau(   6) = (   0.2500000   0.2103464   2.0173223  )
         7           O0  tau(   7) = (   0.0000000   0.5535432   2.2297074  )
         8           O0  tau(   8) = (   0.0000000   0.0000000   2.3520737  )
         9           Ti1 tau(   9) = (   0.2500000   0.0000000   2.5974328  )
        10           Ti1 tau(  10) = (   0.0000000   0.5535432   2.5411040  )
        11           O0  tau(  11) = (   0.2500000   0.7638896   2.5876345  )
        12           O0  tau(  12) = (   0.2500000   0.3431968   2.5923323  )
        13           O0  tau(  13) = (   0.0000000   0.0000000   2.7826601  )
        14           O0  tau(  14) = (   0.5000000   0.0000000   1.6946510  )
        15           O0  tau(  15) = (   0.5000000   0.5535432   1.7849381  )
        16           Ti1 tau(  16) = (   0.7500000   0.5535432   2.0183066  )
        17           Ti1 tau(  17) = (   0.5000000   0.0000000   2.0277470  )
        18           O0  tau(  18) = (   0.7500000   0.8967400   2.0129377  )
        19           O0  tau(  19) = (   0.7500000   0.2103464   2.0175013  )
        20           O0  tau(  20) = (   0.5000000   0.5535432   2.2179405  )
        21           O0  tau(  21) = (   0.5000000   0.0000000   2.3528791  )
        22           Ti1 tau(  22) = (   0.7500000   0.0000000   2.5974328  )
        23           Ti1 tau(  23) = (   0.5000000   0.5535432   2.6181478  )
        24           O0  tau(  24) = (   0.7500000   0.7638896   2.5875898  )
        25           O0  tau(  25) = (   0.7500000   0.3431968   2.5922429  )
        26           O0  tau(  26) = (   0.5000000   0.0000000   2.7811837  )
        27           H2  tau(  27) = (  -0.0004600   0.6930693   1.6949194  )
        28           H2  tau(  28) = (   0.4997200   0.6918293   1.6916086  )
        29           H2  tau(  29) = (   0.1490000   0.0365781   1.6268238  )
        30           H2  tau(  30) = (   0.6482800   0.0381834   1.6297319  )
        31           O0  tau(  31) = (   0.5003100   0.5833902   2.9430115  )
        32           O0  tau(  32) = (   0.4991200   0.3876242   3.0783974  )
        33           H2  tau(  33) = (   0.5003600   0.4575034   3.2295322  )

     number of k points=    10  Methfessel-Paxton smearing, width (Ry)=  0.0100
                       cart. coord. in units 2pi/alat
        k(    1) = (   0.0000000   0.0000000   0.0000000), wk =   0.1250000
        k(    2) = (   0.0000000   0.2258180   0.0000000), wk =   0.2500000
        k(    3) = (   0.0000000  -0.4516359   0.0000000), wk =   0.1250000
        k(    4) = (   0.2500000   0.0000000   0.0000000), wk =   0.2500000
        k(    5) = (   0.2500000   0.2258180   0.0000000), wk =   0.2500000
        k(    6) = (   0.2500000  -0.4516359   0.0000000), wk =   0.2500000
        k(    7) = (  -0.5000000   0.0000000   0.0000000), wk =   0.1250000
        k(    8) = (  -0.5000000   0.2258180   0.0000000), wk =   0.2500000
        k(    9) = (  -0.5000000  -0.4516359   0.0000000), wk =   0.1250000
        k(   10) = (  -0.2500000   0.2258180   0.0000000), wk =   0.2500000

     Largest allocated arrays     est. size (Mb)     dimensions
     Largest temporary arrays     est. size (Mb)     dimensions

     Check: negative/imaginary core charge=   -0.000006    0.000000

     Initial potential from superposition of free atoms
     Check: negative starting charge=   -0.102033

     starting charge  212.99957, renormalised to  221.00000

     negative rho (up, down):  0.106E+00 0.000E+00
     Number of +U iterations with fixed ns =  0
     Starting occupations:
 --- enter write_ns ---
 LDA+U parameters:
U( 2)     =  1.00000000
alpha( 2) =  0.00000000
atom    3   Tr[ns(na)] =   2.00000
    eigenvalues:
  0.200  0.200  0.200  0.200  0.200
    eigenvectors:
  1.000  0.000  0.000  0.000  0.000
  0.000  1.000  0.000  0.000  0.000
  0.000  0.000  1.000  0.000  0.000
  0.000  0.000  0.000  1.000  0.000
  0.000  0.000  0.000  0.000  1.000
    occupations:
  0.200  0.000  0.000  0.000  0.000
  0.000  0.200  0.000  0.000  0.000
  0.000  0.000  0.200  0.000  0.000
  0.000  0.000  0.000  0.200  0.000
  0.000  0.000  0.000  0.000  0.200
atom    4   Tr[ns(na)] =   2.00000
    eigenvalues:
  0.200  0.200  0.200  0.200  0.200
    eigenvectors:
  1.000  0.000  0.000  0.000  0.000
  0.000  1.000  0.000  0.000  0.000
  0.000  0.000  1.000  0.000  0.000
  0.000  0.000  0.000  1.000  0.000
  0.000  0.000  0.000  0.000  1.000
    occupations:
  0.200  0.000  0.000  0.000  0.000
  0.000  0.200  0.000  0.000  0.000
  0.000  0.000  0.200  0.000  0.000
  0.000  0.000  0.000  0.200  0.000
  0.000  0.000  0.000  0.000  0.200
atom    9   Tr[ns(na)] =   2.00000
    eigenvalues:
  0.200  0.200  0.200  0.200  0.200
    eigenvectors:
  1.000  0.000  0.000  0.000  0.000
  0.000  1.000  0.000  0.000  0.000
  0.000  0.000  1.000  0.000  0.000
  0.000  0.000  0.000  1.000  0.000
  0.000  0.000  0.000  0.000  1.000
    occupations:
  0.200  0.000  0.000  0.000  0.000
  0.000  0.200  0.000  0.000  0.000
  0.000  0.000  0.200  0.000  0.000
  0.000  0.000  0.000  0.200  0.000
  0.000  0.000  0.000  0.000  0.200
atom   10   Tr[ns(na)] =   2.00000
    eigenvalues:
  0.200  0.200  0.200  0.200  0.200
    eigenvectors:
  1.000  0.000  0.000  0.000  0.000
  0.000  1.000  0.000  0.000  0.000
  0.000  0.000  1.000  0.000  0.000
  0.000  0.000  0.000  1.000  0.000
  0.000  0.000  0.000  0.000  1.000
    occupations:
  0.200  0.000  0.000  0.000  0.000
  0.000  0.200  0.000  0.000  0.000
  0.000  0.000  0.200  0.000  0.000
  0.000  0.000  0.000  0.200  0.000
  0.000  0.000  0.000  0.000  0.200
atom   16   Tr[ns(na)] =   2.00000
    eigenvalues:
  0.200  0.200  0.200  0.200  0.200
    eigenvectors:
  1.000  0.000  0.000  0.000  0.000
  0.000  1.000  0.000  0.000  0.000
  0.000  0.000  1.000  0.000  0.000
  0.000  0.000  0.000  1.000  0.000
  0.000  0.000  0.000  0.000  1.000
    occupations:
  0.200  0.000  0.000  0.000  0.000
  0.000  0.200  0.000  0.000  0.000
  0.000  0.000  0.200  0.000  0.000
  0.000  0.000  0.000  0.200  0.000
  0.000  0.000  0.000  0.000  0.200
atom   17   Tr[ns(na)] =   2.00000
    eigenvalues:
  0.200  0.200  0.200  0.200  0.200
    eigenvectors:
  1.000  0.000  0.000  0.000  0.000
  0.000  1.000  0.000  0.000  0.000
  0.000  0.000  1.000  0.000  0.000
  0.000  0.000  0.000  1.000  0.000
  0.000  0.000  0.000  0.000  1.000
    occupations:
  0.200  0.000  0.000  0.000  0.000
  0.000  0.200  0.000  0.000  0.000
  0.000  0.000  0.200  0.000  0.000
  0.000  0.000  0.000  0.200  0.000
  0.000  0.000  0.000  0.000  0.200
atom   22   Tr[ns(na)] =   2.00000
    eigenvalues:
  0.200  0.200  0.200  0.200  0.200
    eigenvectors:
  1.000  0.000  0.000  0.000  0.000
  0.000  1.000  0.000  0.000  0.000
  0.000  0.000  1.000  0.000  0.000
[...]
  0.000  0.000 -0.000 -0.000  0.225
atom   10   Tr[ns(na)] =   2.86468
    eigenvalues:
  0.188  0.232  0.244  0.340  0.429
    eigenvectors:
  0.015  0.000  0.000  0.985  0.000
  0.000  0.000  1.000  0.000  0.000
  0.000  1.000  0.000  0.000  0.000
  0.984  0.000  0.000  0.015  0.000
  0.000  0.000  0.000  0.000  1.000
    occupations:
  0.338 -0.000 -0.001 -0.019 -0.000
 -0.000  0.244 -0.000 -0.000  0.002
 -0.001 -0.000  0.232 -0.001  0.000
 -0.019 -0.000 -0.001  0.190  0.000
 -0.000  0.002  0.000  0.000  0.429
atom   16   Tr[ns(na)] =   2.82856
    eigenvalues:
  0.187  0.198  0.221  0.390  0.419
    eigenvectors:
  0.691  0.082  0.037  0.173  0.017
  0.002  0.001  0.001  0.141  0.854
  0.119  0.248  0.633  0.000  0.000
  0.167  0.015  0.006  0.685  0.127
  0.020  0.654  0.323  0.000  0.002
    occupations:
  0.228 -0.004 -0.005  0.080 -0.002
 -0.004  0.414 -0.002  0.013  0.011
 -0.005 -0.002  0.211  0.007  0.011
  0.080  0.013  0.007  0.356  0.001
 -0.002  0.011  0.011  0.001  0.205
atom   17   Tr[ns(na)] =   2.92912
    eigenvalues:
  0.178  0.215  0.233  0.411  0.427
    eigenvectors:
  0.006  0.003  0.000  0.000  0.991
  0.001  0.921  0.075  0.000  0.003
  0.000  0.075  0.924  0.000  0.000
  0.993  0.001  0.000  0.000  0.005
  0.000  0.000  0.000  1.000  0.000
    occupations:
  0.425  0.011  0.004 -0.018 -0.000
  0.011  0.217 -0.005  0.000 -0.002
  0.004 -0.005  0.232  0.001 -0.000
 -0.018  0.000  0.001  0.179 -0.000
 -0.000 -0.002 -0.000 -0.000  0.411
atom   22   Tr[ns(na)] =   2.91983
    eigenvalues:
  0.186  0.225  0.243  0.375  0.431
    eigenvectors:
  0.000  0.000  0.919  0.081  0.000
  0.000  0.000  0.000  0.000  1.000
  1.000  0.000  0.000  0.000  0.000
  0.000  0.000  0.081  0.919  0.000
  0.000  1.000  0.000  0.000  0.000
    occupations:
  0.254 -0.001  0.001  0.036 -0.000
 -0.001  0.431  0.000  0.001  0.000
  0.001  0.000  0.186  0.001  0.000
  0.036  0.001  0.001  0.364  0.000
 -0.000  0.000  0.000  0.000  0.225
atom   23   Tr[ns(na)] =   2.84606
    eigenvalues:
  0.185  0.190  0.251  0.364  0.433
    eigenvectors:
  0.004  0.003  0.000  0.993  0.000
  0.000  0.000  1.000  0.000  0.000
  0.728  0.271  0.000  0.001  0.000
  0.268  0.726  0.000  0.007  0.000
  0.000  0.000  0.000  0.000  1.000
    occupations:
  0.363 -0.000  0.005 -0.014 -0.000
 -0.000  0.251 -0.000 -0.000 -0.000
  0.005 -0.000  0.186  0.002  0.000
 -0.014 -0.000  0.002  0.190 -0.000
 -0.000 -0.000  0.000 -0.000  0.433
N of occupied +U levels =  23.0674337
 --- exit write_ns ---

     Threshold (ethr) on eigenvalues was too large:
     Diagonalizing with lowered threshold

     Davidson diagonalization with overlap
     ethr =  2.60E-08,  avg # of iterations =  1.7

[...]

     total energy              =   -1599.75117700 Ry
     Harris-Foulkes estimate   =   -1599.75117700 Ry
     estimated scf accuracy    <       0.00000002 Ry

     iteration # 10     ecut=    40.00 Ry     beta=0.70
     Davidson diagonalization with overlap
     ethr =  8.73E-12,  avg # of iterations =  1.0

     negative rho (up, down):  0.103E+00 0.000E+00

     End of self-consistent calculation
 --- enter write_ns ---
 LDA+U parameters:
U( 2)     =  1.00000000
alpha( 2) =  0.00000000
atom    3   Tr[ns(na)] =   2.82824
    eigenvalues:
  0.187  0.197  0.221  0.390  0.419
    eigenvectors:
  0.681  0.091  0.038  0.173  0.017
  0.002  0.001  0.001  0.141  0.854
  0.127  0.243  0.629  0.000  0.000
  0.165  0.018  0.006  0.685  0.127
  0.025  0.646  0.326  0.000  0.002
    occupations:
  0.228  0.004 -0.005  0.080  0.001
  0.004  0.414  0.002 -0.013  0.011
 -0.005  0.002  0.211  0.007 -0.011
  0.080 -0.013  0.007  0.356 -0.001
  0.001  0.011 -0.011 -0.001  0.205
atom    4   Tr[ns(na)] =   2.93102
    eigenvalues:
  0.179  0.213  0.233  0.415  0.426
    eigenvectors:
  0.006  0.003  0.000  0.000  0.991
  0.001  0.912  0.084  0.000  0.003
  0.000  0.083  0.916  0.000  0.000
  0.993  0.002  0.000  0.000  0.006
  0.000  0.000  0.000  1.000  0.000
    occupations:
  0.424  0.012  0.004 -0.019 -0.000
  0.012  0.215 -0.005  0.000 -0.002
  0.004 -0.005  0.231  0.001 -0.000
 -0.019  0.000  0.001  0.180 -0.000
 -0.000 -0.002 -0.000 -0.000  0.415
atom    9   Tr[ns(na)] =   2.92023
    eigenvalues:
  0.186  0.225  0.243  0.375  0.431
    eigenvectors:
  0.000  0.001  0.919  0.081  0.000
  0.000  0.000  0.000  0.000  1.000
  1.000  0.000  0.000  0.000  0.000
  0.000  0.000  0.081  0.919  0.000
  0.000  0.999  0.001  0.000  0.000
    occupations:
  0.254  0.000  0.001  0.036  0.000
  0.000  0.431 -0.000 -0.001  0.000
  0.001 -0.000  0.186  0.001 -0.000
  0.036 -0.001  0.001  0.364 -0.000
  0.000  0.000 -0.000 -0.000  0.225
atom   10   Tr[ns(na)] =   2.86473
    eigenvalues:
  0.188  0.232  0.244  0.340  0.429
    eigenvectors:
  0.015  0.000  0.000  0.985  0.000
  0.000  0.000  1.000  0.000  0.000
  0.000  1.000  0.000  0.000  0.000
  0.984  0.000  0.000  0.015  0.000
  0.000  0.000  0.000  0.000  1.000
    occupations:
  0.338 -0.000 -0.001 -0.019 -0.000
 -0.000  0.244 -0.000 -0.000  0.002
 -0.001 -0.000  0.232 -0.001  0.000
 -0.019 -0.000 -0.001  0.190  0.000
 -0.000  0.002  0.000  0.000  0.429
atom   16   Tr[ns(na)] =   2.82847
    eigenvalues:
  0.187  0.197  0.221  0.390  0.419
    eigenvectors:
  0.691  0.082  0.038  0.173  0.017
  0.002  0.001  0.001  0.141  0.855
  0.119  0.248  0.632  0.000  0.000
  0.167  0.015  0.006  0.685  0.127
  0.020  0.654  0.323  0.000  0.002
    occupations:
  0.228 -0.004 -0.005  0.080 -0.002
 -0.004  0.414 -0.002  0.013  0.011
 -0.005 -0.002  0.211  0.007  0.011
  0.080  0.013  0.007  0.356  0.001
 -0.002  0.011  0.011  0.001  0.205
atom   17   Tr[ns(na)] =   2.92868
    eigenvalues:
  0.178  0.215  0.233  0.411  0.427
    eigenvectors:
  0.006  0.003  0.000  0.000  0.991
  0.001  0.921  0.075  0.000  0.003
  0.000  0.075  0.924  0.000  0.000
  0.993  0.001  0.000  0.000  0.006
  0.000  0.000  0.000  1.000  0.000
    occupations:
  0.425  0.011  0.004 -0.018 -0.000
  0.011  0.217 -0.005  0.000 -0.002
  0.004 -0.005  0.232  0.001 -0.000
 -0.018  0.000  0.001  0.179 -0.000
 -0.000 -0.002 -0.000 -0.000  0.411
atom   22   Tr[ns(na)] =   2.92030
    eigenvalues:
  0.186  0.225  0.243  0.375  0.431
    eigenvectors:
  0.000  0.000  0.919  0.081  0.000
  0.000  0.000  0.000  0.000  1.000
  1.000  0.000  0.000  0.000  0.000
  0.000  0.000  0.081  0.919  0.000
  0.000  1.000  0.000  0.000  0.000
    occupations:
  0.254 -0.001  0.001  0.036 -0.000
 -0.001  0.431  0.000  0.001  0.000
  0.001  0.000  0.186  0.001  0.000
  0.036  0.001  0.001  0.364  0.000
 -0.000  0.000  0.000  0.000  0.225
atom   23   Tr[ns(na)] =   2.84551
    eigenvalues:
  0.185  0.190  0.251  0.364  0.433
    eigenvectors:
  0.004  0.003  0.000  0.993  0.000
  0.000  0.000  1.000  0.000  0.000
  0.730  0.270  0.000  0.001  0.000
  0.266  0.727  0.000  0.007  0.000
  0.000  0.000  0.000  0.000  1.000
    occupations:
  0.363 -0.000  0.005 -0.014 -0.000
 -0.000  0.251 -0.000 -0.000 -0.000
  0.005 -0.000  0.186  0.002  0.000
 -0.014 -0.000  0.002  0.190 -0.000
 -0.000 -0.000  0.000 -0.000  0.433
N of occupied +U levels =  23.0671682
 --- exit write_ns ---

[...]

          k = 0.2500-0.4516 0.0000 ( 29882 PWs)   bands (ev):

[...]

          k =-0.2500 0.2258 0.0000 ( 29912 PWs)   bands (ev):

   -59.8573 -59.8304 -59.6421 -59.4346 -58.7337 -58.7024 -58.4095 -58.3809
   -36.3469 -36.1138 -36.0747 -36.0037 -35.9961 -35.9898 -35.9671 -35.9536
   -35.8212 -35.6951 -35.6587 -35.6223 -35.2948 -35.0569 -34.9799 -34.9753
   -34.8544 -34.8475 -34.8128 -34.7277 -34.7047 -34.6517 -34.5783 -34.5035
   -24.7511 -21.0925 -20.8684 -20.1868 -19.6392 -19.5657 -19.1769 -19.1200
   -19.0514 -19.0090 -18.9595 -18.8705 -18.8059 -18.6893 -18.6232 -18.2725
   -17.9369 -17.7297 -17.6624 -17.6143  -9.5647  -8.8614  -8.5793  -7.9140
    -7.3165  -7.2762  -7.1071  -7.0954  -7.0050  -6.6744  -6.6498  -6.4583
    -6.4171  -6.3829  -6.3251  -6.2412  -6.1958  -6.1273  -6.0987  -5.8561
    -5.7825  -5.7009  -5.5978  -5.5230  -5.4026  -5.1455  -4.9995  -4.9178
    -4.8493  -4.8070  -4.6707  -4.6362  -4.5768  -4.5135  -4.4385  -4.3348
    -4.2609  -4.2399  -4.1925  -4.1021  -4.0720  -3.9117  -3.8720  -3.7790
    -3.7134  -3.5857  -3.4012  -3.2793  -3.1384  -2.9763  -2.9632  -2.8524
    -2.7797  -2.7227  -2.6892  -2.4639  -2.3367  -2.2347  -2.1936  -0.2537
    -0.1729  -0.0583   0.1090   0.2566   0.3404   0.4213   0.4830   0.6658
     0.7038   0.7782   0.8487   1.0210   1.1617   1.3127   1.3652   1.3921
     1.5909   1.6826   1.7703   1.8690   1.9944   2.0471   2.1034   2.2775
     2.3506   2.5681   2.7733   2.8375   2.9019   3.0048   3.1169   3.6107
     3.7212   3.7481   3.7837   4.0349   4.0749   4.2386   4.3104   4.3601
     4.5594   4.6319   4.8930   4.9559   5.1715   5.2075   5.5160   5.6234
     5.6767   5.9183   6.0289   6.1968   6.4009   6.5568   6.6681   7.0102
     7.0859   7.2535   7.4951   7.5505   7.6920   7.8953   7.9688   8.1053
     8.1878   8.3364   8.4800   8.5606   8.6625   8.8090   8.9047   9.0088
     9.1077   9.2092   9.2535   9.3667   9.4752   9.6521   9.7098   9.7788
     9.8544   9.9967  10.1799  10.2554  10.3251  10.3871  10.4785  10.5198
    10.6671  10.7790  10.9136  10.9651  11.0041  11.1286  11.2061  11.2995
    11.3666  11.4543  11.5131  11.5949  11.6273  11.7305  11.8015  11.9177
    12.0065  12.1319  12.1672  12.2572  12.2948  12.3335  12.4256  12.5044
    12.5404  12.6307  12.7111  12.8099  12.8409  12.9649  13.0092  13.0548
    13.1470  13.2667  13.3047  13.3562  13.4726  13.5703  13.6596  13.7826
    13.8487  13.9473  14.0095  14.0857  14.1374  14.2204  14.2909  14.3115
    14.3648  14.4502  14.5214  14.6143  14.6690  14.7483  14.8253  14.9043
    14.9372  15.0679  15.1223  15.1997  15.2732  15.3411  15.3976  15.4391
    15.5107  15.5770  15.6475  15.7003  15.7125  15.8406  15.8942  15.9591
    16.0099  16.1468  16.1740  16.2114  16.2649  16.3623  16.4302  16.5011
    16.5333  16.5726  16.6596  16.7202  16.7690  16.8025  16.8833  16.9775
    17.0728  17.1330  17.2134  17.2507  17.3086  17.3544  17.4322  17.4726
    17.5744  17.6337  17.7002  17.8358  17.8964  17.9852  18.0527  18.1095
    18.1829  18.2292  18.3293  18.3719  18.4279  18.5111  18.5636  18.6136
    18.6605  18.7525  18.8168  18.8784  18.9569  19.0790  19.1214

     the Fermi energy is    -2.1773 ev

!    total energy              =   -1599.75117700 Ry
     Harris-Foulkes estimate   =   -1599.75117700 Ry
     estimated scf accuracy    <          3.7E-09 Ry

     The total energy is the sum of the following terms:

     one-electron contribution =  -19182.22896324 Ry
     hartree contribution      =    9615.41021849 Ry
     xc contribution           =    -284.64098812 Ry
     ewald contribution        =    8251.13519974 Ry
     Hubbard energy            =       0.57487130 Ry
     smearing contrib. (-TS)   =      -0.00151515 Ry

     convergence has been achieved in  10 iterations

     Forces acting on atoms (Ry/au):

     negative rho (up, down):  0.103E+00 0.000E+00
     atom    1 type  1   force =    -0.00011398   -0.01216840    0.00007971
     atom    2 type  1   force =     0.00010422    0.01807094    0.00032074
     atom    3 type  2   force =     0.05790984   -0.01152114   -0.00031619
     atom    4 type  2   force =    -0.00382433    0.00673138    0.00012975
     atom    5 type  1   force =    -0.00140197   -0.08147860   -0.00025804
     atom    6 type  1   force =    -0.00569479    0.08246115   -0.00029779
     atom    7 type  1   force =     0.00009327   -0.00047908   -0.00039474
     atom    8 type  1   force =     0.00229253   -0.00038216   -0.00004106
     atom    9 type  2   force =     0.00028253   -0.00042092   -0.00038060
     atom   10 type  2   force =    -0.00005578    0.00108187    0.00045284
     atom   11 type  1   force =    -0.01940676   -0.01813498    0.00013806
     atom   12 type  1   force =    -0.01554683    0.02223407    0.00029429
     atom   13 type  1   force =     0.00035944   -0.00190935    0.00024217
     atom   14 type  1   force =    -0.00150132   -0.01176921    0.00030421
     atom   15 type  1   force =     0.00011391    0.01611869    0.00025909
     atom   16 type  2   force =    -0.05769405   -0.01209773   -0.00032328
     atom   17 type  2   force =    -0.00413623    0.00591507    0.00035960
     atom   18 type  1   force =     0.00769309   -0.08133119   -0.00028662
     atom   19 type  1   force =     0.00443299    0.08291971   -0.00024425
     atom   20 type  1   force =    -0.00010162   -0.00013038   -0.00030792
     atom   21 type  1   force =     0.00233531    0.00008379   -0.00007930
     atom   22 type  2   force =    -0.00134674   -0.00032634   -0.00038132
     atom   23 type  2   force =     0.00000855   -0.00278943    0.00010592
     atom   24 type  1   force =     0.01961794   -0.01811032    0.00013363
     atom   25 type  1   force =     0.01544634    0.02203989    0.00027093
     atom   26 type  1   force =     0.00038378   -0.00466041    0.00022592
     atom   27 type  3   force =     0.00000788   -0.00019790    0.00031803
     atom   28 type  3   force =    -0.00002006   -0.00001319    0.00052589
     atom   29 type  3   force =    -0.00003136   -0.00033640    0.00018099
     atom   30 type  3   force =    -0.00018463   -0.00044484    0.00002665
     atom   31 type  1   force =     0.00012101    0.00041799   -0.00022086
     atom   32 type  1   force =    -0.00016863    0.00035062   -0.00084857
     atom   33 type  3   force =     0.00002647    0.00027678    0.00001214

     Total force =     0.001993     Total SCF correction =     0.000247
     SCF correction compared to forces is large: reduce conv_thr to get better values

     entering subroutine stress ...

     negative rho (up, down):  0.103E+00 0.000E+00
          total   stress  (Ry/bohr**3)                   (kbar)     P=   -2.28
   0.00001687  -0.00000227   0.00000309          2.48     -0.33      0.45
  -0.00000227  -0.00002784   0.00000007         -0.33     -4.10      0.01
   0.00000309   0.00000007  -0.00003557          0.45      0.01     -5.23

     bfgs converged in   7 scf cycles and   6 bfgs steps
     (criteria: energy < 0.10E-03, force < 0.10E-02)

     End of BFGS Geometry Optimization

     Final energy   =   -1599.7511769988 Ry
Begin final coordinates

ATOMIC_POSITIONS (crystal)
O0       0.000000000   0.000000000   0.377778937    0   0   1
O0       0.000000000   0.500000000   0.399059314    0   0   1
Ti1      0.250000000   0.500000000   0.450996407    0   0   1
Ti1      0.000000000   0.000000000   0.451565821    0   0   1
O0       0.250000000   0.810000000   0.449916617    0   0   1
O0       0.250000000   0.190000000   0.450845186    0   0   1
O0       0.000000000   0.500000000   0.498273853    0   0   1
O0       0.000000000   0.000000000   0.525812875    0   0   1
Ti1      0.250000000   0.000000000   0.580604288    0   0   1
Ti1      0.000000000   0.500000000   0.568125790    0   0   1
O0       0.250000000   0.690000000   0.578382764    0   0   1
O0       0.250000000   0.310000000   0.579568546    0   0   1
O0       0.000000000   0.000000000   0.622232177    0   0   1
O0       0.500000000   0.000000000   0.378423171    0   0   1
O0       0.500000000   0.500000000   0.398814136    0   0   1
Ti1      0.750000000   0.500000000   0.451005363    0   0   1
Ti1      0.500000000   0.000000000   0.453052154    0   0   1
O0       0.750000000   0.810000000   0.449850848    0   0   1
O0       0.750000000   0.190000000   0.450909759    0   0   1
O0       0.500000000   0.500000000   0.496006201    0   0   1
O0       0.500000000   0.000000000   0.526004280    0   0   1
Ti1      0.750000000   0.000000000   0.580610375    0   0   1
Ti1      0.500000000   0.500000000   0.584797521    0   0   1
O0       0.750000000   0.690000000   0.578376542    0   0   1
O0       0.750000000   0.310000000   0.579544644    0   0   1
O0       0.500000000   0.000000000   0.621889453    0   0   1
H2      -0.000457386   0.626679292   0.378811335
H2       0.499655641   0.625526322   0.378168348
H2       0.149856944   0.032852752   0.363773841
H2       0.649213576   0.034185711   0.364317215
O0       0.500454455   0.528066959   0.658038658
O0       0.498941963   0.350657485   0.688020234
H2       0.500380207   0.412901893   0.721893346
End final coordinates

     General routines

     Parallel routines
     Hubbard U routines

   This run was terminated on:  20: 9:12  31May2014

   JOB DONE.
Running PBS batch system epilogue script
Job id: 373326.audhumbla.fysik.dtu.dk
Username: zhonxu
Groupname: campgst
Jobname: TiO2/Eads-2-layers/OOH-U-1.0
Sessionid: 6567
Queuename: verylong
Accounting:
This job has allocated the following 16 nodes:
c060 c060 c060 c060 c060 c060 c060 c060 c031 c031 c031 c031 c031 c031 c031 c031
Finished epilogue job 373326.audhumbla.fysik.dtu.dk for zhonxu