     Program PWSCF v.5.0.2 (svn rev. 9656) starts on  4May2014 at 18:58:36

     Current dimensions of program PWSCF are:
     Max number of different atomic species (ntypx) = 10
     Max number of k-points (npk) =  40000
     Max angular momentum in pseudopotentials (lmaxx) =  3
     Reading input from pwscf.in
Warning: card &CELL ignored
Warning: card / ignored

     Subspace diagonalization in iterative solution of the eigenvalue problem:
     a serial algorithm will be used

     bravais-lattice index     =            0
     lattice parameter (alat)  =      10.7336  a.u.
     unit-cell volume          =    6184.1966 (a.u.)^3
     number of atoms/cell      =           32
     number of atomic types    =            3
     number of electrons       =       239.00 (up: 131.00, down: 108.00)
     number of Kohn-Sham states=          346
     kinetic-energy cutoff     =      40.0000  Ry
     charge density cutoff     =     500.0000  Ry
     convergence threshold     =      1.0E-06
     mixing beta               =       0.7000
     number of iterations used =            8  plain     mixing
     Exchange-correlation      = SLA  PW   PBE  PBE ( 1 4 3 4 0)
     EXX-fraction              =        0.00
     nstep                     =           50

     celldm(1)=  10.733644  celldm(2)=   0.000000  celldm(3)=   0.000000
     celldm(4)=   0.000000  celldm(5)=   0.000000  celldm(6)=   0.000000

     crystal axes: (cart. coord. in units of alat)
               a(1) = (   1.000000   0.000000   0.000000 )
               a(2) = (   0.000000   1.085558   0.000000 )
               a(3) = (   0.000000   0.000000   4.606685 )

     reciprocal axes: (cart. coord. in units 2 pi/alat)
               b(1) = (  1.000000  0.000000  0.000000 )
               b(2) = (  0.000000  0.921185  0.000000 )
               b(3) = (  0.000000  0.000000  0.217076 )

     PseudoPot. # 1 for O  read from file:
     /home/camp/zhonxu/pseudo/o_pbe_v1.01.uspp.F.UPF
     MD5 check sum: 2bcb18d16ea4b960afae9ec6d52f22d2
     Pseudo is Ultrasoft + core correction, Zval =  6.0
     Generated by new atomic code, or converted to UPF format
     Using radial grid of  737 points,  5 beta functions with:
                l(1) =   0
                l(2) =   0
                l(3) =   1
                l(4) =   1
                l(5) =   2
     Q(r) pseudized with  8 coefficients,  rinner =    0.900   0.900   0.900
                                                       0.900   0.900

     PseudoPot. # 2 for Mn read from file:
     /home/camp/zhonxu/pseudo/mn_pbe_v1.uspp.F.UPF
     MD5 check sum: 5fd7c7b5c956fd19902447332617373a
     Pseudo is Ultrasoft + core correction, Zval = 15.0
     Generated by new atomic code, or converted to UPF format
     Using radial grid of  859 points,  6 beta functions with:
                l(1) =   0
                l(2) =   0
                l(3) =   1
                l(4) =   1
                l(5) =   2
                l(6) =   2
     Q(r) pseudized with  6 coefficients,  rinner =    1.150   1.150   1.150
                                                       1.150   1.150

     PseudoPot. # 3 for H  read from file:
     /home/camp/zhonxu/pseudo/h_pbe_v1.uspp.F.UPF
     MD5 check sum: 3408e3ff4ec8b0a4e358431e7e038a48
     Pseudo is Ultrasoft, Zval =  1.0
     Generated by new atomic code, or converted to UPF format
     Using radial grid of  615 points,  2 beta functions with:
                l(1) =   0
                l(2) =   0
     Q(r) pseudized with  8 coefficients,  rinner =    0.700

     atomic species   valence    mass     pseudopotential
        O0             6.00    15.99940     O ( 1.00)
        Mn1           15.00    54.93800     Mn( 1.00)
        H2             1.00     1.00794     H ( 1.00)

     Starting magnetic structure
     atomic species   magnetization
        O0           0.000
        Mn1          0.600
        H2           0.000

     Simplified LDA+U calculation (l_max = 2) with parameters (eV):
     atomic species    L          U    alpha       J0     beta
        Mn1            2     2.5000   0.0000   0.0000   0.0000

     No symmetry found

   Cartesian axes

     site n.     atom                  positions (alat units)
         1           O0  tau(   1) = (   0.0000000   0.0000000   1.7414191  )
         2           O0  tau(   2) = (   0.0000000   0.5427791   1.8381134  )
         3           Mn1 tau(   3) = (   0.2500000   0.5427791   2.0740217  )
         4           Mn1 tau(   4) = (   0.0000000   0.0000000   2.0686319  )
         5           O0  tau(   5) = (   0.2500000   0.8684466   2.0678488  )
         6           O0  tau(   6) = (   0.2500000   0.2171117   2.0737453  )
         7           O0  tau(   7) = (   0.0000000   0.5427791   2.2873573  )
         8           O0  tau(   8) = (   0.0000000   0.0000000   2.4132120  )
         9           Mn1 tau(   9) = (   0.2500000   0.0000000   2.6399991  )
        10           Mn1 tau(  10) = (   0.0000000   0.5427791   2.6085815  )
        11           O0  tau(  11) = (   0.2500000   0.7598908   2.6551551  )
        12           O0  tau(  12) = (   0.2500000   0.3256675   2.6556157  )
        13           O0  tau(  13) = (   0.0000000   0.0000000   2.8417258  )
        14           O0  tau(  14) = (   0.5000000   0.0000000   1.7428932  )
        15           O0  tau(  15) = (   0.5000000   0.5427791   1.8386662  )
        16           Mn1 tau(  16) = (   0.7500000   0.5427791   2.0740678  )
        17           Mn1 tau(  17) = (   0.5000000   0.0000000   2.0707510  )
        18           O0  tau(  18) = (   0.7500000   0.8684466   2.0677106  )
        19           O0  tau(  19) = (   0.7500000   0.2171117   2.0738835  )
        20           O0  tau(  20) = (   0.5000000   0.5427791   2.2871270  )
        21           O0  tau(  21) = (   0.5000000   0.0000000   2.4132120  )
        22           Mn1 tau(  22) = (   0.7500000   0.0000000   2.6413811  )
        23           Mn1 tau(  23) = (   0.5000000   0.5427791   2.6662572  )
        24           O0  tau(  24) = (   0.7500000   0.7598908   2.6473698  )
        25           O0  tau(  25) = (   0.7500000   0.3256675   2.6477844  )
        26           O0  tau(  26) = (   0.5000000   0.0000000   2.8412191  )
        27           H2  tau(  27) = (   0.0000400   0.7014118   1.7620570  )
        28           H2  tau(  28) = (   0.5000900   0.7016832   1.7629323  )
        29           H2  tau(  29) = (   0.1613600   0.0398291   1.6869220  )
        30           H2  tau(  30) = (   0.6610200   0.0399703   1.6876591  )
        31           O0  tau(  31) = (   0.5153900   0.5432351   2.9826904  )
        32           H2  tau(  32) = (   0.3575300   0.5430397   3.0540479  )

     number of k points=    20  Methfessel-Paxton smearing, width (Ry)=  0.0100
                       cart. coord. in units 2pi/alat
        k(    1) = (   0.0000000   0.0000000   0.0000000), wk =   0.0625000
        k(    2) = (   0.0000000   0.2302962   0.0000000), wk =   0.1250000
        k(    3) = (   0.0000000  -0.4605925   0.0000000), wk =   0.0625000
        k(    4) = (   0.2500000   0.0000000   0.0000000), wk =   0.1250000
        k(    5) = (   0.2500000   0.2302962   0.0000000), wk =   0.1250000
        k(    6) = (   0.2500000  -0.4605925   0.0000000), wk =   0.1250000
        k(    7) = (  -0.5000000   0.0000000   0.0000000), wk =   0.0625000
        k(    8) = (  -0.5000000   0.2302962   0.0000000), wk =   0.1250000
        k(    9) = (  -0.5000000  -0.4605925   0.0000000), wk =   0.0625000
        k(   10) = (  -0.2500000   0.2302962   0.0000000), wk =   0.1250000
        k(   11) = (   0.0000000   0.0000000   0.0000000), wk =   0.0625000
        k(   12) = (   0.0000000   0.2302962   0.0000000), wk =   0.1250000
        k(   13) = (   0.0000000  -0.4605925   0.0000000), wk =   0.0625000
        k(   14) = (   0.2500000   0.0000000   0.0000000), wk =   0.1250000
        k(   15) = (   0.2500000   0.2302962   0.0000000), wk =   0.1250000
        k(   16) = (   0.2500000  -0.4605925   0.0000000), wk =   0.1250000
        k(   17) = (  -0.5000000   0.0000000   0.0000000), wk =   0.0625000
        k(   18) = (  -0.5000000   0.2302962   0.0000000), wk =   0.1250000
        k(   19) = (  -0.5000000  -0.4605925   0.0000000), wk =   0.0625000
        k(   20) = (  -0.2500000   0.2302962   0.0000000), wk =   0.1250000

     Largest allocated arrays     est. size (Mb)     dimensions
     Largest temporary arrays     est. size (Mb)     dimensions

     Check: negative/imaginary core charge=   -0.000022    0.000000

     Initial potential from superposition of free atoms
     Check: negative starting charge=(component1):   -0.000716
     Check: negative starting charge=(component2):   -0.000389

     starting charge  230.99986, renormalised to  239.00000

     negative rho (up, down):  0.741E-03 0.403E-03
     Number of +U iterations with fixed ns =  0
     Starting occupations:
 --- enter write_ns ---
 LDA+U parameters:
U( 2)     =  2.50000000
alpha( 2) =  0.00000000
atom    3   Tr[ns(na)] (up, down, total) =   5.00000  0.00000  5.00000
   spin  1
    eigenvalues:
  1.000  1.000  1.000  1.000  1.000
    eigenvectors:
  1.000  0.000  0.000  0.000  0.000
  0.000  1.000  0.000  0.000  0.000
  0.000  0.000  1.000  0.000  0.000
  0.000  0.000  0.000  1.000  0.000
  0.000  0.000  0.000  0.000  1.000
    occupations:
  1.000  0.000  0.000  0.000  0.000
  0.000  1.000  0.000  0.000  0.000
  0.000  0.000  1.000  0.000  0.000
  0.000  0.000  0.000  1.000  0.000
  0.000  0.000  0.000  0.000  1.000
   spin  2
    eigenvalues:
  0.000  0.000  0.000  0.000  0.000
    eigenvectors:
  1.000  0.000  0.000  0.000  0.000
  0.000  1.000  0.000  0.000  0.000
  0.000  0.000  1.000  0.000  0.000
  0.000  0.000  0.000  1.000  0.000
  0.000  0.000  0.000  0.000  1.000
    occupations:
  0.000  0.000  0.000  0.000  0.000
  0.000  0.000  0.000  0.000  0.000
  0.000  0.000  0.000  0.000  0.000
  0.000  0.000  0.000  0.000  0.000
  0.000  0.000  0.000  0.000  0.000
atomic mag. moment =     5.000000
atom    4   Tr[ns(na)] (up, down, total) =   5.00000  0.00000  5.00000
   spin  1
    eigenvalues:
  1.000  1.000  1.000  1.000  1.000
    eigenvectors:
  1.000  0.000  0.000  0.000  0.000
  0.000  1.000  0.000  0.000  0.000
  0.000  0.000  1.000  0.000  0.000
  0.000  0.000  0.000  1.000  0.000
  0.000  0.000  0.000  0.000  1.000
    occupations:
  1.000  0.000  0.000  0.000  0.000
  0.000  1.000  0.000  0.000  0.000
  0.000  0.000  1.000  0.000  0.000
  0.000  0.000  0.000  1.000  0.000
  0.000  0.000  0.000  0.000  1.000
   spin  2
    eigenvalues:
  0.000  0.000  0.000  0.000  0.000
    eigenvectors:
  1.000  0.000  0.000  0.000  0.000
  0.000  1.000  0.000  0.000  0.000
  0.000  0.000  1.000  0.000  0.000
  0.000  0.000  0.000  1.000  0.000
  0.000  0.000  0.000  0.000  1.000
    occupations:
  0.000  0.000  0.000  0.000  0.000
  0.000  0.000  0.000  0.000  0.000
  0.000  0.000  0.000  0.000  0.000
  0.000  0.000  0.000  0.000  0.000
  0.000  0.000  0.000  0.000  0.000
atomic mag. moment =     5.000000
atom    9   Tr[ns(na)] (up, down, total) =   5.00000  0.00000  5.00000
   spin  1
    eigenvalues:
  1.000  1.000  1.000  1.000  1.000
[...]
   spin  1
    eigenvalues:
  0.581  0.635  0.993  1.002  1.004
    eigenvectors:
  0.000  0.998  0.000  0.000  0.001
  0.000  0.001  0.000  0.018  0.981
  0.000  0.000  0.000  0.982  0.018
  0.000  0.000  0.999  0.000  0.000
  1.000  0.000  0.000  0.000  0.000
    occupations:
  0.636 -0.012 -0.005  0.006 -0.001
 -0.012  1.003  0.000  0.000  0.000
 -0.005  0.000  1.002  0.000  0.000
  0.006  0.000  0.000  0.993  0.000
 -0.001  0.000  0.000  0.000  0.581
   spin  2
    eigenvalues:
  0.112  0.156  0.187  0.397  0.398
    eigenvectors:
  0.002  0.004  0.000  0.806  0.188
  0.001  0.921  0.074  0.003  0.001
  0.000  0.073  0.926  0.000  0.000
  0.997  0.001  0.000  0.002  0.000
  0.000  0.000  0.000  0.189  0.811
    occupations:
  0.395  0.015  0.006 -0.013 -0.000
  0.015  0.159 -0.008  0.000 -0.003
  0.006 -0.008  0.185  0.001 -0.000
 -0.013  0.000  0.001  0.112 -0.000
 -0.000 -0.003 -0.000 -0.000  0.397
atomic mag. moment =     2.966570
atom    9   Tr[ns(na)] (up, down, total) =   4.17686  1.33602  5.51289
   spin  1
    eigenvalues:
  0.627  0.640  0.941  0.974  0.995
    eigenvectors:
  0.212  0.000  0.000  0.000  0.788
  0.000  1.000  0.000  0.000  0.000
  0.000  0.000  0.056  0.944  0.000
  0.788  0.000  0.000  0.000  0.212
  0.000  0.000  0.944  0.056  0.000
    occupations:
  0.917  0.001 -0.000 -0.151  0.000
  0.001  0.640  0.000 -0.000 -0.000
 -0.000  0.000  0.972 -0.000  0.008
 -0.151 -0.000 -0.000  0.705  0.000
  0.000 -0.000  0.008  0.000  0.943
   spin  2
    eigenvalues:
  0.151  0.175  0.178  0.401  0.431
    eigenvectors:
  0.822  0.000  0.000  0.178  0.000
  0.000  0.000  0.000  0.001  0.999
  0.000  0.665  0.335  0.000  0.000
  0.178  0.000  0.000  0.821  0.001
  0.000  0.335  0.665  0.000  0.000
    occupations:
  0.196 -0.001  0.000  0.095 -0.000
 -0.001  0.431 -0.000  0.002 -0.000
  0.000 -0.000  0.176  0.000  0.001
  0.095  0.002  0.000  0.356 -0.000
 -0.000 -0.000  0.001 -0.000  0.177
atomic mag. moment =     2.840841
atom   10   Tr[ns(na)] (up, down, total) =   4.40498  0.99583  5.40081
   spin  1
    eigenvalues:
  0.603  0.806  0.996  0.996  1.003
    eigenvectors:
  0.000  0.992  0.008  0.000  0.000
  0.000  0.001  0.145  0.854  0.000
  0.000  0.000  0.000  0.000  1.000
  0.000  0.008  0.847  0.146  0.000
  1.000  0.000  0.000  0.000  0.000
    occupations:
  0.808 -0.005  0.001  0.017 -0.000
 -0.005  0.996  0.000  0.001 -0.000
  0.001  0.000  1.003 -0.000  0.004
  0.017  0.001 -0.000  0.994 -0.000
 -0.000 -0.000  0.004 -0.000  0.603
   spin  2
    eigenvalues:
  0.101  0.143  0.144  0.236  0.372
    eigenvectors:
  0.014  0.000  0.000  0.986  0.000
  0.000  0.979  0.021  0.000  0.000
  0.000  0.021  0.979  0.000  0.000
  0.986  0.000  0.000  0.014  0.000
  0.000  0.000  0.000  0.000  1.000
    occupations:
  0.234  0.001 -0.000 -0.016  0.000
  0.001  0.143 -0.000 -0.000  0.000
 -0.000 -0.000  0.144 -0.000 -0.003
 -0.016 -0.000 -0.000  0.103 -0.000
  0.000  0.000 -0.003 -0.000  0.372
atomic mag. moment =     3.409155
atom   16   Tr[ns(na)] (up, down, total) =   4.22291  1.24701  5.46992
   spin  1
    eigenvalues:
  0.613  0.615  0.995  0.996  1.005
    eigenvectors:
  0.111  0.135  0.741  0.003  0.010
  0.548  0.451  0.000  0.001  0.000
  0.000  0.000  0.010  0.001  0.988
  0.340  0.414  0.244  0.001  0.001
  0.000  0.000  0.005  0.993  0.001
    occupations:
  0.901 -0.001 -0.004 -0.164  0.000
 -0.001  0.614  0.001 -0.001 -0.010
 -0.004  0.001  1.004 -0.005 -0.000
 -0.164 -0.001 -0.005  0.708  0.000
  0.000 -0.010 -0.000  0.000  0.996
   spin  2
    eigenvalues:
  0.118  0.157  0.188  0.387  0.397
    eigenvectors:
  0.780  0.000  0.002  0.104  0.114
  0.000  0.002  0.000  0.537  0.461
  0.002  0.025  0.973  0.000  0.000
  0.218  0.000  0.000  0.358  0.424
  0.000  0.973  0.025  0.001  0.001
    occupations:
  0.178  0.000 -0.001  0.113 -0.001
  0.000  0.391 -0.000  0.006  0.011
 -0.001 -0.000  0.187  0.004  0.005
  0.113  0.006  0.004  0.333  0.000
 -0.001  0.011  0.005  0.000  0.158
atomic mag. moment =     2.975903
atom   17   Tr[ns(na)] (up, down, total) =   4.21353  1.24875  5.46228
   spin  1
    eigenvalues:
  0.582  0.635  0.993  1.001  1.003
    eigenvectors:
  0.000  0.999  0.000  0.000  0.001
  0.000  0.001  0.000  0.018  0.981
  0.000  0.000  0.000  0.981  0.018
  0.000  0.000  0.999  0.000  0.000
  1.000  0.000  0.000  0.000  0.000
    occupations:
  0.635 -0.012 -0.005  0.005 -0.001
 -0.012  1.003  0.000  0.000  0.000
 -0.005  0.000  1.001  0.000  0.000
  0.005  0.000  0.000  0.993  0.000
 -0.001  0.000  0.000  0.000  0.582
   spin  2
    eigenvalues:
  0.112  0.156  0.186  0.396  0.398
    eigenvectors:
  0.002  0.004  0.000  0.012  0.982
  0.001  0.923  0.072  0.000  0.004
  0.000  0.071  0.928  0.000  0.001
  0.997  0.001  0.000  0.000  0.002
  0.000  0.000  0.000  0.988  0.012
    occupations:
  0.397  0.015  0.006 -0.012 -0.000
  0.015  0.159 -0.008  0.000 -0.003
  0.006 -0.008  0.184  0.001  0.000
 -0.012  0.000  0.001  0.113 -0.000
 -0.000 -0.003  0.000 -0.000  0.396
atomic mag. moment =     2.964780
atom   22   Tr[ns(na)] (up, down, total) =   4.16962  1.34589  5.51551
   spin  1
    eigenvalues:
  0.626  0.638  0.937  0.973  0.995
    eigenvectors:
  0.212  0.001  0.000  0.000  0.787
  0.004  0.996  0.000  0.000  0.000
  0.000  0.000  0.089  0.911  0.000
  0.784  0.003  0.000  0.000  0.213
  0.000  0.000  0.911  0.089  0.000
    occupations:
  0.917 -0.000 -0.000 -0.151 -0.000
 -0.000  0.638  0.000  0.001 -0.000
 -0.000  0.000  0.969 -0.000 -0.010
 -0.151  0.001 -0.000  0.705  0.000
 -0.000 -0.000 -0.010  0.000  0.940
   spin  2
    eigenvalues:
  0.152  0.178  0.181  0.404  0.431
    eigenvectors:
  0.821  0.000  0.000  0.179  0.000
  0.000  0.000  0.000  0.001  0.999
  0.000  0.209  0.791  0.000  0.000
  0.179  0.000  0.000  0.820  0.001
  0.000  0.791  0.209  0.000  0.000
    occupations:
  0.197  0.001  0.000  0.097 -0.000
  0.001  0.431 -0.000 -0.001 -0.000
  0.000 -0.000  0.180  0.000 -0.001
  0.097 -0.001  0.000  0.359  0.000
 -0.000 -0.000 -0.001  0.000  0.178
atomic mag. moment =     2.823731
atom   23   Tr[ns(na)] (up, down, total) =   4.22548  1.22832  5.45380
   spin  1
    eigenvalues:
  0.595  0.647  0.991  0.994  0.999
    eigenvectors:
  0.000  1.000  0.000  0.000  0.000
  0.000  0.000  0.972  0.028  0.000
  0.000  0.000  0.000  0.000  1.000
  0.000  0.000  0.028  0.972  0.000
  1.000  0.000  0.000  0.000  0.000
    occupations:
  0.647  0.002  0.001  0.003 -0.000
  0.002  0.991 -0.000 -0.001 -0.000
  0.001 -0.000  0.999 -0.000 -0.003
  0.003 -0.001 -0.000  0.994 -0.000
 -0.000 -0.000 -0.003 -0.000  0.595
   spin  2
    eigenvalues:
  0.113  0.147  0.185  0.382  0.402
    eigenvectors:
  0.002  0.001  0.000  0.997  0.000
  0.001  0.999  0.000  0.001  0.000
  0.000  0.000  1.000  0.000  0.000
  0.997  0.001  0.000  0.002  0.000
  0.000  0.000  0.000  0.000  1.000
    occupations:
  0.381  0.006 -0.001 -0.013 -0.000
  0.006  0.147 -0.000 -0.001  0.000
 -0.001 -0.000  0.185  0.000  0.003
 -0.013 -0.001  0.000  0.113  0.000
 -0.000  0.000  0.003  0.000  0.402
atomic mag. moment =     2.997160
N of occupied +U levels =  43.7498363
 --- exit write_ns ---

 ------ SPIN UP ------------

[...]

 ------ SPIN DOWN ----------

[...]

          k = 0.2500-0.4606 0.0000 ( 26462 PWs)   bands (ev):

[...]

          k =-0.2500 0.2303 0.0000 ( 26396 PWs)   bands (ev):

   -80.7097 -80.7014 -80.5154 -80.5046 -80.4943 -80.4715 -80.4448 -79.9920
   -49.6163 -49.5193 -49.4928 -49.4829 -49.4300 -49.4288 -49.4139 -49.4129
   -49.4102 -49.3897 -49.3771 -49.3253 -49.3122 -49.2915 -49.2723 -49.2623
   -49.1503 -49.1251 -49.1056 -49.0772 -49.0489 -49.0300 -48.8601 -48.5103
   -21.8074 -21.3776 -21.0872 -20.8205 -20.5196 -20.3938 -20.2630 -20.2074
   -20.0905 -20.0237 -19.9408 -19.8779 -19.8304 -19.7193 -19.6062 -19.5108
   -19.4772 -19.3837 -19.1900  -9.2719  -9.0265  -8.5215  -8.4382  -8.3922
    -8.0745  -7.9876  -7.8875  -7.6846  -7.6482  -7.5561  -7.4318  -7.3243
    -7.2188  -7.1694  -7.0879  -6.9772  -6.9072  -6.8576  -6.6953  -6.5936
    -6.4689  -6.4338  -6.3374  -6.2165  -6.1070  -5.8438  -5.7803  -5.7185
    -5.6225  -5.5202  -5.4703  -5.4315  -5.3030  -5.2342  -5.1681  -4.9707
    -4.9180  -4.7468  -4.6651  -4.5640  -4.4912  -4.4042  -4.3030  -4.2295
    -4.1083  -4.0566  -3.9034  -3.8319  -3.6910  -3.5763  -3.4924  -3.3913
    -3.1592  -3.0854  -2.9947  -2.6787  -0.4347  -0.3525  -0.3269  -0.3013
    -0.1977  -0.1552  -0.1360  -0.0622  -0.0016   0.0628   0.1084   0.1974
     0.2401   0.3313   0.3488   0.3683   0.4946   0.5404   0.6065   0.6325
     0.8263   0.9009   0.9255   1.0124   1.0900   1.1455   1.2024   1.3476
     1.4639   1.5321   1.7237   1.8498   2.0245   2.1003   2.2354   2.3649
     2.3808   2.6241   2.7533   2.8586   3.7466   4.0598   4.3562   4.8283
     5.3411   5.6639   5.7929   6.0263   6.2781   6.4575   6.5577   6.6907
     6.8015   6.9609   7.0663   7.3808   7.5026   7.7599   7.9238   7.9974
     8.2795   8.3888   8.4825   8.6392   8.7349   8.9183   9.0612   9.1761
     9.2646   9.3365   9.4684   9.5700   9.7230   9.8436   9.9590  10.0897
    10.1667  10.2227  10.3721  10.4641  10.6086  10.7118  10.7894  10.9904
    11.0554  11.1355  11.1950  11.2930  11.4146  11.4856  11.5511  11.6913
    11.7406  11.8365  11.8984  12.0265  12.0486  12.1638  12.2143  12.3798
    12.4300  12.4855  12.6484  12.7289  12.8594  12.9098  12.9572  13.0133
    13.0837  13.1278  13.1733  13.2651  13.3819  13.4155  13.5035  13.5865
    13.6699  13.7576  13.8069  13.8505  13.9190  14.0005  14.0724  14.0955
    14.1975  14.3294  14.3518  14.4714  14.5147  14.5813  14.6279  14.7522
    14.7984  14.8578  14.8819  14.9669  15.0838  15.1259  15.2352  15.2859
    15.3968  15.4391  15.5617  15.6735  15.7214  15.8329  15.8600  16.0539
    16.0932  16.1954  16.2626  16.3216  16.4049  16.4971  16.5093  16.5505
    16.6455  16.7319  16.8628  16.9113  16.9731  17.0691  17.1380  17.1977
    17.2796  17.3409  17.3906  17.4673  17.5320  17.6343  17.6896  17.7626
    17.8506  17.9113  17.9875  18.0580  18.0937  18.2154  18.2921  18.3208
    18.3918  18.4772  18.5453  18.5898  18.6496  18.7725  18.8394  18.9386
    19.0401  19.0833  19.1518  19.1997  19.2381  19.3341  19.4121  19.4892
    19.5271  19.6438  19.7710  19.8354  19.8913  19.9668  20.0540  20.0816
    20.1218  20.2595  20.3156  20.3517  20.3720  20.4873  20.6079  20.6474
    20.7442  20.8769  20.9835  21.0210  21.0585  21.1156  21.1925  21.2346
    21.3848  21.4129  21.4953  21.5857  21.6566  21.7187  21.7542  21.8352
    21.8816  21.9923  22.0725  22.1359  22.2154  22.3400  22.4152  22.4854
    22.5598  22.6360

     the spin up/dw Fermi energies are    -2.1379   -2.4462 ev

!    total energy              =   -2321.22876591 Ry
     Harris-Foulkes estimate   =   -2321.22876592 Ry
     estimated scf accuracy    <          7.2E-09 Ry

     The total energy is the sum of the following terms:

     one-electron contribution =  -26631.47266662 Ry
     hartree contribution      =   13333.94796343 Ry
     xc contribution           =    -349.16779334 Ry
     ewald contribution        =   11324.47378235 Ry
     Hubbard energy            =       0.98992110 Ry
     smearing contrib. (-TS)   =       0.00002716 Ry

     total magnetization       =    23.00 Bohr mag/cell
     absolute magnetization    =    27.63 Bohr mag/cell

     convergence has been achieved in  13 iterations

     Forces acting on atoms (Ry/au):

     negative rho (up, down):  0.214E-02 0.136E-02
     atom    1 type  1   force =    -0.00579432   -0.01604104   -0.00062761
     atom    2 type  1   force =     0.00024061    0.01117784   -0.00032750
     atom    3 type  2   force =     0.02994342   -0.00255511    0.00019224
     atom    4 type  2   force =     0.00632804    0.01241992   -0.00026032
     atom    5 type  1   force =     0.00156645    0.01178123    0.00010542
     atom    6 type  1   force =    -0.00365571   -0.01578850    0.00019843
     atom    7 type  1   force =     0.00289728    0.00114794    0.00074276
     atom    8 type  1   force =     0.00114108   -0.00188403    0.00021493
     atom    9 type  2   force =     0.00318920    0.00021276   -0.00024774
     atom   10 type  2   force =    -0.00355539   -0.00105786   -0.00002426
     atom   11 type  1   force =    -0.01824195   -0.04782637    0.00001059
     atom   12 type  1   force =    -0.01850746    0.04803896    0.00003182
     atom   13 type  1   force =    -0.00168561   -0.00028004   -0.00043293
     atom   14 type  1   force =    -0.00604517   -0.01607753   -0.00061449
     atom   15 type  1   force =     0.00050135    0.01182080   -0.00000598
     atom   16 type  2   force =    -0.03129371   -0.00249710    0.00017495
     atom   17 type  2   force =     0.00662773    0.01241823   -0.00023138
     atom   18 type  1   force =     0.00366614    0.01157854    0.00008868
     atom   19 type  1   force =    -0.00128418   -0.01573604    0.00020235
     atom   20 type  1   force =    -0.00255334    0.00077857    0.00008184
     atom   21 type  1   force =    -0.00334419   -0.00183936    0.00035955
     atom   22 type  2   force =    -0.00090089    0.00040703   -0.00025792
     atom   23 type  2   force =     0.00505043   -0.00044144    0.00078371
     atom   24 type  1   force =     0.01671176   -0.04295047   -0.00013106
     atom   25 type  1   force =     0.01712528    0.04310463   -0.00009357
     atom   26 type  1   force =     0.00143688   -0.00031806   -0.00019043
     atom   27 type  3   force =    -0.00001345    0.00005116   -0.00047485
     atom   28 type  3   force =    -0.00000313   -0.00013456   -0.00042217
     atom   29 type  3   force =     0.00027939    0.00022731    0.00003084
     atom   30 type  3   force =     0.00028370    0.00020106    0.00003834
     atom   31 type  1   force =    -0.00029566    0.00005826    0.00011367
     atom   32 type  3   force =     0.00018540    0.00000326    0.00097209

     Total force =     0.002158     Total SCF correction =     0.000549
     SCF correction compared to forces is large: reduce conv_thr to get better values

     bfgs converged in  13 scf cycles and  12 bfgs steps
     (criteria: energy < 0.10E-03, force < 0.10E-02)

     End of BFGS Geometry Optimization

     Final energy   =   -2321.2287659118 Ry
Begin final coordinates

ATOMIC_POSITIONS (crystal)
O0       0.000000000   0.000000000   0.376788431    0   0   1
O0       0.000000000   0.500000000   0.397787600    0   0   1
Mn1      0.250000000   0.500000000   0.449445705    0   0   1
Mn1      0.000000000   0.000000000   0.448213065    0   0   1
O0       0.250000000   0.800000000   0.448116154    0   0   1
O0       0.250000000   0.200000000   0.449916874    0   0   1
O0       0.000000000   0.500000000   0.495541843    0   0   1
O0       0.000000000   0.000000000   0.524462336    0   0   1
Mn1      0.250000000   0.000000000   0.573238174    0   0   1
Mn1      0.000000000   0.500000000   0.567424275    0   0   1
O0       0.250000000   0.700000000   0.578347569    0   0   1
O0       0.250000000   0.300000000   0.578536138    0   0   1
O0       0.000000000   0.000000000   0.618851544    0   0   1
O0       0.500000000   0.000000000   0.377119661    0   0   1
O0       0.500000000   0.500000000   0.397929229    0   0   1
Mn1      0.750000000   0.500000000   0.449479620    0   0   1
Mn1      0.500000000   0.000000000   0.448629725    0   0   1
O0       0.750000000   0.800000000   0.448086727    0   0   1
O0       0.750000000   0.200000000   0.449884396    0   0   1
O0       0.500000000   0.500000000   0.496840861    0   0   1
O0       0.500000000   0.000000000   0.524492155    0   0   1
Mn1      0.750000000   0.000000000   0.573461764    0   0   1
Mn1      0.500000000   0.500000000   0.578274657    0   0   1
O0       0.750000000   0.700000000   0.575911868    0   0   1
O0       0.750000000   0.300000000   0.576133753    0   0   1
O0       0.500000000   0.000000000   0.619101846    0   0   1
H2       0.000198153   0.647134441   0.381757720
H2       0.500257456   0.647413347   0.381973687
H2       0.161758834   0.037743574   0.365456209
H2       0.661638704   0.037738688   0.365704340
O0       0.518193380   0.500475332   0.648281321
H2       0.358127522   0.500246885   0.662690752
End final coordinates

     General routines

     Parallel routines
     Hubbard U routines

   This run was terminated on:  13:22:54   5May2014

   JOB DONE.
Running PBS batch system epilogue script
Job id: 340693.audhumbla.fysik.dtu.dk
Username: zhonxu
Groupname: campgst
Jobname: MnO2/Eads-2-layers/OH-U-2.5
Sessionid: 31443
Queuename: verylong
Accounting:
This job has allocated the following 16 nodes:
b052 b052 b052 b052 b052 b052 b052 b052 b012 b012 b012 b012 b012 b012 b012 b012
Finished epilogue job 340693.audhumbla.fysik.dtu.dk for zhonxu