     Program PWSCF v.5.0.2 (svn rev. 9656) starts on 24Jan2014 at 15:30:38

     Current dimensions of program PWSCF are:
     Max number of different atomic species (ntypx) = 10
     Max number of k-points (npk) =  40000
     Max angular momentum in pseudopotentials (lmaxx) =  3
     Reading input from MnO2-v-0.90.in

     Subspace diagonalization in iterative solution of the eigenvalue problem:
     a serial algorithm will be used

     bravais-lattice index     =            0
     lattice parameter (alat)  =       8.1289  a.u.
     unit-cell volume          =     346.1653 (a.u.)^3
     number of atoms/cell      =            6
     number of atomic types    =            2
     number of electrons       =        54.00
     number of Kohn-Sham states=           78
     kinetic-energy cutoff     =      40.0000  Ry
     charge density cutoff     =     500.0000  Ry
     convergence threshold     =      1.0E-06
     mixing beta               =       0.3000
     number of iterations used =            8  plain     mixing
     Exchange-correlation      = SLA  PW   PBE  PBE ( 1 4 3 4 0)
     EXX-fraction              =        0.00
     nstep                     =           50

     celldm(1)=   8.128917  celldm(2)=   0.000000  celldm(3)=   0.000000
     celldm(4)=   0.000000  celldm(5)=   0.000000  celldm(6)=   0.000000

     crystal axes: (cart. coord. in units of alat)
               a(1) = (   1.000000   0.000000   0.000000 )
               a(2) = (   0.000000   1.000000   0.000000 )
               a(3) = (   0.000000   0.000000   0.644444 )

     reciprocal axes: (cart. coord. in units 2 pi/alat)
               b(1) = (  1.000000  0.000000  0.000000 )
               b(2) = (  0.000000  1.000000  0.000000 )
               b(3) = (  0.000000  0.000000  1.551724 )

     PseudoPot. # 1 for Mn read from file:
     /home/camp/zhonxu/pseudo/mn_pbe_v1.uspp.F.UPF
     MD5 check sum: 5fd7c7b5c956fd19902447332617373a
     Pseudo is Ultrasoft + core correction, Zval = 15.0
     Generated by new atomic code, or converted to UPF format
     Using radial grid of  859 points,  6 beta functions with:
                l(1) =   0
                l(2) =   0
                l(3) =   1
                l(4) =   1
                l(5) =   2
                l(6) =   2
     Q(r) pseudized with  6 coefficients,  rinner =    1.150   1.150   1.150
                                                       1.150   1.150

     PseudoPot. # 2 for O  read from file:
     /home/camp/zhonxu/pseudo/o_pbe_v1.01.uspp.F.UPF
     MD5 check sum: 2bcb18d16ea4b960afae9ec6d52f22d2
     Pseudo is Ultrasoft + core correction, Zval =  6.0
     Generated by new atomic code, or converted to UPF format
     Using radial grid of  737 points,  5 beta functions with:
                l(1) =   0
                l(2) =   0
                l(3) =   1
                l(4) =   1
                l(5) =   2
     Q(r) pseudized with  8 coefficients,  rinner =    0.900   0.900   0.900
                                                       0.900   0.900

     atomic species   valence    mass     pseudopotential
        Mn0           15.00    54.93800     Mn( 1.00)
        O1             6.00    15.99940     O ( 1.00)

     Starting magnetic structure
     atomic species   magnetization
        Mn0          0.600
        O1           0.000

     16 Sym. Ops., with inversion, found ( 8 have fractional translation)

   Cartesian axes

     site n.     atom                  positions (alat units)
         1           Mn0 tau(   1) = (   0.0000000   0.0000000   0.0000000  )
         2           Mn0 tau(   2) = (   0.5000000   0.5000000   0.3222222  )
         3           O1  tau(   3) = (   0.3050000   0.3050000   0.0000000  )
         4           O1  tau(   4) = (  -0.3050000  -0.3050000   0.0000000  )
         5           O1  tau(   5) = (   0.8050000   0.1950000   0.3222222  )
         6           O1  tau(   6) = (   0.1950000   0.8050000   0.3222222  )

     number of k points=    36  Methfessel-Paxton smearing, width (Ry)=  0.0100
                       cart. coord. in units 2pi/alat
        k(    1) = (   0.0000000   0.0000000   0.0000000), wk =   0.0080000
        k(    2) = (   0.0000000   0.0000000   0.3103448), wk =   0.0160000
        k(    3) = (   0.0000000   0.0000000   0.6206897), wk =   0.0160000
        k(    4) = (   0.0000000   0.2000000   0.0000000), wk =   0.0320000
        k(    5) = (   0.0000000   0.2000000   0.3103448), wk =   0.0640000
        k(    6) = (   0.0000000   0.2000000   0.6206897), wk =   0.0640000
        k(    7) = (   0.0000000   0.4000000   0.0000000), wk =   0.0320000
        k(    8) = (   0.0000000   0.4000000   0.3103448), wk =   0.0640000
        k(    9) = (   0.0000000   0.4000000   0.6206897), wk =   0.0640000
        k(   10) = (   0.2000000   0.2000000   0.0000000), wk =   0.0320000
        k(   11) = (   0.2000000   0.2000000   0.3103448), wk =   0.0640000
        k(   12) = (   0.2000000   0.2000000   0.6206897), wk =   0.0640000
        k(   13) = (   0.2000000   0.4000000   0.0000000), wk =   0.0640000
        k(   14) = (   0.2000000   0.4000000   0.3103448), wk =   0.1280000
        k(   15) = (   0.2000000   0.4000000   0.6206897), wk =   0.1280000
        k(   16) = (   0.4000000   0.4000000   0.0000000), wk =   0.0320000
        k(   17) = (   0.4000000   0.4000000   0.3103448), wk =   0.0640000
        k(   18) = (   0.4000000   0.4000000   0.6206897), wk =   0.0640000
        k(   19) = (   0.0000000   0.0000000   0.0000000), wk =   0.0080000
        k(   20) = (   0.0000000   0.0000000   0.3103448), wk =   0.0160000
        k(   21) = (   0.0000000   0.0000000   0.6206897), wk =   0.0160000
        k(   22) = (   0.0000000   0.2000000   0.0000000), wk =   0.0320000
        k(   23) = (   0.0000000   0.2000000   0.3103448), wk =   0.0640000
        k(   24) = (   0.0000000   0.2000000   0.6206897), wk =   0.0640000
        k(   25) = (   0.0000000   0.4000000   0.0000000), wk =   0.0320000
        k(   26) = (   0.0000000   0.4000000   0.3103448), wk =   0.0640000
        k(   27) = (   0.0000000   0.4000000   0.6206897), wk =   0.0640000
        k(   28) = (   0.2000000   0.2000000   0.0000000), wk =   0.0320000
        k(   29) = (   0.2000000   0.2000000   0.3103448), wk =   0.0640000
        k(   30) = (   0.2000000   0.2000000   0.6206897), wk =   0.0640000
        k(   31) = (   0.2000000   0.4000000   0.0000000), wk =   0.0640000
        k(   32) = (   0.2000000   0.4000000   0.3103448), wk =   0.1280000
        k(   33) = (   0.2000000   0.4000000   0.6206897), wk =   0.1280000
        k(   34) = (   0.4000000   0.4000000   0.0000000), wk =   0.0320000
        k(   35) = (   0.4000000   0.4000000   0.3103448), wk =   0.0640000
        k(   36) = (   0.4000000   0.4000000   0.6206897), wk =   0.0640000

     Largest allocated arrays     est. size (Mb)     dimensions
     Largest temporary arrays     est. size (Mb)     dimensions

     Check: negative/imaginary core charge=   -0.000063    0.000000

     Initial potential from superposition of free atoms

     starting charge   51.99998, renormalised to   54.00000
     Starting wfc are   42 randomized atomic wfcs

     Self-consistent Calculation

     iteration #  1     ecut=    40.00 Ry     beta=0.30
     Davidson diagonalization with overlap
     ethr =  1.00E-02,  avg # of iterations =  4.9

     total energy              =    -553.79422848 Ry
     Harris-Foulkes estimate   =    -554.25081748 Ry
     estimated scf accuracy    <       3.96005950 Ry

     total magnetization       =     6.00 Bohr mag/cell
     absolute magnetization    =     7.14 Bohr mag/cell

[...]

     End of self-consistent calculation

 ------ SPIN UP ------------

          k = 0.0000 0.0000 0.0000 (  1471 PWs)   bands (ev):

   -69.7531 -69.7491 -38.4841 -38.4721 -38.4268 -38.4268 -38.3644 -38.3644
    -8.4816  -6.4140  -5.8794  -5.8794   3.5521   4.1931   4.7782   5.8682
     5.8682   7.7238   7.7238   8.5080   9.4439   9.5622   9.7742   9.7742
     9.9415  10.4440  10.8550  10.8550  11.5200  12.3955  12.4110  15.4810
    15.4810  16.2852  20.6307  23.7872  23.7872  26.4879  27.5290  28.0329
    31.0140  31.8570  31.8570  32.2486  32.7354  36.9347  37.3614  37.5599
    37.5599  38.7431  38.7431  39.1637  39.8682  39.8682  40.0625  41.4942
    43.3708  44.1471  47.4182  47.4182  47.5169  47.5169  47.5940  49.0573
    50.8386  52.5194  52.5194  52.8975  54.4431  54.6704  54.6704  55.5639
    57.2033  57.6405  59.0612  59.0612  59.8889  59.8890

[...]

 ------ SPIN DOWN ----------

[...]

     the Fermi energy is    12.3863 ev

!    total energy              =    -554.92882089 Ry
     Harris-Foulkes estimate   =    -554.92881301 Ry
     estimated scf accuracy    <       0.00000033 Ry

     The total energy is the sum of the following terms:

     one-electron contribution =    -257.31539242 Ry
     hartree contribution      =     159.04046338 Ry
     xc contribution           =     -81.41134250 Ry
     ewald contribution        =    -375.24264022 Ry
     smearing contrib. (-TS)   =       0.00009087 Ry

[...]

     convergence has been achieved in  11 iterations

     Forces acting on atoms (Ry/au):

     atom    1 type  1   force =     0.00000000    0.00000000    0.00000000
     atom    2 type  1   force =     0.00000000    0.00000000   -0.00000000
     atom    3 type  2   force =    -0.01586444   -0.01586444    0.00000000
     atom    4 type  2   force =     0.01586444    0.01586444    0.00000000
     atom    5 type  2   force =    -0.01586444    0.01586444    0.00000000
     atom    6 type  2   force =     0.01586444   -0.01586444    0.00000000

     Total force =     0.044871     Total SCF correction =     0.000281

     entering subroutine stress ...

          total   stress  (Ry/bohr**3)                   (kbar)     P=  300.06
   0.00185958   0.00000000   0.00000000        273.55      0.00      0.00
   0.00000000   0.00185958   0.00000000          0.00    273.55      0.00
   0.00000000   0.00000000   0.00240012          0.00      0.00    353.07

     Volume is kept fixed: isostatic pressure set to zero

     BFGS Geometry Optimization

     number of scf cycles    =   1
     number of bfgs steps    =   0

     enthalpy new            =    -554.9288208948 Ry

     new trust radius        =       0.0335231607 bohr
     new conv_thr            =       0.0000010000 Ry

     new unit-cell volume =    346.16527 a.u.^3 (    51.29640 Ang^3 )

CELL_PARAMETERS (alat=  8.12891664)
   0.995515674   0.000000000   0.000000000
   0.000000000   0.995515674   0.000000000
   0.000000000   0.000000000   0.650263354

ATOMIC_POSITIONS (crystal)
Mn0      0.000000000   0.000000000   0.000000000    0   0   0
Mn0      0.500000000   0.500000000   0.500000000    0   0   0
O1       0.303048394   0.303048394   0.000000000    1   1   0
O1      -0.303048394  -0.303048394   0.000000000    1   1   0
O1       0.803048394   0.196951606   0.500000000    1   1   0
O1       0.196951606   0.803048394   0.500000000    1   1   0

     NEW-OLD atomic charge density approx. for the potential
     NEW k-points:
        k(    1) = (   0.0000000   0.0000000   0.0000000), wk =   0.0080000
[...]
        k(   18) = (   0.4018018   0.4018018   0.6151354), wk =   0.0640000
        k(   19) = (   0.0000000   0.0000000   0.0000000), wk =   0.0080000
        k(   20) = (   0.0000000   0.0000000   0.3075677), wk =   0.0160000
        k(   21) = (   0.0000000   0.0000000   0.6151354), wk =   0.0160000
        k(   22) = (   0.0000000   0.2009009   0.0000000), wk =   0.0320000
        k(   23) = (   0.0000000   0.2009009   0.3075677), wk =   0.0640000
        k(   24) = (   0.0000000   0.2009009   0.6151354), wk =   0.0640000
        k(   25) = (   0.0000000   0.4018018   0.0000000), wk =   0.0320000
        k(   26) = (   0.0000000   0.4018018   0.3075677), wk =   0.0640000
        k(   27) = (   0.0000000   0.4018018   0.6151354), wk =   0.0640000
        k(   28) = (   0.2009009   0.2009009   0.0000000), wk =   0.0320000
        k(   29) = (   0.2009009   0.2009009   0.3075677), wk =   0.0640000
        k(   30) = (   0.2009009   0.2009009   0.6151354), wk =   0.0640000
        k(   31) = (   0.2009009   0.4018018   0.0000000), wk =   0.0640000
        k(   32) = (   0.2009009   0.4018018   0.3075677), wk =   0.1280000
        k(   33) = (   0.2009009   0.4018018   0.6151354), wk =   0.1280000
        k(   34) = (   0.4018018   0.4018018   0.0000000), wk =   0.0320000
        k(   35) = (   0.4018018   0.4018018   0.3075677), wk =   0.0640000
        k(   36) = (   0.4018018   0.4018018   0.6151354), wk =   0.0640000

[...]

     enthalpy old            =    -554.9288208948 Ry
     enthalpy new            =    -554.9308051413 Ry

     CASE: enthalpy_new < enthalpy_old

[...]

     Threshold (ethr) on eigenvalues was too large:
     Diagonalizing with lowered threshold

     Davidson diagonalization with overlap
     ethr =  8.49E-09,  avg # of iterations =  2.0

[...]

     number of scf cycles    =   3
     number of bfgs steps    =   2

     enthalpy old            =    -554.9308051413 Ry
     enthalpy new            =    -554.9308209728 Ry

     CASE: enthalpy_new < enthalpy_old

     new trust radius        =       0.0013662798 bohr
     new conv_thr            =       0.0000000100 Ry

     new unit-cell volume =    346.16527 a.u.^3 (    51.29640 Ang^3 )

[...]

ATOMIC_POSITIONS (crystal)
Mn0      0.000000000   0.000000000   0.000000000    0   0   0
Mn0      0.500000000   0.500000000   0.500000000    0   0   0
O1       0.302981872   0.302981872   0.000000000    1   1   0
O1      -0.302981872  -0.302981872   0.000000000    1   1   0
O1       0.802981872   0.197018128   0.500000000    1   1   0
O1       0.197018128   0.802981872   0.500000000    1   1   0

     NEW-OLD atomic charge density approx. for the potential
     NEW k-points:
        k(    1) = (   0.0000000   0.0000000   0.0000000), wk =   0.0080000
        k(    2) = (   0.0000000   0.0000000   0.3071203), wk =   0.0160000
        k(    3) = (   0.0000000   0.0000000   0.6142407), wk =   0.0160000
        k(    4) = (   0.0000000   0.2010472   0.0000000), wk =   0.0320000
        k(    5) = (   0.0000000   0.2010472   0.3071203), wk =   0.0640000
        k(    6) = (   0.0000000   0.2010472   0.6142407), wk =   0.0640000
        k(    7) = (   0.0000000   0.4020943   0.0000000), wk =   0.0320000
        k(    8) = (   0.0000000   0.4020943   0.3071203), wk =   0.0640000
        k(    9) = (   0.0000000   0.4020943   0.6142407), wk =   0.0640000
        k(   10) = (   0.2010472   0.2010472   0.0000000), wk =   0.0320000
        k(   11) = (   0.2010472   0.2010472   0.3071203), wk =   0.0640000
        k(   12) = (   0.2010472   0.2010472   0.6142407), wk =   0.0640000
        k(   13) = (   0.2010472   0.4020943   0.0000000), wk =   0.0640000
        k(   14) = (   0.2010472   0.4020943   0.3071203), wk =   0.1280000
        k(   15) = (   0.2010472   0.4020943   0.6142407), wk =   0.1280000
        k(   16) = (   0.4020943   0.4020943   0.0000000), wk =   0.0320000
        k(   17) = (   0.4020943   0.4020943   0.3071203), wk =   0.0640000
        k(   18) = (   0.4020943   0.4020943   0.6142407), wk =   0.0640000
        k(   19) = (   0.0000000   0.0000000   0.0000000), wk =   0.0080000
        k(   20) = (   0.0000000   0.0000000   0.3071203), wk =   0.0160000
        k(   21) = (   0.0000000   0.0000000   0.6142407), wk =   0.0160000
        k(   22) = (   0.0000000   0.2010472   0.0000000), wk =   0.0320000
        k(   23) = (   0.0000000   0.2010472   0.3071203), wk =   0.0640000
        k(   24) = (   0.0000000   0.2010472   0.6142407), wk =   0.0640000
        k(   25) = (   0.0000000   0.4020943   0.0000000), wk =   0.0320000
        k(   26) = (   0.0000000   0.4020943   0.3071203), wk =   0.0640000
        k(   27) = (   0.0000000   0.4020943   0.6142407), wk =   0.0640000
        k(   28) = (   0.2010472   0.2010472   0.0000000), wk =   0.0320000
        k(   29) = (   0.2010472   0.2010472   0.3071203), wk =   0.0640000
        k(   30) = (   0.2010472   0.2010472   0.6142407), wk =   0.0640000
        k(   31) = (   0.2010472   0.4020943   0.0000000), wk =   0.0640000
        k(   32) = (   0.2010472   0.4020943   0.3071203), wk =   0.1280000
        k(   33) = (   0.2010472   0.4020943   0.6142407), wk =   0.1280000
        k(   34) = (   0.4020943   0.4020943   0.0000000), wk =   0.0320000
        k(   35) = (   0.4020943   0.4020943   0.3071203), wk =   0.0640000
        k(   36) = (   0.4020943   0.4020943   0.6142407), wk =   0.0640000

[...]

     Threshold (ethr) on eigenvalues was too large:
     Diagonalizing with lowered threshold

     Davidson diagonalization with overlap
     ethr =  3.34E-10,  avg # of iterations =  2.0

[...]

     Volume is kept fixed: isostatic pressure set to zero

     bfgs converged in   4 scf cycles and   3 bfgs steps
     (criteria: energy < 0.10E-03, force < 0.10E-02, cell < 0.50E+00)

     End of BFGS Geometry Optimization

     Final enthalpy =    -554.9308229192 Ry
Begin final coordinates
     new unit-cell volume =    346.16527 a.u.^3 (    51.29640 Ang^3 )

CELL_PARAMETERS (alat=  8.12891664)
   0.994791415   0.000000000   0.000000000
   0.000000000   0.994791415   0.000000000
   0.000000000   0.000000000   0.651210548

ATOMIC_POSITIONS (crystal)
Mn0      0.000000000   0.000000000   0.000000000    0   0   0
Mn0      0.500000000   0.500000000   0.500000000    0   0   0
O1       0.302981872   0.302981872   0.000000000    1   1   0
O1      -0.302981872  -0.302981872   0.000000000    1   1   0
O1       0.802981872   0.197018128   0.500000000    1   1   0
O1       0.197018128   0.802981872   0.500000000    1   1   0
End final coordinates

     A final scf calculation at the relaxed structure.
     The G-vectors are recalculated for the final unit cell
     Results may differ from those at the preceding step.

     bravais-lattice index     =            0
     lattice parameter (alat)  =       8.1289  a.u.
     unit-cell volume          =     346.1653 (a.u.)^3
     number of atoms/cell      =            6
     number of atomic types    =            2
     number of electrons       =        54.00
     number of Kohn-Sham states=           78
     kinetic-energy cutoff     =      40.0000  Ry
     charge density cutoff     =     500.0000  Ry
     convergence threshold     =      1.0E-08
     mixing beta               =       0.3000
     number of iterations used =            8  plain     mixing
     Exchange-correlation      = SLA  PW   PBE  PBE ( 1 4 3 4 0)
     EXX-fraction              =        0.00

     celldm(1)=   8.128917  celldm(2)=   0.000000  celldm(3)=   0.000000
     celldm(4)=   0.000000  celldm(5)=   0.000000  celldm(6)=   0.000000

     crystal axes: (cart. coord. in units of alat)
               a(1) = (   0.994791   0.000000   0.000000 )
               a(2) = (   0.000000   0.994791   0.000000 )
               a(3) = (   0.000000   0.000000   0.651211 )

     reciprocal axes: (cart. coord. in units 2 pi/alat)
               b(1) = (  1.005236  0.000000  0.000000 )
               b(2) = (  0.000000  1.005236  0.000000 )
               b(3) = (  0.000000  0.000000  1.535602 )

     PseudoPot. # 1 for Mn read from file:
     /home/camp/zhonxu/pseudo/mn_pbe_v1.uspp.F.UPF
     MD5 check sum: 5fd7c7b5c956fd19902447332617373a
     Pseudo is Ultrasoft + core correction, Zval = 15.0
     Generated by new atomic code, or converted to UPF format
     Using radial grid of  859 points,  6 beta functions with:
                l(1) =   0
                l(2) =   0
                l(3) =   1
                l(4) =   1
                l(5) =   2
                l(6) =   2
     Q(r) pseudized with  6 coefficients,  rinner =    1.150   1.150   1.150
                                                       1.150   1.150

     PseudoPot. # 2 for O  read from file:
     /home/camp/zhonxu/pseudo/o_pbe_v1.01.uspp.F.UPF
     MD5 check sum: 2bcb18d16ea4b960afae9ec6d52f22d2
     Pseudo is Ultrasoft + core correction, Zval =  6.0
     Generated by new atomic code, or converted to UPF format
     Using radial grid of  737 points,  5 beta functions with:
                l(1) =   0
                l(2) =   0
                l(3) =   1
                l(4) =   1
                l(5) =   2
     Q(r) pseudized with  8 coefficients,  rinner =    0.900   0.900   0.900
                                                       0.900   0.900

     atomic species   valence    mass     pseudopotential
        Mn0           15.00    54.93800     Mn( 1.00)
        O1             6.00    15.99940     O ( 1.00)

     Starting magnetic structure
     atomic species   magnetization
        Mn0          0.600
        O1           0.000

     16 Sym. Ops., with inversion, found ( 8 have fractional translation)

   Cartesian axes

     site n.     atom                  positions (alat units)
         1           Mn0 tau(   1) = (   0.0000000   0.0000000   0.0000000  )
         2           Mn0 tau(   2) = (   0.4973957   0.4973957   0.3256053  )
         3           O1  tau(   3) = (   0.3014038   0.3014038   0.0000000  )
         4           O1  tau(   4) = (  -0.3014038  -0.3014038   0.0000000  )
         5           O1  tau(   5) = (   0.7987995   0.1959919   0.3256053  )
         6           O1  tau(   6) = (   0.1959919   0.7987995   0.3256053  )

     number of k points=    36  Methfessel-Paxton smearing, width (Ry)=  0.0100
                       cart. coord. in units 2pi/alat
        k(    1) = (   0.0000000   0.0000000   0.0000000), wk =   0.0080000
        k(    2) = (   0.0000000   0.0000000   0.3071203), wk =   0.0160000
        k(    3) = (   0.0000000   0.0000000   0.6142407), wk =   0.0160000
        k(    4) = (   0.0000000   0.2010472   0.0000000), wk =   0.0320000
        k(    5) = (   0.0000000   0.2010472   0.3071203), wk =   0.0640000
        k(    6) = (   0.0000000   0.2010472   0.6142407), wk =   0.0640000
        k(    7) = (   0.0000000   0.4020943   0.0000000), wk =   0.0320000
        k(    8) = (   0.0000000   0.4020943   0.3071203), wk =   0.0640000
        k(    9) = (   0.0000000   0.4020943   0.6142407), wk =   0.0640000
        k(   10) = (   0.2010472   0.2010472   0.0000000), wk =   0.0320000
        k(   11) = (   0.2010472   0.2010472   0.3071203), wk =   0.0640000
        k(   12) = (   0.2010472   0.2010472   0.6142407), wk =   0.0640000
        k(   13) = (   0.2010472   0.4020943   0.0000000), wk =   0.0640000
        k(   14) = (   0.2010472   0.4020943   0.3071203), wk =   0.1280000
        k(   15) = (   0.2010472   0.4020943   0.6142407), wk =   0.1280000
        k(   16) = (   0.4020943   0.4020943   0.0000000), wk =   0.0320000
        k(   17) = (   0.4020943   0.4020943   0.3071203), wk =   0.0640000
        k(   18) = (   0.4020943   0.4020943   0.6142407), wk =   0.0640000
        k(   19) = (   0.0000000   0.0000000   0.0000000), wk =   0.0080000
        k(   20) = (   0.0000000   0.0000000   0.3071203), wk =   0.0160000
        k(   21) = (   0.0000000   0.0000000   0.6142407), wk =   0.0160000
        k(   22) = (   0.0000000   0.2010472   0.0000000), wk =   0.0320000
        k(   23) = (   0.0000000   0.2010472   0.3071203), wk =   0.0640000
        k(   24) = (   0.0000000   0.2010472   0.6142407), wk =   0.0640000
        k(   25) = (   0.0000000   0.4020943   0.0000000), wk =   0.0320000
        k(   26) = (   0.0000000   0.4020943   0.3071203), wk =   0.0640000
        k(   27) = (   0.0000000   0.4020943   0.6142407), wk =   0.0640000
        k(   28) = (   0.2010472   0.2010472   0.0000000), wk =   0.0320000
        k(   29) = (   0.2010472   0.2010472   0.3071203), wk =   0.0640000
        k(   30) = (   0.2010472   0.2010472   0.6142407), wk =   0.0640000
        k(   31) = (   0.2010472   0.4020943   0.0000000), wk =   0.0640000
        k(   32) = (   0.2010472   0.4020943   0.3071203), wk =   0.1280000
        k(   33) = (   0.2010472   0.4020943   0.6142407), wk =   0.1280000
        k(   34) = (   0.4020943   0.4020943   0.0000000), wk =   0.0320000
        k(   35) = (   0.4020943   0.4020943   0.3071203), wk =   0.0640000
        k(   36) = (   0.4020943   0.4020943   0.6142407), wk =   0.0640000

     Largest allocated arrays     est. size (Mb)     dimensions
     Largest temporary arrays     est. size (Mb)     dimensions

     Check: negative/imaginary core charge=   -0.000063    0.000000

     Initial potential from superposition of free atoms

     starting charge   51.99998, renormalised to   54.00000
     Starting wfc are   42 randomized atomic wfcs

     Self-consistent Calculation

[...]

     total energy              =    -554.93084584 Ry
     Harris-Foulkes estimate   =    -554.93084395 Ry
     estimated scf accuracy    <       0.00000004 Ry

[...]

     iteration # 13     ecut=    40.00 Ry     beta=0.30
     Davidson diagonalization with overlap
     ethr =  7.02E-11,  avg # of iterations =  1.5

     End of self-consistent calculation

 ------ SPIN UP ------------

[...]

 ------ SPIN DOWN ----------

[...]

          k = 0.4021 0.4021 0.6142 (  1479 PWs)   bands (ev):

   -66.5202 -66.5200 -35.5318 -35.5312 -35.2906 -35.2900 -35.2427 -35.2423
    -6.2689  -6.1583  -5.9790  -5.9634   5.2353   5.4423   5.5933   5.6281
     6.9838   7.2083   8.0625   8.1132   9.7011   9.8890  10.4131  10.7129
    13.0746  13.4481  13.4968  13.6459  13.8147  14.3027  15.4562  16.0297
    16.3574  16.9093  24.5350  24.8705  26.7795  27.3072  28.2986  28.6860
    29.7853  30.0115  30.8892  31.2194  32.3600  32.7910  36.1479  37.9518
    38.1419  38.5768  39.3393  39.9468  44.0605  44.1668  44.2987  45.1625
    47.1505  47.6228  47.9142  48.8547  49.8133  49.8355  50.6433  51.1157
    51.5800  52.6896  54.2959  55.2091  55.2811  55.6601  56.5602  56.9734
    57.2760  57.9027  57.9185  58.8894  59.7660  60.8799

     the Fermi energy is    12.3884 ev

!    total energy              =    -554.93084760 Ry
     Harris-Foulkes estimate   =    -554.93084585 Ry
     estimated scf accuracy    <          2.7E-09 Ry

     The total energy is the sum of the following terms:

     one-electron contribution =    -255.48330129 Ry
     hartree contribution      =     158.12724307 Ry
     xc contribution           =     -81.39433596 Ry
     ewald contribution        =    -376.18058223 Ry
     smearing contrib. (-TS)   =       0.00012882 Ry

     total magnetization       =     5.95 Bohr mag/cell
     absolute magnetization    =     6.07 Bohr mag/cell

     convergence has been achieved in  13 iterations

     Forces acting on atoms (Ry/au):

     atom    1 type  1   force =     0.00000000    0.00000000    0.00000000
     atom    2 type  1   force =     0.00000000    0.00000000   -0.00000000
     atom    3 type  2   force =     0.00026553    0.00026553   -0.00000000
     atom    4 type  2   force =    -0.00026553   -0.00026553   -0.00000000
     atom    5 type  2   force =     0.00026553   -0.00026553   -0.00000000
     atom    6 type  2   force =    -0.00026553    0.00026553   -0.00000000

     Total force =     0.000751     Total SCF correction =     0.000059

     entering subroutine stress ...

          total   stress  (Ry/bohr**3)                   (kbar)     P=  281.64
   0.00190855   0.00000000   0.00000000        280.76      0.00      0.00
   0.00000000   0.00190855   0.00000000          0.00    280.76      0.00
   0.00000000   0.00000000   0.00192645          0.00      0.00    283.39

     General routines

     Parallel routines

   This run was terminated on:  15:44:29  24Jan2014

   JOB DONE.
Running PBS batch system epilogue script
Job id: 251938.audhumbla.fysik.dtu.dk
Username: zhonxu
Groupname: campgst
Jobname: MnO2/fine-EOS/ferro/MnO2-v-0.90
Sessionid: 21453
Queuename: verylong
Accounting:
This job has allocated the following 4 nodes:
q019 q019 q019 q019
Finished epilogue job 251938.audhumbla.fysik.dtu.dk for zhonxu