     Program PWSCF v.5.0.2 (svn rev. 9656) starts on 24Jan2014 at 15:30: 5

     Current dimensions of program PWSCF are:
     Max number of different atomic species (ntypx) = 10
     Max number of k-points (npk) =  40000
     Max angular momentum in pseudopotentials (lmaxx) =  3
     Reading input from TiO2-v-1.05.in

     Subspace diagonalization in iterative solution of the eigenvalue problem:
     a serial algorithm will be used

     bravais-lattice index     =            0
     lattice parameter (alat)  =       8.9069  a.u.
     unit-cell volume          =     455.3658 (a.u.)^3
     number of atoms/cell      =            6
     number of atomic types    =            2
     number of electrons       =        48.00
     number of Kohn-Sham states=           69
     kinetic-energy cutoff     =      40.0000  Ry
     charge density cutoff     =     500.0000  Ry
     convergence threshold     =      1.0E-06
     mixing beta               =       0.3000
     number of iterations used =            8  plain     mixing
     Exchange-correlation      = SLA  PW   PBE  PBE ( 1 4 3 4 0)
     EXX-fraction              =        0.00
     nstep                     =           50

     celldm(1)=   8.906867  celldm(2)=   0.000000  celldm(3)=   0.000000
     celldm(4)=   0.000000  celldm(5)=   0.000000  celldm(6)=   0.000000

     crystal axes: (cart. coord. in units of alat)
               a(1) = (   1.000000   0.000000   0.000000 )
               a(2) = (   0.000000   1.000000   0.000000 )
               a(3) = (   0.000000   0.000000   0.644444 )

     reciprocal axes: (cart. coord. in units 2 pi/alat)
               b(1) = (  1.000000  0.000000  0.000000 )
               b(2) = (  0.000000  1.000000  0.000000 )
               b(3) = (  0.000000  0.000000  1.551724 )

     PseudoPot. # 1 for Ti read from file:
     /home/camp/zhonxu/pseudo/ti_pbe_v1.uspp.F.UPF
     MD5 check sum: bcc8f6961b3b91f0cac3ca967d22d0fb
     Pseudo is Ultrasoft + core correction, Zval = 12.0
     Generated by new atomic code, or converted to UPF format
     Using radial grid of  851 points,  6 beta functions with:
                l(1) =   0
                l(2) =   0
                l(3) =   1
                l(4) =   1
                l(5) =   2
                l(6) =   2
     Q(r) pseudized with  6 coefficients,  rinner =    1.000   1.000   1.000
                                                       1.000   1.000

     PseudoPot. # 2 for O  read from file:
     /home/camp/zhonxu/pseudo/o_pbe_v1.01.uspp.F.UPF
     MD5 check sum: 2bcb18d16ea4b960afae9ec6d52f22d2
     Pseudo is Ultrasoft + core correction, Zval =  6.0
     Generated by new atomic code, or converted to UPF format
     Using radial grid of  737 points,  5 beta functions with:
                l(1) =   0
                l(2) =   0
                l(3) =   1
                l(4) =   1
                l(5) =   2
     Q(r) pseudized with  8 coefficients,  rinner =    0.900   0.900   0.900
                                                       0.900   0.900

     atomic species   valence    mass     pseudopotential
        Ti0           12.00    47.88000     Ti( 1.00)
        O1             6.00    15.99940     O ( 1.00)

     Starting magnetic structure
     atomic species   magnetization
        Ti0          0.600
        O1           0.000

      8 Sym. Ops., with inversion, found
          (note:  8 additional sym.ops. were found but ignored
           their fractional translations are incommensurate with FFT grid)

   Cartesian axes

     site n.     atom                  positions (alat units)
         1           Ti0 tau(   1) = (   0.0000000   0.0000000   0.0000000  )
         2           Ti0 tau(   2) = (   0.5000000   0.5000000   0.3222222  )
         3           O1  tau(   3) = (   0.3050000   0.3050000   0.0000000  )
         4           O1  tau(   4) = (  -0.3050000  -0.3050000   0.0000000  )
         5           O1  tau(   5) = (   0.8050000   0.1950000   0.3222222  )
         6           O1  tau(   6) = (   0.1950000   0.8050000   0.3222222  )

     number of k points=    54  Methfessel-Paxton smearing, width (Ry)=  0.0100
                       cart. coord. in units 2pi/alat
        k(    1) = (   0.0000000   0.0000000   0.0000000), wk =   0.0080000
        k(    2) = (   0.0000000   0.0000000   0.3103448), wk =   0.0160000
        k(    3) = (   0.0000000   0.0000000   0.6206897), wk =   0.0160000
        k(    4) = (   0.0000000   0.2000000   0.0000000), wk =   0.0320000
        k(    5) = (   0.0000000   0.2000000   0.3103448), wk =   0.0640000
        k(    6) = (   0.0000000   0.2000000   0.6206897), wk =   0.0640000
        k(    7) = (   0.0000000   0.4000000   0.0000000), wk =   0.0320000
        k(    8) = (   0.0000000   0.4000000   0.3103448), wk =   0.0640000
        k(    9) = (   0.0000000   0.4000000   0.6206897), wk =   0.0640000
        k(   10) = (   0.2000000   0.2000000   0.0000000), wk =   0.0160000
        k(   11) = (   0.2000000   0.2000000   0.3103448), wk =   0.0320000
        k(   12) = (   0.2000000   0.2000000   0.6206897), wk =   0.0320000
        k(   13) = (   0.2000000   0.4000000   0.0000000), wk =   0.0320000
        k(   14) = (   0.2000000   0.4000000   0.3103448), wk =   0.0640000
        k(   15) = (   0.2000000   0.4000000   0.6206897), wk =   0.0640000
        k(   16) = (   0.4000000   0.4000000   0.0000000), wk =   0.0160000
        k(   17) = (   0.4000000   0.4000000   0.3103448), wk =   0.0320000
        k(   18) = (   0.4000000   0.4000000   0.6206897), wk =   0.0320000
        k(   19) = (  -0.2000000   0.2000000   0.0000000), wk =   0.0160000
        k(   20) = (  -0.2000000   0.2000000  -0.3103448), wk =   0.0320000
        k(   21) = (  -0.2000000   0.2000000  -0.6206897), wk =   0.0320000
        k(   22) = (  -0.2000000   0.4000000   0.0000000), wk =   0.0320000
        k(   23) = (  -0.2000000   0.4000000  -0.3103448), wk =   0.0640000
        k(   24) = (  -0.2000000   0.4000000  -0.6206897), wk =   0.0640000
        k(   25) = (  -0.4000000   0.4000000   0.0000000), wk =   0.0160000
        k(   26) = (  -0.4000000   0.4000000  -0.3103448), wk =   0.0320000
        k(   27) = (  -0.4000000   0.4000000  -0.6206897), wk =   0.0320000
        k(   28) = (   0.0000000   0.0000000   0.0000000), wk =   0.0080000
        k(   29) = (   0.0000000   0.0000000   0.3103448), wk =   0.0160000
        k(   30) = (   0.0000000   0.0000000   0.6206897), wk =   0.0160000
        k(   31) = (   0.0000000   0.2000000   0.0000000), wk =   0.0320000
        k(   32) = (   0.0000000   0.2000000   0.3103448), wk =   0.0640000
        k(   33) = (   0.0000000   0.2000000   0.6206897), wk =   0.0640000
        k(   34) = (   0.0000000   0.4000000   0.0000000), wk =   0.0320000
        k(   35) = (   0.0000000   0.4000000   0.3103448), wk =   0.0640000
        k(   36) = (   0.0000000   0.4000000   0.6206897), wk =   0.0640000
        k(   37) = (   0.2000000   0.2000000   0.0000000), wk =   0.0160000
        k(   38) = (   0.2000000   0.2000000   0.3103448), wk =   0.0320000
        k(   39) = (   0.2000000   0.2000000   0.6206897), wk =   0.0320000
        k(   40) = (   0.2000000   0.4000000   0.0000000), wk =   0.0320000
        k(   41) = (   0.2000000   0.4000000   0.3103448), wk =   0.0640000
        k(   42) = (   0.2000000   0.4000000   0.6206897), wk =   0.0640000
        k(   43) = (   0.4000000   0.4000000   0.0000000), wk =   0.0160000
        k(   44) = (   0.4000000   0.4000000   0.3103448), wk =   0.0320000
        k(   45) = (   0.4000000   0.4000000   0.6206897), wk =   0.0320000
        k(   46) = (  -0.2000000   0.2000000   0.0000000), wk =   0.0160000
        k(   47) = (  -0.2000000   0.2000000  -0.3103448), wk =   0.0320000
        k(   48) = (  -0.2000000   0.2000000  -0.6206897), wk =   0.0320000
        k(   49) = (  -0.2000000   0.4000000   0.0000000), wk =   0.0320000
        k(   50) = (  -0.2000000   0.4000000  -0.3103448), wk =   0.0640000
        k(   51) = (  -0.2000000   0.4000000  -0.6206897), wk =   0.0640000
        k(   52) = (  -0.4000000   0.4000000   0.0000000), wk =   0.0160000
        k(   53) = (  -0.4000000   0.4000000  -0.3103448), wk =   0.0320000
        k(   54) = (  -0.4000000   0.4000000  -0.6206897), wk =   0.0320000

     Largest allocated arrays     est. size (Mb)     dimensions
     Largest temporary arrays     est. size (Mb)     dimensions

     Check: negative/imaginary core charge=   -0.000014    0.000000

     Initial potential from superposition of free atoms
     Check: negative starting charge=(component1):   -0.020121
     Check: negative starting charge=(component2):   -0.004959

     starting charge   45.99991, renormalised to   48.00000

     negative rho (up, down):  0.210E-01 0.517E-02
     Starting wfc are   36 randomized atomic wfcs

     Self-consistent Calculation

     iteration #  1     ecut=    40.00 Ry     beta=0.30
     Davidson diagonalization with overlap
     ethr =  1.00E-02,  avg # of iterations =  5.2

     negative rho (up, down):  0.188E-01 0.824E-02

     total energy              =    -365.44752759 Ry
     Harris-Foulkes estimate   =    -365.22395860 Ry
     estimated scf accuracy    <       2.61993387 Ry

     total magnetization       =     0.00 Bohr mag/cell
     absolute magnetization    =     1.83 Bohr mag/cell

[...]

     End of self-consistent calculation

 ------ SPIN UP ------------

          k = 0.0000 0.0000 0.0000 (  1955 PWs)   bands (ev):

   -49.1039 -49.0929 -25.3540 -25.3540 -25.2335 -25.2335 -25.2051 -25.1798
    -9.8010  -8.7382  -8.1707  -8.1707   2.6064   3.0867   3.6149   4.4842
     4.4842   5.6353   5.6353   6.1276   7.3311   7.6151   7.6151   8.0508
     9.7521  10.0132  10.2209  10.2973  10.2974  11.8839  12.1399  14.0255
    14.0256  14.8915  15.3567  19.2113  19.2113  21.9994  23.0345  23.8461
    25.0266  26.4138  26.4138  27.0229  28.2255  29.9949  31.2685  31.2685
    32.1124  32.7606  32.7606  33.1300  33.1300  33.1517  33.6672  35.4956
    37.7332  37.9320  38.5634  39.0253  39.0253  40.3463  40.3463  40.4047
    42.6363  42.6677  42.6677  43.6740  45.9160

[...]

          k =-0.2000 0.2000 0.0000 (  1951 PWs)   bands (ev):

[...]

 ------ SPIN DOWN ----------

[...]

     the Fermi energy is     8.8585 ev

!    total energy              =    -366.49097410 Ry
     Harris-Foulkes estimate   =    -366.49097371 Ry
     estimated scf accuracy    <          3.5E-09 Ry

     The total energy is the sum of the following terms:

     one-electron contribution =    -134.85020920 Ry
     hartree contribution      =      88.90909295 Ry
     xc contribution           =     -63.00663985 Ry
     ewald contribution        =    -257.54321800 Ry
     smearing contrib. (-TS)   =       0.00000000 Ry

[...]

     convergence has been achieved in  13 iterations

     Forces acting on atoms (Ry/au):

     negative rho (up, down):  0.123E-01 0.123E-01
     atom    1 type  1   force =     0.00000000    0.00000000    0.00000000
     atom    2 type  1   force =     0.00000000    0.00000000    0.00000000
     atom    3 type  2   force =     0.00660214    0.00660214    0.00000000
[...]
        k(   11) = (   0.1984006   0.1984006   0.3153677), wk =   0.0320000
        k(   12) = (   0.1984006   0.1984006   0.6307354), wk =   0.0320000
        k(   13) = (   0.1984004   0.3968016   0.0000000), wk =   0.0320000
        k(   14) = (   0.1984004   0.3968016   0.3153677), wk =   0.0640000
        k(   15) = (   0.1984004   0.3968016   0.6307354), wk =   0.0640000
        k(   16) = (   0.3968013   0.3968013   0.0000000), wk =   0.0160000
        k(   17) = (   0.3968013   0.3968013   0.3153677), wk =   0.0320000
        k(   18) = (   0.3968013   0.3968013   0.6307354), wk =   0.0320000
        k(   19) = (  -0.1984012   0.1984012   0.0000000), wk =   0.0160000
        k(   20) = (  -0.1984012   0.1984012  -0.3153677), wk =   0.0320000
        k(   21) = (  -0.1984012   0.1984012  -0.6307354), wk =   0.0320000
        k(   22) = (  -0.1984014   0.3968021   0.0000000), wk =   0.0320000
        k(   23) = (  -0.1984014   0.3968021  -0.3153677), wk =   0.0640000
        k(   24) = (  -0.1984014   0.3968021  -0.6307354), wk =   0.0640000
        k(   25) = (  -0.3968023   0.3968023   0.0000000), wk =   0.0160000
        k(   26) = (  -0.3968023   0.3968023  -0.3153677), wk =   0.0320000
        k(   27) = (  -0.3968023   0.3968023  -0.6307354), wk =   0.0320000
        k(   28) = (   0.0000000   0.0000000   0.0000000), wk =   0.0080000
        k(   29) = (   0.0000000   0.0000000   0.3153677), wk =   0.0160000
        k(   30) = (   0.0000000   0.0000000   0.6307354), wk =   0.0160000
        k(   31) = (  -0.0000003   0.1984009   0.0000000), wk =   0.0320000
        k(   32) = (  -0.0000003   0.1984009   0.3153677), wk =   0.0640000
        k(   33) = (  -0.0000003   0.1984009   0.6307354), wk =   0.0640000
        k(   34) = (  -0.0000005   0.3968018   0.0000000), wk =   0.0320000
        k(   35) = (  -0.0000005   0.3968018   0.3153677), wk =   0.0640000
        k(   36) = (  -0.0000005   0.3968018   0.6307354), wk =   0.0640000
        k(   37) = (   0.1984006   0.1984006   0.0000000), wk =   0.0160000
        k(   38) = (   0.1984006   0.1984006   0.3153677), wk =   0.0320000
        k(   39) = (   0.1984006   0.1984006   0.6307354), wk =   0.0320000
        k(   40) = (   0.1984004   0.3968016   0.0000000), wk =   0.0320000
        k(   41) = (   0.1984004   0.3968016   0.3153677), wk =   0.0640000
        k(   42) = (   0.1984004   0.3968016   0.6307354), wk =   0.0640000
        k(   43) = (   0.3968013   0.3968013   0.0000000), wk =   0.0160000
        k(   44) = (   0.3968013   0.3968013   0.3153677), wk =   0.0320000
        k(   45) = (   0.3968013   0.3968013   0.6307354), wk =   0.0320000
        k(   46) = (  -0.1984012   0.1984012   0.0000000), wk =   0.0160000
        k(   47) = (  -0.1984012   0.1984012  -0.3153677), wk =   0.0320000
        k(   48) = (  -0.1984012   0.1984012  -0.6307354), wk =   0.0320000
        k(   49) = (  -0.1984014   0.3968021   0.0000000), wk =   0.0320000
        k(   50) = (  -0.1984014   0.3968021  -0.3153677), wk =   0.0640000
        k(   51) = (  -0.1984014   0.3968021  -0.6307354), wk =   0.0640000
        k(   52) = (  -0.3968023   0.3968023   0.0000000), wk =   0.0160000
        k(   53) = (  -0.3968023   0.3968023  -0.3153677), wk =   0.0320000
        k(   54) = (  -0.3968023   0.3968023  -0.6307354), wk =   0.0320000

     Check: negative/imaginary core charge=   -0.000014    0.000000
     Check: negative starting charge=(component1):   -0.024964

[...]

     Threshold (ethr) on eigenvalues was too large:
     Diagonalizing with lowered threshold

     Davidson diagonalization with overlap
     ethr =  9.40E-10,  avg # of iterations =  1.5

[...]

     Total force =     0.000022     Total SCF correction =     0.000033
     SCF correction compared to forces is large: reduce conv_thr to get better values

[...]

     Volume is kept fixed: isostatic pressure set to zero

     bfgs converged in   6 scf cycles and   5 bfgs steps
     (criteria: energy < 0.10E-03, force < 0.10E-02, cell < 0.50E+00)

     End of BFGS Geometry Optimization

     Final enthalpy =    -366.4929205843 Ry
Begin final coordinates
     new unit-cell volume =    455.36581 a.u.^3 (    67.47825 Ang^3 )

CELL_PARAMETERS (alat=  8.90686722)
   1.008059889   0.000001331   0.000000000
   0.000001331   1.008059889   0.000000000
   0.000000000   0.000000000   0.634180399

ATOMIC_POSITIONS (crystal)
Ti0      0.000000000   0.000000000   0.000000000    0   0   0
Ti0      0.500000000   0.500000000   0.500000000    0   0   0
O1       0.307773844   0.307773844   0.000000000    1   1   0
O1      -0.307773844  -0.307773844   0.000000000    1   1   0
O1       0.807775178   0.192224822   0.500000000    1   1   0
O1       0.192224822   0.807775178   0.500000000    1   1   0
End final coordinates

     A final scf calculation at the relaxed structure.
     The G-vectors are recalculated for the final unit cell
     Results may differ from those at the preceding step.

     bravais-lattice index     =            0
     lattice parameter (alat)  =       8.9069  a.u.
     unit-cell volume          =     455.3658 (a.u.)^3
     number of atoms/cell      =            6
     number of atomic types    =            2
     number of electrons       =        48.00
     number of Kohn-Sham states=           69
     kinetic-energy cutoff     =      40.0000  Ry
     charge density cutoff     =     500.0000  Ry
     convergence threshold     =      1.0E-08
     mixing beta               =       0.3000
     number of iterations used =            8  plain     mixing
     Exchange-correlation      = SLA  PW   PBE  PBE ( 1 4 3 4 0)
     EXX-fraction              =        0.00

     celldm(1)=   8.906867  celldm(2)=   0.000000  celldm(3)=   0.000000
     celldm(4)=   0.000000  celldm(5)=   0.000000  celldm(6)=   0.000000

     crystal axes: (cart. coord. in units of alat)
               a(1) = (   1.008060   0.000001   0.000000 )
               a(2) = (   0.000001   1.008060   0.000000 )
               a(3) = (   0.000000   0.000000   0.634180 )

     reciprocal axes: (cart. coord. in units 2 pi/alat)
               b(1) = (  0.992005 -0.000001  0.000000 )
               b(2) = ( -0.000001  0.992005  0.000000 )
               b(3) = (  0.000000  0.000000  1.576838 )

     PseudoPot. # 1 for Ti read from file:
     /home/camp/zhonxu/pseudo/ti_pbe_v1.uspp.F.UPF
     MD5 check sum: bcc8f6961b3b91f0cac3ca967d22d0fb
     Pseudo is Ultrasoft + core correction, Zval = 12.0
     Generated by new atomic code, or converted to UPF format
     Using radial grid of  851 points,  6 beta functions with:
                l(1) =   0
                l(2) =   0
                l(3) =   1
                l(4) =   1
                l(5) =   2
                l(6) =   2
     Q(r) pseudized with  6 coefficients,  rinner =    1.000   1.000   1.000
                                                       1.000   1.000

     PseudoPot. # 2 for O  read from file:
     /home/camp/zhonxu/pseudo/o_pbe_v1.01.uspp.F.UPF
     MD5 check sum: 2bcb18d16ea4b960afae9ec6d52f22d2
     Pseudo is Ultrasoft + core correction, Zval =  6.0
     Generated by new atomic code, or converted to UPF format
     Using radial grid of  737 points,  5 beta functions with:
                l(1) =   0
                l(2) =   0
                l(3) =   1
                l(4) =   1
                l(5) =   2
     Q(r) pseudized with  8 coefficients,  rinner =    0.900   0.900   0.900
                                                       0.900   0.900

     atomic species   valence    mass     pseudopotential
        Ti0           12.00    47.88000     Ti( 1.00)
        O1             6.00    15.99940     O ( 1.00)

     Starting magnetic structure
     atomic species   magnetization
        Ti0          0.600
        O1           0.000

      8 Sym. Ops., with inversion, found
          (note:  8 additional sym.ops. were found but ignored
           their fractional translations are incommensurate with FFT grid)

   Cartesian axes

     site n.     atom                  positions (alat units)
         1           Ti0 tau(   1) = (   0.0000000   0.0000000   0.0000000  )
         2           Ti0 tau(   2) = (   0.5040306   0.5040306   0.3170902  )
         3           O1  tau(   3) = (   0.3102549   0.3102549   0.0000000  )
         4           O1  tau(   4) = (  -0.3102549  -0.3102549   0.0000000  )
         5           O1  tau(   5) = (   0.8142860   0.1937752   0.3170902  )
         6           O1  tau(   6) = (   0.1937752   0.8142860   0.3170902  )

     number of k points=    54  Methfessel-Paxton smearing, width (Ry)=  0.0100
                       cart. coord. in units 2pi/alat
        k(    1) = (   0.0000000   0.0000000   0.0000000), wk =   0.0080000
        k(    2) = (   0.0000000   0.0000000   0.3153677), wk =   0.0160000
        k(    3) = (   0.0000000   0.0000000   0.6307354), wk =   0.0160000
        k(    4) = (  -0.0000003   0.1984009   0.0000000), wk =   0.0320000
        k(    5) = (  -0.0000003   0.1984009   0.3153677), wk =   0.0640000
        k(    6) = (  -0.0000003   0.1984009   0.6307354), wk =   0.0640000
        k(    7) = (  -0.0000005   0.3968018   0.0000000), wk =   0.0320000
        k(    8) = (  -0.0000005   0.3968018   0.3153677), wk =   0.0640000
        k(    9) = (  -0.0000005   0.3968018   0.6307354), wk =   0.0640000
        k(   10) = (   0.1984006   0.1984006   0.0000000), wk =   0.0160000
        k(   11) = (   0.1984006   0.1984006   0.3153677), wk =   0.0320000
        k(   12) = (   0.1984006   0.1984006   0.6307354), wk =   0.0320000
        k(   13) = (   0.1984004   0.3968016   0.0000000), wk =   0.0320000
        k(   14) = (   0.1984004   0.3968016   0.3153677), wk =   0.0640000
        k(   15) = (   0.1984004   0.3968016   0.6307354), wk =   0.0640000
        k(   16) = (   0.3968013   0.3968013   0.0000000), wk =   0.0160000
        k(   17) = (   0.3968013   0.3968013   0.3153677), wk =   0.0320000
        k(   18) = (   0.3968013   0.3968013   0.6307354), wk =   0.0320000
        k(   19) = (  -0.1984012   0.1984012   0.0000000), wk =   0.0160000
        k(   20) = (  -0.1984012   0.1984012  -0.3153677), wk =   0.0320000
        k(   21) = (  -0.1984012   0.1984012  -0.6307354), wk =   0.0320000
        k(   22) = (  -0.1984014   0.3968021   0.0000000), wk =   0.0320000
        k(   23) = (  -0.1984014   0.3968021  -0.3153677), wk =   0.0640000
        k(   24) = (  -0.1984014   0.3968021  -0.6307354), wk =   0.0640000
        k(   25) = (  -0.3968023   0.3968023   0.0000000), wk =   0.0160000
        k(   26) = (  -0.3968023   0.3968023  -0.3153677), wk =   0.0320000
        k(   27) = (  -0.3968023   0.3968023  -0.6307354), wk =   0.0320000
        k(   28) = (   0.0000000   0.0000000   0.0000000), wk =   0.0080000
        k(   29) = (   0.0000000   0.0000000   0.3153677), wk =   0.0160000
        k(   30) = (   0.0000000   0.0000000   0.6307354), wk =   0.0160000
        k(   31) = (  -0.0000003   0.1984009   0.0000000), wk =   0.0320000
        k(   32) = (  -0.0000003   0.1984009   0.3153677), wk =   0.0640000
        k(   33) = (  -0.0000003   0.1984009   0.6307354), wk =   0.0640000
        k(   34) = (  -0.0000005   0.3968018   0.0000000), wk =   0.0320000
        k(   35) = (  -0.0000005   0.3968018   0.3153677), wk =   0.0640000
        k(   36) = (  -0.0000005   0.3968018   0.6307354), wk =   0.0640000
        k(   37) = (   0.1984006   0.1984006   0.0000000), wk =   0.0160000
        k(   38) = (   0.1984006   0.1984006   0.3153677), wk =   0.0320000
        k(   39) = (   0.1984006   0.1984006   0.6307354), wk =   0.0320000
        k(   40) = (   0.1984004   0.3968016   0.0000000), wk =   0.0320000
        k(   41) = (   0.1984004   0.3968016   0.3153677), wk =   0.0640000
        k(   42) = (   0.1984004   0.3968016   0.6307354), wk =   0.0640000
        k(   43) = (   0.3968013   0.3968013   0.0000000), wk =   0.0160000
        k(   44) = (   0.3968013   0.3968013   0.3153677), wk =   0.0320000
        k(   45) = (   0.3968013   0.3968013   0.6307354), wk =   0.0320000
        k(   46) = (  -0.1984012   0.1984012   0.0000000), wk =   0.0160000
        k(   47) = (  -0.1984012   0.1984012  -0.3153677), wk =   0.0320000
        k(   48) = (  -0.1984012   0.1984012  -0.6307354), wk =   0.0320000
        k(   49) = (  -0.1984014   0.3968021   0.0000000), wk =   0.0320000
        k(   50) = (  -0.1984014   0.3968021  -0.3153677), wk =   0.0640000
        k(   51) = (  -0.1984014   0.3968021  -0.6307354), wk =   0.0640000
        k(   52) = (  -0.3968023   0.3968023   0.0000000), wk =   0.0160000
        k(   53) = (  -0.3968023   0.3968023  -0.3153677), wk =   0.0320000
        k(   54) = (  -0.3968023   0.3968023  -0.6307354), wk =   0.0320000

     Largest allocated arrays     est. size (Mb)     dimensions
     Largest temporary arrays     est. size (Mb)     dimensions

     Check: negative/imaginary core charge=   -0.000014    0.000000

     Initial potential from superposition of free atoms
     Check: negative starting charge=(component1):   -0.020030
     Check: negative starting charge=(component2):   -0.004934

     starting charge   45.99991, renormalised to   48.00000

     negative rho (up, down):  0.209E-01 0.515E-02
     Starting wfc are   36 randomized atomic wfcs

     Self-consistent Calculation

[...]

     total energy              =    -366.49288929 Ry
     Harris-Foulkes estimate   =    -366.49288910 Ry
     estimated scf accuracy    <       0.00000004 Ry

[...]

     iteration # 14     ecut=    40.00 Ry     beta=0.30
     Davidson diagonalization with overlap
     ethr =  7.57E-11,  avg # of iterations =  1.0

     negative rho (up, down):  0.123E-01 0.123E-01

     End of self-consistent calculation

 ------ SPIN UP ------------

[...]

 ------ SPIN DOWN ----------

[...]

          k = 0.3968 0.3968 0.6307 (  1956 PWs)   bands (ev):

[...]

          k =-0.3968 0.3968-0.6307 (  1956 PWs)   bands (ev):

   -49.0285 -49.0282 -25.4960 -25.4943 -25.2284 -25.2241 -25.1934 -25.1914
    -8.7491  -8.6670  -8.5232  -8.4372   3.5272   3.7171   3.7854   3.9283
     4.6214   4.8308   5.5189   5.5468   6.6278   6.7396   7.0406   7.2409
    10.2084  10.5257  10.9124  10.9616  11.0052  11.2367  12.8469  13.2684
    13.6246  14.0338  19.3513  19.6996  21.1237  21.7388  22.3664  22.8168
    24.2465  24.3855  25.5461  25.8127  26.7737  27.2907  29.9204  31.1003
    31.4921  31.9071  32.2542  33.1596  35.2578  35.3790  37.1191  37.8456
    39.1221  39.5035  40.1072  40.6794  40.7383  41.1637  41.3849  41.8539
    42.7635  43.3862  43.6315  44.5307  44.5860

     the Fermi energy is     8.8749 ev

!    total energy              =    -366.49288950 Ry
     Harris-Foulkes estimate   =    -366.49288930 Ry
     estimated scf accuracy    <          1.7E-10 Ry

     The total energy is the sum of the following terms:

     one-electron contribution =    -136.99883099 Ry
     hartree contribution      =      89.98224939 Ry
     xc contribution           =     -63.04126557 Ry
     ewald contribution        =    -256.43504232 Ry
     smearing contrib. (-TS)   =       0.00000000 Ry

     total magnetization       =    -0.00 Bohr mag/cell
     absolute magnetization    =     0.00 Bohr mag/cell

     convergence has been achieved in  14 iterations

     Forces acting on atoms (Ry/au):

     negative rho (up, down):  0.123E-01 0.123E-01
     atom    1 type  1   force =     0.00000000    0.00000000    0.00000000
     atom    2 type  1   force =     0.00000000    0.00000000    0.00000000
     atom    3 type  2   force =    -0.00001815   -0.00001815    0.00000000
     atom    4 type  2   force =     0.00001815    0.00001815    0.00000000
     atom    5 type  2   force =    -0.00002638    0.00002638    0.00000000
     atom    6 type  2   force =     0.00002638   -0.00002638    0.00000000

     Total force =     0.000064     Total SCF correction =     0.000006

     entering subroutine stress ...

     negative rho (up, down):  0.123E-01 0.123E-01
          total   stress  (Ry/bohr**3)                   (kbar)     P= -102.55
  -0.00069704  -0.00000003   0.00000000       -102.54     -0.01      0.00
  -0.00000003  -0.00069704   0.00000000         -0.01   -102.54      0.00
   0.00000000   0.00000000  -0.00069737          0.00      0.00   -102.59

     General routines

     Parallel routines

   This run was terminated on:  16: 0: 3  24Jan2014

   JOB DONE.
Running PBS batch system epilogue script
Job id: 251911.audhumbla.fysik.dtu.dk
Username: zhonxu
Groupname: campgst
Jobname: TiO2/fine-EOS/ferro/TiO2-v-1.05
Sessionid: 19601
Queuename: verylong
Accounting:
This job has allocated the following 4 nodes:
q118 q118 q118 q118
Finished epilogue job 251911.audhumbla.fysik.dtu.dk for zhonxu