     Program PWSCF v.5.0.2 (svn rev. 9656) starts on 28Apr2014 at  2:33:41

     Current dimensions of program PWSCF are:
     Max number of different atomic species (ntypx) = 10
     Max number of k-points (npk) =  40000
     Max angular momentum in pseudopotentials (lmaxx) =  3
     Reading input from pwscf.in
Warning: card &CELL ignored
Warning: card / ignored

     Subspace diagonalization in iterative solution of the eigenvalue problem:
     a serial algorithm will be used

     bravais-lattice index     =            0
     lattice parameter (alat)  =      12.2076  a.u.
     unit-cell volume          =    7496.5096 (a.u.)^3
     number of atoms/cell      =           31
     number of atomic types    =            3
     number of electrons       =       246.00
     number of Kohn-Sham states=          369
     kinetic-energy cutoff     =      40.0000  Ry
     charge density cutoff     =     500.0000  Ry
     convergence threshold     =      1.0E-06
     mixing beta               =       0.7000
     number of iterations used =            8  plain     mixing
     Exchange-correlation      = SLA  PW   PBE  PBE ( 1 4 3 4 0)
     EXX-fraction              =        0.00
     nstep                     =           50

     celldm(1)=  12.207631  celldm(2)=   0.000000  celldm(3)=   0.000000
     celldm(4)=   0.000000  celldm(5)=   0.000000  celldm(6)=   0.000000

     crystal axes: (cart. coord. in units of alat)
               a(1) = (   1.000000   0.000000   0.000000 )
               a(2) = (   0.000000   1.004836   0.000000 )
               a(3) = (   0.000000   0.000000   4.100811 )

     reciprocal axes: (cart. coord. in units 2 pi/alat)
               b(1) = (  1.000000  0.000000  0.000000 )
               b(2) = (  0.000000  0.995187  0.000000 )
               b(3) = (  0.000000  0.000000  0.243854 )

     PseudoPot. # 1 for O  read from file:
     /home/camp/zhonxu/pseudo/o_pbe_v1.01.uspp.F.UPF
     MD5 check sum: 2bcb18d16ea4b960afae9ec6d52f22d2
     Pseudo is Ultrasoft + core correction, Zval =  6.0
     Generated by new atomic code, or converted to UPF format
     Using radial grid of  737 points,  5 beta functions with:
                l(1) =   0
                l(2) =   0
                l(3) =   1
                l(4) =   1
                l(5) =   2
     Q(r) pseudized with  8 coefficients,  rinner =    0.900   0.900   0.900
                                                       0.900   0.900

     PseudoPot. # 2 for Pt read from file:
     /home/camp/zhonxu/pseudo/pt_pbe_v1.uspp.F.UPF
     MD5 check sum: 4c71d6ad5ef119f1eb26a4d0b7884226
     Pseudo is Ultrasoft + core correction, Zval = 16.0
     Generated by new atomic code, or converted to UPF format
     Using radial grid of  985 points,  6 beta functions with:
                l(1) =   0
                l(2) =   0
                l(3) =   1
                l(4) =   1
                l(5) =   2
                l(6) =   2
     Q(r) pseudized with  8 coefficients,  rinner =    1.300   1.300   1.300
                                                       1.300   1.300

     PseudoPot. # 3 for H  read from file:
     /home/camp/zhonxu/pseudo/h_pbe_v1.uspp.F.UPF
     MD5 check sum: 3408e3ff4ec8b0a4e358431e7e038a48
     Pseudo is Ultrasoft, Zval =  1.0
     Generated by new atomic code, or converted to UPF format
     Using radial grid of  615 points,  2 beta functions with:
                l(1) =   0
                l(2) =   0
     Q(r) pseudized with  8 coefficients,  rinner =    0.700

     atomic species   valence    mass     pseudopotential
        O0             6.00    15.99940     O ( 1.00)
        Pt1           16.00   195.08000     Pt( 1.00)
        H2             1.00     1.00794     H ( 1.00)

     Simplified LDA+U calculation (l_max = 2) with parameters (eV):
     atomic species    L          U    alpha       J0     beta
        Pt1            2     4.0000   0.0000   0.0000   0.0000

     No symmetry found

   Cartesian axes

     site n.     atom                  positions (alat units)
         1           O0  tau(   1) = (   0.0000000   0.0000000   1.5489174  )
         2           O0  tau(   2) = (   0.0000000   0.5024180   1.6470088  )
         3           Pt1 tau(   3) = (   0.2500000   0.5024180   1.8504500  )
         4           Pt1 tau(   4) = (   0.0000000   0.0000000   1.8564782  )
         5           O0  tau(   5) = (   0.2500000   0.8139171   1.8182587  )
         6           O0  tau(   6) = (   0.2500000   0.1909188   1.8867012  )
         7           O0  tau(   7) = (   0.0000000   0.5024180   2.0373240  )
         8           O0  tau(   8) = (   0.0000000   0.0000000   2.1721997  )
         9           Pt1 tau(   9) = (   0.2500000   0.0000000   2.3623543  )
        10           Pt1 tau(  10) = (   0.0000000   0.5024180   2.3594017  )
        11           O0  tau(  11) = (   0.2500000   0.6933368   2.3215512  )
        12           O0  tau(  12) = (   0.2500000   0.3114991   2.4021322  )
        13           O0  tau(  13) = (   0.0000000   0.0000000   2.5481621  )
        14           O0  tau(  14) = (   0.5000000   0.0000000   1.5492455  )
        15           O0  tau(  15) = (   0.5000000   0.5024180   1.6439332  )
        16           Pt1 tau(  16) = (   0.7500000   0.5024180   1.8504910  )
        17           Pt1 tau(  17) = (   0.5000000   0.0000000   1.8565192  )
        18           O0  tau(  18) = (   0.7500000   0.8139171   1.8184227  )
        19           O0  tau(  19) = (   0.7500000   0.1909188   1.8866602  )
        20           O0  tau(  20) = (   0.5000000   0.5024180   2.0431061  )
        21           O0  tau(  21) = (   0.5000000   0.0000000   2.1716256  )
        22           Pt1 tau(  22) = (   0.7500000   0.0000000   2.3623953  )
        23           Pt1 tau(  23) = (   0.5000000   0.5024180   2.3697358  )
        24           O0  tau(  24) = (   0.7500000   0.6933368   2.3215102  )
        25           O0  tau(  25) = (   0.7500000   0.3114991   2.4021732  )
        26           O0  tau(  26) = (   0.5000000   0.0000000   2.5480390  )
        27           H2  tau(  27) = (   0.0001100   0.6425926   1.5814778  )
        28           H2  tau(  28) = (   0.5001800   0.6431151   1.5801656  )
        29           H2  tau(  29) = (   0.1426600   0.0364956   1.5073762  )
        30           H2  tau(  30) = (   0.6419200   0.0388771   1.5073762  )
        31           O0  tau(  31) = (   0.5000900   0.5753691   2.6428088  )

     number of k points=    10  Methfessel-Paxton smearing, width (Ry)=  0.0100
                       cart. coord. in units 2pi/alat
        k(    1) = (   0.0000000   0.0000000   0.0000000), wk =   0.1250000
        k(    2) = (   0.0000000   0.2487968   0.0000000), wk =   0.2500000
        k(    3) = (   0.0000000  -0.4975937   0.0000000), wk =   0.1250000
        k(    4) = (   0.2500000   0.0000000   0.0000000), wk =   0.2500000
        k(    5) = (   0.2500000   0.2487968   0.0000000), wk =   0.2500000
        k(    6) = (   0.2500000  -0.4975937   0.0000000), wk =   0.2500000
        k(    7) = (  -0.5000000   0.0000000   0.0000000), wk =   0.1250000
        k(    8) = (  -0.5000000   0.2487968   0.0000000), wk =   0.2500000
        k(    9) = (  -0.5000000  -0.4975937   0.0000000), wk =   0.1250000
        k(   10) = (  -0.2500000   0.2487968   0.0000000), wk =   0.2500000

     Largest allocated arrays     est. size (Mb)     dimensions
     Largest temporary arrays     est. size (Mb)     dimensions

     Check: negative/imaginary core charge=   -0.000003    0.000000

     Initial potential from superposition of free atoms
     Check: negative starting charge=   -1.533958

     starting charge  241.99985, renormalised to  246.00000

     negative rho (up, down):  0.156E+01 0.000E+00
     Number of +U iterations with fixed ns =  0
     Starting occupations:
 --- enter write_ns ---
 LDA+U parameters:
U( 2)     =  4.00000000
alpha( 2) =  0.00000000
atom    3   Tr[ns(na)] =   8.00000
    eigenvalues:
  0.800  0.800  0.800  0.800  0.800
    eigenvectors:
  1.000  0.000  0.000  0.000  0.000
  0.000  1.000  0.000  0.000  0.000
  0.000  0.000  1.000  0.000  0.000
  0.000  0.000  0.000  1.000  0.000
  0.000  0.000  0.000  0.000  1.000
    occupations:
  0.800  0.000  0.000  0.000  0.000
  0.000  0.800  0.000  0.000  0.000
  0.000  0.000  0.800  0.000  0.000
  0.000  0.000  0.000  0.800  0.000
  0.000  0.000  0.000  0.000  0.800
atom    4   Tr[ns(na)] =   8.00000
    eigenvalues:
  0.800  0.800  0.800  0.800  0.800
    eigenvectors:
  1.000  0.000  0.000  0.000  0.000
  0.000  1.000  0.000  0.000  0.000
  0.000  0.000  1.000  0.000  0.000
  0.000  0.000  0.000  1.000  0.000
  0.000  0.000  0.000  0.000  1.000
    occupations:
  0.800  0.000  0.000  0.000  0.000
  0.000  0.800  0.000  0.000  0.000
  0.000  0.000  0.800  0.000  0.000
  0.000  0.000  0.000  0.800  0.000
  0.000  0.000  0.000  0.000  0.800
atom    9   Tr[ns(na)] =   8.00000
    eigenvalues:
  0.800  0.800  0.800  0.800  0.800
    eigenvectors:
  1.000  0.000  0.000  0.000  0.000
  0.000  1.000  0.000  0.000  0.000
  0.000  0.000  1.000  0.000  0.000
  0.000  0.000  0.000  1.000  0.000
  0.000  0.000  0.000  0.000  1.000
    occupations:
  0.800  0.000  0.000  0.000  0.000
  0.000  0.800  0.000  0.000  0.000
  0.000  0.000  0.800  0.000  0.000
  0.000  0.000  0.000  0.800  0.000
  0.000  0.000  0.000  0.000  0.800
atom   10   Tr[ns(na)] =   8.00000
    eigenvalues:
  0.800  0.800  0.800  0.800  0.800
    eigenvectors:
  1.000  0.000  0.000  0.000  0.000
  0.000  1.000  0.000  0.000  0.000
  0.000  0.000  1.000  0.000  0.000
  0.000  0.000  0.000  1.000  0.000
  0.000  0.000  0.000  0.000  1.000
    occupations:
  0.800  0.000  0.000  0.000  0.000
  0.000  0.800  0.000  0.000  0.000
  0.000  0.000  0.800  0.000  0.000
  0.000  0.000  0.000  0.800  0.000
  0.000  0.000  0.000  0.000  0.800
atom   16   Tr[ns(na)] =   8.00000
    eigenvalues:
  0.800  0.800  0.800  0.800  0.800
    eigenvectors:
  1.000  0.000  0.000  0.000  0.000
  0.000  1.000  0.000  0.000  0.000
  0.000  0.000  1.000  0.000  0.000
  0.000  0.000  0.000  1.000  0.000
  0.000  0.000  0.000  0.000  1.000
    occupations:
  0.800  0.000  0.000  0.000  0.000
  0.000  0.800  0.000  0.000  0.000
  0.000  0.000  0.800  0.000  0.000
  0.000  0.000  0.000  0.800  0.000
  0.000  0.000  0.000  0.000  0.800
atom   17   Tr[ns(na)] =   8.00000
    eigenvalues:
  0.800  0.800  0.800  0.800  0.800
    eigenvectors:
  1.000  0.000  0.000  0.000  0.000
  0.000  1.000  0.000  0.000  0.000
  0.000  0.000  1.000  0.000  0.000
  0.000  0.000  0.000  1.000  0.000
  0.000  0.000  0.000  0.000  1.000
    occupations:
  0.800  0.000  0.000  0.000  0.000
  0.000  0.800  0.000  0.000  0.000
  0.000  0.000  0.800  0.000  0.000
  0.000  0.000  0.000  0.800  0.000
  0.000  0.000  0.000  0.000  0.800
atom   22   Tr[ns(na)] =   8.00000
    eigenvalues:
  0.800  0.800  0.800  0.800  0.800
    eigenvectors:
  1.000  0.000  0.000  0.000  0.000
  0.000  1.000  0.000  0.000  0.000
  0.000  0.000  1.000  0.000  0.000
  0.000  0.000  0.000  1.000  0.000
  0.000  0.000  0.000  0.000  1.000
    occupations:
  0.800  0.000  0.000  0.000  0.000
  0.000  0.800  0.000  0.000  0.000
[...]
 -0.019  0.000  0.984  0.003  0.000
  0.026  0.000  0.003  0.984  0.000
 -0.001  0.031  0.000  0.000  0.694
atom    9   Tr[ns(na)] =   8.70416
    eigenvalues:
  0.713  0.724  0.959  0.969  0.987
    eigenvectors:
  0.004  0.130  0.001  0.011  0.855
  0.973  0.027  0.000  0.000  0.000
  0.000  0.013  0.006  0.977  0.004
  0.023  0.830  0.000  0.007  0.140
  0.000  0.000  0.992  0.006  0.001
    occupations:
  0.951  0.001 -0.009 -0.089  0.001
  0.001  0.713  0.001  0.001 -0.004
 -0.009  0.001  0.966 -0.026  0.001
 -0.089  0.001 -0.026  0.762 -0.000
  0.001 -0.004  0.001 -0.000  0.959
atom   10   Tr[ns(na)] =   8.76898
    eigenvalues:
  0.669  0.759  0.981  0.985  0.990
    eigenvectors:
  0.000  0.979  0.000  0.013  0.007
  0.015  0.000  0.985  0.000  0.000
  0.000  0.001  0.000  0.210  0.790
  0.000  0.020  0.000  0.777  0.203
  0.985  0.000  0.015  0.000  0.000
    occupations:
  0.764  0.000 -0.006  0.032  0.000
  0.000  0.977  0.000 -0.000 -0.038
 -0.006  0.000  0.989 -0.001 -0.000
  0.032 -0.000 -0.001  0.982 -0.000
  0.000 -0.038 -0.000 -0.000  0.674
atom   16   Tr[ns(na)] =   8.73080
    eigenvalues:
  0.696  0.707  0.986  0.987  0.990
    eigenvectors:
  0.038  0.134  0.604  0.220  0.003
  0.785  0.215  0.000  0.000  0.000
  0.001  0.004  0.003  0.073  0.919
  0.176  0.646  0.130  0.038  0.010
  0.000  0.000  0.263  0.669  0.067
    occupations:
  0.937 -0.003  0.008 -0.106  0.000
 -0.003  0.698 -0.002 -0.004 -0.004
  0.008 -0.002  0.988  0.018 -0.001
 -0.106 -0.004  0.018  0.755 -0.000
  0.000 -0.004 -0.001 -0.000  0.987
atom   17   Tr[ns(na)] =   8.72121
    eigenvalues:
  0.692  0.714  0.982  0.986  0.987
    eigenvectors:
  0.000  0.985  0.008  0.002  0.005
  0.011  0.000  0.041  0.917  0.030
  0.000  0.005  0.903  0.023  0.068
  0.000  0.009  0.048  0.047  0.896
  0.988  0.000  0.000  0.011  0.000
    occupations:
  0.718 -0.005 -0.019  0.026 -0.001
 -0.005  0.982  0.001  0.000  0.031
 -0.019  0.001  0.981  0.003  0.000
  0.026  0.000  0.003  0.984  0.000
 -0.001  0.031  0.000  0.000  0.696
atom   22   Tr[ns(na)] =   8.70416
    eigenvalues:
  0.713  0.724  0.959  0.969  0.987
    eigenvectors:
  0.001  0.133  0.001  0.011  0.854
  0.992  0.007  0.000  0.000  0.000
  0.000  0.013  0.009  0.974  0.004
  0.006  0.847  0.000  0.006  0.140
  0.000  0.000  0.990  0.008  0.001
    occupations:
  0.951 -0.000 -0.009 -0.089 -0.001
 -0.000  0.714 -0.001 -0.001 -0.004
 -0.009 -0.001  0.966 -0.026 -0.001
 -0.089 -0.001 -0.026  0.762  0.000
 -0.001 -0.004 -0.001  0.000  0.959
atom   23   Tr[ns(na)] =   8.68617
    eigenvalues:
  0.718  0.743  0.930  0.964  0.988
    eigenvectors:
  0.000  0.885  0.109  0.000  0.006
  0.020  0.000  0.000  0.980  0.000
  0.000  0.099  0.877  0.000  0.023
  0.000  0.016  0.014  0.000  0.970
  0.980  0.000  0.000  0.020  0.000
    occupations:
  0.765  0.000  0.055  0.027 -0.000
  0.000  0.959 -0.000  0.000 -0.034
  0.055 -0.000  0.912 -0.016 -0.000
  0.027  0.000 -0.016  0.983 -0.000
 -0.000 -0.034 -0.000 -0.000  0.723
N of occupied +U levels =  69.7681061
 --- exit write_ns ---

     Threshold (ethr) on eigenvalues was too large:
     Diagonalizing with lowered threshold

     Davidson diagonalization with overlap
     ethr =  1.08E-08,  avg # of iterations =  2.0

[...]

     total energy              =   -2279.70449196 Ry
     Harris-Foulkes estimate   =   -2279.70449197 Ry
     estimated scf accuracy    <       0.00000007 Ry

     iteration # 15     ecut=    40.00 Ry     beta=0.70
     Davidson diagonalization with overlap
     ethr =  1.50E-11,  avg # of iterations =  1.0

     negative rho (up, down):  0.158E+01 0.000E+00

     End of self-consistent calculation
 --- enter write_ns ---
 LDA+U parameters:
U( 2)     =  4.00000000
alpha( 2) =  0.00000000
atom    3   Tr[ns(na)] =   8.73077
    eigenvalues:
  0.696  0.707  0.986  0.987  0.990
    eigenvectors:
  0.039  0.134  0.601  0.223  0.003
  0.783  0.216  0.000  0.000  0.000
  0.001  0.004  0.004  0.073  0.918
  0.177  0.645  0.130  0.038  0.010
  0.000  0.000  0.265  0.665  0.070
    occupations:
  0.937  0.003  0.008 -0.106 -0.000
  0.003  0.698  0.002  0.004 -0.004
  0.008  0.002  0.988  0.018  0.001
 -0.106  0.004  0.018  0.755  0.000
 -0.000 -0.004  0.001  0.000  0.987
atom    4   Tr[ns(na)] =   8.72187
    eigenvalues:
  0.691  0.713  0.984  0.986  0.987
    eigenvectors:
  0.000  0.985  0.009  0.004  0.001
  0.011  0.000  0.130  0.810  0.049
  0.000  0.005  0.684  0.041  0.270
  0.000  0.009  0.176  0.136  0.679
  0.989  0.000  0.001  0.009  0.001
    occupations:
  0.717 -0.005 -0.019  0.026 -0.001
 -0.005  0.982  0.000  0.000  0.031
 -0.019  0.000  0.984  0.003  0.000
  0.026  0.000  0.003  0.984  0.000
 -0.001  0.031  0.000  0.000  0.694
atom    9   Tr[ns(na)] =   8.70402
    eigenvalues:
  0.713  0.724  0.959  0.969  0.987
    eigenvectors:
  0.004  0.130  0.001  0.010  0.855
  0.972  0.027  0.000  0.000  0.000
  0.000  0.012  0.006  0.978  0.004
  0.023  0.830  0.000  0.007  0.140
  0.000  0.000  0.993  0.005  0.001
    occupations:
  0.951  0.001 -0.009 -0.089  0.001
  0.001  0.714  0.001  0.001 -0.004
 -0.009  0.001  0.966 -0.026  0.001
 -0.089  0.001 -0.026  0.762 -0.000
  0.001 -0.004  0.001 -0.000  0.959
atom   10   Tr[ns(na)] =   8.76975
    eigenvalues:
  0.669  0.759  0.982  0.985  0.990
    eigenvectors:
  0.000  0.979  0.000  0.013  0.007
  0.015  0.000  0.985  0.000  0.000
  0.000  0.001  0.000  0.210  0.789
  0.000  0.020  0.000  0.777  0.203
  0.985  0.000  0.015  0.000  0.000
    occupations:
  0.764  0.000 -0.006  0.032  0.000
  0.000  0.977  0.000 -0.000 -0.038
 -0.006  0.000  0.989 -0.001 -0.000
  0.032 -0.000 -0.001  0.982 -0.000
  0.000 -0.038 -0.000 -0.000  0.674
atom   16   Tr[ns(na)] =   8.73077
    eigenvalues:
  0.696  0.707  0.986  0.987  0.990
    eigenvectors:
  0.038  0.135  0.604  0.220  0.003
  0.786  0.214  0.000  0.000  0.000
  0.001  0.004  0.003  0.073  0.919
  0.175  0.647  0.130  0.038  0.010
  0.000  0.000  0.263  0.669  0.067
    occupations:
  0.937 -0.003  0.008 -0.106  0.000
 -0.003  0.698 -0.002 -0.004 -0.004
  0.008 -0.002  0.988  0.018 -0.001
 -0.106 -0.004  0.018  0.755 -0.000
  0.000 -0.004 -0.001 -0.000  0.987
atom   17   Tr[ns(na)] =   8.72121
    eigenvalues:
  0.692  0.714  0.981  0.986  0.987
    eigenvectors:
  0.000  0.985  0.007  0.002  0.005
  0.011  0.000  0.040  0.918  0.030
  0.000  0.005  0.905  0.023  0.067
  0.000  0.009  0.047  0.046  0.898
  0.988  0.000  0.000  0.011  0.000
    occupations:
  0.718 -0.005 -0.019  0.026 -0.001
 -0.005  0.982  0.001  0.000  0.031
 -0.019  0.001  0.981  0.003  0.000
  0.026  0.000  0.003  0.984  0.000
 -0.001  0.031  0.000  0.000  0.696
atom   22   Tr[ns(na)] =   8.70403
    eigenvalues:
  0.713  0.724  0.959  0.969  0.987
    eigenvectors:
  0.001  0.133  0.001  0.011  0.854
  0.992  0.008  0.000  0.000  0.000
  0.000  0.013  0.008  0.975  0.004
  0.007  0.846  0.000  0.006  0.140
  0.000  0.000  0.991  0.007  0.001
    occupations:
  0.951 -0.000 -0.009 -0.089 -0.001
 -0.000  0.714 -0.001 -0.001 -0.004
 -0.009 -0.001  0.966 -0.026 -0.001
 -0.089 -0.001 -0.026  0.762  0.000
 -0.001 -0.004 -0.001  0.000  0.959
atom   23   Tr[ns(na)] =   8.68649
    eigenvalues:
  0.718  0.743  0.930  0.964  0.988
    eigenvectors:
  0.000  0.885  0.109  0.000  0.007
  0.020  0.000  0.000  0.980  0.000
  0.000  0.100  0.877  0.000  0.023
  0.000  0.016  0.014  0.000  0.970
  0.980  0.000  0.000  0.020  0.000
    occupations:
  0.765  0.000  0.055  0.027 -0.000
  0.000  0.959 -0.000  0.000 -0.034
  0.055 -0.000  0.913 -0.016 -0.000
  0.027  0.000 -0.016  0.983 -0.000
 -0.000 -0.034 -0.000 -0.000  0.723
N of occupied +U levels =  69.7689050
 --- exit write_ns ---

[...]

          k = 0.2500-0.4976 0.0000 ( 32026 PWs)   bands (ev):

[...]

          k =-0.2500 0.2488 0.0000 ( 32025 PWs)   bands (ev):

   -55.8451 -55.7882 -55.6654 -55.5639 -55.5437 -55.5255 -55.5033 -55.4465
   -55.4003 -55.3928 -55.3885 -55.3780 -55.3753 -55.2472 -55.2081 -55.2051
   -55.2015 -55.1326 -55.0971 -55.0923 -55.0903 -54.8504 -54.6122 -54.2880
   -22.2261 -21.9775 -21.3439 -21.2199 -20.8999 -20.8133 -20.8023 -20.6514
   -20.5868 -20.5315 -20.4302 -20.3505 -20.3428 -20.1710 -20.1010 -20.0877
   -19.4766 -19.1991 -19.0285 -10.8658 -10.6576 -10.5385 -10.4878 -10.0387
    -9.9902  -9.9076  -9.6972  -9.6007  -9.5537  -9.4802  -9.4510  -9.2676
    -9.1491  -9.1274  -8.9932  -8.9474  -8.7627  -8.4470  -8.3929  -8.2302
    -8.2140  -8.0998  -7.9740  -7.9206  -7.7356  -7.6532  -7.4796  -7.4372
    -7.3840  -7.2870  -7.1993  -7.0756  -7.0280  -6.9884  -6.8954  -6.8628
    -6.7560  -6.6669  -6.5810  -6.3930  -6.2735  -6.1868  -5.9839  -5.8514
    -5.6841  -5.5866  -5.5266  -5.4015  -5.3317  -5.2587  -5.0883  -4.9792
    -4.8901  -4.7629  -4.5925  -4.5012  -4.3736  -4.2479  -4.1569  -4.1081
    -3.9851  -3.9499  -3.8675  -3.7544  -3.6492  -3.6160  -3.3509  -3.3051
    -3.2062  -2.9767  -2.8482  -2.7121  -2.6801  -2.5818  -2.5365  -2.4219
    -2.2197  -2.0951  -1.9729  -1.8719  -1.7225  -1.2390  -1.1088  -0.7863
    -0.4323  -0.2832   0.0240   0.3097   0.5455   0.6843   0.7206   0.8538
     1.0620   1.2479   1.3217   1.6806   3.0678   3.8328   4.5909   5.0131
     5.0396   5.1125   5.3076   5.6500   6.0807   6.1509   6.1787   6.3204
     6.4358   6.5244   6.6737   6.8495   6.9339   6.9844   7.1022   7.2195
     7.3578   7.4784   7.5572   7.5795   7.6870   7.8644   7.9288   8.0305
     8.1605   8.2554   8.3017   8.4483   8.5496   8.6421   8.6638   8.7755
     8.8615   9.0047   9.1312   9.2842   9.3451   9.4685   9.5323   9.5971
     9.6951   9.8724  10.0219  10.1028  10.1878  10.2497  10.3143  10.3856
    10.5231  10.5798  10.6518  10.7648  10.7947  10.9584  11.0486  11.0814
    11.1697  11.1996  11.3701  11.4565  11.4823  11.7111  11.7389  11.7781
    11.8648  11.9447  11.9949  12.0736  12.1377  12.2412  12.2660  12.3275
    12.4106  12.4506  12.5212  12.5738  12.6376  12.7376  12.8142  12.9170
    12.9567  13.0339  13.1694  13.2006  13.2316  13.4400  13.5138  13.5578
    13.6359  13.6921  13.7683  13.8611  13.9237  13.9652  14.0445  14.1220
    14.1834  14.3177  14.4131  14.5147  14.5557  14.6326  14.7595  14.8439
    14.8755  14.9428  15.1175  15.2168  15.2548  15.3289  15.4127  15.4526
    15.5296  15.5843  15.6418  15.6739  15.7580  15.7738  15.8234  15.8907
    15.9982  16.0549  16.0817  16.1576  16.1764  16.2508  16.3619  16.3903
    16.4504  16.5100  16.5802  16.7330  16.7825  16.8034  16.8194  16.8395
    16.8516  16.8605  16.9070  16.9182  16.9466  16.9819  17.0411  17.1100
    17.1517  17.2079  17.2146  17.2623  17.2997  17.3695  17.4660  17.5042
    17.5407  17.5855  17.6130  17.7059  17.7479  17.7890  17.9052  17.9555
    18.0376  18.0825  18.1363  18.2397  18.2632  18.3830  18.4858  18.5181
    18.5916  18.6224  18.6834  18.7218  18.8244  18.8607  18.8974  19.0214
    19.0467  19.1634  19.1838  19.2095  19.3125  19.3620  19.4410  19.4692
    19.6402  19.7700  19.8187  19.8790  19.9466  19.9636  19.9836  20.0693
    20.1203  20.2227  20.2424  20.3057  20.3688  20.3910  20.4949  20.5811
    20.6476  20.6994  20.7527  20.8473  20.9252  20.9638  21.0192  21.0588
    21.0738  21.2297  21.2663  21.3750  21.4064  21.4629  21.5097  21.5551
    21.6058  21.6569  21.7295  21.7841  21.8284  21.8920  21.9986  22.0922
    22.1359

     the Fermi energy is    -1.9229 ev

!    total energy              =   -2279.70449196 Ry
     Harris-Foulkes estimate   =   -2279.70449196 Ry
     estimated scf accuracy    <          2.9E-09 Ry

     The total energy is the sum of the following terms:

     one-electron contribution =  -23664.07136372 Ry
     hartree contribution      =   11873.65176991 Ry
     xc contribution           =    -572.07217398 Ry
     ewald contribution        =   10081.68203266 Ry
     Hubbard energy            =       1.10550067 Ry
     smearing contrib. (-TS)   =      -0.00025750 Ry

     convergence has been achieved in  15 iterations

     Forces acting on atoms (Ry/au):

     negative rho (up, down):  0.158E+01 0.000E+00
     atom    1 type  1   force =    -0.00871186   -0.00413249   -0.00053390
     atom    2 type  1   force =     0.00014368    0.00417736    0.00041649
     atom    3 type  2   force =     0.01603706    0.00556950   -0.00001300
     atom    4 type  2   force =     0.01063177    0.00473822   -0.00028926
     atom    5 type  1   force =     0.00122011   -0.00360136    0.00034522
     atom    6 type  1   force =    -0.00017655   -0.00294193   -0.00011011
     atom    7 type  1   force =     0.00007270    0.00077992   -0.00064230
     atom    8 type  1   force =    -0.00417537    0.00248520   -0.00019003
     atom    9 type  2   force =     0.00447359   -0.00471875    0.00027349
     atom   10 type  2   force =    -0.00000974   -0.02019750   -0.00090942
     atom   11 type  1   force =    -0.00261675    0.00200250    0.00000495
     atom   12 type  1   force =    -0.00903624    0.01478463    0.00018210
     atom   13 type  1   force =    -0.00110529   -0.00853739    0.00015403
     atom   14 type  1   force =    -0.00867150   -0.00294247   -0.00070038
     atom   15 type  1   force =     0.00016869    0.00198007    0.00052130
     atom   16 type  2   force =    -0.01682396    0.00544361   -0.00000495
     atom   17 type  2   force =     0.01049103    0.00495032   -0.00031305
     atom   18 type  1   force =     0.00126595   -0.00353413    0.00034491
     atom   19 type  1   force =     0.00024461   -0.00285465   -0.00010825
     atom   20 type  1   force =     0.00007785   -0.00459476   -0.00015050
     atom   21 type  1   force =    -0.00404563    0.00233353    0.00004907
     atom   22 type  2   force =    -0.00075586   -0.00460153    0.00028121
     atom   23 type  2   force =    -0.00018500    0.01522230    0.00051181
     atom   24 type  1   force =     0.00273192    0.00205827   -0.00000012
     atom   25 type  1   force =     0.00916391    0.01473876    0.00018680
     atom   26 type  1   force =    -0.00106910   -0.01823178    0.00059695
     atom   27 type  3   force =    -0.00001025   -0.00031484   -0.00000378
     atom   28 type  3   force =    -0.00002220   -0.00035122   -0.00004843
     atom   29 type  3   force =     0.00029613   -0.00017144    0.00023749
     atom   30 type  3   force =     0.00040183   -0.00036746    0.00019992
     atom   31 type  1   force =    -0.00000554    0.00082951   -0.00028828

     Total force =     0.002310     Total SCF correction =     0.000278
     SCF correction compared to forces is large: reduce conv_thr to get better values

     bfgs converged in  13 scf cycles and  12 bfgs steps
     (criteria: energy < 0.10E-03, force < 0.10E-02)

     End of BFGS Geometry Optimization

     Final energy   =   -2279.7044919601 Ry
Begin final coordinates

ATOMIC_POSITIONS (crystal)
O0       0.000000000   0.000000000   0.377709828    0   0   1
O0       0.000000000   0.500000000   0.401772337    0   0   1
Pt1      0.250000000   0.500000000   0.451247186    0   0   1
Pt1      0.000000000   0.000000000   0.452753945    0   0   1
O0       0.250000000   0.810000000   0.442669473    0   0   1
O0       0.250000000   0.190000000   0.460995154    0   0   1
O0       0.000000000   0.500000000   0.496807217    0   0   1
O0       0.000000000   0.000000000   0.529875163    0   0   1
Pt1      0.250000000   0.000000000   0.576003369    0   0   1
Pt1      0.000000000   0.500000000   0.574922851    0   0   1
O0       0.250000000   0.690000000   0.564906607    0   0   1
O0       0.250000000   0.310000000   0.586326462    0   0   1
O0       0.000000000   0.000000000   0.621427199    0   0   1
O0       0.500000000   0.000000000   0.377807574    0   0   1
O0       0.500000000   0.500000000   0.401110226    0   0   1
Pt1      0.750000000   0.500000000   0.451249483    0   0   1
Pt1      0.500000000   0.000000000   0.452767627    0   0   1
O0       0.750000000   0.810000000   0.442698071    0   0   1
O0       0.750000000   0.190000000   0.460995692    0   0   1
O0       0.500000000   0.500000000   0.498118859    0   0   1
O0       0.500000000   0.000000000   0.529720290    0   0   1
Pt1      0.750000000   0.000000000   0.576005655    0   0   1
Pt1      0.500000000   0.500000000   0.577216572    0   0   1
O0       0.750000000   0.690000000   0.564890627    0   0   1
O0       0.750000000   0.310000000   0.586329550    0   0   1
O0       0.500000000   0.000000000   0.621469454    0   0   1
H2       0.000100503   0.640498991   0.386308109
H2       0.500092296   0.641068886   0.386058538
H2       0.143168697   0.035061076   0.367757114
H2       0.642842890   0.036194494   0.367803285
O0       0.500119602   0.577853396   0.643946481
End final coordinates

     General routines

     Parallel routines
     Hubbard U routines

   This run was terminated on:  15: 4:12  28Apr2014

   JOB DONE.