     Program PWSCF v.5.0.2 (svn rev. 9656) starts on  8May2014 at 23:56:18

     Current dimensions of program PWSCF are:
     Max number of different atomic species (ntypx) = 10
     Max number of k-points (npk) =  40000
     Max angular momentum in pseudopotentials (lmaxx) =  3
     Reading input from pwscf.in
Warning: card &CELL ignored
Warning: card / ignored

     Subspace diagonalization in iterative solution of the eigenvalue problem:
     a serial algorithm will be used

     bravais-lattice index     =            0
     lattice parameter (alat)  =      11.1872  a.u.
     unit-cell volume          =    7531.8600 (a.u.)^3
     number of atoms/cell      =           30
     number of atomic types    =            3
     number of electrons       =       216.00
     number of Kohn-Sham states=          324
     kinetic-energy cutoff     =      40.0000  Ry
     charge density cutoff     =     500.0000  Ry
     convergence threshold     =      1.0E-06
     mixing beta               =       0.7000
     number of iterations used =            8  plain     mixing
     Exchange-correlation      = SLA  PW   PBE  PBE ( 1 4 3 4 0)
     EXX-fraction              =        0.00
     nstep                     =           50

     celldm(1)=  11.187179  celldm(2)=   0.000000  celldm(3)=   0.000000
     celldm(4)=   0.000000  celldm(5)=   0.000000  celldm(6)=   0.000000

     crystal axes: (cart. coord. in units of alat)
               a(1) = (   1.000000   0.000000   0.000000 )
               a(2) = (   0.000000   1.180104   0.000000 )
               a(3) = (   0.000000   0.000000   4.558482 )

     reciprocal axes: (cart. coord. in units 2 pi/alat)
               b(1) = (  1.000000  0.000000  0.000000 )
               b(2) = (  0.000000  0.847383  0.000000 )
               b(3) = (  0.000000  0.000000  0.219371 )

     PseudoPot. # 1 for O  read from file:
     /home/camp/zhonxu/pseudo/o_pbe_v1.01.uspp.F.UPF
     MD5 check sum: 2bcb18d16ea4b960afae9ec6d52f22d2
     Pseudo is Ultrasoft + core correction, Zval =  6.0
     Generated by new atomic code, or converted to UPF format
     Using radial grid of  737 points,  5 beta functions with:
                l(1) =   0
                l(2) =   0
                l(3) =   1
                l(4) =   1
                l(5) =   2
     Q(r) pseudized with  8 coefficients,  rinner =    0.900   0.900   0.900
                                                       0.900   0.900

     PseudoPot. # 2 for Nb read from file:
     /home/camp/zhonxu/pseudo/nb_pbe_v1.uspp.F.UPF
     MD5 check sum: 573aab8a2fa660278ed4a62cd769473f
     Pseudo is Ultrasoft + core correction, Zval = 13.0
     Generated by new atomic code, or converted to UPF format
     Using radial grid of  887 points,  6 beta functions with:
                l(1) =   0
                l(2) =   0
                l(3) =   1
                l(4) =   1
                l(5) =   2
                l(6) =   2
     Q(r) pseudized with  6 coefficients,  rinner =    1.000   1.000   1.000
                                                       1.000   1.000

     PseudoPot. # 3 for H  read from file:
     /home/camp/zhonxu/pseudo/h_pbe_v1.uspp.F.UPF
     MD5 check sum: 3408e3ff4ec8b0a4e358431e7e038a48
     Pseudo is Ultrasoft, Zval =  1.0
     Generated by new atomic code, or converted to UPF format
     Using radial grid of  615 points,  2 beta functions with:
                l(1) =   0
                l(2) =   0
     Q(r) pseudized with  8 coefficients,  rinner =    0.700

     atomic species   valence    mass     pseudopotential
        O0             6.00    15.99940     O ( 1.00)
        Nb1           13.00    92.90640     Nb( 1.00)
        H2             1.00     1.00794     H ( 1.00)

     Simplified LDA+U calculation (l_max = 2) with parameters (eV):
     atomic species    L          U    alpha       J0     beta
        Nb1            2     3.5000   0.0000   0.0000   0.0000

     No symmetry found

   Cartesian axes

     site n.     atom                  positions (alat units)
         1           O0  tau(   1) = (   0.0000000   0.0000000   1.7080633  )
         2           O0  tau(   2) = (   0.0000000   0.5900519   1.7583889  )
         3           Nb1 tau(   3) = (   0.2500000   0.5900519   2.0066439  )
         4           Nb1 tau(   4) = (   0.0000000   0.0000000   2.0401487  )
         5           O0  tau(   5) = (   0.2500000   0.9322821   2.0429294  )
         6           O0  tau(   6) = (   0.2500000   0.2478218   2.0431118  )
         7           O0  tau(   7) = (   0.0000000   0.5900519   2.2709903  )
         8           O0  tau(   8) = (   0.0000000   0.0000000   2.3999042  )
         9           Nb1 tau(   9) = (   0.2500000   0.0000000   2.6489340  )
        10           Nb1 tau(  10) = (   0.0000000   0.5900519   2.5868019  )
        11           O0  tau(  11) = (   0.2500000   0.8378738   2.6444667  )
        12           O0  tau(  12) = (   0.2500000   0.3422301   2.6445123  )
        13           O0  tau(  13) = (   0.0000000   0.0000000   2.8518777  )
        14           O0  tau(  14) = (   0.5000000   0.0000000   1.7080633  )
        15           O0  tau(  15) = (   0.5000000   0.5900519   1.7583889  )
        16           Nb1 tau(  16) = (   0.7500000   0.5900519   2.0066439  )
        17           Nb1 tau(  17) = (   0.5000000   0.0000000   2.0401487  )
        18           O0  tau(  18) = (   0.7500000   0.9322821   2.0429294  )
        19           O0  tau(  19) = (   0.7500000   0.2478218   2.0431118  )
        20           O0  tau(  20) = (   0.5000000   0.5900519   2.2709903  )
        21           O0  tau(  21) = (   0.5000000   0.0000000   2.3999497  )
        22           Nb1 tau(  22) = (   0.7500000   0.0000000   2.6489340  )
        23           Nb1 tau(  23) = (   0.5000000   0.5900519   2.5867563  )
        24           O0  tau(  24) = (   0.7500000   0.8378738   2.6444667  )
        25           O0  tau(  25) = (   0.7500000   0.3422301   2.6445123  )
        26           O0  tau(  26) = (   0.5000000   0.0000000   2.8518777  )
        27           H2  tau(  27) = (  -0.0004200   0.5934860   1.5928705  )
        28           H2  tau(  28) = (   0.4995800   0.5932146   1.5928249  )
        29           H2  tau(  29) = (   0.1513000  -0.0014397   1.6372701  )
        30           H2  tau(  30) = (   0.6512900  -0.0014397   1.6372701  )

     number of k points=    10  Methfessel-Paxton smearing, width (Ry)=  0.0100
                       cart. coord. in units 2pi/alat
        k(    1) = (   0.0000000   0.0000000   0.0000000), wk =   0.1250000
        k(    2) = (   0.0000000   0.2118458   0.0000000), wk =   0.2500000
        k(    3) = (   0.0000000  -0.4236915   0.0000000), wk =   0.1250000
        k(    4) = (   0.2500000   0.0000000   0.0000000), wk =   0.2500000
        k(    5) = (   0.2500000   0.2118458   0.0000000), wk =   0.2500000
        k(    6) = (   0.2500000  -0.4236915   0.0000000), wk =   0.2500000
        k(    7) = (  -0.5000000   0.0000000   0.0000000), wk =   0.1250000
        k(    8) = (  -0.5000000   0.2118458   0.0000000), wk =   0.2500000
        k(    9) = (  -0.5000000  -0.4236915   0.0000000), wk =   0.1250000
        k(   10) = (  -0.2500000   0.2118458   0.0000000), wk =   0.2500000

     Largest allocated arrays     est. size (Mb)     dimensions
     Largest temporary arrays     est. size (Mb)     dimensions

     Check: negative/imaginary core charge=   -0.000003    0.000000

     Initial potential from superposition of free atoms
     Check: negative starting charge=   -0.003843

     starting charge  215.97807, renormalised to  216.00000

     negative rho (up, down):  0.384E-02 0.000E+00
     Number of +U iterations with fixed ns =  0
     Starting occupations:
 --- enter write_ns ---
 LDA+U parameters:
U( 2)     =  3.50000000
alpha( 2) =  0.00000000
atom    3   Tr[ns(na)] =   3.00000
    eigenvalues:
  0.300  0.300  0.300  0.300  0.300
    eigenvectors:
  1.000  0.000  0.000  0.000  0.000
  0.000  1.000  0.000  0.000  0.000
  0.000  0.000  1.000  0.000  0.000
  0.000  0.000  0.000  1.000  0.000
  0.000  0.000  0.000  0.000  1.000
    occupations:
  0.300  0.000  0.000  0.000  0.000
  0.000  0.300  0.000  0.000  0.000
  0.000  0.000  0.300  0.000  0.000
  0.000  0.000  0.000  0.300  0.000
  0.000  0.000  0.000  0.000  0.300
atom    4   Tr[ns(na)] =   3.00000
    eigenvalues:
  0.300  0.300  0.300  0.300  0.300
    eigenvectors:
  1.000  0.000  0.000  0.000  0.000
  0.000  1.000  0.000  0.000  0.000
  0.000  0.000  1.000  0.000  0.000
  0.000  0.000  0.000  1.000  0.000
  0.000  0.000  0.000  0.000  1.000
    occupations:
  0.300  0.000  0.000  0.000  0.000
  0.000  0.300  0.000  0.000  0.000
  0.000  0.000  0.300  0.000  0.000
  0.000  0.000  0.000  0.300  0.000
  0.000  0.000  0.000  0.000  0.300
atom    9   Tr[ns(na)] =   3.00000
    eigenvalues:
  0.300  0.300  0.300  0.300  0.300
    eigenvectors:
  1.000  0.000  0.000  0.000  0.000
  0.000  1.000  0.000  0.000  0.000
  0.000  0.000  1.000  0.000  0.000
  0.000  0.000  0.000  1.000  0.000
  0.000  0.000  0.000  0.000  1.000
    occupations:
  0.300  0.000  0.000  0.000  0.000
  0.000  0.300  0.000  0.000  0.000
  0.000  0.000  0.300  0.000  0.000
  0.000  0.000  0.000  0.300  0.000
  0.000  0.000  0.000  0.000  0.300
atom   10   Tr[ns(na)] =   3.00000
    eigenvalues:
  0.300  0.300  0.300  0.300  0.300
    eigenvectors:
  1.000  0.000  0.000  0.000  0.000
  0.000  1.000  0.000  0.000  0.000
  0.000  0.000  1.000  0.000  0.000
  0.000  0.000  0.000  1.000  0.000
  0.000  0.000  0.000  0.000  1.000
    occupations:
  0.300  0.000  0.000  0.000  0.000
  0.000  0.300  0.000  0.000  0.000
  0.000  0.000  0.300  0.000  0.000
  0.000  0.000  0.000  0.300  0.000
  0.000  0.000  0.000  0.000  0.300
atom   16   Tr[ns(na)] =   3.00000
    eigenvalues:
  0.300  0.300  0.300  0.300  0.300
    eigenvectors:
  1.000  0.000  0.000  0.000  0.000
  0.000  1.000  0.000  0.000  0.000
  0.000  0.000  1.000  0.000  0.000
  0.000  0.000  0.000  1.000  0.000
  0.000  0.000  0.000  0.000  1.000
    occupations:
  0.300  0.000  0.000  0.000  0.000
  0.000  0.300  0.000  0.000  0.000
  0.000  0.000  0.300  0.000  0.000
  0.000  0.000  0.000  0.300  0.000
  0.000  0.000  0.000  0.000  0.300
atom   17   Tr[ns(na)] =   3.00000
    eigenvalues:
  0.300  0.300  0.300  0.300  0.300
    eigenvectors:
  1.000  0.000  0.000  0.000  0.000
  0.000  1.000  0.000  0.000  0.000
  0.000  0.000  1.000  0.000  0.000
  0.000  0.000  0.000  1.000  0.000
  0.000  0.000  0.000  0.000  1.000
    occupations:
  0.300  0.000  0.000  0.000  0.000
  0.000  0.300  0.000  0.000  0.000
  0.000  0.000  0.300  0.000  0.000
  0.000  0.000  0.000  0.300  0.000
  0.000  0.000  0.000  0.000  0.300
atom   22   Tr[ns(na)] =   3.00000
    eigenvalues:
  0.300  0.300  0.300  0.300  0.300
    eigenvectors:
  1.000  0.000  0.000  0.000  0.000
  0.000  1.000  0.000  0.000  0.000
  0.000  0.000  1.000  0.000  0.000
  0.000  0.000  0.000  1.000  0.000
  0.000  0.000  0.000  0.000  1.000
    occupations:
  0.300  0.000  0.000  0.000  0.000
  0.000  0.300  0.000  0.000  0.000
  0.000  0.000  0.300  0.000  0.000
  0.000  0.000  0.000  0.300  0.000
[...]
  0.679  0.000  0.001 -0.087 -0.000
  0.000  0.508 -0.000  0.000  0.000
  0.001 -0.000  0.407 -0.000 -0.005
 -0.087  0.000 -0.000  0.643  0.000
 -0.000  0.000 -0.005  0.000  0.351
atom    4   Tr[ns(na)] =   5.23324
    eigenvalues:
  0.399  0.428  0.550  0.584  0.655
    eigenvectors:
  0.000  0.004  0.000  0.996  0.000
  0.000  0.995  0.000  0.004  0.001
  1.000  0.000  0.000  0.000  0.000
  0.000  0.001  0.000  0.000  0.999
  0.000  0.000  1.000  0.000  0.000
    occupations:
  0.583  0.010 -0.000  0.000 -0.000
  0.010  0.429  0.000 -0.007 -0.000
 -0.000  0.000  0.399  0.000  0.001
  0.000 -0.007  0.000  0.655  0.000
 -0.000 -0.000  0.001  0.000  0.550
atom    9   Tr[ns(na)] =   5.28349
    eigenvalues:
  0.449  0.463  0.508  0.610  0.612
    eigenvectors:
  0.886  0.000  0.000  0.114  0.000
  0.000  0.000  0.000  0.001  0.999
  0.000  0.000  1.000  0.000  0.000
  0.114  0.000  0.000  0.885  0.000
  0.000  1.000  0.000  0.000  0.000
    occupations:
  0.468 -0.000 -0.000  0.051  0.000
 -0.000  0.612  0.000 -0.000  0.000
 -0.000  0.000  0.508  0.000  0.000
  0.051 -0.000  0.000  0.591 -0.000
  0.000  0.000  0.000 -0.000  0.463
atom   10   Tr[ns(na)] =   5.12324
    eigenvalues:
  0.357  0.488  0.500  0.513  0.703
    eigenvectors:
  0.000  0.995  0.000  0.000  0.005
  0.000  0.000  1.000  0.000  0.000
  1.000  0.000  0.000  0.000  0.000
  0.000  0.005  0.000  0.000  0.995
  0.000  0.000  0.000  1.000  0.000
    occupations:
  0.489  0.000  0.000 -0.015 -0.000
  0.000  0.500 -0.000 -0.000 -0.000
  0.000 -0.000  0.357 -0.000  0.000
 -0.015 -0.000 -0.000  0.702 -0.000
 -0.000 -0.000  0.000 -0.000  0.513
atom   16   Tr[ns(na)] =   5.17636
    eigenvalues:
  0.351  0.408  0.508  0.572  0.750
    eigenvectors:
  0.000  0.000  0.000  0.398  0.602
  0.000  0.000  1.000  0.000  0.000
  0.007  0.993  0.000  0.000  0.000
  0.000  0.000  0.000  0.602  0.398
  0.993  0.007  0.000  0.000  0.000
    occupations:
  0.679  0.000  0.001 -0.087  0.000
  0.000  0.508  0.000  0.000  0.000
  0.001  0.000  0.407 -0.000 -0.005
 -0.087  0.000 -0.000  0.643 -0.000
  0.000  0.000 -0.005 -0.000  0.351
atom   17   Tr[ns(na)] =   5.23308
    eigenvalues:
  0.398  0.428  0.550  0.584  0.655
    eigenvectors:
  0.000  0.004  0.000  0.996  0.000
  0.000  0.995  0.000  0.004  0.001
  1.000  0.000  0.000  0.000  0.000
  0.000  0.001  0.000  0.000  0.999
  0.000  0.000  1.000  0.000  0.000
    occupations:
  0.583  0.010 -0.000  0.000 -0.000
  0.010  0.429  0.000 -0.007 -0.000
 -0.000  0.000  0.398  0.000  0.001
  0.000 -0.007  0.000  0.655  0.000
 -0.000 -0.000  0.001  0.000  0.550
atom   22   Tr[ns(na)] =   5.28349
    eigenvalues:
  0.449  0.463  0.508  0.610  0.612
    eigenvectors:
  0.886  0.000  0.000  0.114  0.000
  0.000  0.000  0.000  0.001  0.999
  0.000  0.000  1.000  0.000  0.000
  0.114  0.000  0.000  0.885  0.001
  0.000  1.000  0.000  0.000  0.000
    occupations:
  0.468 -0.000 -0.000  0.051  0.000
 -0.000  0.612  0.000 -0.000  0.000
 -0.000  0.000  0.508  0.000  0.000
  0.051 -0.000  0.000  0.591 -0.000
  0.000  0.000  0.000 -0.000  0.463
atom   23   Tr[ns(na)] =   5.12371
    eigenvalues:
  0.357  0.488  0.500  0.513  0.704
    eigenvectors:
  0.000  0.995  0.000  0.000  0.005
  0.000  0.000  1.000  0.000  0.000
  1.000  0.000  0.000  0.000  0.000
  0.000  0.005  0.000  0.000  0.995
  0.000  0.000  0.000  1.000  0.000
    occupations:
  0.489  0.000 -0.000 -0.015 -0.000
  0.000  0.500 -0.000 -0.000  0.000
 -0.000 -0.000  0.357 -0.000  0.000
 -0.015 -0.000 -0.000  0.702 -0.000
 -0.000  0.000  0.000 -0.000  0.513
N of occupied +U levels =  41.6329780
 --- exit write_ns ---

     Threshold (ethr) on eigenvalues was too large:
     Diagonalizing with lowered threshold

     Davidson diagonalization with overlap
     ethr =  3.27E-08,  avg # of iterations =  2.1

[...]

     total energy              =   -1527.73072405 Ry
     Harris-Foulkes estimate   =   -1527.73072405 Ry
     estimated scf accuracy    <       0.00000002 Ry

     iteration # 14     ecut=    40.00 Ry     beta=0.70
     Davidson diagonalization with overlap
     ethr =  9.62E-12,  avg # of iterations =  1.0

     negative rho (up, down):  0.361E-02 0.000E+00

     End of self-consistent calculation
 --- enter write_ns ---
 LDA+U parameters:
U( 2)     =  3.50000000
alpha( 2) =  0.00000000
atom    3   Tr[ns(na)] =   5.17800
    eigenvalues:
  0.351  0.408  0.508  0.572  0.750
    eigenvectors:
  0.000  0.000  0.000  0.398  0.602
  0.000  0.000  1.000  0.000  0.000
  0.007  0.993  0.000  0.000  0.000
  0.000  0.000  0.000  0.602  0.398
  0.993  0.007  0.000  0.000  0.000
    occupations:
  0.679  0.000  0.001 -0.087 -0.000
  0.000  0.508 -0.000  0.000  0.000
  0.001 -0.000  0.408 -0.000 -0.005
 -0.087  0.000 -0.000  0.643  0.000
 -0.000  0.000 -0.005  0.000  0.352
atom    4   Tr[ns(na)] =   5.23562
    eigenvalues:
  0.399  0.429  0.550  0.584  0.656
    eigenvectors:
  0.000  0.004  0.000  0.996  0.000
  0.000  0.995  0.000  0.004  0.001
  1.000  0.000  0.000  0.000  0.000
  0.000  0.001  0.000  0.000  0.999
  0.000  0.000  1.000  0.000  0.000
    occupations:
  0.583  0.010 -0.000  0.000 -0.000
  0.010  0.430  0.000 -0.007 -0.000
 -0.000  0.000  0.399  0.000  0.001
  0.000 -0.007  0.000  0.655  0.000
 -0.000 -0.000  0.001  0.000  0.550
atom    9   Tr[ns(na)] =   5.28294
    eigenvalues:
  0.449  0.463  0.507  0.610  0.612
    eigenvectors:
  0.886  0.000  0.000  0.114  0.000
  0.000  0.000  0.000  0.001  0.999
  0.000  0.000  1.000  0.000  0.000
  0.114  0.000  0.000  0.885  0.001
  0.000  1.000  0.000  0.000  0.000
    occupations:
  0.468 -0.000 -0.000  0.051  0.000
 -0.000  0.612  0.000 -0.000  0.000
 -0.000  0.000  0.507  0.000  0.000
  0.051 -0.000  0.000  0.591 -0.000
  0.000  0.000  0.000 -0.000  0.463
atom   10   Tr[ns(na)] =   5.12128
    eigenvalues:
  0.357  0.488  0.499  0.513  0.703
    eigenvectors:
  0.000  0.995  0.000  0.000  0.005
  0.000  0.000  1.000  0.000  0.000
  1.000  0.000  0.000  0.000  0.000
  0.000  0.005  0.000  0.000  0.995
  0.000  0.000  0.000  1.000  0.000
    occupations:
  0.489  0.000  0.000 -0.015 -0.000
  0.000  0.499 -0.000 -0.000 -0.000
  0.000 -0.000  0.357 -0.000  0.000
 -0.015 -0.000 -0.000  0.702 -0.000
 -0.000 -0.000  0.000 -0.000  0.513
atom   16   Tr[ns(na)] =   5.17799
    eigenvalues:
  0.351  0.408  0.508  0.572  0.750
    eigenvectors:
  0.000  0.000  0.000  0.398  0.602
  0.000  0.000  1.000  0.000  0.000
  0.007  0.993  0.000  0.000  0.000
  0.000  0.000  0.000  0.602  0.398
  0.993  0.007  0.000  0.000  0.000
    occupations:
  0.679  0.000  0.001 -0.087  0.000
  0.000  0.508  0.000  0.000  0.000
  0.001  0.000  0.408 -0.000 -0.005
 -0.087  0.000 -0.000  0.643 -0.000
  0.000  0.000 -0.005 -0.000  0.352
atom   17   Tr[ns(na)] =   5.23554
    eigenvalues:
  0.399  0.429  0.550  0.584  0.656
    eigenvectors:
  0.000  0.004  0.000  0.996  0.000
  0.000  0.995  0.000  0.004  0.001
  1.000  0.000  0.000  0.000  0.000
  0.000  0.001  0.000  0.000  0.999
  0.000  0.000  1.000  0.000  0.000
    occupations:
  0.583  0.010 -0.000  0.000 -0.000
  0.010  0.430  0.000 -0.007 -0.000
 -0.000  0.000  0.399  0.000  0.001
  0.000 -0.007  0.000  0.655  0.000
 -0.000 -0.000  0.001  0.000  0.550
atom   22   Tr[ns(na)] =   5.28294
    eigenvalues:
  0.449  0.463  0.507  0.610  0.612
    eigenvectors:
  0.886  0.000  0.000  0.114  0.000
  0.000  0.000  0.000  0.001  0.999
  0.000  0.000  1.000  0.000  0.000
  0.114  0.000  0.000  0.885  0.001
  0.000  1.000  0.000  0.000  0.000
    occupations:
  0.468 -0.000 -0.000  0.051  0.000
 -0.000  0.612  0.000 -0.000  0.000
 -0.000  0.000  0.507  0.000  0.000
  0.051 -0.000  0.000  0.591 -0.000
  0.000  0.000  0.000 -0.000  0.463
atom   23   Tr[ns(na)] =   5.12129
    eigenvalues:
  0.357  0.488  0.499  0.513  0.703
    eigenvectors:
  0.000  0.995  0.000  0.000  0.005
  0.000  0.000  1.000  0.000  0.000
  1.000  0.000  0.000  0.000  0.000
  0.000  0.005  0.000  0.000  0.995
  0.000  0.000  0.000  1.000  0.000
    occupations:
  0.489  0.000 -0.000 -0.015 -0.000
  0.000  0.499 -0.000 -0.000  0.000
 -0.000 -0.000  0.357 -0.000  0.000
 -0.015 -0.000 -0.000  0.702 -0.000
 -0.000  0.000  0.000 -0.000  0.513
N of occupied +U levels =  41.6355914
 --- exit write_ns ---

[...]

          k = 0.2500-0.4237 0.0000 ( 32188 PWs)   bands (ev):

[...]

          k =-0.2500 0.2118 0.0000 ( 32165 PWs)   bands (ev):

   -56.2164 -56.1505 -55.8284 -55.8228 -55.7725 -55.7654 -55.5011 -55.4454
   -33.0393 -32.4216 -32.2995 -32.2865 -32.2820 -32.2700 -32.2381 -32.2105
   -32.1967 -32.1576 -32.1479 -32.1260 -32.1002 -32.0312 -31.8390 -31.7502
   -31.6992 -31.6873 -31.6362 -31.6150 -31.5899 -31.5352 -31.4082 -31.1087
   -20.4438 -20.3172 -19.2999 -19.0567 -18.9578 -18.8568 -18.8360 -18.7605
   -18.7409 -18.6180 -18.6126 -18.5769 -18.1595 -18.0641 -18.0054 -17.9277
   -17.9217 -17.7656  -8.9766  -8.6315  -7.4948  -7.0362  -6.8823  -6.6414
    -6.4952  -6.4439  -6.3713  -6.2078  -6.2055  -6.1327  -6.1178  -5.9042
    -5.8651  -5.8279  -5.7814  -5.5640  -5.5317  -5.3594  -5.0707  -5.0680
    -5.0111  -4.9247  -4.7995  -4.6239  -4.4481  -4.3787  -4.2783  -4.2763
    -4.2593  -4.1791  -4.0051  -3.9633  -3.9362  -3.8811  -3.8337  -3.8317
    -3.5726  -3.5418  -3.5135  -3.4523  -3.3940  -3.3079  -3.1651  -3.1408
    -3.0302  -2.9787  -2.8570  -2.7500  -2.6504  -2.5586  -2.4885  -2.1911
    -0.7962   0.1514   0.2235   1.0294   1.0975   1.4152   1.6397   1.7598
     1.7736   1.9316   2.0035   2.2047   2.2467   2.3326   2.4549   2.4700
     2.5931   2.6638   2.6971   2.8412   2.9129   2.9575   2.9991   3.0617
     3.3021   3.3194   3.6733   4.2347   4.4710   4.5603   4.6827   4.7927
     4.9307   5.0248   5.0407   5.1684   5.2974   5.3832   5.4435   5.5997
     5.7507   5.8570   5.9137   5.9997   6.2122   6.2910   6.4083   6.4948
     6.5311   6.5412   6.6348   6.8005   6.9334   6.9822   7.1910   7.2495
     7.3286   7.5234   7.7248   7.7999   7.9313   7.9511   8.1495   8.1596
     8.2405   8.3233   8.4401   8.6486   8.7095   8.8571   9.0087   9.0794
     9.0852   9.2281   9.3262   9.4394   9.5542   9.5940   9.6515   9.7757
     9.8462   9.9796   9.9989  10.1761  10.2014  10.3984  10.4255  10.6173
    10.6843  10.7627  10.9412  10.9649  11.0214  11.0695  11.1631  11.2118
    11.2723  11.3929  11.4570  11.4623  11.5349  11.5653  11.7555  11.8794
    11.9197  12.0668  12.0939  12.1727  12.2351  12.2939  12.4479  12.4859
    12.6447  12.6692  12.7226  12.7748  12.8684  12.8710  12.9399  12.9572
    13.0355  13.0853  13.1799  13.2639  13.3102  13.4255  13.4915  13.5055
    13.6216  13.7094  13.7692  13.9003  13.9400  13.9442  13.9877  14.0792
    14.1151  14.2783  14.3287  14.4013  14.4844  14.6034  14.6188  14.8610
    14.8960  14.9087  15.0297  15.1437  15.2033  15.2592  15.2600  15.3766
    15.4017  15.4052  15.5144  15.5244  15.5955  15.7306  15.7664  15.8141
    15.8216  15.9042  16.0353  16.0382  16.0696  16.2681  16.2704  16.3960
    16.4551  16.5957  16.6139  16.6529  16.7358  16.7390  16.7848  16.8814
    16.9695  17.0081  17.0449  17.2345  17.2870  17.2873  17.3990  17.4425
    17.4904  17.5634  17.6337  17.6939  17.7382  17.8489  17.8720  18.0023
    18.0386  18.0548  18.1065  18.2605  18.3344  18.4415  18.5083  18.6028
    18.6332  18.7254  18.7348  18.8033  18.8747  18.9207  18.9361  19.0474
    19.1646  19.1973  19.2825  19.3031  19.3631  19.3774  19.4037  19.5291
    19.5473  19.6048  19.6456  19.7198

     the Fermi energy is     1.0270 ev

!    total energy              =   -1527.73072405 Ry
     Harris-Foulkes estimate   =   -1527.73072405 Ry
     estimated scf accuracy    <          4.8E-09 Ry

     The total energy is the sum of the following terms:

     one-electron contribution =  -18274.01418717 Ry
     hartree contribution      =    9163.61280310 Ry
     xc contribution           =    -279.69868509 Ry
     ewald contribution        =    7859.91982380 Ry
     Hubbard energy            =       2.44995569 Ry
     smearing contrib. (-TS)   =      -0.00043438 Ry

     convergence has been achieved in  14 iterations

     Forces acting on atoms (Ry/au):

     negative rho (up, down):  0.361E-02 0.000E+00
     atom    1 type  1   force =     0.00045083   -0.00034124    0.00006569
     atom    2 type  1   force =    -0.00064392    0.00052099    0.00069166
     atom    3 type  2   force =     0.00095079   -0.00032365    0.00032216
     atom    4 type  2   force =    -0.00380633    0.00020239   -0.00056637
     atom    5 type  1   force =     0.00047224   -0.02565653   -0.00001670
     atom    6 type  1   force =     0.00056023    0.02554251    0.00002351
     atom    7 type  1   force =     0.00004010    0.00007544   -0.00075129
     atom    8 type  1   force =     0.00159487   -0.00000129    0.00020412
     atom    9 type  2   force =    -0.00021341    0.00000746    0.00044595
     atom   10 type  2   force =     0.00008834   -0.00000734    0.00012926
     atom   11 type  1   force =    -0.00000542   -0.03984080   -0.00013391
     atom   12 type  1   force =    -0.00000156    0.03983354   -0.00012801
     atom   13 type  1   force =     0.00032896    0.00000053    0.00048608
     atom   14 type  1   force =     0.00045910   -0.00032941    0.00006724
     atom   15 type  1   force =    -0.00064894    0.00050681   -0.00079277
     atom   16 type  2   force =     0.00107293   -0.00032612    0.00032188
     atom   17 type  2   force =    -0.00380326    0.00020042   -0.00055263
     atom   18 type  1   force =     0.00047031   -0.02565591   -0.00001723
     atom   19 type  1   force =     0.00053513    0.02554346    0.00002358
     atom   20 type  1   force =     0.00003996    0.00006649   -0.00080873
     atom   21 type  1   force =     0.00159417   -0.00000224    0.00014023
     atom   22 type  2   force =    -0.00022672    0.00000757    0.00044591
     atom   23 type  2   force =     0.00008842   -0.00000949    0.00015441
     atom   24 type  1   force =    -0.00000607   -0.03984072   -0.00013391
     atom   25 type  1   force =    -0.00000475    0.03983360   -0.00012797
     atom   26 type  1   force =     0.00032902    0.00000059    0.00048958
     atom   27 type  3   force =    -0.00000954   -0.00020973   -0.00055713
     atom   28 type  3   force =    -0.00000554   -0.00023001    0.00076766
     atom   29 type  3   force =     0.00015263    0.00021745   -0.00009913
     atom   30 type  3   force =     0.00014740    0.00021523   -0.00009313

     Total force =     0.002317     Total SCF correction =     0.000293
     SCF correction compared to forces is large: reduce conv_thr to get better values

     bfgs converged in  10 scf cycles and   9 bfgs steps
     (criteria: energy < 0.10E-03, force < 0.10E-02)

     End of BFGS Geometry Optimization

     Final energy   =   -1527.7307240488 Ry
Begin final coordinates

ATOMIC_POSITIONS (crystal)
O0       0.000000000   0.000000000   0.374785654    0   0   1
O0       0.000000000   0.500000000   0.385192729    0   0   1
Nb1      0.250000000   0.500000000   0.440154171    0   0   1
Nb1      0.000000000   0.000000000   0.447662922    0   0   1
O0       0.250000000   0.790000000   0.447462205    0   0   1
O0       0.250000000   0.210000000   0.447448384    0   0   1
O0       0.000000000   0.500000000   0.497395434    0   0   1
O0       0.000000000   0.000000000   0.526395692    0   0   1
Nb1      0.250000000   0.000000000   0.581212412    0   0   1
Nb1      0.000000000   0.500000000   0.567260277    0   0   1
O0       0.250000000   0.710000000   0.581717657    0   0   1
O0       0.250000000   0.290000000   0.581717139    0   0   1
O0       0.000000000   0.000000000   0.625475242    0   0   1
O0       0.500000000   0.000000000   0.374785208    0   0   1
O0       0.500000000   0.500000000   0.385207227    0   0   1
Nb1      0.750000000   0.500000000   0.440154175    0   0   1
Nb1      0.500000000   0.000000000   0.447662094    0   0   1
O0       0.750000000   0.790000000   0.447462033    0   0   1
O0       0.750000000   0.210000000   0.447448611    0   0   1
O0       0.500000000   0.500000000   0.497397319    0   0   1
O0       0.500000000   0.000000000   0.526399732    0   0   1
Nb1      0.750000000   0.000000000   0.581212419    0   0   1
Nb1      0.500000000   0.500000000   0.567260889    0   0   1
O0       0.750000000   0.710000000   0.581717642    0   0   1
O0       0.750000000   0.290000000   0.581717158    0   0   1
O0       0.500000000   0.000000000   0.625475252    0   0   1
H2      -0.000486546   0.502328383   0.348935843
H2       0.499513396   0.502098481   0.348923709
H2       0.151518423  -0.000482801   0.359425662
H2       0.651519183  -0.000490941   0.359425108
End final coordinates

     General routines

     Parallel routines
     Hubbard U routines

   This run was terminated on:   9:24:39   9May2014

   JOB DONE.