     Program PWSCF v.5.0.2 (svn rev. 9656) starts on 15May2014 at  9: 7:59

     Current dimensions of program PWSCF are:
     Max number of different atomic species (ntypx) = 10
     Max number of k-points (npk) =  40000
     Max angular momentum in pseudopotentials (lmaxx) =  3
     Reading input from pwscf.in
Warning: card &CELL ignored
Warning: card / ignored

     Subspace diagonalization in iterative solution of the eigenvalue problem:
     a serial algorithm will be used

     Found symmetry operation: I + ( -0.5000  0.0000  0.0000)
     This is a supercell, fractional translations are disabled

     bravais-lattice index     =            0
     lattice parameter (alat)  =      11.2250  a.u.
     unit-cell volume          =    7005.5484 (a.u.)^3
     number of atoms/cell      =           30
     number of atomic types    =            3
     number of electrons       =       208.00
     number of Kohn-Sham states=          300
     kinetic-energy cutoff     =      40.0000  Ry
     charge density cutoff     =     500.0000  Ry
     convergence threshold     =      1.0E-06
     mixing beta               =       0.7000
     number of iterations used =            8  plain     mixing
     Exchange-correlation      = SLA  PW   PBE  PBE ( 1 4 3 4 0)
     EXX-fraction              =        0.00
     nstep                     =           50

     celldm(1)=  11.224973  celldm(2)=   0.000000  celldm(3)=   0.000000
     celldm(4)=   0.000000  celldm(5)=   0.000000  celldm(6)=   0.000000

     crystal axes: (cart. coord. in units of alat)
               a(1) = (   1.000000   0.000000   0.000000 )
               a(2) = (   0.000000   1.107086   0.000000 )
               a(3) = (   0.000000   0.000000   4.474090 )

     reciprocal axes: (cart. coord. in units 2 pi/alat)
               b(1) = (  1.000000  0.000000  0.000000 )
               b(2) = (  0.000000  0.903272  0.000000 )
               b(3) = (  0.000000  0.000000  0.223509 )

     PseudoPot. # 1 for O  read from file:
     /home/camp/zhonxu/pseudo/o_pbe_v1.01.uspp.F.UPF
     MD5 check sum: 2bcb18d16ea4b960afae9ec6d52f22d2
     Pseudo is Ultrasoft + core correction, Zval =  6.0
     Generated by new atomic code, or converted to UPF format
     Using radial grid of  737 points,  5 beta functions with:
                l(1) =   0
                l(2) =   0
                l(3) =   1
                l(4) =   1
                l(5) =   2
     Q(r) pseudized with  8 coefficients,  rinner =    0.900   0.900   0.900
                                                       0.900   0.900

     PseudoPot. # 2 for Ti read from file:
     /home/camp/zhonxu/pseudo/ti_pbe_v1.uspp.F.UPF
     MD5 check sum: bcc8f6961b3b91f0cac3ca967d22d0fb
     Pseudo is Ultrasoft + core correction, Zval = 12.0
     Generated by new atomic code, or converted to UPF format
     Using radial grid of  851 points,  6 beta functions with:
                l(1) =   0
                l(2) =   0
                l(3) =   1
                l(4) =   1
                l(5) =   2
                l(6) =   2
     Q(r) pseudized with  6 coefficients,  rinner =    1.000   1.000   1.000
                                                       1.000   1.000

     PseudoPot. # 3 for H  read from file:
     /home/camp/zhonxu/pseudo/h_pbe_v1.uspp.F.UPF
     MD5 check sum: 3408e3ff4ec8b0a4e358431e7e038a48
     Pseudo is Ultrasoft, Zval =  1.0
     Generated by new atomic code, or converted to UPF format
     Using radial grid of  615 points,  2 beta functions with:
                l(1) =   0
                l(2) =   0
     Q(r) pseudized with  8 coefficients,  rinner =    0.700

     atomic species   valence    mass     pseudopotential
        O0             6.00    15.99940     O ( 1.00)
        Ti1           12.00    47.88000     Ti( 1.00)
        H2             1.00     1.00794     H ( 1.00)

     Simplified LDA+U calculation (l_max = 2) with parameters (eV):
     atomic species    L          U    alpha       J0     beta
        Ti1            2     0.0000   0.0000   0.0000   0.0000

     No symmetry found

   Cartesian axes

     site n.     atom                  positions (alat units)
         1           O0  tau(   1) = (   0.0000000   0.0000000   1.6989461  )
         2           O0  tau(   2) = (   0.0000000   0.5535432   1.7901728  )
         3           Ti1 tau(   3) = (   0.2500000   0.5535432   2.0162933  )
         4           Ti1 tau(   4) = (   0.0000000   0.0000000   2.0248388  )
         5           O0  tau(   5) = (   0.2500000   0.8967400   2.0178145  )
         6           O0  tau(   6) = (   0.2500000   0.2103464   2.0226912  )
         7           O0  tau(   7) = (   0.0000000   0.5535432   2.2326603  )
         8           O0  tau(   8) = (   0.0000000   0.0000000   2.3559662  )
         9           Ti1 tau(   9) = (   0.2500000   0.0000000   2.5995804  )
        10           Ti1 tau(  10) = (   0.0000000   0.5535432   2.5483968  )
        11           O0  tau(  11) = (   0.2500000   0.7638896   2.5964932  )
        12           O0  tau(  12) = (   0.2500000   0.3431968   2.5965380  )
        13           O0  tau(  13) = (   0.0000000   0.0000000   2.7842708  )
        14           O0  tau(  14) = (   0.5000000   0.0000000   1.6989461  )
        15           O0  tau(  15) = (   0.5000000   0.5535432   1.7901728  )
        16           Ti1 tau(  16) = (   0.7500000   0.5535432   2.0162933  )
        17           Ti1 tau(  17) = (   0.5000000   0.0000000   2.0248388  )
        18           O0  tau(  18) = (   0.7500000   0.8967400   2.0178145  )
        19           O0  tau(  19) = (   0.7500000   0.2103464   2.0226912  )
        20           O0  tau(  20) = (   0.5000000   0.5535432   2.2326603  )
        21           O0  tau(  21) = (   0.5000000   0.0000000   2.3559662  )
        22           Ti1 tau(  22) = (   0.7500000   0.0000000   2.5995804  )
        23           Ti1 tau(  23) = (   0.5000000   0.5535432   2.5483968  )
        24           O0  tau(  24) = (   0.7500000   0.7638896   2.5964932  )
        25           O0  tau(  25) = (   0.7500000   0.3431968   2.5965380  )
        26           O0  tau(  26) = (   0.5000000   0.0000000   2.7842708  )
        27           H2  tau(  27) = (  -0.0005400   0.6991915   1.7063283  )
        28           H2  tau(  28) = (   0.4994600   0.6991915   1.7063283  )
        29           H2  tau(  29) = (   0.1501800   0.0252084   1.6321479  )
        30           H2  tau(  30) = (   0.6501800   0.0252084   1.6321479  )

     number of k points=    10  Methfessel-Paxton smearing, width (Ry)=  0.0100
                       cart. coord. in units 2pi/alat
        k(    1) = (   0.0000000   0.0000000   0.0000000), wk =   0.1250000
        k(    2) = (   0.0000000   0.2258180   0.0000000), wk =   0.2500000
        k(    3) = (   0.0000000  -0.4516359   0.0000000), wk =   0.1250000
        k(    4) = (   0.2500000   0.0000000   0.0000000), wk =   0.2500000
        k(    5) = (   0.2500000   0.2258180   0.0000000), wk =   0.2500000
        k(    6) = (   0.2500000  -0.4516359   0.0000000), wk =   0.2500000
        k(    7) = (  -0.5000000   0.0000000   0.0000000), wk =   0.1250000
        k(    8) = (  -0.5000000   0.2258180   0.0000000), wk =   0.2500000
        k(    9) = (  -0.5000000  -0.4516359   0.0000000), wk =   0.1250000
        k(   10) = (  -0.2500000   0.2258180   0.0000000), wk =   0.2500000

     Largest allocated arrays     est. size (Mb)     dimensions
     Largest temporary arrays     est. size (Mb)     dimensions

     Check: negative/imaginary core charge=   -0.000005    0.000000

     Initial potential from superposition of free atoms
     Check: negative starting charge=   -0.102816

     starting charge  199.99958, renormalised to  208.00000

     negative rho (up, down):  0.107E+00 0.000E+00
     Number of +U iterations with fixed ns =  0
     Starting occupations:
 --- enter write_ns ---
 LDA+U parameters:
U( 2)     =  0.00000000
alpha( 2) =  0.00000000
atom    3   Tr[ns(na)] =   2.00000
    eigenvalues:
  0.200  0.200  0.200  0.200  0.200
    eigenvectors:
  1.000  0.000  0.000  0.000  0.000
  0.000  1.000  0.000  0.000  0.000
  0.000  0.000  1.000  0.000  0.000
  0.000  0.000  0.000  1.000  0.000
  0.000  0.000  0.000  0.000  1.000
    occupations:
  0.200  0.000  0.000  0.000  0.000
  0.000  0.200  0.000  0.000  0.000
  0.000  0.000  0.200  0.000  0.000
  0.000  0.000  0.000  0.200  0.000
  0.000  0.000  0.000  0.000  0.200
atom    4   Tr[ns(na)] =   2.00000
    eigenvalues:
  0.200  0.200  0.200  0.200  0.200
    eigenvectors:
  1.000  0.000  0.000  0.000  0.000
  0.000  1.000  0.000  0.000  0.000
  0.000  0.000  1.000  0.000  0.000
  0.000  0.000  0.000  1.000  0.000
  0.000  0.000  0.000  0.000  1.000
    occupations:
  0.200  0.000  0.000  0.000  0.000
  0.000  0.200  0.000  0.000  0.000
  0.000  0.000  0.200  0.000  0.000
  0.000  0.000  0.000  0.200  0.000
  0.000  0.000  0.000  0.000  0.200
atom    9   Tr[ns(na)] =   2.00000
    eigenvalues:
  0.200  0.200  0.200  0.200  0.200
    eigenvectors:
  1.000  0.000  0.000  0.000  0.000
  0.000  1.000  0.000  0.000  0.000
  0.000  0.000  1.000  0.000  0.000
  0.000  0.000  0.000  1.000  0.000
  0.000  0.000  0.000  0.000  1.000
    occupations:
  0.200  0.000  0.000  0.000  0.000
  0.000  0.200  0.000  0.000  0.000
  0.000  0.000  0.200  0.000  0.000
  0.000  0.000  0.000  0.200  0.000
  0.000  0.000  0.000  0.000  0.200
atom   10   Tr[ns(na)] =   2.00000
    eigenvalues:
  0.200  0.200  0.200  0.200  0.200
    eigenvectors:
  1.000  0.000  0.000  0.000  0.000
  0.000  1.000  0.000  0.000  0.000
  0.000  0.000  1.000  0.000  0.000
  0.000  0.000  0.000  1.000  0.000
  0.000  0.000  0.000  0.000  1.000
    occupations:
  0.200  0.000  0.000  0.000  0.000
  0.000  0.200  0.000  0.000  0.000
  0.000  0.000  0.200  0.000  0.000
  0.000  0.000  0.000  0.200  0.000
  0.000  0.000  0.000  0.000  0.200
atom   16   Tr[ns(na)] =   2.00000
    eigenvalues:
  0.200  0.200  0.200  0.200  0.200
    eigenvectors:
  1.000  0.000  0.000  0.000  0.000
  0.000  1.000  0.000  0.000  0.000
  0.000  0.000  1.000  0.000  0.000
  0.000  0.000  0.000  1.000  0.000
  0.000  0.000  0.000  0.000  1.000
    occupations:
  0.200  0.000  0.000  0.000  0.000
  0.000  0.200  0.000  0.000  0.000
  0.000  0.000  0.200  0.000  0.000
  0.000  0.000  0.000  0.200  0.000
  0.000  0.000  0.000  0.000  0.200
atom   17   Tr[ns(na)] =   2.00000
    eigenvalues:
  0.200  0.200  0.200  0.200  0.200
    eigenvectors:
  1.000  0.000  0.000  0.000  0.000
  0.000  1.000  0.000  0.000  0.000
  0.000  0.000  1.000  0.000  0.000
  0.000  0.000  0.000  1.000  0.000
  0.000  0.000  0.000  0.000  1.000
    occupations:
  0.200  0.000  0.000  0.000  0.000
  0.000  0.200  0.000  0.000  0.000
  0.000  0.000  0.200  0.000  0.000
  0.000  0.000  0.000  0.200  0.000
  0.000  0.000  0.000  0.000  0.200
atom   22   Tr[ns(na)] =   2.00000
    eigenvalues:
  0.200  0.200  0.200  0.200  0.200
    eigenvectors:
  1.000  0.000  0.000  0.000  0.000
  0.000  1.000  0.000  0.000  0.000
  0.000  0.000  1.000  0.000  0.000
  0.000  0.000  0.000  1.000  0.000
  0.000  0.000  0.000  0.000  1.000
    occupations:
[...]
  0.000  1.000  0.000  0.000  0.000
    occupations:
  0.289 -0.000  0.000  0.031 -0.000
 -0.000  0.446  0.000  0.000  0.000
  0.000  0.000  0.489  0.001  0.000
  0.031  0.000  0.001  0.585 -0.000
 -0.000  0.000  0.000 -0.000  0.332
N of occupied +U levels =  22.9972140
 --- exit write_ns ---

     negative rho (up, down):  0.101E+00 0.000E+00

     total energy              =   -1499.40040954 Ry
     Harris-Foulkes estimate   =   -1536.80505426 Ry
     estimated scf accuracy    <      42.40024679 Ry

     iteration #  2     ecut=    40.00 Ry     beta=0.70
     Davidson diagonalization with overlap
     ethr =  1.00E-02,  avg # of iterations =  7.0

[...]

     total energy              =   -1534.98271483 Ry
     Harris-Foulkes estimate   =   -1534.98271596 Ry
     estimated scf accuracy    <       0.00000311 Ry

     iteration # 20     ecut=    40.00 Ry     beta=0.70
     Davidson diagonalization with overlap
     ethr =  1.50E-09,  avg # of iterations =  1.4

     negative rho (up, down):  0.102E+00 0.000E+00

     End of self-consistent calculation
 --- enter write_ns ---
 LDA+U parameters:
U( 2)     =  0.00000000
alpha( 2) =  0.00000000
atom    3   Tr[ns(na)] =   2.85228
    eigenvalues:
  0.184  0.208  0.240  0.396  0.400
    eigenvectors:
  0.793  0.000  0.010  0.197  0.000
  0.000  0.003  0.000  0.000  0.997
  0.010  0.000  0.990  0.000  0.000
  0.197  0.000  0.001  0.802  0.000
  0.000  0.997  0.000  0.000  0.003
    occupations:
  0.226 -0.000 -0.003  0.084 -0.000
 -0.000  0.399  0.000  0.000  0.010
 -0.003  0.000  0.239  0.005 -0.000
  0.084  0.000  0.005  0.354 -0.000
 -0.000  0.010 -0.000 -0.000  0.208
atom    4   Tr[ns(na)] =   2.98213
    eigenvalues:
  0.185  0.222  0.249  0.407  0.429
    eigenvectors:
  0.006  0.004  0.000  0.000  0.990
  0.001  0.957  0.037  0.000  0.004
  0.000  0.036  0.963  0.000  0.000
  0.993  0.002  0.000  0.000  0.005
  0.000  0.000  0.000  1.000  0.000
    occupations:
  0.426  0.014  0.003 -0.018 -0.000
  0.014  0.223 -0.005  0.000 -0.002
  0.003 -0.005  0.248  0.001 -0.000
 -0.018  0.000  0.001  0.186 -0.000
 -0.000 -0.002 -0.000 -0.000  0.406
atom    9   Tr[ns(na)] =   2.96500
    eigenvalues:
  0.196  0.234  0.252  0.371  0.430
    eigenvectors:
  0.000  0.000  0.925  0.075  0.000
  0.000  0.000  0.000  0.000  1.000
  1.000  0.000  0.000  0.000  0.000
  0.000  0.000  0.075  0.925  0.000
  0.000  1.000  0.000  0.000  0.000
    occupations:
  0.261 -0.000 -0.000  0.031  0.000
 -0.000  0.430  0.000 -0.000 -0.000
 -0.000  0.000  0.196  0.000  0.000
  0.031 -0.000  0.000  0.362 -0.000
  0.000 -0.000  0.000 -0.000  0.234
atom   10   Tr[ns(na)] =   2.89507
    eigenvalues:
  0.196  0.243  0.246  0.336  0.427
    eigenvectors:
  0.024  0.000  0.000  0.976  0.000
  0.000  0.001  0.999  0.000  0.000
  0.000  0.999  0.001  0.000  0.000
  0.976  0.000  0.000  0.024  0.000
  0.000  0.000  0.000  0.000  1.000
    occupations:
  0.333 -0.000 -0.000 -0.021 -0.000
 -0.000  0.246 -0.000 -0.000  0.000
 -0.000 -0.000  0.243 -0.000  0.000
 -0.021 -0.000 -0.000  0.200 -0.000
 -0.000  0.000  0.000 -0.000  0.427
atom   16   Tr[ns(na)] =   2.85228
    eigenvalues:
  0.184  0.208  0.240  0.396  0.400
    eigenvectors:
  0.793  0.000  0.010  0.197  0.000
  0.000  0.003  0.000  0.000  0.997
  0.010  0.000  0.990  0.000  0.000
  0.197  0.000  0.001  0.802  0.000
  0.000  0.997  0.000  0.000  0.003
    occupations:
  0.226 -0.000 -0.003  0.084 -0.000
 -0.000  0.399  0.000  0.000  0.010
 -0.003  0.000  0.239  0.005 -0.000
  0.084  0.000  0.005  0.354 -0.000
 -0.000  0.010 -0.000 -0.000  0.208
atom   17   Tr[ns(na)] =   2.98213
    eigenvalues:
  0.185  0.222  0.249  0.407  0.429
    eigenvectors:
  0.006  0.004  0.000  0.000  0.990
  0.001  0.957  0.037  0.000  0.004
  0.000  0.036  0.963  0.000  0.000
  0.993  0.002  0.000  0.000  0.005
  0.000  0.000  0.000  1.000  0.000
    occupations:
  0.426  0.014  0.003 -0.018 -0.000
  0.014  0.223 -0.005  0.000 -0.002
  0.003 -0.005  0.248  0.001 -0.000
 -0.018  0.000  0.001  0.186 -0.000
 -0.000 -0.002 -0.000 -0.000  0.406
atom   22   Tr[ns(na)] =   2.96500
    eigenvalues:
  0.196  0.234  0.252  0.371  0.430
    eigenvectors:
  0.000  0.000  0.925  0.075  0.000
  0.000  0.000  0.000  0.000  1.000
  1.000  0.000  0.000  0.000  0.000
  0.000  0.000  0.075  0.925  0.000
  0.000  1.000  0.000  0.000  0.000
    occupations:
  0.261 -0.000 -0.000  0.031  0.000
 -0.000  0.430  0.000 -0.000 -0.000
 -0.000  0.000  0.196  0.000  0.000
  0.031 -0.000  0.000  0.362 -0.000
  0.000 -0.000  0.000 -0.000  0.234
atom   23   Tr[ns(na)] =   2.89507
    eigenvalues:
  0.196  0.243  0.246  0.336  0.427
    eigenvectors:
  0.024  0.000  0.000  0.976  0.000
  0.000  0.001  0.999  0.000  0.000
  0.000  0.999  0.001  0.000  0.000
  0.976  0.000  0.000  0.024  0.000
  0.000  0.000  0.000  0.000  1.000
    occupations:
  0.333 -0.000 -0.000 -0.021 -0.000
 -0.000  0.246 -0.000 -0.000  0.000
 -0.000 -0.000  0.243 -0.000  0.000
 -0.021 -0.000 -0.000  0.200 -0.000
 -0.000  0.000  0.000 -0.000  0.427
N of occupied +U levels =  23.3889723
 --- exit write_ns ---

          k = 0.0000 0.0000 0.0000 ( 29975 PWs)   bands (ev):

   -60.6731 -60.6351 -60.2349 -60.1966 -59.1130 -59.0718 -58.7466 -58.7056
   -37.2595 -36.9492 -36.8457 -36.8417 -36.7504 -36.7149 -36.6947 -36.5876
   -36.5586 -36.4431 -36.3438 -36.2708 -35.7754 -35.4666 -35.3587 -35.3127
   -35.2579 -35.2247 -35.1829 -35.0900 -35.0598 -34.9974 -34.8985 -34.7770
   -22.2752 -21.9885 -20.9804 -20.7452 -20.4995 -20.3878 -19.7946 -19.6705
   -19.6587 -19.6283 -19.4238 -19.3555 -19.3071 -19.1394 -18.9535 -18.4656
   -18.0473 -18.0457 -10.0223  -9.5662  -8.3706  -8.3194  -8.3016  -8.1255
    -8.0524  -7.6936  -7.5104  -7.2974  -7.2842  -7.1103  -7.0758  -6.8900
    -6.7959  -6.7828  -6.7687  -6.7431  -6.6593  -6.6313  -6.2543  -6.0922
    -5.9842  -5.7133  -5.6914  -5.5526  -5.5270  -5.5020  -5.4924  -5.4552
    -5.3484  -5.2059  -5.1509  -4.9064  -4.8785  -4.7799  -4.7333  -4.7210
    -4.5974  -4.3700  -4.1782  -4.0858  -3.8792  -3.7841  -3.7422  -3.4782
    -3.4457  -3.3467  -3.3262  -3.0682  -3.0471  -3.0123  -2.8359  -2.7353
    -1.7032  -1.1377  -1.0811  -1.0529  -0.9019  -0.6527  -0.6144  -0.5592
    -0.4980  -0.1597  -0.1409  -0.0296   0.2384   0.4199   0.5027   0.5092
     0.6473   0.7487   0.7532   0.9010   1.0267   1.2201   1.3348   1.3490
     1.7938   1.8018   1.8766   1.9373   2.0095   2.1793   2.5920   2.6387
     3.0881   3.1731   3.2190   3.3155   3.4685   3.5716   3.6306   3.9056
     4.1346   4.2811   4.5322   4.5590   4.8687   5.2514   5.5916   5.6887
     5.7762   6.4220   6.5797   6.5880   6.7933   6.9205   7.0863   7.1158
     7.1316   7.3198   7.4534   7.5689   7.6765   7.7103   7.7267   7.8840
     7.9302   8.0462   8.1397   8.2398   8.3135   8.4769   8.5143   8.5937
     8.6133   8.7770   8.8623   8.8854   9.1096   9.1319   9.2117   9.3277
     9.3509   9.6145   9.7283   9.8345   9.8965   9.9020  10.1341  10.5534
    10.6255  10.6646  10.6795  10.7142  10.7633  10.8211  10.8767  10.9407
    11.0378  11.0997  11.1556  11.2687  11.3172  11.3348  11.3758  11.3833
    11.4081  11.4990  11.5891  11.6351  11.7682  11.7914  11.8299  11.9392
    12.0362  12.1516  12.2008  12.2340  12.2536  12.3017  12.3166  12.3922
    12.5580  12.7134  12.7633  12.9125  12.9271  12.9827  13.0440  13.1602
    13.3702  13.4596  13.4769  13.4951  13.5986  13.7239  13.7749  13.9665
    13.9990  14.0553  14.0884  14.2238  14.3067  14.3874  14.4546  14.5144
    14.6636  14.7786  14.7942  14.9101  15.0343  15.0718  15.1477  15.1806
    15.2160  15.4046  15.4358  15.4804  15.4919  15.7337  15.7610  16.1299
    16.1324  16.2851  16.3444  16.3869  16.5030  16.5182  16.5718  16.6104
    16.6119  16.8692  16.9080  16.9442  17.0804  17.3132  17.3480  17.3762
    17.4435  17.5664  17.5690  17.5875  17.6425  17.7260  17.7726  17.9905
    18.0221  18.0296  18.0603  18.1164  18.1826  18.1934  18.3013  18.3435
    18.5085  18.5086  18.5651  18.6320

[...]

          k = 0.2500-0.4516 0.0000 ( 29882 PWs)   bands (ev):

[...]

          k =-0.5000 0.0000 0.0000 ( 29982 PWs)   bands (ev):

[...]

          k =-0.2500 0.2258 0.0000 ( 29912 PWs)   bands (ev):

   -60.6675 -60.6407 -60.2293 -60.2022 -59.1070 -59.0779 -58.7406 -58.7116
   -37.2010 -36.9348 -36.9076 -36.8573 -36.7438 -36.7209 -36.6368 -36.5830
   -36.5612 -36.4274 -36.3584 -36.3349 -35.7085 -35.4533 -35.3819 -35.3749
   -35.2199 -35.2074 -35.1735 -35.0872 -35.0636 -34.9874 -34.9112 -34.8448
   -22.2019 -21.9997 -20.9479 -20.8049 -20.3088 -20.2189 -19.8876 -19.7299
   -19.6414 -19.5689 -19.5490 -19.5015 -19.3009 -19.2840 -18.7989 -18.4100
   -18.1761 -18.1039  -9.9292  -9.6250  -8.2010  -8.0573  -7.9026  -7.8942
    -7.8472  -7.7950  -7.4626  -7.4340  -7.2082  -7.1992  -7.0079  -6.9452
    -6.9164  -6.8488  -6.7999  -6.5472  -6.5408  -6.3371  -6.2294  -6.1815
    -6.1045  -5.8150  -5.8128  -5.6676  -5.6342  -5.4635  -5.4336  -5.3782
    -5.2831  -5.1829  -5.1427  -5.0804  -4.9612  -4.9036  -4.8365  -4.7833
    -4.6815  -4.5825  -4.5110  -4.4830  -3.9801  -3.8593  -3.7848  -3.5362
    -3.4872  -3.4321  -3.3411  -3.2997  -3.2123  -2.9801  -2.8797  -2.7349
    -1.5060  -1.1810  -1.0372  -0.9838  -0.9110  -0.7440  -0.6548  -0.5475
    -0.2249  -0.1157   0.0121   0.0202   0.1422   0.3854   0.6143   0.6167
     0.7261   0.7670   1.0110   1.0163   1.1110   1.2354   1.4293   1.4603
     1.6101   1.7097   1.7995   1.9313   1.9315   2.1253   2.2317   2.7929
     3.0878   3.3435   3.4473   3.6594   3.7543   3.7894   3.8288   4.0416
     4.1061   4.4689   4.5121   4.6819   4.9423   4.9844   5.2186   5.6565
     5.8379   5.8610   5.9865   6.0937   6.1179   6.4052   6.4291   6.7891
     6.7998   7.1418   7.2151   7.3778   7.4992   7.7322   7.8187   7.8673
     7.8978   7.9670   8.0266   8.1975   8.4411   8.5252   8.5987   8.8266
     8.8383   8.9674   9.2135   9.2980   9.3683   9.3694   9.3986   9.5331
     9.6279   9.6347   9.9331   9.9412  10.0516  10.1784  10.2599  10.3566
    10.4673  10.6351  10.6373  10.6956  10.8675  10.8694  11.0050  11.0602
    11.1469  11.2716  11.3204  11.3956  11.4155  11.4466  11.5968  11.6540
    11.8257  11.8554  11.9131  11.9653  11.9717  12.0921  12.1099  12.2865
    12.3537  12.3757  12.4928  12.6094  12.6832  12.7216  12.7917  12.8735
    12.9074  13.0101  13.1473  13.2098  13.3284  13.3949  13.4737  13.5636
    13.6255  13.7053  13.7914  13.7965  13.8914  13.9423  14.0265  14.1233
    14.1645  14.2677  14.3257  14.3512  14.5107  14.5855  14.6336  14.6368
    14.7920  14.8106  14.9139  14.9525  15.0685  15.1217  15.1869  15.2497
    15.3681  15.4019  15.4701  15.5563  15.6284  15.7555  15.7653  15.8409
    15.8424  15.9342  15.9425  16.1160  16.1736  16.2407  16.2549  16.3743
    16.4058  16.5173  16.6849  16.7216  16.7722  16.8330  16.8432  16.8823
    17.0035  17.0196  17.0492  17.1074  17.2548  17.2632  17.3104  17.3881
    17.4466  17.4746  17.5462  17.5995  17.7698  17.8401  17.9230  18.0095
    18.0650  18.1771  18.2339  18.3179

     the Fermi energy is    -2.6380 ev

!    total energy              =   -1534.98271494 Ry
     Harris-Foulkes estimate   =   -1534.98271553 Ry
     estimated scf accuracy    <       0.00000065 Ry

     The total energy is the sum of the following terms:

     one-electron contribution =  -18418.67340399 Ry
     hartree contribution      =    9224.33299808 Ry
     xc contribution           =    -269.92203231 Ry
     ewald contribution        =    7929.27853540 Ry
     Hubbard energy            =       0.00000000 Ry
     smearing contrib. (-TS)   =       0.00118788 Ry

     convergence has been achieved in  20 iterations

     Forces acting on atoms (Ry/au):

     negative rho (up, down):  0.102E+00 0.000E+00
     atom    1 type  1   force =     0.00040879   -0.01557025   -0.00083537
     atom    2 type  1   force =     0.00002440    0.02397617   -0.00014822
     atom    3 type  2   force =     0.00019252   -0.01619669   -0.00020541
     atom    4 type  2   force =    -0.00646205    0.00821144   -0.00015757
     atom    5 type  1   force =     0.00400494   -0.10934790    0.00020010
     atom    6 type  1   force =    -0.00142878    0.10929140    0.00007075
     atom    7 type  1   force =    -0.00005959    0.00110250   -0.00040393
     atom    8 type  1   force =     0.00337495   -0.00155107    0.00070171
     atom    9 type  2   force =    -0.00087965    0.00009860    0.00089049
     atom   10 type  2   force =    -0.00005444   -0.00025278   -0.00026517
     atom   11 type  1   force =     0.00008379   -0.04289950    0.00034989
     atom   12 type  1   force =    -0.00000436    0.04294886    0.00036643
     atom   13 type  1   force =     0.00063439   -0.00004849    0.00049497
     atom   14 type  1   force =     0.00040891   -0.01557014   -0.00083564
     atom   15 type  1   force =     0.00002437    0.02397615   -0.00014830
     atom   16 type  2   force =     0.00019257   -0.01619666   -0.00020539
     atom   17 type  2   force =    -0.00646209    0.00821148   -0.00015760
     atom   18 type  1   force =     0.00400527   -0.10934791    0.00020006
     atom   19 type  1   force =    -0.00142849    0.10929157    0.00007057
     atom   20 type  1   force =    -0.00005968    0.00110255   -0.00040388
     atom   21 type  1   force =     0.00337483   -0.00155110    0.00070206
     atom   22 type  2   force =    -0.00087958    0.00009862    0.00089054
     atom   23 type  2   force =    -0.00005440   -0.00025278   -0.00026521
     atom   24 type  1   force =     0.00008378   -0.04289968    0.00034990
     atom   25 type  1   force =    -0.00000444    0.04294894    0.00036638
     atom   26 type  1   force =     0.00063425   -0.00004841    0.00049498
     atom   27 type  3   force =     0.00004555   -0.00005309   -0.00052544
     atom   28 type  3   force =     0.00004556   -0.00005309   -0.00052543
     atom   29 type  3   force =     0.00011930    0.00029062   -0.00053310
     atom   30 type  3   force =     0.00011936    0.00029063   -0.00053314

     Total force =     0.002652     Total SCF correction =     0.001738
     SCF correction compared to forces is large: reduce conv_thr to get better values

     BFGS Geometry Optimization

     bfgs converged in   1 scf cycles and   0 bfgs steps
     (criteria: energy < 0.10E-03, force < 0.10E-02)

     End of BFGS Geometry Optimization

     Final energy   =   -1534.9827149380 Ry
Begin final coordinates

ATOMIC_POSITIONS (crystal)
O0       0.000000000   0.000000000   0.379730000    0   0   1
O0       0.000000000   0.500000000   0.400120000    0   0   1
Ti1      0.250000000   0.500000000   0.450660000    0   0   1
Ti1      0.000000000   0.000000000   0.452570000    0   0   1
O0       0.250000000   0.810000000   0.451000000    0   0   1
O0       0.250000000   0.190000000   0.452090000    0   0   1
O0       0.000000000   0.500000000   0.499020000    0   0   1
O0       0.000000000   0.000000000   0.526580000    0   0   1
Ti1      0.250000000   0.000000000   0.581030000    0   0   1
Ti1      0.000000000   0.500000000   0.569590000    0   0   1
O0       0.250000000   0.690000000   0.580340000    0   0   1
O0       0.250000000   0.310000000   0.580350000    0   0   1
O0       0.000000000   0.000000000   0.622310000    0   0   1
O0       0.500000000   0.000000000   0.379730000    0   0   1
O0       0.500000000   0.500000000   0.400120000    0   0   1
Ti1      0.750000000   0.500000000   0.450660000    0   0   1
Ti1      0.500000000   0.000000000   0.452570000    0   0   1
O0       0.750000000   0.810000000   0.451000000    0   0   1
O0       0.750000000   0.190000000   0.452090000    0   0   1
O0       0.500000000   0.500000000   0.499020000    0   0   1
O0       0.500000000   0.000000000   0.526580000    0   0   1
Ti1      0.750000000   0.000000000   0.581030000    0   0   1
Ti1      0.500000000   0.500000000   0.569590000    0   0   1
O0       0.750000000   0.690000000   0.580340000    0   0   1
O0       0.750000000   0.310000000   0.580350000    0   0   1
O0       0.500000000   0.000000000   0.622310000    0   0   1
H2      -0.000540000   0.631560000   0.381380000
H2       0.499460000   0.631560000   0.381380000
H2       0.150180000   0.022770000   0.364800000
H2       0.650180000   0.022770000   0.364800000
End final coordinates

     General routines

     Parallel routines
     Hubbard U routines

   This run was terminated on:  10:18: 7  15May2014

   JOB DONE.
Running PBS batch system epilogue script
Job id: 359655.audhumbla.fysik.dtu.dk
Username: zhonxu
Groupname: campgst
Jobname: TiO2/Eads-2-layers/bare-U-0.0
Sessionid: 28881
Queuename: verylong
Accounting:
This job has allocated the following 16 nodes:
a112 a112 a112 a112 a112 a112 a112 a112 a005 a005 a005 a005 a005 a005 a005 a005
Finished epilogue job 359655.audhumbla.fysik.dtu.dk for zhonxu