     Program PWSCF v.5.0.2 (svn rev. 9656) starts on 23Jan2014 at 18:43:27

     Current dimensions of program PWSCF are:
     Max number of different atomic species (ntypx) = 10
     Max number of k-points (npk) =  40000
     Max angular momentum in pseudopotentials (lmaxx) =  3
     Reading input from RhO2-v-0.8.in

     Subspace diagonalization in iterative solution of the eigenvalue problem:
     a serial algorithm will be used

     bravais-lattice index     =            0
     lattice parameter (alat)  =       8.0383  a.u.
     unit-cell volume          =     334.7174 (a.u.)^3
     number of atoms/cell      =            6
     number of atomic types    =            2
     number of electrons       =        54.00
     number of Kohn-Sham states=           81
     kinetic-energy cutoff     =      40.0000  Ry
     charge density cutoff     =     500.0000  Ry
     convergence threshold     =      1.0E-06
     mixing beta               =       0.7000
     number of iterations used =            8  plain     mixing
     Exchange-correlation      = SLA  PW   PBE  PBE ( 1 4 3 4 0)
     EXX-fraction              =        0.00
     nstep                     =           50

     celldm(1)=   8.038301  celldm(2)=   0.000000  celldm(3)=   0.000000
     celldm(4)=   0.000000  celldm(5)=   0.000000  celldm(6)=   0.000000

     crystal axes: (cart. coord. in units of alat)
               a(1) = (   1.000000   0.000000   0.000000 )
               a(2) = (   0.000000   1.000000   0.000000 )
               a(3) = (   0.000000   0.000000   0.644444 )

     reciprocal axes: (cart. coord. in units 2 pi/alat)
               b(1) = (  1.000000  0.000000  0.000000 )
               b(2) = (  0.000000  1.000000  0.000000 )
               b(3) = (  0.000000  0.000000  1.551724 )

     PseudoPot. # 1 for Rh read from file:
     /home/camp/zhonxu/pseudo/rh_pbe_v1.uspp.F.UPF
     MD5 check sum: 37b626987ad0dd8ec6bf4cc9ef289918
     Pseudo is Ultrasoft + core correction, Zval = 15.0
     Generated by new atomic code, or converted to UPF format
     Using radial grid of  969 points,  7 beta functions with:
                l(1) =   0
                l(2) =   0
                l(3) =   1
                l(4) =   1
                l(5) =   2
                l(6) =   2
                l(7) =   2
     Q(r) pseudized with  6 coefficients,  rinner =    1.050   1.050   1.050
                                                       1.050   1.050

     PseudoPot. # 2 for O  read from file:
     /home/camp/zhonxu/pseudo/o_pbe_v1.01.uspp.F.UPF
     MD5 check sum: 2bcb18d16ea4b960afae9ec6d52f22d2
     Pseudo is Ultrasoft + core correction, Zval =  6.0
     Generated by new atomic code, or converted to UPF format
     Using radial grid of  737 points,  5 beta functions with:
                l(1) =   0
                l(2) =   0
                l(3) =   1
                l(4) =   1
                l(5) =   2
     Q(r) pseudized with  8 coefficients,  rinner =    0.900   0.900   0.900
                                                       0.900   0.900

     atomic species   valence    mass     pseudopotential
        Rh0           15.00   102.90550     Rh( 1.00)
        O1             6.00    15.99940     O ( 1.00)

     Starting magnetic structure
     atomic species   magnetization
        Rh0          0.600
        O1           0.000

     16 Sym. Ops., with inversion, found ( 8 have fractional translation)

   Cartesian axes

     site n.     atom                  positions (alat units)
         1           Rh0 tau(   1) = (   0.0000000   0.0000000   0.0000000  )
         2           Rh0 tau(   2) = (   0.5000000   0.5000000   0.3222222  )
         3           O1  tau(   3) = (   0.3050000   0.3050000   0.0000000  )
         4           O1  tau(   4) = (  -0.3050000  -0.3050000   0.0000000  )
         5           O1  tau(   5) = (   0.8050000   0.1950000   0.3222222  )
         6           O1  tau(   6) = (   0.1950000   0.8050000   0.3222222  )

     number of k points=    36  Methfessel-Paxton smearing, width (Ry)=  0.0100
                       cart. coord. in units 2pi/alat
        k(    1) = (   0.0000000   0.0000000   0.0000000), wk =   0.0080000
        k(    2) = (   0.0000000   0.0000000   0.3103448), wk =   0.0160000
        k(    3) = (   0.0000000   0.0000000   0.6206897), wk =   0.0160000
        k(    4) = (   0.0000000   0.2000000   0.0000000), wk =   0.0320000
        k(    5) = (   0.0000000   0.2000000   0.3103448), wk =   0.0640000
        k(    6) = (   0.0000000   0.2000000   0.6206897), wk =   0.0640000
        k(    7) = (   0.0000000   0.4000000   0.0000000), wk =   0.0320000
        k(    8) = (   0.0000000   0.4000000   0.3103448), wk =   0.0640000
        k(    9) = (   0.0000000   0.4000000   0.6206897), wk =   0.0640000
        k(   10) = (   0.2000000   0.2000000   0.0000000), wk =   0.0320000
        k(   11) = (   0.2000000   0.2000000   0.3103448), wk =   0.0640000
        k(   12) = (   0.2000000   0.2000000   0.6206897), wk =   0.0640000
        k(   13) = (   0.2000000   0.4000000   0.0000000), wk =   0.0640000
        k(   14) = (   0.2000000   0.4000000   0.3103448), wk =   0.1280000
        k(   15) = (   0.2000000   0.4000000   0.6206897), wk =   0.1280000
        k(   16) = (   0.4000000   0.4000000   0.0000000), wk =   0.0320000
        k(   17) = (   0.4000000   0.4000000   0.3103448), wk =   0.0640000
        k(   18) = (   0.4000000   0.4000000   0.6206897), wk =   0.0640000
        k(   19) = (   0.0000000   0.0000000   0.0000000), wk =   0.0080000
        k(   20) = (   0.0000000   0.0000000   0.3103448), wk =   0.0160000
        k(   21) = (   0.0000000   0.0000000   0.6206897), wk =   0.0160000
        k(   22) = (   0.0000000   0.2000000   0.0000000), wk =   0.0320000
        k(   23) = (   0.0000000   0.2000000   0.3103448), wk =   0.0640000
        k(   24) = (   0.0000000   0.2000000   0.6206897), wk =   0.0640000
        k(   25) = (   0.0000000   0.4000000   0.0000000), wk =   0.0320000
        k(   26) = (   0.0000000   0.4000000   0.3103448), wk =   0.0640000
        k(   27) = (   0.0000000   0.4000000   0.6206897), wk =   0.0640000
        k(   28) = (   0.2000000   0.2000000   0.0000000), wk =   0.0320000
        k(   29) = (   0.2000000   0.2000000   0.3103448), wk =   0.0640000
        k(   30) = (   0.2000000   0.2000000   0.6206897), wk =   0.0640000
        k(   31) = (   0.2000000   0.4000000   0.0000000), wk =   0.0640000
        k(   32) = (   0.2000000   0.4000000   0.3103448), wk =   0.1280000
        k(   33) = (   0.2000000   0.4000000   0.6206897), wk =   0.1280000
        k(   34) = (   0.4000000   0.4000000   0.0000000), wk =   0.0320000
        k(   35) = (   0.4000000   0.4000000   0.3103448), wk =   0.0640000
        k(   36) = (   0.4000000   0.4000000   0.6206897), wk =   0.0640000

     Largest allocated arrays     est. size (Mb)     dimensions
     Largest temporary arrays     est. size (Mb)     dimensions

     Check: negative/imaginary core charge=   -0.000004    0.000000

     Initial potential from superposition of free atoms
     Check: negative starting charge=(component1):   -0.131399
     Check: negative starting charge=(component2):   -0.032197

     starting charge   52.99980, renormalised to   54.00000

     negative rho (up, down):  0.134E+00 0.328E-01
     Starting wfc are   40 randomized atomic wfcs

     Self-consistent Calculation

     iteration #  1     ecut=    40.00 Ry     beta=0.70
     Davidson diagonalization with overlap
     ethr =  1.00E-02,  avg # of iterations =  6.0

     negative rho (up, down):  0.101E+00 0.744E-01

     total energy              =    -467.03110819 Ry
     Harris-Foulkes estimate   =    -468.80871468 Ry
     estimated scf accuracy    <       4.23272422 Ry

     total magnetization       =     5.24 Bohr mag/cell
     absolute magnetization    =     5.42 Bohr mag/cell

[...]

     End of self-consistent calculation

 ------ SPIN UP ------------

          k = 0.0000 0.0000 0.0000 (  1447 PWs)   bands (ev):

   -31.1007 -31.1007 -30.9335 -30.9335 -30.8347 -30.7952  -4.8467  -3.4345
    -1.7838  -1.7838   6.2568   6.6536   7.6830   8.3536   8.3536  11.8745
    11.8745  12.6283  13.8550  14.0236  14.2261  14.5240  14.5240  14.6260
    14.6260  14.9628  15.7279  18.7509  18.9320  22.6594  22.6594  24.3331
    24.9713  28.2440  28.2440  32.1210  33.4556  33.6301  35.9949  36.4041
    37.5975  37.5975  39.2278  41.2240  41.5331  41.5331  43.2554  43.2554
    43.7124  45.7280  45.7399  46.3239  46.6104  46.6104  48.0391  50.2359
    51.2503  51.6093  52.5871  52.5871  52.7406  53.0857  54.0061  54.0061
    55.6973  56.3925  57.2201  57.2201  62.0461  62.6859  62.6859  62.9147
    63.4689  63.4689  63.5060  63.7486  64.2662  64.7639  64.7639  65.0855
    65.1109

[...]

 ------ SPIN DOWN ----------

[...]

     the Fermi energy is    17.5673 ev

!    total energy              =    -469.46825042 Ry
     Harris-Foulkes estimate   =    -469.46824991 Ry
     estimated scf accuracy    <       0.00000037 Ry

     The total energy is the sum of the following terms:

     one-electron contribution =     -94.90933577 Ry
     hartree contribution      =      93.47876288 Ry
     xc contribution           =     -88.56426509 Ry
     ewald contribution        =    -379.47274301 Ry
     smearing contrib. (-TS)   =      -0.00066942 Ry

[...]

     convergence has been achieved in  10 iterations

     Forces acting on atoms (Ry/au):

     negative rho (up, down):  0.909E-01 0.910E-01
     atom    1 type  1   force =     0.00000000    0.00000000    0.00000000
     atom    2 type  1   force =     0.00000000    0.00000000    0.00000000
     atom    3 type  2   force =    -0.07025324   -0.07025324    0.00000000
     atom    4 type  2   force =     0.07025324    0.07025324    0.00000000
     atom    5 type  2   force =    -0.07025324    0.07025324   -0.00000000
     atom    6 type  2   force =     0.07025324   -0.07025324    0.00000000

     Total force =     0.198706     Total SCF correction =     0.000039

     entering subroutine stress ...

     negative rho (up, down):  0.909E-01 0.910E-01
          total   stress  (Ry/bohr**3)                   (kbar)     P= 1190.84
   0.00650388   0.00000000   0.00000000        956.75      0.00      0.00
   0.00000000   0.00650388   0.00000000          0.00    956.75      0.00
   0.00000000   0.00000000   0.01127765          0.00      0.00   1659.00

     Volume is kept fixed: isostatic pressure set to zero

     BFGS Geometry Optimization

     number of scf cycles    =   1
     number of bfgs steps    =   0

     enthalpy new            =    -469.4682504166 Ry

     new trust radius        =       0.2911249400 bohr
     new conv_thr            =       0.0000010000 Ry

     new unit-cell volume =    334.71740 a.u.^3 (    49.60000 Ang^3 )

CELL_PARAMETERS (alat=  8.03830103)
   0.961702458   0.000000000   0.000000000
   0.000000000   0.961702458   0.000000000
   0.000000000   0.000000000   0.696793406

ATOMIC_POSITIONS (crystal)
Rh0      0.000000000   0.000000000   0.000000000    0   0   0
Rh0      0.500000000   0.500000000   0.500000000    0   0   0
[...]
        k(   26) = (   0.0000000   0.4159291   0.2870291), wk =   0.0640000
        k(   27) = (   0.0000000   0.4159291   0.5740582), wk =   0.0640000
        k(   28) = (   0.2079645   0.2079645   0.0000000), wk =   0.0320000
        k(   29) = (   0.2079645   0.2079645   0.2870291), wk =   0.0640000
        k(   30) = (   0.2079645   0.2079645   0.5740582), wk =   0.0640000
        k(   31) = (   0.2079645   0.4159291   0.0000000), wk =   0.0640000
        k(   32) = (   0.2079645   0.4159291   0.2870291), wk =   0.1280000
        k(   33) = (   0.2079645   0.4159291   0.5740582), wk =   0.1280000
        k(   34) = (   0.4159291   0.4159291   0.0000000), wk =   0.0320000
        k(   35) = (   0.4159291   0.4159291   0.2870291), wk =   0.0640000
        k(   36) = (   0.4159291   0.4159291   0.5740582), wk =   0.0640000

     Check: negative/imaginary core charge=   -0.000004    0.000000
     Check: negative starting charge=(component1):   -0.163076

[...]

     enthalpy old            =    -469.4682504166 Ry
     enthalpy new            =    -469.4625333946 Ry

     CASE: enthalpy_new > enthalpy_old

[...]

     CASE: enthalpy_new < enthalpy_old

[...]

     number of scf cycles    =   6
     number of bfgs steps    =   4

     enthalpy old            =    -469.5263642038 Ry
     enthalpy new            =    -469.5270969464 Ry

     CASE: enthalpy_new < enthalpy_old

     new trust radius        =       0.0044357554 bohr
     new conv_thr            =       0.0000000100 Ry

     new unit-cell volume =    334.71740 a.u.^3 (    49.60000 Ang^3 )

[...]

ATOMIC_POSITIONS (crystal)
Rh0      0.000000000   0.000000000   0.000000000    0   0   0
Rh0      0.500000000   0.500000000   0.500000000    0   0   0
O1       0.310794766   0.310794766   0.000000000    1   1   0
O1      -0.310794766  -0.310794766   0.000000000    1   1   0
O1       0.810794766   0.189205234   0.500000000    1   1   0
O1       0.189205234   0.810794766   0.500000000    1   1   0

     Check: negative starting charge=(component1):   -0.162951
     NEW-OLD atomic charge density approx. for the potential
     NEW k-points:
        k(    1) = (   0.0000000   0.0000000   0.0000000), wk =   0.0080000
        k(    2) = (   0.0000000   0.0000000   0.2852572), wk =   0.0160000
        k(    3) = (   0.0000000   0.0000000   0.5705144), wk =   0.0160000
        k(    4) = (   0.0000000   0.2086094   0.0000000), wk =   0.0320000
        k(    5) = (   0.0000000   0.2086094   0.2852572), wk =   0.0640000
        k(    6) = (   0.0000000   0.2086094   0.5705144), wk =   0.0640000
        k(    7) = (   0.0000000   0.4172189   0.0000000), wk =   0.0320000
        k(    8) = (   0.0000000   0.4172189   0.2852572), wk =   0.0640000
        k(    9) = (   0.0000000   0.4172189   0.5705144), wk =   0.0640000
        k(   10) = (   0.2086094   0.2086094   0.0000000), wk =   0.0320000
        k(   11) = (   0.2086094   0.2086094   0.2852572), wk =   0.0640000
        k(   12) = (   0.2086094   0.2086094   0.5705144), wk =   0.0640000
        k(   13) = (   0.2086094   0.4172189   0.0000000), wk =   0.0640000
        k(   14) = (   0.2086094   0.4172189   0.2852572), wk =   0.1280000
        k(   15) = (   0.2086094   0.4172189   0.5705144), wk =   0.1280000
        k(   16) = (   0.4172189   0.4172189   0.0000000), wk =   0.0320000
        k(   17) = (   0.4172189   0.4172189   0.2852572), wk =   0.0640000
        k(   18) = (   0.4172189   0.4172189   0.5705144), wk =   0.0640000
        k(   19) = (   0.0000000   0.0000000   0.0000000), wk =   0.0080000
        k(   20) = (   0.0000000   0.0000000   0.2852572), wk =   0.0160000
        k(   21) = (   0.0000000   0.0000000   0.5705144), wk =   0.0160000
        k(   22) = (   0.0000000   0.2086094   0.0000000), wk =   0.0320000
        k(   23) = (   0.0000000   0.2086094   0.2852572), wk =   0.0640000
        k(   24) = (   0.0000000   0.2086094   0.5705144), wk =   0.0640000
        k(   25) = (   0.0000000   0.4172189   0.0000000), wk =   0.0320000
        k(   26) = (   0.0000000   0.4172189   0.2852572), wk =   0.0640000
        k(   27) = (   0.0000000   0.4172189   0.5705144), wk =   0.0640000
        k(   28) = (   0.2086094   0.2086094   0.0000000), wk =   0.0320000
        k(   29) = (   0.2086094   0.2086094   0.2852572), wk =   0.0640000
        k(   30) = (   0.2086094   0.2086094   0.5705144), wk =   0.0640000
        k(   31) = (   0.2086094   0.4172189   0.0000000), wk =   0.0640000
        k(   32) = (   0.2086094   0.4172189   0.2852572), wk =   0.1280000
        k(   33) = (   0.2086094   0.4172189   0.5705144), wk =   0.1280000
        k(   34) = (   0.4172189   0.4172189   0.0000000), wk =   0.0320000
        k(   35) = (   0.4172189   0.4172189   0.2852572), wk =   0.0640000
        k(   36) = (   0.4172189   0.4172189   0.5705144), wk =   0.0640000

     Check: negative/imaginary core charge=   -0.000004    0.000000
     Check: negative starting charge=(component1):   -0.162985

[...]

     Threshold (ethr) on eigenvalues was too large:
     Diagonalizing with lowered threshold

     Davidson diagonalization with overlap
     ethr =  5.11E-09,  avg # of iterations =  1.6

[...]

     Total force =     0.000107     Total SCF correction =     0.000012
     SCF correction compared to forces is large: reduce conv_thr to get better values

[...]

     Volume is kept fixed: isostatic pressure set to zero

     bfgs converged in   7 scf cycles and   5 bfgs steps
     (criteria: energy < 0.10E-03, force < 0.10E-02, cell < 0.50E+00)

     End of BFGS Geometry Optimization

     Final enthalpy =    -469.5271085890 Ry
Begin final coordinates
     new unit-cell volume =    334.71740 a.u.^3 (    49.60000 Ang^3 )

CELL_PARAMETERS (alat=  8.03830103)
   0.958729390   0.000000000   0.000000000
   0.000000000   0.958729390   0.000000000
   0.000000000   0.000000000   0.701121689

ATOMIC_POSITIONS (crystal)
Rh0      0.000000000   0.000000000   0.000000000    0   0   0
Rh0      0.500000000   0.500000000   0.500000000    0   0   0
O1       0.310794766   0.310794766   0.000000000    1   1   0
O1      -0.310794766  -0.310794766   0.000000000    1   1   0
O1       0.810794766   0.189205234   0.500000000    1   1   0
O1       0.189205234   0.810794766   0.500000000    1   1   0
End final coordinates

     A final scf calculation at the relaxed structure.
     The G-vectors are recalculated for the final unit cell
     Results may differ from those at the preceding step.

     bravais-lattice index     =            0
     lattice parameter (alat)  =       8.0383  a.u.
     unit-cell volume          =     334.7174 (a.u.)^3
     number of atoms/cell      =            6
     number of atomic types    =            2
     number of electrons       =        54.00
     number of Kohn-Sham states=           81
     kinetic-energy cutoff     =      40.0000  Ry
     charge density cutoff     =     500.0000  Ry
     convergence threshold     =      1.0E-08
     mixing beta               =       0.7000
     number of iterations used =            8  plain     mixing
     Exchange-correlation      = SLA  PW   PBE  PBE ( 1 4 3 4 0)
     EXX-fraction              =        0.00

     celldm(1)=   8.038301  celldm(2)=   0.000000  celldm(3)=   0.000000
     celldm(4)=   0.000000  celldm(5)=   0.000000  celldm(6)=   0.000000

     crystal axes: (cart. coord. in units of alat)
               a(1) = (   0.958729   0.000000   0.000000 )
               a(2) = (   0.000000   0.958729   0.000000 )
               a(3) = (   0.000000   0.000000   0.701122 )

     reciprocal axes: (cart. coord. in units 2 pi/alat)
               b(1) = (  1.043047  0.000000  0.000000 )
               b(2) = (  0.000000  1.043047  0.000000 )
               b(3) = (  0.000000  0.000000  1.426286 )

     PseudoPot. # 1 for Rh read from file:
     /home/camp/zhonxu/pseudo/rh_pbe_v1.uspp.F.UPF
     MD5 check sum: 37b626987ad0dd8ec6bf4cc9ef289918
     Pseudo is Ultrasoft + core correction, Zval = 15.0
     Generated by new atomic code, or converted to UPF format
     Using radial grid of  969 points,  7 beta functions with:
                l(1) =   0
                l(2) =   0
                l(3) =   1
                l(4) =   1
                l(5) =   2
                l(6) =   2
                l(7) =   2
     Q(r) pseudized with  6 coefficients,  rinner =    1.050   1.050   1.050
                                                       1.050   1.050

     PseudoPot. # 2 for O  read from file:
     /home/camp/zhonxu/pseudo/o_pbe_v1.01.uspp.F.UPF
     MD5 check sum: 2bcb18d16ea4b960afae9ec6d52f22d2
     Pseudo is Ultrasoft + core correction, Zval =  6.0
     Generated by new atomic code, or converted to UPF format
     Using radial grid of  737 points,  5 beta functions with:
                l(1) =   0
                l(2) =   0
                l(3) =   1
                l(4) =   1
                l(5) =   2
     Q(r) pseudized with  8 coefficients,  rinner =    0.900   0.900   0.900
                                                       0.900   0.900

     atomic species   valence    mass     pseudopotential
        Rh0           15.00   102.90550     Rh( 1.00)
        O1             6.00    15.99940     O ( 1.00)

     Starting magnetic structure
     atomic species   magnetization
        Rh0          0.600
        O1           0.000

     16 Sym. Ops., with inversion, found ( 8 have fractional translation)

   Cartesian axes

     site n.     atom                  positions (alat units)
         1           Rh0 tau(   1) = (   0.0000000   0.0000000   0.0000000  )
         2           Rh0 tau(   2) = (   0.4793647   0.4793647   0.3505608  )
         3           O1  tau(   3) = (   0.2979681   0.2979681   0.0000000  )
         4           O1  tau(   4) = (  -0.2979681  -0.2979681   0.0000000  )
         5           O1  tau(   5) = (   0.7773328   0.1813966   0.3505608  )
         6           O1  tau(   6) = (   0.1813966   0.7773328   0.3505608  )

     number of k points=    36  Methfessel-Paxton smearing, width (Ry)=  0.0100
                       cart. coord. in units 2pi/alat
        k(    1) = (   0.0000000   0.0000000   0.0000000), wk =   0.0080000
        k(    2) = (   0.0000000   0.0000000   0.2852572), wk =   0.0160000
        k(    3) = (   0.0000000   0.0000000   0.5705144), wk =   0.0160000
        k(    4) = (   0.0000000   0.2086094   0.0000000), wk =   0.0320000
        k(    5) = (   0.0000000   0.2086094   0.2852572), wk =   0.0640000
        k(    6) = (   0.0000000   0.2086094   0.5705144), wk =   0.0640000
        k(    7) = (   0.0000000   0.4172189   0.0000000), wk =   0.0320000
        k(    8) = (   0.0000000   0.4172189   0.2852572), wk =   0.0640000
        k(    9) = (   0.0000000   0.4172189   0.5705144), wk =   0.0640000
        k(   10) = (   0.2086094   0.2086094   0.0000000), wk =   0.0320000
        k(   11) = (   0.2086094   0.2086094   0.2852572), wk =   0.0640000
        k(   12) = (   0.2086094   0.2086094   0.5705144), wk =   0.0640000
        k(   13) = (   0.2086094   0.4172189   0.0000000), wk =   0.0640000
        k(   14) = (   0.2086094   0.4172189   0.2852572), wk =   0.1280000
        k(   15) = (   0.2086094   0.4172189   0.5705144), wk =   0.1280000
        k(   16) = (   0.4172189   0.4172189   0.0000000), wk =   0.0320000
        k(   17) = (   0.4172189   0.4172189   0.2852572), wk =   0.0640000
        k(   18) = (   0.4172189   0.4172189   0.5705144), wk =   0.0640000
        k(   19) = (   0.0000000   0.0000000   0.0000000), wk =   0.0080000
        k(   20) = (   0.0000000   0.0000000   0.2852572), wk =   0.0160000
        k(   21) = (   0.0000000   0.0000000   0.5705144), wk =   0.0160000
        k(   22) = (   0.0000000   0.2086094   0.0000000), wk =   0.0320000
        k(   23) = (   0.0000000   0.2086094   0.2852572), wk =   0.0640000
        k(   24) = (   0.0000000   0.2086094   0.5705144), wk =   0.0640000
        k(   25) = (   0.0000000   0.4172189   0.0000000), wk =   0.0320000
        k(   26) = (   0.0000000   0.4172189   0.2852572), wk =   0.0640000
        k(   27) = (   0.0000000   0.4172189   0.5705144), wk =   0.0640000
        k(   28) = (   0.2086094   0.2086094   0.0000000), wk =   0.0320000
        k(   29) = (   0.2086094   0.2086094   0.2852572), wk =   0.0640000
        k(   30) = (   0.2086094   0.2086094   0.5705144), wk =   0.0640000
        k(   31) = (   0.2086094   0.4172189   0.0000000), wk =   0.0640000
        k(   32) = (   0.2086094   0.4172189   0.2852572), wk =   0.1280000
        k(   33) = (   0.2086094   0.4172189   0.5705144), wk =   0.1280000
        k(   34) = (   0.4172189   0.4172189   0.0000000), wk =   0.0320000
        k(   35) = (   0.4172189   0.4172189   0.2852572), wk =   0.0640000
        k(   36) = (   0.4172189   0.4172189   0.5705144), wk =   0.0640000

     Largest allocated arrays     est. size (Mb)     dimensions
     Largest temporary arrays     est. size (Mb)     dimensions

     Check: negative/imaginary core charge=   -0.000004    0.000000

     Initial potential from superposition of free atoms
     Check: negative starting charge=(component1):   -0.129484
     Check: negative starting charge=(component2):   -0.031779

     starting charge   52.99980, renormalised to   54.00000

     negative rho (up, down):  0.132E+00 0.324E-01
     Starting wfc are   40 randomized atomic wfcs

     Self-consistent Calculation

     iteration #  1     ecut=    40.00 Ry     beta=0.70
     Davidson diagonalization with overlap
     c_bands:  1 eigenvalues not converged
     ethr =  1.00E-06,  avg # of iterations = 12.0

[...]

     total energy              =    -469.52863780 Ry
     Harris-Foulkes estimate   =    -469.52863834 Ry
     estimated scf accuracy    <       0.00000001 Ry

[...]

     iteration # 14     ecut=    40.00 Ry     beta=0.70
     Davidson diagonalization with overlap
     ethr =  2.57E-11,  avg # of iterations =  2.2

     negative rho (up, down):  0.892E-01 0.893E-01

     End of self-consistent calculation

 ------ SPIN UP ------------

[...]

 ------ SPIN DOWN ----------

[...]

          k = 0.4172 0.4172 0.5705 (  1423 PWs)   bands (ev):

   -31.1721 -31.1616 -31.0944 -31.0827 -30.6991 -30.6990  -2.9859  -2.8905
    -2.5355  -2.4610   7.9189   8.1633   8.2517   8.5658   9.7205  10.0985
    11.8506  11.8627  12.1473  12.5340  13.9467  14.3348  15.0199  15.1829
    15.5528  16.4928  16.7200  17.5250  19.8189  20.3585  21.6647  22.1747
    28.1631  28.4763  30.7111  31.5587  32.7757  33.3263  34.0972  34.6775
    36.1828  36.5045  38.9034  39.4499  42.2937  42.6993  43.1864  43.7397
    44.7568  45.6059  45.6122  46.0076  48.6842  48.9871  49.0436  49.6876
    50.6086  51.1116  53.4106  54.0728  54.6811  55.3466  55.7419  56.3457
    56.4546  57.1045  58.2529  59.1434  59.1438  60.0900  60.4061  60.9505
    62.3813  62.5761  63.3406  63.9568  64.0129  64.7165  65.4548  65.5335
    66.2261

     the Fermi energy is    17.5378 ev

!    total energy              =    -469.52863857 Ry
     Harris-Foulkes estimate   =    -469.52863855 Ry
     estimated scf accuracy    <          9.2E-09 Ry

     The total energy is the sum of the following terms:

     one-electron contribution =     -86.74457965 Ry
     hartree contribution      =      89.42178333 Ry
     xc contribution           =     -88.40759496 Ry
     ewald contribution        =    -383.79743926 Ry
     smearing contrib. (-TS)   =      -0.00080803 Ry

     total magnetization       =     0.10 Bohr mag/cell
     absolute magnetization    =     0.10 Bohr mag/cell

     convergence has been achieved in  14 iterations

     Forces acting on atoms (Ry/au):

     negative rho (up, down):  0.892E-01 0.893E-01
     atom    1 type  1   force =     0.00000000    0.00000000   -0.00000000
     atom    2 type  1   force =     0.00000000    0.00000000   -0.00000000
     atom    3 type  2   force =     0.00025684    0.00025684    0.00000000
     atom    4 type  2   force =    -0.00025684   -0.00025684   -0.00000000
     atom    5 type  2   force =     0.00025684   -0.00025684    0.00000000
     atom    6 type  2   force =    -0.00025684    0.00025684   -0.00000000

     Total force =     0.000726     Total SCF correction =     0.000003

     entering subroutine stress ...

     negative rho (up, down):  0.892E-01 0.893E-01
          total   stress  (Ry/bohr**3)                   (kbar)     P= 1050.95
   0.00711803   0.00000000   0.00000000       1047.10      0.00      0.00
   0.00000000   0.00711803   0.00000000          0.00   1047.10      0.00
   0.00000000   0.00000000   0.00719666          0.00      0.00   1058.66

     General routines

     Parallel routines

   This run was terminated on:  19: 5:33  23Jan2014

   JOB DONE.