     Program PWSCF v.5.0.2 (svn rev. 9656) starts on 30Apr2014 at 21:48: 0

     Current dimensions of program PWSCF are:
     Max number of different atomic species (ntypx) = 10
     Max number of k-points (npk) =  40000
     Max angular momentum in pseudopotentials (lmaxx) =  3
     Reading input from pwscf.in
Warning: card &CELL ignored
Warning: card / ignored

     Subspace diagonalization in iterative solution of the eigenvalue problem:
     a serial algorithm will be used

     bravais-lattice index     =            0
     lattice parameter (alat)  =      11.1872  a.u.
     unit-cell volume          =    7531.8600 (a.u.)^3
     number of atoms/cell      =           31
     number of atomic types    =            3
     number of electrons       =       222.00
     number of Kohn-Sham states=          333
     kinetic-energy cutoff     =      40.0000  Ry
     charge density cutoff     =     500.0000  Ry
     convergence threshold     =      1.0E-06
     mixing beta               =       0.7000
     number of iterations used =            8  plain     mixing
     Exchange-correlation      = SLA  PW   PBE  PBE ( 1 4 3 4 0)
     EXX-fraction              =        0.00
     nstep                     =           50

     celldm(1)=  11.187179  celldm(2)=   0.000000  celldm(3)=   0.000000
     celldm(4)=   0.000000  celldm(5)=   0.000000  celldm(6)=   0.000000

     crystal axes: (cart. coord. in units of alat)
               a(1) = (   1.000000   0.000000   0.000000 )
               a(2) = (   0.000000   1.180104   0.000000 )
               a(3) = (   0.000000   0.000000   4.558482 )

     reciprocal axes: (cart. coord. in units 2 pi/alat)
               b(1) = (  1.000000  0.000000  0.000000 )
               b(2) = (  0.000000  0.847383  0.000000 )
               b(3) = (  0.000000  0.000000  0.219371 )

     PseudoPot. # 1 for O  read from file:
     /home/camp/zhonxu/pseudo/o_pbe_v1.01.uspp.F.UPF
     MD5 check sum: 2bcb18d16ea4b960afae9ec6d52f22d2
     Pseudo is Ultrasoft + core correction, Zval =  6.0
     Generated by new atomic code, or converted to UPF format
     Using radial grid of  737 points,  5 beta functions with:
                l(1) =   0
                l(2) =   0
                l(3) =   1
                l(4) =   1
                l(5) =   2
     Q(r) pseudized with  8 coefficients,  rinner =    0.900   0.900   0.900
                                                       0.900   0.900

     PseudoPot. # 2 for Nb read from file:
     /home/camp/zhonxu/pseudo/nb_pbe_v1.uspp.F.UPF
     MD5 check sum: 573aab8a2fa660278ed4a62cd769473f
     Pseudo is Ultrasoft + core correction, Zval = 13.0
     Generated by new atomic code, or converted to UPF format
     Using radial grid of  887 points,  6 beta functions with:
                l(1) =   0
                l(2) =   0
                l(3) =   1
                l(4) =   1
                l(5) =   2
                l(6) =   2
     Q(r) pseudized with  6 coefficients,  rinner =    1.000   1.000   1.000
                                                       1.000   1.000

     PseudoPot. # 3 for H  read from file:
     /home/camp/zhonxu/pseudo/h_pbe_v1.uspp.F.UPF
     MD5 check sum: 3408e3ff4ec8b0a4e358431e7e038a48
     Pseudo is Ultrasoft, Zval =  1.0
     Generated by new atomic code, or converted to UPF format
     Using radial grid of  615 points,  2 beta functions with:
                l(1) =   0
                l(2) =   0
     Q(r) pseudized with  8 coefficients,  rinner =    0.700

     atomic species   valence    mass     pseudopotential
        O0             6.00    15.99940     O ( 1.00)
        Nb1           13.00    92.90640     Nb( 1.00)
        H2             1.00     1.00794     H ( 1.00)

     Simplified LDA+U calculation (l_max = 2) with parameters (eV):
     atomic species    L          U    alpha       J0     beta
        Nb1            2     7.0000   0.0000   0.0000   0.0000

     No symmetry found

   Cartesian axes

     site n.     atom                  positions (alat units)
         1           O0  tau(   1) = (   0.0000000   0.0000000   1.6934306  )
         2           O0  tau(   2) = (   0.0000000   0.5900519   1.7719732  )
         3           Nb1 tau(   3) = (   0.2500000   0.5900519   2.0266100  )
         4           Nb1 tau(   4) = (   0.0000000   0.0000000   2.0234647  )
         5           O0  tau(   5) = (   0.2500000   0.9322821   2.0339492  )
         6           O0  tau(   6) = (   0.2500000   0.2478218   2.0339492  )
         7           O0  tau(   7) = (   0.0000000   0.5900519   2.2822497  )
         8           O0  tau(   8) = (   0.0000000   0.0000000   2.3837671  )
         9           Nb1 tau(   9) = (   0.2500000   0.0000000   2.6303810  )
        10           Nb1 tau(  10) = (   0.0000000   0.5900519   2.5986084  )
        11           O0  tau(  11) = (   0.2500000   0.8378738   2.6271901  )
        12           O0  tau(  12) = (   0.2500000   0.3422301   2.6272357  )
        13           O0  tau(  13) = (   0.0000000   0.0000000   2.8322306  )
        14           O0  tau(  14) = (   0.5000000   0.0000000   1.6959377  )
        15           O0  tau(  15) = (   0.5000000   0.5900519   1.7815005  )
        16           Nb1 tau(  16) = (   0.7500000   0.5900519   2.0269291  )
        17           Nb1 tau(  17) = (   0.5000000   0.0000000   2.0281143  )
        18           O0  tau(  18) = (   0.7500000   0.9322821   2.0339492  )
        19           O0  tau(  19) = (   0.7500000   0.2478218   2.0339492  )
        20           O0  tau(  20) = (   0.5000000   0.5900519   2.2572692  )
        21           O0  tau(  21) = (   0.5000000   0.0000000   2.3822628  )
        22           Nb1 tau(  22) = (   0.7500000   0.0000000   2.6309736  )
        23           Nb1 tau(  23) = (   0.5000000   0.5900519   2.6831227  )
        24           O0  tau(  24) = (   0.7500000   0.8378738   2.6265975  )
        25           O0  tau(  25) = (   0.7500000   0.3422301   2.6265975  )
        26           O0  tau(  26) = (   0.5000000   0.0000000   2.8320027  )
        27           H2  tau(  27) = (  -0.0004900   0.5918693   1.6065459  )
        28           H2  tau(  28) = (   0.4994900   0.5917631   1.6163466  )
        29           H2  tau(  29) = (   0.1504600   0.0004366   1.6207228  )
        30           H2  tau(  30) = (   0.6496400   0.0004366   1.6219536  )
        31           O0  tau(  31) = (   0.5000300   0.5900519   2.9731333  )

     number of k points=    10  Methfessel-Paxton smearing, width (Ry)=  0.0100
                       cart. coord. in units 2pi/alat
        k(    1) = (   0.0000000   0.0000000   0.0000000), wk =   0.1250000
        k(    2) = (   0.0000000   0.2118458   0.0000000), wk =   0.2500000
        k(    3) = (   0.0000000  -0.4236915   0.0000000), wk =   0.1250000
        k(    4) = (   0.2500000   0.0000000   0.0000000), wk =   0.2500000
        k(    5) = (   0.2500000   0.2118458   0.0000000), wk =   0.2500000
        k(    6) = (   0.2500000  -0.4236915   0.0000000), wk =   0.2500000
        k(    7) = (  -0.5000000   0.0000000   0.0000000), wk =   0.1250000
        k(    8) = (  -0.5000000   0.2118458   0.0000000), wk =   0.2500000
        k(    9) = (  -0.5000000  -0.4236915   0.0000000), wk =   0.1250000
        k(   10) = (  -0.2500000   0.2118458   0.0000000), wk =   0.2500000

     Largest allocated arrays     est. size (Mb)     dimensions
     Largest temporary arrays     est. size (Mb)     dimensions

     Check: negative/imaginary core charge=   -0.000003    0.000000

     Initial potential from superposition of free atoms
     Check: negative starting charge=   -0.003810

     starting charge  221.97807, renormalised to  222.00000

     negative rho (up, down):  0.381E-02 0.000E+00
     Number of +U iterations with fixed ns =  0
     Starting occupations:
 --- enter write_ns ---
 LDA+U parameters:
U( 2)     =  7.00000000
alpha( 2) =  0.00000000
atom    3   Tr[ns(na)] =   3.00000
    eigenvalues:
  0.300  0.300  0.300  0.300  0.300
    eigenvectors:
  1.000  0.000  0.000  0.000  0.000
  0.000  1.000  0.000  0.000  0.000
  0.000  0.000  1.000  0.000  0.000
  0.000  0.000  0.000  1.000  0.000
  0.000  0.000  0.000  0.000  1.000
    occupations:
  0.300  0.000  0.000  0.000  0.000
  0.000  0.300  0.000  0.000  0.000
  0.000  0.000  0.300  0.000  0.000
  0.000  0.000  0.000  0.300  0.000
  0.000  0.000  0.000  0.000  0.300
atom    4   Tr[ns(na)] =   3.00000
    eigenvalues:
  0.300  0.300  0.300  0.300  0.300
    eigenvectors:
  1.000  0.000  0.000  0.000  0.000
  0.000  1.000  0.000  0.000  0.000
  0.000  0.000  1.000  0.000  0.000
  0.000  0.000  0.000  1.000  0.000
  0.000  0.000  0.000  0.000  1.000
    occupations:
  0.300  0.000  0.000  0.000  0.000
  0.000  0.300  0.000  0.000  0.000
  0.000  0.000  0.300  0.000  0.000
  0.000  0.000  0.000  0.300  0.000
  0.000  0.000  0.000  0.000  0.300
atom    9   Tr[ns(na)] =   3.00000
    eigenvalues:
  0.300  0.300  0.300  0.300  0.300
    eigenvectors:
  1.000  0.000  0.000  0.000  0.000
  0.000  1.000  0.000  0.000  0.000
  0.000  0.000  1.000  0.000  0.000
  0.000  0.000  0.000  1.000  0.000
  0.000  0.000  0.000  0.000  1.000
    occupations:
  0.300  0.000  0.000  0.000  0.000
  0.000  0.300  0.000  0.000  0.000
  0.000  0.000  0.300  0.000  0.000
  0.000  0.000  0.000  0.300  0.000
  0.000  0.000  0.000  0.000  0.300
atom   10   Tr[ns(na)] =   3.00000
    eigenvalues:
  0.300  0.300  0.300  0.300  0.300
    eigenvectors:
  1.000  0.000  0.000  0.000  0.000
  0.000  1.000  0.000  0.000  0.000
  0.000  0.000  1.000  0.000  0.000
  0.000  0.000  0.000  1.000  0.000
  0.000  0.000  0.000  0.000  1.000
    occupations:
  0.300  0.000  0.000  0.000  0.000
  0.000  0.300  0.000  0.000  0.000
  0.000  0.000  0.300  0.000  0.000
  0.000  0.000  0.000  0.300  0.000
  0.000  0.000  0.000  0.000  0.300
atom   16   Tr[ns(na)] =   3.00000
    eigenvalues:
  0.300  0.300  0.300  0.300  0.300
    eigenvectors:
  1.000  0.000  0.000  0.000  0.000
  0.000  1.000  0.000  0.000  0.000
  0.000  0.000  1.000  0.000  0.000
  0.000  0.000  0.000  1.000  0.000
  0.000  0.000  0.000  0.000  1.000
    occupations:
  0.300  0.000  0.000  0.000  0.000
  0.000  0.300  0.000  0.000  0.000
  0.000  0.000  0.300  0.000  0.000
  0.000  0.000  0.000  0.300  0.000
  0.000  0.000  0.000  0.000  0.300
atom   17   Tr[ns(na)] =   3.00000
    eigenvalues:
  0.300  0.300  0.300  0.300  0.300
    eigenvectors:
  1.000  0.000  0.000  0.000  0.000
  0.000  1.000  0.000  0.000  0.000
  0.000  0.000  1.000  0.000  0.000
  0.000  0.000  0.000  1.000  0.000
  0.000  0.000  0.000  0.000  1.000
    occupations:
  0.300  0.000  0.000  0.000  0.000
  0.000  0.300  0.000  0.000  0.000
  0.000  0.000  0.300  0.000  0.000
  0.000  0.000  0.000  0.300  0.000
  0.000  0.000  0.000  0.000  0.300
atom   22   Tr[ns(na)] =   3.00000
    eigenvalues:
  0.300  0.300  0.300  0.300  0.300
    eigenvectors:
  1.000  0.000  0.000  0.000  0.000
  0.000  1.000  0.000  0.000  0.000
  0.000  0.000  1.000  0.000  0.000
  0.000  0.000  0.000  1.000  0.000
  0.000  0.000  0.000  0.000  1.000
    occupations:
  0.300  0.000  0.000  0.000  0.000
  0.000  0.300  0.000  0.000  0.000
[...]
  0.014  0.329 -0.000 -0.010  0.000
  0.000 -0.000  0.359  0.000  0.001
  0.002 -0.010  0.000  0.719  0.000
 -0.000  0.000  0.001  0.000  0.565
atom    9   Tr[ns(na)] =   5.23457
    eigenvalues:
  0.427  0.446  0.480  0.629  0.636
    eigenvectors:
  0.000  0.877  0.000  0.123  0.000
  0.000  0.000  0.000  0.001  0.999
  0.876  0.000  0.124  0.000  0.000
  0.000  0.123  0.000  0.876  0.001
  0.124  0.000  0.876  0.000  0.000
    occupations:
  0.469  0.000  0.000  0.060  0.000
  0.000  0.636 -0.000 -0.000 -0.000
  0.000 -0.000  0.433 -0.000  0.017
  0.060 -0.000 -0.000  0.606 -0.000
  0.000 -0.000  0.017 -0.000  0.473
atom   10   Tr[ns(na)] =   4.94616
    eigenvalues:
  0.270  0.300  0.489  0.546  0.869
    eigenvectors:
  0.000  0.000  1.000  0.000  0.000
  0.000  0.871  0.000  0.000  0.129
  0.983  0.000  0.000  0.017  0.000
  0.000  0.129  0.000  0.000  0.871
  0.017  0.000  0.000  0.983  0.000
    occupations:
  0.489 -0.000 -0.000 -0.006 -0.000
 -0.000  0.373 -0.000  0.191  0.000
 -0.000 -0.000  0.275 -0.000 -0.036
 -0.006  0.191 -0.000  0.795  0.000
 -0.000  0.000 -0.036  0.000  0.541
atom   16   Tr[ns(na)] =   5.13501
    eigenvalues:
  0.319  0.366  0.550  0.610  0.722
    eigenvectors:
  0.000  0.000  0.006  0.334  0.660
  0.000  0.000  0.982  0.018  0.000
  0.758  0.242  0.000  0.000  0.000
  0.000  0.000  0.013  0.647  0.340
  0.242  0.758  0.000  0.000  0.000
    occupations:
  0.684  0.004  0.000 -0.054 -0.000
  0.004  0.551 -0.000  0.007  0.000
  0.000 -0.000  0.331 -0.000  0.020
 -0.054  0.007 -0.000  0.648  0.000
 -0.000  0.000  0.020  0.000  0.354
atom   17   Tr[ns(na)] =   5.13693
    eigenvalues:
  0.324  0.355  0.561  0.598  0.730
    eigenvectors:
  0.003  0.000  0.000  0.997  0.000
  0.997  0.000  0.000  0.003  0.001
  0.000  1.000  0.000  0.000  0.000
  0.001  0.000  0.000  0.000  0.999
  0.000  0.000  1.000  0.000  0.000
    occupations:
  0.598  0.014  0.000  0.001 -0.000
  0.014  0.325 -0.000 -0.009  0.000
  0.000 -0.000  0.355  0.000  0.001
  0.001 -0.009  0.000  0.730  0.000
 -0.000  0.000  0.001  0.000  0.561
atom   22   Tr[ns(na)] =   5.24633
    eigenvalues:
  0.436  0.449  0.471  0.634  0.634
    eigenvectors:
  0.000  0.888  0.000  0.086  0.026
  0.000  0.000  0.000  0.238  0.762
  0.996  0.000  0.004  0.000  0.000
  0.000  0.112  0.000  0.676  0.212
  0.004  0.000  0.996  0.000  0.000
    occupations:
  0.470 -0.000  0.000  0.058 -0.000
 -0.000  0.634  0.000  0.000  0.000
  0.000  0.000  0.436 -0.000  0.002
  0.058  0.000 -0.000  0.613  0.000
 -0.000  0.000  0.002  0.000  0.471
atom   23   Tr[ns(na)] =   5.31746
    eigenvalues:
  0.444  0.495  0.543  0.544  0.632
    eigenvectors:
  0.001  0.000  0.000  0.016  0.983
  0.148  0.000  0.000  0.836  0.017
  0.000  0.988  0.012  0.000  0.000
  0.851  0.000  0.000  0.148  0.000
  0.000  0.012  0.988  0.000  0.000
    occupations:
  0.630 -0.012  0.000 -0.001 -0.000
 -0.012  0.531  0.000 -0.036 -0.000
  0.000  0.000  0.496  0.000  0.005
 -0.001 -0.036  0.000  0.459 -0.000
 -0.000 -0.000  0.005 -0.000  0.543
N of occupied +U levels =  41.2956694
 --- exit write_ns ---

     Threshold (ethr) on eigenvalues was too large:
     Diagonalizing with lowered threshold

     Davidson diagonalization with overlap
     ethr =  2.94E-09,  avg # of iterations =  3.0

[...]

     total energy              =   -1557.63387468 Ry
     Harris-Foulkes estimate   =   -1557.63387468 Ry
     estimated scf accuracy    <       0.00000001 Ry

     iteration # 12     ecut=    40.00 Ry     beta=0.70
     Davidson diagonalization with overlap
     ethr =  4.54E-12,  avg # of iterations =  1.0

     negative rho (up, down):  0.364E-02 0.000E+00

     End of self-consistent calculation
 --- enter write_ns ---
 LDA+U parameters:
U( 2)     =  7.00000000
alpha( 2) =  0.00000000
atom    3   Tr[ns(na)] =   5.13965
    eigenvalues:
  0.319  0.362  0.549  0.609  0.731
    eigenvectors:
  0.000  0.000  0.010  0.332  0.658
  0.000  0.000  0.977  0.023  0.000
  0.770  0.230  0.000  0.000  0.000
  0.000  0.000  0.013  0.645  0.342
  0.230  0.770  0.000  0.000  0.000
    occupations:
  0.689 -0.007  0.000 -0.059  0.000
 -0.007  0.550  0.000 -0.006  0.000
  0.000  0.000  0.329 -0.000 -0.018
 -0.059 -0.006 -0.000  0.650 -0.000
  0.000  0.000 -0.018 -0.000  0.352
atom    4   Tr[ns(na)] =   5.14015
    eigenvalues:
  0.328  0.359  0.565  0.600  0.719
    eigenvectors:
  0.003  0.000  0.000  0.997  0.000
  0.996  0.000  0.000  0.003  0.001
  0.000  1.000  0.000  0.000  0.000
  0.001  0.000  0.000  0.000  0.999
  0.000  0.000  1.000  0.000  0.000
    occupations:
  0.599  0.014  0.000  0.002 -0.000
  0.014  0.329 -0.000 -0.010  0.000
  0.000 -0.000  0.359  0.000  0.001
  0.002 -0.010  0.000  0.719  0.000
 -0.000  0.000  0.001  0.000  0.565
atom    9   Tr[ns(na)] =   5.23455
    eigenvalues:
  0.427  0.446  0.480  0.629  0.636
    eigenvectors:
  0.000  0.877  0.000  0.123  0.000
  0.000  0.000  0.000  0.001  0.999
  0.876  0.000  0.124  0.000  0.000
  0.000  0.123  0.000  0.876  0.001
  0.124  0.000  0.876  0.000  0.000
    occupations:
  0.469  0.000  0.000  0.060  0.000
  0.000  0.636 -0.000 -0.000 -0.000
  0.000 -0.000  0.433 -0.000  0.017
  0.060 -0.000 -0.000  0.606 -0.000
  0.000 -0.000  0.017 -0.000  0.473
atom   10   Tr[ns(na)] =   4.94574
    eigenvalues:
  0.270  0.300  0.489  0.546  0.868
    eigenvectors:
  0.000  0.000  1.000  0.000  0.000
  0.000  0.871  0.000  0.000  0.129
  0.983  0.000  0.000  0.017  0.000
  0.000  0.129  0.000  0.000  0.871
  0.017  0.000  0.000  0.983  0.000
    occupations:
  0.489 -0.000 -0.000 -0.006 -0.000
 -0.000  0.373 -0.000  0.191  0.000
 -0.000 -0.000  0.275 -0.000 -0.036
 -0.006  0.191 -0.000  0.795  0.000
 -0.000  0.000 -0.036  0.000  0.541
atom   16   Tr[ns(na)] =   5.13515
    eigenvalues:
  0.319  0.366  0.550  0.610  0.722
    eigenvectors:
  0.000  0.000  0.006  0.334  0.660
  0.000  0.000  0.982  0.018  0.000
  0.757  0.243  0.000  0.000  0.000
  0.000  0.000  0.013  0.647  0.340
  0.243  0.757  0.000  0.000  0.000
    occupations:
  0.684  0.004  0.000 -0.054 -0.000
  0.004  0.551 -0.000  0.007  0.000
  0.000 -0.000  0.331 -0.000  0.020
 -0.054  0.007 -0.000  0.648  0.000
 -0.000  0.000  0.020  0.000  0.354
atom   17   Tr[ns(na)] =   5.13642
    eigenvalues:
  0.324  0.355  0.561  0.598  0.730
    eigenvectors:
  0.003  0.000  0.000  0.997  0.000
  0.997  0.000  0.000  0.003  0.001
  0.000  1.000  0.000  0.000  0.000
  0.001  0.000  0.000  0.000  0.999
  0.000  0.000  1.000  0.000  0.000
    occupations:
  0.598  0.014  0.000  0.001 -0.000
  0.014  0.325 -0.000 -0.009  0.000
  0.000 -0.000  0.355  0.000  0.001
  0.001 -0.009  0.000  0.730  0.000
 -0.000  0.000  0.001  0.000  0.561
atom   22   Tr[ns(na)] =   5.24591
    eigenvalues:
  0.435  0.449  0.471  0.633  0.634
    eigenvectors:
  0.000  0.888  0.000  0.087  0.025
  0.000  0.000  0.000  0.227  0.773
  0.996  0.000  0.004  0.000  0.000
  0.000  0.112  0.000  0.686  0.202
  0.004  0.000  0.996  0.000  0.000
    occupations:
  0.470 -0.000  0.000  0.058 -0.000
 -0.000  0.634  0.000  0.000  0.000
  0.000  0.000  0.436 -0.000  0.002
  0.058  0.000 -0.000  0.613  0.000
 -0.000  0.000  0.002  0.000  0.471
atom   23   Tr[ns(na)] =   5.31794
    eigenvalues:
  0.444  0.495  0.543  0.544  0.632
    eigenvectors:
  0.001  0.000  0.000  0.016  0.983
  0.149  0.000  0.000  0.834  0.017
  0.000  0.988  0.012  0.000  0.000
  0.850  0.000  0.000  0.149  0.000
  0.000  0.012  0.988  0.000  0.000
    occupations:
  0.630 -0.012  0.000 -0.001 -0.000
 -0.012  0.531  0.000 -0.036 -0.000
  0.000  0.000  0.496  0.000  0.005
 -0.001 -0.036  0.000  0.459 -0.000
 -0.000 -0.000  0.005 -0.000  0.543
N of occupied +U levels =  41.2955007
 --- exit write_ns ---

[...]

          k = 0.2500-0.4237 0.0000 ( 32188 PWs)   bands (ev):

[...]

          k =-0.2500 0.2118 0.0000 ( 32165 PWs)   bands (ev):

   -56.9706 -56.8184 -56.5144 -56.4559 -56.4354 -56.3705 -55.8879 -55.8302
   -33.6665 -33.1804 -33.0419 -32.9535 -32.9482 -32.9186 -32.9076 -32.8829
   -32.8717 -32.8616 -32.8013 -32.7832 -32.7207 -32.4187 -32.3446 -32.3212
   -32.3096 -32.2246 -32.2053 -32.1922 -32.1627 -31.9235 -31.7254 -31.5609
   -20.9375 -20.6209 -19.8691 -19.8097 -19.4882 -19.4347 -19.4206 -19.3730
   -19.2355 -19.1231 -19.0401 -18.5786 -18.4865 -18.4771 -18.3571 -18.3178
   -18.2559 -18.2000 -17.0762  -9.5782  -8.9757  -7.9137  -7.8806  -7.6244
    -7.4243  -7.0951  -6.9673  -6.7976  -6.7450  -6.7194  -6.6359  -6.4091
    -6.3806  -6.3315  -6.1213  -6.0022  -5.9347  -5.8545  -5.6458  -5.4461
    -5.3830  -5.2226  -5.1234  -5.0416  -4.8560  -4.7325  -4.6435  -4.6270
    -4.5812  -4.4957  -4.4567  -4.4012  -4.3618  -4.2681  -4.2417  -4.1983
    -4.0609  -3.9557  -3.9187  -3.8342  -3.7879  -3.7135  -3.6258  -3.6092
    -3.4563  -3.3859  -3.3311  -3.2267  -3.1934  -3.0844  -2.9951  -2.9329
    -2.8753  -2.7029  -2.6245  -2.3526  -1.0507  -0.7900  -0.3672   1.1004
     1.1759   1.2718   1.3373   1.4024   1.4414   1.7039   1.7419   1.9392
     1.9703   2.0816   2.2149   2.2518   2.3672   2.5240   2.6287   2.6519
     2.7105   2.7693   2.9619   3.1282   3.1765   3.6242   4.0391   4.1351
     4.2311   4.3779   4.5379   4.5835   4.7659   4.8166   4.9366   5.0223
     5.1495   5.2442   5.4029   5.5020   5.5847   5.7167   5.9268   5.9870
     6.0193   6.1803   6.4384   6.5253   6.5559   6.5654   6.7814   6.8085
     6.8637   7.0355   7.2080   7.2835   7.4466   7.4982   7.8294   7.9129
     8.0363   8.0540   8.1568   8.1957   8.2471   8.5353   8.6114   8.7074
     8.8232   8.9152   9.0153   9.1082   9.1780   9.2829   9.3330   9.5132
     9.5382   9.6065   9.7662   9.8518   9.9123  10.0132  10.0748  10.1753
    10.2675  10.3870  10.5876  10.7447  10.7707  10.9122  10.9735  11.0214
    11.1294  11.1641  11.2422  11.2921  11.3913  11.4487  11.5241  11.5522
    11.6686  11.7591  11.8950  11.9353  11.9944  12.1166  12.1452  12.2324
    12.3027  12.3631  12.4278  12.4799  12.6206  12.6724  12.7105  12.7403
    12.7841  12.8699  12.9596  13.0092  13.0672  13.0987  13.2407  13.3010
    13.3535  13.4179  13.5258  13.6382  13.7092  13.7533  13.8333  13.8710
    13.9561  13.9743  14.0127  14.1425  14.1793  14.2958  14.3407  14.4218
    14.4665  14.5985  14.6599  14.7874  14.9128  14.9297  15.0497  15.1133
    15.2288  15.2609  15.2793  15.3448  15.4116  15.4673  15.5267  15.5917
    15.6765  15.7013  15.8007  15.8654  15.9136  15.9674  16.0592  16.1062
    16.1989  16.2919  16.3852  16.3990  16.4497  16.5139  16.5759  16.6734
    16.7418  16.7664  16.8685  16.9482  17.0585  17.0969  17.1704  17.2450
    17.2739  17.3477  17.3649  17.4509  17.4861  17.5823  17.6369  17.7276
    17.7479  17.8822  17.9687  18.0025  18.0979  18.1461  18.1978  18.3482
    18.3805  18.4441  18.4787  18.5450  18.6240  18.6665  18.7098  18.8002
    18.8600  18.9231  18.9812  19.0894  19.1479  19.1863  19.2339  19.3470
    19.3748  19.4111  19.4794  19.5409  19.5909  19.6395  19.6579  19.6907
    19.7619  19.8740  19.9253  19.9991  20.0675

     the Fermi energy is     0.2090 ev

!    total energy              =   -1557.63387468 Ry
     Harris-Foulkes estimate   =   -1557.63387468 Ry
     estimated scf accuracy    <          4.6E-09 Ry

     The total energy is the sum of the following terms:

     one-electron contribution =  -18836.76351417 Ry
     hartree contribution      =    9444.38907750 Ry
     xc contribution           =    -286.97439201 Ry
     ewald contribution        =    8116.98485300 Ry
     Hubbard energy            =       4.73003410 Ry
     smearing contrib. (-TS)   =       0.00006691 Ry

     convergence has been achieved in  12 iterations

     Forces acting on atoms (Ry/au):

     negative rho (up, down):  0.364E-02 0.000E+00
     atom    1 type  1   force =     0.00109886   -0.00001317    0.00008166
     atom    2 type  1   force =    -0.00194765    0.00015087   -0.00020562
     atom    3 type  2   force =    -0.05731524   -0.00008969    0.00000812
     atom    4 type  2   force =    -0.00327049    0.00002035   -0.00007736
     atom    5 type  1   force =    -0.00519068   -0.00474106    0.00019044
     atom    6 type  1   force =    -0.00525397    0.00476534    0.00019285
     atom    7 type  1   force =    -0.00008121   -0.00005816    0.00041232
     atom    8 type  1   force =     0.01240684    0.00000320   -0.00096556
     atom    9 type  2   force =     0.00589518    0.00000342   -0.00047275
     atom   10 type  2   force =    -0.00738038   -0.00001559    0.00073259
     atom   11 type  1   force =     0.00326312    0.00456632   -0.00009133
     atom   12 type  1   force =     0.00326461   -0.00456181   -0.00009034
     atom   13 type  1   force =    -0.00726836   -0.00000141   -0.00023428
     atom   14 type  1   force =     0.00053589   -0.00013499    0.00014964
     atom   15 type  1   force =     0.00087315   -0.00010527    0.00023332
     atom   16 type  2   force =     0.05933132   -0.00005678    0.00022090
     atom   17 type  2   force =    -0.00095574    0.00005595    0.00012275
     atom   18 type  1   force =     0.00602606   -0.00549194    0.00013175
     atom   19 type  1   force =     0.00603961    0.00551580    0.00013152
     atom   20 type  1   force =    -0.00410524    0.00006036    0.00001399
     atom   21 type  1   force =    -0.01161320   -0.00000369    0.00051535
     atom   22 type  2   force =     0.00197616   -0.00000328    0.00010843
     atom   23 type  2   force =     0.03520665   -0.00000477   -0.00012607
     atom   24 type  1   force =    -0.01725684    0.02312610    0.00006134
     atom   25 type  1   force =    -0.01725392   -0.02312161    0.00006039
     atom   26 type  1   force =     0.00349800    0.00000069    0.00016585
     atom   27 type  3   force =    -0.00000220   -0.00005819   -0.00027327
     atom   28 type  3   force =    -0.00000582    0.00019656    0.00022139
     atom   29 type  3   force =    -0.00037726   -0.00001008   -0.00048160
     atom   30 type  3   force =    -0.00043216    0.00000627   -0.00059700
     atom   31 type  1   force =     0.00029492    0.00000028   -0.00013940

     Total force =     0.001938     Total SCF correction =     0.000114

     bfgs converged in  37 scf cycles and  36 bfgs steps
     (criteria: energy < 0.10E-03, force < 0.10E-02)

     End of BFGS Geometry Optimization

     Final energy   =   -1557.6338746795 Ry
Begin final coordinates

ATOMIC_POSITIONS (crystal)
O0       0.000000000   0.000000000   0.371316536    0   0   1
O0       0.000000000   0.500000000   0.387925357    0   0   1
Nb1      0.250000000   0.500000000   0.444371825    0   0   1
Nb1      0.000000000   0.000000000   0.444213807    0   0   1
O0       0.250000000   0.790000000   0.446213275    0   0   1
O0       0.250000000   0.210000000   0.446217875    0   0   1
O0       0.000000000   0.500000000   0.499794983    0   0   1
O0       0.000000000   0.000000000   0.523735990    0   0   1
Nb1      0.250000000   0.000000000   0.576652682    0   0   1
Nb1      0.000000000   0.500000000   0.570956145    0   0   1
O0       0.250000000   0.710000000   0.582251725    0   0   1
O0       0.250000000   0.290000000   0.582251668    0   0   1
O0       0.000000000   0.000000000   0.621588705    0   0   1
O0       0.500000000   0.000000000   0.371370440    0   0   1
O0       0.500000000   0.500000000   0.390155691    0   0   1
Nb1      0.750000000   0.500000000   0.444635545    0   0   1
Nb1      0.500000000   0.000000000   0.444457326    0   0   1
O0       0.750000000   0.790000000   0.446123916    0   0   1
O0       0.750000000   0.210000000   0.446126049    0   0   1
O0       0.500000000   0.500000000   0.495715393    0   0   1
O0       0.500000000   0.000000000   0.523697601    0   0   1
Nb1      0.750000000   0.000000000   0.578109645    0   0   1
Nb1      0.500000000   0.500000000   0.585918869    0   0   1
O0       0.750000000   0.710000000   0.572689550    0   0   1
O0       0.750000000   0.290000000   0.572689983    0   0   1
O0       0.500000000   0.000000000   0.621394989    0   0   1
H2      -0.000239570   0.501062245   0.351748916
H2       0.499717339   0.502986195   0.354042936
H2       0.152040510   0.000667085   0.356314357
H2       0.652094641   0.000753555   0.356415672
O0       0.521979544   0.500001998   0.649192550
End final coordinates

     General routines

     Parallel routines
     Hubbard U routines

   This run was terminated on:  10:25: 9   2May2014

   JOB DONE.
Running PBS batch system epilogue script
Job id: 340583.audhumbla.fysik.dtu.dk
Username: zhonxu
Groupname: campgst
Jobname: NbO2/Eads-2-layers/O-U-7.0
Sessionid: 17014
Queuename: verylong
Accounting:
This job has allocated the following 16 nodes:
d105 d105 d105 d105 d105 d105 d105 d105 d082 d082 d082 d082 d082 d082 d082 d082
Finished epilogue job 340583.audhumbla.fysik.dtu.dk for zhonxu