     Program PWSCF v.5.0.2 (svn rev. 9656) starts on 28Apr2014 at 20:18:20

     Current dimensions of program PWSCF are:
     Max number of different atomic species (ntypx) = 10
     Max number of k-points (npk) =  40000
     Max angular momentum in pseudopotentials (lmaxx) =  3
     Reading input from pwscf.in
Warning: card &CELL ignored
Warning: card / ignored

     Subspace diagonalization in iterative solution of the eigenvalue problem:
     a serial algorithm will be used

     bravais-lattice index     =            0
     lattice parameter (alat)  =      10.3179  a.u.
     unit-cell volume          =    6964.3238 (a.u.)^3
     number of atoms/cell      =           31
     number of atomic types    =            3
     number of electrons       =       230.00
     number of Kohn-Sham states=          345
     kinetic-energy cutoff     =      40.0000  Ry
     charge density cutoff     =     500.0000  Ry
     convergence threshold     =      1.0E-06
     mixing beta               =       0.7000
     number of iterations used =            8  plain     mixing
     Exchange-correlation      = SLA  PW   PBE  PBE ( 1 4 3 4 0)
     EXX-fraction              =        0.00
     nstep                     =           50

     celldm(1)=  10.317905  celldm(2)=   0.000000  celldm(3)=   0.000000
     celldm(4)=   0.000000  celldm(5)=   0.000000  celldm(6)=   0.000000

     crystal axes: (cart. coord. in units of alat)
               a(1) = (   1.000000   0.000000   0.000000 )
               a(2) = (   0.000000   1.282117   0.000000 )
               a(3) = (   0.000000   0.000000   4.945120 )

     reciprocal axes: (cart. coord. in units 2 pi/alat)
               b(1) = (  1.000000  0.000000  0.000000 )
               b(2) = (  0.000000  0.779960  0.000000 )
               b(3) = (  0.000000  0.000000  0.202220 )

     PseudoPot. # 1 for O  read from file:
     /home/camp/zhonxu/pseudo/o_pbe_v1.01.uspp.F.UPF
     MD5 check sum: 2bcb18d16ea4b960afae9ec6d52f22d2
     Pseudo is Ultrasoft + core correction, Zval =  6.0
     Generated by new atomic code, or converted to UPF format
     Using radial grid of  737 points,  5 beta functions with:
                l(1) =   0
                l(2) =   0
                l(3) =   1
                l(4) =   1
                l(5) =   2
     Q(r) pseudized with  8 coefficients,  rinner =    0.900   0.900   0.900
                                                       0.900   0.900

     PseudoPot. # 2 for Mo read from file:
     /home/camp/zhonxu/pseudo/mo_pbe_v1.uspp.F.UPF
     MD5 check sum: 30c4dcd161f5d35cd49bb5239c51a633
     Pseudo is Ultrasoft + core correction, Zval = 14.0
     Generated by new atomic code, or converted to UPF format
     Using radial grid of  889 points,  6 beta functions with:
                l(1) =   0
                l(2) =   0
                l(3) =   1
                l(4) =   1
                l(5) =   2
                l(6) =   2
     Q(r) pseudized with  6 coefficients,  rinner =    1.000   1.000   1.000
                                                       1.000   1.000

     PseudoPot. # 3 for H  read from file:
     /home/camp/zhonxu/pseudo/h_pbe_v1.uspp.F.UPF
     MD5 check sum: 3408e3ff4ec8b0a4e358431e7e038a48
     Pseudo is Ultrasoft, Zval =  1.0
     Generated by new atomic code, or converted to UPF format
     Using radial grid of  615 points,  2 beta functions with:
                l(1) =   0
                l(2) =   0
     Q(r) pseudized with  8 coefficients,  rinner =    0.700

     atomic species   valence    mass     pseudopotential
        O0             6.00    15.99940     O ( 1.00)
        Mo1           14.00    95.94000     Mo( 1.00)
        H2             1.00     1.00794     H ( 1.00)

     Simplified LDA+U calculation (l_max = 2) with parameters (eV):
     atomic species    L          U    alpha       J0     beta
        Mo1            2     1.5000   0.0000   0.0000   0.0000

     No symmetry found

   Cartesian axes

     site n.     atom                  positions (alat units)
         1           O0  tau(   1) = (   0.0000000   0.0000000   1.8298429  )
         2           O0  tau(   2) = (   0.0000000   0.6410583   1.8994207  )
         3           Mo1 tau(   3) = (   0.2500000   0.6410583   2.1871278  )
         4           Mo1 tau(   4) = (   0.0000000   0.0000000   2.1851992  )
         5           O0  tau(   5) = (   0.2500000   1.0000510   2.1890070  )
         6           O0  tau(   6) = (   0.2500000   0.2820657   2.1893531  )
         7           O0  tau(   7) = (   0.0000000   0.6410583   2.4671700  )
         8           O0  tau(   8) = (   0.0000000   0.0000000   2.5523250  )
         9           Mo1 tau(   9) = (   0.2500000   0.0000000   2.8391419  )
        10           Mo1 tau(  10) = (   0.0000000   0.6410583   2.8013612  )
        11           O0  tau(  11) = (   0.2500000   0.9231240   2.8197571  )
        12           O0  tau(  12) = (   0.2500000   0.3589927   2.8195593  )
        13           O0  tau(  13) = (   0.0000000   0.0000000   3.0891672  )
        14           O0  tau(  14) = (   0.5000000   0.0000000   1.8327111  )
        15           O0  tau(  15) = (   0.5000000   0.6410583   1.8997669  )
        16           Mo1 tau(  16) = (   0.7500000   0.6410583   2.1871773  )
        17           Mo1 tau(  17) = (   0.5000000   0.0000000   2.1922708  )
        18           O0  tau(  18) = (   0.7500000   1.0000510   2.1898476  )
        19           O0  tau(  19) = (   0.7500000   0.2820657   2.1889575  )
        20           O0  tau(  20) = (   0.5000000   0.6410583   2.4516918  )
        21           O0  tau(  21) = (   0.5000000   0.0000000   2.5499019  )
        22           Mo1 tau(  22) = (   0.7500000   0.0000000   2.8391419  )
        23           Mo1 tau(  23) = (   0.5000000   0.6410583   2.8716808  )
        24           O0  tau(  24) = (   0.7500000   0.9231240   2.8197571  )
        25           O0  tau(  25) = (   0.7500000   0.3589927   2.8196582  )
        26           O0  tau(  26) = (   0.5000000   0.0000000   3.0881782  )
        27           H2  tau(  27) = (  -0.0006600   0.7686802   1.7727267  )
        28           H2  tau(  28) = (   0.4996400   0.7964252   1.8076887  )
        29           H2  tau(  29) = (   0.1674000   0.0210652   1.7585342  )
        30           H2  tau(  30) = (   0.6637700   0.0258988   1.7570507  )
        31           O0  tau(  31) = (   0.5000200   0.6407506   3.1806520  )

     number of k points=    10  Methfessel-Paxton smearing, width (Ry)=  0.0100
                       cart. coord. in units 2pi/alat
        k(    1) = (   0.0000000   0.0000000   0.0000000), wk =   0.1250000
        k(    2) = (   0.0000000   0.1949901   0.0000000), wk =   0.2500000
        k(    3) = (   0.0000000  -0.3899801   0.0000000), wk =   0.1250000
        k(    4) = (   0.2500000   0.0000000   0.0000000), wk =   0.2500000
        k(    5) = (   0.2500000   0.1949901   0.0000000), wk =   0.2500000
        k(    6) = (   0.2500000  -0.3899801   0.0000000), wk =   0.2500000
        k(    7) = (  -0.5000000   0.0000000   0.0000000), wk =   0.1250000
        k(    8) = (  -0.5000000   0.1949901   0.0000000), wk =   0.2500000
        k(    9) = (  -0.5000000  -0.3899801   0.0000000), wk =   0.1250000
        k(   10) = (  -0.2500000   0.1949901   0.0000000), wk =   0.2500000

     Largest allocated arrays     est. size (Mb)     dimensions
     Largest temporary arrays     est. size (Mb)     dimensions

     Check: negative/imaginary core charge=   -0.000003    0.000000

     Initial potential from superposition of free atoms
     Check: negative starting charge=   -0.002499

     starting charge  229.99143, renormalised to  230.00000

     negative rho (up, down):  0.250E-02 0.000E+00
     Number of +U iterations with fixed ns =  0
     Starting occupations:
 --- enter write_ns ---
 LDA+U parameters:
U( 2)     =  1.50000000
alpha( 2) =  0.00000000
atom    3   Tr[ns(na)] =   5.00000
    eigenvalues:
  0.500  0.500  0.500  0.500  0.500
    eigenvectors:
  1.000  0.000  0.000  0.000  0.000
  0.000  1.000  0.000  0.000  0.000
  0.000  0.000  1.000  0.000  0.000
  0.000  0.000  0.000  1.000  0.000
  0.000  0.000  0.000  0.000  1.000
    occupations:
  0.500  0.000  0.000  0.000  0.000
  0.000  0.500  0.000  0.000  0.000
  0.000  0.000  0.500  0.000  0.000
  0.000  0.000  0.000  0.500  0.000
  0.000  0.000  0.000  0.000  0.500
atom    4   Tr[ns(na)] =   5.00000
    eigenvalues:
  0.500  0.500  0.500  0.500  0.500
    eigenvectors:
  1.000  0.000  0.000  0.000  0.000
  0.000  1.000  0.000  0.000  0.000
  0.000  0.000  1.000  0.000  0.000
  0.000  0.000  0.000  1.000  0.000
  0.000  0.000  0.000  0.000  1.000
    occupations:
  0.500  0.000  0.000  0.000  0.000
  0.000  0.500  0.000  0.000  0.000
  0.000  0.000  0.500  0.000  0.000
  0.000  0.000  0.000  0.500  0.000
  0.000  0.000  0.000  0.000  0.500
atom    9   Tr[ns(na)] =   5.00000
    eigenvalues:
  0.500  0.500  0.500  0.500  0.500
    eigenvectors:
  1.000  0.000  0.000  0.000  0.000
  0.000  1.000  0.000  0.000  0.000
  0.000  0.000  1.000  0.000  0.000
  0.000  0.000  0.000  1.000  0.000
  0.000  0.000  0.000  0.000  1.000
    occupations:
  0.500  0.000  0.000  0.000  0.000
  0.000  0.500  0.000  0.000  0.000
  0.000  0.000  0.500  0.000  0.000
  0.000  0.000  0.000  0.500  0.000
  0.000  0.000  0.000  0.000  0.500
atom   10   Tr[ns(na)] =   5.00000
    eigenvalues:
  0.500  0.500  0.500  0.500  0.500
    eigenvectors:
  1.000  0.000  0.000  0.000  0.000
  0.000  1.000  0.000  0.000  0.000
  0.000  0.000  1.000  0.000  0.000
  0.000  0.000  0.000  1.000  0.000
  0.000  0.000  0.000  0.000  1.000
    occupations:
  0.500  0.000  0.000  0.000  0.000
  0.000  0.500  0.000  0.000  0.000
  0.000  0.000  0.500  0.000  0.000
  0.000  0.000  0.000  0.500  0.000
  0.000  0.000  0.000  0.000  0.500
atom   16   Tr[ns(na)] =   5.00000
    eigenvalues:
  0.500  0.500  0.500  0.500  0.500
    eigenvectors:
  1.000  0.000  0.000  0.000  0.000
  0.000  1.000  0.000  0.000  0.000
  0.000  0.000  1.000  0.000  0.000
  0.000  0.000  0.000  1.000  0.000
  0.000  0.000  0.000  0.000  1.000
    occupations:
  0.500  0.000  0.000  0.000  0.000
  0.000  0.500  0.000  0.000  0.000
  0.000  0.000  0.500  0.000  0.000
  0.000  0.000  0.000  0.500  0.000
  0.000  0.000  0.000  0.000  0.500
atom   17   Tr[ns(na)] =   5.00000
    eigenvalues:
  0.500  0.500  0.500  0.500  0.500
    eigenvectors:
  1.000  0.000  0.000  0.000  0.000
  0.000  1.000  0.000  0.000  0.000
  0.000  0.000  1.000  0.000  0.000
  0.000  0.000  0.000  1.000  0.000
  0.000  0.000  0.000  0.000  1.000
    occupations:
  0.500  0.000  0.000  0.000  0.000
  0.000  0.500  0.000  0.000  0.000
  0.000  0.000  0.500  0.000  0.000
  0.000  0.000  0.000  0.500  0.000
  0.000  0.000  0.000  0.000  0.500
atom   22   Tr[ns(na)] =   5.00000
    eigenvalues:
  0.500  0.500  0.500  0.500  0.500
    eigenvectors:
  1.000  0.000  0.000  0.000  0.000
  0.000  1.000  0.000  0.000  0.000
  0.000  0.000  1.000  0.000  0.000
  0.000  0.000  0.000  1.000  0.000
  0.000  0.000  0.000  0.000  1.000
    occupations:
  0.500  0.000  0.000  0.000  0.000
  0.000  0.500  0.000  0.000  0.000
[...]
  0.503  0.536  0.588  0.595  0.689
    eigenvectors:
  0.000  0.000  0.199  0.014  0.788
  0.000  0.000  0.070  0.930  0.000
  0.240  0.760  0.000  0.000  0.000
  0.000  0.000  0.732  0.056  0.212
  0.760  0.240  0.000  0.000  0.000
    occupations:
  0.667 -0.001 -0.000 -0.041 -0.002
 -0.001  0.594 -0.000 -0.001 -0.000
 -0.000 -0.000  0.528 -0.000  0.014
 -0.041 -0.001 -0.000  0.610  0.001
 -0.002 -0.000  0.014  0.001  0.511
atom   10   Tr[ns(na)] =   5.77305
    eigenvalues:
  0.500  0.516  0.521  0.639  0.710
    eigenvectors:
  0.986  0.013  0.000  0.000  0.000
  0.000  0.000  0.000  1.000  0.000
  0.013  0.987  0.000  0.000  0.000
  0.000  0.000  0.000  0.000  1.000
  0.000  0.000  1.000  0.000  0.000
    occupations:
  0.500  0.000 -0.002  0.004  0.000
  0.000  0.639  0.000 -0.000 -0.000
 -0.002  0.000  0.516  0.000 -0.000
  0.004 -0.000  0.000  0.710  0.000
  0.000 -0.000 -0.000  0.000  0.521
atom   16   Tr[ns(na)] =   5.82440
    eigenvalues:
  0.489  0.528  0.573  0.608  0.714
    eigenvectors:
  0.012  0.035  0.320  0.000  0.633
  0.000  0.931  0.064  0.002  0.002
  0.812  0.000  0.000  0.175  0.013
  0.000  0.032  0.609  0.006  0.353
  0.176  0.001  0.007  0.816  0.000
    occupations:
  0.659  0.013  0.020 -0.068  0.004
  0.013  0.532  0.003  0.004 -0.002
  0.020  0.003  0.513 -0.010 -0.045
 -0.068  0.004 -0.010  0.621 -0.002
  0.004 -0.002 -0.045 -0.002  0.587
atom   17   Tr[ns(na)] =   5.82328
    eigenvalues:
  0.459  0.522  0.581  0.605  0.744
    eigenvectors:
  0.000  0.000  0.958  0.038  0.004
  0.001  0.000  0.038  0.960  0.000
  0.999  0.000  0.000  0.001  0.000
  0.000  0.000  0.003  0.001  0.996
  0.000  1.000  0.000  0.000  0.000
    occupations:
  0.582  0.005  0.001 -0.010  0.000
  0.005  0.604  0.005 -0.002 -0.001
  0.001  0.005  0.460  0.000  0.000
 -0.010 -0.002  0.000  0.743  0.000
  0.000 -0.001  0.000  0.000  0.522
atom   22   Tr[ns(na)] =   5.81943
    eigenvalues:
  0.503  0.536  0.588  0.595  0.688
    eigenvectors:
  0.000  0.000  0.197  0.017  0.787
  0.000  0.000  0.081  0.919  0.000
  0.234  0.766  0.000  0.000  0.000
  0.000  0.000  0.723  0.064  0.213
  0.766  0.234  0.000  0.000  0.000
    occupations:
  0.666  0.001  0.000 -0.041 -0.001
  0.001  0.594 -0.001  0.002 -0.000
  0.000 -0.001  0.528 -0.000 -0.014
 -0.041  0.002 -0.000  0.610  0.000
 -0.001 -0.000 -0.014  0.000  0.511
atom   23   Tr[ns(na)] =   5.88340
    eigenvalues:
  0.517  0.528  0.540  0.620  0.736
    eigenvectors:
  0.000  0.000  0.000  0.976  0.024
  0.000  0.000  1.000  0.000  0.000
  0.000  1.000  0.000  0.000  0.000
  0.000  0.000  0.000  0.024  0.976
  1.000  0.000  0.000  0.000  0.000
    occupations:
  0.623  0.000 -0.000 -0.018 -0.000
  0.000  0.540 -0.000  0.000  0.000
 -0.000 -0.000  0.528  0.000 -0.000
 -0.018  0.000  0.000  0.733  0.000
 -0.000  0.000 -0.000  0.000  0.517
N of occupied +U levels =  46.5715283
 --- exit write_ns ---

     Threshold (ethr) on eigenvalues was too large:
     Diagonalizing with lowered threshold

     Davidson diagonalization with overlap
     ethr =  1.67E-09,  avg # of iterations =  3.0

[...]

     total energy              =   -1731.47471145 Ry
     Harris-Foulkes estimate   =   -1731.47471146 Ry
     estimated scf accuracy    <       0.00000002 Ry

     iteration # 11     ecut=    40.00 Ry     beta=0.70
     Davidson diagonalization with overlap
     ethr =  6.94E-12,  avg # of iterations =  1.0

     negative rho (up, down):  0.353E-02 0.000E+00

     End of self-consistent calculation
 --- enter write_ns ---
 LDA+U parameters:
U( 2)     =  1.50000000
alpha( 2) =  0.00000000
atom    3   Tr[ns(na)] =   5.82427
    eigenvalues:
  0.491  0.528  0.573  0.608  0.713
    eigenvectors:
  0.012  0.035  0.321  0.000  0.632
  0.000  0.931  0.064  0.002  0.002
  0.810  0.000  0.000  0.177  0.012
  0.000  0.032  0.607  0.007  0.354
  0.178  0.001  0.008  0.813  0.000
    occupations:
  0.659 -0.013  0.020 -0.067 -0.004
 -0.013  0.532 -0.003 -0.004 -0.002
  0.020 -0.003  0.514 -0.010  0.044
 -0.067 -0.004 -0.010  0.621  0.003
 -0.004 -0.002  0.044  0.003  0.586
atom    4   Tr[ns(na)] =   5.80396
    eigenvalues:
  0.453  0.523  0.578  0.621  0.728
    eigenvectors:
  0.000  0.000  0.992  0.007  0.001
  0.001  0.000  0.007  0.992  0.000
  0.999  0.000  0.000  0.001  0.000
  0.000  0.000  0.001  0.000  0.999
  0.000  1.000  0.000  0.000  0.000
    occupations:
  0.578  0.004  0.001 -0.003  0.000
  0.004  0.620  0.004 -0.001 -0.002
  0.001  0.004  0.453 -0.001  0.000
 -0.003 -0.001 -0.001  0.728 -0.000
  0.000 -0.002  0.000 -0.000  0.523
atom    9   Tr[ns(na)] =   5.82017
    eigenvalues:
  0.503  0.536  0.588  0.595  0.689
    eigenvectors:
  0.000  0.000  0.199  0.014  0.788
  0.000  0.000  0.070  0.930  0.000
  0.240  0.760  0.000  0.000  0.000
  0.000  0.000  0.732  0.056  0.212
  0.759  0.240  0.000  0.000  0.000
    occupations:
  0.667 -0.001 -0.000 -0.041 -0.002
 -0.001  0.594 -0.000 -0.001 -0.000
 -0.000 -0.000  0.528 -0.000  0.014
 -0.041 -0.001 -0.000  0.610  0.001
 -0.002 -0.000  0.014  0.001  0.511
atom   10   Tr[ns(na)] =   5.77208
    eigenvalues:
  0.500  0.516  0.521  0.639  0.710
    eigenvectors:
  0.986  0.013  0.000  0.000  0.000
  0.000  0.000  0.000  1.000  0.000
  0.013  0.987  0.000  0.000  0.000
  0.000  0.000  0.000  0.000  1.000
  0.000  0.000  1.000  0.000  0.000
    occupations:
  0.500  0.000 -0.002  0.004  0.000
  0.000  0.639  0.000 -0.000 -0.000
 -0.002  0.000  0.516  0.000 -0.000
  0.004 -0.000  0.000  0.710  0.000
  0.000 -0.000 -0.000  0.000  0.521
atom   16   Tr[ns(na)] =   5.82441
    eigenvalues:
  0.489  0.528  0.573  0.608  0.714
    eigenvectors:
  0.012  0.035  0.320  0.000  0.633
  0.000  0.931  0.064  0.002  0.002
  0.812  0.000  0.000  0.175  0.013
  0.000  0.032  0.608  0.006  0.353
  0.176  0.001  0.007  0.816  0.000
    occupations:
  0.659  0.013  0.020 -0.068  0.004
  0.013  0.532  0.003  0.004 -0.002
  0.020  0.003  0.513 -0.010 -0.045
 -0.068  0.004 -0.010  0.621 -0.002
  0.004 -0.002 -0.045 -0.002  0.587
atom   17   Tr[ns(na)] =   5.82390
    eigenvalues:
  0.459  0.522  0.581  0.605  0.744
    eigenvectors:
  0.000  0.000  0.959  0.037  0.004
  0.001  0.000  0.038  0.960  0.000
  0.999  0.000  0.000  0.001  0.000
  0.000  0.000  0.003  0.001  0.996
  0.000  1.000  0.000  0.000  0.000
    occupations:
  0.582  0.005  0.001 -0.010  0.000
  0.005  0.604  0.005 -0.002 -0.001
  0.001  0.005  0.460  0.000  0.000
 -0.010 -0.002  0.000  0.743  0.000
  0.000 -0.001  0.000  0.000  0.522
atom   22   Tr[ns(na)] =   5.81979
    eigenvalues:
  0.503  0.536  0.588  0.595  0.688
    eigenvectors:
  0.000  0.000  0.197  0.017  0.787
  0.000  0.000  0.081  0.919  0.000
  0.234  0.766  0.000  0.000  0.000
  0.000  0.000  0.723  0.064  0.213
  0.766  0.234  0.000  0.000  0.000
    occupations:
  0.666  0.001  0.000 -0.041 -0.001
  0.001  0.594 -0.001  0.002 -0.000
  0.000 -0.001  0.528 -0.000 -0.014
 -0.041  0.002 -0.000  0.610  0.000
 -0.001 -0.000 -0.014  0.000  0.511
atom   23   Tr[ns(na)] =   5.88244
    eigenvalues:
  0.517  0.528  0.540  0.620  0.736
    eigenvectors:
  0.000  0.000  0.000  0.976  0.024
  0.000  0.000  1.000  0.000  0.000
  0.000  1.000  0.000  0.000  0.000
  0.000  0.000  0.000  0.024  0.976
  1.000  0.000  0.000  0.000  0.000
    occupations:
  0.623  0.000 -0.000 -0.018 -0.000
  0.000  0.540 -0.000  0.000  0.000
 -0.000 -0.000  0.528  0.000 -0.000
 -0.018  0.000  0.000  0.733  0.000
 -0.000  0.000 -0.000  0.000  0.517
N of occupied +U levels =  46.5710127
 --- exit write_ns ---

[...]

          k = 0.2500-0.3900 0.0000 ( 29726 PWs)   bands (ev):

[...]

          k =-0.2500 0.1950 0.0000 ( 29746 PWs)   bands (ev):

   -62.8940 -62.7804 -62.6933 -62.4870 -62.4750 -62.4412 -62.3919 -62.3877
   -37.5386 -37.3704 -37.1372 -37.1239 -37.0415 -36.9235 -36.8853 -36.8195
   -36.8119 -36.7840 -36.7740 -36.6940 -36.6824 -36.6810 -36.6163 -36.5899
   -36.5697 -36.5189 -36.4814 -36.4687 -36.4465 -36.3034 -36.1347 -36.0683
   -20.8018 -20.5393 -20.1010 -20.0111 -19.8881 -19.7140 -19.6486 -19.5519
   -19.5082 -19.2942 -19.1711 -19.0650 -19.0528 -19.0023 -18.9007 -18.8302
   -18.4303 -18.3192 -18.2770  -8.8698  -8.7122  -8.4503  -8.0937  -7.9251
    -7.9156  -7.7918  -7.6293  -7.5608  -7.4716  -7.3393  -7.1472  -7.0542
    -6.9586  -6.7366  -6.6326  -6.5401  -6.5089  -6.3452  -6.2721  -6.0610
    -5.9938  -5.9612  -5.8786  -5.6670  -5.5633  -5.4657  -5.3559  -5.2131
    -5.1636  -5.0653  -4.9488  -4.8142  -4.7549  -4.7062  -4.6116  -4.5932
    -4.5062  -4.3905  -4.2796  -4.2604  -4.1842  -3.9838  -3.9626  -3.8790
    -3.8395  -3.7700  -3.6666  -3.5808  -3.5255  -3.4586  -3.4109  -3.2735
    -3.1348  -3.0533  -3.0003  -2.7218  -1.8325  -1.6990  -1.5886  -0.7540
    -0.6754  -0.6166  -0.4933   0.0348   0.1550   0.4830   0.5140   0.6078
     0.8351   0.8620   0.9700   1.1815   1.2888   1.4527   1.5492   1.6078
     1.6705   1.6913   1.7323   2.0668   2.2394   3.2266   3.2360   3.5047
     3.5604   3.7013   3.9009   4.1007   4.1646   4.2906   4.5458   4.6043
     4.7049   4.9592   5.2620   5.3088   5.5674   5.6583   5.7615   5.8239
     5.9509   6.0564   6.3226   6.5054   6.7732   6.9503   7.1514   7.2158
     7.2550   7.5952   7.6159   7.8112   8.0345   8.0943   8.2801   8.3494
     8.5207   8.5918   8.6758   8.8052   9.0076   9.1284   9.1930   9.3542
     9.4814   9.5248   9.6267   9.6421   9.6780   9.7399   9.9491  10.0926
    10.1363  10.2416  10.3114  10.3791  10.5389  10.5752  10.6864  10.7536
    10.8720  10.9768  11.0326  11.2116  11.3760  11.4705  11.6008  11.6675
    11.7592  11.8217  11.9288  11.9715  12.0395  12.2714  12.3336  12.4096
    12.4494  12.4906  12.5478  12.6029  12.6781  12.8407  12.9100  12.9193
    13.0405  13.1812  13.2499  13.2653  13.3377  13.4169  13.4703  13.5370
    13.5807  13.6653  13.7045  13.7693  13.8807  13.9354  14.0391  14.1143
    14.1700  14.2098  14.3262  14.4088  14.4421  14.5497  14.6104  14.6647
    14.7033  14.7641  14.8643  14.9131  14.9441  15.0175  15.1880  15.2185
    15.3440  15.3917  15.4646  15.5567  15.6145  15.7165  15.7883  15.8703
    15.9447  15.9880  16.0668  16.1470  16.1943  16.2385  16.3090  16.3730
    16.4300  16.4597  16.5714  16.6407  16.7596  16.8514  16.8858  16.9578
    17.0698  17.1274  17.2510  17.2753  17.3024  17.3955  17.4626  17.5687
    17.5876  17.6880  17.7232  17.7882  17.9084  17.9774  18.0359  18.1225
    18.1387  18.2275  18.2718  18.3557  18.4045  18.4870  18.5816  18.6415
    18.7740  18.8368  18.9301  18.9660  19.0813  19.1075  19.1580  19.2392
    19.4201  19.4598  19.5729  19.6826  19.7076  19.8147  19.8513  19.9062
    19.9637  20.0442  20.1237  20.1993  20.2661  20.2983  20.3588  20.4337
    20.4460  20.5099  20.5866  20.6551  20.6703  20.7065  20.7807  20.8901
    20.9213  20.9992  21.0543  21.1304  21.1908  21.2552  21.3109  21.3797
    21.4838  21.5385  21.5944  21.6803  21.7488  21.7776  21.8184  21.8555
    21.8830

     the Fermi energy is    -0.2254 ev

!    total energy              =   -1731.47471145 Ry
     Harris-Foulkes estimate   =   -1731.47471146 Ry
     estimated scf accuracy    <          9.9E-09 Ry

     The total energy is the sum of the following terms:

     one-electron contribution =  -22113.33444513 Ry
     hartree contribution      =   11078.40943966 Ry
     xc contribution           =    -293.72105213 Ry
     ewald contribution        =    9596.12661274 Ry
     Hubbard energy            =       1.04460581 Ry
     smearing contrib. (-TS)   =       0.00012761 Ry

     convergence has been achieved in  11 iterations

     Forces acting on atoms (Ry/au):

     negative rho (up, down):  0.353E-02 0.000E+00
     atom    1 type  1   force =     0.00024210   -0.00331523   -0.00017791
     atom    2 type  1   force =    -0.00018156    0.00605392    0.00064188
     atom    3 type  2   force =    -0.04416966   -0.00887359   -0.00002698
     atom    4 type  2   force =     0.00136065    0.00528204   -0.00020961
     atom    5 type  1   force =    -0.00397755    0.00016106    0.00024227
     atom    6 type  1   force =    -0.00577413   -0.00175850    0.00023219
     atom    7 type  1   force =     0.00023193    0.00046034    0.00029263
     atom    8 type  1   force =     0.00320652    0.00038281   -0.00021622
     atom    9 type  2   force =     0.00001118   -0.00008903    0.00006282
     atom   10 type  2   force =    -0.00007116    0.00009773    0.00005762
     atom   11 type  1   force =    -0.01156090   -0.03498964   -0.00026167
     atom   12 type  1   force =    -0.01222346    0.03521925   -0.00027316
     atom   13 type  1   force =    -0.00011555    0.00016600    0.00020555
     atom   14 type  1   force =    -0.00509640   -0.00590476   -0.00041306
     atom   15 type  1   force =     0.00004081    0.01100903    0.00056410
     atom   16 type  2   force =     0.04360895   -0.00981031    0.00002477
     atom   17 type  2   force =    -0.00229614    0.00311669    0.00004246
     atom   18 type  1   force =     0.00665720    0.00138083    0.00024104
     atom   19 type  1   force =     0.00601982   -0.00179902    0.00019640
     atom   20 type  1   force =     0.00010585    0.00361142   -0.00036765
     atom   21 type  1   force =     0.00326017    0.00043555    0.00037589
     atom   22 type  2   force =    -0.00400606   -0.00077001    0.00019377
     atom   23 type  2   force =     0.00012068    0.00040456   -0.00037072
     atom   24 type  1   force =     0.01198711   -0.03499170   -0.00025181
     atom   25 type  1   force =     0.01186971    0.03515501   -0.00024728
     atom   26 type  1   force =     0.00002089    0.00030799   -0.00014718
     atom   27 type  3   force =     0.00001090   -0.00046893   -0.00033612
     atom   28 type  3   force =    -0.00001050   -0.00033234   -0.00001226
     atom   29 type  3   force =     0.00021568   -0.00000471   -0.00005595
     atom   30 type  3   force =     0.00052612   -0.00011827    0.00006978
     atom   31 type  1   force =    -0.00001319   -0.00001819   -0.00007559

     Total force =     0.001705     Total SCF correction =     0.000176
     SCF correction compared to forces is large: reduce conv_thr to get better values

     bfgs converged in   6 scf cycles and   5 bfgs steps
     (criteria: energy < 0.10E-03, force < 0.10E-02)

     End of BFGS Geometry Optimization

     Final energy   =   -1731.4747114469 Ry
Begin final coordinates

ATOMIC_POSITIONS (crystal)
O0       0.000000000   0.000000000   0.370122905    0   0   1
O0       0.000000000   0.500000000   0.384235009    0   0   1
Mo1      0.250000000   0.500000000   0.442261627    0   0   1
Mo1      0.000000000   0.000000000   0.441861016    0   0   1
O0       0.250000000   0.780000000   0.442662819    0   0   1
O0       0.250000000   0.220000000   0.442769876    0   0   1
O0       0.000000000   0.500000000   0.499120583    0   0   1
O0       0.000000000   0.000000000   0.516141740    0   0   1
Mo1      0.250000000   0.000000000   0.574030614    0   0   1
Mo1      0.000000000   0.500000000   0.566531324    0   0   1
O0       0.250000000   0.720000000   0.570352133    0   0   1
O0       0.250000000   0.280000000   0.570308377    0   0   1
O0       0.000000000   0.000000000   0.624482387    0   0   1
O0       0.500000000   0.000000000   0.370743071    0   0   1
O0       0.500000000   0.500000000   0.384089016    0   0   1
Mo1      0.750000000   0.500000000   0.442260551    0   0   1
Mo1      0.500000000   0.000000000   0.443177079    0   0   1
O0       0.750000000   0.780000000   0.442862426    0   0   1
O0       0.750000000   0.220000000   0.442646604    0   0   1
O0       0.500000000   0.500000000   0.496092240    0   0   1
O0       0.500000000   0.000000000   0.515551037    0   0   1
Mo1      0.750000000   0.000000000   0.574054669    0   0   1
Mo1      0.500000000   0.500000000   0.580361057    0   0   1
O0       0.750000000   0.720000000   0.570341661    0   0   1
O0       0.750000000   0.280000000   0.570341999    0   0   1
O0       0.500000000   0.000000000   0.624355106    0   0   1
H2      -0.000652175   0.598874932   0.358471069
H2       0.499639337   0.621161711   0.365476235
H2       0.167236841   0.016381674   0.355653063
H2       0.663863961   0.020011981   0.355416893
O0       0.500002577   0.499723857   0.642805813
End final coordinates

     General routines

     Parallel routines
     Hubbard U routines

   This run was terminated on:   1:25:39  29Apr2014

   JOB DONE.
Running PBS batch system epilogue script
Job id: 340368.audhumbla.fysik.dtu.dk
Username: zhonxu
Groupname: campgst
Jobname: MoO2/Eads-2-layers/O-U-1.5
Sessionid: 25035
Queuename: verylong
Accounting:
This job has allocated the following 16 nodes:
a093 a093 a093 a093 a093 a093 a093 a093 a021 a021 a021 a021 a021 a021 a021 a021
Finished epilogue job 340368.audhumbla.fysik.dtu.dk for zhonxu