     Program PWSCF v.5.0.2 (svn rev. 9656) starts on 28Apr2014 at 20:44:45

     Current dimensions of program PWSCF are:
     Max number of different atomic species (ntypx) = 10
     Max number of k-points (npk) =  40000
     Max angular momentum in pseudopotentials (lmaxx) =  3
     Reading input from pwscf.in
Warning: card &CELL ignored
Warning: card / ignored

     Subspace diagonalization in iterative solution of the eigenvalue problem:
     a serial algorithm will be used

     bravais-lattice index     =            0
     lattice parameter (alat)  =      10.3179  a.u.
     unit-cell volume          =    6964.3238 (a.u.)^3
     number of atoms/cell      =           31
     number of atomic types    =            3
     number of electrons       =       230.00
     number of Kohn-Sham states=          345
     kinetic-energy cutoff     =      40.0000  Ry
     charge density cutoff     =     500.0000  Ry
     convergence threshold     =      1.0E-06
     mixing beta               =       0.7000
     number of iterations used =            8  plain     mixing
     Exchange-correlation      = SLA  PW   PBE  PBE ( 1 4 3 4 0)
     EXX-fraction              =        0.00
     nstep                     =           50

     celldm(1)=  10.317905  celldm(2)=   0.000000  celldm(3)=   0.000000
     celldm(4)=   0.000000  celldm(5)=   0.000000  celldm(6)=   0.000000

     crystal axes: (cart. coord. in units of alat)
               a(1) = (   1.000000   0.000000   0.000000 )
               a(2) = (   0.000000   1.282117   0.000000 )
               a(3) = (   0.000000   0.000000   4.945120 )

     reciprocal axes: (cart. coord. in units 2 pi/alat)
               b(1) = (  1.000000  0.000000  0.000000 )
               b(2) = (  0.000000  0.779960  0.000000 )
               b(3) = (  0.000000  0.000000  0.202220 )

     PseudoPot. # 1 for O  read from file:
     /home/camp/zhonxu/pseudo/o_pbe_v1.01.uspp.F.UPF
     MD5 check sum: 2bcb18d16ea4b960afae9ec6d52f22d2
     Pseudo is Ultrasoft + core correction, Zval =  6.0
     Generated by new atomic code, or converted to UPF format
     Using radial grid of  737 points,  5 beta functions with:
                l(1) =   0
                l(2) =   0
                l(3) =   1
                l(4) =   1
                l(5) =   2
     Q(r) pseudized with  8 coefficients,  rinner =    0.900   0.900   0.900
                                                       0.900   0.900

     PseudoPot. # 2 for Mo read from file:
     /home/camp/zhonxu/pseudo/mo_pbe_v1.uspp.F.UPF
     MD5 check sum: 30c4dcd161f5d35cd49bb5239c51a633
     Pseudo is Ultrasoft + core correction, Zval = 14.0
     Generated by new atomic code, or converted to UPF format
     Using radial grid of  889 points,  6 beta functions with:
                l(1) =   0
                l(2) =   0
                l(3) =   1
                l(4) =   1
                l(5) =   2
                l(6) =   2
     Q(r) pseudized with  6 coefficients,  rinner =    1.000   1.000   1.000
                                                       1.000   1.000

     PseudoPot. # 3 for H  read from file:
     /home/camp/zhonxu/pseudo/h_pbe_v1.uspp.F.UPF
     MD5 check sum: 3408e3ff4ec8b0a4e358431e7e038a48
     Pseudo is Ultrasoft, Zval =  1.0
     Generated by new atomic code, or converted to UPF format
     Using radial grid of  615 points,  2 beta functions with:
                l(1) =   0
                l(2) =   0
     Q(r) pseudized with  8 coefficients,  rinner =    0.700

     atomic species   valence    mass     pseudopotential
        O0             6.00    15.99940     O ( 1.00)
        Mo1           14.00    95.94000     Mo( 1.00)
        H2             1.00     1.00794     H ( 1.00)

     Simplified LDA+U calculation (l_max = 2) with parameters (eV):
     atomic species    L          U    alpha       J0     beta
        Mo1            2     7.0000   0.0000   0.0000   0.0000

     No symmetry found

   Cartesian axes

     site n.     atom                  positions (alat units)
         1           O0  tau(   1) = (   0.0000000   0.0000000   1.8298429  )
         2           O0  tau(   2) = (   0.0000000   0.6410583   1.8994207  )
         3           Mo1 tau(   3) = (   0.2500000   0.6410583   2.1871278  )
         4           Mo1 tau(   4) = (   0.0000000   0.0000000   2.1851992  )
         5           O0  tau(   5) = (   0.2500000   1.0000510   2.1890070  )
         6           O0  tau(   6) = (   0.2500000   0.2820657   2.1893531  )
         7           O0  tau(   7) = (   0.0000000   0.6410583   2.4671700  )
         8           O0  tau(   8) = (   0.0000000   0.0000000   2.5523250  )
         9           Mo1 tau(   9) = (   0.2500000   0.0000000   2.8391419  )
        10           Mo1 tau(  10) = (   0.0000000   0.6410583   2.8013612  )
        11           O0  tau(  11) = (   0.2500000   0.9231240   2.8197571  )
        12           O0  tau(  12) = (   0.2500000   0.3589927   2.8195593  )
        13           O0  tau(  13) = (   0.0000000   0.0000000   3.0891672  )
        14           O0  tau(  14) = (   0.5000000   0.0000000   1.8327111  )
        15           O0  tau(  15) = (   0.5000000   0.6410583   1.8997669  )
        16           Mo1 tau(  16) = (   0.7500000   0.6410583   2.1871773  )
        17           Mo1 tau(  17) = (   0.5000000   0.0000000   2.1922708  )
        18           O0  tau(  18) = (   0.7500000   1.0000510   2.1898476  )
        19           O0  tau(  19) = (   0.7500000   0.2820657   2.1889575  )
        20           O0  tau(  20) = (   0.5000000   0.6410583   2.4516918  )
        21           O0  tau(  21) = (   0.5000000   0.0000000   2.5499019  )
        22           Mo1 tau(  22) = (   0.7500000   0.0000000   2.8391419  )
        23           Mo1 tau(  23) = (   0.5000000   0.6410583   2.8716808  )
        24           O0  tau(  24) = (   0.7500000   0.9231240   2.8197571  )
        25           O0  tau(  25) = (   0.7500000   0.3589927   2.8196582  )
        26           O0  tau(  26) = (   0.5000000   0.0000000   3.0881782  )
        27           H2  tau(  27) = (  -0.0006600   0.7686802   1.7727267  )
        28           H2  tau(  28) = (   0.4996400   0.7964252   1.8076887  )
        29           H2  tau(  29) = (   0.1674000   0.0210652   1.7585342  )
        30           H2  tau(  30) = (   0.6637700   0.0258988   1.7570507  )
        31           O0  tau(  31) = (   0.5000200   0.6407506   3.1806520  )

     number of k points=    10  Methfessel-Paxton smearing, width (Ry)=  0.0100
                       cart. coord. in units 2pi/alat
        k(    1) = (   0.0000000   0.0000000   0.0000000), wk =   0.1250000
        k(    2) = (   0.0000000   0.1949901   0.0000000), wk =   0.2500000
        k(    3) = (   0.0000000  -0.3899801   0.0000000), wk =   0.1250000
        k(    4) = (   0.2500000   0.0000000   0.0000000), wk =   0.2500000
        k(    5) = (   0.2500000   0.1949901   0.0000000), wk =   0.2500000
        k(    6) = (   0.2500000  -0.3899801   0.0000000), wk =   0.2500000
        k(    7) = (  -0.5000000   0.0000000   0.0000000), wk =   0.1250000
        k(    8) = (  -0.5000000   0.1949901   0.0000000), wk =   0.2500000
        k(    9) = (  -0.5000000  -0.3899801   0.0000000), wk =   0.1250000
        k(   10) = (  -0.2500000   0.1949901   0.0000000), wk =   0.2500000

     Largest allocated arrays     est. size (Mb)     dimensions
     Largest temporary arrays     est. size (Mb)     dimensions

     Check: negative/imaginary core charge=   -0.000003    0.000000

     Initial potential from superposition of free atoms
     Check: negative starting charge=   -0.002499

     starting charge  229.99143, renormalised to  230.00000

     negative rho (up, down):  0.250E-02 0.000E+00
     Number of +U iterations with fixed ns =  0
     Starting occupations:
 --- enter write_ns ---
 LDA+U parameters:
U( 2)     =  7.00000000
alpha( 2) =  0.00000000
atom    3   Tr[ns(na)] =   5.00000
    eigenvalues:
  0.500  0.500  0.500  0.500  0.500
    eigenvectors:
  1.000  0.000  0.000  0.000  0.000
  0.000  1.000  0.000  0.000  0.000
  0.000  0.000  1.000  0.000  0.000
  0.000  0.000  0.000  1.000  0.000
  0.000  0.000  0.000  0.000  1.000
    occupations:
  0.500  0.000  0.000  0.000  0.000
  0.000  0.500  0.000  0.000  0.000
  0.000  0.000  0.500  0.000  0.000
  0.000  0.000  0.000  0.500  0.000
  0.000  0.000  0.000  0.000  0.500
atom    4   Tr[ns(na)] =   5.00000
    eigenvalues:
  0.500  0.500  0.500  0.500  0.500
    eigenvectors:
  1.000  0.000  0.000  0.000  0.000
  0.000  1.000  0.000  0.000  0.000
  0.000  0.000  1.000  0.000  0.000
  0.000  0.000  0.000  1.000  0.000
  0.000  0.000  0.000  0.000  1.000
    occupations:
  0.500  0.000  0.000  0.000  0.000
  0.000  0.500  0.000  0.000  0.000
  0.000  0.000  0.500  0.000  0.000
  0.000  0.000  0.000  0.500  0.000
  0.000  0.000  0.000  0.000  0.500
atom    9   Tr[ns(na)] =   5.00000
    eigenvalues:
  0.500  0.500  0.500  0.500  0.500
    eigenvectors:
  1.000  0.000  0.000  0.000  0.000
  0.000  1.000  0.000  0.000  0.000
  0.000  0.000  1.000  0.000  0.000
  0.000  0.000  0.000  1.000  0.000
  0.000  0.000  0.000  0.000  1.000
    occupations:
  0.500  0.000  0.000  0.000  0.000
  0.000  0.500  0.000  0.000  0.000
  0.000  0.000  0.500  0.000  0.000
  0.000  0.000  0.000  0.500  0.000
  0.000  0.000  0.000  0.000  0.500
atom   10   Tr[ns(na)] =   5.00000
    eigenvalues:
  0.500  0.500  0.500  0.500  0.500
    eigenvectors:
  1.000  0.000  0.000  0.000  0.000
  0.000  1.000  0.000  0.000  0.000
  0.000  0.000  1.000  0.000  0.000
  0.000  0.000  0.000  1.000  0.000
  0.000  0.000  0.000  0.000  1.000
    occupations:
  0.500  0.000  0.000  0.000  0.000
  0.000  0.500  0.000  0.000  0.000
  0.000  0.000  0.500  0.000  0.000
  0.000  0.000  0.000  0.500  0.000
  0.000  0.000  0.000  0.000  0.500
atom   16   Tr[ns(na)] =   5.00000
    eigenvalues:
  0.500  0.500  0.500  0.500  0.500
    eigenvectors:
  1.000  0.000  0.000  0.000  0.000
  0.000  1.000  0.000  0.000  0.000
  0.000  0.000  1.000  0.000  0.000
  0.000  0.000  0.000  1.000  0.000
  0.000  0.000  0.000  0.000  1.000
    occupations:
  0.500  0.000  0.000  0.000  0.000
  0.000  0.500  0.000  0.000  0.000
  0.000  0.000  0.500  0.000  0.000
  0.000  0.000  0.000  0.500  0.000
  0.000  0.000  0.000  0.000  0.500
atom   17   Tr[ns(na)] =   5.00000
    eigenvalues:
  0.500  0.500  0.500  0.500  0.500
    eigenvectors:
  1.000  0.000  0.000  0.000  0.000
  0.000  1.000  0.000  0.000  0.000
  0.000  0.000  1.000  0.000  0.000
  0.000  0.000  0.000  1.000  0.000
  0.000  0.000  0.000  0.000  1.000
    occupations:
  0.500  0.000  0.000  0.000  0.000
  0.000  0.500  0.000  0.000  0.000
  0.000  0.000  0.500  0.000  0.000
  0.000  0.000  0.000  0.500  0.000
  0.000  0.000  0.000  0.000  0.500
atom   22   Tr[ns(na)] =   5.00000
    eigenvalues:
  0.500  0.500  0.500  0.500  0.500
    eigenvectors:
  1.000  0.000  0.000  0.000  0.000
  0.000  1.000  0.000  0.000  0.000
  0.000  0.000  1.000  0.000  0.000
  0.000  0.000  0.000  1.000  0.000
  0.000  0.000  0.000  0.000  1.000
    occupations:
  0.500  0.000  0.000  0.000  0.000
  0.000  0.500  0.000  0.000  0.000
[...]
  0.494  0.517  0.621  0.638  0.663
    eigenvectors:
  0.000  0.000  0.080  0.001  0.918
  0.000  0.000  0.003  0.994  0.003
  0.982  0.018  0.000  0.000  0.000
  0.000  0.000  0.916  0.005  0.079
  0.018  0.982  0.000  0.000  0.000
    occupations:
  0.660 -0.002 -0.000 -0.011 -0.001
 -0.002  0.638 -0.000 -0.001  0.000
 -0.000 -0.000  0.494  0.000  0.003
 -0.011 -0.001  0.000  0.625  0.000
 -0.001  0.000  0.003  0.000  0.517
atom   10   Tr[ns(na)] =   5.59694
    eigenvalues:
  0.216  0.398  0.510  0.734  0.940
    eigenvectors:
  0.000  0.963  0.000  0.037  0.000
  0.000  0.000  0.000  0.000  1.000
  1.000  0.000  0.000  0.000  0.000
  0.000  0.037  0.000  0.963  0.000
  0.000  0.000  1.000  0.000  0.000
    occupations:
  0.410  0.003 -0.001  0.063 -0.000
  0.003  0.940 -0.004  0.003 -0.000
 -0.001 -0.004  0.216 -0.001 -0.006
  0.063  0.003 -0.001  0.722  0.000
 -0.000 -0.000 -0.006  0.000  0.510
atom   16   Tr[ns(na)] =   5.79994
    eigenvalues:
  0.422  0.527  0.561  0.595  0.795
    eigenvectors:
  0.015  0.000  0.003  0.285  0.697
  0.000  0.018  0.978  0.004  0.000
  0.978  0.005  0.000  0.001  0.016
  0.001  0.000  0.002  0.710  0.287
  0.006  0.976  0.018  0.000  0.000
    occupations:
  0.732  0.005  0.042 -0.088 -0.003
  0.005  0.560  0.002 -0.000 -0.004
  0.042  0.002  0.428 -0.020 -0.009
 -0.088 -0.000 -0.020  0.652  0.003
 -0.003 -0.004 -0.009  0.003  0.527
atom   17   Tr[ns(na)] =   5.81234
    eigenvalues:
  0.359  0.517  0.598  0.625  0.808
    eigenvectors:
  0.000  0.000  0.999  0.001  0.000
  0.000  0.000  0.001  0.995  0.004
  1.000  0.000  0.000  0.000  0.000
  0.000  0.000  0.000  0.004  0.995
  0.000  1.000  0.000  0.000  0.000
    occupations:
  0.598 -0.001  0.002 -0.003 -0.000
 -0.001  0.626 -0.003 -0.012 -0.001
  0.002 -0.003  0.359 -0.001  0.002
 -0.003 -0.012 -0.001  0.807 -0.000
 -0.000 -0.001  0.002 -0.000  0.517
atom   22   Tr[ns(na)] =   5.77997
    eigenvalues:
  0.403  0.435  0.586  0.610  0.855
    eigenvectors:
  0.000  0.000  0.003  0.260  0.736
  0.000  0.000  0.989  0.011  0.000
  0.016  0.984  0.000  0.000  0.000
  0.000  0.000  0.008  0.728  0.264
  0.984  0.016  0.000  0.000  0.000
    occupations:
  0.790  0.002  0.000 -0.108 -0.002
  0.002  0.587 -0.000  0.002  0.000
  0.000 -0.000  0.435 -0.000 -0.004
 -0.108  0.002 -0.000  0.674  0.001
 -0.002  0.000 -0.004  0.001  0.404
atom   23   Tr[ns(na)] =   5.92581
    eigenvalues:
  0.495  0.499  0.502  0.638  0.829
    eigenvectors:
  0.000  0.000  0.000  0.989  0.010
  0.000  0.999  0.001  0.000  0.000
  0.957  0.001  0.043  0.000  0.000
  0.000  0.000  0.000  0.010  0.990
  0.043  0.000  0.957  0.000  0.000
    occupations:
  0.640 -0.002 -0.000 -0.019 -0.000
 -0.002  0.499 -0.000  0.001  0.000
 -0.000 -0.000  0.495 -0.000  0.001
 -0.019  0.001 -0.000  0.827 -0.000
 -0.000  0.000  0.001 -0.000  0.502
N of occupied +U levels =  46.3927136
 --- exit write_ns ---

     Threshold (ethr) on eigenvalues was too large:
     Diagonalizing with lowered threshold

     Davidson diagonalization with overlap
     ethr =  2.31E-09,  avg # of iterations =  3.0

[...]

     total energy              =   -1727.73740698 Ry
     Harris-Foulkes estimate   =   -1727.73740698 Ry
     estimated scf accuracy    <       0.00000001 Ry

     iteration # 16     ecut=    40.00 Ry     beta=0.70
     Davidson diagonalization with overlap
     ethr =  4.57E-12,  avg # of iterations =  2.0

     negative rho (up, down):  0.366E-02 0.000E+00

     End of self-consistent calculation
 --- enter write_ns ---
 LDA+U parameters:
U( 2)     =  7.00000000
alpha( 2) =  0.00000000
atom    3   Tr[ns(na)] =   5.80206
    eigenvalues:
  0.456  0.493  0.560  0.596  0.796
    eigenvectors:
  0.015  0.000  0.002  0.298  0.685
  0.000  0.001  0.995  0.003  0.000
  0.981  0.003  0.000  0.002  0.013
  0.001  0.000  0.002  0.697  0.301
  0.003  0.996  0.001  0.000  0.000
    occupations:
  0.731 -0.005  0.036 -0.091  0.000
 -0.005  0.560 -0.001  0.001 -0.002
  0.036 -0.001  0.461 -0.016  0.002
 -0.091  0.001 -0.016  0.656 -0.000
  0.000 -0.002  0.002 -0.000  0.493
atom    4   Tr[ns(na)] =   5.80687
    eigenvalues:
  0.337  0.514  0.583  0.683  0.787
    eigenvectors:
  0.000  0.000  0.975  0.025  0.000
  0.000  0.000  0.024  0.968  0.008
  1.000  0.000  0.000  0.000  0.000
  0.000  0.000  0.001  0.007  0.992
  0.000  1.000  0.000  0.000  0.000
    occupations:
  0.585  0.015  0.002  0.004  0.000
  0.015  0.681 -0.001 -0.010 -0.001
  0.002 -0.001  0.337 -0.001  0.001
  0.004 -0.010 -0.001  0.786  0.000
  0.000 -0.001  0.001  0.000  0.514
atom    9   Tr[ns(na)] =   5.86818
    eigenvalues:
  0.494  0.517  0.621  0.639  0.663
    eigenvectors:
  0.000  0.000  0.080  0.001  0.919
  0.000  0.000  0.003  0.994  0.003
  0.981  0.019  0.000  0.000  0.000
  0.000  0.000  0.916  0.005  0.079
  0.019  0.981  0.000  0.000  0.000
    occupations:
  0.660 -0.001 -0.000 -0.011 -0.001
 -0.001  0.639 -0.000 -0.001  0.000
 -0.000 -0.000  0.494  0.000  0.003
 -0.011 -0.001  0.000  0.625  0.000
 -0.001  0.000  0.003  0.000  0.517
atom   10   Tr[ns(na)] =   5.59675
    eigenvalues:
  0.216  0.398  0.510  0.734  0.940
    eigenvectors:
  0.000  0.963  0.000  0.037  0.000
  0.000  0.000  0.000  0.000  1.000
  1.000  0.000  0.000  0.000  0.000
  0.000  0.037  0.000  0.963  0.000
  0.000  0.000  1.000  0.000  0.000
    occupations:
  0.410  0.003 -0.001  0.063 -0.000
  0.003  0.940 -0.004  0.004 -0.000
 -0.001 -0.004  0.216 -0.001 -0.006
  0.063  0.004 -0.001  0.722  0.000
 -0.000 -0.000 -0.006  0.000  0.510
atom   16   Tr[ns(na)] =   5.80046
    eigenvalues:
  0.422  0.528  0.560  0.595  0.795
    eigenvectors:
  0.015  0.000  0.003  0.285  0.697
  0.000  0.019  0.977  0.004  0.000
  0.978  0.005  0.000  0.001  0.016
  0.001  0.000  0.002  0.710  0.287
  0.006  0.975  0.018  0.000  0.000
    occupations:
  0.732  0.005  0.042 -0.088 -0.003
  0.005  0.560  0.002 -0.000 -0.004
  0.042  0.002  0.428 -0.020 -0.009
 -0.088 -0.000 -0.020  0.652  0.003
 -0.003 -0.004 -0.009  0.003  0.528
atom   17   Tr[ns(na)] =   5.81221
    eigenvalues:
  0.359  0.516  0.598  0.626  0.808
    eigenvectors:
  0.000  0.000  0.999  0.001  0.000
  0.000  0.000  0.001  0.995  0.004
  1.000  0.000  0.000  0.000  0.000
  0.000  0.000  0.000  0.004  0.995
  0.000  1.000  0.000  0.000  0.000
    occupations:
  0.598 -0.001  0.002 -0.003 -0.000
 -0.001  0.626 -0.003 -0.012 -0.001
  0.002 -0.003  0.359 -0.002  0.002
 -0.003 -0.012 -0.002  0.807 -0.000
 -0.000 -0.001  0.002 -0.000  0.516
atom   22   Tr[ns(na)] =   5.78001
    eigenvalues:
  0.403  0.435  0.586  0.610  0.855
    eigenvectors:
  0.000  0.000  0.003  0.261  0.736
  0.000  0.000  0.989  0.011  0.000
  0.016  0.984  0.000  0.000  0.000
  0.000  0.000  0.008  0.728  0.264
  0.984  0.016  0.000  0.000  0.000
    occupations:
  0.790  0.002  0.000 -0.108 -0.002
  0.002  0.587 -0.000  0.002  0.000
  0.000 -0.000  0.435 -0.000 -0.004
 -0.108  0.002 -0.000  0.674  0.001
 -0.002  0.000 -0.004  0.001  0.404
atom   23   Tr[ns(na)] =   5.92618
    eigenvalues:
  0.495  0.499  0.502  0.638  0.829
    eigenvectors:
  0.000  0.000  0.000  0.989  0.010
  0.000  0.999  0.001  0.000  0.000
  0.959  0.001  0.041  0.000  0.000
  0.000  0.000  0.000  0.010  0.990
  0.041  0.000  0.959  0.000  0.000
    occupations:
  0.640 -0.002 -0.000 -0.019 -0.000
 -0.002  0.499 -0.000  0.001  0.000
 -0.000 -0.000  0.495 -0.000  0.001
 -0.019  0.001 -0.000  0.827 -0.000
 -0.000  0.000  0.001 -0.000  0.502
N of occupied +U levels =  46.3927247
 --- exit write_ns ---

[...]

          k = 0.2500-0.3900 0.0000 ( 29726 PWs)   bands (ev):

[...]

          k =-0.2500 0.1950 0.0000 ( 29746 PWs)   bands (ev):

   -62.9766 -62.5824 -62.5786 -62.4971 -62.3247 -62.2334 -62.1460 -61.7637
   -37.4769 -37.2459 -37.1704 -37.0608 -37.0481 -36.9679 -36.9292 -36.9210
   -36.7172 -36.5380 -36.5109 -36.4921 -36.4825 -36.4647 -36.3793 -36.3541
   -36.3309 -36.3243 -36.2796 -36.1860 -36.0874 -36.0232 -35.7323 -35.3229
   -20.6994 -20.4872 -20.0796 -19.9110 -19.7970 -19.6701 -19.6285 -19.4848
   -19.3848 -19.3625 -19.2541 -19.1060 -18.9678 -18.9434 -18.8820 -18.7310
   -18.6944 -18.4706 -18.1779  -9.0814  -8.7513  -8.6508  -8.3632  -8.2522
    -8.1008  -7.9433  -7.8604  -7.7767  -7.5715  -7.5374  -7.3058  -7.2581
    -6.9975  -6.7851  -6.6584  -6.5597  -6.5083  -6.3774  -6.3423  -6.1994
    -6.0803  -5.8962  -5.8164  -5.6355  -5.4220  -5.2661  -5.1971  -5.1720
    -5.0542  -4.9968  -4.9176  -4.8194  -4.7579  -4.6735  -4.6101  -4.5544
    -4.4589  -4.3902  -4.2685  -4.1971  -4.1114  -3.9962  -3.9431  -3.8864
    -3.8133  -3.7471  -3.6549  -3.5960  -3.5292  -3.4259  -3.3304  -3.2062
    -3.1148  -3.0355  -2.9457  -2.6625  -2.3593  -2.2262  -2.0905  -1.3669
    -1.3001  -0.8309  -0.4486   0.1387   0.3811   0.5167   0.5948   0.6975
     0.7584   0.9932   1.0528   1.0918   1.2017   1.3853   1.5581   1.7127
     1.8740   2.0309   2.1597   2.2051   2.6726   3.1745   3.3983   3.5038
     3.6165   3.7911   3.9743   4.0755   4.1204   4.2244   4.3241   4.4802
     4.6888   4.9525   5.2567   5.3098   5.5213   5.6110   5.7558   5.8514
     5.9132   6.0452   6.2914   6.4854   6.7869   6.9174   7.1458   7.2050
     7.2305   7.5660   7.5950   7.8037   8.0387   8.0810   8.2613   8.3971
     8.5270   8.5999   8.6872   8.8395   9.0168   9.1289   9.1893   9.3512
     9.4659   9.5339   9.6214   9.6607   9.6954   9.7477   9.9207  10.1127
    10.1447  10.2677  10.3222  10.3857  10.5402  10.5788  10.6896  10.7828
    10.9126  11.0051  11.0866  11.2347  11.4032  11.5474  11.6250  11.6916
    11.7968  11.8591  11.9177  11.9910  12.0604  12.2804  12.3287  12.3892
    12.4376  12.4875  12.5530  12.6729  12.7604  12.8496  12.9179  13.0009
    13.0141  13.1820  13.2679  13.3100  13.3320  13.4154  13.4578  13.5568
    13.5911  13.7014  13.7306  13.7974  13.8640  13.9307  14.0616  14.1240
    14.1885  14.2140  14.3159  14.4052  14.4647  14.5471  14.5860  14.6542
    14.6956  14.7738  14.8623  14.9352  14.9694  15.0216  15.2047  15.2320
    15.3475  15.3861  15.4977  15.5654  15.6396  15.7050  15.8197  15.9188
    15.9635  16.0114  16.0783  16.1534  16.1854  16.2415  16.3338  16.4074
    16.4605  16.4815  16.5997  16.6559  16.7777  16.8436  16.8850  16.9711
    17.0349  17.1469  17.2023  17.2705  17.3382  17.3768  17.4750  17.5593
    17.6422  17.6928  17.7400  17.7908  17.9088  17.9608  18.0702  18.1100
    18.1464  18.2393  18.3078  18.3865  18.4515  18.4842  18.6117  18.6468
    18.7963  18.8805  18.9240  18.9769  19.0824  19.1414  19.1676  19.2660
    19.4149  19.4888  19.5796  19.6846  19.7239  19.8460  19.8814  19.9313
    20.0053  20.0161  20.1360  20.2022  20.2557  20.3063  20.3513  20.4453
    20.4724  20.5050  20.5879  20.6241  20.6811  20.7038  20.8200  20.8983
    20.9350  21.0328  21.0708  21.1569  21.1808  21.3021  21.3583  21.4003
    21.4877  21.5442  21.6153  21.6964  21.7403  21.7668  21.8367  21.8642
    21.8774

     the Fermi energy is    -0.4600 ev

!    total energy              =   -1727.73740698 Ry
     Harris-Foulkes estimate   =   -1727.73740699 Ry
     estimated scf accuracy    <          9.0E-09 Ry

     The total energy is the sum of the following terms:

     one-electron contribution =  -21996.83123888 Ry
     hartree contribution      =   11021.54963109 Ry
     xc contribution           =    -293.85880051 Ry
     ewald contribution        =    9536.86926735 Ry
     Hubbard energy            =       4.53483247 Ry
     smearing contrib. (-TS)   =      -0.00109850 Ry

     convergence has been achieved in  16 iterations

     Forces acting on atoms (Ry/au):

     negative rho (up, down):  0.366E-02 0.000E+00
     atom    1 type  1   force =    -0.00739378   -0.00536628   -0.00004160
     atom    2 type  1   force =    -0.00043293    0.00651894    0.00011419
     atom    3 type  2   force =     0.02394856   -0.01433120    0.00081883
     atom    4 type  2   force =     0.02584421    0.00347591   -0.00001126
     atom    5 type  1   force =    -0.00067130   -0.03622588    0.00024012
     atom    6 type  1   force =    -0.00342661    0.03925554    0.00022228
     atom    7 type  1   force =    -0.00025956    0.00517767   -0.00029222
     atom    8 type  1   force =     0.01203456   -0.00005163   -0.00007795
     atom    9 type  2   force =    -0.01106945    0.00099742    0.00011990
     atom   10 type  2   force =    -0.00046350   -0.00024086   -0.00070173
     atom   11 type  1   force =    -0.00314395    0.01625386   -0.00036856
     atom   12 type  1   force =    -0.00285363   -0.01748261   -0.00038183
     atom   13 type  1   force =     0.01757590   -0.00010748   -0.00009779
     atom   14 type  1   force =     0.00570856   -0.00493788   -0.00045666
     atom   15 type  1   force =    -0.00001753    0.01009814   -0.00011862
     atom   16 type  2   force =    -0.02450512   -0.01326904    0.00082883
     atom   17 type  2   force =    -0.03131933    0.00254492   -0.00004151
     atom   18 type  1   force =     0.00422236   -0.03055663    0.00018230
     atom   19 type  1   force =     0.00241457    0.03223058    0.00019174
     atom   20 type  1   force =    -0.00021045    0.00489903   -0.00079409
     atom   21 type  1   force =     0.00167428    0.00108705   -0.00027026
     atom   22 type  2   force =     0.00344273   -0.00003543    0.00027141
     atom   23 type  2   force =     0.00426311    0.00033311    0.00022414
     atom   24 type  1   force =     0.00181258    0.02304776   -0.00000868
     atom   25 type  1   force =     0.00213399   -0.02259541    0.00002920
     atom   26 type  1   force =    -0.02022751   -0.00036166    0.00008114
     atom   27 type  3   force =    -0.00000883    0.00033704    0.00026684
     atom   28 type  3   force =     0.00001242   -0.00056074   -0.00051063
     atom   29 type  3   force =     0.00028662   -0.00013265    0.00025670
     atom   30 type  3   force =     0.00047278    0.00000417    0.00024071
     atom   31 type  1   force =     0.00015625   -0.00000576    0.00008505

     Total force =     0.002177     Total SCF correction =     0.000508
     SCF correction compared to forces is large: reduce conv_thr to get better values

     bfgs converged in  40 scf cycles and  38 bfgs steps
     (criteria: energy < 0.10E-03, force < 0.10E-02)

     End of BFGS Geometry Optimization

     Final energy   =   -1727.7374069784 Ry
Begin final coordinates

ATOMIC_POSITIONS (crystal)
O0       0.000000000   0.000000000   0.368778334    0   0   1
O0       0.000000000   0.500000000   0.385000515    0   0   1
Mo1      0.250000000   0.500000000   0.443376243    0   0   1
Mo1      0.000000000   0.000000000   0.440678577    0   0   1
O0       0.250000000   0.780000000   0.441951130    0   0   1
O0       0.250000000   0.220000000   0.441596705    0   0   1
O0       0.000000000   0.500000000   0.497149036    0   0   1
O0       0.000000000   0.000000000   0.515383425    0   0   1
Mo1      0.250000000   0.000000000   0.579102499    0   0   1
Mo1      0.000000000   0.500000000   0.570657657    0   0   1
O0       0.250000000   0.720000000   0.572826199    0   0   1
O0       0.250000000   0.280000000   0.572870414    0   0   1
O0       0.000000000   0.000000000   0.624298963    0   0   1
O0       0.500000000   0.000000000   0.369804570    0   0   1
O0       0.500000000   0.500000000   0.384707350    0   0   1
Mo1      0.750000000   0.500000000   0.443308984    0   0   1
Mo1      0.500000000   0.000000000   0.441432512    0   0   1
O0       0.750000000   0.780000000   0.441827223    0   0   1
O0       0.750000000   0.220000000   0.441531897    0   0   1
O0       0.500000000   0.500000000   0.497602444    0   0   1
O0       0.500000000   0.000000000   0.514610351    0   0   1
Mo1      0.750000000   0.000000000   0.568336298    0   0   1
Mo1      0.500000000   0.500000000   0.581235321    0   0   1
O0       0.750000000   0.720000000   0.571518280    0   0   1
O0       0.750000000   0.280000000   0.571532087    0   0   1
O0       0.500000000   0.000000000   0.624030780    0   0   1
H2      -0.000511453   0.604642713   0.360820251
H2       0.499290457   0.609864097   0.362077681
H2       0.166141967   0.020081591   0.354255055
H2       0.663013287   0.020088360   0.353923169
O0       0.503046391   0.499998743   0.643356050
End final coordinates

     General routines

     Parallel routines
     Hubbard U routines

   This run was terminated on:  14:20:48  30Apr2014

   JOB DONE.
Running PBS batch system epilogue script
Job id: 340379.audhumbla.fysik.dtu.dk
Username: zhonxu
Groupname: campgst
Jobname: MoO2/Eads-2-layers/O-U-7.0
Sessionid: 24129
Queuename: verylong
Accounting:
This job has allocated the following 16 nodes:
c008 c008 c008 c008 c008 c008 c008 c008 c007 c007 c007 c007 c007 c007 c007 c007
Finished epilogue job 340379.audhumbla.fysik.dtu.dk for zhonxu