     Program PWSCF v.5.0.2 (svn rev. 9656) starts on 28Mar2014 at  9:51: 8

     Current dimensions of program PWSCF are:
     Max number of different atomic species (ntypx) = 10
     Max number of k-points (npk) =  40000
     Max angular momentum in pseudopotentials (lmaxx) =  3
     Reading input from pwscf.in
Warning: card &CELL ignored
Warning: card / ignored

     Subspace diagonalization in iterative solution of the eigenvalue problem:
     a serial algorithm will be used

     bravais-lattice index     =            0
     lattice parameter (alat)  =      10.1289  a.u.
     unit-cell volume          =    9515.8234 (a.u.)^3
     number of atoms/cell      =           50
     number of atomic types    =            3
     number of electrons       =       439.00
     number of Kohn-Sham states=          658
     kinetic-energy cutoff     =      40.0000  Ry
     charge density cutoff     =     500.0000  Ry
     convergence threshold     =      1.0E-06
     mixing beta               =       0.3000
     number of iterations used =            8  plain     mixing
     Exchange-correlation      = SLA  PW   PBE  PBE ( 1 4 3 4 0)
     EXX-fraction              =        0.00
     nstep                     =           50

     celldm(1)=  10.128932  celldm(2)=   0.000000  celldm(3)=   0.000000
     celldm(4)=   0.000000  celldm(5)=   0.000000  celldm(6)=   0.000000

     crystal axes: (cart. coord. in units of alat)
               a(1) = (   1.000000   0.000000   0.000000 )
               a(2) = (   0.000000   1.306037   0.000000 )
               a(3) = (   0.000000   0.000000   7.011323 )

     reciprocal axes: (cart. coord. in units 2 pi/alat)
               b(1) = (  1.000000  0.000000  0.000000 )
               b(2) = (  0.000000  0.765675  0.000000 )
               b(3) = (  0.000000  0.000000  0.142626 )

     PseudoPot. # 1 for O  read from file:
     /home/camp/zhonxu/pseudo/o_pbe_v1.01.uspp.F.UPF
     MD5 check sum: 2bcb18d16ea4b960afae9ec6d52f22d2
     Pseudo is Ultrasoft + core correction, Zval =  6.0
     Generated by new atomic code, or converted to UPF format
     Using radial grid of  737 points,  5 beta functions with:
                l(1) =   0
                l(2) =   0
                l(3) =   1
                l(4) =   1
                l(5) =   2
     Q(r) pseudized with  8 coefficients,  rinner =    0.900   0.900   0.900
                                                       0.900   0.900

     PseudoPot. # 2 for Re read from file:
     /home/camp/zhonxu/pseudo/re_pbe_v1.uspp.F.UPF
     MD5 check sum: 6f5a5dcaf9c96c20d0ffdde0de57afc6
     Pseudo is Ultrasoft + core correction, Zval = 15.0
     Generated by new atomic code, or converted to UPF format
     Using radial grid of  981 points,  8 beta functions with:
                l(1) =   0
                l(2) =   0
                l(3) =   1
                l(4) =   1
                l(5) =   2
                l(6) =   2
                l(7) =   3
                l(8) =   3
     Q(r) pseudized with  8 coefficients,  rinner =    1.000   1.000   1.000
                                                       1.000   1.000   1.000
                                                       1.000

     PseudoPot. # 3 for H  read from file:
     /home/camp/zhonxu/pseudo/h_pbe_v1.uspp.F.UPF
     MD5 check sum: 3408e3ff4ec8b0a4e358431e7e038a48
     Pseudo is Ultrasoft, Zval =  1.0
     Generated by new atomic code, or converted to UPF format
     Using radial grid of  615 points,  2 beta functions with:
                l(1) =   0
                l(2) =   0
     Q(r) pseudized with  8 coefficients,  rinner =    0.700

     atomic species   valence    mass     pseudopotential
        O0             6.00    15.99940     O ( 1.00)
        Re1           15.00   186.20700     Re( 1.00)
        H2             1.00     1.00794     H ( 1.00)

      2 Sym. Ops. (no inversion) found

   Cartesian axes

     site n.     atom                  positions (alat units)
         1           O0  tau(   1) = (   0.0000000   0.6530184   2.2387856  )
         2           Re1 tau(   2) = (   0.2500000   0.6530184   2.5261097  )
         3           Re1 tau(   3) = (   0.0000000   0.0000000   2.5261097  )
         4           O0  tau(   4) = (   0.2500000   1.0187087   2.5261097  )
         5           O0  tau(   5) = (   0.2500000   0.2873281   2.5261097  )
         6           O0  tau(   6) = (   0.0000000   0.6530184   2.8134337  )
         7           O0  tau(   7) = (   0.0000000   0.0000000   2.8918203  )
         8           Re1 tau(   8) = (   0.2500000   0.0000000   3.1791443  )
         9           Re1 tau(   9) = (   0.0000000   0.6530184   3.1791443  )
        10           O0  tau(  10) = (   0.2500000   0.9403465   3.1791443  )
        11           O0  tau(  11) = (   0.2500000   0.3656903   3.1791443  )
        12           O0  tau(  12) = (   0.0000000   0.0000000   3.4664683  )
        13           O0  tau(  13) = (   0.0000000   0.6530184   3.5433125  )
        14           Re1 tau(  14) = (   0.2453800   0.6530184   3.8274814  )
        15           Re1 tau(  15) = (   0.0000000   0.0000000   3.8418546  )
        16           O0  tau(  16) = (   0.2488800   1.0202106   3.8338617  )
        17           O0  tau(  17) = (   0.2488800   0.2858261   3.8338617  )
        18           O0  tau(  18) = (   0.0000000   0.6530184   4.1169088  )
        19           O0  tau(  19) = (   0.0000000   0.0000000   4.2175213  )
        20           Re1 tau(  20) = (   0.2749000   0.0000000   4.4985351  )
        21           Re1 tau(  21) = (   0.0000000   0.6530184   4.4714714  )
        22           O0  tau(  22) = (   0.2537500   0.9362978   4.4940479  )
        23           O0  tau(  23) = (   0.2537500   0.3697390   4.4940479  )
        24           O0  tau(  24) = (   0.0000000   0.0000000   4.7327133  )
        25           O0  tau(  25) = (   0.5000000   0.6530184   2.2387856  )
        26           Re1 tau(  26) = (   0.7500000   0.6530184   2.5261097  )
        27           Re1 tau(  27) = (   0.5000000   0.0000000   2.5261097  )
        28           O0  tau(  28) = (   0.7500000   1.0187087   2.5261097  )
        29           O0  tau(  29) = (   0.7500000   0.2873281   2.5261097  )
        30           O0  tau(  30) = (   0.5000000   0.6530184   2.8134337  )
        31           O0  tau(  31) = (   0.5000000   0.0000000   2.8918203  )
        32           Re1 tau(  32) = (   0.7500000   0.0000000   3.1791443  )
        33           Re1 tau(  33) = (   0.5000000   0.6530184   3.1791443  )
        34           O0  tau(  34) = (   0.7500000   0.9403465   3.1791443  )
        35           O0  tau(  35) = (   0.7500000   0.3656903   3.1791443  )
        36           O0  tau(  36) = (   0.5000000   0.0000000   3.4664683  )
        37           O0  tau(  37) = (   0.5000000   0.6530184   3.5484307  )
        38           Re1 tau(  38) = (   0.7546200   0.6530184   3.8274814  )
        39           Re1 tau(  39) = (   0.5000000   0.0000000   3.8339318  )
        40           O0  tau(  40) = (   0.7511200   1.0202106   3.8338617  )
        41           O0  tau(  41) = (   0.7511200   0.2858261   3.8338617  )
        42           O0  tau(  42) = (   0.5000000   0.6530184   4.1084251  )
        43           O0  tau(  43) = (   0.5000000   0.0000000   4.1966276  )
        44           Re1 tau(  44) = (   0.7251000   0.0000000   4.4985351  )
        45           Re1 tau(  45) = (   0.5000000   0.6530184   4.4603234  )
        46           O0  tau(  46) = (   0.7462500   0.9362978   4.4940479  )
        47           O0  tau(  47) = (   0.7462500   0.3697390   4.4940479  )
        48           O0  tau(  48) = (   0.5000000   0.0000000   4.7844569  )
        49           O0  tau(  49) = (   0.5000000   0.6530184   4.7918889  )
        50           H2  tau(  50) = (   0.3414200   0.6530184   4.8571643  )

     number of k points=     9  Methfessel-Paxton smearing, width (Ry)=  0.0100
                       cart. coord. in units 2pi/alat
        k(    1) = (   0.0000000   0.0000000   0.0000000), wk =   0.1250000
        k(    2) = (   0.0000000   0.1914188   0.0000000), wk =   0.2500000
        k(    3) = (   0.0000000  -0.3828376   0.0000000), wk =   0.1250000
        k(    4) = (   0.2500000   0.0000000   0.0000000), wk =   0.2500000
        k(    5) = (   0.2500000   0.1914188   0.0000000), wk =   0.5000000
        k(    6) = (   0.2500000  -0.3828376   0.0000000), wk =   0.2500000
        k(    7) = (  -0.5000000   0.0000000   0.0000000), wk =   0.1250000
        k(    8) = (  -0.5000000   0.1914188   0.0000000), wk =   0.2500000
        k(    9) = (  -0.5000000  -0.3828376   0.0000000), wk =   0.1250000

     Largest allocated arrays     est. size (Mb)     dimensions
     Largest temporary arrays     est. size (Mb)     dimensions

     Check: negative/imaginary core charge=   -0.000003    0.000000

     Initial potential from superposition of free atoms
     Check: negative starting charge=   -0.473967

     starting charge  430.99922, renormalised to  439.00000

     negative rho (up, down):  0.483E+00 0.000E+00
     Starting wfc are  341 randomized atomic wfcs

     Self-consistent Calculation

     iteration #  1     ecut=    40.00 Ry     beta=0.30
     Davidson diagonalization with overlap
     ethr =  1.00E-02,  avg # of iterations =  6.1

     negative rho (up, down):  0.519E+00 0.000E+00

     total energy              =   -4155.29109071 Ry
     Harris-Foulkes estimate   =   -4184.49774903 Ry
     estimated scf accuracy    <      58.94564748 Ry

[...]

     End of self-consistent calculation

          k = 0.0000 0.0000 0.0000 ( 40685 PWs)   bands (ev):

   -80.0297 -79.9191 -79.8547 -79.8135 -79.8010 -79.8000 -79.7993 -79.7986
   -79.7450 -79.7447 -79.7344 -79.7148 -79.6870 -79.5641 -79.4167 -79.3607
   -42.3801 -42.1750 -42.0817 -42.0699 -42.0333 -42.0181 -42.0021 -41.9924
   -41.9886 -41.8703 -41.8300 -41.7982 -41.7625 -41.7569 -41.7566 -41.7444
   -41.7436 -41.7108 -41.7095 -41.7049 -41.7019 -41.6837 -41.6832 -41.6408
   -41.6253 -41.5980 -41.5928 -41.5891 -41.5758 -41.5661 -41.5605 -41.5474
   -41.5416 -41.5038 -41.4797 -41.4262 -41.3250 -41.3189 -41.2387 -41.2081
   -41.1776 -41.1431 -41.1337 -41.1269 -41.1258 -41.1228 -41.1036 -40.8297
   -19.6440 -19.3636 -19.1391 -18.9762 -18.9320 -18.8699 -18.6340 -18.5267
   -18.4137 -18.3034 -18.2585 -18.0713 -18.0633 -18.0479 -18.0250 -18.0040
   -17.9362 -17.9248 -17.7975 -17.7672 -17.7361 -17.7252 -17.7025 -17.7006
   -17.6908 -17.6788 -17.6561 -17.6064 -17.4342 -16.6825 -16.3605 -15.9000
   -15.4926  -8.1003  -7.9559  -7.9253  -7.8646  -7.8331  -7.4804  -7.3898
    -7.0529  -6.8246  -6.7871  -6.7686  -6.5170  -6.4656  -6.4076  -6.3999
    -6.3183  -6.2671  -6.2184  -6.1299  -6.1270  -6.0966  -6.0053  -5.9606
    -5.8264  -5.8100  -5.7509  -5.6881  -5.5955  -5.5865  -5.5168  -5.4924
    -5.4717  -5.4648  -5.4495  -5.3423  -5.2395  -5.0960  -4.9914  -4.8721
    -4.7527  -4.4830  -4.4019  -4.3476  -4.3223  -4.2015  -4.1252  -4.0966
    -4.0758  -4.0586  -4.0287  -4.0248  -3.9647  -3.8927  -3.7859  -3.5832
    -3.5503  -3.4735  -3.4202  -3.4119  -3.3617  -3.2849  -3.1550  -3.1350
[...]
O0       0.248880000   0.781150000   0.546810000    0   0   0
O0       0.248880000   0.218850000   0.546810000    0   0   0
O0       0.000000000   0.500000000   0.587180000    0   0   0
O0       0.000000000   0.000000000   0.601530000    0   0   0
Re1      0.274900000   0.000000000   0.641610000    0   0   0
Re1      0.000000000   0.500000000   0.637750000    0   0   0
O0       0.253750000   0.716900000   0.640970000    0   0   0
O0       0.253750000   0.283100000   0.640970000    0   0   0
O0       0.000000000   0.000000000   0.675010000    0   0   0
O0       0.500000000   0.500000000   0.319310000    0   0   0
Re1      0.750000000   0.500000000   0.360290000    0   0   0
Re1      0.500000000   0.000000000   0.360290000    0   0   0
O0       0.750000000   0.780000000   0.360290000    0   0   0
O0       0.750000000   0.220000000   0.360290000    0   0   0
O0       0.500000000   0.500000000   0.401270000    0   0   0
O0       0.500000000   0.000000000   0.412450000    0   0   0
Re1      0.750000000   0.000000000   0.453430000    0   0   0
Re1      0.500000000   0.500000000   0.453430000    0   0   0
O0       0.750000000   0.720000000   0.453430000    0   0   0
O0       0.750000000   0.280000000   0.453430000    0   0   0
O0       0.500000000   0.000000000   0.494410000    0   0   0
O0       0.500000000   0.500000000   0.506100000    0   0   0
Re1      0.754620000   0.500000000   0.545900000    0   0   0
Re1      0.500000000   0.000000000   0.546820000    0   0   0
O0       0.751120000   0.781150000   0.546810000    0   0   0
O0       0.751120000   0.218850000   0.546810000    0   0   0
O0       0.500000000   0.500000000   0.585970000    0   0   0
O0       0.500000000   0.000000000   0.598550000    0   0   0
Re1      0.725100000   0.000000000   0.641610000    0   0   0
Re1      0.500000000   0.500000000   0.636160000    0   0   0
O0       0.746250000   0.716900000   0.640970000    0   0   0
O0       0.746250000   0.283100000   0.640970000    0   0   0
O0       0.500000000   0.000000000   0.682390000    0   0   0
O0       0.528162776   0.500000000   0.688051185
H2       0.383902214   0.500000000   0.704068388

     Check: negative starting charge=   -0.473962
     NEW-OLD atomic charge density approx. for the potential

     Check: negative/imaginary core charge=   -0.000003    0.000000
     Check: negative starting charge=   -0.473961

[...]

     Self-consistent Calculation

[...]

     Threshold (ethr) on eigenvalues was too large:
     Diagonalizing with lowered threshold

     Davidson diagonalization with overlap
     ethr =  1.31E-09,  avg # of iterations =  1.0

[...]

     total energy              =   -4181.24440180 Ry
     Harris-Foulkes estimate   =   -4181.24440180 Ry
     estimated scf accuracy    <       0.00000001 Ry

     iteration # 19     ecut=    40.00 Ry     beta=0.30
     Davidson diagonalization with overlap
     ethr =  2.82E-12,  avg # of iterations =  1.0

     negative rho (up, down):  0.490E+00 0.000E+00

     End of self-consistent calculation

[...]

          k = 0.2500-0.3828 0.0000 ( 40642 PWs)   bands (ev):

[...]

          k =-0.5000-0.3828 0.0000 ( 40640 PWs)   bands (ev):

   -79.9668 -79.9389 -79.8559 -79.8558 -79.8501 -79.8182 -79.8110 -79.8015
   -79.8005 -79.7815 -79.7577 -79.7547 -79.7447 -79.6275 -79.4182 -79.4173
   -42.2209 -41.9018 -41.8948 -41.8899 -41.7923 -41.7892 -41.7869 -41.7808
   -41.7800 -41.7504 -41.7445 -41.7371 -41.7199 -41.7166 -41.7157 -41.7151
   -41.7128 -41.6988 -41.6872 -41.6853 -41.6833 -41.6813 -41.6745 -41.6486
   -41.6447 -41.6423 -41.6423 -41.6366 -41.6249 -41.6071 -41.5990 -41.5979
   -41.5967 -41.5921 -41.5889 -41.5789 -41.5603 -41.5266 -41.5236 -41.5223
   -41.4521 -41.3615 -41.3131 -41.3110 -41.3107 -41.3092 -41.2809 -41.2764
   -18.8279 -18.8041 -18.6282 -18.5962 -18.5461 -18.5141 -18.4659 -18.3311
   -18.3307 -18.3208 -18.2738 -18.2433 -18.2277 -18.2274 -18.1951 -18.1407
   -18.0019 -17.9545 -17.9525 -17.9280 -17.9011 -17.8808 -17.8596 -17.8593
   -17.8578 -17.8331 -17.8302 -17.4133 -17.3311 -16.7075 -16.6187 -15.8014
   -15.7909  -7.1402  -7.0446  -7.0123  -6.9207  -6.8839  -6.8675  -6.8613
    -6.8354  -6.7783  -6.7556  -6.7216  -6.7043  -6.6917  -6.4703  -6.3702
    -6.2903  -5.8920  -5.8587  -5.7717  -5.6847  -5.6014  -5.5518  -5.5275
    -5.5240  -5.4396  -5.4303  -5.3774  -5.3443  -5.2750  -5.2495  -5.1654
    -5.1387  -5.1326  -5.1261  -5.1183  -5.0830  -5.0554  -4.9765  -4.9193
    -4.8838  -4.8760  -4.8495  -4.7758  -4.7542  -4.6555  -4.4293  -4.4007
    -4.3492  -4.3127  -4.2549  -4.2512  -4.2370  -4.1356  -3.9398  -3.8417
    -3.8087  -3.7938  -3.7764  -3.7681  -3.6570  -3.5728  -3.5688  -3.5536
    -3.5035  -3.4938  -3.4514  -3.3928  -3.3712  -3.3525  -3.3213  -3.2934
    -3.2255  -3.2160  -3.0605  -2.8628  -2.7793  -2.7615  -2.4794  -2.4140
    -2.3803  -2.2723  -2.2096  -2.1016  -2.0991  -2.0633  -2.0056  -1.8466
    -1.8106  -1.7605  -1.7407  -1.6737  -1.5255  -1.2869  -1.0810  -1.0707
    -1.0339  -0.9849  -0.9742  -0.4394  -0.0173   0.3300   0.4068   0.5105
     0.5544   0.5942   0.6473   0.6741   0.7075   0.7268   0.7388   0.7519
     0.7856   0.9662   0.9900   1.1439   1.1493   1.3306   1.3792   1.4217
     1.4304   1.7963   1.8206   1.8532   1.9195   1.9724   1.9765   2.0255
     2.0826   2.1922   2.2231   2.2975   2.3116   2.4612   2.5206   2.5686
     2.6333   2.8157   2.8250   2.8658   2.9531   2.9565   2.9852   2.9971
     3.0957   3.2259   3.2824   3.3217   3.3327   3.5873   3.7259   4.1162
     4.3444   4.3670   4.3913   4.4959   4.5869   4.5873   4.6987   5.0589
     5.2915   5.3327   5.4024   5.9960   6.1458   6.2238   6.4146   6.6129
     6.6746   6.8149   6.9211   7.1215   7.3145   7.3442   7.3645   7.4831
     7.6037   7.6872   7.7181   7.7634   7.7758   7.7799   7.9007   8.2772
     8.9233   8.9426   9.0658   9.1303   9.1477   9.1573   9.1796   9.2195
     9.3153   9.3443   9.4059   9.4559   9.4710   9.4928   9.5076   9.5446
     9.7711   9.7775   9.8624   9.9522  10.0265  10.0532  10.0696  10.0785
    10.4243  10.4365  10.4684  10.6004  10.6722  10.7387  10.7830  10.8103
    11.2040  11.2191  11.3130  11.3465  11.4445  11.4925  11.5699  11.5828
    12.0520  12.1012  12.1117  12.2044  12.2916  12.3089  12.3246  12.4477
    12.5407  12.5632  12.5655  12.5882  12.6995  12.7103  12.7537  12.9366
    12.9459  12.9869  12.9968  13.1213  13.3279  13.5447  13.6630  13.6676
    13.8533  14.1977  14.2393  14.2502  14.4021  14.4562  14.4670  14.6404
    14.7676  14.8285  14.9002  14.9246  14.9418  14.9517  14.9591  15.0258
    15.0895  15.1477  15.2105  15.2489  15.2594  15.2834  15.3193  15.3739
    15.3829  15.4134  15.4222  15.4450  15.6489  15.6550  15.6694  15.7028
    15.7285  15.7875  15.8260  15.8340  15.8697  15.8713  15.9084  15.9581
    15.9644  15.9834  16.0467  16.0474  16.0662  16.0815  16.0945  16.0981
    16.1854  16.1946  16.2897  16.3072  16.3217  16.4233  16.4464  16.5414
    16.6635  16.6893  16.7002  16.7160  16.7345  16.7919  16.8235  16.8317
    16.8348  16.9503  16.9606  17.2481  17.3244  17.3511  17.3559  17.4435
    17.4541  17.4799  17.5006  17.5813  17.6362  17.6866  17.7453  17.7927
    17.8262  17.8815  17.8997  18.0021  18.1670  18.1702  18.2101  18.2603
    18.3603  18.4169  18.4415  18.4955  18.5668  18.6570  18.6772  18.7171
    18.9956  19.0467  19.0836  19.1206  19.1569  19.2100  19.2171  19.3430
    19.3753  19.4266  19.4815  19.5099  19.5496  19.5800  19.5968  19.6030
    19.6348  19.6406  19.6473  19.6732  19.6978  19.7217  19.7300  19.7888
    19.8299  19.8813  19.9148  19.9410  20.0103  20.0167  20.0492  20.0542
    20.0722  20.1219  20.1330  20.2036  20.3088  20.3661  20.3750  20.4746
[...]
    23.9960  24.0432  24.0591  24.0599  24.1426  24.1757  24.1948  24.2862
    24.3049  24.3623  24.3673  24.3741  24.4057  24.4746  24.5150  24.6430
    24.6538  24.7933  24.9138  24.9168  24.9487  25.0247  25.0438  25.0907
    25.2081  25.2600  25.2642  25.3282  25.4189  25.4208  25.4689  25.4716
    25.5483  25.5500  25.5989  25.6252  25.6527  25.6655  25.7082  25.7436
    25.7582  25.7691  25.8144  25.8349  25.9356  25.9397  25.9487  25.9757
    26.0423  26.0536  26.0647  26.1038  26.1965  26.1974  26.2491  26.2862
    26.3270  26.3877  26.4429  26.4895  26.4909  26.5153  26.5221  26.5657
    26.5926  26.6513  26.6641  26.6818  26.7706  26.7732  26.7821  26.7855
    26.8212  26.8574  26.8944  26.9324  27.0444  27.0564  27.1089  27.1176
    27.2377  27.2396  27.2611  27.2720  27.3540  27.3659  27.4111  27.4120
    27.4680  27.4873  27.5113  27.5558  27.5610  27.5813  27.6067  27.6826
    27.7152  27.7331  27.7499  27.7754  27.7798  27.8589  27.8638  27.8710
    27.9237  27.9799  27.9971  28.0430  28.0929  28.1110  28.1779  28.2115
    28.2445  28.2492

     the Fermi energy is     1.9974 ev

!    total energy              =   -4181.24440180 Ry
     Harris-Foulkes estimate   =   -4181.24440180 Ry
     estimated scf accuracy    <          6.9E-09 Ry

     The total energy is the sum of the following terms:

     one-electron contribution =  -84739.20214842 Ry
     hartree contribution      =   42413.17141536 Ry
     xc contribution           =   -1147.60102742 Ry
     ewald contribution        =   39292.38918459 Ry
     smearing contrib. (-TS)   =      -0.00182591 Ry

     convergence has been achieved in  19 iterations

     Forces acting on atoms (Ry/au):

     negative rho (up, down):  0.490E+00 0.000E+00
     atom    1 type  1   force =    -0.00004393    0.00000000    0.10536742
     atom    2 type  2   force =    -0.01210843    0.00000000   -0.14592100
     atom    3 type  2   force =    -0.00000767    0.00000000    0.05779132
     atom    4 type  1   force =    -0.00018452    0.00440405   -0.01375847
     atom    5 type  1   force =    -0.00018452   -0.00440405   -0.01375847
     atom    6 type  1   force =     0.00009735    0.00000000    0.04580376
     atom    7 type  1   force =     0.00004460    0.00000000   -0.01037508
     atom    8 type  2   force =     0.00036575    0.00000000    0.00668551
     atom    9 type  2   force =    -0.00018188    0.00000000   -0.03263963
     atom   10 type  1   force =     0.00026757   -0.00690435    0.00313015
     atom   11 type  1   force =     0.00026757    0.00690435    0.00313015
     atom   12 type  1   force =    -0.00003282    0.00000000    0.00258465
     atom   13 type  1   force =    -0.00005817    0.00000000   -0.01322643
     atom   14 type  2   force =     0.00483948    0.00000000    0.00241159
     atom   15 type  2   force =    -0.00006065    0.00000000    0.00002628
     atom   16 type  1   force =     0.00017672    0.00083011    0.00009921
     atom   17 type  1   force =     0.00017672   -0.00083011    0.00009921
     atom   18 type  1   force =     0.00371544    0.00000000    0.00066992
     atom   19 type  1   force =    -0.00000634    0.00000000    0.00387417
     atom   20 type  2   force =     0.00307611    0.00000000    0.00973729
     atom   21 type  2   force =    -0.01185972    0.00000000   -0.02257355
     atom   22 type  1   force =    -0.00951706   -0.00069031   -0.01631856
     atom   23 type  1   force =    -0.00951706    0.00069031   -0.01631856
     atom   24 type  1   force =     0.00046667    0.00000000   -0.00298782
     atom   25 type  1   force =     0.00003857    0.00000000    0.10857622
     atom   26 type  2   force =     0.01203281    0.00000000   -0.14597100
     atom   27 type  2   force =    -0.00004581    0.00000000    0.06028756
     atom   28 type  1   force =     0.00018916    0.00441443   -0.01375133
     atom   29 type  1   force =     0.00018916   -0.00441443   -0.01375133
     atom   30 type  1   force =     0.00006547    0.00000000    0.03473129
     atom   31 type  1   force =    -0.00001638    0.00000000   -0.01025360
     atom   32 type  2   force =    -0.00032430    0.00000000    0.00675512
     atom   33 type  2   force =     0.00002786    0.00000000   -0.02287161
     atom   34 type  1   force =    -0.00022604   -0.00686939    0.00312675
     atom   35 type  1   force =    -0.00022604    0.00686939    0.00312675
     atom   36 type  1   force =    -0.00001333    0.00000000   -0.01204928
     atom   37 type  1   force =     0.00055112    0.00000000   -0.00082362
     atom   38 type  2   force =    -0.00475663    0.00000000    0.00217264
     atom   39 type  2   force =     0.00006803    0.00000000   -0.00234593
     atom   40 type  1   force =    -0.00017658    0.00104566    0.00022453
     atom   41 type  1   force =    -0.00017658   -0.00104566    0.00022453
     atom   42 type  1   force =    -0.00252212    0.00000000   -0.02425894
     atom   43 type  1   force =    -0.00006889    0.00000000    0.00118896
     atom   44 type  2   force =    -0.00320623    0.00000000    0.01152736
     atom   45 type  2   force =    -0.00015657    0.00000000    0.11855602
     atom   46 type  1   force =     0.01460438    0.00018524   -0.02243540
     atom   47 type  1   force =     0.01460438   -0.00018524   -0.02243540
     atom   48 type  1   force =    -0.00021935    0.00000000   -0.01252621
     atom   49 type  1   force =    -0.00004550    0.00000000   -0.00044781
     atom   50 type  3   force =     0.00007822    0.00000000   -0.00010932

     Total force =     0.000470     Total SCF correction =     0.000033

     bfgs converged in  19 scf cycles and  18 bfgs steps
     (criteria: energy < 0.10E-03, force < 0.10E-02)

     End of BFGS Geometry Optimization

     Final energy   =   -4181.2444017956 Ry
Begin final coordinates

ATOMIC_POSITIONS (crystal)
O0       0.000000000   0.500000000   0.319310000    0   0   0
Re1      0.250000000   0.500000000   0.360290000    0   0   0
Re1      0.000000000   0.000000000   0.360290000    0   0   0
O0       0.250000000   0.780000000   0.360290000    0   0   0
O0       0.250000000   0.220000000   0.360290000    0   0   0
O0       0.000000000   0.500000000   0.401270000    0   0   0
O0       0.000000000   0.000000000   0.412450000    0   0   0
Re1      0.250000000   0.000000000   0.453430000    0   0   0
Re1      0.000000000   0.500000000   0.453430000    0   0   0
O0       0.250000000   0.720000000   0.453430000    0   0   0
O0       0.250000000   0.280000000   0.453430000    0   0   0
O0       0.000000000   0.000000000   0.494410000    0   0   0
O0       0.000000000   0.500000000   0.505370000    0   0   0
Re1      0.245380000   0.500000000   0.545900000    0   0   0
Re1      0.000000000   0.000000000   0.547950000    0   0   0
O0       0.248880000   0.781150000   0.546810000    0   0   0
O0       0.248880000   0.218850000   0.546810000    0   0   0
O0       0.000000000   0.500000000   0.587180000    0   0   0
O0       0.000000000   0.000000000   0.601530000    0   0   0
Re1      0.274900000   0.000000000   0.641610000    0   0   0
Re1      0.000000000   0.500000000   0.637750000    0   0   0
O0       0.253750000   0.716900000   0.640970000    0   0   0
O0       0.253750000   0.283100000   0.640970000    0   0   0
O0       0.000000000   0.000000000   0.675010000    0   0   0
O0       0.500000000   0.500000000   0.319310000    0   0   0
Re1      0.750000000   0.500000000   0.360290000    0   0   0
Re1      0.500000000   0.000000000   0.360290000    0   0   0
O0       0.750000000   0.780000000   0.360290000    0   0   0
O0       0.750000000   0.220000000   0.360290000    0   0   0
O0       0.500000000   0.500000000   0.401270000    0   0   0
O0       0.500000000   0.000000000   0.412450000    0   0   0
Re1      0.750000000   0.000000000   0.453430000    0   0   0
Re1      0.500000000   0.500000000   0.453430000    0   0   0
O0       0.750000000   0.720000000   0.453430000    0   0   0
O0       0.750000000   0.280000000   0.453430000    0   0   0
O0       0.500000000   0.000000000   0.494410000    0   0   0
O0       0.500000000   0.500000000   0.506100000    0   0   0
Re1      0.754620000   0.500000000   0.545900000    0   0   0
Re1      0.500000000   0.000000000   0.546820000    0   0   0
O0       0.751120000   0.781150000   0.546810000    0   0   0
O0       0.751120000   0.218850000   0.546810000    0   0   0
O0       0.500000000   0.500000000   0.585970000    0   0   0
O0       0.500000000   0.000000000   0.598550000    0   0   0
Re1      0.725100000   0.000000000   0.641610000    0   0   0
Re1      0.500000000   0.500000000   0.636160000    0   0   0
O0       0.746250000   0.716900000   0.640970000    0   0   0
O0       0.746250000   0.283100000   0.640970000    0   0   0
O0       0.500000000   0.000000000   0.682390000    0   0   0
O0       0.528162776   0.500000000   0.688051185
H2       0.383902214   0.500000000   0.704068388
End final coordinates

     General routines

     Parallel routines

   This run was terminated on:  21: 8:22  29Mar2014

   JOB DONE.