     Program PWSCF v.5.0.2 (svn rev. 9656) starts on 10May2014 at  1:15:21

     Current dimensions of program PWSCF are:
     Max number of different atomic species (ntypx) = 10
     Max number of k-points (npk) =  40000
     Max angular momentum in pseudopotentials (lmaxx) =  3
     Reading input from pwscf.in
Warning: card &CELL ignored
Warning: card / ignored

     Subspace diagonalization in iterative solution of the eigenvalue problem:
     a serial algorithm will be used

     bravais-lattice index     =            0
     lattice parameter (alat)  =      11.7919  a.u.
     unit-cell volume          =    7123.6633 (a.u.)^3
     number of atoms/cell      =           31
     number of atomic types    =            3
     number of electrons       =       246.00
     number of Kohn-Sham states=          357
     kinetic-energy cutoff     =      40.0000  Ry
     charge density cutoff     =     500.0000  Ry
     convergence threshold     =      1.0E-06
     mixing beta               =       0.7000
     number of iterations used =            8  plain     mixing
     Exchange-correlation      = SLA  PW   PBE  PBE ( 1 4 3 4 0)
     EXX-fraction              =        0.00
     nstep                     =           50

     celldm(1)=  11.791891  celldm(2)=   0.000000  celldm(3)=   0.000000
     celldm(4)=   0.000000  celldm(5)=   0.000000  celldm(6)=   0.000000

     crystal axes: (cart. coord. in units of alat)
               a(1) = (   1.000000   0.000000   0.000000 )
               a(2) = (   0.000000   1.026665   0.000000 )
               a(3) = (   0.000000   0.000000   4.231793 )

     reciprocal axes: (cart. coord. in units 2 pi/alat)
               b(1) = (  1.000000  0.000000  0.000000 )
               b(2) = (  0.000000  0.974028  0.000000 )
               b(3) = (  0.000000  0.000000  0.236306 )

     PseudoPot. # 1 for O  read from file:
     /home/camp/zhonxu/pseudo/o_pbe_v1.01.uspp.F.UPF
     MD5 check sum: 2bcb18d16ea4b960afae9ec6d52f22d2
     Pseudo is Ultrasoft + core correction, Zval =  6.0
     Generated by new atomic code, or converted to UPF format
     Using radial grid of  737 points,  5 beta functions with:
                l(1) =   0
                l(2) =   0
                l(3) =   1
                l(4) =   1
                l(5) =   2
     Q(r) pseudized with  8 coefficients,  rinner =    0.900   0.900   0.900
                                                       0.900   0.900

     PseudoPot. # 2 for Ru read from file:
     /home/camp/zhonxu/pseudo/ru_pbe_v1.uspp.F.UPF
     MD5 check sum: df00be1c11b23341d9806d8f1dfa10cf
     Pseudo is Ultrasoft + core correction, Zval = 16.0
     Generated by new atomic code, or converted to UPF format
     Using radial grid of  967 points,  6 beta functions with:
                l(1) =   0
                l(2) =   0
                l(3) =   1
                l(4) =   1
                l(5) =   2
                l(6) =   2
     Q(r) pseudized with  8 coefficients,  rinner =    1.300   1.300   1.300
                                                       1.300   1.300

     PseudoPot. # 3 for H  read from file:
     /home/camp/zhonxu/pseudo/h_pbe_v1.uspp.F.UPF
     MD5 check sum: 3408e3ff4ec8b0a4e358431e7e038a48
     Pseudo is Ultrasoft, Zval =  1.0
     Generated by new atomic code, or converted to UPF format
     Using radial grid of  615 points,  2 beta functions with:
                l(1) =   0
                l(2) =   0
     Q(r) pseudized with  8 coefficients,  rinner =    0.700

     atomic species   valence    mass     pseudopotential
        O0             6.00    15.99940     O ( 1.00)
        Ru1           16.00   101.07000     Ru( 1.00)
        H2             1.00     1.00794     H ( 1.00)

     Simplified LDA+U calculation (l_max = 2) with parameters (eV):
     atomic species    L          U    alpha       J0     beta
        Ru1            2     0.0000   0.0000   0.0000   0.0000

     No symmetry found

   Cartesian axes

     site n.     atom                  positions (alat units)
         1           O0  tau(   1) = (   0.0000000   0.0000000   1.6006333  )
         2           O0  tau(   2) = (   0.0000000   0.5133323   1.7090519  )
         3           Ru1 tau(   3) = (   0.2500000   0.5133323   1.9249579  )
         4           Ru1 tau(   4) = (   0.0000000   0.0000000   1.9138706  )
         5           O0  tau(   5) = (   0.2500000   0.8315984   1.9151825  )
         6           O0  tau(   6) = (   0.2500000   0.1950663   1.9148016  )
         7           O0  tau(   7) = (   0.0000000   0.5133323   2.1086177  )
         8           O0  tau(   8) = (   0.0000000   0.0000000   2.2256691  )
         9           Ru1 tau(   9) = (   0.2500000   0.0000000   2.4381898  )
        10           Ru1 tau(  10) = (   0.0000000   0.5133323   2.4080594  )
        11           O0  tau(  11) = (   0.2500000   0.7083986   2.4344235  )
        12           O0  tau(  12) = (   0.2500000   0.3182660   2.4336618  )
        13           O0  tau(  13) = (   0.0000000   0.0000000   2.6157981  )
        14           O0  tau(  14) = (   0.5000000   0.0000000   1.6005064  )
        15           O0  tau(  15) = (   0.5000000   0.5133323   1.7116333  )
        16           Ru1 tau(  16) = (   0.7500000   0.5133323   1.9249156  )
        17           Ru1 tau(  17) = (   0.5000000   0.0000000   1.9130666  )
        18           O0  tau(  18) = (   0.7500000   0.8315984   1.9150979  )
        19           O0  tau(  19) = (   0.7500000   0.1950663   1.9148440  )
        20           O0  tau(  20) = (   0.5000000   0.5133323   2.1279570  )
        21           O0  tau(  21) = (   0.5000000   0.0000000   2.2254152  )
        22           Ru1 tau(  22) = (   0.7500000   0.0000000   2.4382321  )
        23           Ru1 tau(  23) = (   0.5000000   0.5133323   2.4678123  )
        24           O0  tau(  24) = (   0.7500000   0.7083986   2.4345927  )
        25           O0  tau(  25) = (   0.7500000   0.3182660   2.4334925  )
        26           O0  tau(  26) = (   0.5000000   0.0000000   2.6078847  )
        27           H2  tau(  27) = (  -0.0002600   0.6438727   1.6192532  )
        28           H2  tau(  28) = (   0.4995800   0.6393041   1.6156985  )
        29           H2  tau(  29) = (   0.1450800   0.0331921   1.5470588  )
        30           H2  tau(  30) = (   0.6459600   0.0301326   1.5471435  )
        31           O0  tau(  31) = (   0.5000500   0.5106527   2.7413977  )

     number of k points=    10  Methfessel-Paxton smearing, width (Ry)=  0.0100
                       cart. coord. in units 2pi/alat
        k(    1) = (   0.0000000   0.0000000   0.0000000), wk =   0.1250000
        k(    2) = (   0.0000000   0.2435070   0.0000000), wk =   0.2500000
        k(    3) = (   0.0000000  -0.4870139   0.0000000), wk =   0.1250000
        k(    4) = (   0.2500000   0.0000000   0.0000000), wk =   0.2500000
        k(    5) = (   0.2500000   0.2435070   0.0000000), wk =   0.2500000
        k(    6) = (   0.2500000  -0.4870139   0.0000000), wk =   0.2500000
        k(    7) = (  -0.5000000   0.0000000   0.0000000), wk =   0.1250000
        k(    8) = (  -0.5000000   0.2435070   0.0000000), wk =   0.2500000
        k(    9) = (  -0.5000000  -0.4870139   0.0000000), wk =   0.1250000
        k(   10) = (  -0.2500000   0.2435070   0.0000000), wk =   0.2500000

     Largest allocated arrays     est. size (Mb)     dimensions
     Largest temporary arrays     est. size (Mb)     dimensions

     Check: negative/imaginary core charge=   -0.000003    0.000000

     Initial potential from superposition of free atoms
     Check: negative starting charge=   -0.520948

     starting charge  237.99981, renormalised to  246.00000

     negative rho (up, down):  0.538E+00 0.000E+00
     Number of +U iterations with fixed ns =  0
     Starting occupations:
 --- enter write_ns ---
 LDA+U parameters:
U( 2)     =  0.00000000
alpha( 2) =  0.00000000
atom    3   Tr[ns(na)] =   6.00000
    eigenvalues:
  0.600  0.600  0.600  0.600  0.600
    eigenvectors:
  1.000  0.000  0.000  0.000  0.000
  0.000  1.000  0.000  0.000  0.000
  0.000  0.000  1.000  0.000  0.000
  0.000  0.000  0.000  1.000  0.000
  0.000  0.000  0.000  0.000  1.000
    occupations:
  0.600  0.000  0.000  0.000  0.000
  0.000  0.600  0.000  0.000  0.000
  0.000  0.000  0.600  0.000  0.000
  0.000  0.000  0.000  0.600  0.000
  0.000  0.000  0.000  0.000  0.600
atom    4   Tr[ns(na)] =   6.00000
    eigenvalues:
  0.600  0.600  0.600  0.600  0.600
    eigenvectors:
  1.000  0.000  0.000  0.000  0.000
  0.000  1.000  0.000  0.000  0.000
  0.000  0.000  1.000  0.000  0.000
  0.000  0.000  0.000  1.000  0.000
  0.000  0.000  0.000  0.000  1.000
    occupations:
  0.600  0.000  0.000  0.000  0.000
  0.000  0.600  0.000  0.000  0.000
  0.000  0.000  0.600  0.000  0.000
  0.000  0.000  0.000  0.600  0.000
  0.000  0.000  0.000  0.000  0.600
atom    9   Tr[ns(na)] =   6.00000
    eigenvalues:
  0.600  0.600  0.600  0.600  0.600
    eigenvectors:
  1.000  0.000  0.000  0.000  0.000
  0.000  1.000  0.000  0.000  0.000
  0.000  0.000  1.000  0.000  0.000
  0.000  0.000  0.000  1.000  0.000
  0.000  0.000  0.000  0.000  1.000
    occupations:
  0.600  0.000  0.000  0.000  0.000
  0.000  0.600  0.000  0.000  0.000
  0.000  0.000  0.600  0.000  0.000
  0.000  0.000  0.000  0.600  0.000
  0.000  0.000  0.000  0.000  0.600
atom   10   Tr[ns(na)] =   6.00000
    eigenvalues:
  0.600  0.600  0.600  0.600  0.600
    eigenvectors:
  1.000  0.000  0.000  0.000  0.000
  0.000  1.000  0.000  0.000  0.000
  0.000  0.000  1.000  0.000  0.000
  0.000  0.000  0.000  1.000  0.000
  0.000  0.000  0.000  0.000  1.000
    occupations:
  0.600  0.000  0.000  0.000  0.000
  0.000  0.600  0.000  0.000  0.000
  0.000  0.000  0.600  0.000  0.000
  0.000  0.000  0.000  0.600  0.000
  0.000  0.000  0.000  0.000  0.600
atom   16   Tr[ns(na)] =   6.00000
    eigenvalues:
  0.600  0.600  0.600  0.600  0.600
    eigenvectors:
  1.000  0.000  0.000  0.000  0.000
  0.000  1.000  0.000  0.000  0.000
  0.000  0.000  1.000  0.000  0.000
  0.000  0.000  0.000  1.000  0.000
  0.000  0.000  0.000  0.000  1.000
    occupations:
  0.600  0.000  0.000  0.000  0.000
  0.000  0.600  0.000  0.000  0.000
  0.000  0.000  0.600  0.000  0.000
  0.000  0.000  0.000  0.600  0.000
  0.000  0.000  0.000  0.000  0.600
atom   17   Tr[ns(na)] =   6.00000
    eigenvalues:
  0.600  0.600  0.600  0.600  0.600
    eigenvectors:
  1.000  0.000  0.000  0.000  0.000
  0.000  1.000  0.000  0.000  0.000
  0.000  0.000  1.000  0.000  0.000
  0.000  0.000  0.000  1.000  0.000
  0.000  0.000  0.000  0.000  1.000
    occupations:
  0.600  0.000  0.000  0.000  0.000
  0.000  0.600  0.000  0.000  0.000
  0.000  0.000  0.600  0.000  0.000
  0.000  0.000  0.000  0.600  0.000
  0.000  0.000  0.000  0.000  0.600
atom   22   Tr[ns(na)] =   6.00000
    eigenvalues:
  0.600  0.600  0.600  0.600  0.600
    eigenvectors:
  1.000  0.000  0.000  0.000  0.000
  0.000  1.000  0.000  0.000  0.000
  0.000  0.000  1.000  0.000  0.000
  0.000  0.000  0.000  1.000  0.000
  0.000  0.000  0.000  0.000  1.000
    occupations:
  0.600  0.000  0.000  0.000  0.000
  0.000  0.600  0.000  0.000  0.000
[...]

     iteration # 45     ecut=    40.00 Ry     beta=0.70
     Davidson diagonalization with overlap
     ethr =  4.61E-10,  avg # of iterations =  1.0

     negative rho (up, down):  0.580E+00 0.000E+00

     End of self-consistent calculation
 --- enter write_ns ---
 LDA+U parameters:
U( 2)     =  0.00000000
alpha( 2) =  0.00000000
atom    3   Tr[ns(na)] =   7.13916
    eigenvalues:
  0.534  0.575  0.711  0.810  0.941
    eigenvectors:
  0.001  0.190  0.005  0.000  0.803
  0.995  0.004  0.000  0.000  0.000
  0.000  0.001  0.988  0.002  0.009
  0.004  0.805  0.004  0.000  0.188
  0.000  0.000  0.002  0.997  0.000
    occupations:
  0.870 -0.001  0.021 -0.143 -0.001
 -0.001  0.534  0.001 -0.002 -0.002
  0.021  0.001  0.713 -0.006 -0.005
 -0.143 -0.002 -0.006  0.644  0.001
 -0.001 -0.002 -0.005  0.001  0.809
atom    4   Tr[ns(na)] =   7.13787
    eigenvalues:
  0.559  0.602  0.700  0.768  0.940
    eigenvectors:
  0.000  0.992  0.000  0.000  0.008
  0.000  0.000  0.034  0.966  0.000
  0.000  0.000  0.966  0.034  0.000
  0.000  0.008  0.000  0.000  0.992
  1.000  0.000  0.000  0.000  0.000
    occupations:
  0.605 -0.001 -0.000  0.030  0.001
 -0.001  0.766  0.012 -0.001 -0.001
 -0.000  0.012  0.702  0.001  0.000
  0.030 -0.001  0.001  0.937  0.000
  0.001 -0.001  0.000  0.000  0.559
atom    9   Tr[ns(na)] =   7.10664
    eigenvalues:
  0.587  0.604  0.766  0.797  0.800
    eigenvectors:
  0.001  0.163  0.000  0.233  0.603
  0.991  0.008  0.000  0.000  0.000
  0.000  0.000  0.974  0.018  0.008
  0.008  0.829  0.000  0.045  0.118
  0.000  0.000  0.026  0.703  0.270
    occupations:
  0.767 -0.002 -0.000 -0.072  0.001
 -0.002  0.587  0.001  0.002 -0.000
 -0.000  0.001  0.767  0.000 -0.005
 -0.072  0.002  0.000  0.635 -0.000
  0.001 -0.000 -0.005 -0.000  0.797
atom   10   Tr[ns(na)] =   7.15001
    eigenvalues:
  0.544  0.563  0.746  0.802  0.920
    eigenvectors:
  0.000  0.990  0.000  0.000  0.010
  0.000  0.000  0.000  1.000  0.000
  0.000  0.000  1.000  0.000  0.000
  0.000  0.010  0.000  0.000  0.990
  1.000  0.000  0.000  0.000  0.000
    occupations:
  0.566  0.000 -0.003  0.036  0.000
  0.000  0.802  0.000  0.000  0.001
 -0.003  0.000  0.746 -0.002  0.000
  0.036  0.000 -0.002  0.917  0.000
  0.000  0.001  0.000  0.000  0.544
atom   16   Tr[ns(na)] =   7.13889
    eigenvalues:
  0.534  0.574  0.710  0.810  0.941
    eigenvectors:
  0.001  0.190  0.005  0.000  0.803
  0.996  0.004  0.000  0.000  0.000
  0.000  0.001  0.987  0.003  0.009
  0.003  0.805  0.004  0.000  0.187
  0.000  0.000  0.004  0.996  0.000
    occupations:
  0.870  0.001  0.021 -0.143  0.001
  0.001  0.534 -0.001  0.002 -0.002
  0.021 -0.001  0.713 -0.006  0.006
 -0.143  0.002 -0.006  0.644 -0.002
  0.001 -0.002  0.006 -0.002  0.810
atom   17   Tr[ns(na)] =   7.12930
    eigenvalues:
  0.560  0.605  0.691  0.769  0.939
    eigenvectors:
  0.000  0.991  0.000  0.000  0.009
  0.000  0.000  0.018  0.982  0.000
  0.000  0.000  0.982  0.018  0.000
  0.000  0.009  0.000  0.000  0.991
  1.000  0.000  0.000  0.000  0.000
    occupations:
  0.607 -0.001 -0.000  0.031  0.001
 -0.001  0.768  0.010 -0.001 -0.001
 -0.000  0.010  0.693  0.000  0.000
  0.031 -0.001  0.000  0.936 -0.000
  0.001 -0.001  0.000 -0.000  0.560
atom   22   Tr[ns(na)] =   7.10697
    eigenvalues:
  0.587  0.604  0.766  0.798  0.799
    eigenvectors:
  0.000  0.164  0.000  0.148  0.687
  0.997  0.003  0.000  0.000  0.000
  0.000  0.000  0.972  0.020  0.008
  0.003  0.833  0.000  0.029  0.135
  0.000  0.000  0.028  0.802  0.170
    occupations:
  0.767  0.002  0.001 -0.072  0.000
  0.002  0.587  0.001 -0.002 -0.000
  0.001  0.001  0.767  0.000  0.005
 -0.072 -0.002  0.000  0.636 -0.000
  0.000 -0.000  0.005 -0.000  0.797
atom   23   Tr[ns(na)] =   7.13677
    eigenvalues:
  0.576  0.655  0.668  0.703  0.968
    eigenvectors:
  0.000  0.988  0.005  0.000  0.006
  0.000  0.000  0.000  1.000  0.000
  0.000  0.005  0.994  0.000  0.000
  0.000  0.007  0.000  0.000  0.993
  1.000  0.000  0.000  0.000  0.000
    occupations:
  0.657  0.000 -0.001  0.025 -0.000
  0.000  0.703  0.000  0.000  0.001
 -0.001  0.000  0.667  0.002 -0.000
  0.025  0.000  0.002  0.966 -0.000
 -0.000  0.001 -0.000 -0.000  0.576
N of occupied +U levels =  57.0456098
 --- exit write_ns ---

          k = 0.0000 0.0000 0.0000 ( 30363 PWs)   bands (ev):

   -75.5346 -75.0647 -75.0539 -74.7574 -74.7042 -74.4787 -74.4194 -74.4094
   -46.0131 -45.3344 -45.2349 -45.1828 -45.0480 -45.0114 -45.0022 -44.9755
   -44.9408 -44.9135 -44.9118 -44.7387 -44.7345 -44.6278 -44.5972 -44.5648
   -44.5332 -44.4856 -44.4535 -44.4158 -44.3032 -44.2846 -44.2678 -44.1817
   -21.3436 -20.8256 -20.7293 -20.6179 -20.5109 -20.2130 -19.9104 -19.8856
   -19.8446 -19.8118 -19.8023 -19.7706 -19.4902 -19.4463 -19.3593 -19.3186
   -19.2533 -19.0536 -18.8948  -9.3936  -9.3453  -9.3099  -8.6185  -8.4868
    -8.4003  -8.3848  -8.0640  -8.0221  -7.9901  -7.9626  -7.9562  -7.8521
    -7.8039  -7.7455  -7.5553  -7.4957  -7.3415  -7.2926  -7.0676  -6.9684
    -6.9412  -6.6746  -6.4328  -6.3792  -5.9630  -5.8434  -5.8230  -5.6340
    -5.4706  -5.4250  -5.3590  -5.3016  -5.1763  -5.1259  -5.0767  -4.9661
    -4.8914  -4.8352  -4.7758  -4.6888  -4.5815  -4.5330  -4.3817  -4.3054
    -4.2117  -4.0640  -4.0068  -3.9016  -3.8802  -3.8163  -3.7724  -3.5948
    -3.4528  -3.4274  -3.2304  -2.8583  -2.7240  -2.6739  -2.3984  -2.2420
    -2.2289  -1.9714  -1.9155  -1.8115  -1.7441  -1.6524  -1.6198  -1.5021
    -1.3785  -1.3550  -1.3114  -1.2138  -1.1292  -0.6824  -0.6404  -0.4088
    -0.3270  -0.2706  -0.0479   0.2083   0.2805   1.0373   1.2793   1.5321
     1.7275   1.9294   2.0694   2.0873   2.2845   2.8543   3.0972   3.2149
     3.2662   3.2801   3.3292   3.5080   3.9234   4.2332   4.3205   4.8513
     5.2207   6.0027   6.2218   6.2857   6.4661   6.9139   7.1347   7.2668
     7.5514   7.7472   7.9155   7.9777   7.9898   8.0655   8.0701   8.2074
     8.2319   8.3169   8.4160   8.4533   8.5037   8.6293   8.7170   8.7335
     8.7575   9.0272   9.1518   9.1991   9.2767   9.3125   9.3554   9.4390
     9.5960   9.6852   9.8117   9.9235   9.9326  10.0236  10.1362  10.2870
    10.6260  10.7111  10.7400  11.0166  11.0714  11.0814  11.1771  11.2087
    11.3024  11.3419  11.3784  11.4910  11.5492  11.5988  11.6833  11.7849
    11.8324  11.8477  11.9282  11.9563  12.0157  12.1423  12.1634  12.2267
    12.2735  12.2932  12.3713  12.4109  12.4475  12.5018  12.5526  12.7296
    12.7958  12.8143  12.8739  12.9289  13.0135  13.0778  13.1124  13.2144
    13.2372  13.3213  13.3806  13.5657  13.7198  13.7987  13.8443  13.9425
    14.0159  14.1560  14.2331  14.2778  14.3498  14.3886  14.5237  14.5493
    14.5917  14.8349  14.8755  15.0106  15.0684  15.1698  15.3303  15.4642
    15.5023  15.5591  15.6834  15.7804  15.8337  15.8621  15.8936  16.0299
    16.1857  16.2179  16.2411  16.4191  16.5045  16.5836  16.8512  16.8747
    17.0561  17.1112  17.2263  17.2647  17.3046  17.3602  17.4178  17.4877
    17.5101  17.7948  17.8829  17.9159  17.9706  18.0969  18.2037  18.2365
    18.3722  18.4566  18.5183  18.5673  18.6000  18.6621  18.7130  18.7285
    18.8032  18.8382  18.9239  18.9846  19.0383  19.0741  19.1882  19.2111
    19.2811  19.2977  19.3506  19.4478  19.6235  19.6290  19.6649  19.7205
    19.7847  19.8055  19.8831  19.9507  20.0433  20.1338  20.1840  20.1909
    20.1931  20.2158  20.3039  20.3718  20.4122  20.5377  20.5528  20.6683
    20.7458  20.7876  20.8336  20.8593  20.9200  21.0643  21.1909  21.2017
    21.2733  21.3752  21.4129  21.4787  21.5308  21.6793  21.6919  21.7004
    21.7653  21.8083  21.8857  22.0558  22.1107  22.2020  22.2526  22.2648
    22.2919  22.3337  22.3848  22.5022  22.5240

[...]

          k = 0.2500-0.4870 0.0000 ( 30468 PWs)   bands (ev):

[...]

          k =-0.5000 0.0000 0.0000 ( 30480 PWs)   bands (ev):

[...]

          k =-0.2500 0.2435 0.0000 ( 30434 PWs)   bands (ev):

   -75.5346 -75.0631 -75.0555 -74.7572 -74.7044 -74.4787 -74.4180 -74.4108
   -46.0131 -45.3314 -45.2091 -45.1798 -45.0759 -45.0113 -45.0036 -44.9743
   -44.9381 -44.9184 -44.9105 -44.7385 -44.7128 -44.6155 -44.5971 -44.5881
   -44.5412 -44.4897 -44.4573 -44.3951 -44.3146 -44.2852 -44.2596 -44.1995
   -21.2274 -20.6994 -20.6581 -20.6048 -20.4154 -20.1373 -20.0824 -19.9975
   -19.8832 -19.7721 -19.7245 -19.6647 -19.5328 -19.4917 -19.4681 -19.4387
   -19.4103 -19.1211 -18.9029  -9.2534  -8.8199  -8.7667  -8.7343  -8.4676
    -8.3910  -8.2681  -8.2009  -8.0642  -7.9660  -7.9070  -7.8458  -7.7636
    -7.6891  -7.6479  -7.5220  -7.3928  -7.2437  -7.0283  -6.9926  -6.8984
    -6.8380  -6.6754  -6.3514  -6.2406  -6.2030  -6.0686  -5.8595  -5.8103
    -5.7463  -5.6966  -5.6395  -5.5130  -5.4651  -5.4069  -5.3555  -5.2245
    -5.1579  -5.0533  -4.9232  -4.8863  -4.7138  -4.6458  -4.5810  -4.4323
    -4.3202  -4.2464  -4.1972  -4.0846  -3.9848  -3.9033  -3.8183  -3.7043
    -3.4548  -3.3484  -3.2467  -2.9791  -2.2991  -2.1734  -2.0609  -1.9593
    -1.9078  -1.8264  -1.7270  -1.6545  -1.6091  -1.5760  -1.5270  -1.4506
    -1.3500  -1.2364  -1.1984  -1.0438  -0.9392  -0.7102  -0.5593  -0.5259
    -0.3715  -0.3332  -0.2168  -0.0360   0.5108   0.9708   1.2634   1.3191
     1.5902   1.9606   2.2257   2.4495   2.6839   2.7787   2.8576   2.9571
     3.0589   3.1408   3.3591   3.7147   3.8656   4.7211   4.8106   5.3029
     5.5877   5.6306   5.7812   6.3584   6.6132   6.6590   6.7217   6.7468
     6.8205   6.9985   7.1435   7.3620   7.5780   7.7891   7.8781   8.0084
     8.2000   8.3030   8.3641   8.4131   8.5262   8.5759   8.7008   8.7426
     8.9922   9.1524   9.1816   9.2692   9.4942   9.6499   9.7804   9.8233
     9.9326  10.0316  10.1178  10.1560  10.2797  10.3138  10.3752  10.5100
    10.6013  10.6466  10.6877  10.8830  10.9693  11.0958  11.1550  11.2591
    11.3684  11.4416  11.4774  11.5509  11.6818  11.7159  11.7707  11.8257
    11.9307  11.9703  12.0989  12.1266  12.1889  12.3075  12.4416  12.4831
    12.5350  12.5536  12.6280  12.7136  12.7772  12.8656  12.9222  13.0114
    13.0779  13.1284  13.2682  13.3418  13.3664  13.4727  13.4934  13.5753
    13.7388  13.8062  13.8946  13.9711  14.0336  14.1326  14.1724  14.2301
    14.3928  14.4286  14.4886  14.5455  14.5698  14.6883  14.7816  14.8397
    14.9323  14.9816  15.0486  15.1311  15.2942  15.4134  15.5443  15.5750
    15.6169  15.6811  15.7788  15.8065  15.8493  15.9042  15.9733  16.0557
    16.1110  16.1767  16.3075  16.3310  16.3794  16.4604  16.5490  16.6069
    16.6591  16.7245  16.7529  16.8012  16.8364  16.9035  16.9672  17.0114
    17.0914  17.1773  17.2400  17.3469  17.4191  17.4653  17.5015  17.5884
    17.6874  17.7681  17.7833  17.8354  17.9114  17.9640  18.0600  18.1064
    18.2286  18.2460  18.3042  18.3337  18.4335  18.4515  18.5684  18.6225
    18.7170  18.8096  18.8876  18.9647  19.0622  19.1089  19.1580  19.1820
    19.2560  19.3008  19.4290  19.4707  19.5199  19.5405  19.6305  19.7408
    19.8095  19.8563  19.9111  19.9928  20.0609  20.1692  20.2644  20.3129
    20.4373  20.5121  20.5459  20.6210  20.7519  20.8111  20.8600  20.8861
    20.9665  20.9884  21.0902  21.1246  21.1854  21.2579  21.3196  21.3811
    21.4664  21.5286  21.5634  21.5862  21.6458  21.7285  21.8515  21.9301
    21.9845  22.0401  22.0598  22.0990  22.1524

     the Fermi energy is    -1.0948 ev

!    total energy              =   -2163.46207043 Ry
     Harris-Foulkes estimate   =   -2163.46207109 Ry
     estimated scf accuracy    <       0.00000068 Ry

     The total energy is the sum of the following terms:

     one-electron contribution =  -25065.70434910 Ry
     hartree contribution      =   12552.09538726 Ry
     xc contribution           =    -337.54750638 Ry
     ewald contribution        =   10687.69470232 Ry
     Hubbard energy            =       0.00000000 Ry
     smearing contrib. (-TS)   =      -0.00030453 Ry

     convergence has been achieved in  45 iterations

     Forces acting on atoms (Ry/au):

     negative rho (up, down):  0.580E+00 0.000E+00
     atom    1 type  1   force =    -0.00572193   -0.01102149   -0.00011629
     atom    2 type  1   force =    -0.00002813    0.00793844    0.00051634
     atom    3 type  2   force =     0.04273808   -0.00025861   -0.00002725
     atom    4 type  2   force =     0.00376723    0.00574019   -0.00019104
     atom    5 type  1   force =     0.00364303   -0.03172166   -0.00023802
     atom    6 type  1   force =     0.00176451    0.03345442   -0.00029594
     atom    7 type  1   force =     0.00020999   -0.00430893   -0.00056076
     atom    8 type  1   force =    -0.00000077   -0.00162569   -0.00032494
     atom    9 type  2   force =    -0.00494001    0.00207895   -0.00023003
     atom   10 type  2   force =    -0.00004541   -0.00069471   -0.00048803
     atom   11 type  1   force =    -0.00906689    0.00215734    0.00011058
     atom   12 type  1   force =    -0.01052938   -0.00312629    0.00006207
     atom   13 type  1   force =    -0.00145467   -0.00045525   -0.00003423
     atom   14 type  1   force =    -0.00434934   -0.01012543   -0.00038483
     atom   15 type  1   force =    -0.00017564    0.00599206    0.00036795
     atom   16 type  2   force =    -0.04311181    0.00074070    0.00006944
     atom   17 type  2   force =     0.00316986    0.00583833   -0.00001801
     atom   18 type  1   force =    -0.00058250   -0.03236958   -0.00031408
     atom   19 type  1   force =    -0.00033065    0.03298709   -0.00031672
     atom   20 type  1   force =     0.00017158   -0.00149020   -0.00090527
     atom   21 type  1   force =    -0.00002662   -0.00143276    0.00001906
     atom   22 type  2   force =     0.00649590    0.00201402   -0.00025807
     atom   23 type  2   force =     0.00000945    0.00154095    0.00065639
     atom   24 type  1   force =     0.00913399    0.00217859    0.00008023
     atom   25 type  1   force =     0.01051391   -0.00301969    0.00004764
     atom   26 type  1   force =    -0.00172694   -0.00070999   -0.00000166
     atom   27 type  3   force =    -0.00000878   -0.00025201    0.00065017
     atom   28 type  3   force =    -0.00001939   -0.00015346    0.00058802
     atom   29 type  3   force =     0.00023974    0.00005411    0.00025745
     atom   30 type  3   force =     0.00027224    0.00003274    0.00031374
     atom   31 type  1   force =    -0.00001062    0.00001783    0.00096611

     Total force =     0.002257     Total SCF correction =     0.003362
     SCF correction compared to forces is large: reduce conv_thr to get better values

     BFGS Geometry Optimization

     bfgs converged in   1 scf cycles and   0 bfgs steps
     (criteria: energy < 0.10E-03, force < 0.10E-02)

     End of BFGS Geometry Optimization

     Final energy   =   -2163.4620704296 Ry
Begin final coordinates

ATOMIC_POSITIONS (crystal)
O0       0.000000000   0.000000000   0.378240000    0   0   1
O0       0.000000000   0.500000000   0.403860000    0   0   1
Ru1      0.250000000   0.500000000   0.454880000    0   0   1
Ru1      0.000000000   0.000000000   0.452260000    0   0   1
O0       0.250000000   0.810000000   0.452570000    0   0   1
O0       0.250000000   0.190000000   0.452480000    0   0   1
O0       0.000000000   0.500000000   0.498280000    0   0   1
O0       0.000000000   0.000000000   0.525940000    0   0   1
Ru1      0.250000000   0.000000000   0.576160000    0   0   1
Ru1      0.000000000   0.500000000   0.569040000    0   0   1
O0       0.250000000   0.690000000   0.575270000    0   0   1
O0       0.250000000   0.310000000   0.575090000    0   0   1
O0       0.000000000   0.000000000   0.618130000    0   0   1
O0       0.500000000   0.000000000   0.378210000    0   0   1
O0       0.500000000   0.500000000   0.404470000    0   0   1
Ru1      0.750000000   0.500000000   0.454870000    0   0   1
Ru1      0.500000000   0.000000000   0.452070000    0   0   1
O0       0.750000000   0.810000000   0.452550000    0   0   1
O0       0.750000000   0.190000000   0.452490000    0   0   1
O0       0.500000000   0.500000000   0.502850000    0   0   1
O0       0.500000000   0.000000000   0.525880000    0   0   1
Ru1      0.750000000   0.000000000   0.576170000    0   0   1
Ru1      0.500000000   0.500000000   0.583160000    0   0   1
O0       0.750000000   0.690000000   0.575310000    0   0   1
O0       0.750000000   0.310000000   0.575050000    0   0   1
O0       0.500000000   0.000000000   0.616260000    0   0   1
H2      -0.000260000   0.627150000   0.382640000
H2       0.499580000   0.622700000   0.381800000
H2       0.145080000   0.032330000   0.365580000
H2       0.645960000   0.029350000   0.365600000
O0       0.500050000   0.497390000   0.647810000
End final coordinates

     General routines

     Parallel routines
     Hubbard U routines

   This run was terminated on:   3:56: 5  10May2014

   JOB DONE.