     Program PWSCF v.5.0.2 (svn rev. 9656) starts on 13May2014 at  1: 7: 5

     Current dimensions of program PWSCF are:
     Max number of different atomic species (ntypx) = 10
     Max number of k-points (npk) =  40000
     Max angular momentum in pseudopotentials (lmaxx) =  3
     Reading input from pwscf.in
Warning: card &CELL ignored
Warning: card / ignored

     Subspace diagonalization in iterative solution of the eigenvalue problem:
     a serial algorithm will be used

     bravais-lattice index     =            0
     lattice parameter (alat)  =      10.9604  a.u.
     unit-cell volume          =    6350.6732 (a.u.)^3
     number of atoms/cell      =           31
     number of atomic types    =            3
     number of electrons       =       230.00 (up: 122.00, down: 108.00)
     number of Kohn-Sham states=          333
     kinetic-energy cutoff     =      40.0000  Ry
     charge density cutoff     =     500.0000  Ry
     convergence threshold     =      1.0E-06
     mixing beta               =       0.3000
     number of iterations used =            8  plain     mixing
     Exchange-correlation      = SLA  PW   PBE  PBE ( 1 4 3 4 0)
     EXX-fraction              =        0.00
     nstep                     =           50

     celldm(1)=  10.960412  celldm(2)=   0.000000  celldm(3)=   0.000000
     celldm(4)=   0.000000  celldm(5)=   0.000000  celldm(6)=   0.000000

     crystal axes: (cart. coord. in units of alat)
               a(1) = (   1.000000   0.000000   0.000000 )
               a(2) = (   0.000000   1.067975   0.000000 )
               a(3) = (   0.000000   0.000000   4.516251 )

     reciprocal axes: (cart. coord. in units 2 pi/alat)
               b(1) = (  1.000000  0.000000  0.000000 )
               b(2) = (  0.000000  0.936351  0.000000 )
               b(3) = (  0.000000  0.000000  0.221423 )

     PseudoPot. # 1 for O  read from file:
     /home/camp/zhonxu/pseudo/o_pbe_v1.01.uspp.F.UPF
     MD5 check sum: 2bcb18d16ea4b960afae9ec6d52f22d2
     Pseudo is Ultrasoft + core correction, Zval =  6.0
     Generated by new atomic code, or converted to UPF format
     Using radial grid of  737 points,  5 beta functions with:
                l(1) =   0
                l(2) =   0
                l(3) =   1
                l(4) =   1
                l(5) =   2
     Q(r) pseudized with  8 coefficients,  rinner =    0.900   0.900   0.900
                                                       0.900   0.900

     PseudoPot. # 2 for Cr read from file:
     /home/camp/zhonxu/pseudo/cr_pbe_v1.uspp.F.UPF
     MD5 check sum: 68b6f918d1762dccfb11451fe85b0e0e
     Pseudo is Ultrasoft + core correction, Zval = 14.0
     Generated by new atomic code, or converted to UPF format
     Using radial grid of  857 points,  6 beta functions with:
                l(1) =   0
                l(2) =   0
                l(3) =   1
                l(4) =   1
                l(5) =   2
                l(6) =   2
     Q(r) pseudized with  6 coefficients,  rinner =    1.000   1.000   1.000
                                                       1.000   1.000

     PseudoPot. # 3 for H  read from file:
     /home/camp/zhonxu/pseudo/h_pbe_v1.uspp.F.UPF
     MD5 check sum: 3408e3ff4ec8b0a4e358431e7e038a48
     Pseudo is Ultrasoft, Zval =  1.0
     Generated by new atomic code, or converted to UPF format
     Using radial grid of  615 points,  2 beta functions with:
                l(1) =   0
                l(2) =   0
     Q(r) pseudized with  8 coefficients,  rinner =    0.700

     atomic species   valence    mass     pseudopotential
        O0             6.00    15.99940     O ( 1.00)
        Cr1           14.00    51.99600     Cr( 1.00)
        H2             1.00     1.00794     H ( 1.00)

     Starting magnetic structure
     atomic species   magnetization
        O0           0.000
        Cr1          0.600
        H2           0.000

     Simplified LDA+U calculation (l_max = 2) with parameters (eV):
     atomic species    L          U    alpha       J0     beta
        Cr1            2     6.5000   0.0000   0.0000   0.0000

     No symmetry found

   Cartesian axes

     site n.     atom                  positions (alat units)
         1           O0  tau(   1) = (   0.0000000   0.0000000   1.7030331  )
         2           O0  tau(   2) = (   0.0000000   0.5339875   1.8028422  )
         3           Cr1 tau(   3) = (   0.2500000   0.5339875   2.0350227  )
         4           Cr1 tau(   4) = (   0.0000000   0.0000000   2.0223320  )
         5           O0  tau(   5) = (   0.2500000   0.8543801   2.0287902  )
         6           O0  tau(   6) = (   0.2500000   0.2135950   2.0292419  )
         7           O0  tau(   7) = (   0.0000000   0.5339875   2.2445767  )
         8           O0  tau(   8) = (   0.0000000   0.0000000   2.3628573  )
         9           Cr1 tau(   9) = (   0.2500000   0.0000000   2.5580045  )
        10           Cr1 tau(  10) = (   0.0000000   0.5339875   2.5485656  )
        11           O0  tau(  11) = (   0.2500000   0.7475825   2.5953991  )
        12           O0  tau(  12) = (   0.2500000   0.3203925   2.5951281  )
        13           O0  tau(  13) = (   0.0000000   0.0000000   2.7889204  )
        14           O0  tau(  14) = (   0.5000000   0.0000000   1.7055170  )
        15           O0  tau(  15) = (   0.5000000   0.5339875   1.8012615  )
        16           Cr1 tau(  16) = (   0.7500000   0.5339875   2.0359259  )
        17           Cr1 tau(  17) = (   0.5000000   0.0000000   2.0265773  )
        18           O0  tau(  18) = (   0.7500000   0.8543801   2.0288354  )
        19           O0  tau(  19) = (   0.7500000   0.2135950   2.0296032  )
        20           O0  tau(  20) = (   0.5000000   0.5339875   2.2364023  )
        21           O0  tau(  21) = (   0.5000000   0.0000000   2.3615024  )
        22           Cr1 tau(  22) = (   0.7500000   0.0000000   2.6337872  )
        23           Cr1 tau(  23) = (   0.5000000   0.5339875   2.6580395  )
        24           O0  tau(  24) = (   0.7500000   0.7475825   2.5992379  )
        25           O0  tau(  25) = (   0.7500000   0.3203925   2.5991024  )
        26           O0  tau(  26) = (   0.5000000   0.0000000   2.7868881  )
        27           H2  tau(  27) = (  -0.0008000   0.6785059   1.7121107  )
        28           H2  tau(  28) = (   0.4997900   0.6815710   1.7150915  )
        29           H2  tau(  29) = (   0.1566700   0.0342393   1.6437347  )
        30           H2  tau(  30) = (   0.6553000   0.0356063   1.6443670  )
        31           O0  tau(  31) = (   0.4989300   0.5335603   2.9283823  )

     number of k points=    20  Methfessel-Paxton smearing, width (Ry)=  0.0100
                       cart. coord. in units 2pi/alat
        k(    1) = (   0.0000000   0.0000000   0.0000000), wk =   0.0625000
        k(    2) = (   0.0000000   0.2340879   0.0000000), wk =   0.1250000
        k(    3) = (   0.0000000  -0.4681757   0.0000000), wk =   0.0625000
        k(    4) = (   0.2500000   0.0000000   0.0000000), wk =   0.1250000
        k(    5) = (   0.2500000   0.2340879   0.0000000), wk =   0.1250000
        k(    6) = (   0.2500000  -0.4681757   0.0000000), wk =   0.1250000
        k(    7) = (  -0.5000000   0.0000000   0.0000000), wk =   0.0625000
        k(    8) = (  -0.5000000   0.2340879   0.0000000), wk =   0.1250000
        k(    9) = (  -0.5000000  -0.4681757   0.0000000), wk =   0.0625000
        k(   10) = (  -0.2500000   0.2340879   0.0000000), wk =   0.1250000
        k(   11) = (   0.0000000   0.0000000   0.0000000), wk =   0.0625000
        k(   12) = (   0.0000000   0.2340879   0.0000000), wk =   0.1250000
        k(   13) = (   0.0000000  -0.4681757   0.0000000), wk =   0.0625000
        k(   14) = (   0.2500000   0.0000000   0.0000000), wk =   0.1250000
        k(   15) = (   0.2500000   0.2340879   0.0000000), wk =   0.1250000
        k(   16) = (   0.2500000  -0.4681757   0.0000000), wk =   0.1250000
        k(   17) = (  -0.5000000   0.0000000   0.0000000), wk =   0.0625000
        k(   18) = (  -0.5000000   0.2340879   0.0000000), wk =   0.1250000
        k(   19) = (  -0.5000000  -0.4681757   0.0000000), wk =   0.0625000
        k(   20) = (  -0.2500000   0.2340879   0.0000000), wk =   0.1250000

     Largest allocated arrays     est. size (Mb)     dimensions
     Largest temporary arrays     est. size (Mb)     dimensions

     Check: negative/imaginary core charge=   -0.000012    0.000000

     Initial potential from superposition of free atoms
     Check: negative starting charge=(component1):   -0.001547
     Check: negative starting charge=(component2):   -0.000494

     starting charge  221.99984, renormalised to  230.00000

     negative rho (up, down):  0.160E-02 0.512E-03
     Number of +U iterations with fixed ns =  0
     Starting occupations:
 --- enter write_ns ---
 LDA+U parameters:
U( 2)     =  6.50000000
alpha( 2) =  0.00000000
atom    3   Tr[ns(na)] (up, down, total) =   5.00000  0.00000  5.00000
   spin  1
    eigenvalues:
  1.000  1.000  1.000  1.000  1.000
    eigenvectors:
  1.000  0.000  0.000  0.000  0.000
  0.000  1.000  0.000  0.000  0.000
  0.000  0.000  1.000  0.000  0.000
  0.000  0.000  0.000  1.000  0.000
  0.000  0.000  0.000  0.000  1.000
    occupations:
  1.000  0.000  0.000  0.000  0.000
  0.000  1.000  0.000  0.000  0.000
  0.000  0.000  1.000  0.000  0.000
  0.000  0.000  0.000  1.000  0.000
  0.000  0.000  0.000  0.000  1.000
   spin  2
    eigenvalues:
  0.000  0.000  0.000  0.000  0.000
    eigenvectors:
  1.000  0.000  0.000  0.000  0.000
  0.000  1.000  0.000  0.000  0.000
  0.000  0.000  1.000  0.000  0.000
  0.000  0.000  0.000  1.000  0.000
  0.000  0.000  0.000  0.000  1.000
    occupations:
  0.000  0.000  0.000  0.000  0.000
  0.000  0.000  0.000  0.000  0.000
  0.000  0.000  0.000  0.000  0.000
  0.000  0.000  0.000  0.000  0.000
  0.000  0.000  0.000  0.000  0.000
atomic mag. moment =     5.000000
atom    4   Tr[ns(na)] (up, down, total) =   5.00000  0.00000  5.00000
   spin  1
    eigenvalues:
  1.000  1.000  1.000  1.000  1.000
    eigenvectors:
  1.000  0.000  0.000  0.000  0.000
  0.000  1.000  0.000  0.000  0.000
  0.000  0.000  1.000  0.000  0.000
  0.000  0.000  0.000  1.000  0.000
  0.000  0.000  0.000  0.000  1.000
    occupations:
  1.000  0.000  0.000  0.000  0.000
  0.000  1.000  0.000  0.000  0.000
  0.000  0.000  1.000  0.000  0.000
  0.000  0.000  0.000  1.000  0.000
  0.000  0.000  0.000  0.000  1.000
   spin  2
    eigenvalues:
  0.000  0.000  0.000  0.000  0.000
    eigenvectors:
  1.000  0.000  0.000  0.000  0.000
  0.000  1.000  0.000  0.000  0.000
  0.000  0.000  1.000  0.000  0.000
  0.000  0.000  0.000  1.000  0.000
  0.000  0.000  0.000  0.000  1.000
    occupations:
  0.000  0.000  0.000  0.000  0.000
  0.000  0.000  0.000  0.000  0.000
  0.000  0.000  0.000  0.000  0.000
  0.000  0.000  0.000  0.000  0.000
  0.000  0.000  0.000  0.000  0.000
atomic mag. moment =     5.000000
atom    9   Tr[ns(na)] (up, down, total) =   5.00000  0.00000  5.00000
   spin  1
    eigenvalues:
  1.000  1.000  1.000  1.000  1.000
    eigenvectors:
  1.000  0.000  0.000  0.000  0.000
[...]
  0.219  0.001  0.007  0.002  0.772
  0.000  0.945  0.053  0.002  0.000
    occupations:
  0.121 -0.001 -0.001  0.108 -0.000
 -0.001  0.278 -0.000  0.003  0.008
 -0.001 -0.000  0.081  0.006  0.001
  0.108  0.003  0.006  0.263  0.000
 -0.000  0.008  0.001  0.000  0.076
atomic mag. moment =     2.922020
atom    4   Tr[ns(na)] (up, down, total) =   3.75006  0.81652  4.56658
   spin  1
    eigenvalues:
  0.473  0.512  0.848  0.926  0.991
    eigenvectors:
  0.001  0.996  0.000  0.001  0.002
  0.000  0.001  0.012  0.987  0.000
  0.000  0.000  0.988  0.012  0.000
  0.000  0.002  0.000  0.000  0.998
  0.999  0.001  0.000  0.000  0.000
    occupations:
  0.513 -0.015 -0.001  0.023  0.001
 -0.015  0.925  0.008  0.002  0.000
 -0.001  0.008  0.849 -0.000  0.001
  0.023  0.002 -0.000  0.990  0.000
  0.001  0.000  0.001  0.000  0.473
   spin  2
    eigenvalues:
  0.070  0.072  0.076  0.290  0.308
    eigenvectors:
  0.008  0.000  0.000  0.991  0.000
  0.031  0.245  0.722  0.001  0.000
  0.023  0.705  0.272  0.000  0.000
  0.938  0.050  0.005  0.007  0.000
  0.000  0.000  0.000  0.000  1.000
    occupations:
  0.288  0.008  0.001 -0.019  0.000
  0.008  0.075 -0.002  0.000 -0.000
  0.001 -0.002  0.073  0.000  0.000
 -0.019  0.000  0.000  0.072 -0.000
  0.000 -0.000  0.000 -0.000  0.308
atomic mag. moment =     2.933538
atom    9   Tr[ns(na)] (up, down, total) =   3.73489  0.87487  4.60976
   spin  1
    eigenvalues:
  0.519  0.526  0.787  0.911  0.992
    eigenvectors:
  0.008  0.200  0.000  0.000  0.792
  0.964  0.036  0.000  0.000  0.000
  0.000  0.000  0.897  0.103  0.000
  0.028  0.764  0.000  0.000  0.208
  0.000  0.000  0.103  0.897  0.000
    occupations:
  0.895  0.003  0.001 -0.189 -0.000
  0.003  0.520  0.001  0.000 -0.000
  0.001  0.001  0.800  0.000 -0.038
 -0.189  0.000  0.000  0.623  0.001
 -0.000 -0.000 -0.038  0.001  0.898
   spin  2
    eigenvalues:
  0.076  0.082  0.086  0.301  0.330
    eigenvectors:
  0.808  0.000  0.000  0.000  0.192
  0.000  0.000  0.000  1.000  0.000
  0.000  0.357  0.643  0.000  0.000
  0.192  0.000  0.000  0.000  0.808
  0.000  0.643  0.357  0.000  0.000
    occupations:
  0.125  0.000 -0.000  0.100 -0.000
  0.000  0.301 -0.000  0.000  0.000
 -0.000 -0.000  0.085 -0.000  0.002
  0.100  0.000 -0.000  0.281 -0.000
 -0.000  0.000  0.002 -0.000  0.084
atomic mag. moment =     2.860019
atom   10   Tr[ns(na)] (up, down, total) =   3.78063  0.74603  4.52667
   spin  1
    eigenvalues:
  0.474  0.490  0.885  0.944  0.988
    eigenvectors:
  0.000  0.994  0.000  0.000  0.006
  0.000  0.000  0.000  1.000  0.000
  0.000  0.000  1.000  0.000  0.000
  0.000  0.006  0.000  0.000  0.994
  1.000  0.000  0.000  0.000  0.000
    occupations:
  0.493  0.000 -0.004  0.039 -0.000
  0.000  0.944 -0.000 -0.000  0.000
 -0.004 -0.000  0.885  0.000 -0.000
  0.039 -0.000  0.000  0.985  0.000
 -0.000  0.000 -0.000  0.000  0.474
   spin  2
    eigenvalues:
  0.063  0.085  0.090  0.216  0.292
    eigenvectors:
  0.013  0.000  0.000  0.987  0.000
  0.000  0.000  1.000  0.000  0.000
  0.000  1.000  0.000  0.000  0.000
  0.987  0.000  0.000  0.013  0.000
  0.000  0.000  0.000  0.000  1.000
    occupations:
  0.215 -0.000 -0.000 -0.017  0.000
 -0.000  0.090  0.000  0.000  0.000
 -0.000  0.000  0.085 -0.000  0.000
 -0.017  0.000 -0.000  0.065 -0.000
  0.000  0.000  0.000 -0.000  0.292
atomic mag. moment =     3.034599
atom   16   Tr[ns(na)] (up, down, total) =   3.74161  0.81930  4.56091
   spin  1
    eigenvalues:
  0.459  0.504  0.827  0.960  0.992
    eigenvectors:
  0.006  0.236  0.001  0.000  0.757
  0.977  0.023  0.000  0.000  0.000
  0.000  0.000  0.999  0.000  0.001
  0.017  0.741  0.000  0.000  0.242
  0.000  0.000  0.000  1.000  0.000
    occupations:
  0.873  0.006  0.004 -0.209  0.000
  0.006  0.460 -0.001  0.004 -0.008
  0.004 -0.001  0.827 -0.005 -0.000
 -0.209  0.004 -0.005  0.622  0.000
  0.000 -0.008 -0.000  0.000  0.960
   spin  2
    eigenvalues:
  0.062  0.076  0.082  0.278  0.322
    eigenvectors:
  0.737  0.004  0.033  0.001  0.225
  0.000  0.001  0.000  0.995  0.003
  0.044  0.048  0.908  0.000  0.000
  0.219  0.001  0.006  0.002  0.772
  0.001  0.946  0.052  0.002  0.000
    occupations:
  0.121  0.001 -0.002  0.108  0.000
  0.001  0.278  0.000 -0.003  0.008
 -0.002  0.000  0.081  0.005 -0.001
  0.108 -0.003  0.005  0.263 -0.000
  0.000  0.008 -0.001 -0.000  0.076
atomic mag. moment =     2.922312
atom   17   Tr[ns(na)] (up, down, total) =   3.75005  0.81711  4.56716
   spin  1
    eigenvalues:
  0.472  0.512  0.848  0.927  0.991
    eigenvectors:
  0.000  0.996  0.000  0.001  0.002
  0.000  0.001  0.008  0.991  0.000
  0.000  0.000  0.992  0.008  0.000
  0.000  0.002  0.000  0.000  0.997
  1.000  0.000  0.000  0.000  0.000
    occupations:
  0.514 -0.015 -0.001  0.024  0.001
 -0.015  0.926  0.007  0.001 -0.000
 -0.001  0.007  0.849 -0.000  0.001
  0.024  0.001 -0.000  0.990 -0.000
  0.001 -0.000  0.001 -0.000  0.472
   spin  2
    eigenvalues:
  0.070  0.073  0.076  0.291  0.308
    eigenvectors:
  0.008  0.000  0.000  0.991  0.000
  0.026  0.233  0.740  0.001  0.000
  0.019  0.727  0.254  0.000  0.000
  0.947  0.040  0.005  0.007  0.000
  0.000  0.000  0.000  0.000  1.000
    occupations:
  0.289  0.007  0.001 -0.019  0.000
  0.007  0.075 -0.001  0.000 -0.000
  0.001 -0.001  0.073  0.000  0.000
 -0.019  0.000  0.000  0.071 -0.000
  0.000 -0.000  0.000 -0.000  0.308
atomic mag. moment =     2.932935
atom   22   Tr[ns(na)] (up, down, total) =   3.73476  0.87488  4.60964
   spin  1
    eigenvalues:
  0.520  0.526  0.787  0.911  0.991
    eigenvectors:
  0.000  0.208  0.000  0.000  0.791
  1.000  0.000  0.000  0.000  0.000
  0.000  0.000  0.898  0.102  0.000
  0.000  0.791  0.000  0.000  0.208
  0.000  0.000  0.102  0.898  0.000
    occupations:
  0.894 -0.002 -0.000 -0.189 -0.000
 -0.002  0.520  0.001  0.001  0.000
 -0.000  0.001  0.800  0.000  0.037
 -0.189  0.001  0.000  0.623  0.001
 -0.000  0.000  0.037  0.001  0.898
   spin  2
    eigenvalues:
  0.076  0.082  0.086  0.301  0.330
    eigenvectors:
  0.808  0.000  0.000  0.000  0.192
  0.000  0.000  0.000  1.000  0.000
  0.000  0.351  0.649  0.000  0.000
  0.192  0.000  0.000  0.000  0.808
  0.000  0.649  0.351  0.000  0.000
    occupations:
  0.125 -0.000  0.000  0.100 -0.000
 -0.000  0.301 -0.000 -0.000  0.000
  0.000 -0.000  0.085 -0.000 -0.002
  0.100 -0.000 -0.000  0.281 -0.000
 -0.000  0.000 -0.002 -0.000  0.084
atomic mag. moment =     2.859887
atom   23   Tr[ns(na)] (up, down, total) =   3.64004  1.02074  4.66078
   spin  1
    eigenvalues:
  0.510  0.617  0.751  0.770  0.992
    eigenvectors:
  0.000  0.998  0.000  0.000  0.002
  0.000  0.000  1.000  0.000  0.000
  0.000  0.000  0.000  1.000  0.000
  0.000  0.002  0.000  0.000  0.998
  1.000  0.000  0.000  0.000  0.000
    occupations:
  0.617 -0.000 -0.001  0.015 -0.000
 -0.000  0.751 -0.000  0.000  0.000
 -0.001 -0.000  0.770  0.000  0.000
  0.015  0.000  0.000  0.992 -0.000
 -0.000  0.000  0.000 -0.000  0.510
   spin  2
    eigenvalues:
  0.067  0.134  0.146  0.313  0.361
    eigenvectors:
  0.004  0.000  0.000  0.000  0.996
  0.000  0.000  1.000  0.000  0.000
  0.000  1.000  0.000  0.000  0.000
  0.996  0.000  0.000  0.000  0.004
  0.000  0.000  0.000  1.000  0.000
    occupations:
  0.359 -0.000  0.000 -0.019  0.000
 -0.000  0.146 -0.000 -0.000  0.000
  0.000 -0.000  0.134 -0.000 -0.000
 -0.019 -0.000 -0.000  0.069 -0.000
  0.000  0.000 -0.000 -0.000  0.313
atomic mag. moment =     2.619296
N of occupied +U levels =  36.6623116
 --- exit write_ns ---

 ------ SPIN UP ------------

[...]

 ------ SPIN DOWN ----------

[...]

          k = 0.2500-0.4682 0.0000 ( 27150 PWs)   bands (ev):

[...]

          k =-0.2500 0.2341 0.0000 ( 27132 PWs)   bands (ev):

   -73.3085 -72.4227 -72.1999 -72.1888 -72.1888 -72.1778 -72.1629 -72.1508
   -45.0492 -44.5721 -44.4262 -43.9512 -43.8637 -43.8533 -43.7673 -43.7339
   -43.7230 -43.7011 -43.5986 -43.5912 -43.5890 -43.5733 -43.5659 -43.5559
   -43.5294 -43.4992 -43.4842 -43.4368 -43.4258 -43.3868 -43.3111 -43.2986
   -21.4202 -21.1168 -20.8077 -20.7638 -20.6173 -20.4982 -20.4359 -20.4162
   -20.3603 -20.2326 -20.1711 -20.1276 -20.0567 -20.0438 -19.8616 -19.7953
   -19.7697 -19.6571 -19.6024  -8.6448  -8.5061  -8.2203  -8.0568  -7.9294
    -7.7136  -7.5736  -7.4969  -7.2898  -7.2151  -7.0856  -7.0046  -6.9991
    -6.9310  -6.8881  -6.7827  -6.6877  -6.4626  -6.4112  -6.3641  -6.2369
    -6.1747  -6.0470  -6.0146  -5.9580  -5.8673  -5.8105  -5.7390  -5.6726
    -5.6315  -5.5656  -5.4798  -5.4300  -5.4045  -5.3533  -5.2724  -5.1775
    -5.0517  -4.9642  -4.8253  -4.7268  -4.6512  -4.5947  -4.5323  -4.5014
    -4.3757  -4.3167  -4.2696  -4.2443  -4.1980  -4.1560  -4.0813  -4.0260
    -3.9132  -3.7535  -3.7414  -3.5798   1.7692   1.8412   1.9210   1.9926
     2.0753   2.1367   2.3495   2.4289   2.4886   2.5167   2.5580   2.5756
     2.6492   2.7305   2.8096   2.8635   2.9025   2.9284   2.9895   3.0176
     3.0429   3.1352   3.1756   3.2034   3.2901   3.3732   3.4207   3.4440
     3.4956   3.5856   3.6151   3.6306   3.6933   3.7083   3.8032   3.9247
     3.9851   4.0713   4.1389   4.2551   4.3033   4.3973   4.5329   5.0106
     5.4547   5.6545   5.6935   6.1704   6.3590   6.5465   6.5878   6.7379
     6.7701   6.9748   7.0447   7.3606   7.5131   7.7745   7.8459   8.0014
     8.2919   8.3682   8.4581   8.6003   8.6476   8.7756   8.8258   9.0088
     9.1239   9.2501   9.3614   9.4709   9.5784   9.7641   9.9881  10.0549
    10.1218  10.1858  10.2336  10.3736  10.4413  10.6529  10.7131  10.7607
    10.8739  10.9790  11.0397  11.1701  11.2949  11.3834  11.4612  11.5585
    11.6231  11.6915  11.7855  11.8685  11.9339  11.9815  12.1734  12.2550
    12.2934  12.3760  12.4695  12.5538  12.5956  12.6696  12.8097  12.8755
    12.9254  12.9801  13.0226  13.0910  13.1856  13.2361  13.3055  13.3692
    13.4209  13.4896  13.5374  13.6492  13.7418  13.8462  13.8921  14.0396
    14.0751  14.1340  14.1982  14.2222  14.3479  14.4278  14.5033  14.5693
    14.6340  14.7689  14.7742  14.8758  14.9652  15.0155  15.1098  15.1780
    15.2255  15.2916  15.4822  15.5397  15.6544  15.8093  15.8930  16.0205
    16.0653  16.1327  16.2244  16.2387  16.3103  16.3625  16.4360  16.4681
    16.5182  16.6497  16.7436  16.8143  16.8749  16.9436  17.0370  17.0863
    17.1613  17.1918  17.2742  17.3605  17.4526  17.5230  17.6336  17.6806
    17.7018  17.7617  17.8253  17.9065  17.9470  18.0054  18.0981  18.2243
    18.2554  18.2982  18.4207  18.4735  18.5622  18.6784  18.7243  18.7888
    18.8765  18.9483  18.9656  19.0705  19.1161  19.2041  19.3026  19.3478
    19.4555  19.5303  19.6315  19.6815  19.7455  19.8198  19.8734  19.9212
    19.9657  20.0000  20.0582  20.1733  20.2656  20.3902  20.4341  20.5267
    20.5660  20.6138  20.7315  20.8552  20.9522  21.0134  21.0498  21.1306
    21.1523  21.1966  21.2869  21.3439  21.4386

     the spin up/dw Fermi energies are    -2.4960   -2.4103 ev

!    total energy              =   -2022.65958627 Ry
     Harris-Foulkes estimate   =   -2022.65958552 Ry
     estimated scf accuracy    <          4.1E-09 Ry

     The total energy is the sum of the following terms:

     one-electron contribution =  -23426.52255181 Ry
     hartree contribution      =   11731.94932682 Ry
     xc contribution           =    -322.46772644 Ry
     ewald contribution        =    9991.76187498 Ry
     Hubbard energy            =       2.61914140 Ry
     smearing contrib. (-TS)   =       0.00034879 Ry

     total magnetization       =    14.00 Bohr mag/cell
     absolute magnetization    =    31.80 Bohr mag/cell

     convergence has been achieved in  15 iterations

     Forces acting on atoms (Ry/au):

     negative rho (up, down):  0.566E-02 0.176E-02
     atom    1 type  1   force =    -0.00427036   -0.01033126    0.00017960
     atom    2 type  1   force =     0.00004984    0.00315989   -0.00018221
     atom    3 type  2   force =     0.03039059    0.00195231    0.00027965
     atom    4 type  2   force =     0.00429072    0.00550821   -0.00029479
     atom    5 type  1   force =     0.00130838    0.00653902   -0.00007449
     atom    6 type  1   force =     0.00082783   -0.00470596   -0.00000473
     atom    7 type  1   force =    -0.00033419   -0.00242461    0.00091266
     atom    8 type  1   force =    -0.00123290   -0.00016431   -0.00011920
     atom    9 type  2   force =     0.01075693    0.00042550   -0.00026427
     atom   10 type  2   force =    -0.00022120    0.00036743    0.00060381
     atom   11 type  1   force =    -0.00473948   -0.05333603    0.00002018
     atom   12 type  1   force =    -0.00389611    0.05322995    0.00003733
     atom   13 type  1   force =    -0.00021910    0.00001425    0.00022180
     atom   14 type  1   force =    -0.00458656   -0.01046035    0.00004139
     atom   15 type  1   force =    -0.00002041    0.00342292   -0.00068541
     atom   16 type  2   force =    -0.03044388    0.00234544    0.00039095
     atom   17 type  2   force =     0.00412491    0.00548629   -0.00038179
     atom   18 type  1   force =     0.00032675    0.00643458    0.00004651
     atom   19 type  1   force =    -0.00018676   -0.00493634    0.00002157
     atom   20 type  1   force =    -0.00005644   -0.00310788   -0.00058431
     atom   21 type  1   force =    -0.00089751   -0.00030450    0.00011813
     atom   22 type  2   force =    -0.00979919   -0.00015445   -0.00010821
     atom   23 type  2   force =    -0.00019958    0.00024197    0.00053986
     atom   24 type  1   force =     0.00467868   -0.05310779   -0.00060074
     atom   25 type  1   force =     0.00485503    0.05325449   -0.00060275
     atom   26 type  1   force =    -0.00034427   -0.00001786    0.00021027
     atom   27 type  3   force =    -0.00001113    0.00013206   -0.00016322
     atom   28 type  3   force =    -0.00002503    0.00045476   -0.00022533
     atom   29 type  3   force =     0.00007661    0.00010447    0.00041455
     atom   30 type  3   force =     0.00012096   -0.00001147    0.00037468
     atom   31 type  1   force =    -0.00032311   -0.00001072   -0.00012147

     Total force =     0.002129     Total SCF correction =     0.000174

     bfgs converged in  22 scf cycles and  21 bfgs steps
     (criteria: energy < 0.10E-03, force < 0.10E-02)

     End of BFGS Geometry Optimization

     Final energy   =   -2022.6595862665 Ry
Begin final coordinates

ATOMIC_POSITIONS (crystal)
O0       0.000000000   0.000000000   0.373443501    0   0   1
O0       0.000000000   0.500000000   0.394987571    0   0   1
Cr1      0.250000000   0.500000000   0.447701629    0   0   1
Cr1      0.000000000   0.000000000   0.448357655    0   0   1
O0       0.250000000   0.800000000   0.448024619    0   0   1
O0       0.250000000   0.200000000   0.447996891    0   0   1
O0       0.000000000   0.500000000   0.496304752    0   0   1
O0       0.000000000   0.000000000   0.524713324    0   0   1
Cr1      0.250000000   0.000000000   0.576256555    0   0   1
Cr1      0.000000000   0.500000000   0.566129924    0   0   1
O0       0.250000000   0.700000000   0.577198605    0   0   1
O0       0.250000000   0.300000000   0.577171109    0   0   1
O0       0.000000000   0.000000000   0.624165677    0   0   1
O0       0.500000000   0.000000000   0.373826929    0   0   1
O0       0.500000000   0.500000000   0.395250442    0   0   1
Cr1      0.750000000   0.500000000   0.447699438    0   0   1
Cr1      0.500000000   0.000000000   0.448974404    0   0   1
O0       0.750000000   0.800000000   0.447958568    0   0   1
O0       0.750000000   0.200000000   0.447996036    0   0   1
O0       0.500000000   0.500000000   0.499455973    0   0   1
O0       0.500000000   0.000000000   0.524863558    0   0   1
Cr1      0.750000000   0.000000000   0.576242225    0   0   1
Cr1      0.500000000   0.500000000   0.589140036    0   0   1
O0       0.750000000   0.700000000   0.577283646    0   0   1
O0       0.750000000   0.300000000   0.577287051    0   0   1
O0       0.500000000   0.000000000   0.624209538    0   0   1
H2      -0.000758976   0.636253567   0.375374297
H2       0.499318845   0.637040111   0.375932228
H2       0.158892501   0.026485880   0.360819230
H2       0.658776984   0.026426181   0.361131778
O0       0.500345798   0.499704070   0.652932808
End final coordinates

     General routines

     Parallel routines
     Hubbard U routines

   This run was terminated on:  11:13:31  14May2014

   JOB DONE.
Running PBS batch system epilogue script
Job id: 351132.audhumbla.fysik.dtu.dk
Username: zhonxu
Groupname: campgst
Jobname: CrO2/Eads-2-layers/O-U-6.5
Sessionid: 17943
Queuename: verylong
Accounting:
This job has allocated the following 16 nodes:
d077 d077 d077 d077 d077 d077 d077 d077 d043 d043 d043 d043 d043 d043 d043 d043
Finished epilogue job 351132.audhumbla.fysik.dtu.dk for zhonxu