     Program PWSCF v.5.0.2 (svn rev. 9656) starts on 28Apr2014 at  2:51:47

     Current dimensions of program PWSCF are:
     Max number of different atomic species (ntypx) = 10
     Max number of k-points (npk) =  40000
     Max angular momentum in pseudopotentials (lmaxx) =  3
     Reading input from pwscf.in
Warning: card &CELL ignored
Warning: card / ignored

     Subspace diagonalization in iterative solution of the eigenvalue problem:
     a serial algorithm will be used

     bravais-lattice index     =            0
     lattice parameter (alat)  =      12.2076  a.u.
     unit-cell volume          =    7496.5096 (a.u.)^3
     number of atoms/cell      =           31
     number of atomic types    =            3
     number of electrons       =       246.00
     number of Kohn-Sham states=          369
     kinetic-energy cutoff     =      40.0000  Ry
     charge density cutoff     =     500.0000  Ry
     convergence threshold     =      1.0E-06
     mixing beta               =       0.7000
     number of iterations used =            8  plain     mixing
     Exchange-correlation      = SLA  PW   PBE  PBE ( 1 4 3 4 0)
     EXX-fraction              =        0.00
     nstep                     =           50

     celldm(1)=  12.207631  celldm(2)=   0.000000  celldm(3)=   0.000000
     celldm(4)=   0.000000  celldm(5)=   0.000000  celldm(6)=   0.000000

     crystal axes: (cart. coord. in units of alat)
               a(1) = (   1.000000   0.000000   0.000000 )
               a(2) = (   0.000000   1.004836   0.000000 )
               a(3) = (   0.000000   0.000000   4.100811 )

     reciprocal axes: (cart. coord. in units 2 pi/alat)
               b(1) = (  1.000000  0.000000  0.000000 )
               b(2) = (  0.000000  0.995187  0.000000 )
               b(3) = (  0.000000  0.000000  0.243854 )

     PseudoPot. # 1 for O  read from file:
     /home/camp/zhonxu/pseudo/o_pbe_v1.01.uspp.F.UPF
     MD5 check sum: 2bcb18d16ea4b960afae9ec6d52f22d2
     Pseudo is Ultrasoft + core correction, Zval =  6.0
     Generated by new atomic code, or converted to UPF format
     Using radial grid of  737 points,  5 beta functions with:
                l(1) =   0
                l(2) =   0
                l(3) =   1
                l(4) =   1
                l(5) =   2
     Q(r) pseudized with  8 coefficients,  rinner =    0.900   0.900   0.900
                                                       0.900   0.900

     PseudoPot. # 2 for Pt read from file:
     /home/camp/zhonxu/pseudo/pt_pbe_v1.uspp.F.UPF
     MD5 check sum: 4c71d6ad5ef119f1eb26a4d0b7884226
     Pseudo is Ultrasoft + core correction, Zval = 16.0
     Generated by new atomic code, or converted to UPF format
     Using radial grid of  985 points,  6 beta functions with:
                l(1) =   0
                l(2) =   0
                l(3) =   1
                l(4) =   1
                l(5) =   2
                l(6) =   2
     Q(r) pseudized with  8 coefficients,  rinner =    1.300   1.300   1.300
                                                       1.300   1.300

     PseudoPot. # 3 for H  read from file:
     /home/camp/zhonxu/pseudo/h_pbe_v1.uspp.F.UPF
     MD5 check sum: 3408e3ff4ec8b0a4e358431e7e038a48
     Pseudo is Ultrasoft, Zval =  1.0
     Generated by new atomic code, or converted to UPF format
     Using radial grid of  615 points,  2 beta functions with:
                l(1) =   0
                l(2) =   0
     Q(r) pseudized with  8 coefficients,  rinner =    0.700

     atomic species   valence    mass     pseudopotential
        O0             6.00    15.99940     O ( 1.00)
        Pt1           16.00   195.08000     Pt( 1.00)
        H2             1.00     1.00794     H ( 1.00)

     Simplified LDA+U calculation (l_max = 2) with parameters (eV):
     atomic species    L          U    alpha       J0     beta
        Pt1            2     6.5000   0.0000   0.0000   0.0000

     No symmetry found

   Cartesian axes

     site n.     atom                  positions (alat units)
         1           O0  tau(   1) = (   0.0000000   0.0000000   1.5489174  )
         2           O0  tau(   2) = (   0.0000000   0.5024180   1.6470088  )
         3           Pt1 tau(   3) = (   0.2500000   0.5024180   1.8504500  )
         4           Pt1 tau(   4) = (   0.0000000   0.0000000   1.8564782  )
         5           O0  tau(   5) = (   0.2500000   0.8139171   1.8182587  )
         6           O0  tau(   6) = (   0.2500000   0.1909188   1.8867012  )
         7           O0  tau(   7) = (   0.0000000   0.5024180   2.0373240  )
         8           O0  tau(   8) = (   0.0000000   0.0000000   2.1721997  )
         9           Pt1 tau(   9) = (   0.2500000   0.0000000   2.3623543  )
        10           Pt1 tau(  10) = (   0.0000000   0.5024180   2.3594017  )
        11           O0  tau(  11) = (   0.2500000   0.6933368   2.3215512  )
        12           O0  tau(  12) = (   0.2500000   0.3114991   2.4021322  )
        13           O0  tau(  13) = (   0.0000000   0.0000000   2.5481621  )
        14           O0  tau(  14) = (   0.5000000   0.0000000   1.5492455  )
        15           O0  tau(  15) = (   0.5000000   0.5024180   1.6439332  )
        16           Pt1 tau(  16) = (   0.7500000   0.5024180   1.8504910  )
        17           Pt1 tau(  17) = (   0.5000000   0.0000000   1.8565192  )
        18           O0  tau(  18) = (   0.7500000   0.8139171   1.8184227  )
        19           O0  tau(  19) = (   0.7500000   0.1909188   1.8866602  )
        20           O0  tau(  20) = (   0.5000000   0.5024180   2.0431061  )
        21           O0  tau(  21) = (   0.5000000   0.0000000   2.1716256  )
        22           Pt1 tau(  22) = (   0.7500000   0.0000000   2.3623953  )
        23           Pt1 tau(  23) = (   0.5000000   0.5024180   2.3697358  )
        24           O0  tau(  24) = (   0.7500000   0.6933368   2.3215102  )
        25           O0  tau(  25) = (   0.7500000   0.3114991   2.4021732  )
        26           O0  tau(  26) = (   0.5000000   0.0000000   2.5480390  )
        27           H2  tau(  27) = (   0.0001100   0.6425926   1.5814778  )
        28           H2  tau(  28) = (   0.5001800   0.6431151   1.5801656  )
        29           H2  tau(  29) = (   0.1426600   0.0364956   1.5073762  )
        30           H2  tau(  30) = (   0.6419200   0.0388771   1.5073762  )
        31           O0  tau(  31) = (   0.5000900   0.5753691   2.6428088  )

     number of k points=    10  Methfessel-Paxton smearing, width (Ry)=  0.0100
                       cart. coord. in units 2pi/alat
        k(    1) = (   0.0000000   0.0000000   0.0000000), wk =   0.1250000
        k(    2) = (   0.0000000   0.2487968   0.0000000), wk =   0.2500000
        k(    3) = (   0.0000000  -0.4975937   0.0000000), wk =   0.1250000
        k(    4) = (   0.2500000   0.0000000   0.0000000), wk =   0.2500000
        k(    5) = (   0.2500000   0.2487968   0.0000000), wk =   0.2500000
        k(    6) = (   0.2500000  -0.4975937   0.0000000), wk =   0.2500000
        k(    7) = (  -0.5000000   0.0000000   0.0000000), wk =   0.1250000
        k(    8) = (  -0.5000000   0.2487968   0.0000000), wk =   0.2500000
        k(    9) = (  -0.5000000  -0.4975937   0.0000000), wk =   0.1250000
        k(   10) = (  -0.2500000   0.2487968   0.0000000), wk =   0.2500000

     Largest allocated arrays     est. size (Mb)     dimensions
     Largest temporary arrays     est. size (Mb)     dimensions

     Check: negative/imaginary core charge=   -0.000003    0.000000

     Initial potential from superposition of free atoms
     Check: negative starting charge=   -1.533958

     starting charge  241.99985, renormalised to  246.00000

     negative rho (up, down):  0.156E+01 0.000E+00
     Number of +U iterations with fixed ns =  0
     Starting occupations:
 --- enter write_ns ---
 LDA+U parameters:
U( 2)     =  6.50000000
alpha( 2) =  0.00000000
atom    3   Tr[ns(na)] =   8.00000
    eigenvalues:
  0.800  0.800  0.800  0.800  0.800
    eigenvectors:
  1.000  0.000  0.000  0.000  0.000
  0.000  1.000  0.000  0.000  0.000
  0.000  0.000  1.000  0.000  0.000
  0.000  0.000  0.000  1.000  0.000
  0.000  0.000  0.000  0.000  1.000
    occupations:
  0.800  0.000  0.000  0.000  0.000
  0.000  0.800  0.000  0.000  0.000
  0.000  0.000  0.800  0.000  0.000
  0.000  0.000  0.000  0.800  0.000
  0.000  0.000  0.000  0.000  0.800
atom    4   Tr[ns(na)] =   8.00000
    eigenvalues:
  0.800  0.800  0.800  0.800  0.800
    eigenvectors:
  1.000  0.000  0.000  0.000  0.000
  0.000  1.000  0.000  0.000  0.000
  0.000  0.000  1.000  0.000  0.000
  0.000  0.000  0.000  1.000  0.000
  0.000  0.000  0.000  0.000  1.000
    occupations:
  0.800  0.000  0.000  0.000  0.000
  0.000  0.800  0.000  0.000  0.000
  0.000  0.000  0.800  0.000  0.000
  0.000  0.000  0.000  0.800  0.000
  0.000  0.000  0.000  0.000  0.800
atom    9   Tr[ns(na)] =   8.00000
    eigenvalues:
  0.800  0.800  0.800  0.800  0.800
    eigenvectors:
  1.000  0.000  0.000  0.000  0.000
  0.000  1.000  0.000  0.000  0.000
  0.000  0.000  1.000  0.000  0.000
  0.000  0.000  0.000  1.000  0.000
  0.000  0.000  0.000  0.000  1.000
    occupations:
  0.800  0.000  0.000  0.000  0.000
  0.000  0.800  0.000  0.000  0.000
  0.000  0.000  0.800  0.000  0.000
  0.000  0.000  0.000  0.800  0.000
  0.000  0.000  0.000  0.000  0.800
atom   10   Tr[ns(na)] =   8.00000
    eigenvalues:
  0.800  0.800  0.800  0.800  0.800
    eigenvectors:
  1.000  0.000  0.000  0.000  0.000
  0.000  1.000  0.000  0.000  0.000
  0.000  0.000  1.000  0.000  0.000
  0.000  0.000  0.000  1.000  0.000
  0.000  0.000  0.000  0.000  1.000
    occupations:
  0.800  0.000  0.000  0.000  0.000
  0.000  0.800  0.000  0.000  0.000
  0.000  0.000  0.800  0.000  0.000
  0.000  0.000  0.000  0.800  0.000
  0.000  0.000  0.000  0.000  0.800
atom   16   Tr[ns(na)] =   8.00000
    eigenvalues:
  0.800  0.800  0.800  0.800  0.800
    eigenvectors:
  1.000  0.000  0.000  0.000  0.000
  0.000  1.000  0.000  0.000  0.000
  0.000  0.000  1.000  0.000  0.000
  0.000  0.000  0.000  1.000  0.000
  0.000  0.000  0.000  0.000  1.000
    occupations:
  0.800  0.000  0.000  0.000  0.000
  0.000  0.800  0.000  0.000  0.000
  0.000  0.000  0.800  0.000  0.000
  0.000  0.000  0.000  0.800  0.000
  0.000  0.000  0.000  0.000  0.800
atom   17   Tr[ns(na)] =   8.00000
    eigenvalues:
  0.800  0.800  0.800  0.800  0.800
    eigenvectors:
  1.000  0.000  0.000  0.000  0.000
  0.000  1.000  0.000  0.000  0.000
  0.000  0.000  1.000  0.000  0.000
  0.000  0.000  0.000  1.000  0.000
  0.000  0.000  0.000  0.000  1.000
    occupations:
  0.800  0.000  0.000  0.000  0.000
  0.000  0.800  0.000  0.000  0.000
  0.000  0.000  0.800  0.000  0.000
  0.000  0.000  0.000  0.800  0.000
  0.000  0.000  0.000  0.000  0.800
atom   22   Tr[ns(na)] =   8.00000
    eigenvalues:
  0.800  0.800  0.800  0.800  0.800
    eigenvectors:
  1.000  0.000  0.000  0.000  0.000
  0.000  1.000  0.000  0.000  0.000
  0.000  0.000  1.000  0.000  0.000
  0.000  0.000  0.000  1.000  0.000
  0.000  0.000  0.000  0.000  1.000
    occupations:
  0.800  0.000  0.000  0.000  0.000
  0.000  0.800  0.000  0.000  0.000
[...]
    occupations:
  0.955  0.001 -0.010 -0.086  0.001
  0.001  0.723  0.001  0.002 -0.004
 -0.010  0.001  0.972 -0.027  0.001
 -0.086  0.002 -0.027  0.770 -0.000
  0.001 -0.004  0.001 -0.000  0.966
atom   10   Tr[ns(na)] =   8.83925
    eigenvalues:
  0.675  0.780  0.985  0.988  0.992
    eigenvectors:
  0.000  0.977  0.000  0.016  0.007
  0.018  0.000  0.982  0.000  0.000
  0.000  0.001  0.000  0.190  0.810
  0.000  0.023  0.000  0.794  0.183
  0.982  0.000  0.018  0.000  0.000
    occupations:
  0.785  0.000 -0.005  0.031  0.000
  0.000  0.980  0.000 -0.000 -0.041
 -0.005  0.000  0.991 -0.001 -0.000
  0.031 -0.000 -0.001  0.984 -0.000
  0.000 -0.041 -0.000 -0.000  0.680
atom   16   Tr[ns(na)] =   8.78913
    eigenvalues:
  0.707  0.719  0.988  0.989  0.992
    eigenvectors:
  0.043  0.126  0.644  0.186  0.001
  0.756  0.244  0.000  0.000  0.000
  0.001  0.005  0.003  0.059  0.932
  0.200  0.624  0.136  0.031  0.009
  0.000  0.000  0.218  0.724  0.058
    occupations:
  0.942 -0.003  0.009 -0.102  0.000
 -0.003  0.710 -0.002 -0.004 -0.004
  0.009 -0.002  0.990  0.019 -0.001
 -0.102 -0.004  0.019  0.764 -0.000
  0.000 -0.004 -0.001 -0.000  0.989
atom   17   Tr[ns(na)] =   8.78125
    eigenvalues:
  0.703  0.725  0.985  0.988  0.989
    eigenvectors:
  0.000  0.984  0.009  0.003  0.003
  0.013  0.000  0.044  0.875  0.068
  0.000  0.006  0.859  0.011  0.124
  0.000  0.010  0.088  0.099  0.803
  0.986  0.000  0.001  0.012  0.001
    occupations:
  0.730 -0.004 -0.019  0.026 -0.001
 -0.004  0.984  0.000  0.000  0.033
 -0.019  0.000  0.984  0.003 -0.000
  0.026  0.000  0.003  0.986  0.000
 -0.001  0.033 -0.000  0.000  0.707
atom   22   Tr[ns(na)] =   8.77146
    eigenvalues:
  0.723  0.733  0.966  0.975  0.988
    eigenvectors:
  0.002  0.131  0.000  0.011  0.856
  0.988  0.011  0.000  0.000  0.000
  0.000  0.014  0.009  0.972  0.004
  0.010  0.844  0.000  0.007  0.139
  0.000  0.000  0.989  0.009  0.001
    occupations:
  0.955 -0.000 -0.010 -0.086 -0.001
 -0.000  0.723 -0.001 -0.001 -0.004
 -0.010 -0.001  0.972 -0.027 -0.001
 -0.086 -0.001 -0.027  0.770  0.000
 -0.001 -0.004 -0.001  0.000  0.966
atom   23   Tr[ns(na)] =   8.75729
    eigenvalues:
  0.727  0.750  0.941  0.971  0.990
    eigenvectors:
  0.000  0.877  0.117  0.000  0.007
  0.022  0.000  0.000  0.978  0.000
  0.000  0.107  0.869  0.000  0.025
  0.000  0.017  0.015  0.000  0.969
  0.978  0.000  0.000  0.022  0.000
    occupations:
  0.774  0.000  0.058  0.027 -0.000
  0.000  0.965 -0.000  0.000 -0.036
  0.058 -0.000  0.922 -0.016 -0.000
  0.027  0.000 -0.016  0.985 -0.000
 -0.000 -0.036 -0.000 -0.000  0.732
N of occupied +U levels =  70.2800205
 --- exit write_ns ---

     Threshold (ethr) on eigenvalues was too large:
     Diagonalizing with lowered threshold

     Davidson diagonalization with overlap
     ethr =  4.73E-08,  avg # of iterations =  1.0

[...]

     total energy              =   -2279.02792721 Ry
     Harris-Foulkes estimate   =   -2279.02792721 Ry
     estimated scf accuracy    <       0.00000002 Ry

     iteration # 17     ecut=    40.00 Ry     beta=0.70
     Davidson diagonalization with overlap
     ethr =  8.85E-12,  avg # of iterations =  1.0

     negative rho (up, down):  0.157E+01 0.000E+00

     End of self-consistent calculation
 --- enter write_ns ---
 LDA+U parameters:
U( 2)     =  6.50000000
alpha( 2) =  0.00000000
atom    3   Tr[ns(na)] =   8.78908
    eigenvalues:
  0.707  0.719  0.988  0.989  0.992
    eigenvectors:
  0.043  0.126  0.644  0.186  0.001
  0.755  0.245  0.000  0.000  0.000
  0.001  0.005  0.004  0.059  0.931
  0.201  0.624  0.136  0.031  0.009
  0.000  0.000  0.217  0.723  0.060
    occupations:
  0.942  0.003  0.009 -0.102 -0.000
  0.003  0.710  0.002  0.004 -0.004
  0.009  0.002  0.990  0.019  0.001
 -0.102  0.004  0.019  0.764  0.000
 -0.000 -0.004  0.001  0.000  0.989
atom    4   Tr[ns(na)] =   8.78100
    eigenvalues:
  0.701  0.725  0.987  0.988  0.989
    eigenvectors:
  0.000  0.984  0.011  0.004  0.000
  0.013  0.000  0.110  0.815  0.061
  0.000  0.006  0.563  0.010  0.422
  0.000  0.010  0.314  0.160  0.517
  0.986  0.000  0.002  0.011  0.001
    occupations:
  0.729 -0.004 -0.019  0.025 -0.001
 -0.004  0.984  0.000  0.000  0.033
 -0.019  0.000  0.987  0.003 -0.000
  0.025  0.000  0.003  0.986  0.000
 -0.001  0.033 -0.000  0.000  0.705
atom    9   Tr[ns(na)] =   8.77101
    eigenvalues:
  0.723  0.734  0.965  0.975  0.988
    eigenvectors:
  0.005  0.127  0.001  0.011  0.856
  0.962  0.037  0.000  0.000  0.000
  0.001  0.014  0.005  0.976  0.004
  0.031  0.822  0.000  0.008  0.139
  0.000  0.000  0.993  0.005  0.001
    occupations:
  0.955  0.001 -0.010 -0.086  0.001
  0.001  0.723  0.001  0.002 -0.004
 -0.010  0.001  0.972 -0.027  0.001
 -0.086  0.002 -0.027  0.770 -0.000
  0.001 -0.004  0.001 -0.000  0.965
atom   10   Tr[ns(na)] =   8.83820
    eigenvalues:
  0.675  0.780  0.985  0.988  0.992
    eigenvectors:
  0.000  0.977  0.000  0.016  0.007
  0.018  0.000  0.982  0.000  0.000
  0.000  0.001  0.000  0.190  0.809
  0.000  0.023  0.000  0.794  0.183
  0.982  0.000  0.018  0.000  0.000
    occupations:
  0.785  0.000 -0.005  0.031  0.000
  0.000  0.980  0.000 -0.000 -0.041
 -0.005  0.000  0.991 -0.001 -0.000
  0.031 -0.000 -0.001  0.984 -0.000
  0.000 -0.041 -0.000 -0.000  0.680
atom   16   Tr[ns(na)] =   8.78907
    eigenvalues:
  0.707  0.719  0.988  0.989  0.992
    eigenvectors:
  0.042  0.127  0.645  0.184  0.001
  0.759  0.241  0.000  0.000  0.000
  0.001  0.005  0.003  0.059  0.932
  0.197  0.627  0.136  0.030  0.009
  0.000  0.000  0.216  0.726  0.058
    occupations:
  0.942 -0.003  0.009 -0.102  0.000
 -0.003  0.710 -0.002 -0.004 -0.004
  0.009 -0.002  0.990  0.019 -0.001
 -0.102 -0.004  0.019  0.764 -0.000
  0.000 -0.004 -0.001 -0.000  0.989
atom   17   Tr[ns(na)] =   8.78102
    eigenvalues:
  0.703  0.725  0.985  0.988  0.989
    eigenvectors:
  0.000  0.984  0.009  0.003  0.003
  0.013  0.000  0.042  0.877  0.068
  0.000  0.006  0.865  0.011  0.118
  0.000  0.010  0.083  0.097  0.810
  0.986  0.000  0.001  0.012  0.001
    occupations:
  0.730 -0.004 -0.019  0.026 -0.001
 -0.004  0.984  0.000  0.000  0.033
 -0.019  0.000  0.984  0.003 -0.000
  0.026  0.000  0.003  0.986  0.000
 -0.001  0.033 -0.000  0.000  0.707
atom   22   Tr[ns(na)] =   8.77104
    eigenvalues:
  0.723  0.733  0.965  0.975  0.988
    eigenvectors:
  0.002  0.131  0.000  0.011  0.856
  0.987  0.013  0.000  0.000  0.000
  0.000  0.014  0.007  0.974  0.004
  0.011  0.843  0.000  0.007  0.139
  0.000  0.000  0.992  0.007  0.001
    occupations:
  0.955 -0.000 -0.010 -0.086 -0.001
 -0.000  0.723 -0.001 -0.001 -0.004
 -0.010 -0.001  0.972 -0.027 -0.001
 -0.086 -0.001 -0.027  0.770  0.000
 -0.001 -0.004 -0.001  0.000  0.965
atom   23   Tr[ns(na)] =   8.75760
    eigenvalues:
  0.727  0.750  0.941  0.971  0.990
    eigenvectors:
  0.000  0.876  0.117  0.000  0.007
  0.022  0.000  0.000  0.978  0.000
  0.000  0.107  0.868  0.000  0.024
  0.000  0.017  0.014  0.000  0.969
  0.978  0.000  0.000  0.022  0.000
    occupations:
  0.774  0.000  0.058  0.027 -0.000
  0.000  0.965 -0.000  0.000 -0.036
  0.058 -0.000  0.922 -0.016 -0.000
  0.027  0.000 -0.016  0.985 -0.000
 -0.000 -0.036 -0.000 -0.000  0.732
N of occupied +U levels =  70.2780196
 --- exit write_ns ---

[...]

          k = 0.2500-0.4976 0.0000 ( 32026 PWs)   bands (ev):

[...]

          k =-0.2500 0.2488 0.0000 ( 32025 PWs)   bands (ev):

   -55.4649 -55.4261 -55.2947 -55.2908 -55.2518 -55.2229 -55.1815 -55.1618
   -55.1235 -55.1192 -55.1155 -55.0473 -55.0445 -54.9650 -54.9312 -54.9278
   -54.9254 -54.8395 -54.8034 -54.7755 -54.7705 -54.5182 -54.2869 -53.9266
   -22.2992 -22.0786 -21.4284 -21.3350 -21.0570 -20.9925 -20.9579 -20.7784
   -20.7374 -20.6618 -20.5265 -20.4378 -20.4114 -20.2478 -20.1737 -20.1618
   -19.6227 -19.3101 -19.1507 -11.4187 -11.2667 -11.1832 -11.0817 -10.7208
   -10.6467 -10.6117 -10.3566 -10.2116  -9.9991  -9.8712  -9.8344  -9.6761
    -9.5395  -9.4607  -9.3822  -9.2285  -9.1282  -8.9881  -8.8219  -8.7202
    -8.6231  -8.5763  -8.4675  -8.3205  -8.2224  -8.1073  -7.9942  -7.9383
    -7.8810  -7.7819  -7.6890  -7.6611  -7.5408  -7.4239  -7.3717  -7.2977
    -7.1788  -7.1424  -6.9630  -6.7974  -6.7557  -6.4773  -6.2494  -6.0944
    -5.8736  -5.8483  -5.7786  -5.6524  -5.5354  -5.4594  -5.3742  -5.1787
    -5.0615  -4.8962  -4.7265  -4.5838  -4.5448  -4.3944  -4.3286  -4.2581
    -4.0997  -4.0593  -3.9814  -3.8385  -3.7181  -3.7050  -3.4375  -3.3841
    -3.2944  -3.1053  -2.9657  -2.8519  -2.8121  -2.7182  -2.6856  -2.5702
    -2.3623  -2.2338  -2.1045  -2.0067  -1.8520  -1.3226  -1.1636  -0.8661
    -0.5123  -0.3655  -0.0302   0.2665   0.4990   0.6273   0.6881   0.7931
     1.0204   1.1887   1.2803   1.6285   3.0774   3.8611   4.5799   5.0104
     5.0344   5.1033   5.2890   5.6583   6.0952   6.1444   6.1789   6.3252
     6.4274   6.5145   6.6728   6.8522   6.9163   6.9691   7.1041   7.2307
     7.3590   7.4799   7.5629   7.5873   7.7024   7.8626   7.9328   8.0461
     8.1767   8.2770   8.3156   8.4632   8.5539   8.6388   8.6628   8.7958
     8.8758   9.0272   9.1327   9.2801   9.3419   9.4743   9.5394   9.6070
     9.6941   9.8726  10.0371  10.0886  10.1800  10.2436  10.3089  10.3846
    10.5217  10.5765  10.6481  10.7568  10.7853  10.9678  11.0506  11.0862
    11.1704  11.1984  11.3782  11.4604  11.4829  11.7196  11.7437  11.7811
    11.8689  11.9486  12.0063  12.0826  12.1445  12.2497  12.2874  12.3329
    12.4130  12.4550  12.5300  12.5829  12.6425  12.7399  12.8099  12.9452
    12.9840  13.0453  13.1722  13.2243  13.2479  13.4579  13.5277  13.5758
    13.6519  13.6959  13.7781  13.8720  13.9447  13.9775  14.0653  14.1326
    14.1899  14.3570  14.4197  14.5383  14.5743  14.6365  14.7756  14.8656
    14.8869  14.9543  15.1424  15.2259  15.2697  15.3328  15.4147  15.4600
    15.5355  15.5936  15.6492  15.6838  15.7548  15.7787  15.8331  15.8994
    15.9957  16.0551  16.0786  16.1556  16.1866  16.2649  16.3807  16.4512
    16.5073  16.5857  16.7496  16.7788  16.8296  16.8595  16.9008  16.9150
    17.0058  17.0946  17.1329  17.1526  17.1768  17.1834  17.2117  17.2283
    17.2443  17.2706  17.3118  17.3265  17.3514  17.3882  17.4733  17.5132
    17.5363  17.5840  17.6275  17.7397  17.7948  17.9073  17.9658  18.0331
    18.0727  18.1081  18.1488  18.2589  18.2816  18.3959  18.5005  18.5285
    18.5953  18.6331  18.6772  18.7305  18.8371  18.8792  18.9022  19.0283
    19.0581  19.1767  19.1996  19.2207  19.3111  19.3702  19.4525  19.4978
    19.6472  19.7796  19.8246  19.8819  19.9554  19.9763  19.9899  20.0781
    20.1333  20.2263  20.2508  20.3187  20.3710  20.4098  20.5015  20.5914
    20.6557  20.7093  20.7530  20.8617  20.9329  20.9555  21.0189  21.0530
    21.0734  21.2339  21.2661  21.3753  21.3986  21.4557  21.5065  21.5556
    21.6049  21.6604  21.7347  21.7881  21.8320  21.8984  22.0078  22.0925
    22.1418

     the Fermi energy is    -2.0550 ev

!    total energy              =   -2279.02792720 Ry
     Harris-Foulkes estimate   =   -2279.02792721 Ry
     estimated scf accuracy    <          6.6E-09 Ry

     The total energy is the sum of the following terms:

     one-electron contribution =  -23665.23784881 Ry
     hartree contribution      =   11875.35754031 Ry
     xc contribution           =    -572.11355706 Ry
     ewald contribution        =   10081.24380704 Ry
     Hubbard energy            =       1.72245174 Ry
     smearing contrib. (-TS)   =      -0.00032042 Ry

     convergence has been achieved in  17 iterations

     Forces acting on atoms (Ry/au):

     negative rho (up, down):  0.157E+01 0.000E+00
     atom    1 type  1   force =    -0.00878747   -0.00390249   -0.00062042
     atom    2 type  1   force =     0.00013807    0.00374562   -0.00004976
     atom    3 type  2   force =     0.01631414    0.00487625    0.00011853
     atom    4 type  2   force =     0.01049595    0.00475984   -0.00051355
     atom    5 type  1   force =     0.00122739   -0.00298709    0.00016808
     atom    6 type  1   force =    -0.00009839   -0.00304073   -0.00030696
     atom    7 type  1   force =     0.00005895    0.00133671   -0.00021089
     atom    8 type  1   force =    -0.00418540    0.00230638   -0.00036202
     atom    9 type  2   force =     0.00402375   -0.00485125    0.00029313
     atom   10 type  2   force =    -0.00000517   -0.02068457   -0.00075244
     atom   11 type  1   force =    -0.00189409    0.00221049   -0.00016854
     atom   12 type  1   force =    -0.00831810    0.01507479    0.00030429
     atom   13 type  1   force =    -0.00110475   -0.00865646    0.00050265
     atom   14 type  1   force =    -0.00861043   -0.00269002   -0.00075200
     atom   15 type  1   force =     0.00015101    0.00168389    0.00047721
     atom   16 type  2   force =    -0.01713519    0.00473193    0.00014322
     atom   17 type  2   force =     0.01032203    0.00492725   -0.00039389
     atom   18 type  1   force =     0.00132424   -0.00291649    0.00018303
     atom   19 type  1   force =     0.00034176   -0.00295274   -0.00031777
     atom   20 type  1   force =     0.00007998   -0.00547848    0.00035639
     atom   21 type  1   force =    -0.00404277    0.00216703    0.00006885
     atom   22 type  2   force =    -0.00031970   -0.00474354    0.00031457
     atom   23 type  2   force =    -0.00018026    0.01814736    0.00020031
     atom   24 type  1   force =     0.00201991    0.00226965   -0.00018370
     atom   25 type  1   force =     0.00844310    0.01502542    0.00031414
     atom   26 type  1   force =    -0.00106387   -0.02021678    0.00070680
     atom   27 type  3   force =    -0.00000931   -0.00003898   -0.00014004
     atom   28 type  3   force =    -0.00002305   -0.00030045   -0.00012706
     atom   29 type  3   force =     0.00037790   -0.00009863    0.00048667
     atom   30 type  3   force =     0.00046704   -0.00026803    0.00040177
     atom   31 type  1   force =    -0.00000729    0.00056415   -0.00014060

     Total force =     0.002303     Total SCF correction =     0.000310
     SCF correction compared to forces is large: reduce conv_thr to get better values

     bfgs converged in  15 scf cycles and  14 bfgs steps
     (criteria: energy < 0.10E-03, force < 0.10E-02)

     End of BFGS Geometry Optimization

     Final energy   =   -2279.0279272048 Ry
Begin final coordinates

ATOMIC_POSITIONS (crystal)
O0       0.000000000   0.000000000   0.377687027    0   0   1
O0       0.000000000   0.500000000   0.401755987    0   0   1
Pt1      0.250000000   0.500000000   0.451158070    0   0   1
Pt1      0.000000000   0.000000000   0.452780454    0   0   1
O0       0.250000000   0.810000000   0.442361122    0   0   1
O0       0.250000000   0.190000000   0.461396848    0   0   1
O0       0.000000000   0.500000000   0.496651577    0   0   1
O0       0.000000000   0.000000000   0.529934822    0   0   1
Pt1      0.250000000   0.000000000   0.575975220    0   0   1
Pt1      0.000000000   0.500000000   0.574995686    0   0   1
O0       0.250000000   0.690000000   0.564508634    0   0   1
O0       0.250000000   0.310000000   0.586658992    0   0   1
O0       0.000000000   0.000000000   0.621470353    0   0   1
O0       0.500000000   0.000000000   0.377767236    0   0   1
O0       0.500000000   0.500000000   0.401068595    0   0   1
Pt1      0.750000000   0.500000000   0.451159452    0   0   1
Pt1      0.500000000   0.000000000   0.452774910    0   0   1
O0       0.750000000   0.810000000   0.442384255    0   0   1
O0       0.750000000   0.190000000   0.461401819    0   0   1
O0       0.500000000   0.500000000   0.498019518    0   0   1
O0       0.500000000   0.000000000   0.529766004    0   0   1
Pt1      0.750000000   0.000000000   0.575977261    0   0   1
Pt1      0.500000000   0.500000000   0.577019463    0   0   1
O0       0.750000000   0.690000000   0.564495966    0   0   1
O0       0.750000000   0.310000000   0.586662586    0   0   1
O0       0.500000000   0.000000000   0.621579567    0   0   1
H2       0.000094735   0.640903743   0.386533127
H2       0.500072612   0.641531749   0.386283182
H2       0.143296387   0.034980500   0.367822726
H2       0.643065458   0.035848728   0.367867161
O0       0.500117515   0.581730243   0.643752379
End final coordinates

     General routines

     Parallel routines
     Hubbard U routines

   This run was terminated on:  18:28:16  28Apr2014

   JOB DONE.
Running PBS batch system epilogue script
Job id: 340480.audhumbla.fysik.dtu.dk
Username: zhonxu
Groupname: campgst
Jobname: PtO2/Eads-2-layers/O-U-6.5
Sessionid: 15763
Queuename: verylong
Accounting:
This job has allocated the following 16 nodes:
b024 b024 b024 b024 b024 b024 b024 b024 b011 b011 b011 b011 b011 b011 b011 b011
Finished epilogue job 340480.audhumbla.fysik.dtu.dk for zhonxu