     Program PWSCF v.5.0.2 (svn rev. 9656) starts on  9May2014 at  5:41:44

     Current dimensions of program PWSCF are:
     Max number of different atomic species (ntypx) = 10
     Max number of k-points (npk) =  40000
     Max angular momentum in pseudopotentials (lmaxx) =  3
     Reading input from pwscf.in
Warning: card &CELL ignored
Warning: card / ignored

     Subspace diagonalization in iterative solution of the eigenvalue problem:
     a serial algorithm will be used

     bravais-lattice index     =            0
     lattice parameter (alat)  =      10.1289  a.u.
     unit-cell volume          =    6836.7721 (a.u.)^3
     number of atoms/cell      =           30
     number of atomic types    =            3
     number of electrons       =       232.00
     number of Kohn-Sham states=          348
     kinetic-energy cutoff     =      40.0000  Ry
     charge density cutoff     =     500.0000  Ry
     convergence threshold     =      1.0E-06
     mixing beta               =       0.7000
     number of iterations used =            8  plain     mixing
     Exchange-correlation      = SLA  PW   PBE  PBE ( 1 4 3 4 0)
     EXX-fraction              =        0.00
     nstep                     =           50

     celldm(1)=  10.128932  celldm(2)=   0.000000  celldm(3)=   0.000000
     celldm(4)=   0.000000  celldm(5)=   0.000000  celldm(6)=   0.000000

     crystal axes: (cart. coord. in units of alat)
               a(1) = (   1.000000   0.000000   0.000000 )
               a(2) = (   0.000000   1.306037   0.000000 )
               a(3) = (   0.000000   0.000000   5.037380 )

     reciprocal axes: (cart. coord. in units 2 pi/alat)
               b(1) = (  1.000000  0.000000  0.000000 )
               b(2) = (  0.000000  0.765675  0.000000 )
               b(3) = (  0.000000  0.000000  0.198516 )

     PseudoPot. # 1 for O  read from file:
     /home/camp/zhonxu/pseudo/o_pbe_v1.01.uspp.F.UPF
     MD5 check sum: 2bcb18d16ea4b960afae9ec6d52f22d2
     Pseudo is Ultrasoft + core correction, Zval =  6.0
     Generated by new atomic code, or converted to UPF format
     Using radial grid of  737 points,  5 beta functions with:
                l(1) =   0
                l(2) =   0
                l(3) =   1
                l(4) =   1
                l(5) =   2
     Q(r) pseudized with  8 coefficients,  rinner =    0.900   0.900   0.900
                                                       0.900   0.900

     PseudoPot. # 2 for Re read from file:
     /home/camp/zhonxu/pseudo/re_pbe_v1.uspp.F.UPF
     MD5 check sum: 6f5a5dcaf9c96c20d0ffdde0de57afc6
     Pseudo is Ultrasoft + core correction, Zval = 15.0
     Generated by new atomic code, or converted to UPF format
     Using radial grid of  981 points,  8 beta functions with:
                l(1) =   0
                l(2) =   0
                l(3) =   1
                l(4) =   1
                l(5) =   2
                l(6) =   2
                l(7) =   3
                l(8) =   3
     Q(r) pseudized with  8 coefficients,  rinner =    1.000   1.000   1.000
                                                       1.000   1.000   1.000
                                                       1.000

     PseudoPot. # 3 for H  read from file:
     /home/camp/zhonxu/pseudo/h_pbe_v1.uspp.F.UPF
     MD5 check sum: 3408e3ff4ec8b0a4e358431e7e038a48
     Pseudo is Ultrasoft, Zval =  1.0
     Generated by new atomic code, or converted to UPF format
     Using radial grid of  615 points,  2 beta functions with:
                l(1) =   0
                l(2) =   0
     Q(r) pseudized with  8 coefficients,  rinner =    0.700

     atomic species   valence    mass     pseudopotential
        O0             6.00    15.99940     O ( 1.00)
        Re1           15.00   186.20700     Re( 1.00)
        H2             1.00     1.00794     H ( 1.00)

     Simplified LDA+U calculation (l_max = 2) with parameters (eV):
     atomic species    L          U    alpha       J0     beta
        Re1            2     0.5000   0.0000   0.0000   0.0000

     No symmetry found

   Cartesian axes

     site n.     atom                  positions (alat units)
         1           O0  tau(   1) = (   0.0000000   0.0000000   1.8688176  )
         2           O0  tau(   2) = (   0.0000000   0.6530184   1.9243296  )
         3           Re1 tau(   3) = (   0.2500000   0.6530184   2.2228951  )
         4           Re1 tau(   4) = (   0.0000000   0.0000000   2.2352367  )
         5           O0  tau(   5) = (   0.2500000   1.0187087   2.2249100  )
         6           O0  tau(   6) = (   0.2500000   0.2873281   2.2250611  )
         7           O0  tau(   7) = (   0.0000000   0.6530184   2.5071041  )
         8           O0  tau(   8) = (   0.0000000   0.0000000   2.5966183  )
         9           Re1 tau(   9) = (   0.2500000   0.0000000   2.8989619  )
        10           Re1 tau(  10) = (   0.0000000   0.6530184   2.8608793  )
        11           O0  tau(  11) = (   0.2500000   0.9403465   2.8908013  )
        12           O0  tau(  12) = (   0.2500000   0.3656903   2.8907005  )
        13           O0  tau(  13) = (   0.0000000   0.0000000   3.1620138  )
        14           O0  tau(  14) = (   0.5000000   0.0000000   1.8688176  )
        15           O0  tau(  15) = (   0.5000000   0.6530184   1.9243296  )
        16           Re1 tau(  16) = (   0.7500000   0.6530184   2.2228951  )
        17           Re1 tau(  17) = (   0.5000000   0.0000000   2.2352367  )
        18           O0  tau(  18) = (   0.7500000   1.0187087   2.2249604  )
        19           O0  tau(  19) = (   0.7500000   0.2873281   2.2250611  )
        20           O0  tau(  20) = (   0.5000000   0.6530184   2.5071041  )
        21           O0  tau(  21) = (   0.5000000   0.0000000   2.5966183  )
        22           Re1 tau(  22) = (   0.7500000   0.0000000   2.8989619  )
        23           Re1 tau(  23) = (   0.5000000   0.6530184   2.8609296  )
        24           O0  tau(  24) = (   0.7500000   0.9403465   2.8908013  )
        25           O0  tau(  25) = (   0.7500000   0.3656903   2.8907005  )
        26           O0  tau(  26) = (   0.5000000   0.0000000   3.1620138  )
        27           H2  tau(  27) = (  -0.0003800   0.8172395   1.8403061  )
        28           H2  tau(  28) = (   0.4996200   0.8172395   1.8403061  )
        29           H2  tau(  29) = (   0.1698700   0.0284977   1.7974380  )
        30           H2  tau(  30) = (   0.6698800   0.0284977   1.7974380  )

     number of k points=    10  Methfessel-Paxton smearing, width (Ry)=  0.0100
                       cart. coord. in units 2pi/alat
        k(    1) = (   0.0000000   0.0000000   0.0000000), wk =   0.1250000
        k(    2) = (   0.0000000   0.1914188   0.0000000), wk =   0.2500000
        k(    3) = (   0.0000000  -0.3828376   0.0000000), wk =   0.1250000
        k(    4) = (   0.2500000   0.0000000   0.0000000), wk =   0.2500000
        k(    5) = (   0.2500000   0.1914188   0.0000000), wk =   0.2500000
        k(    6) = (   0.2500000  -0.3828376   0.0000000), wk =   0.2500000
        k(    7) = (  -0.5000000   0.0000000   0.0000000), wk =   0.1250000
        k(    8) = (  -0.5000000   0.1914188   0.0000000), wk =   0.2500000
        k(    9) = (  -0.5000000  -0.3828376   0.0000000), wk =   0.1250000
        k(   10) = (  -0.2500000   0.1914188   0.0000000), wk =   0.2500000

     Largest allocated arrays     est. size (Mb)     dimensions
     Largest temporary arrays     est. size (Mb)     dimensions

     Check: negative/imaginary core charge=   -0.000003    0.000000

     Initial potential from superposition of free atoms
     Check: negative starting charge=   -0.237311

     starting charge  227.99958, renormalised to  232.00000

     negative rho (up, down):  0.241E+00 0.000E+00
     Number of +U iterations with fixed ns =  0
     Starting occupations:
 --- enter write_ns ---
 LDA+U parameters:
U( 2)     =  0.50000000
alpha( 2) =  0.00000000
atom    3   Tr[ns(na)] =   5.00000
    eigenvalues:
  0.500  0.500  0.500  0.500  0.500
    eigenvectors:
  1.000  0.000  0.000  0.000  0.000
  0.000  1.000  0.000  0.000  0.000
  0.000  0.000  1.000  0.000  0.000
  0.000  0.000  0.000  1.000  0.000
  0.000  0.000  0.000  0.000  1.000
    occupations:
  0.500  0.000  0.000  0.000  0.000
  0.000  0.500  0.000  0.000  0.000
  0.000  0.000  0.500  0.000  0.000
  0.000  0.000  0.000  0.500  0.000
  0.000  0.000  0.000  0.000  0.500
atom    4   Tr[ns(na)] =   5.00000
    eigenvalues:
  0.500  0.500  0.500  0.500  0.500
    eigenvectors:
  1.000  0.000  0.000  0.000  0.000
  0.000  1.000  0.000  0.000  0.000
  0.000  0.000  1.000  0.000  0.000
  0.000  0.000  0.000  1.000  0.000
  0.000  0.000  0.000  0.000  1.000
    occupations:
  0.500  0.000  0.000  0.000  0.000
  0.000  0.500  0.000  0.000  0.000
  0.000  0.000  0.500  0.000  0.000
  0.000  0.000  0.000  0.500  0.000
  0.000  0.000  0.000  0.000  0.500
atom    9   Tr[ns(na)] =   5.00000
    eigenvalues:
  0.500  0.500  0.500  0.500  0.500
    eigenvectors:
  1.000  0.000  0.000  0.000  0.000
  0.000  1.000  0.000  0.000  0.000
  0.000  0.000  1.000  0.000  0.000
  0.000  0.000  0.000  1.000  0.000
  0.000  0.000  0.000  0.000  1.000
    occupations:
  0.500  0.000  0.000  0.000  0.000
  0.000  0.500  0.000  0.000  0.000
  0.000  0.000  0.500  0.000  0.000
  0.000  0.000  0.000  0.500  0.000
  0.000  0.000  0.000  0.000  0.500
atom   10   Tr[ns(na)] =   5.00000
    eigenvalues:
  0.500  0.500  0.500  0.500  0.500
    eigenvectors:
  1.000  0.000  0.000  0.000  0.000
  0.000  1.000  0.000  0.000  0.000
  0.000  0.000  1.000  0.000  0.000
  0.000  0.000  0.000  1.000  0.000
  0.000  0.000  0.000  0.000  1.000
    occupations:
  0.500  0.000  0.000  0.000  0.000
  0.000  0.500  0.000  0.000  0.000
  0.000  0.000  0.500  0.000  0.000
  0.000  0.000  0.000  0.500  0.000
  0.000  0.000  0.000  0.000  0.500
atom   16   Tr[ns(na)] =   5.00000
    eigenvalues:
  0.500  0.500  0.500  0.500  0.500
    eigenvectors:
  1.000  0.000  0.000  0.000  0.000
  0.000  1.000  0.000  0.000  0.000
  0.000  0.000  1.000  0.000  0.000
  0.000  0.000  0.000  1.000  0.000
  0.000  0.000  0.000  0.000  1.000
    occupations:
  0.500  0.000  0.000  0.000  0.000
  0.000  0.500  0.000  0.000  0.000
  0.000  0.000  0.500  0.000  0.000
  0.000  0.000  0.000  0.500  0.000
  0.000  0.000  0.000  0.000  0.500
atom   17   Tr[ns(na)] =   5.00000
    eigenvalues:
  0.500  0.500  0.500  0.500  0.500
    eigenvectors:
  1.000  0.000  0.000  0.000  0.000
  0.000  1.000  0.000  0.000  0.000
  0.000  0.000  1.000  0.000  0.000
  0.000  0.000  0.000  1.000  0.000
  0.000  0.000  0.000  0.000  1.000
    occupations:
  0.500  0.000  0.000  0.000  0.000
  0.000  0.500  0.000  0.000  0.000
  0.000  0.000  0.500  0.000  0.000
  0.000  0.000  0.000  0.500  0.000
  0.000  0.000  0.000  0.000  0.500
atom   22   Tr[ns(na)] =   5.00000
    eigenvalues:
  0.500  0.500  0.500  0.500  0.500
    eigenvectors:
  1.000  0.000  0.000  0.000  0.000
  0.000  1.000  0.000  0.000  0.000
  0.000  0.000  1.000  0.000  0.000
  0.000  0.000  0.000  1.000  0.000
  0.000  0.000  0.000  0.000  1.000
    occupations:
[...]
  0.000 -0.001 -0.000 -0.000  0.564
atom    9   Tr[ns(na)] =   6.49916
    eigenvalues:
  0.590  0.602  0.622  0.701  0.734
    eigenvectors:
  0.270  0.000  0.000  0.001  0.729
  0.000  1.000  0.000  0.000  0.000
  0.000  0.000  1.000  0.000  0.000
  0.730  0.000  0.000  0.000  0.270
  0.000  0.000  0.000  0.999  0.001
    occupations:
  0.695  0.000 -0.001 -0.064  0.001
  0.000  0.602  0.000  0.000 -0.000
 -0.001  0.000  0.622  0.000  0.000
 -0.064  0.000  0.000  0.629 -0.001
  0.001 -0.000  0.000 -0.001  0.701
atom   10   Tr[ns(na)] =   6.48896
    eigenvalues:
  0.495  0.541  0.695  0.751  0.762
    eigenvectors:
  0.994  0.000  0.000  0.006  0.000
  0.000  0.000  0.000  0.000  1.000
  0.000  0.000  1.000  0.000  0.000
  0.006  0.000  0.000  0.994  0.000
  0.000  1.000  0.000  0.000  0.000
    occupations:
  0.496  0.000  0.001 -0.019 -0.000
  0.000  0.762  0.000 -0.000  0.001
  0.001  0.000  0.695  0.000  0.000
 -0.019 -0.000  0.000  0.750 -0.000
 -0.000  0.001  0.000 -0.000  0.541
atom   16   Tr[ns(na)] =   6.53904
    eigenvalues:
  0.534  0.569  0.660  0.746  0.760
    eigenvectors:
  0.000  0.394  0.008  0.599  0.000
  0.999  0.000  0.000  0.000  0.001
  0.000  0.000  0.986  0.014  0.000
  0.000  0.606  0.007  0.387  0.000
  0.001  0.000  0.000  0.000  0.999
    occupations:
  0.676  0.000  0.008 -0.086 -0.000
  0.000  0.535  0.000 -0.000 -0.008
  0.008  0.000  0.661 -0.006  0.000
 -0.086 -0.000 -0.006  0.638  0.000
 -0.000 -0.008  0.000  0.000  0.760
atom   17   Tr[ns(na)] =   6.48716
    eigenvalues:
  0.564  0.601  0.618  0.692  0.769
    eigenvectors:
  0.000  0.982  0.000  0.001  0.017
  0.000  0.001  0.004  0.995  0.000
  0.000  0.000  0.996  0.004  0.000
  0.000  0.017  0.000  0.000  0.983
  1.000  0.000  0.000  0.000  0.000
    occupations:
  0.604  0.003  0.000 -0.022  0.000
  0.003  0.691  0.005 -0.000 -0.001
  0.000  0.005  0.618  0.001 -0.000
 -0.022 -0.000  0.001  0.766 -0.000
  0.000 -0.001 -0.000 -0.000  0.564
atom   22   Tr[ns(na)] =   6.50220
    eigenvalues:
  0.590  0.602  0.622  0.702  0.735
    eigenvectors:
  0.270  0.000  0.000  0.001  0.729
  0.000  1.000  0.000  0.000  0.000
  0.000  0.000  1.000  0.000  0.000
  0.730  0.000  0.000  0.000  0.270
  0.000  0.000  0.000  0.999  0.001
    occupations:
  0.696  0.000 -0.001 -0.064  0.001
  0.000  0.602  0.000  0.000 -0.000
 -0.001  0.000  0.622  0.000 -0.000
 -0.064  0.000  0.000  0.629 -0.001
  0.001 -0.000 -0.000 -0.001  0.702
atom   23   Tr[ns(na)] =   6.48955
    eigenvalues:
  0.495  0.541  0.695  0.751  0.762
    eigenvectors:
  0.994  0.000  0.000  0.006  0.000
  0.000  0.000  0.000  0.000  1.000
  0.000  0.000  1.000  0.000  0.000
  0.006  0.000  0.000  0.994  0.000
  0.000  1.000  0.000  0.000  0.000
    occupations:
  0.496 -0.000  0.001 -0.019 -0.000
 -0.000  0.762  0.000  0.000  0.001
  0.001  0.000  0.695  0.000  0.000
 -0.019  0.000  0.000  0.750 -0.000
 -0.000  0.001  0.000 -0.000  0.541
N of occupied +U levels =  52.0387736
 --- exit write_ns ---

     Threshold (ethr) on eigenvalues was too large:
     Diagonalizing with lowered threshold

     Davidson diagonalization with overlap
     ethr =  1.40E-08,  avg # of iterations =  1.7

[...]

     total energy              =   -2142.72680446 Ry
     Harris-Foulkes estimate   =   -2142.72680473 Ry
     estimated scf accuracy    <       0.00000158 Ry

     iteration #  8     ecut=    40.00 Ry     beta=0.70
     Davidson diagonalization with overlap
     ethr =  6.83E-10,  avg # of iterations =  1.0

     negative rho (up, down):  0.243E+00 0.000E+00

     End of self-consistent calculation
 --- enter write_ns ---
 LDA+U parameters:
U( 2)     =  0.50000000
alpha( 2) =  0.00000000
atom    3   Tr[ns(na)] =   6.53805
    eigenvalues:
  0.534  0.569  0.660  0.746  0.760
    eigenvectors:
  0.000  0.394  0.008  0.599  0.000
  0.999  0.000  0.000  0.000  0.001
  0.000  0.000  0.986  0.014  0.000
  0.000  0.606  0.007  0.387  0.000
  0.001  0.000  0.000  0.000  0.999
    occupations:
  0.676  0.000  0.008 -0.086 -0.000
  0.000  0.535  0.000 -0.000 -0.008
  0.008  0.000  0.661 -0.006  0.000
 -0.086 -0.000 -0.006  0.638  0.000
 -0.000 -0.008  0.000  0.000  0.759
atom    4   Tr[ns(na)] =   6.49102
    eigenvalues:
  0.564  0.602  0.618  0.692  0.769
    eigenvectors:
  0.000  0.982  0.000  0.001  0.017
  0.000  0.001  0.004  0.995  0.000
  0.000  0.000  0.996  0.004  0.000
  0.000  0.017  0.000  0.000  0.983
  1.000  0.000  0.000  0.000  0.000
    occupations:
  0.605  0.002  0.000 -0.022  0.000
  0.002  0.692  0.005 -0.000 -0.001
  0.000  0.005  0.619  0.001 -0.000
 -0.022 -0.000  0.001  0.766 -0.000
  0.000 -0.001 -0.000 -0.000  0.564
atom    9   Tr[ns(na)] =   6.49924
    eigenvalues:
  0.590  0.602  0.622  0.701  0.734
    eigenvectors:
  0.270  0.000  0.000  0.001  0.729
  0.000  1.000  0.000  0.000  0.000
  0.000  0.000  1.000  0.000  0.000
  0.730  0.000  0.000  0.000  0.270
  0.000  0.000  0.000  0.999  0.001
    occupations:
  0.695  0.000 -0.001 -0.064  0.001
  0.000  0.602  0.000  0.000 -0.000
 -0.001  0.000  0.622  0.000  0.000
 -0.064  0.000  0.000  0.629 -0.001
  0.001 -0.000  0.000 -0.001  0.701
atom   10   Tr[ns(na)] =   6.49125
    eigenvalues:
  0.495  0.541  0.696  0.751  0.763
    eigenvectors:
  0.994  0.000  0.000  0.006  0.000
  0.000  0.000  0.000  0.000  1.000
  0.000  0.000  1.000  0.000  0.000
  0.006  0.000  0.000  0.994  0.000
  0.000  1.000  0.000  0.000  0.000
    occupations:
  0.496  0.000  0.001 -0.019 -0.000
  0.000  0.763  0.000 -0.000  0.001
  0.001  0.000  0.696  0.000  0.000
 -0.019 -0.000  0.000  0.750 -0.000
 -0.000  0.001  0.000 -0.000  0.541
atom   16   Tr[ns(na)] =   6.53817
    eigenvalues:
  0.534  0.569  0.660  0.746  0.760
    eigenvectors:
  0.000  0.394  0.008  0.599  0.000
  0.999  0.000  0.000  0.000  0.001
  0.000  0.000  0.986  0.014  0.000
  0.000  0.606  0.007  0.387  0.000
  0.001  0.000  0.000  0.000  0.999
    occupations:
  0.676  0.000  0.008 -0.086 -0.000
  0.000  0.535  0.000 -0.000 -0.008
  0.008  0.000  0.661 -0.006  0.000
 -0.086 -0.000 -0.006  0.638  0.000
 -0.000 -0.008  0.000  0.000  0.759
atom   17   Tr[ns(na)] =   6.49112
    eigenvalues:
  0.564  0.602  0.618  0.692  0.769
    eigenvectors:
  0.000  0.982  0.000  0.001  0.017
  0.000  0.001  0.004  0.995  0.000
  0.000  0.000  0.996  0.004  0.000
  0.000  0.017  0.000  0.000  0.983
  1.000  0.000  0.000  0.000  0.000
    occupations:
  0.605  0.002  0.000 -0.022  0.000
  0.002  0.692  0.005 -0.000 -0.001
  0.000  0.005  0.619  0.001 -0.000
 -0.022 -0.000  0.001  0.766 -0.000
  0.000 -0.001 -0.000 -0.000  0.564
atom   22   Tr[ns(na)] =   6.49993
    eigenvalues:
  0.590  0.602  0.622  0.701  0.735
    eigenvectors:
  0.270  0.000  0.000  0.001  0.729
  0.000  1.000  0.000  0.000  0.000
  0.000  0.000  1.000  0.000  0.000
  0.730  0.000  0.000  0.000  0.270
  0.000  0.000  0.000  0.999  0.001
    occupations:
  0.695  0.000 -0.001 -0.064  0.001
  0.000  0.602  0.000  0.000 -0.000
 -0.001  0.000  0.622  0.000  0.000
 -0.064  0.000  0.000  0.629 -0.001
  0.001 -0.000  0.000 -0.001  0.701
atom   23   Tr[ns(na)] =   6.49124
    eigenvalues:
  0.495  0.541  0.696  0.751  0.763
    eigenvectors:
  0.994  0.000  0.000  0.006  0.000
  0.000  0.000  0.000  0.000  1.000
  0.000  0.000  1.000  0.000  0.000
  0.006  0.000  0.000  0.994  0.000
  0.000  1.000  0.000  0.000  0.000
    occupations:
  0.496  0.000  0.001 -0.019 -0.000
  0.000  0.763  0.000  0.000  0.001
  0.001  0.000  0.696  0.000  0.000
 -0.019  0.000  0.000  0.750 -0.000
 -0.000  0.001  0.000 -0.000  0.541
N of occupied +U levels =  52.0400165
 --- exit write_ns ---

[...]

          k = 0.2500-0.3828 0.0000 ( 29202 PWs)   bands (ev):

[...]

          k =-0.2500 0.1914 0.0000 ( 29229 PWs)   bands (ev):

   -81.4439 -81.4049 -81.1856 -81.1458 -81.0039 -80.9646 -80.9142 -80.8747
   -43.5422 -43.3481 -43.3413 -43.3370 -43.2785 -43.2365 -43.1665 -43.1411
   -43.1082 -43.0655 -43.0257 -43.0044 -42.9281 -42.9217 -42.8988 -42.8896
   -42.8575 -42.8302 -42.8268 -42.7965 -42.7274 -42.7165 -42.5227 -42.4488
   -20.9258 -20.4879 -20.3751 -20.1943 -20.0902 -19.9614 -19.7568 -19.7259
   -19.7052 -19.4467 -19.4434 -19.3706 -19.3021 -19.1187 -19.0927 -18.8455
   -18.2449 -18.0323  -9.0233  -8.7204  -8.6790  -8.6297  -8.4130  -8.3022
    -8.2695  -8.0499  -7.8982  -7.8409  -7.7422  -7.6397  -7.3995  -7.3133
    -7.2413  -6.9409  -6.7632  -6.6665  -6.5228  -6.4258  -6.4149  -6.1065
    -5.9386  -5.9188  -5.7359  -5.6174  -5.5571  -5.5268  -5.4844  -5.1372
    -5.0745  -5.0046  -4.8727  -4.8607  -4.7163  -4.6446  -4.6196  -4.5476
    -4.4367  -4.3599  -4.2454  -4.0288  -3.9708  -3.9017  -3.7089  -3.5807
    -3.5608  -3.3631  -3.3019  -3.1314  -3.0660  -2.8370  -2.7366  -2.5866
    -2.1494  -2.0417  -1.8672  -1.1749  -0.9686  -0.8126  -0.7679  -0.2150
    -0.0325   0.4305   0.4498   0.5507   0.8027   0.8063   0.9185   1.1424
     1.2332   1.2821   1.3409   1.5233   1.6596   1.6858   1.9054   1.9931
     2.2377   2.3754   3.6138   3.6481   3.7750   3.8616   4.0069   4.1479
     4.4284   4.5212   4.6320   4.6857   4.8475   4.8940   5.2361   5.4099
     5.7523   5.7850   6.0139   6.1287   6.2317   6.3941   6.5925   6.7278
     6.8843   6.9857   7.2265   7.2400   7.4471   7.7065   7.7611   8.0426
     8.1189   8.2802   8.3402   8.4577   8.5468   8.6237   8.7275   8.8873
     9.0762   9.3419   9.3934   9.3968   9.5914   9.6528   9.7107   9.7347
     9.8016   9.9179   9.9422  10.1122  10.1522  10.2449  10.3091  10.3568
    10.3712  10.6157  10.7094  10.8102  10.9202  11.0051  11.0339  11.1524
    11.3801  11.4234  11.4444  11.6480  11.7724  11.8545  11.9657  12.1103
    12.3003  12.3275  12.4886  12.5156  12.6092  12.6441  12.6690  12.7845
    12.8619  12.9761  12.9823  13.1852  13.2256  13.3393  13.4721  13.5361
    13.6117  13.6590  13.7771  13.8027  13.8775  13.8792  13.9646  14.0292
    14.0634  14.1975  14.2311  14.3046  14.4485  14.4896  14.5437  14.5524
    14.6577  14.7735  14.7829  14.8531  14.8762  14.9323  14.9874  15.0045
    15.1029  15.1998  15.2656  15.3974  15.4871  15.5545  15.6251  15.7319
    15.8472  15.9420  16.0700  16.0915  16.1633  16.2179  16.2667  16.4053
    16.5323  16.5473  16.5946  16.6703  16.7612  16.8157  16.8555  16.9934
    17.1198  17.1335  17.1898  17.2831  17.3623  17.4405  17.5550  17.6691
    17.6867  17.7110  17.7291  17.8789  17.9556  18.0247  18.0484  18.1972
    18.2148  18.2666  18.2995  18.3599  18.4647  18.5131  18.6208  18.6563
    18.7594  18.8572  18.8806  18.9773  19.0390  19.0592  19.1250  19.2889
    19.4186  19.4908  19.5620  19.6381  19.7416  19.8565  19.9416  19.9853
    20.0197  20.0727  20.2013  20.2085  20.4161  20.4469  20.5587  20.5657
    20.5876  20.7049  20.7379  20.7966  20.8322  20.9137  20.9577  21.0707
    21.1464  21.1792  21.2759  21.3092  21.3571  21.4581  21.4847  21.4996
    21.5973  21.6313  21.7522  21.8217  21.9165  21.9172  22.0778  22.0935
    22.1511  22.2488  22.2582  22.3569  22.3742  22.4020  22.4443  22.5168
    22.5388  22.6352  22.6397  22.6928

     the Fermi energy is     0.5485 ev

!    total energy              =   -2142.72680441 Ry
     Harris-Foulkes estimate   =   -2142.72680462 Ry
     estimated scf accuracy    <       0.00000023 Ry

     The total energy is the sum of the following terms:

     one-electron contribution =  -23475.49644390 Ry
     hartree contribution      =   11752.18548518 Ry
     xc contribution           =    -587.11123700 Ry
     ewald contribution        =   10167.37406789 Ry
     Hubbard energy            =       0.32353127 Ry
     smearing contrib. (-TS)   =      -0.00220784 Ry

     convergence has been achieved in   8 iterations

     Forces acting on atoms (Ry/au):

     negative rho (up, down):  0.243E+00 0.000E+00
     atom    1 type  1   force =    -0.00419829   -0.00735812    0.00013159
     atom    2 type  1   force =     0.00003564    0.00733078    0.00058157
     atom    3 type  2   force =    -0.00003813   -0.00542592    0.00021576
     atom    4 type  2   force =     0.00164438    0.00880279    0.00013590
     atom    5 type  1   force =     0.00193241    0.01626977    0.00021674
     atom    6 type  1   force =     0.00019196   -0.01812770    0.00014864
     atom    7 type  1   force =    -0.00018478   -0.00002041   -0.00014744
     atom    8 type  1   force =     0.00282818   -0.00118119   -0.00044018
     atom    9 type  2   force =    -0.00157374    0.00085246   -0.00062290
     atom   10 type  2   force =    -0.00003042   -0.00010768   -0.00042779
     atom   11 type  1   force =     0.00006855   -0.01884157    0.00004342
     atom   12 type  1   force =    -0.00009545    0.01746833    0.00009518
     atom   13 type  1   force =    -0.00043079    0.00051563   -0.00007411
     atom   14 type  1   force =    -0.00423158   -0.00736799    0.00018038
     atom   15 type  1   force =     0.00002307    0.00731775    0.00058120
     atom   16 type  2   force =    -0.00009783   -0.00542142    0.00021803
     atom   17 type  2   force =     0.00169388    0.00880394    0.00012115
     atom   18 type  1   force =     0.00194645    0.01627453    0.00015684
     atom   19 type  1   force =     0.00020295   -0.01813716    0.00014108
     atom   20 type  1   force =    -0.00023220   -0.00001953   -0.00020047
     atom   21 type  1   force =     0.00270431   -0.00118182   -0.00048460
     atom   22 type  2   force =    -0.00157087    0.00084837   -0.00071910
     atom   23 type  2   force =     0.00001950   -0.00010775   -0.00048291
     atom   24 type  1   force =     0.00006048   -0.01891899    0.00005500
     atom   25 type  1   force =    -0.00010397    0.01754792    0.00010569
     atom   26 type  1   force =    -0.00058476    0.00051757   -0.00007303
     atom   27 type  3   force =     0.00001665   -0.00032247   -0.00022906
     atom   28 type  3   force =     0.00001506   -0.00032103   -0.00023001
     atom   29 type  3   force =    -0.00001964    0.00015111    0.00051152
     atom   30 type  3   force =     0.00000898    0.00015984    0.00049187

     Total force =     0.001918     Total SCF correction =     0.001187
     SCF correction compared to forces is large: reduce conv_thr to get better values

     bfgs converged in   2 scf cycles and   1 bfgs steps
     (criteria: energy < 0.10E-03, force < 0.10E-02)

     End of BFGS Geometry Optimization

     Final energy   =   -2142.7268044134 Ry
Begin final coordinates

ATOMIC_POSITIONS (crystal)
O0       0.000000000   0.000000000   0.371003398    0   0   1
O0       0.000000000   0.500000000   0.382015072    0   0   1
Re1      0.250000000   0.500000000   0.441286229    0   0   1
Re1      0.000000000   0.000000000   0.443723467    0   0   1
O0       0.250000000   0.780000000   0.441686338    0   0   1
O0       0.250000000   0.220000000   0.441714799    0   0   1
O0       0.000000000   0.500000000   0.497697370    0   0   1
O0       0.000000000   0.000000000   0.515451183    0   0   1
Re1      0.250000000   0.000000000   0.575501046    0   0   1
Re1      0.000000000   0.500000000   0.567919449    0   0   1
O0       0.250000000   0.720000000   0.573870788    0   0   1
O0       0.250000000   0.280000000   0.573851921    0   0   1
O0       0.000000000   0.000000000   0.627689571    0   0   1
O0       0.500000000   0.000000000   0.371000362    0   0   1
O0       0.500000000   0.500000000   0.382014955    0   0   1
Re1      0.750000000   0.500000000   0.441286588    0   0   1
Re1      0.500000000   0.000000000   0.443723360    0   0   1
O0       0.750000000   0.780000000   0.441695137    0   0   1
O0       0.750000000   0.220000000   0.441714787    0   0   1
O0       0.500000000   0.500000000   0.497701082    0   0   1
O0       0.500000000   0.000000000   0.515453296    0   0   1
Re1      0.750000000   0.000000000   0.575501645    0   0   1
Re1      0.500000000   0.500000000   0.567923234    0   0   1
O0       0.750000000   0.720000000   0.573870749    0   0   1
O0       0.750000000   0.280000000   0.573851850    0   0   1
O0       0.500000000   0.000000000   0.627690227    0   0   1
H2      -0.000377848   0.625668087   0.365331607
H2       0.499621944   0.625668118   0.365331602
H2       0.169887663   0.021834845   0.356829097
H2       0.669890775   0.021833961   0.356829789
End final coordinates

     General routines

     Parallel routines
     Hubbard U routines

   This run was terminated on:   8: 5:50   9May2014

   JOB DONE.
Running PBS batch system epilogue script
Job id: 340860.audhumbla.fysik.dtu.dk
Username: zhonxu
Groupname: campgst
Jobname: ReO2/Eads-2-layers/bare-U-0.5
Sessionid: 32331
Queuename: verylong
Accounting:
This job has allocated the following 16 nodes:
b036 b036 b036 b036 b036 b036 b036 b036 b032 b032 b032 b032 b032 b032 b032 b032
Finished epilogue job 340860.audhumbla.fysik.dtu.dk for zhonxu