     Program PWSCF v.5.0.2 (svn rev. 9656) starts on  6May2014 at 13: 0: 9

     Current dimensions of program PWSCF are:
     Max number of different atomic species (ntypx) = 10
     Max number of k-points (npk) =  40000
     Max angular momentum in pseudopotentials (lmaxx) =  3
     Reading input from pwscf.in
Warning: card &CELL ignored
Warning: card / ignored

     Subspace diagonalization in iterative solution of the eigenvalue problem:
     a serial algorithm will be used

     Found symmetry operation: I + ( -0.5000  0.0000  0.0000)
     This is a supercell, fractional translations are disabled

     bravais-lattice index     =            0
     lattice parameter (alat)  =      11.2250  a.u.
     unit-cell volume          =    7005.5484 (a.u.)^3
     number of atoms/cell      =           30
     number of atomic types    =            3
     number of electrons       =       208.00
     number of Kohn-Sham states=          300
     kinetic-energy cutoff     =      40.0000  Ry
     charge density cutoff     =     500.0000  Ry
     convergence threshold     =      1.0E-06
     mixing beta               =       0.7000
     number of iterations used =            8  plain     mixing
     Exchange-correlation      = SLA  PW   PBE  PBE ( 1 4 3 4 0)
     EXX-fraction              =        0.00
     nstep                     =           50

     celldm(1)=  11.224973  celldm(2)=   0.000000  celldm(3)=   0.000000
     celldm(4)=   0.000000  celldm(5)=   0.000000  celldm(6)=   0.000000

     crystal axes: (cart. coord. in units of alat)
               a(1) = (   1.000000   0.000000   0.000000 )
               a(2) = (   0.000000   1.107086   0.000000 )
               a(3) = (   0.000000   0.000000   4.474090 )

     reciprocal axes: (cart. coord. in units 2 pi/alat)
               b(1) = (  1.000000  0.000000  0.000000 )
               b(2) = (  0.000000  0.903272  0.000000 )
               b(3) = (  0.000000  0.000000  0.223509 )

     PseudoPot. # 1 for O  read from file:
     /home/camp/zhonxu/pseudo/o_pbe_v1.01.uspp.F.UPF
     MD5 check sum: 2bcb18d16ea4b960afae9ec6d52f22d2
     Pseudo is Ultrasoft + core correction, Zval =  6.0
     Generated by new atomic code, or converted to UPF format
     Using radial grid of  737 points,  5 beta functions with:
                l(1) =   0
                l(2) =   0
                l(3) =   1
                l(4) =   1
                l(5) =   2
     Q(r) pseudized with  8 coefficients,  rinner =    0.900   0.900   0.900
                                                       0.900   0.900

     PseudoPot. # 2 for Ti read from file:
     /home/camp/zhonxu/pseudo/ti_pbe_v1.uspp.F.UPF
     MD5 check sum: bcc8f6961b3b91f0cac3ca967d22d0fb
     Pseudo is Ultrasoft + core correction, Zval = 12.0
     Generated by new atomic code, or converted to UPF format
     Using radial grid of  851 points,  6 beta functions with:
                l(1) =   0
                l(2) =   0
                l(3) =   1
                l(4) =   1
                l(5) =   2
                l(6) =   2
     Q(r) pseudized with  6 coefficients,  rinner =    1.000   1.000   1.000
                                                       1.000   1.000

     PseudoPot. # 3 for H  read from file:
     /home/camp/zhonxu/pseudo/h_pbe_v1.uspp.F.UPF
     MD5 check sum: 3408e3ff4ec8b0a4e358431e7e038a48
     Pseudo is Ultrasoft, Zval =  1.0
     Generated by new atomic code, or converted to UPF format
     Using radial grid of  615 points,  2 beta functions with:
                l(1) =   0
                l(2) =   0
     Q(r) pseudized with  8 coefficients,  rinner =    0.700

     atomic species   valence    mass     pseudopotential
        O0             6.00    15.99940     O ( 1.00)
        Ti1           12.00    47.88000     Ti( 1.00)
        H2             1.00     1.00794     H ( 1.00)

     Simplified LDA+U calculation (l_max = 2) with parameters (eV):
     atomic species    L          U    alpha       J0     beta
        Ti1            2     3.5000   0.0000   0.0000   0.0000

     No symmetry found

   Cartesian axes

     site n.     atom                  positions (alat units)
         1           O0  tau(   1) = (   0.0000000   0.0000000   1.6989461  )
         2           O0  tau(   2) = (   0.0000000   0.5535432   1.7901728  )
         3           Ti1 tau(   3) = (   0.2500000   0.5535432   2.0162933  )
         4           Ti1 tau(   4) = (   0.0000000   0.0000000   2.0248388  )
         5           O0  tau(   5) = (   0.2500000   0.8967400   2.0178145  )
         6           O0  tau(   6) = (   0.2500000   0.2103464   2.0226912  )
         7           O0  tau(   7) = (   0.0000000   0.5535432   2.2326603  )
         8           O0  tau(   8) = (   0.0000000   0.0000000   2.3559662  )
         9           Ti1 tau(   9) = (   0.2500000   0.0000000   2.5995804  )
        10           Ti1 tau(  10) = (   0.0000000   0.5535432   2.5483968  )
        11           O0  tau(  11) = (   0.2500000   0.7638896   2.5964932  )
        12           O0  tau(  12) = (   0.2500000   0.3431968   2.5965380  )
        13           O0  tau(  13) = (   0.0000000   0.0000000   2.7842708  )
        14           O0  tau(  14) = (   0.5000000   0.0000000   1.6989461  )
        15           O0  tau(  15) = (   0.5000000   0.5535432   1.7901728  )
        16           Ti1 tau(  16) = (   0.7500000   0.5535432   2.0162933  )
        17           Ti1 tau(  17) = (   0.5000000   0.0000000   2.0248388  )
        18           O0  tau(  18) = (   0.7500000   0.8967400   2.0178145  )
        19           O0  tau(  19) = (   0.7500000   0.2103464   2.0226912  )
        20           O0  tau(  20) = (   0.5000000   0.5535432   2.2326603  )
        21           O0  tau(  21) = (   0.5000000   0.0000000   2.3559662  )
        22           Ti1 tau(  22) = (   0.7500000   0.0000000   2.5995804  )
        23           Ti1 tau(  23) = (   0.5000000   0.5535432   2.5483968  )
        24           O0  tau(  24) = (   0.7500000   0.7638896   2.5964932  )
        25           O0  tau(  25) = (   0.7500000   0.3431968   2.5965380  )
        26           O0  tau(  26) = (   0.5000000   0.0000000   2.7842708  )
        27           H2  tau(  27) = (  -0.0005400   0.6991915   1.7063283  )
        28           H2  tau(  28) = (   0.4994600   0.6991915   1.7063283  )
        29           H2  tau(  29) = (   0.1501800   0.0252084   1.6321479  )
        30           H2  tau(  30) = (   0.6501800   0.0252084   1.6321479  )

     number of k points=    10  Methfessel-Paxton smearing, width (Ry)=  0.0100
                       cart. coord. in units 2pi/alat
        k(    1) = (   0.0000000   0.0000000   0.0000000), wk =   0.1250000
        k(    2) = (   0.0000000   0.2258180   0.0000000), wk =   0.2500000
        k(    3) = (   0.0000000  -0.4516359   0.0000000), wk =   0.1250000
        k(    4) = (   0.2500000   0.0000000   0.0000000), wk =   0.2500000
        k(    5) = (   0.2500000   0.2258180   0.0000000), wk =   0.2500000
        k(    6) = (   0.2500000  -0.4516359   0.0000000), wk =   0.2500000
        k(    7) = (  -0.5000000   0.0000000   0.0000000), wk =   0.1250000
        k(    8) = (  -0.5000000   0.2258180   0.0000000), wk =   0.2500000
        k(    9) = (  -0.5000000  -0.4516359   0.0000000), wk =   0.1250000
        k(   10) = (  -0.2500000   0.2258180   0.0000000), wk =   0.2500000

     Largest allocated arrays     est. size (Mb)     dimensions
     Largest temporary arrays     est. size (Mb)     dimensions

     Check: negative/imaginary core charge=   -0.000005    0.000000

     Initial potential from superposition of free atoms
     Check: negative starting charge=   -0.102816

     starting charge  199.99958, renormalised to  208.00000

     negative rho (up, down):  0.107E+00 0.000E+00
     Number of +U iterations with fixed ns =  0
     Starting occupations:
 --- enter write_ns ---
 LDA+U parameters:
U( 2)     =  3.50000000
alpha( 2) =  0.00000000
atom    3   Tr[ns(na)] =   2.00000
    eigenvalues:
  0.200  0.200  0.200  0.200  0.200
    eigenvectors:
  1.000  0.000  0.000  0.000  0.000
  0.000  1.000  0.000  0.000  0.000
  0.000  0.000  1.000  0.000  0.000
  0.000  0.000  0.000  1.000  0.000
  0.000  0.000  0.000  0.000  1.000
    occupations:
  0.200  0.000  0.000  0.000  0.000
  0.000  0.200  0.000  0.000  0.000
  0.000  0.000  0.200  0.000  0.000
  0.000  0.000  0.000  0.200  0.000
  0.000  0.000  0.000  0.000  0.200
atom    4   Tr[ns(na)] =   2.00000
    eigenvalues:
  0.200  0.200  0.200  0.200  0.200
    eigenvectors:
  1.000  0.000  0.000  0.000  0.000
  0.000  1.000  0.000  0.000  0.000
  0.000  0.000  1.000  0.000  0.000
  0.000  0.000  0.000  1.000  0.000
  0.000  0.000  0.000  0.000  1.000
    occupations:
  0.200  0.000  0.000  0.000  0.000
  0.000  0.200  0.000  0.000  0.000
  0.000  0.000  0.200  0.000  0.000
  0.000  0.000  0.000  0.200  0.000
  0.000  0.000  0.000  0.000  0.200
atom    9   Tr[ns(na)] =   2.00000
    eigenvalues:
  0.200  0.200  0.200  0.200  0.200
    eigenvectors:
  1.000  0.000  0.000  0.000  0.000
  0.000  1.000  0.000  0.000  0.000
  0.000  0.000  1.000  0.000  0.000
  0.000  0.000  0.000  1.000  0.000
  0.000  0.000  0.000  0.000  1.000
    occupations:
  0.200  0.000  0.000  0.000  0.000
  0.000  0.200  0.000  0.000  0.000
  0.000  0.000  0.200  0.000  0.000
  0.000  0.000  0.000  0.200  0.000
  0.000  0.000  0.000  0.000  0.200
atom   10   Tr[ns(na)] =   2.00000
    eigenvalues:
  0.200  0.200  0.200  0.200  0.200
    eigenvectors:
  1.000  0.000  0.000  0.000  0.000
  0.000  1.000  0.000  0.000  0.000
  0.000  0.000  1.000  0.000  0.000
  0.000  0.000  0.000  1.000  0.000
  0.000  0.000  0.000  0.000  1.000
    occupations:
  0.200  0.000  0.000  0.000  0.000
  0.000  0.200  0.000  0.000  0.000
  0.000  0.000  0.200  0.000  0.000
  0.000  0.000  0.000  0.200  0.000
  0.000  0.000  0.000  0.000  0.200
atom   16   Tr[ns(na)] =   2.00000
    eigenvalues:
  0.200  0.200  0.200  0.200  0.200
    eigenvectors:
  1.000  0.000  0.000  0.000  0.000
  0.000  1.000  0.000  0.000  0.000
  0.000  0.000  1.000  0.000  0.000
  0.000  0.000  0.000  1.000  0.000
  0.000  0.000  0.000  0.000  1.000
    occupations:
  0.200  0.000  0.000  0.000  0.000
  0.000  0.200  0.000  0.000  0.000
  0.000  0.000  0.200  0.000  0.000
  0.000  0.000  0.000  0.200  0.000
  0.000  0.000  0.000  0.000  0.200
atom   17   Tr[ns(na)] =   2.00000
    eigenvalues:
  0.200  0.200  0.200  0.200  0.200
    eigenvectors:
  1.000  0.000  0.000  0.000  0.000
  0.000  1.000  0.000  0.000  0.000
  0.000  0.000  1.000  0.000  0.000
  0.000  0.000  0.000  1.000  0.000
  0.000  0.000  0.000  0.000  1.000
    occupations:
  0.200  0.000  0.000  0.000  0.000
  0.000  0.200  0.000  0.000  0.000
  0.000  0.000  0.200  0.000  0.000
  0.000  0.000  0.000  0.200  0.000
  0.000  0.000  0.000  0.000  0.200
atom   22   Tr[ns(na)] =   2.00000
    eigenvalues:
  0.200  0.200  0.200  0.200  0.200
    eigenvectors:
  1.000  0.000  0.000  0.000  0.000
  0.000  1.000  0.000  0.000  0.000
  0.000  0.000  1.000  0.000  0.000
  0.000  0.000  0.000  1.000  0.000
  0.000  0.000  0.000  0.000  1.000
    occupations:
[...]
atom    4   Tr[ns(na)] =   2.82838
    eigenvalues:
  0.153  0.188  0.216  0.417  0.440
    eigenvectors:
  0.006  0.004  0.000  0.000  0.990
  0.002  0.949  0.046  0.000  0.004
  0.001  0.045  0.954  0.000  0.000
  0.991  0.002  0.000  0.000  0.006
  0.000  0.000  0.000  1.000  0.000
    occupations:
  0.438  0.016  0.004 -0.022 -0.000
  0.016  0.190 -0.006  0.000 -0.002
  0.004 -0.006  0.214  0.001 -0.000
 -0.022  0.000  0.001  0.155 -0.000
 -0.000 -0.002 -0.000 -0.000  0.417
atom    9   Tr[ns(na)] =   2.82323
    eigenvalues:
  0.163  0.206  0.222  0.374  0.446
    eigenvectors:
  0.000  0.000  0.917  0.083  0.000
  0.000  0.000  0.000  0.000  1.000
  1.000  0.000  0.000  0.000  0.000
  0.000  0.000  0.083  0.917  0.000
  0.000  1.000  0.000  0.000  0.000
    occupations:
  0.235 -0.000 -0.000  0.042  0.000
 -0.000  0.446  0.000 -0.000 -0.000
 -0.000  0.000  0.163  0.000  0.000
  0.042 -0.000  0.000  0.361 -0.000
  0.000 -0.000  0.000 -0.000  0.206
atom   10   Tr[ns(na)] =   2.73810
    eigenvalues:
  0.165  0.210  0.219  0.328  0.447
    eigenvectors:
  0.026  0.000  0.000  0.974  0.000
  0.000  0.000  1.000  0.000  0.000
  0.000  1.000  0.000  0.000  0.000
  0.974  0.000  0.000  0.026  0.000
  0.000  0.000  0.000  0.000  1.000
    occupations:
  0.323 -0.000 -0.000 -0.026 -0.000
 -0.000  0.219 -0.000 -0.000  0.000
 -0.000 -0.000  0.210 -0.000  0.000
 -0.026 -0.000 -0.000  0.169 -0.000
 -0.000  0.000  0.000 -0.000  0.447
atom   16   Tr[ns(na)] =   2.70048
    eigenvalues:
  0.150  0.174  0.205  0.411  0.411
    eigenvectors:
  0.786  0.000  0.016  0.194  0.004
  0.000  0.002  0.000  0.022  0.976
  0.018  0.000  0.982  0.000  0.000
  0.197  0.000  0.002  0.784  0.017
  0.000  0.998  0.000  0.000  0.002
    occupations:
  0.202 -0.000 -0.005  0.104 -0.000
 -0.000  0.410  0.000  0.000  0.012
 -0.005  0.000  0.204  0.007 -0.000
  0.104  0.000  0.007  0.359 -0.000
 -0.000  0.012 -0.000 -0.000  0.174
atom   17   Tr[ns(na)] =   2.82838
    eigenvalues:
  0.153  0.188  0.216  0.417  0.440
    eigenvectors:
  0.006  0.004  0.000  0.000  0.990
  0.002  0.949  0.046  0.000  0.004
  0.001  0.045  0.954  0.000  0.000
  0.991  0.002  0.000  0.000  0.006
  0.000  0.000  0.000  1.000  0.000
    occupations:
  0.438  0.016  0.004 -0.022 -0.000
  0.016  0.190 -0.006  0.000 -0.002
  0.004 -0.006  0.214  0.001 -0.000
 -0.022  0.000  0.001  0.155 -0.000
 -0.000 -0.002 -0.000 -0.000  0.417
atom   22   Tr[ns(na)] =   2.82323
    eigenvalues:
  0.163  0.206  0.222  0.374  0.446
    eigenvectors:
  0.000  0.000  0.917  0.083  0.000
  0.000  0.000  0.000  0.000  1.000
  1.000  0.000  0.000  0.000  0.000
  0.000  0.000  0.083  0.917  0.000
  0.000  1.000  0.000  0.000  0.000
    occupations:
  0.235 -0.000 -0.000  0.042  0.000
 -0.000  0.446  0.000 -0.000 -0.000
 -0.000  0.000  0.163  0.000  0.000
  0.042 -0.000  0.000  0.361 -0.000
  0.000 -0.000  0.000 -0.000  0.206
atom   23   Tr[ns(na)] =   2.73810
    eigenvalues:
  0.165  0.210  0.219  0.328  0.447
    eigenvectors:
  0.026  0.000  0.000  0.974  0.000
  0.000  0.000  1.000  0.000  0.000
  0.000  1.000  0.000  0.000  0.000
  0.974  0.000  0.000  0.026  0.000
  0.000  0.000  0.000  0.000  1.000
    occupations:
  0.323 -0.000 -0.000 -0.026 -0.000
 -0.000  0.219 -0.000 -0.000  0.000
 -0.000 -0.000  0.210 -0.000  0.000
 -0.026 -0.000 -0.000  0.169 -0.000
 -0.000  0.000  0.000 -0.000  0.447
N of occupied +U levels =  22.1803823
 --- exit write_ns ---

     Threshold (ethr) on eigenvalues was too large:
     Diagonalizing with lowered threshold

     Davidson diagonalization with overlap
     ethr =  6.01E-09,  avg # of iterations =  2.0

[...]

     total energy              =   -1532.99218403 Ry
     Harris-Foulkes estimate   =   -1532.99218404 Ry
     estimated scf accuracy    <       0.00000006 Ry

     iteration #  7     ecut=    40.00 Ry     beta=0.70
     Davidson diagonalization with overlap
     ethr =  2.70E-11,  avg # of iterations =  1.1

     negative rho (up, down):  0.105E+00 0.000E+00

     End of self-consistent calculation
 --- enter write_ns ---
 LDA+U parameters:
U( 2)     =  3.50000000
alpha( 2) =  0.00000000
atom    3   Tr[ns(na)] =   2.70012
    eigenvalues:
  0.150  0.173  0.205  0.411  0.411
    eigenvectors:
  0.786  0.000  0.017  0.194  0.004
  0.000  0.002  0.000  0.021  0.976
  0.018  0.000  0.982  0.000  0.000
  0.197  0.000  0.002  0.785  0.017
  0.000  0.997  0.000  0.000  0.002
    occupations:
  0.202 -0.000 -0.005  0.104 -0.000
 -0.000  0.410  0.000  0.000  0.012
 -0.005  0.000  0.204  0.007 -0.000
  0.104  0.000  0.007  0.359 -0.000
 -0.000  0.012 -0.000 -0.000  0.174
atom    4   Tr[ns(na)] =   2.82864
    eigenvalues:
  0.153  0.188  0.216  0.417  0.440
    eigenvectors:
  0.006  0.004  0.000  0.000  0.990
  0.002  0.949  0.046  0.000  0.004
  0.001  0.045  0.954  0.000  0.000
  0.992  0.002  0.000  0.000  0.006
  0.000  0.000  0.000  1.000  0.000
    occupations:
  0.438  0.016  0.004 -0.022 -0.000
  0.016  0.190 -0.006  0.000 -0.002
  0.004 -0.006  0.214  0.001 -0.000
 -0.022  0.000  0.001  0.155 -0.000
 -0.000 -0.002 -0.000 -0.000  0.417
atom    9   Tr[ns(na)] =   2.82305
    eigenvalues:
  0.163  0.206  0.222  0.374  0.446
    eigenvectors:
  0.000  0.000  0.917  0.083  0.000
  0.000  0.000  0.000  0.000  1.000
  1.000  0.000  0.000  0.000  0.000
  0.000  0.000  0.083  0.917  0.000
  0.000  1.000  0.000  0.000  0.000
    occupations:
  0.235 -0.000 -0.000  0.042  0.000
 -0.000  0.446  0.000 -0.000 -0.000
 -0.000  0.000  0.163  0.000  0.000
  0.042 -0.000  0.000  0.361 -0.000
  0.000 -0.000  0.000 -0.000  0.206
atom   10   Tr[ns(na)] =   2.73899
    eigenvalues:
  0.165  0.210  0.219  0.328  0.448
    eigenvectors:
  0.026  0.000  0.000  0.974  0.000
  0.000  0.000  1.000  0.000  0.000
  0.000  1.000  0.000  0.000  0.000
  0.974  0.000  0.000  0.026  0.000
  0.000  0.000  0.000  0.000  1.000
    occupations:
  0.323 -0.000 -0.000 -0.026 -0.000
 -0.000  0.219 -0.000 -0.000  0.000
 -0.000 -0.000  0.210 -0.000  0.000
 -0.026 -0.000 -0.000  0.169 -0.000
 -0.000  0.000  0.000 -0.000  0.448
atom   16   Tr[ns(na)] =   2.70012
    eigenvalues:
  0.150  0.173  0.205  0.411  0.411
    eigenvectors:
  0.786  0.000  0.017  0.194  0.004
  0.000  0.002  0.000  0.021  0.976
  0.018  0.000  0.982  0.000  0.000
  0.197  0.000  0.002  0.785  0.017
  0.000  0.997  0.000  0.000  0.002
    occupations:
  0.202 -0.000 -0.005  0.104 -0.000
 -0.000  0.410  0.000  0.000  0.012
 -0.005  0.000  0.204  0.007 -0.000
  0.104  0.000  0.007  0.359 -0.000
 -0.000  0.012 -0.000 -0.000  0.174
atom   17   Tr[ns(na)] =   2.82864
    eigenvalues:
  0.153  0.188  0.216  0.417  0.440
    eigenvectors:
  0.006  0.004  0.000  0.000  0.990
  0.002  0.949  0.046  0.000  0.004
  0.001  0.045  0.954  0.000  0.000
  0.992  0.002  0.000  0.000  0.006
  0.000  0.000  0.000  1.000  0.000
    occupations:
  0.438  0.016  0.004 -0.022 -0.000
  0.016  0.190 -0.006  0.000 -0.002
  0.004 -0.006  0.214  0.001 -0.000
 -0.022  0.000  0.001  0.155 -0.000
 -0.000 -0.002 -0.000 -0.000  0.417
atom   22   Tr[ns(na)] =   2.82305
    eigenvalues:
  0.163  0.206  0.222  0.374  0.446
    eigenvectors:
  0.000  0.000  0.917  0.083  0.000
  0.000  0.000  0.000  0.000  1.000
  1.000  0.000  0.000  0.000  0.000
  0.000  0.000  0.083  0.917  0.000
  0.000  1.000  0.000  0.000  0.000
    occupations:
  0.235 -0.000 -0.000  0.042  0.000
 -0.000  0.446  0.000 -0.000 -0.000
 -0.000  0.000  0.163  0.000  0.000
  0.042 -0.000  0.000  0.361 -0.000
  0.000 -0.000  0.000 -0.000  0.206
atom   23   Tr[ns(na)] =   2.73899
    eigenvalues:
  0.165  0.210  0.219  0.328  0.448
    eigenvectors:
  0.026  0.000  0.000  0.974  0.000
  0.000  0.000  1.000  0.000  0.000
  0.000  1.000  0.000  0.000  0.000
  0.974  0.000  0.000  0.026  0.000
  0.000  0.000  0.000  0.000  1.000
    occupations:
  0.323 -0.000 -0.000 -0.026 -0.000
 -0.000  0.219 -0.000 -0.000  0.000
 -0.000 -0.000  0.210 -0.000  0.000
 -0.026 -0.000 -0.000  0.169 -0.000
 -0.000  0.000  0.000 -0.000  0.448
N of occupied +U levels =  22.1816027
 --- exit write_ns ---

[...]

          k = 0.2500-0.4516 0.0000 ( 29882 PWs)   bands (ev):

[...]

          k =-0.2500 0.2258 0.0000 ( 29912 PWs)   bands (ev):

   -61.5269 -61.5016 -61.1095 -61.0834 -59.8849 -59.8569 -59.4272 -59.3999
   -37.9941 -37.7491 -37.7204 -37.6804 -37.5701 -37.5485 -37.4434 -37.4296
   -37.4075 -37.2660 -37.2024 -37.1553 -36.4311 -36.2026 -36.1297 -36.1198
   -35.9361 -35.9136 -35.7722 -35.7675 -35.7453 -35.6301 -35.5617 -35.4589
   -22.2409 -22.0262 -20.9714 -20.7918 -20.3610 -20.2618 -19.9485 -19.7585
   -19.7338 -19.6351 -19.5303 -19.5091 -19.3644 -19.2514 -18.6810 -18.3227
   -18.0566 -17.9978  -9.8931  -9.6244  -8.1506  -7.9624  -7.8608  -7.8380
    -7.8091  -7.7722  -7.4123  -7.3861  -7.1938  -7.1086  -7.0591  -7.0426
    -6.9909  -6.8109  -6.7734  -6.6423  -6.5123  -6.4090  -6.1450  -6.1002
    -6.0299  -5.8065  -5.7630  -5.6589  -5.6317  -5.4625  -5.3812  -5.3672
    -5.2678  -5.1651  -5.1304  -5.0903  -5.0044  -4.9817  -4.8609  -4.7560
    -4.6677  -4.5436  -4.4527  -4.4372  -3.9407  -3.7567  -3.5739  -3.4690
    -3.3854  -3.3268  -3.1884  -3.1417  -3.1406  -2.8902  -2.8265  -2.6802
    -1.1787  -0.9111  -0.7970  -0.7096  -0.6776  -0.4888  -0.4632  -0.3625
    -0.0802  -0.0212   0.1027   0.1629   0.2327   0.4059   0.7116   0.7961
     0.9060   0.9605   1.0465   1.2550   1.3425   1.3787   1.4776   1.5282
     1.5434   1.5989   1.5999   1.7282   1.7354   1.9778   2.0248   2.4341
     2.9413   3.0140   3.1545   3.2578   3.4349   3.4980   3.6328   3.8306
     4.0998   4.1449   4.2473   4.5812   4.9629   4.9660   5.2466   5.6966
     5.8003   5.8803   5.9876   6.0970   6.1619   6.4698   6.4891   6.8161
     6.8489   7.1348   7.2530   7.3845   7.5134   7.6761   7.7100   7.8461
     7.8733   8.0148   8.0325   8.2184   8.4654   8.4989   8.6087   8.7000
     8.8142   8.9636   9.2618   9.3027   9.3144   9.3779   9.4498   9.4932
     9.5227   9.6475   9.8508   9.9906  10.0137  10.1428  10.2096  10.3989
    10.4205  10.6008  10.6040  10.7077  10.8260  10.9126  10.9479  10.9767
    11.1150  11.2409  11.2869  11.3591  11.3919  11.4616  11.5267  11.6433
    11.6846  11.7509  11.8654  11.9524  11.9616  12.0050  12.1074  12.2594
    12.2971  12.3556  12.5205  12.6070  12.6552  12.6589  12.7395  12.8673
    12.8869  12.9752  13.0451  13.2233  13.2486  13.3628  13.3906  13.4648
    13.5646  13.6468  13.7100  13.7264  13.7817  13.8357  13.9316  14.0352
    14.0727  14.1861  14.2256  14.3023  14.4320  14.4961  14.5764  14.5871
    14.6852  14.6853  14.7946  14.9427  14.9909  15.0174  15.1122  15.2575
    15.3358  15.3447  15.4808  15.5124  15.6437  15.7153  15.7396  15.7676
    15.8083  15.8920  15.9317  16.0544  16.1334  16.1421  16.2387  16.3271
    16.3927  16.5741  16.6460  16.6664  16.7860  16.8106  16.8347  16.8678
    16.9260  16.9809  17.0721  17.0750  17.2301  17.2559  17.2938  17.3980
    17.4441  17.4826  17.4977  17.5894  17.7137  17.7896  17.8311  17.9823
    18.0329  18.1856  18.1981  18.2643

     the Fermi energy is    -2.5810 ev

!    total energy              =   -1532.99218403 Ry
     Harris-Foulkes estimate   =   -1532.99218404 Ry
     estimated scf accuracy    <          8.4E-09 Ry

     The total energy is the sum of the following terms:

     one-electron contribution =  -18296.70222718 Ry
     hartree contribution      =    9161.05210414 Ry
     xc contribution           =    -269.73539172 Ry
     ewald contribution        =    7870.45979294 Ry
     Hubbard energy            =       1.93231935 Ry
     smearing contrib. (-TS)   =       0.00121844 Ry

     convergence has been achieved in   7 iterations

     Forces acting on atoms (Ry/au):

     negative rho (up, down):  0.105E+00 0.000E+00
     atom    1 type  1   force =    -0.00160412   -0.01673658    0.00036435
     atom    2 type  1   force =     0.00003079    0.02346634   -0.00038625
     atom    3 type  2   force =     0.00016490   -0.01372572    0.00021810
     atom    4 type  2   force =    -0.00205140    0.00934418    0.00015713
     atom    5 type  1   force =     0.00323135   -0.10912605    0.00007549
     atom    6 type  1   force =    -0.00119666    0.10779340    0.00012348
     atom    7 type  1   force =    -0.00004093    0.00088436    0.00039310
     atom    8 type  1   force =     0.00184334   -0.00162124    0.00043835
     atom    9 type  2   force =    -0.00045751    0.00012510   -0.00004659
     atom   10 type  2   force =    -0.00003621   -0.00034415    0.00061683
     atom   11 type  1   force =     0.00006511   -0.04393307   -0.00030126
     atom   12 type  1   force =    -0.00000888    0.04400325   -0.00030590
     atom   13 type  1   force =     0.00032416   -0.00004874   -0.00031975
     atom   14 type  1   force =    -0.00160412   -0.01673658    0.00036434
     atom   15 type  1   force =     0.00003079    0.02346634   -0.00038625
     atom   16 type  2   force =     0.00016490   -0.01372572    0.00021810
     atom   17 type  2   force =    -0.00205140    0.00934418    0.00015712
     atom   18 type  1   force =     0.00323135   -0.10912605    0.00007549
     atom   19 type  1   force =    -0.00119665    0.10779340    0.00012348
     atom   20 type  1   force =    -0.00004093    0.00088436    0.00039310
     atom   21 type  1   force =     0.00184334   -0.00162124    0.00043835
     atom   22 type  2   force =    -0.00045750    0.00012510   -0.00004659
     atom   23 type  2   force =    -0.00003621   -0.00034415    0.00061683
     atom   24 type  1   force =     0.00006511   -0.04393307   -0.00030126
     atom   25 type  1   force =    -0.00000888    0.04400325   -0.00030591
     atom   26 type  1   force =     0.00032416   -0.00004874   -0.00031974
     atom   27 type  3   force =     0.00002051   -0.00021019   -0.00088723
     atom   28 type  3   force =     0.00002051   -0.00021019   -0.00088723
     atom   29 type  3   force =    -0.00028446    0.00012911   -0.00013985
     atom   30 type  3   force =    -0.00028447    0.00012911   -0.00013986

     Total force =     0.002163     Total SCF correction =     0.000242
     SCF correction compared to forces is large: reduce conv_thr to get better values

     bfgs converged in  10 scf cycles and   9 bfgs steps
     (criteria: energy < 0.10E-03, force < 0.10E-02)

     End of BFGS Geometry Optimization

     Final energy   =   -1532.9921840320 Ry
Begin final coordinates

ATOMIC_POSITIONS (crystal)
O0       0.000000000   0.000000000   0.378666589    0   0   1
O0       0.000000000   0.500000000   0.398998435    0   0   1
Ti1      0.250000000   0.500000000   0.450118791    0   0   1
Ti1      0.000000000   0.000000000   0.452125599    0   0   1
O0       0.250000000   0.810000000   0.450625821    0   0   1
O0       0.250000000   0.190000000   0.451660884    0   0   1
O0       0.000000000   0.500000000   0.498766486    0   0   1
O0       0.000000000   0.000000000   0.527248129    0   0   1
Ti1      0.250000000   0.000000000   0.581650015    0   0   1
Ti1      0.000000000   0.500000000   0.570500201    0   0   1
O0       0.250000000   0.690000000   0.581169730    0   0   1
O0       0.250000000   0.310000000   0.581192026    0   0   1
O0       0.000000000   0.000000000   0.623806921    0   0   1
O0       0.500000000   0.000000000   0.378666590    0   0   1
O0       0.500000000   0.500000000   0.398998435    0   0   1
Ti1      0.750000000   0.500000000   0.450118791    0   0   1
Ti1      0.500000000   0.000000000   0.452125601    0   0   1
O0       0.750000000   0.810000000   0.450625820    0   0   1
O0       0.750000000   0.190000000   0.451660884    0   0   1
O0       0.500000000   0.500000000   0.498766486    0   0   1
O0       0.500000000   0.000000000   0.527248129    0   0   1
Ti1      0.750000000   0.000000000   0.581650015    0   0   1
Ti1      0.500000000   0.500000000   0.570500201    0   0   1
O0       0.750000000   0.690000000   0.581169730    0   0   1
O0       0.750000000   0.310000000   0.581192027    0   0   1
O0       0.500000000   0.000000000   0.623806920    0   0   1
H2      -0.000370679   0.632252745   0.380548534
H2       0.499629320   0.632252748   0.380548535
H2       0.151532071   0.023566498   0.364491836
H2       0.651532072   0.023566498   0.364491838
End final coordinates

     General routines

     Parallel routines
     Hubbard U routines

   This run was terminated on:  17:52: 5   6May2014

   JOB DONE.
Running PBS batch system epilogue script
Job id: 340815.audhumbla.fysik.dtu.dk
Username: zhonxu
Groupname: campgst
Jobname: TiO2/Eads-2-layers/bare-U-3.5
Sessionid: 10266
Queuename: verylong
Accounting:
This job has allocated the following 16 nodes:
a108 a108 a108 a108 a108 a108 a108 a108 a052 a052 a052 a052 a052 a052 a052 a052
Finished epilogue job 340815.audhumbla.fysik.dtu.dk for zhonxu