     Program PWSCF v.5.0.2 (svn rev. 9656) starts on 23Jan2014 at 20:34: 0

     Current dimensions of program PWSCF are:
     Max number of different atomic species (ntypx) = 10
     Max number of k-points (npk) =  40000
     Max angular momentum in pseudopotentials (lmaxx) =  3
     Reading input from MnO2-v-1.2.in

     Subspace diagonalization in iterative solution of the eigenvalue problem:
     a serial algorithm will be used

     bravais-lattice index     =            0
     lattice parameter (alat)  =       9.2016  a.u.
     unit-cell volume          =     502.0761 (a.u.)^3
     number of atoms/cell      =            6
     number of atomic types    =            2
     number of electrons       =        54.00
     number of Kohn-Sham states=           78
     kinetic-energy cutoff     =      40.0000  Ry
     charge density cutoff     =     500.0000  Ry
     convergence threshold     =      1.0E-06
     mixing beta               =       0.7000
     number of iterations used =            8  plain     mixing
     Exchange-correlation      = SLA  PW   PBE  PBE ( 1 4 3 4 0)
     EXX-fraction              =        0.00
     nstep                     =           50

     celldm(1)=   9.201558  celldm(2)=   0.000000  celldm(3)=   0.000000
     celldm(4)=   0.000000  celldm(5)=   0.000000  celldm(6)=   0.000000

     crystal axes: (cart. coord. in units of alat)
               a(1) = (   1.000000   0.000000   0.000000 )
               a(2) = (   0.000000   1.000000   0.000000 )
               a(3) = (   0.000000   0.000000   0.644444 )

     reciprocal axes: (cart. coord. in units 2 pi/alat)
               b(1) = (  1.000000  0.000000  0.000000 )
               b(2) = (  0.000000  1.000000  0.000000 )
               b(3) = (  0.000000  0.000000  1.551724 )

     PseudoPot. # 1 for Mn read from file:
     /home/camp/zhonxu/pseudo/mn_pbe_v1.uspp.F.UPF
     MD5 check sum: 5fd7c7b5c956fd19902447332617373a
     Pseudo is Ultrasoft + core correction, Zval = 15.0
     Generated by new atomic code, or converted to UPF format
     Using radial grid of  859 points,  6 beta functions with:
                l(1) =   0
                l(2) =   0
                l(3) =   1
                l(4) =   1
                l(5) =   2
                l(6) =   2
     Q(r) pseudized with  6 coefficients,  rinner =    1.150   1.150   1.150
                                                       1.150   1.150

     PseudoPot. # 2 for O  read from file:
     /home/camp/zhonxu/pseudo/o_pbe_v1.01.uspp.F.UPF
     MD5 check sum: 2bcb18d16ea4b960afae9ec6d52f22d2
     Pseudo is Ultrasoft + core correction, Zval =  6.0
     Generated by new atomic code, or converted to UPF format
     Using radial grid of  737 points,  5 beta functions with:
                l(1) =   0
                l(2) =   0
                l(3) =   1
                l(4) =   1
                l(5) =   2
     Q(r) pseudized with  8 coefficients,  rinner =    0.900   0.900   0.900
                                                       0.900   0.900

     atomic species   valence    mass     pseudopotential
        Mn0           15.00    54.93800     Mn( 1.00)
        O1             6.00    15.99940     O ( 1.00)

     Starting magnetic structure
     atomic species   magnetization
        Mn0          0.600
        O1           0.000

      8 Sym. Ops., with inversion, found
          (note:  8 additional sym.ops. were found but ignored
           their fractional translations are incommensurate with FFT grid)

   Cartesian axes

     site n.     atom                  positions (alat units)
         1           Mn0 tau(   1) = (   0.0000000   0.0000000   0.0000000  )
         2           Mn0 tau(   2) = (   0.5000000   0.5000000   0.3222222  )
         3           O1  tau(   3) = (   0.3050000   0.3050000   0.0000000  )
         4           O1  tau(   4) = (  -0.3050000  -0.3050000   0.0000000  )
         5           O1  tau(   5) = (   0.8050000   0.1950000   0.3222222  )
         6           O1  tau(   6) = (   0.1950000   0.8050000   0.3222222  )

     number of k points=    54  Methfessel-Paxton smearing, width (Ry)=  0.0100
                       cart. coord. in units 2pi/alat
        k(    1) = (   0.0000000   0.0000000   0.0000000), wk =   0.0080000
        k(    2) = (   0.0000000   0.0000000   0.3103448), wk =   0.0160000
        k(    3) = (   0.0000000   0.0000000   0.6206897), wk =   0.0160000
        k(    4) = (   0.0000000   0.2000000   0.0000000), wk =   0.0320000
        k(    5) = (   0.0000000   0.2000000   0.3103448), wk =   0.0640000
        k(    6) = (   0.0000000   0.2000000   0.6206897), wk =   0.0640000
        k(    7) = (   0.0000000   0.4000000   0.0000000), wk =   0.0320000
        k(    8) = (   0.0000000   0.4000000   0.3103448), wk =   0.0640000
        k(    9) = (   0.0000000   0.4000000   0.6206897), wk =   0.0640000
        k(   10) = (   0.2000000   0.2000000   0.0000000), wk =   0.0160000
        k(   11) = (   0.2000000   0.2000000   0.3103448), wk =   0.0320000
        k(   12) = (   0.2000000   0.2000000   0.6206897), wk =   0.0320000
        k(   13) = (   0.2000000   0.4000000   0.0000000), wk =   0.0320000
        k(   14) = (   0.2000000   0.4000000   0.3103448), wk =   0.0640000
        k(   15) = (   0.2000000   0.4000000   0.6206897), wk =   0.0640000
        k(   16) = (   0.4000000   0.4000000   0.0000000), wk =   0.0160000
        k(   17) = (   0.4000000   0.4000000   0.3103448), wk =   0.0320000
        k(   18) = (   0.4000000   0.4000000   0.6206897), wk =   0.0320000
        k(   19) = (  -0.2000000   0.2000000   0.0000000), wk =   0.0160000
        k(   20) = (  -0.2000000   0.2000000  -0.3103448), wk =   0.0320000
        k(   21) = (  -0.2000000   0.2000000  -0.6206897), wk =   0.0320000
        k(   22) = (  -0.2000000   0.4000000   0.0000000), wk =   0.0320000
        k(   23) = (  -0.2000000   0.4000000  -0.3103448), wk =   0.0640000
        k(   24) = (  -0.2000000   0.4000000  -0.6206897), wk =   0.0640000
        k(   25) = (  -0.4000000   0.4000000   0.0000000), wk =   0.0160000
        k(   26) = (  -0.4000000   0.4000000  -0.3103448), wk =   0.0320000
        k(   27) = (  -0.4000000   0.4000000  -0.6206897), wk =   0.0320000
        k(   28) = (   0.0000000   0.0000000   0.0000000), wk =   0.0080000
        k(   29) = (   0.0000000   0.0000000   0.3103448), wk =   0.0160000
        k(   30) = (   0.0000000   0.0000000   0.6206897), wk =   0.0160000
        k(   31) = (   0.0000000   0.2000000   0.0000000), wk =   0.0320000
        k(   32) = (   0.0000000   0.2000000   0.3103448), wk =   0.0640000
        k(   33) = (   0.0000000   0.2000000   0.6206897), wk =   0.0640000
        k(   34) = (   0.0000000   0.4000000   0.0000000), wk =   0.0320000
        k(   35) = (   0.0000000   0.4000000   0.3103448), wk =   0.0640000
        k(   36) = (   0.0000000   0.4000000   0.6206897), wk =   0.0640000
        k(   37) = (   0.2000000   0.2000000   0.0000000), wk =   0.0160000
        k(   38) = (   0.2000000   0.2000000   0.3103448), wk =   0.0320000
        k(   39) = (   0.2000000   0.2000000   0.6206897), wk =   0.0320000
        k(   40) = (   0.2000000   0.4000000   0.0000000), wk =   0.0320000
        k(   41) = (   0.2000000   0.4000000   0.3103448), wk =   0.0640000
        k(   42) = (   0.2000000   0.4000000   0.6206897), wk =   0.0640000
        k(   43) = (   0.4000000   0.4000000   0.0000000), wk =   0.0160000
        k(   44) = (   0.4000000   0.4000000   0.3103448), wk =   0.0320000
        k(   45) = (   0.4000000   0.4000000   0.6206897), wk =   0.0320000
        k(   46) = (  -0.2000000   0.2000000   0.0000000), wk =   0.0160000
        k(   47) = (  -0.2000000   0.2000000  -0.3103448), wk =   0.0320000
        k(   48) = (  -0.2000000   0.2000000  -0.6206897), wk =   0.0320000
        k(   49) = (  -0.2000000   0.4000000   0.0000000), wk =   0.0320000
        k(   50) = (  -0.2000000   0.4000000  -0.3103448), wk =   0.0640000
        k(   51) = (  -0.2000000   0.4000000  -0.6206897), wk =   0.0640000
        k(   52) = (  -0.4000000   0.4000000   0.0000000), wk =   0.0160000
        k(   53) = (  -0.4000000   0.4000000  -0.3103448), wk =   0.0320000
        k(   54) = (  -0.4000000   0.4000000  -0.6206897), wk =   0.0320000

     Largest allocated arrays     est. size (Mb)     dimensions
     Largest temporary arrays     est. size (Mb)     dimensions

     Check: negative/imaginary core charge=   -0.000053    0.000000

     Initial potential from superposition of free atoms

     starting charge   51.99998, renormalised to   54.00000
     Starting wfc are   42 randomized atomic wfcs

     Self-consistent Calculation

     iteration #  1     ecut=    40.00 Ry     beta=0.70
     Davidson diagonalization with overlap
     ethr =  1.00E-02,  avg # of iterations =  5.0

     total energy              =    -553.22939985 Ry
     Harris-Foulkes estimate   =    -554.20989416 Ry
     estimated scf accuracy    <       3.96843286 Ry

     total magnetization       =     6.00 Bohr mag/cell
     absolute magnetization    =     7.97 Bohr mag/cell

[...]

     End of self-consistent calculation

 ------ SPIN UP ------------

          k = 0.0000 0.0000 0.0000 (  2127 PWs)   bands (ev):

   -75.8710 -75.8707 -44.5208 -44.5188 -44.4857 -44.4857 -44.4657 -44.4656
   -11.6324 -10.4860 -10.3525 -10.3525   0.1807   0.7228   1.5549   1.7727
     1.7727   3.4190   3.4190   3.5676   3.6619   3.7378   3.7378   3.8636
     3.9051   4.9936   5.1655   5.6031   5.6031   5.7340   6.0678   7.8195
     7.8195   8.1632  11.6071  15.8202  15.8203  17.5329  19.2127  19.2625
    20.5058  21.3813  21.3813  22.0546  25.1111  25.4883  27.4143  28.2835
    28.2835  28.4194  28.5311  28.5311  29.5375  29.5376  30.4676  30.5640
    31.0358  31.8181  34.4820  34.4821  34.7276  35.1269  35.1270  37.8493
    37.8722  38.7944  38.7945  40.2383  40.8228  41.1716  41.1716  41.1726
    41.6154  42.6683  42.6683  43.0456  43.8267  46.1506

[...]

          k =-0.2000 0.2000 0.0000 (  2131 PWs)   bands (ev):

[...]

 ------ SPIN DOWN ----------

[...]

     the Fermi energy is     5.9575 ev

!    total energy              =    -554.81414693 Ry
     Harris-Foulkes estimate   =    -554.81414690 Ry
     estimated scf accuracy    <       0.00000002 Ry

     The total energy is the sum of the following terms:

     one-electron contribution =    -325.47272242 Ry
     hartree contribution      =     182.36806090 Ry
     xc contribution           =     -80.20887717 Ry
     ewald contribution        =    -331.49997519 Ry
     smearing contrib. (-TS)   =      -0.00063305 Ry

[...]

     convergence has been achieved in  12 iterations

     Forces acting on atoms (Ry/au):

     atom    1 type  1   force =     0.00000000    0.00000000    0.00000000
     atom    2 type  1   force =     0.00000000    0.00000000    0.00000000
     atom    3 type  2   force =     0.02084322    0.02084322   -0.00000000
     atom    4 type  2   force =    -0.02084322   -0.02084322   -0.00000000
     atom    5 type  2   force =     0.02086446   -0.02086446   -0.00000000
     atom    6 type  2   force =    -0.02086446    0.02086446   -0.00000000

[...]
        k(    6) = (   0.0000313   0.1923883   0.6707753), wk =   0.0640000
        k(    7) = (   0.0000627   0.3847766   0.0000000), wk =   0.0320000
        k(    8) = (   0.0000627   0.3847766   0.3353877), wk =   0.0640000
        k(    9) = (   0.0000627   0.3847766   0.6707753), wk =   0.0640000
        k(   10) = (   0.1924197   0.1924197   0.0000000), wk =   0.0160000
        k(   11) = (   0.1924197   0.1924197   0.3353877), wk =   0.0320000
        k(   12) = (   0.1924197   0.1924197   0.6707753), wk =   0.0320000
        k(   13) = (   0.1924510   0.3848080   0.0000000), wk =   0.0320000
        k(   14) = (   0.1924510   0.3848080   0.3353877), wk =   0.0640000
        k(   15) = (   0.1924510   0.3848080   0.6707753), wk =   0.0640000
        k(   16) = (   0.3848393   0.3848393   0.0000000), wk =   0.0160000
        k(   17) = (   0.3848393   0.3848393   0.3353877), wk =   0.0320000
        k(   18) = (   0.3848393   0.3848393   0.6707753), wk =   0.0320000
        k(   19) = (  -0.1923570   0.1923570   0.0000000), wk =   0.0160000
        k(   20) = (  -0.1923570   0.1923570  -0.3353877), wk =   0.0320000
        k(   21) = (  -0.1923570   0.1923570  -0.6707753), wk =   0.0320000
        k(   22) = (  -0.1923257   0.3847453   0.0000000), wk =   0.0320000
        k(   23) = (  -0.1923257   0.3847453  -0.3353877), wk =   0.0640000
        k(   24) = (  -0.1923257   0.3847453  -0.6707753), wk =   0.0640000
        k(   25) = (  -0.3847140   0.3847140   0.0000000), wk =   0.0160000
        k(   26) = (  -0.3847140   0.3847140  -0.3353877), wk =   0.0320000
        k(   27) = (  -0.3847140   0.3847140  -0.6707753), wk =   0.0320000
        k(   28) = (   0.0000000   0.0000000   0.0000000), wk =   0.0080000
        k(   29) = (   0.0000000   0.0000000   0.3353877), wk =   0.0160000
        k(   30) = (   0.0000000   0.0000000   0.6707753), wk =   0.0160000
        k(   31) = (   0.0000313   0.1923883   0.0000000), wk =   0.0320000
        k(   32) = (   0.0000313   0.1923883   0.3353877), wk =   0.0640000
        k(   33) = (   0.0000313   0.1923883   0.6707753), wk =   0.0640000
        k(   34) = (   0.0000627   0.3847766   0.0000000), wk =   0.0320000
        k(   35) = (   0.0000627   0.3847766   0.3353877), wk =   0.0640000
        k(   36) = (   0.0000627   0.3847766   0.6707753), wk =   0.0640000
        k(   37) = (   0.1924197   0.1924197   0.0000000), wk =   0.0160000
        k(   38) = (   0.1924197   0.1924197   0.3353877), wk =   0.0320000
        k(   39) = (   0.1924197   0.1924197   0.6707753), wk =   0.0320000
        k(   40) = (   0.1924510   0.3848080   0.0000000), wk =   0.0320000
        k(   41) = (   0.1924510   0.3848080   0.3353877), wk =   0.0640000
        k(   42) = (   0.1924510   0.3848080   0.6707753), wk =   0.0640000
        k(   43) = (   0.3848393   0.3848393   0.0000000), wk =   0.0160000
        k(   44) = (   0.3848393   0.3848393   0.3353877), wk =   0.0320000
        k(   45) = (   0.3848393   0.3848393   0.6707753), wk =   0.0320000
        k(   46) = (  -0.1923570   0.1923570   0.0000000), wk =   0.0160000
        k(   47) = (  -0.1923570   0.1923570  -0.3353877), wk =   0.0320000
        k(   48) = (  -0.1923570   0.1923570  -0.6707753), wk =   0.0320000
        k(   49) = (  -0.1923257   0.3847453   0.0000000), wk =   0.0320000
        k(   50) = (  -0.1923257   0.3847453  -0.3353877), wk =   0.0640000
        k(   51) = (  -0.1923257   0.3847453  -0.6707753), wk =   0.0640000
        k(   52) = (  -0.3847140   0.3847140   0.0000000), wk =   0.0160000
        k(   53) = (  -0.3847140   0.3847140  -0.3353877), wk =   0.0320000
        k(   54) = (  -0.3847140   0.3847140  -0.6707753), wk =   0.0320000

[...]

     Threshold (ethr) on eigenvalues was too large:
     Diagonalizing with lowered threshold

     Davidson diagonalization with overlap
     ethr =  8.33E-10,  avg # of iterations =  2.0

[...]

     Total force =     0.000071     Total SCF correction =     0.000096
     SCF correction compared to forces is large: reduce conv_thr to get better values

[...]

     Volume is kept fixed: isostatic pressure set to zero

     bfgs converged in  10 scf cycles and   9 bfgs steps
     (criteria: energy < 0.10E-03, force < 0.10E-02, cell < 0.50E+00)

     End of BFGS Geometry Optimization

     Final enthalpy =    -554.8463717006 Ry
Begin final coordinates
     new unit-cell volume =    502.07609 a.u.^3 (    74.40000 Ang^3 )

CELL_PARAMETERS (alat=  9.20155768)
   1.039564161  -0.000169322   0.000000000
  -0.000169322   1.039564161   0.000000000
   0.000000000   0.000000000   0.596324837

ATOMIC_POSITIONS (crystal)
Mn0      0.000000000   0.000000000   0.000000000    0   0   0
Mn0      0.500000000   0.500000000   0.500000000    0   0   0
O1       0.328005278   0.328005278   0.000000000    1   1   0
O1      -0.328005278  -0.328005278   0.000000000    1   1   0
O1       0.828079530   0.171920470   0.500000000    1   1   0
O1       0.171920470   0.828079530   0.500000000    1   1   0
End final coordinates

     A final scf calculation at the relaxed structure.
     The G-vectors are recalculated for the final unit cell
     Results may differ from those at the preceding step.

     bravais-lattice index     =            0
     lattice parameter (alat)  =       9.2016  a.u.
     unit-cell volume          =     502.0761 (a.u.)^3
     number of atoms/cell      =            6
     number of atomic types    =            2
     number of electrons       =        54.00
     number of Kohn-Sham states=           78
     kinetic-energy cutoff     =      40.0000  Ry
     charge density cutoff     =     500.0000  Ry
     convergence threshold     =      1.0E-08
     mixing beta               =       0.7000
     number of iterations used =            8  plain     mixing
     Exchange-correlation      = SLA  PW   PBE  PBE ( 1 4 3 4 0)
     EXX-fraction              =        0.00

     celldm(1)=   9.201558  celldm(2)=   0.000000  celldm(3)=   0.000000
     celldm(4)=   0.000000  celldm(5)=   0.000000  celldm(6)=   0.000000

     crystal axes: (cart. coord. in units of alat)
               a(1) = (   1.039564  -0.000169   0.000000 )
               a(2) = (  -0.000169   1.039564   0.000000 )
               a(3) = (   0.000000   0.000000   0.596325 )

     reciprocal axes: (cart. coord. in units 2 pi/alat)
               b(1) = (  0.961942  0.000157 -0.000000 )
               b(2) = (  0.000157  0.961942 -0.000000 )
               b(3) = ( -0.000000 -0.000000  1.676938 )

     PseudoPot. # 1 for Mn read from file:
     /home/camp/zhonxu/pseudo/mn_pbe_v1.uspp.F.UPF
     MD5 check sum: 5fd7c7b5c956fd19902447332617373a
     Pseudo is Ultrasoft + core correction, Zval = 15.0
     Generated by new atomic code, or converted to UPF format
     Using radial grid of  859 points,  6 beta functions with:
                l(1) =   0
                l(2) =   0
                l(3) =   1
                l(4) =   1
                l(5) =   2
                l(6) =   2
     Q(r) pseudized with  6 coefficients,  rinner =    1.150   1.150   1.150
                                                       1.150   1.150

     PseudoPot. # 2 for O  read from file:
     /home/camp/zhonxu/pseudo/o_pbe_v1.01.uspp.F.UPF
     MD5 check sum: 2bcb18d16ea4b960afae9ec6d52f22d2
     Pseudo is Ultrasoft + core correction, Zval =  6.0
     Generated by new atomic code, or converted to UPF format
     Using radial grid of  737 points,  5 beta functions with:
                l(1) =   0
                l(2) =   0
                l(3) =   1
                l(4) =   1
                l(5) =   2
     Q(r) pseudized with  8 coefficients,  rinner =    0.900   0.900   0.900
                                                       0.900   0.900

     atomic species   valence    mass     pseudopotential
        Mn0           15.00    54.93800     Mn( 1.00)
        O1             6.00    15.99940     O ( 1.00)

     Starting magnetic structure
     atomic species   magnetization
        Mn0          0.600
        O1           0.000

      8 Sym. Ops., with inversion, found
          (note:  8 additional sym.ops. were found but ignored
           their fractional translations are incommensurate with FFT grid)

   Cartesian axes

     site n.     atom                  positions (alat units)
         1           Mn0 tau(   1) = (   0.0000000   0.0000000   0.0000000  )
         2           Mn0 tau(   2) = (   0.5196974   0.5196974   0.2981624  )
         3           O1  tau(   3) = (   0.3409270   0.3409270   0.0000000  )
         4           O1  tau(   4) = (  -0.3409270  -0.3409270   0.0000000  )
         5           O1  tau(   5) = (   0.8608127   0.1785821   0.2981624  )
         6           O1  tau(   6) = (   0.1785821   0.8608127   0.2981624  )

     number of k points=    54  Methfessel-Paxton smearing, width (Ry)=  0.0100
                       cart. coord. in units 2pi/alat
        k(    1) = (   0.0000000   0.0000000   0.0000000), wk =   0.0080000
        k(    2) = (   0.0000000   0.0000000   0.3353877), wk =   0.0160000
        k(    3) = (   0.0000000   0.0000000   0.6707753), wk =   0.0160000
        k(    4) = (   0.0000313   0.1923883   0.0000000), wk =   0.0320000
        k(    5) = (   0.0000313   0.1923883   0.3353877), wk =   0.0640000
        k(    6) = (   0.0000313   0.1923883   0.6707753), wk =   0.0640000
        k(    7) = (   0.0000627   0.3847766   0.0000000), wk =   0.0320000
        k(    8) = (   0.0000627   0.3847766   0.3353877), wk =   0.0640000
        k(    9) = (   0.0000627   0.3847766   0.6707753), wk =   0.0640000
        k(   10) = (   0.1924197   0.1924197   0.0000000), wk =   0.0160000
        k(   11) = (   0.1924197   0.1924197   0.3353877), wk =   0.0320000
        k(   12) = (   0.1924197   0.1924197   0.6707753), wk =   0.0320000
        k(   13) = (   0.1924510   0.3848080   0.0000000), wk =   0.0320000
        k(   14) = (   0.1924510   0.3848080   0.3353877), wk =   0.0640000
        k(   15) = (   0.1924510   0.3848080   0.6707753), wk =   0.0640000
        k(   16) = (   0.3848393   0.3848393   0.0000000), wk =   0.0160000
        k(   17) = (   0.3848393   0.3848393   0.3353877), wk =   0.0320000
        k(   18) = (   0.3848393   0.3848393   0.6707753), wk =   0.0320000
        k(   19) = (  -0.1923570   0.1923570   0.0000000), wk =   0.0160000
        k(   20) = (  -0.1923570   0.1923570  -0.3353877), wk =   0.0320000
        k(   21) = (  -0.1923570   0.1923570  -0.6707753), wk =   0.0320000
        k(   22) = (  -0.1923257   0.3847453   0.0000000), wk =   0.0320000
        k(   23) = (  -0.1923257   0.3847453  -0.3353877), wk =   0.0640000
        k(   24) = (  -0.1923257   0.3847453  -0.6707753), wk =   0.0640000
        k(   25) = (  -0.3847140   0.3847140   0.0000000), wk =   0.0160000
        k(   26) = (  -0.3847140   0.3847140  -0.3353877), wk =   0.0320000
        k(   27) = (  -0.3847140   0.3847140  -0.6707753), wk =   0.0320000
        k(   28) = (   0.0000000   0.0000000   0.0000000), wk =   0.0080000
        k(   29) = (   0.0000000   0.0000000   0.3353877), wk =   0.0160000
        k(   30) = (   0.0000000   0.0000000   0.6707753), wk =   0.0160000
        k(   31) = (   0.0000313   0.1923883   0.0000000), wk =   0.0320000
        k(   32) = (   0.0000313   0.1923883   0.3353877), wk =   0.0640000
        k(   33) = (   0.0000313   0.1923883   0.6707753), wk =   0.0640000
        k(   34) = (   0.0000627   0.3847766   0.0000000), wk =   0.0320000
        k(   35) = (   0.0000627   0.3847766   0.3353877), wk =   0.0640000
        k(   36) = (   0.0000627   0.3847766   0.6707753), wk =   0.0640000
        k(   37) = (   0.1924197   0.1924197   0.0000000), wk =   0.0160000
        k(   38) = (   0.1924197   0.1924197   0.3353877), wk =   0.0320000
        k(   39) = (   0.1924197   0.1924197   0.6707753), wk =   0.0320000
        k(   40) = (   0.1924510   0.3848080   0.0000000), wk =   0.0320000
        k(   41) = (   0.1924510   0.3848080   0.3353877), wk =   0.0640000
        k(   42) = (   0.1924510   0.3848080   0.6707753), wk =   0.0640000
        k(   43) = (   0.3848393   0.3848393   0.0000000), wk =   0.0160000
        k(   44) = (   0.3848393   0.3848393   0.3353877), wk =   0.0320000
        k(   45) = (   0.3848393   0.3848393   0.6707753), wk =   0.0320000
        k(   46) = (  -0.1923570   0.1923570   0.0000000), wk =   0.0160000
        k(   47) = (  -0.1923570   0.1923570  -0.3353877), wk =   0.0320000
        k(   48) = (  -0.1923570   0.1923570  -0.6707753), wk =   0.0320000
        k(   49) = (  -0.1923257   0.3847453   0.0000000), wk =   0.0320000
        k(   50) = (  -0.1923257   0.3847453  -0.3353877), wk =   0.0640000
        k(   51) = (  -0.1923257   0.3847453  -0.6707753), wk =   0.0640000
        k(   52) = (  -0.3847140   0.3847140   0.0000000), wk =   0.0160000
        k(   53) = (  -0.3847140   0.3847140  -0.3353877), wk =   0.0320000
        k(   54) = (  -0.3847140   0.3847140  -0.6707753), wk =   0.0320000

     Largest allocated arrays     est. size (Mb)     dimensions
     Largest temporary arrays     est. size (Mb)     dimensions

     Check: negative/imaginary core charge=   -0.000052    0.000000

     Initial potential from superposition of free atoms

     starting charge   51.99998, renormalised to   54.00000
     Starting wfc are   42 randomized atomic wfcs

     Self-consistent Calculation

[...]

     total energy              =    -554.84745748 Ry
     Harris-Foulkes estimate   =    -554.84745747 Ry
     estimated scf accuracy    <       0.00000003 Ry

[...]

     iteration # 13     ecut=    40.00 Ry     beta=0.70
     Davidson diagonalization with overlap
     ethr =  6.48E-11,  avg # of iterations =  2.0

     End of self-consistent calculation

 ------ SPIN UP ------------

[...]

 ------ SPIN DOWN ----------

[...]

          k = 0.3848 0.3848 0.6708 (  2123 PWs)   bands (ev):

[...]

          k =-0.3847 0.3847-0.6708 (  2123 PWs)   bands (ev):

   -71.8874 -71.8840 -41.0050 -41.0026 -40.5609 -40.5578 -40.4318 -40.4275
   -11.1430 -11.1104 -10.9395 -10.9354   1.2831   1.3673   1.8182   1.8599
     2.4592   2.4640   3.2950   3.3368   3.9966   4.0132   4.6895   4.8313
     7.5040   7.6002   7.7462   7.7939   8.2301   8.2911   8.6756   8.8044
     9.8919  10.0420  16.6088  16.9793  17.9470  18.3853  19.6235  19.6871
    20.4699  20.6250  21.7258  21.9417  23.4200  24.1418  25.0387  26.0497
    28.0019  28.0895  28.6683  29.4091  31.1174  31.4444  32.6878  33.1537
    34.6442  34.7005  35.9009  36.4344  36.7325  37.2643  38.5275  38.8273
    39.4694  39.8542  40.1133  40.7560  40.8939  41.3237  42.4198  43.1805
    44.0172  44.1384  45.5063  45.8107  46.4481  47.7787

     the Fermi energy is     6.1599 ev

!    total energy              =    -554.84745750 Ry
     Harris-Foulkes estimate   =    -554.84745750 Ry
     estimated scf accuracy    <          4.4E-09 Ry

     The total energy is the sum of the following terms:

     one-electron contribution =    -351.69216161 Ry
     hartree contribution      =     195.45500938 Ry
     xc contribution           =     -80.46797907 Ry
     ewald contribution        =    -318.14216383 Ry
     smearing contrib. (-TS)   =      -0.00016236 Ry

     total magnetization       =     6.00 Bohr mag/cell
     absolute magnetization    =     6.79 Bohr mag/cell

     convergence has been achieved in  13 iterations

     Forces acting on atoms (Ry/au):

     atom    1 type  1   force =     0.00000000    0.00000000    0.00000000
     atom    2 type  1   force =     0.00000000    0.00000000    0.00000000
     atom    3 type  2   force =     0.00013795    0.00013795    0.00000000
     atom    4 type  2   force =    -0.00013795   -0.00013795    0.00000000
     atom    5 type  2   force =     0.00019818   -0.00019818   -0.00000000
     atom    6 type  2   force =    -0.00019818    0.00019818   -0.00000000

     Total force =     0.000483     Total SCF correction =     0.000045

     entering subroutine stress ...

          total   stress  (Ry/bohr**3)                   (kbar)     P= -183.08
  -0.00121983  -0.00000095   0.00000000       -179.44     -0.14      0.00
  -0.00000095  -0.00121983   0.00000000         -0.14   -179.44      0.00
   0.00000000   0.00000000  -0.00129390          0.00      0.00   -190.34

     General routines

     Parallel routines

   This run was terminated on:  21:55: 9  23Jan2014

   JOB DONE.
Running PBS batch system epilogue script
Job id: 251230.audhumbla.fysik.dtu.dk
Username: zhonxu
Groupname: campgst
Jobname: MnO2/coarse-EOS/MnO2-v-1.2
Sessionid: 15645
Queuename: verylong
Accounting:
This job has allocated the following 4 nodes:
q012 q012 q012 q012
Finished epilogue job 251230.audhumbla.fysik.dtu.dk for zhonxu