     Program PWSCF v.5.0.2 (svn rev. 9656) starts on 23May2014 at 23:20:46

     Current dimensions of program PWSCF are:
     Max number of different atomic species (ntypx) = 10
     Max number of k-points (npk) =  40000
     Max angular momentum in pseudopotentials (lmaxx) =  3
     Reading input from pwscf.in
Warning: card &CELL ignored
Warning: card / ignored

     Subspace diagonalization in iterative solution of the eigenvalue problem:
     a serial algorithm will be used

     bravais-lattice index     =            0
     lattice parameter (alat)  =      10.7336  a.u.
     unit-cell volume          =    6184.1966 (a.u.)^3
     number of atoms/cell      =           33
     number of atomic types    =            3
     number of electrons       =       245.00 (up: 134.00, down: 111.00)
     number of Kohn-Sham states=          355
     kinetic-energy cutoff     =      40.0000  Ry
     charge density cutoff     =     500.0000  Ry
     convergence threshold     =      1.0E-06
     mixing beta               =       0.7000
     number of iterations used =            8  plain     mixing
     Exchange-correlation      = SLA  PW   PBE  PBE ( 1 4 3 4 0)
     EXX-fraction              =        0.00
     nstep                     =           50

     celldm(1)=  10.733644  celldm(2)=   0.000000  celldm(3)=   0.000000
     celldm(4)=   0.000000  celldm(5)=   0.000000  celldm(6)=   0.000000

     crystal axes: (cart. coord. in units of alat)
               a(1) = (   1.000000   0.000000   0.000000 )
               a(2) = (   0.000000   1.085558   0.000000 )
               a(3) = (   0.000000   0.000000   4.606685 )

     reciprocal axes: (cart. coord. in units 2 pi/alat)
               b(1) = (  1.000000  0.000000  0.000000 )
               b(2) = (  0.000000  0.921185  0.000000 )
               b(3) = (  0.000000  0.000000  0.217076 )

     PseudoPot. # 1 for O  read from file:
     /home/camp/zhonxu/pseudo/o_pbe_v1.01.uspp.F.UPF
     MD5 check sum: 2bcb18d16ea4b960afae9ec6d52f22d2
     Pseudo is Ultrasoft + core correction, Zval =  6.0
     Generated by new atomic code, or converted to UPF format
     Using radial grid of  737 points,  5 beta functions with:
                l(1) =   0
                l(2) =   0
                l(3) =   1
                l(4) =   1
                l(5) =   2
     Q(r) pseudized with  8 coefficients,  rinner =    0.900   0.900   0.900
                                                       0.900   0.900

     PseudoPot. # 2 for Mn read from file:
     /home/camp/zhonxu/pseudo/mn_pbe_v1.uspp.F.UPF
     MD5 check sum: 5fd7c7b5c956fd19902447332617373a
     Pseudo is Ultrasoft + core correction, Zval = 15.0
     Generated by new atomic code, or converted to UPF format
     Using radial grid of  859 points,  6 beta functions with:
                l(1) =   0
                l(2) =   0
                l(3) =   1
                l(4) =   1
                l(5) =   2
                l(6) =   2
     Q(r) pseudized with  6 coefficients,  rinner =    1.150   1.150   1.150
                                                       1.150   1.150

     PseudoPot. # 3 for H  read from file:
     /home/camp/zhonxu/pseudo/h_pbe_v1.uspp.F.UPF
     MD5 check sum: 3408e3ff4ec8b0a4e358431e7e038a48
     Pseudo is Ultrasoft, Zval =  1.0
     Generated by new atomic code, or converted to UPF format
     Using radial grid of  615 points,  2 beta functions with:
                l(1) =   0
                l(2) =   0
     Q(r) pseudized with  8 coefficients,  rinner =    0.700

     atomic species   valence    mass     pseudopotential
        O0             6.00    15.99940     O ( 1.00)
        Mn1           15.00    54.93800     Mn( 1.00)
        H2             1.00     1.00794     H ( 1.00)

     Starting magnetic structure
     atomic species   magnetization
        O0           0.000
        Mn1          0.600
        H2           0.000

     No symmetry found

   Cartesian axes

     site n.     atom                  positions (alat units)
         1           O0  tau(   1) = (   0.0000000   0.0000000   1.7449202  )
         2           O0  tau(   2) = (   0.0000000   0.5427791   1.8462672  )
         3           Mn1 tau(   3) = (   0.2500000   0.5427791   2.0818531  )
         4           Mn1 tau(   4) = (   0.0000000   0.0000000   2.0726858  )
         5           O0  tau(   5) = (   0.2500000   0.8684466   2.0715341  )
         6           O0  tau(   6) = (   0.2500000   0.2171117   2.0779835  )
         7           O0  tau(   7) = (   0.0000000   0.5427791   2.2945898  )
         8           O0  tau(   8) = (   0.0000000   0.0000000   2.4157917  )
         9           Mn1 tau(   9) = (   0.2500000   0.0000000   2.6427170  )
        10           Mn1 tau(  10) = (   0.0000000   0.5427791   2.6182555  )
        11           O0  tau(  11) = (   0.2500000   0.7598908   2.6495810  )
        12           O0  tau(  12) = (   0.2500000   0.3256675   2.6662572  )
        13           O0  tau(  13) = (   0.0000000   0.0000000   2.8442595  )
        14           O0  tau(  14) = (   0.5000000   0.0000000   1.7458415  )
        15           O0  tau(  15) = (   0.5000000   0.5427791   1.8470043  )
        16           Mn1 tau(  16) = (   0.7500000   0.5427791   2.0818531  )
        17           Mn1 tau(  17) = (   0.5000000   0.0000000   2.0739296  )
        18           O0  tau(  18) = (   0.7500000   0.8684466   2.0713959  )
        19           O0  tau(  19) = (   0.7500000   0.2171117   2.0782138  )
        20           O0  tau(  20) = (   0.5000000   0.5427791   2.2981370  )
        21           O0  tau(  21) = (   0.5000000   0.0000000   2.4156996  )
        22           Mn1 tau(  22) = (   0.7500000   0.0000000   2.6427631  )
        23           Mn1 tau(  23) = (   0.5000000   0.5427791   2.6658426  )
        24           O0  tau(  24) = (   0.7500000   0.7598908   2.6495810  )
        25           O0  tau(  25) = (   0.7500000   0.3256675   2.6663493  )
        26           O0  tau(  26) = (   0.5000000   0.0000000   2.8417719  )
        27           H2  tau(  27) = (   0.0000700   0.7015312   1.7705794  )
        28           H2  tau(  28) = (   0.5000800   0.7016832   1.7715468  )
        29           H2  tau(  29) = (   0.1610600   0.0395903   1.6895478  )
        30           H2  tau(  30) = (   0.6611300   0.0397314   1.6906995  )
        31           O0  tau(  31) = (   0.4998600   0.5821958   2.9857769  )
        32           O0  tau(  32) = (   0.5002900   0.3680151   3.1195089  )
        33           H2  tau(  33) = (   0.4998600   0.4354934   3.2798216  )

     number of k points=    20  Methfessel-Paxton smearing, width (Ry)=  0.0100
                       cart. coord. in units 2pi/alat
        k(    1) = (   0.0000000   0.0000000   0.0000000), wk =   0.0625000
        k(    2) = (   0.0000000   0.2302962   0.0000000), wk =   0.1250000
        k(    3) = (   0.0000000  -0.4605925   0.0000000), wk =   0.0625000
        k(    4) = (   0.2500000   0.0000000   0.0000000), wk =   0.1250000
        k(    5) = (   0.2500000   0.2302962   0.0000000), wk =   0.1250000
        k(    6) = (   0.2500000  -0.4605925   0.0000000), wk =   0.1250000
        k(    7) = (  -0.5000000   0.0000000   0.0000000), wk =   0.0625000
        k(    8) = (  -0.5000000   0.2302962   0.0000000), wk =   0.1250000
        k(    9) = (  -0.5000000  -0.4605925   0.0000000), wk =   0.0625000
        k(   10) = (  -0.2500000   0.2302962   0.0000000), wk =   0.1250000
        k(   11) = (   0.0000000   0.0000000   0.0000000), wk =   0.0625000
        k(   12) = (   0.0000000   0.2302962   0.0000000), wk =   0.1250000
        k(   13) = (   0.0000000  -0.4605925   0.0000000), wk =   0.0625000
        k(   14) = (   0.2500000   0.0000000   0.0000000), wk =   0.1250000
        k(   15) = (   0.2500000   0.2302962   0.0000000), wk =   0.1250000
        k(   16) = (   0.2500000  -0.4605925   0.0000000), wk =   0.1250000
        k(   17) = (  -0.5000000   0.0000000   0.0000000), wk =   0.0625000
        k(   18) = (  -0.5000000   0.2302962   0.0000000), wk =   0.1250000
        k(   19) = (  -0.5000000  -0.4605925   0.0000000), wk =   0.0625000
        k(   20) = (  -0.2500000   0.2302962   0.0000000), wk =   0.1250000

     Largest allocated arrays     est. size (Mb)     dimensions
     Largest temporary arrays     est. size (Mb)     dimensions

     Check: negative/imaginary core charge=   -0.000022    0.000000

     Initial potential from superposition of free atoms
     Check: negative starting charge=(component1):   -0.000647
     Check: negative starting charge=(component2):   -0.000358

     starting charge  236.99986, renormalised to  245.00000

     negative rho (up, down):  0.668E-03 0.370E-03
     Starting wfc are  189 randomized atomic wfcs

     Self-consistent Calculation

     iteration #  1     ecut=    40.00 Ry     beta=0.70
     Davidson diagonalization with overlap
     ethr =  1.00E-02,  avg # of iterations =  5.5

     negative rho (up, down):  0.119E-02 0.954E-03

     total energy              =   -2345.41483914 Ry
     Harris-Foulkes estimate   =   -2352.00177918 Ry
     estimated scf accuracy    <      18.14832916 Ry

     total magnetization       =    23.00 Bohr mag/cell
     absolute magnetization    =    35.36 Bohr mag/cell

[...]

     End of self-consistent calculation

 ------ SPIN UP ------------

          k = 0.0000 0.0000 0.0000 ( 26393 PWs)   bands (ev):

   -83.4959 -83.4860 -83.3455 -83.2144 -83.2023 -83.1991 -82.9932 -82.9827
   -52.3384 -52.2251 -52.1285 -52.1094 -52.1054 -52.1050 -52.0935 -52.0869
   -52.0059 -51.9991 -51.9713 -51.9661 -51.9111 -51.8928 -51.8904 -51.7492
   -51.7462 -51.7322 -51.7242 -51.7087 -51.6954 -51.6208 -51.5749 -51.5547
   -23.9278 -21.5073 -20.7964 -20.7823 -20.4688 -20.0923 -19.7606 -19.6826
   -19.6344 -19.4683 -19.4055 -19.3803 -19.3611 -19.2977 -19.2314 -19.1857
   -18.8025 -18.5499 -18.3752 -17.3871  -9.3729  -9.1535  -9.0631  -9.0201
    -8.8140  -8.5262  -7.9807  -7.9647  -7.9036  -7.8596  -7.7534  -7.7415
    -7.5978  -7.5808  -7.4594  -7.2645  -7.1813  -7.1320  -7.0530  -6.9990
    -6.9582  -6.7719  -6.6472  -6.6062  -6.5529  -6.3055  -6.1752  -6.1438
    -6.0893  -5.9375  -5.5639  -5.4310  -5.4098  -5.2475  -5.0820  -5.0414
    -4.9575  -4.9079  -4.8673  -4.7700  -4.5970  -4.5417  -4.3792  -4.3338
    -4.3049  -4.2607  -4.1613  -4.1437  -4.1022  -4.0200  -3.9412  -3.9276
    -3.8820  -3.8495  -3.7006  -3.5690  -3.4946  -3.4668  -3.4434  -3.3844
    -3.3324  -3.1991  -3.1600  -3.1440  -2.8591  -2.8386  -2.7706  -2.6673
    -2.5357  -2.3190  -2.2194  -2.1519  -2.0871  -1.9941  -1.9801  -1.8472
    -1.7991  -1.6510  -1.4467  -1.3604  -1.3086  -1.2937  -1.0939  -0.9852
    -0.5382  -0.0778   0.1915   0.3609   0.4167   0.5251   0.5296   0.7374
     0.9972   1.0428   1.3434   1.3870   1.7269   1.8367   2.0315   2.9651
     3.4447   3.6472   3.8354   4.3355   4.9283   5.5990   5.9982   6.5832
     6.7342   7.1600   7.2013   7.2497   7.4575   7.5132   7.6179   7.6944
     7.7557   7.7776   7.9404   8.1671   8.2587   8.3386   8.3534   8.5514
     8.6980   8.8965   8.9044   8.9263   9.0311   9.2992   9.5084   9.6753
[...]
     SCF correction compared to forces is large: reduce conv_thr to get better values

     entering subroutine stress ...

     negative rho (up, down):  0.217E-02 0.124E-02
          total   stress  (Ry/bohr**3)                   (kbar)     P=    4.70
   0.00001973  -0.00000508   0.00000517          2.90     -0.75      0.76
  -0.00000508   0.00013670   0.00000372         -0.75     20.11      0.55
   0.00000517   0.00000372  -0.00006063          0.76      0.55     -8.92

     BFGS Geometry Optimization

     number of scf cycles    =   1
     number of bfgs steps    =   0

     energy   new            =   -2354.3067284918 Ry

     new trust radius        =       0.0024503626 bohr
     new conv_thr            =       0.0000010000 Ry

ATOMIC_POSITIONS (crystal)
O0       0.000000000   0.000000000   0.378786375    0   0   1
O0       0.000000000   0.500000000   0.400770940    0   0   1
Mn1      0.250000000   0.500000000   0.451912029    0   0   1
Mn1      0.000000000   0.000000000   0.449925439    0   0   1
O0       0.250000000   0.800000000   0.449686663    0   0   1
O0       0.250000000   0.200000000   0.451092679    0   0   1
O0       0.000000000   0.500000000   0.498094171    0   0   1
O0       0.000000000   0.000000000   0.524414028    0   0   1
Mn1      0.250000000   0.000000000   0.573668792    0   0   1
Mn1      0.000000000   0.500000000   0.568332959    0   0   1
O0       0.250000000   0.700000000   0.575158787    0   0   1
O0       0.250000000   0.300000000   0.578769932    0   0   1
O0       0.000000000   0.000000000   0.617420103    0   0   1
O0       0.500000000   0.000000000   0.378989078    0   0   1
O0       0.500000000   0.500000000   0.400904624    0   0   1
Mn1      0.750000000   0.500000000   0.451911405    0   0   1
Mn1      0.500000000   0.000000000   0.450199804    0   0   1
O0       0.750000000   0.800000000   0.449656619    0   0   1
O0       0.750000000   0.200000000   0.451140480    0   0   1
O0       0.500000000   0.500000000   0.498872052    0   0   1
O0       0.500000000   0.000000000   0.524391249    0   0   1
Mn1      0.750000000   0.000000000   0.573678393    0   0   1
Mn1      0.500000000   0.500000000   0.578697010    0   0   1
O0       0.750000000   0.700000000   0.575158462    0   0   1
O0       0.750000000   0.300000000   0.578789363    0   0   1
O0       0.500000000   0.000000000   0.616875567    0   0   1
H2       0.000069119   0.646278938   0.384345192
H2       0.500080242   0.646452244   0.384546564
H2       0.161088953   0.036466481   0.366781718
H2       0.661137147   0.036580819   0.367023788
O0       0.499860000   0.536239733   0.648152074    0   1   1
O0       0.500290000   0.339028011   0.677209432    0   1   1
H2       0.499860000   0.401378866   0.711964232    0   1   1

     Check: negative starting charge=(component1):   -0.000953
     NEW-OLD atomic charge density approx. for the potential

     Check: negative/imaginary core charge=   -0.000022    0.000000
     Check: negative starting charge=(component1):   -0.000953

[...]

     Threshold (ethr) on eigenvalues was too large:
     Diagonalizing with lowered threshold

     Davidson diagonalization with overlap
     ethr =  8.29E-08,  avg # of iterations =  1.0

[...]

     energy   old            =   -2354.3067284918 Ry
     energy   new            =   -2354.3067480844 Ry

     CASE: energy  _new < energy  _old

     WARNING: bfgs curvature condition failed, Theta= 0.980
     new trust radius        =       0.0026953988 bohr
     new conv_thr            =       0.0000000100 Ry

[...]

     Total force =     0.003844     Total SCF correction =     0.000209

[...]

     Total force =     0.002558     Total SCF correction =     0.000343
     SCF correction compared to forces is large: reduce conv_thr to get better values

[...]

     number of scf cycles    =  15
     number of bfgs steps    =  14

     energy   old            =   -2354.3070368332 Ry
     energy   new            =   -2354.3070545995 Ry

     CASE: energy  _new < energy  _old

     new trust radius        =       0.0177488745 bohr
     new conv_thr            =       0.0000000100 Ry

ATOMIC_POSITIONS (crystal)
O0       0.000000000   0.000000000   0.378963606    0   0   1
O0       0.000000000   0.500000000   0.400350691    0   0   1
Mn1      0.250000000   0.500000000   0.451601598    0   0   1
Mn1      0.000000000   0.000000000   0.450065945    0   0   1
O0       0.250000000   0.800000000   0.449743395    0   0   1
O0       0.250000000   0.200000000   0.451165122    0   0   1
O0       0.000000000   0.500000000   0.497743748    0   0   1
O0       0.000000000   0.000000000   0.524541650    0   0   1
Mn1      0.250000000   0.000000000   0.573794128    0   0   1
Mn1      0.000000000   0.500000000   0.567946111    0   0   1
O0       0.250000000   0.700000000   0.574967997    0   0   1
O0       0.250000000   0.300000000   0.578456836    0   0   1
O0       0.000000000   0.000000000   0.617547838    0   0   1
O0       0.500000000   0.000000000   0.379123591    0   0   1
O0       0.500000000   0.500000000   0.400479958    0   0   1
Mn1      0.750000000   0.500000000   0.451598586    0   0   1
Mn1      0.500000000   0.000000000   0.450308376    0   0   1
O0       0.750000000   0.800000000   0.449713787    0   0   1
O0       0.750000000   0.200000000   0.451226213    0   0   1
O0       0.500000000   0.500000000   0.498603153    0   0   1
O0       0.500000000   0.000000000   0.524522919    0   0   1
Mn1      0.750000000   0.000000000   0.573800252    0   0   1
Mn1      0.500000000   0.500000000   0.578740152    0   0   1
O0       0.750000000   0.700000000   0.574965673    0   0   1
O0       0.750000000   0.300000000   0.578472147    0   0   1
O0       0.500000000   0.000000000   0.617060554    0   0   1
H2       0.000060681   0.646186886   0.383853376
H2       0.500017231   0.646140403   0.383945571
H2       0.161507244   0.036293812   0.367190328
H2       0.661533674   0.036252428   0.367347653
O0       0.499860000   0.538463298   0.648102305    0   1   1
O0       0.500290000   0.345114864   0.678604497    0   1   1
H2       0.499860000   0.413389230   0.712772245    0   1   1

     Check: negative starting charge=(component1):   -0.000948
     NEW-OLD atomic charge density approx. for the potential

     Check: negative/imaginary core charge=   -0.000022    0.000000
     Check: negative starting charge=(component1):   -0.000949

[...]

     Self-consistent Calculation

[...]

     Threshold (ethr) on eigenvalues was too large:
     Diagonalizing with lowered threshold

     Davidson diagonalization with overlap
     ethr =  2.74E-08,  avg # of iterations =  1.1

[...]

     total energy              =   -2354.30706900 Ry
     Harris-Foulkes estimate   =   -2354.30706900 Ry
     estimated scf accuracy    <       0.00000001 Ry

[...]

     iteration # 15     ecut=    40.00 Ry     beta=0.70
     Davidson diagonalization with overlap
     ethr =  4.39E-12,  avg # of iterations =  1.0

     negative rho (up, down):  0.218E-02 0.123E-02

     End of self-consistent calculation

 ------ SPIN UP ------------

[...]

 ------ SPIN DOWN ----------

[...]

          k = 0.2500-0.4606 0.0000 ( 26462 PWs)   bands (ev):

[...]

          k =-0.2500 0.2303 0.0000 ( 26396 PWs)   bands (ev):

   -80.1524 -80.1521 -80.1441 -80.1093 -80.1008 -79.9108 -79.8981 -79.7221
   -49.0705 -49.0307 -49.0108 -49.0021 -49.0003 -48.9728 -48.9253 -48.9134
   -48.8987 -48.8957 -48.8695 -48.8634 -48.8626 -48.8518 -48.7574 -48.7304
   -48.7125 -48.7013 -48.6755 -48.6572 -48.5279 -48.5241 -48.5153 -48.3360
   -23.8398 -21.2530 -20.8241 -20.4498 -20.1967 -19.9974 -19.7098 -19.6101
   -19.5237 -19.4520 -19.3570 -19.2968 -19.2409 -19.1265 -18.9949 -18.9327
   -18.7667 -18.4270 -18.2855 -17.2758  -8.8898  -8.8313  -8.5693  -8.0550
    -7.9695  -7.9116  -7.6286  -7.4968  -7.3736  -7.2848  -7.2211  -7.1457
    -7.0208  -6.9648  -6.7703  -6.6849  -6.6159  -6.5096  -6.4539  -6.3644
    -6.2176  -6.1710  -6.0571  -5.9203  -5.8911  -5.7460  -5.6841  -5.4512
    -5.2655  -5.2299  -5.1345  -5.0185  -4.9526  -4.9090  -4.8454  -4.7781
    -4.7002  -4.5466  -4.4272  -4.3177  -4.1776  -4.1212  -4.0164  -3.8641
    -3.7713  -3.6785  -3.6146  -3.4982  -3.4200  -3.2701  -3.1043  -3.0434
    -2.9997  -2.7821  -2.6156  -2.5197  -2.3577  -2.1319  -1.6430  -0.7192
    -0.6809  -0.5294  -0.4650  -0.4432  -0.4036  -0.3137  -0.2447  -0.1763
    -0.1304  -0.0438   0.0113   0.0471   0.0845   0.0943   0.2795   0.3109
     0.4029   0.5213   0.6567   0.7243   0.8286   0.9128   1.0115   1.1394
     1.3614   1.4495   1.5559   1.9015   1.9154   2.0472   2.1414   2.3529
     2.4537   2.7616   2.8786   2.8858   3.1208   3.2215   3.3069   3.4422
     3.9789   4.0762   4.3346   4.8718   5.4990   5.6614   5.9185   6.0017
     6.1747   6.3136   6.4245   6.5746   6.8610   6.9702   7.1850   7.5094
     7.6410   7.7958   8.0630   8.1456   8.3708   8.4702   8.5615   8.6809
     8.8760   9.0314   9.2459   9.3462   9.4955   9.5891   9.8027   9.8473
     9.9664  10.0682  10.1152  10.2151  10.3339  10.4620  10.5476  10.5996
    10.7805  10.8588  10.9333  11.0507  11.1238  11.3400  11.3708  11.4589
    11.6059  11.6989  11.7775  11.8476  11.8997  12.0362  12.1421  12.2174
    12.2872  12.3586  12.4689  12.5208  12.6139  12.6439  12.7945  12.8821
    12.9087  13.0311  13.0986  13.2127  13.2764  13.3447  13.4719  13.5281
    13.6078  13.6833  13.7045  13.7674  13.9543  14.0119  14.0535  14.1643
    14.2682  14.3180  14.3944  14.4154  14.4510  14.6007  14.6605  14.8045
    14.8430  14.9065  14.9322  15.0332  15.1420  15.2060  15.2671  15.3193
    15.4376  15.5058  15.5671  15.6396  15.6949  15.7547  15.8681  15.8904
    16.0042  16.0799  16.1754  16.2194  16.2637  16.3591  16.4440  16.5035
    16.5577  16.6224  16.6770  16.7741  16.8583  16.9164  16.9995  17.0460
    17.1545  17.1888  17.3095  17.3591  17.4758  17.5548  17.6006  17.6485
    17.6972  17.7655  17.8575  17.8941  17.9834  18.0302  18.1105  18.1491
    18.2428  18.3423  18.4069  18.4332  18.5432  18.6019  18.6680  18.7346
    18.8141  18.8481  18.9166  18.9639  19.0308  19.1035  19.1804  19.2441
    19.4066  19.4714  19.5563  19.6213  19.6663  19.7203  19.8082  19.8840
    19.9492  20.0414  20.0757  20.2244  20.2457  20.3287  20.4322  20.4997
    20.5693  20.6792  20.7403  20.8353  20.9178  20.9642  21.0462  21.1365
    21.1849  21.2424  21.3226  21.3544  21.4619  21.5286  21.5946  21.7049
    21.8001  21.8970  21.9473  22.0192  22.1162  22.2112  22.2384  22.3384
    22.4076  22.4918  22.5712  22.6343  22.7166  22.7469  22.8127  22.8860
    22.9897  23.0482  23.1484

     the spin up/dw Fermi energies are    -1.2292   -1.4958 ev

!    total energy              =   -2354.30706900 Ry
     Harris-Foulkes estimate   =   -2354.30706900 Ry
     estimated scf accuracy    <          3.9E-09 Ry

     The total energy is the sum of the following terms:

     one-electron contribution =  -27293.44115346 Ry
     hartree contribution      =   13671.99759310 Ry
     xc contribution           =    -355.87451909 Ry
     ewald contribution        =   11623.01088439 Ry
     smearing contrib. (-TS)   =       0.00012607 Ry

     total magnetization       =    23.00 Bohr mag/cell
     absolute magnetization    =    23.96 Bohr mag/cell

     convergence has been achieved in  15 iterations

     Forces acting on atoms (Ry/au):

     negative rho (up, down):  0.218E-02 0.123E-02
     atom    1 type  1   force =    -0.00479441   -0.01558671   -0.00036404
     atom    2 type  1   force =     0.00026305    0.01200050    0.00042018
     atom    3 type  2   force =     0.03402118   -0.00380822   -0.00015264
     atom    4 type  2   force =     0.00414318    0.01109437   -0.00022071
     atom    5 type  1   force =     0.00237334    0.00831134    0.00022118
     atom    6 type  1   force =    -0.00424564   -0.01043165    0.00034080
     atom    7 type  1   force =     0.00001431   -0.00183954    0.00003893
     atom    8 type  1   force =    -0.00030356    0.00346446   -0.00029597
     atom    9 type  2   force =     0.00109547   -0.00145347   -0.00024977
     atom   10 type  2   force =    -0.00008707   -0.00280402    0.00037552
     atom   11 type  1   force =    -0.01700034   -0.04782074    0.00001020
     atom   12 type  1   force =    -0.01233532    0.05871881    0.00077819
     atom   13 type  1   force =    -0.00020078   -0.00496963   -0.00041186
     atom   14 type  1   force =    -0.00457363   -0.01561436    0.00004078
     atom   15 type  1   force =     0.00022837    0.01150038   -0.00031275
     atom   16 type  2   force =    -0.03475486   -0.00370041   -0.00015048
     atom   17 type  2   force =     0.00395076    0.01119507    0.00016291
     atom   18 type  1   force =     0.00499407    0.00813309    0.00021132
     atom   19 type  1   force =    -0.00140163   -0.01055617    0.00023278
     atom   20 type  1   force =    -0.00005587   -0.00199000   -0.00090748
     atom   21 type  1   force =    -0.00030567    0.00307854   -0.00018258
     atom   22 type  2   force =    -0.00036999   -0.00134600   -0.00026824
     atom   23 type  2   force =    -0.00007053   -0.00437461    0.00000702
     atom   24 type  1   force =     0.01718644   -0.04780479   -0.00000162
     atom   25 type  1   force =     0.01239184    0.05877086    0.00075881
     atom   26 type  1   force =    -0.00021927   -0.01299183   -0.00015315
     atom   27 type  3   force =    -0.00001522   -0.00009138    0.00057517
     atom   28 type  3   force =     0.00002557    0.00036593    0.00043881
     atom   29 type  3   force =     0.00011223    0.00011866   -0.00001841
     atom   30 type  3   force =    -0.00007339    0.00000848   -0.00017103
     atom   31 type  1   force =    -0.00002428   -0.00039281   -0.00042086
     atom   32 type  1   force =     0.00005062    0.00006353    0.00007322
     atom   33 type  3   force =    -0.00001896    0.00075233   -0.00040420

     Total force =     0.002278     Total SCF correction =     0.000141

     entering subroutine stress ...

     negative rho (up, down):  0.218E-02 0.123E-02
          total   stress  (Ry/bohr**3)                   (kbar)     P=    4.62
   0.00001899  -0.00000505   0.00000488          2.79     -0.74      0.72
  -0.00000505   0.00013673   0.00000238         -0.74     20.11      0.35
   0.00000488   0.00000238  -0.00006154          0.72      0.35     -9.05

     bfgs converged in  16 scf cycles and  15 bfgs steps
     (criteria: energy < 0.10E-03, force < 0.10E-02)

     End of BFGS Geometry Optimization

     Final energy   =   -2354.3070689974 Ry
Begin final coordinates

ATOMIC_POSITIONS (crystal)
O0       0.000000000   0.000000000   0.378963606    0   0   1
O0       0.000000000   0.500000000   0.400350691    0   0   1
Mn1      0.250000000   0.500000000   0.451601598    0   0   1
Mn1      0.000000000   0.000000000   0.450065945    0   0   1
O0       0.250000000   0.800000000   0.449743395    0   0   1
O0       0.250000000   0.200000000   0.451165122    0   0   1
O0       0.000000000   0.500000000   0.497743748    0   0   1
O0       0.000000000   0.000000000   0.524541650    0   0   1
Mn1      0.250000000   0.000000000   0.573794128    0   0   1
Mn1      0.000000000   0.500000000   0.567946111    0   0   1
O0       0.250000000   0.700000000   0.574967997    0   0   1
O0       0.250000000   0.300000000   0.578456836    0   0   1
O0       0.000000000   0.000000000   0.617547838    0   0   1
O0       0.500000000   0.000000000   0.379123591    0   0   1
O0       0.500000000   0.500000000   0.400479958    0   0   1
Mn1      0.750000000   0.500000000   0.451598586    0   0   1
Mn1      0.500000000   0.000000000   0.450308376    0   0   1
O0       0.750000000   0.800000000   0.449713787    0   0   1
O0       0.750000000   0.200000000   0.451226213    0   0   1
O0       0.500000000   0.500000000   0.498603153    0   0   1
O0       0.500000000   0.000000000   0.524522919    0   0   1
Mn1      0.750000000   0.000000000   0.573800252    0   0   1
Mn1      0.500000000   0.500000000   0.578740152    0   0   1
O0       0.750000000   0.700000000   0.574965673    0   0   1
O0       0.750000000   0.300000000   0.578472147    0   0   1
O0       0.500000000   0.000000000   0.617060554    0   0   1
H2       0.000060681   0.646186886   0.383853376
H2       0.500017231   0.646140403   0.383945571
H2       0.161507244   0.036293812   0.367190328
H2       0.661533674   0.036252428   0.367347653
O0       0.499860000   0.538463298   0.648102305    0   1   1
O0       0.500290000   0.345114864   0.678604497    0   1   1
H2       0.499860000   0.413389230   0.712772245    0   1   1
End final coordinates

     General routines

     Parallel routines

   This run was terminated on:  21:13: 2  24May2014

   JOB DONE.