     Program PWSCF v.5.0.2 (svn rev. 9656) starts on  1May2014 at  6:38:15

     Current dimensions of program PWSCF are:
     Max number of different atomic species (ntypx) = 10
     Max number of k-points (npk) =  40000
     Max angular momentum in pseudopotentials (lmaxx) =  3
     Reading input from pwscf.in
Warning: card &CELL ignored
Warning: card / ignored

     Subspace diagonalization in iterative solution of the eigenvalue problem:
     a serial algorithm will be used

     bravais-lattice index     =            0
     lattice parameter (alat)  =      10.1289  a.u.
     unit-cell volume          =    6836.7721 (a.u.)^3
     number of atoms/cell      =           31
     number of atomic types    =            3
     number of electrons       =       238.00
     number of Kohn-Sham states=          357
     kinetic-energy cutoff     =      40.0000  Ry
     charge density cutoff     =     500.0000  Ry
     convergence threshold     =      1.0E-06
     mixing beta               =       0.7000
     number of iterations used =            8  plain     mixing
     Exchange-correlation      = SLA  PW   PBE  PBE ( 1 4 3 4 0)
     EXX-fraction              =        0.00
     nstep                     =           50

     celldm(1)=  10.128932  celldm(2)=   0.000000  celldm(3)=   0.000000
     celldm(4)=   0.000000  celldm(5)=   0.000000  celldm(6)=   0.000000

     crystal axes: (cart. coord. in units of alat)
               a(1) = (   1.000000   0.000000   0.000000 )
               a(2) = (   0.000000   1.306037   0.000000 )
               a(3) = (   0.000000   0.000000   5.037380 )

     reciprocal axes: (cart. coord. in units 2 pi/alat)
               b(1) = (  1.000000  0.000000  0.000000 )
               b(2) = (  0.000000  0.765675  0.000000 )
               b(3) = (  0.000000  0.000000  0.198516 )

     PseudoPot. # 1 for O  read from file:
     /home/camp/zhonxu/pseudo/o_pbe_v1.01.uspp.F.UPF
     MD5 check sum: 2bcb18d16ea4b960afae9ec6d52f22d2
     Pseudo is Ultrasoft + core correction, Zval =  6.0
     Generated by new atomic code, or converted to UPF format
     Using radial grid of  737 points,  5 beta functions with:
                l(1) =   0
                l(2) =   0
                l(3) =   1
                l(4) =   1
                l(5) =   2
     Q(r) pseudized with  8 coefficients,  rinner =    0.900   0.900   0.900
                                                       0.900   0.900

     PseudoPot. # 2 for Re read from file:
     /home/camp/zhonxu/pseudo/re_pbe_v1.uspp.F.UPF
     MD5 check sum: 6f5a5dcaf9c96c20d0ffdde0de57afc6
     Pseudo is Ultrasoft + core correction, Zval = 15.0
     Generated by new atomic code, or converted to UPF format
     Using radial grid of  981 points,  8 beta functions with:
                l(1) =   0
                l(2) =   0
                l(3) =   1
                l(4) =   1
                l(5) =   2
                l(6) =   2
                l(7) =   3
                l(8) =   3
     Q(r) pseudized with  8 coefficients,  rinner =    1.000   1.000   1.000
                                                       1.000   1.000   1.000
                                                       1.000

     PseudoPot. # 3 for H  read from file:
     /home/camp/zhonxu/pseudo/h_pbe_v1.uspp.F.UPF
     MD5 check sum: 3408e3ff4ec8b0a4e358431e7e038a48
     Pseudo is Ultrasoft, Zval =  1.0
     Generated by new atomic code, or converted to UPF format
     Using radial grid of  615 points,  2 beta functions with:
                l(1) =   0
                l(2) =   0
     Q(r) pseudized with  8 coefficients,  rinner =    0.700

     atomic species   valence    mass     pseudopotential
        O0             6.00    15.99940     O ( 1.00)
        Re1           15.00   186.20700     Re( 1.00)
        H2             1.00     1.00794     H ( 1.00)

     Simplified LDA+U calculation (l_max = 2) with parameters (eV):
     atomic species    L          U    alpha       J0     beta
        Re1            2     6.0000   0.0000   0.0000   0.0000

     No symmetry found

   Cartesian axes

     site n.     atom                  positions (alat units)
         1           O0  tau(   1) = (   0.0000000   0.0000000   1.8646870  )
         2           O0  tau(   2) = (   0.0000000   0.6530184   1.9287121  )
         3           Re1 tau(   3) = (   0.2500000   0.6530184   2.2295948  )
         4           Re1 tau(   4) = (   0.0000000   0.0000000   2.2312068  )
         5           O0  tau(   5) = (   0.2500000   1.0187087   2.2244063  )
         6           O0  tau(   6) = (   0.2500000   0.2873281   2.2234996  )
         7           O0  tau(   7) = (   0.0000000   0.6530184   2.5067011  )
         8           O0  tau(   8) = (   0.0000000   0.0000000   2.5914802  )
         9           Re1 tau(   9) = (   0.2500000   0.0000000   2.8910532  )
        10           Re1 tau(  10) = (   0.0000000   0.6530184   2.8571012  )
        11           O0  tau(  11) = (   0.2500000   0.9403465   2.8803235  )
        12           O0  tau(  12) = (   0.2500000   0.3656903   2.8804747  )
        13           O0  tau(  13) = (   0.0000000   0.0000000   3.1540044  )
        14           O0  tau(  14) = (   0.5000000   0.0000000   1.8645359  )
        15           O0  tau(  15) = (   0.5000000   0.6530184   1.9300722  )
        16           Re1 tau(  16) = (   0.7500000   0.6530184   2.2295444  )
        17           Re1 tau(  17) = (   0.5000000   0.0000000   2.2295948  )
        18           O0  tau(  18) = (   0.7500000   1.0187087   2.2239529  )
        19           O0  tau(  19) = (   0.7500000   0.2873281   2.2238522  )
        20           O0  tau(  20) = (   0.5000000   0.6530184   2.5186397  )
        21           O0  tau(  21) = (   0.5000000   0.0000000   2.5912283  )
        22           Re1 tau(  22) = (   0.7500000   0.0000000   2.8912547  )
        23           Re1 tau(  23) = (   0.5000000   0.6530184   2.9058631  )
        24           O0  tau(  24) = (   0.7500000   0.9403465   2.8806762  )
        25           O0  tau(  25) = (   0.7500000   0.3656903   2.8804243  )
        26           O0  tau(  26) = (   0.5000000   0.0000000   3.1508309  )
        27           H2  tau(  27) = (  -0.0003300   0.8166387   1.8441345  )
        28           H2  tau(  28) = (   0.4996000   0.8128642   1.8387445  )
        29           H2  tau(  29) = (   0.1687200   0.0311098   1.7921991  )
        30           H2  tau(  30) = (   0.6701100   0.0285761   1.7932066  )
        31           O0  tau(  31) = (   0.4998900   0.6523393   3.2273487  )

     number of k points=    10  Methfessel-Paxton smearing, width (Ry)=  0.0100
                       cart. coord. in units 2pi/alat
        k(    1) = (   0.0000000   0.0000000   0.0000000), wk =   0.1250000
        k(    2) = (   0.0000000   0.1914188   0.0000000), wk =   0.2500000
        k(    3) = (   0.0000000  -0.3828376   0.0000000), wk =   0.1250000
        k(    4) = (   0.2500000   0.0000000   0.0000000), wk =   0.2500000
        k(    5) = (   0.2500000   0.1914188   0.0000000), wk =   0.2500000
        k(    6) = (   0.2500000  -0.3828376   0.0000000), wk =   0.2500000
        k(    7) = (  -0.5000000   0.0000000   0.0000000), wk =   0.1250000
        k(    8) = (  -0.5000000   0.1914188   0.0000000), wk =   0.2500000
        k(    9) = (  -0.5000000  -0.3828376   0.0000000), wk =   0.1250000
        k(   10) = (  -0.2500000   0.1914188   0.0000000), wk =   0.2500000

     Largest allocated arrays     est. size (Mb)     dimensions
     Largest temporary arrays     est. size (Mb)     dimensions

     Check: negative/imaginary core charge=   -0.000003    0.000000

     Initial potential from superposition of free atoms
     Check: negative starting charge=   -0.237495

     starting charge  233.99958, renormalised to  238.00000

     negative rho (up, down):  0.242E+00 0.000E+00
     Number of +U iterations with fixed ns =  0
     Starting occupations:
 --- enter write_ns ---
 LDA+U parameters:
U( 2)     =  6.00000000
alpha( 2) =  0.00000000
atom    3   Tr[ns(na)] =   5.00000
    eigenvalues:
  0.500  0.500  0.500  0.500  0.500
    eigenvectors:
  1.000  0.000  0.000  0.000  0.000
  0.000  1.000  0.000  0.000  0.000
  0.000  0.000  1.000  0.000  0.000
  0.000  0.000  0.000  1.000  0.000
  0.000  0.000  0.000  0.000  1.000
    occupations:
  0.500  0.000  0.000  0.000  0.000
  0.000  0.500  0.000  0.000  0.000
  0.000  0.000  0.500  0.000  0.000
  0.000  0.000  0.000  0.500  0.000
  0.000  0.000  0.000  0.000  0.500
atom    4   Tr[ns(na)] =   5.00000
    eigenvalues:
  0.500  0.500  0.500  0.500  0.500
    eigenvectors:
  1.000  0.000  0.000  0.000  0.000
  0.000  1.000  0.000  0.000  0.000
  0.000  0.000  1.000  0.000  0.000
  0.000  0.000  0.000  1.000  0.000
  0.000  0.000  0.000  0.000  1.000
    occupations:
  0.500  0.000  0.000  0.000  0.000
  0.000  0.500  0.000  0.000  0.000
  0.000  0.000  0.500  0.000  0.000
  0.000  0.000  0.000  0.500  0.000
  0.000  0.000  0.000  0.000  0.500
atom    9   Tr[ns(na)] =   5.00000
    eigenvalues:
  0.500  0.500  0.500  0.500  0.500
    eigenvectors:
  1.000  0.000  0.000  0.000  0.000
  0.000  1.000  0.000  0.000  0.000
  0.000  0.000  1.000  0.000  0.000
  0.000  0.000  0.000  1.000  0.000
  0.000  0.000  0.000  0.000  1.000
    occupations:
  0.500  0.000  0.000  0.000  0.000
  0.000  0.500  0.000  0.000  0.000
  0.000  0.000  0.500  0.000  0.000
  0.000  0.000  0.000  0.500  0.000
  0.000  0.000  0.000  0.000  0.500
atom   10   Tr[ns(na)] =   5.00000
    eigenvalues:
  0.500  0.500  0.500  0.500  0.500
    eigenvectors:
  1.000  0.000  0.000  0.000  0.000
  0.000  1.000  0.000  0.000  0.000
  0.000  0.000  1.000  0.000  0.000
  0.000  0.000  0.000  1.000  0.000
  0.000  0.000  0.000  0.000  1.000
    occupations:
  0.500  0.000  0.000  0.000  0.000
  0.000  0.500  0.000  0.000  0.000
  0.000  0.000  0.500  0.000  0.000
  0.000  0.000  0.000  0.500  0.000
  0.000  0.000  0.000  0.000  0.500
atom   16   Tr[ns(na)] =   5.00000
    eigenvalues:
  0.500  0.500  0.500  0.500  0.500
    eigenvectors:
  1.000  0.000  0.000  0.000  0.000
  0.000  1.000  0.000  0.000  0.000
  0.000  0.000  1.000  0.000  0.000
  0.000  0.000  0.000  1.000  0.000
  0.000  0.000  0.000  0.000  1.000
    occupations:
  0.500  0.000  0.000  0.000  0.000
  0.000  0.500  0.000  0.000  0.000
  0.000  0.000  0.500  0.000  0.000
  0.000  0.000  0.000  0.500  0.000
  0.000  0.000  0.000  0.000  0.500
atom   17   Tr[ns(na)] =   5.00000
    eigenvalues:
  0.500  0.500  0.500  0.500  0.500
    eigenvectors:
  1.000  0.000  0.000  0.000  0.000
  0.000  1.000  0.000  0.000  0.000
  0.000  0.000  1.000  0.000  0.000
  0.000  0.000  0.000  1.000  0.000
  0.000  0.000  0.000  0.000  1.000
    occupations:
  0.500  0.000  0.000  0.000  0.000
  0.000  0.500  0.000  0.000  0.000
  0.000  0.000  0.500  0.000  0.000
  0.000  0.000  0.000  0.500  0.000
  0.000  0.000  0.000  0.000  0.500
atom   22   Tr[ns(na)] =   5.00000
    eigenvalues:
  0.500  0.500  0.500  0.500  0.500
    eigenvectors:
  1.000  0.000  0.000  0.000  0.000
  0.000  1.000  0.000  0.000  0.000
  0.000  0.000  1.000  0.000  0.000
  0.000  0.000  0.000  1.000  0.000
[...]
  0.998  0.000  0.000  0.000  0.002
  0.000  0.848  0.000  0.152  0.000
  0.002  0.000  0.000  0.001  0.998
    occupations:
  0.688  0.001 -0.001 -0.040  0.002
  0.001  0.621  0.000 -0.001  0.000
 -0.001  0.000  0.573  0.001 -0.010
 -0.040 -0.001  0.001  0.610 -0.001
  0.002  0.000 -0.010 -0.001  0.806
atom   10   Tr[ns(na)] =   6.58743
    eigenvalues:
  0.443  0.541  0.688  0.712  0.909
    eigenvectors:
  1.000  0.000  0.000  0.000  0.000
  0.000  0.000  0.000  0.000  1.000
  0.000  0.000  0.998  0.002  0.000
  0.000  0.000  0.002  0.998  0.000
  0.000  1.000  0.000  0.000  0.000
    occupations:
  0.443 -0.000 -0.000  0.006 -0.000
 -0.000  0.909  0.001  0.002  0.000
 -0.000  0.001  0.688  0.001 -0.003
  0.006  0.002  0.001  0.712  0.000
 -0.000  0.000 -0.003  0.000  0.541
atom   16   Tr[ns(na)] =   6.59932
    eigenvalues:
  0.530  0.535  0.571  0.782  0.881
    eigenvectors:
  0.010  0.009  0.282  0.699  0.000
  0.030  0.950  0.019  0.000  0.001
  0.950  0.025  0.006  0.007  0.012
  0.000  0.014  0.693  0.293  0.000
  0.011  0.002  0.000  0.000  0.987
    occupations:
  0.718 -0.003  0.019 -0.096 -0.003
 -0.003  0.536 -0.002 -0.004 -0.009
  0.019 -0.002  0.537 -0.009  0.039
 -0.096 -0.004 -0.009  0.632  0.001
 -0.003 -0.009  0.039  0.001  0.877
atom   17   Tr[ns(na)] =   6.60615
    eigenvalues:
  0.572  0.573  0.615  0.745  0.797
    eigenvectors:
  0.000  0.000  0.992  0.000  0.007
  0.004  0.001  0.000  0.995  0.000
  0.932  0.063  0.000  0.005  0.000
  0.000  0.000  0.007  0.000  0.993
  0.063  0.936  0.000  0.000  0.000
    occupations:
  0.616  0.003  0.001 -0.015  0.001
  0.003  0.744  0.012 -0.001 -0.001
  0.001  0.012  0.573  0.001 -0.000
 -0.015 -0.001  0.001  0.796 -0.000
  0.001 -0.001 -0.000 -0.000  0.573
atom   22   Tr[ns(na)] =   6.62857
    eigenvalues:
  0.535  0.585  0.588  0.798  0.808
    eigenvectors:
  0.000  0.229  0.011  0.704  0.056
  0.000  0.042  0.958  0.000  0.000
  0.997  0.000  0.000  0.000  0.003
  0.000  0.729  0.031  0.222  0.018
  0.003  0.000  0.000  0.073  0.923
    occupations:
  0.748 -0.001  0.000 -0.091  0.002
 -0.001  0.588  0.000  0.001  0.000
  0.000  0.000  0.536 -0.000  0.016
 -0.091  0.001 -0.000  0.637 -0.001
  0.002  0.000  0.016 -0.001  0.806
atom   23   Tr[ns(na)] =   6.61910
    eigenvalues:
  0.589  0.594  0.605  0.668  0.854
    eigenvectors:
  0.000  0.000  0.000  0.985  0.015
  0.000  0.998  0.002  0.000  0.000
  0.001  0.002  0.997  0.000  0.000
  0.000  0.000  0.000  0.015  0.985
  0.999  0.000  0.001  0.000  0.000
    occupations:
  0.671 -0.001 -0.000 -0.023 -0.000
 -0.001  0.594  0.000 -0.001 -0.000
 -0.000  0.000  0.605  0.001  0.000
 -0.023 -0.001  0.001  0.851  0.000
 -0.000 -0.000  0.000  0.000  0.589
N of occupied +U levels =  52.8342246
 --- exit write_ns ---

     Threshold (ethr) on eigenvalues was too large:
     Diagonalizing with lowered threshold

     Davidson diagonalization with overlap
     ethr =  2.73E-09,  avg # of iterations =  2.5

[...]

     total energy              =   -2171.55531033 Ry
     Harris-Foulkes estimate   =   -2171.55531033 Ry
     estimated scf accuracy    <       0.00000003 Ry

     iteration # 14     ecut=    40.00 Ry     beta=0.70
     Davidson diagonalization with overlap
     ethr =  1.04E-11,  avg # of iterations =  1.0

     negative rho (up, down):  0.239E+00 0.000E+00

     End of self-consistent calculation
 --- enter write_ns ---
 LDA+U parameters:
U( 2)     =  6.00000000
alpha( 2) =  0.00000000
atom    3   Tr[ns(na)] =   6.58322
    eigenvalues:
  0.505  0.537  0.574  0.788  0.887
    eigenvectors:
  0.010  0.005  0.282  0.703  0.000
  0.000  0.985  0.014  0.000  0.001
  0.984  0.000  0.002  0.008  0.006
  0.000  0.010  0.702  0.288  0.000
  0.006  0.001  0.000  0.000  0.994
    occupations:
  0.724  0.003  0.023 -0.097  0.002
  0.003  0.538  0.001  0.003 -0.010
  0.023  0.001  0.509 -0.011 -0.028
 -0.097  0.003 -0.011  0.635 -0.001
  0.002 -0.010 -0.028 -0.001  0.885
atom    4   Tr[ns(na)] =   6.61494
    eigenvalues:
  0.571  0.580  0.612  0.752  0.792
    eigenvectors:
  0.000  0.000  0.992  0.000  0.007
  0.000  0.007  0.000  0.990  0.002
  0.001  0.992  0.000  0.007  0.000
  0.000  0.000  0.007  0.002  0.991
  0.999  0.001  0.001  0.000  0.000
    occupations:
  0.614  0.003  0.000 -0.015  0.001
  0.003  0.750  0.015 -0.001 -0.001
  0.000  0.015  0.581  0.000 -0.000
 -0.015 -0.001  0.000  0.791 -0.000
  0.001 -0.001 -0.000 -0.000  0.571
atom    9   Tr[ns(na)] =   6.59505
    eigenvalues:
  0.572  0.593  0.621  0.705  0.806
    eigenvectors:
  0.000  0.152  0.000  0.847  0.000
  0.000  0.000  1.000  0.000  0.000
  0.998  0.000  0.000  0.000  0.002
  0.000  0.848  0.000  0.152  0.000
  0.002  0.000  0.000  0.001  0.998
    occupations:
  0.688  0.001 -0.001 -0.040  0.002
  0.001  0.621  0.000 -0.001  0.000
 -0.001  0.000  0.573  0.001 -0.010
 -0.040 -0.001  0.001  0.610 -0.001
  0.002  0.000 -0.010 -0.001  0.806
atom   10   Tr[ns(na)] =   6.58656
    eigenvalues:
  0.443  0.541  0.687  0.712  0.909
    eigenvectors:
  1.000  0.000  0.000  0.000  0.000
  0.000  0.000  0.000  0.000  1.000
  0.000  0.000  0.998  0.002  0.000
  0.000  0.000  0.002  0.998  0.000
  0.000  1.000  0.000  0.000  0.000
    occupations:
  0.443 -0.000 -0.000  0.006 -0.000
 -0.000  0.909  0.001  0.002  0.000
 -0.000  0.001  0.687  0.001 -0.003
  0.006  0.002  0.001  0.712  0.000
 -0.000  0.000 -0.003  0.000  0.541
atom   16   Tr[ns(na)] =   6.60026
    eigenvalues:
  0.531  0.535  0.571  0.782  0.882
    eigenvectors:
  0.010  0.009  0.282  0.699  0.000
  0.034  0.946  0.019  0.000  0.001
  0.945  0.029  0.006  0.007  0.012
  0.000  0.014  0.693  0.294  0.000
  0.011  0.002  0.000  0.000  0.987
    occupations:
  0.718 -0.003  0.019 -0.096 -0.003
 -0.003  0.536 -0.002 -0.004 -0.009
  0.019 -0.002  0.537 -0.009  0.039
 -0.096 -0.004 -0.009  0.632  0.001
 -0.003 -0.009  0.039  0.001  0.877
atom   17   Tr[ns(na)] =   6.60627
    eigenvalues:
  0.572  0.573  0.615  0.745  0.797
    eigenvectors:
  0.000  0.000  0.992  0.000  0.007
  0.004  0.001  0.000  0.995  0.000
  0.920  0.075  0.000  0.005  0.000
  0.000  0.000  0.007  0.000  0.993
  0.076  0.924  0.000  0.000  0.000
    occupations:
  0.616  0.003  0.001 -0.015  0.001
  0.003  0.744  0.012 -0.001 -0.001
  0.001  0.012  0.573  0.001 -0.000
 -0.015 -0.001  0.001  0.796 -0.000
  0.001 -0.001 -0.000 -0.000  0.573
atom   22   Tr[ns(na)] =   6.62895
    eigenvalues:
  0.535  0.585  0.588  0.798  0.808
    eigenvectors:
  0.000  0.229  0.011  0.704  0.056
  0.000  0.041  0.959  0.000  0.000
  0.997  0.000  0.000  0.000  0.003
  0.000  0.730  0.030  0.222  0.018
  0.003  0.000  0.000  0.073  0.923
    occupations:
  0.748 -0.001  0.000 -0.091  0.002
 -0.001  0.588  0.000  0.001  0.000
  0.000  0.000  0.536 -0.000  0.016
 -0.091  0.001 -0.000  0.637 -0.001
  0.002  0.000  0.016 -0.001  0.806
atom   23   Tr[ns(na)] =   6.61904
    eigenvalues:
  0.589  0.594  0.605  0.668  0.854
    eigenvectors:
  0.000  0.000  0.000  0.985  0.015
  0.000  0.998  0.002  0.000  0.000
  0.001  0.002  0.997  0.000  0.000
  0.000  0.000  0.000  0.015  0.985
  0.999  0.000  0.001  0.000  0.000
    occupations:
  0.671 -0.001 -0.000 -0.023 -0.000
 -0.001  0.594  0.000 -0.001 -0.000
 -0.000  0.000  0.605  0.001  0.000
 -0.023 -0.001  0.001  0.851  0.000
 -0.000 -0.000  0.000  0.000  0.589
N of occupied +U levels =  52.8342885
 --- exit write_ns ---

[...]

          k = 0.2500-0.3828 0.0000 ( 29202 PWs)   bands (ev):

[...]

          k =-0.2500 0.1914 0.0000 ( 29229 PWs)   bands (ev):

   -81.7880 -81.1069 -81.0227 -80.9301 -80.6359 -80.5707 -80.5435 -80.2589
   -44.1028 -43.6322 -43.4601 -43.1379 -43.1093 -43.0773 -43.0009 -42.9547
   -42.9430 -42.9106 -42.8745 -42.8380 -42.7265 -42.6199 -42.5740 -42.5617
   -42.5092 -42.5020 -42.4601 -42.3179 -42.1740 -42.1402 -42.0820 -41.8955
   -21.0150 -20.6007 -20.5738 -20.4000 -20.2701 -20.1349 -20.0604 -20.0282
   -19.9642 -19.7588 -19.7480 -19.5481 -19.4964 -19.3308 -19.2416 -19.2371
   -18.6582 -18.6122 -18.4034  -9.3994  -9.2995  -9.2037  -9.1316  -9.0876
    -8.8790  -8.6583  -8.5778  -8.3712  -8.2723  -8.1509  -8.0770  -7.9207
    -7.6339  -7.4964  -7.4102  -7.1636  -7.0395  -6.9579  -6.8939  -6.7575
    -6.5923  -6.4840  -6.3299  -6.0836  -6.0611  -5.9072  -5.8047  -5.7189
    -5.6210  -5.5440  -5.4067  -5.2625  -5.2073  -5.0942  -5.0446  -4.9568
    -4.8806  -4.8211  -4.7636  -4.4767  -4.4499  -4.2977  -4.2211  -4.1223
    -4.0421  -3.9851  -3.8812  -3.7946  -3.6435  -3.5754  -3.5324  -3.3915
    -3.2217  -3.0859  -3.0011  -2.9191  -2.6539  -2.5803  -2.3645  -1.7217
    -1.4303  -1.3705  -1.2155  -0.5310  -0.3836  -0.2792   0.0788   0.2820
     0.4415   0.6055   0.6705   1.0056   1.0705   1.1890   1.3091   1.3479
     1.4880   1.5473   1.6099   2.1103   2.3993   3.3959   3.4999   3.5830
     3.7560   3.9582   4.0781   4.3221   4.4305   4.5056   4.6557   4.8027
     4.8980   5.2322   5.4932   5.6664   5.8167   5.9507   6.0660   6.2407
     6.3401   6.5027   6.7290   6.8443   7.1486   7.2831   7.4141   7.5420
     7.5992   7.8604   8.0185   8.1372   8.2822   8.3932   8.5317   8.6198
     8.6632   8.7210   8.9332   9.0937   9.1755   9.3909   9.4721   9.6172
     9.6964   9.8047   9.8903   9.9355   9.9660  10.0230  10.0792  10.2519
    10.2888  10.3706  10.4462  10.5368  10.6135  10.7113  10.8293  10.8855
    11.0530  11.0987  11.2302  11.3824  11.4957  11.5889  11.6130  11.8176
    11.8756  11.9250  12.1452  12.3000  12.3951  12.5007  12.5676  12.6317
    12.7123  12.7684  12.8428  12.9465  12.9705  13.0280  13.1779  13.2954
    13.3381  13.4906  13.5623  13.6398  13.7126  13.7549  13.7930  13.8797
    13.9356  13.9980  14.0745  14.1544  14.2076  14.2449  14.3006  14.4503
    14.5024  14.5435  14.6532  14.6787  14.7499  14.8423  14.8730  14.9188
    14.9860  15.0223  15.0984  15.1665  15.1910  15.2861  15.3202  15.4627
    15.5736  15.5935  15.6858  15.8098  15.9087  16.0670  16.1048  16.1665
    16.2315  16.3311  16.3615  16.4611  16.5525  16.5776  16.6225  16.7127
    16.7347  16.8795  16.9797  17.0858  17.1392  17.2067  17.2805  17.3774
    17.4585  17.5204  17.6006  17.7627  17.8036  17.8152  17.9342  17.9884
    18.0360  18.0978  18.1302  18.2558  18.2775  18.3496  18.4255  18.4690
    18.5393  18.6292  18.6671  18.7834  18.8097  18.9115  18.9831  19.0517
    19.0816  19.2432  19.3513  19.3893  19.5296  19.5918  19.6268  19.7229
    19.7866  19.9678  20.0240  20.0718  20.1581  20.2268  20.2991  20.4299
    20.5122  20.5175  20.5826  20.6320  20.7237  20.7837  20.8536  20.9006
    20.9356  21.0219  21.0866  21.1459  21.2058  21.2622  21.3322  21.3949
    21.4617  21.4829  21.5400  21.6456  21.6763  21.7355  21.8249  21.9151
    21.9865  22.0874  22.1116  22.1605  22.2436  22.2775  22.3526  22.4100
    22.4364  22.4964  22.5546  22.5608  22.6538  22.6910  22.7557  22.7902
    22.8232  22.8851  22.9722  23.0164  23.0442

     the Fermi energy is     0.1040 ev

!    total energy              =   -2171.55531032 Ry
     Harris-Foulkes estimate   =   -2171.55531033 Ry
     estimated scf accuracy    <          9.9E-09 Ry

     The total energy is the sum of the following terms:

     one-electron contribution =  -24296.08637760 Ry
     hartree contribution      =   12165.14118359 Ry
     xc contribution           =    -594.43702515 Ry
     ewald contribution        =   10550.12932721 Ry
     Hubbard energy            =       3.69750665 Ry
     smearing contrib. (-TS)   =       0.00007498 Ry

     convergence has been achieved in  14 iterations

     Forces acting on atoms (Ry/au):

     negative rho (up, down):  0.239E+00 0.000E+00
     atom    1 type  1   force =    -0.00492471   -0.00578062    0.00000534
     atom    2 type  1   force =     0.00062444    0.00468623    0.00009578
     atom    3 type  2   force =     0.02635134   -0.00205890   -0.00005458
     atom    4 type  2   force =    -0.00277311    0.00545803    0.00028937
     atom    5 type  1   force =     0.00161319    0.00151980   -0.00001502
     atom    6 type  1   force =     0.00134729   -0.00173254   -0.00004444
     atom    7 type  1   force =    -0.00252640   -0.00006448   -0.00019250
     atom    8 type  1   force =     0.01393038   -0.00068937    0.00036792
     atom    9 type  2   force =    -0.01373328    0.00102715   -0.00030200
     atom   10 type  2   force =    -0.00230998   -0.00206931    0.00070714
     atom   11 type  1   force =    -0.01403332   -0.00191304    0.00014936
     atom   12 type  1   force =    -0.01556232    0.00244989    0.00016027
     atom   13 type  1   force =     0.00815299   -0.00029891   -0.00070209
     atom   14 type  1   force =    -0.00220213   -0.00508380    0.00004366
     atom   15 type  1   force =     0.00031772    0.00184395    0.00006398
     atom   16 type  2   force =    -0.02351802   -0.00062361   -0.00000014
     atom   17 type  2   force =     0.00420889    0.00686862    0.00023498
     atom   18 type  1   force =     0.00092872    0.00471821   -0.00004029
     atom   19 type  1   force =    -0.00007159   -0.00578940   -0.00011635
     atom   20 type  1   force =    -0.00221016   -0.00270187   -0.00024002
     atom   21 type  1   force =    -0.00594081   -0.00112373    0.00013161
     atom   22 type  2   force =     0.00594165    0.00152656   -0.00046637
     atom   23 type  2   force =     0.00263202    0.00050634   -0.00004971
     atom   24 type  1   force =     0.01537753   -0.00491382    0.00000663
     atom   25 type  1   force =     0.01543259    0.00491824   -0.00000645
     atom   26 type  1   force =    -0.00775097   -0.00053445   -0.00053210
     atom   27 type  3   force =     0.00001923   -0.00013020    0.00005176
     atom   28 type  3   force =     0.00001145    0.00003930    0.00026661
     atom   29 type  3   force =     0.00015656   -0.00009193   -0.00016096
     atom   30 type  3   force =     0.00014078    0.00000898   -0.00018959
     atom   31 type  1   force =     0.00037002    0.00002866    0.00053823

     Total force =     0.001641     Total SCF correction =     0.000291
     SCF correction compared to forces is large: reduce conv_thr to get better values

     bfgs converged in  26 scf cycles and  25 bfgs steps
     (criteria: energy < 0.10E-03, force < 0.10E-02)

     End of BFGS Geometry Optimization

     Final energy   =   -2171.5553103222 Ry
Begin final coordinates

ATOMIC_POSITIONS (crystal)
O0       0.000000000   0.000000000   0.371315117    0   0   1
O0       0.000000000   0.500000000   0.383403350    0   0   1
Re1      0.250000000   0.500000000   0.442536675    0   0   1
Re1      0.000000000   0.000000000   0.443398310    0   0   1
O0       0.250000000   0.780000000   0.441822163    0   0   1
O0       0.250000000   0.220000000   0.441608542    0   0   1
O0       0.000000000   0.500000000   0.497160156    0   0   1
O0       0.000000000   0.000000000   0.513895557    0   0   1
Re1      0.250000000   0.000000000   0.575863176    0   0   1
Re1      0.000000000   0.500000000   0.567395453    0   0   1
O0       0.250000000   0.720000000   0.571193148    0   0   1
O0       0.250000000   0.280000000   0.571298376    0   0   1
O0       0.000000000   0.000000000   0.625968134    0   0   1
O0       0.500000000   0.000000000   0.371518661    0   0   1
O0       0.500000000   0.500000000   0.383775161    0   0   1
Re1      0.750000000   0.500000000   0.442636012    0   0   1
Re1      0.500000000   0.000000000   0.443334425    0   0   1
O0       0.750000000   0.780000000   0.441905683    0   0   1
O0       0.750000000   0.220000000   0.441893768    0   0   1
O0       0.500000000   0.500000000   0.500601158    0   0   1
O0       0.500000000   0.000000000   0.514000776    0   0   1
Re1      0.750000000   0.000000000   0.571953910    0   0   1
Re1      0.500000000   0.500000000   0.575572943    0   0   1
O0       0.750000000   0.720000000   0.570448353    0   0   1
O0       0.750000000   0.280000000   0.570329229    0   0   1
O0       0.500000000   0.000000000   0.625414839    0   0   1
H2       0.000108635   0.625175238   0.366648944
H2       0.499467609   0.619582845   0.364556627
H2       0.168338134   0.023221993   0.356598226
H2       0.670154474   0.020175375   0.357095243
O0       0.501500819   0.499059743   0.638707886
End final coordinates

     General routines

     Parallel routines
     Hubbard U routines

   This run was terminated on:  18:50:30   2May2014

   JOB DONE.
Running PBS batch system epilogue script
Job id: 340615.audhumbla.fysik.dtu.dk
Username: zhonxu
Groupname: campgst
Jobname: ReO2/Eads-2-layers/O-U-6.0
Sessionid: 26242
Queuename: verylong
Accounting:
This job has allocated the following 16 nodes:
a039 a039 a039 a039 a039 a039 a039 a039 a007 a007 a007 a007 a007 a007 a007 a007
Finished epilogue job 340615.audhumbla.fysik.dtu.dk for zhonxu