     Program PWSCF v.5.0.2 (svn rev. 9656) starts on  6May2014 at  3:34:43

     Current dimensions of program PWSCF are:
     Max number of different atomic species (ntypx) = 10
     Max number of k-points (npk) =  40000
     Max angular momentum in pseudopotentials (lmaxx) =  3
     Reading input from pwscf.in
Warning: card &CELL ignored
Warning: card / ignored

     Subspace diagonalization in iterative solution of the eigenvalue problem:
     a serial algorithm will be used

     bravais-lattice index     =            0
     lattice parameter (alat)  =      12.0187  a.u.
     unit-cell volume          =    7280.5819 (a.u.)^3
     number of atoms/cell      =           30
     number of atomic types    =            3
     number of electrons       =       232.00
     number of Kohn-Sham states=          348
     kinetic-energy cutoff     =      40.0000  Ry
     charge density cutoff     =     500.0000  Ry
     convergence threshold     =      1.0E-06
     mixing beta               =       0.7000
     number of iterations used =            8  plain     mixing
     Exchange-correlation      = SLA  PW   PBE  PBE ( 1 4 3 4 0)
     EXX-fraction              =        0.00
     nstep                     =           50

     celldm(1)=  12.018658  celldm(2)=   0.000000  celldm(3)=   0.000000
     celldm(4)=   0.000000  celldm(5)=   0.000000  celldm(6)=   0.000000

     crystal axes: (cart. coord. in units of alat)
               a(1) = (   1.000000   0.000000   0.000000 )
               a(2) = (   0.000000   1.009517   0.000000 )
               a(3) = (   0.000000   0.000000   4.154171 )

     reciprocal axes: (cart. coord. in units 2 pi/alat)
               b(1) = (  1.000000  0.000000  0.000000 )
               b(2) = (  0.000000  0.990572  0.000000 )
               b(3) = (  0.000000  0.000000  0.240722 )

     PseudoPot. # 1 for O  read from file:
     /home/camp/zhonxu/pseudo/o_pbe_v1.01.uspp.F.UPF
     MD5 check sum: 2bcb18d16ea4b960afae9ec6d52f22d2
     Pseudo is Ultrasoft + core correction, Zval =  6.0
     Generated by new atomic code, or converted to UPF format
     Using radial grid of  737 points,  5 beta functions with:
                l(1) =   0
                l(2) =   0
                l(3) =   1
                l(4) =   1
                l(5) =   2
     Q(r) pseudized with  8 coefficients,  rinner =    0.900   0.900   0.900
                                                       0.900   0.900

     PseudoPot. # 2 for Ir read from file:
     /home/camp/zhonxu/pseudo/ir_pbe_v1.uspp.F.UPF
     MD5 check sum: abf987a9674477536ede83817f8f8b70
     Pseudo is Ultrasoft + core correction, Zval = 15.0
     Generated by new atomic code, or converted to UPF format
     Using radial grid of  983 points,  7 beta functions with:
                l(1) =   0
                l(2) =   0
                l(3) =   1
                l(4) =   1
                l(5) =   1
                l(6) =   2
                l(7) =   2
     Q(r) pseudized with  8 coefficients,  rinner =    1.350   1.350   1.350
                                                       1.350   1.350

     PseudoPot. # 3 for H  read from file:
     /home/camp/zhonxu/pseudo/h_pbe_v1.uspp.F.UPF
     MD5 check sum: 3408e3ff4ec8b0a4e358431e7e038a48
     Pseudo is Ultrasoft, Zval =  1.0
     Generated by new atomic code, or converted to UPF format
     Using radial grid of  615 points,  2 beta functions with:
                l(1) =   0
                l(2) =   0
     Q(r) pseudized with  8 coefficients,  rinner =    0.700

     atomic species   valence    mass     pseudopotential
        O0             6.00    15.99940     O ( 1.00)
        Ir1           15.00   192.22000     Ir( 1.00)
        H2             1.00     1.00794     H ( 1.00)

     Simplified LDA+U calculation (l_max = 2) with parameters (eV):
     atomic species    L          U    alpha       J0     beta
        Ir1            2     7.5000   0.0000   0.0000   0.0000

     No symmetry found

   Cartesian axes

     site n.     atom                  positions (alat units)
         1           O0  tau(   1) = (   0.0000000   0.0000000   1.5730185  )
         2           O0  tau(   2) = (   0.0000000   0.5047586   1.6673182  )
         3           Ir1 tau(   3) = (   0.2500000   0.5047586   1.8780178  )
         4           Ir1 tau(   4) = (   0.0000000   0.0000000   1.8842906  )
         5           O0  tau(   5) = (   0.2500000   0.8177090   1.8825458  )
         6           O0  tau(   6) = (   0.2500000   0.1918083   1.8810503  )
         7           O0  tau(   7) = (   0.0000000   0.5047586   2.0695666  )
         8           O0  tau(   8) = (   0.0000000   0.0000000   2.1991352  )
         9           Ir1 tau(   9) = (   0.2500000   0.0000000   2.3955860  )
        10           Ir1 tau(  10) = (   0.0000000   0.5047586   2.3764768  )
        11           O0  tau(  11) = (   0.2500000   0.6965669   2.3975800  )
        12           O0  tau(  12) = (   0.2500000   0.3129503   2.3977461  )
        13           O0  tau(  13) = (   0.0000000   0.0000000   2.5806958  )
        14           O0  tau(  14) = (   0.5000000   0.0000000   1.5730185  )
        15           O0  tau(  15) = (   0.5000000   0.5047586   1.6673182  )
        16           Ir1 tau(  16) = (   0.7500000   0.5047586   1.8780178  )
        17           Ir1 tau(  17) = (   0.5000000   0.0000000   1.8842906  )
        18           O0  tau(  18) = (   0.7500000   0.8177090   1.8825458  )
        19           O0  tau(  19) = (   0.7500000   0.1918083   1.8810503  )
        20           O0  tau(  20) = (   0.5000000   0.5047586   2.0695666  )
        21           O0  tau(  21) = (   0.5000000   0.0000000   2.1991352  )
        22           Ir1 tau(  22) = (   0.7500000   0.0000000   2.3955860  )
        23           Ir1 tau(  23) = (   0.5000000   0.5047586   2.3764768  )
        24           O0  tau(  24) = (   0.7500000   0.6965669   2.3975800  )
        25           O0  tau(  25) = (   0.7500000   0.3129503   2.3977461  )
        26           O0  tau(  26) = (   0.5000000   0.0000000   2.5807374  )
        27           H2  tau(  27) = (  -0.0000500   0.6423962   1.5933324  )
        28           H2  tau(  28) = (   0.4999500   0.6423962   1.5933324  )
        29           H2  tau(  29) = (   0.1436500   0.0338188   1.5249132  )
        30           H2  tau(  30) = (   0.6436500   0.0338188   1.5249132  )

     number of k points=    10  Methfessel-Paxton smearing, width (Ry)=  0.0100
                       cart. coord. in units 2pi/alat
        k(    1) = (   0.0000000   0.0000000   0.0000000), wk =   0.1250000
        k(    2) = (   0.0000000   0.2476431   0.0000000), wk =   0.2500000
        k(    3) = (   0.0000000  -0.4952862   0.0000000), wk =   0.1250000
        k(    4) = (   0.2500000   0.0000000   0.0000000), wk =   0.2500000
        k(    5) = (   0.2500000   0.2476431   0.0000000), wk =   0.2500000
        k(    6) = (   0.2500000  -0.4952862   0.0000000), wk =   0.2500000
        k(    7) = (  -0.5000000   0.0000000   0.0000000), wk =   0.1250000
        k(    8) = (  -0.5000000   0.2476431   0.0000000), wk =   0.2500000
        k(    9) = (  -0.5000000  -0.4952862   0.0000000), wk =   0.1250000
        k(   10) = (  -0.2500000   0.2476431   0.0000000), wk =   0.2500000

     Largest allocated arrays     est. size (Mb)     dimensions
     Largest temporary arrays     est. size (Mb)     dimensions

     Check: negative/imaginary core charge=   -0.000003    0.000000

     Initial potential from superposition of free atoms
     Check: negative starting charge=   -3.334716

     starting charge  227.99968, renormalised to  232.00000

     negative rho (up, down):  0.339E+01 0.000E+00
     Number of +U iterations with fixed ns =  0
     Starting occupations:
 --- enter write_ns ---
 LDA+U parameters:
U( 2)     =  7.50000000
alpha( 2) =  0.00000000
atom    3   Tr[ns(na)] =   7.00000
    eigenvalues:
  0.700  0.700  0.700  0.700  0.700
    eigenvectors:
  1.000  0.000  0.000  0.000  0.000
  0.000  1.000  0.000  0.000  0.000
  0.000  0.000  1.000  0.000  0.000
  0.000  0.000  0.000  1.000  0.000
  0.000  0.000  0.000  0.000  1.000
    occupations:
  0.700  0.000  0.000  0.000  0.000
  0.000  0.700  0.000  0.000  0.000
  0.000  0.000  0.700  0.000  0.000
  0.000  0.000  0.000  0.700  0.000
  0.000  0.000  0.000  0.000  0.700
atom    4   Tr[ns(na)] =   7.00000
    eigenvalues:
  0.700  0.700  0.700  0.700  0.700
    eigenvectors:
  1.000  0.000  0.000  0.000  0.000
  0.000  1.000  0.000  0.000  0.000
  0.000  0.000  1.000  0.000  0.000
  0.000  0.000  0.000  1.000  0.000
  0.000  0.000  0.000  0.000  1.000
    occupations:
  0.700  0.000  0.000  0.000  0.000
  0.000  0.700  0.000  0.000  0.000
  0.000  0.000  0.700  0.000  0.000
  0.000  0.000  0.000  0.700  0.000
  0.000  0.000  0.000  0.000  0.700
atom    9   Tr[ns(na)] =   7.00000
    eigenvalues:
  0.700  0.700  0.700  0.700  0.700
    eigenvectors:
  1.000  0.000  0.000  0.000  0.000
  0.000  1.000  0.000  0.000  0.000
  0.000  0.000  1.000  0.000  0.000
  0.000  0.000  0.000  1.000  0.000
  0.000  0.000  0.000  0.000  1.000
    occupations:
  0.700  0.000  0.000  0.000  0.000
  0.000  0.700  0.000  0.000  0.000
  0.000  0.000  0.700  0.000  0.000
  0.000  0.000  0.000  0.700  0.000
  0.000  0.000  0.000  0.000  0.700
atom   10   Tr[ns(na)] =   7.00000
    eigenvalues:
  0.700  0.700  0.700  0.700  0.700
    eigenvectors:
  1.000  0.000  0.000  0.000  0.000
  0.000  1.000  0.000  0.000  0.000
  0.000  0.000  1.000  0.000  0.000
  0.000  0.000  0.000  1.000  0.000
  0.000  0.000  0.000  0.000  1.000
    occupations:
  0.700  0.000  0.000  0.000  0.000
  0.000  0.700  0.000  0.000  0.000
  0.000  0.000  0.700  0.000  0.000
  0.000  0.000  0.000  0.700  0.000
  0.000  0.000  0.000  0.000  0.700
atom   16   Tr[ns(na)] =   7.00000
    eigenvalues:
  0.700  0.700  0.700  0.700  0.700
    eigenvectors:
  1.000  0.000  0.000  0.000  0.000
  0.000  1.000  0.000  0.000  0.000
  0.000  0.000  1.000  0.000  0.000
  0.000  0.000  0.000  1.000  0.000
  0.000  0.000  0.000  0.000  1.000
    occupations:
  0.700  0.000  0.000  0.000  0.000
  0.000  0.700  0.000  0.000  0.000
  0.000  0.000  0.700  0.000  0.000
  0.000  0.000  0.000  0.700  0.000
  0.000  0.000  0.000  0.000  0.700
atom   17   Tr[ns(na)] =   7.00000
    eigenvalues:
  0.700  0.700  0.700  0.700  0.700
    eigenvectors:
  1.000  0.000  0.000  0.000  0.000
  0.000  1.000  0.000  0.000  0.000
  0.000  0.000  1.000  0.000  0.000
  0.000  0.000  0.000  1.000  0.000
  0.000  0.000  0.000  0.000  1.000
    occupations:
  0.700  0.000  0.000  0.000  0.000
  0.000  0.700  0.000  0.000  0.000
  0.000  0.000  0.700  0.000  0.000
  0.000  0.000  0.000  0.700  0.000
  0.000  0.000  0.000  0.000  0.700
atom   22   Tr[ns(na)] =   7.00000
    eigenvalues:
  0.700  0.700  0.700  0.700  0.700
    eigenvectors:
  1.000  0.000  0.000  0.000  0.000
  0.000  1.000  0.000  0.000  0.000
  0.000  0.000  1.000  0.000  0.000
  0.000  0.000  0.000  1.000  0.000
  0.000  0.000  0.000  0.000  1.000
    occupations:
  0.700  0.000  0.000  0.000  0.000
  0.000  0.700  0.000  0.000  0.000
  0.000  0.000  0.700  0.000  0.000
[...]
  0.001 -0.002  0.001  0.000  0.621
atom    9   Tr[ns(na)] =   8.23787
    eigenvalues:
  0.655  0.671  0.886  0.921  0.987
    eigenvectors:
  0.000  0.141  0.000  0.000  0.859
  0.999  0.000  0.000  0.000  0.000
  0.000  0.000  1.000  0.000  0.000
  0.000  0.858  0.000  0.000  0.141
  0.000  0.000  0.000  1.000  0.000
    occupations:
  0.942  0.000 -0.000 -0.110 -0.000
  0.000  0.655  0.001  0.000 -0.000
 -0.000  0.001  0.886 -0.000 -0.000
 -0.110  0.000 -0.000  0.715  0.001
 -0.000 -0.000 -0.000  0.001  0.921
atom   10   Tr[ns(na)] =   8.17980
    eigenvalues:
  0.573  0.615  0.952  0.964  0.987
    eigenvectors:
  0.992  0.000  0.000  0.000  0.008
  0.000  0.000  1.000  0.000  0.000
  0.000  0.000  0.000  1.000  0.000
  0.008  0.000  0.000  0.000  0.992
  0.000  1.000  0.000  0.000  0.000
    occupations:
  0.576  0.000  0.001  0.036 -0.000
  0.000  0.952 -0.000  0.000 -0.000
  0.001 -0.000  0.964 -0.000  0.000
  0.036  0.000 -0.000  0.984  0.000
 -0.000 -0.000  0.000  0.000  0.615
atom   16   Tr[ns(na)] =   8.24328
    eigenvalues:
  0.602  0.631  0.928  0.978  0.983
    eigenvectors:
  0.000  0.189  0.003  0.000  0.808
  1.000  0.000  0.000  0.000  0.000
  0.000  0.000  0.996  0.000  0.003
  0.000  0.811  0.000  0.000  0.189
  0.000  0.000  0.000  0.999  0.000
    occupations:
  0.916 -0.000  0.001 -0.138 -0.000
 -0.000  0.602 -0.000 -0.000 -0.005
  0.001 -0.000  0.928 -0.004  0.001
 -0.138 -0.000 -0.004  0.697 -0.000
 -0.000 -0.005  0.001 -0.000  0.978
atom   17   Tr[ns(na)] =   8.24412
    eigenvalues:
  0.621  0.674  0.897  0.942  0.987
    eigenvectors:
  0.001  0.988  0.000  0.000  0.011
  0.000  0.000  0.075  0.925  0.000
  0.000  0.000  0.925  0.075  0.000
  0.000  0.011  0.000  0.000  0.989
  0.999  0.001  0.000  0.000  0.000
    occupations:
  0.677 -0.003 -0.000  0.033  0.001
 -0.003  0.939  0.012  0.000 -0.002
 -0.000  0.012  0.900 -0.000  0.001
  0.033  0.000 -0.000  0.984  0.000
  0.001 -0.002  0.001  0.000  0.621
atom   22   Tr[ns(na)] =   8.23794
    eigenvalues:
  0.655  0.671  0.886  0.921  0.987
    eigenvectors:
  0.000  0.141  0.000  0.000  0.859
  1.000  0.000  0.000  0.000  0.000
  0.000  0.000  1.000  0.000  0.000
  0.000  0.858  0.000  0.000  0.141
  0.000  0.000  0.000  1.000  0.000
    occupations:
  0.942  0.000 -0.000 -0.110 -0.000
  0.000  0.655  0.001  0.000 -0.000
 -0.000  0.001  0.886 -0.000 -0.000
 -0.110  0.000 -0.000  0.715  0.001
 -0.000 -0.000 -0.000  0.001  0.921
atom   23   Tr[ns(na)] =   8.17981
    eigenvalues:
  0.573  0.615  0.952  0.964  0.987
    eigenvectors:
  0.992  0.000  0.000  0.000  0.008
  0.000  0.000  1.000  0.000  0.000
  0.000  0.000  0.000  1.000  0.000
  0.008  0.000  0.000  0.000  0.992
  0.000  1.000  0.000  0.000  0.000
    occupations:
  0.576  0.000  0.001  0.036 -0.000
  0.000  0.952 -0.000  0.000 -0.000
  0.001 -0.000  0.964 -0.000  0.000
  0.036  0.000 -0.000  0.984  0.000
 -0.000 -0.000  0.000  0.000  0.615
N of occupied +U levels =  65.8101066
 --- exit write_ns ---

     Threshold (ethr) on eigenvalues was too large:
     Diagonalizing with lowered threshold

     Davidson diagonalization with overlap
     ethr =  1.70E-08,  avg # of iterations =  2.0

[...]

     total energy              =   -2071.17584357 Ry
     Harris-Foulkes estimate   =   -2071.17584357 Ry
     estimated scf accuracy    <       0.00000003 Ry

     iteration # 13     ecut=    40.00 Ry     beta=0.70
     Davidson diagonalization with overlap
     ethr =  8.84E-12,  avg # of iterations =  1.0

     negative rho (up, down):  0.315E+01 0.000E+00

     End of self-consistent calculation
 --- enter write_ns ---
 LDA+U parameters:
U( 2)     =  7.50000000
alpha( 2) =  0.00000000
atom    3   Tr[ns(na)] =   8.24258
    eigenvalues:
  0.602  0.631  0.928  0.978  0.983
    eigenvectors:
  0.000  0.189  0.003  0.000  0.808
  1.000  0.000  0.000  0.000  0.000
  0.000  0.000  0.996  0.000  0.003
  0.000  0.811  0.000  0.000  0.189
  0.000  0.000  0.000  0.999  0.000
    occupations:
  0.916 -0.000  0.001 -0.138 -0.000
 -0.000  0.602 -0.000 -0.000 -0.005
  0.001 -0.000  0.928 -0.004  0.001
 -0.138 -0.000 -0.004  0.697 -0.000
 -0.000 -0.005  0.001 -0.000  0.978
atom    4   Tr[ns(na)] =   8.24361
    eigenvalues:
  0.621  0.674  0.897  0.942  0.987
    eigenvectors:
  0.001  0.988  0.000  0.000  0.011
  0.000  0.000  0.074  0.925  0.000
  0.000  0.000  0.926  0.074  0.000
  0.000  0.011  0.000  0.000  0.989
  0.999  0.001  0.000  0.000  0.000
    occupations:
  0.677 -0.003 -0.000  0.033  0.001
 -0.003  0.939  0.012  0.000 -0.002
 -0.000  0.012  0.900 -0.000  0.001
  0.033  0.000 -0.000  0.984  0.000
  0.001 -0.002  0.001  0.000  0.621
atom    9   Tr[ns(na)] =   8.23865
    eigenvalues:
  0.655  0.671  0.886  0.921  0.987
    eigenvectors:
  0.000  0.141  0.000  0.000  0.859
  0.999  0.000  0.000  0.000  0.000
  0.000  0.000  1.000  0.000  0.000
  0.000  0.858  0.000  0.000  0.141
  0.000  0.000  0.000  1.000  0.000
    occupations:
  0.942  0.000 -0.000 -0.110 -0.000
  0.000  0.655  0.001  0.000 -0.000
 -0.000  0.001  0.886 -0.000 -0.000
 -0.110  0.000 -0.000  0.715  0.001
 -0.000 -0.000 -0.000  0.001  0.921
atom   10   Tr[ns(na)] =   8.18037
    eigenvalues:
  0.573  0.615  0.952  0.964  0.987
    eigenvectors:
  0.992  0.000  0.000  0.000  0.008
  0.000  0.000  1.000  0.000  0.000
  0.000  0.000  0.000  1.000  0.000
  0.008  0.000  0.000  0.000  0.992
  0.000  1.000  0.000  0.000  0.000
    occupations:
  0.576  0.000  0.001  0.036 -0.000
  0.000  0.952 -0.000  0.000 -0.000
  0.001 -0.000  0.964 -0.000  0.000
  0.036  0.000 -0.000  0.984  0.000
 -0.000 -0.000  0.000  0.000  0.615
atom   16   Tr[ns(na)] =   8.24259
    eigenvalues:
  0.602  0.631  0.928  0.978  0.983
    eigenvectors:
  0.000  0.189  0.003  0.000  0.808
  1.000  0.000  0.000  0.000  0.000
  0.000  0.000  0.996  0.000  0.003
  0.000  0.811  0.000  0.000  0.189
  0.000  0.000  0.000  0.999  0.000
    occupations:
  0.916 -0.000  0.001 -0.138 -0.000
 -0.000  0.602 -0.000 -0.000 -0.005
  0.001 -0.000  0.928 -0.004  0.001
 -0.138 -0.000 -0.004  0.697 -0.000
 -0.000 -0.005  0.001 -0.000  0.978
atom   17   Tr[ns(na)] =   8.24360
    eigenvalues:
  0.621  0.674  0.897  0.942  0.987
    eigenvectors:
  0.001  0.988  0.000  0.000  0.011
  0.000  0.000  0.074  0.925  0.000
  0.000  0.000  0.925  0.074  0.000
  0.000  0.011  0.000  0.000  0.989
  0.999  0.001  0.000  0.000  0.000
    occupations:
  0.677 -0.003 -0.000  0.033  0.001
 -0.003  0.939  0.012  0.000 -0.002
 -0.000  0.012  0.900 -0.000  0.001
  0.033  0.000 -0.000  0.984  0.000
  0.001 -0.002  0.001  0.000  0.621
atom   22   Tr[ns(na)] =   8.23866
    eigenvalues:
  0.655  0.671  0.886  0.921  0.987
    eigenvectors:
  0.000  0.141  0.000  0.000  0.859
  1.000  0.000  0.000  0.000  0.000
  0.000  0.000  1.000  0.000  0.000
  0.000  0.858  0.000  0.000  0.141
  0.000  0.000  0.000  1.000  0.000
    occupations:
  0.942  0.000 -0.000 -0.110 -0.000
  0.000  0.655  0.001  0.000 -0.000
 -0.000  0.001  0.886 -0.000 -0.000
 -0.110  0.000 -0.000  0.715  0.001
 -0.000 -0.000 -0.000  0.001  0.921
atom   23   Tr[ns(na)] =   8.18036
    eigenvalues:
  0.573  0.615  0.952  0.964  0.987
    eigenvectors:
  0.992  0.000  0.000  0.000  0.008
  0.000  0.000  1.000  0.000  0.000
  0.000  0.000  0.000  1.000  0.000
  0.008  0.000  0.000  0.000  0.992
  0.000  1.000  0.000  0.000  0.000
    occupations:
  0.576  0.000  0.001  0.036 -0.000
  0.000  0.952 -0.000  0.000 -0.000
  0.001 -0.000  0.964 -0.000  0.000
  0.036  0.000 -0.000  0.984  0.000
 -0.000 -0.000  0.000  0.000  0.615
N of occupied +U levels =  65.8104033
 --- exit write_ns ---

[...]

          k = 0.2500-0.4953 0.0000 ( 31088 PWs)   bands (ev):

[...]

          k =-0.2500 0.2476 0.0000 ( 31099 PWs)   bands (ev):

   -50.1893 -50.1557 -50.1511 -50.1364 -50.1163 -50.1116 -50.1064 -50.0867
   -50.0856 -50.0701 -50.0696 -49.9962 -49.9455 -49.9371 -49.8444 -49.7873
   -49.7828 -49.7725 -49.7344 -49.7238 -49.7169 -49.7060 -49.7003 -49.6905
   -21.4167 -21.1915 -21.1413 -21.0370 -20.7478 -20.7238 -20.7208 -20.4790
   -20.4296 -20.3675 -20.2076 -20.1675 -20.0201 -19.9632 -19.9149 -19.7606
   -19.0095 -18.8601 -11.0433 -10.8277 -10.6195 -10.5625 -10.3056 -10.1718
   -10.0130  -9.9850  -9.7475  -9.1303  -9.0645  -8.9204  -8.9106  -8.7416
    -8.7027  -8.4655  -8.3849  -8.2605  -8.1390  -7.8686  -7.7866  -7.6130
    -7.5780  -7.4213  -7.3207  -7.2847  -7.2781  -6.9606  -6.8666  -6.8609
    -6.6698  -6.6033  -6.5362  -6.3985  -6.3553  -6.2368  -6.2163  -6.1425
    -6.0457  -5.9166  -5.7141  -5.4355  -5.2098  -5.1284  -4.9639  -4.8728
    -4.7301  -4.6058  -4.5571  -4.4350  -4.1338  -4.0709  -3.9676  -3.8624
    -3.8561  -3.7471  -3.5250  -3.5073  -3.4473  -3.4304  -3.1711  -3.1611
    -3.1568  -3.0824  -2.8740  -2.8467  -2.6959  -2.6028  -2.3168  -2.0278
    -1.8112  -1.6071  -1.5900  -1.3692  -1.3392  -1.0794  -0.9092  -0.7174
    -0.0582   0.1189   1.0798   1.1333   1.6572   1.8305   1.8464   2.3015
     2.5412   2.7782   2.9761   2.9835   3.2557   3.2773   3.4248   3.4848
     3.8125   4.3585   4.7088   5.1265   5.4090   5.6033   5.6763   5.8942
     6.1309   6.2872   6.5076   6.5477   6.5952   6.7899   6.9976   7.0430
     7.3345   7.3866   7.4991   7.6976   7.6998   7.8897   8.0307   8.0986
     8.1641   8.3259   8.4529   8.4796   8.5949   8.8092   8.8427   8.9309
     8.9559   9.1948   9.2655   9.2708   9.3645   9.5508   9.6458   9.7124
     9.8174   9.8285   9.8350   9.8359   9.8409   9.9217   9.9236  10.0556
    10.0591  10.0691  10.0820  10.0912  10.2088  10.2858  10.2895  10.4164
    10.4307  10.5615  10.6230  10.7255  10.7959  10.8346  10.9981  11.0347
    11.0782  11.2797  11.3473  11.4359  11.5373  11.5748  11.7325  11.7615
    11.7772  11.9474  12.0884  12.1438  12.1550  12.2769  12.4059  12.4138
    12.4993  12.5730  12.6520  12.7368  12.7863  12.8122  12.8360  12.9182
    13.0902  13.1746  13.1841  13.2680  13.3578  13.3763  13.5483  13.6797
    13.6848  13.7580  13.8746  13.8973  14.0184  14.0354  14.1262  14.1380
    14.2784  14.3717  14.4114  14.5591  14.5854  14.7626  14.7904  14.8982
    14.9305  15.2166  15.2774  15.3683  15.3782  15.5213  15.5906  15.5918
    15.6275  15.7378  15.7892  15.8287  15.8586  15.8886  15.9594  16.0255
    16.0932  16.1613  16.1750  16.2920  16.3374  16.4092  16.4395  16.4602
    16.6530  16.6538  16.7253  16.7364  16.8290  16.8449  17.0760  17.1223
    17.2154  17.3603  17.3690  17.4296  17.4330  17.4745  17.5478  17.5651
    17.6325  17.7344  17.7664  17.8140  17.8799  17.8849  17.9762  17.9961
    18.1650  18.2301  18.3040  18.3945  18.4755  18.5152  18.6083  18.6200
    18.8317  18.8401  18.9084  18.9708  19.0256  19.1353  19.1441  19.2316
    19.2888  19.2957  19.3559  19.5033  19.6122  19.6147  19.7283  19.7888
    19.8222  19.9573  20.0235  20.1520  20.1529  20.3247  20.3373  20.3765
    20.5042  20.5699  20.6305  20.6839  20.7293  20.7849  20.8182  20.9107
    20.9221  21.0100  21.0587  21.1288  21.1858  21.2569  21.3048  21.3482
    21.3551  21.4451  21.4828  21.5787

     the Fermi energy is    -1.3723 ev

!    total energy              =   -2071.17584356 Ry
     Harris-Foulkes estimate   =   -2071.17584357 Ry
     estimated scf accuracy    <          9.7E-09 Ry

     The total energy is the sum of the following terms:

     one-electron contribution =  -22093.70307639 Ry
     hartree contribution      =   11091.02556387 Ry
     xc contribution           =    -569.46768517 Ry
     ewald contribution        =    9498.32343741 Ry
     Hubbard energy            =       2.64740408 Ry
     smearing contrib. (-TS)   =      -0.00148736 Ry

     convergence has been achieved in  13 iterations

     Forces acting on atoms (Ry/au):

     negative rho (up, down):  0.315E+01 0.000E+00
     atom    1 type  1   force =    -0.00709335   -0.01222893   -0.00001271
     atom    2 type  1   force =     0.00004174    0.00216023   -0.00054673
     atom    3 type  2   force =     0.00018114    0.00664333   -0.00010226
     atom    4 type  2   force =     0.00857982    0.00719560   -0.00020862
     atom    5 type  1   force =    -0.00545663   -0.01303891   -0.00051172
     atom    6 type  1   force =     0.00710182    0.01158043   -0.00034972
     atom    7 type  1   force =    -0.00047809   -0.00257335    0.00038739
     atom    8 type  1   force =    -0.00322718   -0.00046857   -0.00019862
     atom    9 type  2   force =     0.00109883    0.00018501   -0.00014404
     atom   10 type  2   force =    -0.00000484   -0.00100597    0.00048428
     atom   11 type  1   force =    -0.00010744    0.02391755    0.00020679
     atom   12 type  1   force =     0.00022369   -0.02366913    0.00021114
     atom   13 type  1   force =    -0.00073722   -0.00008110   -0.00011533
     atom   14 type  1   force =    -0.00708364   -0.01222667   -0.00000952
     atom   15 type  1   force =     0.00003776    0.00216116   -0.00054763
     atom   16 type  2   force =     0.00018160    0.00664404   -0.00010249
     atom   17 type  2   force =     0.00857190    0.00719513   -0.00020019
     atom   18 type  1   force =    -0.00545876   -0.01303826   -0.00051133
     atom   19 type  1   force =     0.00709928    0.01158011   -0.00034937
     atom   20 type  1   force =    -0.00048095   -0.00257335    0.00038983
     atom   21 type  1   force =    -0.00322862   -0.00046860   -0.00019911
     atom   22 type  2   force =     0.00108501    0.00018492   -0.00014641
     atom   23 type  2   force =    -0.00000371   -0.00100591    0.00048638
     atom   24 type  1   force =    -0.00010925    0.02391290    0.00020353
     atom   25 type  1   force =     0.00022187   -0.02366435    0.00020787
     atom   26 type  1   force =    -0.00074553   -0.00008104   -0.00016002
     atom   27 type  3   force =     0.00002398    0.00086043    0.00090992
     atom   28 type  3   force =     0.00002464    0.00085994    0.00091005
     atom   29 type  3   force =    -0.00012575    0.00052245    0.00001122
     atom   30 type  3   force =    -0.00013212    0.00052092    0.00000743

     Total force =     0.002508     Total SCF correction =     0.000616
     SCF correction compared to forces is large: reduce conv_thr to get better values

     bfgs converged in   9 scf cycles and   8 bfgs steps
     (criteria: energy < 0.10E-03, force < 0.10E-02)

     End of BFGS Geometry Optimization

     Final energy   =   -2071.1758435604 Ry
Begin final coordinates

ATOMIC_POSITIONS (crystal)
O0       0.000000000   0.000000000   0.379130258    0   0   1
O0       0.000000000   0.500000000   0.402508884    0   0   1
Ir1      0.250000000   0.500000000   0.452749221    0   0   1
Ir1      0.000000000   0.000000000   0.453581443    0   0   1
O0       0.250000000   0.810000000   0.453571885    0   0   1
O0       0.250000000   0.190000000   0.452994758    0   0   1
O0       0.000000000   0.500000000   0.499177136    0   0   1
O0       0.000000000   0.000000000   0.528915725    0   0   1
Ir1      0.250000000   0.000000000   0.575637955    0   0   1
Ir1      0.000000000   0.500000000   0.572113704    0   0   1
O0       0.250000000   0.690000000   0.575709656    0   0   1
O0       0.250000000   0.310000000   0.575709504    0   0   1
O0       0.000000000   0.000000000   0.620313050    0   0   1
O0       0.500000000   0.000000000   0.379130148    0   0   1
O0       0.500000000   0.500000000   0.402508919    0   0   1
Ir1      0.750000000   0.500000000   0.452749172    0   0   1
Ir1      0.500000000   0.000000000   0.453581323    0   0   1
O0       0.750000000   0.810000000   0.453571706    0   0   1
O0       0.750000000   0.190000000   0.452994546    0   0   1
O0       0.500000000   0.500000000   0.499177008    0   0   1
O0       0.500000000   0.000000000   0.528916211    0   0   1
Ir1      0.750000000   0.000000000   0.575638207    0   0   1
Ir1      0.500000000   0.500000000   0.572113617    0   0   1
O0       0.750000000   0.690000000   0.575710737    0   0   1
O0       0.750000000   0.310000000   0.575710592    0   0   1
O0       0.500000000   0.000000000   0.620315611    0   0   1
H2      -0.000275577   0.635187624   0.384480706
H2       0.499723697   0.635187754   0.384480768
H2       0.143414653   0.034879675   0.367588062
H2       0.643417432   0.034879682   0.367589488
End final coordinates

     General routines

     Parallel routines
     Hubbard U routines

   This run was terminated on:  11:52:12   6May2014

   JOB DONE.
Running PBS batch system epilogue script
Job id: 340772.audhumbla.fysik.dtu.dk
Username: zhonxu
Groupname: campgst
Jobname: IrO2/Eads-2-layers/bare-U-7.5
Sessionid: 32322
Queuename: verylong
Accounting:
This job has allocated the following 16 nodes:
b008 b008 b008 b008 b008 b008 b008 b008 b002 b002 b002 b002 b002 b002 b002 b002
Finished epilogue job 340772.audhumbla.fysik.dtu.dk for zhonxu