     Program PWSCF v.5.0.2 (svn rev. 9656) starts on 30Apr2014 at 22:11: 3

     Current dimensions of program PWSCF are:
     Max number of different atomic species (ntypx) = 10
     Max number of k-points (npk) =  40000
     Max angular momentum in pseudopotentials (lmaxx) =  3
     Reading input from pwscf.in
Warning: card &CELL ignored
Warning: card / ignored

     Subspace diagonalization in iterative solution of the eigenvalue problem:
     a serial algorithm will be used

     bravais-lattice index     =            0
     lattice parameter (alat)  =      11.1872  a.u.
     unit-cell volume          =    7531.8600 (a.u.)^3
     number of atoms/cell      =           32
     number of atomic types    =            3
     number of electrons       =       223.00
     number of Kohn-Sham states=          334
     kinetic-energy cutoff     =      40.0000  Ry
     charge density cutoff     =     500.0000  Ry
     convergence threshold     =      1.0E-06
     mixing beta               =       0.7000
     number of iterations used =            8  plain     mixing
     Exchange-correlation      = SLA  PW   PBE  PBE ( 1 4 3 4 0)
     EXX-fraction              =        0.00
     nstep                     =           50

     celldm(1)=  11.187179  celldm(2)=   0.000000  celldm(3)=   0.000000
     celldm(4)=   0.000000  celldm(5)=   0.000000  celldm(6)=   0.000000

     crystal axes: (cart. coord. in units of alat)
               a(1) = (   1.000000   0.000000   0.000000 )
               a(2) = (   0.000000   1.180104   0.000000 )
               a(3) = (   0.000000   0.000000   4.558482 )

     reciprocal axes: (cart. coord. in units 2 pi/alat)
               b(1) = (  1.000000  0.000000  0.000000 )
               b(2) = (  0.000000  0.847383  0.000000 )
               b(3) = (  0.000000  0.000000  0.219371 )

     PseudoPot. # 1 for O  read from file:
     /home/camp/zhonxu/pseudo/o_pbe_v1.01.uspp.F.UPF
     MD5 check sum: 2bcb18d16ea4b960afae9ec6d52f22d2
     Pseudo is Ultrasoft + core correction, Zval =  6.0
     Generated by new atomic code, or converted to UPF format
     Using radial grid of  737 points,  5 beta functions with:
                l(1) =   0
                l(2) =   0
                l(3) =   1
                l(4) =   1
                l(5) =   2
     Q(r) pseudized with  8 coefficients,  rinner =    0.900   0.900   0.900
                                                       0.900   0.900

     PseudoPot. # 2 for Nb read from file:
     /home/camp/zhonxu/pseudo/nb_pbe_v1.uspp.F.UPF
     MD5 check sum: 573aab8a2fa660278ed4a62cd769473f
     Pseudo is Ultrasoft + core correction, Zval = 13.0
     Generated by new atomic code, or converted to UPF format
     Using radial grid of  887 points,  6 beta functions with:
                l(1) =   0
                l(2) =   0
                l(3) =   1
                l(4) =   1
                l(5) =   2
                l(6) =   2
     Q(r) pseudized with  6 coefficients,  rinner =    1.000   1.000   1.000
                                                       1.000   1.000

     PseudoPot. # 3 for H  read from file:
     /home/camp/zhonxu/pseudo/h_pbe_v1.uspp.F.UPF
     MD5 check sum: 3408e3ff4ec8b0a4e358431e7e038a48
     Pseudo is Ultrasoft, Zval =  1.0
     Generated by new atomic code, or converted to UPF format
     Using radial grid of  615 points,  2 beta functions with:
                l(1) =   0
                l(2) =   0
     Q(r) pseudized with  8 coefficients,  rinner =    0.700

     atomic species   valence    mass     pseudopotential
        O0             6.00    15.99940     O ( 1.00)
        Nb1           13.00    92.90640     Nb( 1.00)
        H2             1.00     1.00794     H ( 1.00)

     Simplified LDA+U calculation (l_max = 2) with parameters (eV):
     atomic species    L          U    alpha       J0     beta
        Nb1            2     1.5000   0.0000   0.0000   0.0000

     No symmetry found

   Cartesian axes

     site n.     atom                  positions (alat units)
         1           O0  tau(   1) = (   0.0000000   0.0000000   1.6962568  )
         2           O0  tau(   2) = (   0.0000000   0.5900519   1.7738878  )
         3           Nb1 tau(   3) = (   0.2500000   0.5900519   2.0270203  )
         4           Nb1 tau(   4) = (   0.0000000   0.0000000   2.0275217  )
         5           O0  tau(   5) = (   0.2500000   0.9322821   2.0383253  )
         6           O0  tau(   6) = (   0.2500000   0.2478218   2.0383253  )
         7           O0  tau(   7) = (   0.0000000   0.5900519   2.2801984  )
         8           O0  tau(   8) = (   0.0000000   0.0000000   2.3861375  )
         9           Nb1 tau(   9) = (   0.2500000   0.0000000   2.6321588  )
        10           Nb1 tau(  10) = (   0.0000000   0.5900519   2.5957821  )
        11           O0  tau(  11) = (   0.2500000   0.8378738   2.6252299  )
        12           O0  tau(  12) = (   0.2500000   0.3422301   2.6252299  )
        13           O0  tau(  13) = (   0.0000000   0.0000000   2.8359230  )
        14           O0  tau(  14) = (   0.5000000   0.0000000   1.6977155  )
        15           O0  tau(  15) = (   0.5000000   0.5900519   1.7812725  )
        16           Nb1 tau(  16) = (   0.7500000   0.5900519   2.0271571  )
        17           Nb1 tau(  17) = (   0.5000000   0.0000000   2.0300745  )
        18           O0  tau(  18) = (   0.7500000   0.9322821   2.0383253  )
        19           O0  tau(  19) = (   0.7500000   0.2478218   2.0383709  )
        20           O0  tau(  20) = (   0.5000000   0.5900519   2.2745003  )
        21           O0  tau(  21) = (   0.5000000   0.0000000   2.3862287  )
        22           Nb1 tau(  22) = (   0.7500000   0.0000000   2.6327514  )
        23           Nb1 tau(  23) = (   0.5000000   0.5900519   2.6327970  )
        24           O0  tau(  24) = (   0.7500000   0.8378738   2.6254579  )
        25           O0  tau(  25) = (   0.7500000   0.3422301   2.6255034  )
        26           O0  tau(  26) = (   0.5000000   0.0000000   2.8354216  )
        27           H2  tau(  27) = (  -0.0004800   0.5922115   1.6084605  )
        28           H2  tau(  28) = (   0.4995300   0.5922233   1.6161643  )
        29           H2  tau(  29) = (   0.1505800   0.0006019   1.6239593  )
        30           H2  tau(  30) = (   0.6505400   0.0006019   1.6254180  )
        31           O0  tau(  31) = (   0.5024200   0.5900519   2.9584550  )
        32           H2  tau(  32) = (   0.3976800   0.5901109   3.0854543  )

     number of k points=    10  Methfessel-Paxton smearing, width (Ry)=  0.0100
                       cart. coord. in units 2pi/alat
        k(    1) = (   0.0000000   0.0000000   0.0000000), wk =   0.1250000
        k(    2) = (   0.0000000   0.2118458   0.0000000), wk =   0.2500000
        k(    3) = (   0.0000000  -0.4236915   0.0000000), wk =   0.1250000
        k(    4) = (   0.2500000   0.0000000   0.0000000), wk =   0.2500000
        k(    5) = (   0.2500000   0.2118458   0.0000000), wk =   0.2500000
        k(    6) = (   0.2500000  -0.4236915   0.0000000), wk =   0.2500000
        k(    7) = (  -0.5000000   0.0000000   0.0000000), wk =   0.1250000
        k(    8) = (  -0.5000000   0.2118458   0.0000000), wk =   0.2500000
        k(    9) = (  -0.5000000  -0.4236915   0.0000000), wk =   0.1250000
        k(   10) = (  -0.2500000   0.2118458   0.0000000), wk =   0.2500000

     Largest allocated arrays     est. size (Mb)     dimensions
     Largest temporary arrays     est. size (Mb)     dimensions

     Check: negative/imaginary core charge=   -0.000003    0.000000

     Initial potential from superposition of free atoms
     Check: negative starting charge=   -0.003641

     starting charge  222.97806, renormalised to  223.00000

     negative rho (up, down):  0.364E-02 0.000E+00
     Number of +U iterations with fixed ns =  0
     Starting occupations:
 --- enter write_ns ---
 LDA+U parameters:
U( 2)     =  1.50000000
alpha( 2) =  0.00000000
atom    3   Tr[ns(na)] =   3.00000
    eigenvalues:
  0.300  0.300  0.300  0.300  0.300
    eigenvectors:
  1.000  0.000  0.000  0.000  0.000
  0.000  1.000  0.000  0.000  0.000
  0.000  0.000  1.000  0.000  0.000
  0.000  0.000  0.000  1.000  0.000
  0.000  0.000  0.000  0.000  1.000
    occupations:
  0.300  0.000  0.000  0.000  0.000
  0.000  0.300  0.000  0.000  0.000
  0.000  0.000  0.300  0.000  0.000
  0.000  0.000  0.000  0.300  0.000
  0.000  0.000  0.000  0.000  0.300
atom    4   Tr[ns(na)] =   3.00000
    eigenvalues:
  0.300  0.300  0.300  0.300  0.300
    eigenvectors:
  1.000  0.000  0.000  0.000  0.000
  0.000  1.000  0.000  0.000  0.000
  0.000  0.000  1.000  0.000  0.000
  0.000  0.000  0.000  1.000  0.000
  0.000  0.000  0.000  0.000  1.000
    occupations:
  0.300  0.000  0.000  0.000  0.000
  0.000  0.300  0.000  0.000  0.000
  0.000  0.000  0.300  0.000  0.000
  0.000  0.000  0.000  0.300  0.000
  0.000  0.000  0.000  0.000  0.300
atom    9   Tr[ns(na)] =   3.00000
    eigenvalues:
  0.300  0.300  0.300  0.300  0.300
    eigenvectors:
  1.000  0.000  0.000  0.000  0.000
  0.000  1.000  0.000  0.000  0.000
  0.000  0.000  1.000  0.000  0.000
  0.000  0.000  0.000  1.000  0.000
  0.000  0.000  0.000  0.000  1.000
    occupations:
  0.300  0.000  0.000  0.000  0.000
  0.000  0.300  0.000  0.000  0.000
  0.000  0.000  0.300  0.000  0.000
  0.000  0.000  0.000  0.300  0.000
  0.000  0.000  0.000  0.000  0.300
atom   10   Tr[ns(na)] =   3.00000
    eigenvalues:
  0.300  0.300  0.300  0.300  0.300
    eigenvectors:
  1.000  0.000  0.000  0.000  0.000
  0.000  1.000  0.000  0.000  0.000
  0.000  0.000  1.000  0.000  0.000
  0.000  0.000  0.000  1.000  0.000
  0.000  0.000  0.000  0.000  1.000
    occupations:
  0.300  0.000  0.000  0.000  0.000
  0.000  0.300  0.000  0.000  0.000
  0.000  0.000  0.300  0.000  0.000
  0.000  0.000  0.000  0.300  0.000
  0.000  0.000  0.000  0.000  0.300
atom   16   Tr[ns(na)] =   3.00000
    eigenvalues:
  0.300  0.300  0.300  0.300  0.300
    eigenvectors:
  1.000  0.000  0.000  0.000  0.000
  0.000  1.000  0.000  0.000  0.000
  0.000  0.000  1.000  0.000  0.000
  0.000  0.000  0.000  1.000  0.000
  0.000  0.000  0.000  0.000  1.000
    occupations:
  0.300  0.000  0.000  0.000  0.000
  0.000  0.300  0.000  0.000  0.000
  0.000  0.000  0.300  0.000  0.000
  0.000  0.000  0.000  0.300  0.000
  0.000  0.000  0.000  0.000  0.300
atom   17   Tr[ns(na)] =   3.00000
    eigenvalues:
  0.300  0.300  0.300  0.300  0.300
    eigenvectors:
  1.000  0.000  0.000  0.000  0.000
  0.000  1.000  0.000  0.000  0.000
  0.000  0.000  1.000  0.000  0.000
  0.000  0.000  0.000  1.000  0.000
  0.000  0.000  0.000  0.000  1.000
    occupations:
  0.300  0.000  0.000  0.000  0.000
  0.000  0.300  0.000  0.000  0.000
  0.000  0.000  0.300  0.000  0.000
  0.000  0.000  0.000  0.300  0.000
  0.000  0.000  0.000  0.000  0.300
atom   22   Tr[ns(na)] =   3.00000
    eigenvalues:
  0.300  0.300  0.300  0.300  0.300
    eigenvectors:
  1.000  0.000  0.000  0.000  0.000
  0.000  1.000  0.000  0.000  0.000
  0.000  0.000  1.000  0.000  0.000
  0.000  0.000  0.000  1.000  0.000
  0.000  0.000  0.000  0.000  1.000
[...]
atom    9   Tr[ns(na)] =   5.29108
    eigenvalues:
  0.457  0.468  0.509  0.603  0.608
    eigenvectors:
  0.879  0.000  0.000  0.119  0.001
  0.000  0.000  0.000  0.009  0.991
  0.000  0.039  0.961  0.000  0.000
  0.121  0.000  0.000  0.871  0.008
  0.000  0.961  0.039  0.000  0.000
    occupations:
  0.475 -0.000  0.000  0.047  0.000
 -0.000  0.608 -0.000 -0.000 -0.000
  0.000 -0.000  0.508  0.000  0.008
  0.047 -0.000  0.000  0.585 -0.000
  0.000 -0.000  0.008 -0.000  0.470
atom   10   Tr[ns(na)] =   5.12917
    eigenvalues:
  0.393  0.493  0.512  0.546  0.621
    eigenvectors:
  0.000  0.011  0.979  0.000  0.009
  0.000  0.989  0.011  0.000  0.000
  1.000  0.000  0.000  0.000  0.000
  0.000  0.000  0.009  0.000  0.991
  0.000  0.000  0.000  1.000  0.000
    occupations:
  0.512 -0.002  0.000  0.011  0.000
 -0.002  0.493  0.000 -0.001 -0.000
  0.000  0.000  0.393 -0.000 -0.000
  0.011 -0.001 -0.000  0.620  0.000
  0.000 -0.000 -0.000  0.000  0.546
atom   16   Tr[ns(na)] =   5.23060
    eigenvalues:
  0.403  0.442  0.523  0.574  0.674
    eigenvectors:
  0.000  0.000  0.003  0.446  0.551
  0.000  0.000  0.993  0.006  0.000
  0.007  0.993  0.000  0.000  0.000
  0.000  0.000  0.003  0.548  0.449
  0.993  0.007  0.000  0.000  0.000
    occupations:
  0.629  0.003  0.000 -0.050  0.000
  0.003  0.523  0.000  0.003  0.000
  0.000  0.000  0.442 -0.000 -0.003
 -0.050  0.003 -0.000  0.619 -0.000
  0.000  0.000 -0.003 -0.000  0.403
atom   17   Tr[ns(na)] =   5.24435
    eigenvalues:
  0.415  0.459  0.548  0.580  0.619
    eigenvectors:
  0.000  0.005  0.000  0.994  0.002
  0.000  0.994  0.000  0.005  0.001
  1.000  0.000  0.000  0.000  0.000
  0.000  0.001  0.000  0.002  0.997
  0.000  0.000  1.000  0.000  0.000
    occupations:
  0.580  0.008  0.000  0.002  0.000
  0.008  0.460 -0.000 -0.005 -0.000
  0.000 -0.000  0.415 -0.000  0.001
  0.002 -0.005 -0.000  0.619  0.000
  0.000 -0.000  0.001  0.000  0.548
atom   22   Tr[ns(na)] =   5.28810
    eigenvalues:
  0.457  0.468  0.508  0.603  0.608
    eigenvectors:
  0.879  0.000  0.000  0.120  0.001
  0.000  0.000  0.000  0.007  0.993
  0.000  0.057  0.943  0.000  0.000
  0.121  0.000  0.000  0.873  0.006
  0.000  0.943  0.057  0.000  0.000
    occupations:
  0.475  0.000  0.000  0.048 -0.000
  0.000  0.608  0.000  0.000  0.000
  0.000  0.000  0.505  0.000 -0.009
  0.048  0.000  0.000  0.585  0.000
 -0.000  0.000 -0.009  0.000  0.471
atom   23   Tr[ns(na)] =   5.26574
    eigenvalues:
  0.424  0.466  0.549  0.580  0.615
    eigenvectors:
  0.000  0.011  0.000  0.977  0.012
  0.000  0.988  0.000  0.012  0.000
  1.000  0.000  0.000  0.000  0.000
  0.000  0.001  0.000  0.011  0.988
  0.000  0.000  1.000  0.000  0.000
    occupations:
  0.579  0.012 -0.000  0.004  0.000
  0.012  0.468  0.000 -0.004  0.000
 -0.000  0.000  0.424 -0.000 -0.000
  0.004 -0.004 -0.000  0.614 -0.000
  0.000  0.000 -0.000 -0.000  0.549
N of occupied +U levels =  41.9257986
 --- exit write_ns ---

     Threshold (ethr) on eigenvalues was too large:
     Diagonalizing with lowered threshold

     Davidson diagonalization with overlap
     ethr =  1.70E-09,  avg # of iterations =  3.0

[...]

     total energy              =   -1562.64421297 Ry
     Harris-Foulkes estimate   =   -1562.64421297 Ry
     estimated scf accuracy    <       0.00000003 Ry

     iteration #  9     ecut=    40.00 Ry     beta=0.70
     Davidson diagonalization with overlap
     ethr =  1.45E-11,  avg # of iterations =  1.0

     negative rho (up, down):  0.345E-02 0.000E+00

     End of self-consistent calculation
 --- enter write_ns ---
 LDA+U parameters:
U( 2)     =  1.50000000
alpha( 2) =  0.00000000
atom    3   Tr[ns(na)] =   5.22972
    eigenvalues:
  0.402  0.440  0.523  0.574  0.676
    eigenvectors:
  0.000  0.000  0.004  0.443  0.553
  0.000  0.000  0.993  0.007  0.000
  0.012  0.988  0.000  0.000  0.000
  0.000  0.000  0.003  0.550  0.447
  0.988  0.012  0.000  0.000  0.000
    occupations:
  0.630 -0.004  0.000 -0.051 -0.000
 -0.004  0.524 -0.000 -0.002  0.000
  0.000 -0.000  0.440 -0.000 -0.004
 -0.051 -0.002 -0.000  0.619  0.000
 -0.000  0.000 -0.004  0.000  0.402
atom    4   Tr[ns(na)] =   5.24675
    eigenvalues:
  0.415  0.452  0.548  0.579  0.629
    eigenvectors:
  0.000  0.005  0.000  0.994  0.001
  0.000  0.994  0.000  0.005  0.001
  1.000  0.000  0.000  0.000  0.000
  0.000  0.001  0.000  0.001  0.998
  0.000  0.000  1.000  0.000  0.000
    occupations:
  0.579  0.009  0.000  0.002  0.000
  0.009  0.453 -0.000 -0.005 -0.000
  0.000 -0.000  0.415  0.000  0.001
  0.002 -0.005  0.000  0.629  0.000
  0.000 -0.000  0.001  0.000  0.548
atom    9   Tr[ns(na)] =   5.29111
    eigenvalues:
  0.457  0.468  0.509  0.603  0.608
    eigenvectors:
  0.879  0.000  0.000  0.119  0.001
  0.000  0.000  0.000  0.009  0.991
  0.000  0.039  0.961  0.000  0.000
  0.121  0.000  0.000  0.871  0.008
  0.000  0.961  0.039  0.000  0.000
    occupations:
  0.475 -0.000  0.000  0.047  0.000
 -0.000  0.608 -0.000 -0.000 -0.000
  0.000 -0.000  0.508  0.000  0.008
  0.047 -0.000  0.000  0.585 -0.000
  0.000 -0.000  0.008 -0.000  0.470
atom   10   Tr[ns(na)] =   5.12976
    eigenvalues:
  0.393  0.493  0.512  0.546  0.621
    eigenvectors:
  0.000  0.011  0.979  0.000  0.009
  0.000  0.989  0.011  0.000  0.000
  1.000  0.000  0.000  0.000  0.000
  0.000  0.000  0.009  0.000  0.991
  0.000  0.000  0.000  1.000  0.000
    occupations:
  0.512 -0.002  0.000  0.011  0.000
 -0.002  0.493  0.000 -0.001 -0.000
  0.000  0.000  0.393 -0.000 -0.000
  0.011 -0.001 -0.000  0.620  0.000
  0.000 -0.000 -0.000  0.000  0.546
atom   16   Tr[ns(na)] =   5.23069
    eigenvalues:
  0.403  0.442  0.523  0.574  0.674
    eigenvectors:
  0.000  0.000  0.003  0.446  0.551
  0.000  0.000  0.993  0.007  0.000
  0.007  0.993  0.000  0.000  0.000
  0.000  0.000  0.003  0.548  0.449
  0.993  0.007  0.000  0.000  0.000
    occupations:
  0.629  0.003  0.000 -0.050  0.000
  0.003  0.523  0.000  0.003  0.000
  0.000  0.000  0.441 -0.000 -0.003
 -0.050  0.003 -0.000  0.619 -0.000
  0.000  0.000 -0.003 -0.000  0.403
atom   17   Tr[ns(na)] =   5.24411
    eigenvalues:
  0.415  0.459  0.548  0.580  0.619
    eigenvectors:
  0.000  0.005  0.000  0.994  0.002
  0.000  0.994  0.000  0.005  0.001
  1.000  0.000  0.000  0.000  0.000
  0.000  0.001  0.000  0.002  0.997
  0.000  0.000  1.000  0.000  0.000
    occupations:
  0.580  0.008  0.000  0.002  0.000
  0.008  0.460 -0.000 -0.005 -0.000
  0.000 -0.000  0.415 -0.000  0.001
  0.002 -0.005 -0.000  0.619  0.000
  0.000 -0.000  0.001  0.000  0.548
atom   22   Tr[ns(na)] =   5.28825
    eigenvalues:
  0.457  0.468  0.508  0.603  0.608
    eigenvectors:
  0.879  0.000  0.000  0.120  0.001
  0.000  0.000  0.000  0.007  0.993
  0.000  0.057  0.943  0.000  0.000
  0.121  0.000  0.000  0.873  0.006
  0.000  0.943  0.057  0.000  0.000
    occupations:
  0.475  0.000  0.000  0.048 -0.000
  0.000  0.608  0.000  0.000 -0.000
  0.000  0.000  0.505  0.000 -0.009
  0.048  0.000  0.000  0.585  0.000
 -0.000 -0.000 -0.009  0.000  0.471
atom   23   Tr[ns(na)] =   5.26608
    eigenvalues:
  0.424  0.466  0.549  0.580  0.615
    eigenvectors:
  0.000  0.011  0.000  0.977  0.012
  0.000  0.988  0.000  0.012  0.000
  1.000  0.000  0.000  0.000  0.000
  0.000  0.001  0.000  0.011  0.988
  0.000  0.000  1.000  0.000  0.000
    occupations:
  0.579  0.012 -0.000  0.004  0.000
  0.012  0.468  0.000 -0.004  0.000
 -0.000  0.000  0.424 -0.000 -0.000
  0.004 -0.004 -0.000  0.614 -0.000
  0.000  0.000 -0.000 -0.000  0.549
N of occupied +U levels =  41.9264591
 --- exit write_ns ---

[...]

          k = 0.2500-0.4237 0.0000 ( 32188 PWs)   bands (ev):

[...]

          k =-0.2500 0.2118 0.0000 ( 32165 PWs)   bands (ev):

   -56.0983 -56.0338 -55.7351 -55.7339 -55.7225 -55.6798 -55.6777 -55.6663
   -32.9154 -32.2998 -32.2773 -32.2018 -32.1858 -32.1845 -32.1686 -32.1486
   -32.1038 -32.0879 -32.0689 -32.0254 -32.0244 -32.0045 -31.9765 -31.7660
   -31.7501 -31.7101 -31.6329 -31.6168 -31.6001 -31.5576 -31.5318 -31.5287
   -20.4581 -20.0713 -19.2476 -19.1141 -18.9669 -18.8777 -18.7683 -18.7382
   -18.6692 -18.6430 -18.5904 -18.5613 -18.0416 -17.9927 -17.9569 -17.9232
   -17.8972 -17.7774 -17.6336  -8.9048  -8.4238  -7.4753  -7.4297  -6.9166
    -6.7420  -6.6506  -6.5191  -6.4264  -6.2656  -6.1914  -6.0688  -6.0530
    -5.9161  -5.8169  -5.7539  -5.7363  -5.5325  -5.5033  -5.4838  -5.3975
    -5.0752  -5.0333  -4.9353  -4.8089  -4.6146  -4.5110  -4.4354  -4.2948
    -4.2295  -4.1697  -4.0971  -4.0025  -3.9200  -3.8630  -3.8433  -3.8226
    -3.7844  -3.6334  -3.6194  -3.4843  -3.4604  -3.3849  -3.2205  -3.1637
    -3.1072  -3.0328  -2.9417  -2.9153  -2.7623  -2.7165  -2.6764  -2.5455
    -2.4613  -2.4483  -2.3310  -2.0216  -0.0801   0.5472   0.5801   0.9801
     1.0787   1.3715   1.7105   1.8003   1.8611   2.0560   2.1072   2.1832
     2.3258   2.3995   2.4614   2.5517   2.7263   2.7654   2.8004   2.8811
     2.9104   2.9845   3.0660   3.0918   3.2767   3.7155   4.2316   4.3260
     4.5959   4.7300   4.9661   5.1170   5.1876   5.2442   5.3873   5.4332
     5.4822   5.6809   5.7589   5.8193   5.8464   5.9479   6.0550   6.1472
     6.4405   6.4540   6.4902   6.6670   6.6982   6.8213   6.8580   7.0128
     7.1421   7.2498   7.3291   7.3614   7.4999   7.6565   7.8585   7.9569
     8.0137   8.0637   8.2114   8.2962   8.4156   8.5249   8.6230   8.7210
     8.8318   8.9192   8.9952   9.1603   9.1961   9.2990   9.3471   9.4978
     9.5810   9.6570   9.8092   9.8281  10.0027  10.0559  10.0930  10.2261
    10.3290  10.3949  10.5209  10.7131  10.7920  10.8998  10.9581  11.0376
    11.0805  11.1432  11.2272  11.3031  11.3644  11.5172  11.5425  11.5716
    11.6030  11.7142  11.8558  11.8785  12.0061  12.0773  12.1914  12.2674
    12.4119  12.4591  12.5185  12.5634  12.6426  12.6800  12.7782  12.8401
    12.8942  12.9460  12.9934  13.0403  13.1119  13.2061  13.2840  13.3841
    13.4509  13.5102  13.5734  13.6163  13.6866  13.7800  13.8396  13.9330
    13.9628  14.0311  14.0571  14.1432  14.2538  14.2899  14.3439  14.4374
    14.5603  14.7123  14.7469  14.7899  14.8618  14.9031  15.0158  15.0854
    15.1912  15.2474  15.2944  15.3876  15.4087  15.4379  15.5270  15.6141
    15.6568  15.7656  15.8210  15.8839  15.9079  15.9505  16.0592  16.1229
    16.1883  16.2440  16.2819  16.3581  16.4770  16.5898  16.6319  16.6675
    16.7519  16.8006  16.8572  16.9662  17.0270  17.0603  17.1390  17.1789
    17.2545  17.2930  17.3191  17.4102  17.4674  17.5345  17.6240  17.7175
    17.7866  17.8580  17.9436  17.9969  18.0563  18.1298  18.1513  18.2236
    18.3270  18.4040  18.4956  18.5445  18.5838  18.6432  18.7492  18.8177
    18.8624  18.9769  19.0020  19.0912  19.1062  19.1890  19.2365  19.2839
    19.3287  19.3915  19.4494  19.5560  19.5998  19.6670  19.6950  19.7546
    19.8001  19.8671  19.9132  19.9889  20.0312  20.0642

     the Fermi energy is     1.0556 ev

!    total energy              =   -1562.64421297 Ry
     Harris-Foulkes estimate   =   -1562.64421297 Ry
     estimated scf accuracy    <          6.1E-09 Ry

     The total energy is the sum of the following terms:

     one-electron contribution =  -19069.65202243 Ry
     hartree contribution      =    9564.63978709 Ry
     xc contribution           =    -287.64977333 Ry
     ewald contribution        =    8228.94590652 Ry
     Hubbard energy            =       1.07233840 Ry
     smearing contrib. (-TS)   =      -0.00044922 Ry

     convergence has been achieved in   9 iterations

     Forces acting on atoms (Ry/au):

     negative rho (up, down):  0.345E-02 0.000E+00
     atom    1 type  1   force =     0.00107857   -0.00004438   -0.00028443
     atom    2 type  1   force =    -0.00128328    0.00031011    0.00021617
     atom    3 type  2   force =    -0.04682945   -0.00026291   -0.00066045
     atom    4 type  2   force =    -0.00476575    0.00005411    0.00025474
     atom    5 type  1   force =    -0.00236136   -0.01691286    0.00000644
     atom    6 type  1   force =    -0.00239184    0.01687910    0.00000744
     atom    7 type  1   force =    -0.00085586    0.00005035   -0.00018847
     atom    8 type  1   force =     0.00161534    0.00000712    0.00002425
     atom    9 type  2   force =     0.00070197    0.00001115    0.00027262
     atom   10 type  2   force =    -0.00124463    0.00000043   -0.00060986
     atom   11 type  1   force =    -0.01551323   -0.01506328    0.00027461
     atom   12 type  1   force =    -0.01551071    0.01505944    0.00027628
     atom   13 type  1   force =     0.00109876   -0.00000200   -0.00023756
     atom   14 type  1   force =     0.00027070   -0.00005659   -0.00039405
     atom   15 type  1   force =    -0.00088522    0.00017118    0.00019108
     atom   16 type  2   force =     0.05062753   -0.00024589   -0.00066406
     atom   17 type  2   force =    -0.00376240    0.00007097    0.00021272
     atom   18 type  1   force =     0.00363726   -0.01674085    0.00001252
     atom   19 type  1   force =     0.00348873    0.01670906    0.00000580
     atom   20 type  1   force =    -0.00413208    0.00010099   -0.00030271
     atom   21 type  1   force =     0.00168390    0.00000285    0.00015214
     atom   22 type  2   force =    -0.00177018    0.00000818    0.00011564
     atom   23 type  2   force =     0.00421516   -0.00000576    0.00042177
     atom   24 type  1   force =     0.01533878   -0.01547936    0.00001359
     atom   25 type  1   force =     0.01533163    0.01547064    0.00000728
     atom   26 type  1   force =     0.00016678   -0.00000221   -0.00015530
     atom   27 type  3   force =     0.00000309   -0.00006273    0.00033936
     atom   28 type  3   force =    -0.00000836   -0.00001436    0.00018560
     atom   29 type  3   force =     0.00031848   -0.00000689    0.00016897
     atom   30 type  3   force =     0.00026354   -0.00000703    0.00005191
     atom   31 type  1   force =     0.00094574   -0.00000160   -0.00022332
     atom   32 type  3   force =     0.00052840    0.00000305    0.00050927

     Total force =     0.002041     Total SCF correction =     0.000139

     bfgs converged in   7 scf cycles and   6 bfgs steps
     (criteria: energy < 0.10E-03, force < 0.10E-02)

     End of BFGS Geometry Optimization

     Final energy   =   -1562.6442129654 Ry
Begin final coordinates

ATOMIC_POSITIONS (crystal)
O0       0.000000000   0.000000000   0.372258547    0   0   1
O0       0.000000000   0.500000000   0.388773400    0   0   1
Nb1      0.250000000   0.500000000   0.444618989    0   0   1
Nb1      0.000000000   0.000000000   0.444886928    0   0   1
O0       0.250000000   0.790000000   0.447025082    0   0   1
O0       0.250000000   0.210000000   0.447023701    0   0   1
O0       0.000000000   0.500000000   0.500580577    0   0   1
O0       0.000000000   0.000000000   0.523426393    0   0   1
Nb1      0.250000000   0.000000000   0.577422128    0   0   1
Nb1      0.000000000   0.500000000   0.569803062    0   0   1
O0       0.250000000   0.710000000   0.575989682    0   0   1
O0       0.250000000   0.290000000   0.575988271    0   0   1
O0       0.000000000   0.000000000   0.622006212    0   0   1
O0       0.500000000   0.000000000   0.372577780    0   0   1
O0       0.500000000   0.500000000   0.390805858    0   0   1
Nb1      0.750000000   0.500000000   0.444660044    0   0   1
Nb1      0.500000000   0.000000000   0.445458424    0   0   1
O0       0.750000000   0.790000000   0.447033235    0   0   1
O0       0.750000000   0.210000000   0.447033194    0   0   1
O0       0.500000000   0.500000000   0.499103082    0   0   1
O0       0.500000000   0.000000000   0.523366648    0   0   1
Nb1      0.750000000   0.000000000   0.577454530    0   0   1
Nb1      0.500000000   0.500000000   0.577549572    0   0   1
O0       0.750000000   0.710000000   0.575929259    0   0   1
O0       0.750000000   0.290000000   0.575931104    0   0   1
O0       0.500000000   0.000000000   0.621888105    0   0   1
H2      -0.000466254   0.501781451   0.352467958
H2       0.499513347   0.501824916   0.354578103
H2       0.150435438   0.000502117   0.356358381
H2       0.650279987   0.000498590   0.356637907
O0       0.503284515   0.500002485   0.648997506
H2       0.398711408   0.500053460   0.676876336
End final coordinates

     General routines

     Parallel routines
     Hubbard U routines

   This run was terminated on:   2:59:37   1May2014

   JOB DONE.
Running PBS batch system epilogue script
Job id: 340589.audhumbla.fysik.dtu.dk
Username: zhonxu
Groupname: campgst
Jobname: NbO2/Eads-2-layers/OH-U-1.5
Sessionid: 19487
Queuename: verylong
Accounting:
This job has allocated the following 16 nodes:
a092 a092 a092 a092 a092 a092 a092 a092 a004 a004 a004 a004 a004 a004 a004 a004
Finished epilogue job 340589.audhumbla.fysik.dtu.dk for zhonxu