     Program PWSCF v.5.0.2 (svn rev. 9656) starts on 28Apr2014 at 12:29:27

     Current dimensions of program PWSCF are:
     Max number of different atomic species (ntypx) = 10
     Max number of k-points (npk) =  40000
     Max angular momentum in pseudopotentials (lmaxx) =  3
     Reading input from pwscf.in
Warning: card &CELL ignored
Warning: card / ignored

     Subspace diagonalization in iterative solution of the eigenvalue problem:
     a serial algorithm will be used

     bravais-lattice index     =            0
     lattice parameter (alat)  =      11.2250  a.u.
     unit-cell volume          =    7005.5484 (a.u.)^3
     number of atoms/cell      =           31
     number of atomic types    =            3
     number of electrons       =       214.00
     number of Kohn-Sham states=          309
     kinetic-energy cutoff     =      40.0000  Ry
     charge density cutoff     =     500.0000  Ry
     convergence threshold     =      1.0E-06
     mixing beta               =       0.7000
     number of iterations used =            8  plain     mixing
     Exchange-correlation      = SLA  PW   PBE  PBE ( 1 4 3 4 0)
     EXX-fraction              =        0.00
     nstep                     =           50

     celldm(1)=  11.224973  celldm(2)=   0.000000  celldm(3)=   0.000000
     celldm(4)=   0.000000  celldm(5)=   0.000000  celldm(6)=   0.000000

     crystal axes: (cart. coord. in units of alat)
               a(1) = (   1.000000   0.000000   0.000000 )
               a(2) = (   0.000000   1.107086   0.000000 )
               a(3) = (   0.000000   0.000000   4.474090 )

     reciprocal axes: (cart. coord. in units 2 pi/alat)
               b(1) = (  1.000000  0.000000  0.000000 )
               b(2) = (  0.000000  0.903272  0.000000 )
               b(3) = (  0.000000  0.000000  0.223509 )

     PseudoPot. # 1 for O  read from file:
     /home/camp/zhonxu/pseudo/o_pbe_v1.01.uspp.F.UPF
     MD5 check sum: 2bcb18d16ea4b960afae9ec6d52f22d2
     Pseudo is Ultrasoft + core correction, Zval =  6.0
     Generated by new atomic code, or converted to UPF format
     Using radial grid of  737 points,  5 beta functions with:
                l(1) =   0
                l(2) =   0
                l(3) =   1
                l(4) =   1
                l(5) =   2
     Q(r) pseudized with  8 coefficients,  rinner =    0.900   0.900   0.900
                                                       0.900   0.900

     PseudoPot. # 2 for Ti read from file:
     /home/camp/zhonxu/pseudo/ti_pbe_v1.uspp.F.UPF
     MD5 check sum: bcc8f6961b3b91f0cac3ca967d22d0fb
     Pseudo is Ultrasoft + core correction, Zval = 12.0
     Generated by new atomic code, or converted to UPF format
     Using radial grid of  851 points,  6 beta functions with:
                l(1) =   0
                l(2) =   0
                l(3) =   1
                l(4) =   1
                l(5) =   2
                l(6) =   2
     Q(r) pseudized with  6 coefficients,  rinner =    1.000   1.000   1.000
                                                       1.000   1.000

     PseudoPot. # 3 for H  read from file:
     /home/camp/zhonxu/pseudo/h_pbe_v1.uspp.F.UPF
     MD5 check sum: 3408e3ff4ec8b0a4e358431e7e038a48
     Pseudo is Ultrasoft, Zval =  1.0
     Generated by new atomic code, or converted to UPF format
     Using radial grid of  615 points,  2 beta functions with:
                l(1) =   0
                l(2) =   0
     Q(r) pseudized with  8 coefficients,  rinner =    0.700

     atomic species   valence    mass     pseudopotential
        O0             6.00    15.99940     O ( 1.00)
        Ti1           12.00    47.88000     Ti( 1.00)
        H2             1.00     1.00794     H ( 1.00)

     Simplified LDA+U calculation (l_max = 2) with parameters (eV):
     atomic species    L          U    alpha       J0     beta
        Ti1            2     3.5000   0.0000   0.0000   0.0000

     No symmetry found

   Cartesian axes

     site n.     atom                  positions (alat units)
         1           O0  tau(   1) = (   0.0000000   0.0000000   1.6912507  )
         2           O0  tau(   2) = (   0.0000000   0.5535432   1.7801061  )
         3           Ti1 tau(   3) = (   0.2500000   0.5535432   2.0136983  )
         4           Ti1 tau(   4) = (   0.0000000   0.0000000   2.0256889  )
         5           O0  tau(   5) = (   0.2500000   0.8967400   2.0101638  )
         6           O0  tau(   6) = (   0.2500000   0.2103464   2.0140115  )
         7           O0  tau(   7) = (   0.0000000   0.5535432   2.2264413  )
         8           O0  tau(   8) = (   0.0000000   0.0000000   2.3510894  )
         9           Ti1 tau(   9) = (   0.2500000   0.0000000   2.5997146  )
        10           Ti1 tau(  10) = (   0.0000000   0.5535432   2.5433858  )
        11           O0  tau(  11) = (   0.2500000   0.7638896   2.5969406  )
        12           O0  tau(  12) = (   0.2500000   0.3431968   2.5970301  )
        13           O0  tau(  13) = (   0.0000000   0.0000000   2.7842260  )
        14           O0  tau(  14) = (   0.5000000   0.0000000   1.6905348  )
        15           O0  tau(  15) = (   0.5000000   0.5535432   1.7767953  )
        16           Ti1 tau(  16) = (   0.7500000   0.5535432   2.0136983  )
        17           Ti1 tau(  17) = (   0.5000000   0.0000000   2.0204542  )
        18           O0  tau(  18) = (   0.7500000   0.8967400   2.0103875  )
        19           O0  tau(  19) = (   0.7500000   0.2103464   2.0134299  )
        20           O0  tau(  20) = (   0.5000000   0.5535432   2.2001336  )
        21           O0  tau(  21) = (   0.5000000   0.0000000   2.3501946  )
        22           Ti1 tau(  22) = (   0.7500000   0.0000000   2.5996698  )
        23           Ti1 tau(  23) = (   0.5000000   0.5535432   2.6765794  )
        24           O0  tau(  24) = (   0.7500000   0.7638896   2.5974328  )
        25           O0  tau(  25) = (   0.7500000   0.3431968   2.5965380  )
        26           O0  tau(  26) = (   0.5000000   0.0000000   2.7806915  )
        27           H2  tau(  27) = (  -0.0007400   0.6861389   1.6797970  )
        28           H2  tau(  28) = (   0.4994200   0.6816995   1.6713410  )
        29           H2  tau(  29) = (   0.1486600   0.0377184   1.6265106  )
        30           H2  tau(  30) = (   0.6489300   0.0363456   1.6257052  )
        31           O0  tau(  31) = (   0.4999900   0.5533882   2.9590287  )

     number of k points=    10  Methfessel-Paxton smearing, width (Ry)=  0.0100
                       cart. coord. in units 2pi/alat
        k(    1) = (   0.0000000   0.0000000   0.0000000), wk =   0.1250000
        k(    2) = (   0.0000000   0.2258180   0.0000000), wk =   0.2500000
        k(    3) = (   0.0000000  -0.4516359   0.0000000), wk =   0.1250000
        k(    4) = (   0.2500000   0.0000000   0.0000000), wk =   0.2500000
        k(    5) = (   0.2500000   0.2258180   0.0000000), wk =   0.2500000
        k(    6) = (   0.2500000  -0.4516359   0.0000000), wk =   0.2500000
        k(    7) = (  -0.5000000   0.0000000   0.0000000), wk =   0.1250000
        k(    8) = (  -0.5000000   0.2258180   0.0000000), wk =   0.2500000
        k(    9) = (  -0.5000000  -0.4516359   0.0000000), wk =   0.1250000
        k(   10) = (  -0.2500000   0.2258180   0.0000000), wk =   0.2500000

     Largest allocated arrays     est. size (Mb)     dimensions
     Largest temporary arrays     est. size (Mb)     dimensions

     Check: negative/imaginary core charge=   -0.000006    0.000000

     Initial potential from superposition of free atoms
     Check: negative starting charge=   -0.102438

     starting charge  205.99958, renormalised to  214.00000

     negative rho (up, down):  0.106E+00 0.000E+00
     Number of +U iterations with fixed ns =  0
     Starting occupations:
 --- enter write_ns ---
 LDA+U parameters:
U( 2)     =  3.50000000
alpha( 2) =  0.00000000
atom    3   Tr[ns(na)] =   2.00000
    eigenvalues:
  0.200  0.200  0.200  0.200  0.200
    eigenvectors:
  1.000  0.000  0.000  0.000  0.000
  0.000  1.000  0.000  0.000  0.000
  0.000  0.000  1.000  0.000  0.000
  0.000  0.000  0.000  1.000  0.000
  0.000  0.000  0.000  0.000  1.000
    occupations:
  0.200  0.000  0.000  0.000  0.000
  0.000  0.200  0.000  0.000  0.000
  0.000  0.000  0.200  0.000  0.000
  0.000  0.000  0.000  0.200  0.000
  0.000  0.000  0.000  0.000  0.200
atom    4   Tr[ns(na)] =   2.00000
    eigenvalues:
  0.200  0.200  0.200  0.200  0.200
    eigenvectors:
  1.000  0.000  0.000  0.000  0.000
  0.000  1.000  0.000  0.000  0.000
  0.000  0.000  1.000  0.000  0.000
  0.000  0.000  0.000  1.000  0.000
  0.000  0.000  0.000  0.000  1.000
    occupations:
  0.200  0.000  0.000  0.000  0.000
  0.000  0.200  0.000  0.000  0.000
  0.000  0.000  0.200  0.000  0.000
  0.000  0.000  0.000  0.200  0.000
  0.000  0.000  0.000  0.000  0.200
atom    9   Tr[ns(na)] =   2.00000
    eigenvalues:
  0.200  0.200  0.200  0.200  0.200
    eigenvectors:
  1.000  0.000  0.000  0.000  0.000
  0.000  1.000  0.000  0.000  0.000
  0.000  0.000  1.000  0.000  0.000
  0.000  0.000  0.000  1.000  0.000
  0.000  0.000  0.000  0.000  1.000
    occupations:
  0.200  0.000  0.000  0.000  0.000
  0.000  0.200  0.000  0.000  0.000
  0.000  0.000  0.200  0.000  0.000
  0.000  0.000  0.000  0.200  0.000
  0.000  0.000  0.000  0.000  0.200
atom   10   Tr[ns(na)] =   2.00000
    eigenvalues:
  0.200  0.200  0.200  0.200  0.200
    eigenvectors:
  1.000  0.000  0.000  0.000  0.000
  0.000  1.000  0.000  0.000  0.000
  0.000  0.000  1.000  0.000  0.000
  0.000  0.000  0.000  1.000  0.000
  0.000  0.000  0.000  0.000  1.000
    occupations:
  0.200  0.000  0.000  0.000  0.000
  0.000  0.200  0.000  0.000  0.000
  0.000  0.000  0.200  0.000  0.000
  0.000  0.000  0.000  0.200  0.000
  0.000  0.000  0.000  0.000  0.200
atom   16   Tr[ns(na)] =   2.00000
    eigenvalues:
  0.200  0.200  0.200  0.200  0.200
    eigenvectors:
  1.000  0.000  0.000  0.000  0.000
  0.000  1.000  0.000  0.000  0.000
  0.000  0.000  1.000  0.000  0.000
  0.000  0.000  0.000  1.000  0.000
  0.000  0.000  0.000  0.000  1.000
    occupations:
  0.200  0.000  0.000  0.000  0.000
  0.000  0.200  0.000  0.000  0.000
  0.000  0.000  0.200  0.000  0.000
  0.000  0.000  0.000  0.200  0.000
  0.000  0.000  0.000  0.000  0.200
atom   17   Tr[ns(na)] =   2.00000
    eigenvalues:
  0.200  0.200  0.200  0.200  0.200
    eigenvectors:
  1.000  0.000  0.000  0.000  0.000
  0.000  1.000  0.000  0.000  0.000
  0.000  0.000  1.000  0.000  0.000
  0.000  0.000  0.000  1.000  0.000
  0.000  0.000  0.000  0.000  1.000
    occupations:
  0.200  0.000  0.000  0.000  0.000
  0.000  0.200  0.000  0.000  0.000
  0.000  0.000  0.200  0.000  0.000
  0.000  0.000  0.000  0.200  0.000
  0.000  0.000  0.000  0.000  0.200
atom   22   Tr[ns(na)] =   2.00000
    eigenvalues:
  0.200  0.200  0.200  0.200  0.200
    eigenvectors:
  1.000  0.000  0.000  0.000  0.000
  0.000  1.000  0.000  0.000  0.000
  0.000  0.000  1.000  0.000  0.000
  0.000  0.000  0.000  1.000  0.000
  0.000  0.000  0.000  0.000  1.000
    occupations:
  0.200  0.000  0.000  0.000  0.000
  0.000  0.200  0.000  0.000  0.000
[...]
  0.008  0.150  0.011  0.640  0.190
  0.330  0.117  0.550  0.000  0.002
    occupations:
  0.220  0.014 -0.004  0.079  0.002
  0.014  0.425  0.003 -0.027  0.012
 -0.004  0.003  0.175  0.007 -0.018
  0.079 -0.027  0.007  0.363 -0.002
  0.002  0.012 -0.018 -0.002  0.185
atom    4   Tr[ns(na)] =   2.81772
    eigenvalues:
  0.157  0.190  0.204  0.426  0.432
    eigenvectors:
  0.007  0.002  0.000  0.002  0.989
  0.001  0.841  0.155  0.000  0.003
  0.001  0.154  0.845  0.000  0.000
  0.992  0.002  0.000  0.000  0.006
  0.000  0.000  0.000  0.998  0.002
    occupations:
  0.429  0.012  0.004 -0.022 -0.000
  0.012  0.193 -0.005  0.000 -0.002
  0.004 -0.005  0.202  0.001 -0.000
 -0.022  0.000  0.001  0.159 -0.000
 -0.000 -0.002 -0.000 -0.000  0.426
atom    9   Tr[ns(na)] =   2.80235
    eigenvalues:
  0.159  0.200  0.217  0.388  0.437
    eigenvectors:
  0.000  0.000  0.906  0.094  0.000
  0.000  0.000  0.000  0.008  0.992
  0.993  0.007  0.000  0.000  0.000
  0.000  0.000  0.094  0.899  0.008
  0.007  0.993  0.000  0.000  0.000
    occupations:
  0.233  0.002 -0.000  0.050  0.000
  0.002  0.436  0.000 -0.005 -0.000
 -0.000  0.000  0.159 -0.000 -0.003
  0.050 -0.005 -0.000  0.373 -0.000
  0.000 -0.000 -0.003 -0.000  0.200
atom   10   Tr[ns(na)] =   2.71949
    eigenvalues:
  0.161  0.209  0.225  0.324  0.441
    eigenvectors:
  0.018  0.000  0.000  0.982  0.000
  0.000  0.000  1.000  0.000  0.000
  0.000  1.000  0.000  0.000  0.000
  0.982  0.000  0.000  0.018  0.000
  0.000  0.000  0.000  0.000  1.000
    occupations:
  0.321 -0.000 -0.000 -0.022 -0.000
 -0.000  0.225 -0.000 -0.000 -0.000
 -0.000 -0.000  0.209 -0.000  0.000
 -0.022 -0.000 -0.000  0.164  0.000
 -0.000 -0.000  0.000  0.000  0.441
atom   16   Tr[ns(na)] =   2.73708
    eigenvalues:
  0.160  0.181  0.200  0.389  0.438
    eigenvectors:
  0.024  0.726  0.072  0.168  0.011
  0.003  0.005  0.004  0.191  0.797
  0.634  0.001  0.364  0.001  0.000
  0.008  0.150  0.012  0.640  0.190
  0.331  0.118  0.549  0.001  0.002
    occupations:
  0.220 -0.014 -0.004  0.079 -0.003
 -0.014  0.425 -0.003  0.027  0.012
 -0.004 -0.003  0.175  0.007  0.018
  0.079  0.027  0.007  0.363  0.001
 -0.003  0.012  0.018  0.001  0.185
atom   17   Tr[ns(na)] =   2.81347
    eigenvalues:
  0.156  0.190  0.205  0.423  0.433
    eigenvectors:
  0.007  0.003  0.000  0.000  0.991
  0.001  0.858  0.138  0.000  0.003
  0.000  0.137  0.862  0.000  0.000
  0.992  0.002  0.000  0.000  0.006
  0.000  0.000  0.000  1.000  0.000
    occupations:
  0.431  0.012  0.004 -0.022 -0.000
  0.012  0.192 -0.005  0.000 -0.002
  0.004 -0.005  0.203  0.001 -0.000
 -0.022  0.000  0.001  0.158 -0.000
 -0.000 -0.002 -0.000 -0.000  0.423
atom   22   Tr[ns(na)] =   2.80227
    eigenvalues:
  0.159  0.200  0.217  0.388  0.437
    eigenvectors:
  0.000  0.000  0.906  0.094  0.000
  0.000  0.000  0.000  0.007  0.992
  0.993  0.007  0.000  0.000  0.000
  0.000  0.000  0.094  0.899  0.008
  0.007  0.993  0.000  0.000  0.000
    occupations:
  0.233 -0.002  0.000  0.050  0.000
 -0.002  0.436 -0.000  0.005 -0.000
  0.000 -0.000  0.159 -0.000  0.003
  0.050  0.005 -0.000  0.373 -0.000
  0.000 -0.000  0.003 -0.000  0.200
atom   23   Tr[ns(na)] =   2.93680
    eigenvalues:
  0.103  0.289  0.303  0.332  0.441
    eigenvectors:
  0.003  0.000  0.000  0.000  0.997
  0.000  0.000  1.000  0.000  0.000
  0.000  1.000  0.000  0.000  0.000
  0.997  0.000  0.000  0.000  0.003
  0.000  0.000  0.000  1.000  0.000
    occupations:
  0.439 -0.000  0.000 -0.020 -0.000
 -0.000  0.303  0.000 -0.000  0.000
  0.000  0.000  0.289 -0.000 -0.000
 -0.020 -0.000 -0.000  0.104 -0.000
 -0.000  0.000 -0.000 -0.000  0.332
N of occupied +U levels =  22.3662389
 --- exit write_ns ---

     Threshold (ethr) on eigenvalues was too large:
     Diagonalizing with lowered threshold

     Davidson diagonalization with overlap
     ethr =  9.85E-08,  avg # of iterations =  1.0

[...]

     total energy              =   -1564.94647195 Ry
     Harris-Foulkes estimate   =   -1564.94647196 Ry
     estimated scf accuracy    <       0.00000004 Ry

     iteration # 12     ecut=    40.00 Ry     beta=0.70
     Davidson diagonalization with overlap
     ethr =  1.91E-11,  avg # of iterations =  1.0

     negative rho (up, down):  0.104E+00 0.000E+00

     End of self-consistent calculation
 --- enter write_ns ---
 LDA+U parameters:
U( 2)     =  3.50000000
alpha( 2) =  0.00000000
atom    3   Tr[ns(na)] =   2.73753
    eigenvalues:
  0.160  0.182  0.200  0.390  0.438
    eigenvectors:
  0.025  0.726  0.071  0.168  0.011
  0.003  0.005  0.004  0.192  0.797
  0.634  0.001  0.364  0.001  0.000
  0.008  0.150  0.011  0.640  0.191
  0.330  0.117  0.550  0.000  0.002
    occupations:
  0.220  0.014 -0.004  0.080  0.002
  0.014  0.425  0.003 -0.027  0.012
 -0.004  0.003  0.175  0.007 -0.018
  0.080 -0.027  0.007  0.363 -0.002
  0.002  0.012 -0.018 -0.002  0.185
atom    4   Tr[ns(na)] =   2.81708
    eigenvalues:
  0.157  0.190  0.204  0.426  0.432
    eigenvectors:
  0.007  0.002  0.000  0.002  0.989
  0.001  0.841  0.155  0.000  0.003
  0.001  0.154  0.845  0.000  0.000
  0.992  0.002  0.000  0.000  0.006
  0.000  0.000  0.000  0.998  0.002
    occupations:
  0.429  0.012  0.004 -0.022 -0.000
  0.012  0.193 -0.005  0.000 -0.002
  0.004 -0.005  0.202  0.001 -0.000
 -0.022  0.000  0.001  0.159 -0.000
 -0.000 -0.002 -0.000 -0.000  0.426
atom    9   Tr[ns(na)] =   2.80247
    eigenvalues:
  0.159  0.200  0.217  0.388  0.437
    eigenvectors:
  0.000  0.000  0.906  0.094  0.000
  0.000  0.000  0.000  0.008  0.992
  0.993  0.007  0.000  0.000  0.000
  0.000  0.000  0.094  0.898  0.008
  0.007  0.993  0.000  0.000  0.000
    occupations:
  0.233  0.002 -0.000  0.050  0.000
  0.002  0.436  0.000 -0.005 -0.000
 -0.000  0.000  0.159 -0.000 -0.003
  0.050 -0.005 -0.000  0.373 -0.000
  0.000 -0.000 -0.003 -0.000  0.200
atom   10   Tr[ns(na)] =   2.71849
    eigenvalues:
  0.161  0.209  0.225  0.324  0.441
    eigenvectors:
  0.018  0.000  0.000  0.982  0.000
  0.000  0.000  1.000  0.000  0.000
  0.000  1.000  0.000  0.000  0.000
  0.982  0.000  0.000  0.018  0.000
  0.000  0.000  0.000  0.000  1.000
    occupations:
  0.321 -0.000 -0.000 -0.022 -0.000
 -0.000  0.225 -0.000 -0.000 -0.000
 -0.000 -0.000  0.209 -0.000  0.000
 -0.022 -0.000 -0.000  0.164  0.000
 -0.000 -0.000  0.000  0.000  0.441
atom   16   Tr[ns(na)] =   2.73754
    eigenvalues:
  0.160  0.181  0.200  0.390  0.438
    eigenvectors:
  0.024  0.726  0.072  0.168  0.011
  0.003  0.005  0.004  0.191  0.797
  0.634  0.001  0.364  0.001  0.000
  0.008  0.150  0.012  0.640  0.191
  0.331  0.118  0.549  0.001  0.002
    occupations:
  0.220 -0.014 -0.004  0.080 -0.003
 -0.014  0.425 -0.003  0.027  0.012
 -0.004 -0.003  0.175  0.007  0.018
  0.080  0.027  0.007  0.363  0.001
 -0.003  0.012  0.018  0.001  0.185
atom   17   Tr[ns(na)] =   2.81281
    eigenvalues:
  0.156  0.190  0.205  0.423  0.433
    eigenvectors:
  0.007  0.003  0.000  0.000  0.990
  0.001  0.858  0.138  0.000  0.003
  0.000  0.137  0.862  0.000  0.000
  0.992  0.002  0.000  0.000  0.006
  0.000  0.000  0.000  1.000  0.000
    occupations:
  0.431  0.012  0.004 -0.022 -0.000
  0.012  0.192 -0.005  0.000 -0.002
  0.004 -0.005  0.203  0.001 -0.000
 -0.022  0.000  0.001  0.158 -0.000
 -0.000 -0.002 -0.000 -0.000  0.423
atom   22   Tr[ns(na)] =   2.80239
    eigenvalues:
  0.159  0.200  0.217  0.388  0.437
    eigenvectors:
  0.000  0.000  0.906  0.094  0.000
  0.000  0.000  0.000  0.008  0.992
  0.993  0.007  0.000  0.000  0.000
  0.000  0.000  0.094  0.898  0.008
  0.007  0.993  0.000  0.000  0.000
    occupations:
  0.233 -0.002  0.000  0.050  0.000
 -0.002  0.436 -0.000  0.005 -0.000
  0.000 -0.000  0.159 -0.000  0.003
  0.050  0.005 -0.000  0.373 -0.000
  0.000 -0.000  0.003 -0.000  0.200
atom   23   Tr[ns(na)] =   2.93798
    eigenvalues:
  0.103  0.290  0.304  0.332  0.441
    eigenvectors:
  0.003  0.000  0.000  0.000  0.997
  0.000  0.000  1.000  0.000  0.000
  0.000  1.000  0.000  0.000  0.000
  0.997  0.000  0.000  0.000  0.003
  0.000  0.000  0.000  1.000  0.000
    occupations:
  0.440 -0.000  0.000 -0.019 -0.000
 -0.000  0.304  0.000 -0.000  0.000
  0.000  0.000  0.290 -0.000 -0.000
 -0.019 -0.000 -0.000  0.104 -0.000
 -0.000  0.000 -0.000 -0.000  0.332
N of occupied +U levels =  22.3662879
 --- exit write_ns ---

[...]

          k = 0.2500-0.4516 0.0000 ( 29882 PWs)   bands (ev):

[...]

          k =-0.2500 0.2258 0.0000 ( 29912 PWs)   bands (ev):

   -61.3280 -61.3018 -61.0534 -60.5062 -60.4784 -60.0377 -60.0103 -59.3096
   -37.7472 -37.5449 -37.5030 -37.4885 -37.4665 -37.4242 -37.3743 -37.2203
   -37.2027 -37.0149 -36.8017 -36.7311 -36.7076 -36.5980 -36.5756 -36.4166
   -36.3044 -36.2815 -36.2665 -36.1973 -36.1021 -35.6471 -35.6271 -35.6196
   -22.0058 -21.7492 -21.0091 -20.8066 -20.3160 -20.2748 -20.2534 -20.1923
   -19.9668 -19.9100 -19.7979 -19.7683 -19.6513 -19.5791 -19.3300 -19.1867
   -18.8930 -18.7376 -17.9742  -9.7542  -9.4911  -8.4865  -8.2676  -7.9811
    -7.7312  -7.6131  -7.5938  -7.5420  -7.4267  -7.3474  -7.2107  -7.1237
    -6.9979  -6.9821  -6.9126  -6.8140  -6.7832  -6.5957  -6.5308  -6.4299
    -6.2785  -6.2036  -6.0439  -5.8928  -5.7898  -5.7318  -5.6405  -5.5305
    -5.4966  -5.4438  -5.4059  -5.3343  -5.2451  -5.1881  -5.1145  -5.0345
    -4.9424  -4.8765  -4.8333  -4.6966  -4.6297  -4.4408  -4.3567  -4.2043
    -4.1945  -4.1422  -4.1028  -3.9918  -3.9429  -3.8247  -3.6705  -3.6132
    -3.5848  -3.5385  -3.4671  -3.3268  -0.8452  -0.7625  -0.6732  -0.5657
    -0.3192  -0.2182  -0.1062  -0.0946  -0.0314   0.1077   0.2415   0.3487
     0.3841   0.4313   0.6237   0.7000   0.7399   0.8624   0.9430   1.0446
     1.1883   1.2467   1.2973   1.3509   1.5333   1.6086   1.7355   1.9239
     2.0045   2.1155   2.2654   2.5576   2.7017   2.7962   2.8501   2.9668
     3.0376   3.1962   3.3287   3.4282   3.5357   4.0976   4.4487   4.6097
     4.7017   4.9027   5.2264   5.8376   5.9326   6.0228   6.0597   6.3450
     6.4165   6.5982   6.7626   6.9297   7.0282   7.1987   7.2862   7.4229
     7.5748   7.6547   7.7377   7.8860   7.9253   8.0335   8.1820   8.3637
     8.5146   8.6253   8.6902   8.7522   9.0172   9.1587   9.1824   9.3034
     9.3217   9.4610   9.5448   9.5778   9.6945   9.7976   9.8929   9.9724
    10.0346  10.3013  10.3422  10.4238  10.5291  10.6315  10.7218  10.7939
    10.9021  10.9402  11.0224  11.1047  11.1369  11.2478  11.3213  11.3622
    11.4486  11.4741  11.5477  11.6855  11.7271  11.8347  11.9110  11.9871
    12.0017  12.0739  12.1338  12.2270  12.3613  12.4122  12.4700  12.4886
    12.6049  12.7066  12.7620  12.8532  12.8851  12.9570  13.0179  13.1245
    13.2483  13.2918  13.3420  13.4258  13.5156  13.5670  13.6187  13.6604
    13.7455  13.7955  13.9122  13.9986  14.0519  14.1342  14.2154  14.2550
    14.4104  14.4423  14.5208  14.5663  14.6779  14.7288  14.8374  14.9344
    15.0357  15.1387  15.2032  15.2637  15.3199  15.4059  15.4583  15.5466
    15.5921  15.6324  15.7776  15.7874  15.8282  15.9455  15.9672  16.0426
    16.1343  16.2052  16.2697  16.3522  16.4956  16.5602  16.6464  16.6878
    16.7841  16.8414  16.8851  16.9295  16.9744  17.0443  17.1119  17.2138
    17.2320  17.2626  17.3734  17.4625  17.5724  17.5926  17.6639  17.7036
    17.7606  17.8244  17.9070  18.0427  18.0937  18.1809  18.2152  18.2902
    18.3781  18.4992  18.6085  18.6381  18.6610

     the Fermi energy is    -3.4095 ev

!    total energy              =   -1564.94647195 Ry
     Harris-Foulkes estimate   =   -1564.94647196 Ry
     estimated scf accuracy    <          8.1E-09 Ry

     The total energy is the sum of the following terms:

     one-electron contribution =  -18371.45553180 Ry
     hartree contribution      =    9199.43745257 Ry
     xc contribution           =    -276.53578890 Ry
     ewald contribution        =    7881.66653419 Ry
     Hubbard energy            =       1.94028399 Ry
     smearing contrib. (-TS)   =       0.00057800 Ry

     convergence has been achieved in  12 iterations

     Forces acting on atoms (Ry/au):

     negative rho (up, down):  0.104E+00 0.000E+00
     atom    1 type  1   force =    -0.00188599   -0.01153190   -0.00031787
     atom    2 type  1   force =     0.00013660    0.01543029    0.00067302
     atom    3 type  2   force =     0.05801728   -0.00797865   -0.00019924
     atom    4 type  2   force =    -0.00082702    0.00652387   -0.00035200
     atom    5 type  1   force =    -0.00321938   -0.06770175    0.00043191
     atom    6 type  1   force =    -0.00551882    0.06802426    0.00058689
     atom    7 type  1   force =     0.00000563    0.00042343   -0.00006623
     atom    8 type  1   force =     0.00113337   -0.00146236   -0.00052527
     atom    9 type  2   force =     0.01117060    0.00034323   -0.00084167
     atom   10 type  2   force =     0.00001748   -0.00001274    0.00029164
     atom   11 type  1   force =    -0.03104736   -0.00364502    0.00012875
     atom   12 type  1   force =    -0.03132144    0.00397071    0.00017995
     atom   13 type  1   force =     0.00008512    0.00008017    0.00000981
     atom   14 type  1   force =    -0.00281828   -0.01128937   -0.00052606
     atom   15 type  1   force =     0.00003656    0.01246872    0.00095229
     atom   16 type  2   force =    -0.05773155   -0.00796899   -0.00019733
     atom   17 type  2   force =    -0.00087651    0.00601692   -0.00075967
     atom   18 type  1   force =     0.00703046   -0.06748420    0.00052128
     atom   19 type  1   force =     0.00543187    0.06832887    0.00042030
     atom   20 type  1   force =    -0.00016327   -0.00032426   -0.00035260
     atom   21 type  1   force =     0.00121220   -0.00120550   -0.00095896
     atom   22 type  2   force =    -0.01147255    0.00001302   -0.00084160
     atom   23 type  2   force =     0.00002542   -0.00020124    0.00018479
     atom   24 type  1   force =     0.03138608   -0.00359033    0.00018838
     atom   25 type  1   force =     0.03090492    0.00385916    0.00011527
     atom   26 type  1   force =     0.00015522   -0.00016984    0.00038472
     atom   27 type  3   force =    -0.00005852   -0.00074192   -0.00011229
     atom   28 type  3   force =     0.00000928   -0.00067370    0.00032411
     atom   29 type  3   force =     0.00004685    0.00018062    0.00004036
     atom   30 type  3   force =     0.00013604    0.00031003    0.00014738
     atom   31 type  1   force =    -0.00000032    0.00000848    0.00046993

     Total force =     0.002850     Total SCF correction =     0.000112

     bfgs converged in  15 scf cycles and  14 bfgs steps
     (criteria: energy < 0.10E-03, force < 0.10E-02)

     End of BFGS Geometry Optimization

     Final energy   =   -1564.9464719541 Ry
Begin final coordinates

ATOMIC_POSITIONS (crystal)
O0       0.000000000   0.000000000   0.376542299    0   0   1
O0       0.000000000   0.500000000   0.396451602    0   0   1
Ti1      0.250000000   0.500000000   0.449148371    0   0   1
Ti1      0.000000000   0.000000000   0.451067300    0   0   1
O0       0.250000000   0.810000000   0.448471726    0   0   1
O0       0.250000000   0.190000000   0.449309171    0   0   1
O0       0.000000000   0.500000000   0.497364764    0   0   1
O0       0.000000000   0.000000000   0.525815767    0   0   1
Ti1      0.250000000   0.000000000   0.580596779    0   0   1
Ti1      0.000000000   0.500000000   0.569066527    0   0   1
O0       0.250000000   0.690000000   0.581769591    0   0   1
O0       0.250000000   0.310000000   0.581723631    0   0   1
O0       0.000000000   0.000000000   0.623533459    0   0   1
O0       0.500000000   0.000000000   0.376652574    0   0   1
O0       0.500000000   0.500000000   0.395618077    0   0   1
Ti1      0.750000000   0.500000000   0.449145999    0   0   1
Ti1      0.500000000   0.000000000   0.451180494    0   0   1
O0       0.750000000   0.810000000   0.448442643    0   0   1
O0       0.750000000   0.190000000   0.449325367    0   0   1
O0       0.500000000   0.500000000   0.491589680    0   0   1
O0       0.500000000   0.000000000   0.525586570    0   0   1
Ti1      0.750000000   0.000000000   0.580588694    0   0   1
Ti1      0.500000000   0.500000000   0.601625087    0   0   1
O0       0.750000000   0.690000000   0.581782768    0   0   1
O0       0.750000000   0.310000000   0.581705331    0   0   1
O0       0.500000000   0.000000000   0.622048023    0   0   1
H2      -0.000393733   0.624366401   0.375516188
H2       0.499518183   0.622754942   0.374162934
H2       0.149583155   0.034625704   0.362643504
H2       0.649121724   0.034456379   0.362533879
O0       0.500040678   0.499912531   0.665031202
End final coordinates

     General routines

     Parallel routines
     Hubbard U routines

   This run was terminated on:   2: 6: 6  29Apr2014

   JOB DONE.