     Program PWSCF v.5.0.2 (svn rev. 9656) starts on  1Apr2014 at 13:34:38

     Current dimensions of program PWSCF are:
     Max number of different atomic species (ntypx) = 10
     Max number of k-points (npk) =  40000
     Max angular momentum in pseudopotentials (lmaxx) =  3
     Reading input from pwscf.in
Warning: card &CELL ignored
Warning: card / ignored

     Subspace diagonalization in iterative solution of the eigenvalue problem:
     a serial algorithm will be used

     bravais-lattice index     =            0
     lattice parameter (alat)  =      11.1872  a.u.
     unit-cell volume          =    7531.8600 (a.u.)^3
     number of atoms/cell      =           31
     number of atomic types    =            3
     number of electrons       =       222.00
     number of Kohn-Sham states=          333
     kinetic-energy cutoff     =      40.0000  Ry
     charge density cutoff     =     500.0000  Ry
     convergence threshold     =      1.0E-06
     mixing beta               =       0.7000
     number of iterations used =            8  plain     mixing
     Exchange-correlation      = SLA  PW   PBE  PBE ( 1 4 3 4 0)
     EXX-fraction              =        0.00
     nstep                     =           50

     celldm(1)=  11.187179  celldm(2)=   0.000000  celldm(3)=   0.000000
     celldm(4)=   0.000000  celldm(5)=   0.000000  celldm(6)=   0.000000

     crystal axes: (cart. coord. in units of alat)
               a(1) = (   1.000000   0.000000   0.000000 )
               a(2) = (   0.000000   1.180104   0.000000 )
               a(3) = (   0.000000   0.000000   4.558482 )

     reciprocal axes: (cart. coord. in units 2 pi/alat)
               b(1) = (  1.000000  0.000000  0.000000 )
               b(2) = (  0.000000  0.847383  0.000000 )
               b(3) = (  0.000000  0.000000  0.219371 )

     PseudoPot. # 1 for O  read from file:
     /home/camp/zhonxu/pseudo/o_pbe_v1.01.uspp.F.UPF
     MD5 check sum: 2bcb18d16ea4b960afae9ec6d52f22d2
     Pseudo is Ultrasoft + core correction, Zval =  6.0
     Generated by new atomic code, or converted to UPF format
     Using radial grid of  737 points,  5 beta functions with:
                l(1) =   0
                l(2) =   0
                l(3) =   1
                l(4) =   1
                l(5) =   2
     Q(r) pseudized with  8 coefficients,  rinner =    0.900   0.900   0.900
                                                       0.900   0.900

     PseudoPot. # 2 for Nb read from file:
     /home/camp/zhonxu/pseudo/nb_pbe_v1.uspp.F.UPF
     MD5 check sum: 573aab8a2fa660278ed4a62cd769473f
     Pseudo is Ultrasoft + core correction, Zval = 13.0
     Generated by new atomic code, or converted to UPF format
     Using radial grid of  887 points,  6 beta functions with:
                l(1) =   0
                l(2) =   0
                l(3) =   1
                l(4) =   1
                l(5) =   2
                l(6) =   2
     Q(r) pseudized with  6 coefficients,  rinner =    1.000   1.000   1.000
                                                       1.000   1.000

     PseudoPot. # 3 for H  read from file:
     /home/camp/zhonxu/pseudo/h_pbe_v1.uspp.F.UPF
     MD5 check sum: 3408e3ff4ec8b0a4e358431e7e038a48
     Pseudo is Ultrasoft, Zval =  1.0
     Generated by new atomic code, or converted to UPF format
     Using radial grid of  615 points,  2 beta functions with:
                l(1) =   0
                l(2) =   0
     Q(r) pseudized with  8 coefficients,  rinner =    0.700

     atomic species   valence    mass     pseudopotential
        O0             6.00    15.99940     O ( 1.00)
        Nb1           13.00    92.90640     Nb( 1.00)
        H2             1.00     1.00794     H ( 1.00)

     Starting magnetic structure
     atomic species   magnetization
        O0           0.000
        Nb1          0.000
        H2           0.000

     No symmetry found

   Cartesian axes

     site n.     atom                  positions (alat units)
         1           O0  tau(   1) = (   0.0000000   0.0000000   1.7080633  )
         2           O0  tau(   2) = (   0.0000000   0.5900519   1.7583889  )
         3           Nb1 tau(   3) = (   0.2500000   0.5900519   2.0066439  )
         4           Nb1 tau(   4) = (   0.0000000   0.0000000   2.0401487  )
         5           O0  tau(   5) = (   0.2500000   0.9322821   2.0429294  )
         6           O0  tau(   6) = (   0.2500000   0.2478218   2.0431118  )
         7           O0  tau(   7) = (   0.0000000   0.5900519   2.2709903  )
         8           O0  tau(   8) = (   0.0000000   0.0000000   2.3999042  )
         9           Nb1 tau(   9) = (   0.2500000   0.0000000   2.6489340  )
        10           Nb1 tau(  10) = (   0.0000000   0.5900519   2.5868019  )
        11           O0  tau(  11) = (   0.2500000   0.8378738   2.6444667  )
        12           O0  tau(  12) = (   0.2500000   0.3422301   2.6445123  )
        13           O0  tau(  13) = (   0.0000000   0.0000000   2.8518777  )
        14           O0  tau(  14) = (   0.5000000   0.0000000   1.7080633  )
        15           O0  tau(  15) = (   0.5000000   0.5900519   1.7583889  )
        16           Nb1 tau(  16) = (   0.7500000   0.5900519   2.0066439  )
        17           Nb1 tau(  17) = (   0.5000000   0.0000000   2.0401487  )
        18           O0  tau(  18) = (   0.7500000   0.9322821   2.0429294  )
        19           O0  tau(  19) = (   0.7500000   0.2478218   2.0431118  )
        20           O0  tau(  20) = (   0.5000000   0.5900519   2.2709903  )
        21           O0  tau(  21) = (   0.5000000   0.0000000   2.3999497  )
        22           Nb1 tau(  22) = (   0.7500000   0.0000000   2.6489340  )
        23           Nb1 tau(  23) = (   0.5000000   0.5900519   2.5867563  )
        24           O0  tau(  24) = (   0.7500000   0.8378738   2.6444667  )
        25           O0  tau(  25) = (   0.7500000   0.3422301   2.6445123  )
        26           O0  tau(  26) = (   0.5000000   0.0000000   2.8518777  )
        27           H2  tau(  27) = (  -0.0004200   0.5934860   1.5928705  )
        28           H2  tau(  28) = (   0.4995800   0.5932146   1.5928249  )
        29           H2  tau(  29) = (   0.1513000  -0.0014397   1.6372701  )
        30           H2  tau(  30) = (   0.6512900  -0.0014397   1.6372701  )
        31           O0  tau(  31) = (   0.5000100   0.5900755   2.8893028  )

     number of k points=    20  Methfessel-Paxton smearing, width (Ry)=  0.0100
                       cart. coord. in units 2pi/alat
        k(    1) = (   0.0000000   0.0000000   0.0000000), wk =   0.0625000
        k(    2) = (   0.0000000   0.2118458   0.0000000), wk =   0.1250000
        k(    3) = (   0.0000000  -0.4236915   0.0000000), wk =   0.0625000
        k(    4) = (   0.2500000   0.0000000   0.0000000), wk =   0.1250000
        k(    5) = (   0.2500000   0.2118458   0.0000000), wk =   0.1250000
        k(    6) = (   0.2500000  -0.4236915   0.0000000), wk =   0.1250000
        k(    7) = (  -0.5000000   0.0000000   0.0000000), wk =   0.0625000
        k(    8) = (  -0.5000000   0.2118458   0.0000000), wk =   0.1250000
        k(    9) = (  -0.5000000  -0.4236915   0.0000000), wk =   0.0625000
        k(   10) = (  -0.2500000   0.2118458   0.0000000), wk =   0.1250000
        k(   11) = (   0.0000000   0.0000000   0.0000000), wk =   0.0625000
        k(   12) = (   0.0000000   0.2118458   0.0000000), wk =   0.1250000
        k(   13) = (   0.0000000  -0.4236915   0.0000000), wk =   0.0625000
        k(   14) = (   0.2500000   0.0000000   0.0000000), wk =   0.1250000
        k(   15) = (   0.2500000   0.2118458   0.0000000), wk =   0.1250000
        k(   16) = (   0.2500000  -0.4236915   0.0000000), wk =   0.1250000
        k(   17) = (  -0.5000000   0.0000000   0.0000000), wk =   0.0625000
        k(   18) = (  -0.5000000   0.2118458   0.0000000), wk =   0.1250000
        k(   19) = (  -0.5000000  -0.4236915   0.0000000), wk =   0.0625000
        k(   20) = (  -0.2500000   0.2118458   0.0000000), wk =   0.1250000

     Largest allocated arrays     est. size (Mb)     dimensions
     Largest temporary arrays     est. size (Mb)     dimensions

     Check: negative/imaginary core charge=   -0.000003    0.000000

     Initial potential from superposition of free atoms
     Check: negative starting charge=(component1):   -0.001911
     Check: negative starting charge=(component2):   -0.001911

     starting charge  221.97807, renormalised to  222.00000

     negative rho (up, down):  0.191E-02 0.191E-02
     Starting wfc are  184 randomized atomic wfcs

     Self-consistent Calculation

     iteration #  1     ecut=    40.00 Ry     beta=0.70
     Davidson diagonalization with overlap
     ethr =  1.00E-02,  avg # of iterations =  6.0

     negative rho (up, down):  0.175E-02 0.175E-02

     total energy              =   -1554.56994441 Ry
     Harris-Foulkes estimate   =   -1566.29145420 Ry
     estimated scf accuracy    <      14.80642143 Ry

     total magnetization       =    -0.00 Bohr mag/cell
     absolute magnetization    =     0.01 Bohr mag/cell

[...]

     End of self-consistent calculation

 ------ SPIN UP ------------

          k = 0.0000 0.0000 0.0000 ( 32167 PWs)   bands (ev):

   -56.9180 -56.8298 -56.5839 -56.5761 -56.5314 -56.4992 -56.4478 -55.2781
   -33.7662 -33.1580 -33.1193 -33.0737 -33.0665 -33.0029 -32.9382 -32.9049
   -32.8644 -32.8115 -32.7951 -32.7628 -32.7430 -32.7194 -32.6066 -32.5753
   -32.4620 -32.4112 -32.4072 -32.2870 -32.2109 -31.8155 -31.4425 -31.4001
   -21.3930 -21.1899 -20.0697 -19.7866 -19.6111 -19.5117 -19.4416 -19.2482
   -19.1745 -19.1253 -18.9112 -18.8940 -18.5817 -18.5784 -18.4219 -18.1836
   -18.0640 -17.9720 -15.5794  -9.8328  -9.4741  -8.4424  -8.0151  -7.5627
    -7.3788  -7.2480  -6.9009  -6.8645  -6.7399  -6.6874  -6.6684  -6.5716
    -6.4462  -6.4016  -6.2502  -6.1556  -6.0791  -5.9374  -5.9136  -5.8555
    -5.8331  -5.8316  -5.6630  -5.6017  -5.2687  -5.1724  -5.0386  -4.8980
    -4.7716  -4.7369  -4.6714  -4.4101  -4.3981  -4.3566  -4.3088  -4.2061
    -4.0266  -3.9401  -3.8872  -3.8845  -3.7965  -3.6981  -3.6617  -3.6322
    -3.4568  -3.4446  -3.4097  -3.3047  -3.2980  -3.2450  -3.0474  -3.0412
    -2.6700  -1.7707  -1.0183  -1.0113  -1.0031  -0.8765  -0.6431   0.5246
     0.7843   0.8759   0.9728   0.9764   1.0383   1.0770   1.1425   1.1884
     1.2393   1.6537   1.7927   1.8429   2.3156   2.3254   2.5492   2.7446
     2.7963   2.9411   2.9502   3.1233   3.3121   3.6745   3.7850   3.8724
     4.0880   4.2403   4.3943   4.5990   4.6259   4.7495   5.0207   5.0311
     5.1614   5.3189   5.4450   5.4469   5.5487   5.5778   5.7405   5.8259
     5.8342   6.0141   6.1547   6.3950   6.6024   6.6185   6.7590   6.9200
     7.2797   7.4840   7.6015   7.6402   7.7725   7.8045   8.0270   8.0338
     8.0797   8.1056   8.1754   8.2911   8.5137   8.5509   8.5829   8.7506
     8.8444   8.8548   8.8994   8.9741   9.0742   9.0914   9.1878   9.3113
     9.3672   9.4799   9.4914   9.6164   9.7280   9.7387   9.7484   9.9218
    10.0528  10.1915  10.3945  10.5126  10.6397  10.7982  10.8134  10.8156
[...]
     atom   12 type  1   force =    -0.05844815   -0.00209313   -0.04537449
     atom   13 type  1   force =     0.00035841   -0.00002213   -0.01232864
     atom   14 type  1   force =    -0.00003780   -0.00054947    0.00050362
     atom   15 type  1   force =    -0.00111799    0.00048849    0.00820495
     atom   16 type  2   force =     0.04168797   -0.00051612    0.03006930
     atom   17 type  2   force =    -0.00321105    0.00040918    0.01006667
     atom   18 type  1   force =     0.00155019   -0.02780613   -0.00672714
     atom   19 type  1   force =     0.00161408    0.02756928   -0.00695806
     atom   20 type  1   force =     0.00047942    0.00018499   -0.21567377
     atom   21 type  1   force =     0.00173640   -0.00007288   -0.00909878
     atom   22 type  2   force =    -0.00554069    0.00002486    0.02188185
     atom   23 type  2   force =     0.00003183   -0.00003639    0.32328957
     atom   24 type  1   force =     0.05852570    0.00208080   -0.04538281
     atom   25 type  1   force =     0.05851364   -0.00207365   -0.04543090
     atom   26 type  1   force =     0.00041426   -0.00001697   -0.01649900
     atom   27 type  3   force =     0.00000091   -0.00024424   -0.00325788
     atom   28 type  3   force =    -0.00007768   -0.00024793    0.00356986
     atom   29 type  3   force =    -0.00023331    0.00042518   -0.00082787
     atom   30 type  3   force =     0.00021782    0.00043230   -0.00071253
     atom   31 type  1   force =     0.00001619    0.00001468    0.00002457

     Total force =     0.404970     Total SCF correction =     0.002562

     BFGS Geometry Optimization

     number of scf cycles    =   1
     number of bfgs steps    =   0

     energy   new            =   -1562.3884014592 Ry

     new trust radius        =       0.3232895719 bohr
     new conv_thr            =       0.0000010000 Ry

ATOMIC_POSITIONS (crystal)
O0       0.000000000   0.000000000   0.374718936    0   0   1
O0       0.000000000   0.500000000   0.385571845    0   0   1
Nb1      0.250000000   0.500000000   0.440776523    0   0   1
Nb1      0.000000000   0.000000000   0.447791137    0   0   1
O0       0.250000000   0.790000000   0.448031046    0   0   1
O0       0.250000000   0.210000000   0.448066243    0   0   1
O0       0.000000000   0.500000000   0.498502685    0   0   1
O0       0.000000000   0.000000000   0.526094838    0   0   1
Nb1      0.250000000   0.000000000   0.581529239    0   0   1
Nb1      0.000000000   0.500000000   0.567795353    0   0   1
O0       0.250000000   0.710000000   0.579231217    0   0   1
O0       0.250000000   0.290000000   0.579240244    0   0   1
O0       0.000000000   0.000000000   0.625378246    0   0   1
O0       0.500000000   0.000000000   0.374709876    0   0   1
O0       0.500000000   0.500000000   0.385900892    0   0   1
Nb1      0.750000000   0.500000000   0.440789634    0   0   1
Nb1      0.500000000   0.000000000   0.447747399    0   0   1
O0       0.750000000   0.790000000   0.448028086    0   0   1
O0       0.750000000   0.210000000   0.448063558    0   0   1
O0       0.500000000   0.500000000   0.493960817    0   0   1
O0       0.500000000   0.000000000   0.526301580    0   0   1
Nb1      0.750000000   0.000000000   0.581529085    0   0   1
Nb1      0.500000000   0.500000000   0.573799439    0   0   1
O0       0.750000000   0.710000000   0.579230081    0   0   1
O0       0.750000000   0.290000000   0.579239138    0   0   1
O0       0.500000000   0.000000000   0.625296468    0   0   1
H2      -0.000419919   0.502891500   0.349366116
H2       0.499573056   0.502661220   0.349490002
H2       0.151279145  -0.001187794   0.359153766
H2       0.651309471  -0.001187255   0.359156028
O0       0.500011447   0.500021112   0.633830482

     Check: negative starting charge=(component1):   -0.003822
     NEW-OLD atomic charge density approx. for the potential

     Check: negative/imaginary core charge=   -0.000003    0.000000
     Check: negative starting charge=(component1):   -0.003811

[...]

     iteration #  1     ecut=    40.00 Ry     beta=0.70
     Davidson diagonalization with overlap
     c_bands:  1 eigenvalues not converged
     c_bands:  1 eigenvalues not converged
     ethr =  1.00E-06,  avg # of iterations = 11.9

[...]

     energy   old            =   -1562.3884014592 Ry
     energy   new            =   -1562.4615517108 Ry

     CASE: energy  _new < energy  _old

[...]

     iteration #  1     ecut=    40.00 Ry     beta=0.70
     Davidson diagonalization with overlap
     c_bands:  2 eigenvalues not converged
     c_bands:  2 eigenvalues not converged
     ethr =  1.00E-06,  avg # of iterations =  7.6

[...]

     Threshold (ethr) on eigenvalues was too large:
     Diagonalizing with lowered threshold

     Davidson diagonalization with overlap
     ethr =  7.73E-08,  avg # of iterations =  2.0

[...]

     number of scf cycles    =  22
     number of bfgs steps    =  21

     energy   old            =   -1562.5492827476 Ry
     energy   new            =   -1562.5493093883 Ry

     CASE: energy  _new < energy  _old

     new trust radius        =       0.0024425032 bohr
     new conv_thr            =       0.0000000100 Ry

ATOMIC_POSITIONS (crystal)
O0       0.000000000   0.000000000   0.371486179    0   0   1
O0       0.000000000   0.500000000   0.388722684    0   0   1
Nb1      0.250000000   0.500000000   0.444584713    0   0   1
Nb1      0.000000000   0.000000000   0.443888360    0   0   1
O0       0.250000000   0.790000000   0.446190186    0   0   1
O0       0.250000000   0.210000000   0.446190738    0   0   1
O0       0.000000000   0.500000000   0.500661691    0   0   1
O0       0.000000000   0.000000000   0.522934205    0   0   1
Nb1      0.250000000   0.000000000   0.577032720    0   0   1
Nb1      0.000000000   0.500000000   0.570064655    0   0   1
O0       0.250000000   0.710000000   0.576334461    0   0   1
O0       0.250000000   0.290000000   0.576335746    0   0   1
O0       0.000000000   0.000000000   0.621309571    0   0   1
O0       0.500000000   0.000000000   0.372039497    0   0   1
O0       0.500000000   0.500000000   0.390811962    0   0   1
Nb1      0.750000000   0.500000000   0.444650418    0   0   1
Nb1      0.500000000   0.000000000   0.444914048    0   0   1
O0       0.750000000   0.790000000   0.446191002    0   0   1
O0       0.750000000   0.210000000   0.446191713    0   0   1
O0       0.500000000   0.500000000   0.495177245    0   0   1
O0       0.500000000   0.000000000   0.522599809    0   0   1
Nb1      0.750000000   0.000000000   0.577161054    0   0   1
Nb1      0.500000000   0.500000000   0.588604930    0   0   1
O0       0.750000000   0.710000000   0.576200799    0   0   1
O0       0.750000000   0.290000000   0.576200853    0   0   1
O0       0.500000000   0.000000000   0.621260220    0   0   1
H2      -0.000491979   0.501540238   0.352429649
H2       0.499488263   0.501451450   0.354577575
H2       0.150456252   0.000373582   0.355542574
H2       0.649635601   0.000369956   0.355808910
O0       0.500032462   0.499999237   0.652221833

     Check: negative starting charge=(component1):   -0.003810
     NEW-OLD atomic charge density approx. for the potential

     Check: negative/imaginary core charge=   -0.000003    0.000000
     Check: negative starting charge=(component1):   -0.003810

[...]

     Self-consistent Calculation

[...]

     Threshold (ethr) on eigenvalues was too large:
     Diagonalizing with lowered threshold

     Davidson diagonalization with overlap
     ethr =  2.98E-09,  avg # of iterations =  3.0

[...]

     total energy              =   -1562.54931834 Ry
     Harris-Foulkes estimate   =   -1562.54931835 Ry
     estimated scf accuracy    <       0.00000001 Ry

[...]

     iteration # 10     ecut=    40.00 Ry     beta=0.70
     Davidson diagonalization with overlap
     ethr =  5.78E-12,  avg # of iterations =  1.0

     negative rho (up, down):  0.172E-02 0.172E-02

     End of self-consistent calculation

 ------ SPIN UP ------------

[...]

 ------ SPIN DOWN ----------

[...]

          k = 0.2500-0.4237 0.0000 ( 32188 PWs)   bands (ev):

[...]

          k =-0.2500 0.2118 0.0000 ( 32165 PWs)   bands (ev):

   -56.8240 -56.7605 -56.4511 -56.3345 -56.2931 -56.2782 -56.2363 -55.6498
   -33.6016 -33.0213 -32.9566 -32.9243 -32.8681 -32.8655 -32.8087 -32.7801
   -32.7743 -32.6607 -32.6228 -32.6126 -32.5694 -32.5619 -32.4344 -32.3660
   -32.3010 -32.2368 -32.2329 -32.2077 -32.1615 -32.1085 -31.7753 -31.6995
   -21.0205 -20.5774 -19.8174 -19.5198 -19.4558 -19.3162 -19.2607 -19.1797
   -19.0885 -19.0741 -19.0546 -18.5778 -18.5047 -18.4782 -18.4191 -18.3395
   -18.2006 -18.0569 -16.8034  -9.4347  -8.9159  -8.0656  -7.4642  -7.2281
    -7.1399  -7.0339  -6.9872  -6.8251  -6.7122  -6.6425  -6.5915  -6.4580
    -6.3370  -6.3079  -6.2761  -6.0716  -6.0398  -5.9576  -5.8452  -5.6501
    -5.5407  -5.4465  -5.3127  -5.1614  -4.9995  -4.9064  -4.8285  -4.7500
    -4.6767  -4.6396  -4.5114  -4.4730  -4.4658  -4.3892  -4.3699  -4.3137
    -4.1565  -4.0916  -4.0195  -3.9560  -3.8698  -3.7737  -3.7101  -3.6278
    -3.5358  -3.4586  -3.3916  -3.2971  -3.2746  -3.1939  -3.0743  -2.9913
    -2.9672  -2.8278  -2.7261  -2.4826  -0.1693   0.0925   0.2356   0.4484
     0.5245   0.7422   1.1599   1.2081   1.2584   1.5044   1.5884   1.6440
     1.7739   1.9255   2.0352   2.0862   2.1719   2.2376   2.3198   2.4400
     2.5395   2.6192   2.7942   2.8469   3.2348   3.5361   4.0907   4.1669
     4.4406   4.6104   4.6727   4.6970   4.8894   5.0006   5.1015   5.1141
     5.2401   5.2969   5.4157   5.6285   5.6770   5.7678   6.0010   6.1249
     6.2284   6.2896   6.5371   6.5779   6.6023   6.6279   6.7990   6.9170
     6.9263   7.0779   7.2150   7.3047   7.4397   7.5032   7.7999   7.9318
     8.0171   8.0446   8.1258   8.1781   8.2617   8.5144   8.6379   8.7103
     8.8224   8.9121   9.0068   9.0782   9.1709   9.2671   9.2771   9.4764
     9.5524   9.6063   9.7533   9.8654   9.9121  10.0142  10.0791  10.1552
    10.2675  10.3833  10.5695  10.7278  10.7703  10.8973  10.9806  11.0116
    11.1298  11.1584  11.2162  11.2878  11.4026  11.4536  11.5086  11.5535
    11.6566  11.7716  11.9009  11.9079  12.0167  12.1183  12.1349  12.2094
    12.2605  12.3483  12.3922  12.4724  12.6089  12.6691  12.6952  12.7481
    12.7687  12.8705  12.9680  12.9918  13.0473  13.1032  13.2275  13.2855
    13.3594  13.3826  13.5194  13.6294  13.7078  13.7588  13.7992  13.8556
    13.9176  13.9500  14.0066  14.1358  14.1625  14.3043  14.3844  14.4061
    14.4808  14.5937  14.6680  14.7788  14.9111  14.9339  15.0396  15.1080
    15.1991  15.2608  15.3004  15.3293  15.3966  15.4555  15.5375  15.5772
    15.6507  15.7098  15.7943  15.8653  15.9242  16.0039  16.0419  16.0853
    16.2095  16.2741  16.3728  16.4062  16.4730  16.5039  16.5765  16.6841
    16.7359  16.7825  16.8615  16.9492  17.0243  17.1168  17.1511  17.2270
    17.2916  17.3574  17.3767  17.4308  17.4785  17.5820  17.6237  17.7130
    17.7581  17.8551  17.9515  17.9776  18.0901  18.1544  18.2012  18.3891
    18.3962  18.4434  18.4802  18.5476  18.6246  18.6591  18.7041  18.7783
    18.8697  18.9245  18.9707  19.0893  19.1468  19.1816  19.2266  19.3333
    19.3694  19.4109  19.5008  19.5260  19.5995  19.6531  19.6663  19.6926
    19.7646  19.8925  19.9160  20.0122  20.0774

     the Fermi energy is     0.4226 ev

!    total energy              =   -1562.54931834 Ry
     Harris-Foulkes estimate   =   -1562.54931834 Ry
     estimated scf accuracy    <          4.5E-09 Ry

     The total energy is the sum of the following terms:

     one-electron contribution =  -18845.76472992 Ry
     hartree contribution      =    9448.29624818 Ry
     xc contribution           =    -286.80478966 Ry
     ewald contribution        =    8121.72428154 Ry
     smearing contrib. (-TS)   =      -0.00032848 Ry

     total magnetization       =    -0.00 Bohr mag/cell
     absolute magnetization    =     0.00 Bohr mag/cell

     convergence has been achieved in  10 iterations

     Forces acting on atoms (Ry/au):

     negative rho (up, down):  0.172E-02 0.172E-02
     atom    1 type  1   force =     0.00212749   -0.00004486   -0.00016227
     atom    2 type  1   force =    -0.00051085    0.00025778   -0.00000184
     atom    3 type  2   force =    -0.02028866   -0.00026704    0.00017243
     atom    4 type  2   force =    -0.00493666    0.00005771   -0.00005438
     atom    5 type  1   force =    -0.00818089   -0.01103819    0.00059830
     atom    6 type  1   force =    -0.00820142    0.01101122    0.00059927
     atom    7 type  1   force =     0.00011271    0.00006505    0.00026599
     atom    8 type  1   force =     0.00211925    0.00000324   -0.00045700
     atom    9 type  2   force =    -0.00416800    0.00000679   -0.00024100
     atom   10 type  2   force =    -0.00025802   -0.00001067    0.00028450
     atom   11 type  1   force =    -0.01923499   -0.02349979   -0.00010665
     atom   12 type  1   force =    -0.01923256    0.02350183   -0.00010588
     atom   13 type  1   force =     0.00069002   -0.00000352   -0.00016286
     atom   14 type  1   force =     0.00035860   -0.00004838    0.00028754
     atom   15 type  1   force =    -0.00056906    0.00018737   -0.00056724
     atom   16 type  2   force =     0.02090848   -0.00025545    0.00015144
     atom   17 type  2   force =    -0.00405338    0.00006932    0.00029561
     atom   18 type  1   force =     0.00945417   -0.01057261    0.00059422
     atom   19 type  1   force =     0.00933270    0.01054283    0.00059331
     atom   20 type  1   force =     0.00038322    0.00011485    0.00026767
     atom   21 type  1   force =     0.00176652    0.00000043   -0.00063119
     atom   22 type  2   force =     0.00351624    0.00001672   -0.00003655
     atom   23 type  2   force =     0.00062713   -0.00000538   -0.00019839
     atom   24 type  1   force =     0.01925742   -0.02352278   -0.00029662
     atom   25 type  1   force =     0.01924759    0.02350762   -0.00029528
     atom   26 type  1   force =    -0.00000173    0.00000007    0.00000939
     atom   27 type  3   force =    -0.00000259   -0.00004647    0.00020880
     atom   28 type  3   force =    -0.00000651   -0.00003148   -0.00052966
     atom   29 type  3   force =    -0.00000981    0.00000140   -0.00023471
     atom   30 type  3   force =    -0.00025296    0.00000128   -0.00016581
     atom   31 type  1   force =     0.00000654    0.00000112   -0.00008115

     Total force =     0.001905     Total SCF correction =     0.000147

     bfgs converged in  23 scf cycles and  22 bfgs steps
     (criteria: energy < 0.10E-03, force < 0.10E-02)

     End of BFGS Geometry Optimization

     Final energy   =   -1562.5493183405 Ry
Begin final coordinates

ATOMIC_POSITIONS (crystal)
O0       0.000000000   0.000000000   0.371486179    0   0   1
O0       0.000000000   0.500000000   0.388722684    0   0   1
Nb1      0.250000000   0.500000000   0.444584713    0   0   1
Nb1      0.000000000   0.000000000   0.443888360    0   0   1
O0       0.250000000   0.790000000   0.446190186    0   0   1
O0       0.250000000   0.210000000   0.446190738    0   0   1
O0       0.000000000   0.500000000   0.500661691    0   0   1
O0       0.000000000   0.000000000   0.522934205    0   0   1
Nb1      0.250000000   0.000000000   0.577032720    0   0   1
Nb1      0.000000000   0.500000000   0.570064655    0   0   1
O0       0.250000000   0.710000000   0.576334461    0   0   1
O0       0.250000000   0.290000000   0.576335746    0   0   1
O0       0.000000000   0.000000000   0.621309571    0   0   1
O0       0.500000000   0.000000000   0.372039497    0   0   1
O0       0.500000000   0.500000000   0.390811962    0   0   1
Nb1      0.750000000   0.500000000   0.444650418    0   0   1
Nb1      0.500000000   0.000000000   0.444914048    0   0   1
O0       0.750000000   0.790000000   0.446191002    0   0   1
O0       0.750000000   0.210000000   0.446191713    0   0   1
O0       0.500000000   0.500000000   0.495177245    0   0   1
O0       0.500000000   0.000000000   0.522599809    0   0   1
Nb1      0.750000000   0.000000000   0.577161054    0   0   1
Nb1      0.500000000   0.500000000   0.588604930    0   0   1
O0       0.750000000   0.710000000   0.576200799    0   0   1
O0       0.750000000   0.290000000   0.576200853    0   0   1
O0       0.500000000   0.000000000   0.621260220    0   0   1
H2      -0.000491979   0.501540238   0.352429649
H2       0.499488263   0.501451450   0.354577575
H2       0.150456252   0.000373582   0.355542574
H2       0.649635601   0.000369956   0.355808910
O0       0.500032462   0.499999237   0.652221833
End final coordinates

     General routines

     Parallel routines

   This run was terminated on:   0:16:39   3Apr2014

   JOB DONE.