     Program PWSCF v.5.0.2 (svn rev. 9656) starts on 30Apr2014 at 21:37: 5

     Current dimensions of program PWSCF are:
     Max number of different atomic species (ntypx) = 10
     Max number of k-points (npk) =  40000
     Max angular momentum in pseudopotentials (lmaxx) =  3
     Reading input from pwscf.in
Warning: card &CELL ignored
Warning: card / ignored

     Subspace diagonalization in iterative solution of the eigenvalue problem:
     a serial algorithm will be used

     bravais-lattice index     =            0
     lattice parameter (alat)  =      11.1872  a.u.
     unit-cell volume          =    7531.8600 (a.u.)^3
     number of atoms/cell      =           31
     number of atomic types    =            3
     number of electrons       =       222.00
     number of Kohn-Sham states=          333
     kinetic-energy cutoff     =      40.0000  Ry
     charge density cutoff     =     500.0000  Ry
     convergence threshold     =      1.0E-06
     mixing beta               =       0.7000
     number of iterations used =            8  plain     mixing
     Exchange-correlation      = SLA  PW   PBE  PBE ( 1 4 3 4 0)
     EXX-fraction              =        0.00
     nstep                     =           50

     celldm(1)=  11.187179  celldm(2)=   0.000000  celldm(3)=   0.000000
     celldm(4)=   0.000000  celldm(5)=   0.000000  celldm(6)=   0.000000

     crystal axes: (cart. coord. in units of alat)
               a(1) = (   1.000000   0.000000   0.000000 )
               a(2) = (   0.000000   1.180104   0.000000 )
               a(3) = (   0.000000   0.000000   4.558482 )

     reciprocal axes: (cart. coord. in units 2 pi/alat)
               b(1) = (  1.000000  0.000000  0.000000 )
               b(2) = (  0.000000  0.847383  0.000000 )
               b(3) = (  0.000000  0.000000  0.219371 )

     PseudoPot. # 1 for O  read from file:
     /home/camp/zhonxu/pseudo/o_pbe_v1.01.uspp.F.UPF
     MD5 check sum: 2bcb18d16ea4b960afae9ec6d52f22d2
     Pseudo is Ultrasoft + core correction, Zval =  6.0
     Generated by new atomic code, or converted to UPF format
     Using radial grid of  737 points,  5 beta functions with:
                l(1) =   0
                l(2) =   0
                l(3) =   1
                l(4) =   1
                l(5) =   2
     Q(r) pseudized with  8 coefficients,  rinner =    0.900   0.900   0.900
                                                       0.900   0.900

     PseudoPot. # 2 for Nb read from file:
     /home/camp/zhonxu/pseudo/nb_pbe_v1.uspp.F.UPF
     MD5 check sum: 573aab8a2fa660278ed4a62cd769473f
     Pseudo is Ultrasoft + core correction, Zval = 13.0
     Generated by new atomic code, or converted to UPF format
     Using radial grid of  887 points,  6 beta functions with:
                l(1) =   0
                l(2) =   0
                l(3) =   1
                l(4) =   1
                l(5) =   2
                l(6) =   2
     Q(r) pseudized with  6 coefficients,  rinner =    1.000   1.000   1.000
                                                       1.000   1.000

     PseudoPot. # 3 for H  read from file:
     /home/camp/zhonxu/pseudo/h_pbe_v1.uspp.F.UPF
     MD5 check sum: 3408e3ff4ec8b0a4e358431e7e038a48
     Pseudo is Ultrasoft, Zval =  1.0
     Generated by new atomic code, or converted to UPF format
     Using radial grid of  615 points,  2 beta functions with:
                l(1) =   0
                l(2) =   0
     Q(r) pseudized with  8 coefficients,  rinner =    0.700

     atomic species   valence    mass     pseudopotential
        O0             6.00    15.99940     O ( 1.00)
        Nb1           13.00    92.90640     Nb( 1.00)
        H2             1.00     1.00794     H ( 1.00)

     Simplified LDA+U calculation (l_max = 2) with parameters (eV):
     atomic species    L          U    alpha       J0     beta
        Nb1            2     5.5000   0.0000   0.0000   0.0000

     No symmetry found

   Cartesian axes

     site n.     atom                  positions (alat units)
         1           O0  tau(   1) = (   0.0000000   0.0000000   1.6934306  )
         2           O0  tau(   2) = (   0.0000000   0.5900519   1.7719732  )
         3           Nb1 tau(   3) = (   0.2500000   0.5900519   2.0266100  )
         4           Nb1 tau(   4) = (   0.0000000   0.0000000   2.0234647  )
         5           O0  tau(   5) = (   0.2500000   0.9322821   2.0339492  )
         6           O0  tau(   6) = (   0.2500000   0.2478218   2.0339492  )
         7           O0  tau(   7) = (   0.0000000   0.5900519   2.2822497  )
         8           O0  tau(   8) = (   0.0000000   0.0000000   2.3837671  )
         9           Nb1 tau(   9) = (   0.2500000   0.0000000   2.6303810  )
        10           Nb1 tau(  10) = (   0.0000000   0.5900519   2.5986084  )
        11           O0  tau(  11) = (   0.2500000   0.8378738   2.6271901  )
        12           O0  tau(  12) = (   0.2500000   0.3422301   2.6272357  )
        13           O0  tau(  13) = (   0.0000000   0.0000000   2.8322306  )
        14           O0  tau(  14) = (   0.5000000   0.0000000   1.6959377  )
        15           O0  tau(  15) = (   0.5000000   0.5900519   1.7815005  )
        16           Nb1 tau(  16) = (   0.7500000   0.5900519   2.0269291  )
        17           Nb1 tau(  17) = (   0.5000000   0.0000000   2.0281143  )
        18           O0  tau(  18) = (   0.7500000   0.9322821   2.0339492  )
        19           O0  tau(  19) = (   0.7500000   0.2478218   2.0339492  )
        20           O0  tau(  20) = (   0.5000000   0.5900519   2.2572692  )
        21           O0  tau(  21) = (   0.5000000   0.0000000   2.3822628  )
        22           Nb1 tau(  22) = (   0.7500000   0.0000000   2.6309736  )
        23           Nb1 tau(  23) = (   0.5000000   0.5900519   2.6831227  )
        24           O0  tau(  24) = (   0.7500000   0.8378738   2.6265975  )
        25           O0  tau(  25) = (   0.7500000   0.3422301   2.6265975  )
        26           O0  tau(  26) = (   0.5000000   0.0000000   2.8320027  )
        27           H2  tau(  27) = (  -0.0004900   0.5918693   1.6065459  )
        28           H2  tau(  28) = (   0.4994900   0.5917631   1.6163466  )
        29           H2  tau(  29) = (   0.1504600   0.0004366   1.6207228  )
        30           H2  tau(  30) = (   0.6496400   0.0004366   1.6219536  )
        31           O0  tau(  31) = (   0.5000300   0.5900519   2.9731333  )

     number of k points=    10  Methfessel-Paxton smearing, width (Ry)=  0.0100
                       cart. coord. in units 2pi/alat
        k(    1) = (   0.0000000   0.0000000   0.0000000), wk =   0.1250000
        k(    2) = (   0.0000000   0.2118458   0.0000000), wk =   0.2500000
        k(    3) = (   0.0000000  -0.4236915   0.0000000), wk =   0.1250000
        k(    4) = (   0.2500000   0.0000000   0.0000000), wk =   0.2500000
        k(    5) = (   0.2500000   0.2118458   0.0000000), wk =   0.2500000
        k(    6) = (   0.2500000  -0.4236915   0.0000000), wk =   0.2500000
        k(    7) = (  -0.5000000   0.0000000   0.0000000), wk =   0.1250000
        k(    8) = (  -0.5000000   0.2118458   0.0000000), wk =   0.2500000
        k(    9) = (  -0.5000000  -0.4236915   0.0000000), wk =   0.1250000
        k(   10) = (  -0.2500000   0.2118458   0.0000000), wk =   0.2500000

     Largest allocated arrays     est. size (Mb)     dimensions
     Largest temporary arrays     est. size (Mb)     dimensions

     Check: negative/imaginary core charge=   -0.000003    0.000000

     Initial potential from superposition of free atoms
     Check: negative starting charge=   -0.003810

     starting charge  221.97807, renormalised to  222.00000

     negative rho (up, down):  0.381E-02 0.000E+00
     Number of +U iterations with fixed ns =  0
     Starting occupations:
 --- enter write_ns ---
 LDA+U parameters:
U( 2)     =  5.50000000
alpha( 2) =  0.00000000
atom    3   Tr[ns(na)] =   3.00000
    eigenvalues:
  0.300  0.300  0.300  0.300  0.300
    eigenvectors:
  1.000  0.000  0.000  0.000  0.000
  0.000  1.000  0.000  0.000  0.000
  0.000  0.000  1.000  0.000  0.000
  0.000  0.000  0.000  1.000  0.000
  0.000  0.000  0.000  0.000  1.000
    occupations:
  0.300  0.000  0.000  0.000  0.000
  0.000  0.300  0.000  0.000  0.000
  0.000  0.000  0.300  0.000  0.000
  0.000  0.000  0.000  0.300  0.000
  0.000  0.000  0.000  0.000  0.300
atom    4   Tr[ns(na)] =   3.00000
    eigenvalues:
  0.300  0.300  0.300  0.300  0.300
    eigenvectors:
  1.000  0.000  0.000  0.000  0.000
  0.000  1.000  0.000  0.000  0.000
  0.000  0.000  1.000  0.000  0.000
  0.000  0.000  0.000  1.000  0.000
  0.000  0.000  0.000  0.000  1.000
    occupations:
  0.300  0.000  0.000  0.000  0.000
  0.000  0.300  0.000  0.000  0.000
  0.000  0.000  0.300  0.000  0.000
  0.000  0.000  0.000  0.300  0.000
  0.000  0.000  0.000  0.000  0.300
atom    9   Tr[ns(na)] =   3.00000
    eigenvalues:
  0.300  0.300  0.300  0.300  0.300
    eigenvectors:
  1.000  0.000  0.000  0.000  0.000
  0.000  1.000  0.000  0.000  0.000
  0.000  0.000  1.000  0.000  0.000
  0.000  0.000  0.000  1.000  0.000
  0.000  0.000  0.000  0.000  1.000
    occupations:
  0.300  0.000  0.000  0.000  0.000
  0.000  0.300  0.000  0.000  0.000
  0.000  0.000  0.300  0.000  0.000
  0.000  0.000  0.000  0.300  0.000
  0.000  0.000  0.000  0.000  0.300
atom   10   Tr[ns(na)] =   3.00000
    eigenvalues:
  0.300  0.300  0.300  0.300  0.300
    eigenvectors:
  1.000  0.000  0.000  0.000  0.000
  0.000  1.000  0.000  0.000  0.000
  0.000  0.000  1.000  0.000  0.000
  0.000  0.000  0.000  1.000  0.000
  0.000  0.000  0.000  0.000  1.000
    occupations:
  0.300  0.000  0.000  0.000  0.000
  0.000  0.300  0.000  0.000  0.000
  0.000  0.000  0.300  0.000  0.000
  0.000  0.000  0.000  0.300  0.000
  0.000  0.000  0.000  0.000  0.300
atom   16   Tr[ns(na)] =   3.00000
    eigenvalues:
  0.300  0.300  0.300  0.300  0.300
    eigenvectors:
  1.000  0.000  0.000  0.000  0.000
  0.000  1.000  0.000  0.000  0.000
  0.000  0.000  1.000  0.000  0.000
  0.000  0.000  0.000  1.000  0.000
  0.000  0.000  0.000  0.000  1.000
    occupations:
  0.300  0.000  0.000  0.000  0.000
  0.000  0.300  0.000  0.000  0.000
  0.000  0.000  0.300  0.000  0.000
  0.000  0.000  0.000  0.300  0.000
  0.000  0.000  0.000  0.000  0.300
atom   17   Tr[ns(na)] =   3.00000
    eigenvalues:
  0.300  0.300  0.300  0.300  0.300
    eigenvectors:
  1.000  0.000  0.000  0.000  0.000
  0.000  1.000  0.000  0.000  0.000
  0.000  0.000  1.000  0.000  0.000
  0.000  0.000  0.000  1.000  0.000
  0.000  0.000  0.000  0.000  1.000
    occupations:
  0.300  0.000  0.000  0.000  0.000
  0.000  0.300  0.000  0.000  0.000
  0.000  0.000  0.300  0.000  0.000
  0.000  0.000  0.000  0.300  0.000
  0.000  0.000  0.000  0.000  0.300
atom   22   Tr[ns(na)] =   3.00000
    eigenvalues:
  0.300  0.300  0.300  0.300  0.300
    eigenvectors:
  1.000  0.000  0.000  0.000  0.000
  0.000  1.000  0.000  0.000  0.000
  0.000  0.000  1.000  0.000  0.000
  0.000  0.000  0.000  1.000  0.000
  0.000  0.000  0.000  0.000  1.000
    occupations:
  0.300  0.000  0.000  0.000  0.000
  0.000  0.300  0.000  0.000  0.000
[...]
  0.013  0.348 -0.000 -0.012  0.000
  0.000 -0.000  0.377  0.000  0.001
 -0.000 -0.012  0.000  0.713  0.000
 -0.000  0.000  0.001  0.000  0.558
atom    9   Tr[ns(na)] =   5.24039
    eigenvalues:
  0.439  0.448  0.485  0.620  0.628
    eigenvectors:
  0.000  0.871  0.000  0.128  0.000
  0.000  0.000  0.000  0.004  0.996
  0.818  0.000  0.182  0.000  0.000
  0.000  0.129  0.000  0.868  0.003
  0.182  0.000  0.818  0.000  0.000
    occupations:
  0.470 -0.000  0.000  0.058  0.000
 -0.000  0.628 -0.000 -0.000 -0.000
  0.000 -0.000  0.447 -0.000  0.018
  0.058 -0.000 -0.000  0.598 -0.000
  0.000 -0.000  0.018 -0.000  0.477
atom   10   Tr[ns(na)] =   5.01215
    eigenvalues:
  0.307  0.338  0.498  0.546  0.816
    eigenvectors:
  0.000  0.000  1.000  0.000  0.000
  0.000  0.857  0.000  0.000  0.143
  0.984  0.000  0.000  0.016  0.000
  0.000  0.143  0.000  0.000  0.857
  0.016  0.000  0.000  0.984  0.000
    occupations:
  0.498  0.001 -0.000 -0.000 -0.000
  0.001  0.406  0.000  0.168  0.000
 -0.000  0.000  0.311 -0.000 -0.030
 -0.000  0.168 -0.000  0.748  0.000
 -0.000  0.000 -0.030  0.000  0.543
atom   16   Tr[ns(na)] =   5.15905
    eigenvalues:
  0.336  0.383  0.544  0.603  0.714
    eigenvectors:
  0.000  0.000  0.011  0.352  0.637
  0.000  0.000  0.974  0.026  0.000
  0.753  0.247  0.000  0.000  0.000
  0.000  0.000  0.015  0.622  0.363
  0.247  0.753  0.000  0.000  0.000
    occupations:
  0.673  0.007  0.000 -0.054  0.000
  0.007  0.546 -0.000  0.006  0.000
  0.000 -0.000  0.347 -0.000  0.020
 -0.054  0.006 -0.000  0.643 -0.000
  0.000  0.000  0.020 -0.000  0.371
atom   17   Tr[ns(na)] =   5.17602
    eigenvalues:
  0.347  0.378  0.556  0.594  0.712
    eigenvectors:
  0.003  0.000  0.000  0.997  0.000
  0.997  0.000  0.000  0.003  0.000
  0.000  1.000  0.000  0.000  0.000
  0.000  0.000  0.000  0.000  0.999
  0.000  0.000  1.000  0.000  0.000
    occupations:
  0.594  0.014  0.000 -0.002 -0.000
  0.014  0.348 -0.000 -0.006  0.000
  0.000 -0.000  0.378  0.000  0.001
 -0.002 -0.006  0.000  0.712  0.000
 -0.000  0.000  0.001  0.000  0.556
atom   22   Tr[ns(na)] =   5.26222
    eigenvalues:
  0.451  0.456  0.473  0.625  0.626
    eigenvectors:
  0.000  0.897  0.000  0.093  0.010
  0.000  0.000  0.000  0.096  0.904
  1.000  0.000  0.000  0.000  0.000
  0.000  0.103  0.000  0.811  0.086
  0.000  0.000  1.000  0.000  0.000
    occupations:
  0.474  0.000  0.000  0.051 -0.000
  0.000  0.626  0.000  0.000  0.000
  0.000  0.000  0.451 -0.000 -0.000
  0.051  0.000 -0.000  0.608  0.000
 -0.000  0.000 -0.000  0.000  0.473
atom   23   Tr[ns(na)] =   5.33466
    eigenvalues:
  0.476  0.493  0.533  0.542  0.623
    eigenvectors:
  0.003  0.000  0.000  0.007  0.991
  0.243  0.000  0.000  0.748  0.009
  0.000  0.977  0.023  0.000  0.000
  0.755  0.000  0.000  0.245  0.000
  0.000  0.023  0.977  0.000  0.000
    occupations:
  0.622 -0.009  0.000 -0.003 -0.000
 -0.009  0.527 -0.000 -0.028  0.000
  0.000 -0.000  0.494 -0.000  0.006
 -0.003 -0.028 -0.000  0.492  0.000
 -0.000  0.000  0.006  0.000  0.532
N of occupied +U levels =  41.5270191
 --- exit write_ns ---

     Threshold (ethr) on eigenvalues was too large:
     Diagonalizing with lowered threshold

     Davidson diagonalization with overlap
     ethr =  6.65E-09,  avg # of iterations =  2.0

[...]

     total energy              =   -1558.65628990 Ry
     Harris-Foulkes estimate   =   -1558.65628990 Ry
     estimated scf accuracy    <       0.00000002 Ry

     iteration # 12     ecut=    40.00 Ry     beta=0.70
     Davidson diagonalization with overlap
     ethr =  7.31E-12,  avg # of iterations =  1.2

     negative rho (up, down):  0.361E-02 0.000E+00

     End of self-consistent calculation
 --- enter write_ns ---
 LDA+U parameters:
U( 2)     =  5.50000000
alpha( 2) =  0.00000000
atom    3   Tr[ns(na)] =   5.16343
    eigenvalues:
  0.336  0.381  0.543  0.602  0.720
    eigenvectors:
  0.000  0.000  0.017  0.348  0.635
  0.000  0.000  0.967  0.032  0.001
  0.764  0.236  0.000  0.000  0.000
  0.000  0.000  0.016  0.620  0.364
  0.236  0.764  0.000  0.000  0.000
    occupations:
  0.676 -0.010  0.000 -0.057 -0.000
 -0.010  0.545  0.000 -0.005  0.000
  0.000  0.000  0.346 -0.000 -0.019
 -0.057 -0.005 -0.000  0.644  0.000
 -0.000  0.000 -0.019  0.000  0.370
atom    4   Tr[ns(na)] =   5.17831
    eigenvalues:
  0.347  0.377  0.559  0.593  0.713
    eigenvectors:
  0.003  0.000  0.000  0.997  0.000
  0.996  0.000  0.000  0.003  0.001
  0.000  1.000  0.000  0.000  0.000
  0.001  0.000  0.000  0.000  0.999
  0.000  0.000  1.000  0.000  0.000
    occupations:
  0.593  0.013  0.000 -0.000 -0.000
  0.013  0.348 -0.000 -0.012  0.000
  0.000 -0.000  0.377  0.000  0.001
 -0.000 -0.012  0.000  0.713  0.000
 -0.000  0.000  0.001  0.000  0.559
atom    9   Tr[ns(na)] =   5.24094
    eigenvalues:
  0.439  0.448  0.485  0.620  0.628
    eigenvectors:
  0.000  0.871  0.000  0.128  0.000
  0.000  0.000  0.000  0.003  0.997
  0.818  0.000  0.182  0.000  0.000
  0.000  0.129  0.000  0.868  0.003
  0.182  0.000  0.818  0.000  0.000
    occupations:
  0.470 -0.000  0.000  0.058  0.000
 -0.000  0.628 -0.000 -0.000 -0.000
  0.000 -0.000  0.447 -0.000  0.018
  0.058 -0.000 -0.000  0.598 -0.000
  0.000 -0.000  0.018 -0.000  0.477
atom   10   Tr[ns(na)] =   5.01195
    eigenvalues:
  0.307  0.338  0.498  0.546  0.816
    eigenvectors:
  0.000  0.000  1.000  0.000  0.000
  0.000  0.858  0.000  0.000  0.142
  0.984  0.000  0.000  0.016  0.000
  0.000  0.142  0.000  0.000  0.858
  0.016  0.000  0.000  0.984  0.000
    occupations:
  0.498  0.001 -0.000 -0.000 -0.000
  0.001  0.406  0.000  0.167  0.000
 -0.000  0.000  0.311 -0.000 -0.030
 -0.000  0.167 -0.000  0.748  0.000
 -0.000  0.000 -0.030  0.000  0.543
atom   16   Tr[ns(na)] =   5.15908
    eigenvalues:
  0.336  0.383  0.544  0.603  0.714
    eigenvectors:
  0.000  0.000  0.011  0.352  0.637
  0.000  0.000  0.974  0.026  0.000
  0.753  0.247  0.000  0.000  0.000
  0.000  0.000  0.015  0.622  0.363
  0.247  0.753  0.000  0.000  0.000
    occupations:
  0.673  0.007  0.000 -0.054  0.000
  0.007  0.546 -0.000  0.006  0.000
  0.000 -0.000  0.347 -0.000  0.020
 -0.054  0.006 -0.000  0.643 -0.000
  0.000  0.000  0.020 -0.000  0.371
atom   17   Tr[ns(na)] =   5.17656
    eigenvalues:
  0.347  0.378  0.556  0.594  0.713
    eigenvectors:
  0.003  0.000  0.000  0.997  0.000
  0.997  0.000  0.000  0.003  0.000
  0.000  1.000  0.000  0.000  0.000
  0.000  0.000  0.000  0.000  0.999
  0.000  0.000  1.000  0.000  0.000
    occupations:
  0.593  0.014  0.000 -0.002 -0.000
  0.014  0.348 -0.000 -0.006  0.000
  0.000 -0.000  0.378  0.000  0.001
 -0.002 -0.006  0.000  0.713  0.000
 -0.000  0.000  0.001  0.000  0.556
atom   22   Tr[ns(na)] =   5.26240
    eigenvalues:
  0.451  0.456  0.473  0.625  0.626
    eigenvectors:
  0.000  0.897  0.000  0.093  0.010
  0.000  0.000  0.000  0.095  0.905
  1.000  0.000  0.000  0.000  0.000
  0.000  0.103  0.000  0.812  0.085
  0.000  0.000  1.000  0.000  0.000
    occupations:
  0.474  0.000  0.000  0.051 -0.000
  0.000  0.626  0.000  0.000  0.000
  0.000  0.000  0.451 -0.000 -0.000
  0.051  0.000 -0.000  0.608  0.000
 -0.000  0.000 -0.000  0.000  0.473
atom   23   Tr[ns(na)] =   5.33469
    eigenvalues:
  0.476  0.493  0.533  0.542  0.623
    eigenvectors:
  0.003  0.000  0.000  0.007  0.990
  0.243  0.000  0.000  0.748  0.010
  0.000  0.977  0.023  0.000  0.000
  0.755  0.000  0.000  0.245  0.000
  0.000  0.023  0.977  0.000  0.000
    occupations:
  0.622 -0.010  0.000 -0.003 -0.000
 -0.010  0.527 -0.000 -0.028  0.000
  0.000 -0.000  0.494 -0.000  0.006
 -0.003 -0.028 -0.000  0.492  0.000
 -0.000  0.000  0.006  0.000  0.532
N of occupied +U levels =  41.5273548
 --- exit write_ns ---

[...]

          k = 0.2500-0.4237 0.0000 ( 32188 PWs)   bands (ev):

[...]

          k =-0.2500 0.2118 0.0000 ( 32165 PWs)   bands (ev):

   -56.9463 -56.7537 -56.4598 -56.3931 -56.3715 -56.3119 -55.9960 -55.7061
   -33.6389 -33.1415 -33.0187 -32.8985 -32.8878 -32.8798 -32.8560 -32.8481
   -32.8216 -32.7893 -32.7580 -32.7431 -32.7191 -32.3948 -32.2926 -32.2648
   -32.2449 -32.1712 -32.1520 -32.1437 -32.1209 -31.9240 -31.7368 -31.6322
   -20.9613 -20.5888 -19.8836 -19.7144 -19.4234 -19.3761 -19.3517 -19.3422
   -19.2423 -19.1444 -19.0431 -18.5557 -18.4621 -18.4529 -18.3793 -18.2715
   -18.2439 -18.1915 -16.9418  -9.5275  -8.9365  -7.9913  -7.7151  -7.5293
    -7.2651  -7.0271  -6.9499  -6.7954  -6.7321  -6.6920  -6.6196  -6.3956
    -6.3684  -6.3242  -6.0847  -6.0236  -5.9687  -5.8758  -5.7605  -5.4952
    -5.4314  -5.2415  -5.1897  -5.0089  -4.9131  -4.8087  -4.6931  -4.6438
    -4.6180  -4.5289  -4.4503  -4.4205  -4.3824  -4.3164  -4.2623  -4.2216
    -4.0642  -3.9802  -3.9433  -3.8697  -3.8190  -3.7308  -3.6398  -3.6323
    -3.4813  -3.3791  -3.3440  -3.2465  -3.2102  -3.1030  -3.0103  -2.9585
    -2.9158  -2.7071  -2.6319  -2.3701  -0.8576  -0.5459  -0.1691   0.9469
     1.0119   1.1985   1.3190   1.3625   1.5132   1.6521   1.7667   1.8161
     1.9401   1.9702   2.1137   2.1943   2.2656   2.4490   2.4858   2.5322
     2.6718   2.7391   2.7860   3.0498   3.2301   3.5928   4.0448   4.1308
     4.2971   4.4721   4.5542   4.6388   4.8461   4.8817   4.9509   5.0560
     5.1962   5.2519   5.4226   5.5390   5.5967   5.7279   5.9483   5.9983
     6.1028   6.2014   6.4704   6.5288   6.5592   6.5691   6.7750   6.8273
     6.8757   7.0554   7.1961   7.2742   7.4320   7.5032   7.8155   7.9167
     8.0165   8.0383   8.1322   8.1898   8.2463   8.5414   8.6228   8.7022
     8.8179   8.8963   9.0114   9.0956   9.1777   9.2775   9.3032   9.4875
     9.5383   9.5970   9.7636   9.8636   9.9166  10.0081  10.0742  10.1643
    10.2655  10.3939  10.5806  10.7321  10.7750  10.9126  10.9706  11.0091
    11.1206  11.1620  11.2406  11.2918  11.3979  11.4406  11.5246  11.5446
    11.6640  11.7579  11.8913  11.9209  11.9991  12.1143  12.1470  12.2226
    12.3073  12.3585  12.4276  12.4766  12.6165  12.6689  12.7143  12.7393
    12.7804  12.8666  12.9559  13.0060  13.0497  13.0990  13.2360  13.2930
    13.3533  13.4213  13.5263  13.6353  13.7071  13.7475  13.8234  13.8681
    13.9507  13.9737  14.0171  14.1396  14.1765  14.2900  14.3585  14.4208
    14.4766  14.5964  14.6643  14.7857  14.9126  14.9336  15.0374  15.1095
    15.2221  15.2535  15.2776  15.3421  15.4046  15.4585  15.5234  15.5873
    15.6693  15.6926  15.7977  15.8657  15.9071  15.9731  16.0558  16.0977
    16.1983  16.2904  16.3841  16.3933  16.4574  16.5084  16.5741  16.6715
    16.7349  16.7703  16.8690  16.9386  17.0512  17.0911  17.1621  17.2311
    17.2856  17.3428  17.3589  17.4489  17.4762  17.5792  17.6297  17.7213
    17.7484  17.8798  17.9756  17.9968  18.0890  18.1464  18.2016  18.3562
    18.3803  18.4466  18.4757  18.5388  18.6193  18.6604  18.6998  18.7941
    18.8629  18.9258  18.9858  19.0877  19.1418  19.1781  19.2298  19.3451
    19.3649  19.4064  19.4787  19.5418  19.5868  19.6462  19.6656  19.6979
    19.7605  19.8739  19.9251  19.9945  20.0704

     the Fermi energy is     0.4397 ev

!    total energy              =   -1558.65628990 Ry
     Harris-Foulkes estimate   =   -1558.65628990 Ry
     estimated scf accuracy    <          7.2E-09 Ry

     The total energy is the sum of the following terms:

     one-electron contribution =  -18856.91626721 Ry
     hartree contribution      =    9454.41660889 Ry
     xc contribution           =    -286.93265941 Ry
     ewald contribution        =    8126.99684919 Ry
     Hubbard energy            =       3.77907008 Ry
     smearing contrib. (-TS)   =       0.00010856 Ry

     convergence has been achieved in  12 iterations

     Forces acting on atoms (Ry/au):

     negative rho (up, down):  0.361E-02 0.000E+00
     atom    1 type  1   force =     0.00205175   -0.00003026   -0.00004355
     atom    2 type  1   force =    -0.00152209    0.00017337    0.00012157
     atom    3 type  2   force =    -0.04924422   -0.00012414    0.00034921
     atom    4 type  2   force =    -0.00529431    0.00001739   -0.00005250
     atom    5 type  1   force =    -0.00473308   -0.01062078    0.00016806
     atom    6 type  1   force =    -0.00479370    0.01063407    0.00016742
     atom    7 type  1   force =     0.00023552   -0.00000232   -0.00062437
     atom    8 type  1   force =     0.01322701    0.00000487    0.00004726
     atom    9 type  2   force =     0.00438840    0.00000227   -0.00054504
     atom   10 type  2   force =    -0.01464874   -0.00000538   -0.00007647
     atom   11 type  1   force =    -0.00861359   -0.00156352   -0.00007678
     atom   12 type  1   force =    -0.00861448    0.00156641   -0.00007654
     atom   13 type  1   force =    -0.00288766   -0.00000070    0.00060018
     atom   14 type  1   force =     0.00190552   -0.00006053    0.00034852
     atom   15 type  1   force =     0.00031944    0.00003233    0.00000065
     atom   16 type  2   force =     0.05219041   -0.00011115    0.00020077
     atom   17 type  2   force =    -0.00231933    0.00003064   -0.00077252
     atom   18 type  1   force =     0.00585070   -0.01083391    0.00009450
     atom   19 type  1   force =     0.00582853    0.01084421    0.00009300
     atom   20 type  1   force =    -0.00553005    0.00004893   -0.00095409
     atom   21 type  1   force =    -0.01031695    0.00000026   -0.00040235
     atom   22 type  2   force =     0.00506810    0.00000026    0.00016526
     atom   23 type  2   force =     0.04219741   -0.00000301   -0.00033539
     atom   24 type  1   force =    -0.00554323    0.01449604    0.00028751
     atom   25 type  1   force =    -0.00554351   -0.01449548    0.00028787
     atom   26 type  1   force =    -0.00297077    0.00000059    0.00086148
     atom   27 type  3   force =    -0.00001411   -0.00004212    0.00043933
     atom   28 type  3   force =     0.00001315    0.00004720   -0.00006946
     atom   29 type  3   force =    -0.00055290   -0.00000579   -0.00008142
     atom   30 type  3   force =    -0.00074144   -0.00000002    0.00002938
     atom   31 type  1   force =     0.00060824    0.00000025   -0.00015151

     Total force =     0.002370     Total SCF correction =     0.000121

     bfgs converged in  26 scf cycles and  25 bfgs steps
     (criteria: energy < 0.10E-03, force < 0.10E-02)

     End of BFGS Geometry Optimization

     Final energy   =   -1558.6562899013 Ry
Begin final coordinates

ATOMIC_POSITIONS (crystal)
O0       0.000000000   0.000000000   0.371505238    0   0   1
O0       0.000000000   0.500000000   0.388032274    0   0   1
Nb1      0.250000000   0.500000000   0.444486300    0   0   1
Nb1      0.000000000   0.000000000   0.444179792    0   0   1
O0       0.250000000   0.790000000   0.446346681    0   0   1
O0       0.250000000   0.210000000   0.446346740    0   0   1
O0       0.000000000   0.500000000   0.500404811    0   0   1
O0       0.000000000   0.000000000   0.523276587    0   0   1
Nb1      0.250000000   0.000000000   0.575786774    0   0   1
Nb1      0.000000000   0.500000000   0.570659265    0   0   1
O0       0.250000000   0.710000000   0.581582903    0   0   1
O0       0.250000000   0.290000000   0.581582945    0   0   1
O0       0.000000000   0.000000000   0.621335552    0   0   1
O0       0.500000000   0.000000000   0.371783843    0   0   1
O0       0.500000000   0.500000000   0.390374883    0   0   1
Nb1      0.750000000   0.500000000   0.444683201    0   0   1
Nb1      0.500000000   0.000000000   0.444689665    0   0   1
O0       0.750000000   0.790000000   0.446453816    0   0   1
O0       0.750000000   0.210000000   0.446455503    0   0   1
O0       0.500000000   0.500000000   0.495691565    0   0   1
O0       0.500000000   0.000000000   0.523175026    0   0   1
Nb1      0.750000000   0.000000000   0.578534559    0   0   1
Nb1      0.500000000   0.500000000   0.586374584    0   0   1
O0       0.750000000   0.710000000   0.572618991    0   0   1
O0       0.750000000   0.290000000   0.572618766    0   0   1
O0       0.500000000   0.000000000   0.621154267    0   0   1
H2      -0.000274249   0.501187749   0.351816300
H2       0.499689350   0.501634534   0.354225090
H2       0.151175543   0.000466087   0.356065485
H2       0.650959578   0.000470589   0.356255302
O0       0.516423280   0.499999552   0.649793295
End final coordinates

     General routines

     Parallel routines
     Hubbard U routines

   This run was terminated on:   1:14:19   2May2014

   JOB DONE.
Running PBS batch system epilogue script
Job id: 340580.audhumbla.fysik.dtu.dk
Username: zhonxu
Groupname: campgst
Jobname: NbO2/Eads-2-layers/O-U-5.5
Sessionid: 18244
Queuename: verylong
Accounting:
This job has allocated the following 16 nodes:
b007 b007 b007 b007 b007 b007 b007 b007 b001 b001 b001 b001 b001 b001 b001 b001
Finished epilogue job 340580.audhumbla.fysik.dtu.dk for zhonxu