     Program PWSCF v.5.0.2 (svn rev. 9656) starts on  9May2014 at 11:51:29

     Current dimensions of program PWSCF are:
     Max number of different atomic species (ntypx) = 10
     Max number of k-points (npk) =  40000
     Max angular momentum in pseudopotentials (lmaxx) =  3
     Reading input from pwscf.in
Warning: card &CELL ignored
Warning: card / ignored

     Subspace diagonalization in iterative solution of the eigenvalue problem:
     a serial algorithm will be used

     Found symmetry operation: I + ( -0.5000  0.0000  0.0000)
     This is a supercell, fractional translations are disabled

     bravais-lattice index     =            0
     lattice parameter (alat)  =      10.7336  a.u.
     unit-cell volume          =    6184.1966 (a.u.)^3
     number of atoms/cell      =           30
     number of atomic types    =            3
     number of electrons       =       232.00 (up: 128.00, down: 104.00)
     number of Kohn-Sham states=          336
     kinetic-energy cutoff     =      40.0000  Ry
     charge density cutoff     =     500.0000  Ry
     convergence threshold     =      1.0E-06
     mixing beta               =       0.7000
     number of iterations used =            8  plain     mixing
     Exchange-correlation      = SLA  PW   PBE  PBE ( 1 4 3 4 0)
     EXX-fraction              =        0.00
     nstep                     =           50

     celldm(1)=  10.733644  celldm(2)=   0.000000  celldm(3)=   0.000000
     celldm(4)=   0.000000  celldm(5)=   0.000000  celldm(6)=   0.000000

     crystal axes: (cart. coord. in units of alat)
               a(1) = (   1.000000   0.000000   0.000000 )
               a(2) = (   0.000000   1.085558   0.000000 )
               a(3) = (   0.000000   0.000000   4.606685 )

     reciprocal axes: (cart. coord. in units 2 pi/alat)
               b(1) = (  1.000000  0.000000  0.000000 )
               b(2) = (  0.000000  0.921185  0.000000 )
               b(3) = (  0.000000  0.000000  0.217076 )

     PseudoPot. # 1 for O  read from file:
     /home/camp/zhonxu/pseudo/o_pbe_v1.01.uspp.F.UPF
     MD5 check sum: 2bcb18d16ea4b960afae9ec6d52f22d2
     Pseudo is Ultrasoft + core correction, Zval =  6.0
     Generated by new atomic code, or converted to UPF format
     Using radial grid of  737 points,  5 beta functions with:
                l(1) =   0
                l(2) =   0
                l(3) =   1
                l(4) =   1
                l(5) =   2
     Q(r) pseudized with  8 coefficients,  rinner =    0.900   0.900   0.900
                                                       0.900   0.900

     PseudoPot. # 2 for Mn read from file:
     /home/camp/zhonxu/pseudo/mn_pbe_v1.uspp.F.UPF
     MD5 check sum: 5fd7c7b5c956fd19902447332617373a
     Pseudo is Ultrasoft + core correction, Zval = 15.0
     Generated by new atomic code, or converted to UPF format
     Using radial grid of  859 points,  6 beta functions with:
                l(1) =   0
                l(2) =   0
                l(3) =   1
                l(4) =   1
                l(5) =   2
                l(6) =   2
     Q(r) pseudized with  6 coefficients,  rinner =    1.150   1.150   1.150
                                                       1.150   1.150

     PseudoPot. # 3 for H  read from file:
     /home/camp/zhonxu/pseudo/h_pbe_v1.uspp.F.UPF
     MD5 check sum: 3408e3ff4ec8b0a4e358431e7e038a48
     Pseudo is Ultrasoft, Zval =  1.0
     Generated by new atomic code, or converted to UPF format
     Using radial grid of  615 points,  2 beta functions with:
                l(1) =   0
                l(2) =   0
     Q(r) pseudized with  8 coefficients,  rinner =    0.700

     atomic species   valence    mass     pseudopotential
        O0             6.00    15.99940     O ( 1.00)
        Mn1           15.00    54.93800     Mn( 1.00)
        H2             1.00     1.00794     H ( 1.00)

     Starting magnetic structure
     atomic species   magnetization
        O0           0.000
        Mn1          0.600
        H2           0.000

     Simplified LDA+U calculation (l_max = 2) with parameters (eV):
     atomic species    L          U    alpha       J0     beta
        Mn1            2     5.5000   0.0000   0.0000   0.0000

     No symmetry found

   Cartesian axes

     site n.     atom                  positions (alat units)
         1           O0  tau(   1) = (   0.0000000   0.0000000   1.7440910  )
         2           O0  tau(   2) = (   0.0000000   0.5427791   1.8348887  )
         3           Mn1 tau(   3) = (   0.2500000   0.5427791   2.0695072  )
         4           Mn1 tau(   4) = (   0.0000000   0.0000000   2.0719487  )
         5           O0  tau(   5) = (   0.2500000   0.8684466   2.0695533  )
         6           O0  tau(   6) = (   0.2500000   0.2171117   2.0770161  )
         7           O0  tau(   7) = (   0.0000000   0.5427791   2.2881405  )
         8           O0  tau(   8) = (   0.0000000   0.0000000   2.4167130  )
         9           Mn1 tau(   9) = (   0.2500000   0.0000000   2.6452046  )
        10           Mn1 tau(  10) = (   0.0000000   0.5427791   2.6189465  )
        11           O0  tau(  11) = (   0.2500000   0.7598908   2.6694358  )
        12           O0  tau(  12) = (   0.2500000   0.3256675   2.6696661  )
        13           O0  tau(  13) = (   0.0000000   0.0000000   2.8462864  )
        14           O0  tau(  14) = (   0.5000000   0.0000000   1.7440910  )
        15           O0  tau(  15) = (   0.5000000   0.5427791   1.8348887  )
        16           Mn1 tau(  16) = (   0.7500000   0.5427791   2.0695072  )
        17           Mn1 tau(  17) = (   0.5000000   0.0000000   2.0719487  )
        18           O0  tau(  18) = (   0.7500000   0.8684466   2.0695533  )
        19           O0  tau(  19) = (   0.7500000   0.2171117   2.0770161  )
        20           O0  tau(  20) = (   0.5000000   0.5427791   2.2881405  )
        21           O0  tau(  21) = (   0.5000000   0.0000000   2.4167130  )
        22           Mn1 tau(  22) = (   0.7500000   0.0000000   2.6452046  )
        23           Mn1 tau(  23) = (   0.5000000   0.5427791   2.6189465  )
        24           O0  tau(  24) = (   0.7500000   0.7598908   2.6694358  )
        25           O0  tau(  25) = (   0.7500000   0.3256675   2.6696661  )
        26           O0  tau(  26) = (   0.5000000   0.0000000   2.8462864  )
        27           H2  tau(  27) = (  -0.0000900   0.7018026   1.7591088  )
        28           H2  tau(  28) = (   0.4999100   0.7018026   1.7591088  )
        29           H2  tau(  29) = (   0.1616900   0.0388738   1.6898703  )
        30           H2  tau(  30) = (   0.6616900   0.0388738   1.6898703  )

     number of k points=    20  Methfessel-Paxton smearing, width (Ry)=  0.0100
                       cart. coord. in units 2pi/alat
        k(    1) = (   0.0000000   0.0000000   0.0000000), wk =   0.0625000
        k(    2) = (   0.0000000   0.2302962   0.0000000), wk =   0.1250000
        k(    3) = (   0.0000000  -0.4605925   0.0000000), wk =   0.0625000
        k(    4) = (   0.2500000   0.0000000   0.0000000), wk =   0.1250000
        k(    5) = (   0.2500000   0.2302962   0.0000000), wk =   0.1250000
        k(    6) = (   0.2500000  -0.4605925   0.0000000), wk =   0.1250000
        k(    7) = (  -0.5000000   0.0000000   0.0000000), wk =   0.0625000
        k(    8) = (  -0.5000000   0.2302962   0.0000000), wk =   0.1250000
        k(    9) = (  -0.5000000  -0.4605925   0.0000000), wk =   0.0625000
        k(   10) = (  -0.2500000   0.2302962   0.0000000), wk =   0.1250000
        k(   11) = (   0.0000000   0.0000000   0.0000000), wk =   0.0625000
        k(   12) = (   0.0000000   0.2302962   0.0000000), wk =   0.1250000
        k(   13) = (   0.0000000  -0.4605925   0.0000000), wk =   0.0625000
        k(   14) = (   0.2500000   0.0000000   0.0000000), wk =   0.1250000
        k(   15) = (   0.2500000   0.2302962   0.0000000), wk =   0.1250000
        k(   16) = (   0.2500000  -0.4605925   0.0000000), wk =   0.1250000
        k(   17) = (  -0.5000000   0.0000000   0.0000000), wk =   0.0625000
        k(   18) = (  -0.5000000   0.2302962   0.0000000), wk =   0.1250000
        k(   19) = (  -0.5000000  -0.4605925   0.0000000), wk =   0.0625000
        k(   20) = (  -0.2500000   0.2302962   0.0000000), wk =   0.1250000

     Largest allocated arrays     est. size (Mb)     dimensions
     Largest temporary arrays     est. size (Mb)     dimensions

     Check: negative/imaginary core charge=   -0.000022    0.000000

     Initial potential from superposition of free atoms
     Check: negative starting charge=(component1):   -0.000776
     Check: negative starting charge=(component2):   -0.000381

     starting charge  223.99987, renormalised to  232.00000

     negative rho (up, down):  0.804E-03 0.395E-03
     Number of +U iterations with fixed ns =  0
     Starting occupations:
 --- enter write_ns ---
 LDA+U parameters:
U( 2)     =  5.50000000
alpha( 2) =  0.00000000
atom    3   Tr[ns(na)] (up, down, total) =   5.00000  0.00000  5.00000
   spin  1
    eigenvalues:
  1.000  1.000  1.000  1.000  1.000
    eigenvectors:
  1.000  0.000  0.000  0.000  0.000
  0.000  1.000  0.000  0.000  0.000
  0.000  0.000  1.000  0.000  0.000
  0.000  0.000  0.000  1.000  0.000
  0.000  0.000  0.000  0.000  1.000
    occupations:
  1.000  0.000  0.000  0.000  0.000
  0.000  1.000  0.000  0.000  0.000
  0.000  0.000  1.000  0.000  0.000
  0.000  0.000  0.000  1.000  0.000
  0.000  0.000  0.000  0.000  1.000
   spin  2
    eigenvalues:
  0.000  0.000  0.000  0.000  0.000
    eigenvectors:
  1.000  0.000  0.000  0.000  0.000
  0.000  1.000  0.000  0.000  0.000
  0.000  0.000  1.000  0.000  0.000
  0.000  0.000  0.000  1.000  0.000
  0.000  0.000  0.000  0.000  1.000
    occupations:
  0.000  0.000  0.000  0.000  0.000
  0.000  0.000  0.000  0.000  0.000
  0.000  0.000  0.000  0.000  0.000
  0.000  0.000  0.000  0.000  0.000
  0.000  0.000  0.000  0.000  0.000
atomic mag. moment =     5.000000
atom    4   Tr[ns(na)] (up, down, total) =   5.00000  0.00000  5.00000
   spin  1
    eigenvalues:
  1.000  1.000  1.000  1.000  1.000
    eigenvectors:
  1.000  0.000  0.000  0.000  0.000
  0.000  1.000  0.000  0.000  0.000
  0.000  0.000  1.000  0.000  0.000
  0.000  0.000  0.000  1.000  0.000
  0.000  0.000  0.000  0.000  1.000
    occupations:
  1.000  0.000  0.000  0.000  0.000
  0.000  1.000  0.000  0.000  0.000
  0.000  0.000  1.000  0.000  0.000
  0.000  0.000  0.000  1.000  0.000
  0.000  0.000  0.000  0.000  1.000
   spin  2
    eigenvalues:
  0.000  0.000  0.000  0.000  0.000
    eigenvectors:
  1.000  0.000  0.000  0.000  0.000
  0.000  1.000  0.000  0.000  0.000
  0.000  0.000  1.000  0.000  0.000
  0.000  0.000  0.000  1.000  0.000
  0.000  0.000  0.000  0.000  1.000
    occupations:
  0.000  0.000  0.000  0.000  0.000
  0.000  0.000  0.000  0.000  0.000
  0.000  0.000  0.000  0.000  0.000
  0.000  0.000  0.000  0.000  0.000
  0.000  0.000  0.000  0.000  0.000
atomic mag. moment =     5.000000
atom    9   Tr[ns(na)] (up, down, total) =   5.00000  0.00000  5.00000
   spin  1
    eigenvalues:
  1.000  1.000  1.000  1.000  1.000
    eigenvectors:
[...]
  0.000  0.002  0.000  0.998  0.000
  0.005  0.000  0.995  0.000  0.000
  0.220  0.000  0.001  0.000  0.779
  0.000  0.998  0.000  0.002  0.000
    occupations:
  0.136 -0.000 -0.002  0.111 -0.000
 -0.000  0.322  0.000 -0.000  0.009
 -0.002  0.000  0.110  0.001 -0.000
  0.111 -0.000  0.001  0.285 -0.000
 -0.000  0.009 -0.000 -0.000  0.098
atomic mag. moment =     3.470798
atom    4   Tr[ns(na)] (up, down, total) =   4.41445  0.94985  5.36430
   spin  1
    eigenvalues:
  0.675  0.734  0.997  1.004  1.005
    eigenvectors:
  0.000  0.998  0.001  0.001  0.000
  0.000  0.001  0.000  0.536  0.463
  0.000  0.000  0.000  0.462  0.537
  0.000  0.001  0.999  0.000  0.000
  1.000  0.000  0.000  0.000  0.000
    occupations:
  0.735 -0.009 -0.005  0.007 -0.001
 -0.009  1.004 -0.000  0.000  0.001
 -0.005 -0.000  1.004  0.000 -0.000
  0.007  0.000  0.000  0.997  0.000
 -0.001  0.001 -0.000  0.000  0.675
   spin  2
    eigenvalues:
  0.080  0.097  0.106  0.316  0.352
    eigenvectors:
  0.005  0.002  0.000  0.993  0.000
  0.002  0.651  0.345  0.002  0.001
  0.003  0.341  0.655  0.001  0.000
  0.990  0.006  0.000  0.004  0.000
  0.000  0.000  0.000  0.000  0.999
    occupations:
  0.314  0.009  0.006 -0.016  0.000
  0.009  0.101 -0.004  0.000 -0.006
  0.006 -0.004  0.103  0.001  0.000
 -0.016  0.000  0.001  0.081 -0.000
  0.000 -0.006  0.000 -0.000  0.351
atomic mag. moment =     3.464595
atom    9   Tr[ns(na)] (up, down, total) =   4.39575  0.99919  5.39494
   spin  1
    eigenvalues:
  0.708  0.715  0.982  0.991  1.000
    eigenvectors:
  0.224  0.001  0.000  0.000  0.775
  0.003  0.997  0.000  0.000  0.000
  0.000  0.000  0.000  1.000  0.000
  0.772  0.003  0.000  0.000  0.225
  0.000  0.000  1.000  0.000  0.000
    occupations:
  0.934  0.000  0.000 -0.122  0.000
  0.000  0.715  0.000  0.000  0.000
  0.000  0.000  0.991  0.000 -0.000
 -0.122  0.000  0.000  0.774  0.000
  0.000  0.000 -0.000  0.000  0.982
   spin  2
    eigenvalues:
  0.090  0.103  0.107  0.345  0.355
    eigenvectors:
  0.811  0.000  0.000  0.189  0.000
  0.000  0.000  0.000  0.000  1.000
  0.000  0.000  1.000  0.000  0.000
  0.189  0.000  0.000  0.811  0.000
  0.000  1.000  0.000  0.000  0.000
    occupations:
  0.138 -0.000  0.000  0.100  0.000
 -0.000  0.355 -0.000  0.000 -0.000
  0.000 -0.000  0.107 -0.000 -0.000
  0.100  0.000 -0.000  0.297 -0.000
  0.000 -0.000 -0.000 -0.000  0.103
atomic mag. moment =     3.396565
atom   10   Tr[ns(na)] (up, down, total) =   4.63712  0.65673  5.29384
   spin  1
    eigenvalues:
  0.687  0.954  0.999  0.999  0.999
    eigenvectors:
  0.000  0.954  0.000  0.046  0.000
  0.000  0.000  0.989  0.005  0.006
  0.000  0.000  0.007  0.005  0.989
  0.000  0.046  0.004  0.945  0.005
  1.000  0.000  0.000  0.000  0.000
    occupations:
  0.956 -0.000  0.000  0.009 -0.000
 -0.000  0.999  0.000  0.000 -0.000
  0.000  0.000  0.999 -0.000  0.000
  0.009  0.000 -0.000  0.997 -0.000
 -0.000 -0.000  0.000 -0.000  0.687
   spin  2
    eigenvalues:
  0.067  0.073  0.080  0.137  0.301
    eigenvectors:
  0.041  0.000  0.000  0.959  0.000
  0.000  0.000  1.000  0.000  0.000
  0.000  1.000  0.000  0.000  0.000
  0.959  0.000  0.000  0.041  0.000
  0.000  0.000  0.000  0.000  1.000
    occupations:
  0.134  0.000 -0.000 -0.014  0.000
  0.000  0.080 -0.000 -0.000  0.000
 -0.000 -0.000  0.073 -0.000  0.000
 -0.014 -0.000 -0.000  0.069 -0.000
  0.000  0.000  0.000 -0.000  0.301
atomic mag. moment =     3.980388
atom   16   Tr[ns(na)] (up, down, total) =   4.42199  0.95119  5.37318
   spin  1
    eigenvalues:
  0.694  0.726  0.999  1.000  1.003
    eigenvectors:
  0.244  0.000  0.000  0.670  0.085
  0.000  0.999  0.001  0.000  0.000
  0.000  0.000  0.000  0.108  0.891
  0.755  0.000  0.000  0.221  0.023
  0.000  0.001  0.999  0.000  0.000
    occupations:
  0.925  0.000 -0.003 -0.131  0.000
  0.000  0.726 -0.000  0.000 -0.007
 -0.003 -0.000  1.003 -0.003  0.000
 -0.131  0.000 -0.003  0.769  0.000
  0.000 -0.007  0.000  0.000  0.999
   spin  2
    eigenvalues:
  0.077  0.097  0.110  0.322  0.344
    eigenvectors:
  0.775  0.000  0.004  0.000  0.221
  0.000  0.002  0.000  0.998  0.000
  0.005  0.000  0.995  0.000  0.000
  0.220  0.000  0.001  0.000  0.779
  0.000  0.998  0.000  0.002  0.000
    occupations:
  0.136 -0.000 -0.002  0.111 -0.000
 -0.000  0.322  0.000 -0.000  0.009
 -0.002  0.000  0.110  0.001 -0.000
  0.111 -0.000  0.001  0.285 -0.000
 -0.000  0.009 -0.000 -0.000  0.098
atomic mag. moment =     3.470798
atom   17   Tr[ns(na)] (up, down, total) =   4.41445  0.94985  5.36430
   spin  1
    eigenvalues:
  0.675  0.734  0.997  1.004  1.005
    eigenvectors:
  0.000  0.998  0.001  0.001  0.000
  0.000  0.001  0.000  0.537  0.462
  0.000  0.000  0.000  0.462  0.538
  0.000  0.001  0.999  0.000  0.000
  1.000  0.000  0.000  0.000  0.000
    occupations:
  0.735 -0.009 -0.005  0.007 -0.001
 -0.009  1.004 -0.000  0.000  0.001
 -0.005 -0.000  1.004  0.000 -0.000
  0.007  0.000  0.000  0.997  0.000
 -0.001  0.001 -0.000  0.000  0.675
   spin  2
    eigenvalues:
  0.080  0.097  0.106  0.316  0.352
    eigenvectors:
  0.005  0.002  0.000  0.993  0.000
  0.002  0.651  0.345  0.002  0.001
  0.003  0.341  0.655  0.001  0.000
  0.990  0.006  0.000  0.004  0.000
  0.000  0.000  0.000  0.000  0.999
    occupations:
  0.314  0.009  0.006 -0.016  0.000
  0.009  0.101 -0.004  0.000 -0.006
  0.006 -0.004  0.103  0.001  0.000
 -0.016  0.000  0.001  0.081 -0.000
  0.000 -0.006  0.000 -0.000  0.351
atomic mag. moment =     3.464602
atom   22   Tr[ns(na)] (up, down, total) =   4.39575  0.99919  5.39494
   spin  1
    eigenvalues:
  0.708  0.715  0.982  0.991  1.000
    eigenvectors:
  0.224  0.001  0.000  0.000  0.775
  0.003  0.997  0.000  0.000  0.000
  0.000  0.000  0.000  1.000  0.000
  0.772  0.003  0.000  0.000  0.225
  0.000  0.000  1.000  0.000  0.000
    occupations:
  0.934  0.000  0.000 -0.122  0.000
  0.000  0.715  0.000  0.000  0.000
  0.000  0.000  0.991  0.000 -0.000
 -0.122  0.000  0.000  0.774  0.000
  0.000  0.000 -0.000  0.000  0.982
   spin  2
    eigenvalues:
  0.090  0.103  0.107  0.345  0.355
    eigenvectors:
  0.811  0.000  0.000  0.189  0.000
  0.000  0.000  0.000  0.000  1.000
  0.000  0.000  1.000  0.000  0.000
  0.189  0.000  0.000  0.811  0.000
  0.000  1.000  0.000  0.000  0.000
    occupations:
  0.138 -0.000  0.000  0.100  0.000
 -0.000  0.355 -0.000  0.000 -0.000
  0.000 -0.000  0.107 -0.000 -0.000
  0.100  0.000 -0.000  0.297 -0.000
  0.000 -0.000 -0.000 -0.000  0.103
atomic mag. moment =     3.396565
atom   23   Tr[ns(na)] (up, down, total) =   4.63712  0.65673  5.29385
   spin  1
    eigenvalues:
  0.687  0.954  0.999  0.999  0.999
    eigenvectors:
  0.000  0.954  0.000  0.046  0.000
  0.000  0.000  0.989  0.005  0.006
  0.000  0.000  0.007  0.005  0.989
  0.000  0.046  0.004  0.945  0.005
  1.000  0.000  0.000  0.000  0.000
    occupations:
  0.956 -0.000  0.000  0.009 -0.000
 -0.000  0.999  0.000  0.000 -0.000
  0.000  0.000  0.999 -0.000  0.000
  0.009  0.000 -0.000  0.997 -0.000
 -0.000 -0.000  0.000 -0.000  0.687
   spin  2
    eigenvalues:
  0.067  0.073  0.080  0.137  0.301
    eigenvectors:
  0.041  0.000  0.000  0.959  0.000
  0.000  0.000  1.000  0.000  0.000
  0.000  1.000  0.000  0.000  0.000
  0.959  0.000  0.000  0.041  0.000
  0.000  0.000  0.000  0.000  1.000
    occupations:
  0.134  0.000 -0.000 -0.014  0.000
  0.000  0.080 -0.000 -0.000  0.000
 -0.000 -0.000  0.073 -0.000  0.000
 -0.014 -0.000 -0.000  0.069 -0.000
  0.000  0.000  0.000 -0.000  0.301
atomic mag. moment =     3.980390
N of occupied +U levels =  42.8525206
 --- exit write_ns ---

 ------ SPIN UP ------------

[...]

 ------ SPIN DOWN ----------

[...]

          k = 0.2500-0.4606 0.0000 ( 26462 PWs)   bands (ev):

[...]

          k =-0.2500 0.2303 0.0000 ( 26396 PWs)   bands (ev):

   -80.2781 -80.2703 -80.2191 -80.2111 -80.2109 -80.2025 -79.2879 -79.2795
   -49.1964 -49.1589 -49.1396 -49.1281 -49.1170 -49.0893 -49.0631 -49.0542
   -49.0464 -49.0452 -49.0284 -49.0172 -48.9919 -48.9757 -48.9216 -48.9037
   -48.8353 -48.8279 -48.4320 -48.3268 -48.2595 -48.2414 -47.7257 -47.7169
   -21.7014 -21.2416 -21.1596 -20.9515 -20.4866 -20.4250 -20.3977 -20.3245
   -20.1182 -20.1159 -20.0342 -19.9415 -19.8429 -19.7707 -19.7199 -19.7138
   -19.6244 -19.5697  -9.0317  -8.8108  -8.4155  -8.3679  -8.1905  -7.9905
    -7.7682  -7.6199  -7.4708  -7.3705  -7.1774  -7.1629  -7.0321  -7.0075
    -6.9015  -6.8199  -6.7313  -6.6122  -6.5867  -6.3940  -6.3669  -6.2397
    -6.2222  -6.0934  -5.9784  -5.8215  -5.7577  -5.7128  -5.6360  -5.5041
    -5.4236  -5.3493  -5.2194  -5.1511  -5.1158  -5.0275  -4.9791  -4.8099
    -4.7575  -4.6316  -4.5392  -4.5016  -4.4175  -4.2833  -4.2634  -4.1546
    -3.9918  -3.8985  -3.7302  -3.6653  -3.6464  -3.3128  -3.3114  -2.9892
     0.9769   1.0253   1.0295   1.1053   1.1097   1.2654   1.2790   1.2815
     1.3289   1.3324   1.4070   1.4729   1.5692   1.5908   1.6447   1.7287
     1.7627   1.7899   1.8647   1.8862   1.9706   2.0273   2.0829   2.1645
     2.1986   2.2552   2.2943   2.3464   2.4162   2.5849   2.5898   2.6205
     2.6938   2.7299   2.7939   2.9731   3.0474   3.0837   3.1296   3.2858
     3.7090   4.1748   4.3758   4.8556   5.3417   5.6187   5.7698   6.0693
     6.2211   6.4061   6.4275   6.4834   6.5871   6.8547   6.9441   7.2772
     7.3231   7.5735   7.7280   7.8875   8.1526   8.2338   8.3308   8.3763
     8.4247   8.5718   8.7822   8.8667   9.1235   9.2012   9.2804   9.4513
     9.5393   9.5875   9.8775   9.9498  10.0523  10.0570  10.1485  10.3369
    10.4229  10.5933  10.6042  10.6860  10.8262  10.9727  11.0249  11.0886
    11.2103  11.3127  11.3194  11.5129  11.5394  11.6441  11.6963  11.7147
    11.8919  11.9627  12.1320  12.1922  12.1980  12.3189  12.4374  12.4638
    12.5621  12.7505  12.8146  12.8195  12.9244  12.9969  13.0799  13.1336
    13.1606  13.2351  13.3379  13.4303  13.4807  13.5120  13.5645  13.6114
    13.6502  13.7472  13.8492  13.8856  14.0498  14.1130  14.1895  14.2627
    14.3006  14.3086  14.3475  14.5874  14.6013  14.6595  14.6802  14.7922
    14.9533  15.0187  15.1007  15.1669  15.2637  15.4463  15.4659  15.6118
    15.6588  15.7875  15.8365  15.9256  16.0000  16.1226  16.1925  16.2761
    16.3395  16.4660  16.5108  16.5294  16.6148  16.7611  16.7900  16.8877
    16.9877  17.0494  17.1208  17.1310  17.2072  17.3029  17.3100  17.4808
    17.5028  17.5752  17.6709  17.7239  17.9001  17.9200  17.9740  18.1020
    18.1721  18.2131  18.2548  18.3110  18.3292  18.4472  18.5197  18.5996
    18.6637  18.7816  18.8015  18.8176  18.9599  19.0792  19.1375  19.1922
    19.2908  19.2977  19.3785  19.4827  19.6090  19.6969  19.7717  19.8747
    19.8875  19.9978  20.0470  20.0631  20.1156  20.1543  20.2803  20.2950
    20.3609  20.4236  20.4306  20.5515  20.6135  20.7604  20.8869  20.9404
    21.0718  21.1157  21.1567  21.2496  21.2614  21.3575  21.4330  21.5160
    21.5673  21.6823  21.7173  21.8087  21.8661  21.9179  22.0428  22.1058

     the spin up/dw Fermi energies are    -2.4544   -0.6312 ev

!    total energy              =   -2286.89002728 Ry
     Harris-Foulkes estimate   =   -2286.89002727 Ry
     estimated scf accuracy    <          7.0E-09 Ry

     The total energy is the sum of the following terms:

     one-electron contribution =  -25243.79254758 Ry
     hartree contribution      =   12638.25611548 Ry
     xc contribution           =    -341.87342303 Ry
     ewald contribution        =   10658.83199120 Ry
     Hubbard energy            =       1.68805164 Ry
     smearing contrib. (-TS)   =      -0.00021498 Ry

     total magnetization       =    24.00 Bohr mag/cell
     absolute magnetization    =    34.47 Bohr mag/cell

     convergence has been achieved in  14 iterations

     Forces acting on atoms (Ry/au):

     negative rho (up, down):  0.181E-02 0.141E-02
     atom    1 type  1   force =    -0.00538875   -0.01426450   -0.00082088
     atom    2 type  1   force =     0.00038414    0.00866674    0.00026594
     atom    3 type  2   force =    -0.00077211    0.00059282    0.00029818
     atom    4 type  2   force =     0.00701718    0.01038666    0.00029154
     atom    5 type  1   force =     0.00152123    0.01465951   -0.00033156
     atom    6 type  1   force =    -0.00186985   -0.01969166    0.00021532
     atom    7 type  1   force =     0.00003413    0.00168659    0.00035343
     atom    8 type  1   force =    -0.00146652   -0.00244970    0.00013223
     atom    9 type  2   force =     0.00076447    0.00027709   -0.00095410
     atom   10 type  2   force =    -0.00005804   -0.00067017   -0.00048130
     atom   11 type  1   force =     0.00007107   -0.02364632    0.00027868
     atom   12 type  1   force =     0.00001118    0.02390894    0.00028803
     atom   13 type  1   force =    -0.00045410   -0.00010908    0.00009179
     atom   14 type  1   force =    -0.00538526   -0.01426352   -0.00081832
     atom   15 type  1   force =     0.00038420    0.00866328    0.00026314
     atom   16 type  2   force =    -0.00075182    0.00059318    0.00029829
     atom   17 type  2   force =     0.00701760    0.01038663    0.00026815
     atom   18 type  1   force =     0.00152785    0.01465960   -0.00033170
     atom   19 type  1   force =    -0.00186262   -0.01969158    0.00021544
     atom   20 type  1   force =     0.00003422    0.00168675    0.00035540
     atom   21 type  1   force =    -0.00146648   -0.00244971    0.00013339
     atom   22 type  2   force =     0.00078107    0.00027708   -0.00095417
     atom   23 type  2   force =    -0.00005794   -0.00066993   -0.00046889
     atom   24 type  1   force =     0.00007278   -0.02364633    0.00027870
     atom   25 type  1   force =     0.00001283    0.02390897    0.00028802
     atom   26 type  1   force =    -0.00045411   -0.00010908    0.00009048
     atom   27 type  3   force =     0.00000320   -0.00007059    0.00022413
     atom   28 type  3   force =     0.00000316   -0.00006896    0.00022343
     atom   29 type  3   force =     0.00017489    0.00072395    0.00015315
     atom   30 type  3   force =     0.00017240    0.00072333    0.00015407

     Total force =     0.002508     Total SCF correction =     0.000214

     bfgs converged in  16 scf cycles and  15 bfgs steps
     (criteria: energy < 0.10E-03, force < 0.10E-02)

     End of BFGS Geometry Optimization

     Final energy   =   -2286.8900272808 Ry
Begin final coordinates

ATOMIC_POSITIONS (crystal)
O0       0.000000000   0.000000000   0.374346960    0   0   1
O0       0.000000000   0.500000000   0.393612444    0   0   1
Mn1      0.250000000   0.500000000   0.446567445    0   0   1
Mn1      0.000000000   0.000000000   0.447571372    0   0   1
O0       0.250000000   0.800000000   0.446654207    0   0   1
O0       0.250000000   0.200000000   0.449595675    0   0   1
O0       0.000000000   0.500000000   0.494910236    0   0   1
O0       0.000000000   0.000000000   0.526227009    0   0   1
Mn1      0.250000000   0.000000000   0.575360809    0   0   1
Mn1      0.000000000   0.500000000   0.573162438    0   0   1
O0       0.250000000   0.700000000   0.585862501    0   0   1
O0       0.250000000   0.300000000   0.585949800    0   0   1
O0       0.000000000   0.000000000   0.624095870    0   0   1
O0       0.500000000   0.000000000   0.374346804    0   0   1
O0       0.500000000   0.500000000   0.393612525    0   0   1
Mn1      0.750000000   0.500000000   0.446567439    0   0   1
Mn1      0.500000000   0.000000000   0.447571704    0   0   1
O0       0.750000000   0.800000000   0.446654233    0   0   1
O0       0.750000000   0.200000000   0.449595645    0   0   1
O0       0.500000000   0.500000000   0.494910240    0   0   1
O0       0.500000000   0.000000000   0.526226864    0   0   1
Mn1      0.750000000   0.000000000   0.575360812    0   0   1
Mn1      0.500000000   0.500000000   0.573162233    0   0   1
O0       0.750000000   0.700000000   0.585862499    0   0   1
O0       0.750000000   0.300000000   0.585949799    0   0   1
O0       0.500000000   0.000000000   0.624095817    0   0   1
H2       0.000402869   0.647800615   0.378037064
H2       0.500402919   0.647800285   0.378037078
H2       0.161667705   0.041500706   0.363656280
H2       0.661668090   0.041500897   0.363656197
End final coordinates

     General routines

     Parallel routines
     Hubbard U routines

   This run was terminated on:   9: 7: 0  10May2014

   JOB DONE.
Running PBS batch system epilogue script
Job id: 340904.audhumbla.fysik.dtu.dk
Username: zhonxu
Groupname: campgst
Jobname: MnO2/Eads-2-layers/bare-U-5.5
Sessionid: 20321
Queuename: verylong
Accounting:
This job has allocated the following 16 nodes:
b093 b093 b093 b093 b093 b093 b093 b093 b091 b091 b091 b091 b091 b091 b091 b091
Finished epilogue job 340904.audhumbla.fysik.dtu.dk for zhonxu