     Program PWSCF v.5.0.2 (svn rev. 9656) starts on 25May2014 at  2:49:42

     Current dimensions of program PWSCF are:
     Max number of different atomic species (ntypx) = 10
     Max number of k-points (npk) =  40000
     Max angular momentum in pseudopotentials (lmaxx) =  3
     Reading input from pwscf.in
Warning: card &CELL ignored
Warning: card / ignored

     Subspace diagonalization in iterative solution of the eigenvalue problem:
     a serial algorithm will be used

     bravais-lattice index     =            0
     lattice parameter (alat)  =      10.7336  a.u.
     unit-cell volume          =    6184.1966 (a.u.)^3
     number of atoms/cell      =           31
     number of atomic types    =            3
     number of electrons       =       238.00 (up: 130.00, down: 108.00)
     number of Kohn-Sham states=          345
     kinetic-energy cutoff     =      40.0000  Ry
     charge density cutoff     =     500.0000  Ry
     convergence threshold     =      1.0E-06
     mixing beta               =       0.7000
     number of iterations used =            8  plain     mixing
     Exchange-correlation      = SLA  PW   PBE  PBE ( 1 4 3 4 0)
     EXX-fraction              =        0.00
     nstep                     =           50

     celldm(1)=  10.733644  celldm(2)=   0.000000  celldm(3)=   0.000000
     celldm(4)=   0.000000  celldm(5)=   0.000000  celldm(6)=   0.000000

     crystal axes: (cart. coord. in units of alat)
               a(1) = (   1.000000   0.000000   0.000000 )
               a(2) = (   0.000000   1.085558   0.000000 )
               a(3) = (   0.000000   0.000000   4.606685 )

     reciprocal axes: (cart. coord. in units 2 pi/alat)
               b(1) = (  1.000000  0.000000  0.000000 )
               b(2) = (  0.000000  0.921185  0.000000 )
               b(3) = (  0.000000  0.000000  0.217076 )

     PseudoPot. # 1 for O  read from file:
     /home/camp/zhonxu/pseudo/o_pbe_v1.01.uspp.F.UPF
     MD5 check sum: 2bcb18d16ea4b960afae9ec6d52f22d2
     Pseudo is Ultrasoft + core correction, Zval =  6.0
     Generated by new atomic code, or converted to UPF format
     Using radial grid of  737 points,  5 beta functions with:
                l(1) =   0
                l(2) =   0
                l(3) =   1
                l(4) =   1
                l(5) =   2
     Q(r) pseudized with  8 coefficients,  rinner =    0.900   0.900   0.900
                                                       0.900   0.900

     PseudoPot. # 2 for Mn read from file:
     /home/camp/zhonxu/pseudo/mn_pbe_v1.uspp.F.UPF
     MD5 check sum: 5fd7c7b5c956fd19902447332617373a
     Pseudo is Ultrasoft + core correction, Zval = 15.0
     Generated by new atomic code, or converted to UPF format
     Using radial grid of  859 points,  6 beta functions with:
                l(1) =   0
                l(2) =   0
                l(3) =   1
                l(4) =   1
                l(5) =   2
                l(6) =   2
     Q(r) pseudized with  6 coefficients,  rinner =    1.150   1.150   1.150
                                                       1.150   1.150

     PseudoPot. # 3 for H  read from file:
     /home/camp/zhonxu/pseudo/h_pbe_v1.uspp.F.UPF
     MD5 check sum: 3408e3ff4ec8b0a4e358431e7e038a48
     Pseudo is Ultrasoft, Zval =  1.0
     Generated by new atomic code, or converted to UPF format
     Using radial grid of  615 points,  2 beta functions with:
                l(1) =   0
                l(2) =   0
     Q(r) pseudized with  8 coefficients,  rinner =    0.700

     atomic species   valence    mass     pseudopotential
        O0             6.00    15.99940     O ( 1.00)
        Mn1           15.00    54.93800     Mn( 1.00)
        H2             1.00     1.00794     H ( 1.00)

     Starting magnetic structure
     atomic species   magnetization
        O0           0.000
        Mn1          0.600
        H2           0.000

     Simplified LDA+U calculation (l_max = 2) with parameters (eV):
     atomic species    L          U    alpha       J0     beta
        Mn1            2     5.0000   0.0000   0.0000   0.0000

     No symmetry found

   Cartesian axes

     site n.     atom                  positions (alat units)
         1           O0  tau(   1) = (   0.0000000   0.0000000   1.7258024  )
         2           O0  tau(   2) = (   0.0000000   0.5427791   1.8244316  )
         3           Mn1 tau(   3) = (   0.2500000   0.5427791   2.0656376  )
         4           Mn1 tau(   4) = (   0.0000000   0.0000000   2.0605702  )
         5           O0  tau(   5) = (   0.2500000   0.8684466   2.0563781  )
         6           O0  tau(   6) = (   0.2500000   0.2171117   2.0705207  )
         7           O0  tau(   7) = (   0.0000000   0.5427791   2.2813226  )
         8           O0  tau(   8) = (   0.0000000   0.0000000   2.4179108  )
         9           Mn1 tau(   9) = (   0.2500000   0.0000000   2.6444676  )
        10           Mn1 tau(  10) = (   0.0000000   0.5427791   2.6417035  )
        11           O0  tau(  11) = (   0.2500000   0.7598908   2.6782806  )
        12           O0  tau(  12) = (   0.2500000   0.3256675   2.6798930  )
        13           O0  tau(  13) = (   0.0000000   0.0000000   2.8642525  )
        14           O0  tau(  14) = (   0.5000000   0.0000000   1.7251575  )
        15           O0  tau(  15) = (   0.5000000   0.5427791   1.8236023  )
        16           Mn1 tau(  16) = (   0.7500000   0.5427791   2.0655915  )
        17           Mn1 tau(  17) = (   0.5000000   0.0000000   2.0592804  )
        18           O0  tau(  18) = (   0.7500000   0.8684466   2.0563321  )
        19           O0  tau(  19) = (   0.7500000   0.2171117   2.0706128  )
        20           O0  tau(  20) = (   0.5000000   0.5427791   2.2923786  )
        21           O0  tau(  21) = (   0.5000000   0.0000000   2.4186018  )
        22           Mn1 tau(  22) = (   0.7500000   0.0000000   2.6444215  )
        23           Mn1 tau(  23) = (   0.5000000   0.5427791   2.6449282  )
        24           O0  tau(  24) = (   0.7500000   0.7598908   2.6782806  )
        25           O0  tau(  25) = (   0.7500000   0.3256675   2.6799390  )
        26           O0  tau(  26) = (   0.5000000   0.0000000   2.8664637  )
        27           H2  tau(  27) = (   0.0005100   0.7033007   1.7523830  )
        28           H2  tau(  28) = (   0.5004700   0.7027687   1.7510931  )
        29           H2  tau(  29) = (   0.1609900   0.0464945   1.6758660  )
        30           H2  tau(  30) = (   0.6612800   0.0467659   1.6761884  )
        31           O0  tau(  31) = (   0.4999300   0.5438213   2.9780376  )

     number of k points=    20  Methfessel-Paxton smearing, width (Ry)=  0.0100
                       cart. coord. in units 2pi/alat
        k(    1) = (   0.0000000   0.0000000   0.0000000), wk =   0.0625000
        k(    2) = (   0.0000000   0.2302962   0.0000000), wk =   0.1250000
        k(    3) = (   0.0000000  -0.4605925   0.0000000), wk =   0.0625000
        k(    4) = (   0.2500000   0.0000000   0.0000000), wk =   0.1250000
        k(    5) = (   0.2500000   0.2302962   0.0000000), wk =   0.1250000
        k(    6) = (   0.2500000  -0.4605925   0.0000000), wk =   0.1250000
        k(    7) = (  -0.5000000   0.0000000   0.0000000), wk =   0.0625000
        k(    8) = (  -0.5000000   0.2302962   0.0000000), wk =   0.1250000
        k(    9) = (  -0.5000000  -0.4605925   0.0000000), wk =   0.0625000
        k(   10) = (  -0.2500000   0.2302962   0.0000000), wk =   0.1250000
        k(   11) = (   0.0000000   0.0000000   0.0000000), wk =   0.0625000
        k(   12) = (   0.0000000   0.2302962   0.0000000), wk =   0.1250000
        k(   13) = (   0.0000000  -0.4605925   0.0000000), wk =   0.0625000
        k(   14) = (   0.2500000   0.0000000   0.0000000), wk =   0.1250000
        k(   15) = (   0.2500000   0.2302962   0.0000000), wk =   0.1250000
        k(   16) = (   0.2500000  -0.4605925   0.0000000), wk =   0.1250000
        k(   17) = (  -0.5000000   0.0000000   0.0000000), wk =   0.0625000
        k(   18) = (  -0.5000000   0.2302962   0.0000000), wk =   0.1250000
        k(   19) = (  -0.5000000  -0.4605925   0.0000000), wk =   0.0625000
        k(   20) = (  -0.2500000   0.2302962   0.0000000), wk =   0.1250000

     Largest allocated arrays     est. size (Mb)     dimensions
     Largest temporary arrays     est. size (Mb)     dimensions

     Check: negative/imaginary core charge=   -0.000023    0.000000

     Initial potential from superposition of free atoms
     Check: negative starting charge=(component1):   -0.000741
     Check: negative starting charge=(component2):   -0.000363

     starting charge  229.99987, renormalised to  238.00000

     negative rho (up, down):  0.767E-03 0.376E-03
     Number of +U iterations with fixed ns =  0
     Starting occupations:
 --- enter write_ns ---
 LDA+U parameters:
U( 2)     =  5.00000000
alpha( 2) =  0.00000000
atom    3   Tr[ns(na)] (up, down, total) =   5.00000  0.00000  5.00000
   spin  1
    eigenvalues:
  1.000  1.000  1.000  1.000  1.000
    eigenvectors:
  1.000  0.000  0.000  0.000  0.000
  0.000  1.000  0.000  0.000  0.000
  0.000  0.000  1.000  0.000  0.000
  0.000  0.000  0.000  1.000  0.000
  0.000  0.000  0.000  0.000  1.000
    occupations:
  1.000  0.000  0.000  0.000  0.000
  0.000  1.000  0.000  0.000  0.000
  0.000  0.000  1.000  0.000  0.000
  0.000  0.000  0.000  1.000  0.000
  0.000  0.000  0.000  0.000  1.000
   spin  2
    eigenvalues:
  0.000  0.000  0.000  0.000  0.000
    eigenvectors:
  1.000  0.000  0.000  0.000  0.000
  0.000  1.000  0.000  0.000  0.000
  0.000  0.000  1.000  0.000  0.000
  0.000  0.000  0.000  1.000  0.000
  0.000  0.000  0.000  0.000  1.000
    occupations:
  0.000  0.000  0.000  0.000  0.000
  0.000  0.000  0.000  0.000  0.000
  0.000  0.000  0.000  0.000  0.000
  0.000  0.000  0.000  0.000  0.000
  0.000  0.000  0.000  0.000  0.000
atomic mag. moment =     5.000000
atom    4   Tr[ns(na)] (up, down, total) =   5.00000  0.00000  5.00000
   spin  1
    eigenvalues:
  1.000  1.000  1.000  1.000  1.000
    eigenvectors:
  1.000  0.000  0.000  0.000  0.000
  0.000  1.000  0.000  0.000  0.000
  0.000  0.000  1.000  0.000  0.000
  0.000  0.000  0.000  1.000  0.000
  0.000  0.000  0.000  0.000  1.000
    occupations:
  1.000  0.000  0.000  0.000  0.000
  0.000  1.000  0.000  0.000  0.000
  0.000  0.000  1.000  0.000  0.000
  0.000  0.000  0.000  1.000  0.000
  0.000  0.000  0.000  0.000  1.000
   spin  2
    eigenvalues:
  0.000  0.000  0.000  0.000  0.000
    eigenvectors:
  1.000  0.000  0.000  0.000  0.000
  0.000  1.000  0.000  0.000  0.000
  0.000  0.000  1.000  0.000  0.000
  0.000  0.000  0.000  1.000  0.000
  0.000  0.000  0.000  0.000  1.000
    occupations:
  0.000  0.000  0.000  0.000  0.000
  0.000  0.000  0.000  0.000  0.000
  0.000  0.000  0.000  0.000  0.000
  0.000  0.000  0.000  0.000  0.000
  0.000  0.000  0.000  0.000  0.000
atomic mag. moment =     5.000000
atom    9   Tr[ns(na)] (up, down, total) =   5.00000  0.00000  5.00000
   spin  1
    eigenvalues:
  1.000  1.000  1.000  1.000  1.000
    eigenvectors:
  1.000  0.000  0.000  0.000  0.000
[...]
  0.000  0.000  0.000  0.228  0.772
  0.000  0.001  0.999  0.000  0.000
  1.000  0.000  0.000  0.000  0.000
    occupations:
  0.714 -0.010 -0.006  0.006 -0.001
 -0.010  1.004 -0.000  0.000  0.001
 -0.006 -0.000  1.004  0.000 -0.000
  0.006  0.000  0.000  0.996  0.000
 -0.001  0.001 -0.000  0.000  0.653
   spin  2
    eigenvalues:
  0.085  0.107  0.119  0.338  0.362
    eigenvectors:
  0.004  0.003  0.000  0.994  0.000
  0.002  0.767  0.228  0.002  0.001
  0.002  0.226  0.772  0.001  0.000
  0.992  0.004  0.000  0.004  0.000
  0.000  0.000  0.000  0.000  0.999
    occupations:
  0.336  0.011  0.006 -0.015  0.000
  0.011  0.111 -0.005  0.000 -0.006
  0.006 -0.005  0.117  0.001  0.000
 -0.015  0.000  0.001  0.086 -0.000
  0.000 -0.006  0.000 -0.000  0.362
atomic mag. moment =     3.359897
atom    9   Tr[ns(na)] (up, down, total) =   4.35652  1.06269  5.41921
   spin  1
    eigenvalues:
  0.684  0.704  0.980  0.990  0.999
    eigenvectors:
  0.223  0.000  0.000  0.000  0.776
  0.000  1.000  0.000  0.000  0.000
  0.000  0.000  0.052  0.948  0.000
  0.777  0.000  0.000  0.000  0.223
  0.000  0.000  0.948  0.052  0.000
    occupations:
  0.928  0.002 -0.000 -0.131  0.000
  0.002  0.704 -0.000 -0.001  0.000
 -0.000 -0.000  0.990 -0.000 -0.002
 -0.131 -0.001 -0.000  0.754  0.000
  0.000  0.000 -0.002  0.000  0.980
   spin  2
    eigenvalues:
  0.099  0.114  0.117  0.357  0.375
    eigenvectors:
  0.810  0.000  0.000  0.188  0.002
  0.000  0.000  0.000  0.012  0.987
  0.000  0.047  0.953  0.000  0.000
  0.190  0.000  0.000  0.800  0.011
  0.000  0.953  0.047  0.000  0.000
    occupations:
  0.148 -0.001  0.000  0.101  0.000
 -0.001  0.374 -0.000  0.002 -0.000
  0.000 -0.000  0.117  0.000 -0.001
  0.101  0.002  0.000  0.309 -0.000
  0.000 -0.000 -0.001 -0.000  0.115
atomic mag. moment =     3.293834
atom   10   Tr[ns(na)] (up, down, total) =   4.60274  0.70424  5.30698
   spin  1
    eigenvalues:
  0.651  0.965  0.993  0.996  0.998
    eigenvectors:
  0.000  0.976  0.000  0.024  0.000
  0.000  0.000  1.000  0.000  0.000
  0.000  0.000  0.000  0.001  0.999
  0.000  0.024  0.000  0.975  0.001
  1.000  0.000  0.000  0.000  0.000
    occupations:
  0.966  0.000  0.000  0.005  0.000
  0.000  0.993  0.000  0.000 -0.001
  0.000  0.000  0.998  0.000 -0.000
  0.005  0.000  0.000  0.995 -0.000
  0.000 -0.001 -0.000 -0.000  0.651
   spin  2
    eigenvalues:
  0.073  0.076  0.086  0.149  0.320
    eigenvectors:
  0.030  0.000  0.000  0.970  0.000
  0.000  0.000  1.000  0.000  0.000
  0.002  0.998  0.000  0.000  0.000
  0.968  0.002  0.000  0.030  0.000
  0.000  0.000  0.000  0.000  1.000
    occupations:
  0.147  0.000 -0.000 -0.013 -0.000
  0.000  0.086  0.000 -0.000  0.001
 -0.000  0.000  0.076 -0.000  0.000
 -0.013 -0.000 -0.000  0.075 -0.000
 -0.000  0.001  0.000 -0.000  0.320
atomic mag. moment =     3.898496
atom   16   Tr[ns(na)] (up, down, total) =   4.37038  1.01987  5.39026
   spin  1
    eigenvalues:
  0.670  0.698  0.998  1.000  1.004
    eigenvectors:
  0.212  0.033  0.000  0.712  0.043
  0.184  0.814  0.001  0.002  0.000
  0.000  0.000  0.000  0.054  0.946
  0.604  0.153  0.000  0.233  0.011
  0.000  0.001  0.999  0.000  0.000
    occupations:
  0.921 -0.016 -0.003 -0.140 -0.000
 -0.016  0.693 -0.001 -0.003 -0.009
 -0.003 -0.001  1.004 -0.003 -0.000
 -0.140 -0.003 -0.003  0.755 -0.000
 -0.000 -0.009 -0.000 -0.000  0.998
   spin  2
    eigenvalues:
  0.085  0.108  0.125  0.342  0.360
    eigenvectors:
  0.778  0.000  0.003  0.020  0.199
  0.000  0.002  0.000  0.926  0.071
  0.004  0.024  0.972  0.000  0.000
  0.218  0.000  0.001  0.052  0.729
  0.000  0.974  0.024  0.002  0.000
    occupations:
  0.145  0.002 -0.002  0.113  0.000
  0.002  0.343  0.000 -0.006  0.010
 -0.002  0.000  0.124  0.001 -0.003
  0.113 -0.006  0.001  0.299 -0.001
  0.000  0.010 -0.003 -0.001  0.109
atomic mag. moment =     3.350510
atom   17   Tr[ns(na)] (up, down, total) =   4.37241  1.01003  5.38244
   spin  1
    eigenvalues:
  0.654  0.713  0.996  1.004  1.005
    eigenvectors:
  0.000  0.998  0.000  0.001  0.000
  0.000  0.001  0.000  0.977  0.022
  0.000  0.000  0.000  0.021  0.978
  0.000  0.000  0.999  0.000  0.000
  1.000  0.000  0.000  0.000  0.000
    occupations:
  0.714 -0.010 -0.006  0.006 -0.001
 -0.010  1.004 -0.000  0.000  0.001
 -0.006 -0.000  1.004  0.000 -0.000
  0.006  0.000  0.000  0.996  0.000
 -0.001  0.001 -0.000  0.000  0.654
   spin  2
    eigenvalues:
  0.085  0.107  0.119  0.336  0.363
    eigenvectors:
  0.004  0.003  0.000  0.993  0.000
  0.002  0.755  0.240  0.002  0.001
  0.002  0.238  0.760  0.001  0.000
  0.992  0.004  0.000  0.004  0.000
  0.000  0.000  0.000  0.000  0.999
    occupations:
  0.335  0.011  0.006 -0.015  0.000
  0.011  0.111 -0.005  0.000 -0.006
  0.006 -0.005  0.116  0.001  0.000
 -0.015  0.000  0.001  0.086 -0.000
  0.000 -0.006  0.000 -0.000  0.363
atomic mag. moment =     3.362373
atom   22   Tr[ns(na)] (up, down, total) =   4.35654  1.06263  5.41917
   spin  1
    eigenvalues:
  0.683  0.704  0.980  0.990  0.999
    eigenvectors:
  0.223  0.001  0.000  0.000  0.777
  0.003  0.997  0.000  0.000  0.000
  0.000  0.000  0.052  0.948  0.000
  0.775  0.002  0.000  0.000  0.223
  0.000  0.000  0.948  0.052  0.000
    occupations:
  0.928 -0.001 -0.000 -0.131  0.000
 -0.001  0.704  0.000  0.002  0.000
 -0.000  0.000  0.990 -0.000  0.002
 -0.131  0.002 -0.000  0.754 -0.000
  0.000  0.000  0.002 -0.000  0.980
   spin  2
    eigenvalues:
  0.099  0.114  0.117  0.357  0.374
    eigenvectors:
  0.810  0.000  0.000  0.188  0.002
  0.000  0.000  0.000  0.013  0.987
  0.000  0.040  0.960  0.000  0.000
  0.190  0.000  0.000  0.799  0.011
  0.000  0.960  0.040  0.000  0.000
    occupations:
  0.148  0.001  0.000  0.101 -0.000
  0.001  0.374 -0.000 -0.002 -0.000
  0.000 -0.000  0.117  0.000  0.000
  0.101 -0.002  0.000  0.309  0.000
 -0.000 -0.000  0.000  0.000  0.115
atomic mag. moment =     3.293914
atom   23   Tr[ns(na)] (up, down, total) =   4.41864  0.95986  5.37850
   spin  1
    eigenvalues:
  0.681  0.742  0.995  0.999  1.002
    eigenvectors:
  0.000  0.999  0.000  0.001  0.000
  0.000  0.000  0.000  0.000  1.000
  0.000  0.000  1.000  0.000  0.000
  0.000  0.001  0.000  0.999  0.000
  1.000  0.000  0.000  0.000  0.000
    occupations:
  0.742 -0.000  0.001  0.006  0.000
 -0.000  1.002 -0.000  0.000 -0.001
  0.001 -0.000  0.995 -0.000  0.000
  0.006  0.000 -0.000  0.999  0.000
  0.000 -0.001  0.000  0.000  0.681
   spin  2
    eigenvalues:
  0.082  0.101  0.106  0.319  0.350
    eigenvectors:
  0.004  0.000  0.000  0.996  0.000
  0.000  0.000  1.000  0.000  0.000
  0.000  1.000  0.000  0.000  0.000
  0.996  0.000  0.000  0.004  0.000
  0.000  0.000  0.000  0.000  1.000
    occupations:
  0.319  0.000 -0.001 -0.015  0.000
  0.000  0.106 -0.000  0.000  0.001
 -0.001 -0.000  0.101 -0.000 -0.000
 -0.015  0.000 -0.000  0.083 -0.000
  0.000  0.001 -0.000 -0.000  0.350
atomic mag. moment =     3.458783
N of occupied +U levels =  43.0695869
 --- exit write_ns ---

 ------ SPIN UP ------------

[...]

 ------ SPIN DOWN ----------

[...]

          k = 0.2500-0.4606 0.0000 ( 26462 PWs)   bands (ev):

[...]

          k =-0.2500 0.2303 0.0000 ( 26396 PWs)   bands (ev):

   -80.5442 -80.5362 -80.4589 -80.3991 -80.3910 -80.3843 -80.3757 -79.5635
   -49.4345 -49.3750 -49.3728 -49.3578 -49.3553 -49.3394 -49.2899 -49.2830
   -49.2602 -49.2595 -49.2560 -49.2551 -49.2393 -49.2172 -49.1999 -49.1844
   -49.1460 -49.0808 -49.0625 -49.0022 -48.9948 -48.6784 -48.5745 -47.9288
   -21.8594 -21.4836 -21.3712 -21.0332 -20.7927 -20.6664 -20.4738 -20.4028
   -20.3513 -20.2703 -20.1554 -20.1386 -19.9771 -19.9543 -19.9146 -19.8312
   -19.8039 -19.6600 -19.6229  -9.2150  -8.9592  -8.6090  -8.4989  -8.4372
    -8.1626  -8.0590  -7.9242  -7.6405  -7.5224  -7.4344  -7.3286  -7.2971
    -7.2067  -7.1155  -7.0862  -6.9530  -6.8227  -6.7904  -6.6618  -6.5444
    -6.5236  -6.4449  -6.3776  -6.3037  -6.2338  -6.0188  -5.9568  -5.9309
    -5.8489  -5.7705  -5.6320  -5.5957  -5.5174  -5.3656  -5.3427  -5.1761
    -5.1024  -4.9751  -4.8869  -4.8189  -4.7235  -4.6315  -4.5730  -4.4849
    -4.4494  -4.3197  -4.1655  -4.1296  -4.0612  -3.9156  -3.7794  -3.7641
    -3.6391  -3.3322  -3.3259  -2.9897   0.5910   0.6258   0.6359   0.6767
     0.7053   0.7207   0.7652   0.8358   0.9236   0.9392   1.0041   1.0566
     1.1346   1.2069   1.2367   1.2909   1.3621   1.3870   1.4219   1.4937
     1.5649   1.6277   1.6747   1.7172   1.7619   1.7931   1.8629   1.9443
     2.0092   2.1498   2.1711   2.2517   2.3180   2.4073   2.5112   2.5379
     2.6324   2.8416   2.9667   3.0456   3.6932   4.3703   4.6066   5.0508
     5.4809   5.6858   5.7410   6.2537   6.3787   6.5885   6.6296   6.7322
     6.8609   6.9990   7.1093   7.4055   7.5531   7.7551   7.8999   8.0573
     8.3886   8.4735   8.5538   8.6560   8.6931   8.7339   8.8853   9.0852
     9.2049   9.3464   9.4702   9.5373   9.6610   9.9001   9.9840  10.1204
    10.1645  10.2286  10.3421  10.4954  10.6213  10.7034  10.7759  10.8875
    11.0054  11.0951  11.1952  11.2738  11.3674  11.4279  11.5922  11.6481
    11.6884  11.7824  11.8190  11.9427  11.9964  12.1431  12.2639  12.3233
    12.4339  12.5353  12.5877  12.6310  12.7189  12.8538  12.9515  12.9804
    13.0685  13.1153  13.1532  13.2433  13.2989  13.3441  13.4542  13.5463
    13.6096  13.6306  13.7019  13.7665  13.8058  13.8981  13.9282  14.0652
    14.1640  14.2074  14.2511  14.3058  14.3402  14.4271  14.5576  14.5735
    14.7098  14.7798  14.8320  14.9389  15.0178  15.0868  15.1560  15.2241
    15.3013  15.4294  15.4750  15.6748  15.7114  15.8425  15.9463  15.9946
    16.1085  16.1711  16.3027  16.3296  16.4119  16.5147  16.5532  16.6064
    16.6472  16.7357  16.7940  16.9084  17.0267  17.0913  17.1517  17.2153
    17.2687  17.3634  17.4481  17.5097  17.5799  17.6339  17.7258  17.7788
    17.8526  17.9381  17.9511  18.0940  18.1652  18.2227  18.3320  18.3831
    18.4319  18.5624  18.6164  18.7133  18.7740  18.8171  18.8786  18.9858
    19.0970  19.1249  19.1403  19.2474  19.2838  19.3499  19.4097  19.5034
    19.6673  19.7282  19.8035  19.9242  19.9378  20.0190  20.0777  20.1349
    20.1979  20.2607  20.3082  20.3454  20.4078  20.4417  20.5816  20.6453
    20.8104  20.9203  20.9864  21.0221  21.1084  21.1796  21.2109  21.2321
    21.3667  21.4246  21.5189  21.5488  21.6244  21.7166  21.7750  21.8319
    21.9237  22.0387  22.1270  22.2249  22.2847  22.3826  22.4422  22.4809
    22.5556

     the spin up/dw Fermi energies are    -2.5127   -0.0440 ev

!    total energy              =   -2318.97316623 Ry
     Harris-Foulkes estimate   =   -2318.97316623 Ry
     estimated scf accuracy    <          3.5E-09 Ry

     The total energy is the sum of the following terms:

     one-electron contribution =  -26205.67783178 Ry
     hartree contribution      =   13119.82026044 Ry
     xc contribution           =    -348.69478307 Ry
     ewald contribution        =   11113.91902041 Ry
     Hubbard energy            =       1.66005747 Ry
     smearing contrib. (-TS)   =       0.00011030 Ry

     total magnetization       =    22.00 Bohr mag/cell
     absolute magnetization    =    34.10 Bohr mag/cell

     convergence has been achieved in  16 iterations

     Forces acting on atoms (Ry/au):

     negative rho (up, down):  0.189E-02 0.144E-02
     atom    1 type  1   force =    -0.00599712   -0.01425064   -0.00028915
     atom    2 type  1   force =     0.00040786    0.00807583   -0.00081753
     atom    3 type  2   force =     0.00221098    0.00141134   -0.00024764
     atom    4 type  2   force =     0.00719342    0.01209081    0.00042131
     atom    5 type  1   force =     0.00239128    0.01307177    0.00026342
     atom    6 type  1   force =    -0.00094034   -0.01929209    0.00028059
     atom    7 type  1   force =     0.00003290    0.00143912    0.00051700
     atom    8 type  1   force =    -0.00145705   -0.00283898    0.00092105
     atom    9 type  2   force =     0.00785051    0.00064007   -0.00040448
     atom   10 type  2   force =    -0.00008802   -0.00108038    0.00089465
     atom   11 type  1   force =    -0.00601615   -0.02376708    0.00009103
     atom   12 type  1   force =    -0.00576101    0.02439958    0.00012908
     atom   13 type  1   force =    -0.00042858   -0.00047659   -0.00066037
     atom   14 type  1   force =    -0.00588752   -0.01375289   -0.00035966
     atom   15 type  1   force =     0.00040892    0.00724555   -0.00086629
     atom   16 type  2   force =    -0.00369022    0.00139380   -0.00023886
     atom   17 type  2   force =     0.00724718    0.01215304    0.00024884
     atom   18 type  1   force =     0.00123213    0.01308362    0.00028015
     atom   19 type  1   force =    -0.00306524   -0.01927509    0.00032077
     atom   20 type  1   force =     0.00003444    0.00195641   -0.00036960
     atom   21 type  1   force =    -0.00144336   -0.00253495    0.00067355
     atom   22 type  2   force =    -0.00638000    0.00076677   -0.00038117
     atom   23 type  2   force =    -0.00000952   -0.00144219   -0.00028756
     atom   24 type  1   force =     0.00607191   -0.02374368    0.00009748
     atom   25 type  1   force =     0.00590288    0.02445873    0.00013007
     atom   26 type  1   force =    -0.00042998   -0.00063165   -0.00043571
     atom   27 type  3   force =    -0.00000491    0.00040284   -0.00021174
     atom   28 type  3   force =    -0.00002975    0.00044791   -0.00009269
     atom   29 type  3   force =     0.00028561   -0.00007143    0.00030455
     atom   30 type  3   force =     0.00036513    0.00004469    0.00052102
     atom   31 type  1   force =    -0.00000637    0.00007577   -0.00043212

     Total force =     0.002663     Total SCF correction =     0.000103

     entering subroutine stress ...

     negative rho (up, down):  0.189E-02 0.144E-02
          total   stress  (Ry/bohr**3)                   (kbar)     P=   27.54
   0.00030324  -0.00000274   0.00000465         44.61     -0.40      0.68
  -0.00000274   0.00030714   0.00000557         -0.40     45.18      0.82
   0.00000465   0.00000557  -0.00004866          0.68      0.82     -7.16

     bfgs converged in  10 scf cycles and   9 bfgs steps
     (criteria: energy < 0.10E-03, force < 0.10E-02)

     End of BFGS Geometry Optimization

     Final energy   =   -2318.9731662301 Ry
Begin final coordinates

ATOMIC_POSITIONS (crystal)
O0       0.000000000   0.000000000   0.374836464    0   0   1
O0       0.000000000   0.500000000   0.395796452    0   0   1
Mn1      0.250000000   0.500000000   0.448156035    0   0   1
Mn1      0.000000000   0.000000000   0.447603518    0   0   1
O0       0.250000000   0.800000000   0.446573529    0   0   1
O0       0.250000000   0.200000000   0.449665097    0   0   1
O0       0.000000000   0.500000000   0.494899658    0   0   1
O0       0.000000000   0.000000000   0.525444590    0   0   1
Mn1      0.250000000   0.000000000   0.574635452    0   0   1
Mn1      0.000000000   0.500000000   0.572583970    0   0   1
O0       0.250000000   0.700000000   0.581058711    0   0   1
O0       0.250000000   0.300000000   0.581421145    0   0   1
O0       0.000000000   0.000000000   0.622315766    0   0   1
O0       0.500000000   0.000000000   0.374707436    0   0   1
O0       0.500000000   0.500000000   0.395675442    0   0   1
Mn1      0.750000000   0.500000000   0.448150900    0   0   1
Mn1      0.500000000   0.000000000   0.447359411    0   0   1
O0       0.750000000   0.800000000   0.446564733    0   0   1
O0       0.750000000   0.200000000   0.449662048    0   0   1
O0       0.500000000   0.500000000   0.497396317    0   0   1
O0       0.500000000   0.000000000   0.525614209    0   0   1
Mn1      0.750000000   0.000000000   0.574633807    0   0   1
Mn1      0.500000000   0.500000000   0.573717995    0   0   1
O0       0.750000000   0.700000000   0.581064043    0   0   1
O0       0.750000000   0.300000000   0.581423384    0   0   1
O0       0.500000000   0.000000000   0.622800633    0   0   1
H2       0.000470205   0.647702125   0.380059613
H2       0.500501955   0.646766723   0.379643220
H2       0.161243116   0.042058528   0.363988021
H2       0.661174208   0.042289561   0.363849241
O0       0.499881335   0.501194190   0.645859161
End final coordinates

     General routines

     Parallel routines
     Hubbard U routines

   This run was terminated on:  21: 5:51  25May2014

   JOB DONE.
Running PBS batch system epilogue script
Job id: 366647.audhumbla.fysik.dtu.dk
Username: zhonxu
Groupname: campgst
Jobname: MnO2/Eads-2-layers/O-U-5.0
Sessionid: 2472
Queuename: verylong
Accounting:
This job has allocated the following 16 nodes:
d041 d041 d041 d041 d041 d041 d041 d041 d040 d040 d040 d040 d040 d040 d040 d040
Finished epilogue job 366647.audhumbla.fysik.dtu.dk for zhonxu