     Program PWSCF v.5.0.2 (svn rev. 9656) starts on  5May2014 at  1:16:42

     Current dimensions of program PWSCF are:
     Max number of different atomic species (ntypx) = 10
     Max number of k-points (npk) =  40000
     Max angular momentum in pseudopotentials (lmaxx) =  3
     Reading input from pwscf.in
Warning: card &CELL ignored
Warning: card / ignored

     Subspace diagonalization in iterative solution of the eigenvalue problem:
     a serial algorithm will be used

     bravais-lattice index     =            0
     lattice parameter (alat)  =      10.9604  a.u.
     unit-cell volume          =    6350.6732 (a.u.)^3
     number of atoms/cell      =           32
     number of atomic types    =            3
     number of electrons       =       231.00 (up: 123.00, down: 108.00)
     number of Kohn-Sham states=          334
     kinetic-energy cutoff     =      40.0000  Ry
     charge density cutoff     =     500.0000  Ry
     convergence threshold     =      1.0E-06
     mixing beta               =       0.7000
     number of iterations used =            8  plain     mixing
     Exchange-correlation      = SLA  PW   PBE  PBE ( 1 4 3 4 0)
     EXX-fraction              =        0.00
     nstep                     =           50

     celldm(1)=  10.960412  celldm(2)=   0.000000  celldm(3)=   0.000000
     celldm(4)=   0.000000  celldm(5)=   0.000000  celldm(6)=   0.000000

     crystal axes: (cart. coord. in units of alat)
               a(1) = (   1.000000   0.000000   0.000000 )
               a(2) = (   0.000000   1.067975   0.000000 )
               a(3) = (   0.000000   0.000000   4.516251 )

     reciprocal axes: (cart. coord. in units 2 pi/alat)
               b(1) = (  1.000000  0.000000  0.000000 )
               b(2) = (  0.000000  0.936351  0.000000 )
               b(3) = (  0.000000  0.000000  0.221423 )

     PseudoPot. # 1 for O  read from file:
     /home/camp/zhonxu/pseudo/o_pbe_v1.01.uspp.F.UPF
     MD5 check sum: 2bcb18d16ea4b960afae9ec6d52f22d2
     Pseudo is Ultrasoft + core correction, Zval =  6.0
     Generated by new atomic code, or converted to UPF format
     Using radial grid of  737 points,  5 beta functions with:
                l(1) =   0
                l(2) =   0
                l(3) =   1
                l(4) =   1
                l(5) =   2
     Q(r) pseudized with  8 coefficients,  rinner =    0.900   0.900   0.900
                                                       0.900   0.900

     PseudoPot. # 2 for Cr read from file:
     /home/camp/zhonxu/pseudo/cr_pbe_v1.uspp.F.UPF
     MD5 check sum: 68b6f918d1762dccfb11451fe85b0e0e
     Pseudo is Ultrasoft + core correction, Zval = 14.0
     Generated by new atomic code, or converted to UPF format
     Using radial grid of  857 points,  6 beta functions with:
                l(1) =   0
                l(2) =   0
                l(3) =   1
                l(4) =   1
                l(5) =   2
                l(6) =   2
     Q(r) pseudized with  6 coefficients,  rinner =    1.000   1.000   1.000
                                                       1.000   1.000

     PseudoPot. # 3 for H  read from file:
     /home/camp/zhonxu/pseudo/h_pbe_v1.uspp.F.UPF
     MD5 check sum: 3408e3ff4ec8b0a4e358431e7e038a48
     Pseudo is Ultrasoft, Zval =  1.0
     Generated by new atomic code, or converted to UPF format
     Using radial grid of  615 points,  2 beta functions with:
                l(1) =   0
                l(2) =   0
     Q(r) pseudized with  8 coefficients,  rinner =    0.700

     atomic species   valence    mass     pseudopotential
        O0             6.00    15.99940     O ( 1.00)
        Cr1           14.00    51.99600     Cr( 1.00)
        H2             1.00     1.00794     H ( 1.00)

     Starting magnetic structure
     atomic species   magnetization
        O0           0.000
        Cr1          0.600
        H2           0.000

     Simplified LDA+U calculation (l_max = 2) with parameters (eV):
     atomic species    L          U    alpha       J0     beta
        Cr1            2     3.0000   0.0000   0.0000   0.0000

     No symmetry found

   Cartesian axes

     site n.     atom                  positions (alat units)
         1           O0  tau(   1) = (   0.0000000   0.0000000   1.7072332  )
         2           O0  tau(   2) = (   0.0000000   0.5339875   1.8068165  )
         3           Cr1 tau(   3) = (   0.2500000   0.5339875   2.0386808  )
         4           Cr1 tau(   4) = (   0.0000000   0.0000000   2.0275709  )
         5           O0  tau(   5) = (   0.2500000   0.8543801   2.0319968  )
         6           O0  tau(   6) = (   0.2500000   0.2135950   2.0327194  )
         7           O0  tau(   7) = (   0.0000000   0.5339875   2.2464284  )
         8           O0  tau(   8) = (   0.0000000   0.0000000   2.3629476  )
         9           Cr1 tau(   9) = (   0.2500000   0.0000000   2.5576884  )
        10           Cr1 tau(  10) = (   0.0000000   0.5339875   2.5509140  )
        11           O0  tau(  11) = (   0.2500000   0.7475825   2.5906119  )
        12           O0  tau(  12) = (   0.2500000   0.3203925   2.5906119  )
        13           O0  tau(  13) = (   0.0000000   0.0000000   2.7911334  )
        14           O0  tau(  14) = (   0.5000000   0.0000000   1.7073235  )
        15           O0  tau(  15) = (   0.5000000   0.5339875   1.8079456  )
        16           Cr1 tau(  16) = (   0.7500000   0.5339875   2.0392228  )
        17           Cr1 tau(  17) = (   0.5000000   0.0000000   2.0278870  )
        18           O0  tau(  18) = (   0.7500000   0.8543801   2.0322226  )
        19           O0  tau(  19) = (   0.7500000   0.2135950   2.0329904  )
        20           O0  tau(  20) = (   0.5000000   0.5339875   2.2544673  )
        21           O0  tau(  21) = (   0.5000000   0.0000000   2.3630380  )
        22           Cr1 tau(  22) = (   0.7500000   0.0000000   2.6360002  )
        23           Cr1 tau(  23) = (   0.5000000   0.5339875   2.6018573  )
        24           O0  tau(  24) = (   0.7500000   0.7475825   2.5939087  )
        25           O0  tau(  25) = (   0.7500000   0.3203925   2.5936377  )
        26           O0  tau(  26) = (   0.5000000   0.0000000   2.7879720  )
        27           H2  tau(  27) = (  -0.0006000   0.6814001   1.7205110  )
        28           H2  tau(  28) = (   0.4996600   0.6814535   1.7215045  )
        29           H2  tau(  29) = (   0.1566500   0.0338121   1.6478896  )
        30           H2  tau(  30) = (   0.6567200   0.0335237   1.6481606  )
        31           O0  tau(  31) = (   0.5143900   0.5336458   2.9144271  )
        32           H2  tau(  32) = (   0.3645400   0.5319370   2.9931001  )

     number of k points=    20  Methfessel-Paxton smearing, width (Ry)=  0.0100
                       cart. coord. in units 2pi/alat
        k(    1) = (   0.0000000   0.0000000   0.0000000), wk =   0.0625000
        k(    2) = (   0.0000000   0.2340879   0.0000000), wk =   0.1250000
        k(    3) = (   0.0000000  -0.4681757   0.0000000), wk =   0.0625000
        k(    4) = (   0.2500000   0.0000000   0.0000000), wk =   0.1250000
        k(    5) = (   0.2500000   0.2340879   0.0000000), wk =   0.1250000
        k(    6) = (   0.2500000  -0.4681757   0.0000000), wk =   0.1250000
        k(    7) = (  -0.5000000   0.0000000   0.0000000), wk =   0.0625000
        k(    8) = (  -0.5000000   0.2340879   0.0000000), wk =   0.1250000
        k(    9) = (  -0.5000000  -0.4681757   0.0000000), wk =   0.0625000
        k(   10) = (  -0.2500000   0.2340879   0.0000000), wk =   0.1250000
        k(   11) = (   0.0000000   0.0000000   0.0000000), wk =   0.0625000
        k(   12) = (   0.0000000   0.2340879   0.0000000), wk =   0.1250000
        k(   13) = (   0.0000000  -0.4681757   0.0000000), wk =   0.0625000
        k(   14) = (   0.2500000   0.0000000   0.0000000), wk =   0.1250000
        k(   15) = (   0.2500000   0.2340879   0.0000000), wk =   0.1250000
        k(   16) = (   0.2500000  -0.4681757   0.0000000), wk =   0.1250000
        k(   17) = (  -0.5000000   0.0000000   0.0000000), wk =   0.0625000
        k(   18) = (  -0.5000000   0.2340879   0.0000000), wk =   0.1250000
        k(   19) = (  -0.5000000  -0.4681757   0.0000000), wk =   0.0625000
        k(   20) = (  -0.2500000   0.2340879   0.0000000), wk =   0.1250000

     Largest allocated arrays     est. size (Mb)     dimensions
     Largest temporary arrays     est. size (Mb)     dimensions

     Check: negative/imaginary core charge=   -0.000012    0.000000

     Initial potential from superposition of free atoms
     Check: negative starting charge=(component1):   -0.001476
     Check: negative starting charge=(component2):   -0.000504

     starting charge  222.99983, renormalised to  231.00000

     negative rho (up, down):  0.153E-02 0.522E-03
     Number of +U iterations with fixed ns =  0
     Starting occupations:
 --- enter write_ns ---
 LDA+U parameters:
U( 2)     =  3.00000000
alpha( 2) =  0.00000000
atom    3   Tr[ns(na)] (up, down, total) =   5.00000  0.00000  5.00000
   spin  1
    eigenvalues:
  1.000  1.000  1.000  1.000  1.000
    eigenvectors:
  1.000  0.000  0.000  0.000  0.000
  0.000  1.000  0.000  0.000  0.000
  0.000  0.000  1.000  0.000  0.000
  0.000  0.000  0.000  1.000  0.000
  0.000  0.000  0.000  0.000  1.000
    occupations:
  1.000  0.000  0.000  0.000  0.000
  0.000  1.000  0.000  0.000  0.000
  0.000  0.000  1.000  0.000  0.000
  0.000  0.000  0.000  1.000  0.000
  0.000  0.000  0.000  0.000  1.000
   spin  2
    eigenvalues:
  0.000  0.000  0.000  0.000  0.000
    eigenvectors:
  1.000  0.000  0.000  0.000  0.000
  0.000  1.000  0.000  0.000  0.000
  0.000  0.000  1.000  0.000  0.000
  0.000  0.000  0.000  1.000  0.000
  0.000  0.000  0.000  0.000  1.000
    occupations:
  0.000  0.000  0.000  0.000  0.000
  0.000  0.000  0.000  0.000  0.000
  0.000  0.000  0.000  0.000  0.000
  0.000  0.000  0.000  0.000  0.000
  0.000  0.000  0.000  0.000  0.000
atomic mag. moment =     5.000000
atom    4   Tr[ns(na)] (up, down, total) =   5.00000  0.00000  5.00000
   spin  1
    eigenvalues:
  1.000  1.000  1.000  1.000  1.000
    eigenvectors:
  1.000  0.000  0.000  0.000  0.000
  0.000  1.000  0.000  0.000  0.000
  0.000  0.000  1.000  0.000  0.000
  0.000  0.000  0.000  1.000  0.000
  0.000  0.000  0.000  0.000  1.000
    occupations:
  1.000  0.000  0.000  0.000  0.000
  0.000  1.000  0.000  0.000  0.000
  0.000  0.000  1.000  0.000  0.000
  0.000  0.000  0.000  1.000  0.000
  0.000  0.000  0.000  0.000  1.000
   spin  2
    eigenvalues:
  0.000  0.000  0.000  0.000  0.000
    eigenvectors:
  1.000  0.000  0.000  0.000  0.000
  0.000  1.000  0.000  0.000  0.000
  0.000  0.000  1.000  0.000  0.000
  0.000  0.000  0.000  1.000  0.000
  0.000  0.000  0.000  0.000  1.000
    occupations:
  0.000  0.000  0.000  0.000  0.000
  0.000  0.000  0.000  0.000  0.000
  0.000  0.000  0.000  0.000  0.000
  0.000  0.000  0.000  0.000  0.000
  0.000  0.000  0.000  0.000  0.000
atomic mag. moment =     5.000000
atom    9   Tr[ns(na)] (up, down, total) =   5.00000  0.00000  5.00000
   spin  1
    eigenvalues:
  1.000  1.000  1.000  1.000  1.000
[...]
 -0.003 -0.000  0.136  0.007 -0.000
  0.114 -0.000  0.007  0.306 -0.000
 -0.000  0.010 -0.000 -0.000  0.115
atomic mag. moment =     2.527452
atom    4   Tr[ns(na)] (up, down, total) =   3.50296  1.14503  4.64799
   spin  1
    eigenvalues:
  0.488  0.535  0.598  0.895  0.987
    eigenvectors:
  0.002  0.991  0.000  0.001  0.005
  0.000  0.001  0.014  0.985  0.000
  0.000  0.000  0.986  0.014  0.000
  0.000  0.005  0.000  0.000  0.995
  0.998  0.002  0.000  0.000  0.000
    occupations:
  0.538 -0.012 -0.001  0.032  0.002
 -0.012  0.890  0.035  0.003 -0.000
 -0.001  0.035  0.602  0.001 -0.002
  0.032  0.003  0.001  0.985 -0.000
  0.002 -0.000 -0.002 -0.000  0.488
   spin  2
    eigenvalues:
  0.102  0.127  0.161  0.367  0.388
    eigenvectors:
  0.003  0.002  0.000  0.003  0.992
  0.002  0.952  0.044  0.000  0.002
  0.000  0.044  0.956  0.000  0.000
  0.995  0.003  0.000  0.000  0.003
  0.000  0.000  0.000  0.997  0.003
    occupations:
  0.386  0.013  0.003 -0.015  0.001
  0.013  0.130 -0.007  0.001 -0.000
  0.003 -0.007  0.160  0.000  0.000
 -0.015  0.001  0.000  0.103  0.000
  0.001 -0.000  0.000  0.000  0.367
atomic mag. moment =     2.357930
atom    9   Tr[ns(na)] (up, down, total) =   3.54027  1.14718  4.68746
   spin  1
    eigenvalues:
  0.500  0.511  0.666  0.881  0.983
    eigenvectors:
  0.025  0.157  0.000  0.000  0.818
  0.871  0.129  0.000  0.000  0.000
  0.000  0.000  0.980  0.020  0.000
  0.104  0.714  0.000  0.000  0.182
  0.000  0.000  0.020  0.980  0.000
    occupations:
  0.897  0.004 -0.001 -0.183 -0.000
  0.004  0.501  0.002  0.002 -0.000
 -0.001  0.002  0.670 -0.001 -0.030
 -0.183  0.002 -0.001  0.596  0.001
 -0.000 -0.000 -0.030  0.001  0.877
   spin  2
    eigenvalues:
  0.112  0.137  0.152  0.368  0.378
    eigenvectors:
  0.810  0.000  0.000  0.010  0.181
  0.000  0.000  0.000  0.951  0.049
  0.000  0.052  0.948  0.000  0.000
  0.190  0.000  0.000  0.039  0.771
  0.000  0.948  0.052  0.000  0.000
    occupations:
  0.162  0.000  0.000  0.104 -0.000
  0.000  0.369 -0.000  0.002  0.000
  0.000 -0.000  0.151  0.000  0.003
  0.104  0.002  0.000  0.327 -0.000
 -0.000  0.000  0.003 -0.000  0.138
atomic mag. moment =     2.393091
atom   10   Tr[ns(na)] (up, down, total) =   3.63243  0.99662  4.62905
   spin  1
    eigenvalues:
  0.477  0.498  0.780  0.892  0.986
    eigenvectors:
  0.000  0.996  0.000  0.000  0.004
  0.000  0.001  0.000  0.973  0.026
  0.001  0.000  0.999  0.000  0.000
  0.000  0.003  0.000  0.026  0.970
  0.999  0.000  0.001  0.000  0.000
    occupations:
  0.500 -0.013  0.001  0.028 -0.000
 -0.013  0.894 -0.002 -0.014  0.000
  0.001 -0.002  0.780 -0.000  0.008
  0.028 -0.014 -0.000  0.982  0.000
 -0.000  0.000  0.008  0.000  0.478
   spin  2
    eigenvalues:
  0.093  0.135  0.139  0.283  0.347
    eigenvectors:
  0.007  0.000  0.000  0.993  0.000
  0.001  0.999  0.000  0.000  0.000
  0.000  0.000  1.000  0.000  0.000
  0.992  0.001  0.000  0.007  0.000
  0.000  0.000  0.000  0.000  1.000
    occupations:
  0.282  0.000 -0.000 -0.016 -0.000
  0.000  0.135 -0.000  0.001  0.000
 -0.000 -0.000  0.139 -0.000  0.002
 -0.016  0.001 -0.000  0.094 -0.000
 -0.000  0.000  0.002 -0.000  0.347
atomic mag. moment =     2.635806
atom   16   Tr[ns(na)] (up, down, total) =   3.57816  1.05741  4.63557
   spin  1
    eigenvalues:
  0.464  0.507  0.689  0.932  0.986
    eigenvectors:
  0.002  0.221  0.002  0.000  0.775
  0.989  0.011  0.000  0.000  0.000
  0.000  0.000  0.995  0.002  0.003
  0.009  0.768  0.001  0.000  0.222
  0.000  0.000  0.002  0.997  0.000
    occupations:
  0.878  0.001  0.014 -0.199 -0.001
  0.001  0.465 -0.002  0.005 -0.009
  0.014 -0.002  0.690 -0.007  0.012
 -0.199  0.005 -0.007  0.613 -0.000
 -0.001 -0.009  0.012 -0.000  0.931
   spin  2
    eigenvalues:
  0.094  0.115  0.138  0.342  0.368
    eigenvectors:
  0.753  0.000  0.022  0.000  0.225
  0.000  0.002  0.000  0.995  0.003
  0.024  0.000  0.975  0.000  0.000
  0.223  0.000  0.003  0.003  0.772
  0.000  0.998  0.000  0.002  0.000
    occupations:
  0.157  0.003 -0.004  0.114  0.000
  0.003  0.341 -0.000  0.000  0.010
 -0.004 -0.000  0.137  0.007  0.000
  0.114  0.000  0.007  0.307 -0.000
  0.000  0.010  0.000 -0.000  0.116
atomic mag. moment =     2.520751
atom   17   Tr[ns(na)] (up, down, total) =   3.52321  1.12252  4.64573
   spin  1
    eigenvalues:
  0.483  0.532  0.631  0.890  0.987
    eigenvectors:
  0.002  0.993  0.000  0.001  0.005
  0.000  0.001  0.015  0.984  0.000
  0.000  0.000  0.985  0.015  0.000
  0.000  0.005  0.000  0.000  0.995
  0.998  0.002  0.000  0.000  0.000
    occupations:
  0.535 -0.012 -0.002  0.031  0.002
 -0.012  0.886  0.031  0.000 -0.000
 -0.002  0.031  0.635  0.000  0.002
  0.031  0.000  0.000  0.985 -0.000
  0.002 -0.000  0.002 -0.000  0.483
   spin  2
    eigenvalues:
  0.100  0.124  0.154  0.362  0.382
    eigenvectors:
  0.003  0.003  0.000  0.002  0.992
  0.003  0.942  0.052  0.000  0.003
  0.000  0.052  0.948  0.000  0.000
  0.993  0.004  0.000  0.000  0.003
  0.000  0.000  0.000  0.998  0.002
    occupations:
  0.380  0.014  0.003 -0.015  0.001
  0.014  0.126 -0.007  0.001 -0.000
  0.003 -0.007  0.153  0.000  0.000
 -0.015  0.001  0.000  0.101  0.000
  0.001 -0.000  0.000  0.000  0.362
atomic mag. moment =     2.400690
atom   22   Tr[ns(na)] (up, down, total) =   3.18680  1.61038  4.79718
   spin  1
    eigenvalues:
  0.537  0.556  0.572  0.715  0.807
    eigenvectors:
  0.924  0.002  0.075  0.000  0.000
  0.005  0.986  0.009  0.000  0.000
  0.000  0.000  0.000  0.001  0.999
  0.072  0.012  0.916  0.000  0.000
  0.000  0.000  0.000  0.999  0.001
    occupations:
  0.540  0.002 -0.002 -0.009  0.001
  0.002  0.556  0.001 -0.001  0.000
 -0.002  0.001  0.806  0.000 -0.003
 -0.009 -0.001  0.000  0.569 -0.001
  0.001  0.000 -0.003 -0.001  0.715
   spin  2
    eigenvalues:
  0.199  0.245  0.274  0.443  0.449
    eigenvectors:
  0.000  0.000  0.972  0.023  0.005
  0.000  0.000  0.000  0.168  0.832
  0.996  0.004  0.000  0.000  0.000
  0.000  0.000  0.028  0.809  0.163
  0.004  0.996  0.000  0.000  0.000
    occupations:
  0.278 -0.001  0.000  0.028 -0.000
 -0.001  0.448 -0.000 -0.002  0.000
  0.000 -0.000  0.199 -0.000 -0.003
  0.028 -0.002 -0.000  0.440  0.000
 -0.000  0.000 -0.003  0.000  0.245
atomic mag. moment =     1.576413
atom   23   Tr[ns(na)] (up, down, total) =   3.51056  1.12628  4.63684
   spin  1
    eigenvalues:
  0.480  0.527  0.593  0.932  0.979
    eigenvectors:
  0.000  0.994  0.000  0.000  0.006
  0.000  0.000  0.000  0.966  0.034
  0.004  0.000  0.995  0.000  0.000
  0.000  0.006  0.000  0.034  0.960
  0.996  0.000  0.004  0.000  0.000
    occupations:
  0.529  0.002 -0.001  0.035  0.000
  0.002  0.934  0.003  0.008 -0.000
 -0.001  0.003  0.592 -0.001 -0.007
  0.035  0.008 -0.001  0.975 -0.000
  0.000 -0.000 -0.007 -0.000  0.481
   spin  2
    eigenvalues:
  0.099  0.121  0.160  0.365  0.381
    eigenvectors:
  0.002  0.001  0.000  0.000  0.996
  0.004  0.995  0.000  0.000  0.001
  0.000  0.000  1.000  0.000  0.000
  0.994  0.003  0.000  0.000  0.002
  0.000  0.000  0.000  1.000  0.000
    occupations:
  0.380  0.009  0.000 -0.014  0.000
  0.009  0.121 -0.000 -0.002  0.000
  0.000 -0.000  0.160 -0.000 -0.003
 -0.014 -0.002 -0.000  0.100 -0.000
  0.000  0.000 -0.003 -0.000  0.365
atomic mag. moment =     2.384287
N of occupied +U levels =  37.3158648
 --- exit write_ns ---

 ------ SPIN UP ------------

[...]

 ------ SPIN DOWN ----------

[...]

          k = 0.2500-0.4682 0.0000 ( 27150 PWs)   bands (ev):

[...]

          k =-0.2500 0.2341 0.0000 ( 27132 PWs)   bands (ev):

   -74.0180 -72.6385 -72.6058 -72.5199 -72.4952 -72.4314 -72.3389 -72.3107
   -45.6740 -45.3510 -45.0626 -44.2195 -44.1676 -44.1484 -44.1053 -44.0833
   -44.0794 -44.0743 -43.9559 -43.9286 -43.9042 -43.8208 -43.7820 -43.7391
   -43.7188 -43.7174 -43.7101 -43.6166 -43.5744 -43.5664 -43.4598 -43.3302
   -21.1708 -20.8039 -20.5954 -20.5397 -20.3880 -20.2839 -20.1089 -20.0397
   -19.9929 -19.9334 -19.8196 -19.7199 -19.6526 -19.6387 -19.6148 -19.5198
   -19.3972 -19.3334 -19.3148  -8.6038  -8.4047  -8.1159  -8.0181  -7.8607
    -7.8377  -7.5576  -7.4778  -7.4042  -7.3395  -7.2599  -7.1376  -7.0316
    -6.9876  -6.8364  -6.7987  -6.7126  -6.6684  -6.5317  -6.3720  -6.3331
    -6.2495  -6.1198  -5.9168  -5.8933  -5.7114  -5.6184  -5.5716  -5.3967
    -5.3475  -5.2954  -5.2467  -5.2075  -5.1107  -5.0158  -4.9845  -4.9469
    -4.7990  -4.7057  -4.5514  -4.3892  -4.3493  -4.2468  -4.1852  -4.1029
    -4.0554  -3.9816  -3.9078  -3.8546  -3.7516  -3.6200  -3.5752  -3.5636
    -3.3394  -3.3071  -3.1880  -2.9854   0.0526   0.1873   0.2154   0.7107
     0.7663   0.8466   0.9143   0.9822   1.0170   1.0654   1.1866   1.2680
     1.3017   1.3901   1.4176   1.4823   1.5348   1.5974   1.6596   1.7020
     1.7902   1.8497   1.9309   1.9625   2.0242   2.1000   2.2298   2.3525
     2.4426   2.6850   2.8505   2.8839   2.9718   3.1268   3.2258   3.2817
     3.3340   3.5859   3.7631   3.7710   3.9195   4.0424   4.3609   4.8176
     5.3419   5.7253   5.8857   5.9008   6.1800   6.2931   6.4397   6.5983
     6.7723   6.9126   7.0387   7.3381   7.4611   7.6896   7.8913   7.9973
     8.0921   8.3218   8.4100   8.5362   8.6755   8.8234   8.9906   9.1166
     9.2605   9.3193   9.4446   9.5482   9.6194   9.7864   9.8504  10.0243
    10.1472  10.2328  10.3150  10.4258  10.5139  10.6207  10.7076  10.8314
    10.9283  11.0176  11.1193  11.2268  11.2809  11.4047  11.4710  11.5909
    11.6614  11.7456  11.8713  11.9733  12.0687  12.1313  12.1741  12.2675
    12.3672  12.3976  12.5701  12.6629  12.7232  12.8305  12.9195  12.9749
    12.9831  13.0708  13.1039  13.1585  13.2122  13.3064  13.3490  13.4329
    13.5282  13.6304  13.7013  13.7706  13.8764  13.9007  13.9781  14.0710
    14.1354  14.2106  14.3426  14.4709  14.5262  14.5995  14.6701  14.7644
    14.8135  14.8553  14.9782  15.0497  15.0894  15.2492  15.3243  15.3934
    15.4855  15.5728  15.6206  15.6895  15.7510  15.7659  15.8922  15.9949
    16.0126  16.1186  16.2080  16.2415  16.3038  16.4055  16.4767  16.5156
    16.5939  16.7242  16.7532  16.8459  16.8894  16.9502  17.0081  17.1141
    17.2054  17.2289  17.3120  17.4148  17.4482  17.5299  17.5751  17.6089
    17.7185  17.7393  17.7663  17.8556  17.9429  18.0390  18.1050  18.1640
    18.2461  18.3057  18.3629  18.3925  18.4489  18.6257  18.7308  18.7853
    18.8256  18.8988  18.9573  18.9963  19.0828  19.1515  19.2457  19.3106
    19.4051  19.4345  19.5285  19.6005  19.6396  19.6743  19.7522  19.8611
    19.8883  19.9997  20.1097  20.1861  20.2338  20.3363  20.3909  20.5131
    20.5875  20.7115  20.7573  20.8299  20.8990  20.9560  21.0495  21.1372
    21.1895  21.2403  21.3376  21.3967  21.4090  21.5315

     the spin up/dw Fermi energies are    -1.8235   -2.7963 ev

!    total energy              =   -2025.53295993 Ry
     Harris-Foulkes estimate   =   -2025.53295993 Ry
     estimated scf accuracy    <          7.5E-09 Ry

     The total energy is the sum of the following terms:

     one-electron contribution =  -24126.84788005 Ry
     hartree contribution      =   12083.04531053 Ry
     xc contribution           =    -322.91100114 Ry
     ewald contribution        =   10339.70876775 Ry
     Hubbard energy            =       1.47140631 Ry
     smearing contrib. (-TS)   =       0.00043667 Ry

     total magnetization       =    15.00 Bohr mag/cell
     absolute magnetization    =    22.99 Bohr mag/cell

     convergence has been achieved in  20 iterations

     Forces acting on atoms (Ry/au):

     negative rho (up, down):  0.518E-02 0.181E-02
     atom    1 type  1   force =    -0.00305205   -0.01096336    0.00035951
     atom    2 type  1   force =    -0.00028492    0.00587824   -0.00038025
     atom    3 type  2   force =     0.02938667   -0.00172758    0.00079261
     atom    4 type  2   force =     0.00038184    0.00731311   -0.00048177
     atom    5 type  1   force =    -0.00019909    0.00534572    0.00011552
     atom    6 type  1   force =     0.00020127   -0.00360865    0.00017546
     atom    7 type  1   force =     0.00285976   -0.00180031    0.00050809
     atom    8 type  1   force =    -0.01760839   -0.00089424   -0.00017112
     atom    9 type  2   force =     0.00760944    0.00127841   -0.00017207
     atom   10 type  2   force =    -0.00333830    0.00002336   -0.00002108
     atom   11 type  1   force =    -0.02523553   -0.03385545   -0.00073839
     atom   12 type  1   force =    -0.02505360    0.03294031   -0.00079006
     atom   13 type  1   force =    -0.03987909    0.00002903    0.00038563
     atom   14 type  1   force =    -0.00697534   -0.01192507    0.00007233
     atom   15 type  1   force =     0.00059997    0.00695896   -0.00046675
     atom   16 type  2   force =    -0.03134279   -0.00089127    0.00071538
     atom   17 type  2   force =     0.00733226    0.00714042   -0.00054123
     atom   18 type  1   force =     0.00182006    0.00466871    0.00021190
     atom   19 type  1   force =     0.00233677   -0.00324243    0.00025723
     atom   20 type  1   force =     0.00111948   -0.00226870    0.00082370
     atom   21 type  1   force =     0.01335335    0.00018037    0.00010902
     atom   22 type  2   force =     0.00082479   -0.00000497    0.00028487
     atom   23 type  2   force =    -0.00869488    0.00025305    0.00069816
     atom   24 type  1   force =     0.02687375   -0.01615966   -0.00027480
     atom   25 type  1   force =     0.02713852    0.01624355   -0.00026905
     atom   26 type  1   force =     0.03961276   -0.00014065    0.00047720
     atom   27 type  3   force =    -0.00003900   -0.00009302   -0.00092270
     atom   28 type  3   force =    -0.00001223   -0.00001412   -0.00090899
     atom   29 type  3   force =     0.00002227   -0.00047200    0.00025213
     atom   30 type  3   force =     0.00008996   -0.00016843    0.00016902
     atom   31 type  1   force =     0.00022492    0.00003334   -0.00068451
     atom   32 type  3   force =    -0.00007263   -0.00005666    0.00041504

     Total force =     0.002886     Total SCF correction =     0.000194

     bfgs converged in  11 scf cycles and  10 bfgs steps
     (criteria: energy < 0.10E-03, force < 0.10E-02)

     End of BFGS Geometry Optimization

     Final energy   =   -2025.5329599253 Ry
Begin final coordinates

ATOMIC_POSITIONS (crystal)
O0       0.000000000   0.000000000   0.377458478    0   0   1
O0       0.000000000   0.500000000   0.398405588    0   0   1
Cr1      0.250000000   0.500000000   0.450316041    0   0   1
Cr1      0.000000000   0.000000000   0.449259359    0   0   1
O0       0.250000000   0.800000000   0.449631678    0   0   1
O0       0.250000000   0.200000000   0.449724044    0   0   1
O0       0.000000000   0.500000000   0.497278050    0   0   1
O0       0.000000000   0.000000000   0.523234030    0   0   1
Cr1      0.250000000   0.000000000   0.568896228    0   0   1
Cr1      0.000000000   0.500000000   0.565515831    0   0   1
O0       0.250000000   0.700000000   0.574193999    0   0   1
O0       0.250000000   0.300000000   0.574266943    0   0   1
O0       0.000000000   0.000000000   0.618630303    0   0   1
O0       0.500000000   0.000000000   0.377379081    0   0   1
O0       0.500000000   0.500000000   0.398958895    0   0   1
Cr1      0.750000000   0.500000000   0.450323359    0   0   1
Cr1      0.500000000   0.000000000   0.449448971    0   0   1
O0       0.750000000   0.800000000   0.449661473    0   0   1
O0       0.750000000   0.200000000   0.449708151    0   0   1
O0       0.500000000   0.500000000   0.499895714    0   0   1
O0       0.500000000   0.000000000   0.523633532    0   0   1
Cr1      0.750000000   0.000000000   0.583098471    0   0   1
Cr1      0.500000000   0.500000000   0.576145409    0   0   1
O0       0.750000000   0.700000000   0.575077300    0   0   1
O0       0.750000000   0.300000000   0.575040078    0   0   1
O0       0.500000000   0.000000000   0.618413592    0   0   1
H2      -0.000596605   0.639426175   0.379974468
H2       0.499547852   0.638877479   0.380229574
H2       0.157939919   0.029749938   0.364678360
H2       0.657288563   0.030398810   0.364494775
O0       0.515324654   0.499742542   0.646551833
H2       0.363552086   0.497932465   0.663206392
End final coordinates

     General routines

     Parallel routines
     Hubbard U routines

   This run was terminated on:  21:18:49   5May2014

   JOB DONE.
Running PBS batch system epilogue script
Job id: 340728.audhumbla.fysik.dtu.dk
Username: zhonxu
Groupname: campgst
Jobname: CrO2/Eads-2-layers/OH-U-3.0
Sessionid: 5495
Queuename: verylong
Accounting:
This job has allocated the following 16 nodes:
d021 d021 d021 d021 d021 d021 d021 d021 d005 d005 d005 d005 d005 d005 d005 d005
Finished epilogue job 340728.audhumbla.fysik.dtu.dk for zhonxu