     Program PWSCF v.5.0.2 (svn rev. 9656) starts on 24Jan2014 at 13:51:32

     Current dimensions of program PWSCF are:
     Max number of different atomic species (ntypx) = 10
     Max number of k-points (npk) =  40000
     Max angular momentum in pseudopotentials (lmaxx) =  3
     Reading input from NbO2-v-1.05.in

     Subspace diagonalization in iterative solution of the eigenvalue problem:
     a serial algorithm will be used

     bravais-lattice index     =            0
     lattice parameter (alat)  =       9.2636  a.u.
     unit-cell volume          =     512.3069 (a.u.)^3
     number of atoms/cell      =            6
     number of atomic types    =            2
     number of electrons       =        50.00
     number of Kohn-Sham states=           75
     kinetic-energy cutoff     =      40.0000  Ry
     charge density cutoff     =     500.0000  Ry
     convergence threshold     =      1.0E-06
     mixing beta               =       0.3000
     number of iterations used =            8  plain     mixing
     Exchange-correlation      = SLA  PW   PBE  PBE ( 1 4 3 4 0)
     EXX-fraction              =        0.00
     nstep                     =           50

     celldm(1)=   9.263638  celldm(2)=   0.000000  celldm(3)=   0.000000
     celldm(4)=   0.000000  celldm(5)=   0.000000  celldm(6)=   0.000000

     crystal axes: (cart. coord. in units of alat)
               a(1) = (   1.000000   0.000000   0.000000 )
               a(2) = (   0.000000   1.000000   0.000000 )
               a(3) = (   0.000000   0.000000   0.644444 )

     reciprocal axes: (cart. coord. in units 2 pi/alat)
               b(1) = (  1.000000  0.000000  0.000000 )
               b(2) = (  0.000000  1.000000  0.000000 )
               b(3) = (  0.000000  0.000000  1.551724 )

     PseudoPot. # 1 for Nb read from file:
     /home/camp/zhonxu/pseudo/nb_pbe_v1.uspp.F.UPF
     MD5 check sum: 573aab8a2fa660278ed4a62cd769473f
     Pseudo is Ultrasoft + core correction, Zval = 13.0
     Generated by new atomic code, or converted to UPF format
     Using radial grid of  887 points,  6 beta functions with:
                l(1) =   0
                l(2) =   0
                l(3) =   1
                l(4) =   1
                l(5) =   2
                l(6) =   2
     Q(r) pseudized with  6 coefficients,  rinner =    1.000   1.000   1.000
                                                       1.000   1.000

     PseudoPot. # 2 for O  read from file:
     /home/camp/zhonxu/pseudo/o_pbe_v1.01.uspp.F.UPF
     MD5 check sum: 2bcb18d16ea4b960afae9ec6d52f22d2
     Pseudo is Ultrasoft + core correction, Zval =  6.0
     Generated by new atomic code, or converted to UPF format
     Using radial grid of  737 points,  5 beta functions with:
                l(1) =   0
                l(2) =   0
                l(3) =   1
                l(4) =   1
                l(5) =   2
     Q(r) pseudized with  8 coefficients,  rinner =    0.900   0.900   0.900
                                                       0.900   0.900

     atomic species   valence    mass     pseudopotential
        Nb0           13.00    92.90640     Nb( 1.00)
        O1             6.00    15.99940     O ( 1.00)

     Starting magnetic structure
     atomic species   magnetization
        Nb0          0.600
        O1           0.000

      8 Sym. Ops., with inversion, found
          (note:  8 additional sym.ops. were found but ignored
           their fractional translations are incommensurate with FFT grid)

   Cartesian axes

     site n.     atom                  positions (alat units)
         1           Nb0 tau(   1) = (   0.0000000   0.0000000   0.0000000  )
         2           Nb0 tau(   2) = (   0.5000000   0.5000000   0.3222222  )
         3           O1  tau(   3) = (   0.3050000   0.3050000   0.0000000  )
         4           O1  tau(   4) = (  -0.3050000  -0.3050000   0.0000000  )
         5           O1  tau(   5) = (   0.8050000   0.1950000   0.3222222  )
         6           O1  tau(   6) = (   0.1950000   0.8050000   0.3222222  )

     number of k points=    54  Methfessel-Paxton smearing, width (Ry)=  0.0100
                       cart. coord. in units 2pi/alat
        k(    1) = (   0.0000000   0.0000000   0.0000000), wk =   0.0080000
        k(    2) = (   0.0000000   0.0000000   0.3103448), wk =   0.0160000
        k(    3) = (   0.0000000   0.0000000   0.6206897), wk =   0.0160000
        k(    4) = (   0.0000000   0.2000000   0.0000000), wk =   0.0320000
        k(    5) = (   0.0000000   0.2000000   0.3103448), wk =   0.0640000
        k(    6) = (   0.0000000   0.2000000   0.6206897), wk =   0.0640000
        k(    7) = (   0.0000000   0.4000000   0.0000000), wk =   0.0320000
        k(    8) = (   0.0000000   0.4000000   0.3103448), wk =   0.0640000
        k(    9) = (   0.0000000   0.4000000   0.6206897), wk =   0.0640000
        k(   10) = (   0.2000000   0.2000000   0.0000000), wk =   0.0160000
        k(   11) = (   0.2000000   0.2000000   0.3103448), wk =   0.0320000
        k(   12) = (   0.2000000   0.2000000   0.6206897), wk =   0.0320000
        k(   13) = (   0.2000000   0.4000000   0.0000000), wk =   0.0320000
        k(   14) = (   0.2000000   0.4000000   0.3103448), wk =   0.0640000
        k(   15) = (   0.2000000   0.4000000   0.6206897), wk =   0.0640000
        k(   16) = (   0.4000000   0.4000000   0.0000000), wk =   0.0160000
        k(   17) = (   0.4000000   0.4000000   0.3103448), wk =   0.0320000
        k(   18) = (   0.4000000   0.4000000   0.6206897), wk =   0.0320000
        k(   19) = (  -0.2000000   0.2000000   0.0000000), wk =   0.0160000
        k(   20) = (  -0.2000000   0.2000000  -0.3103448), wk =   0.0320000
        k(   21) = (  -0.2000000   0.2000000  -0.6206897), wk =   0.0320000
        k(   22) = (  -0.2000000   0.4000000   0.0000000), wk =   0.0320000
        k(   23) = (  -0.2000000   0.4000000  -0.3103448), wk =   0.0640000
        k(   24) = (  -0.2000000   0.4000000  -0.6206897), wk =   0.0640000
        k(   25) = (  -0.4000000   0.4000000   0.0000000), wk =   0.0160000
        k(   26) = (  -0.4000000   0.4000000  -0.3103448), wk =   0.0320000
        k(   27) = (  -0.4000000   0.4000000  -0.6206897), wk =   0.0320000
        k(   28) = (   0.0000000   0.0000000   0.0000000), wk =   0.0080000
        k(   29) = (   0.0000000   0.0000000   0.3103448), wk =   0.0160000
        k(   30) = (   0.0000000   0.0000000   0.6206897), wk =   0.0160000
        k(   31) = (   0.0000000   0.2000000   0.0000000), wk =   0.0320000
        k(   32) = (   0.0000000   0.2000000   0.3103448), wk =   0.0640000
        k(   33) = (   0.0000000   0.2000000   0.6206897), wk =   0.0640000
        k(   34) = (   0.0000000   0.4000000   0.0000000), wk =   0.0320000
        k(   35) = (   0.0000000   0.4000000   0.3103448), wk =   0.0640000
        k(   36) = (   0.0000000   0.4000000   0.6206897), wk =   0.0640000
        k(   37) = (   0.2000000   0.2000000   0.0000000), wk =   0.0160000
        k(   38) = (   0.2000000   0.2000000   0.3103448), wk =   0.0320000
        k(   39) = (   0.2000000   0.2000000   0.6206897), wk =   0.0320000
        k(   40) = (   0.2000000   0.4000000   0.0000000), wk =   0.0320000
        k(   41) = (   0.2000000   0.4000000   0.3103448), wk =   0.0640000
        k(   42) = (   0.2000000   0.4000000   0.6206897), wk =   0.0640000
        k(   43) = (   0.4000000   0.4000000   0.0000000), wk =   0.0160000
        k(   44) = (   0.4000000   0.4000000   0.3103448), wk =   0.0320000
        k(   45) = (   0.4000000   0.4000000   0.6206897), wk =   0.0320000
        k(   46) = (  -0.2000000   0.2000000   0.0000000), wk =   0.0160000
        k(   47) = (  -0.2000000   0.2000000  -0.3103448), wk =   0.0320000
        k(   48) = (  -0.2000000   0.2000000  -0.6206897), wk =   0.0320000
        k(   49) = (  -0.2000000   0.4000000   0.0000000), wk =   0.0320000
        k(   50) = (  -0.2000000   0.4000000  -0.3103448), wk =   0.0640000
        k(   51) = (  -0.2000000   0.4000000  -0.6206897), wk =   0.0640000
        k(   52) = (  -0.4000000   0.4000000   0.0000000), wk =   0.0160000
        k(   53) = (  -0.4000000   0.4000000  -0.3103448), wk =   0.0320000
        k(   54) = (  -0.4000000   0.4000000  -0.6206897), wk =   0.0320000

     Largest allocated arrays     est. size (Mb)     dimensions
     Largest temporary arrays     est. size (Mb)     dimensions

     Check: negative/imaginary core charge=   -0.000007    0.000000

     Initial potential from superposition of free atoms

     starting charge   49.99453, renormalised to   50.00000
     Starting wfc are   42 randomized atomic wfcs

     Self-consistent Calculation

     iteration #  1     ecut=    40.00 Ry     beta=0.30
     Davidson diagonalization with overlap
     ethr =  1.00E-02,  avg # of iterations =  5.4

     total energy              =    -364.18165485 Ry
     Harris-Foulkes estimate   =    -364.98386122 Ry
     estimated scf accuracy    <       3.81569393 Ry

     total magnetization       =     2.00 Bohr mag/cell
     absolute magnetization    =     2.86 Bohr mag/cell

[...]

     End of self-consistent calculation

 ------ SPIN UP ------------

          k = 0.0000 0.0000 0.0000 (  2177 PWs)   bands (ev):

   -45.0651 -45.0501 -21.2380 -21.2380 -21.0572 -21.0402 -21.0401 -21.0164
    -8.3512  -7.7686  -6.7948  -6.7948   3.7079   3.7197   4.7310   5.2918
     5.2919   7.0236   7.0236   7.4436   8.2414   8.3922   8.3922   8.9741
    11.3086  11.4344  11.9725  12.2080  12.2082  14.5427  14.6243  15.3431
    17.3263  17.3265  18.4214  19.4432  19.4432  22.7167  24.4763  24.5861
    25.6169  26.2652  26.4358  26.4358  29.0938  29.1365  30.0254  30.0254
    30.7465  30.7465  32.0494  35.3784  35.3785  35.5899  36.0011  36.1865
    37.5469  38.4293  38.4293  38.6577  38.6577  38.8411  39.1070  39.1364
    39.9613  40.6941  40.6941  41.6331  42.3437  44.2007  44.2008  44.9487
    45.1500  45.7460  45.7460

[...]

          k =-0.2000 0.2000 0.0000 (  2153 PWs)   bands (ev):

[...]

 ------ SPIN DOWN ----------

[...]

     the Fermi energy is    12.1209 ev

!    total energy              =    -365.27382638 Ry
     Harris-Foulkes estimate   =    -365.27382587 Ry
     estimated scf accuracy    <       0.00000038 Ry

     The total energy is the sum of the following terms:

     one-electron contribution =    -104.41953270 Ry
     hartree contribution      =      77.65240018 Ry
     xc contribution           =     -65.45656136 Ry
     ewald contribution        =    -273.05040040 Ry
     smearing contrib. (-TS)   =       0.00026789 Ry

[...]

     convergence has been achieved in  27 iterations

     Forces acting on atoms (Ry/au):

     atom    1 type  1   force =     0.00000000    0.00000000    0.00000000
     atom    2 type  1   force =     0.00000000    0.00000000    0.00000000
     atom    3 type  2   force =    -0.01350346   -0.01350346    0.00000000
     atom    4 type  2   force =     0.01350346    0.01350346   -0.00000000
     atom    5 type  2   force =    -0.01345519    0.01345519   -0.00000000
     atom    6 type  2   force =     0.01345519   -0.01345519   -0.00000000

[...]
        k(    5) = (  -0.0000003   0.1953654   0.3252440), wk =   0.0640000
        k(    6) = (  -0.0000003   0.1953654   0.6504880), wk =   0.0640000
        k(    7) = (  -0.0000007   0.3907308   0.0000000), wk =   0.0320000
        k(    8) = (  -0.0000007   0.3907308   0.3252440), wk =   0.0640000
        k(    9) = (  -0.0000007   0.3907308   0.6504880), wk =   0.0640000
        k(   10) = (   0.1953650   0.1953650   0.0000000), wk =   0.0160000
        k(   11) = (   0.1953650   0.1953650   0.3252440), wk =   0.0320000
        k(   12) = (   0.1953650   0.1953650   0.6504880), wk =   0.0320000
        k(   13) = (   0.1953647   0.3907304   0.0000000), wk =   0.0320000
        k(   14) = (   0.1953647   0.3907304   0.3252440), wk =   0.0640000
        k(   15) = (   0.1953647   0.3907304   0.6504880), wk =   0.0640000
        k(   16) = (   0.3907301   0.3907301   0.0000000), wk =   0.0160000
        k(   17) = (   0.3907301   0.3907301   0.3252440), wk =   0.0320000
        k(   18) = (   0.3907301   0.3907301   0.6504880), wk =   0.0320000
        k(   19) = (  -0.1953657   0.1953657   0.0000000), wk =   0.0160000
        k(   20) = (  -0.1953657   0.1953657  -0.3252440), wk =   0.0320000
        k(   21) = (  -0.1953657   0.1953657  -0.6504880), wk =   0.0320000
        k(   22) = (  -0.1953660   0.3907311   0.0000000), wk =   0.0320000
        k(   23) = (  -0.1953660   0.3907311  -0.3252440), wk =   0.0640000
        k(   24) = (  -0.1953660   0.3907311  -0.6504880), wk =   0.0640000
        k(   25) = (  -0.3907314   0.3907314   0.0000000), wk =   0.0160000
        k(   26) = (  -0.3907314   0.3907314  -0.3252440), wk =   0.0320000
        k(   27) = (  -0.3907314   0.3907314  -0.6504880), wk =   0.0320000
        k(   28) = (   0.0000000   0.0000000   0.0000000), wk =   0.0080000
        k(   29) = (   0.0000000   0.0000000   0.3252440), wk =   0.0160000
        k(   30) = (   0.0000000   0.0000000   0.6504880), wk =   0.0160000
        k(   31) = (  -0.0000003   0.1953654   0.0000000), wk =   0.0320000
        k(   32) = (  -0.0000003   0.1953654   0.3252440), wk =   0.0640000
        k(   33) = (  -0.0000003   0.1953654   0.6504880), wk =   0.0640000
        k(   34) = (  -0.0000007   0.3907308   0.0000000), wk =   0.0320000
        k(   35) = (  -0.0000007   0.3907308   0.3252440), wk =   0.0640000
        k(   36) = (  -0.0000007   0.3907308   0.6504880), wk =   0.0640000
        k(   37) = (   0.1953650   0.1953650   0.0000000), wk =   0.0160000
        k(   38) = (   0.1953650   0.1953650   0.3252440), wk =   0.0320000
        k(   39) = (   0.1953650   0.1953650   0.6504880), wk =   0.0320000
        k(   40) = (   0.1953647   0.3907304   0.0000000), wk =   0.0320000
        k(   41) = (   0.1953647   0.3907304   0.3252440), wk =   0.0640000
        k(   42) = (   0.1953647   0.3907304   0.6504880), wk =   0.0640000
        k(   43) = (   0.3907301   0.3907301   0.0000000), wk =   0.0160000
        k(   44) = (   0.3907301   0.3907301   0.3252440), wk =   0.0320000
        k(   45) = (   0.3907301   0.3907301   0.6504880), wk =   0.0320000
        k(   46) = (  -0.1953657   0.1953657   0.0000000), wk =   0.0160000
        k(   47) = (  -0.1953657   0.1953657  -0.3252440), wk =   0.0320000
        k(   48) = (  -0.1953657   0.1953657  -0.6504880), wk =   0.0320000
        k(   49) = (  -0.1953660   0.3907311   0.0000000), wk =   0.0320000
        k(   50) = (  -0.1953660   0.3907311  -0.3252440), wk =   0.0640000
        k(   51) = (  -0.1953660   0.3907311  -0.6504880), wk =   0.0640000
        k(   52) = (  -0.3907314   0.3907314   0.0000000), wk =   0.0160000
        k(   53) = (  -0.3907314   0.3907314  -0.3252440), wk =   0.0320000
        k(   54) = (  -0.3907314   0.3907314  -0.6504880), wk =   0.0320000

[...]

     Threshold (ethr) on eigenvalues was too large:
     Diagonalizing with lowered threshold

     Davidson diagonalization with overlap
     ethr =  1.79E-08,  avg # of iterations =  1.3

[...]

     Volume is kept fixed: isostatic pressure set to zero

     bfgs converged in   8 scf cycles and   7 bfgs steps
     (criteria: energy < 0.10E-03, force < 0.10E-02, cell < 0.50E+00)

     End of BFGS Geometry Optimization

     Final enthalpy =    -365.2854174581 Ry
Begin final coordinates
     new unit-cell volume =    512.30691 a.u.^3 (    75.91605 Ang^3 )

CELL_PARAMETERS (alat=  9.26363799)
   1.023722853   0.000001714   0.000000000
   0.000001714   1.023722853   0.000000000
   0.000000000   0.000000000   0.614922929

ATOMIC_POSITIONS (crystal)
Nb0      0.000000000   0.000000000   0.000000000    0   0   0
Nb0      0.500000000   0.500000000   0.500000000    0   0   0
O1       0.294912465   0.294912465   0.000000000    1   1   0
O1      -0.294912465  -0.294912465   0.000000000    1   1   0
O1       0.794912801   0.205087199   0.500000000    1   1   0
O1       0.205087199   0.794912801   0.500000000    1   1   0
End final coordinates

     A final scf calculation at the relaxed structure.
     The G-vectors are recalculated for the final unit cell
     Results may differ from those at the preceding step.

     bravais-lattice index     =            0
     lattice parameter (alat)  =       9.2636  a.u.
     unit-cell volume          =     512.3069 (a.u.)^3
     number of atoms/cell      =            6
     number of atomic types    =            2
     number of electrons       =        50.00
     number of Kohn-Sham states=           75
     kinetic-energy cutoff     =      40.0000  Ry
     charge density cutoff     =     500.0000  Ry
     convergence threshold     =      1.0E-08
     mixing beta               =       0.3000
     number of iterations used =            8  plain     mixing
     Exchange-correlation      = SLA  PW   PBE  PBE ( 1 4 3 4 0)
     EXX-fraction              =        0.00

     celldm(1)=   9.263638  celldm(2)=   0.000000  celldm(3)=   0.000000
     celldm(4)=   0.000000  celldm(5)=   0.000000  celldm(6)=   0.000000

     crystal axes: (cart. coord. in units of alat)
               a(1) = (   1.023723   0.000002   0.000000 )
               a(2) = (   0.000002   1.023723   0.000000 )
               a(3) = (   0.000000   0.000000   0.614923 )

     reciprocal axes: (cart. coord. in units 2 pi/alat)
               b(1) = (  0.976827 -0.000002  0.000000 )
               b(2) = ( -0.000002  0.976827  0.000000 )
               b(3) = (  0.000000  0.000000  1.626220 )

     PseudoPot. # 1 for Nb read from file:
     /home/camp/zhonxu/pseudo/nb_pbe_v1.uspp.F.UPF
     MD5 check sum: 573aab8a2fa660278ed4a62cd769473f
     Pseudo is Ultrasoft + core correction, Zval = 13.0
     Generated by new atomic code, or converted to UPF format
     Using radial grid of  887 points,  6 beta functions with:
                l(1) =   0
                l(2) =   0
                l(3) =   1
                l(4) =   1
                l(5) =   2
                l(6) =   2
     Q(r) pseudized with  6 coefficients,  rinner =    1.000   1.000   1.000
                                                       1.000   1.000

     PseudoPot. # 2 for O  read from file:
     /home/camp/zhonxu/pseudo/o_pbe_v1.01.uspp.F.UPF
     MD5 check sum: 2bcb18d16ea4b960afae9ec6d52f22d2
     Pseudo is Ultrasoft + core correction, Zval =  6.0
     Generated by new atomic code, or converted to UPF format
     Using radial grid of  737 points,  5 beta functions with:
                l(1) =   0
                l(2) =   0
                l(3) =   1
                l(4) =   1
                l(5) =   2
     Q(r) pseudized with  8 coefficients,  rinner =    0.900   0.900   0.900
                                                       0.900   0.900

     atomic species   valence    mass     pseudopotential
        Nb0           13.00    92.90640     Nb( 1.00)
        O1             6.00    15.99940     O ( 1.00)

     Starting magnetic structure
     atomic species   magnetization
        Nb0          0.600
        O1           0.000

      8 Sym. Ops., with inversion, found
          (note:  8 additional sym.ops. were found but ignored
           their fractional translations are incommensurate with FFT grid)

   Cartesian axes

     site n.     atom                  positions (alat units)
         1           Nb0 tau(   1) = (   0.0000000   0.0000000   0.0000000  )
         2           Nb0 tau(   2) = (   0.5118623   0.5118623   0.3074615  )
         3           O1  tau(   3) = (   0.3019091   0.3019091   0.0000000  )
         4           O1  tau(   4) = (  -0.3019091  -0.3019091   0.0000000  )
         5           O1  tau(   5) = (   0.8137708   0.2099538   0.3074615  )
         6           O1  tau(   6) = (   0.2099538   0.8137708   0.3074615  )

     number of k points=    54  Methfessel-Paxton smearing, width (Ry)=  0.0100
                       cart. coord. in units 2pi/alat
        k(    1) = (   0.0000000   0.0000000   0.0000000), wk =   0.0080000
        k(    2) = (   0.0000000   0.0000000   0.3252440), wk =   0.0160000
        k(    3) = (   0.0000000   0.0000000   0.6504880), wk =   0.0160000
        k(    4) = (  -0.0000003   0.1953654   0.0000000), wk =   0.0320000
        k(    5) = (  -0.0000003   0.1953654   0.3252440), wk =   0.0640000
        k(    6) = (  -0.0000003   0.1953654   0.6504880), wk =   0.0640000
        k(    7) = (  -0.0000007   0.3907308   0.0000000), wk =   0.0320000
        k(    8) = (  -0.0000007   0.3907308   0.3252440), wk =   0.0640000
        k(    9) = (  -0.0000007   0.3907308   0.6504880), wk =   0.0640000
        k(   10) = (   0.1953650   0.1953650   0.0000000), wk =   0.0160000
        k(   11) = (   0.1953650   0.1953650   0.3252440), wk =   0.0320000
        k(   12) = (   0.1953650   0.1953650   0.6504880), wk =   0.0320000
        k(   13) = (   0.1953647   0.3907304   0.0000000), wk =   0.0320000
        k(   14) = (   0.1953647   0.3907304   0.3252440), wk =   0.0640000
        k(   15) = (   0.1953647   0.3907304   0.6504880), wk =   0.0640000
        k(   16) = (   0.3907301   0.3907301   0.0000000), wk =   0.0160000
        k(   17) = (   0.3907301   0.3907301   0.3252440), wk =   0.0320000
        k(   18) = (   0.3907301   0.3907301   0.6504880), wk =   0.0320000
        k(   19) = (  -0.1953657   0.1953657   0.0000000), wk =   0.0160000
        k(   20) = (  -0.1953657   0.1953657  -0.3252440), wk =   0.0320000
        k(   21) = (  -0.1953657   0.1953657  -0.6504880), wk =   0.0320000
        k(   22) = (  -0.1953660   0.3907311   0.0000000), wk =   0.0320000
        k(   23) = (  -0.1953660   0.3907311  -0.3252440), wk =   0.0640000
        k(   24) = (  -0.1953660   0.3907311  -0.6504880), wk =   0.0640000
        k(   25) = (  -0.3907314   0.3907314   0.0000000), wk =   0.0160000
        k(   26) = (  -0.3907314   0.3907314  -0.3252440), wk =   0.0320000
        k(   27) = (  -0.3907314   0.3907314  -0.6504880), wk =   0.0320000
        k(   28) = (   0.0000000   0.0000000   0.0000000), wk =   0.0080000
        k(   29) = (   0.0000000   0.0000000   0.3252440), wk =   0.0160000
        k(   30) = (   0.0000000   0.0000000   0.6504880), wk =   0.0160000
        k(   31) = (  -0.0000003   0.1953654   0.0000000), wk =   0.0320000
        k(   32) = (  -0.0000003   0.1953654   0.3252440), wk =   0.0640000
        k(   33) = (  -0.0000003   0.1953654   0.6504880), wk =   0.0640000
        k(   34) = (  -0.0000007   0.3907308   0.0000000), wk =   0.0320000
        k(   35) = (  -0.0000007   0.3907308   0.3252440), wk =   0.0640000
        k(   36) = (  -0.0000007   0.3907308   0.6504880), wk =   0.0640000
        k(   37) = (   0.1953650   0.1953650   0.0000000), wk =   0.0160000
        k(   38) = (   0.1953650   0.1953650   0.3252440), wk =   0.0320000
        k(   39) = (   0.1953650   0.1953650   0.6504880), wk =   0.0320000
        k(   40) = (   0.1953647   0.3907304   0.0000000), wk =   0.0320000
        k(   41) = (   0.1953647   0.3907304   0.3252440), wk =   0.0640000
        k(   42) = (   0.1953647   0.3907304   0.6504880), wk =   0.0640000
        k(   43) = (   0.3907301   0.3907301   0.0000000), wk =   0.0160000
        k(   44) = (   0.3907301   0.3907301   0.3252440), wk =   0.0320000
        k(   45) = (   0.3907301   0.3907301   0.6504880), wk =   0.0320000
        k(   46) = (  -0.1953657   0.1953657   0.0000000), wk =   0.0160000
        k(   47) = (  -0.1953657   0.1953657  -0.3252440), wk =   0.0320000
        k(   48) = (  -0.1953657   0.1953657  -0.6504880), wk =   0.0320000
        k(   49) = (  -0.1953660   0.3907311   0.0000000), wk =   0.0320000
        k(   50) = (  -0.1953660   0.3907311  -0.3252440), wk =   0.0640000
        k(   51) = (  -0.1953660   0.3907311  -0.6504880), wk =   0.0640000
        k(   52) = (  -0.3907314   0.3907314   0.0000000), wk =   0.0160000
        k(   53) = (  -0.3907314   0.3907314  -0.3252440), wk =   0.0320000
        k(   54) = (  -0.3907314   0.3907314  -0.6504880), wk =   0.0320000

     Largest allocated arrays     est. size (Mb)     dimensions
     Largest temporary arrays     est. size (Mb)     dimensions

     Check: negative/imaginary core charge=   -0.000007    0.000000

     Initial potential from superposition of free atoms

     starting charge   49.99453, renormalised to   50.00000
     Starting wfc are   42 randomized atomic wfcs

     Self-consistent Calculation

[...]

     total energy              =    -365.28547122 Ry
     Harris-Foulkes estimate   =    -365.28547121 Ry
     estimated scf accuracy    <       0.00000003 Ry

[...]

     iteration # 20     ecut=    40.00 Ry     beta=0.30
     Davidson diagonalization with overlap
     ethr =  7.00E-11,  avg # of iterations =  2.0

     End of self-consistent calculation

 ------ SPIN UP ------------

[...]

 ------ SPIN DOWN ----------

[...]

          k = 0.3907 0.3907 0.6505 (  2184 PWs)   bands (ev):

[...]

          k =-0.3907 0.3907-0.6505 (  2184 PWs)   bands (ev):

   -44.8820 -44.8816 -21.4031 -21.3989 -21.0313 -21.0249 -20.7832 -20.7820
    -7.6264  -7.4815  -7.1925  -7.0339   4.7515   5.0268   5.1372   5.3574
     5.4792   5.9328   6.2733   6.6568   7.5740   7.7226   8.2278   8.3495
    12.0434  12.5146  12.6628  13.1824  13.7966  13.8673  15.9588  16.7216
    16.7747  17.4485  19.9616  20.3272  21.0877  21.3734  23.0857  23.3034
    25.0557  25.2000  27.1980  27.4843  27.5731  28.2648  29.0178  29.4786
    32.2659  32.6551  32.8562  33.1158  35.2369  35.4697  37.0624  37.5964
    37.7399  38.0773  38.4585  39.1805  39.5656  39.7539  40.0711  40.6829
    40.8167  41.2793  41.4989  41.5416  41.8521  42.0902  42.7010  43.6184
    44.6298  45.8756  46.3648

     the Fermi energy is    11.8038 ev

!    total energy              =    -365.28547136 Ry
     Harris-Foulkes estimate   =    -365.28547132 Ry
     estimated scf accuracy    <          7.0E-09 Ry

     The total energy is the sum of the following terms:

     one-electron contribution =    -105.58469131 Ry
     hartree contribution      =      78.10943149 Ry
     xc contribution           =     -65.43336798 Ry
     ewald contribution        =    -272.37654810 Ry
     smearing contrib. (-TS)   =      -0.00029546 Ry

     total magnetization       =     0.61 Bohr mag/cell
     absolute magnetization    =     0.64 Bohr mag/cell

     convergence has been achieved in  20 iterations

     Forces acting on atoms (Ry/au):

     atom    1 type  1   force =     0.00000000    0.00000000    0.00000000
     atom    2 type  1   force =     0.00000000    0.00000000    0.00000000
     atom    3 type  2   force =    -0.00007600   -0.00007600    0.00000000
     atom    4 type  2   force =     0.00007600    0.00007600    0.00000000
     atom    5 type  2   force =    -0.00008537    0.00008537    0.00000000
     atom    6 type  2   force =     0.00008537   -0.00008537    0.00000000

     Total force =     0.000229     Total SCF correction =     0.000085
     SCF correction compared to forces is large: reduce conv_thr to get better values

     entering subroutine stress ...

          total   stress  (Ry/bohr**3)                   (kbar)     P= -113.39
  -0.00077075  -0.00000003   0.00000000       -113.38     -0.00      0.00
  -0.00000003  -0.00077075   0.00000000         -0.00   -113.38      0.00
   0.00000000   0.00000000  -0.00077102          0.00      0.00   -113.42

     General routines

     Parallel routines

   This run was terminated on:  15:16:25  24Jan2014

   JOB DONE.
Running PBS batch system epilogue script
Job id: 251926.audhumbla.fysik.dtu.dk
Username: zhonxu
Groupname: campgst
Jobname: NbO2/fine-EOS/ferro/NbO2-v-1.05
Sessionid: 2441
Queuename: verylong
Accounting:
This job has allocated the following 4 nodes:
q006 q006 q006 q006
Finished epilogue job 251926.audhumbla.fysik.dtu.dk for zhonxu