     Program PWSCF v.5.0.2 (svn rev. 9656) starts on 30May2014 at 22:36:58

     Current dimensions of program PWSCF are:
     Max number of different atomic species (ntypx) = 10
     Max number of k-points (npk) =  40000
     Max angular momentum in pseudopotentials (lmaxx) =  3
     Reading input from pwscf.in
Warning: card &CELL ignored
Warning: card / ignored

     Subspace diagonalization in iterative solution of the eigenvalue problem:
     a serial algorithm will be used

     bravais-lattice index     =            0
     lattice parameter (alat)  =      11.7919  a.u.
     unit-cell volume          =    7123.6633 (a.u.)^3
     number of atoms/cell      =           33
     number of atomic types    =            3
     number of electrons       =       253.00
     number of Kohn-Sham states=          367
     kinetic-energy cutoff     =      40.0000  Ry
     charge density cutoff     =     500.0000  Ry
     convergence threshold     =      1.0E-06
     mixing beta               =       0.7000
     number of iterations used =            8  plain     mixing
     Exchange-correlation      = SLA  PW   PBE  PBE ( 1 4 3 4 0)
     EXX-fraction              =        0.00
     nstep                     =           50

     celldm(1)=  11.791891  celldm(2)=   0.000000  celldm(3)=   0.000000
     celldm(4)=   0.000000  celldm(5)=   0.000000  celldm(6)=   0.000000

     crystal axes: (cart. coord. in units of alat)
               a(1) = (   1.000000   0.000000   0.000000 )
               a(2) = (   0.000000   1.026665   0.000000 )
               a(3) = (   0.000000   0.000000   4.231793 )

     reciprocal axes: (cart. coord. in units 2 pi/alat)
               b(1) = (  1.000000  0.000000  0.000000 )
               b(2) = (  0.000000  0.974028  0.000000 )
               b(3) = (  0.000000  0.000000  0.236306 )

     PseudoPot. # 1 for O  read from file:
     /home/camp/zhonxu/pseudo/o_pbe_v1.01.uspp.F.UPF
     MD5 check sum: 2bcb18d16ea4b960afae9ec6d52f22d2
     Pseudo is Ultrasoft + core correction, Zval =  6.0
     Generated by new atomic code, or converted to UPF format
     Using radial grid of  737 points,  5 beta functions with:
                l(1) =   0
                l(2) =   0
                l(3) =   1
                l(4) =   1
                l(5) =   2
     Q(r) pseudized with  8 coefficients,  rinner =    0.900   0.900   0.900
                                                       0.900   0.900

     PseudoPot. # 2 for Ru read from file:
     /home/camp/zhonxu/pseudo/ru_pbe_v1.uspp.F.UPF
     MD5 check sum: df00be1c11b23341d9806d8f1dfa10cf
     Pseudo is Ultrasoft + core correction, Zval = 16.0
     Generated by new atomic code, or converted to UPF format
     Using radial grid of  967 points,  6 beta functions with:
                l(1) =   0
                l(2) =   0
                l(3) =   1
                l(4) =   1
                l(5) =   2
                l(6) =   2
     Q(r) pseudized with  8 coefficients,  rinner =    1.300   1.300   1.300
                                                       1.300   1.300

     PseudoPot. # 3 for H  read from file:
     /home/camp/zhonxu/pseudo/h_pbe_v1.uspp.F.UPF
     MD5 check sum: 3408e3ff4ec8b0a4e358431e7e038a48
     Pseudo is Ultrasoft, Zval =  1.0
     Generated by new atomic code, or converted to UPF format
     Using radial grid of  615 points,  2 beta functions with:
                l(1) =   0
                l(2) =   0
     Q(r) pseudized with  8 coefficients,  rinner =    0.700

     atomic species   valence    mass     pseudopotential
        O0             6.00    15.99940     O ( 1.00)
        Ru1           16.00   101.07000     Ru( 1.00)
        H2             1.00     1.00794     H ( 1.00)

     Simplified LDA+U calculation (l_max = 2) with parameters (eV):
     atomic species    L          U    alpha       J0     beta
        Ru1            2     3.5000   0.0000   0.0000   0.0000

     No symmetry found

   Cartesian axes

     site n.     atom                  positions (alat units)
         1           O0  tau(   1) = (   0.0000000   0.0000000   1.5976288  )
         2           O0  tau(   2) = (   0.0000000   0.5133323   1.7135376  )
         3           Ru1 tau(   3) = (   0.2500000   0.5133323   1.9265237  )
         4           Ru1 tau(   4) = (   0.0000000   0.0000000   1.9104429  )
         5           O0  tau(   5) = (   0.2500000   0.8315984   1.9133628  )
         6           O0  tau(   6) = (   0.2500000   0.1950663   1.9137014  )
         7           O0  tau(   7) = (   0.0000000   0.5133323   2.1143307  )
         8           O0  tau(   8) = (   0.0000000   0.0000000   2.2232570  )
         9           Ru1 tau(   9) = (   0.2500000   0.0000000   2.4362008  )
        10           Ru1 tau(  10) = (   0.0000000   0.5133323   2.4139839  )
        11           O0  tau(  11) = (   0.2500000   0.7083986   2.4352275  )
        12           O0  tau(  12) = (   0.2500000   0.3182660   2.4428024  )
        13           O0  tau(  13) = (   0.0000000   0.0000000   2.6141054  )
        14           O0  tau(  14) = (   0.5000000   0.0000000   1.5980943  )
        15           O0  tau(  15) = (   0.5000000   0.5133323   1.7110408  )
        16           Ru1 tau(  16) = (   0.7500000   0.5133323   1.9265660  )
        17           Ru1 tau(  17) = (   0.5000000   0.0000000   1.9113316  )
        18           O0  tau(  18) = (   0.7500000   0.8315984   1.9134475  )
        19           O0  tau(  19) = (   0.7500000   0.1950663   1.9137014  )
        20           O0  tau(  20) = (   0.5000000   0.5133323   2.1248255  )
        21           O0  tau(  21) = (   0.5000000   0.0000000   2.2236379  )
        22           Ru1 tau(  22) = (   0.7500000   0.0000000   2.4362855  )
        23           Ru1 tau(  23) = (   0.5000000   0.5133323   2.4472458  )
        24           O0  tau(  24) = (   0.7500000   0.7083986   2.4352698  )
        25           O0  tau(  25) = (   0.7500000   0.3182660   2.4426755  )
        26           O0  tau(  26) = (   0.5000000   0.0000000   2.6042453  )
        27           H2  tau(  27) = (  -0.0003700   0.6408749   1.6195494  )
        28           H2  tau(  28) = (   0.4997300   0.6446633   1.6222578  )
        29           H2  tau(  29) = (   0.1462300   0.0299786   1.5449853  )
        30           H2  tau(  30) = (   0.6457400   0.0313441   1.5450699  )
        31           O0  tau(  31) = (   0.5000700   0.5415759   2.7547279  )
        32           O0  tau(  32) = (   0.4999900   0.3417972   2.8749108  )
        33           H2  tau(  33) = (   0.4999600   0.4009947   3.0215847  )

     number of k points=    10  Methfessel-Paxton smearing, width (Ry)=  0.0100
                       cart. coord. in units 2pi/alat
        k(    1) = (   0.0000000   0.0000000   0.0000000), wk =   0.1250000
        k(    2) = (   0.0000000   0.2435070   0.0000000), wk =   0.2500000
        k(    3) = (   0.0000000  -0.4870139   0.0000000), wk =   0.1250000
        k(    4) = (   0.2500000   0.0000000   0.0000000), wk =   0.2500000
        k(    5) = (   0.2500000   0.2435070   0.0000000), wk =   0.2500000
        k(    6) = (   0.2500000  -0.4870139   0.0000000), wk =   0.2500000
        k(    7) = (  -0.5000000   0.0000000   0.0000000), wk =   0.1250000
        k(    8) = (  -0.5000000   0.2435070   0.0000000), wk =   0.2500000
        k(    9) = (  -0.5000000  -0.4870139   0.0000000), wk =   0.1250000
        k(   10) = (  -0.2500000   0.2435070   0.0000000), wk =   0.2500000

     Largest allocated arrays     est. size (Mb)     dimensions
     Largest temporary arrays     est. size (Mb)     dimensions

     Check: negative/imaginary core charge=   -0.000003    0.000000

     Initial potential from superposition of free atoms
     Check: negative starting charge=   -0.523679

     starting charge  244.99980, renormalised to  253.00000

     negative rho (up, down):  0.541E+00 0.000E+00
     Number of +U iterations with fixed ns =  0
     Starting occupations:
 --- enter write_ns ---
 LDA+U parameters:
U( 2)     =  3.50000000
alpha( 2) =  0.00000000
atom    3   Tr[ns(na)] =   6.00000
    eigenvalues:
  0.600  0.600  0.600  0.600  0.600
    eigenvectors:
  1.000  0.000  0.000  0.000  0.000
  0.000  1.000  0.000  0.000  0.000
  0.000  0.000  1.000  0.000  0.000
  0.000  0.000  0.000  1.000  0.000
  0.000  0.000  0.000  0.000  1.000
    occupations:
  0.600  0.000  0.000  0.000  0.000
  0.000  0.600  0.000  0.000  0.000
  0.000  0.000  0.600  0.000  0.000
  0.000  0.000  0.000  0.600  0.000
  0.000  0.000  0.000  0.000  0.600
atom    4   Tr[ns(na)] =   6.00000
    eigenvalues:
  0.600  0.600  0.600  0.600  0.600
    eigenvectors:
  1.000  0.000  0.000  0.000  0.000
  0.000  1.000  0.000  0.000  0.000
  0.000  0.000  1.000  0.000  0.000
  0.000  0.000  0.000  1.000  0.000
  0.000  0.000  0.000  0.000  1.000
    occupations:
  0.600  0.000  0.000  0.000  0.000
  0.000  0.600  0.000  0.000  0.000
  0.000  0.000  0.600  0.000  0.000
  0.000  0.000  0.000  0.600  0.000
  0.000  0.000  0.000  0.000  0.600
atom    9   Tr[ns(na)] =   6.00000
    eigenvalues:
  0.600  0.600  0.600  0.600  0.600
    eigenvectors:
  1.000  0.000  0.000  0.000  0.000
  0.000  1.000  0.000  0.000  0.000
  0.000  0.000  1.000  0.000  0.000
  0.000  0.000  0.000  1.000  0.000
  0.000  0.000  0.000  0.000  1.000
    occupations:
  0.600  0.000  0.000  0.000  0.000
  0.000  0.600  0.000  0.000  0.000
  0.000  0.000  0.600  0.000  0.000
  0.000  0.000  0.000  0.600  0.000
  0.000  0.000  0.000  0.000  0.600
atom   10   Tr[ns(na)] =   6.00000
    eigenvalues:
  0.600  0.600  0.600  0.600  0.600
    eigenvectors:
  1.000  0.000  0.000  0.000  0.000
  0.000  1.000  0.000  0.000  0.000
  0.000  0.000  1.000  0.000  0.000
  0.000  0.000  0.000  1.000  0.000
  0.000  0.000  0.000  0.000  1.000
    occupations:
  0.600  0.000  0.000  0.000  0.000
  0.000  0.600  0.000  0.000  0.000
  0.000  0.000  0.600  0.000  0.000
  0.000  0.000  0.000  0.600  0.000
  0.000  0.000  0.000  0.000  0.600
atom   16   Tr[ns(na)] =   6.00000
    eigenvalues:
  0.600  0.600  0.600  0.600  0.600
    eigenvectors:
  1.000  0.000  0.000  0.000  0.000
  0.000  1.000  0.000  0.000  0.000
  0.000  0.000  1.000  0.000  0.000
  0.000  0.000  0.000  1.000  0.000
  0.000  0.000  0.000  0.000  1.000
    occupations:
  0.600  0.000  0.000  0.000  0.000
  0.000  0.600  0.000  0.000  0.000
  0.000  0.000  0.600  0.000  0.000
  0.000  0.000  0.000  0.600  0.000
  0.000  0.000  0.000  0.000  0.600
atom   17   Tr[ns(na)] =   6.00000
    eigenvalues:
  0.600  0.600  0.600  0.600  0.600
    eigenvectors:
  1.000  0.000  0.000  0.000  0.000
  0.000  1.000  0.000  0.000  0.000
  0.000  0.000  1.000  0.000  0.000
  0.000  0.000  0.000  1.000  0.000
  0.000  0.000  0.000  0.000  1.000
    occupations:
  0.600  0.000  0.000  0.000  0.000
  0.000  0.600  0.000  0.000  0.000
  0.000  0.000  0.600  0.000  0.000
  0.000  0.000  0.000  0.600  0.000
  0.000  0.000  0.000  0.000  0.600
atom   22   Tr[ns(na)] =   6.00000
    eigenvalues:
  0.600  0.600  0.600  0.600  0.600
    eigenvectors:
  1.000  0.000  0.000  0.000  0.000
  0.000  1.000  0.000  0.000  0.000
  0.000  0.000  1.000  0.000  0.000
[...]
  0.000  0.856  0.001  0.000 -0.007
  0.002  0.001  0.724 -0.001  0.000
  0.051  0.000 -0.001  0.968 -0.000
  0.000 -0.007  0.000 -0.000  0.535
atom   16   Tr[ns(na)] =   7.22236
    eigenvalues:
  0.515  0.562  0.708  0.853  0.974
    eigenvectors:
  0.001  0.181  0.005  0.000  0.813
  0.996  0.004  0.000  0.000  0.000
  0.000  0.001  0.963  0.026  0.010
  0.003  0.814  0.005  0.000  0.178
  0.000  0.000  0.026  0.974  0.000
    occupations:
  0.897  0.005  0.025 -0.157  0.003
  0.005  0.515  0.002  0.001 -0.002
  0.025  0.002  0.714 -0.006 -0.023
 -0.157  0.001 -0.006  0.636 -0.001
  0.003 -0.002 -0.023 -0.001  0.849
atom   17   Tr[ns(na)] =   7.21466
    eigenvalues:
  0.553  0.605  0.668  0.802  0.979
    eigenvectors:
  0.001  0.987  0.000  0.000  0.012
  0.000  0.000  0.019  0.981  0.000
  0.000  0.000  0.981  0.019  0.000
  0.000  0.012  0.000  0.000  0.988
  0.999  0.001  0.000  0.000  0.000
    occupations:
  0.609 -0.000  0.000  0.041  0.001
 -0.000  0.800  0.018 -0.001 -0.001
  0.000  0.018  0.670  0.002  0.000
  0.041 -0.001  0.002  0.975  0.000
  0.001 -0.001  0.000  0.000  0.553
atom   22   Tr[ns(na)] =   7.22030
    eigenvalues:
  0.574  0.595  0.779  0.826  0.836
    eigenvectors:
  0.000  0.159  0.002  0.796  0.043
  0.999  0.001  0.000  0.000  0.000
  0.000  0.000  0.992  0.005  0.003
  0.001  0.839  0.002  0.149  0.008
  0.000  0.000  0.004  0.049  0.947
    occupations:
  0.790  0.004 -0.004 -0.084  0.002
  0.004  0.574  0.001 -0.003  0.000
 -0.004  0.001  0.779 -0.002  0.003
 -0.084 -0.003 -0.002  0.632 -0.001
  0.002  0.000  0.003 -0.001  0.835
atom   23   Tr[ns(na)] =   7.24920
    eigenvalues:
  0.546  0.586  0.707  0.825  0.960
    eigenvectors:
  0.000  0.996  0.000  0.001  0.003
  0.001  0.000  0.999  0.000  0.000
  0.000  0.000  0.000  0.999  0.000
  0.000  0.003  0.000  0.000  0.997
  0.999  0.000  0.001  0.000  0.000
    occupations:
  0.588  0.000  0.005  0.021  0.000
  0.000  0.707  0.002  0.001 -0.005
  0.005  0.002  0.825 -0.003 -0.000
  0.021  0.001 -0.003  0.959 -0.000
  0.000 -0.005 -0.000 -0.000  0.546
N of occupied +U levels =  57.8105754
 --- exit write_ns ---

     Threshold (ethr) on eigenvalues was too large:
     Diagonalizing with lowered threshold

     Davidson diagonalization with overlap
     ethr =  2.91E-08,  avg # of iterations =  2.1

[...]

     total energy              =   -2194.87457437 Ry
     Harris-Foulkes estimate   =   -2194.87457437 Ry
     estimated scf accuracy    <       0.00000001 Ry

     iteration # 19     ecut=    40.00 Ry     beta=0.70
     Davidson diagonalization with overlap
     ethr =  4.04E-12,  avg # of iterations =  1.0

     negative rho (up, down):  0.574E+00 0.000E+00

     End of self-consistent calculation
 --- enter write_ns ---
 LDA+U parameters:
U( 2)     =  3.50000000
alpha( 2) =  0.00000000
atom    3   Tr[ns(na)] =   7.22342
    eigenvalues:
  0.515  0.561  0.709  0.852  0.974
    eigenvectors:
  0.001  0.181  0.005  0.000  0.812
  0.996  0.004  0.000  0.000  0.000
  0.000  0.001  0.962  0.028  0.009
  0.003  0.814  0.005  0.000  0.178
  0.000  0.000  0.028  0.972  0.000
    occupations:
  0.897 -0.005  0.025 -0.158 -0.003
 -0.005  0.515 -0.001 -0.001 -0.002
  0.025 -0.001  0.716 -0.006  0.023
 -0.158 -0.001 -0.006  0.636  0.000
 -0.003 -0.002  0.023  0.000  0.848
atom    4   Tr[ns(na)] =   7.21830
    eigenvalues:
  0.554  0.604  0.662  0.810  0.980
    eigenvectors:
  0.001  0.987  0.000  0.000  0.012
  0.000  0.000  0.015  0.984  0.000
  0.000  0.000  0.984  0.015  0.000
  0.000  0.012  0.000  0.000  0.988
  0.999  0.001  0.000  0.000  0.000
    occupations:
  0.608 -0.001  0.001  0.041  0.001
 -0.001  0.808  0.018 -0.001 -0.001
  0.001  0.018  0.664  0.001  0.000
  0.041 -0.001  0.001  0.975  0.000
  0.001 -0.001  0.000  0.000  0.554
atom    9   Tr[ns(na)] =   7.21840
    eigenvalues:
  0.573  0.595  0.776  0.827  0.838
    eigenvectors:
  0.000  0.159  0.005  0.612  0.224
  0.996  0.003  0.000  0.000  0.000
  0.000  0.001  0.990  0.003  0.006
  0.004  0.837  0.003  0.114  0.042
  0.000  0.000  0.001  0.271  0.728
    occupations:
  0.792 -0.004 -0.006 -0.085  0.004
 -0.004  0.573  0.001  0.003  0.001
 -0.006  0.001  0.777 -0.002 -0.003
 -0.085  0.003 -0.002  0.632 -0.002
  0.004  0.001 -0.003 -0.002  0.835
atom   10   Tr[ns(na)] =   7.24357
    eigenvalues:
  0.531  0.535  0.725  0.857  0.974
    eigenvectors:
  0.986  0.000  0.000  0.000  0.014
  0.000  0.000  0.000  1.000  0.000
  0.000  0.000  1.000  0.000  0.000
  0.014  0.000  0.000  0.000  0.986
  0.000  0.999  0.000  0.000  0.000
    occupations:
  0.537  0.000  0.002  0.051  0.000
  0.000  0.856  0.001  0.000 -0.007
  0.002  0.001  0.725 -0.001  0.000
  0.051  0.000 -0.001  0.968 -0.000
  0.000 -0.007  0.000 -0.000  0.535
atom   16   Tr[ns(na)] =   7.22297
    eigenvalues:
  0.515  0.562  0.708  0.853  0.974
    eigenvectors:
  0.001  0.181  0.005  0.000  0.813
  0.996  0.004  0.000  0.000  0.000
  0.000  0.001  0.963  0.026  0.010
  0.003  0.814  0.005  0.000  0.178
  0.000  0.000  0.026  0.974  0.000
    occupations:
  0.897  0.005  0.025 -0.157  0.003
  0.005  0.515  0.002  0.001 -0.002
  0.025  0.002  0.714 -0.006 -0.023
 -0.157  0.001 -0.006  0.636 -0.001
  0.003 -0.002 -0.023 -0.001  0.849
atom   17   Tr[ns(na)] =   7.21568
    eigenvalues:
  0.553  0.605  0.668  0.803  0.979
    eigenvectors:
  0.001  0.987  0.000  0.000  0.012
  0.000  0.000  0.019  0.981  0.000
  0.000  0.000  0.981  0.019  0.000
  0.000  0.012  0.000  0.000  0.988
  0.999  0.001  0.000  0.000  0.000
    occupations:
  0.609 -0.000  0.000  0.041  0.001
 -0.000  0.800  0.018 -0.001 -0.001
  0.000  0.018  0.670  0.002  0.000
  0.041 -0.001  0.002  0.975  0.000
  0.001 -0.001  0.000  0.000  0.553
atom   22   Tr[ns(na)] =   7.21752
    eigenvalues:
  0.574  0.595  0.779  0.826  0.836
    eigenvectors:
  0.000  0.160  0.002  0.801  0.038
  0.999  0.001  0.000  0.000  0.000
  0.000  0.000  0.992  0.005  0.003
  0.001  0.839  0.002  0.151  0.007
  0.000  0.000  0.004  0.043  0.953
    occupations:
  0.789  0.004 -0.004 -0.084  0.002
  0.004  0.574  0.001 -0.003  0.000
 -0.004  0.001  0.779 -0.002  0.004
 -0.084 -0.003 -0.002  0.632 -0.001
  0.002  0.000  0.004 -0.001  0.835
atom   23   Tr[ns(na)] =   7.25022
    eigenvalues:
  0.546  0.586  0.707  0.826  0.960
    eigenvectors:
  0.000  0.996  0.000  0.001  0.003
  0.001  0.000  0.999  0.000  0.000
  0.000  0.001  0.000  0.999  0.000
  0.000  0.003  0.000  0.000  0.997
  0.999  0.000  0.001  0.000  0.000
    occupations:
  0.588  0.000  0.005  0.021  0.000
  0.000  0.707  0.002  0.001 -0.005
  0.005  0.002  0.825 -0.003 -0.000
  0.021  0.001 -0.003  0.959 -0.000
  0.000 -0.005 -0.000 -0.000  0.546
N of occupied +U levels =  57.8100870
 --- exit write_ns ---

[...]

          k = 0.2500-0.4870 0.0000 ( 30468 PWs)   bands (ev):

[...]

          k =-0.2500 0.2435 0.0000 ( 30434 PWs)   bands (ev):

   -73.7221 -73.7092 -73.5570 -73.5475 -73.3961 -73.2345 -73.1853 -73.1771
   -43.8911 -43.8708 -43.8573 -43.7501 -43.6863 -43.6778 -43.6764 -43.6517
   -43.6437 -43.6272 -43.5267 -43.4876 -43.4343 -43.3999 -43.3962 -43.3583
   -43.3137 -43.1457 -43.1245 -43.0881 -43.0762 -43.0605 -43.0120 -42.9891
   -23.3595 -20.3934 -20.0059 -19.8893 -19.8359 -19.6400 -19.4561 -19.3754
   -19.2338 -19.2075 -19.1916 -19.0657 -18.9163 -18.8638 -18.8378 -18.7993
   -18.6794 -18.6349 -18.4729 -17.0484  -8.8602  -8.6275  -8.3138  -8.2971
    -8.1709  -8.0020  -7.9814  -7.6673  -7.6161  -7.3957  -7.3632  -7.2822
    -7.2349  -7.1250  -7.0730  -6.9981  -6.9763  -6.9205  -6.8423  -6.5632
    -6.4544  -6.3329  -6.0805  -6.0150  -5.8790  -5.7991  -5.6242  -5.5044
    -5.4497  -5.2700  -5.1846  -5.1111  -5.0141  -4.9298  -4.9084  -4.8099
    -4.6759  -4.6294  -4.6014  -4.4578  -4.4346  -4.3625  -4.3345  -4.1569
    -4.0487  -3.8143  -3.7179  -3.6699  -3.5819  -3.5233  -3.4342  -3.3854
    -3.1748  -3.0818  -3.0455  -2.7543  -2.6777  -2.4080  -2.2176  -2.0767
    -1.8509  -1.7522  -1.7381  -1.6501  -1.5814  -1.5268  -1.4921  -1.4092
    -1.3581  -1.2872  -1.1856  -1.1154  -0.9532  -0.7292  -0.6358  -0.4220
    -0.2649  -0.1725   0.0359   0.1499   0.2324   0.3424   0.5561   1.4648
     2.0900   2.2142   2.3369   2.3864   2.8982   3.1718   3.2502   3.4471
     3.6630   3.7569   3.8588   3.9240   4.0089   4.0612   4.2087   4.3038
     4.3432   4.6263   4.7551   5.2073   5.6347   5.7804   6.0564   6.1032
     6.1631   6.4946   6.5392   6.6972   6.9261   7.0815   7.1342   7.4559
     7.6154   7.7249   7.9362   8.0921   8.1470   8.3792   8.4334   8.5752
     8.6871   8.8003   8.9542   9.0513   9.1087   9.2758   9.4025   9.4493
     9.6139   9.6947   9.7754   9.8631  10.0628  10.0865  10.1832  10.2819
    10.3187  10.4209  10.5141  10.6230  10.6822  10.7561  10.8489  10.9730
    11.0315  11.1711  11.2654  11.3883  11.4080  11.5633  11.6246  11.7140
    11.8233  11.8860  11.9831  12.0394  12.0797  12.1489  12.2333  12.2582
    12.3792  12.4458  12.5173  12.6272  12.7562  12.7730  12.8455  12.8950
    12.9563  13.0064  13.1244  13.2400  13.3015  13.3691  13.4128  13.4829
    13.5772  13.7007  13.8229  13.8626  13.9395  13.9902  14.0535  14.1719
    14.2713  14.3208  14.4536  14.5031  14.6008  14.6919  14.7566  14.8221
    14.9027  14.9728  15.0684  15.1582  15.2299  15.2754  15.3488  15.3904
    15.4911  15.5220  15.5977  15.6650  15.6953  15.8166  15.8612  15.9234
    15.9451  16.0402  16.0893  16.1243  16.1885  16.2322  16.2705  16.3063
    16.3965  16.4617  16.5655  16.6263  16.7041  16.7630  16.7921  16.9129
    16.9476  16.9993  17.0618  17.1610  17.2673  17.3399  17.3866  17.4595
    17.5176  17.5531  17.5994  17.6952  17.7692  17.8112  17.8632  17.8956
    17.9843  18.0403  18.0684  18.1258  18.2097  18.2841  18.3137  18.4060
    18.4420  18.5081  18.6205  18.7237  18.7836  18.8645  18.8772  18.9653
    19.0453  19.1270  19.2154  19.2643  19.3099  19.4095  19.5038  19.6112
    19.6650  19.7278  19.8044  19.8656  19.9062  19.9701  20.0405  20.1664
    20.2364  20.3002  20.3421  20.5046  20.5765  20.6080  20.6520  20.7463
    20.8913  20.9360  20.9640  21.0384  21.0692  21.1293  21.1938  21.2561
    21.3126  21.3635  21.4295  21.4963  21.5284  21.5849  21.6008  21.6913
    21.7643  21.8349  21.9197  21.9321  21.9538  22.0693  22.1054  22.1470
    22.2175  22.3252  22.3679  22.4339  22.4693  22.5282  22.6460

     the Fermi energy is    -0.6200 ev

!    total energy              =   -2194.87457437 Ry
     Harris-Foulkes estimate   =   -2194.87457437 Ry
     estimated scf accuracy    <          4.6E-09 Ry

     The total energy is the sum of the following terms:

     one-electron contribution =  -25667.12826531 Ry
     hartree contribution      =   12864.19804826 Ry
     xc contribution           =    -345.66114770 Ry
     ewald contribution        =   10951.89642849 Ry
     Hubbard energy            =       1.82125387 Ry
     smearing contrib. (-TS)   =      -0.00089197 Ry

     convergence has been achieved in  19 iterations

     Forces acting on atoms (Ry/au):

     negative rho (up, down):  0.574E+00 0.000E+00
     atom    1 type  1   force =    -0.00339581   -0.00797393    0.00016411
     atom    2 type  1   force =    -0.00033897    0.00443778   -0.00050578
     atom    3 type  2   force =     0.03454477    0.00225012   -0.00063105
     atom    4 type  2   force =     0.00244147    0.00468602    0.00056224
     atom    5 type  1   force =     0.00111877   -0.03450663    0.00022532
     atom    6 type  1   force =     0.00310103    0.03593986    0.00001179
     atom    7 type  1   force =     0.00019966   -0.00579623    0.00081063
     atom    8 type  1   force =    -0.00016592    0.00067274    0.00093830
     atom    9 type  2   force =    -0.01479513    0.00009417    0.00035195
     atom   10 type  2   force =     0.00005225    0.00202020   -0.00010855
     atom   11 type  1   force =    -0.01011912    0.01931801   -0.00019138
     atom   12 type  1   force =    -0.00327207   -0.01569341    0.00046483
     atom   13 type  1   force =    -0.00201072   -0.00220693   -0.00078695
     atom   14 type  1   force =    -0.00460408   -0.00915461   -0.00010016
     atom   15 type  1   force =    -0.00018688    0.00379521   -0.00074878
     atom   16 type  2   force =    -0.03523239    0.00226438   -0.00060498
     atom   17 type  2   force =     0.00233975    0.00494634    0.00028911
     atom   18 type  1   force =    -0.00016858   -0.03464058    0.00011474
     atom   19 type  1   force =     0.00142101    0.03619138    0.00007799
     atom   20 type  1   force =     0.00013918   -0.00481490   -0.00006078
     atom   21 type  1   force =     0.00048957    0.00061437    0.00080408
     atom   22 type  2   force =     0.01674728   -0.00123228    0.00038231
     atom   23 type  2   force =     0.00026136    0.00078958    0.00021674
     atom   24 type  1   force =     0.01012092    0.01957468   -0.00017657
     atom   25 type  1   force =     0.00306864   -0.01548965    0.00022557
     atom   26 type  1   force =    -0.00146679   -0.00684500   -0.00089607
     atom   27 type  3   force =     0.00002538   -0.00010565   -0.00028035
     atom   28 type  3   force =     0.00003071    0.00041573   -0.00010592
     atom   29 type  3   force =    -0.00021056   -0.00009005   -0.00084850
     atom   30 type  3   force =    -0.00002642    0.00001047   -0.00051567
     atom   31 type  1   force =     0.00021682   -0.00010395    0.00009355
     atom   32 type  1   force =    -0.00034272    0.00035426    0.00057152
     atom   33 type  3   force =     0.00001760    0.00027847    0.00025670

     Total force =     0.002908     Total SCF correction =     0.000091

     entering subroutine stress ...

     negative rho (up, down):  0.574E+00 0.000E+00
          total   stress  (Ry/bohr**3)                   (kbar)     P=   -6.55
  -0.00004512   0.00000342   0.00000217         -6.64      0.50      0.32
   0.00000342  -0.00005231   0.00000103          0.50     -7.69      0.15
   0.00000217   0.00000103  -0.00003624          0.32      0.15     -5.33

     bfgs converged in  15 scf cycles and  14 bfgs steps
     (criteria: energy < 0.10E-03, force < 0.10E-02)

     End of BFGS Geometry Optimization

     Final energy   =   -2194.8745743656 Ry
Begin final coordinates

ATOMIC_POSITIONS (crystal)
O0       0.000000000   0.000000000   0.379085507    0   0   1
O0       0.000000000   0.500000000   0.404988139    0   0   1
Ru1      0.250000000   0.500000000   0.454580453    0   0   1
Ru1      0.000000000   0.000000000   0.452644708    0   0   1
O0       0.250000000   0.810000000   0.452832134    0   0   1
O0       0.250000000   0.190000000   0.452803269    0   0   1
O0       0.000000000   0.500000000   0.499892138    0   0   1
O0       0.000000000   0.000000000   0.525478343    0   0   1
Ru1      0.250000000   0.000000000   0.576131054    0   0   1
Ru1      0.000000000   0.500000000   0.569592864    0   0   1
O0       0.250000000   0.690000000   0.574649909    0   0   1
O0       0.250000000   0.310000000   0.576675882    0   0   1
O0       0.000000000   0.000000000   0.617999897    0   0   1
O0       0.500000000   0.000000000   0.379070766    0   0   1
O0       0.500000000   0.500000000   0.404073801    0   0   1
Ru1      0.750000000   0.500000000   0.454578627    0   0   1
Ru1      0.500000000   0.000000000   0.452720975    0   0   1
O0       0.750000000   0.810000000   0.452842161    0   0   1
O0       0.750000000   0.190000000   0.452808032    0   0   1
O0       0.500000000   0.500000000   0.501428958    0   0   1
O0       0.500000000   0.000000000   0.525588412    0   0   1
Ru1      0.750000000   0.000000000   0.576238204    0   0   1
Ru1      0.500000000   0.500000000   0.577380617    0   0   1
O0       0.750000000   0.690000000   0.574719182    0   0   1
O0       0.750000000   0.310000000   0.576640788    0   0   1
O0       0.500000000   0.000000000   0.615831056    0   0   1
H2      -0.000665378   0.615589358   0.380372318
H2       0.499472088   0.625294033   0.382353295
H2       0.147236598   0.026810519   0.366925045
H2       0.646596510   0.028290951   0.366746584
O0       0.500691505   0.528668204   0.649543569
O0       0.499307702   0.336874390   0.678456309
H2       0.499872106   0.396401109   0.712947003
End final coordinates

     General routines

     Parallel routines
     Hubbard U routines

   This run was terminated on:  20:47:25  31May2014

   JOB DONE.
Running PBS batch system epilogue script
Job id: 373297.audhumbla.fysik.dtu.dk
Username: zhonxu
Groupname: campgst
Jobname: RuO2/Eads-2-layers/OOH-U-3.5
Sessionid: 28739
Queuename: verylong
Accounting:
This job has allocated the following 16 nodes:
c045 c045 c045 c045 c045 c045 c045 c045 c033 c033 c033 c033 c033 c033 c033 c033
Finished epilogue job 373297.audhumbla.fysik.dtu.dk for zhonxu