     Program PWSCF v.5.0.2 (svn rev. 9656) starts on 24Jan2014 at 11: 7:45

     Current dimensions of program PWSCF are:
     Max number of different atomic species (ntypx) = 10
     Max number of k-points (npk) =  40000
     Max angular momentum in pseudopotentials (lmaxx) =  3
     Reading input from MoO2-v-1.05.in

     Subspace diagonalization in iterative solution of the eigenvalue problem:
     a serial algorithm will be used

     bravais-lattice index     =            0
     lattice parameter (alat)  =       8.9885  a.u.
     unit-cell volume          =     467.9997 (a.u.)^3
     number of atoms/cell      =            6
     number of atomic types    =            2
     number of electrons       =        52.00
     number of Kohn-Sham states=           78
     kinetic-energy cutoff     =      40.0000  Ry
     charge density cutoff     =     500.0000  Ry
     convergence threshold     =      1.0E-06
     mixing beta               =       0.3000
     number of iterations used =            8  plain     mixing
     Exchange-correlation      = SLA  PW   PBE  PBE ( 1 4 3 4 0)
     EXX-fraction              =        0.00
     nstep                     =           50

     celldm(1)=   8.988489  celldm(2)=   0.000000  celldm(3)=   0.000000
     celldm(4)=   0.000000  celldm(5)=   0.000000  celldm(6)=   0.000000

     crystal axes: (cart. coord. in units of alat)
               a(1) = (   1.000000   0.000000   0.000000 )
               a(2) = (   0.000000   1.000000   0.000000 )
               a(3) = (   0.000000   0.000000   0.644444 )

     reciprocal axes: (cart. coord. in units 2 pi/alat)
               b(1) = (  1.000000  0.000000  0.000000 )
               b(2) = (  0.000000  1.000000  0.000000 )
               b(3) = (  0.000000  0.000000  1.551724 )

     PseudoPot. # 1 for Mo read from file:
     /home/camp/zhonxu/pseudo/mo_pbe_v1.uspp.F.UPF
     MD5 check sum: 30c4dcd161f5d35cd49bb5239c51a633
     Pseudo is Ultrasoft + core correction, Zval = 14.0
     Generated by new atomic code, or converted to UPF format
     Using radial grid of  889 points,  6 beta functions with:
                l(1) =   0
                l(2) =   0
                l(3) =   1
                l(4) =   1
                l(5) =   2
                l(6) =   2
     Q(r) pseudized with  6 coefficients,  rinner =    1.000   1.000   1.000
                                                       1.000   1.000

     PseudoPot. # 2 for O  read from file:
     /home/camp/zhonxu/pseudo/o_pbe_v1.01.uspp.F.UPF
     MD5 check sum: 2bcb18d16ea4b960afae9ec6d52f22d2
     Pseudo is Ultrasoft + core correction, Zval =  6.0
     Generated by new atomic code, or converted to UPF format
     Using radial grid of  737 points,  5 beta functions with:
                l(1) =   0
                l(2) =   0
                l(3) =   1
                l(4) =   1
                l(5) =   2
     Q(r) pseudized with  8 coefficients,  rinner =    0.900   0.900   0.900
                                                       0.900   0.900

     atomic species   valence    mass     pseudopotential
        Mo0           14.00    95.94000     Mo( 1.00)
        O1             6.00    15.99940     O ( 1.00)

     Starting magnetic structure
     atomic species   magnetization
        Mo0          0.600
        O1           0.000

      8 Sym. Ops., with inversion, found
          (note:  8 additional sym.ops. were found but ignored
           their fractional translations are incommensurate with FFT grid)

   Cartesian axes

     site n.     atom                  positions (alat units)
         1           Mo0 tau(   1) = (   0.0000000   0.0000000   0.0000000  )
         2           Mo0 tau(   2) = (   0.5000000   0.5000000   0.3222222  )
         3           O1  tau(   3) = (   0.3050000   0.3050000   0.0000000  )
         4           O1  tau(   4) = (  -0.3050000  -0.3050000   0.0000000  )
         5           O1  tau(   5) = (   0.8050000   0.1950000   0.3222222  )
         6           O1  tau(   6) = (   0.1950000   0.8050000   0.3222222  )

     number of k points=    54  Methfessel-Paxton smearing, width (Ry)=  0.0100
                       cart. coord. in units 2pi/alat
        k(    1) = (   0.0000000   0.0000000   0.0000000), wk =   0.0080000
        k(    2) = (   0.0000000   0.0000000   0.3103448), wk =   0.0160000
        k(    3) = (   0.0000000   0.0000000   0.6206897), wk =   0.0160000
        k(    4) = (   0.0000000   0.2000000   0.0000000), wk =   0.0320000
        k(    5) = (   0.0000000   0.2000000   0.3103448), wk =   0.0640000
        k(    6) = (   0.0000000   0.2000000   0.6206897), wk =   0.0640000
        k(    7) = (   0.0000000   0.4000000   0.0000000), wk =   0.0320000
        k(    8) = (   0.0000000   0.4000000   0.3103448), wk =   0.0640000
        k(    9) = (   0.0000000   0.4000000   0.6206897), wk =   0.0640000
        k(   10) = (   0.2000000   0.2000000   0.0000000), wk =   0.0160000
        k(   11) = (   0.2000000   0.2000000   0.3103448), wk =   0.0320000
        k(   12) = (   0.2000000   0.2000000   0.6206897), wk =   0.0320000
        k(   13) = (   0.2000000   0.4000000   0.0000000), wk =   0.0320000
        k(   14) = (   0.2000000   0.4000000   0.3103448), wk =   0.0640000
        k(   15) = (   0.2000000   0.4000000   0.6206897), wk =   0.0640000
        k(   16) = (   0.4000000   0.4000000   0.0000000), wk =   0.0160000
        k(   17) = (   0.4000000   0.4000000   0.3103448), wk =   0.0320000
        k(   18) = (   0.4000000   0.4000000   0.6206897), wk =   0.0320000
        k(   19) = (  -0.2000000   0.2000000   0.0000000), wk =   0.0160000
        k(   20) = (  -0.2000000   0.2000000  -0.3103448), wk =   0.0320000
        k(   21) = (  -0.2000000   0.2000000  -0.6206897), wk =   0.0320000
        k(   22) = (  -0.2000000   0.4000000   0.0000000), wk =   0.0320000
        k(   23) = (  -0.2000000   0.4000000  -0.3103448), wk =   0.0640000
        k(   24) = (  -0.2000000   0.4000000  -0.6206897), wk =   0.0640000
        k(   25) = (  -0.4000000   0.4000000   0.0000000), wk =   0.0160000
        k(   26) = (  -0.4000000   0.4000000  -0.3103448), wk =   0.0320000
        k(   27) = (  -0.4000000   0.4000000  -0.6206897), wk =   0.0320000
        k(   28) = (   0.0000000   0.0000000   0.0000000), wk =   0.0080000
        k(   29) = (   0.0000000   0.0000000   0.3103448), wk =   0.0160000
        k(   30) = (   0.0000000   0.0000000   0.6206897), wk =   0.0160000
        k(   31) = (   0.0000000   0.2000000   0.0000000), wk =   0.0320000
        k(   32) = (   0.0000000   0.2000000   0.3103448), wk =   0.0640000
        k(   33) = (   0.0000000   0.2000000   0.6206897), wk =   0.0640000
        k(   34) = (   0.0000000   0.4000000   0.0000000), wk =   0.0320000
        k(   35) = (   0.0000000   0.4000000   0.3103448), wk =   0.0640000
        k(   36) = (   0.0000000   0.4000000   0.6206897), wk =   0.0640000
        k(   37) = (   0.2000000   0.2000000   0.0000000), wk =   0.0160000
        k(   38) = (   0.2000000   0.2000000   0.3103448), wk =   0.0320000
        k(   39) = (   0.2000000   0.2000000   0.6206897), wk =   0.0320000
        k(   40) = (   0.2000000   0.4000000   0.0000000), wk =   0.0320000
        k(   41) = (   0.2000000   0.4000000   0.3103448), wk =   0.0640000
        k(   42) = (   0.2000000   0.4000000   0.6206897), wk =   0.0640000
        k(   43) = (   0.4000000   0.4000000   0.0000000), wk =   0.0160000
        k(   44) = (   0.4000000   0.4000000   0.3103448), wk =   0.0320000
        k(   45) = (   0.4000000   0.4000000   0.6206897), wk =   0.0320000
        k(   46) = (  -0.2000000   0.2000000   0.0000000), wk =   0.0160000
        k(   47) = (  -0.2000000   0.2000000  -0.3103448), wk =   0.0320000
        k(   48) = (  -0.2000000   0.2000000  -0.6206897), wk =   0.0320000
        k(   49) = (  -0.2000000   0.4000000   0.0000000), wk =   0.0320000
        k(   50) = (  -0.2000000   0.4000000  -0.3103448), wk =   0.0640000
        k(   51) = (  -0.2000000   0.4000000  -0.6206897), wk =   0.0640000
        k(   52) = (  -0.4000000   0.4000000   0.0000000), wk =   0.0160000
        k(   53) = (  -0.4000000   0.4000000  -0.3103448), wk =   0.0320000
        k(   54) = (  -0.4000000   0.4000000  -0.6206897), wk =   0.0320000

     Largest allocated arrays     est. size (Mb)     dimensions
     Largest temporary arrays     est. size (Mb)     dimensions

     Check: negative/imaginary core charge=   -0.000007    0.000000

     Initial potential from superposition of free atoms

     starting charge   51.99787, renormalised to   52.00000
     Starting wfc are   42 randomized atomic wfcs

     Self-consistent Calculation

     iteration #  1     ecut=    40.00 Ry     beta=0.30
     Davidson diagonalization with overlap
     ethr =  1.00E-02,  avg # of iterations =  5.2

     negative rho (up, down):  0.000E+00 0.170E-03

     total energy              =    -406.90169219 Ry
     Harris-Foulkes estimate   =    -407.13035545 Ry
     estimated scf accuracy    <       2.51419410 Ry

     total magnetization       =     4.00 Bohr mag/cell
     absolute magnetization    =     5.04 Bohr mag/cell

[...]

     End of self-consistent calculation

 ------ SPIN UP ------------

          k = 0.0000 0.0000 0.0000 (  1967 PWs)   bands (ev):

   -49.9597 -49.9477 -24.1193 -24.1192 -24.0759 -24.0408 -23.9690 -23.9689
    -7.7224  -6.9802  -5.9805  -5.9805   4.1341   4.1605   5.2733   5.7951
     5.7952   7.8490   7.8490   8.3150   9.2634   9.4597   9.4597  10.0207
    11.3003  11.6880  12.0794  12.0797  12.1548  14.9007  15.0887  17.0210
    17.8536  17.8538  19.1152  21.0252  21.0252  24.4183  26.1390  26.2391
    27.1191  28.1482  28.3830  28.3831  30.7234  31.2834  32.0240  32.0240
    32.9619  32.9620  34.3978  37.4049  37.4050  37.4750  38.2045  38.6288
    40.1342  40.9252  41.1139  41.1139  41.3244  41.3737  41.6264  41.6264
    42.3939  43.2508  43.2509  44.5167  45.4721  47.4675  47.4676  47.9420
    47.9421  48.7661  48.7662  49.0825  49.5975  50.1952

[...]

          k =-0.2000 0.2000 0.0000 (  1997 PWs)   bands (ev):

[...]

 ------ SPIN DOWN ----------

[...]

     the Fermi energy is    12.8962 ev

!    total energy              =    -407.76754098 Ry
     Harris-Foulkes estimate   =    -407.76754092 Ry
     estimated scf accuracy    <       0.00000079 Ry

     The total energy is the sum of the following terms:

     one-electron contribution =    -117.87201006 Ry
     hartree contribution      =      86.95174118 Ry
     xc contribution           =     -67.38733615 Ry
     ewald contribution        =    -309.45998317 Ry
     smearing contrib. (-TS)   =       0.00004722 Ry

[...]

     convergence has been achieved in  27 iterations

     Forces acting on atoms (Ry/au):

     negative rho (up, down):  0.000E+00 0.566E-03
     atom    1 type  1   force =     0.00000000    0.00000000    0.00000000
     atom    2 type  1   force =     0.00000000    0.00000000    0.00000000
     atom    3 type  2   force =    -0.02231514   -0.02231514   -0.00000000
     atom    4 type  2   force =     0.02231514    0.02231514    0.00000000
[...]
        k(    7) = (  -0.0000001   0.3801807   0.0000000), wk =   0.0320000
        k(    8) = (  -0.0000001   0.3801807   0.3435456), wk =   0.0640000
        k(    9) = (  -0.0000001   0.3801807   0.6870911), wk =   0.0640000
        k(   10) = (   0.1900903   0.1900903   0.0000000), wk =   0.0160000
        k(   11) = (   0.1900903   0.1900903   0.3435456), wk =   0.0320000
        k(   12) = (   0.1900903   0.1900903   0.6870911), wk =   0.0320000
        k(   13) = (   0.1900903   0.3801807   0.0000000), wk =   0.0320000
        k(   14) = (   0.1900903   0.3801807   0.3435456), wk =   0.0640000
        k(   15) = (   0.1900903   0.3801807   0.6870911), wk =   0.0640000
        k(   16) = (   0.3801807   0.3801807   0.0000000), wk =   0.0160000
        k(   17) = (   0.3801807   0.3801807   0.3435456), wk =   0.0320000
        k(   18) = (   0.3801807   0.3801807   0.6870911), wk =   0.0320000
        k(   19) = (  -0.1900904   0.1900904   0.0000000), wk =   0.0160000
        k(   20) = (  -0.1900904   0.1900904  -0.3435456), wk =   0.0320000
        k(   21) = (  -0.1900904   0.1900904  -0.6870911), wk =   0.0320000
        k(   22) = (  -0.1900904   0.3801807   0.0000000), wk =   0.0320000
        k(   23) = (  -0.1900904   0.3801807  -0.3435456), wk =   0.0640000
        k(   24) = (  -0.1900904   0.3801807  -0.6870911), wk =   0.0640000
        k(   25) = (  -0.3801808   0.3801808   0.0000000), wk =   0.0160000
        k(   26) = (  -0.3801808   0.3801808  -0.3435456), wk =   0.0320000
        k(   27) = (  -0.3801808   0.3801808  -0.6870911), wk =   0.0320000
        k(   28) = (   0.0000000   0.0000000   0.0000000), wk =   0.0080000
        k(   29) = (   0.0000000   0.0000000   0.3435456), wk =   0.0160000
        k(   30) = (   0.0000000   0.0000000   0.6870911), wk =   0.0160000
        k(   31) = (  -0.0000000   0.1900904   0.0000000), wk =   0.0320000
        k(   32) = (  -0.0000000   0.1900904   0.3435456), wk =   0.0640000
        k(   33) = (  -0.0000000   0.1900904   0.6870911), wk =   0.0640000
        k(   34) = (  -0.0000001   0.3801807   0.0000000), wk =   0.0320000
        k(   35) = (  -0.0000001   0.3801807   0.3435456), wk =   0.0640000
        k(   36) = (  -0.0000001   0.3801807   0.6870911), wk =   0.0640000
        k(   37) = (   0.1900903   0.1900903   0.0000000), wk =   0.0160000
        k(   38) = (   0.1900903   0.1900903   0.3435456), wk =   0.0320000
        k(   39) = (   0.1900903   0.1900903   0.6870911), wk =   0.0320000
        k(   40) = (   0.1900903   0.3801807   0.0000000), wk =   0.0320000
        k(   41) = (   0.1900903   0.3801807   0.3435456), wk =   0.0640000
        k(   42) = (   0.1900903   0.3801807   0.6870911), wk =   0.0640000
        k(   43) = (   0.3801807   0.3801807   0.0000000), wk =   0.0160000
        k(   44) = (   0.3801807   0.3801807   0.3435456), wk =   0.0320000
        k(   45) = (   0.3801807   0.3801807   0.6870911), wk =   0.0320000
        k(   46) = (  -0.1900904   0.1900904   0.0000000), wk =   0.0160000
        k(   47) = (  -0.1900904   0.1900904  -0.3435456), wk =   0.0320000
        k(   48) = (  -0.1900904   0.1900904  -0.6870911), wk =   0.0320000
        k(   49) = (  -0.1900904   0.3801807   0.0000000), wk =   0.0320000
        k(   50) = (  -0.1900904   0.3801807  -0.3435456), wk =   0.0640000
        k(   51) = (  -0.1900904   0.3801807  -0.6870911), wk =   0.0640000
        k(   52) = (  -0.3801808   0.3801808   0.0000000), wk =   0.0160000
        k(   53) = (  -0.3801808   0.3801808  -0.3435456), wk =   0.0320000
        k(   54) = (  -0.3801808   0.3801808  -0.6870911), wk =   0.0320000

[...]

     Threshold (ethr) on eigenvalues was too large:
     Diagonalizing with lowered threshold

     Davidson diagonalization with overlap
     ethr =  6.57E-09,  avg # of iterations =  2.0

[...]

     Total force =     0.000044     Total SCF correction =     0.000043
     SCF correction compared to forces is large: reduce conv_thr to get better values

[...]

     Volume is kept fixed: isostatic pressure set to zero

     bfgs converged in  11 scf cycles and  10 bfgs steps
     (criteria: energy < 0.10E-03, force < 0.10E-02, cell < 0.50E+00)

     End of BFGS Geometry Optimization

     Final enthalpy =    -407.8268534266 Ry
Begin final coordinates
     new unit-cell volume =    467.99970 a.u.^3 (    69.35040 Ang^3 )

CELL_PARAMETERS (alat=  8.98848913)
   1.052131230   0.000000161   0.000000000
   0.000000161   1.052131230   0.000000000
   0.000000000   0.000000000   0.582164422

ATOMIC_POSITIONS (crystal)
Mo0      0.000000000   0.000000000   0.000000000    0   0   0
Mo0      0.500000000   0.500000000   0.500000000    0   0   0
O1       0.281977929   0.281977929   0.000000000    1   1   0
O1      -0.281977929  -0.281977929   0.000000000    1   1   0
O1       0.781977491   0.218022509   0.500000000    1   1   0
O1       0.218022509   0.781977491   0.500000000    1   1   0
End final coordinates

     A final scf calculation at the relaxed structure.
     The G-vectors are recalculated for the final unit cell
     Results may differ from those at the preceding step.

     bravais-lattice index     =            0
     lattice parameter (alat)  =       8.9885  a.u.
     unit-cell volume          =     467.9997 (a.u.)^3
     number of atoms/cell      =            6
     number of atomic types    =            2
     number of electrons       =        52.00
     number of Kohn-Sham states=           78
     kinetic-energy cutoff     =      40.0000  Ry
     charge density cutoff     =     500.0000  Ry
     convergence threshold     =      1.0E-08
     mixing beta               =       0.3000
     number of iterations used =            8  plain     mixing
     Exchange-correlation      = SLA  PW   PBE  PBE ( 1 4 3 4 0)
     EXX-fraction              =        0.00

     celldm(1)=   8.988489  celldm(2)=   0.000000  celldm(3)=   0.000000
     celldm(4)=   0.000000  celldm(5)=   0.000000  celldm(6)=   0.000000

     crystal axes: (cart. coord. in units of alat)
               a(1) = (   1.052131   0.000000   0.000000 )
               a(2) = (   0.000000   1.052131   0.000000 )
               a(3) = (   0.000000   0.000000   0.582164 )

     reciprocal axes: (cart. coord. in units 2 pi/alat)
               b(1) = (  0.950452 -0.000000  0.000000 )
               b(2) = ( -0.000000  0.950452  0.000000 )
               b(3) = (  0.000000  0.000000  1.717728 )

     PseudoPot. # 1 for Mo read from file:
     /home/camp/zhonxu/pseudo/mo_pbe_v1.uspp.F.UPF
     MD5 check sum: 30c4dcd161f5d35cd49bb5239c51a633
     Pseudo is Ultrasoft + core correction, Zval = 14.0
     Generated by new atomic code, or converted to UPF format
     Using radial grid of  889 points,  6 beta functions with:
                l(1) =   0
                l(2) =   0
                l(3) =   1
                l(4) =   1
                l(5) =   2
                l(6) =   2
     Q(r) pseudized with  6 coefficients,  rinner =    1.000   1.000   1.000
                                                       1.000   1.000

     PseudoPot. # 2 for O  read from file:
     /home/camp/zhonxu/pseudo/o_pbe_v1.01.uspp.F.UPF
     MD5 check sum: 2bcb18d16ea4b960afae9ec6d52f22d2
     Pseudo is Ultrasoft + core correction, Zval =  6.0
     Generated by new atomic code, or converted to UPF format
     Using radial grid of  737 points,  5 beta functions with:
                l(1) =   0
                l(2) =   0
                l(3) =   1
                l(4) =   1
                l(5) =   2
     Q(r) pseudized with  8 coefficients,  rinner =    0.900   0.900   0.900
                                                       0.900   0.900

     atomic species   valence    mass     pseudopotential
        Mo0           14.00    95.94000     Mo( 1.00)
        O1             6.00    15.99940     O ( 1.00)

     Starting magnetic structure
     atomic species   magnetization
        Mo0          0.600
        O1           0.000

      8 Sym. Ops., with inversion, found
          (note:  8 additional sym.ops. were found but ignored
           their fractional translations are incommensurate with FFT grid)

   Cartesian axes

     site n.     atom                  positions (alat units)
         1           Mo0 tau(   1) = (   0.0000000   0.0000000   0.0000000  )
         2           Mo0 tau(   2) = (   0.5260657   0.5260657   0.2910822  )
         3           O1  tau(   3) = (   0.2966778   0.2966778   0.0000000  )
         4           O1  tau(   4) = (  -0.2966778  -0.2966778   0.0000000  )
         5           O1  tau(   5) = (   0.8227430   0.2293884   0.2910822  )
         6           O1  tau(   6) = (   0.2293884   0.8227430   0.2910822  )

     number of k points=    54  Methfessel-Paxton smearing, width (Ry)=  0.0100
                       cart. coord. in units 2pi/alat
        k(    1) = (   0.0000000   0.0000000   0.0000000), wk =   0.0080000
        k(    2) = (   0.0000000   0.0000000   0.3435456), wk =   0.0160000
        k(    3) = (   0.0000000   0.0000000   0.6870911), wk =   0.0160000
        k(    4) = (  -0.0000000   0.1900904   0.0000000), wk =   0.0320000
        k(    5) = (  -0.0000000   0.1900904   0.3435456), wk =   0.0640000
        k(    6) = (  -0.0000000   0.1900904   0.6870911), wk =   0.0640000
        k(    7) = (  -0.0000001   0.3801807   0.0000000), wk =   0.0320000
        k(    8) = (  -0.0000001   0.3801807   0.3435456), wk =   0.0640000
        k(    9) = (  -0.0000001   0.3801807   0.6870911), wk =   0.0640000
        k(   10) = (   0.1900903   0.1900903   0.0000000), wk =   0.0160000
        k(   11) = (   0.1900903   0.1900903   0.3435456), wk =   0.0320000
        k(   12) = (   0.1900903   0.1900903   0.6870911), wk =   0.0320000
        k(   13) = (   0.1900903   0.3801807   0.0000000), wk =   0.0320000
        k(   14) = (   0.1900903   0.3801807   0.3435456), wk =   0.0640000
        k(   15) = (   0.1900903   0.3801807   0.6870911), wk =   0.0640000
        k(   16) = (   0.3801807   0.3801807   0.0000000), wk =   0.0160000
        k(   17) = (   0.3801807   0.3801807   0.3435456), wk =   0.0320000
        k(   18) = (   0.3801807   0.3801807   0.6870911), wk =   0.0320000
        k(   19) = (  -0.1900904   0.1900904   0.0000000), wk =   0.0160000
        k(   20) = (  -0.1900904   0.1900904  -0.3435456), wk =   0.0320000
        k(   21) = (  -0.1900904   0.1900904  -0.6870911), wk =   0.0320000
        k(   22) = (  -0.1900904   0.3801807   0.0000000), wk =   0.0320000
        k(   23) = (  -0.1900904   0.3801807  -0.3435456), wk =   0.0640000
        k(   24) = (  -0.1900904   0.3801807  -0.6870911), wk =   0.0640000
        k(   25) = (  -0.3801808   0.3801808   0.0000000), wk =   0.0160000
        k(   26) = (  -0.3801808   0.3801808  -0.3435456), wk =   0.0320000
        k(   27) = (  -0.3801808   0.3801808  -0.6870911), wk =   0.0320000
        k(   28) = (   0.0000000   0.0000000   0.0000000), wk =   0.0080000
        k(   29) = (   0.0000000   0.0000000   0.3435456), wk =   0.0160000
        k(   30) = (   0.0000000   0.0000000   0.6870911), wk =   0.0160000
        k(   31) = (  -0.0000000   0.1900904   0.0000000), wk =   0.0320000
        k(   32) = (  -0.0000000   0.1900904   0.3435456), wk =   0.0640000
        k(   33) = (  -0.0000000   0.1900904   0.6870911), wk =   0.0640000
        k(   34) = (  -0.0000001   0.3801807   0.0000000), wk =   0.0320000
        k(   35) = (  -0.0000001   0.3801807   0.3435456), wk =   0.0640000
        k(   36) = (  -0.0000001   0.3801807   0.6870911), wk =   0.0640000
        k(   37) = (   0.1900903   0.1900903   0.0000000), wk =   0.0160000
        k(   38) = (   0.1900903   0.1900903   0.3435456), wk =   0.0320000
        k(   39) = (   0.1900903   0.1900903   0.6870911), wk =   0.0320000
        k(   40) = (   0.1900903   0.3801807   0.0000000), wk =   0.0320000
        k(   41) = (   0.1900903   0.3801807   0.3435456), wk =   0.0640000
        k(   42) = (   0.1900903   0.3801807   0.6870911), wk =   0.0640000
        k(   43) = (   0.3801807   0.3801807   0.0000000), wk =   0.0160000
        k(   44) = (   0.3801807   0.3801807   0.3435456), wk =   0.0320000
        k(   45) = (   0.3801807   0.3801807   0.6870911), wk =   0.0320000
        k(   46) = (  -0.1900904   0.1900904   0.0000000), wk =   0.0160000
        k(   47) = (  -0.1900904   0.1900904  -0.3435456), wk =   0.0320000
        k(   48) = (  -0.1900904   0.1900904  -0.6870911), wk =   0.0320000
        k(   49) = (  -0.1900904   0.3801807   0.0000000), wk =   0.0320000
        k(   50) = (  -0.1900904   0.3801807  -0.3435456), wk =   0.0640000
        k(   51) = (  -0.1900904   0.3801807  -0.6870911), wk =   0.0640000
        k(   52) = (  -0.3801808   0.3801808   0.0000000), wk =   0.0160000
        k(   53) = (  -0.3801808   0.3801808  -0.3435456), wk =   0.0320000
        k(   54) = (  -0.3801808   0.3801808  -0.6870911), wk =   0.0320000

     Largest allocated arrays     est. size (Mb)     dimensions
     Largest temporary arrays     est. size (Mb)     dimensions

     Check: negative/imaginary core charge=   -0.000007    0.000000

     Initial potential from superposition of free atoms

     starting charge   51.99787, renormalised to   52.00000
     Starting wfc are   42 randomized atomic wfcs

     Self-consistent Calculation

[...]

     negative rho (up, down):  0.000E+00 0.213E-04

[...]

     total energy              =    -407.82709195 Ry
     Harris-Foulkes estimate   =    -407.82709183 Ry
     estimated scf accuracy    <       0.00000004 Ry

[...]

     iteration # 17     ecut=    40.00 Ry     beta=0.30
     Davidson diagonalization with overlap
     ethr =  7.97E-11,  avg # of iterations =  2.0

     End of self-consistent calculation

 ------ SPIN UP ------------

[...]

 ------ SPIN DOWN ----------

[...]

          k = 0.3802 0.3802 0.6871 (  1990 PWs)   bands (ev):

[...]

          k =-0.3802 0.3802-0.6871 (  1990 PWs)   bands (ev):

   -49.9466 -49.9464 -24.4237 -24.4212 -24.2188 -24.2156 -23.8841 -23.8837
    -6.7380  -6.5415  -6.4004  -6.1847   5.1331   5.4996   5.5836   5.8524
     6.0349   6.5266   6.6373   7.3026   8.2857   8.4590   9.2472   9.3902
    12.0143  12.2662  12.9578  13.3111  14.4231  14.5051  16.0751  16.9548
    17.2393  17.9722  21.6179  22.0593  22.3451  22.5783  25.6378  25.6781
    27.5444  27.6212  28.3147  28.5230  29.4589  29.9348  30.9393  31.4773
    34.1659  34.4730  35.0130  35.2855  37.0315  37.5204  38.8927  39.2183
    40.0039  40.3279  41.0681  41.9244  41.9392  42.4419  42.5522  43.4407
    43.7616  43.8667  43.9949  44.7011  45.0257  45.2166  45.8162  45.9780
    47.3575  48.4594  51.0658  51.1412  51.6150  51.8329

     the Fermi energy is    12.2983 ev

!    total energy              =    -407.82709214 Ry
     Harris-Foulkes estimate   =    -407.82709207 Ry
     estimated scf accuracy    <          7.5E-09 Ry

     The total energy is the sum of the following terms:

     one-electron contribution =    -120.68763064 Ry
     hartree contribution      =      87.88659655 Ry
     xc contribution           =     -67.22525659 Ry
     ewald contribution        =    -307.80080139 Ry
     smearing contrib. (-TS)   =      -0.00000007 Ry

     total magnetization       =     0.00 Bohr mag/cell
     absolute magnetization    =     0.00 Bohr mag/cell

     convergence has been achieved in  17 iterations

     Forces acting on atoms (Ry/au):

     atom    1 type  1   force =     0.00000000    0.00000000    0.00000000
     atom    2 type  1   force =     0.00000000    0.00000000    0.00000000
     atom    3 type  2   force =    -0.00009385   -0.00009385    0.00000000
     atom    4 type  2   force =     0.00009385    0.00009385   -0.00000000
     atom    5 type  2   force =    -0.00009056    0.00009056    0.00000000
     atom    6 type  2   force =     0.00009056   -0.00009056    0.00000000

     Total force =     0.000261     Total SCF correction =     0.000012

     entering subroutine stress ...

          total   stress  (Ry/bohr**3)                   (kbar)     P= -108.68
  -0.00073436  -0.00000005   0.00000000       -108.03     -0.01      0.00
  -0.00000005  -0.00073436   0.00000000         -0.01   -108.03      0.00
   0.00000000   0.00000000  -0.00074766          0.00      0.00   -109.99

     General routines

     Parallel routines

   This run was terminated on:  12:41:58  24Jan2014

   JOB DONE.
Running PBS batch system epilogue script
Job id: 251890.audhumbla.fysik.dtu.dk
Username: zhonxu
Groupname: campgst
Jobname: MoO2/fine-EOS/ferro/MoO2-v-1.05
Sessionid: 8923
Queuename: verylong
Accounting:
This job has allocated the following 4 nodes:
q003 q003 q003 q003
Finished epilogue job 251890.audhumbla.fysik.dtu.dk for zhonxu