     Program PWSCF v.5.0.2 (svn rev. 9656) starts on  9May2014 at  7:45:47

     Current dimensions of program PWSCF are:
     Max number of different atomic species (ntypx) = 10
     Max number of k-points (npk) =  40000
     Max angular momentum in pseudopotentials (lmaxx) =  3
     Reading input from pwscf.in
Warning: card &CELL ignored
Warning: card / ignored

     Subspace diagonalization in iterative solution of the eigenvalue problem:
     a serial algorithm will be used

     bravais-lattice index     =            0
     lattice parameter (alat)  =      10.1289  a.u.
     unit-cell volume          =    6836.7721 (a.u.)^3
     number of atoms/cell      =           30
     number of atomic types    =            3
     number of electrons       =       232.00
     number of Kohn-Sham states=          348
     kinetic-energy cutoff     =      40.0000  Ry
     charge density cutoff     =     500.0000  Ry
     convergence threshold     =      1.0E-06
     mixing beta               =       0.7000
     number of iterations used =            8  plain     mixing
     Exchange-correlation      = SLA  PW   PBE  PBE ( 1 4 3 4 0)
     EXX-fraction              =        0.00
     nstep                     =           50

     celldm(1)=  10.128932  celldm(2)=   0.000000  celldm(3)=   0.000000
     celldm(4)=   0.000000  celldm(5)=   0.000000  celldm(6)=   0.000000

     crystal axes: (cart. coord. in units of alat)
               a(1) = (   1.000000   0.000000   0.000000 )
               a(2) = (   0.000000   1.306037   0.000000 )
               a(3) = (   0.000000   0.000000   5.037380 )

     reciprocal axes: (cart. coord. in units 2 pi/alat)
               b(1) = (  1.000000  0.000000  0.000000 )
               b(2) = (  0.000000  0.765675  0.000000 )
               b(3) = (  0.000000  0.000000  0.198516 )

     PseudoPot. # 1 for O  read from file:
     /home/camp/zhonxu/pseudo/o_pbe_v1.01.uspp.F.UPF
     MD5 check sum: 2bcb18d16ea4b960afae9ec6d52f22d2
     Pseudo is Ultrasoft + core correction, Zval =  6.0
     Generated by new atomic code, or converted to UPF format
     Using radial grid of  737 points,  5 beta functions with:
                l(1) =   0
                l(2) =   0
                l(3) =   1
                l(4) =   1
                l(5) =   2
     Q(r) pseudized with  8 coefficients,  rinner =    0.900   0.900   0.900
                                                       0.900   0.900

     PseudoPot. # 2 for Re read from file:
     /home/camp/zhonxu/pseudo/re_pbe_v1.uspp.F.UPF
     MD5 check sum: 6f5a5dcaf9c96c20d0ffdde0de57afc6
     Pseudo is Ultrasoft + core correction, Zval = 15.0
     Generated by new atomic code, or converted to UPF format
     Using radial grid of  981 points,  8 beta functions with:
                l(1) =   0
                l(2) =   0
                l(3) =   1
                l(4) =   1
                l(5) =   2
                l(6) =   2
                l(7) =   3
                l(8) =   3
     Q(r) pseudized with  8 coefficients,  rinner =    1.000   1.000   1.000
                                                       1.000   1.000   1.000
                                                       1.000

     PseudoPot. # 3 for H  read from file:
     /home/camp/zhonxu/pseudo/h_pbe_v1.uspp.F.UPF
     MD5 check sum: 3408e3ff4ec8b0a4e358431e7e038a48
     Pseudo is Ultrasoft, Zval =  1.0
     Generated by new atomic code, or converted to UPF format
     Using radial grid of  615 points,  2 beta functions with:
                l(1) =   0
                l(2) =   0
     Q(r) pseudized with  8 coefficients,  rinner =    0.700

     atomic species   valence    mass     pseudopotential
        O0             6.00    15.99940     O ( 1.00)
        Re1           15.00   186.20700     Re( 1.00)
        H2             1.00     1.00794     H ( 1.00)

     Simplified LDA+U calculation (l_max = 2) with parameters (eV):
     atomic species    L          U    alpha       J0     beta
        Re1            2     4.0000   0.0000   0.0000   0.0000

     No symmetry found

   Cartesian axes

     site n.     atom                  positions (alat units)
         1           O0  tau(   1) = (   0.0000000   0.0000000   1.8688176  )
         2           O0  tau(   2) = (   0.0000000   0.6530184   1.9243296  )
         3           Re1 tau(   3) = (   0.2500000   0.6530184   2.2228951  )
         4           Re1 tau(   4) = (   0.0000000   0.0000000   2.2352367  )
         5           O0  tau(   5) = (   0.2500000   1.0187087   2.2249100  )
         6           O0  tau(   6) = (   0.2500000   0.2873281   2.2250611  )
         7           O0  tau(   7) = (   0.0000000   0.6530184   2.5071041  )
         8           O0  tau(   8) = (   0.0000000   0.0000000   2.5966183  )
         9           Re1 tau(   9) = (   0.2500000   0.0000000   2.8989619  )
        10           Re1 tau(  10) = (   0.0000000   0.6530184   2.8608793  )
        11           O0  tau(  11) = (   0.2500000   0.9403465   2.8908013  )
        12           O0  tau(  12) = (   0.2500000   0.3656903   2.8907005  )
        13           O0  tau(  13) = (   0.0000000   0.0000000   3.1620138  )
        14           O0  tau(  14) = (   0.5000000   0.0000000   1.8688176  )
        15           O0  tau(  15) = (   0.5000000   0.6530184   1.9243296  )
        16           Re1 tau(  16) = (   0.7500000   0.6530184   2.2228951  )
        17           Re1 tau(  17) = (   0.5000000   0.0000000   2.2352367  )
        18           O0  tau(  18) = (   0.7500000   1.0187087   2.2249604  )
        19           O0  tau(  19) = (   0.7500000   0.2873281   2.2250611  )
        20           O0  tau(  20) = (   0.5000000   0.6530184   2.5071041  )
        21           O0  tau(  21) = (   0.5000000   0.0000000   2.5966183  )
        22           Re1 tau(  22) = (   0.7500000   0.0000000   2.8989619  )
        23           Re1 tau(  23) = (   0.5000000   0.6530184   2.8609296  )
        24           O0  tau(  24) = (   0.7500000   0.9403465   2.8908013  )
        25           O0  tau(  25) = (   0.7500000   0.3656903   2.8907005  )
        26           O0  tau(  26) = (   0.5000000   0.0000000   3.1620138  )
        27           H2  tau(  27) = (  -0.0003800   0.8172395   1.8403061  )
        28           H2  tau(  28) = (   0.4996200   0.8172395   1.8403061  )
        29           H2  tau(  29) = (   0.1698700   0.0284977   1.7974380  )
        30           H2  tau(  30) = (   0.6698800   0.0284977   1.7974380  )

     number of k points=    10  Methfessel-Paxton smearing, width (Ry)=  0.0100
                       cart. coord. in units 2pi/alat
        k(    1) = (   0.0000000   0.0000000   0.0000000), wk =   0.1250000
        k(    2) = (   0.0000000   0.1914188   0.0000000), wk =   0.2500000
        k(    3) = (   0.0000000  -0.3828376   0.0000000), wk =   0.1250000
        k(    4) = (   0.2500000   0.0000000   0.0000000), wk =   0.2500000
        k(    5) = (   0.2500000   0.1914188   0.0000000), wk =   0.2500000
        k(    6) = (   0.2500000  -0.3828376   0.0000000), wk =   0.2500000
        k(    7) = (  -0.5000000   0.0000000   0.0000000), wk =   0.1250000
        k(    8) = (  -0.5000000   0.1914188   0.0000000), wk =   0.2500000
        k(    9) = (  -0.5000000  -0.3828376   0.0000000), wk =   0.1250000
        k(   10) = (  -0.2500000   0.1914188   0.0000000), wk =   0.2500000

     Largest allocated arrays     est. size (Mb)     dimensions
     Largest temporary arrays     est. size (Mb)     dimensions

     Check: negative/imaginary core charge=   -0.000003    0.000000

     Initial potential from superposition of free atoms
     Check: negative starting charge=   -0.237311

     starting charge  227.99958, renormalised to  232.00000

     negative rho (up, down):  0.241E+00 0.000E+00
     Number of +U iterations with fixed ns =  0
     Starting occupations:
 --- enter write_ns ---
 LDA+U parameters:
U( 2)     =  4.00000000
alpha( 2) =  0.00000000
atom    3   Tr[ns(na)] =   5.00000
    eigenvalues:
  0.500  0.500  0.500  0.500  0.500
    eigenvectors:
  1.000  0.000  0.000  0.000  0.000
  0.000  1.000  0.000  0.000  0.000
  0.000  0.000  1.000  0.000  0.000
  0.000  0.000  0.000  1.000  0.000
  0.000  0.000  0.000  0.000  1.000
    occupations:
  0.500  0.000  0.000  0.000  0.000
  0.000  0.500  0.000  0.000  0.000
  0.000  0.000  0.500  0.000  0.000
  0.000  0.000  0.000  0.500  0.000
  0.000  0.000  0.000  0.000  0.500
atom    4   Tr[ns(na)] =   5.00000
    eigenvalues:
  0.500  0.500  0.500  0.500  0.500
    eigenvectors:
  1.000  0.000  0.000  0.000  0.000
  0.000  1.000  0.000  0.000  0.000
  0.000  0.000  1.000  0.000  0.000
  0.000  0.000  0.000  1.000  0.000
  0.000  0.000  0.000  0.000  1.000
    occupations:
  0.500  0.000  0.000  0.000  0.000
  0.000  0.500  0.000  0.000  0.000
  0.000  0.000  0.500  0.000  0.000
  0.000  0.000  0.000  0.500  0.000
  0.000  0.000  0.000  0.000  0.500
atom    9   Tr[ns(na)] =   5.00000
    eigenvalues:
  0.500  0.500  0.500  0.500  0.500
    eigenvectors:
  1.000  0.000  0.000  0.000  0.000
  0.000  1.000  0.000  0.000  0.000
  0.000  0.000  1.000  0.000  0.000
  0.000  0.000  0.000  1.000  0.000
  0.000  0.000  0.000  0.000  1.000
    occupations:
  0.500  0.000  0.000  0.000  0.000
  0.000  0.500  0.000  0.000  0.000
  0.000  0.000  0.500  0.000  0.000
  0.000  0.000  0.000  0.500  0.000
  0.000  0.000  0.000  0.000  0.500
atom   10   Tr[ns(na)] =   5.00000
    eigenvalues:
  0.500  0.500  0.500  0.500  0.500
    eigenvectors:
  1.000  0.000  0.000  0.000  0.000
  0.000  1.000  0.000  0.000  0.000
  0.000  0.000  1.000  0.000  0.000
  0.000  0.000  0.000  1.000  0.000
  0.000  0.000  0.000  0.000  1.000
    occupations:
  0.500  0.000  0.000  0.000  0.000
  0.000  0.500  0.000  0.000  0.000
  0.000  0.000  0.500  0.000  0.000
  0.000  0.000  0.000  0.500  0.000
  0.000  0.000  0.000  0.000  0.500
atom   16   Tr[ns(na)] =   5.00000
    eigenvalues:
  0.500  0.500  0.500  0.500  0.500
    eigenvectors:
  1.000  0.000  0.000  0.000  0.000
  0.000  1.000  0.000  0.000  0.000
  0.000  0.000  1.000  0.000  0.000
  0.000  0.000  0.000  1.000  0.000
  0.000  0.000  0.000  0.000  1.000
    occupations:
  0.500  0.000  0.000  0.000  0.000
  0.000  0.500  0.000  0.000  0.000
  0.000  0.000  0.500  0.000  0.000
  0.000  0.000  0.000  0.500  0.000
  0.000  0.000  0.000  0.000  0.500
atom   17   Tr[ns(na)] =   5.00000
    eigenvalues:
  0.500  0.500  0.500  0.500  0.500
    eigenvectors:
  1.000  0.000  0.000  0.000  0.000
  0.000  1.000  0.000  0.000  0.000
  0.000  0.000  1.000  0.000  0.000
  0.000  0.000  0.000  1.000  0.000
  0.000  0.000  0.000  0.000  1.000
    occupations:
  0.500  0.000  0.000  0.000  0.000
  0.000  0.500  0.000  0.000  0.000
  0.000  0.000  0.500  0.000  0.000
  0.000  0.000  0.000  0.500  0.000
  0.000  0.000  0.000  0.000  0.500
atom   22   Tr[ns(na)] =   5.00000
    eigenvalues:
  0.500  0.500  0.500  0.500  0.500
    eigenvectors:
  1.000  0.000  0.000  0.000  0.000
  0.000  1.000  0.000  0.000  0.000
  0.000  0.000  1.000  0.000  0.000
  0.000  0.000  0.000  1.000  0.000
  0.000  0.000  0.000  0.000  1.000
    occupations:
[...]
  0.000  0.008  0.604  0.001 -0.000
 -0.019 -0.000  0.001  0.784 -0.000
  0.001 -0.002 -0.000 -0.000  0.571
atom    9   Tr[ns(na)] =   6.57526
    eigenvalues:
  0.591  0.604  0.604  0.733  0.756
    eigenvectors:
  0.245  0.000  0.000  0.010  0.745
  0.000  0.259  0.741  0.000  0.000
  0.000  0.741  0.259  0.000  0.000
  0.755  0.000  0.000  0.003  0.242
  0.000  0.000  0.000  0.987  0.013
    occupations:
  0.715  0.000 -0.001 -0.071  0.002
  0.000  0.604  0.000  0.000  0.000
 -0.001  0.000  0.604  0.001  0.000
 -0.071  0.000  0.001  0.632 -0.002
  0.002  0.000  0.000 -0.002  0.733
atom   10   Tr[ns(na)] =   6.56998
    eigenvalues:
  0.470  0.533  0.692  0.765  0.825
    eigenvectors:
  0.997  0.000  0.000  0.003  0.000
  0.000  0.000  0.000  0.000  1.000
  0.000  0.000  1.000  0.000  0.000
  0.003  0.000  0.000  0.997  0.000
  0.000  1.000  0.000  0.000  0.000
    occupations:
  0.471  0.000 -0.000 -0.015  0.000
  0.000  0.825  0.001 -0.000  0.001
 -0.000  0.001  0.692  0.000  0.000
 -0.015 -0.000  0.000  0.764 -0.000
  0.000  0.001  0.000 -0.000  0.533
atom   16   Tr[ns(na)] =   6.60842
    eigenvalues:
  0.532  0.567  0.611  0.765  0.830
    eigenvectors:
  0.000  0.347  0.003  0.650  0.000
  0.999  0.000  0.000  0.000  0.001
  0.000  0.002  0.989  0.009  0.000
  0.000  0.651  0.008  0.341  0.000
  0.001  0.000  0.000  0.000  0.999
    occupations:
  0.696  0.000  0.013 -0.093  0.000
  0.000  0.532 -0.000 -0.000 -0.009
  0.013 -0.000  0.612 -0.007  0.001
 -0.093 -0.000 -0.007  0.635  0.000
  0.000 -0.009  0.001  0.000  0.830
atom   17   Tr[ns(na)] =   6.56972
    eigenvalues:
  0.571  0.604  0.608  0.717  0.785
    eigenvectors:
  0.000  0.005  0.982  0.001  0.011
  0.000  0.005  0.001  0.993  0.000
  0.000  0.989  0.005  0.006  0.000
  0.000  0.000  0.011  0.000  0.989
  0.999  0.000  0.000  0.000  0.000
    occupations:
  0.610  0.003  0.000 -0.019  0.001
  0.003  0.716  0.008 -0.000 -0.002
  0.000  0.008  0.604  0.001 -0.000
 -0.019 -0.000  0.001  0.784 -0.000
  0.001 -0.002 -0.000 -0.000  0.571
atom   22   Tr[ns(na)] =   6.57520
    eigenvalues:
  0.591  0.604  0.604  0.733  0.756
    eigenvectors:
  0.245  0.000  0.000  0.010  0.745
  0.000  0.255  0.744  0.000  0.000
  0.000  0.744  0.255  0.000  0.000
  0.755  0.000  0.000  0.003  0.242
  0.000  0.000  0.000  0.987  0.013
    occupations:
  0.715  0.000 -0.001 -0.071  0.002
  0.000  0.604  0.000  0.000  0.000
 -0.001  0.000  0.604  0.001  0.000
 -0.071  0.000  0.001  0.632 -0.002
  0.002  0.000  0.000 -0.002  0.733
atom   23   Tr[ns(na)] =   6.56989
    eigenvalues:
  0.470  0.533  0.692  0.765  0.825
    eigenvectors:
  0.997  0.000  0.000  0.003  0.000
  0.000  0.000  0.000  0.000  1.000
  0.000  0.000  1.000  0.000  0.000
  0.003  0.000  0.000  0.997  0.000
  0.000  1.000  0.000  0.000  0.000
    occupations:
  0.471  0.000 -0.000 -0.015  0.000
  0.000  0.825  0.001 -0.000  0.001
 -0.000  0.001  0.692  0.000  0.000
 -0.015 -0.000  0.000  0.764 -0.000
  0.000  0.001  0.000 -0.000  0.533
N of occupied +U levels =  52.6466118
 --- exit write_ns ---

     Threshold (ethr) on eigenvalues was too large:
     Diagonalizing with lowered threshold

     Davidson diagonalization with overlap
     ethr =  5.96E-09,  avg # of iterations =  2.0

[...]

     total energy              =   -2140.49048877 Ry
     Harris-Foulkes estimate   =   -2140.49048877 Ry
     estimated scf accuracy    <       0.00000001 Ry

     iteration # 14     ecut=    40.00 Ry     beta=0.70
     Davidson diagonalization with overlap
     ethr =  4.71E-12,  avg # of iterations =  1.0

     negative rho (up, down):  0.237E+00 0.000E+00

     End of self-consistent calculation
 --- enter write_ns ---
 LDA+U parameters:
U( 2)     =  4.00000000
alpha( 2) =  0.00000000
atom    3   Tr[ns(na)] =   6.60939
    eigenvalues:
  0.532  0.567  0.611  0.765  0.830
    eigenvectors:
  0.000  0.347  0.003  0.650  0.000
  0.999  0.000  0.000  0.000  0.001
  0.000  0.002  0.989  0.009  0.000
  0.000  0.651  0.008  0.341  0.000
  0.001  0.000  0.000  0.000  0.999
    occupations:
  0.696  0.000  0.013 -0.093  0.000
  0.000  0.532 -0.000 -0.000 -0.009
  0.013 -0.000  0.613 -0.007  0.001
 -0.093 -0.000 -0.007  0.635  0.000
  0.000 -0.009  0.001  0.000  0.830
atom    4   Tr[ns(na)] =   6.57010
    eigenvalues:
  0.571  0.604  0.608  0.717  0.786
    eigenvectors:
  0.000  0.006  0.982  0.001  0.011
  0.000  0.005  0.001  0.993  0.000
  0.000  0.989  0.006  0.006  0.000
  0.000  0.000  0.011  0.000  0.989
  0.999  0.000  0.000  0.000  0.000
    occupations:
  0.610  0.003  0.000 -0.019  0.001
  0.003  0.716  0.008 -0.000 -0.002
  0.000  0.008  0.605  0.001 -0.000
 -0.019 -0.000  0.001  0.784 -0.000
  0.001 -0.002 -0.000 -0.000  0.571
atom    9   Tr[ns(na)] =   6.57455
    eigenvalues:
  0.591  0.603  0.604  0.733  0.756
    eigenvectors:
  0.245  0.000  0.000  0.010  0.745
  0.000  0.180  0.820  0.000  0.000
  0.000  0.820  0.180  0.000  0.000
  0.755  0.000  0.000  0.003  0.242
  0.000  0.000  0.000  0.988  0.012
    occupations:
  0.715  0.000 -0.001 -0.071  0.002
  0.000  0.604  0.000  0.000  0.000
 -0.001  0.000  0.604  0.001  0.000
 -0.071  0.000  0.001  0.631 -0.002
  0.002  0.000  0.000 -0.002  0.733
atom   10   Tr[ns(na)] =   6.56938
    eigenvalues:
  0.470  0.533  0.692  0.765  0.825
    eigenvectors:
  0.997  0.000  0.000  0.003  0.000
  0.000  0.000  0.000  0.000  1.000
  0.000  0.000  1.000  0.000  0.000
  0.003  0.000  0.000  0.997  0.000
  0.000  1.000  0.000  0.000  0.000
    occupations:
  0.471  0.000 -0.000 -0.015  0.000
  0.000  0.825  0.001 -0.000  0.001
 -0.000  0.001  0.692  0.000  0.000
 -0.015 -0.000  0.000  0.764 -0.000
  0.000  0.001  0.000 -0.000  0.533
atom   16   Tr[ns(na)] =   6.60944
    eigenvalues:
  0.532  0.567  0.611  0.765  0.830
    eigenvectors:
  0.000  0.347  0.003  0.650  0.000
  0.999  0.000  0.000  0.000  0.001
  0.000  0.002  0.989  0.009  0.000
  0.000  0.651  0.008  0.341  0.000
  0.001  0.000  0.000  0.000  0.999
    occupations:
  0.696  0.000  0.013 -0.093  0.000
  0.000  0.532 -0.000 -0.000 -0.009
  0.013 -0.000  0.613 -0.007  0.001
 -0.093 -0.000 -0.007  0.635  0.000
  0.000 -0.009  0.001  0.000  0.830
atom   17   Tr[ns(na)] =   6.57008
    eigenvalues:
  0.571  0.604  0.608  0.717  0.786
    eigenvectors:
  0.000  0.006  0.982  0.001  0.011
  0.000  0.005  0.001  0.993  0.000
  0.000  0.989  0.006  0.006  0.000
  0.000  0.000  0.011  0.000  0.989
  0.999  0.000  0.000  0.000  0.000
    occupations:
  0.610  0.003  0.000 -0.019  0.001
  0.003  0.716  0.008 -0.000 -0.002
  0.000  0.008  0.605  0.001 -0.000
 -0.019 -0.000  0.001  0.784 -0.000
  0.001 -0.002 -0.000 -0.000  0.571
atom   22   Tr[ns(na)] =   6.57453
    eigenvalues:
  0.591  0.603  0.604  0.733  0.756
    eigenvectors:
  0.245  0.000  0.000  0.010  0.745
  0.000  0.179  0.821  0.000  0.000
  0.000  0.821  0.179  0.000  0.000
  0.755  0.000  0.000  0.003  0.242
  0.000  0.000  0.000  0.988  0.012
    occupations:
  0.715  0.000 -0.001 -0.071  0.002
  0.000  0.604  0.000  0.000  0.000
 -0.001  0.000  0.604  0.001  0.000
 -0.071  0.000  0.001  0.631 -0.002
  0.002  0.000  0.000 -0.002  0.733
atom   23   Tr[ns(na)] =   6.56942
    eigenvalues:
  0.470  0.533  0.692  0.765  0.825
    eigenvectors:
  0.997  0.000  0.000  0.003  0.000
  0.000  0.000  0.000  0.000  1.000
  0.000  0.000  1.000  0.000  0.000
  0.003  0.000  0.000  0.997  0.000
  0.000  1.000  0.000  0.000  0.000
    occupations:
  0.471  0.000 -0.000 -0.015  0.000
  0.000  0.825  0.001 -0.000  0.001
 -0.000  0.001  0.692  0.000  0.000
 -0.015 -0.000  0.000  0.764 -0.000
  0.000  0.001  0.000 -0.000  0.533
N of occupied +U levels =  52.6468898
 --- exit write_ns ---

[...]

          k = 0.2500-0.3828 0.0000 ( 29202 PWs)   bands (ev):

[...]

          k =-0.2500 0.1914 0.0000 ( 29229 PWs)   bands (ev):

   -81.0974 -81.0584 -80.8428 -80.8027 -80.5029 -80.4641 -80.4003 -80.3607
   -43.1831 -43.0604 -43.0255 -43.0011 -42.9798 -42.9224 -42.8532 -42.7901
   -42.7205 -42.6484 -42.6133 -42.5635 -42.5632 -42.5463 -42.5283 -42.4075
   -42.4006 -42.3957 -42.3477 -42.3454 -42.3342 -42.2984 -41.9361 -41.9056
   -20.8296 -20.3941 -20.3418 -20.2019 -20.0508 -19.9335 -19.8387 -19.7728
   -19.7404 -19.6386 -19.4846 -19.3656 -19.3211 -19.1115 -19.0674 -18.9751
   -18.3211 -18.1295  -9.0451  -8.8574  -8.8069  -8.6661  -8.6638  -8.3849
    -8.3222  -8.2448  -8.0621  -7.9010  -7.8749  -7.8589  -7.6563  -7.4182
    -7.3552  -7.0933  -6.8178  -6.7022  -6.6063  -6.5695  -6.4650  -6.2172
    -6.0848  -6.0635  -5.8275  -5.7871  -5.5735  -5.5682  -5.5299  -5.2961
    -5.1610  -5.0361  -4.9010  -4.8996  -4.8298  -4.7459  -4.7019  -4.6356
    -4.5652  -4.5189  -4.2330  -4.0524  -4.0003  -3.8900  -3.7790  -3.6669
    -3.6575  -3.4278  -3.3554  -3.2333  -3.1641  -2.9068  -2.8440  -2.6964
    -2.3777  -2.2590  -2.0852  -1.5294  -1.2419  -1.0844  -0.9904  -0.3539
    -0.2079   0.1537   0.2785   0.3036   0.5769   0.7495   0.7506   1.0935
     1.2026   1.2789   1.4171   1.4327   1.5912   1.7599   1.7971   1.8296
     2.3963   2.4034   3.6935   3.7543   3.9354   3.9568   4.1561   4.3286
     4.5718   4.5974   4.8156   4.8729   4.9226   4.9633   5.2271   5.4129
     5.7899   5.8987   5.9964   6.2332   6.2716   6.5065   6.6718   6.7073
     6.8506   6.9856   7.2474   7.3598   7.4219   7.6724   7.7696   7.9969
     8.1463   8.3096   8.3343   8.4704   8.6016   8.6321   8.7652   8.8821
     9.0944   9.3410   9.3901   9.4127   9.6044   9.6777   9.7586   9.7618
     9.8354   9.9215   9.9565  10.1459  10.1741  10.2929  10.3246  10.4354
    10.4465  10.6471  10.7517  10.7972  10.9350  11.0454  11.0464  11.2352
    11.3946  11.4351  11.4632  11.6972  11.7912  11.9019  11.9557  12.1009
    12.3064  12.4281  12.4939  12.4975  12.6376  12.6715  12.6972  12.8315
    12.8460  12.9656  13.0272  13.1961  13.2292  13.3280  13.4937  13.5464
    13.6201  13.6743  13.7931  13.8004  13.9046  13.9122  13.9671  14.0495
    14.1314  14.2470  14.2750  14.3283  14.4169  14.5284  14.5545  14.5914
    14.7473  14.7745  14.8104  14.8567  14.8837  14.9355  15.0176  15.0382
    15.0990  15.2261  15.3041  15.3888  15.5014  15.5736  15.6511  15.7212
    15.8860  15.9483  16.0963  16.1140  16.1882  16.2283  16.2718  16.4196
    16.5182  16.5754  16.6322  16.6889  16.7769  16.8543  16.8917  17.0054
    17.1193  17.1244  17.1966  17.3269  17.3481  17.4904  17.5413  17.6573
    17.7050  17.7218  17.7703  17.8920  17.9713  18.0388  18.1128  18.1963
    18.2244  18.3181  18.3251  18.3954  18.5190  18.5444  18.6610  18.6652
    18.7771  18.8858  18.8895  18.9754  19.0688  19.0788  19.1715  19.3145
    19.4481  19.5180  19.5699  19.6606  19.7750  19.9331  19.9725  19.9946
    20.0687  20.1386  20.2339  20.2369  20.4554  20.4816  20.5427  20.5902
    20.6383  20.7553  20.7775  20.8086  20.8662  20.8910  20.9639  21.0465
    21.1385  21.1737  21.2725  21.3069  21.4137  21.4519  21.5099  21.5246
    21.6532  21.6558  21.7580  21.8273  21.9181  21.9444  22.0991  22.1360
    22.1815  22.2429  22.2707  22.3430  22.3563  22.4158  22.4648  22.5409
    22.5462  22.6140  22.6282  22.7155

     the Fermi energy is     0.3645 ev

!    total energy              =   -2140.49048877 Ry
     Harris-Foulkes estimate   =   -2140.49048877 Ry
     estimated scf accuracy    <          2.2E-09 Ry

     The total energy is the sum of the following terms:

     one-electron contribution =  -23540.95250471 Ry
     hartree contribution      =   11786.53849504 Ry
     xc contribution           =    -587.25533891 Ry
     ewald contribution        =   10198.66101601 Ry
     Hubbard energy            =       2.51823238 Ry
     smearing contrib. (-TS)   =      -0.00038858 Ry

     convergence has been achieved in  14 iterations

     Forces acting on atoms (Ry/au):

     negative rho (up, down):  0.237E+00 0.000E+00
     atom    1 type  1   force =    -0.00436405   -0.00644326   -0.00003672
     atom    2 type  1   force =     0.00005395    0.00534200   -0.00062773
     atom    3 type  2   force =    -0.00013760   -0.00384302   -0.00005343
     atom    4 type  2   force =     0.00150089    0.00735851   -0.00004580
     atom    5 type  1   force =     0.00173033    0.00914874    0.00006664
     atom    6 type  1   force =     0.00024345   -0.01012729    0.00018953
     atom    7 type  1   force =    -0.00012462   -0.00041374    0.00006359
     atom    8 type  1   force =     0.00279395   -0.00104544   -0.00039657
     atom    9 type  2   force =    -0.00163911    0.00047567    0.00020269
     atom   10 type  2   force =     0.00007385   -0.00143729    0.00001177
     atom   11 type  1   force =     0.00022914   -0.00146573    0.00007009
     atom   12 type  1   force =    -0.00031871    0.00200570    0.00008010
     atom   13 type  1   force =    -0.00043054    0.00018380    0.00033363
     atom   14 type  1   force =    -0.00435478   -0.00643624   -0.00003147
     atom   15 type  1   force =     0.00004408    0.00533215   -0.00062938
     atom   16 type  2   force =    -0.00012875   -0.00384238   -0.00005220
     atom   17 type  2   force =     0.00150463    0.00735851   -0.00004498
     atom   18 type  1   force =     0.00172828    0.00915532    0.00007838
     atom   19 type  1   force =     0.00023891   -0.01013335    0.00018954
     atom   20 type  1   force =    -0.00013315   -0.00041252    0.00008348
     atom   21 type  1   force =     0.00279784   -0.00104548   -0.00040948
     atom   22 type  2   force =    -0.00166068    0.00047654    0.00020566
     atom   23 type  2   force =     0.00007415   -0.00143748    0.00002183
     atom   24 type  1   force =     0.00023281   -0.00146237    0.00006970
     atom   25 type  1   force =    -0.00031702    0.00200122    0.00008164
     atom   26 type  1   force =    -0.00042541    0.00018648    0.00032510
     atom   27 type  3   force =    -0.00000340    0.00010646   -0.00043632
     atom   28 type  3   force =    -0.00000305    0.00010701   -0.00043595
     atom   29 type  3   force =     0.00039818    0.00015456    0.00056307
     atom   30 type  3   force =     0.00039645    0.00015293    0.00056361

     Total force =     0.001716     Total SCF correction =     0.000107

     bfgs converged in   8 scf cycles and   7 bfgs steps
     (criteria: energy < 0.10E-03, force < 0.10E-02)

     End of BFGS Geometry Optimization

     Final energy   =   -2140.4904887707 Ry
Begin final coordinates

ATOMIC_POSITIONS (crystal)
O0       0.000000000   0.000000000   0.371702691    0   0   1
O0       0.000000000   0.500000000   0.382334228    0   0   1
Re1      0.250000000   0.500000000   0.441480537    0   0   1
Re1      0.000000000   0.000000000   0.443983743    0   0   1
O0       0.250000000   0.780000000   0.442079209    0   0   1
O0       0.250000000   0.220000000   0.441958390    0   0   1
O0       0.000000000   0.500000000   0.497537373    0   0   1
O0       0.000000000   0.000000000   0.515105005    0   0   1
Re1      0.250000000   0.000000000   0.575298653    0   0   1
Re1      0.000000000   0.500000000   0.567558938    0   0   1
O0       0.250000000   0.720000000   0.573352631    0   0   1
O0       0.250000000   0.280000000   0.573414858    0   0   1
O0       0.000000000   0.000000000   0.627389417    0   0   1
O0       0.500000000   0.000000000   0.371702657    0   0   1
O0       0.500000000   0.500000000   0.382334081    0   0   1
Re1      0.750000000   0.500000000   0.441480306    0   0   1
Re1      0.500000000   0.000000000   0.443983703    0   0   1
O0       0.750000000   0.780000000   0.442077562    0   0   1
O0       0.750000000   0.220000000   0.441958437    0   0   1
O0       0.500000000   0.500000000   0.497536259    0   0   1
O0       0.500000000   0.000000000   0.515105063    0   0   1
Re1      0.750000000   0.000000000   0.575298722    0   0   1
Re1      0.500000000   0.500000000   0.567558299    0   0   1
O0       0.750000000   0.720000000   0.573352759    0   0   1
O0       0.750000000   0.280000000   0.573414761    0   0   1
O0       0.500000000   0.000000000   0.627389915    0   0   1
H2      -0.000385387   0.624383610   0.365161207
H2       0.499614201   0.624383343   0.365160964
H2       0.169239376   0.021910590   0.357224707
H2       0.669240359   0.021910725   0.357224925
End final coordinates

     General routines

     Parallel routines
     Hubbard U routines

   This run was terminated on:  17:59:46   9May2014

   JOB DONE.
Running PBS batch system epilogue script
Job id: 340867.audhumbla.fysik.dtu.dk
Username: zhonxu
Groupname: campgst
Jobname: ReO2/Eads-2-layers/bare-U-4.0
Sessionid: 1805
Queuename: verylong
Accounting:
This job has allocated the following 16 nodes:
d115 d115 d115 d115 d115 d115 d115 d115 d114 d114 d114 d114 d114 d114 d114 d114
Finished epilogue job 340867.audhumbla.fysik.dtu.dk for zhonxu