     Program PWSCF v.5.0.2 (svn rev. 9656) starts on 23Jan2014 at 18:56:44

     Current dimensions of program PWSCF are:
     Max number of different atomic species (ntypx) = 10
     Max number of k-points (npk) =  40000
     Max angular momentum in pseudopotentials (lmaxx) =  3
     Reading input from RhO2-v-1.1.in

     Subspace diagonalization in iterative solution of the eigenvalue problem:
     a serial algorithm will be used

     bravais-lattice index     =            0
     lattice parameter (alat)  =       8.9385  a.u.
     unit-cell volume          =     460.2364 (a.u.)^3
     number of atoms/cell      =            6
     number of atomic types    =            2
     number of electrons       =        54.00
     number of Kohn-Sham states=           81
     kinetic-energy cutoff     =      40.0000  Ry
     charge density cutoff     =     500.0000  Ry
     convergence threshold     =      1.0E-06
     mixing beta               =       0.7000
     number of iterations used =            8  plain     mixing
     Exchange-correlation      = SLA  PW   PBE  PBE ( 1 4 3 4 0)
     EXX-fraction              =        0.00
     nstep                     =           50

     celldm(1)=   8.938511  celldm(2)=   0.000000  celldm(3)=   0.000000
     celldm(4)=   0.000000  celldm(5)=   0.000000  celldm(6)=   0.000000

     crystal axes: (cart. coord. in units of alat)
               a(1) = (   1.000000   0.000000   0.000000 )
               a(2) = (   0.000000   1.000000   0.000000 )
               a(3) = (   0.000000   0.000000   0.644444 )

     reciprocal axes: (cart. coord. in units 2 pi/alat)
               b(1) = (  1.000000  0.000000  0.000000 )
               b(2) = (  0.000000  1.000000  0.000000 )
               b(3) = (  0.000000  0.000000  1.551724 )

     PseudoPot. # 1 for Rh read from file:
     /home/camp/zhonxu/pseudo/rh_pbe_v1.uspp.F.UPF
     MD5 check sum: 37b626987ad0dd8ec6bf4cc9ef289918
     Pseudo is Ultrasoft + core correction, Zval = 15.0
     Generated by new atomic code, or converted to UPF format
     Using radial grid of  969 points,  7 beta functions with:
                l(1) =   0
                l(2) =   0
                l(3) =   1
                l(4) =   1
                l(5) =   2
                l(6) =   2
                l(7) =   2
     Q(r) pseudized with  6 coefficients,  rinner =    1.050   1.050   1.050
                                                       1.050   1.050

     PseudoPot. # 2 for O  read from file:
     /home/camp/zhonxu/pseudo/o_pbe_v1.01.uspp.F.UPF
     MD5 check sum: 2bcb18d16ea4b960afae9ec6d52f22d2
     Pseudo is Ultrasoft + core correction, Zval =  6.0
     Generated by new atomic code, or converted to UPF format
     Using radial grid of  737 points,  5 beta functions with:
                l(1) =   0
                l(2) =   0
                l(3) =   1
                l(4) =   1
                l(5) =   2
     Q(r) pseudized with  8 coefficients,  rinner =    0.900   0.900   0.900
                                                       0.900   0.900

     atomic species   valence    mass     pseudopotential
        Rh0           15.00   102.90550     Rh( 1.00)
        O1             6.00    15.99940     O ( 1.00)

     Starting magnetic structure
     atomic species   magnetization
        Rh0          0.600
        O1           0.000

      8 Sym. Ops., with inversion, found
          (note:  8 additional sym.ops. were found but ignored
           their fractional translations are incommensurate with FFT grid)

   Cartesian axes

     site n.     atom                  positions (alat units)
         1           Rh0 tau(   1) = (   0.0000000   0.0000000   0.0000000  )
         2           Rh0 tau(   2) = (   0.5000000   0.5000000   0.3222222  )
         3           O1  tau(   3) = (   0.3050000   0.3050000   0.0000000  )
         4           O1  tau(   4) = (  -0.3050000  -0.3050000   0.0000000  )
         5           O1  tau(   5) = (   0.8050000   0.1950000   0.3222222  )
         6           O1  tau(   6) = (   0.1950000   0.8050000   0.3222222  )

     number of k points=    54  Methfessel-Paxton smearing, width (Ry)=  0.0100
                       cart. coord. in units 2pi/alat
        k(    1) = (   0.0000000   0.0000000   0.0000000), wk =   0.0080000
        k(    2) = (   0.0000000   0.0000000   0.3103448), wk =   0.0160000
        k(    3) = (   0.0000000   0.0000000   0.6206897), wk =   0.0160000
        k(    4) = (   0.0000000   0.2000000   0.0000000), wk =   0.0320000
        k(    5) = (   0.0000000   0.2000000   0.3103448), wk =   0.0640000
        k(    6) = (   0.0000000   0.2000000   0.6206897), wk =   0.0640000
        k(    7) = (   0.0000000   0.4000000   0.0000000), wk =   0.0320000
        k(    8) = (   0.0000000   0.4000000   0.3103448), wk =   0.0640000
        k(    9) = (   0.0000000   0.4000000   0.6206897), wk =   0.0640000
        k(   10) = (   0.2000000   0.2000000   0.0000000), wk =   0.0160000
        k(   11) = (   0.2000000   0.2000000   0.3103448), wk =   0.0320000
        k(   12) = (   0.2000000   0.2000000   0.6206897), wk =   0.0320000
        k(   13) = (   0.2000000   0.4000000   0.0000000), wk =   0.0320000
        k(   14) = (   0.2000000   0.4000000   0.3103448), wk =   0.0640000
        k(   15) = (   0.2000000   0.4000000   0.6206897), wk =   0.0640000
        k(   16) = (   0.4000000   0.4000000   0.0000000), wk =   0.0160000
        k(   17) = (   0.4000000   0.4000000   0.3103448), wk =   0.0320000
        k(   18) = (   0.4000000   0.4000000   0.6206897), wk =   0.0320000
        k(   19) = (  -0.2000000   0.2000000   0.0000000), wk =   0.0160000
        k(   20) = (  -0.2000000   0.2000000  -0.3103448), wk =   0.0320000
        k(   21) = (  -0.2000000   0.2000000  -0.6206897), wk =   0.0320000
        k(   22) = (  -0.2000000   0.4000000   0.0000000), wk =   0.0320000
        k(   23) = (  -0.2000000   0.4000000  -0.3103448), wk =   0.0640000
        k(   24) = (  -0.2000000   0.4000000  -0.6206897), wk =   0.0640000
        k(   25) = (  -0.4000000   0.4000000   0.0000000), wk =   0.0160000
        k(   26) = (  -0.4000000   0.4000000  -0.3103448), wk =   0.0320000
        k(   27) = (  -0.4000000   0.4000000  -0.6206897), wk =   0.0320000
        k(   28) = (   0.0000000   0.0000000   0.0000000), wk =   0.0080000
        k(   29) = (   0.0000000   0.0000000   0.3103448), wk =   0.0160000
        k(   30) = (   0.0000000   0.0000000   0.6206897), wk =   0.0160000
        k(   31) = (   0.0000000   0.2000000   0.0000000), wk =   0.0320000
        k(   32) = (   0.0000000   0.2000000   0.3103448), wk =   0.0640000
        k(   33) = (   0.0000000   0.2000000   0.6206897), wk =   0.0640000
        k(   34) = (   0.0000000   0.4000000   0.0000000), wk =   0.0320000
        k(   35) = (   0.0000000   0.4000000   0.3103448), wk =   0.0640000
        k(   36) = (   0.0000000   0.4000000   0.6206897), wk =   0.0640000
        k(   37) = (   0.2000000   0.2000000   0.0000000), wk =   0.0160000
        k(   38) = (   0.2000000   0.2000000   0.3103448), wk =   0.0320000
        k(   39) = (   0.2000000   0.2000000   0.6206897), wk =   0.0320000
        k(   40) = (   0.2000000   0.4000000   0.0000000), wk =   0.0320000
        k(   41) = (   0.2000000   0.4000000   0.3103448), wk =   0.0640000
        k(   42) = (   0.2000000   0.4000000   0.6206897), wk =   0.0640000
        k(   43) = (   0.4000000   0.4000000   0.0000000), wk =   0.0160000
        k(   44) = (   0.4000000   0.4000000   0.3103448), wk =   0.0320000
        k(   45) = (   0.4000000   0.4000000   0.6206897), wk =   0.0320000
        k(   46) = (  -0.2000000   0.2000000   0.0000000), wk =   0.0160000
        k(   47) = (  -0.2000000   0.2000000  -0.3103448), wk =   0.0320000
        k(   48) = (  -0.2000000   0.2000000  -0.6206897), wk =   0.0320000
        k(   49) = (  -0.2000000   0.4000000   0.0000000), wk =   0.0320000
        k(   50) = (  -0.2000000   0.4000000  -0.3103448), wk =   0.0640000
        k(   51) = (  -0.2000000   0.4000000  -0.6206897), wk =   0.0640000
        k(   52) = (  -0.4000000   0.4000000   0.0000000), wk =   0.0160000
        k(   53) = (  -0.4000000   0.4000000  -0.3103448), wk =   0.0320000
        k(   54) = (  -0.4000000   0.4000000  -0.6206897), wk =   0.0320000

     Largest allocated arrays     est. size (Mb)     dimensions
     Largest temporary arrays     est. size (Mb)     dimensions

     Check: negative/imaginary core charge=   -0.000005    0.000000

     Initial potential from superposition of free atoms
     Check: negative starting charge=(component1):   -0.128809
     Check: negative starting charge=(component2):   -0.031923

     starting charge   52.99980, renormalised to   54.00000

     negative rho (up, down):  0.131E+00 0.325E-01
     Starting wfc are   40 randomized atomic wfcs

     Self-consistent Calculation

     iteration #  1     ecut=    40.00 Ry     beta=0.70
     Davidson diagonalization with overlap
     ethr =  1.00E-02,  avg # of iterations =  7.4

     negative rho (up, down):  0.952E-01 0.755E-01

     total energy              =    -466.31986645 Ry
     Harris-Foulkes estimate   =    -469.68769657 Ry
     estimated scf accuracy    <       5.15508439 Ry

     total magnetization       =     9.73 Bohr mag/cell
     absolute magnetization    =     9.74 Bohr mag/cell

[...]

     End of self-consistent calculation

 ------ SPIN UP ------------

          k = 0.0000 0.0000 0.0000 (  1955 PWs)   bands (ev):

   -37.1611 -37.1610 -37.0367 -37.0366 -36.9897 -36.9808  -8.9120  -7.9109
    -7.3093  -7.3092   2.7432   2.8010   4.1506   4.1702   4.1703   6.5972
     6.5972   7.0392   7.9901   8.0777   8.2464   8.4178   8.4179   8.5755
     8.6418   8.6419   9.4408  10.3743  11.1962  13.6913  13.6914  14.6291
    16.1705  20.3707  20.3707  23.5866  23.7208  24.4281  25.8036  27.1111
    27.1111  28.5643  28.6708  31.0560  32.4151  32.4151  33.7828  33.7828
    34.3710  35.3540  35.6813  35.6814  36.5033  38.1857  38.3981  38.4228
    38.8233  38.8657  40.2586  40.7974  40.7974  40.9508  41.3131  41.3132
    43.2296  43.2296  44.2786  44.5795  46.8521  48.5636  48.5636  48.7065
    48.9381  48.9381  49.1274  49.9417  50.3012  50.3012  50.6853  50.6966
    52.1258

[...]

          k =-0.2000 0.2000 0.0000 (  1967 PWs)   bands (ev):

[...]

 ------ SPIN DOWN ----------

[...]

     the Fermi energy is    10.4792 ev

!    total energy              =    -469.80549858 Ry
     Harris-Foulkes estimate   =    -469.80549849 Ry
     estimated scf accuracy    <       0.00000009 Ry

     The total energy is the sum of the following terms:

     one-electron contribution =    -151.52373186 Ry
     hartree contribution      =     109.82154529 Ry
     xc contribution           =     -86.84754328 Ry
     ewald contribution        =    -341.25552168 Ry
     smearing contrib. (-TS)   =      -0.00024706 Ry

[...]

     convergence has been achieved in  15 iterations

     Forces acting on atoms (Ry/au):

     negative rho (up, down):  0.861E-01 0.863E-01
     atom    1 type  1   force =     0.00000000    0.00000000    0.00000000
[...]
        k(   14) = (   0.2033020   0.4065951   0.3003631), wk =   0.0640000
        k(   15) = (   0.2033020   0.4065951   0.6007261), wk =   0.0640000
        k(   16) = (   0.4065980   0.4065980   0.0000000), wk =   0.0160000
        k(   17) = (   0.4065980   0.4065980   0.3003631), wk =   0.0320000
        k(   18) = (   0.4065980   0.4065980   0.6007261), wk =   0.0320000
        k(   19) = (  -0.2032931   0.2032931   0.0000000), wk =   0.0160000
        k(   20) = (  -0.2032931   0.2032931  -0.3003631), wk =   0.0320000
        k(   21) = (  -0.2032931   0.2032931  -0.6007261), wk =   0.0320000
        k(   22) = (  -0.2032902   0.4065892   0.0000000), wk =   0.0320000
        k(   23) = (  -0.2032902   0.4065892  -0.3003631), wk =   0.0640000
        k(   24) = (  -0.2032902   0.4065892  -0.6007261), wk =   0.0640000
        k(   25) = (  -0.4065862   0.4065862   0.0000000), wk =   0.0160000
        k(   26) = (  -0.4065862   0.4065862  -0.3003631), wk =   0.0320000
        k(   27) = (  -0.4065862   0.4065862  -0.6007261), wk =   0.0320000
        k(   28) = (   0.0000000   0.0000000   0.0000000), wk =   0.0080000
        k(   29) = (   0.0000000   0.0000000   0.3003631), wk =   0.0160000
        k(   30) = (   0.0000000   0.0000000   0.6007261), wk =   0.0160000
        k(   31) = (   0.0000029   0.2032961   0.0000000), wk =   0.0320000
        k(   32) = (   0.0000029   0.2032961   0.3003631), wk =   0.0640000
        k(   33) = (   0.0000029   0.2032961   0.6007261), wk =   0.0640000
        k(   34) = (   0.0000059   0.4065921   0.0000000), wk =   0.0320000
        k(   35) = (   0.0000059   0.4065921   0.3003631), wk =   0.0640000
        k(   36) = (   0.0000059   0.4065921   0.6007261), wk =   0.0640000
        k(   37) = (   0.2032990   0.2032990   0.0000000), wk =   0.0160000
        k(   38) = (   0.2032990   0.2032990   0.3003631), wk =   0.0320000
        k(   39) = (   0.2032990   0.2032990   0.6007261), wk =   0.0320000
        k(   40) = (   0.2033020   0.4065951   0.0000000), wk =   0.0320000
        k(   41) = (   0.2033020   0.4065951   0.3003631), wk =   0.0640000
        k(   42) = (   0.2033020   0.4065951   0.6007261), wk =   0.0640000
        k(   43) = (   0.4065980   0.4065980   0.0000000), wk =   0.0160000
        k(   44) = (   0.4065980   0.4065980   0.3003631), wk =   0.0320000
        k(   45) = (   0.4065980   0.4065980   0.6007261), wk =   0.0320000
        k(   46) = (  -0.2032931   0.2032931   0.0000000), wk =   0.0160000
        k(   47) = (  -0.2032931   0.2032931  -0.3003631), wk =   0.0320000
        k(   48) = (  -0.2032931   0.2032931  -0.6007261), wk =   0.0320000
        k(   49) = (  -0.2032902   0.4065892   0.0000000), wk =   0.0320000
        k(   50) = (  -0.2032902   0.4065892  -0.3003631), wk =   0.0640000
        k(   51) = (  -0.2032902   0.4065892  -0.6007261), wk =   0.0640000
        k(   52) = (  -0.4065862   0.4065862   0.0000000), wk =   0.0160000
        k(   53) = (  -0.4065862   0.4065862  -0.3003631), wk =   0.0320000
        k(   54) = (  -0.4065862   0.4065862  -0.6007261), wk =   0.0320000

     Check: negative/imaginary core charge=   -0.000005    0.000000
     Check: negative starting charge=(component1):   -0.161760

[...]

     Threshold (ethr) on eigenvalues was too large:
     Diagonalizing with lowered threshold

     Davidson diagonalization with overlap
     ethr =  7.53E-10,  avg # of iterations =  1.9

[...]

     Total force =     0.000012     Total SCF correction =     0.000010
     SCF correction compared to forces is large: reduce conv_thr to get better values

[...]

     Volume is kept fixed: isostatic pressure set to zero

     bfgs converged in   6 scf cycles and   5 bfgs steps
     (criteria: energy < 0.10E-03, force < 0.10E-02, cell < 0.50E+00)

     End of BFGS Geometry Optimization

     Final enthalpy =    -469.8119342621 Ry
Begin final coordinates
     new unit-cell volume =    460.23642 a.u.^3 (    68.20000 Ang^3 )

CELL_PARAMETERS (alat=  8.93851073)
   0.983786837  -0.000014271   0.000000000
  -0.000014271   0.983786837   0.000000000
   0.000000000   0.000000000   0.665860833

ATOMIC_POSITIONS (crystal)
Rh0      0.000000000   0.000000000   0.000000000    0   0   0
Rh0      0.500000000   0.500000000   0.500000000    0   0   0
O1       0.307503084   0.307503084   0.000000000    1   1   0
O1      -0.307503084  -0.307503084   0.000000000    1   1   0
O1       0.807501792   0.192498208   0.500000000    1   1   0
O1       0.192498208   0.807501792   0.500000000    1   1   0
End final coordinates

     A final scf calculation at the relaxed structure.
     The G-vectors are recalculated for the final unit cell
     Results may differ from those at the preceding step.

     bravais-lattice index     =            0
     lattice parameter (alat)  =       8.9385  a.u.
     unit-cell volume          =     460.2364 (a.u.)^3
     number of atoms/cell      =            6
     number of atomic types    =            2
     number of electrons       =        54.00
     number of Kohn-Sham states=           81
     kinetic-energy cutoff     =      40.0000  Ry
     charge density cutoff     =     500.0000  Ry
     convergence threshold     =      1.0E-08
     mixing beta               =       0.7000
     number of iterations used =            8  plain     mixing
     Exchange-correlation      = SLA  PW   PBE  PBE ( 1 4 3 4 0)
     EXX-fraction              =        0.00

     celldm(1)=   8.938511  celldm(2)=   0.000000  celldm(3)=   0.000000
     celldm(4)=   0.000000  celldm(5)=   0.000000  celldm(6)=   0.000000

     crystal axes: (cart. coord. in units of alat)
               a(1) = (   0.983787  -0.000014   0.000000 )
               a(2) = (  -0.000014   0.983787   0.000000 )
               a(3) = (   0.000000   0.000000   0.665861 )

     reciprocal axes: (cart. coord. in units 2 pi/alat)
               b(1) = (  1.016480  0.000015 -0.000000 )
               b(2) = (  0.000015  1.016480 -0.000000 )
               b(3) = ( -0.000000 -0.000000  1.501815 )

     PseudoPot. # 1 for Rh read from file:
     /home/camp/zhonxu/pseudo/rh_pbe_v1.uspp.F.UPF
     MD5 check sum: 37b626987ad0dd8ec6bf4cc9ef289918
     Pseudo is Ultrasoft + core correction, Zval = 15.0
     Generated by new atomic code, or converted to UPF format
     Using radial grid of  969 points,  7 beta functions with:
                l(1) =   0
                l(2) =   0
                l(3) =   1
                l(4) =   1
                l(5) =   2
                l(6) =   2
                l(7) =   2
     Q(r) pseudized with  6 coefficients,  rinner =    1.050   1.050   1.050
                                                       1.050   1.050

     PseudoPot. # 2 for O  read from file:
     /home/camp/zhonxu/pseudo/o_pbe_v1.01.uspp.F.UPF
     MD5 check sum: 2bcb18d16ea4b960afae9ec6d52f22d2
     Pseudo is Ultrasoft + core correction, Zval =  6.0
     Generated by new atomic code, or converted to UPF format
     Using radial grid of  737 points,  5 beta functions with:
                l(1) =   0
                l(2) =   0
                l(3) =   1
                l(4) =   1
                l(5) =   2
     Q(r) pseudized with  8 coefficients,  rinner =    0.900   0.900   0.900
                                                       0.900   0.900

     atomic species   valence    mass     pseudopotential
        Rh0           15.00   102.90550     Rh( 1.00)
        O1             6.00    15.99940     O ( 1.00)

     Starting magnetic structure
     atomic species   magnetization
        Rh0          0.600
        O1           0.000

      8 Sym. Ops., with inversion, found
          (note:  8 additional sym.ops. were found but ignored
           their fractional translations are incommensurate with FFT grid)

   Cartesian axes

     site n.     atom                  positions (alat units)
         1           Rh0 tau(   1) = (   0.0000000   0.0000000   0.0000000  )
         2           Rh0 tau(   2) = (   0.4918863   0.4918863   0.3329304  )
         3           O1  tau(   3) = (   0.3025131   0.3025131   0.0000000  )
         4           O1  tau(   4) = (  -0.3025131  -0.3025131   0.0000000  )
         5           O1  tau(   5) = (   0.7944069   0.1893657   0.3329304  )
         6           O1  tau(   6) = (   0.1893657   0.7944069   0.3329304  )

     number of k points=    54  Methfessel-Paxton smearing, width (Ry)=  0.0100
                       cart. coord. in units 2pi/alat
        k(    1) = (   0.0000000   0.0000000   0.0000000), wk =   0.0080000
        k(    2) = (   0.0000000   0.0000000   0.3003631), wk =   0.0160000
        k(    3) = (   0.0000000   0.0000000   0.6007261), wk =   0.0160000
        k(    4) = (   0.0000029   0.2032961   0.0000000), wk =   0.0320000
        k(    5) = (   0.0000029   0.2032961   0.3003631), wk =   0.0640000
        k(    6) = (   0.0000029   0.2032961   0.6007261), wk =   0.0640000
        k(    7) = (   0.0000059   0.4065921   0.0000000), wk =   0.0320000
        k(    8) = (   0.0000059   0.4065921   0.3003631), wk =   0.0640000
        k(    9) = (   0.0000059   0.4065921   0.6007261), wk =   0.0640000
        k(   10) = (   0.2032990   0.2032990   0.0000000), wk =   0.0160000
        k(   11) = (   0.2032990   0.2032990   0.3003631), wk =   0.0320000
        k(   12) = (   0.2032990   0.2032990   0.6007261), wk =   0.0320000
        k(   13) = (   0.2033020   0.4065951   0.0000000), wk =   0.0320000
        k(   14) = (   0.2033020   0.4065951   0.3003631), wk =   0.0640000
        k(   15) = (   0.2033020   0.4065951   0.6007261), wk =   0.0640000
        k(   16) = (   0.4065980   0.4065980   0.0000000), wk =   0.0160000
        k(   17) = (   0.4065980   0.4065980   0.3003631), wk =   0.0320000
        k(   18) = (   0.4065980   0.4065980   0.6007261), wk =   0.0320000
        k(   19) = (  -0.2032931   0.2032931   0.0000000), wk =   0.0160000
        k(   20) = (  -0.2032931   0.2032931  -0.3003631), wk =   0.0320000
        k(   21) = (  -0.2032931   0.2032931  -0.6007261), wk =   0.0320000
        k(   22) = (  -0.2032902   0.4065892   0.0000000), wk =   0.0320000
        k(   23) = (  -0.2032902   0.4065892  -0.3003631), wk =   0.0640000
        k(   24) = (  -0.2032902   0.4065892  -0.6007261), wk =   0.0640000
        k(   25) = (  -0.4065862   0.4065862   0.0000000), wk =   0.0160000
        k(   26) = (  -0.4065862   0.4065862  -0.3003631), wk =   0.0320000
        k(   27) = (  -0.4065862   0.4065862  -0.6007261), wk =   0.0320000
        k(   28) = (   0.0000000   0.0000000   0.0000000), wk =   0.0080000
        k(   29) = (   0.0000000   0.0000000   0.3003631), wk =   0.0160000
        k(   30) = (   0.0000000   0.0000000   0.6007261), wk =   0.0160000
        k(   31) = (   0.0000029   0.2032961   0.0000000), wk =   0.0320000
        k(   32) = (   0.0000029   0.2032961   0.3003631), wk =   0.0640000
        k(   33) = (   0.0000029   0.2032961   0.6007261), wk =   0.0640000
        k(   34) = (   0.0000059   0.4065921   0.0000000), wk =   0.0320000
        k(   35) = (   0.0000059   0.4065921   0.3003631), wk =   0.0640000
        k(   36) = (   0.0000059   0.4065921   0.6007261), wk =   0.0640000
        k(   37) = (   0.2032990   0.2032990   0.0000000), wk =   0.0160000
        k(   38) = (   0.2032990   0.2032990   0.3003631), wk =   0.0320000
        k(   39) = (   0.2032990   0.2032990   0.6007261), wk =   0.0320000
        k(   40) = (   0.2033020   0.4065951   0.0000000), wk =   0.0320000
        k(   41) = (   0.2033020   0.4065951   0.3003631), wk =   0.0640000
        k(   42) = (   0.2033020   0.4065951   0.6007261), wk =   0.0640000
        k(   43) = (   0.4065980   0.4065980   0.0000000), wk =   0.0160000
        k(   44) = (   0.4065980   0.4065980   0.3003631), wk =   0.0320000
        k(   45) = (   0.4065980   0.4065980   0.6007261), wk =   0.0320000
        k(   46) = (  -0.2032931   0.2032931   0.0000000), wk =   0.0160000
        k(   47) = (  -0.2032931   0.2032931  -0.3003631), wk =   0.0320000
        k(   48) = (  -0.2032931   0.2032931  -0.6007261), wk =   0.0320000
        k(   49) = (  -0.2032902   0.4065892   0.0000000), wk =   0.0320000
        k(   50) = (  -0.2032902   0.4065892  -0.3003631), wk =   0.0640000
        k(   51) = (  -0.2032902   0.4065892  -0.6007261), wk =   0.0640000
        k(   52) = (  -0.4065862   0.4065862   0.0000000), wk =   0.0160000
        k(   53) = (  -0.4065862   0.4065862  -0.3003631), wk =   0.0320000
        k(   54) = (  -0.4065862   0.4065862  -0.6007261), wk =   0.0320000

     Largest allocated arrays     est. size (Mb)     dimensions
     Largest temporary arrays     est. size (Mb)     dimensions

     Check: negative/imaginary core charge=   -0.000005    0.000000

     Initial potential from superposition of free atoms
     Check: negative starting charge=(component1):   -0.129626
     Check: negative starting charge=(component2):   -0.032132

     starting charge   52.99980, renormalised to   54.00000

     negative rho (up, down):  0.132E+00 0.327E-01
     Starting wfc are   40 randomized atomic wfcs

     Self-consistent Calculation

[...]

     total energy              =    -469.81237488 Ry
     Harris-Foulkes estimate   =    -469.81237553 Ry
     estimated scf accuracy    <       0.00000009 Ry

[...]

     iteration # 18     ecut=    40.00 Ry     beta=0.70
     Davidson diagonalization with overlap
     ethr =  6.85E-11,  avg # of iterations =  2.0

     negative rho (up, down):  0.866E-01 0.867E-01

     End of self-consistent calculation

 ------ SPIN UP ------------

[...]

 ------ SPIN DOWN ----------

[...]

          k = 0.4066 0.4066 0.6007 (  1990 PWs)   bands (ev):

[...]

          k =-0.4066 0.4066-0.6007 (  1990 PWs)   bands (ev):

   -37.1154 -37.1140 -37.0954 -37.0935 -36.9275 -36.9271  -7.7908  -7.7387
    -7.6210  -7.5881   3.9383   4.0116   4.2544   4.2612   4.8139   5.1113
     5.9567   6.1038   7.0055   7.1716   7.9305   8.2540   8.9492   9.0137
     9.2107   9.7846  10.0438  10.4650  11.7086  12.3725  12.7791  13.4011
    20.7166  21.1756  21.9526  22.2466  23.3345  23.3639  24.3091  24.7289
    27.5486  27.5937  29.0657  29.5411  31.1396  32.5375  32.7567  32.8321
    33.2761  34.1887  37.2737  37.2929  37.5254  38.1425  38.7947  38.8024
    39.6901  40.3711  40.5411  41.5766  42.2869  42.7309  43.2934  43.7030
    44.0534  44.3863  45.3582  46.1294  46.5398  47.1553  47.4493  48.2293
    48.2859  48.8914  49.3870  49.8445  50.3395  50.5631  51.6762  52.3285
    53.8402

     the Fermi energy is    10.4766 ev

!    total energy              =    -469.81237572 Ry
     Harris-Foulkes estimate   =    -469.81237571 Ry
     estimated scf accuracy    <          6.1E-09 Ry

     The total energy is the sum of the following terms:

     one-electron contribution =    -148.63995718 Ry
     hartree contribution      =     108.39464186 Ry
     xc contribution           =     -86.81030816 Ry
     ewald contribution        =    -342.75636206 Ry
     smearing contrib. (-TS)   =      -0.00039016 Ry

     total magnetization       =     0.13 Bohr mag/cell
     absolute magnetization    =     0.13 Bohr mag/cell

     convergence has been achieved in  18 iterations

     Forces acting on atoms (Ry/au):

     negative rho (up, down):  0.866E-01 0.867E-01
     atom    1 type  1   force =     0.00000000    0.00000000    0.00000000
     atom    2 type  1   force =     0.00000000    0.00000000    0.00000000
     atom    3 type  2   force =     0.00000458    0.00000458    0.00000000
     atom    4 type  2   force =    -0.00000458   -0.00000458    0.00000000
     atom    5 type  2   force =     0.00002271   -0.00002271    0.00000000
     atom    6 type  2   force =    -0.00002271    0.00002271    0.00000000

     Total force =     0.000046     Total SCF correction =     0.000085
     SCF correction compared to forces is large: reduce conv_thr to get better values

     entering subroutine stress ...

     negative rho (up, down):  0.866E-01 0.867E-01
          total   stress  (Ry/bohr**3)                   (kbar)     P= -155.53
  -0.00106756   0.00000023   0.00000000       -157.04      0.03      0.00
   0.00000023  -0.00106756   0.00000000          0.03   -157.04      0.00
   0.00000000   0.00000000  -0.00103676          0.00      0.00   -152.51

     General routines

     Parallel routines

   This run was terminated on:  19:45:28  23Jan2014

   JOB DONE.
Running PBS batch system epilogue script
Job id: 251209.audhumbla.fysik.dtu.dk
Username: zhonxu
Groupname: campgst
Jobname: RhO2/coarse-EOS/RhO2-v-1.1
Sessionid: 14972
Queuename: verylong
Accounting:
This job has allocated the following 4 nodes:
q091 q091 q091 q091
Finished epilogue job 251209.audhumbla.fysik.dtu.dk for zhonxu