     Program PWSCF v.5.0.2 (svn rev. 9656) starts on 31May2014 at  3:23:38

     Current dimensions of program PWSCF are:
     Max number of different atomic species (ntypx) = 10
     Max number of k-points (npk) =  40000
     Max angular momentum in pseudopotentials (lmaxx) =  3
     Reading input from pwscf.in
Warning: card &CELL ignored
Warning: card / ignored

     Subspace diagonalization in iterative solution of the eigenvalue problem:
     a serial algorithm will be used

     bravais-lattice index     =            0
     lattice parameter (alat)  =      12.2076  a.u.
     unit-cell volume          =    7496.5096 (a.u.)^3
     number of atoms/cell      =           33
     number of atomic types    =            3
     number of electrons       =       253.00
     number of Kohn-Sham states=          379
     kinetic-energy cutoff     =      40.0000  Ry
     charge density cutoff     =     500.0000  Ry
     convergence threshold     =      1.0E-06
     mixing beta               =       0.7000
     number of iterations used =            8  plain     mixing
     Exchange-correlation      = SLA  PW   PBE  PBE ( 1 4 3 4 0)
     EXX-fraction              =        0.00
     nstep                     =           50

     celldm(1)=  12.207631  celldm(2)=   0.000000  celldm(3)=   0.000000
     celldm(4)=   0.000000  celldm(5)=   0.000000  celldm(6)=   0.000000

     crystal axes: (cart. coord. in units of alat)
               a(1) = (   1.000000   0.000000   0.000000 )
               a(2) = (   0.000000   1.004836   0.000000 )
               a(3) = (   0.000000   0.000000   4.100811 )

     reciprocal axes: (cart. coord. in units 2 pi/alat)
               b(1) = (  1.000000  0.000000  0.000000 )
               b(2) = (  0.000000  0.995187  0.000000 )
               b(3) = (  0.000000  0.000000  0.243854 )

     PseudoPot. # 1 for O  read from file:
     /home/camp/zhonxu/pseudo/o_pbe_v1.01.uspp.F.UPF
     MD5 check sum: 2bcb18d16ea4b960afae9ec6d52f22d2
     Pseudo is Ultrasoft + core correction, Zval =  6.0
     Generated by new atomic code, or converted to UPF format
     Using radial grid of  737 points,  5 beta functions with:
                l(1) =   0
                l(2) =   0
                l(3) =   1
                l(4) =   1
                l(5) =   2
     Q(r) pseudized with  8 coefficients,  rinner =    0.900   0.900   0.900
                                                       0.900   0.900

     PseudoPot. # 2 for Pt read from file:
     /home/camp/zhonxu/pseudo/pt_pbe_v1.uspp.F.UPF
     MD5 check sum: 4c71d6ad5ef119f1eb26a4d0b7884226
     Pseudo is Ultrasoft + core correction, Zval = 16.0
     Generated by new atomic code, or converted to UPF format
     Using radial grid of  985 points,  6 beta functions with:
                l(1) =   0
                l(2) =   0
                l(3) =   1
                l(4) =   1
                l(5) =   2
                l(6) =   2
     Q(r) pseudized with  8 coefficients,  rinner =    1.300   1.300   1.300
                                                       1.300   1.300

     PseudoPot. # 3 for H  read from file:
     /home/camp/zhonxu/pseudo/h_pbe_v1.uspp.F.UPF
     MD5 check sum: 3408e3ff4ec8b0a4e358431e7e038a48
     Pseudo is Ultrasoft, Zval =  1.0
     Generated by new atomic code, or converted to UPF format
     Using radial grid of  615 points,  2 beta functions with:
                l(1) =   0
                l(2) =   0
     Q(r) pseudized with  8 coefficients,  rinner =    0.700

     atomic species   valence    mass     pseudopotential
        O0             6.00    15.99940     O ( 1.00)
        Pt1           16.00   195.08000     Pt( 1.00)
        H2             1.00     1.00794     H ( 1.00)

     Simplified LDA+U calculation (l_max = 2) with parameters (eV):
     atomic species    L          U    alpha       J0     beta
        Pt1            2     0.0000   0.0000   0.0000   0.0000

     No symmetry found

   Cartesian axes

     site n.     atom                  positions (alat units)
         1           O0  tau(   1) = (   0.0000000   0.0000000   1.5494095  )
         2           O0  tau(   2) = (   0.0000000   0.5024180   1.6475009  )
         3           Pt1 tau(   3) = (   0.2500000   0.5024180   1.8504910  )
         4           Pt1 tau(   4) = (   0.0000000   0.0000000   1.8570523  )
         5           O0  tau(   5) = (   0.2500000   0.8139171   1.8187098  )
         6           O0  tau(   6) = (   0.2500000   0.1909188   1.8864142  )
         7           O0  tau(   7) = (   0.0000000   0.5024180   2.0369959  )
         8           O0  tau(   8) = (   0.0000000   0.0000000   2.1720357  )
         9           Pt1 tau(   9) = (   0.2500000   0.0000000   2.3614521  )
        10           Pt1 tau(  10) = (   0.0000000   0.5024180   2.3598528  )
        11           O0  tau(  11) = (   0.2500000   0.6933368   2.3268823  )
        12           O0  tau(  12) = (   0.2500000   0.3114991   2.4033624  )
        13           O0  tau(  13) = (   0.0000000   0.0000000   2.5482851  )
        14           O0  tau(  14) = (   0.5000000   0.0000000   1.5485073  )
        15           O0  tau(  15) = (   0.5000000   0.5024180   1.6434821  )
        16           Pt1 tau(  16) = (   0.7500000   0.5024180   1.8504910  )
        17           Pt1 tau(  17) = (   0.5000000   0.0000000   1.8561092  )
        18           O0  tau(  18) = (   0.7500000   0.8139171   1.8187918  )
        19           O0  tau(  19) = (   0.7500000   0.1909188   1.8863321  )
        20           O0  tau(  20) = (   0.5000000   0.5024180   2.0428191  )
        21           O0  tau(  21) = (   0.5000000   0.0000000   2.1708874  )
        22           Pt1 tau(  22) = (   0.7500000   0.0000000   2.3614521  )
        23           Pt1 tau(  23) = (   0.5000000   0.5024180   2.3628874  )
        24           O0  tau(  24) = (   0.7500000   0.6933368   2.3268003  )
        25           O0  tau(  25) = (   0.7500000   0.3114991   2.4034034  )
        26           O0  tau(  26) = (   0.5000000   0.0000000   2.5460296  )
        27           H2  tau(  27) = (   0.0000200   0.6429744   1.5830361  )
        28           H2  tau(  28) = (   0.5000600   0.6435874   1.5806577  )
        29           H2  tau(  29) = (   0.1433700   0.0339333   1.5082373  )
        30           H2  tau(  30) = (   0.6430800   0.0354607   1.5076632  )
        31           O0  tau(  31) = (   0.5001100   0.5589199   2.6603192  )
        32           O0  tau(  32) = (   0.4999400   0.3687346   2.7792838  )
        33           H2  tau(  33) = (   0.4999900   0.4305019   2.9192445  )

     number of k points=    10  Methfessel-Paxton smearing, width (Ry)=  0.0100
                       cart. coord. in units 2pi/alat
        k(    1) = (   0.0000000   0.0000000   0.0000000), wk =   0.1250000
        k(    2) = (   0.0000000   0.2487968   0.0000000), wk =   0.2500000
        k(    3) = (   0.0000000  -0.4975937   0.0000000), wk =   0.1250000
        k(    4) = (   0.2500000   0.0000000   0.0000000), wk =   0.2500000
        k(    5) = (   0.2500000   0.2487968   0.0000000), wk =   0.2500000
        k(    6) = (   0.2500000  -0.4975937   0.0000000), wk =   0.2500000
        k(    7) = (  -0.5000000   0.0000000   0.0000000), wk =   0.1250000
        k(    8) = (  -0.5000000   0.2487968   0.0000000), wk =   0.2500000
        k(    9) = (  -0.5000000  -0.4975937   0.0000000), wk =   0.1250000
        k(   10) = (  -0.2500000   0.2487968   0.0000000), wk =   0.2500000

     Largest allocated arrays     est. size (Mb)     dimensions
     Largest temporary arrays     est. size (Mb)     dimensions

     Check: negative/imaginary core charge=   -0.000003    0.000000

     Initial potential from superposition of free atoms
     Check: negative starting charge=   -1.535323

     starting charge  248.99983, renormalised to  253.00000

     negative rho (up, down):  0.156E+01 0.000E+00
     Number of +U iterations with fixed ns =  0
     Starting occupations:
 --- enter write_ns ---
 LDA+U parameters:
U( 2)     =  0.00000000
alpha( 2) =  0.00000000
atom    3   Tr[ns(na)] =   8.00000
    eigenvalues:
  0.800  0.800  0.800  0.800  0.800
    eigenvectors:
  1.000  0.000  0.000  0.000  0.000
  0.000  1.000  0.000  0.000  0.000
  0.000  0.000  1.000  0.000  0.000
  0.000  0.000  0.000  1.000  0.000
  0.000  0.000  0.000  0.000  1.000
    occupations:
  0.800  0.000  0.000  0.000  0.000
  0.000  0.800  0.000  0.000  0.000
  0.000  0.000  0.800  0.000  0.000
  0.000  0.000  0.000  0.800  0.000
  0.000  0.000  0.000  0.000  0.800
atom    4   Tr[ns(na)] =   8.00000
    eigenvalues:
  0.800  0.800  0.800  0.800  0.800
    eigenvectors:
  1.000  0.000  0.000  0.000  0.000
  0.000  1.000  0.000  0.000  0.000
  0.000  0.000  1.000  0.000  0.000
  0.000  0.000  0.000  1.000  0.000
  0.000  0.000  0.000  0.000  1.000
    occupations:
  0.800  0.000  0.000  0.000  0.000
  0.000  0.800  0.000  0.000  0.000
  0.000  0.000  0.800  0.000  0.000
  0.000  0.000  0.000  0.800  0.000
  0.000  0.000  0.000  0.000  0.800
atom    9   Tr[ns(na)] =   8.00000
    eigenvalues:
  0.800  0.800  0.800  0.800  0.800
    eigenvectors:
  1.000  0.000  0.000  0.000  0.000
  0.000  1.000  0.000  0.000  0.000
  0.000  0.000  1.000  0.000  0.000
  0.000  0.000  0.000  1.000  0.000
  0.000  0.000  0.000  0.000  1.000
    occupations:
  0.800  0.000  0.000  0.000  0.000
  0.000  0.800  0.000  0.000  0.000
  0.000  0.000  0.800  0.000  0.000
  0.000  0.000  0.000  0.800  0.000
  0.000  0.000  0.000  0.000  0.800
atom   10   Tr[ns(na)] =   8.00000
    eigenvalues:
  0.800  0.800  0.800  0.800  0.800
    eigenvectors:
  1.000  0.000  0.000  0.000  0.000
  0.000  1.000  0.000  0.000  0.000
  0.000  0.000  1.000  0.000  0.000
  0.000  0.000  0.000  1.000  0.000
  0.000  0.000  0.000  0.000  1.000
    occupations:
  0.800  0.000  0.000  0.000  0.000
  0.000  0.800  0.000  0.000  0.000
  0.000  0.000  0.800  0.000  0.000
  0.000  0.000  0.000  0.800  0.000
  0.000  0.000  0.000  0.000  0.800
atom   16   Tr[ns(na)] =   8.00000
    eigenvalues:
  0.800  0.800  0.800  0.800  0.800
    eigenvectors:
  1.000  0.000  0.000  0.000  0.000
  0.000  1.000  0.000  0.000  0.000
  0.000  0.000  1.000  0.000  0.000
  0.000  0.000  0.000  1.000  0.000
  0.000  0.000  0.000  0.000  1.000
    occupations:
  0.800  0.000  0.000  0.000  0.000
  0.000  0.800  0.000  0.000  0.000
  0.000  0.000  0.800  0.000  0.000
  0.000  0.000  0.000  0.800  0.000
  0.000  0.000  0.000  0.000  0.800
atom   17   Tr[ns(na)] =   8.00000
    eigenvalues:
  0.800  0.800  0.800  0.800  0.800
    eigenvectors:
  1.000  0.000  0.000  0.000  0.000
  0.000  1.000  0.000  0.000  0.000
  0.000  0.000  1.000  0.000  0.000
  0.000  0.000  0.000  1.000  0.000
  0.000  0.000  0.000  0.000  1.000
    occupations:
  0.800  0.000  0.000  0.000  0.000
  0.000  0.800  0.000  0.000  0.000
  0.000  0.000  0.800  0.000  0.000
  0.000  0.000  0.000  0.800  0.000
  0.000  0.000  0.000  0.000  0.800
atom   22   Tr[ns(na)] =   8.00000
    eigenvalues:
  0.800  0.800  0.800  0.800  0.800
    eigenvectors:
  1.000  0.000  0.000  0.000  0.000
  0.000  1.000  0.000  0.000  0.000
  0.000  0.000  1.000  0.000  0.000
[...]
  0.009  0.000  0.991  0.000  0.000
  0.000  0.001  0.000  0.748  0.251
  0.000  0.015  0.000  0.251  0.734
  0.991  0.000  0.009  0.000  0.000
    occupations:
  0.765  0.000 -0.008  0.027  0.000
  0.000  0.967 -0.000 -0.000 -0.029
 -0.008 -0.000  0.976 -0.001 -0.000
  0.027 -0.000 -0.001  0.975 -0.000
  0.000 -0.029 -0.000 -0.000  0.659
atom   16   Tr[ns(na)] =   8.64160
    eigenvalues:
  0.678  0.696  0.980  0.982  0.985
    eigenvectors:
  0.057  0.120  0.757  0.000  0.065
  0.704  0.296  0.000  0.000  0.000
  0.001  0.003  0.092  0.006  0.899
  0.238  0.582  0.149  0.000  0.031
  0.000  0.000  0.001  0.994  0.005
    occupations:
  0.929 -0.007  0.005 -0.111 -0.001
 -0.007  0.683 -0.002 -0.006 -0.002
  0.005 -0.002  0.984  0.015  0.000
 -0.111 -0.006  0.015  0.743 -0.001
 -0.001 -0.002  0.000 -0.001  0.982
atom   17   Tr[ns(na)] =   8.62637
    eigenvalues:
  0.682  0.699  0.972  0.978  0.982
    eigenvectors:
  0.000  0.987  0.005  0.002  0.006
  0.007  0.000  0.053  0.936  0.003
  0.000  0.004  0.917  0.047  0.032
  0.000  0.008  0.025  0.008  0.959
  0.993  0.000  0.000  0.007  0.000
    occupations:
  0.703 -0.005 -0.017  0.026 -0.001
 -0.005  0.976  0.001  0.000  0.025
 -0.017  0.001  0.972  0.003  0.000
  0.026  0.000  0.003  0.979  0.000
 -0.001  0.025  0.000  0.000  0.684
atom   22   Tr[ns(na)] =   8.59137
    eigenvalues:
  0.702  0.714  0.945  0.952  0.982
    eigenvectors:
  0.001  0.137  0.005  0.010  0.848
  0.996  0.004  0.000  0.000  0.000
  0.000  0.009  0.360  0.623  0.008
  0.003  0.850  0.001  0.002  0.144
  0.000  0.000  0.634  0.366  0.000
    occupations:
  0.945  0.002 -0.006 -0.092  0.000
  0.002  0.702  0.000 -0.000 -0.003
 -0.006  0.000  0.947 -0.022 -0.003
 -0.092 -0.000 -0.022  0.754  0.000
  0.000 -0.003 -0.003  0.000  0.948
atom   23   Tr[ns(na)] =   8.61646
    eigenvalues:
  0.694  0.699  0.954  0.979  0.983
    eigenvectors:
  0.000  0.962  0.000  0.031  0.007
  0.014  0.000  0.986  0.000  0.000
  0.000  0.030  0.000  0.969  0.001
  0.000  0.007  0.000  0.000  0.992
  0.986  0.000  0.014  0.000  0.000
    occupations:
  0.709  0.000  0.048  0.024 -0.000
  0.000  0.950  0.000 -0.000 -0.031
  0.048  0.000  0.971 -0.004 -0.000
  0.024 -0.000 -0.004  0.981 -0.000
 -0.000 -0.031 -0.000 -0.000  0.697
N of occupied +U levels =  69.0218705
 --- exit write_ns ---

     Threshold (ethr) on eigenvalues was too large:
     Diagonalizing with lowered threshold

     Davidson diagonalization with overlap
     ethr =  7.17E-08,  avg # of iterations =  1.0

[...]

     total energy              =   -2314.21773925 Ry
     Harris-Foulkes estimate   =   -2314.21773974 Ry
     estimated scf accuracy    <       0.00000595 Ry

     iteration #  7     ecut=    40.00 Ry     beta=0.70
     Davidson diagonalization with overlap
     ethr =  2.35E-09,  avg # of iterations =  1.0

     negative rho (up, down):  0.158E+01 0.000E+00

     End of self-consistent calculation
 --- enter write_ns ---
 LDA+U parameters:
U( 2)     =  0.00000000
alpha( 2) =  0.00000000
atom    3   Tr[ns(na)] =   8.64088
    eigenvalues:
  0.678  0.696  0.980  0.982  0.985
    eigenvectors:
  0.055  0.122  0.756  0.001  0.066
  0.715  0.285  0.000  0.000  0.000
  0.000  0.003  0.092  0.009  0.897
  0.230  0.590  0.149  0.000  0.031
  0.000  0.000  0.003  0.990  0.006
    occupations:
  0.929  0.007  0.005 -0.111  0.001
  0.007  0.683  0.002  0.006 -0.002
  0.005  0.002  0.983  0.015 -0.000
 -0.111  0.006  0.015  0.743  0.001
  0.001 -0.002 -0.000  0.001  0.982
atom    4   Tr[ns(na)] =   8.62665
    eigenvalues:
  0.682  0.699  0.972  0.978  0.982
    eigenvectors:
  0.000  0.987  0.005  0.001  0.007
  0.007  0.000  0.032  0.958  0.002
  0.000  0.004  0.944  0.029  0.022
  0.000  0.009  0.018  0.005  0.969
  0.993  0.000  0.000  0.007  0.000
    occupations:
  0.703 -0.005 -0.018  0.026 -0.001
 -0.005  0.976  0.001  0.000  0.025
 -0.018  0.001  0.971  0.003  0.000
  0.026  0.000  0.003  0.979  0.000
 -0.001  0.025  0.000  0.000  0.684
atom    9   Tr[ns(na)] =   8.59138
    eigenvalues:
  0.702  0.714  0.946  0.951  0.982
    eigenvectors:
  0.000  0.138  0.004  0.010  0.848
  1.000  0.000  0.000  0.000  0.000
  0.000  0.009  0.335  0.648  0.008
  0.000  0.853  0.001  0.002  0.144
  0.000  0.000  0.660  0.340  0.000
    occupations:
  0.945 -0.002 -0.006 -0.092 -0.000
 -0.002  0.702 -0.000  0.001 -0.003
 -0.006 -0.000  0.948 -0.022  0.002
 -0.092  0.001 -0.022  0.753 -0.000
 -0.000 -0.003  0.002 -0.000  0.948
atom   10   Tr[ns(na)] =   8.68256
    eigenvalues:
  0.657  0.760  0.970  0.975  0.980
    eigenvectors:
  0.000  0.984  0.000  0.001  0.016
  0.009  0.000  0.991  0.000  0.000
  0.000  0.001  0.000  0.756  0.242
  0.000  0.015  0.000  0.243  0.742
  0.991  0.000  0.009  0.000  0.000
    occupations:
  0.763  0.000 -0.008  0.027  0.000
  0.000  0.967 -0.000 -0.000 -0.029
 -0.008 -0.000  0.976 -0.001 -0.000
  0.027 -0.000 -0.001  0.975 -0.000
  0.000 -0.029 -0.000 -0.000  0.659
atom   16   Tr[ns(na)] =   8.64088
    eigenvalues:
  0.678  0.696  0.980  0.982  0.985
    eigenvectors:
  0.056  0.122  0.757  0.000  0.066
  0.711  0.289  0.000  0.000  0.000
  0.001  0.003  0.093  0.006  0.898
  0.233  0.587  0.149  0.000  0.031
  0.000  0.000  0.001  0.994  0.006
    occupations:
  0.929 -0.007  0.005 -0.111 -0.001
 -0.007  0.683 -0.002 -0.006 -0.002
  0.005 -0.002  0.983  0.015  0.000
 -0.111 -0.006  0.015  0.743 -0.001
 -0.001 -0.002  0.000 -0.001  0.982
atom   17   Tr[ns(na)] =   8.62516
    eigenvalues:
  0.682  0.699  0.972  0.978  0.982
    eigenvectors:
  0.000  0.987  0.005  0.001  0.006
  0.007  0.000  0.049  0.941  0.003
  0.000  0.004  0.923  0.043  0.030
  0.000  0.008  0.023  0.008  0.961
  0.993  0.000  0.000  0.007  0.000
    occupations:
  0.703 -0.005 -0.017  0.026 -0.001
 -0.005  0.976  0.001  0.000  0.025
 -0.017  0.001  0.971  0.003  0.000
  0.026  0.000  0.003  0.979  0.000
 -0.001  0.025  0.000  0.000  0.684
atom   22   Tr[ns(na)] =   8.59134
    eigenvalues:
  0.702  0.714  0.946  0.951  0.982
    eigenvectors:
  0.001  0.137  0.005  0.010  0.848
  0.997  0.003  0.000  0.000  0.000
  0.000  0.009  0.350  0.633  0.008
  0.002  0.851  0.001  0.002  0.144
  0.000  0.000  0.644  0.355  0.000
    occupations:
  0.945  0.002 -0.006 -0.092  0.000
  0.002  0.702  0.000 -0.000 -0.003
 -0.006  0.000  0.947 -0.022 -0.003
 -0.092 -0.000 -0.022  0.753  0.000
  0.000 -0.003 -0.003  0.000  0.948
atom   23   Tr[ns(na)] =   8.61722
    eigenvalues:
  0.694  0.699  0.954  0.979  0.983
    eigenvectors:
  0.000  0.962  0.000  0.031  0.007
  0.014  0.000  0.986  0.000  0.000
  0.000  0.030  0.000  0.969  0.000
  0.000  0.007  0.000  0.000  0.993
  0.986  0.000  0.014  0.000  0.000
    occupations:
  0.709  0.000  0.048  0.024 -0.000
  0.000  0.950  0.000 -0.000 -0.031
  0.048  0.000  0.970 -0.004 -0.000
  0.024 -0.000 -0.004  0.981 -0.000
 -0.000 -0.031 -0.000 -0.000  0.697
N of occupied +U levels =  69.0160770
 --- exit write_ns ---

[...]

          k = 0.2500-0.4976 0.0000 ( 32026 PWs)   bands (ev):

[...]

          k =-0.2500 0.2488 0.0000 ( 32025 PWs)   bands (ev):

   -55.2939 -55.2884 -55.2493 -55.1834 -55.1673 -55.1612 -55.1584 -55.1328
   -55.1305 -55.0945 -55.0058 -54.9850 -54.9810 -54.9217 -54.9154 -54.8822
   -54.8772 -54.8382 -54.8310 -54.8204 -54.8161 -54.4205 -54.1834 -53.8569
   -23.4965 -21.3987 -21.0387 -20.4957 -20.2737 -19.9843 -19.8478 -19.8105
   -19.6712 -19.6310 -19.5602 -19.5130 -19.4588 -19.4187 -19.3013 -19.2683
   -19.2119 -18.4050 -18.2772 -17.2756  -9.4606  -9.2007  -9.0890  -8.9964
    -8.7275  -8.6272  -8.5918  -8.4828  -8.3552  -8.3159  -8.2656  -8.0793
    -8.0628  -7.9840  -7.9094  -7.8345  -7.7988  -7.7022  -7.4647  -7.2765
    -7.1813  -7.0243  -6.9657  -6.8903  -6.7225  -6.5429  -6.2727  -6.1874
    -6.0568  -6.0166  -5.9778  -5.9086  -5.8499  -5.7207  -5.6508  -5.6149
    -5.5774  -5.4167  -5.3266  -5.2517  -5.1427  -5.0212  -4.9672  -4.8527
    -4.7387  -4.5953  -4.4940  -4.3113  -4.2783  -4.1769  -4.1472  -3.9862
    -3.9336  -3.8078  -3.6824  -3.6216  -3.4894  -3.4031  -3.2972  -3.2197
    -3.1960  -3.0707  -2.9678  -2.9208  -2.9032  -2.7691  -2.7039  -2.6573
    -2.6397  -2.5778  -2.3514  -2.2585  -2.0019  -1.8212  -1.7507  -1.5651
    -1.5154  -1.4390  -1.3812  -1.2733  -1.0848  -0.9452  -0.9287  -0.7873
    -0.3646  -0.1740  -0.0236   0.4092   0.6002   0.8917   1.0886   1.3682
     1.4398   1.5938   1.6266   1.9086   2.0545   2.0975   2.3916   3.4494
     3.7459   4.1204   4.5839   4.9002   5.1369   5.5921   5.7083   5.7708
     6.0145   6.2012   6.3444   6.5057   6.5456   6.7575   6.8687   6.9310
     7.0235   7.1038   7.2976   7.4723   7.6188   7.6507   7.7866   7.9030
     7.9541   8.0433   8.2164   8.2605   8.4268   8.4792   8.5564   8.6799
     8.7918   8.8273   8.8928   8.9401   9.1484   9.1862   9.3050   9.4141
     9.5369   9.5903   9.6672   9.7750   9.8596   9.9941  10.0513  10.1127
    10.2058  10.2979  10.4023  10.4961  10.5930  10.6517  10.7258  10.7755
    10.9419  10.9995  11.1232  11.2151  11.3058  11.3746  11.4361  11.5673
    11.6433  11.7263  11.8329  11.8920  11.9517  12.0247  12.0807  12.1548
    12.2459  12.2736  12.3673  12.4369  12.5712  12.6480  12.7094  12.7469
    12.8260  12.8813  12.9633  13.0015  13.1723  13.2431  13.3109  13.4099
    13.5164  13.5695  13.6344  13.6932  13.7747  13.8059  13.9136  14.0053
    14.0978  14.1538  14.2305  14.3457  14.4146  14.4463  14.5699  14.7129
    14.7511  14.7929  14.8864  14.9630  15.0623  15.1294  15.1785  15.2559
    15.3253  15.3375  15.4084  15.4499  15.5085  15.5739  15.6222  15.6661
    15.7496  15.8264  15.8560  15.8942  15.9810  16.0345  16.1140  16.1432
    16.2188  16.2763  16.3417  16.4352  16.5132  16.5838  16.7345  16.7699
    16.8165  16.8879  16.9222  16.9301  16.9688  17.0183  17.0480  17.0889
    17.1365  17.1602  17.1745  17.1806  17.1842  17.2262  17.2831  17.3173
    17.3627  17.4124  17.4638  17.4928  17.6052  17.6133  17.6752  17.7774
    17.8662  17.9547  17.9873  18.0650  18.0843  18.1229  18.2624  18.3519
    18.3814  18.3976  18.4723  18.5545  18.6083  18.6509  18.7190  18.8367
    18.9205  18.9496  19.0179  19.0980  19.1177  19.1842  19.3055  19.3723
    19.4345  19.5138  19.5568  19.6352  19.6618  19.8206  19.9610  19.9993
    20.0857  20.1451  20.1864  20.2319  20.2730  20.3108  20.3425  20.3983
    20.5053  20.5617  20.6521  20.7032  20.7416  20.7952  20.8229  20.8552
    20.9295  20.9881  21.0453  21.0722  21.1508  21.2226  21.2981  21.3311
    21.3763  21.4926  21.5057  21.5868  21.6139  21.6809  21.7768  21.8637
    21.9257  21.9784  22.0649  22.1492  22.2045  22.2757  22.3168  22.3450
    22.4148  22.4714  22.5564

     the Fermi energy is    -0.8936 ev

!    total energy              =   -2314.21773887 Ry
     Harris-Foulkes estimate   =   -2314.21773955 Ry
     estimated scf accuracy    <       0.00000072 Ry

     The total energy is the sum of the following terms:

     one-electron contribution =  -24123.39363818 Ry
     hartree contribution      =   12110.87993438 Ry
     xc contribution           =    -579.96559696 Ry
     ewald contribution        =   10278.26163852 Ry
     Hubbard energy            =       0.00000000 Ry
     smearing contrib. (-TS)   =      -0.00007663 Ry

     convergence has been achieved in   7 iterations

     Forces acting on atoms (Ry/au):

     negative rho (up, down):  0.158E+01 0.000E+00
     atom    1 type  1   force =    -0.00815132   -0.00443310   -0.00040801
     atom    2 type  1   force =     0.00013642    0.00449454   -0.00055848
     atom    3 type  2   force =     0.00515709    0.00631223    0.00003669
     atom    4 type  2   force =     0.01058260    0.00348374   -0.00026485
     atom    5 type  1   force =     0.00102240   -0.00496194   -0.00008932
     atom    6 type  1   force =     0.00016302   -0.00139817   -0.00011339
     atom    7 type  1   force =     0.00011307   -0.00242157    0.00008119
     atom    8 type  1   force =    -0.00409897    0.00054363   -0.00043760
     atom    9 type  2   force =     0.00624628    0.00433883   -0.00021041
     atom   10 type  2   force =    -0.00008820   -0.02099724    0.00006895
     atom   11 type  1   force =    -0.00396765    0.00200221   -0.00003058
     atom   12 type  1   force =    -0.01332047    0.01073712    0.00008639
     atom   13 type  1   force =    -0.00115045   -0.00776270   -0.00047834
     atom   14 type  1   force =    -0.00805492   -0.00427200   -0.00005384
     atom   15 type  1   force =     0.00014735    0.00248815    0.00083299
     atom   16 type  2   force =    -0.00602151    0.00640546    0.00010823
     atom   17 type  2   force =     0.01023249    0.00486837    0.00006834
     atom   18 type  1   force =     0.00121868   -0.00498391   -0.00010774
     atom   19 type  1   force =    -0.00028298   -0.00130892   -0.00012996
     atom   20 type  1   force =     0.00004108   -0.00347512   -0.00015040
     atom   21 type  1   force =    -0.00391609    0.00219158    0.00005301
     atom   22 type  2   force =    -0.00252366    0.00429106   -0.00022136
     atom   23 type  2   force =     0.00007518    0.00603287    0.00032527
     atom   24 type  1   force =     0.00399555    0.00201948   -0.00003151
     atom   25 type  1   force =     0.01340083    0.01081359    0.00001668
     atom   26 type  1   force =    -0.00112597   -0.01506013   -0.00013109
     atom   27 type  3   force =     0.00000726    0.00037894    0.00000564
     atom   28 type  3   force =     0.00001619   -0.00041583    0.00022819
     atom   29 type  3   force =     0.00016403    0.00002670    0.00012499
     atom   30 type  3   force =    -0.00002482   -0.00008223   -0.00015661
     atom   31 type  1   force =     0.00004254   -0.00002643    0.00061762
     atom   32 type  1   force =    -0.00003866   -0.00005730    0.00074292
     atom   33 type  3   force =     0.00000362    0.00022809    0.00017637

     Total force =     0.001861     Total SCF correction =     0.004606
     SCF correction compared to forces is large: reduce conv_thr to get better values

     entering subroutine stress ...

     negative rho (up, down):  0.158E+01 0.000E+00
          total   stress  (Ry/bohr**3)                   (kbar)     P=  -18.10
  -0.00019383   0.00000003   0.00000421        -28.51      0.00      0.62
   0.00000003  -0.00012698  -0.00000634          0.00    -18.68     -0.93
   0.00000421  -0.00000634  -0.00004826          0.62     -0.93     -7.10

     bfgs converged in   2 scf cycles and   1 bfgs steps
     (criteria: energy < 0.10E-03, force < 0.10E-02)

     End of BFGS Geometry Optimization

     Final energy   =   -2314.2177388687 Ry
Begin final coordinates

ATOMIC_POSITIONS (crystal)
O0       0.000000000   0.000000000   0.377819859    0   0   1
O0       0.000000000   0.500000000   0.401734787    0   0   1
Pt1      0.250000000   0.500000000   0.451249514    0   0   1
Pt1      0.000000000   0.000000000   0.452840501    0   0   1
O0       0.250000000   0.810000000   0.443497466    0   0   1
O0       0.250000000   0.190000000   0.460007919    0   0   1
O0       0.000000000   0.500000000   0.496740024    0   0   1
O0       0.000000000   0.000000000   0.529657628    0   0   1
Pt1      0.250000000   0.000000000   0.575841965    0   0   1
Pt1      0.000000000   0.500000000   0.575460966    0   0   1
O0       0.250000000   0.690000000   0.567420330    0   0   1
O0       0.250000000   0.310000000   0.586071457    0   0   1
O0       0.000000000   0.000000000   0.621397855    0   0   1
O0       0.500000000   0.000000000   0.377607709    0   0   1
O0       0.500000000   0.500000000   0.400791392    0   0   1
Pt1      0.750000000   0.500000000   0.451252056    0   0   1
Pt1      0.500000000   0.000000000   0.452620587    0   0   1
O0       0.750000000   0.810000000   0.443516909    0   0   1
O0       0.750000000   0.190000000   0.459987437    0   0   1
O0       0.500000000   0.500000000   0.498142937    0   0   1
O0       0.500000000   0.000000000   0.529385930    0   0   1
Pt1      0.750000000   0.000000000   0.575841685    0   0   1
Pt1      0.500000000   0.500000000   0.576209580    0   0   1
O0       0.750000000   0.690000000   0.567400341    0   0   1
O0       0.750000000   0.310000000   0.586079968    0   0   1
O0       0.500000000   0.000000000   0.620863719    0   0   1
H2       0.000020657   0.639928998   0.386028226
H2       0.500061198   0.640459626   0.385453749
H2       0.143391075   0.033774222   0.367792952
H2       0.643086282   0.035285189   0.367645953
O0       0.500113414   0.556233200   0.648742883
O0       0.499936717   0.366930526   0.677747848
H2       0.499990208   0.428465996   0.711877868
End final coordinates

     General routines

     Parallel routines
     Hubbard U routines

   This run was terminated on:   6:14:39  31May2014

   JOB DONE.