     Program PWSCF v.5.0.2 (svn rev. 9656) starts on  8May2014 at 23:49: 7

     Current dimensions of program PWSCF are:
     Max number of different atomic species (ntypx) = 10
     Max number of k-points (npk) =  40000
     Max angular momentum in pseudopotentials (lmaxx) =  3
     Reading input from pwscf.in
Warning: card &CELL ignored
Warning: card / ignored

     Subspace diagonalization in iterative solution of the eigenvalue problem:
     a serial algorithm will be used

     bravais-lattice index     =            0
     lattice parameter (alat)  =      11.1872  a.u.
     unit-cell volume          =    7531.8600 (a.u.)^3
     number of atoms/cell      =           30
     number of atomic types    =            3
     number of electrons       =       216.00
     number of Kohn-Sham states=          324
     kinetic-energy cutoff     =      40.0000  Ry
     charge density cutoff     =     500.0000  Ry
     convergence threshold     =      1.0E-06
     mixing beta               =       0.7000
     number of iterations used =            8  plain     mixing
     Exchange-correlation      = SLA  PW   PBE  PBE ( 1 4 3 4 0)
     EXX-fraction              =        0.00
     nstep                     =           50

     celldm(1)=  11.187179  celldm(2)=   0.000000  celldm(3)=   0.000000
     celldm(4)=   0.000000  celldm(5)=   0.000000  celldm(6)=   0.000000

     crystal axes: (cart. coord. in units of alat)
               a(1) = (   1.000000   0.000000   0.000000 )
               a(2) = (   0.000000   1.180104   0.000000 )
               a(3) = (   0.000000   0.000000   4.558482 )

     reciprocal axes: (cart. coord. in units 2 pi/alat)
               b(1) = (  1.000000  0.000000  0.000000 )
               b(2) = (  0.000000  0.847383  0.000000 )
               b(3) = (  0.000000  0.000000  0.219371 )

     PseudoPot. # 1 for O  read from file:
     /home/camp/zhonxu/pseudo/o_pbe_v1.01.uspp.F.UPF
     MD5 check sum: 2bcb18d16ea4b960afae9ec6d52f22d2
     Pseudo is Ultrasoft + core correction, Zval =  6.0
     Generated by new atomic code, or converted to UPF format
     Using radial grid of  737 points,  5 beta functions with:
                l(1) =   0
                l(2) =   0
                l(3) =   1
                l(4) =   1
                l(5) =   2
     Q(r) pseudized with  8 coefficients,  rinner =    0.900   0.900   0.900
                                                       0.900   0.900

     PseudoPot. # 2 for Nb read from file:
     /home/camp/zhonxu/pseudo/nb_pbe_v1.uspp.F.UPF
     MD5 check sum: 573aab8a2fa660278ed4a62cd769473f
     Pseudo is Ultrasoft + core correction, Zval = 13.0
     Generated by new atomic code, or converted to UPF format
     Using radial grid of  887 points,  6 beta functions with:
                l(1) =   0
                l(2) =   0
                l(3) =   1
                l(4) =   1
                l(5) =   2
                l(6) =   2
     Q(r) pseudized with  6 coefficients,  rinner =    1.000   1.000   1.000
                                                       1.000   1.000

     PseudoPot. # 3 for H  read from file:
     /home/camp/zhonxu/pseudo/h_pbe_v1.uspp.F.UPF
     MD5 check sum: 3408e3ff4ec8b0a4e358431e7e038a48
     Pseudo is Ultrasoft, Zval =  1.0
     Generated by new atomic code, or converted to UPF format
     Using radial grid of  615 points,  2 beta functions with:
                l(1) =   0
                l(2) =   0
     Q(r) pseudized with  8 coefficients,  rinner =    0.700

     atomic species   valence    mass     pseudopotential
        O0             6.00    15.99940     O ( 1.00)
        Nb1           13.00    92.90640     Nb( 1.00)
        H2             1.00     1.00794     H ( 1.00)

     Simplified LDA+U calculation (l_max = 2) with parameters (eV):
     atomic species    L          U    alpha       J0     beta
        Nb1            2     2.0000   0.0000   0.0000   0.0000

     No symmetry found

   Cartesian axes

     site n.     atom                  positions (alat units)
         1           O0  tau(   1) = (   0.0000000   0.0000000   1.7080633  )
         2           O0  tau(   2) = (   0.0000000   0.5900519   1.7583889  )
         3           Nb1 tau(   3) = (   0.2500000   0.5900519   2.0066439  )
         4           Nb1 tau(   4) = (   0.0000000   0.0000000   2.0401487  )
         5           O0  tau(   5) = (   0.2500000   0.9322821   2.0429294  )
         6           O0  tau(   6) = (   0.2500000   0.2478218   2.0431118  )
         7           O0  tau(   7) = (   0.0000000   0.5900519   2.2709903  )
         8           O0  tau(   8) = (   0.0000000   0.0000000   2.3999042  )
         9           Nb1 tau(   9) = (   0.2500000   0.0000000   2.6489340  )
        10           Nb1 tau(  10) = (   0.0000000   0.5900519   2.5868019  )
        11           O0  tau(  11) = (   0.2500000   0.8378738   2.6444667  )
        12           O0  tau(  12) = (   0.2500000   0.3422301   2.6445123  )
        13           O0  tau(  13) = (   0.0000000   0.0000000   2.8518777  )
        14           O0  tau(  14) = (   0.5000000   0.0000000   1.7080633  )
        15           O0  tau(  15) = (   0.5000000   0.5900519   1.7583889  )
        16           Nb1 tau(  16) = (   0.7500000   0.5900519   2.0066439  )
        17           Nb1 tau(  17) = (   0.5000000   0.0000000   2.0401487  )
        18           O0  tau(  18) = (   0.7500000   0.9322821   2.0429294  )
        19           O0  tau(  19) = (   0.7500000   0.2478218   2.0431118  )
        20           O0  tau(  20) = (   0.5000000   0.5900519   2.2709903  )
        21           O0  tau(  21) = (   0.5000000   0.0000000   2.3999497  )
        22           Nb1 tau(  22) = (   0.7500000   0.0000000   2.6489340  )
        23           Nb1 tau(  23) = (   0.5000000   0.5900519   2.5867563  )
        24           O0  tau(  24) = (   0.7500000   0.8378738   2.6444667  )
        25           O0  tau(  25) = (   0.7500000   0.3422301   2.6445123  )
        26           O0  tau(  26) = (   0.5000000   0.0000000   2.8518777  )
        27           H2  tau(  27) = (  -0.0004200   0.5934860   1.5928705  )
        28           H2  tau(  28) = (   0.4995800   0.5932146   1.5928249  )
        29           H2  tau(  29) = (   0.1513000  -0.0014397   1.6372701  )
        30           H2  tau(  30) = (   0.6512900  -0.0014397   1.6372701  )

     number of k points=    10  Methfessel-Paxton smearing, width (Ry)=  0.0100
                       cart. coord. in units 2pi/alat
        k(    1) = (   0.0000000   0.0000000   0.0000000), wk =   0.1250000
        k(    2) = (   0.0000000   0.2118458   0.0000000), wk =   0.2500000
        k(    3) = (   0.0000000  -0.4236915   0.0000000), wk =   0.1250000
        k(    4) = (   0.2500000   0.0000000   0.0000000), wk =   0.2500000
        k(    5) = (   0.2500000   0.2118458   0.0000000), wk =   0.2500000
        k(    6) = (   0.2500000  -0.4236915   0.0000000), wk =   0.2500000
        k(    7) = (  -0.5000000   0.0000000   0.0000000), wk =   0.1250000
        k(    8) = (  -0.5000000   0.2118458   0.0000000), wk =   0.2500000
        k(    9) = (  -0.5000000  -0.4236915   0.0000000), wk =   0.1250000
        k(   10) = (  -0.2500000   0.2118458   0.0000000), wk =   0.2500000

     Largest allocated arrays     est. size (Mb)     dimensions
     Largest temporary arrays     est. size (Mb)     dimensions

     Check: negative/imaginary core charge=   -0.000003    0.000000

     Initial potential from superposition of free atoms
     Check: negative starting charge=   -0.003843

     starting charge  215.97807, renormalised to  216.00000

     negative rho (up, down):  0.384E-02 0.000E+00
     Number of +U iterations with fixed ns =  0
     Starting occupations:
 --- enter write_ns ---
 LDA+U parameters:
U( 2)     =  2.00000000
alpha( 2) =  0.00000000
atom    3   Tr[ns(na)] =   3.00000
    eigenvalues:
  0.300  0.300  0.300  0.300  0.300
    eigenvectors:
  1.000  0.000  0.000  0.000  0.000
  0.000  1.000  0.000  0.000  0.000
  0.000  0.000  1.000  0.000  0.000
  0.000  0.000  0.000  1.000  0.000
  0.000  0.000  0.000  0.000  1.000
    occupations:
  0.300  0.000  0.000  0.000  0.000
  0.000  0.300  0.000  0.000  0.000
  0.000  0.000  0.300  0.000  0.000
  0.000  0.000  0.000  0.300  0.000
  0.000  0.000  0.000  0.000  0.300
atom    4   Tr[ns(na)] =   3.00000
    eigenvalues:
  0.300  0.300  0.300  0.300  0.300
    eigenvectors:
  1.000  0.000  0.000  0.000  0.000
  0.000  1.000  0.000  0.000  0.000
  0.000  0.000  1.000  0.000  0.000
  0.000  0.000  0.000  1.000  0.000
  0.000  0.000  0.000  0.000  1.000
    occupations:
  0.300  0.000  0.000  0.000  0.000
  0.000  0.300  0.000  0.000  0.000
  0.000  0.000  0.300  0.000  0.000
  0.000  0.000  0.000  0.300  0.000
  0.000  0.000  0.000  0.000  0.300
atom    9   Tr[ns(na)] =   3.00000
    eigenvalues:
  0.300  0.300  0.300  0.300  0.300
    eigenvectors:
  1.000  0.000  0.000  0.000  0.000
  0.000  1.000  0.000  0.000  0.000
  0.000  0.000  1.000  0.000  0.000
  0.000  0.000  0.000  1.000  0.000
  0.000  0.000  0.000  0.000  1.000
    occupations:
  0.300  0.000  0.000  0.000  0.000
  0.000  0.300  0.000  0.000  0.000
  0.000  0.000  0.300  0.000  0.000
  0.000  0.000  0.000  0.300  0.000
  0.000  0.000  0.000  0.000  0.300
atom   10   Tr[ns(na)] =   3.00000
    eigenvalues:
  0.300  0.300  0.300  0.300  0.300
    eigenvectors:
  1.000  0.000  0.000  0.000  0.000
  0.000  1.000  0.000  0.000  0.000
  0.000  0.000  1.000  0.000  0.000
  0.000  0.000  0.000  1.000  0.000
  0.000  0.000  0.000  0.000  1.000
    occupations:
  0.300  0.000  0.000  0.000  0.000
  0.000  0.300  0.000  0.000  0.000
  0.000  0.000  0.300  0.000  0.000
  0.000  0.000  0.000  0.300  0.000
  0.000  0.000  0.000  0.000  0.300
atom   16   Tr[ns(na)] =   3.00000
    eigenvalues:
  0.300  0.300  0.300  0.300  0.300
    eigenvectors:
  1.000  0.000  0.000  0.000  0.000
  0.000  1.000  0.000  0.000  0.000
  0.000  0.000  1.000  0.000  0.000
  0.000  0.000  0.000  1.000  0.000
  0.000  0.000  0.000  0.000  1.000
    occupations:
  0.300  0.000  0.000  0.000  0.000
  0.000  0.300  0.000  0.000  0.000
  0.000  0.000  0.300  0.000  0.000
  0.000  0.000  0.000  0.300  0.000
  0.000  0.000  0.000  0.000  0.300
atom   17   Tr[ns(na)] =   3.00000
    eigenvalues:
  0.300  0.300  0.300  0.300  0.300
    eigenvectors:
  1.000  0.000  0.000  0.000  0.000
  0.000  1.000  0.000  0.000  0.000
  0.000  0.000  1.000  0.000  0.000
  0.000  0.000  0.000  1.000  0.000
  0.000  0.000  0.000  0.000  1.000
    occupations:
  0.300  0.000  0.000  0.000  0.000
  0.000  0.300  0.000  0.000  0.000
  0.000  0.000  0.300  0.000  0.000
  0.000  0.000  0.000  0.300  0.000
  0.000  0.000  0.000  0.000  0.300
atom   22   Tr[ns(na)] =   3.00000
    eigenvalues:
  0.300  0.300  0.300  0.300  0.300
    eigenvectors:
  1.000  0.000  0.000  0.000  0.000
  0.000  1.000  0.000  0.000  0.000
  0.000  0.000  1.000  0.000  0.000
  0.000  0.000  0.000  1.000  0.000
  0.000  0.000  0.000  0.000  1.000
    occupations:
  0.300  0.000  0.000  0.000  0.000
  0.000  0.300  0.000  0.000  0.000
  0.000  0.000  0.300  0.000  0.000
  0.000  0.000  0.000  0.300  0.000
[...]
  0.662  0.000  0.001 -0.084 -0.000
  0.000  0.503  0.000  0.000  0.000
  0.001  0.000  0.425 -0.000 -0.005
 -0.084  0.000 -0.000  0.634  0.000
 -0.000  0.000 -0.005  0.000  0.378
atom    4   Tr[ns(na)] =   5.24545
    eigenvalues:
  0.413  0.448  0.549  0.580  0.633
    eigenvectors:
  0.000  0.005  0.000  0.995  0.000
  0.000  0.994  0.000  0.005  0.001
  1.000  0.000  0.000  0.000  0.000
  0.000  0.001  0.000  0.000  0.999
  0.000  0.000  1.000  0.000  0.000
    occupations:
  0.579  0.009 -0.000  0.000 -0.000
  0.009  0.449  0.000 -0.006 -0.000
 -0.000  0.000  0.413  0.000  0.001
  0.000 -0.006  0.000  0.633  0.000
 -0.000 -0.000  0.001  0.000  0.549
atom    9   Tr[ns(na)] =   5.28805
    eigenvalues:
  0.454  0.466  0.514  0.603  0.607
    eigenvectors:
  0.885  0.000  0.000  0.115  0.000
  0.000  0.000  0.000  0.000  1.000
  0.000  0.000  1.000  0.000  0.000
  0.115  0.000  0.000  0.885  0.000
  0.000  1.000  0.000  0.000  0.000
    occupations:
  0.471 -0.000 -0.000  0.048  0.000
 -0.000  0.607  0.000 -0.000  0.000
 -0.000  0.000  0.514  0.000  0.000
  0.048 -0.000  0.000  0.586 -0.000
  0.000  0.000  0.000 -0.000  0.466
atom   10   Tr[ns(na)] =   5.13576
    eigenvalues:
  0.385  0.496  0.510  0.518  0.658
    eigenvectors:
  0.000  0.995  0.000  0.000  0.005
  0.000  0.000  1.000  0.000  0.000
  1.000  0.000  0.000  0.000  0.000
  0.000  0.005  0.000  0.000  0.995
  0.000  0.000  0.000  1.000  0.000
    occupations:
  0.497  0.000  0.000 -0.011 -0.000
  0.000  0.510 -0.000 -0.000 -0.000
  0.000 -0.000  0.385 -0.000  0.000
 -0.011 -0.000 -0.000  0.658 -0.000
 -0.000 -0.000  0.000 -0.000  0.518
atom   16   Tr[ns(na)] =   5.20509
    eigenvalues:
  0.378  0.425  0.503  0.563  0.733
    eigenvectors:
  0.000  0.000  0.000  0.417  0.583
  0.000  0.000  1.000  0.000  0.000
  0.010  0.990  0.000  0.000  0.000
  0.000  0.000  0.000  0.583  0.417
  0.990  0.010  0.000  0.000  0.000
    occupations:
  0.662  0.000  0.001 -0.084  0.000
  0.000  0.503  0.000  0.000  0.000
  0.001  0.000  0.425 -0.000 -0.005
 -0.084  0.000 -0.000  0.634 -0.000
  0.000  0.000 -0.005 -0.000  0.378
atom   17   Tr[ns(na)] =   5.24536
    eigenvalues:
  0.413  0.448  0.549  0.580  0.633
    eigenvectors:
  0.000  0.005  0.000  0.995  0.000
  0.000  0.994  0.000  0.005  0.001
  1.000  0.000  0.000  0.000  0.000
  0.000  0.001  0.000  0.000  0.999
  0.000  0.000  1.000  0.000  0.000
    occupations:
  0.579  0.009 -0.000  0.000 -0.000
  0.009  0.449  0.000 -0.006 -0.000
 -0.000  0.000  0.413  0.000  0.001
  0.000 -0.006  0.000  0.633  0.000
 -0.000 -0.000  0.001  0.000  0.549
atom   22   Tr[ns(na)] =   5.28805
    eigenvalues:
  0.454  0.466  0.514  0.603  0.607
    eigenvectors:
  0.885  0.000  0.000  0.115  0.000
  0.000  0.000  0.000  0.000  1.000
  0.000  0.000  1.000  0.000  0.000
  0.115  0.000  0.000  0.885  0.000
  0.000  1.000  0.000  0.000  0.000
    occupations:
  0.471 -0.000 -0.000  0.048  0.000
 -0.000  0.607  0.000 -0.000  0.000
 -0.000  0.000  0.514  0.000  0.000
  0.048 -0.000  0.000  0.586 -0.000
  0.000  0.000  0.000 -0.000  0.466
atom   23   Tr[ns(na)] =   5.13673
    eigenvalues:
  0.385  0.496  0.510  0.518  0.659
    eigenvectors:
  0.000  0.995  0.000  0.000  0.005
  0.000  0.000  1.000  0.000  0.000
  1.000  0.000  0.000  0.000  0.000
  0.000  0.005  0.000  0.000  0.995
  0.000  0.000  0.000  1.000  0.000
    occupations:
  0.497  0.000  0.000 -0.011 -0.000
  0.000  0.510 -0.000 -0.000  0.000
  0.000 -0.000  0.385 -0.000  0.000
 -0.011 -0.000 -0.000  0.658 -0.000
 -0.000  0.000  0.000 -0.000  0.518
N of occupied +U levels =  41.7495849
 --- exit write_ns ---

     Threshold (ethr) on eigenvalues was too large:
     Diagonalizing with lowered threshold

     Davidson diagonalization with overlap
     ethr =  2.78E-09,  avg # of iterations =  3.0

[...]

     total energy              =   -1528.78778134 Ry
     Harris-Foulkes estimate   =   -1528.78778134 Ry
     estimated scf accuracy    <       0.00000002 Ry

     iteration #  9     ecut=    40.00 Ry     beta=0.70
     Davidson diagonalization with overlap
     ethr =  7.73E-12,  avg # of iterations =  2.0

     negative rho (up, down):  0.358E-02 0.000E+00

     End of self-consistent calculation
 --- enter write_ns ---
 LDA+U parameters:
U( 2)     =  2.00000000
alpha( 2) =  0.00000000
atom    3   Tr[ns(na)] =   5.20574
    eigenvalues:
  0.378  0.426  0.503  0.563  0.733
    eigenvectors:
  0.000  0.000  0.000  0.417  0.583
  0.000  0.000  1.000  0.000  0.000
  0.010  0.990  0.000  0.000  0.000
  0.000  0.000  0.000  0.583  0.417
  0.990  0.010  0.000  0.000  0.000
    occupations:
  0.662  0.000  0.001 -0.084 -0.000
  0.000  0.503  0.000  0.000  0.000
  0.001  0.000  0.425 -0.000 -0.005
 -0.084  0.000 -0.000  0.634  0.000
 -0.000  0.000 -0.005  0.000  0.379
atom    4   Tr[ns(na)] =   5.24548
    eigenvalues:
  0.413  0.448  0.549  0.580  0.633
    eigenvectors:
  0.000  0.005  0.000  0.995  0.000
  0.000  0.994  0.000  0.005  0.001
  1.000  0.000  0.000  0.000  0.000
  0.000  0.001  0.000  0.000  0.999
  0.000  0.000  1.000  0.000  0.000
    occupations:
  0.579  0.009 -0.000  0.000 -0.000
  0.009  0.449  0.000 -0.006 -0.000
 -0.000  0.000  0.413  0.000  0.001
  0.000 -0.006  0.000  0.633  0.000
 -0.000 -0.000  0.001  0.000  0.549
atom    9   Tr[ns(na)] =   5.28824
    eigenvalues:
  0.454  0.466  0.514  0.603  0.607
    eigenvectors:
  0.885  0.000  0.000  0.115  0.000
  0.000  0.000  0.000  0.000  1.000
  0.000  0.000  1.000  0.000  0.000
  0.115  0.000  0.000  0.885  0.000
  0.000  1.000  0.000  0.000  0.000
    occupations:
  0.471 -0.000 -0.000  0.048  0.000
 -0.000  0.607  0.000 -0.000  0.000
 -0.000  0.000  0.514  0.000  0.000
  0.048 -0.000  0.000  0.586 -0.000
  0.000  0.000  0.000 -0.000  0.466
atom   10   Tr[ns(na)] =   5.13550
    eigenvalues:
  0.385  0.496  0.510  0.518  0.658
    eigenvectors:
  0.000  0.995  0.000  0.000  0.005
  0.000  0.000  1.000  0.000  0.000
  1.000  0.000  0.000  0.000  0.000
  0.000  0.005  0.000  0.000  0.995
  0.000  0.000  0.000  1.000  0.000
    occupations:
  0.497  0.000  0.000 -0.011 -0.000
  0.000  0.510 -0.000 -0.000 -0.000
  0.000 -0.000  0.385 -0.000  0.000
 -0.011 -0.000 -0.000  0.658 -0.000
 -0.000 -0.000  0.000 -0.000  0.518
atom   16   Tr[ns(na)] =   5.20574
    eigenvalues:
  0.378  0.426  0.503  0.563  0.733
    eigenvectors:
  0.000  0.000  0.000  0.417  0.583
  0.000  0.000  1.000  0.000  0.000
  0.010  0.990  0.000  0.000  0.000
  0.000  0.000  0.000  0.583  0.417
  0.990  0.010  0.000  0.000  0.000
    occupations:
  0.662  0.000  0.001 -0.084  0.000
  0.000  0.503  0.000  0.000  0.000
  0.001  0.000  0.425 -0.000 -0.005
 -0.084  0.000 -0.000  0.634 -0.000
  0.000  0.000 -0.005 -0.000  0.379
atom   17   Tr[ns(na)] =   5.24550
    eigenvalues:
  0.413  0.448  0.549  0.580  0.633
    eigenvectors:
  0.000  0.005  0.000  0.995  0.000
  0.000  0.994  0.000  0.005  0.001
  1.000  0.000  0.000  0.000  0.000
  0.000  0.001  0.000  0.000  0.999
  0.000  0.000  1.000  0.000  0.000
    occupations:
  0.579  0.009 -0.000  0.000 -0.000
  0.009  0.449  0.000 -0.006 -0.000
 -0.000  0.000  0.413  0.000  0.001
  0.000 -0.006  0.000  0.633  0.000
 -0.000 -0.000  0.001  0.000  0.549
atom   22   Tr[ns(na)] =   5.28824
    eigenvalues:
  0.454  0.466  0.514  0.603  0.607
    eigenvectors:
  0.885  0.000  0.000  0.115  0.000
  0.000  0.000  0.000  0.000  1.000
  0.000  0.000  1.000  0.000  0.000
  0.115  0.000  0.000  0.885  0.000
  0.000  1.000  0.000  0.000  0.000
    occupations:
  0.471 -0.000 -0.000  0.048  0.000
 -0.000  0.607  0.000 -0.000  0.000
 -0.000  0.000  0.514  0.000  0.000
  0.048 -0.000  0.000  0.586 -0.000
  0.000  0.000  0.000 -0.000  0.466
atom   23   Tr[ns(na)] =   5.13547
    eigenvalues:
  0.385  0.496  0.510  0.518  0.658
    eigenvectors:
  0.000  0.995  0.000  0.000  0.005
  0.000  0.000  1.000  0.000  0.000
  1.000  0.000  0.000  0.000  0.000
  0.000  0.005  0.000  0.000  0.995
  0.000  0.000  0.000  1.000  0.000
    occupations:
  0.497  0.000  0.000 -0.011 -0.000
  0.000  0.510 -0.000 -0.000  0.000
  0.000 -0.000  0.385 -0.000  0.000
 -0.011 -0.000 -0.000  0.658 -0.000
 -0.000  0.000  0.000 -0.000  0.518
N of occupied +U levels =  41.7498869
 --- exit write_ns ---

[...]

          k = 0.2500-0.4237 0.0000 ( 32188 PWs)   bands (ev):

[...]

          k =-0.2500 0.2118 0.0000 ( 32165 PWs)   bands (ev):

   -56.1821 -56.1174 -55.7891 -55.7327 -55.6641 -55.6089 -55.5961 -55.5411
   -33.0105 -32.3818 -32.2786 -32.2561 -32.2315 -32.2177 -32.1701 -32.1673
   -32.1334 -32.1039 -32.0842 -32.0356 -32.0081 -32.0026 -31.8374 -31.8139
   -31.6841 -31.6499 -31.6440 -31.6091 -31.5229 -31.5064 -31.4455 -31.2619
   -20.4205 -20.3001 -19.2684 -18.9938 -18.9220 -18.8287 -18.7632 -18.7160
   -18.6603 -18.6544 -18.6139 -18.5831 -18.1086 -18.0770 -18.0102 -17.9918
   -17.8857 -17.7376  -8.8802  -8.5999  -7.4915  -6.9494  -6.7806  -6.6234
    -6.4998  -6.4321  -6.3449  -6.1726  -6.1584  -6.1109  -6.0965  -5.8828
    -5.8558  -5.8331  -5.8171  -5.5444  -5.5319  -5.4194  -5.1095  -5.0916
    -5.0261  -4.9394  -4.8205  -4.6481  -4.4961  -4.3802  -4.3118  -4.2971
    -4.2564  -4.1768  -3.9806  -3.9689  -3.9478  -3.8945  -3.8474  -3.8325
    -3.5905  -3.5532  -3.5161  -3.4858  -3.3895  -3.3064  -3.1586  -3.1442
    -3.0593  -2.9817  -2.8604  -2.7362  -2.6623  -2.5590  -2.4951  -2.1839
    -0.4611   0.3192   0.4184   0.9843   1.0468   1.3393   1.5898   1.7282
     1.7510   1.8758   2.0936   2.1714   2.3050   2.3938   2.4099   2.4611
     2.6149   2.6838   2.7304   2.8298   2.8535   2.9231   2.9886   3.0494
     3.2601   3.3522   3.6383   4.2395   4.5065   4.5631   4.6890   4.8387
     4.9689   5.0855   5.1014   5.1979   5.3160   5.3815   5.5276   5.6458
     5.7701   5.8788   5.9594   6.0208   6.2364   6.3104   6.4056   6.5041
     6.5423   6.6030   6.6723   6.8186   6.9484   7.0078   7.2080   7.2481
     7.3617   7.5239   7.7265   7.8089   7.9274   7.9462   8.1398   8.1565
     8.2707   8.3257   8.4436   8.6627   8.7085   8.8566   9.0275   9.0675
     9.0809   9.2168   9.3220   9.4390   9.5638   9.5893   9.6519   9.7761
     9.8723   9.9603  10.0032  10.1638  10.2054  10.3685  10.4219  10.6091
    10.7133  10.7568  10.9239  10.9627  11.0250  11.0727  11.1614  11.2253
    11.2577  11.3872  11.4659  11.4700  11.5279  11.5507  11.7454  11.8628
    11.9168  12.0556  12.0974  12.1781  12.2323  12.3230  12.4535  12.4775
    12.6474  12.6748  12.7214  12.7807  12.8671  12.8789  12.9169  12.9572
    13.0505  13.0842  13.1898  13.2583  13.3075  13.4135  13.4896  13.4907
    13.6611  13.7035  13.7659  13.9039  13.9317  13.9507  13.9730  14.0732
    14.1094  14.2743  14.3178  14.4082  14.4946  14.6105  14.6461  14.8609
    14.8953  14.9134  15.0552  15.1353  15.1925  15.2399  15.2541  15.3675
    15.3885  15.4039  15.4928  15.5215  15.5936  15.7250  15.7814  15.7982
    15.8236  15.8925  16.0349  16.0391  16.0753  16.2566  16.2638  16.3971
    16.4448  16.5930  16.5995  16.6575  16.7426  16.7449  16.7818  16.8810
    16.9773  16.9969  17.0373  17.2304  17.2736  17.2808  17.3840  17.4253
    17.4727  17.5505  17.6344  17.6838  17.7217  17.8525  17.8746  17.9940
    18.0333  18.0570  18.0945  18.2428  18.3308  18.4262  18.5045  18.5959
    18.6198  18.7086  18.7365  18.7910  18.8685  18.9144  18.9349  19.0420
    19.1755  19.1785  19.2836  19.2976  19.3411  19.3738  19.4216  19.5416
    19.5471  19.6009  19.6467  19.7151

     the Fermi energy is     1.0262 ev

!    total energy              =   -1528.78778133 Ry
     Harris-Foulkes estimate   =   -1528.78778134 Ry
     estimated scf accuracy    <          8.9E-09 Ry

     The total energy is the sum of the following terms:

     one-electron contribution =  -18305.62897039 Ry
     hartree contribution      =    9179.45777700 Ry
     xc contribution           =    -279.68987749 Ry
     ewald contribution        =    7875.65743034 Ry
     Hubbard energy            =       1.41716252 Ry
     smearing contrib. (-TS)   =      -0.00130332 Ry

     convergence has been achieved in   9 iterations

     Forces acting on atoms (Ry/au):

     negative rho (up, down):  0.358E-02 0.000E+00
     atom    1 type  1   force =     0.00006787   -0.00043062   -0.00073833
     atom    2 type  1   force =    -0.00088217    0.00062493   -0.00053676
     atom    3 type  2   force =     0.00130437   -0.00041440    0.00008930
     atom    4 type  2   force =    -0.00386743    0.00032975   -0.00023589
     atom    5 type  1   force =     0.00040153   -0.02588258   -0.00023799
     atom    6 type  1   force =     0.00054668    0.02565601   -0.00020975
     atom    7 type  1   force =     0.00005223    0.00010887    0.00086839
     atom    8 type  1   force =     0.00169200   -0.00001731    0.00038267
     atom    9 type  2   force =    -0.00024219    0.00001869    0.00040858
     atom   10 type  2   force =     0.00009012   -0.00000710    0.00023904
     atom   11 type  1   force =     0.00001796   -0.04372393    0.00011919
     atom   12 type  1   force =     0.00002632    0.04371427    0.00012074
     atom   13 type  1   force =     0.00034597   -0.00000257    0.00054121
     atom   14 type  1   force =     0.00006059   -0.00041873   -0.00073198
     atom   15 type  1   force =    -0.00088249    0.00059006   -0.00062522
     atom   16 type  2   force =     0.00128403   -0.00041663    0.00008908
     atom   17 type  2   force =    -0.00387005    0.00032763   -0.00024094
     atom   18 type  1   force =     0.00041959   -0.02588219   -0.00023822
     atom   19 type  1   force =     0.00053536    0.02565679   -0.00020928
     atom   20 type  1   force =     0.00005211    0.00010229    0.00084769
     atom   21 type  1   force =     0.00169250   -0.00001804    0.00044498
     atom   22 type  2   force =    -0.00022208    0.00001880    0.00040869
     atom   23 type  2   force =     0.00009002   -0.00000916    0.00020321
     atom   24 type  1   force =     0.00001280   -0.04372394    0.00011924
     atom   25 type  1   force =     0.00001775    0.04371425    0.00012079
     atom   26 type  1   force =     0.00034603   -0.00000252    0.00054718
     atom   27 type  3   force =    -0.00002000   -0.00024548   -0.00083599
     atom   28 type  3   force =    -0.00001980   -0.00024552   -0.00076371
     atom   29 type  3   force =     0.00047173    0.00029072    0.00003004
     atom   30 type  3   force =     0.00047866    0.00028765    0.00002405

     Total force =     0.002648     Total SCF correction =     0.000366
     SCF correction compared to forces is large: reduce conv_thr to get better values

     bfgs converged in   7 scf cycles and   6 bfgs steps
     (criteria: energy < 0.10E-03, force < 0.10E-02)

     End of BFGS Geometry Optimization

     Final energy   =   -1528.7877813321 Ry
Begin final coordinates

ATOMIC_POSITIONS (crystal)
O0       0.000000000   0.000000000   0.374871101    0   0   1
O0       0.000000000   0.500000000   0.385562863    0   0   1
Nb1      0.250000000   0.500000000   0.440202359    0   0   1
Nb1      0.000000000   0.000000000   0.447678852    0   0   1
O0       0.250000000   0.790000000   0.447865560    0   0   1
O0       0.250000000   0.210000000   0.447856705    0   0   1
O0       0.000000000   0.500000000   0.497862349    0   0   1
O0       0.000000000   0.000000000   0.526321083    0   0   1
Nb1      0.250000000   0.000000000   0.581099541    0   0   1
Nb1      0.000000000   0.500000000   0.567302918    0   0   1
O0       0.250000000   0.710000000   0.580822637    0   0   1
O0       0.250000000   0.290000000   0.580822254    0   0   1
O0       0.000000000   0.000000000   0.625443208    0   0   1
O0       0.500000000   0.000000000   0.374870557    0   0   1
O0       0.500000000   0.500000000   0.385564545    0   0   1
Nb1      0.750000000   0.500000000   0.440202371    0   0   1
Nb1      0.500000000   0.000000000   0.447678855    0   0   1
O0       0.750000000   0.790000000   0.447865460    0   0   1
O0       0.750000000   0.210000000   0.447856803    0   0   1
O0       0.500000000   0.500000000   0.497865218    0   0   1
O0       0.500000000   0.000000000   0.526317125    0   0   1
Nb1      0.750000000   0.000000000   0.581099527    0   0   1
Nb1      0.500000000   0.500000000   0.567307074    0   0   1
O0       0.750000000   0.710000000   0.580822623    0   0   1
O0       0.750000000   0.290000000   0.580822265    0   0   1
O0       0.500000000   0.000000000   0.625442746    0   0   1
H2      -0.000467261   0.502566718   0.349269790
H2       0.499532879   0.502338018   0.349269019
H2       0.151008706  -0.000765178   0.359262351
H2       0.651008493  -0.000770070   0.359262241
End final coordinates

     General routines

     Parallel routines
     Hubbard U routines

   This run was terminated on:   4:33:34   9May2014

   JOB DONE.