     Program PWSCF v.5.0.2 (svn rev. 9656) starts on  4May2014 at 18:43:19

     Current dimensions of program PWSCF are:
     Max number of different atomic species (ntypx) = 10
     Max number of k-points (npk) =  40000
     Max angular momentum in pseudopotentials (lmaxx) =  3
     Reading input from pwscf.in
Warning: card &CELL ignored
Warning: card / ignored

     Subspace diagonalization in iterative solution of the eigenvalue problem:
     a serial algorithm will be used

     bravais-lattice index     =            0
     lattice parameter (alat)  =      10.7336  a.u.
     unit-cell volume          =    6184.1966 (a.u.)^3
     number of atoms/cell      =           32
     number of atomic types    =            3
     number of electrons       =       239.00 (up: 131.00, down: 108.00)
     number of Kohn-Sham states=          346
     kinetic-energy cutoff     =      40.0000  Ry
     charge density cutoff     =     500.0000  Ry
     convergence threshold     =      1.0E-06
     mixing beta               =       0.7000
     number of iterations used =            8  plain     mixing
     Exchange-correlation      = SLA  PW   PBE  PBE ( 1 4 3 4 0)
     EXX-fraction              =        0.00
     nstep                     =           50

     celldm(1)=  10.733644  celldm(2)=   0.000000  celldm(3)=   0.000000
     celldm(4)=   0.000000  celldm(5)=   0.000000  celldm(6)=   0.000000

     crystal axes: (cart. coord. in units of alat)
               a(1) = (   1.000000   0.000000   0.000000 )
               a(2) = (   0.000000   1.085558   0.000000 )
               a(3) = (   0.000000   0.000000   4.606685 )

     reciprocal axes: (cart. coord. in units 2 pi/alat)
               b(1) = (  1.000000  0.000000  0.000000 )
               b(2) = (  0.000000  0.921185  0.000000 )
               b(3) = (  0.000000  0.000000  0.217076 )

     PseudoPot. # 1 for O  read from file:
     /home/camp/zhonxu/pseudo/o_pbe_v1.01.uspp.F.UPF
     MD5 check sum: 2bcb18d16ea4b960afae9ec6d52f22d2
     Pseudo is Ultrasoft + core correction, Zval =  6.0
     Generated by new atomic code, or converted to UPF format
     Using radial grid of  737 points,  5 beta functions with:
                l(1) =   0
                l(2) =   0
                l(3) =   1
                l(4) =   1
                l(5) =   2
     Q(r) pseudized with  8 coefficients,  rinner =    0.900   0.900   0.900
                                                       0.900   0.900

     PseudoPot. # 2 for Mn read from file:
     /home/camp/zhonxu/pseudo/mn_pbe_v1.uspp.F.UPF
     MD5 check sum: 5fd7c7b5c956fd19902447332617373a
     Pseudo is Ultrasoft + core correction, Zval = 15.0
     Generated by new atomic code, or converted to UPF format
     Using radial grid of  859 points,  6 beta functions with:
                l(1) =   0
                l(2) =   0
                l(3) =   1
                l(4) =   1
                l(5) =   2
                l(6) =   2
     Q(r) pseudized with  6 coefficients,  rinner =    1.150   1.150   1.150
                                                       1.150   1.150

     PseudoPot. # 3 for H  read from file:
     /home/camp/zhonxu/pseudo/h_pbe_v1.uspp.F.UPF
     MD5 check sum: 3408e3ff4ec8b0a4e358431e7e038a48
     Pseudo is Ultrasoft, Zval =  1.0
     Generated by new atomic code, or converted to UPF format
     Using radial grid of  615 points,  2 beta functions with:
                l(1) =   0
                l(2) =   0
     Q(r) pseudized with  8 coefficients,  rinner =    0.700

     atomic species   valence    mass     pseudopotential
        O0             6.00    15.99940     O ( 1.00)
        Mn1           15.00    54.93800     Mn( 1.00)
        H2             1.00     1.00794     H ( 1.00)

     Starting magnetic structure
     atomic species   magnetization
        O0           0.000
        Mn1          0.600
        H2           0.000

     Simplified LDA+U calculation (l_max = 2) with parameters (eV):
     atomic species    L          U    alpha       J0     beta
        Mn1            2     1.0000   0.0000   0.0000   0.0000

     No symmetry found

   Cartesian axes

     site n.     atom                  positions (alat units)
         1           O0  tau(   1) = (   0.0000000   0.0000000   1.7414191  )
         2           O0  tau(   2) = (   0.0000000   0.5427791   1.8381134  )
         3           Mn1 tau(   3) = (   0.2500000   0.5427791   2.0740217  )
         4           Mn1 tau(   4) = (   0.0000000   0.0000000   2.0686319  )
         5           O0  tau(   5) = (   0.2500000   0.8684466   2.0678488  )
         6           O0  tau(   6) = (   0.2500000   0.2171117   2.0737453  )
         7           O0  tau(   7) = (   0.0000000   0.5427791   2.2873573  )
         8           O0  tau(   8) = (   0.0000000   0.0000000   2.4132120  )
         9           Mn1 tau(   9) = (   0.2500000   0.0000000   2.6399991  )
        10           Mn1 tau(  10) = (   0.0000000   0.5427791   2.6085815  )
        11           O0  tau(  11) = (   0.2500000   0.7598908   2.6551551  )
        12           O0  tau(  12) = (   0.2500000   0.3256675   2.6556157  )
        13           O0  tau(  13) = (   0.0000000   0.0000000   2.8417258  )
        14           O0  tau(  14) = (   0.5000000   0.0000000   1.7428932  )
        15           O0  tau(  15) = (   0.5000000   0.5427791   1.8386662  )
        16           Mn1 tau(  16) = (   0.7500000   0.5427791   2.0740678  )
        17           Mn1 tau(  17) = (   0.5000000   0.0000000   2.0707510  )
        18           O0  tau(  18) = (   0.7500000   0.8684466   2.0677106  )
        19           O0  tau(  19) = (   0.7500000   0.2171117   2.0738835  )
        20           O0  tau(  20) = (   0.5000000   0.5427791   2.2871270  )
        21           O0  tau(  21) = (   0.5000000   0.0000000   2.4132120  )
        22           Mn1 tau(  22) = (   0.7500000   0.0000000   2.6413811  )
        23           Mn1 tau(  23) = (   0.5000000   0.5427791   2.6662572  )
        24           O0  tau(  24) = (   0.7500000   0.7598908   2.6473698  )
        25           O0  tau(  25) = (   0.7500000   0.3256675   2.6477844  )
        26           O0  tau(  26) = (   0.5000000   0.0000000   2.8412191  )
        27           H2  tau(  27) = (   0.0000400   0.7014118   1.7620570  )
        28           H2  tau(  28) = (   0.5000900   0.7016832   1.7629323  )
        29           H2  tau(  29) = (   0.1613600   0.0398291   1.6869220  )
        30           H2  tau(  30) = (   0.6610200   0.0399703   1.6876591  )
        31           O0  tau(  31) = (   0.5153900   0.5432351   2.9826904  )
        32           H2  tau(  32) = (   0.3575300   0.5430397   3.0540479  )

     number of k points=    20  Methfessel-Paxton smearing, width (Ry)=  0.0100
                       cart. coord. in units 2pi/alat
        k(    1) = (   0.0000000   0.0000000   0.0000000), wk =   0.0625000
        k(    2) = (   0.0000000   0.2302962   0.0000000), wk =   0.1250000
        k(    3) = (   0.0000000  -0.4605925   0.0000000), wk =   0.0625000
        k(    4) = (   0.2500000   0.0000000   0.0000000), wk =   0.1250000
        k(    5) = (   0.2500000   0.2302962   0.0000000), wk =   0.1250000
        k(    6) = (   0.2500000  -0.4605925   0.0000000), wk =   0.1250000
        k(    7) = (  -0.5000000   0.0000000   0.0000000), wk =   0.0625000
        k(    8) = (  -0.5000000   0.2302962   0.0000000), wk =   0.1250000
        k(    9) = (  -0.5000000  -0.4605925   0.0000000), wk =   0.0625000
        k(   10) = (  -0.2500000   0.2302962   0.0000000), wk =   0.1250000
        k(   11) = (   0.0000000   0.0000000   0.0000000), wk =   0.0625000
        k(   12) = (   0.0000000   0.2302962   0.0000000), wk =   0.1250000
        k(   13) = (   0.0000000  -0.4605925   0.0000000), wk =   0.0625000
        k(   14) = (   0.2500000   0.0000000   0.0000000), wk =   0.1250000
        k(   15) = (   0.2500000   0.2302962   0.0000000), wk =   0.1250000
        k(   16) = (   0.2500000  -0.4605925   0.0000000), wk =   0.1250000
        k(   17) = (  -0.5000000   0.0000000   0.0000000), wk =   0.0625000
        k(   18) = (  -0.5000000   0.2302962   0.0000000), wk =   0.1250000
        k(   19) = (  -0.5000000  -0.4605925   0.0000000), wk =   0.0625000
        k(   20) = (  -0.2500000   0.2302962   0.0000000), wk =   0.1250000

     Largest allocated arrays     est. size (Mb)     dimensions
     Largest temporary arrays     est. size (Mb)     dimensions

     Check: negative/imaginary core charge=   -0.000022    0.000000

     Initial potential from superposition of free atoms
     Check: negative starting charge=(component1):   -0.000716
     Check: negative starting charge=(component2):   -0.000389

     starting charge  230.99986, renormalised to  239.00000

     negative rho (up, down):  0.741E-03 0.403E-03
     Number of +U iterations with fixed ns =  0
     Starting occupations:
 --- enter write_ns ---
 LDA+U parameters:
U( 2)     =  1.00000000
alpha( 2) =  0.00000000
atom    3   Tr[ns(na)] (up, down, total) =   5.00000  0.00000  5.00000
   spin  1
    eigenvalues:
  1.000  1.000  1.000  1.000  1.000
    eigenvectors:
  1.000  0.000  0.000  0.000  0.000
  0.000  1.000  0.000  0.000  0.000
  0.000  0.000  1.000  0.000  0.000
  0.000  0.000  0.000  1.000  0.000
  0.000  0.000  0.000  0.000  1.000
    occupations:
  1.000  0.000  0.000  0.000  0.000
  0.000  1.000  0.000  0.000  0.000
  0.000  0.000  1.000  0.000  0.000
  0.000  0.000  0.000  1.000  0.000
  0.000  0.000  0.000  0.000  1.000
   spin  2
    eigenvalues:
  0.000  0.000  0.000  0.000  0.000
    eigenvectors:
  1.000  0.000  0.000  0.000  0.000
  0.000  1.000  0.000  0.000  0.000
  0.000  0.000  1.000  0.000  0.000
  0.000  0.000  0.000  1.000  0.000
  0.000  0.000  0.000  0.000  1.000
    occupations:
  0.000  0.000  0.000  0.000  0.000
  0.000  0.000  0.000  0.000  0.000
  0.000  0.000  0.000  0.000  0.000
  0.000  0.000  0.000  0.000  0.000
  0.000  0.000  0.000  0.000  0.000
atomic mag. moment =     5.000000
atom    4   Tr[ns(na)] (up, down, total) =   5.00000  0.00000  5.00000
   spin  1
    eigenvalues:
  1.000  1.000  1.000  1.000  1.000
    eigenvectors:
  1.000  0.000  0.000  0.000  0.000
  0.000  1.000  0.000  0.000  0.000
  0.000  0.000  1.000  0.000  0.000
  0.000  0.000  0.000  1.000  0.000
  0.000  0.000  0.000  0.000  1.000
    occupations:
  1.000  0.000  0.000  0.000  0.000
  0.000  1.000  0.000  0.000  0.000
  0.000  0.000  1.000  0.000  0.000
  0.000  0.000  0.000  1.000  0.000
  0.000  0.000  0.000  0.000  1.000
   spin  2
    eigenvalues:
  0.000  0.000  0.000  0.000  0.000
    eigenvectors:
  1.000  0.000  0.000  0.000  0.000
  0.000  1.000  0.000  0.000  0.000
  0.000  0.000  1.000  0.000  0.000
  0.000  0.000  0.000  1.000  0.000
  0.000  0.000  0.000  0.000  1.000
    occupations:
  0.000  0.000  0.000  0.000  0.000
  0.000  0.000  0.000  0.000  0.000
  0.000  0.000  0.000  0.000  0.000
  0.000  0.000  0.000  0.000  0.000
  0.000  0.000  0.000  0.000  0.000
atomic mag. moment =     5.000000
atom    9   Tr[ns(na)] (up, down, total) =   5.00000  0.00000  5.00000
   spin  1
    eigenvalues:
  1.000  1.000  1.000  1.000  1.000
[...]
atomic mag. moment =     2.786233
atom    4   Tr[ns(na)] (up, down, total) =   4.14522  1.36656  5.51178
   spin  1
    eigenvalues:
  0.556  0.602  0.989  0.997  1.002
    eigenvectors:
  0.000  0.999  0.000  0.000  0.001
  0.000  0.001  0.000  0.010  0.988
  0.000  0.000  0.001  0.988  0.010
  0.000  0.000  0.998  0.001  0.000
  1.000  0.000  0.000  0.000  0.000
    occupations:
  0.602 -0.012 -0.004  0.004 -0.000
 -0.012  1.002  0.000 -0.000  0.000
 -0.004  0.000  0.997  0.000  0.000
  0.004 -0.000  0.000  0.989  0.000
 -0.000  0.000  0.000  0.000  0.556
   spin  2
    eigenvalues:
  0.131  0.186  0.227  0.408  0.415
    eigenvectors:
  0.001  0.005  0.000  0.001  0.992
  0.000  0.943  0.052  0.000  0.005
  0.000  0.052  0.948  0.000  0.001
  0.998  0.001  0.000  0.000  0.001
  0.000  0.000  0.000  0.999  0.001
    occupations:
  0.413  0.016  0.005 -0.011 -0.000
  0.016  0.189 -0.009  0.001 -0.002
  0.005 -0.009  0.225  0.001 -0.000
 -0.011  0.001  0.001  0.131 -0.000
 -0.000 -0.002 -0.000 -0.000  0.408
atomic mag. moment =     2.778661
atom    9   Tr[ns(na)] (up, down, total) =   4.05308  1.52382  5.57690
   spin  1
    eigenvalues:
  0.601  0.607  0.905  0.950  0.991
    eigenvectors:
  0.201  0.000  0.000  0.000  0.799
  0.000  1.000  0.000  0.000  0.000
  0.000  0.000  0.062  0.938  0.000
  0.799  0.000  0.000  0.000  0.201
  0.000  0.000  0.938  0.062  0.000
    occupations:
  0.913 -0.000 -0.000 -0.156  0.000
 -0.000  0.607  0.000  0.000 -0.000
 -0.000  0.000  0.947 -0.000  0.011
 -0.156  0.000 -0.000  0.679  0.000
  0.000 -0.000  0.011  0.000  0.908
   spin  2
    eigenvalues:
  0.196  0.224  0.233  0.418  0.453
    eigenvectors:
  0.834  0.000  0.000  0.166  0.000
  0.000  0.000  0.000  0.000  1.000
  0.000  0.941  0.059  0.000  0.000
  0.166  0.000  0.000  0.834  0.000
  0.000  0.059  0.941  0.000  0.000
    occupations:
  0.233 -0.001  0.000  0.083 -0.000
 -0.001  0.453 -0.000  0.001 -0.000
  0.000 -0.000  0.224  0.000  0.002
  0.083  0.001  0.000  0.381 -0.000
 -0.000 -0.000  0.002 -0.000  0.232
atomic mag. moment =     2.529260
atom   10   Tr[ns(na)] (up, down, total) =   4.26314  1.20252  5.46567
   spin  1
    eigenvalues:
  0.580  0.696  0.990  0.994  1.003
    eigenvectors:
  0.000  0.997  0.000  0.003  0.000
  0.000  0.000  0.996  0.004  0.000
  0.000  0.000  0.000  0.000  1.000
  0.000  0.003  0.004  0.993  0.000
  1.000  0.000  0.000  0.000  0.000
    occupations:
  0.697 -0.004  0.002  0.016  0.000
 -0.004  0.990 -0.000  0.000 -0.000
  0.002 -0.000  1.003 -0.000  0.003
  0.016  0.000 -0.000  0.993 -0.000
  0.000 -0.000  0.003 -0.000  0.580
   spin  2
    eigenvalues:
  0.127  0.189  0.200  0.286  0.400
    eigenvectors:
  0.009  0.000  0.000  0.991  0.000
  0.000  1.000  0.000  0.000  0.000
  0.000  0.000  1.000  0.000  0.000
  0.991  0.000  0.000  0.009  0.000
  0.000  0.000  0.000  0.000  1.000
    occupations:
  0.284  0.001 -0.001 -0.015 -0.000
  0.001  0.189 -0.000  0.000  0.000
 -0.001 -0.000  0.200 -0.000 -0.002
 -0.015  0.000 -0.000  0.129 -0.000
 -0.000  0.000 -0.002 -0.000  0.400
atomic mag. moment =     3.060619
atom   16   Tr[ns(na)] (up, down, total) =   4.15298  1.36385  5.51683
   spin  1
    eigenvalues:
  0.578  0.588  0.991  0.992  1.004
    eigenvectors:
  0.019  0.231  0.736  0.006  0.007
  0.937  0.062  0.000  0.001  0.000
  0.000  0.000  0.007  0.003  0.990
  0.043  0.707  0.248  0.002  0.001
  0.001  0.000  0.008  0.989  0.002
    occupations:
  0.890  0.008 -0.004 -0.175  0.001
  0.008  0.579  0.001 -0.002 -0.010
 -0.004  0.001  1.004 -0.005 -0.000
 -0.175 -0.002 -0.005  0.688  0.000
  0.001 -0.010 -0.000  0.000  0.992
   spin  2
    eigenvalues:
  0.141  0.188  0.228  0.396  0.411
    eigenvectors:
  0.777  0.000  0.001  0.148  0.074
  0.001  0.003  0.000  0.377  0.619
  0.001  0.038  0.961  0.000  0.000
  0.221  0.000  0.000  0.474  0.305
  0.000  0.959  0.038  0.001  0.002
    occupations:
  0.199 -0.002 -0.001  0.108 -0.001
 -0.002  0.405 -0.001  0.010  0.011
 -0.001 -0.001  0.226  0.004  0.008
  0.108  0.010  0.004  0.344  0.001
 -0.001  0.011  0.008  0.001  0.190
atomic mag. moment =     2.789125
atom   17   Tr[ns(na)] (up, down, total) =   4.14336  1.36633  5.50969
   spin  1
    eigenvalues:
  0.556  0.602  0.989  0.995  1.001
    eigenvectors:
  0.000  0.999  0.000  0.000  0.001
  0.000  0.001  0.000  0.013  0.986
  0.000  0.000  0.002  0.985  0.013
  0.000  0.000  0.997  0.002  0.000
  1.000  0.000  0.000  0.000  0.000
    occupations:
  0.603 -0.012 -0.005  0.004 -0.000
 -0.012  1.001  0.000 -0.000  0.001
 -0.005  0.000  0.995  0.000  0.000
  0.004 -0.000  0.000  0.989  0.000
 -0.000  0.001  0.000  0.000  0.556
   spin  2
    eigenvalues:
  0.131  0.185  0.227  0.406  0.417
    eigenvectors:
  0.001  0.005  0.000  0.000  0.993
  0.000  0.948  0.047  0.000  0.005
  0.000  0.046  0.953  0.000  0.001
  0.998  0.001  0.000  0.000  0.001
  0.000  0.000  0.000  0.999  0.000
    occupations:
  0.415  0.016  0.005 -0.010 -0.000
  0.016  0.188 -0.008  0.000 -0.002
  0.005 -0.008  0.225  0.001 -0.000
 -0.010  0.000  0.001  0.132 -0.000
 -0.000 -0.002 -0.000 -0.000  0.406
atomic mag. moment =     2.777027
atom   22   Tr[ns(na)] (up, down, total) =   4.04175  1.53856  5.58031
   spin  1
    eigenvalues:
  0.601  0.605  0.901  0.944  0.991
    eigenvectors:
  0.196  0.004  0.000  0.000  0.799
  0.022  0.978  0.000  0.000  0.000
  0.000  0.000  0.067  0.933  0.000
  0.782  0.017  0.000  0.000  0.201
  0.000  0.000  0.933  0.067  0.000
    occupations:
  0.913  0.001 -0.000 -0.156 -0.000
  0.001  0.605  0.000  0.000 -0.000
 -0.000  0.000  0.941 -0.000 -0.011
 -0.156  0.000 -0.000  0.679  0.000
 -0.000 -0.000 -0.011  0.000  0.904
   spin  2
    eigenvalues:
  0.199  0.229  0.236  0.421  0.454
    eigenvectors:
  0.835  0.000  0.000  0.165  0.000
  0.000  0.000  0.000  0.000  1.000
  0.000  0.922  0.078  0.000  0.000
  0.165  0.000  0.000  0.835  0.000
  0.000  0.078  0.922  0.000  0.000
    occupations:
  0.235  0.000  0.000  0.083 -0.000
  0.000  0.454 -0.000 -0.001 -0.000
  0.000 -0.000  0.229  0.000 -0.002
  0.083 -0.001  0.000  0.385  0.000
 -0.000 -0.000 -0.002  0.000  0.236
atomic mag. moment =     2.503196
atom   23   Tr[ns(na)] (up, down, total) =   4.14331  1.36214  5.50545
   spin  1
    eigenvalues:
  0.564  0.605  0.983  0.989  1.002
    eigenvectors:
  0.000  1.000  0.000  0.000  0.000
  0.000  0.000  1.000  0.000  0.000
  0.000  0.000  0.000  0.000  1.000
  0.000  0.000  0.000  1.000  0.000
  1.000  0.000  0.000  0.000  0.000
    occupations:
  0.605 -0.001  0.001  0.002 -0.000
 -0.001  0.983  0.000 -0.000 -0.000
  0.001  0.000  1.002  0.000 -0.002
  0.002 -0.000  0.000  0.989 -0.000
 -0.000 -0.000 -0.002 -0.000  0.564
   spin  2
    eigenvalues:
  0.130  0.178  0.240  0.402  0.412
    eigenvectors:
  0.002  0.003  0.000  0.995  0.000
  0.001  0.996  0.000  0.003  0.000
  0.000  0.000  1.000  0.000  0.000
  0.998  0.000  0.000  0.002  0.000
  0.000  0.000  0.000  0.000  1.000
    occupations:
  0.401  0.013 -0.000 -0.012 -0.000
  0.013  0.178 -0.000 -0.002  0.000
 -0.000 -0.000  0.240  0.000  0.002
 -0.012 -0.002  0.000  0.131  0.000
 -0.000  0.000  0.002  0.000  0.411
atomic mag. moment =     2.781175
N of occupied +U levels =  44.1842974
 --- exit write_ns ---

 ------ SPIN UP ------------

[...]

 ------ SPIN DOWN ----------

[...]

          k = 0.2500-0.4606 0.0000 ( 26462 PWs)   bands (ev):

[...]

          k =-0.2500 0.2303 0.0000 ( 26396 PWs)   bands (ev):

   -80.7727 -80.7645 -80.6183 -80.5992 -80.4849 -80.4674 -80.4653 -80.3351
   -49.6909 -49.5948 -49.5434 -49.5301 -49.5191 -49.5111 -49.4908 -49.4893
   -49.4756 -49.4385 -49.4157 -49.4084 -49.3362 -49.3060 -49.2852 -49.2846
   -49.2214 -49.1829 -49.1597 -49.1300 -49.1179 -49.0926 -49.0760 -48.9793
   -21.8486 -21.4147 -21.0442 -20.7862 -20.6190 -20.3001 -20.2230 -20.1358
   -20.0321 -19.9944 -19.9268 -19.8337 -19.8090 -19.6996 -19.5397 -19.4952
   -19.3598 -19.1386 -18.9453  -9.3813  -9.1171  -8.5919  -8.4834  -8.4462
    -8.0959  -8.0195  -7.9557  -7.7979  -7.7585  -7.6518  -7.5141  -7.4234
    -7.2951  -7.2085  -7.1368  -7.0440  -6.9554  -6.9119  -6.7387  -6.6687
    -6.5140  -6.4473  -6.4031  -6.2712  -6.0597  -5.8561  -5.7763  -5.7275
    -5.6131  -5.5370  -5.4957  -5.4567  -5.3311  -5.2689  -5.1853  -4.9877
    -4.9366  -4.7600  -4.6948  -4.5668  -4.4746  -4.3327  -4.2277  -4.1787
    -4.1592  -4.0277  -3.8233  -3.7231  -3.6425  -3.5598  -3.3760  -3.2956
    -3.1108  -3.0152  -2.9215  -2.6203  -0.9973  -0.8846  -0.8296  -0.8086
    -0.7212  -0.6843  -0.6351  -0.5504  -0.4462  -0.4147  -0.3403  -0.3173
    -0.2127  -0.1850  -0.1699  -0.0104   0.0342   0.1152   0.1601   0.2454
     0.3690   0.4972   0.5271   0.6369   0.7710   0.9211   0.9924   1.1138
     1.3682   1.3797   1.5179   1.7492   1.9180   1.9288   2.2316   2.3269
     2.3434   2.5665   2.6947   2.8032   3.7081   4.0555   4.3339   4.8062
     5.3160   5.6322   5.7478   6.0161   6.2625   6.4470   6.5414   6.6728
     6.7911   6.9515   7.0541   7.3654   7.4977   7.7368   7.9194   8.0481
     8.2744   8.3801   8.4715   8.6238   8.7140   8.9060   9.0843   9.2113
     9.3166   9.3664   9.5134   9.6099   9.7435   9.8541   9.9649  10.0867
    10.1709  10.2514  10.3958  10.4980  10.6339  10.7092  10.7921  10.9938
    11.0817  11.1345  11.2039  11.3112  11.4327  11.5094  11.5718  11.6880
    11.7559  11.8742  11.9295  12.0583  12.0858  12.1873  12.2393  12.4052
    12.4588  12.4971  12.6598  12.7466  12.8717  12.9072  12.9739  13.0542
    13.1358  13.1456  13.1932  13.2730  13.3927  13.4269  13.5281  13.5939
    13.6841  13.8158  13.8360  13.8663  13.9486  14.0274  14.0910  14.1199
    14.2130  14.3485  14.4178  14.5162  14.5604  14.6345  14.7179  14.8233
    14.8480  14.8831  14.9667  15.0128  15.0928  15.1764  15.2928  15.3428
    15.4465  15.4895  15.6029  15.7032  15.7361  15.8383  15.8887  16.0701
    16.0938  16.1975  16.2536  16.3371  16.4172  16.5095  16.5210  16.5653
    16.6562  16.7527  16.8801  16.9217  16.9927  17.0884  17.1343  17.2127
    17.2830  17.3495  17.4249  17.4842  17.5263  17.6582  17.6942  17.7615
    17.8384  17.9274  17.9846  18.0552  18.0997  18.2208  18.2853  18.3320
    18.3863  18.4857  18.5369  18.5830  18.6404  18.7621  18.8310  18.9436
    19.0392  19.0809  19.1581  19.1907  19.2466  19.3359  19.4185  19.4929
    19.5354  19.6338  19.7516  19.8095  19.8941  19.9504  20.0440  20.0771
    20.1270  20.2643  20.3421  20.3583  20.3865  20.5113  20.6417  20.6598
    20.7756  20.8873  20.9871  21.0178  21.0502  21.1145  21.1888  21.2310
    21.3957  21.4132  21.5108  21.5888  21.6619  21.7137  21.7553  21.8561
    21.9166  22.0013  22.0758  22.1354  22.2253  22.3498  22.3941  22.5035
    22.5704  22.6325

     the spin up/dw Fermi energies are    -1.9534   -2.3689 ev

!    total energy              =   -2321.84986023 Ry
     Harris-Foulkes estimate   =   -2321.84986023 Ry
     estimated scf accuracy    <          4.1E-09 Ry

     The total energy is the sum of the following terms:

     one-electron contribution =  -26782.67822161 Ry
     hartree contribution      =   13409.64643922 Ry
     xc contribution           =    -348.97551249 Ry
     ewald contribution        =   11399.72598437 Ry
     Hubbard energy            =       0.43141738 Ry
     smearing contrib. (-TS)   =       0.00003290 Ry

     total magnetization       =    23.00 Bohr mag/cell
     absolute magnetization    =    25.06 Bohr mag/cell

     convergence has been achieved in  14 iterations

     Forces acting on atoms (Ry/au):

     negative rho (up, down):  0.227E-02 0.130E-02
     atom    1 type  1   force =    -0.00420494   -0.01582055    0.00050563
     atom    2 type  1   force =     0.00029373    0.01239792    0.00015070
     atom    3 type  2   force =     0.03750532   -0.00371413   -0.00032078
     atom    4 type  2   force =     0.00481710    0.01187659    0.00040994
     atom    5 type  1   force =     0.00152530    0.00915118   -0.00056059
     atom    6 type  1   force =    -0.00463160   -0.01192611   -0.00035785
     atom    7 type  1   force =     0.00249678    0.00102013    0.00028728
     atom    8 type  1   force =     0.00145693   -0.00168815    0.00054583
     atom    9 type  2   force =     0.00164319    0.00012560   -0.00054088
     atom   10 type  2   force =    -0.00457525   -0.00110067   -0.00018006
     atom   11 type  1   force =    -0.02259898   -0.05661219    0.00057172
     atom   12 type  1   force =    -0.02284061    0.05680750    0.00060292
     atom   13 type  1   force =    -0.00183871   -0.00019312    0.00058236
     atom   14 type  1   force =    -0.00494131   -0.01621270    0.00049776
     atom   15 type  1   force =     0.00034710    0.01268260    0.00016863
     atom   16 type  2   force =    -0.03863220   -0.00363477   -0.00030835
     atom   17 type  2   force =     0.00514444    0.01186755    0.00050235
     atom   18 type  1   force =     0.00495573    0.00887642   -0.00055298
     atom   19 type  1   force =    -0.00077610   -0.01194483   -0.00038409
     atom   20 type  1   force =    -0.00200019    0.00032709   -0.00098997
     atom   21 type  1   force =    -0.00237705   -0.00161057    0.00062672
     atom   22 type  2   force =     0.00107703    0.00032566   -0.00041351
     atom   23 type  2   force =     0.00342433   -0.00039193   -0.00008238
     atom   24 type  1   force =     0.02148027   -0.05164724    0.00009324
     atom   25 type  1   force =     0.02179248    0.05180479    0.00015985
     atom   26 type  1   force =     0.00135414   -0.00019869    0.00020620
     atom   27 type  3   force =     0.00002015   -0.00026367   -0.00025269
     atom   28 type  3   force =     0.00001921   -0.00022785   -0.00017165
     atom   29 type  3   force =    -0.00042943   -0.00005174   -0.00057388
     atom   30 type  3   force =    -0.00039955   -0.00004628   -0.00051300
     atom   31 type  1   force =     0.00043820    0.00001147    0.00056826
     atom   32 type  3   force =     0.00045447    0.00001070   -0.00027675

     Total force =     0.002718     Total SCF correction =     0.000156

     bfgs converged in   7 scf cycles and   6 bfgs steps
     (criteria: energy < 0.10E-03, force < 0.10E-02)

     End of BFGS Geometry Optimization

     Final energy   =   -2321.8498602262 Ry
Begin final coordinates

ATOMIC_POSITIONS (crystal)
O0       0.000000000   0.000000000   0.377619320    0   0   1
O0       0.000000000   0.500000000   0.398727801    0   0   1
Mn1      0.250000000   0.500000000   0.450074320    0   0   1
Mn1      0.000000000   0.000000000   0.448752320    0   0   1
O0       0.250000000   0.800000000   0.448824939    0   0   1
O0       0.250000000   0.200000000   0.450208405    0   0   1
O0       0.000000000   0.500000000   0.496344192    0   0   1
O0       0.000000000   0.000000000   0.524031816    0   0   1
Mn1      0.250000000   0.000000000   0.573079059    0   0   1
Mn1      0.000000000   0.500000000   0.566417866    0   0   1
O0       0.250000000   0.700000000   0.576740339    0   0   1
O0       0.250000000   0.300000000   0.576861114    0   0   1
O0       0.000000000   0.000000000   0.617342415    0   0   1
O0       0.500000000   0.000000000   0.377960255    0   0   1
O0       0.500000000   0.500000000   0.398863914    0   0   1
Mn1      0.750000000   0.500000000   0.450084617    0   0   1
Mn1      0.500000000   0.000000000   0.449242114    0   0   1
O0       0.750000000   0.800000000   0.448798151    0   0   1
O0       0.750000000   0.200000000   0.450223299    0   0   1
O0       0.500000000   0.500000000   0.496669185    0   0   1
O0       0.500000000   0.000000000   0.524001082    0   0   1
Mn1      0.750000000   0.000000000   0.573372037    0   0   1
Mn1      0.500000000   0.500000000   0.578518831    0   0   1
O0       0.750000000   0.700000000   0.574822734    0   0   1
O0       0.750000000   0.300000000   0.574948246    0   0   1
O0       0.500000000   0.000000000   0.617360411    0   0   1
H2       0.000069139   0.646664619   0.382456692
H2       0.500113655   0.647041764   0.382676961
H2       0.161915183   0.036830553   0.366151237
H2       0.661580027   0.036947906   0.366332590
O0       0.516257490   0.500404502   0.647536194
H2       0.358008906   0.500250186   0.662837542
End final coordinates

     General routines

     Parallel routines
     Hubbard U routines

   This run was terminated on:   5:31:43   5May2014

   JOB DONE.
Running PBS batch system epilogue script
Job id: 340690.audhumbla.fysik.dtu.dk
Username: zhonxu
Groupname: campgst
Jobname: MnO2/Eads-2-layers/OH-U-1.0
Sessionid: 9546
Queuename: verylong
Accounting:
This job has allocated the following 16 nodes:
a089 a089 a089 a089 a089 a089 a089 a089 a037 a037 a037 a037 a037 a037 a037 a037
Finished epilogue job 340690.audhumbla.fysik.dtu.dk for zhonxu