     Program PWSCF v.5.0.2 (svn rev. 9656) starts on 26Mar2014 at  8: 7:43

     Current dimensions of program PWSCF are:
     Max number of different atomic species (ntypx) = 10
     Max number of k-points (npk) =  40000
     Max angular momentum in pseudopotentials (lmaxx) =  3
     Reading input from pwscf.in
Warning: card &CELL ignored
Warning: card / ignored

     Subspace diagonalization in iterative solution of the eigenvalue problem:
     a serial algorithm will be used

     bravais-lattice index     =            0
     lattice parameter (alat)  =      10.9604  a.u.
     unit-cell volume          =    6350.6732 (a.u.)^3
     number of atoms/cell      =           32
     number of atomic types    =            3
     number of electrons       =       231.00
     number of Kohn-Sham states=          334
     kinetic-energy cutoff     =      40.0000  Ry
     charge density cutoff     =     500.0000  Ry
     convergence threshold     =      1.0E-06
     mixing beta               =       0.3000
     number of iterations used =            8  plain     mixing
     Exchange-correlation      = SLA  PW   PBE  PBE ( 1 4 3 4 0)
     EXX-fraction              =        0.00
     nstep                     =           50

     celldm(1)=  10.960412  celldm(2)=   0.000000  celldm(3)=   0.000000
     celldm(4)=   0.000000  celldm(5)=   0.000000  celldm(6)=   0.000000

     crystal axes: (cart. coord. in units of alat)
               a(1) = (   1.000000   0.000000   0.000000 )
               a(2) = (   0.000000   1.067975   0.000000 )
               a(3) = (   0.000000   0.000000   4.516251 )

     reciprocal axes: (cart. coord. in units 2 pi/alat)
               b(1) = (  1.000000  0.000000  0.000000 )
               b(2) = (  0.000000  0.936351  0.000000 )
               b(3) = (  0.000000  0.000000  0.221423 )

     PseudoPot. # 1 for O  read from file:
     /home/camp/zhonxu/pseudo/o_pbe_v1.01.uspp.F.UPF
     MD5 check sum: 2bcb18d16ea4b960afae9ec6d52f22d2
     Pseudo is Ultrasoft + core correction, Zval =  6.0
     Generated by new atomic code, or converted to UPF format
     Using radial grid of  737 points,  5 beta functions with:
                l(1) =   0
                l(2) =   0
                l(3) =   1
                l(4) =   1
                l(5) =   2
     Q(r) pseudized with  8 coefficients,  rinner =    0.900   0.900   0.900
                                                       0.900   0.900

     PseudoPot. # 2 for Cr read from file:
     /home/camp/zhonxu/pseudo/cr_pbe_v1.uspp.F.UPF
     MD5 check sum: 68b6f918d1762dccfb11451fe85b0e0e
     Pseudo is Ultrasoft + core correction, Zval = 14.0
     Generated by new atomic code, or converted to UPF format
     Using radial grid of  857 points,  6 beta functions with:
                l(1) =   0
                l(2) =   0
                l(3) =   1
                l(4) =   1
                l(5) =   2
                l(6) =   2
     Q(r) pseudized with  6 coefficients,  rinner =    1.000   1.000   1.000
                                                       1.000   1.000

     PseudoPot. # 3 for H  read from file:
     /home/camp/zhonxu/pseudo/h_pbe_v1.uspp.F.UPF
     MD5 check sum: 3408e3ff4ec8b0a4e358431e7e038a48
     Pseudo is Ultrasoft, Zval =  1.0
     Generated by new atomic code, or converted to UPF format
     Using radial grid of  615 points,  2 beta functions with:
                l(1) =   0
                l(2) =   0
     Q(r) pseudized with  8 coefficients,  rinner =    0.700

     atomic species   valence    mass     pseudopotential
        O0             6.00    15.99940     O ( 1.00)
        Cr1           14.00    51.99600     Cr( 1.00)
        H2             1.00     1.00794     H ( 1.00)

     Starting magnetic structure
     atomic species   magnetization
        O0           0.000
        Cr1          0.600
        H2           0.000

     No symmetry found

   Cartesian axes

     site n.     atom                  positions (alat units)
         1           O0  tau(   1) = (   0.0000000   0.0000000   1.7181625  )
         2           O0  tau(   2) = (   0.0000000   0.5339875   1.8008551  )
         3           Cr1 tau(   3) = (   0.2500000   0.5339875   2.0300096  )
         4           Cr1 tau(   4) = (   0.0000000   0.0000000   2.0413454  )
         5           O0  tau(   5) = (   0.2500000   0.8543801   2.0369195  )
         6           O0  tau(   6) = (   0.2500000   0.2135950   2.0378227  )
         7           O0  tau(   7) = (   0.0000000   0.5339875   2.2471058  )
         8           O0  tau(   8) = (   0.0000000   0.0000000   2.3700833  )
         9           Cr1 tau(   9) = (   0.2500000   0.0000000   2.6079543  )
        10           Cr1 tau(  10) = (   0.0000000   0.5339875   2.5535334  )
        11           O0  tau(  11) = (   0.2500000   0.7475825   2.5983798  )
        12           O0  tau(  12) = (   0.2500000   0.3203925   2.5982895  )
        13           O0  tau(  13) = (   0.0000000   0.0000000   2.7910882  )
        14           O0  tau(  14) = (   0.5000000   0.0000000   1.7181625  )
        15           O0  tau(  15) = (   0.5000000   0.5339875   1.8008551  )
        16           Cr1 tau(  16) = (   0.7500000   0.5339875   2.0300096  )
        17           Cr1 tau(  17) = (   0.5000000   0.0000000   2.0413454  )
        18           O0  tau(  18) = (   0.7500000   0.8543801   2.0369195  )
        19           O0  tau(  19) = (   0.7500000   0.2135950   2.0378227  )
        20           O0  tau(  20) = (   0.5000000   0.5339875   2.2471058  )
        21           O0  tau(  21) = (   0.5000000   0.0000000   2.3700833  )
        22           Cr1 tau(  22) = (   0.7500000   0.0000000   2.6079543  )
        23           Cr1 tau(  23) = (   0.5000000   0.5339875   2.5535334  )
        24           O0  tau(  24) = (   0.7500000   0.7475825   2.5983798  )
        25           O0  tau(  25) = (   0.7500000   0.3203925   2.5982895  )
        26           O0  tau(  26) = (   0.5000000   0.0000000   2.7910882  )
        27           H2  tau(  27) = (  -0.0006900   0.6851274   1.7196980  )
        28           H2  tau(  28) = (   0.4993100   0.6851274   1.7196980  )
        29           H2  tau(  29) = (   0.1573400   0.0316548   1.6594512  )
        30           H2  tau(  30) = (   0.6573500   0.0316548   1.6594512  )
        31           O0  tau(  31) = (   0.5000000   0.5339875   2.7979981  )
        32           H2  tau(  32) = (   0.3534500   0.5339875   2.8583352  )

     number of k points=    20  Methfessel-Paxton smearing, width (Ry)=  0.0100
                       cart. coord. in units 2pi/alat
        k(    1) = (   0.0000000   0.0000000   0.0000000), wk =   0.0625000
        k(    2) = (   0.0000000   0.2340879   0.0000000), wk =   0.1250000
        k(    3) = (   0.0000000  -0.4681757   0.0000000), wk =   0.0625000
        k(    4) = (   0.2500000   0.0000000   0.0000000), wk =   0.1250000
        k(    5) = (   0.2500000   0.2340879   0.0000000), wk =   0.1250000
        k(    6) = (   0.2500000  -0.4681757   0.0000000), wk =   0.1250000
        k(    7) = (  -0.5000000   0.0000000   0.0000000), wk =   0.0625000
        k(    8) = (  -0.5000000   0.2340879   0.0000000), wk =   0.1250000
        k(    9) = (  -0.5000000  -0.4681757   0.0000000), wk =   0.0625000
        k(   10) = (  -0.2500000   0.2340879   0.0000000), wk =   0.1250000
        k(   11) = (   0.0000000   0.0000000   0.0000000), wk =   0.0625000
        k(   12) = (   0.0000000   0.2340879   0.0000000), wk =   0.1250000
        k(   13) = (   0.0000000  -0.4681757   0.0000000), wk =   0.0625000
        k(   14) = (   0.2500000   0.0000000   0.0000000), wk =   0.1250000
        k(   15) = (   0.2500000   0.2340879   0.0000000), wk =   0.1250000
        k(   16) = (   0.2500000  -0.4681757   0.0000000), wk =   0.1250000
        k(   17) = (  -0.5000000   0.0000000   0.0000000), wk =   0.0625000
        k(   18) = (  -0.5000000   0.2340879   0.0000000), wk =   0.1250000
        k(   19) = (  -0.5000000  -0.4681757   0.0000000), wk =   0.0625000
        k(   20) = (  -0.2500000   0.2340879   0.0000000), wk =   0.1250000

     Largest allocated arrays     est. size (Mb)     dimensions
     Largest temporary arrays     est. size (Mb)     dimensions

     Check: negative/imaginary core charge=   -0.000012    0.000000

     Initial potential from superposition of free atoms
     Check: negative starting charge=(component1):   -0.001535
     Check: negative starting charge=(component2):   -0.000523

     starting charge  222.99983, renormalised to  231.00000

     negative rho (up, down):  0.159E-02 0.542E-03
     Starting wfc are  161 randomized atomic wfcs

     Self-consistent Calculation

     iteration #  1     ecut=    40.00 Ry     beta=0.30
     Davidson diagonalization with overlap
     ethr =  1.00E-02,  avg # of iterations =  5.3

     negative rho (up, down):  0.192E-02 0.711E-03

     total energy              =   -2007.19278247 Ry
     Harris-Foulkes estimate   =   -2023.59104107 Ry
     estimated scf accuracy    <      42.83253861 Ry

     total magnetization       =    22.99 Bohr mag/cell
     absolute magnetization    =    28.34 Bohr mag/cell

[...]

     End of self-consistent calculation

 ------ SPIN UP ------------

          k = 0.0000 0.0000 0.0000 ( 27003 PWs)   bands (ev):

   -75.1020 -75.0465 -75.0294 -74.9303 -74.8052 -74.7860 -74.7353 -74.7075
   -47.2841 -46.4530 -46.4129 -46.3825 -46.3572 -46.3212 -46.3154 -46.2855
   -46.2675 -46.2081 -46.1921 -46.1432 -46.1415 -46.1271 -46.1066 -46.1017
   -46.0898 -46.0819 -46.0681 -46.0587 -46.0375 -46.0199 -46.0173 -45.9035
   -22.8996 -21.2180 -20.6144 -20.5679 -20.3300 -20.1020 -19.7741 -19.7066
   -19.6027 -19.5752 -19.4987 -19.4519 -19.3732 -19.3378 -19.2517 -19.1491
   -19.1347 -18.8347 -18.7190 -11.1588  -9.1026  -8.8884  -8.7247  -8.6153
    -8.5432  -8.4264  -8.3792  -7.8218  -7.6894  -7.6097  -7.5654  -7.4169
    -7.3682  -7.2904  -6.9699  -6.8422  -6.8200  -6.8156  -6.7829  -6.7286
    -6.6806  -6.4947  -6.4394  -6.3008  -6.0527  -5.9124  -5.7958  -5.7399
    -5.6186  -5.5283  -5.2073  -5.1190  -5.0405  -4.9591  -4.8836  -4.7705
    -4.6422  -4.6292  -4.5719  -4.4883  -4.3853  -4.3180  -4.1423  -3.9824
    -3.8495  -3.7914  -3.7435  -3.6841  -3.6429  -3.5172  -3.2866  -3.2149
    -3.0512  -2.9890  -2.8380  -2.7803  -2.6738  -2.5534  -2.4411  -2.3791
    -2.2638  -2.0362  -2.0351  -1.9194  -1.8148  -1.7857  -1.6500  -1.5356
    -1.5090  -1.4856  -1.3059  -1.2858  -1.2797  -1.2220  -0.8487  -0.8148
    -0.4730  -0.4402  -0.2643  -0.2271   0.0658   0.7228   0.8519   1.3679
     1.4065   1.5346   1.6415   1.7219   1.8219   1.8859   2.0640   2.4090
     2.4429   2.4863   2.6513   3.1877   3.3705   3.7417   4.1895   4.2981
     4.7611   5.5049   6.1271   6.5347   6.9478   6.9565   7.0854   7.2387
     7.3665   7.3765   7.4766   7.5938   7.6694   7.8077   7.9278   8.1072
     8.1447   8.1618   8.2653   8.4363   8.5548   8.6741   8.7081   8.8397
     8.9363   9.1361   9.2624   9.3427   9.5440   9.6138   9.6259   9.7065
     9.8845   9.9510  10.0261  10.0765  10.1799  10.3614  10.4982  10.7066
[...]
     atom   24 type  1   force =     0.06022414   -0.01690753   -0.04487449
     atom   25 type  1   force =     0.06020627    0.01646911   -0.04470486
     atom   26 type  1   force =    -0.00159659   -0.00017470    0.00058250
     atom   27 type  3   force =     0.00007767   -0.00283797    0.00112358
     atom   28 type  3   force =     0.00003087   -0.00223614   -0.00078032
     atom   29 type  3   force =     0.00004289    0.00069332   -0.00025787
     atom   30 type  3   force =    -0.00038398    0.00031889   -0.00029351
     atom   31 type  1   force =     0.12912926   -0.00068569    0.87850737
     atom   32 type  3   force =    -0.15207124   -0.00006634    0.10480117

     Total force =     0.906950     Total SCF correction =     0.000179

     BFGS Geometry Optimization

     number of scf cycles    =   1
     number of bfgs steps    =   0

     energy   new            =   -2026.7518511801 Ry

     new trust radius        =       0.5000000000 bohr
     new conv_thr            =       0.0000010000 Ry

ATOMIC_POSITIONS (crystal)
O0       0.000000000   0.000000000   0.380440000    0   0   0
O0       0.000000000   0.500000000   0.398750000    0   0   0
Cr1      0.250000000   0.500000000   0.449490000    0   0   0
Cr1      0.000000000   0.000000000   0.452000000    0   0   0
O0       0.250000000   0.800000000   0.451020000    0   0   0
O0       0.250000000   0.200000000   0.451220000    0   0   0
O0       0.000000000   0.500000000   0.497560000    0   0   0
O0       0.000000000   0.000000000   0.524790000    0   0   0
Cr1      0.250000000   0.000000000   0.577460000    0   0   0
Cr1      0.000000000   0.500000000   0.565410000    0   0   0
O0       0.250000000   0.700000000   0.575340000    0   0   0
O0       0.250000000   0.300000000   0.575320000    0   0   0
O0       0.000000000   0.000000000   0.618010000    0   0   0
O0       0.500000000   0.000000000   0.380440000    0   0   0
O0       0.500000000   0.500000000   0.398750000    0   0   0
Cr1      0.750000000   0.500000000   0.449490000    0   0   0
Cr1      0.500000000   0.000000000   0.452000000    0   0   0
O0       0.750000000   0.800000000   0.451020000    0   0   0
O0       0.750000000   0.200000000   0.451220000    0   0   0
O0       0.500000000   0.500000000   0.497560000    0   0   0
O0       0.500000000   0.000000000   0.524790000    0   0   0
Cr1      0.750000000   0.000000000   0.577460000    0   0   0
Cr1      0.500000000   0.500000000   0.565410000    0   0   0
O0       0.750000000   0.700000000   0.575340000    0   0   0
O0       0.750000000   0.300000000   0.575320000    0   0   0
O0       0.500000000   0.000000000   0.618010000    0   0   0
H2      -0.000690000   0.641520000   0.380780000    0   0   0
H2       0.499310000   0.641520000   0.380780000    0   0   0
H2       0.157340000   0.029640000   0.367440000    0   0   0
H2       0.657350000   0.029640000   0.367440000    0   0   0
O0       0.506634080   0.499967015   0.629533633
H2       0.345637264   0.499996809   0.634092186

     Check: negative starting charge=(component1):   -0.001974
     NEW-OLD atomic charge density approx. for the potential

     Check: negative/imaginary core charge=   -0.000012    0.000000
     Check: negative starting charge=(component1):   -0.001958

[...]

     iteration #  1     ecut=    40.00 Ry     beta=0.30
     Davidson diagonalization with overlap
     c_bands:  1 eigenvalues not converged
     c_bands:  1 eigenvalues not converged
     c_bands:  1 eigenvalues not converged
     c_bands:  1 eigenvalues not converged
     c_bands:  1 eigenvalues not converged
     ethr =  1.00E-06,  avg # of iterations = 11.5

[...]

     energy   old            =   -2026.7518511801 Ry
     energy   new            =   -2027.0007499165 Ry

     CASE: energy  _new < energy  _old

[...]

     Threshold (ethr) on eigenvalues was too large:
     Diagonalizing with lowered threshold

     Davidson diagonalization with overlap
     ethr =  5.60E-08,  avg # of iterations =  1.0

[...]

     Total force =     0.001929     Total SCF correction =     0.000034

     number of scf cycles    =  17
     number of bfgs steps    =  16

     energy   old            =   -2027.0564286540 Ry
     energy   new            =   -2027.0564362438 Ry

     CASE: energy  _new < energy  _old

     new trust radius        =       0.0036173997 bohr
     new conv_thr            =       0.0000000100 Ry

ATOMIC_POSITIONS (crystal)
O0       0.000000000   0.000000000   0.380440000    0   0   0
O0       0.000000000   0.500000000   0.398750000    0   0   0
Cr1      0.250000000   0.500000000   0.449490000    0   0   0
Cr1      0.000000000   0.000000000   0.452000000    0   0   0
O0       0.250000000   0.800000000   0.451020000    0   0   0
O0       0.250000000   0.200000000   0.451220000    0   0   0
O0       0.000000000   0.500000000   0.497560000    0   0   0
O0       0.000000000   0.000000000   0.524790000    0   0   0
Cr1      0.250000000   0.000000000   0.577460000    0   0   0
Cr1      0.000000000   0.500000000   0.565410000    0   0   0
O0       0.250000000   0.700000000   0.575340000    0   0   0
O0       0.250000000   0.300000000   0.575320000    0   0   0
O0       0.000000000   0.000000000   0.618010000    0   0   0
O0       0.500000000   0.000000000   0.380440000    0   0   0
O0       0.500000000   0.500000000   0.398750000    0   0   0
Cr1      0.750000000   0.500000000   0.449490000    0   0   0
Cr1      0.500000000   0.000000000   0.452000000    0   0   0
O0       0.750000000   0.800000000   0.451020000    0   0   0
O0       0.750000000   0.200000000   0.451220000    0   0   0
O0       0.500000000   0.500000000   0.497560000    0   0   0
O0       0.500000000   0.000000000   0.524790000    0   0   0
Cr1      0.750000000   0.000000000   0.577460000    0   0   0
Cr1      0.500000000   0.500000000   0.565410000    0   0   0
O0       0.750000000   0.700000000   0.575340000    0   0   0
O0       0.750000000   0.300000000   0.575320000    0   0   0
O0       0.500000000   0.000000000   0.618010000    0   0   0
H2      -0.000690000   0.641520000   0.380780000    0   0   0
H2       0.499310000   0.641520000   0.380780000    0   0   0
H2       0.157340000   0.029640000   0.367440000    0   0   0
H2       0.657350000   0.029640000   0.367440000    0   0   0
O0       0.514273815   0.499358327   0.638015885
H2       0.362605669   0.499709973   0.654638275

     Check: negative starting charge=(component1):   -0.001909
     NEW-OLD atomic charge density approx. for the potential

     Check: negative/imaginary core charge=   -0.000012    0.000000
     Check: negative starting charge=(component1):   -0.001909

[...]

     Self-consistent Calculation

[...]

     Threshold (ethr) on eigenvalues was too large:
     Diagonalizing with lowered threshold

     Davidson diagonalization with overlap
     ethr =  3.19E-09,  avg # of iterations =  1.0

[...]

     total energy              =   -2027.05643879 Ry
     Harris-Foulkes estimate   =   -2027.05643883 Ry
     estimated scf accuracy    <       0.00000004 Ry

[...]

     iteration # 14     ecut=    40.00 Ry     beta=0.30
     Davidson diagonalization with overlap
     ethr =  6.99E-12,  avg # of iterations =  1.0

     negative rho (up, down):  0.450E-02 0.177E-02

     End of self-consistent calculation

 ------ SPIN UP ------------

[...]

 ------ SPIN DOWN ----------

[...]

          k = 0.2500-0.4682 0.0000 ( 27150 PWs)   bands (ev):

[...]

          k =-0.2500 0.2341 0.0000 ( 27132 PWs)   bands (ev):

   -73.5190 -73.5049 -73.0281 -72.9518 -72.9190 -72.7933 -72.5750 -72.5602
   -44.9426 -44.9166 -44.9049 -44.8241 -44.8032 -44.7833 -44.6642 -44.5805
   -44.5490 -44.4528 -44.3866 -44.2780 -44.2358 -44.1503 -44.1424 -44.1398
   -44.0982 -44.0403 -43.9936 -43.9812 -43.9670 -43.9613 -43.7718 -43.6421
   -21.4119 -20.9389 -20.8870 -20.6020 -20.5588 -20.4321 -20.1164 -20.0829
   -20.0350 -19.8908 -19.8380 -19.7437 -19.6404 -19.6306 -19.6051 -19.5440
   -19.5050 -19.3277 -19.2222  -9.0192  -8.7314  -8.3115  -8.2408  -8.1743
    -7.9539  -7.7841  -7.6967  -7.6795  -7.6384  -7.5285  -7.4883  -7.2754
    -7.1811  -7.0820  -7.0149  -6.9323  -6.8957  -6.7697  -6.7232  -6.6627
    -6.5416  -6.4044  -6.3529  -6.0827  -5.9956  -5.8831  -5.6778  -5.5949
    -5.5092  -5.4728  -5.4105  -5.3398  -5.2836  -5.2005  -5.1088  -5.0210
    -4.9165  -4.7736  -4.6855  -4.6565  -4.5506  -4.3740  -4.3119  -4.2861
    -4.1457  -4.1219  -3.9932  -3.8382  -3.7837  -3.6489  -3.5231  -3.3197
    -3.2305  -3.0859  -2.9556  -2.5716  -0.7924  -0.7163  -0.4870  -0.4649
    -0.3858  -0.3208  -0.2684  -0.2339  -0.1419  -0.0733  -0.0511   0.1304
     0.1442   0.2203   0.2558   0.3413   0.3679   0.4395   0.4672   0.5710
     0.6539   0.7703   0.8557   0.9034   1.1784   1.4998   1.6798   1.8210
     1.9037   2.2054   2.2839   2.4099   2.6011   2.6632   2.7569   2.8726
     2.9995   3.1966   3.3770   3.5768   3.7724   4.0659   4.3693   4.8347
     5.3399   5.6483   5.7085   5.9816   6.2566   6.3928   6.4845   6.6118
     6.7834   6.9234   7.0054   7.3026   7.4626   7.7133   7.8780   7.9830
     8.1969   8.3157   8.3897   8.5571   8.6735   8.8169   8.9855   9.0805
     9.2198   9.2582   9.4075   9.5254   9.5893   9.7745   9.8629  10.0173
    10.1398  10.2247  10.3044  10.4192  10.5570  10.6397  10.7028  10.8272
    10.9012  11.0026  11.1064  11.1989  11.2829  11.4291  11.4729  11.5974
    11.6532  11.7894  11.8901  11.9703  12.0356  12.1298  12.1633  12.2717
    12.3680  12.4184  12.5748  12.6464  12.7485  12.8195  12.9124  12.9620
    12.9864  13.0436  13.0790  13.1347  13.2527  13.2978  13.3541  13.4618
    13.5805  13.6869  13.7471  13.7885  13.9216  13.9656  14.0020  14.1084
    14.1802  14.2274  14.3730  14.4763  14.5468  14.6018  14.7049  14.7892
    14.8647  14.9093  15.0623  15.1452  15.1672  15.2879  15.3754  15.4413
    15.4847  15.6265  15.6630  15.7201  15.7580  15.8437  15.9312  16.0018
    16.0467  16.1270  16.2163  16.2864  16.3762  16.4319  16.4823  16.5604
    16.5942  16.7054  16.8346  16.8565  16.9052  16.9610  17.0430  17.1454
    17.2039  17.2662  17.3455  17.4210  17.4739  17.5045  17.5902  17.6737
    17.7049  17.7365  17.7845  17.8806  17.9755  18.0365  18.0899  18.1618
    18.2536  18.3060  18.3871  18.4086  18.5049  18.6214  18.6671  18.7389
    18.8361  18.9195  18.9671  19.0313  19.0934  19.1411  19.2435  19.2882
    19.4066  19.4338  19.5277  19.6001  19.6520  19.6970  19.7473  19.8630
    19.9201  20.0434  20.1177  20.1879  20.2703  20.3585  20.4211  20.5035
    20.5319  20.6914  20.7175  20.7980  20.9104  20.9633  21.0221  21.1283
    21.1981  21.2339  21.3538  21.4080  21.4263  21.5339

     the Fermi energy is    -1.5627 ev

!    total energy              =   -2027.05643876 Ry
     Harris-Foulkes estimate   =   -2027.05643880 Ry
     estimated scf accuracy    <          4.5E-09 Ry

     The total energy is the sum of the following terms:

     one-electron contribution =  -24414.11634358 Ry
     hartree contribution      =   12225.43921226 Ry
     xc contribution           =    -322.62030924 Ry
     ewald contribution        =   10484.24164872 Ry
     smearing contrib. (-TS)   =      -0.00064691 Ry

     total magnetization       =    15.00 Bohr mag/cell
     absolute magnetization    =    17.95 Bohr mag/cell

     convergence has been achieved in  14 iterations

     Forces acting on atoms (Ry/au):

     negative rho (up, down):  0.450E-02 0.177E-02
     atom    1 type  1   force =    -0.00362601   -0.01412183    0.00139745
     atom    2 type  1   force =     0.00039337    0.01453617   -0.00148949
     atom    3 type  2   force =     0.00680278   -0.00616953   -0.00385727
     atom    4 type  2   force =     0.00004975    0.00759759    0.00145825
     atom    5 type  1   force =     0.00390298    0.00653296    0.00068949
     atom    6 type  1   force =    -0.00068728   -0.00519112    0.00025208
     atom    7 type  1   force =     0.00061097   -0.00070223   -0.00190094
     atom    8 type  1   force =     0.00120662   -0.00084571   -0.00703823
     atom    9 type  2   force =     0.00426607    0.00076952    0.01213586
     atom   10 type  2   force =    -0.00927862   -0.00009537   -0.00157741
     atom   11 type  1   force =    -0.02839046   -0.04089647   -0.02467183
     atom   12 type  1   force =    -0.02872010    0.04064904   -0.02461413
     atom   13 type  1   force =     0.00057395   -0.00023940   -0.00725153
     atom   14 type  1   force =    -0.00361794   -0.01418019    0.00102471
     atom   15 type  1   force =    -0.00004580    0.01496510   -0.00057640
     atom   16 type  2   force =    -0.00812241   -0.00548350   -0.00330705
     atom   17 type  2   force =     0.00073542    0.00738090    0.00109273
     atom   18 type  1   force =     0.00341883    0.00670995    0.00063859
     atom   19 type  1   force =    -0.00050465   -0.00587678    0.00029256
     atom   20 type  1   force =     0.00001323   -0.00156153   -0.02430210
     atom   21 type  1   force =     0.00041672   -0.00081916   -0.00046820
     atom   22 type  2   force =    -0.00457240    0.00085040    0.01518223
     atom   23 type  2   force =     0.00284448    0.00043533    0.14630085
     atom   24 type  1   force =     0.03158427   -0.03665640   -0.03294586
     atom   25 type  1   force =     0.03206520    0.03625825   -0.03323130
     atom   26 type  1   force =    -0.00118486   -0.00018673   -0.01247873
     atom   27 type  3   force =     0.00007515   -0.00250890    0.00091982
     atom   28 type  3   force =     0.00006029   -0.00198918   -0.00069384
     atom   29 type  3   force =    -0.00007394    0.00056629   -0.00044222
     atom   30 type  3   force =    -0.00020896    0.00026945   -0.00047898
     atom   31 type  1   force =     0.00009192    0.00006370    0.00005244
     atom   32 type  3   force =    -0.00007856   -0.00006060   -0.00011155

     Total force =     0.000194     Total SCF correction =     0.000054
     SCF correction compared to forces is large: reduce conv_thr to get better values

     bfgs converged in  18 scf cycles and  17 bfgs steps
     (criteria: energy < 0.10E-03, force < 0.10E-02)

     End of BFGS Geometry Optimization

     Final energy   =   -2027.0564387593 Ry
Begin final coordinates

ATOMIC_POSITIONS (crystal)
O0       0.000000000   0.000000000   0.380440000    0   0   0
O0       0.000000000   0.500000000   0.398750000    0   0   0
Cr1      0.250000000   0.500000000   0.449490000    0   0   0
Cr1      0.000000000   0.000000000   0.452000000    0   0   0
O0       0.250000000   0.800000000   0.451020000    0   0   0
O0       0.250000000   0.200000000   0.451220000    0   0   0
O0       0.000000000   0.500000000   0.497560000    0   0   0
O0       0.000000000   0.000000000   0.524790000    0   0   0
Cr1      0.250000000   0.000000000   0.577460000    0   0   0
Cr1      0.000000000   0.500000000   0.565410000    0   0   0
O0       0.250000000   0.700000000   0.575340000    0   0   0
O0       0.250000000   0.300000000   0.575320000    0   0   0
O0       0.000000000   0.000000000   0.618010000    0   0   0
O0       0.500000000   0.000000000   0.380440000    0   0   0
O0       0.500000000   0.500000000   0.398750000    0   0   0
Cr1      0.750000000   0.500000000   0.449490000    0   0   0
Cr1      0.500000000   0.000000000   0.452000000    0   0   0
O0       0.750000000   0.800000000   0.451020000    0   0   0
O0       0.750000000   0.200000000   0.451220000    0   0   0
O0       0.500000000   0.500000000   0.497560000    0   0   0
O0       0.500000000   0.000000000   0.524790000    0   0   0
Cr1      0.750000000   0.000000000   0.577460000    0   0   0
Cr1      0.500000000   0.500000000   0.565410000    0   0   0
O0       0.750000000   0.700000000   0.575340000    0   0   0
O0       0.750000000   0.300000000   0.575320000    0   0   0
O0       0.500000000   0.000000000   0.618010000    0   0   0
H2      -0.000690000   0.641520000   0.380780000    0   0   0
H2       0.499310000   0.641520000   0.380780000    0   0   0
H2       0.157340000   0.029640000   0.367440000    0   0   0
H2       0.657350000   0.029640000   0.367440000    0   0   0
O0       0.514273815   0.499358327   0.638015885
H2       0.362605669   0.499709973   0.654638275
End final coordinates

     General routines

     Parallel routines

   This run was terminated on:  16:23:44  27Mar2014

   JOB DONE.
Running PBS batch system epilogue script
Job id: 312968.audhumbla.fysik.dtu.dk
Username: zhonxu
Groupname: campgst
Jobname: CrO2/Eads-2-layers/OH
Sessionid: 9615
Queuename: verylong
Accounting:
This job has allocated the following 16 nodes:
d047 d047 d047 d047 d047 d047 d047 d047 d038 d038 d038 d038 d038 d038 d038 d038
Finished epilogue job 312968.audhumbla.fysik.dtu.dk for zhonxu