     Program PWSCF v.5.0.2 (svn rev. 9656) starts on 28May2014 at  1:51:44

     Current dimensions of program PWSCF are:
     Max number of different atomic species (ntypx) = 10
     Max number of k-points (npk) =  40000
     Max angular momentum in pseudopotentials (lmaxx) =  3
     Reading input from pwscf.in
Warning: card &CELL ignored
Warning: card / ignored

     Subspace diagonalization in iterative solution of the eigenvalue problem:
     a serial algorithm will be used

     bravais-lattice index     =            0
     lattice parameter (alat)  =      10.3179  a.u.
     unit-cell volume          =    6964.3238 (a.u.)^3
     number of atoms/cell      =           33
     number of atomic types    =            3
     number of electrons       =       237.00
     number of Kohn-Sham states=          355
     kinetic-energy cutoff     =      40.0000  Ry
     charge density cutoff     =     500.0000  Ry
     convergence threshold     =      1.0E-06
     mixing beta               =       0.7000
     number of iterations used =            8  plain     mixing
     Exchange-correlation      = SLA  PW   PBE  PBE ( 1 4 3 4 0)
     EXX-fraction              =        0.00
     nstep                     =           50

     celldm(1)=  10.317905  celldm(2)=   0.000000  celldm(3)=   0.000000
     celldm(4)=   0.000000  celldm(5)=   0.000000  celldm(6)=   0.000000

     crystal axes: (cart. coord. in units of alat)
               a(1) = (   1.000000   0.000000   0.000000 )
               a(2) = (   0.000000   1.282117   0.000000 )
               a(3) = (   0.000000   0.000000   4.945120 )

     reciprocal axes: (cart. coord. in units 2 pi/alat)
               b(1) = (  1.000000  0.000000  0.000000 )
               b(2) = (  0.000000  0.779960  0.000000 )
               b(3) = (  0.000000  0.000000  0.202220 )

     PseudoPot. # 1 for O  read from file:
     /home/camp/zhonxu/pseudo/o_pbe_v1.01.uspp.F.UPF
     MD5 check sum: 2bcb18d16ea4b960afae9ec6d52f22d2
     Pseudo is Ultrasoft + core correction, Zval =  6.0
     Generated by new atomic code, or converted to UPF format
     Using radial grid of  737 points,  5 beta functions with:
                l(1) =   0
                l(2) =   0
                l(3) =   1
                l(4) =   1
                l(5) =   2
     Q(r) pseudized with  8 coefficients,  rinner =    0.900   0.900   0.900
                                                       0.900   0.900

     PseudoPot. # 2 for Mo read from file:
     /home/camp/zhonxu/pseudo/mo_pbe_v1.uspp.F.UPF
     MD5 check sum: 30c4dcd161f5d35cd49bb5239c51a633
     Pseudo is Ultrasoft + core correction, Zval = 14.0
     Generated by new atomic code, or converted to UPF format
     Using radial grid of  889 points,  6 beta functions with:
                l(1) =   0
                l(2) =   0
                l(3) =   1
                l(4) =   1
                l(5) =   2
                l(6) =   2
     Q(r) pseudized with  6 coefficients,  rinner =    1.000   1.000   1.000
                                                       1.000   1.000

     PseudoPot. # 3 for H  read from file:
     /home/camp/zhonxu/pseudo/h_pbe_v1.uspp.F.UPF
     MD5 check sum: 3408e3ff4ec8b0a4e358431e7e038a48
     Pseudo is Ultrasoft, Zval =  1.0
     Generated by new atomic code, or converted to UPF format
     Using radial grid of  615 points,  2 beta functions with:
                l(1) =   0
                l(2) =   0
     Q(r) pseudized with  8 coefficients,  rinner =    0.700

     atomic species   valence    mass     pseudopotential
        O0             6.00    15.99940     O ( 1.00)
        Mo1           14.00    95.94000     Mo( 1.00)
        H2             1.00     1.00794     H ( 1.00)

     Simplified LDA+U calculation (l_max = 2) with parameters (eV):
     atomic species    L          U    alpha       J0     beta
        Mo1            2     2.5000   0.0000   0.0000   0.0000

     No symmetry found

   Cartesian axes

     site n.     atom                  positions (alat units)
         1           O0  tau(   1) = (   0.0000000   0.0000000   1.8345407  )
         2           O0  tau(   2) = (   0.0000000   0.6410583   1.8924976  )
         3           Mo1 tau(   3) = (   0.2500000   0.6410583   2.1781772  )
         4           Mo1 tau(   4) = (   0.0000000   0.0000000   2.1929631  )
         5           O0  tau(   5) = (   0.2500000   1.0000510   2.1897982  )
         6           O0  tau(   6) = (   0.2500000   0.2820657   2.1891553  )
         7           O0  tau(   7) = (   0.0000000   0.6410583   2.4607413  )
         8           O0  tau(   8) = (   0.0000000   0.0000000   2.5556382  )
         9           Mo1 tau(   9) = (   0.2500000   0.0000000   2.8453728  )
        10           Mo1 tau(  10) = (   0.0000000   0.6410583   2.7952787  )
        11           O0  tau(  11) = (   0.2500000   0.9231240   2.8196582  )
        12           O0  tau(  12) = (   0.2500000   0.3589927   2.8248011  )
        13           O0  tau(  13) = (   0.0000000   0.0000000   3.0952003  )
        14           O0  tau(  14) = (   0.5000000   0.0000000   1.8353814  )
        15           O0  tau(  15) = (   0.5000000   0.6410583   1.8936349  )
        16           Mo1 tau(  16) = (   0.7500000   0.6410583   2.1781277  )
        17           Mo1 tau(  17) = (   0.5000000   0.0000000   2.1954851  )
        18           O0  tau(  18) = (   0.7500000   1.0000510   2.1899960  )
        19           O0  tau(  19) = (   0.7500000   0.2820657   2.1890564  )
        20           O0  tau(  20) = (   0.5000000   0.6410583   2.4612853  )
        21           O0  tau(  21) = (   0.5000000   0.0000000   2.5539074  )
        22           Mo1 tau(  22) = (   0.7500000   0.0000000   2.8439387  )
        23           Mo1 tau(  23) = (   0.5000000   0.6410583   2.8209934  )
        24           O0  tau(  24) = (   0.7500000   0.9231240   2.8195098  )
        25           O0  tau(  25) = (   0.7500000   0.3589927   2.8246033  )
        26           O0  tau(  26) = (   0.5000000   0.0000000   3.0932717  )
        27           H2  tau(  27) = (  -0.0005800   0.7846554   1.7836060  )
        28           H2  tau(  28) = (   0.4995100   0.7915788   1.7940402  )
        29           H2  tau(  29) = (   0.1672700   0.0232576   1.7642706  )
        30           H2  tau(  30) = (   0.6659000   0.0248346   1.7633310  )
        31           O0  tau(  31) = (   0.5002100   0.6666879   3.1760530  )
        32           O0  tau(  32) = (   0.4999400   0.4570233   3.3393409  )
        33           H2  tau(  33) = (   0.5000100   0.5446560   3.4973869  )

     number of k points=    10  Methfessel-Paxton smearing, width (Ry)=  0.0100
                       cart. coord. in units 2pi/alat
        k(    1) = (   0.0000000   0.0000000   0.0000000), wk =   0.1250000
        k(    2) = (   0.0000000   0.1949901   0.0000000), wk =   0.2500000
        k(    3) = (   0.0000000  -0.3899801   0.0000000), wk =   0.1250000
        k(    4) = (   0.2500000   0.0000000   0.0000000), wk =   0.2500000
        k(    5) = (   0.2500000   0.1949901   0.0000000), wk =   0.2500000
        k(    6) = (   0.2500000  -0.3899801   0.0000000), wk =   0.2500000
        k(    7) = (  -0.5000000   0.0000000   0.0000000), wk =   0.1250000
        k(    8) = (  -0.5000000   0.1949901   0.0000000), wk =   0.2500000
        k(    9) = (  -0.5000000  -0.3899801   0.0000000), wk =   0.1250000
        k(   10) = (  -0.2500000   0.1949901   0.0000000), wk =   0.2500000

     Largest allocated arrays     est. size (Mb)     dimensions
     Largest temporary arrays     est. size (Mb)     dimensions

     Check: negative/imaginary core charge=   -0.000003    0.000000

     Initial potential from superposition of free atoms
     Check: negative starting charge=   -0.002157

     starting charge  236.99142, renormalised to  237.00000

     negative rho (up, down):  0.216E-02 0.000E+00
     Number of +U iterations with fixed ns =  0
     Starting occupations:
 --- enter write_ns ---
 LDA+U parameters:
U( 2)     =  2.50000000
alpha( 2) =  0.00000000
atom    3   Tr[ns(na)] =   5.00000
    eigenvalues:
  0.500  0.500  0.500  0.500  0.500
    eigenvectors:
  1.000  0.000  0.000  0.000  0.000
  0.000  1.000  0.000  0.000  0.000
  0.000  0.000  1.000  0.000  0.000
  0.000  0.000  0.000  1.000  0.000
  0.000  0.000  0.000  0.000  1.000
    occupations:
  0.500  0.000  0.000  0.000  0.000
  0.000  0.500  0.000  0.000  0.000
  0.000  0.000  0.500  0.000  0.000
  0.000  0.000  0.000  0.500  0.000
  0.000  0.000  0.000  0.000  0.500
atom    4   Tr[ns(na)] =   5.00000
    eigenvalues:
  0.500  0.500  0.500  0.500  0.500
    eigenvectors:
  1.000  0.000  0.000  0.000  0.000
  0.000  1.000  0.000  0.000  0.000
  0.000  0.000  1.000  0.000  0.000
  0.000  0.000  0.000  1.000  0.000
  0.000  0.000  0.000  0.000  1.000
    occupations:
  0.500  0.000  0.000  0.000  0.000
  0.000  0.500  0.000  0.000  0.000
  0.000  0.000  0.500  0.000  0.000
  0.000  0.000  0.000  0.500  0.000
  0.000  0.000  0.000  0.000  0.500
atom    9   Tr[ns(na)] =   5.00000
    eigenvalues:
  0.500  0.500  0.500  0.500  0.500
    eigenvectors:
  1.000  0.000  0.000  0.000  0.000
  0.000  1.000  0.000  0.000  0.000
  0.000  0.000  1.000  0.000  0.000
  0.000  0.000  0.000  1.000  0.000
  0.000  0.000  0.000  0.000  1.000
    occupations:
  0.500  0.000  0.000  0.000  0.000
  0.000  0.500  0.000  0.000  0.000
  0.000  0.000  0.500  0.000  0.000
  0.000  0.000  0.000  0.500  0.000
  0.000  0.000  0.000  0.000  0.500
atom   10   Tr[ns(na)] =   5.00000
    eigenvalues:
  0.500  0.500  0.500  0.500  0.500
    eigenvectors:
  1.000  0.000  0.000  0.000  0.000
  0.000  1.000  0.000  0.000  0.000
  0.000  0.000  1.000  0.000  0.000
  0.000  0.000  0.000  1.000  0.000
  0.000  0.000  0.000  0.000  1.000
    occupations:
  0.500  0.000  0.000  0.000  0.000
  0.000  0.500  0.000  0.000  0.000
  0.000  0.000  0.500  0.000  0.000
  0.000  0.000  0.000  0.500  0.000
  0.000  0.000  0.000  0.000  0.500
atom   16   Tr[ns(na)] =   5.00000
    eigenvalues:
  0.500  0.500  0.500  0.500  0.500
    eigenvectors:
  1.000  0.000  0.000  0.000  0.000
  0.000  1.000  0.000  0.000  0.000
  0.000  0.000  1.000  0.000  0.000
  0.000  0.000  0.000  1.000  0.000
  0.000  0.000  0.000  0.000  1.000
    occupations:
  0.500  0.000  0.000  0.000  0.000
  0.000  0.500  0.000  0.000  0.000
  0.000  0.000  0.500  0.000  0.000
  0.000  0.000  0.000  0.500  0.000
  0.000  0.000  0.000  0.000  0.500
atom   17   Tr[ns(na)] =   5.00000
    eigenvalues:
  0.500  0.500  0.500  0.500  0.500
    eigenvectors:
  1.000  0.000  0.000  0.000  0.000
  0.000  1.000  0.000  0.000  0.000
  0.000  0.000  1.000  0.000  0.000
  0.000  0.000  0.000  1.000  0.000
  0.000  0.000  0.000  0.000  1.000
    occupations:
  0.500  0.000  0.000  0.000  0.000
  0.000  0.500  0.000  0.000  0.000
  0.000  0.000  0.500  0.000  0.000
  0.000  0.000  0.000  0.500  0.000
  0.000  0.000  0.000  0.000  0.500
atom   22   Tr[ns(na)] =   5.00000
    eigenvalues:
  0.500  0.500  0.500  0.500  0.500
    eigenvectors:
  1.000  0.000  0.000  0.000  0.000
  0.000  1.000  0.000  0.000  0.000
  0.000  0.000  1.000  0.000  0.000
[...]
 -0.048 -0.001 -0.000  0.615  0.000
 -0.002 -0.000  0.019  0.000  0.499
atom   10   Tr[ns(na)] =   5.77806
    eigenvalues:
  0.489  0.495  0.517  0.654  0.735
    eigenvectors:
  0.493  0.507  0.000  0.000  0.000
  0.000  0.000  0.000  1.000  0.000
  0.507  0.493  0.000  0.000  0.000
  0.000  0.000  0.000  0.000  1.000
  0.000  0.000  1.000  0.000  0.000
    occupations:
  0.492  0.000 -0.003 -0.005  0.000
  0.000  0.654 -0.001  0.000 -0.000
 -0.003 -0.001  0.492 -0.001 -0.000
 -0.005  0.000 -0.001  0.734 -0.000
  0.000 -0.000 -0.000 -0.000  0.517
atom   16   Tr[ns(na)] =   5.83225
    eigenvalues:
  0.489  0.510  0.565  0.604  0.747
    eigenvectors:
  0.013  0.001  0.331  0.000  0.655
  0.001  0.997  0.001  0.001  0.000
  0.970  0.001  0.003  0.017  0.010
  0.000  0.001  0.664  0.001  0.335
  0.016  0.002  0.001  0.981  0.000
    occupations:
  0.683  0.002  0.023 -0.085  0.000
  0.002  0.510  0.001  0.001 -0.003
  0.023  0.001  0.494 -0.011 -0.015
 -0.085  0.001 -0.011  0.626 -0.000
  0.000 -0.003 -0.015 -0.000  0.602
atom   17   Tr[ns(na)] =   5.83369
    eigenvalues:
  0.453  0.521  0.583  0.622  0.738
    eigenvectors:
  0.000  0.000  0.989  0.010  0.001
  0.001  0.000  0.010  0.989  0.000
  0.999  0.000  0.000  0.001  0.000
  0.000  0.000  0.001  0.000  0.999
  0.000  1.000  0.000  0.000  0.000
    occupations:
  0.584  0.004  0.001 -0.005  0.000
  0.004  0.621  0.004 -0.001 -0.001
  0.001  0.004  0.453 -0.001  0.000
 -0.005 -0.001 -0.001  0.737  0.000
  0.000 -0.001  0.000  0.000  0.521
atom   22   Tr[ns(na)] =   5.83155
    eigenvalues:
  0.488  0.537  0.588  0.594  0.709
    eigenvectors:
  0.000  0.000  0.200  0.028  0.771
  0.000  0.000  0.127  0.873  0.000
  0.184  0.816  0.000  0.000  0.000
  0.000  0.000  0.673  0.099  0.228
  0.816  0.184  0.000  0.000  0.000
    occupations:
  0.681  0.001 -0.000 -0.050 -0.002
  0.001  0.593 -0.000  0.002 -0.000
 -0.000 -0.000  0.528  0.000 -0.019
 -0.050  0.002  0.000  0.616  0.001
 -0.002 -0.000 -0.019  0.001  0.497
atom   23   Tr[ns(na)] =   5.85043
    eigenvalues:
  0.515  0.524  0.546  0.581  0.759
    eigenvectors:
  0.003  0.000  0.000  0.987  0.011
  0.000  0.030  0.970  0.000  0.000
  0.997  0.000  0.000  0.003  0.000
  0.000  0.000  0.000  0.010  0.989
  0.000  0.970  0.030  0.000  0.000
    occupations:
  0.583 -0.000  0.003 -0.018  0.000
 -0.000  0.545  0.000 -0.000 -0.004
  0.003  0.000  0.515  0.004  0.000
 -0.018 -0.000  0.004  0.757 -0.000
  0.000 -0.004  0.000 -0.000  0.525
N of occupied +U levels =  46.6120351
 --- exit write_ns ---

     Threshold (ethr) on eigenvalues was too large:
     Diagonalizing with lowered threshold

     Davidson diagonalization with overlap
     ethr =  4.28E-09,  avg # of iterations =  3.0

[...]

     total energy              =   -1763.97160825 Ry
     Harris-Foulkes estimate   =   -1763.97160826 Ry
     estimated scf accuracy    <       0.00000006 Ry

     iteration # 13     ecut=    40.00 Ry     beta=0.70
     Davidson diagonalization with overlap
     ethr =  6.44E-12,  avg # of iterations =  1.0

     negative rho (up, down):  0.333E-02 0.000E+00

     End of self-consistent calculation
 --- enter write_ns ---
 LDA+U parameters:
U( 2)     =  2.50000000
alpha( 2) =  0.00000000
atom    3   Tr[ns(na)] =   5.83259
    eigenvalues:
  0.490  0.510  0.565  0.604  0.747
    eigenvectors:
  0.013  0.001  0.331  0.000  0.655
  0.001  0.997  0.001  0.001  0.000
  0.970  0.000  0.003  0.016  0.010
  0.000  0.001  0.663  0.001  0.335
  0.016  0.002  0.001  0.982  0.000
    occupations:
  0.683 -0.002  0.023 -0.085  0.000
 -0.002  0.510 -0.001 -0.001 -0.003
  0.023 -0.001  0.495 -0.011  0.014
 -0.085 -0.001 -0.011  0.626  0.000
  0.000 -0.003  0.014  0.000  0.602
atom    4   Tr[ns(na)] =   5.82267
    eigenvalues:
  0.436  0.521  0.581  0.637  0.737
    eigenvectors:
  0.000  0.000  0.995  0.005  0.000
  0.001  0.000  0.005  0.994  0.000
  0.999  0.000  0.000  0.001  0.000
  0.000  0.000  0.000  0.000  0.999
  0.000  1.000  0.000  0.000  0.000
    occupations:
  0.581  0.004  0.001 -0.003  0.000
  0.004  0.636  0.005 -0.001  0.000
  0.001  0.005  0.436 -0.000  0.000
 -0.003 -0.001 -0.000  0.736  0.000
  0.000  0.000  0.000  0.000  0.521
atom    9   Tr[ns(na)] =   5.83170
    eigenvalues:
  0.490  0.538  0.589  0.595  0.703
    eigenvectors:
  0.000  0.000  0.212  0.013  0.775
  0.000  0.000  0.063  0.937  0.000
  0.180  0.820  0.000  0.000  0.000
  0.000  0.000  0.725  0.049  0.225
  0.820  0.179  0.000  0.000  0.000
    occupations:
  0.677 -0.001  0.000 -0.048 -0.002
 -0.001  0.595 -0.001 -0.001 -0.000
  0.000 -0.001  0.530 -0.000  0.019
 -0.048 -0.001 -0.000  0.615  0.000
 -0.002 -0.000  0.019  0.000  0.499
atom   10   Tr[ns(na)] =   5.77703
    eigenvalues:
  0.489  0.495  0.517  0.653  0.735
    eigenvectors:
  0.483  0.517  0.000  0.000  0.000
  0.000  0.000  0.000  1.000  0.000
  0.517  0.483  0.000  0.000  0.000
  0.000  0.000  0.000  0.000  1.000
  0.000  0.000  1.000  0.000  0.000
    occupations:
  0.492  0.000 -0.003 -0.005  0.000
  0.000  0.653 -0.001  0.000 -0.000
 -0.003 -0.001  0.492 -0.001 -0.000
 -0.005  0.000 -0.001  0.734 -0.000
  0.000 -0.000 -0.000 -0.000  0.517
atom   16   Tr[ns(na)] =   5.83208
    eigenvalues:
  0.489  0.510  0.565  0.604  0.747
    eigenvectors:
  0.013  0.001  0.331  0.000  0.655
  0.001  0.997  0.001  0.001  0.000
  0.970  0.000  0.003  0.017  0.010
  0.000  0.001  0.664  0.001  0.335
  0.017  0.002  0.001  0.981  0.000
    occupations:
  0.683  0.002  0.023 -0.085  0.000
  0.002  0.510  0.001  0.001 -0.003
  0.023  0.001  0.494 -0.011 -0.015
 -0.085  0.001 -0.011  0.626 -0.000
  0.000 -0.003 -0.015 -0.000  0.602
atom   17   Tr[ns(na)] =   5.83409
    eigenvalues:
  0.453  0.521  0.583  0.622  0.738
    eigenvectors:
  0.000  0.000  0.989  0.010  0.001
  0.001  0.000  0.010  0.989  0.000
  0.999  0.000  0.000  0.001  0.000
  0.000  0.000  0.001  0.000  0.999
  0.000  1.000  0.000  0.000  0.000
    occupations:
  0.584  0.004  0.001 -0.005  0.000
  0.004  0.621  0.004 -0.001 -0.001
  0.001  0.004  0.453 -0.001  0.000
 -0.005 -0.001 -0.001  0.737  0.000
  0.000 -0.001  0.000  0.000  0.521
atom   22   Tr[ns(na)] =   5.83159
    eigenvalues:
  0.488  0.537  0.588  0.594  0.709
    eigenvectors:
  0.000  0.000  0.200  0.028  0.771
  0.000  0.000  0.127  0.873  0.000
  0.184  0.816  0.000  0.000  0.000
  0.000  0.000  0.673  0.099  0.228
  0.816  0.184  0.000  0.000  0.000
    occupations:
  0.681  0.001 -0.000 -0.050 -0.002
  0.001  0.593 -0.000  0.002 -0.000
 -0.000 -0.000  0.528  0.000 -0.019
 -0.050  0.002  0.000  0.616  0.001
 -0.002 -0.000 -0.019  0.001  0.497
atom   23   Tr[ns(na)] =   5.85034
    eigenvalues:
  0.515  0.524  0.546  0.581  0.759
    eigenvectors:
  0.003  0.000  0.000  0.987  0.011
  0.000  0.030  0.970  0.000  0.000
  0.997  0.000  0.000  0.003  0.000
  0.000  0.000  0.000  0.010  0.989
  0.000  0.969  0.030  0.000  0.000
    occupations:
  0.583 -0.000  0.003 -0.018  0.000
 -0.000  0.545  0.000 -0.000 -0.004
  0.003  0.000  0.515  0.004  0.000
 -0.018 -0.000  0.004  0.757 -0.000
  0.000 -0.004  0.000 -0.000  0.525
N of occupied +U levels =  46.6120790
 --- exit write_ns ---

[...]

          k = 0.2500-0.3900 0.0000 ( 29726 PWs)   bands (ev):

[...]

          k =-0.2500 0.1950 0.0000 ( 29746 PWs)   bands (ev):

   -62.0257 -61.9379 -61.9360 -61.7708 -61.7626 -61.7281 -61.6885 -61.6784
   -36.6151 -36.4088 -36.3390 -36.3289 -36.2417 -36.2198 -36.1219 -36.1041
   -36.0922 -36.0499 -35.9991 -35.9659 -35.9507 -35.9249 -35.9228 -35.8939
   -35.8356 -35.7827 -35.7824 -35.7563 -35.7413 -35.4608 -35.3948 -35.3444
   -22.8495 -20.3060 -20.0581 -19.4722 -19.3662 -19.2663 -19.0968 -19.0365
   -18.9395 -18.8569 -18.7435 -18.6364 -18.5230 -18.4368 -18.4052 -18.3378
   -18.2182 -17.8038 -17.6489 -16.5652  -8.3753  -8.2219  -8.1352  -7.7968
    -7.4720  -7.3223  -7.2963  -7.1845  -7.0133  -6.9705  -6.9305  -6.8733
    -6.7744  -6.5887  -6.4454  -6.3458  -6.0376  -6.0042  -5.8894  -5.8481
    -5.6965  -5.6319  -5.5530  -5.3879  -5.2962  -5.2409  -5.0045  -4.9647
    -4.8922  -4.7271  -4.6492  -4.5831  -4.4015  -4.2843  -4.1599  -4.1191
    -4.0621  -4.0012  -3.9632  -3.9094  -3.7986  -3.7670  -3.6958  -3.5915
    -3.4602  -3.3768  -3.2496  -3.1244  -3.0183  -3.0096  -2.9248  -2.8281
    -2.7129  -2.6820  -2.5202  -2.4165  -2.3351  -2.1342  -1.4197  -1.3219
    -1.2633  -1.1543  -0.2983  -0.0809  -0.0545   0.0941   0.5921   0.6432
     0.9821   1.0968   1.1736   1.2954   1.4783   1.5298   1.7403   1.8196
     1.9347   1.9892   2.1781   2.2281   2.2440   2.3173   2.6335   2.8567
     3.6853   3.7605   4.0554   4.1263   4.2301   4.3204   4.3981   4.5023
     4.7259   4.8054   4.9293   4.9622   5.1761   5.2325   5.3492   5.5625
     5.9073   6.0713   6.1734   6.2532   6.3556   6.4524   6.5170   6.6120
     6.7322   6.9565   7.0074   7.2736   7.3317   7.4305   7.7329   7.7814
     8.0830   8.2328   8.4540   8.4927   8.6495   8.7281   8.8663   8.9638
     9.0035   9.1992   9.2463   9.3710   9.5030   9.6163   9.6908   9.7750
     9.8263   9.9311   9.9731  10.0882  10.2255  10.4238  10.5364  10.6086
    10.6995  10.8010  10.9068  10.9465  11.0228  11.1348  11.2867  11.3816
    11.4965  11.6675  11.7415  11.8435  11.9106  11.9390  12.0161  12.1750
    12.1976  12.2574  12.3558  12.3665  12.4568  12.5527  12.6223  12.8141
    12.9003  12.9848  13.0335  13.1592  13.2019  13.2548  13.3922  13.4401
    13.5320  13.5619  13.6442  13.6995  13.7571  13.8392  13.8935  13.9517
    14.0429  14.0846  14.1279  14.2034  14.2486  14.2937  14.3653  14.3857
    14.4676  14.5216  14.6172  14.7487  14.7817  14.8800  14.9161  15.0697
    15.1372  15.2380  15.2957  15.4277  15.4775  15.5020  15.6369  15.6898
    15.7975  15.8816  15.9214  16.0155  16.0780  16.1639  16.2595  16.2924
    16.3387  16.4331  16.5113  16.5646  16.5924  16.6294  16.7317  16.7639
    16.8460  16.9184  16.9639  17.0916  17.1059  17.2004  17.2790  17.3082
    17.3395  17.3941  17.5049  17.5899  17.6812  17.7542  17.7977  17.8997
    18.0536  18.0977  18.1354  18.1985  18.2303  18.3567  18.4022  18.4916
    18.5775  18.6132  18.6880  18.7781  18.9136  18.9439  19.0233  19.0633
    19.1960  19.2487  19.3788  19.4099  19.4281  19.5401  19.6050  19.6960
    19.8185  19.8943  19.9868  20.0430  20.1137  20.1563  20.2040  20.2457
    20.2702  20.3356  20.4405  20.4717  20.4911  20.5459  20.6032  20.6798
    20.7617  20.8291  20.8823  20.9465  20.9983  21.1006  21.1390  21.2343
    21.2917  21.3625  21.4060  21.4646  21.5299  21.5500  21.6105  21.6242
    21.6605  21.7413  21.8134  21.8690  21.8993  21.9480  21.9902  22.0781
    22.1394  22.2094  22.2911

     the Fermi energy is     0.4832 ev

!    total energy              =   -1763.97160825 Ry
     Harris-Foulkes estimate   =   -1763.97160826 Ry
     estimated scf accuracy    <          5.7E-09 Ry

     The total energy is the sum of the following terms:

     one-electron contribution =  -22655.59563150 Ry
     hartree contribution      =   11357.58307156 Ry
     xc contribution           =    -301.56375941 Ry
     ewald contribution        =    9833.87635736 Ry
     Hubbard energy            =       1.72791667 Ry
     smearing contrib. (-TS)   =       0.00043708 Ry

     convergence has been achieved in  13 iterations

     Forces acting on atoms (Ry/au):

     negative rho (up, down):  0.333E-02 0.000E+00
     atom    1 type  1   force =    -0.00087884   -0.00497778   -0.00012526
     atom    2 type  1   force =    -0.00014139    0.00862361    0.00016680
     atom    3 type  2   force =    -0.00214503   -0.00857666    0.00008280
     atom    4 type  2   force =     0.00111027    0.00478407   -0.00050912
     atom    5 type  1   force =     0.00003270   -0.00932219   -0.00005561
     atom    6 type  1   force =    -0.00173881    0.00739770   -0.00003048
     atom    7 type  1   force =     0.00030432   -0.00080264    0.00008727
     atom    8 type  1   force =     0.00288696    0.00229113    0.00034351
     atom    9 type  2   force =    -0.00239631   -0.00371156    0.00019113
     atom   10 type  2   force =    -0.00016839    0.00294788    0.00001326
     atom   11 type  1   force =    -0.01455998   -0.01922659   -0.00020712
     atom   12 type  1   force =    -0.01145688    0.02507259   -0.00031513
     atom   13 type  1   force =     0.00008010   -0.00171185    0.00014995
     atom   14 type  1   force =    -0.00305398   -0.00602362   -0.00023894
     atom   15 type  1   force =     0.00001717    0.01102761    0.00068132
     atom   16 type  2   force =     0.00152021   -0.00833331    0.00008785
     atom   17 type  2   force =    -0.00185201    0.00392991   -0.00009579
     atom   18 type  1   force =     0.00274112   -0.00979045   -0.00003996
     atom   19 type  1   force =     0.00184557    0.00716280   -0.00004730
     atom   20 type  1   force =     0.00015696    0.00042909    0.00080136
     atom   21 type  1   force =     0.00361117    0.00248119   -0.00012691
     atom   22 type  2   force =    -0.00157534   -0.00396235    0.00008408
     atom   23 type  2   force =     0.00036121    0.00191126   -0.00033453
     atom   24 type  1   force =     0.01450481   -0.01869233   -0.00022553
     atom   25 type  1   force =     0.01137031    0.02503141   -0.00034938
     atom   26 type  1   force =    -0.00055796   -0.00663067    0.00039884
     atom   27 type  3   force =    -0.00000616   -0.00032885   -0.00063976
     atom   28 type  3   force =     0.00000043   -0.00068057   -0.00030243
     atom   29 type  3   force =    -0.00002210   -0.00023756   -0.00006719
     atom   30 type  3   force =    -0.00000748   -0.00010836   -0.00016008
     atom   31 type  1   force =     0.00006055   -0.00004676    0.00013287
     atom   32 type  1   force =    -0.00005874    0.00008590    0.00037468
     atom   33 type  3   force =     0.00001556   -0.00001206    0.00027482

     Total force =     0.001927     Total SCF correction =     0.000348
     SCF correction compared to forces is large: reduce conv_thr to get better values

     entering subroutine stress ...

     negative rho (up, down):  0.333E-02 0.000E+00
          total   stress  (Ry/bohr**3)                   (kbar)     P=   -5.35
  -0.00001295  -0.00000070   0.00000130         -1.90     -0.10      0.19
  -0.00000070  -0.00006204  -0.00000179         -0.10     -9.13     -0.26
   0.00000130  -0.00000179  -0.00003421          0.19     -0.26     -5.03

     bfgs converged in   8 scf cycles and   7 bfgs steps
     (criteria: energy < 0.10E-03, force < 0.10E-02)

     End of BFGS Geometry Optimization

     Final energy   =   -1763.9716082495 Ry
Begin final coordinates

ATOMIC_POSITIONS (crystal)
O0       0.000000000   0.000000000   0.371105966    0   0   1
O0       0.000000000   0.500000000   0.382924656    0   0   1
Mo1      0.250000000   0.500000000   0.440514927    0   0   1
Mo1      0.000000000   0.000000000   0.443273218    0   0   1
O0       0.250000000   0.780000000   0.443020016    0   0   1
O0       0.250000000   0.220000000   0.442824608    0   0   1
O0       0.000000000   0.500000000   0.497752345    0   0   1
O0       0.000000000   0.000000000   0.516598860    0   0   1
Mo1      0.250000000   0.000000000   0.575229882    0   0   1
Mo1      0.000000000   0.500000000   0.565430597    0   0   1
O0       0.250000000   0.720000000   0.570476612    0   0   1
O0       0.250000000   0.280000000   0.571527753    0   0   1
O0       0.000000000   0.000000000   0.625572444    0   0   1
O0       0.500000000   0.000000000   0.371337560    0   0   1
O0       0.500000000   0.500000000   0.382746902    0   0   1
Mo1      0.750000000   0.500000000   0.440506528    0   0   1
Mo1      0.500000000   0.000000000   0.443878950    0   0   1
O0       0.750000000   0.780000000   0.443072679    0   0   1
O0       0.750000000   0.220000000   0.442808764    0   0   1
O0       0.500000000   0.500000000   0.498120286    0   0   1
O0       0.500000000   0.000000000   0.516000926    0   0   1
Mo1      0.750000000   0.000000000   0.574887077    0   0   1
Mo1      0.500000000   0.500000000   0.570275452    0   0   1
O0       0.750000000   0.720000000   0.570432213    0   0   1
O0       0.750000000   0.280000000   0.571475553    0   0   1
O0       0.500000000   0.000000000   0.625247992    0   0   1
H2      -0.000592943   0.610811261   0.360536839
H2       0.499511399   0.616857007   0.362423998
H2       0.167198124   0.017731206   0.356779086
H2       0.665488388   0.019159908   0.356549489
O0       0.500290163   0.518726785   0.642033419
O0       0.499858714   0.356411058   0.675279255
H2       0.500035192   0.425603803   0.707105149
End final coordinates

     General routines

     Parallel routines
     Hubbard U routines

   This run was terminated on:  10: 1:51  28May2014

   JOB DONE.