     Program PWSCF v.5.0.2 (svn rev. 9656) starts on 17Apr2014 at  1:39:47

     Current dimensions of program PWSCF are:
     Max number of different atomic species (ntypx) = 10
     Max number of k-points (npk) =  40000
     Max angular momentum in pseudopotentials (lmaxx) =  3
     Reading input from pwscf.in
Warning: card &CELL ignored
Warning: card / ignored

     Subspace diagonalization in iterative solution of the eigenvalue problem:
     a serial algorithm will be used

     bravais-lattice index     =            0
     lattice parameter (alat)  =      11.7541  a.u.
     unit-cell volume          =    7139.8207 (a.u.)^3
     number of atoms/cell      =           32
     number of atomic types    =            3
     number of electrons       =       239.00
     number of Kohn-Sham states=          358
     kinetic-energy cutoff     =      40.0000  Ry
     charge density cutoff     =     500.0000  Ry
     convergence threshold     =      1.0E-06
     mixing beta               =       0.3000
     number of iterations used =            8  plain     mixing
     Exchange-correlation      = SLA  PW   PBE  PBE ( 1 4 3 4 0)
     EXX-fraction              =        0.00
     nstep                     =           50

     celldm(1)=  11.754097  celldm(2)=   0.000000  celldm(3)=   0.000000
     celldm(4)=   0.000000  celldm(5)=   0.000000  celldm(6)=   0.000000

     crystal axes: (cart. coord. in units of alat)
               a(1) = (   1.000000   0.000000   0.000000 )
               a(2) = (   0.000000   1.034513   0.000000 )
               a(3) = (   0.000000   0.000000   4.249947 )

     reciprocal axes: (cart. coord. in units 2 pi/alat)
               b(1) = (  1.000000  0.000000  0.000000 )
               b(2) = (  0.000000  0.966638  0.000000 )
               b(3) = (  0.000000  0.000000  0.235297 )

     PseudoPot. # 1 for O  read from file:
     /home/camp/zhonxu/pseudo/o_pbe_v1.01.uspp.F.UPF
     MD5 check sum: 2bcb18d16ea4b960afae9ec6d52f22d2
     Pseudo is Ultrasoft + core correction, Zval =  6.0
     Generated by new atomic code, or converted to UPF format
     Using radial grid of  737 points,  5 beta functions with:
                l(1) =   0
                l(2) =   0
                l(3) =   1
                l(4) =   1
                l(5) =   2
     Q(r) pseudized with  8 coefficients,  rinner =    0.900   0.900   0.900
                                                       0.900   0.900

     PseudoPot. # 2 for Rh read from file:
     /home/camp/zhonxu/pseudo/rh_pbe_v1.uspp.F.UPF
     MD5 check sum: 37b626987ad0dd8ec6bf4cc9ef289918
     Pseudo is Ultrasoft + core correction, Zval = 15.0
     Generated by new atomic code, or converted to UPF format
     Using radial grid of  969 points,  7 beta functions with:
                l(1) =   0
                l(2) =   0
                l(3) =   1
                l(4) =   1
                l(5) =   2
                l(6) =   2
                l(7) =   2
     Q(r) pseudized with  6 coefficients,  rinner =    1.050   1.050   1.050
                                                       1.050   1.050

     PseudoPot. # 3 for H  read from file:
     /home/camp/zhonxu/pseudo/h_pbe_v1.uspp.F.UPF
     MD5 check sum: 3408e3ff4ec8b0a4e358431e7e038a48
     Pseudo is Ultrasoft, Zval =  1.0
     Generated by new atomic code, or converted to UPF format
     Using radial grid of  615 points,  2 beta functions with:
                l(1) =   0
                l(2) =   0
     Q(r) pseudized with  8 coefficients,  rinner =    0.700

     atomic species   valence    mass     pseudopotential
        O0             6.00    15.99940     O ( 1.00)
        Rh1           15.00   102.90550     Rh( 1.00)
        H2             1.00     1.00794     H ( 1.00)

     No symmetry found

   Cartesian axes

     site n.     atom                  positions (alat units)
         1           O0  tau(   1) = (   0.0000000   0.0000000   1.6077125  )
         2           O0  tau(   2) = (   0.0000000   0.5172566   1.7060138  )
         3           Rh1 tau(   3) = (   0.2500000   0.5172566   1.9233561  )
         4           Rh1 tau(   4) = (   0.0000000   0.0000000   1.9242061  )
         5           O0  tau(   5) = (   0.2500000   0.8379556   1.9221236  )
         6           O0  tau(   6) = (   0.2500000   0.1965575   1.9218261  )
         7           O0  tau(   7) = (   0.0000000   0.5172566   2.1180887  )
         8           O0  tau(   8) = (   0.0000000   0.0000000   2.2452046  )
         9           Rh1 tau(   9) = (   0.2500000   0.0000000   2.4467796  )
        10           Rh1 tau(  10) = (   0.0000000   0.5172566   2.4248074  )
        11           O0  tau(  11) = (   0.2500000   0.7138141   2.4490746  )
        12           O0  tau(  12) = (   0.2500000   0.3206991   2.4494996  )
        13           O0  tau(  13) = (   0.0000000   0.0000000   2.6392597  )
        14           O0  tau(  14) = (   0.5000000   0.0000000   1.6071175  )
        15           O0  tau(  15) = (   0.5000000   0.5172566   1.7046963  )
        16           Rh1 tau(  16) = (   0.7500000   0.5172566   1.9233561  )
        17           Rh1 tau(  17) = (   0.5000000   0.0000000   1.9236961  )
        18           O0  tau(  18) = (   0.7500000   0.8379556   1.9222086  )
        19           O0  tau(  19) = (   0.7500000   0.1965575   1.9219111  )
        20           O0  tau(  20) = (   0.5000000   0.5172566   2.1234861  )
        21           O0  tau(  21) = (   0.5000000   0.0000000   2.2446521  )
        22           Rh1 tau(  22) = (   0.7500000   0.0000000   2.4466946  )
        23           Rh1 tau(  23) = (   0.5000000   0.5172566   2.4467371  )
        24           O0  tau(  24) = (   0.7500000   0.7138141   2.4449521  )
        25           O0  tau(  25) = (   0.7500000   0.3206991   2.4452921  )
        26           O0  tau(  26) = (   0.5000000   0.0000000   2.6379847  )
        27           H2  tau(  27) = (  -0.0000100   0.6596573   1.6332972  )
        28           H2  tau(  28) = (   0.4999400   0.6612505   1.6349547  )
        29           H2  tau(  29) = (   0.1484100   0.0351631   1.5627056  )
        30           H2  tau(  30) = (   0.6482100   0.0356700   1.5619406  )
        31           O0  tau(  31) = (   0.5154200   0.5168841   2.7565583  )
        32           H2  tau(  32) = (   0.3686900   0.5167083   2.8162275  )

     number of k points=    10  Methfessel-Paxton smearing, width (Ry)=  0.0100
                       cart. coord. in units 2pi/alat
        k(    1) = (   0.0000000   0.0000000   0.0000000), wk =   0.1250000
        k(    2) = (   0.0000000   0.2416596   0.0000000), wk =   0.2500000
        k(    3) = (   0.0000000  -0.4833191   0.0000000), wk =   0.1250000
        k(    4) = (   0.2500000   0.0000000   0.0000000), wk =   0.2500000
        k(    5) = (   0.2500000   0.2416596   0.0000000), wk =   0.2500000
        k(    6) = (   0.2500000  -0.4833191   0.0000000), wk =   0.2500000
        k(    7) = (  -0.5000000   0.0000000   0.0000000), wk =   0.1250000
        k(    8) = (  -0.5000000   0.2416596   0.0000000), wk =   0.2500000
        k(    9) = (  -0.5000000  -0.4833191   0.0000000), wk =   0.1250000
        k(   10) = (  -0.2500000   0.2416596   0.0000000), wk =   0.2500000

     Largest allocated arrays     est. size (Mb)     dimensions
     Largest temporary arrays     est. size (Mb)     dimensions

     Check: negative/imaginary core charge=   -0.000003    0.000000

     Initial potential from superposition of free atoms
     Check: negative starting charge=   -0.644969

     starting charge  234.99914, renormalised to  239.00000

     negative rho (up, down):  0.656E+00 0.000E+00
     Starting wfc are  177 randomized atomic wfcs

     Self-consistent Calculation

     iteration #  1     ecut=    40.00 Ry     beta=0.30
     Davidson diagonalization with overlap
     ethr =  1.00E-02,  avg # of iterations =  6.0

     negative rho (up, down):  0.665E+00 0.000E+00

     total energy              =   -1974.84016672 Ry
     Harris-Foulkes estimate   =   -1984.92677164 Ry
     estimated scf accuracy    <      21.36609133 Ry

[...]

     iteration # 16     ecut=    40.00 Ry     beta=0.30
     Davidson diagonalization with overlap
     c_bands:  1 eigenvalues not converged
     ethr =  1.05E-06,  avg # of iterations =  6.0

[...]

     total energy              =   -1981.63485226 Ry
     Harris-Foulkes estimate   =   -1981.63485249 Ry
     estimated scf accuracy    <       0.00000167 Ry

     iteration # 27     ecut=    40.00 Ry     beta=0.30
     Davidson diagonalization with overlap
     ethr =  7.00E-10,  avg # of iterations =  1.0

     negative rho (up, down):  0.695E+00 0.000E+00

     End of self-consistent calculation

          k = 0.0000 0.0000 0.0000 ( 30479 PWs)   bands (ev):

   -49.5034 -49.4848 -49.4635 -49.4444 -49.4292 -49.3840 -49.3735 -49.3549
   -49.3349 -49.3181 -49.3172 -49.2724 -49.2458 -49.2246 -49.2225 -49.1599
   -49.1557 -49.1236 -49.0627 -49.0524 -49.0510 -49.0197 -49.0115 -49.0105
   -21.5631 -21.1244 -21.1149 -20.9386 -20.5818 -20.2853 -20.2616 -20.2291
   -20.1642 -20.1524 -20.1202 -20.0092 -19.9658 -19.9261 -19.7156 -19.6600
   -19.6556 -18.9013 -18.7701  -9.8703  -9.8553  -9.5978  -8.9477  -8.7265
    -8.6633  -8.6258  -8.5749  -8.5744  -8.5405  -8.3841  -8.2491  -8.2300
    -8.1182  -8.0277  -8.0111  -7.9008  -7.8580  -7.7060  -7.5791  -7.3383
    -7.1508  -7.0539  -6.9672  -6.6597  -6.5483  -6.5361  -6.4777  -6.0641
    -5.8620  -5.8331  -5.6702  -5.6386  -5.4155  -5.3828  -5.3557  -5.3491
    -5.2088  -5.1807  -5.1257  -5.0203  -4.9600  -4.7737  -4.7165  -4.6469
    -4.6169  -4.5142  -4.4686  -4.3940  -4.2845  -4.2163  -4.0523  -3.8975
    -3.8958  -3.8637  -3.7867  -3.6990  -3.6732  -3.5483  -3.3914  -3.3654
    -3.2866  -3.2676  -3.1784  -3.1252  -3.0656  -3.0542  -2.8098  -2.6925
    -2.5684  -2.4271  -2.3327  -2.1721  -2.1552  -1.8994  -1.6430  -1.5733
    -1.5596  -1.3336  -1.2662  -1.0959  -0.9754  -0.4125   0.1613   0.1678
     0.3214   0.3383   0.5065   0.6508   0.8257   1.1910   1.4305   1.7883
     1.8741   1.9094   2.1998   2.3409   3.0599   3.5010   4.1414   4.5726
     4.8988   5.7028   5.7894   6.0822   6.2318   6.6646   6.8976   6.9748
     7.1055   7.3650   7.4490   7.7175   7.7530   7.8523   7.9275   7.9802
     8.0440   8.0457   8.1030   8.1917   8.2642   8.3174   8.3936   8.4625
     8.5101   8.6497   8.7570   8.7975   8.9515   9.0107   9.0937   9.1870
     9.3175   9.4569   9.4975   9.5342   9.6540   9.7278   9.9584  10.0775
    10.2924  10.3766  10.5110  10.5509  10.6644  10.7470  10.8000  10.8408
    10.9149  11.0252  11.0776  11.1583  11.2424  11.2966  11.3917  11.4341
    11.6271  11.6520  11.6794  11.6971  11.7311  11.8240  11.8573  11.9229
    11.9662  12.0136  12.0567  12.1079  12.1927  12.2000  12.2637  12.3512
    12.4116  12.4958  12.5448  12.5753  12.6714  12.7582  12.7624  12.8006
    12.8479  12.9839  13.0528  13.2130  13.3220  13.4529  13.5457  13.5909
    13.6607  13.7122  13.8104  13.9178  13.9807  14.0926  14.1630  14.2013
    14.3003  14.3878  14.5351  14.5712  14.7228  14.8294  15.0094  15.0676
    15.1738  15.2452  15.3093  15.4310  15.5101  15.6400  15.6682  15.7620
    15.7827  15.8115  15.8802  15.9363  16.1913  16.2753  16.4640  16.5589
    16.6242  16.6529  16.8224  16.9255  16.9918  16.9984  17.0728  17.1120
    17.2014  17.3766  17.4573  17.5268  17.6063  17.6973  17.8255  17.8742
    18.0111  18.0511  18.1369  18.2462  18.2655  18.3762  18.3888  18.4071
    18.4588  18.5247  18.6280  18.6765  18.7144  18.8019  18.8681  18.9481
    19.0015  19.0920  19.1813  19.1993  19.2544  19.3216  19.4536  19.5272
    19.5526  19.5609  19.6194  19.6563  19.7376  19.7640  19.8306  19.8855
    19.9145  19.9488  20.0329  20.0819  20.1260  20.1597  20.2630  20.4017
    20.4434  20.5017  20.5334  20.5685  20.6165  20.7746  20.8797  21.0076
    21.0487  21.0607  21.1176  21.2319  21.3655  21.4762  21.5015  21.5115
    21.5925  21.6259  21.6806  21.7562  21.7793  21.8536  21.8845  22.0159
    22.0725  22.1759  22.2446  22.2992  22.3344  22.3790  22.4314  22.4656
    22.4749  22.5054  22.5120  22.5547  22.6045  22.7019

[...]

          k = 0.2500-0.4833 0.0000 ( 30510 PWs)   bands (ev):

[...]

          k =-0.5000 0.0000 0.0000 ( 30524 PWs)   bands (ev):

[...]

          k =-0.2500 0.2417 0.0000 ( 30481 PWs)   bands (ev):

   -49.5034 -49.4842 -49.4652 -49.4327 -49.4141 -49.3834 -49.3735 -49.3559
   -49.3314 -49.3189 -49.3183 -49.2820 -49.2440 -49.2391 -49.2265 -49.1608
   -49.1564 -49.1086 -49.0599 -49.0548 -49.0512 -49.0258 -49.0210 -49.0108
   -21.4334 -21.1442 -20.9462 -20.8066 -20.6324 -20.4063 -20.3426 -20.2552
   -20.1565 -20.1322 -20.0664 -20.0102 -19.9450 -19.9244 -19.8459 -19.7906
   -19.6921 -18.9331 -18.8191  -9.5176  -9.3113  -9.2544  -9.0814  -8.6881
    -8.6409  -8.5903  -8.5744  -8.5337  -8.4651  -8.4315  -8.3698  -8.2580
    -8.1162  -7.9524  -7.8386  -7.7473  -7.7175  -7.5149  -7.3869  -7.2556
    -7.1616  -7.1039  -7.0156  -6.6360  -6.4957  -6.4452  -6.3368  -6.1896
    -6.1441  -6.1029  -6.0603  -5.9797  -5.9196  -5.8715  -5.7426  -5.6745
    -5.6390  -5.5124  -5.3878  -5.2156  -5.1564  -5.0318  -4.9058  -4.8227
    -4.7123  -4.6612  -4.5385  -4.4251  -4.3574  -4.2373  -4.1301  -3.9630
    -3.7907  -3.6047  -3.5086  -3.4304  -3.3228  -3.1724  -3.1635  -3.0996
    -3.0645  -3.0283  -2.9150  -2.9015  -2.8392  -2.7770  -2.7455  -2.6717
    -2.6062  -2.5202  -2.2867  -2.1249  -1.8738  -1.8017  -1.6808  -1.6573
    -1.6049  -1.4433  -1.3465  -1.2591  -0.9342  -0.4219  -0.3381  -0.0601
     0.3191   0.4595   0.7763   0.8887   1.2509   1.3004   1.4597   1.4926
     1.6458   1.7930   1.8397   2.1732   3.6709   3.9326   4.6246   5.0139
     5.3759   5.4868   5.5740   5.8916   6.1599   6.3962   6.4745   6.5076
     6.5559   6.8028   6.9239   7.1181   7.2698   7.4667   7.5419   7.6979
     7.8747   7.9341   8.0635   8.1387   8.1933   8.3667   8.4404   8.5549
     8.7455   8.8160   8.8750   8.9552   9.0897   9.2539   9.4513   9.5375
     9.6071   9.7164   9.7781   9.8646   9.9254  10.0050  10.1894  10.2091
    10.3370  10.3624  10.4184  10.5704  10.7001  10.7301  10.8350  10.9238
    10.9837  11.0512  11.1497  11.1849  11.3033  11.3350  11.4823  11.5597
    11.5848  11.6896  11.7278  11.7767  11.8892  12.0301  12.0860  12.1700
    12.2209  12.2644  12.3123  12.3949  12.4977  12.5369  12.6300  12.6957
    12.7745  12.8289  12.8984  12.9826  13.0700  13.1465  13.2144  13.2658
    13.2949  13.3536  13.4746  13.5317  13.6790  13.7752  13.8223  13.8697
    13.9249  13.9975  14.1141  14.1461  14.2411  14.3059  14.3901  14.4363
    14.5668  14.6018  14.6824  14.7775  14.9488  15.0476  15.1808  15.2861
    15.3409  15.3857  15.4755  15.5248  15.5710  15.5836  15.6883  15.7569
    15.8066  15.8452  15.9369  16.0326  16.0715  16.1128  16.1858  16.2859
    16.3257  16.3968  16.4097  16.4625  16.4946  16.5768  16.6123  16.7059
    16.7462  16.8336  16.9381  17.0030  17.0911  17.1929  17.2216  17.2625
    17.3592  17.4076  17.4908  17.5170  17.5776  17.6457  17.7494  17.8424
    17.8802  17.9544  18.0385  18.0975  18.1165  18.2475  18.2690  18.3167
    18.4358  18.5227  18.6013  18.6840  18.7482  18.8085  18.8156  18.9299
    18.9886  19.0229  19.0924  19.1213  19.2224  19.2590  19.3008  19.4508
    19.5140  19.5740  19.6097  19.6895  19.7684  19.8540  19.9404  20.0462
    20.1227  20.1990  20.2548  20.3552  20.4795  20.5423  20.5888  20.6467
    20.7053  20.7721  20.8299  20.8888  20.9689  21.0423  21.1634  21.1777
    21.2309  21.2717  21.3001  21.3728  21.4044  21.4599  21.5192  21.6726
    21.7257  21.8012  21.8389  21.8719  21.9107  21.9744  22.0494  22.1134
    22.1703  22.2457  22.3666  22.4155  22.4816  22.5229

     the Fermi energy is    -1.6762 ev

!    total energy              =   -1981.63485201 Ry
     Harris-Foulkes estimate   =   -1981.63485240 Ry
     estimated scf accuracy    <       0.00000052 Ry

     The total energy is the sum of the following terms:

     one-electron contribution =  -23318.73266507 Ry
     hartree contribution      =   11706.71528283 Ry
     xc contribution           =    -372.78242145 Ry
     ewald contribution        =   10003.16578721 Ry
     smearing contrib. (-TS)   =      -0.00083553 Ry

     convergence has been achieved in  27 iterations

     Forces acting on atoms (Ry/au):

     negative rho (up, down):  0.695E+00 0.000E+00
     atom    1 type  1   force =    -0.00648843   -0.01373705   -0.00022118
     atom    2 type  1   force =     0.00056192    0.00619748    0.00095709
     atom    3 type  2   force =     0.03055282    0.00577098   -0.00000268
     atom    4 type  2   force =     0.00804665    0.00934619    0.00006113
     atom    5 type  1   force =    -0.00140299   -0.03007332   -0.00024221
     atom    6 type  1   force =     0.00107023    0.02664518   -0.00025794
     atom    7 type  1   force =     0.00170578   -0.00083692   -0.00066402
     atom    8 type  1   force =    -0.00154229   -0.00091393    0.00020338
     atom    9 type  2   force =     0.00519523   -0.00017708    0.00054517
     atom   10 type  2   force =    -0.00635935   -0.00164845   -0.00080307
     atom   11 type  1   force =    -0.01185398    0.00739698    0.00059205
     atom   12 type  1   force =    -0.01202157   -0.00709801    0.00058424
     atom   13 type  1   force =    -0.00075931    0.00003752    0.00054539
     atom   14 type  1   force =    -0.00686043   -0.01399707   -0.00015946
     atom   15 type  1   force =     0.00023529    0.00677721    0.00095508
     atom   16 type  2   force =    -0.03201321    0.00497425    0.00007810
     atom   17 type  2   force =     0.00854815    0.00946498   -0.00023380
     atom   18 type  1   force =     0.00015702   -0.03006097   -0.00027348
     atom   19 type  1   force =     0.00208510    0.02714901   -0.00025289
     atom   20 type  1   force =    -0.00096259   -0.00427088    0.00001435
     atom   21 type  1   force =    -0.00412507   -0.00058923    0.00014621
     atom   22 type  2   force =    -0.00169088    0.00034115    0.00021216
     atom   23 type  2   force =     0.00239475   -0.00017932   -0.00045293
     atom   24 type  1   force =     0.01240810    0.01181938   -0.00031896
     atom   25 type  1   force =     0.01312839   -0.01187013   -0.00035695
     atom   26 type  1   force =    -0.00127367   -0.00017012    0.00050757
     atom   27 type  3   force =    -0.00000085   -0.00031564    0.00021737
     atom   28 type  3   force =     0.00001607   -0.00023612    0.00001985
     atom   29 type  3   force =    -0.00014044    0.00009492   -0.00057634
     atom   30 type  3   force =    -0.00004022    0.00016144   -0.00046473
     atom   31 type  1   force =     0.00066346    0.00003320   -0.00043373
     atom   32 type  3   force =     0.00076633   -0.00003563    0.00007525

     Total force =     0.002727     Total SCF correction =     0.001101
     SCF correction compared to forces is large: reduce conv_thr to get better values

     BFGS Geometry Optimization

     bfgs converged in   1 scf cycles and   0 bfgs steps
     (criteria: energy < 0.10E-03, force < 0.10E-02)

     End of BFGS Geometry Optimization

     Final energy   =   -1981.6348520070 Ry
Begin final coordinates

ATOMIC_POSITIONS (crystal)
O0       0.000000000   0.000000000   0.378290000    0   0   1
O0       0.000000000   0.500000000   0.401420000    0   0   1
Rh1      0.250000000   0.500000000   0.452560000    0   0   1
Rh1      0.000000000   0.000000000   0.452760000    0   0   1
O0       0.250000000   0.810000000   0.452270000    0   0   1
O0       0.250000000   0.190000000   0.452200000    0   0   1
O0       0.000000000   0.500000000   0.498380000    0   0   1
O0       0.000000000   0.000000000   0.528290000    0   0   1
Rh1      0.250000000   0.000000000   0.575720000    0   0   1
Rh1      0.000000000   0.500000000   0.570550000    0   0   1
O0       0.250000000   0.690000000   0.576260000    0   0   1
O0       0.250000000   0.310000000   0.576360000    0   0   1
O0       0.000000000   0.000000000   0.621010000    0   0   1
O0       0.500000000   0.000000000   0.378150000    0   0   1
O0       0.500000000   0.500000000   0.401110000    0   0   1
Rh1      0.750000000   0.500000000   0.452560000    0   0   1
Rh1      0.500000000   0.000000000   0.452640000    0   0   1
O0       0.750000000   0.810000000   0.452290000    0   0   1
O0       0.750000000   0.190000000   0.452220000    0   0   1
O0       0.500000000   0.500000000   0.499650000    0   0   1
O0       0.500000000   0.000000000   0.528160000    0   0   1
Rh1      0.750000000   0.000000000   0.575700000    0   0   1
Rh1      0.500000000   0.500000000   0.575710000    0   0   1
O0       0.750000000   0.690000000   0.575290000    0   0   1
O0       0.750000000   0.310000000   0.575370000    0   0   1
O0       0.500000000   0.000000000   0.620710000    0   0   1
H2      -0.000010000   0.637650000   0.384310000
H2       0.499940000   0.639190000   0.384700000
H2       0.148410000   0.033990000   0.367700000
H2       0.648210000   0.034480000   0.367520000
O0       0.515420000   0.499640000   0.648610000
H2       0.368690000   0.499470000   0.662650000
End final coordinates

     General routines

     Parallel routines

   This run was terminated on:   3:23:47  17Apr2014

   JOB DONE.
Running PBS batch system epilogue script
Job id: 335003.audhumbla.fysik.dtu.dk
Username: zhonxu
Groupname: campgst
Jobname: RhO2/Eads-2-layers/OH-relax-surf
Sessionid: 7635
Queuename: verylong
Accounting:
This job has allocated the following 16 nodes:
a105 a105 a105 a105 a105 a105 a105 a105 a104 a104 a104 a104 a104 a104 a104 a104
Finished epilogue job 335003.audhumbla.fysik.dtu.dk for zhonxu