     Program PWSCF v.5.0.2 (svn rev. 9656) starts on 28Apr2014 at 20:29:12

     Current dimensions of program PWSCF are:
     Max number of different atomic species (ntypx) = 10
     Max number of k-points (npk) =  40000
     Max angular momentum in pseudopotentials (lmaxx) =  3
     Reading input from pwscf.in
Warning: card &CELL ignored
Warning: card / ignored

     Subspace diagonalization in iterative solution of the eigenvalue problem:
     a serial algorithm will be used

     bravais-lattice index     =            0
     lattice parameter (alat)  =      10.3179  a.u.
     unit-cell volume          =    6964.3238 (a.u.)^3
     number of atoms/cell      =           31
     number of atomic types    =            3
     number of electrons       =       230.00
     number of Kohn-Sham states=          345
     kinetic-energy cutoff     =      40.0000  Ry
     charge density cutoff     =     500.0000  Ry
     convergence threshold     =      1.0E-06
     mixing beta               =       0.7000
     number of iterations used =            8  plain     mixing
     Exchange-correlation      = SLA  PW   PBE  PBE ( 1 4 3 4 0)
     EXX-fraction              =        0.00
     nstep                     =           50

     celldm(1)=  10.317905  celldm(2)=   0.000000  celldm(3)=   0.000000
     celldm(4)=   0.000000  celldm(5)=   0.000000  celldm(6)=   0.000000

     crystal axes: (cart. coord. in units of alat)
               a(1) = (   1.000000   0.000000   0.000000 )
               a(2) = (   0.000000   1.282117   0.000000 )
               a(3) = (   0.000000   0.000000   4.945120 )

     reciprocal axes: (cart. coord. in units 2 pi/alat)
               b(1) = (  1.000000  0.000000  0.000000 )
               b(2) = (  0.000000  0.779960  0.000000 )
               b(3) = (  0.000000  0.000000  0.202220 )

     PseudoPot. # 1 for O  read from file:
     /home/camp/zhonxu/pseudo/o_pbe_v1.01.uspp.F.UPF
     MD5 check sum: 2bcb18d16ea4b960afae9ec6d52f22d2
     Pseudo is Ultrasoft + core correction, Zval =  6.0
     Generated by new atomic code, or converted to UPF format
     Using radial grid of  737 points,  5 beta functions with:
                l(1) =   0
                l(2) =   0
                l(3) =   1
                l(4) =   1
                l(5) =   2
     Q(r) pseudized with  8 coefficients,  rinner =    0.900   0.900   0.900
                                                       0.900   0.900

     PseudoPot. # 2 for Mo read from file:
     /home/camp/zhonxu/pseudo/mo_pbe_v1.uspp.F.UPF
     MD5 check sum: 30c4dcd161f5d35cd49bb5239c51a633
     Pseudo is Ultrasoft + core correction, Zval = 14.0
     Generated by new atomic code, or converted to UPF format
     Using radial grid of  889 points,  6 beta functions with:
                l(1) =   0
                l(2) =   0
                l(3) =   1
                l(4) =   1
                l(5) =   2
                l(6) =   2
     Q(r) pseudized with  6 coefficients,  rinner =    1.000   1.000   1.000
                                                       1.000   1.000

     PseudoPot. # 3 for H  read from file:
     /home/camp/zhonxu/pseudo/h_pbe_v1.uspp.F.UPF
     MD5 check sum: 3408e3ff4ec8b0a4e358431e7e038a48
     Pseudo is Ultrasoft, Zval =  1.0
     Generated by new atomic code, or converted to UPF format
     Using radial grid of  615 points,  2 beta functions with:
                l(1) =   0
                l(2) =   0
     Q(r) pseudized with  8 coefficients,  rinner =    0.700

     atomic species   valence    mass     pseudopotential
        O0             6.00    15.99940     O ( 1.00)
        Mo1           14.00    95.94000     Mo( 1.00)
        H2             1.00     1.00794     H ( 1.00)

     Simplified LDA+U calculation (l_max = 2) with parameters (eV):
     atomic species    L          U    alpha       J0     beta
        Mo1            2     3.5000   0.0000   0.0000   0.0000

     No symmetry found

   Cartesian axes

     site n.     atom                  positions (alat units)
         1           O0  tau(   1) = (   0.0000000   0.0000000   1.8298429  )
         2           O0  tau(   2) = (   0.0000000   0.6410583   1.8994207  )
         3           Mo1 tau(   3) = (   0.2500000   0.6410583   2.1871278  )
         4           Mo1 tau(   4) = (   0.0000000   0.0000000   2.1851992  )
         5           O0  tau(   5) = (   0.2500000   1.0000510   2.1890070  )
         6           O0  tau(   6) = (   0.2500000   0.2820657   2.1893531  )
         7           O0  tau(   7) = (   0.0000000   0.6410583   2.4671700  )
         8           O0  tau(   8) = (   0.0000000   0.0000000   2.5523250  )
         9           Mo1 tau(   9) = (   0.2500000   0.0000000   2.8391419  )
        10           Mo1 tau(  10) = (   0.0000000   0.6410583   2.8013612  )
        11           O0  tau(  11) = (   0.2500000   0.9231240   2.8197571  )
        12           O0  tau(  12) = (   0.2500000   0.3589927   2.8195593  )
        13           O0  tau(  13) = (   0.0000000   0.0000000   3.0891672  )
        14           O0  tau(  14) = (   0.5000000   0.0000000   1.8327111  )
        15           O0  tau(  15) = (   0.5000000   0.6410583   1.8997669  )
        16           Mo1 tau(  16) = (   0.7500000   0.6410583   2.1871773  )
        17           Mo1 tau(  17) = (   0.5000000   0.0000000   2.1922708  )
        18           O0  tau(  18) = (   0.7500000   1.0000510   2.1898476  )
        19           O0  tau(  19) = (   0.7500000   0.2820657   2.1889575  )
        20           O0  tau(  20) = (   0.5000000   0.6410583   2.4516918  )
        21           O0  tau(  21) = (   0.5000000   0.0000000   2.5499019  )
        22           Mo1 tau(  22) = (   0.7500000   0.0000000   2.8391419  )
        23           Mo1 tau(  23) = (   0.5000000   0.6410583   2.8716808  )
        24           O0  tau(  24) = (   0.7500000   0.9231240   2.8197571  )
        25           O0  tau(  25) = (   0.7500000   0.3589927   2.8196582  )
        26           O0  tau(  26) = (   0.5000000   0.0000000   3.0881782  )
        27           H2  tau(  27) = (  -0.0006600   0.7686802   1.7727267  )
        28           H2  tau(  28) = (   0.4996400   0.7964252   1.8076887  )
        29           H2  tau(  29) = (   0.1674000   0.0210652   1.7585342  )
        30           H2  tau(  30) = (   0.6637700   0.0258988   1.7570507  )
        31           O0  tau(  31) = (   0.5000200   0.6407506   3.1806520  )

     number of k points=    10  Methfessel-Paxton smearing, width (Ry)=  0.0100
                       cart. coord. in units 2pi/alat
        k(    1) = (   0.0000000   0.0000000   0.0000000), wk =   0.1250000
        k(    2) = (   0.0000000   0.1949901   0.0000000), wk =   0.2500000
        k(    3) = (   0.0000000  -0.3899801   0.0000000), wk =   0.1250000
        k(    4) = (   0.2500000   0.0000000   0.0000000), wk =   0.2500000
        k(    5) = (   0.2500000   0.1949901   0.0000000), wk =   0.2500000
        k(    6) = (   0.2500000  -0.3899801   0.0000000), wk =   0.2500000
        k(    7) = (  -0.5000000   0.0000000   0.0000000), wk =   0.1250000
        k(    8) = (  -0.5000000   0.1949901   0.0000000), wk =   0.2500000
        k(    9) = (  -0.5000000  -0.3899801   0.0000000), wk =   0.1250000
        k(   10) = (  -0.2500000   0.1949901   0.0000000), wk =   0.2500000

     Largest allocated arrays     est. size (Mb)     dimensions
     Largest temporary arrays     est. size (Mb)     dimensions

     Check: negative/imaginary core charge=   -0.000003    0.000000

     Initial potential from superposition of free atoms
     Check: negative starting charge=   -0.002499

     starting charge  229.99143, renormalised to  230.00000

     negative rho (up, down):  0.250E-02 0.000E+00
     Number of +U iterations with fixed ns =  0
     Starting occupations:
 --- enter write_ns ---
 LDA+U parameters:
U( 2)     =  3.50000000
alpha( 2) =  0.00000000
atom    3   Tr[ns(na)] =   5.00000
    eigenvalues:
  0.500  0.500  0.500  0.500  0.500
    eigenvectors:
  1.000  0.000  0.000  0.000  0.000
  0.000  1.000  0.000  0.000  0.000
  0.000  0.000  1.000  0.000  0.000
  0.000  0.000  0.000  1.000  0.000
  0.000  0.000  0.000  0.000  1.000
    occupations:
  0.500  0.000  0.000  0.000  0.000
  0.000  0.500  0.000  0.000  0.000
  0.000  0.000  0.500  0.000  0.000
  0.000  0.000  0.000  0.500  0.000
  0.000  0.000  0.000  0.000  0.500
atom    4   Tr[ns(na)] =   5.00000
    eigenvalues:
  0.500  0.500  0.500  0.500  0.500
    eigenvectors:
  1.000  0.000  0.000  0.000  0.000
  0.000  1.000  0.000  0.000  0.000
  0.000  0.000  1.000  0.000  0.000
  0.000  0.000  0.000  1.000  0.000
  0.000  0.000  0.000  0.000  1.000
    occupations:
  0.500  0.000  0.000  0.000  0.000
  0.000  0.500  0.000  0.000  0.000
  0.000  0.000  0.500  0.000  0.000
  0.000  0.000  0.000  0.500  0.000
  0.000  0.000  0.000  0.000  0.500
atom    9   Tr[ns(na)] =   5.00000
    eigenvalues:
  0.500  0.500  0.500  0.500  0.500
    eigenvectors:
  1.000  0.000  0.000  0.000  0.000
  0.000  1.000  0.000  0.000  0.000
  0.000  0.000  1.000  0.000  0.000
  0.000  0.000  0.000  1.000  0.000
  0.000  0.000  0.000  0.000  1.000
    occupations:
  0.500  0.000  0.000  0.000  0.000
  0.000  0.500  0.000  0.000  0.000
  0.000  0.000  0.500  0.000  0.000
  0.000  0.000  0.000  0.500  0.000
  0.000  0.000  0.000  0.000  0.500
atom   10   Tr[ns(na)] =   5.00000
    eigenvalues:
  0.500  0.500  0.500  0.500  0.500
    eigenvectors:
  1.000  0.000  0.000  0.000  0.000
  0.000  1.000  0.000  0.000  0.000
  0.000  0.000  1.000  0.000  0.000
  0.000  0.000  0.000  1.000  0.000
  0.000  0.000  0.000  0.000  1.000
    occupations:
  0.500  0.000  0.000  0.000  0.000
  0.000  0.500  0.000  0.000  0.000
  0.000  0.000  0.500  0.000  0.000
  0.000  0.000  0.000  0.500  0.000
  0.000  0.000  0.000  0.000  0.500
atom   16   Tr[ns(na)] =   5.00000
    eigenvalues:
  0.500  0.500  0.500  0.500  0.500
    eigenvectors:
  1.000  0.000  0.000  0.000  0.000
  0.000  1.000  0.000  0.000  0.000
  0.000  0.000  1.000  0.000  0.000
  0.000  0.000  0.000  1.000  0.000
  0.000  0.000  0.000  0.000  1.000
    occupations:
  0.500  0.000  0.000  0.000  0.000
  0.000  0.500  0.000  0.000  0.000
  0.000  0.000  0.500  0.000  0.000
  0.000  0.000  0.000  0.500  0.000
  0.000  0.000  0.000  0.000  0.500
atom   17   Tr[ns(na)] =   5.00000
    eigenvalues:
  0.500  0.500  0.500  0.500  0.500
    eigenvectors:
  1.000  0.000  0.000  0.000  0.000
  0.000  1.000  0.000  0.000  0.000
  0.000  0.000  1.000  0.000  0.000
  0.000  0.000  0.000  1.000  0.000
  0.000  0.000  0.000  0.000  1.000
    occupations:
  0.500  0.000  0.000  0.000  0.000
  0.000  0.500  0.000  0.000  0.000
  0.000  0.000  0.500  0.000  0.000
  0.000  0.000  0.000  0.500  0.000
  0.000  0.000  0.000  0.000  0.500
atom   22   Tr[ns(na)] =   5.00000
    eigenvalues:
  0.500  0.500  0.500  0.500  0.500
    eigenvectors:
  1.000  0.000  0.000  0.000  0.000
  0.000  1.000  0.000  0.000  0.000
  0.000  0.000  1.000  0.000  0.000
  0.000  0.000  0.000  1.000  0.000
  0.000  0.000  0.000  0.000  1.000
    occupations:
  0.500  0.000  0.000  0.000  0.000
  0.000  0.500  0.000  0.000  0.000
[...]
  0.484  0.521  0.596  0.601  0.714
    eigenvectors:
  0.000  0.000  0.194  0.015  0.790
  0.000  0.000  0.068  0.932  0.000
  0.057  0.943  0.000  0.000  0.000
  0.000  0.000  0.738  0.053  0.209
  0.943  0.057  0.000  0.000  0.000
    occupations:
  0.690 -0.000 -0.001 -0.048 -0.003
 -0.000  0.601 -0.000 -0.001 -0.000
 -0.001 -0.000  0.519  0.000  0.009
 -0.048 -0.001  0.000  0.621  0.002
 -0.003 -0.000  0.009  0.002  0.486
atom   10   Tr[ns(na)] =   5.79721
    eigenvalues:
  0.487  0.497  0.516  0.670  0.729
    eigenvectors:
  0.072  0.927  0.000  0.000  0.001
  0.000  0.000  0.000  1.000  0.000
  0.928  0.072  0.000  0.000  0.000
  0.000  0.001  0.000  0.000  0.999
  0.000  0.000  1.000  0.000  0.000
    occupations:
  0.496  0.000 -0.002  0.007  0.000
  0.000  0.670  0.000  0.000  0.000
 -0.002  0.000  0.488  0.000 -0.000
  0.007  0.000  0.000  0.729  0.000
  0.000  0.000 -0.000  0.000  0.516
atom   16   Tr[ns(na)] =   5.83506
    eigenvalues:
  0.456  0.525  0.575  0.619  0.743
    eigenvectors:
  0.010  0.030  0.300  0.000  0.659
  0.000  0.936  0.060  0.002  0.002
  0.825  0.000  0.000  0.163  0.012
  0.001  0.033  0.634  0.006  0.327
  0.164  0.001  0.006  0.829  0.000
    occupations:
  0.683  0.014  0.026 -0.079  0.005
  0.014  0.528  0.004  0.005 -0.003
  0.026  0.004  0.486 -0.012 -0.060
 -0.079  0.005 -0.012  0.628 -0.003
  0.005 -0.003 -0.060 -0.003  0.592
atom   17   Tr[ns(na)] =   5.82765
    eigenvalues:
  0.421  0.522  0.586  0.617  0.769
    eigenvectors:
  0.000  0.000  0.971  0.027  0.002
  0.001  0.000  0.027  0.972  0.000
  0.999  0.000  0.000  0.001  0.000
  0.000  0.000  0.002  0.000  0.998
  0.000  1.000  0.000  0.000  0.000
    occupations:
  0.587  0.005  0.001 -0.008  0.000
  0.005  0.616  0.004 -0.002 -0.001
  0.001  0.004  0.421  0.001  0.000
 -0.008 -0.002  0.001  0.768 -0.000
  0.000 -0.001  0.000 -0.000  0.522
atom   22   Tr[ns(na)] =   5.83231
    eigenvalues:
  0.483  0.520  0.595  0.601  0.717
    eigenvectors:
  0.000  0.000  0.189  0.023  0.788
  0.000  0.000  0.103  0.897  0.000
  0.054  0.946  0.000  0.000  0.000
  0.000  0.000  0.708  0.080  0.212
  0.946  0.054  0.000  0.000  0.000
    occupations:
  0.691  0.000  0.000 -0.049 -0.002
  0.000  0.600 -0.001  0.002  0.000
  0.000 -0.001  0.518 -0.000 -0.008
 -0.049  0.002 -0.000  0.622  0.001
 -0.002  0.000 -0.008  0.001  0.485
atom   23   Tr[ns(na)] =   5.91164
    eigenvalues:
  0.513  0.518  0.536  0.628  0.761
    eigenvectors:
  0.000  0.000  0.000  0.986  0.014
  0.000  0.000  1.000  0.000  0.000
  0.000  1.000  0.000  0.000  0.000
  0.000  0.000  0.000  0.014  0.986
  1.000  0.000  0.000  0.000  0.000
    occupations:
  0.630  0.000 -0.000 -0.016  0.000
  0.000  0.536 -0.000 -0.000  0.000
 -0.000 -0.000  0.518 -0.000  0.000
 -0.016 -0.000 -0.000  0.759  0.000
  0.000  0.000  0.000  0.000  0.513
N of occupied +U levels =  46.6855320
 --- exit write_ns ---

     Threshold (ethr) on eigenvalues was too large:
     Diagonalizing with lowered threshold

     Davidson diagonalization with overlap
     ethr =  6.43E-09,  avg # of iterations =  2.4

[...]

     total energy              =   -1730.09090946 Ry
     Harris-Foulkes estimate   =   -1730.09090948 Ry
     estimated scf accuracy    <       0.00000006 Ry

     iteration # 10     ecut=    40.00 Ry     beta=0.70
     Davidson diagonalization with overlap
     ethr =  2.68E-11,  avg # of iterations =  1.0

     negative rho (up, down):  0.353E-02 0.000E+00

     End of self-consistent calculation
 --- enter write_ns ---
 LDA+U parameters:
U( 2)     =  3.50000000
alpha( 2) =  0.00000000
atom    3   Tr[ns(na)] =   5.83560
    eigenvalues:
  0.458  0.525  0.575  0.619  0.742
    eigenvectors:
  0.010  0.030  0.301  0.000  0.659
  0.000  0.935  0.060  0.002  0.002
  0.820  0.000  0.000  0.168  0.012
  0.001  0.033  0.632  0.006  0.328
  0.169  0.001  0.006  0.824  0.000
    occupations:
  0.682 -0.013  0.025 -0.079 -0.005
 -0.013  0.528 -0.004 -0.005 -0.003
  0.025 -0.004  0.488 -0.012  0.060
 -0.079 -0.005 -0.012  0.628  0.004
 -0.005 -0.003  0.060  0.004  0.591
atom    4   Tr[ns(na)] =   5.81538
    eigenvalues:
  0.427  0.522  0.581  0.628  0.750
    eigenvectors:
  0.000  0.000  0.990  0.010  0.000
  0.000  0.000  0.010  0.989  0.000
  1.000  0.000  0.000  0.000  0.000
  0.000  0.000  0.000  0.000  1.000
  0.000  1.000  0.000  0.000  0.000
    occupations:
  0.582  0.005  0.001 -0.001  0.000
  0.005  0.627  0.004 -0.002 -0.001
  0.001  0.004  0.427 -0.000  0.001
 -0.001 -0.002 -0.000  0.750 -0.000
  0.000 -0.001  0.001 -0.000  0.522
atom    9   Tr[ns(na)] =   5.83234
    eigenvalues:
  0.484  0.521  0.596  0.601  0.714
    eigenvectors:
  0.000  0.000  0.194  0.015  0.791
  0.000  0.000  0.068  0.932  0.000
  0.057  0.943  0.000  0.000  0.000
  0.000  0.000  0.738  0.053  0.209
  0.943  0.057  0.000  0.000  0.000
    occupations:
  0.690 -0.000 -0.001 -0.048 -0.003
 -0.000  0.601 -0.000 -0.001 -0.000
 -0.001 -0.000  0.519  0.000  0.009
 -0.048 -0.001  0.000  0.621  0.002
 -0.003 -0.000  0.009  0.002  0.486
atom   10   Tr[ns(na)] =   5.79516
    eigenvalues:
  0.487  0.497  0.516  0.669  0.729
    eigenvectors:
  0.068  0.931  0.000  0.000  0.001
  0.000  0.000  0.000  1.000  0.000
  0.932  0.068  0.000  0.000  0.000
  0.000  0.001  0.000  0.000  0.999
  0.000  0.000  1.000  0.000  0.000
    occupations:
  0.496  0.000 -0.002  0.007  0.000
  0.000  0.669  0.000  0.000  0.000
 -0.002  0.000  0.487  0.000 -0.000
  0.007  0.000  0.000  0.729  0.000
  0.000  0.000 -0.000  0.000  0.516
atom   16   Tr[ns(na)] =   5.83542
    eigenvalues:
  0.456  0.525  0.575  0.619  0.743
    eigenvectors:
  0.010  0.030  0.300  0.000  0.659
  0.000  0.935  0.060  0.002  0.002
  0.825  0.000  0.000  0.163  0.012
  0.001  0.033  0.634  0.006  0.327
  0.164  0.001  0.006  0.829  0.000
    occupations:
  0.683  0.014  0.026 -0.079  0.005
  0.014  0.528  0.004  0.005 -0.003
  0.026  0.004  0.486 -0.012 -0.060
 -0.079  0.005 -0.012  0.628 -0.003
  0.005 -0.003 -0.060 -0.003  0.592
atom   17   Tr[ns(na)] =   5.82822
    eigenvalues:
  0.421  0.522  0.586  0.617  0.769
    eigenvectors:
  0.000  0.000  0.971  0.026  0.002
  0.001  0.000  0.027  0.972  0.000
  0.999  0.000  0.000  0.001  0.000
  0.000  0.000  0.002  0.000  0.998
  0.000  1.000  0.000  0.000  0.000
    occupations:
  0.587  0.005  0.001 -0.008  0.000
  0.005  0.616  0.004 -0.002 -0.001
  0.001  0.004  0.421  0.001  0.000
 -0.008 -0.002  0.001  0.768 -0.000
  0.000 -0.001  0.000 -0.000  0.522
atom   22   Tr[ns(na)] =   5.83214
    eigenvalues:
  0.483  0.520  0.595  0.601  0.717
    eigenvectors:
  0.000  0.000  0.189  0.023  0.788
  0.000  0.000  0.104  0.895  0.000
  0.054  0.946  0.000  0.000  0.000
  0.000  0.000  0.707  0.081  0.212
  0.946  0.054  0.000  0.000  0.000
    occupations:
  0.691  0.000  0.000 -0.049 -0.002
  0.000  0.600 -0.001  0.002  0.000
  0.000 -0.001  0.518 -0.000 -0.008
 -0.049  0.002 -0.000  0.622  0.001
 -0.002  0.000 -0.008  0.001  0.485
atom   23   Tr[ns(na)] =   5.91043
    eigenvalues:
  0.513  0.518  0.535  0.628  0.760
    eigenvectors:
  0.000  0.000  0.000  0.986  0.014
  0.000  0.000  1.000  0.000  0.000
  0.000  1.000  0.000  0.000  0.000
  0.000  0.000  0.000  0.014  0.986
  1.000  0.000  0.000  0.000  0.000
    occupations:
  0.630  0.000 -0.000 -0.016  0.000
  0.000  0.535 -0.000 -0.000  0.000
 -0.000 -0.000  0.518 -0.000  0.000
 -0.016 -0.000 -0.000  0.759  0.000
  0.000  0.000  0.000  0.000  0.513
N of occupied +U levels =  46.6846961
 --- exit write_ns ---

[...]

          k = 0.2500-0.3900 0.0000 ( 29726 PWs)   bands (ev):

[...]

          k =-0.2500 0.1950 0.0000 ( 29746 PWs)   bands (ev):

   -62.7836 -62.7215 -62.6951 -62.4046 -62.3413 -62.3177 -62.3143 -62.2583
   -37.4077 -37.3694 -37.1814 -37.1049 -36.9354 -36.8088 -36.7397 -36.7290
   -36.6963 -36.6949 -36.6569 -36.6532 -36.6490 -36.5922 -36.5779 -36.5386
   -36.4856 -36.4214 -36.4053 -36.3894 -36.3176 -36.1222 -35.9540 -35.9438
   -20.7523 -20.5064 -20.1190 -20.0029 -19.8712 -19.7392 -19.6781 -19.6147
   -19.5309 -19.3394 -19.1923 -19.1617 -19.0385 -18.9941 -18.8951 -18.8167
   -18.4978 -18.3407 -18.2766  -8.8876  -8.6742  -8.5373  -8.2013  -8.0135
    -7.9589  -7.8061  -7.7312  -7.6093  -7.5138  -7.4146  -7.1929  -7.0760
    -7.0271  -6.7717  -6.7092  -6.6465  -6.5322  -6.3635  -6.2828  -6.1110
    -6.0383  -5.9701  -5.8958  -5.6447  -5.5795  -5.4500  -5.3493  -5.2179
    -5.1468  -5.0581  -4.9520  -4.8152  -4.7720  -4.6991  -4.6283  -4.5966
    -4.5257  -4.4407  -4.3246  -4.2684  -4.1786  -3.9839  -3.9549  -3.8937
    -3.8446  -3.7697  -3.6838  -3.5989  -3.5631  -3.4736  -3.3947  -3.2738
    -3.1459  -3.0678  -3.0150  -2.7146  -2.0281  -1.9271  -1.7853  -0.8280
    -0.7860  -0.7236  -0.5531   0.0329   0.2122   0.4774   0.5294   0.5919
     0.8286   0.9080   0.9864   1.2278   1.3268   1.3954   1.4542   1.5338
     1.5678   1.6710   1.7397   2.1262   2.2941   3.2245   3.2912   3.5229
     3.5950   3.7258   3.9371   4.1182   4.1778   4.2449   4.5354   4.5916
     4.6821   4.9579   5.2646   5.3174   5.5562   5.6560   5.7572   5.8221
     5.9577   6.0554   6.3252   6.4966   6.7795   6.9458   7.1490   7.2154
     7.2507   7.5956   7.6057   7.8203   8.0339   8.0907   8.2790   8.3512
     8.5275   8.6000   8.6784   8.8177   9.0077   9.1297   9.1927   9.3573
     9.4818   9.5251   9.6276   9.6476   9.6782   9.7451   9.9453  10.0970
    10.1455  10.2490  10.3122  10.3900  10.5418  10.5742  10.6992  10.7645
    10.8883  10.9850  11.0369  11.2266  11.3807  11.4822  11.6086  11.6731
    11.7642  11.8350  11.9373  11.9744  12.0349  12.2698  12.3346  12.4118
    12.4541  12.5022  12.5505  12.6270  12.7042  12.8440  12.9117  12.9337
    13.0496  13.1864  13.2517  13.2761  13.3432  13.4193  13.4753  13.5447
    13.5812  13.6751  13.7107  13.7808  13.8856  13.9441  14.0515  14.1192
    14.1761  14.2128  14.3237  14.4120  14.4512  14.5548  14.6119  14.6596
    14.7056  14.7769  14.8704  14.9164  14.9557  15.0233  15.2032  15.2293
    15.3473  15.4073  15.4800  15.5626  15.6276  15.7183  15.7938  15.8839
    15.9532  16.0052  16.0770  16.1534  16.1972  16.2476  16.3174  16.3808
    16.4304  16.4650  16.5735  16.6482  16.7693  16.8536  16.8886  16.9631
    17.0712  17.1357  17.2582  17.2795  17.3001  17.3965  17.4668  17.5688
    17.5964  17.6874  17.7258  17.7893  17.9185  17.9803  18.0552  18.1302
    18.1509  18.2345  18.2839  18.3676  18.4113  18.4982  18.5895  18.6544
    18.7811  18.8548  18.9454  18.9747  19.0817  19.1140  19.1615  19.2491
    19.4261  19.4736  19.5771  19.6975  19.7219  19.8229  19.8656  19.9229
    19.9683  20.0553  20.1385  20.2018  20.2783  20.2984  20.3628  20.4391
    20.4567  20.5149  20.5893  20.6512  20.6700  20.7041  20.7846  20.8959
    20.9307  21.0076  21.0559  21.1328  21.1971  21.2645  21.3209  21.3818
    21.4832  21.5406  21.5919  21.6848  21.7503  21.7822  21.8198  21.8504
    21.8786

     the Fermi energy is    -0.3559 ev

!    total energy              =   -1730.09090947 Ry
     Harris-Foulkes estimate   =   -1730.09090947 Ry
     estimated scf accuracy    <          9.0E-09 Ry

     The total energy is the sum of the following terms:

     one-electron contribution =  -22118.54856311 Ry
     hartree contribution      =   11081.41073455 Ry
     xc contribution           =    -293.75605990 Ry
     ewald contribution        =    9598.39816342 Ry
     Hubbard energy            =       2.40444684 Ry
     smearing contrib. (-TS)   =       0.00036874 Ry

     convergence has been achieved in  10 iterations

     Forces acting on atoms (Ry/au):

     negative rho (up, down):  0.353E-02 0.000E+00
     atom    1 type  1   force =     0.00063384   -0.00337286   -0.00037076
     atom    2 type  1   force =    -0.00015067    0.00597039    0.00036428
     atom    3 type  2   force =    -0.02292949   -0.00784413    0.00003168
     atom    4 type  2   force =     0.00092563    0.00554260   -0.00029749
     atom    5 type  1   force =    -0.00481015   -0.00545792    0.00024004
     atom    6 type  1   force =    -0.00723867    0.00337091    0.00017711
     atom    7 type  1   force =     0.00024398    0.00029659    0.00040187
     atom    8 type  1   force =     0.00333878    0.00033167    0.00003535
     atom    9 type  2   force =    -0.01102263    0.00016952    0.00021430
     atom   10 type  2   force =    -0.00013899   -0.00037559   -0.00032918
     atom   11 type  1   force =    -0.01318717   -0.02351106   -0.00025074
     atom   12 type  1   force =    -0.01423068    0.02360340   -0.00026908
     atom   13 type  1   force =     0.00010780    0.00000223    0.00047893
     atom   14 type  1   force =    -0.00395428   -0.00555440   -0.00011854
     atom   15 type  1   force =     0.00006454    0.01069584    0.00051285
     atom   16 type  2   force =     0.02249087   -0.00821483    0.00002055
     atom   17 type  2   force =    -0.00264023    0.00376994   -0.00083596
     atom   18 type  1   force =     0.00799825   -0.00469657    0.00022006
     atom   19 type  1   force =     0.00682364    0.00322224    0.00018296
     atom   20 type  1   force =    -0.00003111    0.00282564   -0.00005444
     atom   21 type  1   force =     0.00363858    0.00028928    0.00008275
     atom   22 type  2   force =     0.00693065   -0.00031084   -0.00035490
     atom   23 type  2   force =     0.00021630    0.00070721   -0.00031616
     atom   24 type  1   force =     0.01361727   -0.02341309   -0.00031505
     atom   25 type  1   force =     0.01385646    0.02346839   -0.00032329
     atom   26 type  1   force =    -0.00045055    0.00034337    0.00041430
     atom   27 type  3   force =     0.00001969   -0.00095221   -0.00018468
     atom   28 type  3   force =    -0.00000725   -0.00069163   -0.00004154
     atom   29 type  3   force =    -0.00017688    0.00004490   -0.00014387
     atom   30 type  3   force =     0.00006571   -0.00022724    0.00027508
     atom   31 type  1   force =    -0.00000325   -0.00003176    0.00055357

     Total force =     0.002171     Total SCF correction =     0.000345
     SCF correction compared to forces is large: reduce conv_thr to get better values

     bfgs converged in   8 scf cycles and   7 bfgs steps
     (criteria: energy < 0.10E-03, force < 0.10E-02)

     End of BFGS Geometry Optimization

     Final energy   =   -1730.0909094651 Ry
Begin final coordinates

ATOMIC_POSITIONS (crystal)
O0       0.000000000   0.000000000   0.370120328    0   0   1
O0       0.000000000   0.500000000   0.384300529    0   0   1
Mo1      0.250000000   0.500000000   0.442191955    0   0   1
Mo1      0.000000000   0.000000000   0.441689958    0   0   1
O0       0.250000000   0.780000000   0.442637290    0   0   1
O0       0.250000000   0.220000000   0.442764382    0   0   1
O0       0.000000000   0.500000000   0.499489575    0   0   1
O0       0.000000000   0.000000000   0.515978768    0   0   1
Mo1      0.250000000   0.000000000   0.573946216    0   0   1
Mo1      0.000000000   0.500000000   0.566683094    0   0   1
O0       0.250000000   0.720000000   0.570675821    0   0   1
O0       0.250000000   0.280000000   0.570645139    0   0   1
O0       0.000000000   0.000000000   0.624330191    0   0   1
O0       0.500000000   0.000000000   0.370895841    0   0   1
O0       0.500000000   0.500000000   0.383906283    0   0   1
Mo1      0.750000000   0.500000000   0.442188588    0   0   1
Mo1      0.500000000   0.000000000   0.443092536    0   0   1
O0       0.750000000   0.780000000   0.442862282    0   0   1
O0       0.750000000   0.220000000   0.442628488    0   0   1
O0       0.500000000   0.500000000   0.496541617    0   0   1
O0       0.500000000   0.000000000   0.515658467    0   0   1
Mo1      0.750000000   0.000000000   0.573825500    0   0   1
Mo1      0.500000000   0.500000000   0.579970179    0   0   1
O0       0.750000000   0.720000000   0.570648961    0   0   1
O0       0.750000000   0.280000000   0.570675394    0   0   1
O0       0.500000000   0.000000000   0.624104114    0   0   1
H2      -0.000637021   0.598359616   0.358416403
H2       0.499641043   0.621149585   0.365302974
H2       0.167122264   0.016536513   0.355588741
H2       0.663908550   0.019849707   0.355499800
O0       0.500000127   0.499643903   0.642320588
End final coordinates

     General routines

     Parallel routines
     Hubbard U routines

   This run was terminated on:   3:26:26  29Apr2014

   JOB DONE.
Running PBS batch system epilogue script
Job id: 340372.audhumbla.fysik.dtu.dk
Username: zhonxu
Groupname: campgst
Jobname: MoO2/Eads-2-layers/O-U-3.5
Sessionid: 18334
Queuename: verylong
Accounting:
This job has allocated the following 16 nodes:
b024 b024 b024 b024 b024 b024 b024 b024 b011 b011 b011 b011 b011 b011 b011 b011
Finished epilogue job 340372.audhumbla.fysik.dtu.dk for zhonxu