     Program PWSCF v.5.0.2 (svn rev. 9656) starts on 25May2014 at  6:57:32

     Current dimensions of program PWSCF are:
     Max number of different atomic species (ntypx) = 10
     Max number of k-points (npk) =  40000
     Max angular momentum in pseudopotentials (lmaxx) =  3
     Reading input from pwscf.in
Warning: card &CELL ignored
Warning: card / ignored

     Subspace diagonalization in iterative solution of the eigenvalue problem:
     a serial algorithm will be used

     bravais-lattice index     =            0
     lattice parameter (alat)  =      10.9604  a.u.
     unit-cell volume          =    6350.6732 (a.u.)^3
     number of atoms/cell      =           32
     number of atomic types    =            3
     number of electrons       =       231.00 (up: 123.00, down: 108.00)
     number of Kohn-Sham states=          334
     kinetic-energy cutoff     =      40.0000  Ry
     charge density cutoff     =     500.0000  Ry
     convergence threshold     =      1.0E-06
     mixing beta               =       0.7000
     number of iterations used =            8  plain     mixing
     Exchange-correlation      = SLA  PW   PBE  PBE ( 1 4 3 4 0)
     EXX-fraction              =        0.00
     nstep                     =           50

     celldm(1)=  10.960412  celldm(2)=   0.000000  celldm(3)=   0.000000
     celldm(4)=   0.000000  celldm(5)=   0.000000  celldm(6)=   0.000000

     crystal axes: (cart. coord. in units of alat)
               a(1) = (   1.000000   0.000000   0.000000 )
               a(2) = (   0.000000   1.067975   0.000000 )
               a(3) = (   0.000000   0.000000   4.516251 )

     reciprocal axes: (cart. coord. in units 2 pi/alat)
               b(1) = (  1.000000  0.000000  0.000000 )
               b(2) = (  0.000000  0.936351  0.000000 )
               b(3) = (  0.000000  0.000000  0.221423 )

     PseudoPot. # 1 for O  read from file:
     /home/camp/zhonxu/pseudo/o_pbe_v1.01.uspp.F.UPF
     MD5 check sum: 2bcb18d16ea4b960afae9ec6d52f22d2
     Pseudo is Ultrasoft + core correction, Zval =  6.0
     Generated by new atomic code, or converted to UPF format
     Using radial grid of  737 points,  5 beta functions with:
                l(1) =   0
                l(2) =   0
                l(3) =   1
                l(4) =   1
                l(5) =   2
     Q(r) pseudized with  8 coefficients,  rinner =    0.900   0.900   0.900
                                                       0.900   0.900

     PseudoPot. # 2 for Cr read from file:
     /home/camp/zhonxu/pseudo/cr_pbe_v1.uspp.F.UPF
     MD5 check sum: 68b6f918d1762dccfb11451fe85b0e0e
     Pseudo is Ultrasoft + core correction, Zval = 14.0
     Generated by new atomic code, or converted to UPF format
     Using radial grid of  857 points,  6 beta functions with:
                l(1) =   0
                l(2) =   0
                l(3) =   1
                l(4) =   1
                l(5) =   2
                l(6) =   2
     Q(r) pseudized with  6 coefficients,  rinner =    1.000   1.000   1.000
                                                       1.000   1.000

     PseudoPot. # 3 for H  read from file:
     /home/camp/zhonxu/pseudo/h_pbe_v1.uspp.F.UPF
     MD5 check sum: 3408e3ff4ec8b0a4e358431e7e038a48
     Pseudo is Ultrasoft, Zval =  1.0
     Generated by new atomic code, or converted to UPF format
     Using radial grid of  615 points,  2 beta functions with:
                l(1) =   0
                l(2) =   0
     Q(r) pseudized with  8 coefficients,  rinner =    0.700

     atomic species   valence    mass     pseudopotential
        O0             6.00    15.99940     O ( 1.00)
        Cr1           14.00    51.99600     Cr( 1.00)
        H2             1.00     1.00794     H ( 1.00)

     Starting magnetic structure
     atomic species   magnetization
        O0           0.000
        Cr1          0.600
        H2           0.000

     Simplified LDA+U calculation (l_max = 2) with parameters (eV):
     atomic species    L          U    alpha       J0     beta
        Cr1            2     8.0000   0.0000   0.0000   0.0000

     No symmetry found

   Cartesian axes

     site n.     atom                  positions (alat units)
         1           O0  tau(   1) = (   0.0000000   0.0000000   1.6811744  )
         2           O0  tau(   2) = (   0.0000000   0.5339875   1.7744350  )
         3           Cr1 tau(   3) = (   0.2500000   0.5339875   2.0151060  )
         4           Cr1 tau(   4) = (   0.0000000   0.0000000   2.0276612  )
         5           O0  tau(   5) = (   0.2500000   0.8543801   2.0211578  )
         6           O0  tau(   6) = (   0.2500000   0.2135950   2.0213384  )
         7           O0  tau(   7) = (   0.0000000   0.5339875   2.2406476  )
         8           O0  tau(   8) = (   0.0000000   0.0000000   2.3753673  )
         9           Cr1 tau(   9) = (   0.2500000   0.0000000   2.6116124  )
        10           Cr1 tau(  10) = (   0.0000000   0.5339875   2.5625208  )
        11           O0  tau(  11) = (   0.2500000   0.7475825   2.6124254  )
        12           O0  tau(  12) = (   0.2500000   0.3203925   2.6125157  )
        13           O0  tau(  13) = (   0.0000000   0.0000000   2.8356636  )
        14           O0  tau(  14) = (   0.5000000   0.0000000   1.6792776  )
        15           O0  tau(  15) = (   0.5000000   0.5339875   1.7756544  )
        16           Cr1 tau(  16) = (   0.7500000   0.5339875   2.0150608  )
        17           Cr1 tau(  17) = (   0.5000000   0.0000000   2.0246805  )
        18           O0  tau(  18) = (   0.7500000   0.8543801   2.0211578  )
        19           O0  tau(  19) = (   0.7500000   0.2135950   2.0212481  )
        20           O0  tau(  20) = (   0.5000000   0.5339875   2.2567706  )
        21           O0  tau(  21) = (   0.5000000   0.0000000   2.3748706  )
        22           Cr1 tau(  22) = (   0.7500000   0.0000000   2.6121544  )
        23           Cr1 tau(  23) = (   0.5000000   0.5339875   2.6255225  )
        24           O0  tau(  24) = (   0.7500000   0.7475825   2.6066897  )
        25           O0  tau(  25) = (   0.7500000   0.3203925   2.6064187  )
        26           O0  tau(  26) = (   0.5000000   0.0000000   2.8358894  )
        27           H2  tau(  27) = (  -0.0006300   0.6796273   1.6859616  )
        28           H2  tau(  28) = (   0.4993300   0.6797875   1.6874972  )
        29           H2  tau(  29) = (   0.1582300   0.0305441   1.6231406  )
        30           H2  tau(  30) = (   0.6587400   0.0301169   1.6224180  )
        31           O0  tau(  31) = (   0.5201700   0.5329836   2.9594089  )
        32           H2  tau(  32) = (   0.3678400   0.5311254   3.0339722  )

     number of k points=    20  Methfessel-Paxton smearing, width (Ry)=  0.0100
                       cart. coord. in units 2pi/alat
        k(    1) = (   0.0000000   0.0000000   0.0000000), wk =   0.0625000
        k(    2) = (   0.0000000   0.2340879   0.0000000), wk =   0.1250000
        k(    3) = (   0.0000000  -0.4681757   0.0000000), wk =   0.0625000
        k(    4) = (   0.2500000   0.0000000   0.0000000), wk =   0.1250000
        k(    5) = (   0.2500000   0.2340879   0.0000000), wk =   0.1250000
        k(    6) = (   0.2500000  -0.4681757   0.0000000), wk =   0.1250000
        k(    7) = (  -0.5000000   0.0000000   0.0000000), wk =   0.0625000
        k(    8) = (  -0.5000000   0.2340879   0.0000000), wk =   0.1250000
        k(    9) = (  -0.5000000  -0.4681757   0.0000000), wk =   0.0625000
        k(   10) = (  -0.2500000   0.2340879   0.0000000), wk =   0.1250000
        k(   11) = (   0.0000000   0.0000000   0.0000000), wk =   0.0625000
        k(   12) = (   0.0000000   0.2340879   0.0000000), wk =   0.1250000
        k(   13) = (   0.0000000  -0.4681757   0.0000000), wk =   0.0625000
        k(   14) = (   0.2500000   0.0000000   0.0000000), wk =   0.1250000
        k(   15) = (   0.2500000   0.2340879   0.0000000), wk =   0.1250000
        k(   16) = (   0.2500000  -0.4681757   0.0000000), wk =   0.1250000
        k(   17) = (  -0.5000000   0.0000000   0.0000000), wk =   0.0625000
        k(   18) = (  -0.5000000   0.2340879   0.0000000), wk =   0.1250000
        k(   19) = (  -0.5000000  -0.4681757   0.0000000), wk =   0.0625000
        k(   20) = (  -0.2500000   0.2340879   0.0000000), wk =   0.1250000

     Largest allocated arrays     est. size (Mb)     dimensions
     Largest temporary arrays     est. size (Mb)     dimensions

     Check: negative/imaginary core charge=   -0.000012    0.000000

     Initial potential from superposition of free atoms
     Check: negative starting charge=(component1):   -0.001393
     Check: negative starting charge=(component2):   -0.000476

     starting charge  222.99983, renormalised to  231.00000

     negative rho (up, down):  0.144E-02 0.493E-03
     Number of +U iterations with fixed ns =  0
     Starting occupations:
 --- enter write_ns ---
 LDA+U parameters:
U( 2)     =  8.00000000
alpha( 2) =  0.00000000
atom    3   Tr[ns(na)] (up, down, total) =   5.00000  0.00000  5.00000
   spin  1
    eigenvalues:
  1.000  1.000  1.000  1.000  1.000
    eigenvectors:
  1.000  0.000  0.000  0.000  0.000
  0.000  1.000  0.000  0.000  0.000
  0.000  0.000  1.000  0.000  0.000
  0.000  0.000  0.000  1.000  0.000
  0.000  0.000  0.000  0.000  1.000
    occupations:
  1.000  0.000  0.000  0.000  0.000
  0.000  1.000  0.000  0.000  0.000
  0.000  0.000  1.000  0.000  0.000
  0.000  0.000  0.000  1.000  0.000
  0.000  0.000  0.000  0.000  1.000
   spin  2
    eigenvalues:
  0.000  0.000  0.000  0.000  0.000
    eigenvectors:
  1.000  0.000  0.000  0.000  0.000
  0.000  1.000  0.000  0.000  0.000
  0.000  0.000  1.000  0.000  0.000
  0.000  0.000  0.000  1.000  0.000
  0.000  0.000  0.000  0.000  1.000
    occupations:
  0.000  0.000  0.000  0.000  0.000
  0.000  0.000  0.000  0.000  0.000
  0.000  0.000  0.000  0.000  0.000
  0.000  0.000  0.000  0.000  0.000
  0.000  0.000  0.000  0.000  0.000
atomic mag. moment =     5.000000
atom    4   Tr[ns(na)] (up, down, total) =   5.00000  0.00000  5.00000
   spin  1
    eigenvalues:
  1.000  1.000  1.000  1.000  1.000
    eigenvectors:
  1.000  0.000  0.000  0.000  0.000
  0.000  1.000  0.000  0.000  0.000
  0.000  0.000  1.000  0.000  0.000
  0.000  0.000  0.000  1.000  0.000
  0.000  0.000  0.000  0.000  1.000
    occupations:
  1.000  0.000  0.000  0.000  0.000
  0.000  1.000  0.000  0.000  0.000
  0.000  0.000  1.000  0.000  0.000
  0.000  0.000  0.000  1.000  0.000
  0.000  0.000  0.000  0.000  1.000
   spin  2
    eigenvalues:
  0.000  0.000  0.000  0.000  0.000
    eigenvectors:
  1.000  0.000  0.000  0.000  0.000
  0.000  1.000  0.000  0.000  0.000
  0.000  0.000  1.000  0.000  0.000
  0.000  0.000  0.000  1.000  0.000
  0.000  0.000  0.000  0.000  1.000
    occupations:
  0.000  0.000  0.000  0.000  0.000
  0.000  0.000  0.000  0.000  0.000
  0.000  0.000  0.000  0.000  0.000
  0.000  0.000  0.000  0.000  0.000
  0.000  0.000  0.000  0.000  0.000
atomic mag. moment =     5.000000
atom    9   Tr[ns(na)] (up, down, total) =   5.00000  0.00000  5.00000
   spin  1
    eigenvalues:
  1.000  1.000  1.000  1.000  1.000
[...]
 -0.001 -0.000  0.066  0.005  0.002
  0.103  0.006  0.005  0.240  0.000
 -0.000  0.007  0.002  0.000  0.064
atomic mag. moment =     3.073604
atom    4   Tr[ns(na)] (up, down, total) =   3.80918  0.71625  4.52543
   spin  1
    eigenvalues:
  0.467  0.493  0.919  0.937  0.992
    eigenvectors:
  0.000  0.997  0.000  0.001  0.002
  0.000  0.001  0.013  0.986  0.000
  0.000  0.000  0.987  0.013  0.000
  0.000  0.002  0.000  0.000  0.998
  1.000  0.000  0.000  0.000  0.000
    occupations:
  0.495 -0.016 -0.001  0.020  0.000
 -0.016  0.936  0.002  0.002  0.000
 -0.001  0.002  0.919 -0.000  0.001
  0.020  0.002 -0.000  0.992  0.000
  0.000  0.000  0.001  0.000  0.467
   spin  2
    eigenvalues:
  0.057  0.061  0.063  0.250  0.286
    eigenvectors:
  0.000  0.010  0.000  0.989  0.000
  0.033  0.107  0.859  0.001  0.000
  0.963  0.015  0.022  0.000  0.000
  0.004  0.868  0.118  0.010  0.000
  0.000  0.000  0.000  0.000  1.000
    occupations:
  0.248  0.005  0.001 -0.019  0.000
  0.005  0.062 -0.001 -0.000 -0.000
  0.001 -0.001  0.057  0.000  0.000
 -0.019 -0.000  0.000  0.063 -0.000
  0.000 -0.000  0.000 -0.000  0.286
atomic mag. moment =     3.092924
atom    9   Tr[ns(na)] (up, down, total) =   3.81581  0.75440  4.57022
   spin  1
    eigenvalues:
  0.513  0.524  0.843  0.941  0.994
    eigenvectors:
  0.005  0.220  0.000  0.000  0.775
  0.977  0.023  0.000  0.000  0.000
  0.000  0.000  0.959  0.041  0.000
  0.018  0.757  0.000  0.000  0.225
  0.000  0.000  0.041  0.959  0.000
    occupations:
  0.888  0.000  0.000 -0.197 -0.000
  0.000  0.514  0.001 -0.002 -0.000
  0.000  0.001  0.847  0.000 -0.020
 -0.197 -0.002  0.000  0.630  0.000
 -0.000 -0.000 -0.020  0.000  0.937
   spin  2
    eigenvalues:
  0.059  0.068  0.069  0.256  0.302
    eigenvectors:
  0.795  0.000  0.000  0.000  0.205
  0.000  0.000  0.000  1.000  0.000
  0.000  0.135  0.865  0.000  0.000
  0.205  0.000  0.000  0.000  0.794
  0.000  0.865  0.135  0.000  0.000
    occupations:
  0.109 -0.000 -0.000  0.098 -0.000
 -0.000  0.256 -0.000 -0.001  0.000
 -0.000 -0.000  0.069 -0.000  0.000
  0.098 -0.001 -0.000  0.252 -0.000
 -0.000  0.000  0.000 -0.000  0.069
atomic mag. moment =     3.061410
atom   10   Tr[ns(na)] (up, down, total) =   3.84084  0.65344  4.49429
   spin  1
    eigenvalues:
  0.485  0.498  0.919  0.946  0.993
    eigenvectors:
  0.000  0.997  0.000  0.000  0.003
  0.000  0.000  0.000  1.000  0.000
  0.000  0.000  0.999  0.000  0.000
  0.000  0.003  0.000  0.000  0.997
  1.000  0.000  0.000  0.000  0.000
    occupations:
  0.499 -0.003 -0.005  0.028 -0.000
 -0.003  0.946 -0.000 -0.000  0.001
 -0.005 -0.000  0.919  0.000  0.009
  0.028 -0.000  0.000  0.992 -0.000
 -0.000  0.001  0.009 -0.000  0.486
   spin  2
    eigenvalues:
  0.057  0.066  0.073  0.184  0.273
    eigenvectors:
  0.015  0.000  0.000  0.985  0.000
  0.000  0.000  0.999  0.000  0.000
  0.000  1.000  0.000  0.000  0.000
  0.984  0.000  0.000  0.015  0.000
  0.000  0.000  0.000  0.000  1.000
    occupations:
  0.182  0.001  0.000 -0.015 -0.000
  0.001  0.073 -0.000 -0.000 -0.000
  0.000 -0.000  0.066 -0.000 -0.004
 -0.015 -0.000 -0.000  0.059  0.000
 -0.000 -0.000 -0.004  0.000  0.273
atomic mag. moment =     3.187400
atom   16   Tr[ns(na)] (up, down, total) =   3.79290  0.71987  4.51277
   spin  1
    eigenvalues:
  0.439  0.493  0.897  0.970  0.994
    eigenvectors:
  0.000  0.260  0.001  0.000  0.740
  0.999  0.001  0.000  0.000  0.000
  0.000  0.000  0.999  0.000  0.000
  0.001  0.739  0.000  0.000  0.260
  0.000  0.000  0.000  0.999  0.000
    occupations:
  0.864 -0.001 -0.001 -0.220 -0.000
 -0.001  0.439 -0.001  0.002 -0.007
 -0.001 -0.001  0.897 -0.006 -0.002
 -0.220  0.002 -0.006  0.623 -0.000
 -0.000 -0.007 -0.002 -0.000  0.970
   spin  2
    eigenvalues:
  0.051  0.063  0.067  0.242  0.297
    eigenvectors:
  0.731  0.009  0.027  0.004  0.228
  0.000  0.001  0.000  0.987  0.011
  0.043  0.153  0.803  0.000  0.000
  0.225  0.002  0.006  0.007  0.761
  0.000  0.835  0.164  0.001  0.000
    occupations:
  0.108 -0.000 -0.001  0.103  0.000
 -0.000  0.242  0.000 -0.006  0.007
 -0.001  0.000  0.066  0.005 -0.002
  0.103 -0.006  0.005  0.239 -0.000
  0.000  0.007 -0.002 -0.000  0.064
atomic mag. moment =     3.073023
atom   17   Tr[ns(na)] (up, down, total) =   3.81091  0.71228  4.52318
   spin  1
    eigenvalues:
  0.464  0.490  0.924  0.941  0.992
    eigenvectors:
  0.000  0.997  0.000  0.001  0.002
  0.000  0.001  0.017  0.981  0.000
  0.000  0.000  0.983  0.017  0.000
  0.000  0.002  0.000  0.000  0.998
  1.000  0.000  0.000  0.000  0.000
    occupations:
  0.491 -0.016 -0.001  0.020  0.000
 -0.016  0.940  0.002  0.001  0.000
 -0.001  0.002  0.924 -0.000  0.002
  0.020  0.001 -0.000  0.991 -0.000
  0.000  0.000  0.002 -0.000  0.464
   spin  2
    eigenvalues:
  0.056  0.061  0.062  0.247  0.286
    eigenvectors:
  0.000  0.010  0.001  0.989  0.000
  0.039  0.293  0.667  0.001  0.000
  0.957  0.026  0.016  0.000  0.000
  0.004  0.671  0.315  0.010  0.000
  0.000  0.000  0.000  0.000  1.000
    occupations:
  0.245  0.005  0.001 -0.018  0.000
  0.005  0.062 -0.001 -0.000 -0.000
  0.001 -0.001  0.057  0.000  0.000
 -0.018 -0.000  0.000  0.063 -0.000
  0.000 -0.000  0.000 -0.000  0.286
atomic mag. moment =     3.098631
atom   22   Tr[ns(na)] (up, down, total) =   3.81614  0.75328  4.56941
   spin  1
    eigenvalues:
  0.511  0.523  0.847  0.940  0.994
    eigenvectors:
  0.015  0.210  0.000  0.000  0.776
  0.932  0.068  0.000  0.000  0.000
  0.000  0.000  0.960  0.040  0.000
  0.053  0.723  0.000  0.000  0.224
  0.000  0.000  0.040  0.960  0.000
    occupations:
  0.888  0.000  0.000 -0.197 -0.000
  0.000  0.512  0.001  0.003 -0.000
  0.000  0.001  0.851  0.000  0.018
 -0.197  0.003  0.000  0.628  0.000
 -0.000 -0.000  0.018  0.000  0.937
   spin  2
    eigenvalues:
  0.060  0.069  0.069  0.256  0.301
    eigenvectors:
  0.796  0.000  0.000  0.000  0.204
  0.000  0.000  0.000  1.000  0.000
  0.000  0.999  0.001  0.000  0.000
  0.204  0.000  0.000  0.000  0.796
  0.000  0.001  0.999  0.000  0.000
    occupations:
  0.109  0.000 -0.000  0.097 -0.000
  0.000  0.256 -0.000  0.001  0.000
 -0.000 -0.000  0.069 -0.000  0.000
  0.097  0.001 -0.000  0.252 -0.000
 -0.000  0.000  0.000 -0.000  0.069
atomic mag. moment =     3.062857
atom   23   Tr[ns(na)] (up, down, total) =   3.80671  0.70082  4.50753
   spin  1
    eigenvalues:
  0.465  0.483  0.908  0.961  0.990
    eigenvectors:
  0.000  0.996  0.000  0.001  0.003
  0.000  0.001  0.000  0.997  0.001
  0.001  0.000  0.999  0.000  0.000
  0.000  0.002  0.000  0.001  0.996
  0.999  0.000  0.001  0.000  0.000
    occupations:
  0.485  0.018 -0.003  0.025  0.000
  0.018  0.960  0.001  0.000  0.001
 -0.003  0.001  0.907  0.001 -0.011
  0.025  0.000  0.001  0.989  0.000
  0.000  0.001 -0.011  0.000  0.465
   spin  2
    eigenvalues:
  0.058  0.060  0.061  0.237  0.285
    eigenvectors:
  0.000  0.012  0.000  0.988  0.000
  0.001  0.083  0.915  0.001  0.000
  0.998  0.001  0.001  0.000  0.000
  0.000  0.905  0.084  0.010  0.000
  0.000  0.000  0.000  0.000  1.000
    occupations:
  0.235 -0.006  0.001 -0.018 -0.000
 -0.006  0.061 -0.000  0.000 -0.000
  0.001 -0.000  0.058 -0.000  0.004
 -0.018  0.000 -0.000  0.062  0.000
 -0.000 -0.000  0.004  0.000  0.285
atomic mag. moment =     3.105894
N of occupied +U levels =  36.2165911
 --- exit write_ns ---

 ------ SPIN UP ------------

[...]

 ------ SPIN DOWN ----------

[...]

          k = 0.2500-0.4682 0.0000 ( 27150 PWs)   bands (ev):

[...]

          k =-0.2500 0.2341 0.0000 ( 27132 PWs)   bands (ev):

   -72.0570 -71.8064 -71.7833 -71.7717 -71.7507 -71.7453 -71.7340 -71.7132
   -43.5651 -43.4604 -43.3704 -43.3470 -43.3213 -43.2790 -43.2769 -43.2370
   -43.1962 -43.1832 -43.1767 -43.1694 -43.1532 -43.1436 -43.1137 -43.1102
   -43.1022 -43.0871 -43.0779 -43.0505 -43.0358 -43.0007 -42.9880 -42.8985
   -21.2149 -20.9309 -20.5887 -20.5366 -20.4691 -20.3121 -20.2460 -20.2319
   -20.2194 -20.0292 -19.9846 -19.9536 -19.8964 -19.7799 -19.7276 -19.6471
   -19.6218 -19.5607 -19.4727  -8.3520  -8.2647  -7.9563  -7.8689  -7.6685
    -7.6218  -7.3788  -7.2870  -7.1616  -7.0053  -6.9420  -6.7586  -6.7393
    -6.6682  -6.6287  -6.5504  -6.4414  -6.4017  -6.0805  -6.0480  -5.9479
    -5.8610  -5.7661  -5.6994  -5.6693  -5.6012  -5.4882  -5.4039  -5.3707
    -5.3198  -5.2568  -5.2183  -5.1488  -5.0989  -5.0309  -4.9377  -4.8438
    -4.7886  -4.6067  -4.5825  -4.5330  -4.3679  -4.3471  -4.2964  -4.2319
    -4.1941  -4.1443  -4.1159  -4.0309  -3.9898  -3.9483  -3.8977  -3.8521
    -3.7106  -3.6478  -3.6042  -3.4742   2.5329   3.1423   3.2054   3.2539
     3.2731   3.3614   3.4102   3.4327   3.4591   3.5011   3.5425   3.6002
     3.6448   3.6807   3.7429   3.7947   3.8734   3.9229   3.9589   3.9999
     4.0161   4.0977   4.1222   4.1779   4.2167   4.2626   4.2979   4.3649
     4.3813   4.4170   4.4673   4.5029   4.5301   4.5694   4.6189   4.6624
     4.7089   4.7501   4.8085   4.8418   4.8895   4.9224   4.9966   5.0365
     5.4536   5.7763   5.8796   6.0117   6.2579   6.3507   6.5158   6.6464
     6.7809   6.9197   7.0604   7.3473   7.4817   7.7389   7.7781   7.9800
     8.1111   8.3418   8.4619   8.5782   8.6480   8.7940   8.8610   8.9890
     9.1257   9.2267   9.3373   9.4359   9.5079   9.6466   9.7797  10.0274
    10.0964  10.1809  10.2060  10.3226  10.3550  10.6541  10.6791  10.7475
    10.8372  10.9864  11.0410  11.0911  11.2779  11.3159  11.4324  11.5347
    11.5854  11.7086  11.7401  11.8467  11.9054  11.9880  12.0978  12.2252
    12.2852  12.3870  12.4229  12.5346  12.6480  12.6966  12.7455  12.8466
    12.8958  12.9768  13.0363  13.0896  13.1602  13.2356  13.2761  13.3461
    13.3813  13.4986  13.5400  13.6255  13.7346  13.7915  13.8781  13.9410
    14.0751  14.1246  14.1931  14.2574  14.3324  14.4744  14.5275  14.5695
    14.6320  14.7004  14.7682  14.8557  14.9408  15.0151  15.0942  15.2092
    15.2173  15.2917  15.4647  15.5497  15.6085  15.7209  15.8253  15.9302
    16.0173  16.1111  16.1334  16.2069  16.2822  16.3144  16.3627  16.4302
    16.4821  16.6298  16.7140  16.7645  16.8431  16.9211  16.9875  17.0348
    17.1119  17.1850  17.2428  17.3267  17.4133  17.4738  17.5508  17.6094
    17.7414  17.7976  17.8244  17.8696  17.9549  17.9809  18.0917  18.1770
    18.2184  18.2835  18.3448  18.4035  18.4542  18.5811  18.7004  18.7181
    18.8391  18.8770  18.9612  19.0057  19.0733  19.1621  19.2596  19.3283
    19.4570  19.4849  19.5869  19.6713  19.7118  19.7463  19.8209  19.9199
    19.9505  20.0031  20.0820  20.1532  20.2846  20.3238  20.4055  20.4654
    20.5597  20.5735  20.6572  20.8645  20.8815  20.9430  21.0344  21.0725
    21.1665  21.2021  21.3084  21.3818  21.4457  21.4964

     the spin up/dw Fermi energies are    -2.4071   -2.3146 ev

!    total energy              =   -2023.42609331 Ry
     Harris-Foulkes estimate   =   -2023.42609332 Ry
     estimated scf accuracy    <          3.2E-09 Ry

     The total energy is the sum of the following terms:

     one-electron contribution =  -23361.32216648 Ry
     hartree contribution      =   11702.48115886 Ry
     xc contribution           =    -323.61559511 Ry
     ewald contribution        =    9956.18984341 Ry
     Hubbard energy            =       2.84090573 Ry
     smearing contrib. (-TS)   =      -0.00023971 Ry

     total magnetization       =    15.00 Bohr mag/cell
     absolute magnetization    =    34.16 Bohr mag/cell

     convergence has been achieved in  26 iterations

     Forces acting on atoms (Ry/au):

     negative rho (up, down):  0.589E-02 0.165E-02
     atom    1 type  1   force =    -0.00306003   -0.00900891   -0.00056577
     atom    2 type  1   force =     0.00002541    0.00256982   -0.00031304
     atom    3 type  2   force =     0.01980802    0.00292686   -0.00008239
     atom    4 type  2   force =     0.00344424    0.00446973    0.00011413
     atom    5 type  1   force =     0.00173452    0.00797667   -0.00001393
     atom    6 type  1   force =     0.00025752   -0.00710100   -0.00007621
     atom    7 type  1   force =     0.00199887   -0.00256265    0.00040771
     atom    8 type  1   force =     0.00029129   -0.00029672   -0.00011097
     atom    9 type  2   force =     0.00463991    0.00023864    0.00031540
     atom   10 type  2   force =     0.00203830    0.00019033    0.00093126
     atom   11 type  1   force =    -0.02520829   -0.03423088    0.00033682
     atom   12 type  1   force =    -0.02483970    0.03410144    0.00033143
     atom   13 type  1   force =    -0.00081017    0.00015649    0.00055610
     atom   14 type  1   force =    -0.00324034   -0.00959370   -0.00055676
     atom   15 type  1   force =    -0.00002849    0.00278431   -0.00035282
     atom   16 type  2   force =    -0.01915818    0.00332864   -0.00003939
     atom   17 type  2   force =     0.00343040    0.00532552    0.00011073
     atom   18 type  1   force =     0.00012029    0.00796311    0.00000744
     atom   19 type  1   force =    -0.00131085   -0.00698229   -0.00007960
     atom   20 type  1   force =    -0.00146509   -0.00295674   -0.00033470
     atom   21 type  1   force =    -0.00300756   -0.00012158   -0.00001429
     atom   22 type  2   force =     0.00174938    0.00004174   -0.00050039
     atom   23 type  2   force =    -0.00067730    0.00058368   -0.00078720
     atom   24 type  1   force =     0.02140780   -0.02671457   -0.00015143
     atom   25 type  1   force =     0.02172951    0.02642717   -0.00014366
     atom   26 type  1   force =    -0.00043476    0.00037416    0.00067974
     atom   27 type  3   force =    -0.00000760    0.00008491   -0.00007457
     atom   28 type  3   force =     0.00000691    0.00010792   -0.00007476
     atom   29 type  3   force =     0.00017946    0.00001301   -0.00004440
     atom   30 type  3   force =     0.00025315    0.00005442    0.00020991
     atom   31 type  1   force =     0.00016270    0.00001245    0.00008500
     atom   32 type  3   force =    -0.00002933   -0.00016198    0.00023061

     Total force =     0.002087     Total SCF correction =     0.000179

     entering subroutine stress ...

     negative rho (up, down):  0.589E-02 0.165E-02
          total   stress  (Ry/bohr**3)                   (kbar)     P=   39.94
   0.00039252   0.00000087   0.00000023         57.74      0.13      0.03
   0.00000087   0.00044944   0.00000705          0.13     66.11      1.04
   0.00000023   0.00000705  -0.00002754          0.03      1.04     -4.05

     bfgs converged in  18 scf cycles and  17 bfgs steps
     (criteria: energy < 0.10E-03, force < 0.10E-02)

     End of BFGS Geometry Optimization

     Final energy   =   -2023.4260933119 Ry
Begin final coordinates

ATOMIC_POSITIONS (crystal)
O0       0.000000000   0.000000000   0.372398003    0   0   1
O0       0.000000000   0.500000000   0.393098869    0   0   1
Cr1      0.250000000   0.500000000   0.446289358    0   0   1
Cr1      0.000000000   0.000000000   0.448937523    0   0   1
O0       0.250000000   0.800000000   0.447325110    0   0   1
O0       0.250000000   0.200000000   0.447348544    0   0   1
O0       0.000000000   0.500000000   0.496087052    0   0   1
O0       0.000000000   0.000000000   0.525584548    0   0   1
Cr1      0.250000000   0.000000000   0.577540051    0   0   1
Cr1      0.000000000   0.500000000   0.567388069    0   0   1
O0       0.250000000   0.700000000   0.578821176    0   0   1
O0       0.250000000   0.300000000   0.578768305    0   0   1
O0       0.000000000   0.000000000   0.627299741    0   0   1
O0       0.500000000   0.000000000   0.371795203    0   0   1
O0       0.500000000   0.500000000   0.393316221    0   0   1
Cr1      0.750000000   0.500000000   0.446265709    0   0   1
Cr1      0.500000000   0.000000000   0.448098526    0   0   1
O0       0.750000000   0.800000000   0.447351719    0   0   1
O0       0.750000000   0.200000000   0.447343773    0   0   1
O0       0.500000000   0.500000000   0.499886641    0   0   1
O0       0.500000000   0.000000000   0.525399441    0   0   1
Cr1      0.750000000   0.000000000   0.577937661    0   0   1
Cr1      0.500000000   0.500000000   0.581580760    0   0   1
O0       0.750000000   0.700000000   0.576811120    0   0   1
O0       0.750000000   0.300000000   0.576655314    0   0   1
O0       0.500000000   0.000000000   0.627276654    0   0   1
H2      -0.000693449   0.636391641   0.373569874
H2       0.499230601   0.636659598   0.373882520
H2       0.158759642   0.028359017   0.359876722
H2       0.659013822   0.027678731   0.359371805
O0       0.530037506   0.498225662   0.655467218
H2       0.382450578   0.495897385   0.673956769
End final coordinates

     General routines

     Parallel routines
     Hubbard U routines

   This run was terminated on:  20: 0:21  26May2014

   JOB DONE.