     Program PWSCF v.5.0.2 (svn rev. 9656) starts on 30Apr2014 at 22: 9:55

     Current dimensions of program PWSCF are:
     Max number of different atomic species (ntypx) = 10
     Max number of k-points (npk) =  40000
     Max angular momentum in pseudopotentials (lmaxx) =  3
     Reading input from pwscf.in
Warning: card &CELL ignored
Warning: card / ignored

     Subspace diagonalization in iterative solution of the eigenvalue problem:
     a serial algorithm will be used

     bravais-lattice index     =            0
     lattice parameter (alat)  =      11.1872  a.u.
     unit-cell volume          =    7531.8600 (a.u.)^3
     number of atoms/cell      =           32
     number of atomic types    =            3
     number of electrons       =       223.00
     number of Kohn-Sham states=          334
     kinetic-energy cutoff     =      40.0000  Ry
     charge density cutoff     =     500.0000  Ry
     convergence threshold     =      1.0E-06
     mixing beta               =       0.7000
     number of iterations used =            8  plain     mixing
     Exchange-correlation      = SLA  PW   PBE  PBE ( 1 4 3 4 0)
     EXX-fraction              =        0.00
     nstep                     =           50

     celldm(1)=  11.187179  celldm(2)=   0.000000  celldm(3)=   0.000000
     celldm(4)=   0.000000  celldm(5)=   0.000000  celldm(6)=   0.000000

     crystal axes: (cart. coord. in units of alat)
               a(1) = (   1.000000   0.000000   0.000000 )
               a(2) = (   0.000000   1.180104   0.000000 )
               a(3) = (   0.000000   0.000000   4.558482 )

     reciprocal axes: (cart. coord. in units 2 pi/alat)
               b(1) = (  1.000000  0.000000  0.000000 )
               b(2) = (  0.000000  0.847383  0.000000 )
               b(3) = (  0.000000  0.000000  0.219371 )

     PseudoPot. # 1 for O  read from file:
     /home/camp/zhonxu/pseudo/o_pbe_v1.01.uspp.F.UPF
     MD5 check sum: 2bcb18d16ea4b960afae9ec6d52f22d2
     Pseudo is Ultrasoft + core correction, Zval =  6.0
     Generated by new atomic code, or converted to UPF format
     Using radial grid of  737 points,  5 beta functions with:
                l(1) =   0
                l(2) =   0
                l(3) =   1
                l(4) =   1
                l(5) =   2
     Q(r) pseudized with  8 coefficients,  rinner =    0.900   0.900   0.900
                                                       0.900   0.900

     PseudoPot. # 2 for Nb read from file:
     /home/camp/zhonxu/pseudo/nb_pbe_v1.uspp.F.UPF
     MD5 check sum: 573aab8a2fa660278ed4a62cd769473f
     Pseudo is Ultrasoft + core correction, Zval = 13.0
     Generated by new atomic code, or converted to UPF format
     Using radial grid of  887 points,  6 beta functions with:
                l(1) =   0
                l(2) =   0
                l(3) =   1
                l(4) =   1
                l(5) =   2
                l(6) =   2
     Q(r) pseudized with  6 coefficients,  rinner =    1.000   1.000   1.000
                                                       1.000   1.000

     PseudoPot. # 3 for H  read from file:
     /home/camp/zhonxu/pseudo/h_pbe_v1.uspp.F.UPF
     MD5 check sum: 3408e3ff4ec8b0a4e358431e7e038a48
     Pseudo is Ultrasoft, Zval =  1.0
     Generated by new atomic code, or converted to UPF format
     Using radial grid of  615 points,  2 beta functions with:
                l(1) =   0
                l(2) =   0
     Q(r) pseudized with  8 coefficients,  rinner =    0.700

     atomic species   valence    mass     pseudopotential
        O0             6.00    15.99940     O ( 1.00)
        Nb1           13.00    92.90640     Nb( 1.00)
        H2             1.00     1.00794     H ( 1.00)

     Simplified LDA+U calculation (l_max = 2) with parameters (eV):
     atomic species    L          U    alpha       J0     beta
        Nb1            2     0.5000   0.0000   0.0000   0.0000

     No symmetry found

   Cartesian axes

     site n.     atom                  positions (alat units)
         1           O0  tau(   1) = (   0.0000000   0.0000000   1.6962568  )
         2           O0  tau(   2) = (   0.0000000   0.5900519   1.7738878  )
         3           Nb1 tau(   3) = (   0.2500000   0.5900519   2.0270203  )
         4           Nb1 tau(   4) = (   0.0000000   0.0000000   2.0275217  )
         5           O0  tau(   5) = (   0.2500000   0.9322821   2.0383253  )
         6           O0  tau(   6) = (   0.2500000   0.2478218   2.0383253  )
         7           O0  tau(   7) = (   0.0000000   0.5900519   2.2801984  )
         8           O0  tau(   8) = (   0.0000000   0.0000000   2.3861375  )
         9           Nb1 tau(   9) = (   0.2500000   0.0000000   2.6321588  )
        10           Nb1 tau(  10) = (   0.0000000   0.5900519   2.5957821  )
        11           O0  tau(  11) = (   0.2500000   0.8378738   2.6252299  )
        12           O0  tau(  12) = (   0.2500000   0.3422301   2.6252299  )
        13           O0  tau(  13) = (   0.0000000   0.0000000   2.8359230  )
        14           O0  tau(  14) = (   0.5000000   0.0000000   1.6977155  )
        15           O0  tau(  15) = (   0.5000000   0.5900519   1.7812725  )
        16           Nb1 tau(  16) = (   0.7500000   0.5900519   2.0271571  )
        17           Nb1 tau(  17) = (   0.5000000   0.0000000   2.0300745  )
        18           O0  tau(  18) = (   0.7500000   0.9322821   2.0383253  )
        19           O0  tau(  19) = (   0.7500000   0.2478218   2.0383709  )
        20           O0  tau(  20) = (   0.5000000   0.5900519   2.2745003  )
        21           O0  tau(  21) = (   0.5000000   0.0000000   2.3862287  )
        22           Nb1 tau(  22) = (   0.7500000   0.0000000   2.6327514  )
        23           Nb1 tau(  23) = (   0.5000000   0.5900519   2.6327970  )
        24           O0  tau(  24) = (   0.7500000   0.8378738   2.6254579  )
        25           O0  tau(  25) = (   0.7500000   0.3422301   2.6255034  )
        26           O0  tau(  26) = (   0.5000000   0.0000000   2.8354216  )
        27           H2  tau(  27) = (  -0.0004800   0.5922115   1.6084605  )
        28           H2  tau(  28) = (   0.4995300   0.5922233   1.6161643  )
        29           H2  tau(  29) = (   0.1505800   0.0006019   1.6239593  )
        30           H2  tau(  30) = (   0.6505400   0.0006019   1.6254180  )
        31           O0  tau(  31) = (   0.5024200   0.5900519   2.9584550  )
        32           H2  tau(  32) = (   0.3976800   0.5901109   3.0854543  )

     number of k points=    10  Methfessel-Paxton smearing, width (Ry)=  0.0100
                       cart. coord. in units 2pi/alat
        k(    1) = (   0.0000000   0.0000000   0.0000000), wk =   0.1250000
        k(    2) = (   0.0000000   0.2118458   0.0000000), wk =   0.2500000
        k(    3) = (   0.0000000  -0.4236915   0.0000000), wk =   0.1250000
        k(    4) = (   0.2500000   0.0000000   0.0000000), wk =   0.2500000
        k(    5) = (   0.2500000   0.2118458   0.0000000), wk =   0.2500000
        k(    6) = (   0.2500000  -0.4236915   0.0000000), wk =   0.2500000
        k(    7) = (  -0.5000000   0.0000000   0.0000000), wk =   0.1250000
        k(    8) = (  -0.5000000   0.2118458   0.0000000), wk =   0.2500000
        k(    9) = (  -0.5000000  -0.4236915   0.0000000), wk =   0.1250000
        k(   10) = (  -0.2500000   0.2118458   0.0000000), wk =   0.2500000

     Largest allocated arrays     est. size (Mb)     dimensions
     Largest temporary arrays     est. size (Mb)     dimensions

     Check: negative/imaginary core charge=   -0.000003    0.000000

     Initial potential from superposition of free atoms
     Check: negative starting charge=   -0.003641

     starting charge  222.97806, renormalised to  223.00000

     negative rho (up, down):  0.364E-02 0.000E+00
     Number of +U iterations with fixed ns =  0
     Starting occupations:
 --- enter write_ns ---
 LDA+U parameters:
U( 2)     =  0.50000000
alpha( 2) =  0.00000000
atom    3   Tr[ns(na)] =   3.00000
    eigenvalues:
  0.300  0.300  0.300  0.300  0.300
    eigenvectors:
  1.000  0.000  0.000  0.000  0.000
  0.000  1.000  0.000  0.000  0.000
  0.000  0.000  1.000  0.000  0.000
  0.000  0.000  0.000  1.000  0.000
  0.000  0.000  0.000  0.000  1.000
    occupations:
  0.300  0.000  0.000  0.000  0.000
  0.000  0.300  0.000  0.000  0.000
  0.000  0.000  0.300  0.000  0.000
  0.000  0.000  0.000  0.300  0.000
  0.000  0.000  0.000  0.000  0.300
atom    4   Tr[ns(na)] =   3.00000
    eigenvalues:
  0.300  0.300  0.300  0.300  0.300
    eigenvectors:
  1.000  0.000  0.000  0.000  0.000
  0.000  1.000  0.000  0.000  0.000
  0.000  0.000  1.000  0.000  0.000
  0.000  0.000  0.000  1.000  0.000
  0.000  0.000  0.000  0.000  1.000
    occupations:
  0.300  0.000  0.000  0.000  0.000
  0.000  0.300  0.000  0.000  0.000
  0.000  0.000  0.300  0.000  0.000
  0.000  0.000  0.000  0.300  0.000
  0.000  0.000  0.000  0.000  0.300
atom    9   Tr[ns(na)] =   3.00000
    eigenvalues:
  0.300  0.300  0.300  0.300  0.300
    eigenvectors:
  1.000  0.000  0.000  0.000  0.000
  0.000  1.000  0.000  0.000  0.000
  0.000  0.000  1.000  0.000  0.000
  0.000  0.000  0.000  1.000  0.000
  0.000  0.000  0.000  0.000  1.000
    occupations:
  0.300  0.000  0.000  0.000  0.000
  0.000  0.300  0.000  0.000  0.000
  0.000  0.000  0.300  0.000  0.000
  0.000  0.000  0.000  0.300  0.000
  0.000  0.000  0.000  0.000  0.300
atom   10   Tr[ns(na)] =   3.00000
    eigenvalues:
  0.300  0.300  0.300  0.300  0.300
    eigenvectors:
  1.000  0.000  0.000  0.000  0.000
  0.000  1.000  0.000  0.000  0.000
  0.000  0.000  1.000  0.000  0.000
  0.000  0.000  0.000  1.000  0.000
  0.000  0.000  0.000  0.000  1.000
    occupations:
  0.300  0.000  0.000  0.000  0.000
  0.000  0.300  0.000  0.000  0.000
  0.000  0.000  0.300  0.000  0.000
  0.000  0.000  0.000  0.300  0.000
  0.000  0.000  0.000  0.000  0.300
atom   16   Tr[ns(na)] =   3.00000
    eigenvalues:
  0.300  0.300  0.300  0.300  0.300
    eigenvectors:
  1.000  0.000  0.000  0.000  0.000
  0.000  1.000  0.000  0.000  0.000
  0.000  0.000  1.000  0.000  0.000
  0.000  0.000  0.000  1.000  0.000
  0.000  0.000  0.000  0.000  1.000
    occupations:
  0.300  0.000  0.000  0.000  0.000
  0.000  0.300  0.000  0.000  0.000
  0.000  0.000  0.300  0.000  0.000
  0.000  0.000  0.000  0.300  0.000
  0.000  0.000  0.000  0.000  0.300
atom   17   Tr[ns(na)] =   3.00000
    eigenvalues:
  0.300  0.300  0.300  0.300  0.300
    eigenvectors:
  1.000  0.000  0.000  0.000  0.000
  0.000  1.000  0.000  0.000  0.000
  0.000  0.000  1.000  0.000  0.000
  0.000  0.000  0.000  1.000  0.000
  0.000  0.000  0.000  0.000  1.000
    occupations:
  0.300  0.000  0.000  0.000  0.000
  0.000  0.300  0.000  0.000  0.000
  0.000  0.000  0.300  0.000  0.000
  0.000  0.000  0.000  0.300  0.000
  0.000  0.000  0.000  0.000  0.300
atom   22   Tr[ns(na)] =   3.00000
    eigenvalues:
  0.300  0.300  0.300  0.300  0.300
    eigenvectors:
  1.000  0.000  0.000  0.000  0.000
  0.000  1.000  0.000  0.000  0.000
  0.000  0.000  1.000  0.000  0.000
  0.000  0.000  0.000  1.000  0.000
  0.000  0.000  0.000  0.000  1.000
[...]
    eigenvectors:
  0.000  0.005  0.000  0.995  0.000
  0.000  0.994  0.000  0.005  0.001
  1.000  0.000  0.000  0.000  0.000
  0.000  0.001  0.000  0.000  0.999
  0.000  0.000  1.000  0.000  0.000
    occupations:
  0.576  0.008  0.000  0.001  0.000
  0.008  0.456 -0.000 -0.005  0.000
  0.000 -0.000  0.421  0.000  0.001
  0.001 -0.005  0.000  0.624  0.000
  0.000  0.000  0.001  0.000  0.547
atom    9   Tr[ns(na)] =   5.28870
    eigenvalues:
  0.461  0.471  0.506  0.600  0.606
    eigenvectors:
  0.877  0.000  0.000  0.122  0.001
  0.000  0.000  0.000  0.005  0.995
  0.000  0.029  0.971  0.000  0.000
  0.123  0.000  0.000  0.873  0.004
  0.000  0.971  0.029  0.000  0.000
    occupations:
  0.478 -0.000 -0.000  0.046 -0.000
 -0.000  0.606 -0.000 -0.000  0.000
 -0.000 -0.000  0.505  0.000  0.006
  0.046 -0.000  0.000  0.583 -0.000
 -0.000  0.000  0.006 -0.000  0.472
atom   10   Tr[ns(na)] =   5.13385
    eigenvalues:
  0.413  0.483  0.511  0.544  0.616
    eigenvectors:
  0.000  0.004  0.990  0.000  0.005
  0.000  0.996  0.004  0.000  0.000
  1.000  0.000  0.000  0.000  0.000
  0.000  0.000  0.005  0.000  0.995
  0.000  0.000  0.000  1.000  0.000
    occupations:
  0.512 -0.002  0.000  0.008  0.000
 -0.002  0.483  0.000 -0.001 -0.000
  0.000  0.000  0.413 -0.000 -0.000
  0.008 -0.001 -0.000  0.615  0.000
  0.000 -0.000 -0.000  0.000  0.544
atom   16   Tr[ns(na)] =   5.23793
    eigenvalues:
  0.419  0.451  0.523  0.571  0.655
    eigenvectors:
  0.000  0.000  0.005  0.467  0.528
  0.000  0.000  0.991  0.009  0.000
  0.036  0.964  0.000  0.000  0.000
  0.000  0.000  0.004  0.524  0.472
  0.964  0.036  0.000  0.000  0.000
    occupations:
  0.615  0.004  0.000 -0.042  0.000
  0.004  0.523  0.000  0.002  0.000
  0.000  0.000  0.450 -0.000 -0.006
 -0.042  0.002 -0.000  0.610 -0.000
  0.000  0.000 -0.006 -0.000  0.420
atom   17   Tr[ns(na)] =   5.24268
    eigenvalues:
  0.420  0.465  0.547  0.577  0.613
    eigenvectors:
  0.000  0.005  0.000  0.994  0.001
  0.000  0.994  0.000  0.005  0.001
  1.000  0.000  0.000  0.000  0.000
  0.000  0.001  0.000  0.001  0.998
  0.000  0.000  1.000  0.000  0.000
    occupations:
  0.576  0.008  0.000  0.001  0.000
  0.008  0.465 -0.000 -0.004 -0.000
  0.000 -0.000  0.420  0.000  0.001
  0.001 -0.004  0.000  0.613  0.000
  0.000 -0.000  0.001  0.000  0.547
atom   22   Tr[ns(na)] =   5.28602
    eigenvalues:
  0.461  0.471  0.505  0.601  0.605
    eigenvectors:
  0.878  0.000  0.000  0.122  0.000
  0.000  0.000  0.000  0.003  0.997
  0.000  0.044  0.956  0.000  0.000
  0.122  0.000  0.000  0.875  0.003
  0.000  0.956  0.044  0.000  0.000
    occupations:
  0.478  0.000 -0.000  0.046 -0.000
  0.000  0.605 -0.000  0.000  0.000
 -0.000 -0.000  0.504  0.000 -0.007
  0.046  0.000  0.000  0.583  0.000
 -0.000  0.000 -0.007  0.000  0.473
atom   23   Tr[ns(na)] =   5.26570
    eigenvalues:
  0.431  0.468  0.548  0.576  0.610
    eigenvectors:
  0.000  0.012  0.000  0.976  0.012
  0.000  0.987  0.000  0.012  0.000
  1.000  0.000  0.000  0.000  0.000
  0.000  0.001  0.000  0.011  0.988
  0.000  0.000  1.000  0.000  0.000
    occupations:
  0.575  0.012 -0.000  0.004  0.000
  0.012  0.469  0.000 -0.004 -0.000
 -0.000  0.000  0.431 -0.000  0.000
  0.004 -0.004 -0.000  0.609 -0.000
  0.000 -0.000  0.000 -0.000  0.548
N of occupied +U levels =  41.9389018
 --- exit write_ns ---

     Threshold (ethr) on eigenvalues was too large:
     Diagonalizing with lowered threshold

     Davidson diagonalization with overlap
     ethr =  1.11E-09,  avg # of iterations =  3.0

[...]

     total energy              =   -1563.36060101 Ry
     Harris-Foulkes estimate   =   -1563.36060101 Ry
     estimated scf accuracy    <       0.00000001 Ry

     iteration # 10     ecut=    40.00 Ry     beta=0.70
     Davidson diagonalization with overlap
     ethr =  5.19E-12,  avg # of iterations =  1.0

     negative rho (up, down):  0.344E-02 0.000E+00

     End of self-consistent calculation
 --- enter write_ns ---
 LDA+U parameters:
U( 2)     =  0.50000000
alpha( 2) =  0.00000000
atom    3   Tr[ns(na)] =   5.23644
    eigenvalues:
  0.420  0.449  0.524  0.571  0.655
    eigenvectors:
  0.000  0.000  0.006  0.467  0.527
  0.000  0.000  0.990  0.009  0.000
  0.000  1.000  0.000  0.000  0.000
  0.000  0.000  0.003  0.524  0.473
  1.000  0.000  0.000  0.000  0.000
    occupations:
  0.615 -0.005  0.000 -0.042 -0.000
 -0.005  0.524 -0.000 -0.002  0.000
  0.000 -0.000  0.449 -0.000 -0.001
 -0.042 -0.002 -0.000  0.611  0.000
 -0.000  0.000 -0.001  0.000  0.420
atom    4   Tr[ns(na)] =   5.24780
    eigenvalues:
  0.421  0.456  0.547  0.576  0.624
    eigenvectors:
  0.000  0.005  0.000  0.995  0.000
  0.000  0.994  0.000  0.005  0.001
  1.000  0.000  0.000  0.000  0.000
  0.000  0.001  0.000  0.000  0.999
  0.000  0.000  1.000  0.000  0.000
    occupations:
  0.576  0.008  0.000  0.001  0.000
  0.008  0.456 -0.000 -0.005  0.000
  0.000 -0.000  0.421  0.000  0.001
  0.001 -0.005  0.000  0.624  0.000
  0.000  0.000  0.001  0.000  0.547
atom    9   Tr[ns(na)] =   5.28851
    eigenvalues:
  0.461  0.471  0.506  0.600  0.606
    eigenvectors:
  0.877  0.000  0.000  0.122  0.001
  0.000  0.000  0.000  0.005  0.995
  0.000  0.029  0.971  0.000  0.000
  0.123  0.000  0.000  0.873  0.004
  0.000  0.971  0.029  0.000  0.000
    occupations:
  0.478 -0.000 -0.000  0.046 -0.000
 -0.000  0.606 -0.000 -0.000  0.000
 -0.000 -0.000  0.505  0.000  0.006
  0.046 -0.000  0.000  0.583 -0.000
 -0.000  0.000  0.006 -0.000  0.472
atom   10   Tr[ns(na)] =   5.13391
    eigenvalues:
  0.413  0.483  0.511  0.544  0.616
    eigenvectors:
  0.000  0.004  0.990  0.000  0.005
  0.000  0.996  0.004  0.000  0.000
  1.000  0.000  0.000  0.000  0.000
  0.000  0.000  0.005  0.000  0.995
  0.000  0.000  0.000  1.000  0.000
    occupations:
  0.512 -0.002  0.000  0.008  0.000
 -0.002  0.483  0.000 -0.001 -0.000
  0.000  0.000  0.413 -0.000 -0.000
  0.008 -0.001 -0.000  0.615  0.000
  0.000 -0.000 -0.000  0.000  0.544
atom   16   Tr[ns(na)] =   5.23787
    eigenvalues:
  0.419  0.451  0.523  0.571  0.655
    eigenvectors:
  0.000  0.000  0.005  0.467  0.528
  0.000  0.000  0.991  0.009  0.000
  0.036  0.964  0.000  0.000  0.000
  0.000  0.000  0.004  0.524  0.472
  0.964  0.036  0.000  0.000  0.000
    occupations:
  0.615  0.004  0.000 -0.042  0.000
  0.004  0.523  0.000  0.002  0.000
  0.000  0.000  0.450 -0.000 -0.006
 -0.042  0.002 -0.000  0.610 -0.000
  0.000  0.000 -0.006 -0.000  0.420
atom   17   Tr[ns(na)] =   5.24266
    eigenvalues:
  0.420  0.465  0.547  0.577  0.613
    eigenvectors:
  0.000  0.005  0.000  0.994  0.001
  0.000  0.994  0.000  0.005  0.001
  1.000  0.000  0.000  0.000  0.000
  0.000  0.001  0.000  0.001  0.998
  0.000  0.000  1.000  0.000  0.000
    occupations:
  0.576  0.008  0.000  0.001  0.000
  0.008  0.465 -0.000 -0.004 -0.000
  0.000 -0.000  0.420  0.000  0.001
  0.001 -0.004  0.000  0.613  0.000
  0.000 -0.000  0.001  0.000  0.547
atom   22   Tr[ns(na)] =   5.28601
    eigenvalues:
  0.461  0.471  0.505  0.601  0.605
    eigenvectors:
  0.878  0.000  0.000  0.122  0.000
  0.000  0.000  0.000  0.003  0.997
  0.000  0.044  0.956  0.000  0.000
  0.122  0.000  0.000  0.875  0.003
  0.000  0.956  0.044  0.000  0.000
    occupations:
  0.478  0.000 -0.000  0.046 -0.000
  0.000  0.605 -0.000  0.000  0.000
 -0.000 -0.000  0.504  0.000 -0.007
  0.046  0.000  0.000  0.583  0.000
 -0.000  0.000 -0.007  0.000  0.473
atom   23   Tr[ns(na)] =   5.26554
    eigenvalues:
  0.431  0.468  0.548  0.576  0.610
    eigenvectors:
  0.000  0.012  0.000  0.976  0.012
  0.000  0.987  0.000  0.012  0.000
  1.000  0.000  0.000  0.000  0.000
  0.000  0.001  0.000  0.011  0.988
  0.000  0.000  1.000  0.000  0.000
    occupations:
  0.575  0.012 -0.000  0.004  0.000
  0.012  0.469  0.000 -0.004 -0.000
 -0.000  0.000  0.431 -0.000  0.000
  0.004 -0.004 -0.000  0.609 -0.000
  0.000 -0.000  0.000 -0.000  0.548
N of occupied +U levels =  41.9387254
 --- exit write_ns ---

[...]

          k = 0.2500-0.4237 0.0000 ( 32188 PWs)   bands (ev):

[...]

          k =-0.2500 0.2118 0.0000 ( 32165 PWs)   bands (ev):

   -56.1123 -56.0484 -55.7294 -55.7167 -55.7105 -55.6725 -55.6601 -55.6520
   -32.9233 -32.3098 -32.2715 -32.2162 -32.1971 -32.1769 -32.1628 -32.1558
   -32.0988 -32.0793 -32.0690 -32.0234 -31.9994 -31.9699 -31.9503 -31.7482
   -31.7387 -31.7282 -31.6138 -31.6087 -31.6025 -31.5537 -31.5377 -31.5333
   -20.4674 -20.0819 -19.2362 -19.1162 -18.9450 -18.8810 -18.7607 -18.7002
   -18.6167 -18.6039 -18.5481 -18.5045 -18.0267 -17.9769 -17.9580 -17.8991
   -17.8890 -17.7569 -17.6208  -8.8956  -8.4321  -7.4749  -7.4321  -6.8807
    -6.6905  -6.6110  -6.5066  -6.4121  -6.2647  -6.1755  -6.0567  -6.0407
    -5.9219  -5.8324  -5.7374  -5.7164  -5.5227  -5.4957  -5.4688  -5.3958
    -5.0733  -5.0334  -4.9396  -4.8157  -4.6262  -4.5188  -4.4484  -4.2952
    -4.2256  -4.1720  -4.0913  -4.0003  -3.9048  -3.8505  -3.8407  -3.8129
    -3.7778  -3.6431  -3.6225  -3.4841  -3.4562  -3.3854  -3.2208  -3.1657
    -3.1036  -3.0320  -2.9449  -2.9125  -2.7628  -2.7182  -2.6748  -2.5490
    -2.4629  -2.4495  -2.3362  -2.0239   0.0400   0.6402   0.6614   0.9570
     1.0587   1.3335   1.6870   1.7760   1.8333   2.0201   2.0897   2.1585
     2.3053   2.3832   2.4570   2.5996   2.7144   2.7509   2.7879   2.8748
     2.9466   3.0238   3.0719   3.0967   3.2816   3.6987   4.2340   4.3271
     4.5989   4.7326   4.9781   5.1426   5.2303   5.2776   5.4002   5.4546
     5.4908   5.7066   5.7794   5.8352   5.8517   5.9612   6.0640   6.1567
     6.4422   6.4619   6.4948   6.6728   6.7059   6.8454   6.8688   7.0214
     7.1517   7.2581   7.3343   7.3721   7.5102   7.6542   7.8585   7.9569
     8.0114   8.0623   8.2107   8.2988   8.4127   8.5256   8.6198   8.7201
     8.8306   8.9188   8.9947   9.1596   9.1970   9.2990   9.3481   9.4956
     9.5779   9.6558   9.8060   9.8271  10.0016  10.0536  10.0922  10.2273
    10.3296  10.3966  10.5194  10.7129  10.7909  10.8986  10.9572  11.0354
    11.0795  11.1445  11.2261  11.3064  11.3655  11.5166  11.5425  11.5696
    11.6030  11.7123  11.8545  11.8770  12.0033  12.0757  12.1903  12.2666
    12.4103  12.4587  12.5206  12.5612  12.6420  12.6786  12.7771  12.8387
    12.8951  12.9436  12.9956  13.0418  13.1142  13.2062  13.2812  13.3838
    13.4504  13.5096  13.5733  13.6142  13.6843  13.7790  13.8374  13.9306
    13.9617  14.0297  14.0562  14.1418  14.2533  14.2877  14.3441  14.4350
    14.5593  14.7137  14.7465  14.7895  14.8624  14.9023  15.0173  15.0860
    15.1899  15.2459  15.2922  15.3862  15.4105  15.4374  15.5285  15.6122
    15.6557  15.7642  15.8221  15.8863  15.9099  15.9492  16.0586  16.1216
    16.1880  16.2415  16.2801  16.3567  16.4772  16.5879  16.6301  16.6664
    16.7504  16.8003  16.8579  16.9665  17.0276  17.0590  17.1384  17.1777
    17.2555  17.2931  17.3187  17.4092  17.4664  17.5326  17.6245  17.7152
    17.7858  17.8582  17.9420  17.9960  18.0550  18.1286  18.1495  18.2216
    18.3255  18.4033  18.4937  18.5425  18.5835  18.6441  18.7477  18.8167
    18.8617  18.9760  19.0016  19.0921  19.1048  19.1874  19.2346  19.2849
    19.3276  19.3907  19.4484  19.5540  19.5995  19.6665  19.6947  19.7527
    19.7994  19.8665  19.9125  19.9887  20.0329  20.0636

     the Fermi energy is     1.0413 ev

!    total energy              =   -1563.36060101 Ry
     Harris-Foulkes estimate   =   -1563.36060101 Ry
     estimated scf accuracy    <          1.2E-09 Ry

     The total energy is the sum of the following terms:

     one-electron contribution =  -19070.48477888 Ry
     hartree contribution      =    9565.06332492 Ry
     xc contribution           =    -287.64084307 Ry
     ewald contribution        =    8229.34346819 Ry
     Hubbard energy            =       0.35889736 Ry
     smearing contrib. (-TS)   =      -0.00066952 Ry

     convergence has been achieved in  10 iterations

     Forces acting on atoms (Ry/au):

     negative rho (up, down):  0.344E-02 0.000E+00
     atom    1 type  1   force =     0.00130611   -0.00004316   -0.00008294
     atom    2 type  1   force =    -0.00120483    0.00029779   -0.00066589
     atom    3 type  2   force =    -0.04764324   -0.00026005   -0.00007971
     atom    4 type  2   force =    -0.00459568    0.00005861    0.00006263
     atom    5 type  1   force =    -0.00287101   -0.01697234    0.00003713
     atom    6 type  1   force =    -0.00287887    0.01692975    0.00003921
     atom    7 type  1   force =    -0.00093929    0.00006565   -0.00044262
     atom    8 type  1   force =     0.00173569    0.00000447   -0.00001137
     atom    9 type  2   force =     0.00090886    0.00001959    0.00013868
     atom   10 type  2   force =    -0.00125881   -0.00000117   -0.00089630
     atom   11 type  1   force =    -0.01559523   -0.01652764    0.00024418
     atom   12 type  1   force =    -0.01559057    0.01651352    0.00024767
     atom   13 type  1   force =     0.00120240   -0.00000286    0.00006505
     atom   14 type  1   force =     0.00044875   -0.00005197   -0.00008610
     atom   15 type  1   force =    -0.00101936    0.00014551    0.00047638
     atom   16 type  2   force =     0.05129427   -0.00024931   -0.00012442
     atom   17 type  2   force =    -0.00385492    0.00007287    0.00003713
     atom   18 type  1   force =     0.00414445   -0.01663013    0.00004294
     atom   19 type  1   force =     0.00396625    0.01659364    0.00004052
     atom   20 type  1   force =    -0.00394618    0.00010043    0.00012982
     atom   21 type  1   force =     0.00153158    0.00000237   -0.00010802
     atom   22 type  2   force =    -0.00205359    0.00001466   -0.00003067
     atom   23 type  2   force =     0.00433048   -0.00000110    0.00017033
     atom   24 type  1   force =     0.01544918   -0.01678681    0.00002080
     atom   25 type  1   force =     0.01543854    0.01677106    0.00001738
     atom   26 type  1   force =     0.00010234   -0.00000225    0.00008459
     atom   27 type  3   force =     0.00000624   -0.00005033    0.00090172
     atom   28 type  3   force =    -0.00000362    0.00000717   -0.00046425
     atom   29 type  3   force =     0.00005439   -0.00000866    0.00008126
     atom   30 type  3   force =     0.00006352   -0.00000942    0.00005601
     atom   31 type  1   force =     0.00081919   -0.00000215   -0.00030315
     atom   32 type  3   force =     0.00065296    0.00000226    0.00040202

     Total force =     0.002080     Total SCF correction =     0.000074

     bfgs converged in   6 scf cycles and   5 bfgs steps
     (criteria: energy < 0.10E-03, force < 0.10E-02)

     End of BFGS Geometry Optimization

     Final energy   =   -1563.3606010088 Ry
Begin final coordinates

ATOMIC_POSITIONS (crystal)
O0       0.000000000   0.000000000   0.372153375    0   0   1
O0       0.000000000   0.500000000   0.388867918    0   0   1
Nb1      0.250000000   0.500000000   0.444640245    0   0   1
Nb1      0.000000000   0.000000000   0.444802443    0   0   1
O0       0.250000000   0.790000000   0.447142659    0   0   1
O0       0.250000000   0.210000000   0.447142357    0   0   1
O0       0.000000000   0.500000000   0.500472337    0   0   1
O0       0.000000000   0.000000000   0.523421644    0   0   1
Nb1      0.250000000   0.000000000   0.577436355    0   0   1
Nb1      0.000000000   0.500000000   0.569629131    0   0   1
O0       0.250000000   0.710000000   0.576000310    0   0   1
O0       0.250000000   0.290000000   0.575998978    0   0   1
O0       0.000000000   0.000000000   0.622065208    0   0   1
O0       0.500000000   0.000000000   0.372501612    0   0   1
O0       0.500000000   0.500000000   0.390823223    0   0   1
Nb1      0.750000000   0.500000000   0.444684444    0   0   1
Nb1      0.500000000   0.000000000   0.445384334    0   0   1
O0       0.750000000   0.790000000   0.447146976    0   0   1
O0       0.750000000   0.210000000   0.447147103    0   0   1
O0       0.500000000   0.500000000   0.498892897    0   0   1
O0       0.500000000   0.000000000   0.523464696    0   0   1
Nb1      0.750000000   0.000000000   0.577471647    0   0   1
Nb1      0.500000000   0.500000000   0.577538414    0   0   1
O0       0.750000000   0.710000000   0.575905932    0   0   1
O0       0.750000000   0.290000000   0.575907575    0   0   1
O0       0.500000000   0.000000000   0.621949808    0   0   1
H2      -0.000468141   0.501804121   0.352542430
H2       0.499526860   0.501840385   0.354611796
H2       0.150559215   0.000501187   0.356288904
H2       0.650422229   0.000496075   0.356599608
O0       0.503033413   0.500002468   0.648966145
H2       0.398778649   0.500052909   0.676909495
End final coordinates

     General routines

     Parallel routines
     Hubbard U routines

   This run was terminated on:   2:24:32   1May2014

   JOB DONE.