     Program PWSCF v.5.0.2 (svn rev. 9656) starts on 29Apr2014 at  4:49: 3

     Current dimensions of program PWSCF are:
     Max number of different atomic species (ntypx) = 10
     Max number of k-points (npk) =  40000
     Max angular momentum in pseudopotentials (lmaxx) =  3
     Reading input from pwscf.in
Warning: card &CELL ignored
Warning: card / ignored

     Subspace diagonalization in iterative solution of the eigenvalue problem:
     a serial algorithm will be used

     bravais-lattice index     =            0
     lattice parameter (alat)  =      12.0187  a.u.
     unit-cell volume          =    7280.5819 (a.u.)^3
     number of atoms/cell      =           31
     number of atomic types    =            3
     number of electrons       =       238.00
     number of Kohn-Sham states=          357
     kinetic-energy cutoff     =      40.0000  Ry
     charge density cutoff     =     500.0000  Ry
     convergence threshold     =      1.0E-06
     mixing beta               =       0.7000
     number of iterations used =            8  plain     mixing
     Exchange-correlation      = SLA  PW   PBE  PBE ( 1 4 3 4 0)
     EXX-fraction              =        0.00
     nstep                     =           50

     celldm(1)=  12.018658  celldm(2)=   0.000000  celldm(3)=   0.000000
     celldm(4)=   0.000000  celldm(5)=   0.000000  celldm(6)=   0.000000

     crystal axes: (cart. coord. in units of alat)
               a(1) = (   1.000000   0.000000   0.000000 )
               a(2) = (   0.000000   1.009517   0.000000 )
               a(3) = (   0.000000   0.000000   4.154171 )

     reciprocal axes: (cart. coord. in units 2 pi/alat)
               b(1) = (  1.000000  0.000000  0.000000 )
               b(2) = (  0.000000  0.990572  0.000000 )
               b(3) = (  0.000000  0.000000  0.240722 )

     PseudoPot. # 1 for O  read from file:
     /home/camp/zhonxu/pseudo/o_pbe_v1.01.uspp.F.UPF
     MD5 check sum: 2bcb18d16ea4b960afae9ec6d52f22d2
     Pseudo is Ultrasoft + core correction, Zval =  6.0
     Generated by new atomic code, or converted to UPF format
     Using radial grid of  737 points,  5 beta functions with:
                l(1) =   0
                l(2) =   0
                l(3) =   1
                l(4) =   1
                l(5) =   2
     Q(r) pseudized with  8 coefficients,  rinner =    0.900   0.900   0.900
                                                       0.900   0.900

     PseudoPot. # 2 for Ir read from file:
     /home/camp/zhonxu/pseudo/ir_pbe_v1.uspp.F.UPF
     MD5 check sum: abf987a9674477536ede83817f8f8b70
     Pseudo is Ultrasoft + core correction, Zval = 15.0
     Generated by new atomic code, or converted to UPF format
     Using radial grid of  983 points,  7 beta functions with:
                l(1) =   0
                l(2) =   0
                l(3) =   1
                l(4) =   1
                l(5) =   1
                l(6) =   2
                l(7) =   2
     Q(r) pseudized with  8 coefficients,  rinner =    1.350   1.350   1.350
                                                       1.350   1.350

     PseudoPot. # 3 for H  read from file:
     /home/camp/zhonxu/pseudo/h_pbe_v1.uspp.F.UPF
     MD5 check sum: 3408e3ff4ec8b0a4e358431e7e038a48
     Pseudo is Ultrasoft, Zval =  1.0
     Generated by new atomic code, or converted to UPF format
     Using radial grid of  615 points,  2 beta functions with:
                l(1) =   0
                l(2) =   0
     Q(r) pseudized with  8 coefficients,  rinner =    0.700

     atomic species   valence    mass     pseudopotential
        O0             6.00    15.99940     O ( 1.00)
        Ir1           15.00   192.22000     Ir( 1.00)
        H2             1.00     1.00794     H ( 1.00)

     Simplified LDA+U calculation (l_max = 2) with parameters (eV):
     atomic species    L          U    alpha       J0     beta
        Ir1            2     7.0000   0.0000   0.0000   0.0000

     No symmetry found

   Cartesian axes

     site n.     atom                  positions (alat units)
         1           O0  tau(   1) = (   0.0000000   0.0000000   1.5706091  )
         2           O0  tau(   2) = (   0.0000000   0.5047586   1.6747957  )
         3           Ir1 tau(   3) = (   0.2500000   0.5047586   1.8830443  )
         4           Ir1 tau(   4) = (   0.0000000   0.0000000   1.8812580  )
         5           O0  tau(   5) = (   0.2500000   0.8177090   1.8812996  )
         6           O0  tau(   6) = (   0.2500000   0.1918083   1.8799287  )
         7           O0  tau(   7) = (   0.0000000   0.5047586   2.0722253  )
         8           O0  tau(   8) = (   0.0000000   0.0000000   2.1948149  )
         9           Ir1 tau(   9) = (   0.2500000   0.0000000   2.3898532  )
        10           Ir1 tau(  10) = (   0.0000000   0.5047586   2.3761029  )
        11           O0  tau(  11) = (   0.2500000   0.6965669   2.3876930  )
        12           O0  tau(  12) = (   0.2500000   0.3129503   2.3878177  )
        13           O0  tau(  13) = (   0.0000000   0.0000000   2.5742569  )
        14           O0  tau(  14) = (   0.5000000   0.0000000   1.5702768  )
        15           O0  tau(  15) = (   0.5000000   0.5047586   1.6724694  )
        16           Ir1 tau(  16) = (   0.7500000   0.5047586   1.8830859  )
        17           Ir1 tau(  17) = (   0.5000000   0.0000000   1.8811334  )
        18           O0  tau(  18) = (   0.7500000   0.8177090   1.8813411  )
        19           O0  tau(  19) = (   0.7500000   0.1918083   1.8799702  )
        20           O0  tau(  20) = (   0.5000000   0.5047586   2.0802013  )
        21           O0  tau(  21) = (   0.5000000   0.0000000   2.1944825  )
        22           Ir1 tau(  22) = (   0.7500000   0.0000000   2.3898532  )
        23           Ir1 tau(  23) = (   0.5000000   0.5047586   2.4038943  )
        24           O0  tau(  24) = (   0.7500000   0.6965669   2.3876515  )
        25           O0  tau(  25) = (   0.7500000   0.3129503   2.3878177  )
        26           O0  tau(  26) = (   0.5000000   0.0000000   2.5734260  )
        27           H2  tau(  27) = (  -0.0000700   0.6394282   1.5957418  )
        28           H2  tau(  28) = (   0.4999700   0.6419823   1.5977358  )
        29           H2  tau(  29) = (   0.1436200   0.0342933   1.5227115  )
        30           H2  tau(  30) = (   0.6432900   0.0353230   1.5222545  )
        31           O0  tau(  31) = (   0.5000100   0.5042640   2.6822238  )

     number of k points=    10  Methfessel-Paxton smearing, width (Ry)=  0.0100
                       cart. coord. in units 2pi/alat
        k(    1) = (   0.0000000   0.0000000   0.0000000), wk =   0.1250000
        k(    2) = (   0.0000000   0.2476431   0.0000000), wk =   0.2500000
        k(    3) = (   0.0000000  -0.4952862   0.0000000), wk =   0.1250000
        k(    4) = (   0.2500000   0.0000000   0.0000000), wk =   0.2500000
        k(    5) = (   0.2500000   0.2476431   0.0000000), wk =   0.2500000
        k(    6) = (   0.2500000  -0.4952862   0.0000000), wk =   0.2500000
        k(    7) = (  -0.5000000   0.0000000   0.0000000), wk =   0.1250000
        k(    8) = (  -0.5000000   0.2476431   0.0000000), wk =   0.2500000
        k(    9) = (  -0.5000000  -0.4952862   0.0000000), wk =   0.1250000
        k(   10) = (  -0.2500000   0.2476431   0.0000000), wk =   0.2500000

     Largest allocated arrays     est. size (Mb)     dimensions
     Largest temporary arrays     est. size (Mb)     dimensions

     Check: negative/imaginary core charge=   -0.000003    0.000000

     Initial potential from superposition of free atoms
     Check: negative starting charge=   -3.336659

     starting charge  233.99968, renormalised to  238.00000

     negative rho (up, down):  0.339E+01 0.000E+00
     Number of +U iterations with fixed ns =  0
     Starting occupations:
 --- enter write_ns ---
 LDA+U parameters:
U( 2)     =  7.00000000
alpha( 2) =  0.00000000
atom    3   Tr[ns(na)] =   7.00000
    eigenvalues:
  0.700  0.700  0.700  0.700  0.700
    eigenvectors:
  1.000  0.000  0.000  0.000  0.000
  0.000  1.000  0.000  0.000  0.000
  0.000  0.000  1.000  0.000  0.000
  0.000  0.000  0.000  1.000  0.000
  0.000  0.000  0.000  0.000  1.000
    occupations:
  0.700  0.000  0.000  0.000  0.000
  0.000  0.700  0.000  0.000  0.000
  0.000  0.000  0.700  0.000  0.000
  0.000  0.000  0.000  0.700  0.000
  0.000  0.000  0.000  0.000  0.700
atom    4   Tr[ns(na)] =   7.00000
    eigenvalues:
  0.700  0.700  0.700  0.700  0.700
    eigenvectors:
  1.000  0.000  0.000  0.000  0.000
  0.000  1.000  0.000  0.000  0.000
  0.000  0.000  1.000  0.000  0.000
  0.000  0.000  0.000  1.000  0.000
  0.000  0.000  0.000  0.000  1.000
    occupations:
  0.700  0.000  0.000  0.000  0.000
  0.000  0.700  0.000  0.000  0.000
  0.000  0.000  0.700  0.000  0.000
  0.000  0.000  0.000  0.700  0.000
  0.000  0.000  0.000  0.000  0.700
atom    9   Tr[ns(na)] =   7.00000
    eigenvalues:
  0.700  0.700  0.700  0.700  0.700
    eigenvectors:
  1.000  0.000  0.000  0.000  0.000
  0.000  1.000  0.000  0.000  0.000
  0.000  0.000  1.000  0.000  0.000
  0.000  0.000  0.000  1.000  0.000
  0.000  0.000  0.000  0.000  1.000
    occupations:
  0.700  0.000  0.000  0.000  0.000
  0.000  0.700  0.000  0.000  0.000
  0.000  0.000  0.700  0.000  0.000
  0.000  0.000  0.000  0.700  0.000
  0.000  0.000  0.000  0.000  0.700
atom   10   Tr[ns(na)] =   7.00000
    eigenvalues:
  0.700  0.700  0.700  0.700  0.700
    eigenvectors:
  1.000  0.000  0.000  0.000  0.000
  0.000  1.000  0.000  0.000  0.000
  0.000  0.000  1.000  0.000  0.000
  0.000  0.000  0.000  1.000  0.000
  0.000  0.000  0.000  0.000  1.000
    occupations:
  0.700  0.000  0.000  0.000  0.000
  0.000  0.700  0.000  0.000  0.000
  0.000  0.000  0.700  0.000  0.000
  0.000  0.000  0.000  0.700  0.000
  0.000  0.000  0.000  0.000  0.700
atom   16   Tr[ns(na)] =   7.00000
    eigenvalues:
  0.700  0.700  0.700  0.700  0.700
    eigenvectors:
  1.000  0.000  0.000  0.000  0.000
  0.000  1.000  0.000  0.000  0.000
  0.000  0.000  1.000  0.000  0.000
  0.000  0.000  0.000  1.000  0.000
  0.000  0.000  0.000  0.000  1.000
    occupations:
  0.700  0.000  0.000  0.000  0.000
  0.000  0.700  0.000  0.000  0.000
  0.000  0.000  0.700  0.000  0.000
  0.000  0.000  0.000  0.700  0.000
  0.000  0.000  0.000  0.000  0.700
atom   17   Tr[ns(na)] =   7.00000
    eigenvalues:
  0.700  0.700  0.700  0.700  0.700
    eigenvectors:
  1.000  0.000  0.000  0.000  0.000
  0.000  1.000  0.000  0.000  0.000
  0.000  0.000  1.000  0.000  0.000
  0.000  0.000  0.000  1.000  0.000
  0.000  0.000  0.000  0.000  1.000
    occupations:
  0.700  0.000  0.000  0.000  0.000
  0.000  0.700  0.000  0.000  0.000
  0.000  0.000  0.700  0.000  0.000
  0.000  0.000  0.000  0.700  0.000
  0.000  0.000  0.000  0.000  0.700
atom   22   Tr[ns(na)] =   7.00000
    eigenvalues:
  0.700  0.700  0.700  0.700  0.700
    eigenvectors:
  1.000  0.000  0.000  0.000  0.000
  0.000  1.000  0.000  0.000  0.000
  0.000  0.000  1.000  0.000  0.000
  0.000  0.000  0.000  1.000  0.000
  0.000  0.000  0.000  0.000  1.000
    occupations:
  0.700  0.000  0.000  0.000  0.000
[...]
  0.000  0.000  0.945  0.055  0.000
  0.000  0.011  0.000  0.000  0.989
  0.999  0.000  0.000  0.000  0.000
    occupations:
  0.677 -0.003 -0.000  0.033  0.001
 -0.003  0.940  0.012  0.000 -0.002
 -0.000  0.012  0.894 -0.000  0.001
  0.033  0.000 -0.000  0.983  0.000
  0.001 -0.002  0.001  0.000  0.621
atom    9   Tr[ns(na)] =   8.22910
    eigenvalues:
  0.655  0.668  0.887  0.919  0.986
    eigenvectors:
  0.000  0.139  0.000  0.000  0.861
  0.999  0.001  0.000  0.000  0.000
  0.000  0.000  0.958  0.042  0.000
  0.001  0.860  0.000  0.000  0.139
  0.000  0.000  0.042  0.958  0.000
    occupations:
  0.942  0.001 -0.000 -0.110 -0.000
  0.001  0.655  0.001  0.000 -0.000
 -0.000  0.001  0.888 -0.000 -0.006
 -0.110  0.000 -0.000  0.712  0.001
 -0.000 -0.000 -0.006  0.001  0.918
atom   10   Tr[ns(na)] =   8.17208
    eigenvalues:
  0.570  0.610  0.956  0.963  0.986
    eigenvectors:
  0.990  0.000  0.000  0.000  0.010
  0.000  0.000  1.000  0.000  0.000
  0.000  0.000  0.000  1.000  0.000
  0.010  0.000  0.000  0.000  0.990
  0.000  1.000  0.000  0.000  0.000
    occupations:
  0.574  0.000  0.001  0.040 -0.000
  0.000  0.956 -0.000  0.000 -0.000
  0.001 -0.000  0.963  0.000  0.000
  0.040  0.000  0.000  0.982 -0.000
 -0.000 -0.000  0.000 -0.000  0.610
atom   16   Tr[ns(na)] =   8.23076
    eigenvalues:
  0.603  0.632  0.920  0.974  0.986
    eigenvectors:
  0.000  0.184  0.003  0.001  0.812
  1.000  0.000  0.000  0.000  0.000
  0.000  0.000  0.991  0.005  0.003
  0.000  0.816  0.000  0.000  0.184
  0.000  0.000  0.005  0.994  0.001
    occupations:
  0.920  0.002  0.002 -0.137  0.001
  0.002  0.604  0.000 -0.001 -0.005
  0.002  0.000  0.920 -0.004 -0.004
 -0.137 -0.001 -0.004  0.697 -0.000
  0.001 -0.005 -0.004 -0.000  0.974
atom   17   Tr[ns(na)] =   8.23104
    eigenvalues:
  0.621  0.673  0.897  0.938  0.987
    eigenvectors:
  0.001  0.989  0.000  0.000  0.011
  0.000  0.000  0.104  0.896  0.000
  0.000  0.000  0.896  0.104  0.000
  0.000  0.011  0.000  0.000  0.989
  0.999  0.001  0.000  0.000  0.000
    occupations:
  0.676 -0.003 -0.001  0.032  0.001
 -0.003  0.934  0.013  0.000 -0.002
 -0.001  0.013  0.901 -0.000  0.001
  0.032  0.000 -0.000  0.984  0.000
  0.001 -0.002  0.001  0.000  0.621
atom   22   Tr[ns(na)] =   8.22906
    eigenvalues:
  0.655  0.668  0.887  0.919  0.986
    eigenvectors:
  0.000  0.139  0.000  0.000  0.861
  1.000  0.000  0.000  0.000  0.000
  0.000  0.000  0.961  0.039  0.000
  0.000  0.861  0.000  0.000  0.139
  0.000  0.000  0.039  0.961  0.000
    occupations:
  0.942 -0.000 -0.000 -0.110 -0.000
 -0.000  0.655  0.001  0.000 -0.000
 -0.000  0.001  0.888 -0.000  0.006
 -0.110  0.000 -0.000  0.712  0.001
 -0.000 -0.000  0.006  0.001  0.918
atom   23   Tr[ns(na)] =   8.20253
    eigenvalues:
  0.660  0.726  0.839  0.888  0.988
    eigenvectors:
  0.000  0.990  0.000  0.000  0.010
  0.000  0.000  0.000  1.000  0.000
  0.000  0.000  1.000  0.000  0.000
  0.000  0.010  0.000  0.000  0.990
  1.000  0.000  0.000  0.000  0.000
    occupations:
  0.729  0.000 -0.000  0.026 -0.000
  0.000  0.888  0.000  0.000 -0.000
 -0.000  0.000  0.839  0.000  0.000
  0.026  0.000  0.000  0.986  0.000
 -0.000 -0.000  0.000  0.000  0.660
N of occupied +U levels =  65.7571284
 --- exit write_ns ---

     Threshold (ethr) on eigenvalues was too large:
     Diagonalizing with lowered threshold

     Davidson diagonalization with overlap
     ethr =  2.10E-08,  avg # of iterations =  2.0

[...]

     total energy              =   -2103.47182982 Ry
     Harris-Foulkes estimate   =   -2103.47182983 Ry
     estimated scf accuracy    <       0.00000011 Ry

     iteration # 14     ecut=    40.00 Ry     beta=0.70
     Davidson diagonalization with overlap
     ethr =  1.74E-11,  avg # of iterations =  1.0

     negative rho (up, down):  0.314E+01 0.000E+00

     End of self-consistent calculation
 --- enter write_ns ---
 LDA+U parameters:
U( 2)     =  7.00000000
alpha( 2) =  0.00000000
atom    3   Tr[ns(na)] =   8.23042
    eigenvalues:
  0.603  0.632  0.920  0.974  0.986
    eigenvectors:
  0.000  0.184  0.003  0.000  0.812
  0.999  0.000  0.000  0.000  0.000
  0.000  0.000  0.989  0.008  0.003
  0.000  0.816  0.000  0.000  0.184
  0.000  0.000  0.008  0.991  0.001
    occupations:
  0.920 -0.002  0.002 -0.137 -0.001
 -0.002  0.603 -0.001  0.001 -0.005
  0.002 -0.001  0.921 -0.004  0.005
 -0.137  0.001 -0.004  0.697 -0.000
 -0.001 -0.005  0.005 -0.000  0.974
atom    4   Tr[ns(na)] =   8.23095
    eigenvalues:
  0.621  0.673  0.891  0.943  0.987
    eigenvectors:
  0.000  0.988  0.000  0.000  0.011
  0.000  0.000  0.055  0.945  0.000
  0.000  0.000  0.945  0.055  0.000
  0.000  0.011  0.000  0.000  0.989
  0.999  0.000  0.000  0.000  0.000
    occupations:
  0.677 -0.003 -0.000  0.033  0.001
 -0.003  0.940  0.012  0.000 -0.002
 -0.000  0.012  0.894 -0.000  0.001
  0.033  0.000 -0.000  0.983  0.000
  0.001 -0.002  0.001  0.000  0.621
atom    9   Tr[ns(na)] =   8.22930
    eigenvalues:
  0.655  0.668  0.887  0.919  0.986
    eigenvectors:
  0.000  0.139  0.000  0.000  0.861
  0.999  0.001  0.000  0.000  0.000
  0.000  0.000  0.958  0.042  0.000
  0.001  0.860  0.000  0.000  0.139
  0.000  0.000  0.042  0.958  0.000
    occupations:
  0.942  0.001 -0.000 -0.110 -0.000
  0.001  0.655  0.001  0.000 -0.000
 -0.000  0.001  0.888 -0.000 -0.006
 -0.110  0.000 -0.000  0.712  0.001
 -0.000 -0.000 -0.006  0.001  0.918
atom   10   Tr[ns(na)] =   8.17255
    eigenvalues:
  0.571  0.610  0.956  0.963  0.986
    eigenvectors:
  0.990  0.000  0.000  0.000  0.010
  0.000  0.000  1.000  0.000  0.000
  0.000  0.000  0.000  1.000  0.000
  0.010  0.000  0.000  0.000  0.990
  0.000  1.000  0.000  0.000  0.000
    occupations:
  0.575  0.000  0.001  0.040 -0.000
  0.000  0.956 -0.000  0.000 -0.000
  0.001 -0.000  0.963  0.000  0.000
  0.040  0.000  0.000  0.982 -0.000
 -0.000 -0.000  0.000 -0.000  0.610
atom   16   Tr[ns(na)] =   8.23040
    eigenvalues:
  0.604  0.632  0.920  0.974  0.986
    eigenvectors:
  0.000  0.184  0.003  0.001  0.812
  1.000  0.000  0.000  0.000  0.000
  0.000  0.000  0.991  0.005  0.003
  0.000  0.816  0.000  0.000  0.184
  0.000  0.000  0.005  0.994  0.001
    occupations:
  0.920  0.002  0.002 -0.137  0.001
  0.002  0.604  0.000 -0.001 -0.005
  0.002  0.000  0.920 -0.004 -0.004
 -0.137 -0.001 -0.004  0.697 -0.000
  0.001 -0.005 -0.004 -0.000  0.974
atom   17   Tr[ns(na)] =   8.23057
    eigenvalues:
  0.621  0.673  0.897  0.938  0.987
    eigenvectors:
  0.001  0.989  0.000  0.000  0.011
  0.000  0.000  0.104  0.896  0.000
  0.000  0.000  0.896  0.104  0.000
  0.000  0.011  0.000  0.000  0.989
  0.999  0.001  0.000  0.000  0.000
    occupations:
  0.676 -0.003 -0.001  0.032  0.001
 -0.003  0.934  0.013  0.000 -0.002
 -0.001  0.013  0.901 -0.000  0.001
  0.032  0.000 -0.000  0.984  0.000
  0.001 -0.002  0.001  0.000  0.621
atom   22   Tr[ns(na)] =   8.22924
    eigenvalues:
  0.655  0.668  0.887  0.919  0.986
    eigenvectors:
  0.000  0.139  0.000  0.000  0.861
  1.000  0.000  0.000  0.000  0.000
  0.000  0.000  0.961  0.039  0.000
  0.000  0.861  0.000  0.000  0.139
  0.000  0.000  0.039  0.961  0.000
    occupations:
  0.942 -0.000 -0.000 -0.110 -0.000
 -0.000  0.655  0.001  0.000 -0.000
 -0.000  0.001  0.888 -0.000  0.006
 -0.110  0.000 -0.000  0.712  0.001
 -0.000 -0.000  0.006  0.001  0.918
atom   23   Tr[ns(na)] =   8.20324
    eigenvalues:
  0.660  0.726  0.839  0.888  0.988
    eigenvectors:
  0.000  0.990  0.000  0.000  0.010
  0.000  0.000  0.000  1.000  0.000
  0.000  0.000  1.000  0.000  0.000
  0.000  0.010  0.000  0.000  0.990
  1.000  0.000  0.000  0.000  0.000
    occupations:
  0.729  0.000 -0.000  0.026 -0.000
  0.000  0.888  0.000  0.000 -0.000
 -0.000  0.000  0.839  0.000  0.000
  0.026  0.000  0.000  0.986  0.000
 -0.000 -0.000  0.000  0.000  0.660
N of occupied +U levels =  65.7566767
 --- exit write_ns ---

[...]

          k = 0.2500-0.4953 0.0000 ( 31088 PWs)   bands (ev):

[...]

          k =-0.2500 0.2476 0.0000 ( 31099 PWs)   bands (ev):

   -51.7347 -51.4400 -51.3130 -50.4690 -50.4642 -50.4597 -50.4141 -50.3959
   -50.3950 -50.3845 -50.3726 -50.3619 -50.3168 -50.2361 -50.2057 -50.1211
   -50.1004 -50.0959 -50.0499 -50.0220 -50.0005 -49.9893 -49.9760 -49.9651
   -21.6565 -21.5358 -21.3786 -21.2626 -21.0793 -20.9761 -20.9391 -20.7457
   -20.6940 -20.6389 -20.5144 -20.4144 -20.2894 -20.1935 -20.1358 -19.9488
   -19.4230 -19.2352 -19.0828 -11.2471 -11.0482 -10.7067 -10.6815 -10.4670
   -10.3549 -10.2135 -10.1223  -9.8709  -9.4486  -9.3340  -9.2451  -9.1535
    -8.9640  -8.8832  -8.6885  -8.5985  -8.5493  -8.4028  -8.2079  -7.9849
    -7.8525  -7.8111  -7.6805  -7.6402  -7.5312  -7.4158  -7.3007  -7.2291
    -7.1261  -6.9267  -6.8289  -6.7610  -6.6495  -6.5932  -6.5320  -6.4443
    -6.3474  -6.2414  -6.1608  -5.9433  -5.8860  -5.6500  -5.4394  -5.3371
    -5.2445  -5.0538  -4.9670  -4.8053  -4.7708  -4.6056  -4.4261  -4.4070
    -4.1597  -4.0962  -4.0590  -3.9742  -3.7798  -3.7144  -3.6974  -3.5662
    -3.4722  -3.4305  -3.3598  -3.3346  -3.2112  -3.0934  -3.0099  -2.9391
    -2.7760  -2.3576  -2.2396  -2.0759  -1.9714  -1.7468  -1.5474  -1.4125
    -1.3704  -1.1851  -1.0955  -0.8527  -0.1014   0.4884   0.8491   1.2072
     1.4491   1.6452   1.9547   2.1994   2.4396   2.6108   2.6576   2.8388
     2.9643   3.1657   3.2117   3.6147   3.7550   4.5830   4.8153   5.2952
     5.4314   5.5262   5.5725   6.1838   6.4363   6.5241   6.6507   6.7514
     6.8228   6.9309   7.1355   7.2821   7.3654   7.4222   7.5744   7.8189
     7.9138   8.0158   8.0852   8.1534   8.3210   8.4406   8.4657   8.4910
     8.5491   8.8002   8.8549   8.9306   9.0288   9.1228   9.2151   9.3440
     9.4642   9.5360   9.5448   9.5495   9.5688   9.6164   9.6181   9.6424
     9.7162   9.7777   9.7803   9.7926   9.9272  10.0054  10.0443  10.1685
    10.2480  10.3552  10.4075  10.4588  10.5080  10.5331  10.6851  10.8356
    10.8980  11.0394  11.0866  11.1311  11.1685  11.3266  11.4423  11.5506
    11.6134  11.6741  11.7842  11.8006  11.8489  12.0338  12.1556  12.2020
    12.2610  12.3334  12.4042  12.4930  12.6189  12.6467  12.7079  12.7245
    12.8217  12.8805  12.9530  13.0084  13.1031  13.1515  13.1991  13.2618
    13.3500  13.4286  13.5035  13.6254  13.7090  13.8741  13.9130  13.9387
    14.0437  14.0977  14.1973  14.2841  14.3239  14.4321  14.4571  14.5954
    14.7139  14.8012  14.8558  14.9482  15.0912  15.1730  15.2350  15.3759
    15.4065  15.5111  15.5681  15.6104  15.6757  15.7773  15.7900  15.8825
    15.9452  16.0013  16.0520  16.1200  16.1917  16.2243  16.3388  16.3727
    16.4122  16.4340  16.5002  16.5620  16.6372  16.7164  16.7448  16.7875
    16.8229  16.9694  17.1550  17.1792  17.2271  17.3285  17.3493  17.4571
    17.5017  17.5434  17.5718  17.6707  17.7440  17.7731  17.8567  17.9256
    17.9628  18.0044  18.0269  18.1771  18.2222  18.2670  18.3487  18.4948
    18.5674  18.6110  18.6509  18.7146  18.8067  18.8890  18.9746  19.0115
    19.0656  19.1360  19.1809  19.2748  19.2922  19.3497  19.4039  19.5869
    19.6240  19.6678  19.6967  19.7905  19.8911  19.9722  20.0346  20.0732
    20.2127  20.2743  20.3645  20.4162  20.4915  20.5687  20.6289  20.6987
    20.7453  20.7951  20.8771  20.8963  20.9308  20.9844  21.0773  21.1851
    21.2862  21.3248  21.3684  21.4173  21.4762  21.5231  21.5731  21.6805
    21.7690  21.8320  21.8606  21.8918  21.9257

     the Fermi energy is    -1.5635 ev

!    total energy              =   -2103.47182982 Ry
     Harris-Foulkes estimate   =   -2103.47182983 Ry
     estimated scf accuracy    <          4.6E-09 Ry

     The total energy is the sum of the following terms:

     one-electron contribution =  -22761.16319972 Ry
     hartree contribution      =   11424.22963797 Ry
     xc contribution           =    -576.41699150 Ry
     ewald contribution        =    9807.34567431 Ry
     Hubbard energy            =       2.53321423 Ry
     smearing contrib. (-TS)   =      -0.00016511 Ry

     convergence has been achieved in  14 iterations

     Forces acting on atoms (Ry/au):

     negative rho (up, down):  0.314E+01 0.000E+00
     atom    1 type  1   force =    -0.00705216   -0.01211715    0.00002318
     atom    2 type  1   force =    -0.00004947    0.00155660   -0.00003005
     atom    3 type  2   force =     0.03158236    0.00857555    0.00037751
     atom    4 type  2   force =     0.00903839    0.00793028   -0.00007741
     atom    5 type  1   force =    -0.00471067   -0.01342704   -0.00023236
     atom    6 type  1   force =     0.00833673    0.01112853   -0.00005009
     atom    7 type  1   force =    -0.00040775   -0.00249135   -0.00086976
     atom    8 type  1   force =    -0.00346902   -0.00072753   -0.00006203
     atom    9 type  2   force =     0.00626787    0.00059771    0.00011147
     atom   10 type  2   force =    -0.00000625   -0.00088224   -0.00082358
     atom   11 type  1   force =     0.01364816    0.00911468   -0.00000755
     atom   12 type  1   force =     0.01295219   -0.00974404   -0.00005177
     atom   13 type  1   force =    -0.00084211   -0.00004532    0.00008703
     atom   14 type  1   force =    -0.00784807   -0.01289702   -0.00022326
     atom   15 type  1   force =     0.00006582    0.00191501   -0.00048909
     atom   16 type  2   force =    -0.03154554    0.00704978    0.00038150
     atom   17 type  2   force =     0.00903540    0.00815574   -0.00010301
     atom   18 type  1   force =    -0.00628103   -0.01256698   -0.00021207
     atom   19 type  1   force =     0.00584781    0.01205442   -0.00007795
     atom   20 type  1   force =    -0.00022539   -0.00541317    0.00078503
     atom   21 type  1   force =    -0.00323964   -0.00048817   -0.00025097
     atom   22 type  2   force =    -0.00388981    0.00053553    0.00011138
     atom   23 type  2   force =    -0.00006772    0.00055359    0.00055133
     atom   24 type  1   force =    -0.01356389    0.00917539   -0.00001333
     atom   25 type  1   force =    -0.01281126   -0.00969219   -0.00005014
     atom   26 type  1   force =    -0.00072789   -0.00012327   -0.00004820
     atom   27 type  3   force =     0.00000419    0.00051483    0.00055497
     atom   28 type  3   force =     0.00002409    0.00091131    0.00050968
     atom   29 type  3   force =    -0.00003870    0.00019999    0.00014293
     atom   30 type  3   force =    -0.00001993    0.00070520    0.00015920
     atom   31 type  1   force =    -0.00000671   -0.00005864   -0.00012258

     Total force =     0.002331     Total SCF correction =     0.000154

     bfgs converged in   9 scf cycles and   8 bfgs steps
     (criteria: energy < 0.10E-03, force < 0.10E-02)

     End of BFGS Geometry Optimization

     Final energy   =   -2103.4718298230 Ry
Begin final coordinates

ATOMIC_POSITIONS (crystal)
O0       0.000000000   0.000000000   0.378498318    0   0   1
O0       0.000000000   0.500000000   0.403848914    0   0   1
Ir1      0.250000000   0.500000000   0.453553972    0   0   1
Ir1      0.000000000   0.000000000   0.452882782    0   0   1
O0       0.250000000   0.810000000   0.453195792    0   0   1
O0       0.250000000   0.190000000   0.452685185    0   0   1
O0       0.000000000   0.500000000   0.499590012    0   0   1
O0       0.000000000   0.000000000   0.528003451    0   0   1
Ir1      0.250000000   0.000000000   0.574602472    0   0   1
Ir1      0.000000000   0.500000000   0.572170197    0   0   1
O0       0.250000000   0.690000000   0.574199241    0   0   1
O0       0.250000000   0.310000000   0.574215330    0   0   1
O0       0.000000000   0.000000000   0.619016739    0   0   1
O0       0.500000000   0.000000000   0.378422066    0   0   1
O0       0.500000000   0.500000000   0.403316580    0   0   1
Ir1      0.750000000   0.500000000   0.453559738    0   0   1
Ir1      0.500000000   0.000000000   0.452889769    0   0   1
O0       0.750000000   0.810000000   0.453216400    0   0   1
O0       0.750000000   0.190000000   0.452688683    0   0   1
O0       0.500000000   0.500000000   0.501757888    0   0   1
O0       0.500000000   0.000000000   0.528072966    0   0   1
Ir1      0.750000000   0.000000000   0.574608281    0   0   1
Ir1      0.500000000   0.500000000   0.577538551    0   0   1
O0       0.750000000   0.690000000   0.574197994    0   0   1
O0       0.750000000   0.310000000   0.574220468    0   0   1
O0       0.500000000   0.000000000   0.619083728    0   0   1
H2      -0.000222954   0.632615597   0.384712949
H2       0.499829896   0.635266483   0.385322860
H2       0.143364057   0.034502588   0.366834866
H2       0.642693886   0.036462002   0.366705511
O0       0.500006301   0.499305069   0.644448296
End final coordinates

     General routines

     Parallel routines
     Hubbard U routines

   This run was terminated on:  14:56:40  29Apr2014

   JOB DONE.