     Program PWSCF v.5.0.2 (svn rev. 9656) starts on 25May2014 at  6:35:16

     Current dimensions of program PWSCF are:
     Max number of different atomic species (ntypx) = 10
     Max number of k-points (npk) =  40000
     Max angular momentum in pseudopotentials (lmaxx) =  3
     Reading input from pwscf.in
Warning: card &CELL ignored
Warning: card / ignored

     Subspace diagonalization in iterative solution of the eigenvalue problem:
     a serial algorithm will be used

     bravais-lattice index     =            0
     lattice parameter (alat)  =      10.9604  a.u.
     unit-cell volume          =    6350.6732 (a.u.)^3
     number of atoms/cell      =           30
     number of atomic types    =            3
     number of electrons       =       224.00 (up: 120.00, down: 104.00)
     number of Kohn-Sham states=          324
     kinetic-energy cutoff     =      40.0000  Ry
     charge density cutoff     =     500.0000  Ry
     convergence threshold     =      1.0E-06
     mixing beta               =       0.7000
     number of iterations used =            8  plain     mixing
     Exchange-correlation      = SLA  PW   PBE  PBE ( 1 4 3 4 0)
     EXX-fraction              =        0.00
     nstep                     =           50

     celldm(1)=  10.960412  celldm(2)=   0.000000  celldm(3)=   0.000000
     celldm(4)=   0.000000  celldm(5)=   0.000000  celldm(6)=   0.000000

     crystal axes: (cart. coord. in units of alat)
               a(1) = (   1.000000   0.000000   0.000000 )
               a(2) = (   0.000000   1.067975   0.000000 )
               a(3) = (   0.000000   0.000000   4.516251 )

     reciprocal axes: (cart. coord. in units 2 pi/alat)
               b(1) = (  1.000000  0.000000  0.000000 )
               b(2) = (  0.000000  0.936351  0.000000 )
               b(3) = (  0.000000  0.000000  0.221423 )

     PseudoPot. # 1 for O  read from file:
     /home/camp/zhonxu/pseudo/o_pbe_v1.01.uspp.F.UPF
     MD5 check sum: 2bcb18d16ea4b960afae9ec6d52f22d2
     Pseudo is Ultrasoft + core correction, Zval =  6.0
     Generated by new atomic code, or converted to UPF format
     Using radial grid of  737 points,  5 beta functions with:
                l(1) =   0
                l(2) =   0
                l(3) =   1
                l(4) =   1
                l(5) =   2
     Q(r) pseudized with  8 coefficients,  rinner =    0.900   0.900   0.900
                                                       0.900   0.900

     PseudoPot. # 2 for Cr read from file:
     /home/camp/zhonxu/pseudo/cr_pbe_v1.uspp.F.UPF
     MD5 check sum: 68b6f918d1762dccfb11451fe85b0e0e
     Pseudo is Ultrasoft + core correction, Zval = 14.0
     Generated by new atomic code, or converted to UPF format
     Using radial grid of  857 points,  6 beta functions with:
                l(1) =   0
                l(2) =   0
                l(3) =   1
                l(4) =   1
                l(5) =   2
                l(6) =   2
     Q(r) pseudized with  6 coefficients,  rinner =    1.000   1.000   1.000
                                                       1.000   1.000

     PseudoPot. # 3 for H  read from file:
     /home/camp/zhonxu/pseudo/h_pbe_v1.uspp.F.UPF
     MD5 check sum: 3408e3ff4ec8b0a4e358431e7e038a48
     Pseudo is Ultrasoft, Zval =  1.0
     Generated by new atomic code, or converted to UPF format
     Using radial grid of  615 points,  2 beta functions with:
                l(1) =   0
                l(2) =   0
     Q(r) pseudized with  8 coefficients,  rinner =    0.700

     atomic species   valence    mass     pseudopotential
        O0             6.00    15.99940     O ( 1.00)
        Cr1           14.00    51.99600     Cr( 1.00)
        H2             1.00     1.00794     H ( 1.00)

     Starting magnetic structure
     atomic species   magnetization
        O0           0.000
        Cr1          0.600
        H2           0.000

     Simplified LDA+U calculation (l_max = 2) with parameters (eV):
     atomic species    L          U    alpha       J0     beta
        Cr1            2     4.0000   0.0000   0.0000   0.0000

     No symmetry found

   Cartesian axes

     site n.     atom                  positions (alat units)
         1           O0  tau(   1) = (   0.0000000   0.0000000   1.7131495  )
         2           O0  tau(   2) = (   0.0000000   0.5339875   1.7889322  )
         3           Cr1 tau(   3) = (   0.2500000   0.5339875   2.0234611  )
         4           Cr1 tau(   4) = (   0.0000000   0.0000000   2.0424745  )
         5           O0  tau(   5) = (   0.2500000   0.8543801   2.0367388  )
         6           O0  tau(   6) = (   0.2500000   0.2135950   2.0368292  )
         7           O0  tau(   7) = (   0.0000000   0.5339875   2.2439896  )
         8           O0  tau(   8) = (   0.0000000   0.0000000   2.3776706  )
         9           Cr1 tau(   9) = (   0.2500000   0.0000000   2.6105737  )
        10           Cr1 tau(  10) = (   0.0000000   0.5339875   2.5584562  )
        11           O0  tau(  11) = (   0.2500000   0.7475825   2.5995089  )
        12           O0  tau(  12) = (   0.2500000   0.3203925   2.6000508  )
        13           O0  tau(  13) = (   0.0000000   0.0000000   2.8116823  )
        14           O0  tau(  14) = (   0.5000000   0.0000000   1.7131946  )
        15           O0  tau(  15) = (   0.5000000   0.5339875   1.7889322  )
        16           Cr1 tau(  16) = (   0.7500000   0.5339875   2.0235966  )
        17           Cr1 tau(  17) = (   0.5000000   0.0000000   2.0425648  )
        18           O0  tau(  18) = (   0.7500000   0.8543801   2.0366937  )
        19           O0  tau(  19) = (   0.7500000   0.2135950   2.0368292  )
        20           O0  tau(  20) = (   0.5000000   0.5339875   2.2439896  )
        21           O0  tau(  21) = (   0.5000000   0.0000000   2.3777610  )
        22           Cr1 tau(  22) = (   0.7500000   0.0000000   2.6266515  )
        23           Cr1 tau(  23) = (   0.5000000   0.5339875   2.5584562  )
        24           O0  tau(  24) = (   0.7500000   0.7475825   2.6005928  )
        25           O0  tau(  25) = (   0.7500000   0.3203925   2.6010896  )
        26           O0  tau(  26) = (   0.5000000   0.0000000   2.8115469  )
        27           H2  tau(  27) = (  -0.0007300   0.6809516   1.7015427  )
        28           H2  tau(  28) = (   0.4993000   0.6809516   1.7015427  )
        29           H2  tau(  29) = (   0.1581600   0.0315693   1.6564254  )
        30           H2  tau(  30) = (   0.6581100   0.0315800   1.6563802  )

     number of k points=    20  Methfessel-Paxton smearing, width (Ry)=  0.0100
                       cart. coord. in units 2pi/alat
        k(    1) = (   0.0000000   0.0000000   0.0000000), wk =   0.0625000
        k(    2) = (   0.0000000   0.2340879   0.0000000), wk =   0.1250000
        k(    3) = (   0.0000000  -0.4681757   0.0000000), wk =   0.0625000
        k(    4) = (   0.2500000   0.0000000   0.0000000), wk =   0.1250000
        k(    5) = (   0.2500000   0.2340879   0.0000000), wk =   0.1250000
        k(    6) = (   0.2500000  -0.4681757   0.0000000), wk =   0.1250000
        k(    7) = (  -0.5000000   0.0000000   0.0000000), wk =   0.0625000
        k(    8) = (  -0.5000000   0.2340879   0.0000000), wk =   0.1250000
        k(    9) = (  -0.5000000  -0.4681757   0.0000000), wk =   0.0625000
        k(   10) = (  -0.2500000   0.2340879   0.0000000), wk =   0.1250000
        k(   11) = (   0.0000000   0.0000000   0.0000000), wk =   0.0625000
        k(   12) = (   0.0000000   0.2340879   0.0000000), wk =   0.1250000
        k(   13) = (   0.0000000  -0.4681757   0.0000000), wk =   0.0625000
        k(   14) = (   0.2500000   0.0000000   0.0000000), wk =   0.1250000
        k(   15) = (   0.2500000   0.2340879   0.0000000), wk =   0.1250000
        k(   16) = (   0.2500000  -0.4681757   0.0000000), wk =   0.1250000
        k(   17) = (  -0.5000000   0.0000000   0.0000000), wk =   0.0625000
        k(   18) = (  -0.5000000   0.2340879   0.0000000), wk =   0.1250000
        k(   19) = (  -0.5000000  -0.4681757   0.0000000), wk =   0.0625000
        k(   20) = (  -0.2500000   0.2340879   0.0000000), wk =   0.1250000

     Largest allocated arrays     est. size (Mb)     dimensions
     Largest temporary arrays     est. size (Mb)     dimensions

     Check: negative/imaginary core charge=   -0.000012    0.000000

     Initial potential from superposition of free atoms
     Check: negative starting charge=(component1):   -0.001579
     Check: negative starting charge=(component2):   -0.000509

     starting charge  215.99984, renormalised to  224.00000

     negative rho (up, down):  0.164E-02 0.528E-03
     Number of +U iterations with fixed ns =  0
     Starting occupations:
 --- enter write_ns ---
 LDA+U parameters:
U( 2)     =  4.00000000
alpha( 2) =  0.00000000
atom    3   Tr[ns(na)] (up, down, total) =   5.00000  0.00000  5.00000
   spin  1
    eigenvalues:
  1.000  1.000  1.000  1.000  1.000
    eigenvectors:
  1.000  0.000  0.000  0.000  0.000
  0.000  1.000  0.000  0.000  0.000
  0.000  0.000  1.000  0.000  0.000
  0.000  0.000  0.000  1.000  0.000
  0.000  0.000  0.000  0.000  1.000
    occupations:
  1.000  0.000  0.000  0.000  0.000
  0.000  1.000  0.000  0.000  0.000
  0.000  0.000  1.000  0.000  0.000
  0.000  0.000  0.000  1.000  0.000
  0.000  0.000  0.000  0.000  1.000
   spin  2
    eigenvalues:
  0.000  0.000  0.000  0.000  0.000
    eigenvectors:
  1.000  0.000  0.000  0.000  0.000
  0.000  1.000  0.000  0.000  0.000
  0.000  0.000  1.000  0.000  0.000
  0.000  0.000  0.000  1.000  0.000
  0.000  0.000  0.000  0.000  1.000
    occupations:
  0.000  0.000  0.000  0.000  0.000
  0.000  0.000  0.000  0.000  0.000
  0.000  0.000  0.000  0.000  0.000
  0.000  0.000  0.000  0.000  0.000
  0.000  0.000  0.000  0.000  0.000
atomic mag. moment =     5.000000
atom    4   Tr[ns(na)] (up, down, total) =   5.00000  0.00000  5.00000
   spin  1
    eigenvalues:
  1.000  1.000  1.000  1.000  1.000
    eigenvectors:
  1.000  0.000  0.000  0.000  0.000
  0.000  1.000  0.000  0.000  0.000
  0.000  0.000  1.000  0.000  0.000
  0.000  0.000  0.000  1.000  0.000
  0.000  0.000  0.000  0.000  1.000
    occupations:
  1.000  0.000  0.000  0.000  0.000
  0.000  1.000  0.000  0.000  0.000
  0.000  0.000  1.000  0.000  0.000
  0.000  0.000  0.000  1.000  0.000
  0.000  0.000  0.000  0.000  1.000
   spin  2
    eigenvalues:
  0.000  0.000  0.000  0.000  0.000
    eigenvectors:
  1.000  0.000  0.000  0.000  0.000
  0.000  1.000  0.000  0.000  0.000
  0.000  0.000  1.000  0.000  0.000
  0.000  0.000  0.000  1.000  0.000
  0.000  0.000  0.000  0.000  1.000
    occupations:
  0.000  0.000  0.000  0.000  0.000
  0.000  0.000  0.000  0.000  0.000
  0.000  0.000  0.000  0.000  0.000
  0.000  0.000  0.000  0.000  0.000
  0.000  0.000  0.000  0.000  0.000
atomic mag. moment =     5.000000
atom    9   Tr[ns(na)] (up, down, total) =   5.00000  0.00000  5.00000
   spin  1
    eigenvalues:
  1.000  1.000  1.000  1.000  1.000
    eigenvectors:
  1.000  0.000  0.000  0.000  0.000
  0.000  1.000  0.000  0.000  0.000
  0.000  0.000  1.000  0.000  0.000
[...]
   spin  2
    eigenvalues:
  0.081  0.101  0.118  0.319  0.354
    eigenvectors:
  0.748  0.000  0.025  0.000  0.227
  0.000  0.002  0.000  0.998  0.000
  0.028  0.000  0.972  0.000  0.000
  0.223  0.000  0.004  0.000  0.773
  0.000  0.998  0.000  0.002  0.000
    occupations:
  0.144 -0.000 -0.003  0.114 -0.000
 -0.000  0.319 -0.000 -0.000  0.010
 -0.003 -0.000  0.117  0.007  0.000
  0.114 -0.000  0.007  0.292 -0.000
 -0.000  0.010  0.000 -0.000  0.101
atomic mag. moment =     2.663078
atom    4   Tr[ns(na)] (up, down, total) =   3.58730  1.03427  4.62156
   spin  1
    eigenvalues:
  0.484  0.532  0.676  0.906  0.989
    eigenvectors:
  0.002  0.993  0.000  0.001  0.004
  0.000  0.001  0.013  0.985  0.000
  0.000  0.000  0.987  0.013  0.000
  0.000  0.004  0.000  0.000  0.995
  0.998  0.002  0.000  0.000  0.000
    occupations:
  0.535 -0.012 -0.002  0.030  0.002
 -0.012  0.903  0.026  0.003  0.000
 -0.002  0.026  0.679  0.000 -0.001
  0.030  0.003  0.000  0.986 -0.000
  0.002  0.000 -0.001 -0.000  0.484
   spin  2
    eigenvalues:
  0.091  0.107  0.126  0.350  0.361
    eigenvectors:
  0.004  0.002  0.000  0.007  0.988
  0.003  0.926  0.069  0.000  0.002
  0.000  0.069  0.931  0.000  0.000
  0.992  0.004  0.000  0.000  0.004
  0.000  0.000  0.000  0.993  0.007
    occupations:
  0.359  0.011  0.002 -0.017  0.001
  0.011  0.109 -0.005  0.000 -0.000
  0.002 -0.005  0.125  0.000 -0.000
 -0.017  0.000  0.000  0.092  0.000
  0.001 -0.000 -0.000  0.000  0.350
atomic mag. moment =     2.553027
atom    9   Tr[ns(na)] (up, down, total) =   3.59247  1.06680  4.65926
   spin  1
    eigenvalues:
  0.504  0.521  0.681  0.899  0.986
    eigenvectors:
  0.001  0.187  0.000  0.000  0.812
  0.995  0.005  0.000  0.000  0.000
  0.000  0.000  1.000  0.000  0.000
  0.004  0.808  0.000  0.000  0.188
  0.000  0.000  0.000  1.000  0.000
    occupations:
  0.899  0.001 -0.001 -0.182 -0.000
  0.001  0.505  0.003  0.001 -0.000
 -0.001  0.003  0.681 -0.000 -0.001
 -0.182  0.001 -0.000  0.608  0.001
 -0.000 -0.000 -0.001  0.001  0.899
   spin  2
    eigenvalues:
  0.099  0.120  0.128  0.352  0.368
    eigenvectors:
  0.804  0.000  0.000  0.000  0.195
  0.000  0.000  0.000  1.000  0.000
  0.000  0.000  1.000  0.000  0.000
  0.196  0.000  0.000  0.000  0.804
  0.000  1.000  0.000  0.000  0.000
    occupations:
  0.151 -0.000  0.000  0.107 -0.000
 -0.000  0.352 -0.000 -0.000  0.000
  0.000 -0.000  0.128  0.000  0.000
  0.107 -0.000  0.000  0.315 -0.000
 -0.000  0.000  0.000 -0.000  0.120
atomic mag. moment =     2.525672
atom   10   Tr[ns(na)] (up, down, total) =   3.69542  0.88706  4.58247
   spin  1
    eigenvalues:
  0.455  0.475  0.861  0.923  0.983
    eigenvectors:
  0.998  0.000  0.000  0.000  0.002
  0.000  0.000  0.000  0.963  0.036
  0.000  0.000  0.999  0.000  0.000
  0.001  0.000  0.000  0.036  0.962
  0.000  1.000  0.000  0.000  0.000
    occupations:
  0.456 -0.008  0.000  0.021 -0.000
 -0.008  0.925 -0.001 -0.011 -0.000
  0.000 -0.001  0.861  0.000  0.008
  0.021 -0.011  0.000  0.980  0.000
 -0.000 -0.000  0.008  0.000  0.475
   spin  2
    eigenvalues:
  0.082  0.112  0.114  0.252  0.328
    eigenvectors:
  0.010  0.000  0.000  0.990  0.000
  0.001  0.000  0.999  0.000  0.000
  0.000  1.000  0.000  0.000  0.000
  0.989  0.000  0.001  0.010  0.000
  0.000  0.000  0.000  0.000  1.000
    occupations:
  0.250 -0.000 -0.000 -0.017 -0.000
 -0.000  0.114  0.000  0.001  0.000
 -0.000  0.000  0.113 -0.000  0.003
 -0.017  0.001 -0.000  0.084 -0.000
 -0.000  0.000  0.003 -0.000  0.327
atomic mag. moment =     2.808362
atom   16   Tr[ns(na)] (up, down, total) =   3.63390  0.97718  4.61108
   spin  1
    eigenvalues:
  0.456  0.503  0.737  0.952  0.986
    eigenvectors:
  0.000  0.229  0.003  0.000  0.768
  0.999  0.000  0.000  0.001  0.000
  0.000  0.000  0.997  0.000  0.003
  0.000  0.771  0.001  0.000  0.229
  0.001  0.000  0.000  0.999  0.000
    occupations:
  0.875 -0.000  0.013 -0.203 -0.000
 -0.000  0.456  0.000 -0.000 -0.011
  0.013  0.000  0.738 -0.007  0.002
 -0.203 -0.000 -0.007  0.613 -0.001
 -0.000 -0.011  0.002 -0.001  0.952
   spin  2
    eigenvalues:
  0.082  0.101  0.118  0.321  0.355
    eigenvectors:
  0.747  0.000  0.026  0.000  0.227
  0.000  0.002  0.000  0.998  0.000
  0.029  0.000  0.970  0.000  0.000
  0.223  0.000  0.004  0.000  0.772
  0.000  0.998  0.000  0.002  0.000
    occupations:
  0.145 -0.000 -0.003  0.114 -0.000
 -0.000  0.320 -0.000 -0.000  0.010
 -0.003 -0.000  0.117  0.007  0.000
  0.114 -0.000  0.007  0.293 -0.000
 -0.000  0.010  0.000 -0.000  0.102
atomic mag. moment =     2.656715
atom   17   Tr[ns(na)] (up, down, total) =   3.58834  1.03257  4.62090
   spin  1
    eigenvalues:
  0.484  0.532  0.676  0.908  0.988
    eigenvectors:
  0.002  0.992  0.000  0.001  0.005
  0.000  0.001  0.013  0.985  0.000
  0.000  0.000  0.986  0.013  0.000
  0.000  0.005  0.000  0.000  0.995
  0.998  0.002  0.000  0.000  0.000
    occupations:
  0.535 -0.014 -0.003  0.031  0.002
 -0.014  0.905  0.026  0.001  0.000
 -0.003  0.026  0.679  0.001  0.002
  0.031  0.001  0.001  0.986 -0.000
  0.002  0.000  0.002 -0.000  0.484
   spin  2
    eigenvalues:
  0.091  0.107  0.125  0.350  0.360
    eigenvectors:
  0.004  0.002  0.000  0.007  0.987
  0.005  0.922  0.070  0.000  0.002
  0.000  0.070  0.930  0.000  0.000
  0.990  0.006  0.000  0.000  0.004
  0.000  0.000  0.000  0.993  0.007
    occupations:
  0.358  0.012  0.002 -0.017  0.001
  0.012  0.109 -0.005  0.000 -0.000
  0.002 -0.005  0.124  0.000  0.000
 -0.017  0.000  0.000  0.092  0.000
  0.001 -0.000  0.000  0.000  0.350
atomic mag. moment =     2.555769
atom   22   Tr[ns(na)] (up, down, total) =   3.33847  1.41832  4.75679
   spin  1
    eigenvalues:
  0.556  0.567  0.592  0.794  0.830
    eigenvectors:
  0.579  0.004  0.416  0.000  0.000
  0.019  0.977  0.004  0.000  0.000
  0.000  0.000  0.000  0.000  1.000
  0.402  0.018  0.580  0.000  0.000
  0.000  0.000  0.000  0.999  0.000
    occupations:
  0.571  0.002 -0.001 -0.018  0.003
  0.002  0.567  0.001 -0.000 -0.000
 -0.001  0.001  0.830 -0.000 -0.001
 -0.018 -0.000 -0.000  0.577 -0.001
  0.003 -0.000 -0.001 -0.001  0.794
   spin  2
    eigenvalues:
  0.159  0.193  0.221  0.422  0.424
    eigenvectors:
  0.000  0.000  0.945  0.055  0.000
  0.000  0.000  0.000  0.001  0.999
  1.000  0.000  0.000  0.000  0.000
  0.000  0.000  0.055  0.945  0.001
  0.000  1.000  0.000  0.000  0.000
    occupations:
  0.232 -0.000  0.000  0.046 -0.000
 -0.000  0.424 -0.000  0.000  0.000
  0.000 -0.000  0.159  0.000  0.000
  0.046  0.000  0.000  0.411  0.000
 -0.000  0.000  0.000  0.000  0.193
atomic mag. moment =     1.920147
atom   23   Tr[ns(na)] (up, down, total) =   3.69530  0.88718  4.58248
   spin  1
    eigenvalues:
  0.455  0.475  0.860  0.922  0.983
    eigenvectors:
  0.998  0.001  0.000  0.000  0.002
  0.000  0.000  0.000  0.963  0.036
  0.000  0.000  0.999  0.000  0.000
  0.001  0.000  0.000  0.036  0.962
  0.001  0.999  0.000  0.000  0.000
    occupations:
  0.456  0.009 -0.000  0.020 -0.000
  0.009  0.924 -0.001  0.011 -0.000
 -0.000 -0.001  0.860  0.000 -0.008
  0.020  0.011  0.000  0.980  0.000
 -0.000 -0.000 -0.008  0.000  0.475
   spin  2
    eigenvalues:
  0.082  0.112  0.114  0.252  0.328
    eigenvectors:
  0.010  0.000  0.000  0.990  0.000
  0.001  0.001  0.998  0.000  0.000
  0.000  0.999  0.001  0.000  0.000
  0.989  0.000  0.001  0.010  0.000
  0.000  0.000  0.000  0.000  1.000
    occupations:
  0.250  0.000 -0.000 -0.017  0.000
  0.000  0.114  0.000 -0.001  0.000
 -0.000  0.000  0.113 -0.000 -0.003
 -0.017 -0.001 -0.000  0.084  0.000
  0.000  0.000 -0.003  0.000  0.327
atomic mag. moment =     2.808117
N of occupied +U levels =  37.0455894
 --- exit write_ns ---

 ------ SPIN UP ------------

[...]

 ------ SPIN DOWN ----------

[...]

          k = 0.2500-0.4682 0.0000 ( 27150 PWs)   bands (ev):

[...]

          k =-0.2500 0.2341 0.0000 ( 27132 PWs)   bands (ev):

   -73.6553 -72.4220 -72.4065 -72.3916 -72.2636 -72.2342 -72.1530 -72.1415
   -45.2666 -45.0568 -44.7000 -44.0454 -43.9470 -43.9311 -43.8606 -43.8331
   -43.8077 -43.7845 -43.7432 -43.7346 -43.7231 -43.7056 -43.6791 -43.6129
   -43.5147 -43.5117 -43.4752 -43.4471 -43.4265 -43.4204 -43.3744 -43.2933
   -21.1580 -20.7474 -20.6199 -20.5307 -20.2058 -20.1987 -20.0427 -20.0234
   -19.9203 -19.8320 -19.7782 -19.6959 -19.6662 -19.6217 -19.5917 -19.5258
   -19.4071 -19.3638  -8.5842  -8.3788  -8.0797  -7.8906  -7.8092  -7.4786
    -7.3749  -7.3035  -7.2403  -7.1410  -7.0013  -6.9386  -6.8741  -6.8159
    -6.6920  -6.6726  -6.5368  -6.4819  -6.3128  -6.2821  -6.2045  -6.1393
    -5.8921  -5.8461  -5.7308  -5.6463  -5.4945  -5.3413  -5.3274  -5.2885
    -5.2449  -5.1317  -5.0524  -5.0316  -4.9739  -4.9284  -4.7971  -4.7083
    -4.5289  -4.3547  -4.2332  -4.2163  -4.1424  -4.0568  -4.0497  -4.0125
    -3.9736  -3.8146  -3.7303  -3.7103  -3.5700  -3.3304  -3.3255  -3.0932
     0.5651   0.8098   0.8342   1.1911   1.2294   1.3582   1.3984   1.4403
     1.4840   1.5181   1.5472   1.6432   1.7311   1.7762   1.8845   1.9021
     1.9425   1.9964   2.0979   2.1742   2.2274   2.2342   2.3193   2.4136
     2.4555   2.4745   2.5670   2.6864   2.7395   2.8689   3.0187   3.0358
     3.1092   3.2605   3.4009   3.4497   3.5010   3.7778   3.8300   3.8986
     3.9202   4.0567   4.3003   4.7693   5.2958   5.7053   5.8387   5.8817
     5.9658   6.1417   6.3328   6.4560   6.6813   6.8302   6.8383   7.2307
     7.3681   7.5711   7.7450   7.8969   7.9677   8.2035   8.3019   8.4345
     8.6067   8.7446   8.9229   8.9595   9.1432   9.2375   9.2582   9.4042
     9.4638   9.6826   9.7797   9.8587  10.0390  10.0640  10.2171  10.2318
    10.3882  10.4629  10.6138  10.7136  10.7795  10.9255  11.0242  11.0810
    11.1688  11.3122  11.4657  11.5087  11.5995  11.6260  11.7695  11.8037
    11.8753  11.9778  12.0754  12.1420  12.2697  12.3154  12.3524  12.5439
    12.6517  12.7110  12.7960  12.8969  12.9266  12.9453  12.9551  13.1005
    13.1322  13.1997  13.2593  13.3005  13.4541  13.5258  13.6671  13.7524
    13.8315  13.8817  13.9174  14.0243  14.0510  14.2284  14.2936  14.3571
    14.4306  14.5103  14.5256  14.6678  14.7199  14.8260  14.8513  14.9557
    15.0760  15.1416  15.2272  15.2686  15.4087  15.4520  15.5282  15.5741
    15.7139  15.7783  15.8537  15.9482  15.9864  16.1021  16.1661  16.1821
    16.2408  16.3258  16.3980  16.5472  16.5766  16.6195  16.7710  16.8384
    16.8482  16.9357  16.9792  17.0909  17.1632  17.2128  17.3500  17.3932
    17.4239  17.4483  17.5395  17.6244  17.6583  17.7140  17.7715  17.8450
    17.9612  18.0101  18.0353  18.1609  18.2270  18.2775  18.3413  18.3851
    18.4178  18.6059  18.6481  18.7453  18.7949  18.8625  18.9591  19.0258
    19.0764  19.1505  19.2876  19.3503  19.4029  19.4269  19.5111  19.6166
    19.6506  19.6714  19.7931  19.8230  19.8560  19.9591  20.0944  20.1202
    20.2110  20.3469  20.4094  20.4658  20.4948  20.6406  20.6850  20.8175
    20.8336  20.9207  21.0585  21.1302

     the spin up/dw Fermi energies are    -1.9693   -2.9294 ev

!    total energy              =   -1991.71935640 Ry
     Harris-Foulkes estimate   =   -1991.71935641 Ry
     estimated scf accuracy    <          5.9E-09 Ry

     The total energy is the sum of the following terms:

     one-electron contribution =  -23225.37987048 Ry
     hartree contribution      =   11630.24159183 Ry
     xc contribution           =    -315.30516942 Ry
     ewald contribution        =    9916.90001843 Ry
     Hubbard energy            =       1.82355876 Ry
     smearing contrib. (-TS)   =       0.00051448 Ry

     total magnetization       =    16.00 Bohr mag/cell
     absolute magnetization    =    25.17 Bohr mag/cell

     convergence has been achieved in  19 iterations

     Forces acting on atoms (Ry/au):

     negative rho (up, down):  0.565E-02 0.181E-02
     atom    1 type  1   force =    -0.00458442   -0.01227395   -0.00012232
     atom    2 type  1   force =    -0.00012406    0.00673885   -0.00004444
     atom    3 type  2   force =    -0.00019161    0.00042114   -0.00050965
     atom    4 type  2   force =     0.00258002    0.00617879    0.00041938
     atom    5 type  1   force =     0.00017557    0.00725777    0.00026638
     atom    6 type  1   force =     0.00113953   -0.00641467    0.00028914
     atom    7 type  1   force =    -0.00052014   -0.00202719   -0.00038919
     atom    8 type  1   force =    -0.01767041   -0.00052894   -0.00034063
     atom    9 type  2   force =     0.00041870    0.00030137    0.00015650
     atom   10 type  2   force =     0.00345395   -0.00021976    0.00003702
     atom   11 type  1   force =    -0.00032288   -0.04063151    0.00037892
     atom   12 type  1   force =     0.00044594    0.04073624    0.00039385
     atom   13 type  1   force =    -0.02967083    0.00011545   -0.00017965
     atom   14 type  1   force =    -0.00576164   -0.01181734   -0.00011583
     atom   15 type  1   force =     0.00015453    0.00673807   -0.00004275
     atom   16 type  2   force =    -0.00010291    0.00064225   -0.00015370
     atom   17 type  2   force =     0.00660573    0.00589384    0.00038173
     atom   18 type  1   force =     0.00039810    0.00612021    0.00022663
     atom   19 type  1   force =     0.00128895   -0.00531498    0.00022082
     atom   20 type  1   force =     0.00034776   -0.00206411   -0.00037072
     atom   21 type  1   force =     0.01541431    0.00032324   -0.00022511
     atom   22 type  2   force =     0.00146400   -0.00045725   -0.00062782
     atom   23 type  2   force =    -0.00358213   -0.00053584    0.00001928
     atom   24 type  1   force =    -0.00009704   -0.03405911    0.00019148
     atom   25 type  1   force =     0.00034501    0.03470642    0.00016990
     atom   26 type  1   force =     0.02834969   -0.00009315   -0.00023088
     atom   27 type  3   force =    -0.00001656    0.00019760    0.00034212
     atom   28 type  3   force =     0.00000896    0.00020100    0.00034439
     atom   29 type  3   force =     0.00002942   -0.00007498   -0.00024614
     atom   30 type  3   force =     0.00002445   -0.00005946   -0.00023872

     Total force =     0.001631     Total SCF correction =     0.000112

     entering subroutine stress ...

     negative rho (up, down):  0.565E-02 0.181E-02
          total   stress  (Ry/bohr**3)                   (kbar)     P=   16.94
   0.00015893   0.00000134   0.00000477         23.38      0.20      0.70
   0.00000134   0.00021652   0.00000608          0.20     31.85      0.89
   0.00000477   0.00000608  -0.00002995          0.70      0.89     -4.41

     bfgs converged in  21 scf cycles and  20 bfgs steps
     (criteria: energy < 0.10E-03, force < 0.10E-02)

     End of BFGS Geometry Optimization

     Final energy   =   -1991.7193564035 Ry
Begin final coordinates

ATOMIC_POSITIONS (crystal)
O0       0.000000000   0.000000000   0.377750798    0   0   1
O0       0.000000000   0.500000000   0.397242291    0   0   1
Cr1      0.250000000   0.500000000   0.449007771    0   0   1
Cr1      0.000000000   0.000000000   0.450385913    0   0   1
O0       0.250000000   0.800000000   0.450005469    0   0   1
O0       0.250000000   0.200000000   0.450044033    0   0   1
O0       0.000000000   0.500000000   0.497913666    0   0   1
O0       0.000000000   0.000000000   0.525619522    0   0   1
Cr1      0.250000000   0.000000000   0.572111225    0   0   1
Cr1      0.000000000   0.500000000   0.567884425    0   0   1
O0       0.250000000   0.700000000   0.576620968    0   0   1
O0       0.250000000   0.300000000   0.576730880    0   0   1
O0       0.000000000   0.000000000   0.621750945    0   0   1
O0       0.500000000   0.000000000   0.377711170    0   0   1
O0       0.500000000   0.500000000   0.397244247    0   0   1
Cr1      0.750000000   0.500000000   0.448931071    0   0   1
Cr1      0.500000000   0.000000000   0.450370660    0   0   1
O0       0.750000000   0.800000000   0.449964638    0   0   1
O0       0.750000000   0.200000000   0.450010362    0   0   1
O0       0.500000000   0.500000000   0.497914553    0   0   1
O0       0.500000000   0.000000000   0.525645360    0   0   1
Cr1      0.750000000   0.000000000   0.585081626    0   0   1
Cr1      0.500000000   0.500000000   0.567882971    0   0   1
O0       0.750000000   0.700000000   0.578548199    0   0   1
O0       0.750000000   0.300000000   0.578621698    0   0   1
O0       0.500000000   0.000000000   0.621703689    0   0   1
H2      -0.000495928   0.638619875   0.378400792
H2       0.499331996   0.638577079   0.378386299
H2       0.158441626   0.029228678   0.365291979
H2       0.658369108   0.029436191   0.365262782
End final coordinates

     General routines

     Parallel routines
     Hubbard U routines

   This run was terminated on:  22:28:29  26May2014

   JOB DONE.