     Program PWSCF v.5.0.2 (svn rev. 9656) starts on 24Jan2014 at 15:57:23

     Current dimensions of program PWSCF are:
     Max number of different atomic species (ntypx) = 10
     Max number of k-points (npk) =  40000
     Max angular momentum in pseudopotentials (lmaxx) =  3
     Reading input from ReO2-v-0.95.in

     Subspace diagonalization in iterative solution of the eigenvalue problem:
     a serial algorithm will be used

     bravais-lattice index     =            0
     lattice parameter (alat)  =       8.6303  a.u.
     unit-cell volume          =     414.2543 (a.u.)^3
     number of atoms/cell      =            6
     number of atomic types    =            2
     number of electrons       =        54.00
     number of Kohn-Sham states=           81
     kinetic-energy cutoff     =      40.0000  Ry
     charge density cutoff     =     500.0000  Ry
     convergence threshold     =      1.0E-06
     mixing beta               =       0.3000
     number of iterations used =            8  plain     mixing
     Exchange-correlation      = SLA  PW   PBE  PBE ( 1 4 3 4 0)
     EXX-fraction              =        0.00
     nstep                     =           50

     celldm(1)=   8.630325  celldm(2)=   0.000000  celldm(3)=   0.000000
     celldm(4)=   0.000000  celldm(5)=   0.000000  celldm(6)=   0.000000

     crystal axes: (cart. coord. in units of alat)
               a(1) = (   1.000000   0.000000   0.000000 )
               a(2) = (   0.000000   1.000000   0.000000 )
               a(3) = (   0.000000   0.000000   0.644444 )

     reciprocal axes: (cart. coord. in units 2 pi/alat)
               b(1) = (  1.000000  0.000000  0.000000 )
               b(2) = (  0.000000  1.000000  0.000000 )
               b(3) = (  0.000000  0.000000  1.551724 )

     PseudoPot. # 1 for Re read from file:
     /home/camp/zhonxu/pseudo/re_pbe_v1.uspp.F.UPF
     MD5 check sum: 6f5a5dcaf9c96c20d0ffdde0de57afc6
     Pseudo is Ultrasoft + core correction, Zval = 15.0
     Generated by new atomic code, or converted to UPF format
     Using radial grid of  981 points,  8 beta functions with:
                l(1) =   0
                l(2) =   0
                l(3) =   1
                l(4) =   1
                l(5) =   2
                l(6) =   2
                l(7) =   3
                l(8) =   3
     Q(r) pseudized with  8 coefficients,  rinner =    1.000   1.000   1.000
                                                       1.000   1.000   1.000
                                                       1.000

     PseudoPot. # 2 for O  read from file:
     /home/camp/zhonxu/pseudo/o_pbe_v1.01.uspp.F.UPF
     MD5 check sum: 2bcb18d16ea4b960afae9ec6d52f22d2
     Pseudo is Ultrasoft + core correction, Zval =  6.0
     Generated by new atomic code, or converted to UPF format
     Using radial grid of  737 points,  5 beta functions with:
                l(1) =   0
                l(2) =   0
                l(3) =   1
                l(4) =   1
                l(5) =   2
     Q(r) pseudized with  8 coefficients,  rinner =    0.900   0.900   0.900
                                                       0.900   0.900

     atomic species   valence    mass     pseudopotential
        Re0           15.00   186.20700     Re( 1.00)
        O1             6.00    15.99940     O ( 1.00)

     Starting magnetic structure
     atomic species   magnetization
        Re0          0.000
        O1           0.000

     16 Sym. Ops., with inversion, found ( 8 have fractional translation)

   Cartesian axes

     site n.     atom                  positions (alat units)
         1           Re0 tau(   1) = (   0.0000000   0.0000000   0.0000000  )
         2           Re0 tau(   2) = (   0.5000000   0.5000000   0.3222222  )
         3           O1  tau(   3) = (   0.3050000   0.3050000   0.0000000  )
         4           O1  tau(   4) = (  -0.3050000  -0.3050000   0.0000000  )
         5           O1  tau(   5) = (   0.8050000   0.1950000   0.3222222  )
         6           O1  tau(   6) = (   0.1950000   0.8050000   0.3222222  )

     number of k points=    36  Methfessel-Paxton smearing, width (Ry)=  0.0100
                       cart. coord. in units 2pi/alat
        k(    1) = (   0.0000000   0.0000000   0.0000000), wk =   0.0080000
        k(    2) = (   0.0000000   0.0000000   0.3103448), wk =   0.0160000
        k(    3) = (   0.0000000   0.0000000   0.6206897), wk =   0.0160000
        k(    4) = (   0.0000000   0.2000000   0.0000000), wk =   0.0320000
        k(    5) = (   0.0000000   0.2000000   0.3103448), wk =   0.0640000
        k(    6) = (   0.0000000   0.2000000   0.6206897), wk =   0.0640000
        k(    7) = (   0.0000000   0.4000000   0.0000000), wk =   0.0320000
        k(    8) = (   0.0000000   0.4000000   0.3103448), wk =   0.0640000
        k(    9) = (   0.0000000   0.4000000   0.6206897), wk =   0.0640000
        k(   10) = (   0.2000000   0.2000000   0.0000000), wk =   0.0320000
        k(   11) = (   0.2000000   0.2000000   0.3103448), wk =   0.0640000
        k(   12) = (   0.2000000   0.2000000   0.6206897), wk =   0.0640000
        k(   13) = (   0.2000000   0.4000000   0.0000000), wk =   0.0640000
        k(   14) = (   0.2000000   0.4000000   0.3103448), wk =   0.1280000
        k(   15) = (   0.2000000   0.4000000   0.6206897), wk =   0.1280000
        k(   16) = (   0.4000000   0.4000000   0.0000000), wk =   0.0320000
        k(   17) = (   0.4000000   0.4000000   0.3103448), wk =   0.0640000
        k(   18) = (   0.4000000   0.4000000   0.6206897), wk =   0.0640000
        k(   19) = (   0.0000000   0.0000000   0.0000000), wk =   0.0080000
        k(   20) = (   0.0000000   0.0000000   0.3103448), wk =   0.0160000
        k(   21) = (   0.0000000   0.0000000   0.6206897), wk =   0.0160000
        k(   22) = (   0.0000000   0.2000000   0.0000000), wk =   0.0320000
        k(   23) = (   0.0000000   0.2000000   0.3103448), wk =   0.0640000
        k(   24) = (   0.0000000   0.2000000   0.6206897), wk =   0.0640000
        k(   25) = (   0.0000000   0.4000000   0.0000000), wk =   0.0320000
        k(   26) = (   0.0000000   0.4000000   0.3103448), wk =   0.0640000
        k(   27) = (   0.0000000   0.4000000   0.6206897), wk =   0.0640000
        k(   28) = (   0.2000000   0.2000000   0.0000000), wk =   0.0320000
        k(   29) = (   0.2000000   0.2000000   0.3103448), wk =   0.0640000
        k(   30) = (   0.2000000   0.2000000   0.6206897), wk =   0.0640000
        k(   31) = (   0.2000000   0.4000000   0.0000000), wk =   0.0640000
        k(   32) = (   0.2000000   0.4000000   0.3103448), wk =   0.1280000
        k(   33) = (   0.2000000   0.4000000   0.6206897), wk =   0.1280000
        k(   34) = (   0.4000000   0.4000000   0.0000000), wk =   0.0320000
        k(   35) = (   0.4000000   0.4000000   0.3103448), wk =   0.0640000
        k(   36) = (   0.4000000   0.4000000   0.6206897), wk =   0.0640000

     Largest allocated arrays     est. size (Mb)     dimensions
     Largest temporary arrays     est. size (Mb)     dimensions

     Check: negative/imaginary core charge=   -0.000004    0.000000

     Initial potential from superposition of free atoms
     Check: negative starting charge=(component1):   -0.028943
     Check: negative starting charge=(component2):   -0.028943

     starting charge   52.99990, renormalised to   54.00000

     negative rho (up, down):  0.295E-01 0.295E-01
     Starting wfc are   42 randomized atomic wfcs

     Self-consistent Calculation

     iteration #  1     ecut=    40.00 Ry     beta=0.30
     Davidson diagonalization with overlap
     ethr =  1.00E-02,  avg # of iterations =  5.1

     negative rho (up, down):  0.314E-01 0.314E-01

     total energy              =    -518.21137232 Ry
     Harris-Foulkes estimate   =    -518.69725042 Ry
     estimated scf accuracy    <       1.10011266 Ry

     total magnetization       =     0.00 Bohr mag/cell
     absolute magnetization    =     0.00 Bohr mag/cell

[...]

     End of self-consistent calculation

 ------ SPIN UP ------------

          k = 0.0000 0.0000 0.0000 (  1803 PWs)   bands (ev):

   -64.9961 -64.9913 -26.9942 -26.9942 -26.9418 -26.9058 -26.8534 -26.8534
    -6.1202  -4.9765  -3.5936  -3.5936   5.5144   5.8509   7.1717   7.8105
     7.8105  10.1828  10.1828  10.7625  11.8946  12.1022  12.1022  12.7286
    14.5842  14.6214  15.5157  15.6708  15.6708  19.2243  19.2632  20.1726
    22.5806  22.5806  24.1885  24.4363  24.4363  28.4150  29.0812  29.4001
    31.7357  31.7716  32.5717  32.5717  34.9182  35.6537  36.3172  36.3172
    37.4145  37.4145  38.5081  42.5929  42.8805  42.8805  43.4768  43.9372
    45.3249  46.3472  46.3472  46.8449  47.0730  47.1240  47.1240  48.0823
    48.1838  49.1521  49.1521  49.4346  52.2353  54.4070  54.4070  54.5013
    55.3005  55.3005  55.3574  56.0975  56.4346  56.5641  56.5675  56.5675
    57.7312

[...]

 ------ SPIN DOWN ----------

[...]

     the Fermi energy is    16.4706 ev

!    total energy              =    -518.42257469 Ry
     Harris-Foulkes estimate   =    -518.42255828 Ry
     estimated scf accuracy    <       0.00000038 Ry

     The total energy is the sum of the following terms:

     one-electron contribution =    -110.29200825 Ry
     hartree contribution      =      88.36862822 Ry
     xc contribution           =    -143.05705154 Ry
     ewald contribution        =    -353.44161258 Ry
     smearing contrib. (-TS)   =      -0.00053055 Ry

[...]

     convergence has been achieved in   7 iterations

     Forces acting on atoms (Ry/au):

     negative rho (up, down):  0.290E-01 0.290E-01
     atom    1 type  1   force =     0.00000000    0.00000000    0.00000000
     atom    2 type  1   force =     0.00000000    0.00000000   -0.00000000
     atom    3 type  2   force =    -0.07236528   -0.07236528   -0.00000000
     atom    4 type  2   force =     0.07236528    0.07236528    0.00000000
     atom    5 type  2   force =    -0.07236528    0.07236528   -0.00000000
     atom    6 type  2   force =     0.07236528   -0.07236528    0.00000000

     Total force =     0.204680     Total SCF correction =     0.000044

     entering subroutine stress ...

     negative rho (up, down):  0.290E-01 0.290E-01
          total   stress  (Ry/bohr**3)                   (kbar)     P=  322.63
   0.00215970   0.00000000   0.00000000        317.70      0.00      0.00
   0.00000000   0.00215970   0.00000000          0.00    317.70      0.00
   0.00000000   0.00000000   0.00226024          0.00      0.00    332.49

     Volume is kept fixed: isostatic pressure set to zero

     BFGS Geometry Optimization

     number of scf cycles    =   1
     number of bfgs steps    =   0

     enthalpy new            =    -518.4225746939 Ry

     new trust radius        =       0.1023399668 bohr
     new conv_thr            =       0.0000010000 Ry

     new unit-cell volume =    414.25428 a.u.^3 (    61.38615 Ang^3 )

CELL_PARAMETERS (alat=  8.63032544)
   0.999162873   0.000000000   0.000000000
   0.000000000   0.999162873   0.000000000
   0.000000000   0.000000000   0.645524764

ATOMIC_POSITIONS (crystal)
Re0      0.000000000   0.000000000   0.000000000    0   0   0
[...]
        k(   33) = (   0.2001676   0.4003351   0.6196509), wk =   0.1280000
        k(   34) = (   0.4003351   0.4003351   0.0000000), wk =   0.0320000
        k(   35) = (   0.4003351   0.4003351   0.3098254), wk =   0.0640000
        k(   36) = (   0.4003351   0.4003351   0.6196509), wk =   0.0640000

     Check: negative/imaginary core charge=   -0.000004    0.000000
     Check: negative starting charge=(component1):   -0.057927

[...]

     enthalpy old            =    -518.4225746939 Ry
     enthalpy new            =    -518.4508558252 Ry

     CASE: enthalpy_new < enthalpy_old

[...]

     Total force =     0.002458     Total SCF correction =     0.000365
     SCF correction compared to forces is large: reduce conv_thr to get better values

[...]

     Threshold (ethr) on eigenvalues was too large:
     Diagonalizing with lowered threshold

     Davidson diagonalization with overlap
     ethr =  3.35E-08,  avg # of iterations =  1.0

[...]

     number of scf cycles    =   7
     number of bfgs steps    =   6

     enthalpy old            =    -518.5272925731 Ry
     enthalpy new            =    -518.5273242713 Ry

     CASE: enthalpy_new < enthalpy_old

     new trust radius        =       0.0026347256 bohr
     new conv_thr            =       0.0000000100 Ry

     new unit-cell volume =    414.25428 a.u.^3 (    61.38615 Ang^3 )

[...]

ATOMIC_POSITIONS (crystal)
Re0      0.000000000   0.000000000   0.000000000    0   0   0
Re0      0.500000000   0.500000000   0.500000000    0   0   0
O1       0.280112456   0.280112456   0.000000000    1   1   0
O1      -0.280112456  -0.280112456   0.000000000    1   1   0
O1       0.780112456   0.219887544   0.500000000    1   1   0
O1       0.219887544   0.780112456   0.500000000    1   1   0

     Check: negative starting charge=(component1):   -0.057930
     NEW-OLD atomic charge density approx. for the potential
     NEW k-points:
        k(    1) = (   0.0000000   0.0000000   0.0000000), wk =   0.0080000
        k(    2) = (   0.0000000   0.0000000   0.3503016), wk =   0.0160000
        k(    3) = (   0.0000000   0.0000000   0.7006032), wk =   0.0160000
        k(    4) = (   0.0000000   0.1882484   0.0000000), wk =   0.0320000
        k(    5) = (   0.0000000   0.1882484   0.3503016), wk =   0.0640000
        k(    6) = (   0.0000000   0.1882484   0.7006032), wk =   0.0640000
        k(    7) = (   0.0000000   0.3764967   0.0000000), wk =   0.0320000
        k(    8) = (   0.0000000   0.3764967   0.3503016), wk =   0.0640000
        k(    9) = (   0.0000000   0.3764967   0.7006032), wk =   0.0640000
        k(   10) = (   0.1882484   0.1882484   0.0000000), wk =   0.0320000
        k(   11) = (   0.1882484   0.1882484   0.3503016), wk =   0.0640000
        k(   12) = (   0.1882484   0.1882484   0.7006032), wk =   0.0640000
        k(   13) = (   0.1882484   0.3764967   0.0000000), wk =   0.0640000
        k(   14) = (   0.1882484   0.3764967   0.3503016), wk =   0.1280000
        k(   15) = (   0.1882484   0.3764967   0.7006032), wk =   0.1280000
        k(   16) = (   0.3764967   0.3764967   0.0000000), wk =   0.0320000
        k(   17) = (   0.3764967   0.3764967   0.3503016), wk =   0.0640000
        k(   18) = (   0.3764967   0.3764967   0.7006032), wk =   0.0640000
        k(   19) = (   0.0000000   0.0000000   0.0000000), wk =   0.0080000
        k(   20) = (   0.0000000   0.0000000   0.3503016), wk =   0.0160000
        k(   21) = (   0.0000000   0.0000000   0.7006032), wk =   0.0160000
        k(   22) = (   0.0000000   0.1882484   0.0000000), wk =   0.0320000
        k(   23) = (   0.0000000   0.1882484   0.3503016), wk =   0.0640000
        k(   24) = (   0.0000000   0.1882484   0.7006032), wk =   0.0640000
        k(   25) = (   0.0000000   0.3764967   0.0000000), wk =   0.0320000
        k(   26) = (   0.0000000   0.3764967   0.3503016), wk =   0.0640000
        k(   27) = (   0.0000000   0.3764967   0.7006032), wk =   0.0640000
        k(   28) = (   0.1882484   0.1882484   0.0000000), wk =   0.0320000
        k(   29) = (   0.1882484   0.1882484   0.3503016), wk =   0.0640000
        k(   30) = (   0.1882484   0.1882484   0.7006032), wk =   0.0640000
        k(   31) = (   0.1882484   0.3764967   0.0000000), wk =   0.0640000
        k(   32) = (   0.1882484   0.3764967   0.3503016), wk =   0.1280000
        k(   33) = (   0.1882484   0.3764967   0.7006032), wk =   0.1280000
        k(   34) = (   0.3764967   0.3764967   0.0000000), wk =   0.0320000
        k(   35) = (   0.3764967   0.3764967   0.3503016), wk =   0.0640000
        k(   36) = (   0.3764967   0.3764967   0.7006032), wk =   0.0640000

     Check: negative/imaginary core charge=   -0.000003    0.000000
     Check: negative starting charge=(component1):   -0.057928

[...]

     Threshold (ethr) on eigenvalues was too large:
     Diagonalizing with lowered threshold

     Davidson diagonalization with overlap
     ethr =  2.04E-09,  avg # of iterations =  2.0

[...]

     Total force =     0.000047     Total SCF correction =     0.000028
     SCF correction compared to forces is large: reduce conv_thr to get better values

[...]

     Volume is kept fixed: isostatic pressure set to zero

     bfgs converged in   8 scf cycles and   7 bfgs steps
     (criteria: energy < 0.10E-03, force < 0.10E-02, cell < 0.50E+00)

     End of BFGS Geometry Optimization

     Final enthalpy =    -518.5273285679 Ry
Begin final coordinates
     new unit-cell volume =    414.25428 a.u.^3 (    61.38615 Ang^3 )

CELL_PARAMETERS (alat=  8.63032544)
   1.062426264   0.000000000   0.000000000
   0.000000000   1.062426264   0.000000000
   0.000000000   0.000000000   0.570936604

ATOMIC_POSITIONS (crystal)
Re0      0.000000000   0.000000000   0.000000000    0   0   0
Re0      0.500000000   0.500000000   0.500000000    0   0   0
O1       0.280112456   0.280112456   0.000000000    1   1   0
O1      -0.280112456  -0.280112456   0.000000000    1   1   0
O1       0.780112456   0.219887544   0.500000000    1   1   0
O1       0.219887544   0.780112456   0.500000000    1   1   0
End final coordinates

     A final scf calculation at the relaxed structure.
     The G-vectors are recalculated for the final unit cell
     Results may differ from those at the preceding step.

     bravais-lattice index     =            0
     lattice parameter (alat)  =       8.6303  a.u.
     unit-cell volume          =     414.2543 (a.u.)^3
     number of atoms/cell      =            6
     number of atomic types    =            2
     number of electrons       =        54.00
     number of Kohn-Sham states=           81
     kinetic-energy cutoff     =      40.0000  Ry
     charge density cutoff     =     500.0000  Ry
     convergence threshold     =      1.0E-08
     mixing beta               =       0.3000
     number of iterations used =            8  plain     mixing
     Exchange-correlation      = SLA  PW   PBE  PBE ( 1 4 3 4 0)
     EXX-fraction              =        0.00

     celldm(1)=   8.630325  celldm(2)=   0.000000  celldm(3)=   0.000000
     celldm(4)=   0.000000  celldm(5)=   0.000000  celldm(6)=   0.000000

     crystal axes: (cart. coord. in units of alat)
               a(1) = (   1.062426   0.000000   0.000000 )
               a(2) = (   0.000000   1.062426   0.000000 )
               a(3) = (   0.000000   0.000000   0.570937 )

     reciprocal axes: (cart. coord. in units 2 pi/alat)
               b(1) = (  0.941242  0.000000  0.000000 )
               b(2) = (  0.000000  0.941242  0.000000 )
               b(3) = (  0.000000  0.000000  1.751508 )

     PseudoPot. # 1 for Re read from file:
     /home/camp/zhonxu/pseudo/re_pbe_v1.uspp.F.UPF
     MD5 check sum: 6f5a5dcaf9c96c20d0ffdde0de57afc6
     Pseudo is Ultrasoft + core correction, Zval = 15.0
     Generated by new atomic code, or converted to UPF format
     Using radial grid of  981 points,  8 beta functions with:
                l(1) =   0
                l(2) =   0
                l(3) =   1
                l(4) =   1
                l(5) =   2
                l(6) =   2
                l(7) =   3
                l(8) =   3
     Q(r) pseudized with  8 coefficients,  rinner =    1.000   1.000   1.000
                                                       1.000   1.000   1.000
                                                       1.000

     PseudoPot. # 2 for O  read from file:
     /home/camp/zhonxu/pseudo/o_pbe_v1.01.uspp.F.UPF
     MD5 check sum: 2bcb18d16ea4b960afae9ec6d52f22d2
     Pseudo is Ultrasoft + core correction, Zval =  6.0
     Generated by new atomic code, or converted to UPF format
     Using radial grid of  737 points,  5 beta functions with:
                l(1) =   0
                l(2) =   0
                l(3) =   1
                l(4) =   1
                l(5) =   2
     Q(r) pseudized with  8 coefficients,  rinner =    0.900   0.900   0.900
                                                       0.900   0.900

     atomic species   valence    mass     pseudopotential
        Re0           15.00   186.20700     Re( 1.00)
        O1             6.00    15.99940     O ( 1.00)

     Starting magnetic structure
     atomic species   magnetization
        Re0          0.000
        O1           0.000

     16 Sym. Ops., with inversion, found ( 8 have fractional translation)

   Cartesian axes

     site n.     atom                  positions (alat units)
         1           Re0 tau(   1) = (   0.0000000   0.0000000   0.0000000  )
         2           Re0 tau(   2) = (   0.5312131   0.5312131   0.2854683  )
         3           O1  tau(   3) = (   0.2975988   0.2975988   0.0000000  )
         4           O1  tau(   4) = (  -0.2975988  -0.2975988   0.0000000  )
         5           O1  tau(   5) = (   0.8288120   0.2336143   0.2854683  )
         6           O1  tau(   6) = (   0.2336143   0.8288120   0.2854683  )

     number of k points=    36  Methfessel-Paxton smearing, width (Ry)=  0.0100
                       cart. coord. in units 2pi/alat
        k(    1) = (   0.0000000   0.0000000   0.0000000), wk =   0.0080000
        k(    2) = (   0.0000000   0.0000000   0.3503016), wk =   0.0160000
        k(    3) = (   0.0000000   0.0000000   0.7006032), wk =   0.0160000
        k(    4) = (   0.0000000   0.1882484   0.0000000), wk =   0.0320000
        k(    5) = (   0.0000000   0.1882484   0.3503016), wk =   0.0640000
        k(    6) = (   0.0000000   0.1882484   0.7006032), wk =   0.0640000
        k(    7) = (   0.0000000   0.3764967   0.0000000), wk =   0.0320000
        k(    8) = (   0.0000000   0.3764967   0.3503016), wk =   0.0640000
        k(    9) = (   0.0000000   0.3764967   0.7006032), wk =   0.0640000
        k(   10) = (   0.1882484   0.1882484   0.0000000), wk =   0.0320000
        k(   11) = (   0.1882484   0.1882484   0.3503016), wk =   0.0640000
        k(   12) = (   0.1882484   0.1882484   0.7006032), wk =   0.0640000
        k(   13) = (   0.1882484   0.3764967   0.0000000), wk =   0.0640000
        k(   14) = (   0.1882484   0.3764967   0.3503016), wk =   0.1280000
        k(   15) = (   0.1882484   0.3764967   0.7006032), wk =   0.1280000
        k(   16) = (   0.3764967   0.3764967   0.0000000), wk =   0.0320000
        k(   17) = (   0.3764967   0.3764967   0.3503016), wk =   0.0640000
        k(   18) = (   0.3764967   0.3764967   0.7006032), wk =   0.0640000
        k(   19) = (   0.0000000   0.0000000   0.0000000), wk =   0.0080000
        k(   20) = (   0.0000000   0.0000000   0.3503016), wk =   0.0160000
        k(   21) = (   0.0000000   0.0000000   0.7006032), wk =   0.0160000
        k(   22) = (   0.0000000   0.1882484   0.0000000), wk =   0.0320000
        k(   23) = (   0.0000000   0.1882484   0.3503016), wk =   0.0640000
        k(   24) = (   0.0000000   0.1882484   0.7006032), wk =   0.0640000
        k(   25) = (   0.0000000   0.3764967   0.0000000), wk =   0.0320000
        k(   26) = (   0.0000000   0.3764967   0.3503016), wk =   0.0640000
        k(   27) = (   0.0000000   0.3764967   0.7006032), wk =   0.0640000
        k(   28) = (   0.1882484   0.1882484   0.0000000), wk =   0.0320000
        k(   29) = (   0.1882484   0.1882484   0.3503016), wk =   0.0640000
        k(   30) = (   0.1882484   0.1882484   0.7006032), wk =   0.0640000
        k(   31) = (   0.1882484   0.3764967   0.0000000), wk =   0.0640000
        k(   32) = (   0.1882484   0.3764967   0.3503016), wk =   0.1280000
        k(   33) = (   0.1882484   0.3764967   0.7006032), wk =   0.1280000
        k(   34) = (   0.3764967   0.3764967   0.0000000), wk =   0.0320000
        k(   35) = (   0.3764967   0.3764967   0.3503016), wk =   0.0640000
        k(   36) = (   0.3764967   0.3764967   0.7006032), wk =   0.0640000

     Largest allocated arrays     est. size (Mb)     dimensions
     Largest temporary arrays     est. size (Mb)     dimensions

     Check: negative/imaginary core charge=   -0.000004    0.000000

     Initial potential from superposition of free atoms
     Check: negative starting charge=(component1):   -0.029879
     Check: negative starting charge=(component2):   -0.029879

     starting charge   52.99990, renormalised to   54.00000

     negative rho (up, down):  0.304E-01 0.304E-01
     Starting wfc are   42 randomized atomic wfcs

     Self-consistent Calculation

[...]

     total energy              =    -518.52920484 Ry
     Harris-Foulkes estimate   =    -518.52920286 Ry
     estimated scf accuracy    <       0.00000003 Ry

[...]

     iteration # 10     ecut=    40.00 Ry     beta=0.30
     Davidson diagonalization with overlap
     ethr =  4.70E-11,  avg # of iterations =  1.0

     negative rho (up, down):  0.312E-01 0.312E-01

     End of self-consistent calculation

 ------ SPIN UP ------------

[...]

 ------ SPIN DOWN ----------

[...]

          k = 0.3765 0.3765 0.7006 (  1779 PWs)   bands (ev):

   -65.5485 -65.5484 -27.9504 -27.9498 -27.5047 -27.5013 -27.4716 -27.4688
    -4.5227  -4.2722  -4.0670  -3.7794   6.8137   7.2748   7.3532   7.7270
     7.8839   8.5939   8.7318   9.5849  10.6997  10.9096  11.8499  12.0719
    14.7747  15.0465  16.0711  16.4872  18.1145  18.2257  20.1459  21.1874
    21.5301  22.3383  24.9983  25.4569  25.6830  25.8067  29.6529  29.6691
    30.9998  31.1592  32.1515  32.4958  34.1549  34.8128  35.3061  35.9706
    38.5603  38.8464  39.6579  39.8539  42.2156  42.6651  43.7302  44.2223
    44.3604  44.6803  46.2385  46.9861  47.3489  47.7544  48.2762  48.6112
    49.0957  49.6327  49.8064  50.5024  51.3936  51.5451  52.0239  52.1956
    53.7310  54.7035  56.9740  57.9320  58.2676  58.4198  59.4090  59.4601
    60.8816

     the Fermi energy is    16.2834 ev

!    total energy              =    -518.52920676 Ry
     Harris-Foulkes estimate   =    -518.52920485 Ry
     estimated scf accuracy    <          1.3E-09 Ry

     The total energy is the sum of the following terms:

     one-electron contribution =    -115.53037938 Ry
     hartree contribution      =      90.47808242 Ry
     xc contribution           =    -142.95811017 Ry
     ewald contribution        =    -350.51849452 Ry
     smearing contrib. (-TS)   =      -0.00030511 Ry

     total magnetization       =    -0.00 Bohr mag/cell
     absolute magnetization    =     0.00 Bohr mag/cell

     convergence has been achieved in  10 iterations

     Forces acting on atoms (Ry/au):

     negative rho (up, down):  0.312E-01 0.312E-01
     atom    1 type  1   force =     0.00000000    0.00000000    0.00000000
     atom    2 type  1   force =     0.00000000    0.00000000    0.00000000
     atom    3 type  2   force =    -0.00014577   -0.00014577    0.00000000
     atom    4 type  2   force =     0.00014577    0.00014577    0.00000000
     atom    5 type  2   force =    -0.00014577    0.00014577    0.00000000
     atom    6 type  2   force =     0.00014577   -0.00014577   -0.00000000

     Total force =     0.000412     Total SCF correction =     0.000007

     entering subroutine stress ...

     negative rho (up, down):  0.312E-01 0.312E-01
          total   stress  (Ry/bohr**3)                   (kbar)     P=  213.18
   0.00147275   0.00000000   0.00000000        216.65      0.00      0.00
   0.00000000   0.00147275   0.00000000          0.00    216.65      0.00
   0.00000000   0.00000000   0.00140194          0.00      0.00    206.23

     General routines

     Parallel routines

   This run was terminated on:  16:28:17  24Jan2014

   JOB DONE.
Running PBS batch system epilogue script
Job id: 251990.audhumbla.fysik.dtu.dk
Username: zhonxu
Groupname: campgst
Jobname: ReO2/fine-EOS/non-mag/ReO2-v-0.95
Sessionid: 2810
Queuename: verylong
Accounting:
This job has allocated the following 4 nodes:
q006 q006 q006 q006
Finished epilogue job 251990.audhumbla.fysik.dtu.dk for zhonxu