     Program PWSCF v.5.0.2 (svn rev. 9656) starts on 10May2014 at 23:52:48

     Current dimensions of program PWSCF are:
     Max number of different atomic species (ntypx) = 10
     Max number of k-points (npk) =  40000
     Max angular momentum in pseudopotentials (lmaxx) =  3
     Reading input from pwscf.in
Warning: card &CELL ignored
Warning: card / ignored

     Subspace diagonalization in iterative solution of the eigenvalue problem:
     a serial algorithm will be used

     bravais-lattice index     =            0
     lattice parameter (alat)  =      10.3179  a.u.
     unit-cell volume          =    9693.3575 (a.u.)^3
     number of atoms/cell      =           51
     number of atomic types    =            3
     number of electrons       =       429.00
     number of Kohn-Sham states=          643
     kinetic-energy cutoff     =      40.0000  Ry
     charge density cutoff     =     500.0000  Ry
     convergence threshold     =      1.0E-06
     mixing beta               =       0.3000
     number of iterations used =            8  plain     mixing
     Exchange-correlation      = SLA  PW   PBE  PBE ( 1 4 3 4 0)
     EXX-fraction              =        0.00
     nstep                     =           50

     celldm(1)=  10.317905  celldm(2)=   0.000000  celldm(3)=   0.000000
     celldm(4)=   0.000000  celldm(5)=   0.000000  celldm(6)=   0.000000

     crystal axes: (cart. coord. in units of alat)
               a(1) = (   1.000000   0.000000   0.000000 )
               a(2) = (   0.000000   1.282117   0.000000 )
               a(3) = (   0.000000   0.000000   6.882911 )

     reciprocal axes: (cart. coord. in units 2 pi/alat)
               b(1) = (  1.000000  0.000000  0.000000 )
               b(2) = (  0.000000  0.779960  0.000000 )
               b(3) = (  0.000000  0.000000  0.145287 )

     PseudoPot. # 1 for O  read from file:
     /home/camp/zhonxu/pseudo/o_pbe_v1.01.uspp.F.UPF
     MD5 check sum: 2bcb18d16ea4b960afae9ec6d52f22d2
     Pseudo is Ultrasoft + core correction, Zval =  6.0
     Generated by new atomic code, or converted to UPF format
     Using radial grid of  737 points,  5 beta functions with:
                l(1) =   0
                l(2) =   0
                l(3) =   1
                l(4) =   1
                l(5) =   2
     Q(r) pseudized with  8 coefficients,  rinner =    0.900   0.900   0.900
                                                       0.900   0.900

     PseudoPot. # 2 for Mo read from file:
     /home/camp/zhonxu/pseudo/mo_pbe_v1.uspp.F.UPF
     MD5 check sum: 30c4dcd161f5d35cd49bb5239c51a633
     Pseudo is Ultrasoft + core correction, Zval = 14.0
     Generated by new atomic code, or converted to UPF format
     Using radial grid of  889 points,  6 beta functions with:
                l(1) =   0
                l(2) =   0
                l(3) =   1
                l(4) =   1
                l(5) =   2
                l(6) =   2
     Q(r) pseudized with  6 coefficients,  rinner =    1.000   1.000   1.000
                                                       1.000   1.000

     PseudoPot. # 3 for H  read from file:
     /home/camp/zhonxu/pseudo/h_pbe_v1.uspp.F.UPF
     MD5 check sum: 3408e3ff4ec8b0a4e358431e7e038a48
     Pseudo is Ultrasoft, Zval =  1.0
     Generated by new atomic code, or converted to UPF format
     Using radial grid of  615 points,  2 beta functions with:
                l(1) =   0
                l(2) =   0
     Q(r) pseudized with  8 coefficients,  rinner =    0.700

     atomic species   valence    mass     pseudopotential
        O0             6.00    15.99940     O ( 1.00)
        Mo1           14.00    95.94000     Mo( 1.00)
        H2             1.00     1.00794     H ( 1.00)

      2 Sym. Ops. (no inversion) found

   Cartesian axes

     site n.     atom                  positions (alat units)
         1           O0  tau(   1) = (   0.0000000   0.6410583   2.1977822  )
         2           Mo1 tau(   2) = (   0.2500000   0.6410583   2.4798439  )
         3           Mo1 tau(   3) = (   0.0000000   0.0000000   2.4798439  )
         4           O0  tau(   4) = (   0.2500000   1.0000510   2.4798439  )
         5           O0  tau(   5) = (   0.2500000   0.2820657   2.4798439  )
         6           O0  tau(   6) = (   0.0000000   0.6410583   2.7619056  )
         7           O0  tau(   7) = (   0.0000000   0.0000000   2.8388565  )
         8           Mo1 tau(   8) = (   0.2500000   0.0000000   3.1209182  )
         9           Mo1 tau(   9) = (   0.0000000   0.6410583   3.1209182  )
        10           O0  tau(  10) = (   0.2500000   0.9231240   3.1209182  )
        11           O0  tau(  11) = (   0.2500000   0.3589927   3.1209182  )
        12           O0  tau(  12) = (   0.0000000   0.0000000   3.4029799  )
        13           O0  tau(  13) = (   0.0000000   0.6410583   3.4705701  )
        14           Mo1 tau(  14) = (   0.2286600   0.6410583   3.7488462  )
        15           Mo1 tau(  15) = (   0.0000000   0.0000000   3.7864269  )
        16           O0  tau(  16) = (   0.2460200   1.0042564   3.7683248  )
        17           O0  tau(  17) = (   0.2460200   0.2778603   3.7683248  )
        18           O0  tau(  18) = (   0.0000000   0.6410583   4.0400621  )
        19           O0  tau(  19) = (   0.0000000   0.0000000   4.1500511  )
        20           Mo1 tau(  20) = (   0.2719400   0.0000000   4.4350036  )
        21           Mo1 tau(  21) = (   0.0000000   0.6410583   4.3760858  )
        22           O0  tau(  22) = (   0.2568700   0.9035974   4.4329387  )
        23           O0  tau(  23) = (   0.2568700   0.3785193   4.4329387  )
        24           O0  tau(  24) = (   0.0000000   0.0000000   4.6642045  )
        25           O0  tau(  25) = (   0.5000000   0.6410583   2.1977822  )
        26           Mo1 tau(  26) = (   0.7500000   0.6410583   2.4798439  )
        27           Mo1 tau(  27) = (   0.5000000   0.0000000   2.4798439  )
        28           O0  tau(  28) = (   0.7500000   1.0000510   2.4798439  )
        29           O0  tau(  29) = (   0.7500000   0.2820657   2.4798439  )
        30           O0  tau(  30) = (   0.5000000   0.6410583   2.7619056  )
        31           O0  tau(  31) = (   0.5000000   0.0000000   2.8388565  )
        32           Mo1 tau(  32) = (   0.7500000   0.0000000   3.1209182  )
        33           Mo1 tau(  33) = (   0.5000000   0.6410583   3.1209182  )
        34           O0  tau(  34) = (   0.7500000   0.9231240   3.1209182  )
        35           O0  tau(  35) = (   0.7500000   0.3589927   3.1209182  )
        36           O0  tau(  36) = (   0.5000000   0.0000000   3.4029799  )
        37           O0  tau(  37) = (   0.5000000   0.6410583   3.4927331  )
        38           Mo1 tau(  38) = (   0.7713400   0.6410583   3.7488462  )
        39           Mo1 tau(  39) = (   0.5000000   0.0000000   3.7719728  )
        40           O0  tau(  40) = (   0.7539800   1.0042564   3.7683248  )
        41           O0  tau(  41) = (   0.7539800   0.2778603   3.7683248  )
        42           O0  tau(  42) = (   0.5000000   0.6410583   4.0184498  )
        43           O0  tau(  43) = (   0.5000000   0.0000000   4.1341515  )
        44           Mo1 tau(  44) = (   0.7280600   0.0000000   4.4350036  )
        45           Mo1 tau(  45) = (   0.5000000   0.6410583   4.3550241  )
        46           O0  tau(  46) = (   0.7431300   0.9035974   4.4329387  )
        47           O0  tau(  47) = (   0.7431300   0.3785193   4.4329387  )
        48           O0  tau(  48) = (   0.5000000   0.0000000   4.7053643  )
        49           O0  tau(  49) = (   0.5000000   0.6410583   4.7213326  )
        50           O0  tau(  50) = (   0.5000000   0.4276885   4.8470146  )
        51           H2  tau(  51) = (   0.5000000   0.4819220   5.0204639  )

     number of k points=     9  Methfessel-Paxton smearing, width (Ry)=  0.0100
                       cart. coord. in units 2pi/alat
        k(    1) = (   0.0000000   0.0000000   0.0000000), wk =   0.1250000
        k(    2) = (   0.0000000   0.1949901   0.0000000), wk =   0.2500000
        k(    3) = (   0.0000000  -0.3899801   0.0000000), wk =   0.1250000
        k(    4) = (   0.2500000   0.0000000   0.0000000), wk =   0.2500000
        k(    5) = (   0.2500000   0.1949901   0.0000000), wk =   0.5000000
        k(    6) = (   0.2500000  -0.3899801   0.0000000), wk =   0.2500000
        k(    7) = (  -0.5000000   0.0000000   0.0000000), wk =   0.1250000
        k(    8) = (  -0.5000000   0.1949901   0.0000000), wk =   0.2500000
        k(    9) = (  -0.5000000  -0.3899801   0.0000000), wk =   0.1250000

     Largest allocated arrays     est. size (Mb)     dimensions
     Largest temporary arrays     est. size (Mb)     dimensions
[g109.dcsc.fysik.dtu.dk:14592] Set MCA parameter "orte_base_help_aggregate" to 0 to see all help / error messages

     Check: negative/imaginary core charge=   -0.000004    0.000000

     Initial potential from superposition of free atoms
     Check: negative starting charge=   -0.003279

     starting charge  428.98293, renormalised to  429.00000

     negative rho (up, down):  0.328E-02 0.000E+00
     Starting wfc are  345 randomized atomic wfcs

     Self-consistent Calculation

     iteration #  1     ecut=    40.00 Ry     beta=0.30
     Davidson diagonalization with overlap
     ethr =  1.00E-02,  avg # of iterations =  6.0

     negative rho (up, down):  0.334E-02 0.000E+00

     total energy              =   -3323.90330209 Ry
     Harris-Foulkes estimate   =   -3330.92709571 Ry
     estimated scf accuracy    <      16.05486198 Ry

[...]

     End of self-consistent calculation

          k = 0.0000 0.0000 0.0000 ( 41461 PWs)   bands (ev):

   -60.9537 -60.8072 -60.7593 -60.7349 -60.6910 -60.6563 -60.6263 -60.6042
   -60.5659 -60.5394 -60.5343 -60.5292 -60.4871 -60.4478 -60.4465 -60.3535
   -35.4864 -35.4210 -35.3902 -35.3839 -35.2952 -35.2538 -35.2306 -35.2180
   -35.1770 -35.1271 -35.1185 -35.0405 -35.0074 -34.9615 -34.9335 -34.9076
   -34.8844 -34.8612 -34.8291 -34.8084 -34.7895 -34.7610 -34.7603 -34.7389
   -34.7328 -34.7261 -34.7123 -34.7029 -34.6693 -34.6585 -34.6553 -34.6359
   -34.5613 -34.5527 -34.5247 -34.5160 -34.5126 -34.4860 -34.4378 -34.3963
   -34.3682 -34.2914 -34.2362 -34.1810 -34.1363 -34.0733 -34.0421 -33.8764
   -22.4805 -18.7633 -18.4480 -18.3516 -18.2044 -18.1755 -18.1329 -17.8777
   -17.7576 -17.6651 -17.5912 -17.5744 -17.4694 -17.4455 -17.4454 -17.3656
   -17.3574 -17.2541 -17.1456 -17.1025 -17.0979 -17.0654 -17.0624 -17.0571
   -17.0499 -17.0028 -16.9770 -16.9352 -16.6574 -16.1465 -15.9109 -15.6261
   -15.3446 -14.5334  -7.1596  -6.7540  -6.6491  -6.5922  -6.5797  -6.4762
    -6.4551  -6.3487  -6.0691  -5.8536  -5.7595  -5.7497  -5.6655  -5.6288
    -5.5504  -5.4277  -5.3621  -5.3414  -5.2448  -5.2215  -5.2111  -5.1961
    -5.1063  -5.0777  -5.0538  -4.9428  -4.9105  -4.8202  -4.7756  -4.7222
    -4.6591  -4.6270  -4.6091  -4.5862  -4.5610  -4.5289  -4.5084  -4.2103
    -4.0797  -4.0220  -4.0137  -3.8546  -3.8160  -3.7444  -3.7341  -3.7169
    -3.6058  -3.5533  -3.5392  -3.4879  -3.4604  -3.3572  -3.3529  -3.3085
[...]
Mo1      0.500000000   0.000000000   0.360290000    0   0   0
O0       0.750000000   0.780000000   0.360290000    0   0   0
O0       0.750000000   0.220000000   0.360290000    0   0   0
O0       0.500000000   0.500000000   0.401270000    0   0   0
O0       0.500000000   0.000000000   0.412450000    0   0   0
Mo1      0.750000000   0.000000000   0.453430000    0   0   0
Mo1      0.500000000   0.500000000   0.453430000    0   0   0
O0       0.750000000   0.720000000   0.453430000    0   0   0
O0       0.750000000   0.280000000   0.453430000    0   0   0
O0       0.500000000   0.000000000   0.494410000    0   0   0
O0       0.500000000   0.500000000   0.507450000    0   0   0
Mo1      0.771340000   0.500000000   0.544660000    0   0   0
Mo1      0.500000000   0.000000000   0.548020000    0   0   0
O0       0.753980000   0.783280000   0.547490000    0   0   0
O0       0.753980000   0.216720000   0.547490000    0   0   0
O0       0.500000000   0.500000000   0.583830000    0   0   0
O0       0.500000000   0.000000000   0.600640000    0   0   0
Mo1      0.728060000   0.000000000   0.644350000    0   0   0
Mo1      0.500000000   0.500000000   0.632730000    0   0   0
O0       0.743130000   0.704770000   0.644050000    0   0   0
O0       0.743130000   0.295230000   0.644050000    0   0   0
O0       0.500000000   0.000000000   0.683630000    0   0   0
O0       0.500000000   0.500000000   0.687880477    1   0   1
O0       0.500000000   0.333580000   0.708049737    1   0   1
H2       0.500000000   0.375880000   0.733042653    1   0   1

     Check: negative starting charge=   -0.003259
     NEW-OLD atomic charge density approx. for the potential

     Check: negative/imaginary core charge=   -0.000004    0.000000
     Check: negative starting charge=   -0.003259

[...]

     Self-consistent Calculation

[...]

     Threshold (ethr) on eigenvalues was too large:
     Diagonalizing with lowered threshold

     Davidson diagonalization with overlap
     ethr =  1.89E-08,  avg # of iterations =  1.0

[...]

     total energy              =   -3327.50508255 Ry
     Harris-Foulkes estimate   =   -3327.50508255 Ry
     estimated scf accuracy    <       0.00000005 Ry

     iteration # 18     ecut=    40.00 Ry     beta=0.30
     Davidson diagonalization with overlap
     ethr =  1.08E-11,  avg # of iterations =  1.0

     negative rho (up, down):  0.462E-02 0.000E+00

     End of self-consistent calculation

[...]

          k = 0.2500-0.3900 0.0000 ( 41418 PWs)   bands (ev):

[...]

          k =-0.5000-0.3900 0.0000 ( 41316 PWs)   bands (ev):

   -60.9992 -60.8348 -60.8010 -60.8010 -60.7683 -60.6562 -60.6502 -60.6500
   -60.6002 -60.5981 -60.5958 -60.5692 -60.5595 -60.5473 -60.5250 -60.4256
   -35.4138 -35.3207 -35.1888 -35.1236 -35.1150 -35.1150 -35.0503 -35.0266
   -34.9615 -34.9500 -34.9412 -34.9407 -34.9355 -34.9312 -34.9258 -34.9157
   -34.8672 -34.8478 -34.8447 -34.8439 -34.8409 -34.8374 -34.8217 -34.8174
   -34.8077 -34.7621 -34.7619 -34.7312 -34.7290 -34.7280 -34.7251 -34.7130
   -34.6736 -34.6729 -34.6727 -34.6688 -34.6660 -34.6591 -34.6527 -34.6525
   -34.6330 -34.6142 -34.6108 -34.5836 -34.5293 -34.3935 -34.3926 -34.2366
   -21.6545 -18.5096 -18.2783 -18.1470 -17.8375 -17.8135 -17.8091 -17.8064
   -17.7005 -17.6860 -17.6487 -17.6337 -17.6238 -17.6161 -17.5990 -17.4717
   -17.4048 -17.3801 -17.3733 -17.3315 -17.3035 -17.3030 -17.2313 -17.1836
   -17.1757 -17.1627 -17.0416 -17.0180 -16.7703 -16.3778 -16.0749 -15.6187
   -15.5957 -14.4638  -6.7701  -6.6527  -6.0915  -5.9798  -5.9777  -5.9115
    -5.8991  -5.8960  -5.8852  -5.8282  -5.7166  -5.6951  -5.6780  -5.6357
    -5.5411  -5.4567  -5.3444  -5.2308  -5.2021  -5.1823  -5.0989  -4.9942
    -4.9731  -4.9721  -4.8298  -4.7604  -4.6622  -4.6485  -4.6330  -4.6182
    -4.5543  -4.5068  -4.4598  -4.4111  -4.2654  -4.2439  -4.2034  -4.1976
    -4.1696  -4.1355  -4.1268  -4.0964  -4.0790  -4.0395  -4.0055  -3.8714
    -3.8005  -3.7436  -3.7206  -3.6490  -3.6047  -3.5064  -3.4465  -3.4224
    -3.3874  -3.3589  -3.3295  -3.2670  -3.2155  -3.1660  -3.1341  -3.0685
    -3.0556  -3.0020  -2.9366  -2.9116  -2.8911  -2.8429  -2.8201  -2.7912
    -2.7592  -2.7583  -2.6113  -2.6053  -2.4555  -2.4428  -2.3528  -2.3516
    -2.2635  -2.0293  -2.0262  -1.8965  -1.8017  -1.7529  -1.7217  -1.7105
    -1.5924  -1.5619  -1.4904  -1.4831  -1.3219  -1.3030  -1.2415  -1.0957
    -0.9816  -0.7960  -0.7899  -0.7879  -0.7719  -0.1454   0.2237   0.8229
     0.9019   0.9142   1.0394   1.0841   1.1000   1.2601   1.2633   1.2651
     1.2940   1.3006   1.4168   1.4480   1.4748   1.5767   1.6669   1.6692
     1.6985   1.7946   1.9122   2.0705   2.1490   2.1695   2.3338   2.3800
     2.4048   2.4535   2.5325   2.6137   2.6538   2.6802   2.7328   2.8198
     2.8951   2.9501   2.9637   3.0920   3.0992   3.1649   3.1812   3.3016
     3.3438   3.4032   3.4332   3.4821   3.5906   3.6031   3.6105   3.6406
     3.9535   4.1820   4.5026   4.5253   4.6764   4.6825   4.6827   4.6859
     4.8920   4.9729   5.1302   5.4529   5.5361   5.5717   5.8505   6.1303
     6.3299   6.3599   6.4962   6.6969   6.7695   6.8987   7.0157   7.0576
     7.1142   7.1816   7.3251   7.4195   7.4389   7.4990   7.6260   7.6638
     7.7163   7.7865   7.7976   7.8542   8.2718   8.2965   8.3839   8.3972
     8.5313   8.5565   8.5886   8.6204   8.8022   8.8384   8.8552   8.9424
     9.1088   9.2004   9.2692   9.3956   9.5204   9.6569   9.6616   9.7629
     9.7972   9.8089   9.8206   9.9479  10.2722  10.3554  10.3736  10.3779
    10.4220  10.4658  10.5236  10.6790  11.1194  11.1503  11.1735  11.1885
    11.2393  11.2796  11.3482  11.5719  11.8656  11.9512  11.9556  12.2355
    12.4119  12.4192  12.4438  12.4841  12.9848  13.0879  13.0983  13.2342
    13.2918  13.3079  13.4284  13.4405  13.4637  13.5494  13.5992  13.6224
    13.6449  13.6760  13.7040  13.7126  13.8535  14.0097  14.0302  14.0424
    14.1494  14.2611  14.3463  14.3569  14.4713  14.4897  14.5048  14.5405
    14.5865  14.6617  14.7138  14.7289  14.7428  14.7870  14.8487  14.8747
    14.8751  14.9253  14.9503  14.9635  15.0345  15.0776  15.0951  15.1453
    15.2888  15.3161  15.3362  15.3991  15.4242  15.4354  15.4446  15.5079
    15.5138  15.5435  15.6253  15.6939  15.7311  15.7366  15.8398  15.8414
    15.8779  15.9369  15.9683  15.9969  16.0156  16.0880  16.0925  16.1125
    16.1175  16.1694  16.1920  16.2301  16.2633  16.2666  16.3225  16.3770
    16.3921  16.4084  16.5603  16.6384  16.7233  16.7854  16.8390  17.0173
    17.0922  17.0956  17.1134  17.1248  17.1300  17.1629  17.2778  17.3171
    17.3813  17.4926  17.5659  17.5857  17.6639  17.7177  17.7820  17.9050
    17.9593  17.9746  18.0344  18.0471  18.0693  18.1246  18.2390  18.2507
    18.3419  18.3610  18.4183  18.4341  18.5054  18.5105  18.5802  18.6136
    18.6473  18.7215  18.7458  18.7832  18.8003  18.8203  18.8282  18.8580
    18.9209  18.9544  19.0799  19.0846  19.1086  19.1497  19.1595  19.2183
    19.3002  19.3244  19.4131  19.4313  19.6485  19.6669  19.6964  19.7318
    19.7444  19.7469  19.7743  19.8082  19.8461  19.8487  19.8876  19.9394
[...]
    22.5590  22.7555  22.7624  22.8387  22.9174  22.9994  23.0083  23.0553
    23.1605  23.1635  23.2142  23.2466  23.2504  23.2823  23.3158  23.3642
    23.3870  23.4512  23.5401  23.5627  23.5988  23.6044  23.6433  23.6517
    23.7098  23.7447  23.7449  23.7947  23.8560  23.9093  23.9532  23.9684
    24.0044  24.0281  24.1568  24.1776  24.1835  24.2198  24.3216  24.3983
    24.4046  24.4238  24.4906  24.5602  24.5744  24.5745  24.6125  24.6205
    24.6394  24.6647  24.6881  24.7027  24.7069  24.7806  24.7952  24.7986
    24.8498  24.8945  24.9151  24.9410  24.9831  24.9839  25.0129  25.0775
    25.1442  25.1635  25.2289  25.2311  25.3674  25.4189  25.4297  25.4394
    25.4528  25.5357  25.5682  25.5771  25.6055  25.6303  25.6570  25.7523
    25.8144  25.8153  25.9046  25.9259  25.9462  25.9483  25.9998  26.0514
    26.1468  26.1528  26.1970  26.2175  26.2424  26.2889  26.3154  26.3429
    26.3792  26.4000  26.4230  26.4565  26.4801  26.4913  26.5310  26.5919
    26.6112  26.7022  26.7325  26.7501  26.8050  26.8093  26.8432  26.8947
    26.9328  26.9470  26.9882

     the Fermi energy is     1.6712 ev

!    total energy              =   -3327.50508254 Ry
     Harris-Foulkes estimate   =   -3327.50508255 Ry
     estimated scf accuracy    <       0.00000001 Ry

     The total energy is the sum of the following terms:

     one-electron contribution =  -77343.76861144 Ry
     hartree contribution      =   38734.48890374 Ry
     xc contribution           =    -553.52858162 Ry
     ewald contribution        =   35835.30374089 Ry
     smearing contrib. (-TS)   =      -0.00053411 Ry

     convergence has been achieved in  18 iterations

     Forces acting on atoms (Ry/au):

     negative rho (up, down):  0.462E-02 0.000E+00
     atom    1 type  1   force =     0.00000000   -0.00000946    0.12810071
     atom    2 type  2   force =    -0.00154005   -0.00001130   -0.15014366
     atom    3 type  2   force =     0.00000000    0.00001849    0.09368605
     atom    4 type  1   force =     0.00079805    0.02483512   -0.01350018
     atom    5 type  1   force =     0.00081332   -0.02482822   -0.01352466
     atom    6 type  1   force =     0.00000000    0.00001503   -0.01259442
     atom    7 type  1   force =     0.00000000    0.00001708   -0.03532152
     atom    8 type  2   force =    -0.00583834   -0.00005790    0.02596207
     atom    9 type  2   force =     0.00000000   -0.00002141   -0.04608971
     atom   10 type  1   force =     0.00328758   -0.01625989   -0.00144606
     atom   11 type  1   force =     0.00330857    0.01630414   -0.00144194
     atom   12 type  1   force =     0.00000000   -0.00001349    0.00014077
     atom   13 type  1   force =     0.00000000    0.00011448    0.00300186
     atom   14 type  2   force =     0.00053633   -0.00081031   -0.00003505
     atom   15 type  2   force =     0.00000000    0.00028948    0.00054357
     atom   16 type  1   force =    -0.00073012    0.00088552   -0.00040631
     atom   17 type  1   force =    -0.00103285   -0.00086858   -0.00050715
     atom   18 type  1   force =     0.00000000    0.00034081    0.00576443
     atom   19 type  1   force =     0.00000000   -0.00039736   -0.00420072
     atom   20 type  2   force =    -0.01078834    0.00031175    0.00928342
     atom   21 type  2   force =     0.00000000   -0.00139212    0.01792842
     atom   22 type  1   force =    -0.02156284    0.02217439   -0.03100960
     atom   23 type  1   force =    -0.02593889   -0.02162048   -0.03615064
     atom   24 type  1   force =     0.00000000    0.00048606   -0.00509233
     atom   25 type  1   force =     0.00000000   -0.00001599    0.13002274
     atom   26 type  2   force =     0.00154005   -0.00001130   -0.15014366
     atom   27 type  2   force =     0.00000000    0.00000903    0.09409577
     atom   28 type  1   force =    -0.00079805    0.02483512   -0.01350018
     atom   29 type  1   force =    -0.00081332   -0.02482822   -0.01352466
     atom   30 type  1   force =     0.00000000    0.00002378    0.00763003
     atom   31 type  1   force =     0.00000000    0.00000577   -0.03904565
     atom   32 type  2   force =     0.00583834   -0.00005790    0.02596207
     atom   33 type  2   force =     0.00000000   -0.00009530   -0.00630230
     atom   34 type  1   force =    -0.00328758   -0.01625989   -0.00144606
     atom   35 type  1   force =    -0.00330857    0.01630414   -0.00144194
     atom   36 type  1   force =     0.00000000    0.00001590   -0.00370777
     atom   37 type  1   force =     0.00000000   -0.00004722   -0.00268499
     atom   38 type  2   force =    -0.00053633   -0.00081031   -0.00003505
     atom   39 type  2   force =     0.00000000    0.00004653    0.00160914
     atom   40 type  1   force =     0.00073012    0.00088552   -0.00040631
     atom   41 type  1   force =     0.00103285   -0.00086858   -0.00050715
     atom   42 type  1   force =     0.00000000   -0.00051083   -0.04450430
     atom   43 type  1   force =     0.00000000   -0.00011010    0.00089156
     atom   44 type  2   force =     0.01078834    0.00031175    0.00928342
     atom   45 type  2   force =     0.00000000   -0.01310860    0.16035602
     atom   46 type  1   force =     0.02156284    0.02217439   -0.03100960
     atom   47 type  1   force =     0.02593889   -0.02162048   -0.03615064
     atom   48 type  1   force =     0.00000000   -0.01853659   -0.01826154
     atom   49 type  1   force =     0.00000000    0.05659350    0.00062568
     atom   50 type  1   force =     0.00000000   -0.04252492   -0.00004928
     atom   51 type  3   force =     0.00000000    0.01869896   -0.00070270

     Total force =     0.000942     Total SCF correction =     0.000030

     bfgs converged in   8 scf cycles and   7 bfgs steps
     (criteria: energy < 0.10E-03, force < 0.10E-02)

     End of BFGS Geometry Optimization

     Final energy   =   -3327.5050825422 Ry
Begin final coordinates

ATOMIC_POSITIONS (crystal)
O0       0.000000000   0.500000000   0.319310000    0   0   0
Mo1      0.250000000   0.500000000   0.360290000    0   0   0
Mo1      0.000000000   0.000000000   0.360290000    0   0   0
O0       0.250000000   0.780000000   0.360290000    0   0   0
O0       0.250000000   0.220000000   0.360290000    0   0   0
O0       0.000000000   0.500000000   0.401270000    0   0   0
O0       0.000000000   0.000000000   0.412450000    0   0   0
Mo1      0.250000000   0.000000000   0.453430000    0   0   0
Mo1      0.000000000   0.500000000   0.453430000    0   0   0
O0       0.250000000   0.720000000   0.453430000    0   0   0
O0       0.250000000   0.280000000   0.453430000    0   0   0
O0       0.000000000   0.000000000   0.494410000    0   0   0
O0       0.000000000   0.500000000   0.504230000    0   0   0
Mo1      0.228660000   0.500000000   0.544660000    0   0   0
Mo1      0.000000000   0.000000000   0.550120000    0   0   0
O0       0.246020000   0.783280000   0.547490000    0   0   0
O0       0.246020000   0.216720000   0.547490000    0   0   0
O0       0.000000000   0.500000000   0.586970000    0   0   0
O0       0.000000000   0.000000000   0.602950000    0   0   0
Mo1      0.271940000   0.000000000   0.644350000    0   0   0
Mo1      0.000000000   0.500000000   0.635790000    0   0   0
O0       0.256870000   0.704770000   0.644050000    0   0   0
O0       0.256870000   0.295230000   0.644050000    0   0   0
O0       0.000000000   0.000000000   0.677650000    0   0   0
O0       0.500000000   0.500000000   0.319310000    0   0   0
Mo1      0.750000000   0.500000000   0.360290000    0   0   0
Mo1      0.500000000   0.000000000   0.360290000    0   0   0
O0       0.750000000   0.780000000   0.360290000    0   0   0
O0       0.750000000   0.220000000   0.360290000    0   0   0
O0       0.500000000   0.500000000   0.401270000    0   0   0
O0       0.500000000   0.000000000   0.412450000    0   0   0
Mo1      0.750000000   0.000000000   0.453430000    0   0   0
Mo1      0.500000000   0.500000000   0.453430000    0   0   0
O0       0.750000000   0.720000000   0.453430000    0   0   0
O0       0.750000000   0.280000000   0.453430000    0   0   0
O0       0.500000000   0.000000000   0.494410000    0   0   0
O0       0.500000000   0.500000000   0.507450000    0   0   0
Mo1      0.771340000   0.500000000   0.544660000    0   0   0
Mo1      0.500000000   0.000000000   0.548020000    0   0   0
O0       0.753980000   0.783280000   0.547490000    0   0   0
O0       0.753980000   0.216720000   0.547490000    0   0   0
O0       0.500000000   0.500000000   0.583830000    0   0   0
O0       0.500000000   0.000000000   0.600640000    0   0   0
Mo1      0.728060000   0.000000000   0.644350000    0   0   0
Mo1      0.500000000   0.500000000   0.632730000    0   0   0
O0       0.743130000   0.704770000   0.644050000    0   0   0
O0       0.743130000   0.295230000   0.644050000    0   0   0
O0       0.500000000   0.000000000   0.683630000    0   0   0
O0       0.500000000   0.500000000   0.687880477    1   0   1
O0       0.500000000   0.333580000   0.708049737    1   0   1
H2       0.500000000   0.375880000   0.733042653    1   0   1
End final coordinates

     General routines

     Parallel routines

   This run was terminated on:  13:20:46  11May2014

   JOB DONE.
Running PBS batch system epilogue script
Job id: 349455.audhumbla.fysik.dtu.dk
Username: zhonxu
Groupname: campgst
Jobname: MoO2/Eads-4-layers/OOH
Sessionid: 14521
Queuename: verylong
Accounting:
This job has allocated the following 32 nodes:
g109 g109 g109 g109 g109 g109 g109 g109 g109 g109 g109 g109 g109 g109 g109 g109 g089 g089 g089 g089 g089 g089 g089 g089 g089 g089 g089 g089 g089 g089 g089 g089
Finished epilogue job 349455.audhumbla.fysik.dtu.dk for zhonxu