     Program PWSCF v.5.0.2 (svn rev. 9656) starts on 30May2014 at  1: 2:53

     Current dimensions of program PWSCF are:
     Max number of different atomic species (ntypx) = 10
     Max number of k-points (npk) =  40000
     Max angular momentum in pseudopotentials (lmaxx) =  3
     Reading input from pwscf.in
Warning: card &CELL ignored
Warning: card / ignored

     Subspace diagonalization in iterative solution of the eigenvalue problem:
     a serial algorithm will be used

     bravais-lattice index     =            0
     lattice parameter (alat)  =      12.0187  a.u.
     unit-cell volume          =    7280.5819 (a.u.)^3
     number of atoms/cell      =           33
     number of atomic types    =            3
     number of electrons       =       245.00
     number of Kohn-Sham states=          367
     kinetic-energy cutoff     =      40.0000  Ry
     charge density cutoff     =     500.0000  Ry
     convergence threshold     =      1.0E-06
     mixing beta               =       0.7000
     number of iterations used =            8  plain     mixing
     Exchange-correlation      = SLA  PW   PBE  PBE ( 1 4 3 4 0)
     EXX-fraction              =        0.00
     nstep                     =           50

     celldm(1)=  12.018658  celldm(2)=   0.000000  celldm(3)=   0.000000
     celldm(4)=   0.000000  celldm(5)=   0.000000  celldm(6)=   0.000000

     crystal axes: (cart. coord. in units of alat)
               a(1) = (   1.000000   0.000000   0.000000 )
               a(2) = (   0.000000   1.009517   0.000000 )
               a(3) = (   0.000000   0.000000   4.154171 )

     reciprocal axes: (cart. coord. in units 2 pi/alat)
               b(1) = (  1.000000  0.000000  0.000000 )
               b(2) = (  0.000000  0.990572  0.000000 )
               b(3) = (  0.000000  0.000000  0.240722 )

     PseudoPot. # 1 for O  read from file:
     /home/camp/zhonxu/pseudo/o_pbe_v1.01.uspp.F.UPF
     MD5 check sum: 2bcb18d16ea4b960afae9ec6d52f22d2
     Pseudo is Ultrasoft + core correction, Zval =  6.0
     Generated by new atomic code, or converted to UPF format
     Using radial grid of  737 points,  5 beta functions with:
                l(1) =   0
                l(2) =   0
                l(3) =   1
                l(4) =   1
                l(5) =   2
     Q(r) pseudized with  8 coefficients,  rinner =    0.900   0.900   0.900
                                                       0.900   0.900

     PseudoPot. # 2 for Ir read from file:
     /home/camp/zhonxu/pseudo/ir_pbe_v1.uspp.F.UPF
     MD5 check sum: abf987a9674477536ede83817f8f8b70
     Pseudo is Ultrasoft + core correction, Zval = 15.0
     Generated by new atomic code, or converted to UPF format
     Using radial grid of  983 points,  7 beta functions with:
                l(1) =   0
                l(2) =   0
                l(3) =   1
                l(4) =   1
                l(5) =   1
                l(6) =   2
                l(7) =   2
     Q(r) pseudized with  8 coefficients,  rinner =    1.350   1.350   1.350
                                                       1.350   1.350

     PseudoPot. # 3 for H  read from file:
     /home/camp/zhonxu/pseudo/h_pbe_v1.uspp.F.UPF
     MD5 check sum: 3408e3ff4ec8b0a4e358431e7e038a48
     Pseudo is Ultrasoft, Zval =  1.0
     Generated by new atomic code, or converted to UPF format
     Using radial grid of  615 points,  2 beta functions with:
                l(1) =   0
                l(2) =   0
     Q(r) pseudized with  8 coefficients,  rinner =    0.700

     atomic species   valence    mass     pseudopotential
        O0             6.00    15.99940     O ( 1.00)
        Ir1           15.00   192.22000     Ir( 1.00)
        H2             1.00     1.00794     H ( 1.00)

     Simplified LDA+U calculation (l_max = 2) with parameters (eV):
     atomic species    L          U    alpha       J0     beta
        Ir1            2     7.0000   0.0000   0.0000   0.0000

     No symmetry found

   Cartesian axes

     site n.     atom                  positions (alat units)
         1           O0  tau(   1) = (   0.0000000   0.0000000   1.5694875  )
         2           O0  tau(   2) = (   0.0000000   0.5047586   1.6702677  )
         3           Ir1 tau(   3) = (   0.2500000   0.5047586   1.8805934  )
         4           Ir1 tau(   4) = (   0.0000000   0.0000000   1.8807595  )
         5           O0  tau(   5) = (   0.2500000   0.8177090   1.8801779  )
         6           O0  tau(   6) = (   0.2500000   0.1918083   1.8787655  )
         7           O0  tau(   7) = (   0.0000000   0.5047586   2.0695666  )
         8           O0  tau(   8) = (   0.0000000   0.0000000   2.1948564  )
         9           Ir1 tau(   9) = (   0.2500000   0.0000000   2.3901025  )
        10           Ir1 tau(  10) = (   0.0000000   0.5047586   2.3742751  )
        11           O0  tau(  11) = (   0.2500000   0.6965669   2.3856575  )
        12           O0  tau(  12) = (   0.2500000   0.3129503   2.3949628  )
        13           O0  tau(  13) = (   0.0000000   0.0000000   2.5754200  )
        14           O0  tau(  14) = (   0.5000000   0.0000000   1.5694875  )
        15           O0  tau(  15) = (   0.5000000   0.5047586   1.6704338  )
        16           Ir1 tau(  16) = (   0.7500000   0.5047586   1.8805934  )
        17           Ir1 tau(  17) = (   0.5000000   0.0000000   1.8805518  )
        18           O0  tau(  18) = (   0.7500000   0.8177090   1.8801364  )
        19           O0  tau(  19) = (   0.7500000   0.1918083   1.8788486  )
        20           O0  tau(  20) = (   0.5000000   0.5047586   2.0759640  )
        21           O0  tau(  21) = (   0.5000000   0.0000000   2.1945241  )
        22           Ir1 tau(  22) = (   0.7500000   0.0000000   2.3900609  )
        23           Ir1 tau(  23) = (   0.5000000   0.5047586   2.3998648  )
        24           O0  tau(  24) = (   0.7500000   0.6965669   2.3856575  )
        25           O0  tau(  25) = (   0.7500000   0.3129503   2.3949628  )
        26           O0  tau(  26) = (   0.5000000   0.0000000   2.5728445  )
        27           H2  tau(  27) = (   0.0000400   0.6420328   1.5957418  )
        28           H2  tau(  28) = (   0.4999400   0.6424971   1.5965311  )
        29           H2  tau(  29) = (   0.1432100   0.0360095   1.5217560  )
        30           H2  tau(  30) = (   0.6436700   0.0339703   1.5215899  )
        31           O0  tau(  31) = (   0.4997900   0.5432313   2.6993805  )
        32           O0  tau(  32) = (   0.5001800   0.3480815   2.8224271  )
        33           H2  tau(  33) = (   0.4999800   0.4114489   2.9642920  )

     number of k points=    10  Methfessel-Paxton smearing, width (Ry)=  0.0100
                       cart. coord. in units 2pi/alat
        k(    1) = (   0.0000000   0.0000000   0.0000000), wk =   0.1250000
        k(    2) = (   0.0000000   0.2476431   0.0000000), wk =   0.2500000
        k(    3) = (   0.0000000  -0.4952862   0.0000000), wk =   0.1250000
        k(    4) = (   0.2500000   0.0000000   0.0000000), wk =   0.2500000
        k(    5) = (   0.2500000   0.2476431   0.0000000), wk =   0.2500000
        k(    6) = (   0.2500000  -0.4952862   0.0000000), wk =   0.2500000
        k(    7) = (  -0.5000000   0.0000000   0.0000000), wk =   0.1250000
        k(    8) = (  -0.5000000   0.2476431   0.0000000), wk =   0.2500000
        k(    9) = (  -0.5000000  -0.4952862   0.0000000), wk =   0.1250000
        k(   10) = (  -0.2500000   0.2476431   0.0000000), wk =   0.2500000

     Largest allocated arrays     est. size (Mb)     dimensions
     Largest temporary arrays     est. size (Mb)     dimensions

     Check: negative/imaginary core charge=   -0.000003    0.000000

     Initial potential from superposition of free atoms
     Check: negative starting charge=   -3.336869

     starting charge  240.99967, renormalised to  245.00000

     negative rho (up, down):  0.339E+01 0.000E+00
     Number of +U iterations with fixed ns =  0
     Starting occupations:
 --- enter write_ns ---
 LDA+U parameters:
U( 2)     =  7.00000000
alpha( 2) =  0.00000000
atom    3   Tr[ns(na)] =   7.00000
    eigenvalues:
  0.700  0.700  0.700  0.700  0.700
    eigenvectors:
  1.000  0.000  0.000  0.000  0.000
  0.000  1.000  0.000  0.000  0.000
  0.000  0.000  1.000  0.000  0.000
  0.000  0.000  0.000  1.000  0.000
  0.000  0.000  0.000  0.000  1.000
    occupations:
  0.700  0.000  0.000  0.000  0.000
  0.000  0.700  0.000  0.000  0.000
  0.000  0.000  0.700  0.000  0.000
  0.000  0.000  0.000  0.700  0.000
  0.000  0.000  0.000  0.000  0.700
atom    4   Tr[ns(na)] =   7.00000
    eigenvalues:
  0.700  0.700  0.700  0.700  0.700
    eigenvectors:
  1.000  0.000  0.000  0.000  0.000
  0.000  1.000  0.000  0.000  0.000
  0.000  0.000  1.000  0.000  0.000
  0.000  0.000  0.000  1.000  0.000
  0.000  0.000  0.000  0.000  1.000
    occupations:
  0.700  0.000  0.000  0.000  0.000
  0.000  0.700  0.000  0.000  0.000
  0.000  0.000  0.700  0.000  0.000
  0.000  0.000  0.000  0.700  0.000
  0.000  0.000  0.000  0.000  0.700
atom    9   Tr[ns(na)] =   7.00000
    eigenvalues:
  0.700  0.700  0.700  0.700  0.700
    eigenvectors:
  1.000  0.000  0.000  0.000  0.000
  0.000  1.000  0.000  0.000  0.000
  0.000  0.000  1.000  0.000  0.000
  0.000  0.000  0.000  1.000  0.000
  0.000  0.000  0.000  0.000  1.000
    occupations:
  0.700  0.000  0.000  0.000  0.000
  0.000  0.700  0.000  0.000  0.000
  0.000  0.000  0.700  0.000  0.000
  0.000  0.000  0.000  0.700  0.000
  0.000  0.000  0.000  0.000  0.700
atom   10   Tr[ns(na)] =   7.00000
    eigenvalues:
  0.700  0.700  0.700  0.700  0.700
    eigenvectors:
  1.000  0.000  0.000  0.000  0.000
  0.000  1.000  0.000  0.000  0.000
  0.000  0.000  1.000  0.000  0.000
  0.000  0.000  0.000  1.000  0.000
  0.000  0.000  0.000  0.000  1.000
    occupations:
  0.700  0.000  0.000  0.000  0.000
  0.000  0.700  0.000  0.000  0.000
  0.000  0.000  0.700  0.000  0.000
  0.000  0.000  0.000  0.700  0.000
  0.000  0.000  0.000  0.000  0.700
atom   16   Tr[ns(na)] =   7.00000
    eigenvalues:
  0.700  0.700  0.700  0.700  0.700
    eigenvectors:
  1.000  0.000  0.000  0.000  0.000
  0.000  1.000  0.000  0.000  0.000
  0.000  0.000  1.000  0.000  0.000
  0.000  0.000  0.000  1.000  0.000
  0.000  0.000  0.000  0.000  1.000
    occupations:
  0.700  0.000  0.000  0.000  0.000
  0.000  0.700  0.000  0.000  0.000
  0.000  0.000  0.700  0.000  0.000
  0.000  0.000  0.000  0.700  0.000
  0.000  0.000  0.000  0.000  0.700
atom   17   Tr[ns(na)] =   7.00000
    eigenvalues:
  0.700  0.700  0.700  0.700  0.700
    eigenvectors:
  1.000  0.000  0.000  0.000  0.000
  0.000  1.000  0.000  0.000  0.000
  0.000  0.000  1.000  0.000  0.000
  0.000  0.000  0.000  1.000  0.000
  0.000  0.000  0.000  0.000  1.000
    occupations:
  0.700  0.000  0.000  0.000  0.000
  0.000  0.700  0.000  0.000  0.000
  0.000  0.000  0.700  0.000  0.000
  0.000  0.000  0.000  0.700  0.000
  0.000  0.000  0.000  0.000  0.700
atom   22   Tr[ns(na)] =   7.00000
    eigenvalues:
  0.700  0.700  0.700  0.700  0.700
    eigenvectors:
  1.000  0.000  0.000  0.000  0.000
  0.000  1.000  0.000  0.000  0.000
[...]
  0.000  0.953 -0.000  0.000 -0.009
  0.007 -0.000  0.959 -0.000 -0.000
  0.039  0.000 -0.000  0.983  0.000
 -0.000 -0.009 -0.000  0.000  0.614
atom   16   Tr[ns(na)] =   8.22642
    eigenvalues:
  0.607  0.634  0.913  0.974  0.985
    eigenvectors:
  0.005  0.177  0.004  0.001  0.814
  0.976  0.023  0.000  0.000  0.000
  0.000  0.000  0.991  0.006  0.004
  0.018  0.800  0.000  0.000  0.182
  0.000  0.000  0.006  0.993  0.001
    occupations:
  0.921  0.005  0.003 -0.136  0.001
  0.005  0.608 -0.000  0.002 -0.005
  0.003 -0.000  0.914 -0.004 -0.005
 -0.136  0.002 -0.004  0.698 -0.000
  0.001 -0.005 -0.005 -0.000  0.974
atom   17   Tr[ns(na)] =   8.23083
    eigenvalues:
  0.619  0.672  0.898  0.939  0.987
    eigenvectors:
  0.000  0.989  0.000  0.000  0.011
  0.000  0.000  0.071  0.929  0.000
  0.000  0.000  0.929  0.071  0.000
  0.000  0.011  0.000  0.000  0.989
  0.999  0.000  0.000  0.000  0.000
    occupations:
  0.675 -0.003 -0.000  0.032  0.001
 -0.003  0.936  0.011  0.000 -0.002
 -0.000  0.011  0.901 -0.000  0.001
  0.032  0.000 -0.000  0.984  0.000
  0.001 -0.002  0.001  0.000  0.620
atom   22   Tr[ns(na)] =   8.22537
    eigenvalues:
  0.656  0.672  0.881  0.918  0.986
    eigenvectors:
  0.000  0.139  0.000  0.000  0.861
  1.000  0.000  0.000  0.000  0.000
  0.000  0.000  0.992  0.007  0.000
  0.000  0.861  0.000  0.000  0.139
  0.000  0.000  0.007  0.993  0.000
    occupations:
  0.942  0.001 -0.000 -0.109  0.000
  0.001  0.656  0.001 -0.001 -0.000
 -0.000  0.001  0.881 -0.004  0.003
 -0.109 -0.001 -0.004  0.715  0.001
  0.000 -0.000  0.003  0.001  0.918
atom   23   Tr[ns(na)] =   8.23695
    eigenvalues:
  0.621  0.664  0.885  0.962  0.986
    eigenvectors:
  0.000  0.992  0.000  0.003  0.005
  0.001  0.000  0.998  0.000  0.000
  0.000  0.002  0.000  0.996  0.002
  0.000  0.006  0.000  0.001  0.993
  0.999  0.000  0.001  0.000  0.000
    occupations:
  0.667 -0.000  0.014  0.024 -0.000
 -0.000  0.885 -0.001 -0.000 -0.010
  0.014 -0.001  0.961 -0.002  0.000
  0.024 -0.000 -0.002  0.984 -0.000
 -0.000 -0.010  0.000 -0.000  0.622
N of occupied +U levels =  65.7792423
 --- exit write_ns ---

     Threshold (ethr) on eigenvalues was too large:
     Diagonalizing with lowered threshold

     Davidson diagonalization with overlap
     ethr =  1.74E-08,  avg # of iterations =  1.4

[...]

     total energy              =   -2136.80172589 Ry
     Harris-Foulkes estimate   =   -2136.80172589 Ry
     estimated scf accuracy    <       0.00000001 Ry

     iteration # 16     ecut=    40.00 Ry     beta=0.70
     Davidson diagonalization with overlap
     ethr =  5.52E-12,  avg # of iterations =  1.0

     negative rho (up, down):  0.314E+01 0.000E+00

     End of self-consistent calculation
 --- enter write_ns ---
 LDA+U parameters:
U( 2)     =  7.00000000
alpha( 2) =  0.00000000
atom    3   Tr[ns(na)] =   8.22625
    eigenvalues:
  0.607  0.634  0.913  0.974  0.985
    eigenvectors:
  0.006  0.177  0.003  0.000  0.814
  0.976  0.024  0.000  0.000  0.000
  0.000  0.000  0.987  0.009  0.003
  0.019  0.799  0.000  0.000  0.182
  0.000  0.000  0.009  0.990  0.001
    occupations:
  0.921 -0.005  0.003 -0.136 -0.001
 -0.005  0.608 -0.001 -0.002 -0.005
  0.003 -0.001  0.914 -0.004  0.006
 -0.136 -0.002 -0.004  0.698 -0.000
 -0.001 -0.005  0.006 -0.000  0.973
atom    4   Tr[ns(na)] =   8.23161
    eigenvalues:
  0.620  0.672  0.897  0.940  0.987
    eigenvectors:
  0.000  0.989  0.000  0.000  0.011
  0.000  0.000  0.081  0.919  0.000
  0.000  0.000  0.919  0.081  0.000
  0.000  0.011  0.000  0.000  0.989
  1.000  0.000  0.000  0.000  0.000
    occupations:
  0.675 -0.003 -0.001  0.032  0.001
 -0.003  0.937  0.012  0.000 -0.002
 -0.001  0.012  0.900 -0.000  0.001
  0.032  0.000 -0.000  0.984  0.000
  0.001 -0.002  0.001  0.000  0.620
atom    9   Tr[ns(na)] =   8.22507
    eigenvalues:
  0.656  0.672  0.881  0.918  0.986
    eigenvectors:
  0.000  0.139  0.000  0.000  0.860
  0.998  0.002  0.000  0.000  0.000
  0.000  0.000  0.991  0.008  0.000
  0.002  0.859  0.000  0.000  0.139
  0.000  0.000  0.008  0.991  0.000
    occupations:
  0.942 -0.001  0.000 -0.109 -0.001
 -0.001  0.656  0.000  0.001 -0.000
  0.000  0.000  0.881 -0.004 -0.003
 -0.109  0.001 -0.004  0.715  0.001
 -0.001 -0.000 -0.003  0.001  0.918
atom   10   Tr[ns(na)] =   8.17596
    eigenvalues:
  0.575  0.614  0.953  0.959  0.987
    eigenvectors:
  0.990  0.000  0.000  0.000  0.009
  0.000  0.001  0.998  0.001  0.000
  0.000  0.000  0.001  0.998  0.000
  0.009  0.000  0.000  0.000  0.991
  0.000  0.999  0.001  0.000  0.000
    occupations:
  0.579  0.000  0.007  0.039 -0.000
  0.000  0.953 -0.000  0.000 -0.009
  0.007 -0.000  0.959 -0.000 -0.000
  0.039  0.000 -0.000  0.983  0.000
 -0.000 -0.009 -0.000  0.000  0.614
atom   16   Tr[ns(na)] =   8.22622
    eigenvalues:
  0.607  0.634  0.913  0.974  0.985
    eigenvectors:
  0.005  0.177  0.004  0.001  0.814
  0.976  0.023  0.000  0.000  0.000
  0.000  0.000  0.990  0.006  0.004
  0.018  0.800  0.000  0.000  0.182
  0.000  0.000  0.006  0.993  0.001
    occupations:
  0.921  0.005  0.003 -0.136  0.001
  0.005  0.608 -0.000  0.002 -0.005
  0.003 -0.000  0.913 -0.004 -0.005
 -0.136  0.002 -0.004  0.698 -0.000
  0.001 -0.005 -0.005 -0.000  0.974
atom   17   Tr[ns(na)] =   8.23062
    eigenvalues:
  0.619  0.672  0.898  0.939  0.987
    eigenvectors:
  0.000  0.989  0.000  0.000  0.011
  0.000  0.000  0.071  0.929  0.000
  0.000  0.000  0.929  0.071  0.000
  0.000  0.011  0.000  0.000  0.989
  0.999  0.000  0.000  0.000  0.000
    occupations:
  0.675 -0.003 -0.000  0.032  0.001
 -0.003  0.936  0.011  0.000 -0.002
 -0.000  0.011  0.901 -0.000  0.001
  0.032  0.000 -0.000  0.984  0.000
  0.001 -0.002  0.001  0.000  0.620
atom   22   Tr[ns(na)] =   8.22507
    eigenvalues:
  0.656  0.672  0.881  0.918  0.986
    eigenvectors:
  0.000  0.139  0.000  0.000  0.861
  1.000  0.000  0.000  0.000  0.000
  0.000  0.000  0.992  0.007  0.000
  0.000  0.861  0.000  0.000  0.139
  0.000  0.000  0.007  0.993  0.000
    occupations:
  0.942  0.001 -0.000 -0.109  0.000
  0.001  0.656  0.001 -0.001 -0.000
 -0.000  0.001  0.881 -0.004  0.003
 -0.109 -0.001 -0.004  0.715  0.001
  0.000 -0.000  0.003  0.001  0.918
atom   23   Tr[ns(na)] =   8.23756
    eigenvalues:
  0.621  0.664  0.885  0.962  0.986
    eigenvectors:
  0.000  0.992  0.000  0.003  0.005
  0.001  0.000  0.998  0.000  0.000
  0.000  0.002  0.000  0.996  0.002
  0.000  0.006  0.000  0.001  0.993
  0.999  0.000  0.001  0.000  0.000
    occupations:
  0.667 -0.000  0.014  0.024 -0.000
 -0.000  0.885 -0.001 -0.000 -0.010
  0.014 -0.001  0.961 -0.002  0.000
  0.024 -0.000 -0.002  0.984 -0.000
 -0.000 -0.010  0.000 -0.000  0.622
N of occupied +U levels =  65.7783451
 --- exit write_ns ---

[...]

          k = 0.2500-0.4953 0.0000 ( 31088 PWs)   bands (ev):

[...]

          k =-0.2500 0.2476 0.0000 ( 31099 PWs)   bands (ev):

   -49.8949 -49.7485 -49.7428 -49.7326 -49.7251 -49.6680 -49.6579 -49.6514
   -49.6491 -49.6160 -49.6104 -49.5895 -49.4746 -49.4645 -49.3798 -49.3783
   -49.3746 -49.3739 -49.3079 -49.3048 -49.2938 -49.2694 -49.2519 -49.2414
   -23.6757 -20.8824 -20.6776 -20.6240 -20.5113 -20.2182 -20.1976 -20.1880
   -19.9710 -19.9095 -19.6966 -19.6433 -19.4955 -19.4591 -19.3877 -19.3080
   -19.2183 -18.5268 -18.3445 -17.3714 -10.3889 -10.2270  -9.9355  -9.9138
    -9.6157  -9.5331  -9.3713  -9.3319  -9.2596  -8.8527  -8.5493  -8.5110
    -8.4026  -8.3256  -8.1505  -8.0444  -7.9171  -7.8469  -7.7722  -7.4902
    -7.3370  -7.2161  -7.0926  -6.9797  -6.9423  -6.8621  -6.7642  -6.7205
    -6.5359  -6.3577  -6.2755  -6.1495  -6.0735  -6.0090  -5.9516  -5.8422
    -5.8110  -5.7152  -5.6019  -5.5429  -5.3894  -5.3081  -5.2133  -5.0889
    -4.8042  -4.6278  -4.4672  -4.3600  -4.2564  -4.2018  -4.0280  -3.9898
    -3.8390  -3.7293  -3.5289  -3.4046  -3.3755  -3.3127  -3.1827  -3.0835
    -2.9770  -2.8796  -2.8433  -2.7080  -2.6492  -2.6059  -2.5703  -2.5229
    -2.3035  -2.2697  -2.1815  -2.0492  -1.7613  -1.4691  -1.2627  -1.2275
    -1.0453  -1.0085  -0.7759  -0.6193  -0.4296  -0.3551  -0.1496   0.5717
     1.5734   1.5952   1.8535   2.1641   2.3596   2.7674   2.9155   3.1263
     3.2874   3.4483   3.4977   3.6652   3.7487   3.9235   3.9451   4.0587
     4.2789   4.5138   4.7611   5.2699   5.4362   5.7786   6.0699   6.1139
     6.2256   6.4114   6.5791   6.6392   6.7452   7.0460   7.1588   7.3149
     7.5153   7.6892   7.8535   7.9176   7.9808   8.2209   8.3026   8.3688
     8.3781   8.4755   8.7486   8.8141   8.9107   9.0910   9.1398   9.2303
     9.2608   9.4382   9.5676   9.6258   9.7260   9.7974   9.8740   9.9921
    10.0572  10.1482  10.2085  10.2148  10.2892  10.2928  10.2974  10.3261
    10.3294  10.3361  10.4200  10.5017  10.5078  10.5115  10.5632  10.5861
    10.6936  10.7378  10.8492  10.9638  11.0223  11.0746  11.1973  11.2345
    11.3191  11.3938  11.4735  11.5781  11.7285  11.7659  11.8323  11.8993
    11.9266  12.0908  12.1284  12.2146  12.3543  12.5090  12.5267  12.5569
    12.6109  12.6948  12.8235  12.8867  13.0125  13.0436  13.0953  13.2183
    13.2731  13.3277  13.4033  13.5602  13.6557  13.7396  13.7997  13.8955
    13.9261  14.0196  14.0643  14.1884  14.2431  14.3005  14.3626  14.4525
    14.4708  14.5548  14.6609  14.7680  14.8400  14.8913  15.0997  15.1301
    15.1551  15.2437  15.3840  15.4192  15.5593  15.6093  15.6616  15.6869
    15.7303  15.7945  15.8555  15.9418  15.9757  16.0390  16.0814  16.1121
    16.2207  16.2771  16.3516  16.4135  16.4813  16.5408  16.5714  16.6545
    16.7165  16.7590  16.7978  16.8674  16.9616  17.0311  17.1907  17.2526
    17.2938  17.3404  17.3935  17.4419  17.5034  17.6004  17.6425  17.6926
    17.7401  17.8259  17.8575  17.8863  17.9261  18.0094  18.0650  18.1561
    18.2266  18.3123  18.3985  18.5128  18.6033  18.6922  18.7587  18.7901
    18.8143  18.8869  19.0401  19.0567  19.1368  19.2272  19.2891  19.3789
    19.3926  19.4812  19.5728  19.6383  19.7032  19.7637  19.8213  19.8716
    19.9586  20.0170  20.1487  20.2795  20.3176  20.3843  20.4450  20.5373
    20.6708  20.6923  20.7549  20.7975  20.8280  20.8856  20.9509  21.0483
    21.1163  21.1387  21.1884  21.2452  21.2909  21.3201  21.3631  21.4563
    21.5148  21.5842  21.6772  21.7061  21.7235  21.8463  21.8875  21.9386
    21.9948  22.0390  22.0886  22.1595  22.2341  22.3245  22.4089

     the Fermi energy is    -0.8353 ev

!    total energy              =   -2136.80172589 Ry
     Harris-Foulkes estimate   =   -2136.80172589 Ry
     estimated scf accuracy    <          1.7E-09 Ry

     The total energy is the sum of the following terms:

     one-electron contribution =  -23173.88419230 Ry
     hartree contribution      =   11639.88582682 Ry
     xc contribution           =    -584.27303786 Ry
     ewald contribution        =    9978.95647286 Ry
     Hubbard energy            =       2.51321639 Ry
     smearing contrib. (-TS)   =      -0.00001180 Ry

     convergence has been achieved in  16 iterations

     Forces acting on atoms (Ry/au):

     negative rho (up, down):  0.314E+01 0.000E+00
     atom    1 type  1   force =    -0.00718637   -0.01221277    0.00001879
     atom    2 type  1   force =     0.00009667    0.00295839   -0.00057843
     atom    3 type  2   force =     0.03040494    0.00589272    0.00006408
     atom    4 type  2   force =     0.00834913    0.00708093    0.00016787
     atom    5 type  1   force =    -0.00526881   -0.01906934   -0.00030178
     atom    6 type  1   force =     0.00617197    0.01875195   -0.00009647
     atom    7 type  1   force =    -0.00045057   -0.00438434   -0.00018128
     atom    8 type  1   force =    -0.00306127    0.00079964   -0.00001951
     atom    9 type  2   force =     0.00610966    0.00045402    0.00014904
     atom   10 type  2   force =    -0.00013651    0.00070322   -0.00002841
     atom   11 type  1   force =    -0.00111392    0.02242158    0.00016529
     atom   12 type  1   force =     0.00543073   -0.01722183    0.00020537
     atom   13 type  1   force =    -0.00075874   -0.00275164   -0.00017016
     atom   14 type  1   force =    -0.00660808   -0.01230738    0.00016245
     atom   15 type  1   force =     0.00006562    0.00301960   -0.00023430
     atom   16 type  2   force =    -0.03003768    0.00576091    0.00004926
     atom   17 type  2   force =     0.00818091    0.00756515    0.00013513
     atom   18 type  1   force =    -0.00433644   -0.01979608   -0.00029118
     atom   19 type  1   force =     0.00683676    0.01814820   -0.00010149
     atom   20 type  1   force =    -0.00031422   -0.00740740    0.00056148
     atom   21 type  1   force =    -0.00314687    0.00149583   -0.00015472
     atom   22 type  2   force =    -0.00385753   -0.00003625    0.00019909
     atom   23 type  2   force =    -0.00048542    0.00391717   -0.00025475
     atom   24 type  1   force =     0.00069383    0.02217875    0.00019441
     atom   25 type  1   force =    -0.00449535   -0.01737461    0.00025589
     atom   26 type  1   force =    -0.00091828   -0.00976771    0.00050570
     atom   27 type  3   force =     0.00001503    0.00045282    0.00027074
     atom   28 type  3   force =     0.00002368    0.00041928    0.00064956
     atom   29 type  3   force =    -0.00009148    0.00019321    0.00024358
     atom   30 type  3   force =    -0.00025153    0.00029933    0.00009923
     atom   31 type  1   force =    -0.00018314   -0.00044436   -0.00006518
     atom   32 type  1   force =     0.00031997    0.00081761   -0.00088769
     atom   33 type  3   force =     0.00000330   -0.00055661   -0.00073159

     Total force =     0.002325     Total SCF correction =     0.000089

     entering subroutine stress ...

     negative rho (up, down):  0.314E+01 0.000E+00
          total   stress  (Ry/bohr**3)                   (kbar)     P=  -16.17
  -0.00013626   0.00000860   0.00000372        -20.04      1.27      0.55
   0.00000860  -0.00014331   0.00000437          1.27    -21.08      0.64
   0.00000372   0.00000437  -0.00005024          0.55      0.64     -7.39

     bfgs converged in   9 scf cycles and   8 bfgs steps
     (criteria: energy < 0.10E-03, force < 0.10E-02)

     End of BFGS Geometry Optimization

     Final energy   =   -2136.8017258855 Ry
Begin final coordinates

ATOMIC_POSITIONS (crystal)
O0       0.000000000   0.000000000   0.378297788    0   0   1
O0       0.000000000   0.500000000   0.403049036    0   0   1
Ir1      0.250000000   0.500000000   0.453045905    0   0   1
Ir1      0.000000000   0.000000000   0.452853226    0   0   1
O0       0.250000000   0.810000000   0.452959641    0   0   1
O0       0.250000000   0.190000000   0.452422179    0   0   1
O0       0.000000000   0.500000000   0.499094811    0   0   1
O0       0.000000000   0.000000000   0.528180603    0   0   1
Ir1      0.250000000   0.000000000   0.574697640    0   0   1
Ir1      0.000000000   0.500000000   0.571757142    0   0   1
O0       0.250000000   0.690000000   0.573645862    0   0   1
O0       0.250000000   0.310000000   0.575848121    0   0   1
O0       0.000000000   0.000000000   0.619369087    0   0   1
O0       0.500000000   0.000000000   0.378108680    0   0   1
O0       0.500000000   0.500000000   0.402820908    0   0   1
Ir1      0.750000000   0.500000000   0.453042941    0   0   1
Ir1      0.500000000   0.000000000   0.452637051    0   0   1
O0       0.750000000   0.810000000   0.452953722    0   0   1
O0       0.750000000   0.190000000   0.452440532    0   0   1
O0       0.500000000   0.500000000   0.500028415    0   0   1
O0       0.500000000   0.000000000   0.528100618    0   0   1
Ir1      0.750000000   0.000000000   0.574699088    0   0   1
Ir1      0.500000000   0.500000000   0.576929474    0   0   1
O0       0.750000000   0.690000000   0.573654815    0   0   1
O0       0.750000000   0.310000000   0.575862303    0   0   1
O0       0.500000000   0.000000000   0.618944116    0   0   1
H2      -0.000137631   0.634039627   0.384533266
H2       0.499787221   0.635453708   0.384868015
H2       0.143066276   0.036249004   0.366776928
H2       0.643612345   0.034568251   0.366653659
O0       0.499358721   0.535519700   0.649509458
O0       0.500621855   0.346023640   0.678744880
H2       0.499996024   0.407889563   0.713040090
End final coordinates

     General routines

     Parallel routines
     Hubbard U routines

   This run was terminated on:  13: 5:44  30May2014

   JOB DONE.
Running PBS batch system epilogue script
Job id: 373287.audhumbla.fysik.dtu.dk
Username: zhonxu
Groupname: campgst
Jobname: IrO2/Eads-2-layers/OOH-U-7.0
Sessionid: 30515
Queuename: verylong
Accounting:
This job has allocated the following 16 nodes:
c139 c139 c139 c139 c139 c139 c139 c139 c121 c121 c121 c121 c121 c121 c121 c121
Finished epilogue job 373287.audhumbla.fysik.dtu.dk for zhonxu