     Program PWSCF v.5.0.2 (svn rev. 9656) starts on  4May2014 at 20: 5:52

     Current dimensions of program PWSCF are:
     Max number of different atomic species (ntypx) = 10
     Max number of k-points (npk) =  40000
     Max angular momentum in pseudopotentials (lmaxx) =  3
     Reading input from pwscf.in
Warning: card &CELL ignored
Warning: card / ignored

     Subspace diagonalization in iterative solution of the eigenvalue problem:
     a serial algorithm will be used

     bravais-lattice index     =            0
     lattice parameter (alat)  =      10.7336  a.u.
     unit-cell volume          =    6184.1966 (a.u.)^3
     number of atoms/cell      =           32
     number of atomic types    =            3
     number of electrons       =       239.00 (up: 131.00, down: 108.00)
     number of Kohn-Sham states=          346
     kinetic-energy cutoff     =      40.0000  Ry
     charge density cutoff     =     500.0000  Ry
     convergence threshold     =      1.0E-06
     mixing beta               =       0.7000
     number of iterations used =            8  plain     mixing
     Exchange-correlation      = SLA  PW   PBE  PBE ( 1 4 3 4 0)
     EXX-fraction              =        0.00
     nstep                     =           50

     celldm(1)=  10.733644  celldm(2)=   0.000000  celldm(3)=   0.000000
     celldm(4)=   0.000000  celldm(5)=   0.000000  celldm(6)=   0.000000

     crystal axes: (cart. coord. in units of alat)
               a(1) = (   1.000000   0.000000   0.000000 )
               a(2) = (   0.000000   1.085558   0.000000 )
               a(3) = (   0.000000   0.000000   4.606685 )

     reciprocal axes: (cart. coord. in units 2 pi/alat)
               b(1) = (  1.000000  0.000000  0.000000 )
               b(2) = (  0.000000  0.921185  0.000000 )
               b(3) = (  0.000000  0.000000  0.217076 )

     PseudoPot. # 1 for O  read from file:
     /home/camp/zhonxu/pseudo/o_pbe_v1.01.uspp.F.UPF
     MD5 check sum: 2bcb18d16ea4b960afae9ec6d52f22d2
     Pseudo is Ultrasoft + core correction, Zval =  6.0
     Generated by new atomic code, or converted to UPF format
     Using radial grid of  737 points,  5 beta functions with:
                l(1) =   0
                l(2) =   0
                l(3) =   1
                l(4) =   1
                l(5) =   2
     Q(r) pseudized with  8 coefficients,  rinner =    0.900   0.900   0.900
                                                       0.900   0.900

     PseudoPot. # 2 for Mn read from file:
     /home/camp/zhonxu/pseudo/mn_pbe_v1.uspp.F.UPF
     MD5 check sum: 5fd7c7b5c956fd19902447332617373a
     Pseudo is Ultrasoft + core correction, Zval = 15.0
     Generated by new atomic code, or converted to UPF format
     Using radial grid of  859 points,  6 beta functions with:
                l(1) =   0
                l(2) =   0
                l(3) =   1
                l(4) =   1
                l(5) =   2
                l(6) =   2
     Q(r) pseudized with  6 coefficients,  rinner =    1.150   1.150   1.150
                                                       1.150   1.150

     PseudoPot. # 3 for H  read from file:
     /home/camp/zhonxu/pseudo/h_pbe_v1.uspp.F.UPF
     MD5 check sum: 3408e3ff4ec8b0a4e358431e7e038a48
     Pseudo is Ultrasoft, Zval =  1.0
     Generated by new atomic code, or converted to UPF format
     Using radial grid of  615 points,  2 beta functions with:
                l(1) =   0
                l(2) =   0
     Q(r) pseudized with  8 coefficients,  rinner =    0.700

     atomic species   valence    mass     pseudopotential
        O0             6.00    15.99940     O ( 1.00)
        Mn1           15.00    54.93800     Mn( 1.00)
        H2             1.00     1.00794     H ( 1.00)

     Starting magnetic structure
     atomic species   magnetization
        O0           0.000
        Mn1          0.600
        H2           0.000

     Simplified LDA+U calculation (l_max = 2) with parameters (eV):
     atomic species    L          U    alpha       J0     beta
        Mn1            2     4.5000   0.0000   0.0000   0.0000

     No symmetry found

   Cartesian axes

     site n.     atom                  positions (alat units)
         1           O0  tau(   1) = (   0.0000000   0.0000000   1.7414191  )
         2           O0  tau(   2) = (   0.0000000   0.5427791   1.8381134  )
         3           Mn1 tau(   3) = (   0.2500000   0.5427791   2.0740217  )
         4           Mn1 tau(   4) = (   0.0000000   0.0000000   2.0686319  )
         5           O0  tau(   5) = (   0.2500000   0.8684466   2.0678488  )
         6           O0  tau(   6) = (   0.2500000   0.2171117   2.0737453  )
         7           O0  tau(   7) = (   0.0000000   0.5427791   2.2873573  )
         8           O0  tau(   8) = (   0.0000000   0.0000000   2.4132120  )
         9           Mn1 tau(   9) = (   0.2500000   0.0000000   2.6399991  )
        10           Mn1 tau(  10) = (   0.0000000   0.5427791   2.6085815  )
        11           O0  tau(  11) = (   0.2500000   0.7598908   2.6551551  )
        12           O0  tau(  12) = (   0.2500000   0.3256675   2.6556157  )
        13           O0  tau(  13) = (   0.0000000   0.0000000   2.8417258  )
        14           O0  tau(  14) = (   0.5000000   0.0000000   1.7428932  )
        15           O0  tau(  15) = (   0.5000000   0.5427791   1.8386662  )
        16           Mn1 tau(  16) = (   0.7500000   0.5427791   2.0740678  )
        17           Mn1 tau(  17) = (   0.5000000   0.0000000   2.0707510  )
        18           O0  tau(  18) = (   0.7500000   0.8684466   2.0677106  )
        19           O0  tau(  19) = (   0.7500000   0.2171117   2.0738835  )
        20           O0  tau(  20) = (   0.5000000   0.5427791   2.2871270  )
        21           O0  tau(  21) = (   0.5000000   0.0000000   2.4132120  )
        22           Mn1 tau(  22) = (   0.7500000   0.0000000   2.6413811  )
        23           Mn1 tau(  23) = (   0.5000000   0.5427791   2.6662572  )
        24           O0  tau(  24) = (   0.7500000   0.7598908   2.6473698  )
        25           O0  tau(  25) = (   0.7500000   0.3256675   2.6477844  )
        26           O0  tau(  26) = (   0.5000000   0.0000000   2.8412191  )
        27           H2  tau(  27) = (   0.0000400   0.7014118   1.7620570  )
        28           H2  tau(  28) = (   0.5000900   0.7016832   1.7629323  )
        29           H2  tau(  29) = (   0.1613600   0.0398291   1.6869220  )
        30           H2  tau(  30) = (   0.6610200   0.0399703   1.6876591  )
        31           O0  tau(  31) = (   0.5153900   0.5432351   2.9826904  )
        32           H2  tau(  32) = (   0.3575300   0.5430397   3.0540479  )

     number of k points=    20  Methfessel-Paxton smearing, width (Ry)=  0.0100
                       cart. coord. in units 2pi/alat
        k(    1) = (   0.0000000   0.0000000   0.0000000), wk =   0.0625000
        k(    2) = (   0.0000000   0.2302962   0.0000000), wk =   0.1250000
        k(    3) = (   0.0000000  -0.4605925   0.0000000), wk =   0.0625000
        k(    4) = (   0.2500000   0.0000000   0.0000000), wk =   0.1250000
        k(    5) = (   0.2500000   0.2302962   0.0000000), wk =   0.1250000
        k(    6) = (   0.2500000  -0.4605925   0.0000000), wk =   0.1250000
        k(    7) = (  -0.5000000   0.0000000   0.0000000), wk =   0.0625000
        k(    8) = (  -0.5000000   0.2302962   0.0000000), wk =   0.1250000
        k(    9) = (  -0.5000000  -0.4605925   0.0000000), wk =   0.0625000
        k(   10) = (  -0.2500000   0.2302962   0.0000000), wk =   0.1250000
        k(   11) = (   0.0000000   0.0000000   0.0000000), wk =   0.0625000
        k(   12) = (   0.0000000   0.2302962   0.0000000), wk =   0.1250000
        k(   13) = (   0.0000000  -0.4605925   0.0000000), wk =   0.0625000
        k(   14) = (   0.2500000   0.0000000   0.0000000), wk =   0.1250000
        k(   15) = (   0.2500000   0.2302962   0.0000000), wk =   0.1250000
        k(   16) = (   0.2500000  -0.4605925   0.0000000), wk =   0.1250000
        k(   17) = (  -0.5000000   0.0000000   0.0000000), wk =   0.0625000
        k(   18) = (  -0.5000000   0.2302962   0.0000000), wk =   0.1250000
        k(   19) = (  -0.5000000  -0.4605925   0.0000000), wk =   0.0625000
        k(   20) = (  -0.2500000   0.2302962   0.0000000), wk =   0.1250000

     Largest allocated arrays     est. size (Mb)     dimensions
     Largest temporary arrays     est. size (Mb)     dimensions

     Check: negative/imaginary core charge=   -0.000022    0.000000

     Initial potential from superposition of free atoms
     Check: negative starting charge=(component1):   -0.000716
     Check: negative starting charge=(component2):   -0.000389

     starting charge  230.99986, renormalised to  239.00000

     negative rho (up, down):  0.741E-03 0.403E-03
     Number of +U iterations with fixed ns =  0
     Starting occupations:
 --- enter write_ns ---
 LDA+U parameters:
U( 2)     =  4.50000000
alpha( 2) =  0.00000000
atom    3   Tr[ns(na)] (up, down, total) =   5.00000  0.00000  5.00000
   spin  1
    eigenvalues:
  1.000  1.000  1.000  1.000  1.000
    eigenvectors:
  1.000  0.000  0.000  0.000  0.000
  0.000  1.000  0.000  0.000  0.000
  0.000  0.000  1.000  0.000  0.000
  0.000  0.000  0.000  1.000  0.000
  0.000  0.000  0.000  0.000  1.000
    occupations:
  1.000  0.000  0.000  0.000  0.000
  0.000  1.000  0.000  0.000  0.000
  0.000  0.000  1.000  0.000  0.000
  0.000  0.000  0.000  1.000  0.000
  0.000  0.000  0.000  0.000  1.000
   spin  2
    eigenvalues:
  0.000  0.000  0.000  0.000  0.000
    eigenvectors:
  1.000  0.000  0.000  0.000  0.000
  0.000  1.000  0.000  0.000  0.000
  0.000  0.000  1.000  0.000  0.000
  0.000  0.000  0.000  1.000  0.000
  0.000  0.000  0.000  0.000  1.000
    occupations:
  0.000  0.000  0.000  0.000  0.000
  0.000  0.000  0.000  0.000  0.000
  0.000  0.000  0.000  0.000  0.000
  0.000  0.000  0.000  0.000  0.000
  0.000  0.000  0.000  0.000  0.000
atomic mag. moment =     5.000000
atom    4   Tr[ns(na)] (up, down, total) =   5.00000  0.00000  5.00000
   spin  1
    eigenvalues:
  1.000  1.000  1.000  1.000  1.000
    eigenvectors:
  1.000  0.000  0.000  0.000  0.000
  0.000  1.000  0.000  0.000  0.000
  0.000  0.000  1.000  0.000  0.000
  0.000  0.000  0.000  1.000  0.000
  0.000  0.000  0.000  0.000  1.000
    occupations:
  1.000  0.000  0.000  0.000  0.000
  0.000  1.000  0.000  0.000  0.000
  0.000  0.000  1.000  0.000  0.000
  0.000  0.000  0.000  1.000  0.000
  0.000  0.000  0.000  0.000  1.000
   spin  2
    eigenvalues:
  0.000  0.000  0.000  0.000  0.000
    eigenvectors:
  1.000  0.000  0.000  0.000  0.000
  0.000  1.000  0.000  0.000  0.000
  0.000  0.000  1.000  0.000  0.000
  0.000  0.000  0.000  1.000  0.000
  0.000  0.000  0.000  0.000  1.000
    occupations:
  0.000  0.000  0.000  0.000  0.000
  0.000  0.000  0.000  0.000  0.000
  0.000  0.000  0.000  0.000  0.000
  0.000  0.000  0.000  0.000  0.000
  0.000  0.000  0.000  0.000  0.000
atomic mag. moment =     5.000000
atom    9   Tr[ns(na)] (up, down, total) =   5.00000  0.00000  5.00000
   spin  1
    eigenvalues:
  1.000  1.000  1.000  1.000  1.000
[...]
    eigenvectors:
  0.779  0.000  0.003  0.003  0.214
  0.000  0.002  0.000  0.989  0.009
  0.004  0.000  0.996  0.000  0.000
  0.217  0.000  0.001  0.006  0.777
  0.000  0.998  0.000  0.002  0.000
    occupations:
  0.151 -0.003 -0.002  0.114 -0.000
 -0.003  0.357  0.000  0.003  0.010
 -0.002  0.000  0.135  0.002  0.000
  0.114  0.003  0.002  0.307  0.000
 -0.000  0.010  0.000  0.000  0.119
atomic mag. moment =     3.270846
atom    4   Tr[ns(na)] (up, down, total) =   4.33672  1.06208  5.39881
   spin  1
    eigenvalues:
  0.636  0.697  0.996  1.004  1.004
    eigenvectors:
  0.000  0.998  0.001  0.001  0.000
  0.000  0.001  0.000  0.934  0.065
  0.000  0.000  0.000  0.065  0.935
  0.000  0.000  0.999  0.000  0.000
  1.000  0.000  0.000  0.000  0.000
    occupations:
  0.697 -0.010 -0.006  0.007 -0.001
 -0.010  1.003 -0.000  0.000  0.000
 -0.006 -0.000  1.004  0.000  0.000
  0.007  0.000  0.000  0.996  0.000
 -0.001  0.000  0.000  0.000  0.636
   spin  2
    eigenvalues:
  0.089  0.116  0.132  0.353  0.372
    eigenvectors:
  0.004  0.003  0.000  0.994  0.000
  0.002  0.828  0.168  0.003  0.000
  0.001  0.166  0.832  0.001  0.000
  0.994  0.003  0.000  0.003  0.000
  0.000  0.000  0.000  0.000  1.000
    occupations:
  0.352  0.012  0.006 -0.015  0.000
  0.012  0.119 -0.006  0.000 -0.005
  0.006 -0.006  0.129  0.001 -0.000
 -0.015  0.000  0.001  0.090 -0.000
  0.000 -0.005 -0.000 -0.000  0.371
atomic mag. moment =     3.274637
atom    9   Tr[ns(na)] (up, down, total) =   4.32175  1.11119  5.43294
   spin  1
    eigenvalues:
  0.671  0.688  0.972  0.992  0.999
    eigenvectors:
  0.224  0.000  0.000  0.000  0.776
  0.000  1.000  0.000  0.000  0.000
  0.000  0.000  0.006  0.994  0.000
  0.776  0.000  0.000  0.000  0.224
  0.000  0.000  0.994  0.006  0.000
    occupations:
  0.925  0.001 -0.000 -0.137  0.000
  0.001  0.688  0.000 -0.001  0.000
 -0.000  0.000  0.992 -0.000  0.002
 -0.137 -0.001 -0.000  0.745  0.000
  0.000  0.000  0.002  0.000  0.972
   spin  2
    eigenvalues:
  0.106  0.124  0.128  0.367  0.386
    eigenvectors:
  0.812  0.000  0.000  0.187  0.001
  0.000  0.000  0.000  0.007  0.993
  0.000  0.000  1.000  0.000  0.000
  0.188  0.000  0.000  0.806  0.006
  0.000  1.000  0.000  0.000  0.000
    occupations:
  0.155 -0.001  0.000  0.102 -0.000
 -0.001  0.386 -0.000  0.002 -0.000
  0.000 -0.000  0.128  0.000 -0.000
  0.102  0.002  0.000  0.318 -0.000
 -0.000 -0.000 -0.000 -0.000  0.124
atomic mag. moment =     3.210568
atom   10   Tr[ns(na)] (up, down, total) =   4.56731  0.76092  5.32822
   spin  1
    eigenvalues:
  0.639  0.933  0.996  0.999  1.000
    eigenvectors:
  0.000  0.972  0.027  0.001  0.000
  0.000  0.002  0.011  0.987  0.000
  0.000  0.000  0.000  0.000  1.000
  0.000  0.026  0.962  0.012  0.000
  1.000  0.000  0.000  0.000  0.000
    occupations:
  0.935 -0.003  0.000  0.010  0.000
 -0.003  0.999  0.000  0.001 -0.001
  0.000  0.000  1.000 -0.000  0.007
  0.010  0.001 -0.000  0.995 -0.000
  0.000 -0.001  0.007 -0.000  0.639
   spin  2
    eigenvalues:
  0.076  0.090  0.097  0.171  0.327
    eigenvectors:
  0.024  0.000  0.000  0.976  0.000
  0.000  0.000  1.000  0.000  0.000
  0.000  1.000  0.000  0.000  0.000
  0.976  0.000  0.000  0.024  0.000
  0.000  0.000  0.000  0.000  1.000
    occupations:
  0.168  0.001 -0.000 -0.014  0.000
  0.001  0.097  0.000 -0.000  0.001
 -0.000  0.000  0.090 -0.000 -0.004
 -0.014 -0.000 -0.000  0.078 -0.000
  0.000  0.001 -0.004 -0.000  0.327
atomic mag. moment =     3.806387
atom   16   Tr[ns(na)] (up, down, total) =   4.33910  1.06760  5.40670
   spin  1
    eigenvalues:
  0.659  0.680  0.998  0.999  1.003
    eigenvectors:
  0.230  0.014  0.001  0.706  0.049
  0.090  0.908  0.001  0.001  0.000
  0.000  0.000  0.000  0.062  0.938
  0.679  0.077  0.000  0.231  0.012
  0.000  0.001  0.998  0.001  0.000
    occupations:
  0.916 -0.013 -0.003 -0.145 -0.000
 -0.013  0.679 -0.000  0.000 -0.009
 -0.003 -0.000  1.003 -0.004 -0.000
 -0.145  0.000 -0.004  0.743  0.000
 -0.000 -0.009 -0.000  0.000  0.998
   spin  2
    eigenvalues:
  0.091  0.118  0.135  0.356  0.367
    eigenvectors:
  0.779  0.000  0.003  0.005  0.213
  0.000  0.002  0.000  0.983  0.015
  0.004  0.001  0.996  0.000  0.000
  0.217  0.000  0.001  0.010  0.772
  0.000  0.997  0.001  0.002  0.000
    occupations:
  0.152  0.003 -0.002  0.114  0.000
  0.003  0.356  0.000 -0.003  0.010
 -0.002  0.000  0.135  0.002 -0.000
  0.114 -0.003  0.002  0.307 -0.000
  0.000  0.010 -0.000 -0.000  0.118
atomic mag. moment =     3.271499
atom   17   Tr[ns(na)] (up, down, total) =   4.33620  1.06168  5.39788
   spin  1
    eigenvalues:
  0.638  0.695  0.996  1.004  1.004
    eigenvectors:
  0.000  0.998  0.000  0.001  0.000
  0.000  0.001  0.000  0.942  0.057
  0.000  0.000  0.000  0.057  0.943
  0.000  0.000  0.999  0.000  0.000
  1.000  0.000  0.000  0.000  0.000
    occupations:
  0.696 -0.010 -0.006  0.006 -0.001
 -0.010  1.003 -0.000  0.000  0.000
 -0.006 -0.000  1.004  0.000 -0.000
  0.006  0.000  0.000  0.996  0.000
 -0.001  0.000 -0.000  0.000  0.638
   spin  2
    eigenvalues:
  0.090  0.116  0.131  0.353  0.372
    eigenvectors:
  0.004  0.003  0.000  0.994  0.000
  0.002  0.820  0.176  0.002  0.000
  0.001  0.174  0.824  0.001  0.000
  0.994  0.003  0.000  0.003  0.000
  0.000  0.000  0.000  0.000  0.999
    occupations:
  0.351  0.012  0.006 -0.015  0.000
  0.012  0.120 -0.005  0.000 -0.005
  0.006 -0.005  0.129  0.001  0.000
 -0.015  0.000  0.001  0.091 -0.000
  0.000 -0.005  0.000 -0.000  0.372
atomic mag. moment =     3.274520
atom   22   Tr[ns(na)] (up, down, total) =   4.31563  1.11946  5.43509
   spin  1
    eigenvalues:
  0.669  0.686  0.970  0.992  0.999
    eigenvectors:
  0.227  0.001  0.000  0.000  0.772
  0.004  0.996  0.000  0.000  0.000
  0.000  0.000  0.036  0.964  0.000
  0.770  0.003  0.000  0.000  0.228
  0.000  0.000  0.964  0.036  0.000
    occupations:
  0.924 -0.001 -0.000 -0.138 -0.000
 -0.001  0.686  0.000  0.002  0.000
 -0.000  0.000  0.991 -0.000 -0.004
 -0.138  0.002 -0.000  0.744 -0.000
 -0.000  0.000 -0.004 -0.000  0.971
   spin  2
    eigenvalues:
  0.106  0.125  0.130  0.373  0.386
    eigenvectors:
  0.809  0.000  0.000  0.190  0.002
  0.000  0.000  0.000  0.012  0.988
  0.000  0.002  0.998  0.000  0.000
  0.191  0.000  0.000  0.798  0.010
  0.000  0.998  0.002  0.000  0.000
    occupations:
  0.157  0.001  0.000  0.105 -0.000
  0.001  0.386 -0.000 -0.002 -0.000
  0.000 -0.000  0.130  0.001 -0.000
  0.105 -0.002  0.001  0.322  0.000
 -0.000 -0.000 -0.000  0.000  0.125
atomic mag. moment =     3.196164
atom   23   Tr[ns(na)] (up, down, total) =   4.36416  1.01760  5.38176
   spin  1
    eigenvalues:
  0.650  0.717  0.997  0.999  1.000
    eigenvectors:
  0.000  1.000  0.000  0.000  0.000
  0.000  0.000  0.072  0.926  0.002
  0.000  0.000  0.000  0.002  0.997
  0.000  0.000  0.928  0.072  0.000
  1.000  0.000  0.000  0.000  0.000
    occupations:
  0.717  0.004  0.002  0.004 -0.000
  0.004  0.999 -0.000 -0.001 -0.001
  0.002 -0.000  1.000 -0.000 -0.006
  0.004 -0.001 -0.000  0.997 -0.000
 -0.000 -0.001 -0.006 -0.000  0.650
   spin  2
    eigenvalues:
  0.091  0.109  0.117  0.327  0.374
    eigenvectors:
  0.004  0.000  0.000  0.996  0.000
  0.000  0.999  0.001  0.000  0.000
  0.000  0.001  0.999  0.000  0.000
  0.996  0.000  0.000  0.003  0.000
  0.000  0.000  0.000  0.000  1.000
    occupations:
  0.326 -0.001 -0.001 -0.014  0.000
 -0.001  0.109 -0.000 -0.000  0.001
 -0.001 -0.000  0.117  0.000  0.006
 -0.014 -0.000  0.000  0.092  0.000
  0.000  0.001  0.006  0.000  0.374
atomic mag. moment =     3.346560
N of occupied +U levels =  43.1889199
 --- exit write_ns ---

 ------ SPIN UP ------------

[...]

 ------ SPIN DOWN ----------

[...]

          k = 0.2500-0.4606 0.0000 ( 26462 PWs)   bands (ev):

[...]

          k =-0.2500 0.2303 0.0000 ( 26396 PWs)   bands (ev):

   -80.4003 -80.3915 -80.3158 -80.3070 -80.2970 -80.2759 -80.2527 -79.3979
   -49.2859 -49.2471 -49.2268 -49.2181 -49.2142 -49.2135 -49.1896 -49.1722
   -49.1601 -49.1389 -49.1168 -49.1133 -49.1070 -49.1011 -49.0991 -49.0754
   -48.9802 -48.9619 -48.9348 -48.8929 -48.8644 -48.5057 -48.3822 -47.7867
   -21.6470 -21.1920 -21.1486 -20.8275 -20.5567 -20.4053 -20.2660 -20.2467
   -20.1375 -20.0009 -19.9502 -19.9199 -19.7889 -19.7608 -19.7340 -19.6734
   -19.5307 -19.4179 -19.3897  -9.0300  -8.7959  -8.3819  -8.3156  -8.2679
    -8.0249  -7.8891  -7.7730  -7.5250  -7.4492  -7.3698  -7.1960  -7.1326
    -7.0437  -7.0028  -6.9287  -6.8554  -6.7577  -6.6313  -6.5834  -6.4124
    -6.3637  -6.2747  -6.1546  -6.0962  -6.0317  -5.8269  -5.7094  -5.6443
    -5.5829  -5.4711  -5.4032  -5.3176  -5.2374  -5.2011  -5.0659  -4.9836
    -4.8283  -4.7049  -4.6494  -4.5949  -4.5182  -4.4111  -4.3500  -4.3033
    -4.1574  -4.0640  -3.9939  -3.8700  -3.7303  -3.6005  -3.5638  -3.4620
    -3.2019  -3.1328  -3.0666  -2.7427   0.5515   0.5828   0.6016   0.6659
     0.6755   0.7186   0.7417   0.7763   0.8604   0.8881   0.9682   1.0307
     1.1149   1.1484   1.2172   1.2884   1.3264   1.3553   1.3941   1.4909
     1.5671   1.6267   1.6668   1.7215   1.7448   1.7897   1.8441   1.9264
     2.0484   2.1830   2.2030   2.2894   2.3833   2.4694   2.5983   2.6199
     2.7362   2.9356   3.0369   3.1244   3.8314   4.0469   4.3863   4.8585
     5.3851   5.7251   5.8974   6.0239   6.2841   6.4532   6.5629   6.7111
     6.8007   6.9495   7.0956   7.3897   7.5065   7.7689   7.8939   7.9912
     8.2774   8.4112   8.4949   8.6555   8.7584   8.9095   8.9281   9.0809
     9.2046   9.3260   9.4583   9.5475   9.7013   9.8294   9.9300  10.0574
    10.1636  10.2128  10.3167  10.4250  10.5678  10.7221  10.7995  10.9682
    11.0217  11.1113  11.1758  11.2756  11.3817  11.4511  11.5194  11.6949
    11.7285  11.7872  11.8501  11.9652  12.0012  12.1288  12.2031  12.3131
    12.4228  12.4777  12.5969  12.7064  12.8186  12.8845  12.9091  12.9948
    13.0612  13.1196  13.1753  13.2574  13.3367  13.3846  13.4557  13.5803
    13.6130  13.7005  13.7635  13.8158  13.8492  13.9346  14.0385  14.0844
    14.1434  14.2497  14.2959  14.3382  14.4389  14.4883  14.5377  14.6422
    14.7405  14.8071  14.8423  14.9462  15.0316  15.0944  15.1216  15.2398
    15.3332  15.3931  15.5247  15.6471  15.7039  15.8423  15.8599  16.0322
    16.0900  16.1902  16.2644  16.3091  16.3864  16.4518  16.4883  16.5617
    16.6383  16.7079  16.8398  16.8919  16.9728  17.0281  17.1375  17.1938
    17.2538  17.3186  17.3966  17.4586  17.5489  17.6170  17.6869  17.7741
    17.8636  17.8932  17.9946  18.0773  18.0977  18.2225  18.3009  18.3157
    18.4023  18.4786  18.5614  18.5933  18.6534  18.8030  18.8476  18.9345
    19.0437  19.0819  19.1299  19.2127  19.2474  19.3291  19.4099  19.4708
    19.5412  19.6638  19.8154  19.8674  19.9054  19.9888  20.0643  20.0906
    20.1345  20.2262  20.2880  20.3246  20.3760  20.4298  20.5880  20.6397
    20.7148  20.8716  20.9679  21.0222  21.0742  21.1353  21.1980  21.2321
    21.3561  21.4180  21.5012  21.5880  21.6655  21.7131  21.7507  21.8088
    21.8462  21.9852  22.0694  22.1537  22.2390  22.3495  22.4210  22.4658
    22.5347  22.6510

     the spin up/dw Fermi energies are    -2.3034   -0.0803 ev

!    total energy              =   -2320.48750005 Ry
     Harris-Foulkes estimate   =   -2320.48750005 Ry
     estimated scf accuracy    <          4.8E-09 Ry

     The total energy is the sum of the following terms:

     one-electron contribution =  -26329.27750387 Ry
     hartree contribution      =   13183.54579618 Ry
     xc contribution           =    -349.46472177 Ry
     ewald contribution        =   11173.15339548 Ry
     Hubbard energy            =       1.55507688 Ry
     smearing contrib. (-TS)   =       0.00045706 Ry

     total magnetization       =    23.00 Bohr mag/cell
     absolute magnetization    =    31.86 Bohr mag/cell

     convergence has been achieved in  15 iterations

     Forces acting on atoms (Ry/au):

     negative rho (up, down):  0.194E-02 0.140E-02
     atom    1 type  1   force =    -0.00548987   -0.01446961    0.00035196
     atom    2 type  1   force =     0.00039458    0.00805912    0.00003033
     atom    3 type  2   force =     0.01723839    0.00083623    0.00007507
     atom    4 type  2   force =     0.00691788    0.01232454   -0.00018574
     atom    5 type  1   force =     0.00203006    0.01445062   -0.00014134
     atom    6 type  1   force =    -0.00175569   -0.02023589   -0.00026783
     atom    7 type  1   force =     0.00258499    0.00163411   -0.00002083
     atom    8 type  1   force =     0.00077607   -0.00227294   -0.00042524
     atom    9 type  2   force =     0.00788800    0.00008624    0.00046170
     atom   10 type  2   force =    -0.00037897   -0.00125923   -0.00020986
     atom   11 type  1   force =    -0.01407509   -0.02944044   -0.00004699
     atom   12 type  1   force =    -0.01406245    0.02985146    0.00013032
     atom   13 type  1   force =    -0.00202897   -0.00055326   -0.00017271
     atom   14 type  1   force =    -0.00505617   -0.01376535    0.00030254
     atom   15 type  1   force =     0.00052214    0.00724981   -0.00042668
     atom   16 type  2   force =    -0.01904049    0.00087033    0.00003701
     atom   17 type  2   force =     0.00708791    0.01216023   -0.00050005
     atom   18 type  1   force =     0.00183115    0.01431595   -0.00010663
     atom   19 type  1   force =    -0.00240917   -0.02017023   -0.00021354
     atom   20 type  1   force =    -0.00242677    0.00186223    0.00077098
     atom   21 type  1   force =    -0.00370466   -0.00228814   -0.00062174
     atom   22 type  2   force =    -0.00691862    0.00040642    0.00019957
     atom   23 type  2   force =     0.00336621   -0.00041139   -0.00012947
     atom   24 type  1   force =     0.01252222   -0.02429405    0.00022540
     atom   25 type  1   force =     0.01310852    0.02453255    0.00033551
     atom   26 type  1   force =     0.00138566   -0.00043435   -0.00004415
     atom   27 type  3   force =     0.00001978    0.00018923    0.00036983
     atom   28 type  3   force =     0.00001098    0.00050757    0.00039168
     atom   29 type  3   force =    -0.00024925    0.00005616   -0.00018179
     atom   30 type  3   force =    -0.00021293    0.00008462   -0.00003240
     atom   31 type  1   force =     0.00011120    0.00013139   -0.00046692
     atom   32 type  3   force =     0.00001335   -0.00001393    0.00051202

     Total force =     0.001943     Total SCF correction =     0.000150

     bfgs converged in  20 scf cycles and  19 bfgs steps
     (criteria: energy < 0.10E-03, force < 0.10E-02)

     End of BFGS Geometry Optimization

     Final energy   =   -2320.4875000497 Ry
Begin final coordinates

ATOMIC_POSITIONS (crystal)
O0       0.000000000   0.000000000   0.374836399    0   0   1
O0       0.000000000   0.500000000   0.395966015    0   0   1
Mn1      0.250000000   0.500000000   0.448418921    0   0   1
Mn1      0.000000000   0.000000000   0.447280614    0   0   1
O0       0.250000000   0.800000000   0.446621384    0   0   1
O0       0.250000000   0.200000000   0.449503569    0   0   1
O0       0.000000000   0.500000000   0.494571929    0   0   1
O0       0.000000000   0.000000000   0.524734688    0   0   1
Mn1      0.250000000   0.000000000   0.573334927    0   0   1
Mn1      0.000000000   0.500000000   0.569710664    0   0   1
O0       0.250000000   0.700000000   0.581283203    0   0   1
O0       0.250000000   0.300000000   0.581656425    0   0   1
O0       0.000000000   0.000000000   0.621007102    0   0   1
O0       0.500000000   0.000000000   0.374950733    0   0   1
O0       0.500000000   0.500000000   0.396117281    0   0   1
Mn1      0.750000000   0.500000000   0.448448960    0   0   1
Mn1      0.500000000   0.000000000   0.447350734    0   0   1
O0       0.750000000   0.800000000   0.446494282    0   0   1
O0       0.750000000   0.200000000   0.449397450    0   0   1
O0       0.500000000   0.500000000   0.497425620    0   0   1
O0       0.500000000   0.000000000   0.524808404    0   0   1
Mn1      0.750000000   0.000000000   0.573367608    0   0   1
Mn1      0.500000000   0.500000000   0.578388510    0   0   1
O0       0.750000000   0.700000000   0.578404304    0   0   1
O0       0.750000000   0.300000000   0.578895853    0   0   1
O0       0.500000000   0.000000000   0.621520739    0   0   1
H2       0.000371656   0.647187793   0.379995565
H2       0.500420385   0.646500572   0.379924382
H2       0.161548638   0.041397091   0.364057190
H2       0.661758797   0.041051151   0.364177212
O0       0.519070018   0.501495726   0.650719113
H2       0.357680446   0.500206849   0.664510218
End final coordinates

     General routines

     Parallel routines
     Hubbard U routines

   This run was terminated on:   1:44:53   6May2014

   JOB DONE.