     Program PWSCF v.5.0.2 (svn rev. 9656) starts on  1Jun2014 at  0:58:33

     Current dimensions of program PWSCF are:
     Max number of different atomic species (ntypx) = 10
     Max number of k-points (npk) =  40000
     Max angular momentum in pseudopotentials (lmaxx) =  3
     Reading input from pwscf.in
Warning: card &CELL ignored
Warning: card / ignored

     Subspace diagonalization in iterative solution of the eigenvalue problem:
     a serial algorithm will be used

     bravais-lattice index     =            0
     lattice parameter (alat)  =      11.7541  a.u.
     unit-cell volume          =    7139.8207 (a.u.)^3
     number of atoms/cell      =           33
     number of atomic types    =            3
     number of electrons       =       245.00
     number of Kohn-Sham states=          367
     kinetic-energy cutoff     =      40.0000  Ry
     charge density cutoff     =     500.0000  Ry
     convergence threshold     =      1.0E-06
     mixing beta               =       0.7000
     number of iterations used =            8  plain     mixing
     Exchange-correlation      = SLA  PW   PBE  PBE ( 1 4 3 4 0)
     EXX-fraction              =        0.00
     nstep                     =           50

     celldm(1)=  11.754097  celldm(2)=   0.000000  celldm(3)=   0.000000
     celldm(4)=   0.000000  celldm(5)=   0.000000  celldm(6)=   0.000000

     crystal axes: (cart. coord. in units of alat)
               a(1) = (   1.000000   0.000000   0.000000 )
               a(2) = (   0.000000   1.034513   0.000000 )
               a(3) = (   0.000000   0.000000   4.249947 )

     reciprocal axes: (cart. coord. in units 2 pi/alat)
               b(1) = (  1.000000  0.000000  0.000000 )
               b(2) = (  0.000000  0.966638  0.000000 )
               b(3) = (  0.000000  0.000000  0.235297 )

     PseudoPot. # 1 for O  read from file:
     /home/camp/zhonxu/pseudo/o_pbe_v1.01.uspp.F.UPF
     MD5 check sum: 2bcb18d16ea4b960afae9ec6d52f22d2
     Pseudo is Ultrasoft + core correction, Zval =  6.0
     Generated by new atomic code, or converted to UPF format
     Using radial grid of  737 points,  5 beta functions with:
                l(1) =   0
                l(2) =   0
                l(3) =   1
                l(4) =   1
                l(5) =   2
     Q(r) pseudized with  8 coefficients,  rinner =    0.900   0.900   0.900
                                                       0.900   0.900

     PseudoPot. # 2 for Rh read from file:
     /home/camp/zhonxu/pseudo/rh_pbe_v1.uspp.F.UPF
     MD5 check sum: 37b626987ad0dd8ec6bf4cc9ef289918
     Pseudo is Ultrasoft + core correction, Zval = 15.0
     Generated by new atomic code, or converted to UPF format
     Using radial grid of  969 points,  7 beta functions with:
                l(1) =   0
                l(2) =   0
                l(3) =   1
                l(4) =   1
                l(5) =   2
                l(6) =   2
                l(7) =   2
     Q(r) pseudized with  6 coefficients,  rinner =    1.050   1.050   1.050
                                                       1.050   1.050

     PseudoPot. # 3 for H  read from file:
     /home/camp/zhonxu/pseudo/h_pbe_v1.uspp.F.UPF
     MD5 check sum: 3408e3ff4ec8b0a4e358431e7e038a48
     Pseudo is Ultrasoft, Zval =  1.0
     Generated by new atomic code, or converted to UPF format
     Using radial grid of  615 points,  2 beta functions with:
                l(1) =   0
                l(2) =   0
     Q(r) pseudized with  8 coefficients,  rinner =    0.700

     atomic species   valence    mass     pseudopotential
        O0             6.00    15.99940     O ( 1.00)
        Rh1           15.00   102.90550     Rh( 1.00)
        H2             1.00     1.00794     H ( 1.00)

     Simplified LDA+U calculation (l_max = 2) with parameters (eV):
     atomic species    L          U    alpha       J0     beta
        Rh1            2     2.5000   0.0000   0.0000   0.0000

     No symmetry found

   Cartesian axes

     site n.     atom                  positions (alat units)
         1           O0  tau(   1) = (   0.0000000   0.0000000   1.6055876  )
         2           O0  tau(   2) = (   0.0000000   0.5172566   1.7058013  )
         3           Rh1 tau(   3) = (   0.2500000   0.5172566   1.9245886  )
         4           Rh1 tau(   4) = (   0.0000000   0.0000000   1.9225486  )
         5           O0  tau(   5) = (   0.2500000   0.8379556   1.9216561  )
         6           O0  tau(   6) = (   0.2500000   0.1965575   1.9210611  )
         7           O0  tau(   7) = (   0.0000000   0.5172566   2.1183012  )
         8           O0  tau(   8) = (   0.0000000   0.0000000   2.2433346  )
         9           Rh1 tau(   9) = (   0.2500000   0.0000000   2.4442296  )
        10           Rh1 tau(  10) = (   0.0000000   0.5172566   2.4248924  )
        11           O0  tau(  11) = (   0.2500000   0.7138141   2.4423597  )
        12           O0  tau(  12) = (   0.2500000   0.3206991   2.4526445  )
        13           O0  tau(  13) = (   0.0000000   0.0000000   2.6373472  )
        14           O0  tau(  14) = (   0.5000000   0.0000000   1.6058426  )
        15           O0  tau(  15) = (   0.5000000   0.5172566   1.7065663  )
        16           Rh1 tau(  16) = (   0.7500000   0.5172566   1.9245461  )
        17           Rh1 tau(  17) = (   0.5000000   0.0000000   1.9225486  )
        18           O0  tau(  18) = (   0.7500000   0.8379556   1.9215286  )
        19           O0  tau(  19) = (   0.7500000   0.1965575   1.9212311  )
        20           O0  tau(  20) = (   0.5000000   0.5172566   2.1254411  )
        21           O0  tau(  21) = (   0.5000000   0.0000000   2.2428246  )
        22           Rh1 tau(  22) = (   0.7500000   0.0000000   2.4442296  )
        23           Rh1 tau(  23) = (   0.5000000   0.5172566   2.4566820  )
        24           O0  tau(  24) = (   0.7500000   0.7138141   2.4423172  )
        25           O0  tau(  25) = (   0.7500000   0.3206991   2.4526445  )
        26           O0  tau(  26) = (   0.5000000   0.0000000   2.6350523  )
        27           H2  tau(  27) = (   0.0000500   0.6607849   1.6355072  )
        28           H2  tau(  28) = (   0.4999200   0.6608884   1.6361872  )
        29           H2  tau(  29) = (   0.1477700   0.0372011   1.5603681  )
        30           H2  tau(  30) = (   0.6484400   0.0346148   1.5604531  )
        31           O0  tau(  31) = (   0.4997300   0.5556577   2.7651007  )
        32           O0  tau(  32) = (   0.5003300   0.3573415   2.8834192  )
        33           H2  tau(  33) = (   0.4999300   0.4160398   3.0312324  )

     number of k points=    10  Methfessel-Paxton smearing, width (Ry)=  0.0100
                       cart. coord. in units 2pi/alat
        k(    1) = (   0.0000000   0.0000000   0.0000000), wk =   0.1250000
        k(    2) = (   0.0000000   0.2416596   0.0000000), wk =   0.2500000
        k(    3) = (   0.0000000  -0.4833191   0.0000000), wk =   0.1250000
        k(    4) = (   0.2500000   0.0000000   0.0000000), wk =   0.2500000
        k(    5) = (   0.2500000   0.2416596   0.0000000), wk =   0.2500000
        k(    6) = (   0.2500000  -0.4833191   0.0000000), wk =   0.2500000
        k(    7) = (  -0.5000000   0.0000000   0.0000000), wk =   0.1250000
        k(    8) = (  -0.5000000   0.2416596   0.0000000), wk =   0.2500000
        k(    9) = (  -0.5000000  -0.4833191   0.0000000), wk =   0.1250000
        k(   10) = (  -0.2500000   0.2416596   0.0000000), wk =   0.2500000

     Largest allocated arrays     est. size (Mb)     dimensions
     Largest temporary arrays     est. size (Mb)     dimensions

     Check: negative/imaginary core charge=   -0.000003    0.000000

     Initial potential from superposition of free atoms
     Check: negative starting charge=   -0.646062

     starting charge  240.99914, renormalised to  245.00000

     negative rho (up, down):  0.657E+00 0.000E+00
     Number of +U iterations with fixed ns =  0
     Starting occupations:
 --- enter write_ns ---
 LDA+U parameters:
U( 2)     =  2.50000000
alpha( 2) =  0.00000000
atom    3   Tr[ns(na)] =   7.00000
    eigenvalues:
  0.700  0.700  0.700  0.700  0.700
    eigenvectors:
  1.000  0.000  0.000  0.000  0.000
  0.000  1.000  0.000  0.000  0.000
  0.000  0.000  1.000  0.000  0.000
  0.000  0.000  0.000  1.000  0.000
  0.000  0.000  0.000  0.000  1.000
    occupations:
  0.700  0.000  0.000  0.000  0.000
  0.000  0.700  0.000  0.000  0.000
  0.000  0.000  0.700  0.000  0.000
  0.000  0.000  0.000  0.700  0.000
  0.000  0.000  0.000  0.000  0.700
atom    4   Tr[ns(na)] =   7.00000
    eigenvalues:
  0.700  0.700  0.700  0.700  0.700
    eigenvectors:
  1.000  0.000  0.000  0.000  0.000
  0.000  1.000  0.000  0.000  0.000
  0.000  0.000  1.000  0.000  0.000
  0.000  0.000  0.000  1.000  0.000
  0.000  0.000  0.000  0.000  1.000
    occupations:
  0.700  0.000  0.000  0.000  0.000
  0.000  0.700  0.000  0.000  0.000
  0.000  0.000  0.700  0.000  0.000
  0.000  0.000  0.000  0.700  0.000
  0.000  0.000  0.000  0.000  0.700
atom    9   Tr[ns(na)] =   7.00000
    eigenvalues:
  0.700  0.700  0.700  0.700  0.700
    eigenvectors:
  1.000  0.000  0.000  0.000  0.000
  0.000  1.000  0.000  0.000  0.000
  0.000  0.000  1.000  0.000  0.000
  0.000  0.000  0.000  1.000  0.000
  0.000  0.000  0.000  0.000  1.000
    occupations:
  0.700  0.000  0.000  0.000  0.000
  0.000  0.700  0.000  0.000  0.000
  0.000  0.000  0.700  0.000  0.000
  0.000  0.000  0.000  0.700  0.000
  0.000  0.000  0.000  0.000  0.700
atom   10   Tr[ns(na)] =   7.00000
    eigenvalues:
  0.700  0.700  0.700  0.700  0.700
    eigenvectors:
  1.000  0.000  0.000  0.000  0.000
  0.000  1.000  0.000  0.000  0.000
  0.000  0.000  1.000  0.000  0.000
  0.000  0.000  0.000  1.000  0.000
  0.000  0.000  0.000  0.000  1.000
    occupations:
  0.700  0.000  0.000  0.000  0.000
  0.000  0.700  0.000  0.000  0.000
  0.000  0.000  0.700  0.000  0.000
  0.000  0.000  0.000  0.700  0.000
  0.000  0.000  0.000  0.000  0.700
atom   16   Tr[ns(na)] =   7.00000
    eigenvalues:
  0.700  0.700  0.700  0.700  0.700
    eigenvectors:
  1.000  0.000  0.000  0.000  0.000
  0.000  1.000  0.000  0.000  0.000
  0.000  0.000  1.000  0.000  0.000
  0.000  0.000  0.000  1.000  0.000
  0.000  0.000  0.000  0.000  1.000
    occupations:
  0.700  0.000  0.000  0.000  0.000
  0.000  0.700  0.000  0.000  0.000
  0.000  0.000  0.700  0.000  0.000
  0.000  0.000  0.000  0.700  0.000
  0.000  0.000  0.000  0.000  0.700
atom   17   Tr[ns(na)] =   7.00000
    eigenvalues:
  0.700  0.700  0.700  0.700  0.700
    eigenvectors:
  1.000  0.000  0.000  0.000  0.000
  0.000  1.000  0.000  0.000  0.000
  0.000  0.000  1.000  0.000  0.000
  0.000  0.000  0.000  1.000  0.000
  0.000  0.000  0.000  0.000  1.000
    occupations:
  0.700  0.000  0.000  0.000  0.000
  0.000  0.700  0.000  0.000  0.000
  0.000  0.000  0.700  0.000  0.000
  0.000  0.000  0.000  0.700  0.000
  0.000  0.000  0.000  0.000  0.700
atom   22   Tr[ns(na)] =   7.00000
    eigenvalues:
  0.700  0.700  0.700  0.700  0.700
    eigenvectors:
  1.000  0.000  0.000  0.000  0.000
  0.000  1.000  0.000  0.000  0.000
[...]
  0.034  0.000  0.000  0.972  0.000
 -0.000 -0.009  0.000  0.000  0.596
atom   16   Tr[ns(na)] =   8.01573
    eigenvalues:
  0.587  0.608  0.887  0.954  0.971
    eigenvectors:
  0.015  0.187  0.003  0.000  0.794
  0.935  0.064  0.000  0.000  0.000
  0.000  0.000  0.991  0.006  0.003
  0.050  0.748  0.000  0.000  0.202
  0.000  0.000  0.006  0.993  0.001
    occupations:
  0.897  0.006  0.003 -0.146  0.001
  0.006  0.588  0.000  0.003 -0.006
  0.003  0.000  0.888 -0.005 -0.005
 -0.146  0.003 -0.005  0.681 -0.000
  0.001 -0.006 -0.005 -0.000  0.954
atom   17   Tr[ns(na)] =   8.01083
    eigenvalues:
  0.602  0.650  0.864  0.914  0.976
    eigenvectors:
  0.001  0.992  0.000  0.000  0.007
  0.000  0.000  0.047  0.952  0.000
  0.000  0.000  0.953  0.047  0.000
  0.000  0.007  0.000  0.000  0.993
  0.999  0.001  0.000  0.000  0.000
    occupations:
  0.652 -0.004 -0.001  0.028  0.001
 -0.004  0.912  0.011  0.001 -0.001
 -0.001  0.011  0.866 -0.001  0.001
  0.028  0.001 -0.001  0.973  0.000
  0.001 -0.001  0.001  0.000  0.602
atom   22   Tr[ns(na)] =   8.00572
    eigenvalues:
  0.638  0.648  0.850  0.889  0.977
    eigenvectors:
  0.000  0.152  0.001  0.000  0.848
  0.999  0.001  0.000  0.000  0.000
  0.000  0.000  0.983  0.016  0.000
  0.001  0.847  0.000  0.000  0.152
  0.000  0.000  0.016  0.984  0.000
    occupations:
  0.927  0.002  0.000 -0.118 -0.000
  0.002  0.638  0.001 -0.001 -0.000
  0.000  0.001  0.851 -0.005  0.005
 -0.118 -0.001 -0.005  0.698  0.000
 -0.000 -0.000  0.005  0.000  0.888
atom   23   Tr[ns(na)] =   8.02512
    eigenvalues:
  0.601  0.635  0.857  0.947  0.973
    eigenvectors:
  0.000  0.994  0.000  0.003  0.003
  0.001  0.000  0.999  0.000  0.000
  0.000  0.003  0.000  0.996  0.001
  0.000  0.003  0.000  0.001  0.997
  0.999  0.000  0.001  0.000  0.000
    occupations:
  0.637 -0.000  0.017  0.017 -0.000
 -0.000  0.857 -0.001 -0.000 -0.009
  0.017 -0.001  0.946 -0.002  0.000
  0.017 -0.000 -0.002  0.972  0.000
 -0.000 -0.009  0.000  0.000  0.601
N of occupied +U levels =  64.1026442
 --- exit write_ns ---

     Threshold (ethr) on eigenvalues was too large:
     Diagonalizing with lowered threshold

     Davidson diagonalization with overlap
     ethr =  2.23E-08,  avg # of iterations =  2.0

[...]

     total energy              =   -2012.64204895 Ry
     Harris-Foulkes estimate   =   -2012.64204896 Ry
     estimated scf accuracy    <       0.00000008 Ry

     iteration # 16     ecut=    40.00 Ry     beta=0.70
     Davidson diagonalization with overlap
     ethr =  3.33E-11,  avg # of iterations =  1.0

     negative rho (up, down):  0.693E+00 0.000E+00

     End of self-consistent calculation
 --- enter write_ns ---
 LDA+U parameters:
U( 2)     =  2.50000000
alpha( 2) =  0.00000000
atom    3   Tr[ns(na)] =   8.01658
    eigenvalues:
  0.587  0.608  0.887  0.955  0.972
    eigenvectors:
  0.016  0.187  0.003  0.000  0.794
  0.931  0.069  0.000  0.000  0.000
  0.000  0.000  0.987  0.011  0.003
  0.053  0.745  0.000  0.000  0.202
  0.000  0.000  0.010  0.989  0.001
    occupations:
  0.897 -0.006  0.003 -0.146 -0.001
 -0.006  0.588 -0.001 -0.003 -0.006
  0.003 -0.001  0.888 -0.005  0.007
 -0.146 -0.003 -0.005  0.681 -0.000
 -0.001 -0.006  0.007 -0.000  0.954
atom    4   Tr[ns(na)] =   8.01279
    eigenvalues:
  0.601  0.649  0.868  0.913  0.975
    eigenvectors:
  0.001  0.992  0.000  0.000  0.007
  0.000  0.000  0.075  0.925  0.000
  0.000  0.000  0.925  0.075  0.000
  0.000  0.007  0.000  0.000  0.993
  0.999  0.001  0.000  0.000  0.000
    occupations:
  0.651 -0.004 -0.002  0.027  0.001
 -0.004  0.910  0.012  0.001 -0.001
 -0.002  0.012  0.871 -0.001  0.001
  0.027  0.001 -0.001  0.973  0.000
  0.001 -0.001  0.001  0.000  0.601
atom    9   Tr[ns(na)] =   8.00536
    eigenvalues:
  0.638  0.648  0.850  0.889  0.977
    eigenvectors:
  0.002  0.150  0.000  0.000  0.848
  0.987  0.013  0.000  0.000  0.000
  0.000  0.000  0.982  0.017  0.000
  0.011  0.837  0.000  0.000  0.152
  0.000  0.000  0.017  0.982  0.000
    occupations:
  0.927 -0.001  0.000 -0.118 -0.001
 -0.001  0.638  0.000  0.001 -0.000
  0.000  0.000  0.851 -0.005 -0.005
 -0.118  0.001 -0.005  0.698  0.001
 -0.001 -0.000 -0.005  0.001  0.888
atom   10   Tr[ns(na)] =   8.01054
    eigenvalues:
  0.595  0.602  0.911  0.922  0.975
    eigenvectors:
  0.000  0.991  0.001  0.000  0.009
  0.001  0.000  0.000  0.999  0.000
  0.000  0.001  0.999  0.000  0.000
  0.000  0.008  0.000  0.000  0.991
  0.999  0.000  0.000  0.001  0.000
    occupations:
  0.605  0.000  0.007  0.034 -0.000
  0.000  0.921 -0.000  0.000 -0.009
  0.007 -0.000  0.911  0.000  0.000
  0.034  0.000  0.000  0.972  0.000
 -0.000 -0.009  0.000  0.000  0.596
atom   16   Tr[ns(na)] =   8.01652
    eigenvalues:
  0.587  0.608  0.887  0.954  0.972
    eigenvectors:
  0.015  0.187  0.003  0.000  0.794
  0.935  0.065  0.000  0.000  0.000
  0.000  0.000  0.991  0.006  0.003
  0.050  0.748  0.000  0.000  0.202
  0.000  0.000  0.006  0.993  0.001
    occupations:
  0.897  0.006  0.003 -0.146  0.001
  0.006  0.588  0.000  0.003 -0.006
  0.003  0.000  0.888 -0.005 -0.005
 -0.146  0.003 -0.005  0.681 -0.000
  0.001 -0.006 -0.005 -0.000  0.954
atom   17   Tr[ns(na)] =   8.01129
    eigenvalues:
  0.602  0.650  0.864  0.914  0.976
    eigenvectors:
  0.001  0.992  0.000  0.000  0.007
  0.000  0.000  0.047  0.953  0.000
  0.000  0.000  0.953  0.047  0.000
  0.000  0.007  0.000  0.000  0.993
  0.999  0.001  0.000  0.000  0.000
    occupations:
  0.652 -0.004 -0.001  0.028  0.001
 -0.004  0.912  0.011  0.001 -0.001
 -0.001  0.011  0.866 -0.001  0.001
  0.028  0.001 -0.001  0.973  0.000
  0.001 -0.001  0.001  0.000  0.602
atom   22   Tr[ns(na)] =   8.00547
    eigenvalues:
  0.638  0.648  0.850  0.889  0.977
    eigenvectors:
  0.000  0.152  0.001  0.000  0.848
  0.999  0.001  0.000  0.000  0.000
  0.000  0.000  0.984  0.016  0.000
  0.001  0.847  0.000  0.000  0.152
  0.000  0.000  0.016  0.984  0.000
    occupations:
  0.927  0.002  0.000 -0.118 -0.000
  0.002  0.638  0.001 -0.001 -0.000
  0.000  0.001  0.851 -0.005  0.005
 -0.118 -0.001 -0.005  0.698  0.000
 -0.000 -0.000  0.005  0.000  0.888
atom   23   Tr[ns(na)] =   8.02466
    eigenvalues:
  0.601  0.635  0.857  0.946  0.973
    eigenvectors:
  0.000  0.994  0.000  0.003  0.003
  0.001  0.000  0.999  0.000  0.000
  0.000  0.003  0.000  0.996  0.001
  0.000  0.003  0.000  0.001  0.997
  0.999  0.000  0.001  0.000  0.000
    occupations:
  0.637 -0.000  0.017  0.017 -0.000
 -0.000  0.857 -0.001 -0.000 -0.009
  0.017 -0.001  0.946 -0.002  0.000
  0.017 -0.000 -0.002  0.972  0.000
 -0.000 -0.009  0.000  0.000  0.601
N of occupied +U levels =  64.1032231
 --- exit write_ns ---

[...]

          k = 0.2500-0.4833 0.0000 ( 30510 PWs)   bands (ev):

[...]

          k =-0.2500 0.2417 0.0000 ( 30481 PWs)   bands (ev):

   -48.6074 -48.5229 -48.5166 -48.4915 -48.4740 -48.4533 -48.4281 -48.4259
   -48.4075 -48.3866 -48.3796 -48.3167 -48.3053 -48.2889 -48.1751 -48.1706
   -48.1346 -48.1256 -48.1085 -48.0958 -48.0830 -48.0729 -48.0709 -48.0381
   -24.1788 -20.7857 -20.4877 -20.3402 -20.2487 -20.0380 -19.8360 -19.7922
   -19.6982 -19.6104 -19.4974 -19.4702 -19.4411 -19.3184 -19.2334 -19.2043
   -19.0938 -18.4502 -18.3004 -17.5278  -9.2476  -9.1094  -9.0205  -8.9174
    -8.6739  -8.3634  -8.3162  -8.1973  -8.1117  -8.0694  -7.9888  -7.9553
    -7.9147  -7.8621  -7.8141  -7.6137  -7.4582  -7.3712  -7.3161  -7.1132
    -6.8589  -6.7940  -6.7319  -6.6155  -6.4949  -6.4502  -6.2480  -6.1405
    -6.0076  -5.9009  -5.7934  -5.7316  -5.6802  -5.5685  -5.5440  -5.4932
    -5.4352  -5.3583  -5.2722  -5.1629  -5.1000  -5.0252  -4.8836  -4.7437
    -4.6075  -4.4699  -4.3612  -4.2801  -4.1795  -4.1158  -3.9835  -3.9043
    -3.8125  -3.7380  -3.5166  -3.4719  -3.2934  -3.2408  -3.1683  -3.0725
    -3.0021  -2.8815  -2.8178  -2.7191  -2.7016  -2.6428  -2.5950  -2.5259
    -2.4378  -2.3906  -2.3602  -2.2327  -1.9837  -1.7757  -1.5792  -1.5602
    -1.4513  -1.4078  -1.2556  -1.1418  -1.0179  -0.9365  -0.8570  -0.2967
     0.2483   0.3211   0.5337   0.9360   1.1247   1.4391   1.5680   1.8166
     1.9399   2.1111   2.1607   2.3020   2.3909   2.4729   2.7620   3.3342
     3.9045   4.1574   4.5029   5.0295   5.2555   5.5525   5.9203   5.9868
     5.9973   6.2462   6.3736   6.5323   6.6114   6.9120   6.9524   7.2306
     7.4168   7.5353   7.7164   7.8381   7.8846   8.2114   8.2410   8.3050
     8.3906   8.4741   8.6815   8.7837   8.8983   9.0042   9.1233   9.2004
     9.2972   9.3876   9.4928   9.6274   9.7879   9.8532   9.9286   9.9771
    10.0714  10.1898  10.2907  10.3480  10.4561  10.5404  10.6108  10.6937
    10.7699  10.9034  11.0091  11.1202  11.1697  11.2479  11.2974  11.3650
    11.4905  11.5442  11.6788  11.7233  11.7655  11.7967  11.8649  11.9564
    11.9908  12.1653  12.2184  12.3207  12.3750  12.4752  12.5443  12.5648
    12.6311  12.7146  12.7926  12.8840  12.9369  12.9933  13.0740  13.1709
    13.2702  13.3762  13.4339  13.5558  13.6278  13.6720  13.7953  13.8480
    13.8982  13.9832  14.0321  14.1299  14.2240  14.3266  14.3705  14.4090
    14.5039  14.5304  14.5769  14.7060  14.7573  14.8072  14.9677  15.0103
    15.0797  15.1587  15.2556  15.3235  15.4451  15.5129  15.5457  15.6161
    15.7024  15.7499  15.7975  15.8416  15.9366  15.9846  16.0472  16.0554
    16.1403  16.1799  16.3411  16.3779  16.4272  16.4722  16.5359  16.6037
    16.6194  16.7070  16.7688  16.8485  16.9058  17.0281  17.0755  17.1686
    17.2314  17.2346  17.2936  17.3874  17.4499  17.4938  17.5604  17.6118
    17.7110  17.7279  17.7787  17.8936  17.9416  17.9861  18.0890  18.1123
    18.2129  18.2304  18.3447  18.4070  18.5132  18.6214  18.6572  18.7027
    18.8659  18.9203  18.9806  19.0170  19.0559  19.1726  19.2492  19.2840
    19.3460  19.4190  19.4817  19.5680  19.6182  19.6854  19.7567  19.8951
    19.9417  19.9857  20.1078  20.1631  20.2093  20.3285  20.3772  20.4783
    20.5794  20.6537  20.7186  20.7348  20.7767  20.8538  20.9215  20.9969
    21.0855  21.1198  21.1640  21.2161  21.2593  21.3560  21.4103  21.4675
    21.5268  21.5776  21.6674  21.6861  21.7512  21.8159  21.8318  21.9433
    22.0416  22.0766  22.1127  22.1886  22.2928  22.3430  22.4216  22.4429
    22.5204  22.5922  22.6616  22.7080  22.7978  22.8563  22.9183

     the Fermi energy is    -1.3121 ev

!    total energy              =   -2012.64204895 Ry
     Harris-Foulkes estimate   =   -2012.64204896 Ry
     estimated scf accuracy    <          9.7E-09 Ry

     The total energy is the sum of the following terms:

     one-electron contribution =  -23714.23200973 Ry
     hartree contribution      =   11912.87163899 Ry
     xc contribution           =    -379.92214522 Ry
     ewald contribution        =   10167.64538602 Ry
     Hubbard energy            =       0.99591725 Ry
     smearing contrib. (-TS)   =      -0.00083624 Ry

     convergence has been achieved in  16 iterations

     Forces acting on atoms (Ry/au):

     negative rho (up, down):  0.693E+00 0.000E+00
     atom    1 type  1   force =    -0.00749621   -0.01295898   -0.00012441
     atom    2 type  1   force =     0.00020399    0.00550662    0.00090822
     atom    3 type  2   force =     0.03066690    0.00418633   -0.00006724
     atom    4 type  2   force =     0.00823320    0.00836006   -0.00008393
     atom    5 type  1   force =    -0.00278930   -0.03258978    0.00033574
     atom    6 type  1   force =     0.00175901    0.03061750    0.00032202
     atom    7 type  1   force =    -0.00025026   -0.00393582   -0.00072276
     atom    8 type  1   force =    -0.00277867    0.00105650    0.00013766
     atom    9 type  2   force =     0.00517689    0.00103560   -0.00023948
     atom   10 type  2   force =    -0.00017321   -0.00004014   -0.00061400
     atom   11 type  1   force =    -0.01117541    0.01786439    0.00006264
     atom   12 type  1   force =    -0.00505615   -0.01210443    0.00010033
     atom   13 type  1   force =    -0.00072978   -0.00291960    0.00000508
     atom   14 type  1   force =    -0.00637862   -0.01279729   -0.00016164
     atom   15 type  1   force =     0.00012647    0.00522050    0.00062426
     atom   16 type  2   force =    -0.03083813    0.00433680   -0.00009669
     atom   17 type  2   force =     0.00794128    0.00914018    0.00023468
     atom   18 type  1   force =    -0.00055526   -0.03324379    0.00032406
     atom   19 type  1   force =     0.00386208    0.03013043    0.00031895
     atom   20 type  1   force =    -0.00018280   -0.00548581   -0.00034153
     atom   21 type  1   force =    -0.00298055    0.00116773    0.00013050
     atom   22 type  2   force =    -0.00255655    0.00104162   -0.00018723
     atom   23 type  2   force =    -0.00034099    0.00171960   -0.00015095
     atom   24 type  1   force =     0.01088170    0.01774505    0.00006174
     atom   25 type  1   force =     0.00597786   -0.01221923    0.00012599
     atom   26 type  1   force =    -0.00093038   -0.01056439   -0.00088720
     atom   27 type  3   force =    -0.00003015   -0.00035250    0.00044629
     atom   28 type  3   force =    -0.00002257   -0.00015150    0.00042577
     atom   29 type  3   force =     0.00018926    0.00007511    0.00030722
     atom   30 type  3   force =     0.00018102    0.00009863    0.00011779
     atom   31 type  1   force =    -0.00015835   -0.00001910   -0.00041804
     atom   32 type  1   force =     0.00023339    0.00002064   -0.00029000
     atom   33 type  3   force =    -0.00000970    0.00005907   -0.00060384

     Total force =     0.002274     Total SCF correction =     0.000306
     SCF correction compared to forces is large: reduce conv_thr to get better values

     entering subroutine stress ...

     negative rho (up, down):  0.693E+00 0.000E+00
          total   stress  (Ry/bohr**3)                   (kbar)     P=  -16.91
  -0.00011536   0.00000445   0.00000420        -16.97      0.66      0.62
   0.00000445  -0.00014183   0.00000446          0.66    -20.86      0.66
   0.00000420   0.00000446  -0.00008770          0.62      0.66    -12.90

     bfgs converged in   6 scf cycles and   5 bfgs steps
     (criteria: energy < 0.10E-03, force < 0.10E-02)

     End of BFGS Geometry Optimization

     Final energy   =   -2012.6420489469 Ry
Begin final coordinates

ATOMIC_POSITIONS (crystal)
O0       0.000000000   0.000000000   0.377959202    0   0   1
O0       0.000000000   0.500000000   0.401527652    0   0   1
Rh1      0.250000000   0.500000000   0.452918167    0   0   1
Rh1      0.000000000   0.000000000   0.452398790    0   0   1
O0       0.250000000   0.810000000   0.452222459    0   0   1
O0       0.250000000   0.190000000   0.452013605    0   0   1
O0       0.000000000   0.500000000   0.498963621    0   0   1
O0       0.000000000   0.000000000   0.527832807    0   0   1
Rh1      0.250000000   0.000000000   0.574995910    0   0   1
Rh1      0.000000000   0.500000000   0.570689589    0   0   1
O0       0.250000000   0.690000000   0.574426345    0   0   1
O0       0.250000000   0.310000000   0.576813773    0   0   1
O0       0.000000000   0.000000000   0.620488976    0   0   1
O0       0.500000000   0.000000000   0.377916426    0   0   1
O0       0.500000000   0.500000000   0.401726468    0   0   1
Rh1      0.750000000   0.500000000   0.452912054    0   0   1
Rh1      0.500000000   0.000000000   0.452255665    0   0   1
O0       0.750000000   0.810000000   0.452191003    0   0   1
O0       0.750000000   0.190000000   0.452048585    0   0   1
O0       0.500000000   0.500000000   0.500282734    0   0   1
O0       0.500000000   0.000000000   0.527693424    0   0   1
Rh1      0.750000000   0.000000000   0.574987769    0   0   1
Rh1      0.500000000   0.500000000   0.577888711    0   0   1
O0       0.750000000   0.690000000   0.574421405    0   0   1
O0       0.750000000   0.310000000   0.576808735    0   0   1
O0       0.500000000   0.000000000   0.620088759    0   0   1
H2      -0.000005716   0.638336343   0.384867117
H2       0.499870900   0.638437174   0.385065138
H2       0.147664959   0.035964203   0.367230772
H2       0.648460265   0.033531650   0.367257761
O0       0.499575202   0.536531710   0.650590329
O0       0.500518728   0.346017767   0.678295160
H2       0.499930647   0.402199316   0.713151088
End final coordinates

     General routines

     Parallel routines
     Hubbard U routines

   This run was terminated on:  11:31:19   1Jun2014

   JOB DONE.
Running PBS batch system epilogue script
Job id: 373346.audhumbla.fysik.dtu.dk
Username: zhonxu
Groupname: campgst
Jobname: RhO2/Eads-2-layers/OOH-U-2.5
Sessionid: 1460
Queuename: verylong
Accounting:
This job has allocated the following 16 nodes:
d047 d047 d047 d047 d047 d047 d047 d047 d004 d004 d004 d004 d004 d004 d004 d004
Finished epilogue job 373346.audhumbla.fysik.dtu.dk for zhonxu