     Program PWSCF v.5.0.2 (svn rev. 9656) starts on  6May2014 at  3:30:57

     Current dimensions of program PWSCF are:
     Max number of different atomic species (ntypx) = 10
     Max number of k-points (npk) =  40000
     Max angular momentum in pseudopotentials (lmaxx) =  3
     Reading input from pwscf.in
Warning: card &CELL ignored
Warning: card / ignored

     Subspace diagonalization in iterative solution of the eigenvalue problem:
     a serial algorithm will be used

     bravais-lattice index     =            0
     lattice parameter (alat)  =      12.0187  a.u.
     unit-cell volume          =    7280.5819 (a.u.)^3
     number of atoms/cell      =           30
     number of atomic types    =            3
     number of electrons       =       232.00
     number of Kohn-Sham states=          348
     kinetic-energy cutoff     =      40.0000  Ry
     charge density cutoff     =     500.0000  Ry
     convergence threshold     =      1.0E-06
     mixing beta               =       0.7000
     number of iterations used =            8  plain     mixing
     Exchange-correlation      = SLA  PW   PBE  PBE ( 1 4 3 4 0)
     EXX-fraction              =        0.00
     nstep                     =           50

     celldm(1)=  12.018658  celldm(2)=   0.000000  celldm(3)=   0.000000
     celldm(4)=   0.000000  celldm(5)=   0.000000  celldm(6)=   0.000000

     crystal axes: (cart. coord. in units of alat)
               a(1) = (   1.000000   0.000000   0.000000 )
               a(2) = (   0.000000   1.009517   0.000000 )
               a(3) = (   0.000000   0.000000   4.154171 )

     reciprocal axes: (cart. coord. in units 2 pi/alat)
               b(1) = (  1.000000  0.000000  0.000000 )
               b(2) = (  0.000000  0.990572  0.000000 )
               b(3) = (  0.000000  0.000000  0.240722 )

     PseudoPot. # 1 for O  read from file:
     /home/camp/zhonxu/pseudo/o_pbe_v1.01.uspp.F.UPF
     MD5 check sum: 2bcb18d16ea4b960afae9ec6d52f22d2
     Pseudo is Ultrasoft + core correction, Zval =  6.0
     Generated by new atomic code, or converted to UPF format
     Using radial grid of  737 points,  5 beta functions with:
                l(1) =   0
                l(2) =   0
                l(3) =   1
                l(4) =   1
                l(5) =   2
     Q(r) pseudized with  8 coefficients,  rinner =    0.900   0.900   0.900
                                                       0.900   0.900

     PseudoPot. # 2 for Ir read from file:
     /home/camp/zhonxu/pseudo/ir_pbe_v1.uspp.F.UPF
     MD5 check sum: abf987a9674477536ede83817f8f8b70
     Pseudo is Ultrasoft + core correction, Zval = 15.0
     Generated by new atomic code, or converted to UPF format
     Using radial grid of  983 points,  7 beta functions with:
                l(1) =   0
                l(2) =   0
                l(3) =   1
                l(4) =   1
                l(5) =   1
                l(6) =   2
                l(7) =   2
     Q(r) pseudized with  8 coefficients,  rinner =    1.350   1.350   1.350
                                                       1.350   1.350

     PseudoPot. # 3 for H  read from file:
     /home/camp/zhonxu/pseudo/h_pbe_v1.uspp.F.UPF
     MD5 check sum: 3408e3ff4ec8b0a4e358431e7e038a48
     Pseudo is Ultrasoft, Zval =  1.0
     Generated by new atomic code, or converted to UPF format
     Using radial grid of  615 points,  2 beta functions with:
                l(1) =   0
                l(2) =   0
     Q(r) pseudized with  8 coefficients,  rinner =    0.700

     atomic species   valence    mass     pseudopotential
        O0             6.00    15.99940     O ( 1.00)
        Ir1           15.00   192.22000     Ir( 1.00)
        H2             1.00     1.00794     H ( 1.00)

     Simplified LDA+U calculation (l_max = 2) with parameters (eV):
     atomic species    L          U    alpha       J0     beta
        Ir1            2     7.0000   0.0000   0.0000   0.0000

     No symmetry found

   Cartesian axes

     site n.     atom                  positions (alat units)
         1           O0  tau(   1) = (   0.0000000   0.0000000   1.5730185  )
         2           O0  tau(   2) = (   0.0000000   0.5047586   1.6673182  )
         3           Ir1 tau(   3) = (   0.2500000   0.5047586   1.8780178  )
         4           Ir1 tau(   4) = (   0.0000000   0.0000000   1.8842906  )
         5           O0  tau(   5) = (   0.2500000   0.8177090   1.8825458  )
         6           O0  tau(   6) = (   0.2500000   0.1918083   1.8810503  )
         7           O0  tau(   7) = (   0.0000000   0.5047586   2.0695666  )
         8           O0  tau(   8) = (   0.0000000   0.0000000   2.1991352  )
         9           Ir1 tau(   9) = (   0.2500000   0.0000000   2.3955860  )
        10           Ir1 tau(  10) = (   0.0000000   0.5047586   2.3764768  )
        11           O0  tau(  11) = (   0.2500000   0.6965669   2.3975800  )
        12           O0  tau(  12) = (   0.2500000   0.3129503   2.3977461  )
        13           O0  tau(  13) = (   0.0000000   0.0000000   2.5806958  )
        14           O0  tau(  14) = (   0.5000000   0.0000000   1.5730185  )
        15           O0  tau(  15) = (   0.5000000   0.5047586   1.6673182  )
        16           Ir1 tau(  16) = (   0.7500000   0.5047586   1.8780178  )
        17           Ir1 tau(  17) = (   0.5000000   0.0000000   1.8842906  )
        18           O0  tau(  18) = (   0.7500000   0.8177090   1.8825458  )
        19           O0  tau(  19) = (   0.7500000   0.1918083   1.8810503  )
        20           O0  tau(  20) = (   0.5000000   0.5047586   2.0695666  )
        21           O0  tau(  21) = (   0.5000000   0.0000000   2.1991352  )
        22           Ir1 tau(  22) = (   0.7500000   0.0000000   2.3955860  )
        23           Ir1 tau(  23) = (   0.5000000   0.5047586   2.3764768  )
        24           O0  tau(  24) = (   0.7500000   0.6965669   2.3975800  )
        25           O0  tau(  25) = (   0.7500000   0.3129503   2.3977461  )
        26           O0  tau(  26) = (   0.5000000   0.0000000   2.5807374  )
        27           H2  tau(  27) = (  -0.0000500   0.6423962   1.5933324  )
        28           H2  tau(  28) = (   0.4999500   0.6423962   1.5933324  )
        29           H2  tau(  29) = (   0.1436500   0.0338188   1.5249132  )
        30           H2  tau(  30) = (   0.6436500   0.0338188   1.5249132  )

     number of k points=    10  Methfessel-Paxton smearing, width (Ry)=  0.0100
                       cart. coord. in units 2pi/alat
        k(    1) = (   0.0000000   0.0000000   0.0000000), wk =   0.1250000
        k(    2) = (   0.0000000   0.2476431   0.0000000), wk =   0.2500000
        k(    3) = (   0.0000000  -0.4952862   0.0000000), wk =   0.1250000
        k(    4) = (   0.2500000   0.0000000   0.0000000), wk =   0.2500000
        k(    5) = (   0.2500000   0.2476431   0.0000000), wk =   0.2500000
        k(    6) = (   0.2500000  -0.4952862   0.0000000), wk =   0.2500000
        k(    7) = (  -0.5000000   0.0000000   0.0000000), wk =   0.1250000
        k(    8) = (  -0.5000000   0.2476431   0.0000000), wk =   0.2500000
        k(    9) = (  -0.5000000  -0.4952862   0.0000000), wk =   0.1250000
        k(   10) = (  -0.2500000   0.2476431   0.0000000), wk =   0.2500000

     Largest allocated arrays     est. size (Mb)     dimensions
     Largest temporary arrays     est. size (Mb)     dimensions

     Check: negative/imaginary core charge=   -0.000003    0.000000

     Initial potential from superposition of free atoms
     Check: negative starting charge=   -3.334716

     starting charge  227.99968, renormalised to  232.00000

     negative rho (up, down):  0.339E+01 0.000E+00
     Number of +U iterations with fixed ns =  0
     Starting occupations:
 --- enter write_ns ---
 LDA+U parameters:
U( 2)     =  7.00000000
alpha( 2) =  0.00000000
atom    3   Tr[ns(na)] =   7.00000
    eigenvalues:
  0.700  0.700  0.700  0.700  0.700
    eigenvectors:
  1.000  0.000  0.000  0.000  0.000
  0.000  1.000  0.000  0.000  0.000
  0.000  0.000  1.000  0.000  0.000
  0.000  0.000  0.000  1.000  0.000
  0.000  0.000  0.000  0.000  1.000
    occupations:
  0.700  0.000  0.000  0.000  0.000
  0.000  0.700  0.000  0.000  0.000
  0.000  0.000  0.700  0.000  0.000
  0.000  0.000  0.000  0.700  0.000
  0.000  0.000  0.000  0.000  0.700
atom    4   Tr[ns(na)] =   7.00000
    eigenvalues:
  0.700  0.700  0.700  0.700  0.700
    eigenvectors:
  1.000  0.000  0.000  0.000  0.000
  0.000  1.000  0.000  0.000  0.000
  0.000  0.000  1.000  0.000  0.000
  0.000  0.000  0.000  1.000  0.000
  0.000  0.000  0.000  0.000  1.000
    occupations:
  0.700  0.000  0.000  0.000  0.000
  0.000  0.700  0.000  0.000  0.000
  0.000  0.000  0.700  0.000  0.000
  0.000  0.000  0.000  0.700  0.000
  0.000  0.000  0.000  0.000  0.700
atom    9   Tr[ns(na)] =   7.00000
    eigenvalues:
  0.700  0.700  0.700  0.700  0.700
    eigenvectors:
  1.000  0.000  0.000  0.000  0.000
  0.000  1.000  0.000  0.000  0.000
  0.000  0.000  1.000  0.000  0.000
  0.000  0.000  0.000  1.000  0.000
  0.000  0.000  0.000  0.000  1.000
    occupations:
  0.700  0.000  0.000  0.000  0.000
  0.000  0.700  0.000  0.000  0.000
  0.000  0.000  0.700  0.000  0.000
  0.000  0.000  0.000  0.700  0.000
  0.000  0.000  0.000  0.000  0.700
atom   10   Tr[ns(na)] =   7.00000
    eigenvalues:
  0.700  0.700  0.700  0.700  0.700
    eigenvectors:
  1.000  0.000  0.000  0.000  0.000
  0.000  1.000  0.000  0.000  0.000
  0.000  0.000  1.000  0.000  0.000
  0.000  0.000  0.000  1.000  0.000
  0.000  0.000  0.000  0.000  1.000
    occupations:
  0.700  0.000  0.000  0.000  0.000
  0.000  0.700  0.000  0.000  0.000
  0.000  0.000  0.700  0.000  0.000
  0.000  0.000  0.000  0.700  0.000
  0.000  0.000  0.000  0.000  0.700
atom   16   Tr[ns(na)] =   7.00000
    eigenvalues:
  0.700  0.700  0.700  0.700  0.700
    eigenvectors:
  1.000  0.000  0.000  0.000  0.000
  0.000  1.000  0.000  0.000  0.000
  0.000  0.000  1.000  0.000  0.000
  0.000  0.000  0.000  1.000  0.000
  0.000  0.000  0.000  0.000  1.000
    occupations:
  0.700  0.000  0.000  0.000  0.000
  0.000  0.700  0.000  0.000  0.000
  0.000  0.000  0.700  0.000  0.000
  0.000  0.000  0.000  0.700  0.000
  0.000  0.000  0.000  0.000  0.700
atom   17   Tr[ns(na)] =   7.00000
    eigenvalues:
  0.700  0.700  0.700  0.700  0.700
    eigenvectors:
  1.000  0.000  0.000  0.000  0.000
  0.000  1.000  0.000  0.000  0.000
  0.000  0.000  1.000  0.000  0.000
  0.000  0.000  0.000  1.000  0.000
  0.000  0.000  0.000  0.000  1.000
    occupations:
  0.700  0.000  0.000  0.000  0.000
  0.000  0.700  0.000  0.000  0.000
  0.000  0.000  0.700  0.000  0.000
  0.000  0.000  0.000  0.700  0.000
  0.000  0.000  0.000  0.000  0.700
atom   22   Tr[ns(na)] =   7.00000
    eigenvalues:
  0.700  0.700  0.700  0.700  0.700
    eigenvectors:
  1.000  0.000  0.000  0.000  0.000
  0.000  1.000  0.000  0.000  0.000
  0.000  0.000  1.000  0.000  0.000
  0.000  0.000  0.000  1.000  0.000
  0.000  0.000  0.000  0.000  1.000
    occupations:
  0.700  0.000  0.000  0.000  0.000
  0.000  0.700  0.000  0.000  0.000
  0.000  0.000  0.700  0.000  0.000
[...]
 -0.000 -0.005  0.001 -0.000  0.977
atom    4   Tr[ns(na)] =   8.23026
    eigenvalues:
  0.621  0.673  0.894  0.940  0.987
    eigenvectors:
  0.001  0.988  0.000  0.000  0.011
  0.000  0.000  0.072  0.927  0.000
  0.000  0.000  0.928  0.072  0.000
  0.000  0.011  0.000  0.000  0.989
  0.999  0.001  0.000  0.000  0.000
    occupations:
  0.677 -0.003 -0.000  0.033  0.001
 -0.003  0.937  0.012  0.000 -0.002
 -0.000  0.012  0.897 -0.000  0.001
  0.033  0.000 -0.000  0.983  0.000
  0.001 -0.002  0.001  0.000  0.621
atom    9   Tr[ns(na)] =   8.22254
    eigenvalues:
  0.654  0.670  0.882  0.919  0.986
    eigenvectors:
  0.000  0.141  0.000  0.000  0.858
  1.000  0.000  0.000  0.000  0.000
  0.000  0.000  1.000  0.000  0.000
  0.000  0.858  0.000  0.000  0.141
  0.000  0.000  0.000  1.000  0.000
    occupations:
  0.942  0.000 -0.000 -0.110 -0.000
  0.000  0.654  0.001  0.000 -0.000
 -0.000  0.001  0.882 -0.000 -0.000
 -0.110  0.000 -0.000  0.715  0.001
 -0.000 -0.000 -0.000  0.001  0.919
atom   10   Tr[ns(na)] =   8.17044
    eigenvalues:
  0.573  0.614  0.950  0.962  0.986
    eigenvectors:
  0.993  0.000  0.000  0.000  0.007
  0.000  0.000  1.000  0.000  0.000
  0.000  0.000  0.000  1.000  0.000
  0.007  0.000  0.000  0.000  0.993
  0.000  1.000  0.000  0.000  0.000
    occupations:
  0.576  0.000  0.001  0.035 -0.000
  0.000  0.950 -0.000  0.000 -0.000
  0.001 -0.000  0.962 -0.000  0.000
  0.035  0.000 -0.000  0.983  0.000
 -0.000 -0.000  0.000  0.000  0.614
atom   16   Tr[ns(na)] =   8.23206
    eigenvalues:
  0.602  0.630  0.925  0.977  0.982
    eigenvectors:
  0.000  0.189  0.003  0.000  0.807
  1.000  0.000  0.000  0.000  0.000
  0.000  0.000  0.996  0.000  0.003
  0.000  0.811  0.000  0.000  0.189
  0.000  0.000  0.000  0.999  0.000
    occupations:
  0.915 -0.000  0.002 -0.138 -0.000
 -0.000  0.602 -0.000 -0.000 -0.005
  0.002 -0.000  0.925 -0.004  0.001
 -0.138 -0.000 -0.004  0.697 -0.000
 -0.000 -0.005  0.001 -0.000  0.977
atom   17   Tr[ns(na)] =   8.23013
    eigenvalues:
  0.621  0.673  0.894  0.940  0.987
    eigenvectors:
  0.001  0.988  0.000  0.000  0.011
  0.000  0.000  0.072  0.928  0.000
  0.000  0.000  0.928  0.072  0.000
  0.000  0.011  0.000  0.000  0.989
  0.999  0.001  0.000  0.000  0.000
    occupations:
  0.676 -0.003 -0.000  0.033  0.001
 -0.003  0.937  0.012  0.000 -0.002
 -0.000  0.012  0.897 -0.000  0.001
  0.033  0.000 -0.000  0.983  0.000
  0.001 -0.002  0.001  0.000  0.621
atom   22   Tr[ns(na)] =   8.22248
    eigenvalues:
  0.654  0.670  0.882  0.919  0.986
    eigenvectors:
  0.000  0.141  0.000  0.000  0.858
  1.000  0.000  0.000  0.000  0.000
  0.000  0.000  1.000  0.000  0.000
  0.000  0.858  0.000  0.000  0.141
  0.000  0.000  0.000  1.000  0.000
    occupations:
  0.942  0.000 -0.000 -0.110 -0.000
  0.000  0.654  0.001  0.000 -0.000
 -0.000  0.001  0.882 -0.000 -0.000
 -0.110  0.000 -0.000  0.715  0.001
 -0.000 -0.000 -0.000  0.001  0.919
atom   23   Tr[ns(na)] =   8.17043
    eigenvalues:
  0.573  0.614  0.950  0.962  0.986
    eigenvectors:
  0.993  0.000  0.000  0.000  0.007
  0.000  0.000  1.000  0.000  0.000
  0.000  0.000  0.000  1.000  0.000
  0.007  0.000  0.000  0.000  0.993
  0.000  1.000  0.000  0.000  0.000
    occupations:
  0.576  0.000  0.001  0.035 -0.000
  0.000  0.950 -0.000  0.000 -0.000
  0.001 -0.000  0.962 -0.000  0.000
  0.035  0.000 -0.000  0.983  0.000
 -0.000 -0.000  0.000  0.000  0.614
N of occupied +U levels =  65.7105257
 --- exit write_ns ---

     Threshold (ethr) on eigenvalues was too large:
     Diagonalizing with lowered threshold

     Davidson diagonalization with overlap
     ethr =  1.70E-08,  avg # of iterations =  2.0

[...]

     total energy              =   -2071.35305028 Ry
     Harris-Foulkes estimate   =   -2071.35305028 Ry
     estimated scf accuracy    <       0.00000001 Ry

     iteration # 14     ecut=    40.00 Ry     beta=0.70
     Davidson diagonalization with overlap
     ethr =  6.43E-12,  avg # of iterations =  1.0

     negative rho (up, down):  0.314E+01 0.000E+00

     End of self-consistent calculation
 --- enter write_ns ---
 LDA+U parameters:
U( 2)     =  7.00000000
alpha( 2) =  0.00000000
atom    3   Tr[ns(na)] =   8.23146
    eigenvalues:
  0.602  0.630  0.925  0.977  0.982
    eigenvectors:
  0.000  0.189  0.003  0.000  0.807
  1.000  0.000  0.000  0.000  0.000
  0.000  0.000  0.996  0.000  0.003
  0.000  0.811  0.000  0.000  0.189
  0.000  0.000  0.000  0.999  0.000
    occupations:
  0.915 -0.000  0.002 -0.138 -0.000
 -0.000  0.602 -0.000 -0.000 -0.005
  0.002 -0.000  0.925 -0.004  0.001
 -0.138 -0.000 -0.004  0.697 -0.000
 -0.000 -0.005  0.001 -0.000  0.977
atom    4   Tr[ns(na)] =   8.22966
    eigenvalues:
  0.621  0.673  0.894  0.940  0.987
    eigenvectors:
  0.001  0.988  0.000  0.000  0.011
  0.000  0.000  0.072  0.928  0.000
  0.000  0.000  0.928  0.072  0.000
  0.000  0.011  0.000  0.000  0.989
  0.999  0.001  0.000  0.000  0.000
    occupations:
  0.676 -0.003 -0.000  0.033  0.001
 -0.003  0.937  0.012  0.000 -0.002
 -0.000  0.012  0.897 -0.000  0.001
  0.033  0.000 -0.000  0.983  0.000
  0.001 -0.002  0.001  0.000  0.621
atom    9   Tr[ns(na)] =   8.22319
    eigenvalues:
  0.654  0.670  0.882  0.919  0.986
    eigenvectors:
  0.000  0.141  0.000  0.000  0.858
  1.000  0.000  0.000  0.000  0.000
  0.000  0.000  1.000  0.000  0.000
  0.000  0.858  0.000  0.000  0.141
  0.000  0.000  0.000  1.000  0.000
    occupations:
  0.942  0.000 -0.000 -0.110 -0.000
  0.000  0.654  0.001  0.000 -0.000
 -0.000  0.001  0.882 -0.000 -0.000
 -0.110  0.000 -0.000  0.715  0.001
 -0.000 -0.000 -0.000  0.001  0.919
atom   10   Tr[ns(na)] =   8.17110
    eigenvalues:
  0.574  0.614  0.950  0.962  0.986
    eigenvectors:
  0.993  0.000  0.000  0.000  0.007
  0.000  0.000  1.000  0.000  0.000
  0.000  0.000  0.000  1.000  0.000
  0.007  0.000  0.000  0.000  0.993
  0.000  1.000  0.000  0.000  0.000
    occupations:
  0.577  0.000  0.001  0.035 -0.000
  0.000  0.950 -0.000  0.000 -0.000
  0.001 -0.000  0.962 -0.000  0.000
  0.035  0.000 -0.000  0.983  0.000
 -0.000 -0.000  0.000  0.000  0.614
atom   16   Tr[ns(na)] =   8.23146
    eigenvalues:
  0.602  0.630  0.925  0.977  0.982
    eigenvectors:
  0.000  0.189  0.003  0.000  0.807
  1.000  0.000  0.000  0.000  0.000
  0.000  0.000  0.996  0.000  0.003
  0.000  0.811  0.000  0.000  0.189
  0.000  0.000  0.000  0.999  0.000
    occupations:
  0.915 -0.000  0.002 -0.138 -0.000
 -0.000  0.602 -0.000 -0.000 -0.005
  0.002 -0.000  0.925 -0.004  0.001
 -0.138 -0.000 -0.004  0.697 -0.000
 -0.000 -0.005  0.001 -0.000  0.977
atom   17   Tr[ns(na)] =   8.22965
    eigenvalues:
  0.621  0.673  0.894  0.940  0.987
    eigenvectors:
  0.001  0.988  0.000  0.000  0.011
  0.000  0.000  0.072  0.928  0.000
  0.000  0.000  0.928  0.072  0.000
  0.000  0.011  0.000  0.000  0.989
  0.999  0.001  0.000  0.000  0.000
    occupations:
  0.676 -0.003 -0.000  0.033  0.001
 -0.003  0.937  0.012  0.000 -0.002
 -0.000  0.012  0.897 -0.000  0.001
  0.033  0.000 -0.000  0.983  0.000
  0.001 -0.002  0.001  0.000  0.621
atom   22   Tr[ns(na)] =   8.22322
    eigenvalues:
  0.654  0.670  0.882  0.919  0.986
    eigenvectors:
  0.000  0.141  0.000  0.000  0.858
  1.000  0.000  0.000  0.000  0.000
  0.000  0.000  1.000  0.000  0.000
  0.000  0.858  0.000  0.000  0.141
  0.000  0.000  0.000  1.000  0.000
    occupations:
  0.942  0.000 -0.000 -0.110 -0.000
  0.000  0.654  0.001  0.000 -0.000
 -0.000  0.001  0.882 -0.000 -0.000
 -0.110  0.000 -0.000  0.715  0.001
 -0.000 -0.000 -0.000  0.001  0.919
atom   23   Tr[ns(na)] =   8.17110
    eigenvalues:
  0.574  0.614  0.950  0.962  0.986
    eigenvectors:
  0.993  0.000  0.000  0.000  0.007
  0.000  0.000  1.000  0.000  0.000
  0.000  0.000  0.000  1.000  0.000
  0.007  0.000  0.000  0.000  0.993
  0.000  1.000  0.000  0.000  0.000
    occupations:
  0.577  0.000  0.001  0.035 -0.000
  0.000  0.950 -0.000  0.000 -0.000
  0.001 -0.000  0.962 -0.000  0.000
  0.035  0.000 -0.000  0.983  0.000
 -0.000 -0.000  0.000  0.000  0.614
N of occupied +U levels =  65.7108510
 --- exit write_ns ---

[...]

          k = 0.2500-0.4953 0.0000 ( 31088 PWs)   bands (ev):

[...]

          k =-0.2500 0.2476 0.0000 ( 31099 PWs)   bands (ev):

   -50.2486 -50.2198 -50.2172 -50.1828 -50.1762 -50.1518 -50.1511 -50.1498
   -50.1463 -50.1321 -50.1089 -50.0579 -50.0079 -49.9994 -49.9007 -49.8487
   -49.8442 -49.8290 -49.7812 -49.7762 -49.7703 -49.7657 -49.7632 -49.7535
   -21.4167 -21.1683 -21.1276 -21.0363 -20.7274 -20.6962 -20.6852 -20.4623
   -20.4088 -20.3673 -20.1974 -20.1579 -20.0035 -19.9538 -19.9005 -19.7419
   -18.9823 -18.8364 -10.9123 -10.7104 -10.4709 -10.4640 -10.1460 -10.0162
    -9.8634  -9.8517  -9.5918  -9.0694  -9.0212  -8.8914  -8.8485  -8.6937
    -8.6357  -8.4312  -8.3169  -8.2078  -8.0500  -7.8122  -7.7074  -7.5781
    -7.4937  -7.3857  -7.2708  -7.2328  -7.2081  -6.8902  -6.7998  -6.7704
    -6.5949  -6.5418  -6.4620  -6.3324  -6.2885  -6.1962  -6.1083  -6.1033
    -5.9324  -5.8345  -5.6666  -5.4093  -5.1721  -5.0660  -4.9395  -4.8439
    -4.7035  -4.5488  -4.5276  -4.4038  -4.0697  -4.0248  -3.9104  -3.8207
    -3.7659  -3.7047  -3.5010  -3.4715  -3.4030  -3.3951  -3.1433  -3.1209
    -3.1177  -3.0359  -2.8422  -2.8005  -2.6535  -2.5670  -2.2796  -1.9938
    -1.7739  -1.5684  -1.5552  -1.3306  -1.3026  -1.0445  -0.8751  -0.6844
    -0.0638   0.1152   1.0740   1.1372   1.6589   1.8150   1.8453   2.2960
     2.5278   2.7708   2.9698   2.9795   3.2510   3.2734   3.4196   3.4808
     3.8111   4.3559   4.7134   5.1304   5.4096   5.6036   5.6789   5.8926
     6.1316   6.2881   6.5105   6.5516   6.5990   6.7931   7.0023   7.0471
     7.3335   7.3882   7.4959   7.6927   7.6992   7.8878   8.0280   8.0974
     8.1646   8.3286   8.4524   8.4786   8.5944   8.8107   8.8355   8.9292
     8.9497   9.1897   9.2625   9.2647   9.3605   9.5489   9.6437   9.7111
     9.7642   9.7647   9.7937   9.7943   9.8214   9.8545   9.8564  10.0057
    10.0100  10.0474  10.0753  10.0816  10.2062  10.2866  10.2910  10.4165
    10.4295  10.5537  10.6200  10.7274  10.7955  10.8343  10.9939  11.0339
    11.0741  11.2762  11.3474  11.4354  11.5385  11.5753  11.7297  11.7595
    11.7785  11.9469  12.0925  12.1373  12.1563  12.2788  12.4040  12.4053
    12.5013  12.5745  12.6493  12.7363  12.7855  12.8136  12.8257  12.9184
    13.0897  13.1720  13.1772  13.2658  13.3522  13.3701  13.5396  13.6749
    13.6761  13.7559  13.8746  13.8928  14.0161  14.0299  14.1213  14.1370
    14.2765  14.3703  14.4112  14.5547  14.5834  14.7605  14.7857  14.8967
    14.9258  15.2151  15.2718  15.3679  15.3776  15.5237  15.5893  15.5898
    15.6236  15.7394  15.7890  15.8289  15.8584  15.8887  15.9618  16.0273
    16.0898  16.1580  16.1735  16.2911  16.3351  16.4083  16.4355  16.4579
    16.6442  16.6536  16.7238  16.7376  16.8256  16.8432  17.0763  17.1241
    17.2138  17.3606  17.3698  17.4305  17.4327  17.4747  17.5496  17.5675
    17.6327  17.7340  17.7638  17.8164  17.8832  17.8865  17.9754  17.9943
    18.1662  18.2302  18.3040  18.3940  18.4760  18.5104  18.6063  18.6195
    18.8328  18.8350  18.9097  18.9691  19.0270  19.1344  19.1424  19.2293
    19.2889  19.2929  19.3548  19.4980  19.6113  19.6118  19.7276  19.7855
    19.8228  19.9546  20.0206  20.1449  20.1500  20.3207  20.3376  20.3717
    20.4992  20.5684  20.6276  20.6794  20.7254  20.7836  20.8172  20.9080
    20.9208  21.0045  21.0555  21.1288  21.1812  21.2593  21.3057  21.3464
    21.3569  21.4452  21.4796  21.5748

     the Fermi energy is    -1.3351 ev

!    total energy              =   -2071.35305028 Ry
     Harris-Foulkes estimate   =   -2071.35305028 Ry
     estimated scf accuracy    <          2.1E-09 Ry

     The total energy is the sum of the following terms:

     one-electron contribution =  -22089.53689514 Ry
     hartree contribution      =   11088.73364612 Ry
     xc contribution           =    -569.45666240 Ry
     ewald contribution        =    9496.41743792 Ry
     Hubbard energy            =       2.49092705 Ry
     smearing contrib. (-TS)   =      -0.00150382 Ry

     convergence has been achieved in  14 iterations

     Forces acting on atoms (Ry/au):

     negative rho (up, down):  0.314E+01 0.000E+00
     atom    1 type  1   force =    -0.00714248   -0.01234807   -0.00003960
     atom    2 type  1   force =     0.00004834    0.00236213   -0.00054017
     atom    3 type  2   force =     0.00017362    0.00652654   -0.00011883
     atom    4 type  2   force =     0.00864622    0.00725618   -0.00020026
     atom    5 type  1   force =    -0.00532567   -0.01343101   -0.00048083
     atom    6 type  1   force =     0.00694499    0.01194162   -0.00032619
     atom    7 type  1   force =    -0.00047000   -0.00251078    0.00040923
     atom    8 type  1   force =    -0.00323338   -0.00046914   -0.00015717
     atom    9 type  2   force =     0.00111192    0.00018092   -0.00014615
     atom   10 type  2   force =     0.00000040   -0.00102831    0.00045545
     atom   11 type  1   force =    -0.00009929    0.02317126    0.00021121
     atom   12 type  1   force =     0.00021857   -0.02291107    0.00021565
     atom   13 type  1   force =    -0.00074186   -0.00008101   -0.00015543
     atom   14 type  1   force =    -0.00714217   -0.01234764   -0.00003297
     atom   15 type  1   force =     0.00004352    0.00236246   -0.00054019
     atom   16 type  2   force =     0.00017368    0.00652684   -0.00011833
     atom   17 type  2   force =     0.00863862    0.00725608   -0.00019634
     atom   18 type  1   force =    -0.00532986   -0.01343044   -0.00048081
     atom   19 type  1   force =     0.00694049    0.01194129   -0.00032642
     atom   20 type  1   force =    -0.00047679   -0.00251080    0.00041156
     atom   21 type  1   force =    -0.00324517   -0.00046916   -0.00014935
     atom   22 type  2   force =     0.00109813    0.00018112   -0.00014950
     atom   23 type  2   force =    -0.00000554   -0.00102823    0.00045711
     atom   24 type  1   force =    -0.00010198    0.02316503    0.00021045
     atom   25 type  1   force =     0.00021589   -0.02290473    0.00021511
     atom   26 type  1   force =    -0.00075792   -0.00008094   -0.00018786
     atom   27 type  3   force =     0.00002452    0.00083767    0.00088118
     atom   28 type  3   force =     0.00002469    0.00083788    0.00088094
     atom   29 type  3   force =    -0.00011683    0.00050192    0.00000104
     atom   30 type  3   force =    -0.00011469    0.00050240   -0.00000251

     Total force =     0.002438     Total SCF correction =     0.000102

     bfgs converged in   9 scf cycles and   8 bfgs steps
     (criteria: energy < 0.10E-03, force < 0.10E-02)

     End of BFGS Geometry Optimization

     Final energy   =   -2071.3530502757 Ry
Begin final coordinates

ATOMIC_POSITIONS (crystal)
O0       0.000000000   0.000000000   0.379113639    0   0   1
O0       0.000000000   0.500000000   0.402465228    0   0   1
Ir1      0.250000000   0.500000000   0.452731341    0   0   1
Ir1      0.000000000   0.000000000   0.453579619    0   0   1
O0       0.250000000   0.810000000   0.453554638    0   0   1
O0       0.250000000   0.190000000   0.452988671    0   0   1
O0       0.000000000   0.500000000   0.499153629    0   0   1
O0       0.000000000   0.000000000   0.528934134    0   0   1
Ir1      0.250000000   0.000000000   0.575677534    0   0   1
Ir1      0.000000000   0.500000000   0.572105371    0   0   1
O0       0.250000000   0.690000000   0.575755667    0   0   1
O0       0.250000000   0.310000000   0.575757658    0   0   1
O0       0.000000000   0.000000000   0.620348562    0   0   1
O0       0.500000000   0.000000000   0.379113350    0   0   1
O0       0.500000000   0.500000000   0.402465236    0   0   1
Ir1      0.750000000   0.500000000   0.452731253    0   0   1
Ir1      0.500000000   0.000000000   0.453579365    0   0   1
O0       0.750000000   0.810000000   0.453554385    0   0   1
O0       0.750000000   0.190000000   0.452988426    0   0   1
O0       0.500000000   0.500000000   0.499153497    0   0   1
O0       0.500000000   0.000000000   0.528934015    0   0   1
Ir1      0.750000000   0.000000000   0.575677687    0   0   1
Ir1      0.500000000   0.500000000   0.572105271    0   0   1
O0       0.750000000   0.690000000   0.575756340    0   0   1
O0       0.750000000   0.310000000   0.575758308    0   0   1
O0       0.500000000   0.000000000   0.620350019    0   0   1
H2      -0.000265100   0.635257583   0.384452768
H2       0.499734572   0.635257623   0.384452807
H2       0.143415401   0.034830068   0.367565553
H2       0.643416248   0.034830361   0.367566029
End final coordinates

     General routines

     Parallel routines
     Hubbard U routines

   This run was terminated on:  12:22:20   6May2014

   JOB DONE.