     Program PWSCF v.5.0.2 (svn rev. 9656) starts on 23Jan2014 at 19: 2:30

     Current dimensions of program PWSCF are:
     Max number of different atomic species (ntypx) = 10
     Max number of k-points (npk) =  40000
     Max angular momentum in pseudopotentials (lmaxx) =  3
     Reading input from RhO2-v-1.2.in

     Subspace diagonalization in iterative solution of the eigenvalue problem:
     a serial algorithm will be used

     bravais-lattice index     =            0
     lattice parameter (alat)  =       9.2016  a.u.
     unit-cell volume          =     502.0761 (a.u.)^3
     number of atoms/cell      =            6
     number of atomic types    =            2
     number of electrons       =        54.00
     number of Kohn-Sham states=           81
     kinetic-energy cutoff     =      40.0000  Ry
     charge density cutoff     =     500.0000  Ry
     convergence threshold     =      1.0E-06
     mixing beta               =       0.7000
     number of iterations used =            8  plain     mixing
     Exchange-correlation      = SLA  PW   PBE  PBE ( 1 4 3 4 0)
     EXX-fraction              =        0.00
     nstep                     =           50

     celldm(1)=   9.201558  celldm(2)=   0.000000  celldm(3)=   0.000000
     celldm(4)=   0.000000  celldm(5)=   0.000000  celldm(6)=   0.000000

     crystal axes: (cart. coord. in units of alat)
               a(1) = (   1.000000   0.000000   0.000000 )
               a(2) = (   0.000000   1.000000   0.000000 )
               a(3) = (   0.000000   0.000000   0.644444 )

     reciprocal axes: (cart. coord. in units 2 pi/alat)
               b(1) = (  1.000000  0.000000  0.000000 )
               b(2) = (  0.000000  1.000000  0.000000 )
               b(3) = (  0.000000  0.000000  1.551724 )

     PseudoPot. # 1 for Rh read from file:
     /home/camp/zhonxu/pseudo/rh_pbe_v1.uspp.F.UPF
     MD5 check sum: 37b626987ad0dd8ec6bf4cc9ef289918
     Pseudo is Ultrasoft + core correction, Zval = 15.0
     Generated by new atomic code, or converted to UPF format
     Using radial grid of  969 points,  7 beta functions with:
                l(1) =   0
                l(2) =   0
                l(3) =   1
                l(4) =   1
                l(5) =   2
                l(6) =   2
                l(7) =   2
     Q(r) pseudized with  6 coefficients,  rinner =    1.050   1.050   1.050
                                                       1.050   1.050

     PseudoPot. # 2 for O  read from file:
     /home/camp/zhonxu/pseudo/o_pbe_v1.01.uspp.F.UPF
     MD5 check sum: 2bcb18d16ea4b960afae9ec6d52f22d2
     Pseudo is Ultrasoft + core correction, Zval =  6.0
     Generated by new atomic code, or converted to UPF format
     Using radial grid of  737 points,  5 beta functions with:
                l(1) =   0
                l(2) =   0
                l(3) =   1
                l(4) =   1
                l(5) =   2
     Q(r) pseudized with  8 coefficients,  rinner =    0.900   0.900   0.900
                                                       0.900   0.900

     atomic species   valence    mass     pseudopotential
        Rh0           15.00   102.90550     Rh( 1.00)
        O1             6.00    15.99940     O ( 1.00)

     Starting magnetic structure
     atomic species   magnetization
        Rh0          0.600
        O1           0.000

      8 Sym. Ops., with inversion, found
          (note:  8 additional sym.ops. were found but ignored
           their fractional translations are incommensurate with FFT grid)

   Cartesian axes

     site n.     atom                  positions (alat units)
         1           Rh0 tau(   1) = (   0.0000000   0.0000000   0.0000000  )
         2           Rh0 tau(   2) = (   0.5000000   0.5000000   0.3222222  )
         3           O1  tau(   3) = (   0.3050000   0.3050000   0.0000000  )
         4           O1  tau(   4) = (  -0.3050000  -0.3050000   0.0000000  )
         5           O1  tau(   5) = (   0.8050000   0.1950000   0.3222222  )
         6           O1  tau(   6) = (   0.1950000   0.8050000   0.3222222  )

     number of k points=    54  Methfessel-Paxton smearing, width (Ry)=  0.0100
                       cart. coord. in units 2pi/alat
        k(    1) = (   0.0000000   0.0000000   0.0000000), wk =   0.0080000
        k(    2) = (   0.0000000   0.0000000   0.3103448), wk =   0.0160000
        k(    3) = (   0.0000000   0.0000000   0.6206897), wk =   0.0160000
        k(    4) = (   0.0000000   0.2000000   0.0000000), wk =   0.0320000
        k(    5) = (   0.0000000   0.2000000   0.3103448), wk =   0.0640000
        k(    6) = (   0.0000000   0.2000000   0.6206897), wk =   0.0640000
        k(    7) = (   0.0000000   0.4000000   0.0000000), wk =   0.0320000
        k(    8) = (   0.0000000   0.4000000   0.3103448), wk =   0.0640000
        k(    9) = (   0.0000000   0.4000000   0.6206897), wk =   0.0640000
        k(   10) = (   0.2000000   0.2000000   0.0000000), wk =   0.0160000
        k(   11) = (   0.2000000   0.2000000   0.3103448), wk =   0.0320000
        k(   12) = (   0.2000000   0.2000000   0.6206897), wk =   0.0320000
        k(   13) = (   0.2000000   0.4000000   0.0000000), wk =   0.0320000
        k(   14) = (   0.2000000   0.4000000   0.3103448), wk =   0.0640000
        k(   15) = (   0.2000000   0.4000000   0.6206897), wk =   0.0640000
        k(   16) = (   0.4000000   0.4000000   0.0000000), wk =   0.0160000
        k(   17) = (   0.4000000   0.4000000   0.3103448), wk =   0.0320000
        k(   18) = (   0.4000000   0.4000000   0.6206897), wk =   0.0320000
        k(   19) = (  -0.2000000   0.2000000   0.0000000), wk =   0.0160000
        k(   20) = (  -0.2000000   0.2000000  -0.3103448), wk =   0.0320000
        k(   21) = (  -0.2000000   0.2000000  -0.6206897), wk =   0.0320000
        k(   22) = (  -0.2000000   0.4000000   0.0000000), wk =   0.0320000
        k(   23) = (  -0.2000000   0.4000000  -0.3103448), wk =   0.0640000
        k(   24) = (  -0.2000000   0.4000000  -0.6206897), wk =   0.0640000
        k(   25) = (  -0.4000000   0.4000000   0.0000000), wk =   0.0160000
        k(   26) = (  -0.4000000   0.4000000  -0.3103448), wk =   0.0320000
        k(   27) = (  -0.4000000   0.4000000  -0.6206897), wk =   0.0320000
        k(   28) = (   0.0000000   0.0000000   0.0000000), wk =   0.0080000
        k(   29) = (   0.0000000   0.0000000   0.3103448), wk =   0.0160000
        k(   30) = (   0.0000000   0.0000000   0.6206897), wk =   0.0160000
        k(   31) = (   0.0000000   0.2000000   0.0000000), wk =   0.0320000
        k(   32) = (   0.0000000   0.2000000   0.3103448), wk =   0.0640000
        k(   33) = (   0.0000000   0.2000000   0.6206897), wk =   0.0640000
        k(   34) = (   0.0000000   0.4000000   0.0000000), wk =   0.0320000
        k(   35) = (   0.0000000   0.4000000   0.3103448), wk =   0.0640000
        k(   36) = (   0.0000000   0.4000000   0.6206897), wk =   0.0640000
        k(   37) = (   0.2000000   0.2000000   0.0000000), wk =   0.0160000
        k(   38) = (   0.2000000   0.2000000   0.3103448), wk =   0.0320000
        k(   39) = (   0.2000000   0.2000000   0.6206897), wk =   0.0320000
        k(   40) = (   0.2000000   0.4000000   0.0000000), wk =   0.0320000
        k(   41) = (   0.2000000   0.4000000   0.3103448), wk =   0.0640000
        k(   42) = (   0.2000000   0.4000000   0.6206897), wk =   0.0640000
        k(   43) = (   0.4000000   0.4000000   0.0000000), wk =   0.0160000
        k(   44) = (   0.4000000   0.4000000   0.3103448), wk =   0.0320000
        k(   45) = (   0.4000000   0.4000000   0.6206897), wk =   0.0320000
        k(   46) = (  -0.2000000   0.2000000   0.0000000), wk =   0.0160000
        k(   47) = (  -0.2000000   0.2000000  -0.3103448), wk =   0.0320000
        k(   48) = (  -0.2000000   0.2000000  -0.6206897), wk =   0.0320000
        k(   49) = (  -0.2000000   0.4000000   0.0000000), wk =   0.0320000
        k(   50) = (  -0.2000000   0.4000000  -0.3103448), wk =   0.0640000
        k(   51) = (  -0.2000000   0.4000000  -0.6206897), wk =   0.0640000
        k(   52) = (  -0.4000000   0.4000000   0.0000000), wk =   0.0160000
        k(   53) = (  -0.4000000   0.4000000  -0.3103448), wk =   0.0320000
        k(   54) = (  -0.4000000   0.4000000  -0.6206897), wk =   0.0320000

     Largest allocated arrays     est. size (Mb)     dimensions
     Largest temporary arrays     est. size (Mb)     dimensions

     Check: negative/imaginary core charge=   -0.000005    0.000000

     Initial potential from superposition of free atoms
     Check: negative starting charge=(component1):   -0.129929
     Check: negative starting charge=(component2):   -0.032294

     starting charge   52.99980, renormalised to   54.00000

     negative rho (up, down):  0.132E+00 0.329E-01
     Starting wfc are   40 randomized atomic wfcs

     Self-consistent Calculation

     iteration #  1     ecut=    40.00 Ry     beta=0.70
     Davidson diagonalization with overlap
     ethr =  1.00E-02,  avg # of iterations =  7.2

     negative rho (up, down):  0.961E-01 0.750E-01

     total energy              =    -466.14111856 Ry
     Harris-Foulkes estimate   =    -469.81929673 Ry
     estimated scf accuracy    <       5.46779106 Ry

     total magnetization       =    10.00 Bohr mag/cell
     absolute magnetization    =    10.00 Bohr mag/cell

[...]

     End of self-consistent calculation

 ------ SPIN UP ------------

          k = 0.0000 0.0000 0.0000 (  2127 PWs)   bands (ev):

   -38.6067 -38.6065 -38.4762 -38.4756 -38.3952 -38.3897  -9.8911  -9.0168
    -8.5781  -8.5779   1.9272   1.9376   3.2034   3.2035   3.2272   5.3775
     5.3775   5.7899   6.6195   6.6382   6.8867   6.9717   6.9718   7.1265
     7.2235   7.2236   7.8855   8.5594   9.3548  11.6806  11.6809  12.4797
    14.1066  18.5201  18.5203  21.1407  21.5692  22.3509  23.7196  24.6558
    24.6558  26.2533  26.7893  28.5608  30.2848  30.2849  31.5135  31.5136
    32.0420  32.9157  33.1332  33.1333  33.8621  35.2368  35.3077  35.6514
    37.2588  37.3981  37.4020  38.0204  38.0205  38.2542  38.2543  38.5081
    40.1553  40.1554  41.6358  41.7362  43.3096  44.8848  44.8848  45.4091
    45.6801  45.7109  45.7109  46.3180  47.2088  47.2089  47.4894  47.6486
    48.1414

[...]

          k =-0.2000 0.2000 0.0000 (  2131 PWs)   bands (ev):

[...]

 ------ SPIN DOWN ----------

[...]

     the Fermi energy is     8.9153 ev

!    total energy              =    -469.75827931 Ry
     Harris-Foulkes estimate   =    -469.75827846 Ry
     estimated scf accuracy    <       0.00000072 Ry

     The total energy is the sum of the following terms:

     one-electron contribution =    -166.32816637 Ry
     hartree contribution      =     114.58174773 Ry
     xc contribution           =     -86.51165422 Ry
     ewald contribution        =    -331.49997519 Ry
     smearing contrib. (-TS)   =      -0.00023126 Ry

[...]

     convergence has been achieved in  14 iterations

     Forces acting on atoms (Ry/au):

     negative rho (up, down):  0.856E-01 0.864E-01
     atom    1 type  1   force =     0.00000000    0.00000000    0.00000000
[...]
        k(   14) = (   0.2018899   0.4037782   0.3045650), wk =   0.0640000
        k(   15) = (   0.2018899   0.4037782   0.6091300), wk =   0.0640000
        k(   16) = (   0.4037787   0.4037787   0.0000000), wk =   0.0160000
        k(   17) = (   0.4037787   0.4037787   0.3045650), wk =   0.0320000
        k(   18) = (   0.4037787   0.4037787   0.6091300), wk =   0.0320000
        k(   19) = (  -0.2018883   0.2018883   0.0000000), wk =   0.0160000
        k(   20) = (  -0.2018883   0.2018883  -0.3045650), wk =   0.0320000
        k(   21) = (  -0.2018883   0.2018883  -0.6091300), wk =   0.0320000
        k(   22) = (  -0.2018877   0.4037771   0.0000000), wk =   0.0320000
        k(   23) = (  -0.2018877   0.4037771  -0.3045650), wk =   0.0640000
        k(   24) = (  -0.2018877   0.4037771  -0.6091300), wk =   0.0640000
        k(   25) = (  -0.4037765   0.4037765   0.0000000), wk =   0.0160000
        k(   26) = (  -0.4037765   0.4037765  -0.3045650), wk =   0.0320000
        k(   27) = (  -0.4037765   0.4037765  -0.6091300), wk =   0.0320000
        k(   28) = (   0.0000000   0.0000000   0.0000000), wk =   0.0080000
        k(   29) = (   0.0000000   0.0000000   0.3045650), wk =   0.0160000
        k(   30) = (   0.0000000   0.0000000   0.6091300), wk =   0.0160000
        k(   31) = (   0.0000005   0.2018888   0.0000000), wk =   0.0320000
        k(   32) = (   0.0000005   0.2018888   0.3045650), wk =   0.0640000
        k(   33) = (   0.0000005   0.2018888   0.6091300), wk =   0.0640000
        k(   34) = (   0.0000011   0.4037776   0.0000000), wk =   0.0320000
        k(   35) = (   0.0000011   0.4037776   0.3045650), wk =   0.0640000
        k(   36) = (   0.0000011   0.4037776   0.6091300), wk =   0.0640000
        k(   37) = (   0.2018894   0.2018894   0.0000000), wk =   0.0160000
        k(   38) = (   0.2018894   0.2018894   0.3045650), wk =   0.0320000
        k(   39) = (   0.2018894   0.2018894   0.6091300), wk =   0.0320000
        k(   40) = (   0.2018899   0.4037782   0.0000000), wk =   0.0320000
        k(   41) = (   0.2018899   0.4037782   0.3045650), wk =   0.0640000
        k(   42) = (   0.2018899   0.4037782   0.6091300), wk =   0.0640000
        k(   43) = (   0.4037787   0.4037787   0.0000000), wk =   0.0160000
        k(   44) = (   0.4037787   0.4037787   0.3045650), wk =   0.0320000
        k(   45) = (   0.4037787   0.4037787   0.6091300), wk =   0.0320000
        k(   46) = (  -0.2018883   0.2018883   0.0000000), wk =   0.0160000
        k(   47) = (  -0.2018883   0.2018883  -0.3045650), wk =   0.0320000
        k(   48) = (  -0.2018883   0.2018883  -0.6091300), wk =   0.0320000
        k(   49) = (  -0.2018877   0.4037771   0.0000000), wk =   0.0320000
        k(   50) = (  -0.2018877   0.4037771  -0.3045650), wk =   0.0640000
        k(   51) = (  -0.2018877   0.4037771  -0.6091300), wk =   0.0640000
        k(   52) = (  -0.4037765   0.4037765   0.0000000), wk =   0.0160000
        k(   53) = (  -0.4037765   0.4037765  -0.3045650), wk =   0.0320000
        k(   54) = (  -0.4037765   0.4037765  -0.6091300), wk =   0.0320000

     Check: negative/imaginary core charge=   -0.000005    0.000000
     Check: negative starting charge=(component1):   -0.162203

[...]

     Threshold (ethr) on eigenvalues was too large:
     Diagonalizing with lowered threshold

     Davidson diagonalization with overlap
     ethr =  3.58E-09,  avg # of iterations =  1.8

[...]

     Total force =     0.000024     Total SCF correction =     0.000005
     SCF correction compared to forces is large: reduce conv_thr to get better values

[...]

     Volume is kept fixed: isostatic pressure set to zero

     bfgs converged in   7 scf cycles and   6 bfgs steps
     (criteria: energy < 0.10E-03, force < 0.10E-02, cell < 0.50E+00)

     End of BFGS Geometry Optimization

     Final enthalpy =    -469.7618830062 Ry
Begin final coordinates
     new unit-cell volume =    502.07609 a.u.^3 (    74.40000 Ang^3 )

CELL_PARAMETERS (alat=  9.20155768)
   0.990644316  -0.000002679   0.000000000
  -0.000002679   0.990644316   0.000000000
   0.000000000   0.000000000   0.656674240

ATOMIC_POSITIONS (crystal)
Rh0      0.000000000   0.000000000   0.000000000    0   0   0
Rh0      0.500000000   0.500000000   0.500000000    0   0   0
O1       0.309935317   0.309935317   0.000000000    1   1   0
O1      -0.309935317  -0.309935317   0.000000000    1   1   0
O1       0.809935424   0.190064576   0.500000000    1   1   0
O1       0.190064576   0.809935424   0.500000000    1   1   0
End final coordinates

     A final scf calculation at the relaxed structure.
     The G-vectors are recalculated for the final unit cell
     Results may differ from those at the preceding step.

     bravais-lattice index     =            0
     lattice parameter (alat)  =       9.2016  a.u.
     unit-cell volume          =     502.0761 (a.u.)^3
     number of atoms/cell      =            6
     number of atomic types    =            2
     number of electrons       =        54.00
     number of Kohn-Sham states=           81
     kinetic-energy cutoff     =      40.0000  Ry
     charge density cutoff     =     500.0000  Ry
     convergence threshold     =      1.0E-08
     mixing beta               =       0.7000
     number of iterations used =            8  plain     mixing
     Exchange-correlation      = SLA  PW   PBE  PBE ( 1 4 3 4 0)
     EXX-fraction              =        0.00

     celldm(1)=   9.201558  celldm(2)=   0.000000  celldm(3)=   0.000000
     celldm(4)=   0.000000  celldm(5)=   0.000000  celldm(6)=   0.000000

     crystal axes: (cart. coord. in units of alat)
               a(1) = (   0.990644  -0.000003   0.000000 )
               a(2) = (  -0.000003   0.990644   0.000000 )
               a(3) = (   0.000000   0.000000   0.656674 )

     reciprocal axes: (cart. coord. in units 2 pi/alat)
               b(1) = (  1.009444  0.000003 -0.000000 )
               b(2) = (  0.000003  1.009444 -0.000000 )
               b(3) = ( -0.000000 -0.000000  1.522825 )

     PseudoPot. # 1 for Rh read from file:
     /home/camp/zhonxu/pseudo/rh_pbe_v1.uspp.F.UPF
     MD5 check sum: 37b626987ad0dd8ec6bf4cc9ef289918
     Pseudo is Ultrasoft + core correction, Zval = 15.0
     Generated by new atomic code, or converted to UPF format
     Using radial grid of  969 points,  7 beta functions with:
                l(1) =   0
                l(2) =   0
                l(3) =   1
                l(4) =   1
                l(5) =   2
                l(6) =   2
                l(7) =   2
     Q(r) pseudized with  6 coefficients,  rinner =    1.050   1.050   1.050
                                                       1.050   1.050

     PseudoPot. # 2 for O  read from file:
     /home/camp/zhonxu/pseudo/o_pbe_v1.01.uspp.F.UPF
     MD5 check sum: 2bcb18d16ea4b960afae9ec6d52f22d2
     Pseudo is Ultrasoft + core correction, Zval =  6.0
     Generated by new atomic code, or converted to UPF format
     Using radial grid of  737 points,  5 beta functions with:
                l(1) =   0
                l(2) =   0
                l(3) =   1
                l(4) =   1
                l(5) =   2
     Q(r) pseudized with  8 coefficients,  rinner =    0.900   0.900   0.900
                                                       0.900   0.900

     atomic species   valence    mass     pseudopotential
        Rh0           15.00   102.90550     Rh( 1.00)
        O1             6.00    15.99940     O ( 1.00)

     Starting magnetic structure
     atomic species   magnetization
        Rh0          0.600
        O1           0.000

      8 Sym. Ops., with inversion, found
          (note:  8 additional sym.ops. were found but ignored
           their fractional translations are incommensurate with FFT grid)

   Cartesian axes

     site n.     atom                  positions (alat units)
         1           Rh0 tau(   1) = (   0.0000000   0.0000000   0.0000000  )
         2           Rh0 tau(   2) = (   0.4953208   0.4953208   0.3283371  )
         3           O1  tau(   3) = (   0.3070348   0.3070348   0.0000000  )
         4           O1  tau(   4) = (  -0.3070348  -0.3070348   0.0000000  )
         5           O1  tau(   5) = (   0.8023574   0.1882842   0.3283371  )
         6           O1  tau(   6) = (   0.1882842   0.8023574   0.3283371  )

     number of k points=    54  Methfessel-Paxton smearing, width (Ry)=  0.0100
                       cart. coord. in units 2pi/alat
        k(    1) = (   0.0000000   0.0000000   0.0000000), wk =   0.0080000
        k(    2) = (   0.0000000   0.0000000   0.3045650), wk =   0.0160000
        k(    3) = (   0.0000000   0.0000000   0.6091300), wk =   0.0160000
        k(    4) = (   0.0000005   0.2018888   0.0000000), wk =   0.0320000
        k(    5) = (   0.0000005   0.2018888   0.3045650), wk =   0.0640000
        k(    6) = (   0.0000005   0.2018888   0.6091300), wk =   0.0640000
        k(    7) = (   0.0000011   0.4037776   0.0000000), wk =   0.0320000
        k(    8) = (   0.0000011   0.4037776   0.3045650), wk =   0.0640000
        k(    9) = (   0.0000011   0.4037776   0.6091300), wk =   0.0640000
        k(   10) = (   0.2018894   0.2018894   0.0000000), wk =   0.0160000
        k(   11) = (   0.2018894   0.2018894   0.3045650), wk =   0.0320000
        k(   12) = (   0.2018894   0.2018894   0.6091300), wk =   0.0320000
        k(   13) = (   0.2018899   0.4037782   0.0000000), wk =   0.0320000
        k(   14) = (   0.2018899   0.4037782   0.3045650), wk =   0.0640000
        k(   15) = (   0.2018899   0.4037782   0.6091300), wk =   0.0640000
        k(   16) = (   0.4037787   0.4037787   0.0000000), wk =   0.0160000
        k(   17) = (   0.4037787   0.4037787   0.3045650), wk =   0.0320000
        k(   18) = (   0.4037787   0.4037787   0.6091300), wk =   0.0320000
        k(   19) = (  -0.2018883   0.2018883   0.0000000), wk =   0.0160000
        k(   20) = (  -0.2018883   0.2018883  -0.3045650), wk =   0.0320000
        k(   21) = (  -0.2018883   0.2018883  -0.6091300), wk =   0.0320000
        k(   22) = (  -0.2018877   0.4037771   0.0000000), wk =   0.0320000
        k(   23) = (  -0.2018877   0.4037771  -0.3045650), wk =   0.0640000
        k(   24) = (  -0.2018877   0.4037771  -0.6091300), wk =   0.0640000
        k(   25) = (  -0.4037765   0.4037765   0.0000000), wk =   0.0160000
        k(   26) = (  -0.4037765   0.4037765  -0.3045650), wk =   0.0320000
        k(   27) = (  -0.4037765   0.4037765  -0.6091300), wk =   0.0320000
        k(   28) = (   0.0000000   0.0000000   0.0000000), wk =   0.0080000
        k(   29) = (   0.0000000   0.0000000   0.3045650), wk =   0.0160000
        k(   30) = (   0.0000000   0.0000000   0.6091300), wk =   0.0160000
        k(   31) = (   0.0000005   0.2018888   0.0000000), wk =   0.0320000
        k(   32) = (   0.0000005   0.2018888   0.3045650), wk =   0.0640000
        k(   33) = (   0.0000005   0.2018888   0.6091300), wk =   0.0640000
        k(   34) = (   0.0000011   0.4037776   0.0000000), wk =   0.0320000
        k(   35) = (   0.0000011   0.4037776   0.3045650), wk =   0.0640000
        k(   36) = (   0.0000011   0.4037776   0.6091300), wk =   0.0640000
        k(   37) = (   0.2018894   0.2018894   0.0000000), wk =   0.0160000
        k(   38) = (   0.2018894   0.2018894   0.3045650), wk =   0.0320000
        k(   39) = (   0.2018894   0.2018894   0.6091300), wk =   0.0320000
        k(   40) = (   0.2018899   0.4037782   0.0000000), wk =   0.0320000
        k(   41) = (   0.2018899   0.4037782   0.3045650), wk =   0.0640000
        k(   42) = (   0.2018899   0.4037782   0.6091300), wk =   0.0640000
        k(   43) = (   0.4037787   0.4037787   0.0000000), wk =   0.0160000
        k(   44) = (   0.4037787   0.4037787   0.3045650), wk =   0.0320000
        k(   45) = (   0.4037787   0.4037787   0.6091300), wk =   0.0320000
        k(   46) = (  -0.2018883   0.2018883   0.0000000), wk =   0.0160000
        k(   47) = (  -0.2018883   0.2018883  -0.3045650), wk =   0.0320000
        k(   48) = (  -0.2018883   0.2018883  -0.6091300), wk =   0.0320000
        k(   49) = (  -0.2018877   0.4037771   0.0000000), wk =   0.0320000
        k(   50) = (  -0.2018877   0.4037771  -0.3045650), wk =   0.0640000
        k(   51) = (  -0.2018877   0.4037771  -0.6091300), wk =   0.0640000
        k(   52) = (  -0.4037765   0.4037765   0.0000000), wk =   0.0160000
        k(   53) = (  -0.4037765   0.4037765  -0.3045650), wk =   0.0320000
        k(   54) = (  -0.4037765   0.4037765  -0.6091300), wk =   0.0320000

     Largest allocated arrays     est. size (Mb)     dimensions
     Largest temporary arrays     est. size (Mb)     dimensions

     Check: negative/imaginary core charge=   -0.000005    0.000000

     Initial potential from superposition of free atoms
     Check: negative starting charge=(component1):   -0.129914
     Check: negative starting charge=(component2):   -0.032289

     starting charge   52.99980, renormalised to   54.00000

     negative rho (up, down):  0.132E+00 0.329E-01
     Starting wfc are   40 randomized atomic wfcs

     Self-consistent Calculation

[...]

     total energy              =    -469.76192990 Ry
     Harris-Foulkes estimate   =    -469.76193275 Ry
     estimated scf accuracy    <       0.00000004 Ry

[...]

     iteration # 27     ecut=    40.00 Ry     beta=0.70
     Davidson diagonalization with overlap
     ethr =  7.13E-11,  avg # of iterations =  3.0

     negative rho (up, down):  0.860E-01 0.860E-01

     End of self-consistent calculation

 ------ SPIN UP ------------

[...]

 ------ SPIN DOWN ----------

[...]

          k = 0.4038 0.4038 0.6091 (  2136 PWs)   bands (ev):

[...]

          k =-0.4038 0.4038-0.6091 (  2136 PWs)   bands (ev):

   -38.4736 -38.4700 -38.4700 -38.4664 -38.3145 -38.3144  -8.9050  -8.8639
    -8.7834  -8.7639   3.0293   3.1060   3.3394   3.3413   3.7059   3.9762
     4.7410   4.8868   5.8673   5.9933   6.4934   6.7973   7.5292   7.5876
     7.7848   8.2142   8.6013   8.8955   9.9076  10.6522  10.7292  11.4397
    18.8313  19.4156  19.7531  20.0030  21.2232  21.4558  22.1634  22.6071
    25.4097  25.4105  26.8780  27.3485  28.5174  29.9753  30.1944  30.4004
    30.6945  31.6305  34.4501  34.4973  34.9675  35.5980  37.0416  37.3550
    37.3958  37.6527  38.1552  38.8679  39.3894  39.9065  40.2656  40.7967
    41.1355  41.4456  41.9385  43.0477  43.1380  44.2821  44.4926  45.2682
    45.5261  45.6158  46.0582  46.9435  46.9842  47.5358  48.8250  49.3841
    49.9284

     the Fermi energy is     8.9123 ev

!    total energy              =    -469.76193310 Ry
     Harris-Foulkes estimate   =    -469.76193309 Ry
     estimated scf accuracy    <          5.2E-09 Ry

     The total energy is the sum of the following terms:

     one-electron contribution =    -165.68171234 Ry
     hartree contribution      =     114.26114276 Ry
     xc contribution           =     -86.50043399 Ry
     ewald contribution        =    -331.84088611 Ry
     smearing contrib. (-TS)   =      -0.00004341 Ry

     total magnetization       =     0.01 Bohr mag/cell
     absolute magnetization    =     0.01 Bohr mag/cell

     convergence has been achieved in  27 iterations

     Forces acting on atoms (Ry/au):

     negative rho (up, down):  0.860E-01 0.860E-01
     atom    1 type  1   force =     0.00000000    0.00000000    0.00000000
     atom    2 type  1   force =     0.00000000    0.00000000    0.00000000
     atom    3 type  2   force =     0.00001538    0.00001538    0.00000000
     atom    4 type  2   force =    -0.00001538   -0.00001538    0.00000000
     atom    5 type  2   force =     0.00001133   -0.00001133    0.00000000
     atom    6 type  2   force =    -0.00001133    0.00001133    0.00000000

     Total force =     0.000038     Total SCF correction =     0.000037
     SCF correction compared to forces is large: reduce conv_thr to get better values

     entering subroutine stress ...

     negative rho (up, down):  0.860E-01 0.860E-01
          total   stress  (Ry/bohr**3)                   (kbar)     P= -263.11
  -0.00179518   0.00000001   0.00000000       -264.08      0.00      0.00
   0.00000001  -0.00179518   0.00000000          0.00   -264.08      0.00
   0.00000000   0.00000000  -0.00177550          0.00      0.00   -261.19

     General routines

     Parallel routines

   This run was terminated on:  20:37:25  23Jan2014

   JOB DONE.
Running PBS batch system epilogue script
Job id: 251210.audhumbla.fysik.dtu.dk
Username: zhonxu
Groupname: campgst
Jobname: RhO2/coarse-EOS/RhO2-v-1.2
Sessionid: 1839
Queuename: verylong
Accounting:
This job has allocated the following 4 nodes:
q099 q099 q099 q099
Finished epilogue job 251210.audhumbla.fysik.dtu.dk for zhonxu