     Program PWSCF v.5.0.2 (svn rev. 9656) starts on  6May2014 at 15:52:32

     Current dimensions of program PWSCF are:
     Max number of different atomic species (ntypx) = 10
     Max number of k-points (npk) =  40000
     Max angular momentum in pseudopotentials (lmaxx) =  3
     Reading input from pwscf.in
Warning: card &CELL ignored
Warning: card / ignored

     Subspace diagonalization in iterative solution of the eigenvalue problem:
     a serial algorithm will be used

     Found symmetry operation: I + ( -0.5000  0.0000  0.0000)
     This is a supercell, fractional translations are disabled

     bravais-lattice index     =            0
     lattice parameter (alat)  =      11.2250  a.u.
     unit-cell volume          =    7005.5484 (a.u.)^3
     number of atoms/cell      =           30
     number of atomic types    =            3
     number of electrons       =       208.00
     number of Kohn-Sham states=          300
     kinetic-energy cutoff     =      40.0000  Ry
     charge density cutoff     =     500.0000  Ry
     convergence threshold     =      1.0E-06
     mixing beta               =       0.7000
     number of iterations used =            8  plain     mixing
     Exchange-correlation      = SLA  PW   PBE  PBE ( 1 4 3 4 0)
     EXX-fraction              =        0.00
     nstep                     =           50

     celldm(1)=  11.224973  celldm(2)=   0.000000  celldm(3)=   0.000000
     celldm(4)=   0.000000  celldm(5)=   0.000000  celldm(6)=   0.000000

     crystal axes: (cart. coord. in units of alat)
               a(1) = (   1.000000   0.000000   0.000000 )
               a(2) = (   0.000000   1.107086   0.000000 )
               a(3) = (   0.000000   0.000000   4.474090 )

     reciprocal axes: (cart. coord. in units 2 pi/alat)
               b(1) = (  1.000000  0.000000  0.000000 )
               b(2) = (  0.000000  0.903272  0.000000 )
               b(3) = (  0.000000  0.000000  0.223509 )

     PseudoPot. # 1 for O  read from file:
     /home/camp/zhonxu/pseudo/o_pbe_v1.01.uspp.F.UPF
     MD5 check sum: 2bcb18d16ea4b960afae9ec6d52f22d2
     Pseudo is Ultrasoft + core correction, Zval =  6.0
     Generated by new atomic code, or converted to UPF format
     Using radial grid of  737 points,  5 beta functions with:
                l(1) =   0
                l(2) =   0
                l(3) =   1
                l(4) =   1
                l(5) =   2
     Q(r) pseudized with  8 coefficients,  rinner =    0.900   0.900   0.900
                                                       0.900   0.900

     PseudoPot. # 2 for Ti read from file:
     /home/camp/zhonxu/pseudo/ti_pbe_v1.uspp.F.UPF
     MD5 check sum: bcc8f6961b3b91f0cac3ca967d22d0fb
     Pseudo is Ultrasoft + core correction, Zval = 12.0
     Generated by new atomic code, or converted to UPF format
     Using radial grid of  851 points,  6 beta functions with:
                l(1) =   0
                l(2) =   0
                l(3) =   1
                l(4) =   1
                l(5) =   2
                l(6) =   2
     Q(r) pseudized with  6 coefficients,  rinner =    1.000   1.000   1.000
                                                       1.000   1.000

     PseudoPot. # 3 for H  read from file:
     /home/camp/zhonxu/pseudo/h_pbe_v1.uspp.F.UPF
     MD5 check sum: 3408e3ff4ec8b0a4e358431e7e038a48
     Pseudo is Ultrasoft, Zval =  1.0
     Generated by new atomic code, or converted to UPF format
     Using radial grid of  615 points,  2 beta functions with:
                l(1) =   0
                l(2) =   0
     Q(r) pseudized with  8 coefficients,  rinner =    0.700

     atomic species   valence    mass     pseudopotential
        O0             6.00    15.99940     O ( 1.00)
        Ti1           12.00    47.88000     Ti( 1.00)
        H2             1.00     1.00794     H ( 1.00)

     Simplified LDA+U calculation (l_max = 2) with parameters (eV):
     atomic species    L          U    alpha       J0     beta
        Ti1            2     7.5000   0.0000   0.0000   0.0000

     No symmetry found

   Cartesian axes

     site n.     atom                  positions (alat units)
         1           O0  tau(   1) = (   0.0000000   0.0000000   1.6989461  )
         2           O0  tau(   2) = (   0.0000000   0.5535432   1.7901728  )
         3           Ti1 tau(   3) = (   0.2500000   0.5535432   2.0162933  )
         4           Ti1 tau(   4) = (   0.0000000   0.0000000   2.0248388  )
         5           O0  tau(   5) = (   0.2500000   0.8967400   2.0178145  )
         6           O0  tau(   6) = (   0.2500000   0.2103464   2.0226912  )
         7           O0  tau(   7) = (   0.0000000   0.5535432   2.2326603  )
         8           O0  tau(   8) = (   0.0000000   0.0000000   2.3559662  )
         9           Ti1 tau(   9) = (   0.2500000   0.0000000   2.5995804  )
        10           Ti1 tau(  10) = (   0.0000000   0.5535432   2.5483968  )
        11           O0  tau(  11) = (   0.2500000   0.7638896   2.5964932  )
        12           O0  tau(  12) = (   0.2500000   0.3431968   2.5965380  )
        13           O0  tau(  13) = (   0.0000000   0.0000000   2.7842708  )
        14           O0  tau(  14) = (   0.5000000   0.0000000   1.6989461  )
        15           O0  tau(  15) = (   0.5000000   0.5535432   1.7901728  )
        16           Ti1 tau(  16) = (   0.7500000   0.5535432   2.0162933  )
        17           Ti1 tau(  17) = (   0.5000000   0.0000000   2.0248388  )
        18           O0  tau(  18) = (   0.7500000   0.8967400   2.0178145  )
        19           O0  tau(  19) = (   0.7500000   0.2103464   2.0226912  )
        20           O0  tau(  20) = (   0.5000000   0.5535432   2.2326603  )
        21           O0  tau(  21) = (   0.5000000   0.0000000   2.3559662  )
        22           Ti1 tau(  22) = (   0.7500000   0.0000000   2.5995804  )
        23           Ti1 tau(  23) = (   0.5000000   0.5535432   2.5483968  )
        24           O0  tau(  24) = (   0.7500000   0.7638896   2.5964932  )
        25           O0  tau(  25) = (   0.7500000   0.3431968   2.5965380  )
        26           O0  tau(  26) = (   0.5000000   0.0000000   2.7842708  )
        27           H2  tau(  27) = (  -0.0005400   0.6991915   1.7063283  )
        28           H2  tau(  28) = (   0.4994600   0.6991915   1.7063283  )
        29           H2  tau(  29) = (   0.1501800   0.0252084   1.6321479  )
        30           H2  tau(  30) = (   0.6501800   0.0252084   1.6321479  )

     number of k points=    10  Methfessel-Paxton smearing, width (Ry)=  0.0100
                       cart. coord. in units 2pi/alat
        k(    1) = (   0.0000000   0.0000000   0.0000000), wk =   0.1250000
        k(    2) = (   0.0000000   0.2258180   0.0000000), wk =   0.2500000
        k(    3) = (   0.0000000  -0.4516359   0.0000000), wk =   0.1250000
        k(    4) = (   0.2500000   0.0000000   0.0000000), wk =   0.2500000
        k(    5) = (   0.2500000   0.2258180   0.0000000), wk =   0.2500000
        k(    6) = (   0.2500000  -0.4516359   0.0000000), wk =   0.2500000
        k(    7) = (  -0.5000000   0.0000000   0.0000000), wk =   0.1250000
        k(    8) = (  -0.5000000   0.2258180   0.0000000), wk =   0.2500000
        k(    9) = (  -0.5000000  -0.4516359   0.0000000), wk =   0.1250000
        k(   10) = (  -0.2500000   0.2258180   0.0000000), wk =   0.2500000

     Largest allocated arrays     est. size (Mb)     dimensions
     Largest temporary arrays     est. size (Mb)     dimensions

     Check: negative/imaginary core charge=   -0.000005    0.000000

     Initial potential from superposition of free atoms
     Check: negative starting charge=   -0.102816

     starting charge  199.99958, renormalised to  208.00000

     negative rho (up, down):  0.107E+00 0.000E+00
     Number of +U iterations with fixed ns =  0
     Starting occupations:
 --- enter write_ns ---
 LDA+U parameters:
U( 2)     =  7.50000000
alpha( 2) =  0.00000000
atom    3   Tr[ns(na)] =   2.00000
    eigenvalues:
  0.200  0.200  0.200  0.200  0.200
    eigenvectors:
  1.000  0.000  0.000  0.000  0.000
  0.000  1.000  0.000  0.000  0.000
  0.000  0.000  1.000  0.000  0.000
  0.000  0.000  0.000  1.000  0.000
  0.000  0.000  0.000  0.000  1.000
    occupations:
  0.200  0.000  0.000  0.000  0.000
  0.000  0.200  0.000  0.000  0.000
  0.000  0.000  0.200  0.000  0.000
  0.000  0.000  0.000  0.200  0.000
  0.000  0.000  0.000  0.000  0.200
atom    4   Tr[ns(na)] =   2.00000
    eigenvalues:
  0.200  0.200  0.200  0.200  0.200
    eigenvectors:
  1.000  0.000  0.000  0.000  0.000
  0.000  1.000  0.000  0.000  0.000
  0.000  0.000  1.000  0.000  0.000
  0.000  0.000  0.000  1.000  0.000
  0.000  0.000  0.000  0.000  1.000
    occupations:
  0.200  0.000  0.000  0.000  0.000
  0.000  0.200  0.000  0.000  0.000
  0.000  0.000  0.200  0.000  0.000
  0.000  0.000  0.000  0.200  0.000
  0.000  0.000  0.000  0.000  0.200
atom    9   Tr[ns(na)] =   2.00000
    eigenvalues:
  0.200  0.200  0.200  0.200  0.200
    eigenvectors:
  1.000  0.000  0.000  0.000  0.000
  0.000  1.000  0.000  0.000  0.000
  0.000  0.000  1.000  0.000  0.000
  0.000  0.000  0.000  1.000  0.000
  0.000  0.000  0.000  0.000  1.000
    occupations:
  0.200  0.000  0.000  0.000  0.000
  0.000  0.200  0.000  0.000  0.000
  0.000  0.000  0.200  0.000  0.000
  0.000  0.000  0.000  0.200  0.000
  0.000  0.000  0.000  0.000  0.200
atom   10   Tr[ns(na)] =   2.00000
    eigenvalues:
  0.200  0.200  0.200  0.200  0.200
    eigenvectors:
  1.000  0.000  0.000  0.000  0.000
  0.000  1.000  0.000  0.000  0.000
  0.000  0.000  1.000  0.000  0.000
  0.000  0.000  0.000  1.000  0.000
  0.000  0.000  0.000  0.000  1.000
    occupations:
  0.200  0.000  0.000  0.000  0.000
  0.000  0.200  0.000  0.000  0.000
  0.000  0.000  0.200  0.000  0.000
  0.000  0.000  0.000  0.200  0.000
  0.000  0.000  0.000  0.000  0.200
atom   16   Tr[ns(na)] =   2.00000
    eigenvalues:
  0.200  0.200  0.200  0.200  0.200
    eigenvectors:
  1.000  0.000  0.000  0.000  0.000
  0.000  1.000  0.000  0.000  0.000
  0.000  0.000  1.000  0.000  0.000
  0.000  0.000  0.000  1.000  0.000
  0.000  0.000  0.000  0.000  1.000
    occupations:
  0.200  0.000  0.000  0.000  0.000
  0.000  0.200  0.000  0.000  0.000
  0.000  0.000  0.200  0.000  0.000
  0.000  0.000  0.000  0.200  0.000
  0.000  0.000  0.000  0.000  0.200
atom   17   Tr[ns(na)] =   2.00000
    eigenvalues:
  0.200  0.200  0.200  0.200  0.200
    eigenvectors:
  1.000  0.000  0.000  0.000  0.000
  0.000  1.000  0.000  0.000  0.000
  0.000  0.000  1.000  0.000  0.000
  0.000  0.000  0.000  1.000  0.000
  0.000  0.000  0.000  0.000  1.000
    occupations:
  0.200  0.000  0.000  0.000  0.000
  0.000  0.200  0.000  0.000  0.000
  0.000  0.000  0.200  0.000  0.000
  0.000  0.000  0.000  0.200  0.000
  0.000  0.000  0.000  0.000  0.200
atom   22   Tr[ns(na)] =   2.00000
    eigenvalues:
  0.200  0.200  0.200  0.200  0.200
    eigenvectors:
  1.000  0.000  0.000  0.000  0.000
  0.000  1.000  0.000  0.000  0.000
  0.000  0.000  1.000  0.000  0.000
  0.000  0.000  0.000  1.000  0.000
  0.000  0.000  0.000  0.000  1.000
    occupations:
[...]
  0.133 -0.000  0.008  0.374 -0.000
 -0.000  0.014  0.000 -0.000  0.126
atom    4   Tr[ns(na)] =   2.63070
    eigenvalues:
  0.116  0.141  0.159  0.435  0.465
    eigenvectors:
  0.007  0.003  0.000  0.000  0.990
  0.003  0.907  0.087  0.000  0.003
  0.001  0.086  0.912  0.000  0.000
  0.989  0.004  0.000  0.000  0.006
  0.000  0.000  0.000  1.000  0.000
    occupations:
  0.461  0.018  0.004 -0.028 -0.000
  0.018  0.144 -0.005 -0.000 -0.003
  0.004 -0.005  0.157  0.001 -0.000
 -0.028 -0.000  0.001  0.118 -0.000
 -0.000 -0.003 -0.000 -0.000  0.435
atom    9   Tr[ns(na)] =   2.63283
    eigenvalues:
  0.122  0.163  0.171  0.379  0.481
    eigenvectors:
  0.000  0.000  0.903  0.097  0.000
  0.000  0.000  0.000  0.000  1.000
  1.000  0.000  0.000  0.000  0.000
  0.000  0.000  0.097  0.903  0.000
  0.000  1.000  0.000  0.000  0.000
    occupations:
  0.191  0.000  0.000  0.062 -0.000
  0.000  0.481 -0.000  0.000 -0.000
  0.000 -0.000  0.122  0.000 -0.000
  0.062  0.000  0.000  0.359 -0.000
 -0.000 -0.000 -0.000 -0.000  0.163
atom   10   Tr[ns(na)] =   2.52864
    eigenvalues:
  0.126  0.155  0.175  0.315  0.493
    eigenvectors:
  0.027  0.000  0.000  0.973  0.000
  0.000  0.000  1.000  0.000  0.000
  0.000  1.000  0.000  0.000  0.000
  0.973  0.000  0.000  0.027  0.000
  0.000  0.000  0.000  0.000  1.000
    occupations:
  0.310 -0.000 -0.000 -0.031 -0.000
 -0.000  0.175 -0.000 -0.000  0.000
 -0.000 -0.000  0.155 -0.000  0.000
 -0.031 -0.000 -0.000  0.131 -0.000
 -0.000  0.000  0.000 -0.000  0.493
atom   16   Tr[ns(na)] =   2.50168
    eigenvalues:
  0.108  0.125  0.144  0.432  0.441
    eigenvectors:
  0.766  0.000  0.033  0.000  0.201
  0.000  0.002  0.000  0.998  0.000
  0.037  0.000  0.962  0.000  0.000
  0.197  0.000  0.005  0.000  0.798
  0.000  0.998  0.000  0.002  0.000
    occupations:
  0.176 -0.000 -0.004  0.133 -0.000
 -0.000  0.431  0.000 -0.000  0.014
 -0.004  0.000  0.143  0.008  0.000
  0.133 -0.000  0.008  0.374 -0.000
 -0.000  0.014  0.000 -0.000  0.126
atom   17   Tr[ns(na)] =   2.63070
    eigenvalues:
  0.116  0.141  0.159  0.435  0.465
    eigenvectors:
  0.007  0.003  0.000  0.000  0.990
  0.003  0.907  0.087  0.000  0.003
  0.001  0.086  0.912  0.000  0.000
  0.989  0.004  0.000  0.000  0.006
  0.000  0.000  0.000  1.000  0.000
    occupations:
  0.461  0.018  0.004 -0.028 -0.000
  0.018  0.144 -0.005 -0.000 -0.003
  0.004 -0.005  0.157  0.001 -0.000
 -0.028 -0.000  0.001  0.118 -0.000
 -0.000 -0.003 -0.000 -0.000  0.435
atom   22   Tr[ns(na)] =   2.63283
    eigenvalues:
  0.122  0.163  0.171  0.379  0.481
    eigenvectors:
  0.000  0.000  0.903  0.097  0.000
  0.000  0.000  0.000  0.000  1.000
  1.000  0.000  0.000  0.000  0.000
  0.000  0.000  0.097  0.903  0.000
  0.000  1.000  0.000  0.000  0.000
    occupations:
  0.191  0.000  0.000  0.062 -0.000
  0.000  0.481 -0.000  0.000 -0.000
  0.000 -0.000  0.122  0.000 -0.000
  0.062  0.000  0.000  0.359 -0.000
 -0.000 -0.000 -0.000 -0.000  0.163
atom   23   Tr[ns(na)] =   2.52864
    eigenvalues:
  0.126  0.155  0.175  0.315  0.493
    eigenvectors:
  0.027  0.000  0.000  0.973  0.000
  0.000  0.000  1.000  0.000  0.000
  0.000  1.000  0.000  0.000  0.000
  0.973  0.000  0.000  0.027  0.000
  0.000  0.000  0.000  0.000  1.000
    occupations:
  0.310 -0.000 -0.000 -0.031 -0.000
 -0.000  0.175 -0.000 -0.000  0.000
 -0.000 -0.000  0.155 -0.000  0.000
 -0.031 -0.000 -0.000  0.131 -0.000
 -0.000  0.000  0.000 -0.000  0.493
N of occupied +U levels =  20.5877089
 --- exit write_ns ---

     Threshold (ethr) on eigenvalues was too large:
     Diagonalizing with lowered threshold

     Davidson diagonalization with overlap
     ethr =  6.06E-09,  avg # of iterations =  2.5

[...]

     total energy              =   -1530.88317754 Ry
     Harris-Foulkes estimate   =   -1530.88317755 Ry
     estimated scf accuracy    <       0.00000001 Ry

     iteration #  8     ecut=    40.00 Ry     beta=0.70
     Davidson diagonalization with overlap
     ethr =  6.22E-12,  avg # of iterations =  1.0

     negative rho (up, down):  0.109E+00 0.000E+00

     End of self-consistent calculation
 --- enter write_ns ---
 LDA+U parameters:
U( 2)     =  7.50000000
alpha( 2) =  0.00000000
atom    3   Tr[ns(na)] =   2.50256
    eigenvalues:
  0.108  0.125  0.145  0.432  0.441
    eigenvectors:
  0.766  0.000  0.033  0.000  0.201
  0.000  0.002  0.000  0.998  0.000
  0.037  0.000  0.962  0.000  0.000
  0.197  0.000  0.005  0.000  0.798
  0.000  0.998  0.000  0.002  0.000
    occupations:
  0.176 -0.000 -0.004  0.133 -0.000
 -0.000  0.431  0.000 -0.000  0.014
 -0.004  0.000  0.143  0.008  0.000
  0.133 -0.000  0.008  0.374 -0.000
 -0.000  0.014  0.000 -0.000  0.126
atom    4   Tr[ns(na)] =   2.63052
    eigenvalues:
  0.116  0.141  0.159  0.435  0.465
    eigenvectors:
  0.007  0.003  0.000  0.000  0.990
  0.003  0.906  0.088  0.000  0.003
  0.001  0.086  0.912  0.000  0.000
  0.989  0.004  0.000  0.000  0.006
  0.000  0.000  0.000  1.000  0.000
    occupations:
  0.461  0.018  0.004 -0.028 -0.000
  0.018  0.144 -0.005 -0.000 -0.003
  0.004 -0.005  0.157  0.001 -0.000
 -0.028 -0.000  0.001  0.118 -0.000
 -0.000 -0.003 -0.000 -0.000  0.435
atom    9   Tr[ns(na)] =   2.63287
    eigenvalues:
  0.122  0.163  0.171  0.379  0.481
    eigenvectors:
  0.000  0.000  0.903  0.097  0.000
  0.000  0.000  0.000  0.000  1.000
  1.000  0.000  0.000  0.000  0.000
  0.000  0.000  0.097  0.903  0.000
  0.000  1.000  0.000  0.000  0.000
    occupations:
  0.191  0.000  0.000  0.062 -0.000
  0.000  0.481 -0.000  0.000 -0.000
  0.000 -0.000  0.122  0.000 -0.000
  0.062  0.000  0.000  0.359 -0.000
 -0.000 -0.000 -0.000 -0.000  0.163
atom   10   Tr[ns(na)] =   2.52815
    eigenvalues:
  0.126  0.155  0.175  0.315  0.493
    eigenvectors:
  0.027  0.000  0.000  0.973  0.000
  0.000  0.000  1.000  0.000  0.000
  0.000  1.000  0.000  0.000  0.000
  0.973  0.000  0.000  0.027  0.000
  0.000  0.000  0.000  0.000  1.000
    occupations:
  0.310 -0.000 -0.000 -0.031 -0.000
 -0.000  0.175 -0.000 -0.000  0.000
 -0.000 -0.000  0.155 -0.000  0.000
 -0.031 -0.000 -0.000  0.131 -0.000
 -0.000  0.000  0.000 -0.000  0.493
atom   16   Tr[ns(na)] =   2.50256
    eigenvalues:
  0.108  0.125  0.145  0.432  0.441
    eigenvectors:
  0.766  0.000  0.033  0.000  0.201
  0.000  0.002  0.000  0.998  0.000
  0.037  0.000  0.962  0.000  0.000
  0.197  0.000  0.005  0.000  0.798
  0.000  0.998  0.000  0.002  0.000
    occupations:
  0.176 -0.000 -0.004  0.133 -0.000
 -0.000  0.431  0.000 -0.000  0.014
 -0.004  0.000  0.143  0.008  0.000
  0.133 -0.000  0.008  0.374 -0.000
 -0.000  0.014  0.000 -0.000  0.126
atom   17   Tr[ns(na)] =   2.63052
    eigenvalues:
  0.116  0.141  0.159  0.435  0.465
    eigenvectors:
  0.007  0.003  0.000  0.000  0.990
  0.003  0.906  0.088  0.000  0.003
  0.001  0.086  0.912  0.000  0.000
  0.989  0.004  0.000  0.000  0.006
  0.000  0.000  0.000  1.000  0.000
    occupations:
  0.461  0.018  0.004 -0.028 -0.000
  0.018  0.144 -0.005 -0.000 -0.003
  0.004 -0.005  0.157  0.001 -0.000
 -0.028 -0.000  0.001  0.118 -0.000
 -0.000 -0.003 -0.000 -0.000  0.435
atom   22   Tr[ns(na)] =   2.63287
    eigenvalues:
  0.122  0.163  0.171  0.379  0.481
    eigenvectors:
  0.000  0.000  0.903  0.097  0.000
  0.000  0.000  0.000  0.000  1.000
  1.000  0.000  0.000  0.000  0.000
  0.000  0.000  0.097  0.903  0.000
  0.000  1.000  0.000  0.000  0.000
    occupations:
  0.191  0.000  0.000  0.062 -0.000
  0.000  0.481 -0.000  0.000 -0.000
  0.000 -0.000  0.122  0.000 -0.000
  0.062  0.000  0.000  0.359 -0.000
 -0.000 -0.000 -0.000 -0.000  0.163
atom   23   Tr[ns(na)] =   2.52815
    eigenvalues:
  0.126  0.155  0.175  0.315  0.493
    eigenvectors:
  0.027  0.000  0.000  0.973  0.000
  0.000  0.000  1.000  0.000  0.000
  0.000  1.000  0.000  0.000  0.000
  0.973  0.000  0.000  0.027  0.000
  0.000  0.000  0.000  0.000  1.000
    occupations:
  0.310 -0.000 -0.000 -0.031 -0.000
 -0.000  0.175 -0.000 -0.000  0.000
 -0.000 -0.000  0.155 -0.000  0.000
 -0.031 -0.000 -0.000  0.131 -0.000
 -0.000  0.000  0.000 -0.000  0.493
N of occupied +U levels =  20.5882047
 --- exit write_ns ---

[...]

          k = 0.2500-0.4516 0.0000 ( 29882 PWs)   bands (ev):

[...]

          k =-0.2500 0.2258 0.0000 ( 29912 PWs)   bands (ev):

   -62.4665 -62.4428 -62.1801 -62.1550 -60.7667 -60.7398 -60.2144 -60.1889
   -38.8535 -38.6487 -38.6007 -38.5865 -38.5002 -38.4847 -38.4844 -38.4646
   -38.4096 -38.2734 -38.2148 -38.1381 -37.2446 -37.0615 -36.9945 -36.9488
   -36.7624 -36.7411 -36.5603 -36.5397 -36.4490 -36.3612 -36.3005 -36.1644
   -22.2873 -22.0677 -20.9745 -20.7348 -20.4555 -20.3362 -20.1225 -19.9105
   -19.8272 -19.7898 -19.6127 -19.4888 -19.4311 -19.1985 -18.5917 -18.3180
   -17.8687 -17.8383  -9.8493  -9.6279  -8.0951  -7.9224  -7.9026  -7.8112
    -7.7901  -7.6747  -7.4650  -7.4241  -7.4228  -7.3612  -7.0925  -7.0601
    -7.0098  -6.8569  -6.7588  -6.7028  -6.5339  -6.3970  -6.0881  -5.9968
    -5.9549  -5.8050  -5.7991  -5.6532  -5.6340  -5.5221  -5.3834  -5.3370
    -5.3295  -5.1910  -5.1887  -5.1412  -5.0241  -4.9369  -4.8395  -4.7155
    -4.6572  -4.5020  -4.3789  -4.3195  -3.9282  -3.6212  -3.4577  -3.2848
    -3.2689  -3.2024  -3.0638  -2.8709  -2.8542  -2.7590  -2.7373  -2.5959
    -0.6247  -0.4446  -0.2858  -0.2698  -0.1155  -0.0657  -0.0578   0.0403
     0.1370   0.2960   0.3141   0.3796   0.5729   0.5821   0.7599   0.7697
     0.9789   1.0023   1.0359   1.1602   1.5033   1.5270   1.6676   1.7079
     1.8960   1.9415   2.0986   2.1063   2.1175   2.2816   2.3793   2.5961
     2.6024   2.6553   2.7318   2.8243   3.1854   3.1887   3.3261   3.5406
     3.5421   3.8891   4.2309   4.6276   4.9721   5.0087   5.2856   5.6744
     5.7214   5.8517   6.0263   6.1467   6.2469   6.5527   6.5637   6.8359
     6.9231   7.0806   7.2463   7.3948   7.4177   7.6085   7.6100   7.8105
     7.9132   8.0261   8.0679   8.2449   8.4444   8.4693   8.5275   8.6273
     8.7911   8.9909   9.1798   9.2355   9.3500   9.3521   9.4270   9.4741
     9.5149   9.5990   9.7824   9.9676   9.9815  10.0510  10.2576  10.3002
    10.4564  10.5517  10.5756  10.6957  10.7050  10.8841  10.8865  10.9605
    10.9904  11.1752  11.2589  11.2778  11.3163  11.4523  11.4762  11.4788
    11.6132  11.7327  11.8563  11.8941  11.9593  11.9593  12.0885  12.1944
    12.2763  12.3550  12.4643  12.5430  12.5556  12.6295  12.7285  12.7943
    12.8802  12.9454  12.9755  13.1490  13.1577  13.2375  13.2611  13.3983
    13.4316  13.4560  13.5771  13.5842  13.6565  13.7168  13.7919  13.9440
    13.9846  14.1404  14.1480  14.2137  14.2689  14.4372  14.4767  14.5064
    14.6000  14.6254  14.6721  14.8713  14.8890  14.9912  15.0622  15.1434
    15.3113  15.3262  15.4383  15.5075  15.5990  15.6224  15.6830  15.7027
    15.8414  15.8483  15.9330  15.9789  15.9848  16.1228  16.2494  16.2834
    16.4127  16.4771  16.5529  16.6482  16.6790  16.8083  16.8540  16.8552
    16.8922  17.0366  17.0816  17.1213  17.1477  17.2326  17.2957  17.3213
    17.4153  17.4975  17.5276  17.6461  17.6824  17.7659  17.7754  17.9045
    18.0375  18.0830  18.1827  18.1946

     the Fermi energy is    -1.4756 ev

!    total energy              =   -1530.88317755 Ry
     Harris-Foulkes estimate   =   -1530.88317755 Ry
     estimated scf accuracy    <          8.7E-10 Ry

     The total energy is the sum of the following terms:

     one-electron contribution =  -18136.69174617 Ry
     hartree contribution      =    9078.53179486 Ry
     xc contribution           =    -269.57327865 Ry
     ewald contribution        =    7793.10642326 Ry
     Hubbard energy            =       3.74362915 Ry
     smearing contrib. (-TS)   =       0.00000000 Ry

     convergence has been achieved in   8 iterations

     Forces acting on atoms (Ry/au):

     negative rho (up, down):  0.109E+00 0.000E+00
     atom    1 type  1   force =    -0.00476508   -0.01806744   -0.00039733
     atom    2 type  1   force =     0.00003726    0.02224496    0.00023563
     atom    3 type  2   force =     0.00007745   -0.00922941    0.00029718
     atom    4 type  2   force =     0.00324367    0.01056498    0.00013585
     atom    5 type  1   force =     0.00215223   -0.10730258    0.00049118
     atom    6 type  1   force =    -0.00101808    0.10366508    0.00046065
     atom    7 type  1   force =    -0.00003174    0.00045846    0.00048523
     atom    8 type  1   force =     0.00007902   -0.00170850   -0.00066751
     atom    9 type  2   force =     0.00006915    0.00015034    0.00026510
     atom   10 type  2   force =    -0.00001514   -0.00062871   -0.00073454
     atom   11 type  1   force =     0.00000767   -0.04104861    0.00018042
     atom   12 type  1   force =     0.00000858    0.04128370    0.00016745
     atom   13 type  1   force =    -0.00002460   -0.00008874    0.00004116
     atom   14 type  1   force =    -0.00476491   -0.01806743   -0.00039720
     atom   15 type  1   force =     0.00003726    0.02224507    0.00023564
     atom   16 type  2   force =     0.00007740   -0.00922941    0.00029717
     atom   17 type  2   force =     0.00324364    0.01056498    0.00013575
     atom   18 type  1   force =     0.00215215   -0.10730258    0.00049119
     atom   19 type  1   force =    -0.00101816    0.10366508    0.00046066
     atom   20 type  1   force =    -0.00003173    0.00045847    0.00048518
     atom   21 type  1   force =     0.00007903   -0.00170850   -0.00066803
     atom   22 type  2   force =     0.00006930    0.00015034    0.00026510
     atom   23 type  2   force =    -0.00001514   -0.00062871   -0.00073457
     atom   24 type  1   force =     0.00000770   -0.04104861    0.00018041
     atom   25 type  1   force =     0.00000862    0.04128371    0.00016744
     atom   26 type  1   force =    -0.00002460   -0.00008874    0.00004140
     atom   27 type  3   force =    -0.00000097   -0.00046957   -0.00079553
     atom   28 type  3   force =    -0.00000097   -0.00046964   -0.00079552
     atom   29 type  3   force =     0.00018058    0.00017601   -0.00016479
     atom   30 type  3   force =     0.00018042    0.00017598   -0.00016478

     Total force =     0.002478     Total SCF correction =     0.000080

     bfgs converged in  13 scf cycles and  12 bfgs steps
     (criteria: energy < 0.10E-03, force < 0.10E-02)

     End of BFGS Geometry Optimization

     Final energy   =   -1530.8831775451 Ry
Begin final coordinates

ATOMIC_POSITIONS (crystal)
O0       0.000000000   0.000000000   0.377186774    0   0   1
O0       0.000000000   0.500000000   0.397495170    0   0   1
Ti1      0.250000000   0.500000000   0.449561719    0   0   1
Ti1      0.000000000   0.000000000   0.451378331    0   0   1
O0       0.250000000   0.810000000   0.450035489    0   0   1
O0       0.250000000   0.190000000   0.451144275    0   0   1
O0       0.000000000   0.500000000   0.498688729    0   0   1
O0       0.000000000   0.000000000   0.528116988    0   0   1
Ti1      0.250000000   0.000000000   0.581961532    0   0   1
Ti1      0.000000000   0.500000000   0.572226489    0   0   1
O0       0.250000000   0.690000000   0.582301164    0   0   1
O0       0.250000000   0.310000000   0.582362900    0   0   1
O0       0.000000000   0.000000000   0.625626257    0   0   1
O0       0.500000000   0.000000000   0.377186773    0   0   1
O0       0.500000000   0.500000000   0.397495168    0   0   1
Ti1      0.750000000   0.500000000   0.449561719    0   0   1
Ti1      0.500000000   0.000000000   0.451378342    0   0   1
O0       0.750000000   0.810000000   0.450035487    0   0   1
O0       0.750000000   0.190000000   0.451144272    0   0   1
O0       0.500000000   0.500000000   0.498688734    0   0   1
O0       0.500000000   0.000000000   0.528117020    0   0   1
Ti1      0.750000000   0.000000000   0.581961531    0   0   1
Ti1      0.500000000   0.500000000   0.572226494    0   0   1
O0       0.750000000   0.690000000   0.582301165    0   0   1
O0       0.750000000   0.310000000   0.582362901    0   0   1
O0       0.500000000   0.000000000   0.625626248    0   0   1
H2      -0.000171044   0.633491931   0.379553657
H2       0.499828956   0.633491987   0.379553675
H2       0.153080043   0.023857532   0.363930488
H2       0.653080099   0.023857540   0.363930510
End final coordinates

     General routines

     Parallel routines
     Hubbard U routines

   This run was terminated on:  22: 9:27   6May2014

   JOB DONE.
Running PBS batch system epilogue script
Job id: 340823.audhumbla.fysik.dtu.dk
Username: zhonxu
Groupname: campgst
Jobname: TiO2/Eads-2-layers/bare-U-7.5
Sessionid: 6529
Queuename: verylong
Accounting:
This job has allocated the following 16 nodes:
b115 b115 b115 b115 b115 b115 b115 b115 b102 b102 b102 b102 b102 b102 b102 b102
Finished epilogue job 340823.audhumbla.fysik.dtu.dk for zhonxu