     Program PWSCF v.5.0.2 (svn rev. 9656) starts on  1Jun2014 at 23:22:49

     Current dimensions of program PWSCF are:
     Max number of different atomic species (ntypx) = 10
     Max number of k-points (npk) =  40000
     Max angular momentum in pseudopotentials (lmaxx) =  3
     Reading input from pwscf.in
Warning: card &CELL ignored
Warning: card / ignored

     Subspace diagonalization in iterative solution of the eigenvalue problem:
     a serial algorithm will be used

     bravais-lattice index     =            0
     lattice parameter (alat)  =      10.9604  a.u.
     unit-cell volume          =    6350.6732 (a.u.)^3
     number of atoms/cell      =           33
     number of atomic types    =            3
     number of electrons       =       237.00 (up: 126.00, down: 111.00)
     number of Kohn-Sham states=          343
     kinetic-energy cutoff     =      40.0000  Ry
     charge density cutoff     =     500.0000  Ry
     convergence threshold     =      1.0E-06
     mixing beta               =       0.7000
     number of iterations used =            8  plain     mixing
     Exchange-correlation      = SLA  PW   PBE  PBE ( 1 4 3 4 0)
     EXX-fraction              =        0.00
     nstep                     =           50

     celldm(1)=  10.960412  celldm(2)=   0.000000  celldm(3)=   0.000000
     celldm(4)=   0.000000  celldm(5)=   0.000000  celldm(6)=   0.000000

     crystal axes: (cart. coord. in units of alat)
               a(1) = (   1.000000   0.000000   0.000000 )
               a(2) = (   0.000000   1.067975   0.000000 )
               a(3) = (   0.000000   0.000000   4.516251 )

     reciprocal axes: (cart. coord. in units 2 pi/alat)
               b(1) = (  1.000000  0.000000  0.000000 )
               b(2) = (  0.000000  0.936351  0.000000 )
               b(3) = (  0.000000  0.000000  0.221423 )

     PseudoPot. # 1 for O  read from file:
     /home/camp/zhonxu/pseudo/o_pbe_v1.01.uspp.F.UPF
     MD5 check sum: 2bcb18d16ea4b960afae9ec6d52f22d2
     Pseudo is Ultrasoft + core correction, Zval =  6.0
     Generated by new atomic code, or converted to UPF format
     Using radial grid of  737 points,  5 beta functions with:
                l(1) =   0
                l(2) =   0
                l(3) =   1
                l(4) =   1
                l(5) =   2
     Q(r) pseudized with  8 coefficients,  rinner =    0.900   0.900   0.900
                                                       0.900   0.900

     PseudoPot. # 2 for Cr read from file:
     /home/camp/zhonxu/pseudo/cr_pbe_v1.uspp.F.UPF
     MD5 check sum: 68b6f918d1762dccfb11451fe85b0e0e
     Pseudo is Ultrasoft + core correction, Zval = 14.0
     Generated by new atomic code, or converted to UPF format
     Using radial grid of  857 points,  6 beta functions with:
                l(1) =   0
                l(2) =   0
                l(3) =   1
                l(4) =   1
                l(5) =   2
                l(6) =   2
     Q(r) pseudized with  6 coefficients,  rinner =    1.000   1.000   1.000
                                                       1.000   1.000

     PseudoPot. # 3 for H  read from file:
     /home/camp/zhonxu/pseudo/h_pbe_v1.uspp.F.UPF
     MD5 check sum: 3408e3ff4ec8b0a4e358431e7e038a48
     Pseudo is Ultrasoft, Zval =  1.0
     Generated by new atomic code, or converted to UPF format
     Using radial grid of  615 points,  2 beta functions with:
                l(1) =   0
                l(2) =   0
     Q(r) pseudized with  8 coefficients,  rinner =    0.700

     atomic species   valence    mass     pseudopotential
        O0             6.00    15.99940     O ( 1.00)
        Cr1           14.00    51.99600     Cr( 1.00)
        H2             1.00     1.00794     H ( 1.00)

     Starting magnetic structure
     atomic species   magnetization
        O0           0.000
        Cr1          0.600
        H2           0.000

     Simplified LDA+U calculation (l_max = 2) with parameters (eV):
     atomic species    L          U    alpha       J0     beta
        Cr1            2     1.5000   0.0000   0.0000   0.0000

     No symmetry found

   Cartesian axes

     site n.     atom                  positions (alat units)
         1           O0  tau(   1) = (   0.0000000   0.0000000   1.7057880  )
         2           O0  tau(   2) = (   0.0000000   0.5339875   1.8101134  )
         3           Cr1 tau(   3) = (   0.2500000   0.5339875   2.0412099  )
         4           Cr1 tau(   4) = (   0.0000000   0.0000000   2.0263515  )
         5           O0  tau(   5) = (   0.2500000   0.8543801   2.0311839  )
         6           O0  tau(   6) = (   0.2500000   0.2135950   2.0319065  )
         7           O0  tau(   7) = (   0.0000000   0.5339875   2.2504478  )
         8           O0  tau(   8) = (   0.0000000   0.0000000   2.3617283  )
         9           Cr1 tau(   9) = (   0.2500000   0.0000000   2.5571464  )
        10           Cr1 tau(  10) = (   0.0000000   0.5339875   2.5545270  )
        11           O0  tau(  11) = (   0.2500000   0.7475825   2.5883086  )
        12           O0  tau(  12) = (   0.2500000   0.3203925   2.5986508  )
        13           O0  tau(  13) = (   0.0000000   0.0000000   2.7891463  )
        14           O0  tau(  14) = (   0.5000000   0.0000000   1.7052460  )
        15           O0  tau(  15) = (   0.5000000   0.5339875   1.8091650  )
        16           Cr1 tau(  16) = (   0.7500000   0.5339875   2.0419325  )
        17           Cr1 tau(  17) = (   0.5000000   0.0000000   2.0263063  )
        18           O0  tau(  18) = (   0.7500000   0.8543801   2.0310484  )
        19           O0  tau(  19) = (   0.7500000   0.2135950   2.0321774  )
        20           O0  tau(  20) = (   0.5000000   0.5339875   2.2541963  )
        21           O0  tau(  21) = (   0.5000000   0.0000000   2.3617283  )
        22           Cr1 tau(  22) = (   0.7500000   0.0000000   2.6331549  )
        23           Cr1 tau(  23) = (   0.5000000   0.5339875   2.6097156  )
        24           O0  tau(  24) = (   0.7500000   0.7475825   2.5944507  )
        25           O0  tau(  25) = (   0.7500000   0.3203925   2.6044767  )
        26           O0  tau(  26) = (   0.5000000   0.0000000   2.7840880  )
        27           H2  tau(  27) = (  -0.0006600   0.6808768   1.7228142  )
        28           H2  tau(  28) = (   0.4998000   0.6828846   1.7250724  )
        29           H2  tau(  29) = (   0.1568300   0.0328936   1.6463090  )
        30           H2  tau(  30) = (   0.6565800   0.0331499   1.6456315  )
        31           O0  tau(  31) = (   0.4998600   0.5715162   2.9254467  )
        32           O0  tau(  32) = (   0.5002200   0.3713883   3.0709603  )
        33           H2  tau(  33) = (   0.4998900   0.4494573   3.2222096  )

     number of k points=    20  Methfessel-Paxton smearing, width (Ry)=  0.0100
                       cart. coord. in units 2pi/alat
        k(    1) = (   0.0000000   0.0000000   0.0000000), wk =   0.0625000
        k(    2) = (   0.0000000   0.2340879   0.0000000), wk =   0.1250000
        k(    3) = (   0.0000000  -0.4681757   0.0000000), wk =   0.0625000
        k(    4) = (   0.2500000   0.0000000   0.0000000), wk =   0.1250000
        k(    5) = (   0.2500000   0.2340879   0.0000000), wk =   0.1250000
        k(    6) = (   0.2500000  -0.4681757   0.0000000), wk =   0.1250000
        k(    7) = (  -0.5000000   0.0000000   0.0000000), wk =   0.0625000
        k(    8) = (  -0.5000000   0.2340879   0.0000000), wk =   0.1250000
        k(    9) = (  -0.5000000  -0.4681757   0.0000000), wk =   0.0625000
        k(   10) = (  -0.2500000   0.2340879   0.0000000), wk =   0.1250000
        k(   11) = (   0.0000000   0.0000000   0.0000000), wk =   0.0625000
        k(   12) = (   0.0000000   0.2340879   0.0000000), wk =   0.1250000
        k(   13) = (   0.0000000  -0.4681757   0.0000000), wk =   0.0625000
        k(   14) = (   0.2500000   0.0000000   0.0000000), wk =   0.1250000
        k(   15) = (   0.2500000   0.2340879   0.0000000), wk =   0.1250000
        k(   16) = (   0.2500000  -0.4681757   0.0000000), wk =   0.1250000
        k(   17) = (  -0.5000000   0.0000000   0.0000000), wk =   0.0625000
        k(   18) = (  -0.5000000   0.2340879   0.0000000), wk =   0.1250000
        k(   19) = (  -0.5000000  -0.4681757   0.0000000), wk =   0.0625000
        k(   20) = (  -0.2500000   0.2340879   0.0000000), wk =   0.1250000

     Largest allocated arrays     est. size (Mb)     dimensions
     Largest temporary arrays     est. size (Mb)     dimensions

     Check: negative/imaginary core charge=   -0.000012    0.000000

     Initial potential from superposition of free atoms
     Check: negative starting charge=(component1):   -0.001299
     Check: negative starting charge=(component2):   -0.000449

     starting charge  228.99983, renormalised to  237.00000

     negative rho (up, down):  0.134E-02 0.465E-03
     Number of +U iterations with fixed ns =  0
     Starting occupations:
 --- enter write_ns ---
 LDA+U parameters:
U( 2)     =  1.50000000
alpha( 2) =  0.00000000
atom    3   Tr[ns(na)] (up, down, total) =   5.00000  0.00000  5.00000
   spin  1
    eigenvalues:
  1.000  1.000  1.000  1.000  1.000
    eigenvectors:
  1.000  0.000  0.000  0.000  0.000
  0.000  1.000  0.000  0.000  0.000
  0.000  0.000  1.000  0.000  0.000
  0.000  0.000  0.000  1.000  0.000
  0.000  0.000  0.000  0.000  1.000
    occupations:
  1.000  0.000  0.000  0.000  0.000
  0.000  1.000  0.000  0.000  0.000
  0.000  0.000  1.000  0.000  0.000
  0.000  0.000  0.000  1.000  0.000
  0.000  0.000  0.000  0.000  1.000
   spin  2
    eigenvalues:
  0.000  0.000  0.000  0.000  0.000
    eigenvectors:
  1.000  0.000  0.000  0.000  0.000
  0.000  1.000  0.000  0.000  0.000
  0.000  0.000  1.000  0.000  0.000
  0.000  0.000  0.000  1.000  0.000
  0.000  0.000  0.000  0.000  1.000
    occupations:
  0.000  0.000  0.000  0.000  0.000
  0.000  0.000  0.000  0.000  0.000
  0.000  0.000  0.000  0.000  0.000
  0.000  0.000  0.000  0.000  0.000
  0.000  0.000  0.000  0.000  0.000
atomic mag. moment =     5.000000
atom    4   Tr[ns(na)] (up, down, total) =   5.00000  0.00000  5.00000
   spin  1
    eigenvalues:
  1.000  1.000  1.000  1.000  1.000
    eigenvectors:
  1.000  0.000  0.000  0.000  0.000
  0.000  1.000  0.000  0.000  0.000
  0.000  0.000  1.000  0.000  0.000
  0.000  0.000  0.000  1.000  0.000
  0.000  0.000  0.000  0.000  1.000
    occupations:
  1.000  0.000  0.000  0.000  0.000
  0.000  1.000  0.000  0.000  0.000
  0.000  0.000  1.000  0.000  0.000
  0.000  0.000  0.000  1.000  0.000
  0.000  0.000  0.000  0.000  1.000
   spin  2
    eigenvalues:
  0.000  0.000  0.000  0.000  0.000
    eigenvectors:
  1.000  0.000  0.000  0.000  0.000
  0.000  1.000  0.000  0.000  0.000
  0.000  0.000  1.000  0.000  0.000
  0.000  0.000  0.000  1.000  0.000
  0.000  0.000  0.000  0.000  1.000
    occupations:
  0.000  0.000  0.000  0.000  0.000
  0.000  0.000  0.000  0.000  0.000
  0.000  0.000  0.000  0.000  0.000
  0.000  0.000  0.000  0.000  0.000
  0.000  0.000  0.000  0.000  0.000
atomic mag. moment =     5.000000
[...]
   spin  1
    eigenvalues:
  0.483  0.526  0.575  0.863  0.981
    eigenvectors:
  0.002  0.992  0.000  0.001  0.005
  0.000  0.001  0.015  0.983  0.000
  0.000  0.000  0.984  0.015  0.000
  0.000  0.005  0.000  0.000  0.995
  0.998  0.002  0.000  0.000  0.000
    occupations:
  0.528 -0.011 -0.001  0.031  0.002
 -0.011  0.858  0.035  0.002  0.000
 -0.001  0.035  0.580  0.002 -0.001
  0.031  0.002  0.002  0.979 -0.000
  0.002  0.000 -0.001 -0.000  0.483
   spin  2
    eigenvalues:
  0.117  0.152  0.199  0.380  0.402
    eigenvectors:
  0.002  0.003  0.000  0.002  0.993
  0.002  0.957  0.038  0.000  0.003
  0.000  0.037  0.962  0.000  0.000
  0.996  0.002  0.000  0.000  0.002
  0.000  0.000  0.000  0.998  0.002
    occupations:
  0.401  0.014  0.003 -0.013  0.001
  0.014  0.154 -0.009  0.001 -0.000
  0.003 -0.009  0.198  0.000 -0.000
 -0.013  0.001  0.000  0.118  0.000
  0.001 -0.000 -0.000  0.000  0.380
atomic mag. moment =     2.178588
atom    9   Tr[ns(na)] (up, down, total) =   3.44883  1.27139  4.72022
   spin  1
    eigenvalues:
  0.497  0.508  0.627  0.839  0.978
    eigenvectors:
  0.005  0.165  0.000  0.000  0.829
  0.971  0.029  0.000  0.000  0.000
  0.000  0.001  0.991  0.008  0.000
  0.024  0.805  0.001  0.000  0.171
  0.000  0.000  0.008  0.992  0.000
    occupations:
  0.898  0.001 -0.001 -0.177 -0.001
  0.001  0.498  0.002  0.001  0.000
 -0.001  0.002  0.628 -0.003 -0.018
 -0.177  0.001 -0.003  0.588  0.003
 -0.001  0.000 -0.018  0.003  0.837
   spin  2
    eigenvalues:
  0.135  0.168  0.187  0.390  0.391
    eigenvectors:
  0.816  0.000  0.000  0.179  0.004
  0.000  0.000  0.000  0.025  0.975
  0.000  0.018  0.981  0.000  0.000
  0.184  0.000  0.000  0.795  0.021
  0.000  0.982  0.018  0.000  0.000
    occupations:
  0.182  0.001  0.001  0.099 -0.000
  0.001  0.391 -0.000 -0.001  0.000
  0.001 -0.000  0.187  0.003  0.002
  0.099 -0.001  0.003  0.343 -0.000
 -0.000  0.000  0.002 -0.000  0.169
atomic mag. moment =     2.177443
atom   10   Tr[ns(na)] (up, down, total) =   3.55427  1.11096  4.66524
   spin  1
    eigenvalues:
  0.474  0.498  0.719  0.884  0.980
    eigenvectors:
  0.000  0.996  0.000  0.000  0.004
  0.000  0.000  0.000  0.970  0.029
  0.000  0.000  1.000  0.000  0.000
  0.000  0.004  0.000  0.029  0.967
  0.999  0.000  0.000  0.000  0.000
    occupations:
  0.500 -0.005  0.001  0.030  0.000
 -0.005  0.887 -0.001 -0.016 -0.008
  0.001 -0.001  0.719  0.002  0.005
  0.030 -0.016  0.002  0.975  0.000
  0.000 -0.008  0.005  0.000  0.474
   spin  2
    eigenvalues:
  0.108  0.161  0.172  0.307  0.362
    eigenvectors:
  0.005  0.000  0.000  0.995  0.000
  0.001  0.997  0.001  0.000  0.000
  0.000  0.001  0.998  0.000  0.000
  0.994  0.001  0.000  0.005  0.000
  0.000  0.000  0.000  0.000  0.999
    occupations:
  0.306 -0.000 -0.001 -0.014  0.000
 -0.000  0.161 -0.000  0.002  0.004
 -0.001 -0.000  0.172 -0.001  0.003
 -0.014  0.002 -0.001  0.109 -0.000
  0.000  0.004  0.003 -0.000  0.362
atomic mag. moment =     2.443315
atom   16   Tr[ns(na)] (up, down, total) =   3.50754  1.16514  4.67268
   spin  1
    eigenvalues:
  0.461  0.506  0.666  0.898  0.976
    eigenvectors:
  0.005  0.217  0.002  0.000  0.776
  0.983  0.016  0.000  0.000  0.000
  0.000  0.000  0.978  0.019  0.003
  0.011  0.767  0.001  0.000  0.221
  0.000  0.000  0.019  0.981  0.000
    occupations:
  0.871  0.009  0.015 -0.195  0.003
  0.009  0.462  0.002  0.002 -0.008
  0.015  0.002  0.672 -0.007 -0.031
 -0.195  0.002 -0.007  0.610 -0.000
  0.003 -0.008 -0.031 -0.000  0.893
   spin  2
    eigenvalues:
  0.113  0.138  0.171  0.359  0.384
    eigenvectors:
  0.762  0.001  0.014  0.014  0.209
  0.000  0.002  0.000  0.938  0.060
  0.016  0.032  0.952  0.000  0.000
  0.222  0.000  0.002  0.046  0.730
  0.000  0.965  0.033  0.002  0.000
    occupations:
  0.174  0.002 -0.004  0.112 -0.001
  0.002  0.360 -0.001  0.005  0.011
 -0.004 -0.001  0.169  0.008  0.006
  0.112  0.005  0.008  0.322  0.000
 -0.001  0.011  0.006  0.000  0.140
atomic mag. moment =     2.342404
atom   17   Tr[ns(na)] (up, down, total) =   3.44011  1.23735  4.67746
   spin  1
    eigenvalues:
  0.481  0.526  0.606  0.845  0.982
    eigenvectors:
  0.001  0.993  0.001  0.001  0.004
  0.000  0.001  0.013  0.986  0.000
  0.001  0.001  0.986  0.013  0.000
  0.000  0.004  0.000  0.000  0.996
  0.998  0.001  0.000  0.000  0.000
    occupations:
  0.528 -0.011 -0.003  0.027  0.001
 -0.011  0.841  0.027  0.001 -0.000
 -0.003  0.027  0.609  0.001  0.003
  0.027  0.001  0.001  0.981 -0.000
  0.001 -0.000  0.003 -0.000  0.481
   spin  2
    eigenvalues:
  0.116  0.150  0.195  0.376  0.400
    eigenvectors:
  0.003  0.004  0.000  0.001  0.992
  0.002  0.952  0.041  0.000  0.004
  0.000  0.041  0.958  0.000  0.000
  0.995  0.002  0.000  0.000  0.002
  0.000  0.000  0.000  0.999  0.001
    occupations:
  0.398  0.016  0.003 -0.014  0.001
  0.016  0.153 -0.009  0.001 -0.000
  0.003 -0.009  0.193  0.000 -0.000
 -0.014  0.001  0.000  0.117  0.000
  0.001 -0.000 -0.000  0.000  0.376
atomic mag. moment =     2.202763
atom   22   Tr[ns(na)] (up, down, total) =   3.01310  1.82897  4.84207
   spin  1
    eigenvalues:
  0.512  0.540  0.554  0.648  0.758
    eigenvectors:
  0.999  0.000  0.001  0.000  0.000
  0.000  1.000  0.000  0.000  0.000
  0.000  0.000  0.000  0.021  0.978
  0.001  0.000  0.999  0.000  0.000
  0.000  0.000  0.000  0.979  0.021
    occupations:
  0.512 -0.000  0.004  0.001  0.000
 -0.000  0.540  0.001 -0.000 -0.000
  0.004  0.001  0.756 -0.002  0.016
  0.001 -0.000 -0.002  0.554 -0.000
  0.000 -0.000  0.016 -0.000  0.651
   spin  2
    eigenvalues:
  0.249  0.311  0.334  0.465  0.470
    eigenvectors:
  0.000  0.001  0.991  0.008  0.001
  0.000  0.000  0.000  0.013  0.987
  0.996  0.004  0.000  0.000  0.000
  0.000  0.000  0.008  0.979  0.012
  0.004  0.995  0.001  0.000  0.000
    occupations:
  0.335 -0.002 -0.000  0.012 -0.001
 -0.002  0.470 -0.000 -0.000  0.001
 -0.000 -0.000  0.249  0.003 -0.004
  0.012 -0.000  0.003  0.464  0.001
 -0.001  0.001 -0.004  0.001  0.311
atomic mag. moment =     1.184130
atom   23   Tr[ns(na)] (up, down, total) =   3.53125  1.13137  4.66263
   spin  1
    eigenvalues:
  0.473  0.493  0.703  0.897  0.965
    eigenvectors:
  0.000  0.997  0.001  0.001  0.000
  0.000  0.001  0.994  0.000  0.005
  0.000  0.001  0.000  0.999  0.000
  0.000  0.000  0.005  0.000  0.995
  0.999  0.000  0.000  0.000  0.000
    occupations:
  0.494  0.007  0.013 -0.002 -0.001
  0.007  0.704 -0.002  0.018 -0.005
  0.013 -0.002  0.896 -0.001 -0.003
 -0.002  0.018 -0.001  0.964 -0.001
 -0.001 -0.005 -0.003 -0.001  0.473
   spin  2
    eigenvalues:
  0.111  0.121  0.175  0.353  0.371
    eigenvectors:
  0.003  0.001  0.000  0.995  0.000
  0.001  0.000  0.998  0.000  0.000
  0.009  0.990  0.000  0.000  0.000
  0.986  0.009  0.001  0.004  0.000
  0.000  0.000  0.000  0.000  0.999
    occupations:
  0.352  0.002 -0.005 -0.014 -0.000
  0.002  0.175  0.000 -0.002  0.003
 -0.005  0.000  0.121  0.001 -0.004
 -0.014 -0.002  0.001  0.112  0.000
 -0.000  0.003 -0.004  0.000  0.371
atomic mag. moment =     2.399880
N of occupied +U levels =  37.5928750
 --- exit write_ns ---

 ------ SPIN UP ------------

[...]

 ------ SPIN DOWN ----------

[...]

          k = 0.2500-0.4682 0.0000 ( 27150 PWs)   bands (ev):

[...]

          k =-0.2500 0.2341 0.0000 ( 27132 PWs)   bands (ev):

   -73.6708 -72.0880 -72.0482 -72.0304 -71.9857 -71.8798 -71.8738 -71.8520
   -45.3346 -44.9740 -44.7345 -43.7391 -43.6917 -43.6626 -43.6261 -43.5145
   -43.4762 -43.4562 -43.4412 -43.4034 -43.3581 -43.3311 -43.3008 -43.2814
   -43.2507 -43.1895 -43.1815 -43.1296 -43.0539 -43.0232 -42.9556 -42.8891
   -24.3786 -20.6039 -20.1700 -20.0617 -19.9381 -19.8257 -19.5190 -19.4476
   -19.3819 -19.3105 -19.1840 -19.1241 -18.9853 -18.9772 -18.9567 -18.8896
   -18.7481 -18.7096 -18.6428 -17.5627  -9.2324  -8.1430  -7.8970  -7.7309
    -7.5762  -7.4951  -7.3284  -7.0387  -6.9682  -6.9113  -6.8273  -6.8096
    -6.7166  -6.5900  -6.5094  -6.4168  -6.2936  -6.2595  -6.1668  -6.1045
    -5.9405  -5.8253  -5.7862  -5.6941  -5.6341  -5.3606  -5.2830  -5.1762
    -5.0782  -4.9804  -4.8196  -4.7484  -4.7146  -4.6551  -4.6348  -4.5477
    -4.4368  -4.3903  -4.2744  -4.2400  -4.0973  -3.9639  -3.8087  -3.7504
    -3.6492  -3.5672  -3.4994  -3.4247  -3.3840  -3.3170  -3.2609  -3.1284
    -2.9862  -2.9550  -2.8396  -2.6821  -2.5581  -2.3321  -2.1100   0.1477
     0.2383   0.2846   0.7320   0.7667   0.8836   0.9467   1.0314   1.0918
     1.1424   1.2449   1.2867   1.3693   1.4107   1.4948   1.5689   1.6199
     1.6932   1.7398   1.7555   1.7972   1.9680   2.0015   2.0574   2.1194
     2.2031   2.5043   2.6325   2.7778   3.0336   3.1262   3.2706   3.2897
     3.4050   3.4563   3.6114   3.6718   3.7337   3.9714   4.0432   4.1605
     4.1951   4.3435   4.4440   4.8795   5.2919   5.5150   5.7766   6.0807
     6.2297   6.2995   6.3699   6.5330   6.8080   6.9269   7.1497   7.4725
     7.5720   7.7061   7.9085   8.0936   8.3153   8.3683   8.4837   8.6339
     8.7523   8.9261   9.1295   9.2503   9.4384   9.5065   9.5712   9.7777
     9.9083   9.9738  10.0662  10.1261  10.1642  10.3897  10.4636  10.4909
    10.6061  10.6962  10.8084  10.9337  11.0613  11.1425  11.2654  11.3345
    11.4030  11.5346  11.6456  11.7690  11.8346  11.9217  12.0529  12.1003
    12.1558  12.3240  12.3743  12.4042  12.4788  12.5748  12.6992  12.7195
    12.8528  12.8732  13.0208  13.0848  13.1909  13.2811  13.3410  13.4364
    13.4972  13.5471  13.6163  13.6984  13.7920  13.8496  13.9466  14.0243
    14.1457  14.1849  14.2436  14.3009  14.3603  14.4565  14.4844  14.5737
    14.7617  14.8374  14.8837  14.9692  15.0928  15.1780  15.2387  15.2806
    15.4168  15.4514  15.5845  15.6427  15.7056  15.7843  15.8580  15.9391
    15.9781  16.0295  16.0627  16.1566  16.1991  16.2451  16.3084  16.3763
    16.4712  16.5291  16.6073  16.7192  16.7787  16.8300  16.9185  16.9988
    17.0462  17.1344  17.1877  17.2531  17.3193  17.3603  17.4631  17.4846
    17.5364  17.5811  17.7338  17.7710  17.8224  17.8812  17.9504  18.0090
    18.0576  18.1713  18.2266  18.2998  18.4066  18.4757  18.5174  18.5760
    18.6051  18.6930  18.7781  18.8653  18.9145  18.9994  19.0225  19.0902
    19.1602  19.2901  19.3761  19.4144  19.4382  19.5135  19.5626  19.6742
    19.7098  19.8027  19.8575  19.9322  20.0080  20.1440  20.1994  20.2975
    20.3343  20.4051  20.5152  20.5812  20.6889  20.8325  20.8752  20.9531
    21.0430  21.1058  21.1716  21.2252  21.2918  21.3630  21.4187  21.5159
    21.5980  21.6934  21.8056  21.8508  21.9298  21.9758  22.0385

     the spin up/dw Fermi energies are    -1.0435   -1.9969 ev

!    total energy              =   -2058.30923797 Ry
     Harris-Foulkes estimate   =   -2058.30923797 Ry
     estimated scf accuracy    <          5.8E-09 Ry

     The total energy is the sum of the following terms:

     one-electron contribution =  -24558.89493846 Ry
     hartree contribution      =   12305.64424104 Ry
     xc contribution           =    -329.79011077 Ry
     ewald contribution        =   10523.95119438 Ry
     Hubbard energy            =       0.78055919 Ry
     smearing contrib. (-TS)   =      -0.00018335 Ry

     total magnetization       =    15.00 Bohr mag/cell
     absolute magnetization    =    20.32 Bohr mag/cell

     convergence has been achieved in  20 iterations

     Forces acting on atoms (Ry/au):

     negative rho (up, down):  0.467E-02 0.170E-02
     atom    1 type  1   force =    -0.00352395   -0.01193276    0.00002439
     atom    2 type  1   force =    -0.00030109    0.00702100   -0.00020545
     atom    3 type  2   force =     0.04320221   -0.00314592    0.00060809
     atom    4 type  2   force =    -0.00135927    0.00824295    0.00007511
     atom    5 type  1   force =    -0.00107352    0.00870770    0.00014514
     atom    6 type  1   force =    -0.00176964   -0.00631987    0.00015131
     atom    7 type  1   force =     0.00024951   -0.00449252   -0.00022699
     atom    8 type  1   force =    -0.01512361    0.00229806   -0.00041231
     atom    9 type  2   force =     0.00703633   -0.00195235    0.00016385
     atom   10 type  2   force =     0.00530971    0.00266206   -0.00029342
     atom   11 type  1   force =    -0.02922861   -0.02632311   -0.00034278
     atom   12 type  1   force =    -0.02116617    0.03308684   -0.00001085
     atom   13 type  1   force =    -0.04740978   -0.00301213    0.00025159
     atom   14 type  1   force =    -0.00563604   -0.01239227    0.00014743
     atom   15 type  1   force =     0.00019288    0.00693111   -0.00052662
     atom   16 type  2   force =    -0.04543656   -0.00226661    0.00049420
     atom   17 type  2   force =     0.00624925    0.00811279    0.00014786
     atom   18 type  1   force =     0.00441425    0.00758504    0.00015821
     atom   19 type  1   force =     0.00330970   -0.00660451    0.00022436
     atom   20 type  1   force =     0.00206127   -0.00392529    0.00047323
     atom   21 type  1   force =     0.00980334    0.00342150   -0.00070822
     atom   22 type  2   force =     0.01622156   -0.00461168    0.00052923
     atom   23 type  2   force =    -0.00586047   -0.00479831   -0.00023152
     atom   24 type  1   force =     0.02454731   -0.01798197   -0.00043586
     atom   25 type  1   force =     0.01715880    0.03000818    0.00020628
     atom   26 type  1   force =     0.03840100   -0.00814858    0.00046738
     atom   27 type  3   force =    -0.00000894    0.00004823   -0.00053654
     atom   28 type  3   force =    -0.00001121    0.00022869   -0.00061540
     atom   29 type  3   force =     0.00020693   -0.00019042    0.00012791
     atom   30 type  3   force =     0.00013559   -0.00013521    0.00003005
     atom   31 type  1   force =    -0.00077297    0.00027403    0.00002911
     atom   32 type  1   force =     0.00016846   -0.00067541    0.00080844
     atom   33 type  3   force =     0.00001373    0.00028073   -0.00071722

     Total force =     0.002527     Total SCF correction =     0.000127

     entering subroutine stress ...

     negative rho (up, down):  0.467E-02 0.170E-02
          total   stress  (Ry/bohr**3)                   (kbar)     P=    7.45
   0.00005214   0.00000035   0.00000414          7.67      0.05      0.61
   0.00000035   0.00013200   0.00000358          0.05     19.42      0.53
   0.00000414   0.00000358  -0.00003231          0.61      0.53     -4.75

     bfgs converged in  10 scf cycles and   9 bfgs steps
     (criteria: energy < 0.10E-03, force < 0.10E-02)

     End of BFGS Geometry Optimization

     Final energy   =   -2058.3092379672 Ry
Begin final coordinates

ATOMIC_POSITIONS (crystal)
O0       0.000000000   0.000000000   0.377567815    0   0   1
O0       0.000000000   0.500000000   0.400026228    0   0   1
Cr1      0.250000000   0.500000000   0.451462679    0   0   1
Cr1      0.000000000   0.000000000   0.448854362    0   0   1
O0       0.250000000   0.800000000   0.449560843    0   0   1
O0       0.250000000   0.200000000   0.449715860    0   0   1
O0       0.000000000   0.500000000   0.498303287    0   0   1
O0       0.000000000   0.000000000   0.523047140    0   0   1
Cr1      0.250000000   0.000000000   0.567288952    0   0   1
Cr1      0.000000000   0.500000000   0.565855769    0   0   1
O0       0.250000000   0.700000000   0.573249298    0   0   1
O0       0.250000000   0.300000000   0.575306972    0   0   1
O0       0.000000000   0.000000000   0.617803193    0   0   1
O0       0.500000000   0.000000000   0.377311835    0   0   1
O0       0.500000000   0.500000000   0.400044982    0   0   1
Cr1      0.750000000   0.500000000   0.451492213    0   0   1
Cr1      0.500000000   0.000000000   0.448722370    0   0   1
O0       0.750000000   0.800000000   0.449573778    0   0   1
O0       0.750000000   0.200000000   0.449745265    0   0   1
O0       0.500000000   0.500000000   0.499495239    0   0   1
O0       0.500000000   0.000000000   0.523024387    0   0   1
Cr1      0.750000000   0.000000000   0.582853119    0   0   1
Cr1      0.500000000   0.500000000   0.577048184    0   0   1
O0       0.750000000   0.700000000   0.575040380    0   0   1
O0       0.750000000   0.300000000   0.577035862    0   0   1
O0       0.500000000   0.000000000   0.616879161    0   0   1
H2      -0.000561300   0.638332083   0.381068965
H2       0.499670701   0.639870996   0.381678809
H2       0.157633338   0.030019881   0.364719026
H2       0.657314268   0.030495461   0.364461503
O0       0.497820063   0.538122599   0.648742862
O0       0.499800215   0.350389582   0.679847354
H2       0.500255161   0.418613554   0.713952306
End final coordinates

     General routines

     Parallel routines
     Hubbard U routines

   This run was terminated on:  21:11:51   2Jun2014

   JOB DONE.