     Program PWSCF v.5.0.2 (svn rev. 9656) starts on 31Jan2014 at 16:41:12

     Current dimensions of program PWSCF are:
     Max number of different atomic species (ntypx) = 10
     Max number of k-points (npk) =  40000
     Max angular momentum in pseudopotentials (lmaxx) =  3
     Waiting for input...
     Reading input from standard input

     Subspace diagonalization in iterative solution of the eigenvalue problem:
     a serial algorithm will be used

     bravais-lattice index     =            0
     lattice parameter (alat)  =       8.7548  a.u.
     unit-cell volume          =     432.4333 (a.u.)^3
     number of atoms/cell      =            6
     number of atomic types    =            2
     number of electrons       =        56.00
     number of Kohn-Sham states=           81
     kinetic-energy cutoff     =      40.0000  Ry
     charge density cutoff     =     500.0000  Ry
     convergence threshold     =      1.0E-06
     mixing beta               =       0.3000
     number of iterations used =            8  plain     mixing
     Exchange-correlation      = SLA  PW   PBE  PBE ( 1 4 3 4 0)
     EXX-fraction              =        0.00
     nstep                     =           50

     celldm(1)=   8.754766  celldm(2)=   0.000000  celldm(3)=   0.000000
     celldm(4)=   0.000000  celldm(5)=   0.000000  celldm(6)=   0.000000

     crystal axes: (cart. coord. in units of alat)
               a(1) = (   1.000000   0.000000   0.000000 )
               a(2) = (   0.000000   1.000000   0.000000 )
               a(3) = (   0.000000   0.000000   0.644444 )

     reciprocal axes: (cart. coord. in units 2 pi/alat)
               b(1) = (  1.000000  0.000000  0.000000 )
               b(2) = (  0.000000  1.000000  0.000000 )
               b(3) = (  0.000000  0.000000  1.551724 )

     PseudoPot. # 1 for Ru read from file:
     /home/camp/zhonxu/pseudo/ru_pbe_v1.uspp.F.UPF
     MD5 check sum: df00be1c11b23341d9806d8f1dfa10cf
     Pseudo is Ultrasoft + core correction, Zval = 16.0
     Generated by new atomic code, or converted to UPF format
     Using radial grid of  967 points,  6 beta functions with:
                l(1) =   0
                l(2) =   0
                l(3) =   1
                l(4) =   1
                l(5) =   2
                l(6) =   2
     Q(r) pseudized with  8 coefficients,  rinner =    1.300   1.300   1.300
                                                       1.300   1.300

     PseudoPot. # 2 for O  read from file:
     /home/camp/zhonxu/pseudo/o_pbe_v1.01.uspp.F.UPF
     MD5 check sum: 2bcb18d16ea4b960afae9ec6d52f22d2
     Pseudo is Ultrasoft + core correction, Zval =  6.0
     Generated by new atomic code, or converted to UPF format
     Using radial grid of  737 points,  5 beta functions with:
                l(1) =   0
                l(2) =   0
                l(3) =   1
                l(4) =   1
                l(5) =   2
     Q(r) pseudized with  8 coefficients,  rinner =    0.900   0.900   0.900
                                                       0.900   0.900

     atomic species   valence    mass     pseudopotential
        Ru0           16.00   101.07000     Ru( 1.00)
        O1             6.00    15.99940     O ( 1.00)

     Starting magnetic structure
     atomic species   magnetization
        Ru0          0.000
        O1           0.000

      8 Sym. Ops., with inversion, found
          (note:  8 additional sym.ops. were found but ignored
           their fractional translations are incommensurate with FFT grid)

   Cartesian axes

     site n.     atom                  positions (alat units)
         1           Ru0 tau(   1) = (   0.0000000   0.0000000   0.0000000  )
         2           Ru0 tau(   2) = (   0.5000000   0.5000000   0.3222222  )
         3           O1  tau(   3) = (   0.3050000   0.3050000   0.0000000  )
         4           O1  tau(   4) = (  -0.3050000  -0.3050000   0.0000000  )
         5           O1  tau(   5) = (   0.8050000   0.1950000   0.3222222  )
         6           O1  tau(   6) = (   0.1950000   0.8050000   0.3222222  )

     number of k points=    54  Methfessel-Paxton smearing, width (Ry)=  0.0100
                       cart. coord. in units 2pi/alat
        k(    1) = (   0.0000000   0.0000000   0.0000000), wk =   0.0080000
        k(    2) = (   0.0000000   0.0000000   0.3103448), wk =   0.0160000
        k(    3) = (   0.0000000   0.0000000   0.6206897), wk =   0.0160000
        k(    4) = (   0.0000000   0.2000000   0.0000000), wk =   0.0320000
        k(    5) = (   0.0000000   0.2000000   0.3103448), wk =   0.0640000
        k(    6) = (   0.0000000   0.2000000   0.6206897), wk =   0.0640000
        k(    7) = (   0.0000000   0.4000000   0.0000000), wk =   0.0320000
        k(    8) = (   0.0000000   0.4000000   0.3103448), wk =   0.0640000
        k(    9) = (   0.0000000   0.4000000   0.6206897), wk =   0.0640000
        k(   10) = (   0.2000000   0.2000000   0.0000000), wk =   0.0160000
        k(   11) = (   0.2000000   0.2000000   0.3103448), wk =   0.0320000
        k(   12) = (   0.2000000   0.2000000   0.6206897), wk =   0.0320000
        k(   13) = (   0.2000000   0.4000000   0.0000000), wk =   0.0320000
        k(   14) = (   0.2000000   0.4000000   0.3103448), wk =   0.0640000
        k(   15) = (   0.2000000   0.4000000   0.6206897), wk =   0.0640000
        k(   16) = (   0.4000000   0.4000000   0.0000000), wk =   0.0160000
        k(   17) = (   0.4000000   0.4000000   0.3103448), wk =   0.0320000
        k(   18) = (   0.4000000   0.4000000   0.6206897), wk =   0.0320000
        k(   19) = (  -0.2000000   0.2000000   0.0000000), wk =   0.0160000
        k(   20) = (  -0.2000000   0.2000000  -0.3103448), wk =   0.0320000
        k(   21) = (  -0.2000000   0.2000000  -0.6206897), wk =   0.0320000
        k(   22) = (  -0.2000000   0.4000000   0.0000000), wk =   0.0320000
        k(   23) = (  -0.2000000   0.4000000  -0.3103448), wk =   0.0640000
        k(   24) = (  -0.2000000   0.4000000  -0.6206897), wk =   0.0640000
        k(   25) = (  -0.4000000   0.4000000   0.0000000), wk =   0.0160000
        k(   26) = (  -0.4000000   0.4000000  -0.3103448), wk =   0.0320000
        k(   27) = (  -0.4000000   0.4000000  -0.6206897), wk =   0.0320000
        k(   28) = (   0.0000000   0.0000000   0.0000000), wk =   0.0080000
        k(   29) = (   0.0000000   0.0000000   0.3103448), wk =   0.0160000
        k(   30) = (   0.0000000   0.0000000   0.6206897), wk =   0.0160000
        k(   31) = (   0.0000000   0.2000000   0.0000000), wk =   0.0320000
        k(   32) = (   0.0000000   0.2000000   0.3103448), wk =   0.0640000
        k(   33) = (   0.0000000   0.2000000   0.6206897), wk =   0.0640000
        k(   34) = (   0.0000000   0.4000000   0.0000000), wk =   0.0320000
        k(   35) = (   0.0000000   0.4000000   0.3103448), wk =   0.0640000
        k(   36) = (   0.0000000   0.4000000   0.6206897), wk =   0.0640000
        k(   37) = (   0.2000000   0.2000000   0.0000000), wk =   0.0160000
        k(   38) = (   0.2000000   0.2000000   0.3103448), wk =   0.0320000
        k(   39) = (   0.2000000   0.2000000   0.6206897), wk =   0.0320000
        k(   40) = (   0.2000000   0.4000000   0.0000000), wk =   0.0320000
        k(   41) = (   0.2000000   0.4000000   0.3103448), wk =   0.0640000
        k(   42) = (   0.2000000   0.4000000   0.6206897), wk =   0.0640000
        k(   43) = (   0.4000000   0.4000000   0.0000000), wk =   0.0160000
        k(   44) = (   0.4000000   0.4000000   0.3103448), wk =   0.0320000
        k(   45) = (   0.4000000   0.4000000   0.6206897), wk =   0.0320000
        k(   46) = (  -0.2000000   0.2000000   0.0000000), wk =   0.0160000
        k(   47) = (  -0.2000000   0.2000000  -0.3103448), wk =   0.0320000
        k(   48) = (  -0.2000000   0.2000000  -0.6206897), wk =   0.0320000
        k(   49) = (  -0.2000000   0.4000000   0.0000000), wk =   0.0320000
        k(   50) = (  -0.2000000   0.4000000  -0.3103448), wk =   0.0640000
        k(   51) = (  -0.2000000   0.4000000  -0.6206897), wk =   0.0640000
        k(   52) = (  -0.4000000   0.4000000   0.0000000), wk =   0.0160000
        k(   53) = (  -0.4000000   0.4000000  -0.3103448), wk =   0.0320000
        k(   54) = (  -0.4000000   0.4000000  -0.6206897), wk =   0.0320000

     Largest allocated arrays     est. size (Mb)     dimensions
     Largest temporary arrays     est. size (Mb)     dimensions

     Check: negative/imaginary core charge=   -0.000008    0.000000

     Initial potential from superposition of free atoms
     Check: negative starting charge=(component1):   -0.064860
     Check: negative starting charge=(component2):   -0.064860

     starting charge   53.99996, renormalised to   56.00000

     negative rho (up, down):  0.673E-01 0.673E-01
     Starting wfc are   42 randomized atomic wfcs

     Self-consistent Calculation

     iteration #  1     ecut=    40.00 Ry     beta=0.30
     Davidson diagonalization with overlap
     ethr =  1.00E-02,  avg # of iterations =  5.2

     negative rho (up, down):  0.717E-01 0.717E-01

     total energy              =    -514.84146212 Ry
     Harris-Foulkes estimate   =    -516.44397391 Ry
     estimated scf accuracy    <       3.43177397 Ry

     total magnetization       =     0.00 Bohr mag/cell
     absolute magnetization    =     0.00 Bohr mag/cell

[...]

     End of self-consistent calculation

 ------ SPIN UP ------------

          k = 0.0000 0.0000 0.0000 (  1875 PWs)   bands (ev):

   -60.8244 -60.8194 -30.9872 -30.9872 -30.7380 -30.7376 -30.6017 -30.5827
    -7.3989  -6.3950  -5.5588  -5.5580   4.3862   4.4621   5.6031   6.0400
     6.0407   8.3067   8.3069   8.8401  10.0275  10.2856  10.2856  10.5712
    10.9611  11.5259  11.5261  11.5392  11.6419  13.9499  14.4075  17.2510
    17.2515  18.2753  18.6683  22.5107  22.5108  25.7828  27.1291  27.1885
    28.4891  29.9152  29.9153  30.0906  31.8143  33.4032  34.2573  34.2573
    35.4040  35.4040  36.6434  38.4636  38.7715  38.7716  39.8068  41.5268
    41.8267  42.1229  42.6030  43.3648  43.5557  43.5559  44.3285  44.3285
    45.0435  45.1276  45.1278  47.2741  48.6987  50.4368  50.4372  50.6145
    50.9728  51.5099  51.5100  52.3982  52.4096  52.4371  52.4552  52.4554
    54.0072

[...]

          k =-0.2000 0.2000 0.0000 (  1847 PWs)   bands (ev):

[...]

 ------ SPIN DOWN ----------

[...]

     the Fermi energy is    12.7702 ev

!    total energy              =    -515.57945937 Ry
     Harris-Foulkes estimate   =    -515.57945653 Ry
     estimated scf accuracy    <       0.00000077 Ry

     The total energy is the sum of the following terms:

     one-electron contribution =    -174.89810530 Ry
     hartree contribution      =     118.81380589 Ry
     xc contribution           =     -78.48399385 Ry
     ewald contribution        =    -381.01023004 Ry
     smearing contrib. (-TS)   =      -0.00093607 Ry

[...]

     convergence has been achieved in   9 iterations

     Forces acting on atoms (Ry/au):

     negative rho (up, down):  0.724E-01 0.724E-01
     atom    1 type  1   force =     0.00000000    0.00000000    0.00000000
[...]
        k(   10) = (   0.2044785   0.2044785   0.0000000), wk =   0.0160000
        k(   11) = (   0.2044785   0.2044785   0.2969034), wk =   0.0320000
        k(   12) = (   0.2044785   0.2044785   0.5938068), wk =   0.0320000
        k(   13) = (   0.2044798   0.4089556   0.0000000), wk =   0.0320000
        k(   14) = (   0.2044798   0.4089556   0.2969034), wk =   0.0640000
        k(   15) = (   0.2044798   0.4089556   0.5938068), wk =   0.0640000
        k(   16) = (   0.4089569   0.4089569   0.0000000), wk =   0.0160000
        k(   17) = (   0.4089569   0.4089569   0.2969034), wk =   0.0320000
        k(   18) = (   0.4089569   0.4089569   0.5938068), wk =   0.0320000
        k(   19) = (  -0.2044757   0.2044757   0.0000000), wk =   0.0160000
        k(   20) = (  -0.2044757   0.2044757  -0.2969034), wk =   0.0320000
        k(   21) = (  -0.2044757   0.2044757  -0.5938068), wk =   0.0320000
        k(   22) = (  -0.2044744   0.4089528   0.0000000), wk =   0.0320000
        k(   23) = (  -0.2044744   0.4089528  -0.2969034), wk =   0.0640000
        k(   24) = (  -0.2044744   0.4089528  -0.5938068), wk =   0.0640000
        k(   25) = (  -0.4089515   0.4089515   0.0000000), wk =   0.0160000
        k(   26) = (  -0.4089515   0.4089515  -0.2969034), wk =   0.0320000
        k(   27) = (  -0.4089515   0.4089515  -0.5938068), wk =   0.0320000
        k(   28) = (   0.0000000   0.0000000   0.0000000), wk =   0.0080000
        k(   29) = (   0.0000000   0.0000000   0.2969034), wk =   0.0160000
        k(   30) = (   0.0000000   0.0000000   0.5938068), wk =   0.0160000
        k(   31) = (   0.0000014   0.2044771   0.0000000), wk =   0.0320000
        k(   32) = (   0.0000014   0.2044771   0.2969034), wk =   0.0640000
        k(   33) = (   0.0000014   0.2044771   0.5938068), wk =   0.0640000
        k(   34) = (   0.0000027   0.4089542   0.0000000), wk =   0.0320000
        k(   35) = (   0.0000027   0.4089542   0.2969034), wk =   0.0640000
        k(   36) = (   0.0000027   0.4089542   0.5938068), wk =   0.0640000
        k(   37) = (   0.2044785   0.2044785   0.0000000), wk =   0.0160000
        k(   38) = (   0.2044785   0.2044785   0.2969034), wk =   0.0320000
        k(   39) = (   0.2044785   0.2044785   0.5938068), wk =   0.0320000
        k(   40) = (   0.2044798   0.4089556   0.0000000), wk =   0.0320000
        k(   41) = (   0.2044798   0.4089556   0.2969034), wk =   0.0640000
        k(   42) = (   0.2044798   0.4089556   0.5938068), wk =   0.0640000
        k(   43) = (   0.4089569   0.4089569   0.0000000), wk =   0.0160000
        k(   44) = (   0.4089569   0.4089569   0.2969034), wk =   0.0320000
        k(   45) = (   0.4089569   0.4089569   0.5938068), wk =   0.0320000
        k(   46) = (  -0.2044757   0.2044757   0.0000000), wk =   0.0160000
        k(   47) = (  -0.2044757   0.2044757  -0.2969034), wk =   0.0320000
        k(   48) = (  -0.2044757   0.2044757  -0.5938068), wk =   0.0320000
        k(   49) = (  -0.2044744   0.4089528   0.0000000), wk =   0.0320000
        k(   50) = (  -0.2044744   0.4089528  -0.2969034), wk =   0.0640000
        k(   51) = (  -0.2044744   0.4089528  -0.5938068), wk =   0.0640000
        k(   52) = (  -0.4089515   0.4089515   0.0000000), wk =   0.0160000
        k(   53) = (  -0.4089515   0.4089515  -0.2969034), wk =   0.0320000
        k(   54) = (  -0.4089515   0.4089515  -0.5938068), wk =   0.0320000

     Check: negative/imaginary core charge=   -0.000008    0.000000
     Check: negative starting charge=(component1):   -0.130850

[...]

     Threshold (ethr) on eigenvalues was too large:
     Diagonalizing with lowered threshold

     Davidson diagonalization with overlap
     ethr =  9.86E-11,  avg # of iterations =  2.2

[...]

     Volume is kept fixed: isostatic pressure set to zero

     bfgs converged in   7 scf cycles and   6 bfgs steps
     (criteria: energy < 0.10E-03, force < 0.10E-02, cell < 0.50E+00)

     End of BFGS Geometry Optimization

     Final enthalpy =    -515.5927279480 Ry
Begin final coordinates
     new unit-cell volume =    432.43328 a.u.^3 (    64.08000 Ang^3 )

CELL_PARAMETERS (alat=  8.75476599)
   0.978104644  -0.000006504   0.000000000
  -0.000006504   0.978104644   0.000000000
   0.000000000   0.000000000   0.673619797

ATOMIC_POSITIONS (crystal)
Ru0      0.000000000   0.000000000   0.000000000    0   0   0
Ru0      0.500000000   0.500000000   0.500000000    0   0   0
O1       0.305917782   0.305917782   0.000000000    1   1   0
O1      -0.305917782  -0.305917782   0.000000000    1   1   0
O1       0.805917925   0.194082075   0.500000000    1   1   0
O1       0.194082075   0.805917925   0.500000000    1   1   0
End final coordinates

     A final scf calculation at the relaxed structure.
     The G-vectors are recalculated for the final unit cell
     Results may differ from those at the preceding step.

     bravais-lattice index     =            0
     lattice parameter (alat)  =       8.7548  a.u.
     unit-cell volume          =     432.4333 (a.u.)^3
     number of atoms/cell      =            6
     number of atomic types    =            2
     number of electrons       =        56.00
     number of Kohn-Sham states=           81
     kinetic-energy cutoff     =      40.0000  Ry
     charge density cutoff     =     500.0000  Ry
     convergence threshold     =      1.0E-08
     mixing beta               =       0.3000
     number of iterations used =            8  plain     mixing
     Exchange-correlation      = SLA  PW   PBE  PBE ( 1 4 3 4 0)
     EXX-fraction              =        0.00

     celldm(1)=   8.754766  celldm(2)=   0.000000  celldm(3)=   0.000000
     celldm(4)=   0.000000  celldm(5)=   0.000000  celldm(6)=   0.000000

     crystal axes: (cart. coord. in units of alat)
               a(1) = (   0.978105  -0.000007   0.000000 )
               a(2) = (  -0.000007   0.978105   0.000000 )
               a(3) = (   0.000000   0.000000   0.673620 )

     reciprocal axes: (cart. coord. in units 2 pi/alat)
               b(1) = (  1.022385  0.000007 -0.000000 )
               b(2) = (  0.000007  1.022385 -0.000000 )
               b(3) = ( -0.000000 -0.000000  1.484517 )

     PseudoPot. # 1 for Ru read from file:
     /home/camp/zhonxu/pseudo/ru_pbe_v1.uspp.F.UPF
     MD5 check sum: df00be1c11b23341d9806d8f1dfa10cf
     Pseudo is Ultrasoft + core correction, Zval = 16.0
     Generated by new atomic code, or converted to UPF format
     Using radial grid of  967 points,  6 beta functions with:
                l(1) =   0
                l(2) =   0
                l(3) =   1
                l(4) =   1
                l(5) =   2
                l(6) =   2
     Q(r) pseudized with  8 coefficients,  rinner =    1.300   1.300   1.300
                                                       1.300   1.300

     PseudoPot. # 2 for O  read from file:
     /home/camp/zhonxu/pseudo/o_pbe_v1.01.uspp.F.UPF
     MD5 check sum: 2bcb18d16ea4b960afae9ec6d52f22d2
     Pseudo is Ultrasoft + core correction, Zval =  6.0
     Generated by new atomic code, or converted to UPF format
     Using radial grid of  737 points,  5 beta functions with:
                l(1) =   0
                l(2) =   0
                l(3) =   1
                l(4) =   1
                l(5) =   2
     Q(r) pseudized with  8 coefficients,  rinner =    0.900   0.900   0.900
                                                       0.900   0.900

     atomic species   valence    mass     pseudopotential
        Ru0           16.00   101.07000     Ru( 1.00)
        O1             6.00    15.99940     O ( 1.00)

     Starting magnetic structure
     atomic species   magnetization
        Ru0          0.000
        O1           0.000

      8 Sym. Ops., with inversion, found
          (note:  8 additional sym.ops. were found but ignored
           their fractional translations are incommensurate with FFT grid)

   Cartesian axes

     site n.     atom                  positions (alat units)
         1           Ru0 tau(   1) = (   0.0000000   0.0000000   0.0000000  )
         2           Ru0 tau(   2) = (   0.4890491   0.4890491   0.3368099  )
         3           O1  tau(   3) = (   0.2992176   0.2992176   0.0000000  )
         4           O1  tau(   4) = (  -0.2992176  -0.2992176   0.0000000  )
         5           O1  tau(   5) = (   0.7882708   0.1898273   0.3368099  )
         6           O1  tau(   6) = (   0.1898273   0.7882708   0.3368099  )

     number of k points=    54  Methfessel-Paxton smearing, width (Ry)=  0.0100
                       cart. coord. in units 2pi/alat
        k(    1) = (   0.0000000   0.0000000   0.0000000), wk =   0.0080000
        k(    2) = (   0.0000000   0.0000000   0.2969034), wk =   0.0160000
        k(    3) = (   0.0000000   0.0000000   0.5938068), wk =   0.0160000
        k(    4) = (   0.0000014   0.2044771   0.0000000), wk =   0.0320000
        k(    5) = (   0.0000014   0.2044771   0.2969034), wk =   0.0640000
        k(    6) = (   0.0000014   0.2044771   0.5938068), wk =   0.0640000
        k(    7) = (   0.0000027   0.4089542   0.0000000), wk =   0.0320000
        k(    8) = (   0.0000027   0.4089542   0.2969034), wk =   0.0640000
        k(    9) = (   0.0000027   0.4089542   0.5938068), wk =   0.0640000
        k(   10) = (   0.2044785   0.2044785   0.0000000), wk =   0.0160000
        k(   11) = (   0.2044785   0.2044785   0.2969034), wk =   0.0320000
        k(   12) = (   0.2044785   0.2044785   0.5938068), wk =   0.0320000
        k(   13) = (   0.2044798   0.4089556   0.0000000), wk =   0.0320000
        k(   14) = (   0.2044798   0.4089556   0.2969034), wk =   0.0640000
        k(   15) = (   0.2044798   0.4089556   0.5938068), wk =   0.0640000
        k(   16) = (   0.4089569   0.4089569   0.0000000), wk =   0.0160000
        k(   17) = (   0.4089569   0.4089569   0.2969034), wk =   0.0320000
        k(   18) = (   0.4089569   0.4089569   0.5938068), wk =   0.0320000
        k(   19) = (  -0.2044757   0.2044757   0.0000000), wk =   0.0160000
        k(   20) = (  -0.2044757   0.2044757  -0.2969034), wk =   0.0320000
        k(   21) = (  -0.2044757   0.2044757  -0.5938068), wk =   0.0320000
        k(   22) = (  -0.2044744   0.4089528   0.0000000), wk =   0.0320000
        k(   23) = (  -0.2044744   0.4089528  -0.2969034), wk =   0.0640000
        k(   24) = (  -0.2044744   0.4089528  -0.5938068), wk =   0.0640000
        k(   25) = (  -0.4089515   0.4089515   0.0000000), wk =   0.0160000
        k(   26) = (  -0.4089515   0.4089515  -0.2969034), wk =   0.0320000
        k(   27) = (  -0.4089515   0.4089515  -0.5938068), wk =   0.0320000
        k(   28) = (   0.0000000   0.0000000   0.0000000), wk =   0.0080000
        k(   29) = (   0.0000000   0.0000000   0.2969034), wk =   0.0160000
        k(   30) = (   0.0000000   0.0000000   0.5938068), wk =   0.0160000
        k(   31) = (   0.0000014   0.2044771   0.0000000), wk =   0.0320000
        k(   32) = (   0.0000014   0.2044771   0.2969034), wk =   0.0640000
        k(   33) = (   0.0000014   0.2044771   0.5938068), wk =   0.0640000
        k(   34) = (   0.0000027   0.4089542   0.0000000), wk =   0.0320000
        k(   35) = (   0.0000027   0.4089542   0.2969034), wk =   0.0640000
        k(   36) = (   0.0000027   0.4089542   0.5938068), wk =   0.0640000
        k(   37) = (   0.2044785   0.2044785   0.0000000), wk =   0.0160000
        k(   38) = (   0.2044785   0.2044785   0.2969034), wk =   0.0320000
        k(   39) = (   0.2044785   0.2044785   0.5938068), wk =   0.0320000
        k(   40) = (   0.2044798   0.4089556   0.0000000), wk =   0.0320000
        k(   41) = (   0.2044798   0.4089556   0.2969034), wk =   0.0640000
        k(   42) = (   0.2044798   0.4089556   0.5938068), wk =   0.0640000
        k(   43) = (   0.4089569   0.4089569   0.0000000), wk =   0.0160000
        k(   44) = (   0.4089569   0.4089569   0.2969034), wk =   0.0320000
        k(   45) = (   0.4089569   0.4089569   0.5938068), wk =   0.0320000
        k(   46) = (  -0.2044757   0.2044757   0.0000000), wk =   0.0160000
        k(   47) = (  -0.2044757   0.2044757  -0.2969034), wk =   0.0320000
        k(   48) = (  -0.2044757   0.2044757  -0.5938068), wk =   0.0320000
        k(   49) = (  -0.2044744   0.4089528   0.0000000), wk =   0.0320000
        k(   50) = (  -0.2044744   0.4089528  -0.2969034), wk =   0.0640000
        k(   51) = (  -0.2044744   0.4089528  -0.5938068), wk =   0.0640000
        k(   52) = (  -0.4089515   0.4089515   0.0000000), wk =   0.0160000
        k(   53) = (  -0.4089515   0.4089515  -0.2969034), wk =   0.0320000
        k(   54) = (  -0.4089515   0.4089515  -0.5938068), wk =   0.0320000

     Largest allocated arrays     est. size (Mb)     dimensions
     Largest temporary arrays     est. size (Mb)     dimensions

     Check: negative/imaginary core charge=   -0.000008    0.000000

     Initial potential from superposition of free atoms
     Check: negative starting charge=(component1):   -0.065425
     Check: negative starting charge=(component2):   -0.065425

     starting charge   53.99996, renormalised to   56.00000

     negative rho (up, down):  0.678E-01 0.678E-01
     Starting wfc are   42 randomized atomic wfcs

     Self-consistent Calculation

     iteration #  1     ecut=    40.00 Ry     beta=0.30
     Davidson diagonalization with overlap
     c_bands:  1 eigenvalues not converged
     ethr =  1.00E-06,  avg # of iterations = 11.4

[...]

     total energy              =    -515.59289675 Ry
     Harris-Foulkes estimate   =    -515.59289640 Ry
     estimated scf accuracy    <       0.00000003 Ry

[...]

     iteration # 12     ecut=    40.00 Ry     beta=0.30
     Davidson diagonalization with overlap
     ethr =  5.35E-11,  avg # of iterations =  2.0

     negative rho (up, down):  0.730E-01 0.730E-01

     End of self-consistent calculation

 ------ SPIN UP ------------

[...]

 ------ SPIN DOWN ----------

[...]

          k = 0.4090 0.4090 0.5938 (  1845 PWs)   bands (ev):

[...]

          k =-0.4090 0.4090-0.5938 (  1845 PWs)   bands (ev):

   -60.8157 -60.8155 -31.0423 -31.0416 -30.7852 -30.7838 -30.6251 -30.6249
    -6.2154  -6.1149  -6.0017  -5.9054   5.6009   5.7454   5.8467   5.9632
     6.6813   7.0040   8.0304   8.1117   8.8625   9.0768   9.8892  10.1184
    11.7963  12.1354  12.2019  12.3838  12.7677  13.2685  15.1951  15.7534
    16.3556  16.8811  22.7062  23.0472  24.4280  25.2516  25.4632  26.0902
    26.9316  27.3440  29.9769  30.1158  31.6070  32.0913  33.9016  34.5515
    35.5596  35.9121  36.1170  37.1593  39.7237  39.8303  40.3993  40.8540
    41.9100  42.2713  43.3791  44.2808  44.4731  45.0861  45.3255  46.1536
    46.1887  46.2899  47.1899  47.4790  48.1369  49.0736  49.1266  50.1157
    50.5152  50.8081  50.9473  51.7826  52.0378  53.1939  53.3456  53.8829
    55.4881

     the Fermi energy is    12.6968 ev

!    total energy              =    -515.59289710 Ry
     Harris-Foulkes estimate   =    -515.59289676 Ry
     estimated scf accuracy    <          3.4E-09 Ry

     The total energy is the sum of the following terms:

     one-electron contribution =    -169.93246437 Ry
     hartree contribution      =     116.34433430 Ry
     xc contribution           =     -78.42109998 Ry
     ewald contribution        =    -383.58284136 Ry
     smearing contrib. (-TS)   =      -0.00082569 Ry

     total magnetization       =    -0.00 Bohr mag/cell
     absolute magnetization    =     0.00 Bohr mag/cell

     convergence has been achieved in  12 iterations

     Forces acting on atoms (Ry/au):

     negative rho (up, down):  0.730E-01 0.730E-01
     atom    1 type  1   force =     0.00000000    0.00000000    0.00000000
     atom    2 type  1   force =     0.00000000    0.00000000    0.00000000
     atom    3 type  2   force =     0.00020082    0.00020082    0.00000000
     atom    4 type  2   force =    -0.00020082   -0.00020082    0.00000000
     atom    5 type  2   force =     0.00020179   -0.00020179    0.00000000
     atom    6 type  2   force =    -0.00020179    0.00020179    0.00000000

     Total force =     0.000569     Total SCF correction =     0.000077
     SCF correction compared to forces is large: reduce conv_thr to get better values

     entering subroutine stress ...

     negative rho (up, down):  0.730E-01 0.730E-01
          total   stress  (Ry/bohr**3)                   (kbar)     P=  -19.59
  -0.00013879   0.00000017   0.00000000        -20.42      0.03      0.00
   0.00000017  -0.00013879   0.00000000          0.03    -20.42      0.00
   0.00000000   0.00000000  -0.00012187          0.00      0.00    -17.93

     General routines

     Parallel routines

   This run was terminated on:  18:58:44  31Jan2014

   JOB DONE.