     Program PWSCF v.5.0.2 (svn rev. 9656) starts on  1May2014 at  6:11:46

     Current dimensions of program PWSCF are:
     Max number of different atomic species (ntypx) = 10
     Max number of k-points (npk) =  40000
     Max angular momentum in pseudopotentials (lmaxx) =  3
     Reading input from pwscf.in
Warning: card &CELL ignored
Warning: card / ignored

     Subspace diagonalization in iterative solution of the eigenvalue problem:
     a serial algorithm will be used

     bravais-lattice index     =            0
     lattice parameter (alat)  =      10.1289  a.u.
     unit-cell volume          =    6836.7721 (a.u.)^3
     number of atoms/cell      =           31
     number of atomic types    =            3
     number of electrons       =       238.00
     number of Kohn-Sham states=          357
     kinetic-energy cutoff     =      40.0000  Ry
     charge density cutoff     =     500.0000  Ry
     convergence threshold     =      1.0E-06
     mixing beta               =       0.7000
     number of iterations used =            8  plain     mixing
     Exchange-correlation      = SLA  PW   PBE  PBE ( 1 4 3 4 0)
     EXX-fraction              =        0.00
     nstep                     =           50

     celldm(1)=  10.128932  celldm(2)=   0.000000  celldm(3)=   0.000000
     celldm(4)=   0.000000  celldm(5)=   0.000000  celldm(6)=   0.000000

     crystal axes: (cart. coord. in units of alat)
               a(1) = (   1.000000   0.000000   0.000000 )
               a(2) = (   0.000000   1.306037   0.000000 )
               a(3) = (   0.000000   0.000000   5.037380 )

     reciprocal axes: (cart. coord. in units 2 pi/alat)
               b(1) = (  1.000000  0.000000  0.000000 )
               b(2) = (  0.000000  0.765675  0.000000 )
               b(3) = (  0.000000  0.000000  0.198516 )

     PseudoPot. # 1 for O  read from file:
     /home/camp/zhonxu/pseudo/o_pbe_v1.01.uspp.F.UPF
     MD5 check sum: 2bcb18d16ea4b960afae9ec6d52f22d2
     Pseudo is Ultrasoft + core correction, Zval =  6.0
     Generated by new atomic code, or converted to UPF format
     Using radial grid of  737 points,  5 beta functions with:
                l(1) =   0
                l(2) =   0
                l(3) =   1
                l(4) =   1
                l(5) =   2
     Q(r) pseudized with  8 coefficients,  rinner =    0.900   0.900   0.900
                                                       0.900   0.900

     PseudoPot. # 2 for Re read from file:
     /home/camp/zhonxu/pseudo/re_pbe_v1.uspp.F.UPF
     MD5 check sum: 6f5a5dcaf9c96c20d0ffdde0de57afc6
     Pseudo is Ultrasoft + core correction, Zval = 15.0
     Generated by new atomic code, or converted to UPF format
     Using radial grid of  981 points,  8 beta functions with:
                l(1) =   0
                l(2) =   0
                l(3) =   1
                l(4) =   1
                l(5) =   2
                l(6) =   2
                l(7) =   3
                l(8) =   3
     Q(r) pseudized with  8 coefficients,  rinner =    1.000   1.000   1.000
                                                       1.000   1.000   1.000
                                                       1.000

     PseudoPot. # 3 for H  read from file:
     /home/camp/zhonxu/pseudo/h_pbe_v1.uspp.F.UPF
     MD5 check sum: 3408e3ff4ec8b0a4e358431e7e038a48
     Pseudo is Ultrasoft, Zval =  1.0
     Generated by new atomic code, or converted to UPF format
     Using radial grid of  615 points,  2 beta functions with:
                l(1) =   0
                l(2) =   0
     Q(r) pseudized with  8 coefficients,  rinner =    0.700

     atomic species   valence    mass     pseudopotential
        O0             6.00    15.99940     O ( 1.00)
        Re1           15.00   186.20700     Re( 1.00)
        H2             1.00     1.00794     H ( 1.00)

     Simplified LDA+U calculation (l_max = 2) with parameters (eV):
     atomic species    L          U    alpha       J0     beta
        Re1            2     6.5000   0.0000   0.0000   0.0000

     No symmetry found

   Cartesian axes

     site n.     atom                  positions (alat units)
         1           O0  tau(   1) = (   0.0000000   0.0000000   1.8646870  )
         2           O0  tau(   2) = (   0.0000000   0.6530184   1.9287121  )
         3           Re1 tau(   3) = (   0.2500000   0.6530184   2.2295948  )
         4           Re1 tau(   4) = (   0.0000000   0.0000000   2.2312068  )
         5           O0  tau(   5) = (   0.2500000   1.0187087   2.2244063  )
         6           O0  tau(   6) = (   0.2500000   0.2873281   2.2234996  )
         7           O0  tau(   7) = (   0.0000000   0.6530184   2.5067011  )
         8           O0  tau(   8) = (   0.0000000   0.0000000   2.5914802  )
         9           Re1 tau(   9) = (   0.2500000   0.0000000   2.8910532  )
        10           Re1 tau(  10) = (   0.0000000   0.6530184   2.8571012  )
        11           O0  tau(  11) = (   0.2500000   0.9403465   2.8803235  )
        12           O0  tau(  12) = (   0.2500000   0.3656903   2.8804747  )
        13           O0  tau(  13) = (   0.0000000   0.0000000   3.1540044  )
        14           O0  tau(  14) = (   0.5000000   0.0000000   1.8645359  )
        15           O0  tau(  15) = (   0.5000000   0.6530184   1.9300722  )
        16           Re1 tau(  16) = (   0.7500000   0.6530184   2.2295444  )
        17           Re1 tau(  17) = (   0.5000000   0.0000000   2.2295948  )
        18           O0  tau(  18) = (   0.7500000   1.0187087   2.2239529  )
        19           O0  tau(  19) = (   0.7500000   0.2873281   2.2238522  )
        20           O0  tau(  20) = (   0.5000000   0.6530184   2.5186397  )
        21           O0  tau(  21) = (   0.5000000   0.0000000   2.5912283  )
        22           Re1 tau(  22) = (   0.7500000   0.0000000   2.8912547  )
        23           Re1 tau(  23) = (   0.5000000   0.6530184   2.9058631  )
        24           O0  tau(  24) = (   0.7500000   0.9403465   2.8806762  )
        25           O0  tau(  25) = (   0.7500000   0.3656903   2.8804243  )
        26           O0  tau(  26) = (   0.5000000   0.0000000   3.1508309  )
        27           H2  tau(  27) = (  -0.0003300   0.8166387   1.8441345  )
        28           H2  tau(  28) = (   0.4996000   0.8128642   1.8387445  )
        29           H2  tau(  29) = (   0.1687200   0.0311098   1.7921991  )
        30           H2  tau(  30) = (   0.6701100   0.0285761   1.7932066  )
        31           O0  tau(  31) = (   0.4998900   0.6523393   3.2273487  )

     number of k points=    10  Methfessel-Paxton smearing, width (Ry)=  0.0100
                       cart. coord. in units 2pi/alat
        k(    1) = (   0.0000000   0.0000000   0.0000000), wk =   0.1250000
        k(    2) = (   0.0000000   0.1914188   0.0000000), wk =   0.2500000
        k(    3) = (   0.0000000  -0.3828376   0.0000000), wk =   0.1250000
        k(    4) = (   0.2500000   0.0000000   0.0000000), wk =   0.2500000
        k(    5) = (   0.2500000   0.1914188   0.0000000), wk =   0.2500000
        k(    6) = (   0.2500000  -0.3828376   0.0000000), wk =   0.2500000
        k(    7) = (  -0.5000000   0.0000000   0.0000000), wk =   0.1250000
        k(    8) = (  -0.5000000   0.1914188   0.0000000), wk =   0.2500000
        k(    9) = (  -0.5000000  -0.3828376   0.0000000), wk =   0.1250000
        k(   10) = (  -0.2500000   0.1914188   0.0000000), wk =   0.2500000

     Largest allocated arrays     est. size (Mb)     dimensions
     Largest temporary arrays     est. size (Mb)     dimensions

     Check: negative/imaginary core charge=   -0.000003    0.000000

     Initial potential from superposition of free atoms
     Check: negative starting charge=   -0.237495

     starting charge  233.99958, renormalised to  238.00000

     negative rho (up, down):  0.242E+00 0.000E+00
     Number of +U iterations with fixed ns =  0
     Starting occupations:
 --- enter write_ns ---
 LDA+U parameters:
U( 2)     =  6.50000000
alpha( 2) =  0.00000000
atom    3   Tr[ns(na)] =   5.00000
    eigenvalues:
  0.500  0.500  0.500  0.500  0.500
    eigenvectors:
  1.000  0.000  0.000  0.000  0.000
  0.000  1.000  0.000  0.000  0.000
  0.000  0.000  1.000  0.000  0.000
  0.000  0.000  0.000  1.000  0.000
  0.000  0.000  0.000  0.000  1.000
    occupations:
  0.500  0.000  0.000  0.000  0.000
  0.000  0.500  0.000  0.000  0.000
  0.000  0.000  0.500  0.000  0.000
  0.000  0.000  0.000  0.500  0.000
  0.000  0.000  0.000  0.000  0.500
atom    4   Tr[ns(na)] =   5.00000
    eigenvalues:
  0.500  0.500  0.500  0.500  0.500
    eigenvectors:
  1.000  0.000  0.000  0.000  0.000
  0.000  1.000  0.000  0.000  0.000
  0.000  0.000  1.000  0.000  0.000
  0.000  0.000  0.000  1.000  0.000
  0.000  0.000  0.000  0.000  1.000
    occupations:
  0.500  0.000  0.000  0.000  0.000
  0.000  0.500  0.000  0.000  0.000
  0.000  0.000  0.500  0.000  0.000
  0.000  0.000  0.000  0.500  0.000
  0.000  0.000  0.000  0.000  0.500
atom    9   Tr[ns(na)] =   5.00000
    eigenvalues:
  0.500  0.500  0.500  0.500  0.500
    eigenvectors:
  1.000  0.000  0.000  0.000  0.000
  0.000  1.000  0.000  0.000  0.000
  0.000  0.000  1.000  0.000  0.000
  0.000  0.000  0.000  1.000  0.000
  0.000  0.000  0.000  0.000  1.000
    occupations:
  0.500  0.000  0.000  0.000  0.000
  0.000  0.500  0.000  0.000  0.000
  0.000  0.000  0.500  0.000  0.000
  0.000  0.000  0.000  0.500  0.000
  0.000  0.000  0.000  0.000  0.500
atom   10   Tr[ns(na)] =   5.00000
    eigenvalues:
  0.500  0.500  0.500  0.500  0.500
    eigenvectors:
  1.000  0.000  0.000  0.000  0.000
  0.000  1.000  0.000  0.000  0.000
  0.000  0.000  1.000  0.000  0.000
  0.000  0.000  0.000  1.000  0.000
  0.000  0.000  0.000  0.000  1.000
    occupations:
  0.500  0.000  0.000  0.000  0.000
  0.000  0.500  0.000  0.000  0.000
  0.000  0.000  0.500  0.000  0.000
  0.000  0.000  0.000  0.500  0.000
  0.000  0.000  0.000  0.000  0.500
atom   16   Tr[ns(na)] =   5.00000
    eigenvalues:
  0.500  0.500  0.500  0.500  0.500
    eigenvectors:
  1.000  0.000  0.000  0.000  0.000
  0.000  1.000  0.000  0.000  0.000
  0.000  0.000  1.000  0.000  0.000
  0.000  0.000  0.000  1.000  0.000
  0.000  0.000  0.000  0.000  1.000
    occupations:
  0.500  0.000  0.000  0.000  0.000
  0.000  0.500  0.000  0.000  0.000
  0.000  0.000  0.500  0.000  0.000
  0.000  0.000  0.000  0.500  0.000
  0.000  0.000  0.000  0.000  0.500
atom   17   Tr[ns(na)] =   5.00000
    eigenvalues:
  0.500  0.500  0.500  0.500  0.500
    eigenvectors:
  1.000  0.000  0.000  0.000  0.000
  0.000  1.000  0.000  0.000  0.000
  0.000  0.000  1.000  0.000  0.000
  0.000  0.000  0.000  1.000  0.000
  0.000  0.000  0.000  0.000  1.000
    occupations:
  0.500  0.000  0.000  0.000  0.000
  0.000  0.500  0.000  0.000  0.000
  0.000  0.000  0.500  0.000  0.000
  0.000  0.000  0.000  0.500  0.000
  0.000  0.000  0.000  0.000  0.500
atom   22   Tr[ns(na)] =   5.00000
    eigenvalues:
  0.500  0.500  0.500  0.500  0.500
    eigenvectors:
  1.000  0.000  0.000  0.000  0.000
  0.000  1.000  0.000  0.000  0.000
  0.000  0.000  1.000  0.000  0.000
  0.000  0.000  0.000  1.000  0.000
[...]
  0.999  0.000  0.000  0.000  0.001
  0.000  0.862  0.000  0.137  0.000
  0.001  0.000  0.000  0.001  0.998
    occupations:
  0.687  0.001 -0.001 -0.038  0.003
  0.001  0.622  0.000 -0.001  0.000
 -0.001  0.000  0.565  0.001 -0.007
 -0.038 -0.001  0.001  0.607 -0.001
  0.003  0.000 -0.007 -0.001  0.819
atom   10   Tr[ns(na)] =   6.58889
    eigenvalues:
  0.437  0.542  0.688  0.709  0.919
    eigenvectors:
  0.999  0.000  0.000  0.001  0.000
  0.000  0.000  0.000  0.000  1.000
  0.000  0.001  0.996  0.003  0.000
  0.001  0.000  0.003  0.996  0.000
  0.000  0.999  0.001  0.000  0.000
    occupations:
  0.437  0.001 -0.001  0.009 -0.000
  0.001  0.919  0.002  0.002  0.000
 -0.001  0.002  0.688  0.001 -0.004
  0.009  0.002  0.001  0.708  0.000
 -0.000  0.000 -0.004  0.000  0.542
atom   16   Tr[ns(na)] =   6.58974
    eigenvalues:
  0.491  0.534  0.572  0.785  0.913
    eigenvectors:
  0.008  0.007  0.269  0.715  0.000
  0.001  0.977  0.022  0.000  0.001
  0.981  0.000  0.002  0.007  0.010
  0.000  0.015  0.707  0.278  0.000
  0.010  0.001  0.000  0.000  0.989
    occupations:
  0.723 -0.004  0.022 -0.095 -0.003
 -0.004  0.535 -0.002 -0.004 -0.009
  0.022 -0.002  0.498 -0.010  0.042
 -0.095 -0.004 -0.010  0.630  0.001
 -0.003 -0.009  0.042  0.001  0.909
atom   17   Tr[ns(na)] =   6.60975
    eigenvalues:
  0.557  0.578  0.618  0.752  0.800
    eigenvectors:
  0.000  0.000  0.994  0.000  0.006
  0.004  0.000  0.000  0.995  0.000
  0.995  0.001  0.000  0.004  0.000
  0.000  0.000  0.006  0.000  0.994
  0.001  0.999  0.000  0.000  0.000
    occupations:
  0.619  0.002  0.001 -0.014  0.001
  0.002  0.751  0.013 -0.001 -0.001
  0.001  0.013  0.558  0.001 -0.001
 -0.014 -0.001  0.001  0.799 -0.000
  0.001 -0.001 -0.001 -0.000  0.578
atom   22   Tr[ns(na)] =   6.63606
    eigenvalues:
  0.519  0.584  0.586  0.803  0.826
    eigenvectors:
  0.000  0.209  0.025  0.752  0.014
  0.000  0.101  0.899  0.000  0.000
  0.997  0.000  0.000  0.000  0.003
  0.000  0.690  0.076  0.229  0.004
  0.003  0.000  0.000  0.019  0.979
    occupations:
  0.752 -0.001  0.001 -0.093  0.003
 -0.001  0.585  0.000  0.001 -0.000
  0.001  0.000  0.520 -0.001  0.016
 -0.093  0.001 -0.001  0.636 -0.002
  0.003 -0.000  0.016 -0.002  0.825
atom   23   Tr[ns(na)] =   6.62630
    eigenvalues:
  0.589  0.590  0.605  0.670  0.859
    eigenvectors:
  0.000  0.000  0.000  0.985  0.015
  0.893  0.106  0.001  0.000  0.000
  0.002  0.001  0.997  0.000  0.000
  0.000  0.000  0.000  0.015  0.985
  0.105  0.894  0.002  0.000  0.000
    occupations:
  0.673 -0.001 -0.000 -0.023 -0.000
 -0.001  0.589  0.001 -0.001 -0.000
 -0.000  0.001  0.604  0.001  0.001
 -0.023 -0.001  0.001  0.856  0.000
 -0.000 -0.000  0.001  0.000  0.590
N of occupied +U levels =  52.8384152
 --- exit write_ns ---

     Threshold (ethr) on eigenvalues was too large:
     Diagonalizing with lowered threshold

     Davidson diagonalization with overlap
     ethr =  6.60E-09,  avg # of iterations =  2.0

[...]

     total energy              =   -2171.24880623 Ry
     Harris-Foulkes estimate   =   -2171.24880623 Ry
     estimated scf accuracy    <       0.00000010 Ry

     iteration # 14     ecut=    40.00 Ry     beta=0.70
     Davidson diagonalization with overlap
     ethr =  5.72E-12,  avg # of iterations =  1.0

     negative rho (up, down):  0.238E+00 0.000E+00

     End of self-consistent calculation
 --- enter write_ns ---
 LDA+U parameters:
U( 2)     =  6.50000000
alpha( 2) =  0.00000000
atom    3   Tr[ns(na)] =   6.57056
    eigenvalues:
  0.466  0.536  0.574  0.791  0.917
    eigenvectors:
  0.009  0.005  0.268  0.719  0.000
  0.000  0.984  0.015  0.000  0.001
  0.988  0.000  0.001  0.008  0.003
  0.000  0.010  0.716  0.273  0.000
  0.003  0.001  0.000  0.000  0.996
    occupations:
  0.729  0.004  0.026 -0.096  0.002
  0.004  0.537  0.001  0.003 -0.010
  0.026  0.001  0.471 -0.012 -0.026
 -0.096  0.003 -0.012  0.633 -0.000
  0.002 -0.010 -0.026 -0.000  0.915
atom    4   Tr[ns(na)] =   6.61607
    eigenvalues:
  0.562  0.576  0.616  0.758  0.796
    eigenvectors:
  0.000  0.001  0.993  0.000  0.006
  0.006  0.000  0.001  0.990  0.003
  0.993  0.000  0.000  0.006  0.000
  0.000  0.000  0.006  0.003  0.991
  0.000  0.999  0.001  0.000  0.000
    occupations:
  0.617  0.003  0.000 -0.013  0.001
  0.003  0.757  0.016 -0.002 -0.001
  0.000  0.016  0.563 -0.000 -0.000
 -0.013 -0.002 -0.000  0.795 -0.000
  0.001 -0.001 -0.000 -0.000  0.576
atom    9   Tr[ns(na)] =   6.60204
    eigenvalues:
  0.565  0.592  0.622  0.703  0.819
    eigenvectors:
  0.000  0.138  0.000  0.861  0.001
  0.000  0.000  1.000  0.000  0.000
  0.999  0.000  0.000  0.000  0.001
  0.000  0.862  0.000  0.138  0.000
  0.001  0.000  0.000  0.001  0.998
    occupations:
  0.687  0.001 -0.001 -0.038  0.003
  0.001  0.622  0.000 -0.001  0.000
 -0.001  0.000  0.565  0.001 -0.007
 -0.038 -0.001  0.001  0.607 -0.001
  0.003  0.000 -0.007 -0.001  0.819
atom   10   Tr[ns(na)] =   6.58926
    eigenvalues:
  0.437  0.542  0.688  0.709  0.919
    eigenvectors:
  0.999  0.000  0.000  0.001  0.000
  0.000  0.000  0.000  0.000  1.000
  0.000  0.001  0.996  0.003  0.000
  0.001  0.000  0.003  0.996  0.000
  0.000  0.999  0.001  0.000  0.000
    occupations:
  0.437  0.001 -0.001  0.009 -0.000
  0.001  0.919  0.002  0.002  0.000
 -0.001  0.002  0.688  0.001 -0.004
  0.009  0.002  0.001  0.708  0.000
 -0.000  0.000 -0.004  0.000  0.542
atom   16   Tr[ns(na)] =   6.58918
    eigenvalues:
  0.491  0.534  0.572  0.785  0.913
    eigenvectors:
  0.008  0.007  0.269  0.715  0.000
  0.000  0.977  0.022  0.000  0.001
  0.981  0.000  0.002  0.007  0.010
  0.000  0.015  0.707  0.278  0.000
  0.010  0.001  0.000  0.000  0.989
    occupations:
  0.723 -0.004  0.022 -0.095 -0.003
 -0.004  0.535 -0.002 -0.004 -0.009
  0.022 -0.002  0.498 -0.010  0.042
 -0.095 -0.004 -0.010  0.630  0.001
 -0.003 -0.009  0.042  0.001  0.909
atom   17   Tr[ns(na)] =   6.60921
    eigenvalues:
  0.557  0.578  0.618  0.752  0.800
    eigenvectors:
  0.000  0.000  0.994  0.000  0.006
  0.004  0.000  0.000  0.995  0.000
  0.995  0.001  0.000  0.004  0.000
  0.000  0.000  0.006  0.000  0.994
  0.001  0.999  0.000  0.000  0.000
    occupations:
  0.619  0.002  0.001 -0.014  0.001
  0.002  0.751  0.013 -0.001 -0.001
  0.001  0.013  0.557  0.001 -0.001
 -0.014 -0.001  0.001  0.799 -0.000
  0.001 -0.001 -0.001 -0.000  0.578
atom   22   Tr[ns(na)] =   6.63579
    eigenvalues:
  0.519  0.584  0.586  0.803  0.826
    eigenvectors:
  0.000  0.208  0.026  0.752  0.014
  0.000  0.106  0.894  0.000  0.000
  0.997  0.000  0.000  0.000  0.003
  0.000  0.686  0.080  0.229  0.004
  0.003  0.000  0.000  0.018  0.979
    occupations:
  0.752 -0.001  0.001 -0.093  0.003
 -0.001  0.585  0.000  0.001 -0.000
  0.001  0.000  0.520 -0.001  0.016
 -0.093  0.001 -0.001  0.636 -0.002
  0.003 -0.000  0.016 -0.002  0.825
atom   23   Tr[ns(na)] =   6.62658
    eigenvalues:
  0.589  0.590  0.605  0.670  0.859
    eigenvectors:
  0.000  0.000  0.000  0.985  0.015
  0.877  0.122  0.001  0.000  0.000
  0.002  0.001  0.997  0.000  0.000
  0.000  0.000  0.000  0.015  0.985
  0.121  0.878  0.002  0.000  0.000
    occupations:
  0.673 -0.001 -0.000 -0.023 -0.000
 -0.001  0.590  0.001 -0.001 -0.000
 -0.000  0.001  0.605  0.001  0.001
 -0.023 -0.001  0.001  0.856  0.000
 -0.000 -0.000  0.001  0.000  0.590
N of occupied +U levels =  52.8386926
 --- exit write_ns ---

[...]

          k = 0.2500-0.3828 0.0000 ( 29202 PWs)   bands (ev):

[...]

          k =-0.2500 0.1914 0.0000 ( 29229 PWs)   bands (ev):

   -81.7409 -81.0637 -80.9950 -80.8599 -80.5485 -80.4701 -80.4577 -80.1922
   -44.0743 -43.5871 -43.4071 -43.0877 -43.0775 -43.0462 -42.9948 -42.9298
   -42.8825 -42.8442 -42.8437 -42.7608 -42.7025 -42.5242 -42.4977 -42.4899
   -42.4490 -42.3776 -42.3691 -42.2564 -42.0962 -42.0278 -42.0211 -41.7555
   -21.0003 -20.6040 -20.5711 -20.3757 -20.2406 -20.1044 -20.0629 -19.9976
   -19.9669 -19.7702 -19.7605 -19.4991 -19.4724 -19.3292 -19.2220 -19.2001
   -18.6634 -18.6120 -18.4132  -9.4997  -9.3254  -9.2353  -9.2030  -9.0798
    -8.9636  -8.6960  -8.6001  -8.3590  -8.2737  -8.1455  -8.1051  -7.8955
    -7.5979  -7.4892  -7.4178  -7.1717  -7.0375  -6.9719  -6.8982  -6.7753
    -6.5934  -6.4642  -6.3237  -6.0755  -6.0411  -5.9143  -5.7884  -5.7029
    -5.6084  -5.5527  -5.3959  -5.2680  -5.1972  -5.0868  -5.0365  -4.9578
    -4.8608  -4.8091  -4.7402  -4.4690  -4.4509  -4.3017  -4.2235  -4.1251
    -4.0386  -3.9872  -3.8788  -3.8044  -3.6345  -3.5613  -3.5220  -3.3840
    -3.2202  -3.0803  -3.0046  -2.9214  -2.6617  -2.5766  -2.3674  -1.7852
    -1.4542  -1.4143  -1.2148  -0.5664  -0.4590  -0.3023   0.0565   0.2788
     0.4458   0.6528   0.7409   1.0299   1.0875   1.2375   1.3219   1.3906
     1.5242   1.5737   1.6742   2.1676   2.4476   3.4111   3.5130   3.6106
     3.7807   3.9844   4.1186   4.3515   4.4646   4.5253   4.6842   4.8282
     4.9122   5.2315   5.4982   5.6825   5.8275   5.9606   6.0744   6.2529
     6.3504   6.5289   6.7329   6.8445   7.1551   7.2790   7.4256   7.5342
     7.5941   7.8621   8.0058   8.1412   8.2926   8.3972   8.5333   8.6204
     8.6800   8.7303   8.9370   9.1025   9.1797   9.3873   9.4743   9.6221
     9.6952   9.8096   9.9098   9.9365   9.9681  10.0294  10.0904  10.2632
    10.2943  10.3792  10.4590  10.5588  10.6318  10.7205  10.8381  10.8832
    11.0547  11.1117  11.2418  11.3843  11.5032  11.5939  11.6247  11.8211
    11.8939  11.9236  12.1488  12.3097  12.4061  12.4958  12.5715  12.6325
    12.7152  12.7769  12.8481  12.9455  12.9787  13.0314  13.1840  13.3028
    13.3417  13.4934  13.5724  13.6462  13.7145  13.7604  13.7996  13.8858
    13.9430  14.0117  14.0779  14.1622  14.2057  14.2490  14.3170  14.4516
    14.5160  14.5472  14.6622  14.6878  14.7805  14.8456  14.8873  14.9251
    14.9828  15.0221  15.1054  15.1681  15.1969  15.2952  15.3265  15.4599
    15.5739  15.6056  15.6867  15.8173  15.9128  16.0663  16.1092  16.1706
    16.2324  16.3335  16.3647  16.4619  16.5549  16.5816  16.6252  16.7212
    16.7312  16.8785  16.9817  17.0928  17.1418  17.2124  17.2837  17.3835
    17.4614  17.5204  17.6038  17.7594  17.8049  17.8212  17.9388  18.0005
    18.0360  18.0976  18.1344  18.2584  18.2822  18.3632  18.4340  18.4776
    18.5476  18.6301  18.6714  18.7856  18.8112  18.9112  18.9937  19.0548
    19.0876  19.2481  19.3573  19.3856  19.5332  19.5914  19.6253  19.7219
    19.7890  19.9782  20.0259  20.0754  20.1672  20.2332  20.3093  20.4373
    20.5156  20.5201  20.5909  20.6405  20.7328  20.8008  20.8583  20.9048
    20.9361  21.0190  21.0890  21.1430  21.2093  21.2636  21.3374  21.4015
    21.4630  21.4848  21.5392  21.6495  21.6823  21.7384  21.8235  21.9143
    21.9872  22.0918  22.1140  22.1579  22.2481  22.2815  22.3607  22.4096
    22.4357  22.4981  22.5537  22.5621  22.6484  22.6956  22.7606  22.7928
    22.8269  22.8895  22.9769  23.0132  23.0486

     the Fermi energy is     0.0697 ev

!    total energy              =   -2171.24880623 Ry
     Harris-Foulkes estimate   =   -2171.24880623 Ry
     estimated scf accuracy    <          6.4E-09 Ry

     The total energy is the sum of the following terms:

     one-electron contribution =  -24304.35361198 Ry
     hartree contribution      =   12169.66144803 Ry
     xc contribution           =    -594.48387667 Ry
     ewald contribution        =   10553.96601451 Ry
     Hubbard energy            =       3.96163365 Ry
     smearing contrib. (-TS)   =      -0.00041376 Ry

     convergence has been achieved in  14 iterations

     Forces acting on atoms (Ry/au):

     negative rho (up, down):  0.238E+00 0.000E+00
     atom    1 type  1   force =    -0.00453846   -0.00539507   -0.00033513
     atom    2 type  1   force =     0.00064479    0.00506185    0.00034913
     atom    3 type  2   force =     0.02794636   -0.00215737    0.00016864
     atom    4 type  2   force =    -0.00136279    0.00542125   -0.00031927
     atom    5 type  1   force =     0.00145675    0.00699478    0.00015514
     atom    6 type  1   force =     0.00126789   -0.00749929    0.00023120
     atom    7 type  1   force =    -0.00349753   -0.00021380   -0.00048672
     atom    8 type  1   force =     0.01468856   -0.00055664   -0.00049494
     atom    9 type  2   force =    -0.00640410    0.00080057   -0.00003519
     atom   10 type  2   force =    -0.00321722   -0.00196724   -0.00037047
     atom   11 type  1   force =    -0.01506597   -0.00235810    0.00014268
     atom   12 type  1   force =    -0.01692518    0.00286899    0.00017644
     atom   13 type  1   force =     0.00894111   -0.00041880    0.00048582
     atom   14 type  1   force =    -0.00213471   -0.00482015   -0.00030059
     atom   15 type  1   force =     0.00065766    0.00287974    0.00054404
     atom   16 type  2   force =    -0.02459804   -0.00084376    0.00010732
     atom   17 type  2   force =     0.00249118    0.00687467   -0.00016713
     atom   18 type  1   force =     0.00094169    0.01001406    0.00026274
     atom   19 type  1   force =     0.00005526   -0.01150465    0.00030705
     atom   20 type  1   force =    -0.00236583   -0.00272090   -0.00004664
     atom   21 type  1   force =    -0.00601774   -0.00107738   -0.00030440
     atom   22 type  2   force =    -0.00011819    0.00176029    0.00037274
     atom   23 type  2   force =     0.00351141    0.00077010    0.00003896
     atom   24 type  1   force =     0.01645121   -0.00750102   -0.00042764
     atom   25 type  1   force =     0.01631685    0.00713351   -0.00040592
     atom   26 type  1   force =    -0.00989821   -0.00042849    0.00049682
     atom   27 type  3   force =     0.00005503   -0.00037933   -0.00015904
     atom   28 type  3   force =     0.00001815   -0.00041137    0.00007760
     atom   29 type  3   force =     0.00010935   -0.00020050   -0.00010718
     atom   30 type  3   force =     0.00001203   -0.00013586   -0.00021320
     atom   31 type  1   force =     0.00057869    0.00000992    0.00025715

     Total force =     0.001909     Total SCF correction =     0.000394
     SCF correction compared to forces is large: reduce conv_thr to get better values

     bfgs converged in  19 scf cycles and  18 bfgs steps
     (criteria: energy < 0.10E-03, force < 0.10E-02)

     End of BFGS Geometry Optimization

     Final energy   =   -2171.2488062278 Ry
Begin final coordinates

ATOMIC_POSITIONS (crystal)
O0       0.000000000   0.000000000   0.371539715    0   0   1
O0       0.000000000   0.500000000   0.383554740    0   0   1
Re1      0.250000000   0.500000000   0.442496929    0   0   1
Re1      0.000000000   0.000000000   0.443487298    0   0   1
O0       0.250000000   0.780000000   0.441701418    0   0   1
O0       0.250000000   0.220000000   0.441532416    0   0   1
O0       0.000000000   0.500000000   0.497106751    0   0   1
O0       0.000000000   0.000000000   0.513817292    0   0   1
Re1      0.250000000   0.000000000   0.576048845    0   0   1
Re1      0.000000000   0.500000000   0.567578258    0   0   1
O0       0.250000000   0.720000000   0.571010968    0   0   1
O0       0.250000000   0.280000000   0.571166632    0   0   1
O0       0.000000000   0.000000000   0.625914926    0   0   1
O0       0.500000000   0.000000000   0.371703499    0   0   1
O0       0.500000000   0.500000000   0.383749190    0   0   1
Re1      0.750000000   0.500000000   0.442615026    0   0   1
Re1      0.500000000   0.000000000   0.443439660    0   0   1
O0       0.750000000   0.780000000   0.441768159    0   0   1
O0       0.750000000   0.220000000   0.441798641    0   0   1
O0       0.500000000   0.500000000   0.500585125    0   0   1
O0       0.500000000   0.000000000   0.513867241    0   0   1
Re1      0.750000000   0.000000000   0.571823762    0   0   1
Re1      0.500000000   0.500000000   0.575487310    0   0   1
O0       0.750000000   0.720000000   0.570364334    0   0   1
O0       0.750000000   0.280000000   0.570186399    0   0   1
O0       0.500000000   0.000000000   0.625428478    0   0   1
H2       0.000104028   0.624995683   0.366711918
H2       0.499569983   0.620196879   0.364779733
H2       0.168451036   0.023161928   0.356815239
H2       0.669928611   0.020523443   0.357208355
O0       0.500936937   0.499029055   0.638561743
End final coordinates

     General routines

     Parallel routines
     Hubbard U routines

   This run was terminated on:  15: 4:56   2May2014

   JOB DONE.
Running PBS batch system epilogue script
Job id: 340616.audhumbla.fysik.dtu.dk
Username: zhonxu
Groupname: campgst
Jobname: ReO2/Eads-2-layers/O-U-6.5
Sessionid: 1260
Queuename: verylong
Accounting:
This job has allocated the following 16 nodes:
a027 a027 a027 a027 a027 a027 a027 a027 a017 a017 a017 a017 a017 a017 a017 a017
Finished epilogue job 340616.audhumbla.fysik.dtu.dk for zhonxu