     Program PWSCF v.5.0.2 (svn rev. 9656) starts on 10May2014 at  9:24: 7

     Current dimensions of program PWSCF are:
     Max number of different atomic species (ntypx) = 10
     Max number of k-points (npk) =  40000
     Max angular momentum in pseudopotentials (lmaxx) =  3
     Reading input from pwscf.in
Warning: card &CELL ignored
Warning: card / ignored

     Subspace diagonalization in iterative solution of the eigenvalue problem:
     a serial algorithm will be used

     bravais-lattice index     =            0
     lattice parameter (alat)  =      10.1289  a.u.
     unit-cell volume          =    6836.7721 (a.u.)^3
     number of atoms/cell      =           32
     number of atomic types    =            3
     number of electrons       =       239.00
     number of Kohn-Sham states=          358
     kinetic-energy cutoff     =      40.0000  Ry
     charge density cutoff     =     500.0000  Ry
     convergence threshold     =      1.0E-06
     mixing beta               =       0.7000
     number of iterations used =            8  plain     mixing
     Exchange-correlation      = SLA  PW   PBE  PBE ( 1 4 3 4 0)
     EXX-fraction              =        0.00
     nstep                     =           50

     celldm(1)=  10.128932  celldm(2)=   0.000000  celldm(3)=   0.000000
     celldm(4)=   0.000000  celldm(5)=   0.000000  celldm(6)=   0.000000

     crystal axes: (cart. coord. in units of alat)
               a(1) = (   1.000000   0.000000   0.000000 )
               a(2) = (   0.000000   1.306037   0.000000 )
               a(3) = (   0.000000   0.000000   5.037380 )

     reciprocal axes: (cart. coord. in units 2 pi/alat)
               b(1) = (  1.000000  0.000000  0.000000 )
               b(2) = (  0.000000  0.765675  0.000000 )
               b(3) = (  0.000000  0.000000  0.198516 )

     PseudoPot. # 1 for O  read from file:
     /home/camp/zhonxu/pseudo/o_pbe_v1.01.uspp.F.UPF
     MD5 check sum: 2bcb18d16ea4b960afae9ec6d52f22d2
     Pseudo is Ultrasoft + core correction, Zval =  6.0
     Generated by new atomic code, or converted to UPF format
     Using radial grid of  737 points,  5 beta functions with:
                l(1) =   0
                l(2) =   0
                l(3) =   1
                l(4) =   1
                l(5) =   2
     Q(r) pseudized with  8 coefficients,  rinner =    0.900   0.900   0.900
                                                       0.900   0.900

     PseudoPot. # 2 for Re read from file:
     /home/camp/zhonxu/pseudo/re_pbe_v1.uspp.F.UPF
     MD5 check sum: 6f5a5dcaf9c96c20d0ffdde0de57afc6
     Pseudo is Ultrasoft + core correction, Zval = 15.0
     Generated by new atomic code, or converted to UPF format
     Using radial grid of  981 points,  8 beta functions with:
                l(1) =   0
                l(2) =   0
                l(3) =   1
                l(4) =   1
                l(5) =   2
                l(6) =   2
                l(7) =   3
                l(8) =   3
     Q(r) pseudized with  8 coefficients,  rinner =    1.000   1.000   1.000
                                                       1.000   1.000   1.000
                                                       1.000

     PseudoPot. # 3 for H  read from file:
     /home/camp/zhonxu/pseudo/h_pbe_v1.uspp.F.UPF
     MD5 check sum: 3408e3ff4ec8b0a4e358431e7e038a48
     Pseudo is Ultrasoft, Zval =  1.0
     Generated by new atomic code, or converted to UPF format
     Using radial grid of  615 points,  2 beta functions with:
                l(1) =   0
                l(2) =   0
     Q(r) pseudized with  8 coefficients,  rinner =    0.700

     atomic species   valence    mass     pseudopotential
        O0             6.00    15.99940     O ( 1.00)
        Re1           15.00   186.20700     Re( 1.00)
        H2             1.00     1.00794     H ( 1.00)

     Simplified LDA+U calculation (l_max = 2) with parameters (eV):
     atomic species    L          U    alpha       J0     beta
        Re1            2     0.0000   0.0000   0.0000   0.0000

     No symmetry found

   Cartesian axes

     site n.     atom                  positions (alat units)
         1           O0  tau(   1) = (   0.0000000   0.0000000   1.8669538  )
         2           O0  tau(   2) = (   0.0000000   0.6530184   1.9246318  )
         3           Re1 tau(   3) = (   0.2500000   0.6530184   2.2252626  )
         4           Re1 tau(   4) = (   0.0000000   0.0000000   2.2335239  )
         5           O0  tau(   5) = (   0.2500000   1.0187087   2.2252626  )
         6           O0  tau(   6) = (   0.2500000   0.2873281   2.2245574  )
         7           O0  tau(   7) = (   0.0000000   0.6530184   2.5039809  )
         8           O0  tau(   8) = (   0.0000000   0.0000000   2.5944019  )
         9           Re1 tau(   9) = (   0.2500000   0.0000000   2.8956372  )
        10           Re1 tau(  10) = (   0.0000000   0.6530184   2.8532728  )
        11           O0  tau(  11) = (   0.2500000   0.9403465   2.8863684  )
        12           O0  tau(  12) = (   0.2500000   0.3656903   2.8866706  )
        13           O0  tau(  13) = (   0.0000000   0.0000000   3.1589410  )
        14           O0  tau(  14) = (   0.5000000   0.0000000   1.8671553  )
        15           O0  tau(  15) = (   0.5000000   0.6530184   1.9260926  )
        16           Re1 tau(  16) = (   0.7500000   0.6530184   2.2254138  )
        17           Re1 tau(  17) = (   0.5000000   0.0000000   2.2327683  )
        18           O0  tau(  18) = (   0.7500000   1.0187087   2.2250108  )
        19           O0  tau(  19) = (   0.7500000   0.2873281   2.2249100  )
        20           O0  tau(  20) = (   0.5000000   0.6530184   2.5136527  )
        21           O0  tau(  21) = (   0.5000000   0.0000000   2.5937470  )
        22           Re1 tau(  22) = (   0.7500000   0.0000000   2.8949319  )
        23           Re1 tau(  23) = (   0.5000000   0.6530184   2.8846557  )
        24           O0  tau(  24) = (   0.7500000   0.9403465   2.8822881  )
        25           O0  tau(  25) = (   0.7500000   0.3656903   2.8822881  )
        26           O0  tau(  26) = (   0.5000000   0.0000000   3.1556667  )
        27           H2  tau(  27) = (  -0.0003600   0.8163644   1.8395505  )
        28           H2  tau(  28) = (   0.4996200   0.8138568   1.8363769  )
        29           H2  tau(  29) = (   0.1695000   0.0302217   1.7958260  )
        30           H2  tau(  30) = (   0.6704500   0.0285761   1.7967327  )
        31           O0  tau(  31) = (   0.5277600   0.6525874   3.2436194  )
        32           H2  tau(  32) = (   0.3788200   0.6519344   3.3501096  )

     number of k points=    10  Methfessel-Paxton smearing, width (Ry)=  0.0100
                       cart. coord. in units 2pi/alat
        k(    1) = (   0.0000000   0.0000000   0.0000000), wk =   0.1250000
        k(    2) = (   0.0000000   0.1914188   0.0000000), wk =   0.2500000
        k(    3) = (   0.0000000  -0.3828376   0.0000000), wk =   0.1250000
        k(    4) = (   0.2500000   0.0000000   0.0000000), wk =   0.2500000
        k(    5) = (   0.2500000   0.1914188   0.0000000), wk =   0.2500000
        k(    6) = (   0.2500000  -0.3828376   0.0000000), wk =   0.2500000
        k(    7) = (  -0.5000000   0.0000000   0.0000000), wk =   0.1250000
        k(    8) = (  -0.5000000   0.1914188   0.0000000), wk =   0.2500000
        k(    9) = (  -0.5000000  -0.3828376   0.0000000), wk =   0.1250000
        k(   10) = (  -0.2500000   0.1914188   0.0000000), wk =   0.2500000

     Largest allocated arrays     est. size (Mb)     dimensions
     Largest temporary arrays     est. size (Mb)     dimensions

     Check: negative/imaginary core charge=   -0.000003    0.000000

     Initial potential from superposition of free atoms
     Check: negative starting charge=   -0.237247

     starting charge  234.99957, renormalised to  239.00000

     negative rho (up, down):  0.241E+00 0.000E+00
     Number of +U iterations with fixed ns =  0
     Starting occupations:
 --- enter write_ns ---
 LDA+U parameters:
U( 2)     =  0.00000000
alpha( 2) =  0.00000000
atom    3   Tr[ns(na)] =   5.00000
    eigenvalues:
  0.500  0.500  0.500  0.500  0.500
    eigenvectors:
  1.000  0.000  0.000  0.000  0.000
  0.000  1.000  0.000  0.000  0.000
  0.000  0.000  1.000  0.000  0.000
  0.000  0.000  0.000  1.000  0.000
  0.000  0.000  0.000  0.000  1.000
    occupations:
  0.500  0.000  0.000  0.000  0.000
  0.000  0.500  0.000  0.000  0.000
  0.000  0.000  0.500  0.000  0.000
  0.000  0.000  0.000  0.500  0.000
  0.000  0.000  0.000  0.000  0.500
atom    4   Tr[ns(na)] =   5.00000
    eigenvalues:
  0.500  0.500  0.500  0.500  0.500
    eigenvectors:
  1.000  0.000  0.000  0.000  0.000
  0.000  1.000  0.000  0.000  0.000
  0.000  0.000  1.000  0.000  0.000
  0.000  0.000  0.000  1.000  0.000
  0.000  0.000  0.000  0.000  1.000
    occupations:
  0.500  0.000  0.000  0.000  0.000
  0.000  0.500  0.000  0.000  0.000
  0.000  0.000  0.500  0.000  0.000
  0.000  0.000  0.000  0.500  0.000
  0.000  0.000  0.000  0.000  0.500
atom    9   Tr[ns(na)] =   5.00000
    eigenvalues:
  0.500  0.500  0.500  0.500  0.500
    eigenvectors:
  1.000  0.000  0.000  0.000  0.000
  0.000  1.000  0.000  0.000  0.000
  0.000  0.000  1.000  0.000  0.000
  0.000  0.000  0.000  1.000  0.000
  0.000  0.000  0.000  0.000  1.000
    occupations:
  0.500  0.000  0.000  0.000  0.000
  0.000  0.500  0.000  0.000  0.000
  0.000  0.000  0.500  0.000  0.000
  0.000  0.000  0.000  0.500  0.000
  0.000  0.000  0.000  0.000  0.500
atom   10   Tr[ns(na)] =   5.00000
    eigenvalues:
  0.500  0.500  0.500  0.500  0.500
    eigenvectors:
  1.000  0.000  0.000  0.000  0.000
  0.000  1.000  0.000  0.000  0.000
  0.000  0.000  1.000  0.000  0.000
  0.000  0.000  0.000  1.000  0.000
  0.000  0.000  0.000  0.000  1.000
    occupations:
  0.500  0.000  0.000  0.000  0.000
  0.000  0.500  0.000  0.000  0.000
  0.000  0.000  0.500  0.000  0.000
  0.000  0.000  0.000  0.500  0.000
  0.000  0.000  0.000  0.000  0.500
atom   16   Tr[ns(na)] =   5.00000
    eigenvalues:
  0.500  0.500  0.500  0.500  0.500
    eigenvectors:
  1.000  0.000  0.000  0.000  0.000
  0.000  1.000  0.000  0.000  0.000
  0.000  0.000  1.000  0.000  0.000
  0.000  0.000  0.000  1.000  0.000
  0.000  0.000  0.000  0.000  1.000
    occupations:
  0.500  0.000  0.000  0.000  0.000
  0.000  0.500  0.000  0.000  0.000
  0.000  0.000  0.500  0.000  0.000
  0.000  0.000  0.000  0.500  0.000
  0.000  0.000  0.000  0.000  0.500
atom   17   Tr[ns(na)] =   5.00000
    eigenvalues:
  0.500  0.500  0.500  0.500  0.500
    eigenvectors:
  1.000  0.000  0.000  0.000  0.000
  0.000  1.000  0.000  0.000  0.000
  0.000  0.000  1.000  0.000  0.000
  0.000  0.000  0.000  1.000  0.000
  0.000  0.000  0.000  0.000  1.000
    occupations:
  0.500  0.000  0.000  0.000  0.000
  0.000  0.500  0.000  0.000  0.000
  0.000  0.000  0.500  0.000  0.000
  0.000  0.000  0.000  0.500  0.000
  0.000  0.000  0.000  0.000  0.500
atom   22   Tr[ns(na)] =   5.00000
    eigenvalues:
  0.500  0.500  0.500  0.500  0.500
    eigenvectors:
  1.000  0.000  0.000  0.000  0.000
[...]
  0.000  0.019  0.000  0.000  0.980
  1.000  0.000  0.000  0.000  0.000
    occupations:
  0.603  0.003  0.000 -0.023  0.000
  0.003  0.690  0.005 -0.000 -0.001
  0.000  0.005  0.623  0.001 -0.000
 -0.023 -0.000  0.001  0.761 -0.000
  0.000 -0.001 -0.000 -0.000  0.563
atom    9   Tr[ns(na)] =   6.49748
    eigenvalues:
  0.592  0.605  0.623  0.694  0.735
    eigenvectors:
  0.275  0.000  0.000  0.000  0.725
  0.000  1.000  0.000  0.000  0.000
  0.000  0.000  0.994  0.006  0.000
  0.725  0.000  0.000  0.000  0.275
  0.000  0.000  0.006  0.993  0.000
    occupations:
  0.696 -0.000 -0.000 -0.064  0.000
 -0.000  0.605  0.000  0.001  0.000
 -0.000  0.000  0.623  0.000 -0.006
 -0.064  0.001  0.000  0.631 -0.000
  0.000  0.000 -0.006 -0.000  0.693
atom   10   Tr[ns(na)] =   6.46554
    eigenvalues:
  0.503  0.543  0.669  0.745  0.773
    eigenvectors:
  0.994  0.000  0.000  0.005  0.001
  0.001  0.000  0.000  0.000  0.999
  0.000  0.000  1.000  0.000  0.000
  0.005  0.000  0.000  0.995  0.000
  0.000  1.000  0.000  0.000  0.000
    occupations:
  0.504 -0.006  0.000 -0.017 -0.000
 -0.006  0.773  0.000 -0.000  0.001
  0.000  0.000  0.669 -0.000  0.001
 -0.017 -0.000 -0.000  0.744 -0.000
 -0.000  0.001  0.001 -0.000  0.543
atom   16   Tr[ns(na)] =   6.50870
    eigenvalues:
  0.542  0.571  0.650  0.739  0.753
    eigenvectors:
  0.001  0.385  0.006  0.000  0.608
  0.997  0.001  0.000  0.001  0.001
  0.000  0.000  0.989  0.001  0.010
  0.000  0.614  0.004  0.000  0.381
  0.001  0.000  0.000  0.998  0.001
    occupations:
  0.682  0.004  0.008 -0.088 -0.000
  0.004  0.542 -0.000 -0.002 -0.007
  0.008 -0.000  0.651 -0.006  0.002
 -0.088 -0.002 -0.006  0.640  0.000
 -0.000 -0.007  0.002  0.000  0.739
atom   17   Tr[ns(na)] =   6.47235
    eigenvalues:
  0.564  0.603  0.614  0.689  0.767
    eigenvectors:
  0.000  0.980  0.000  0.001  0.018
  0.000  0.001  0.004  0.995  0.000
  0.000  0.001  0.996  0.004  0.000
  0.000  0.018  0.000  0.000  0.982
  1.000  0.000  0.000  0.000  0.000
    occupations:
  0.606  0.002  0.000 -0.022  0.000
  0.002  0.689  0.005 -0.000 -0.001
  0.000  0.005  0.614  0.001 -0.000
 -0.022 -0.000  0.001  0.764 -0.000
  0.000 -0.001 -0.000 -0.000  0.564
atom   22   Tr[ns(na)] =   6.49263
    eigenvalues:
  0.592  0.604  0.621  0.693  0.736
    eigenvectors:
  0.276  0.000  0.000  0.001  0.723
  0.000  1.000  0.000  0.000  0.000
  0.000  0.000  0.996  0.004  0.000
  0.724  0.000  0.000  0.000  0.275
  0.000  0.000  0.004  0.995  0.001
    occupations:
  0.697  0.001 -0.000 -0.064  0.001
  0.001  0.604  0.000 -0.000  0.000
 -0.000  0.000  0.621  0.000  0.004
 -0.064 -0.000  0.000  0.632 -0.001
  0.001  0.000  0.004 -0.001  0.693
atom   23   Tr[ns(na)] =   6.48554
    eigenvalues:
  0.559  0.581  0.594  0.739  0.770
    eigenvectors:
  0.000  0.001  0.988  0.001  0.010
  0.000  0.000  0.001  0.998  0.000
  0.002  0.997  0.001  0.000  0.000
  0.000  0.000  0.010  0.000  0.990
  0.998  0.002  0.000  0.000  0.000
    occupations:
  0.595  0.005 -0.000 -0.017  0.000
  0.005  0.739  0.000  0.001  0.001
 -0.000  0.000  0.581  0.001 -0.001
 -0.017  0.001  0.001  0.768 -0.000
  0.000  0.001 -0.001 -0.000  0.559
N of occupied +U levels =  51.9140228
 --- exit write_ns ---

[...]

     total energy              =   -2176.55930194 Ry
     Harris-Foulkes estimate   =   -2176.55930208 Ry
     estimated scf accuracy    <       0.00000237 Ry

     iteration #  8     ecut=    40.00 Ry     beta=0.70
     Davidson diagonalization with overlap
     ethr =  9.92E-10,  avg # of iterations =  1.0

     negative rho (up, down):  0.247E+00 0.000E+00

     End of self-consistent calculation
 --- enter write_ns ---
 LDA+U parameters:
U( 2)     =  0.00000000
alpha( 2) =  0.00000000
atom    3   Tr[ns(na)] =   6.51689
    eigenvalues:
  0.542  0.571  0.649  0.743  0.753
    eigenvectors:
  0.001  0.384  0.006  0.001  0.609
  0.998  0.001  0.000  0.001  0.000
  0.000  0.000  0.990  0.000  0.010
  0.000  0.616  0.004  0.000  0.380
  0.001  0.000  0.000  0.998  0.001
    occupations:
  0.682 -0.004  0.008 -0.088  0.000
 -0.004  0.543  0.001  0.002 -0.007
  0.008  0.001  0.650 -0.006 -0.001
 -0.088  0.002 -0.006  0.640 -0.000
  0.000 -0.007 -0.001 -0.000  0.742
atom    4   Tr[ns(na)] =   6.48594
    eigenvalues:
  0.563  0.600  0.625  0.691  0.764
    eigenvectors:
  0.000  0.980  0.000  0.001  0.020
  0.000  0.001  0.006  0.994  0.000
  0.000  0.000  0.994  0.006  0.000
  0.000  0.020  0.000  0.000  0.980
  1.000  0.000  0.000  0.000  0.000
    occupations:
  0.603  0.003  0.000 -0.023  0.000
  0.003  0.691  0.005 -0.000 -0.001
  0.000  0.005  0.625  0.001 -0.000
 -0.023 -0.000  0.001  0.761 -0.000
  0.000 -0.001 -0.000 -0.000  0.563
atom    9   Tr[ns(na)] =   6.48785
    eigenvalues:
  0.592  0.605  0.622  0.691  0.734
    eigenvectors:
  0.274  0.000  0.000  0.000  0.726
  0.000  1.000  0.000  0.000  0.000
  0.000  0.000  0.992  0.008  0.000
  0.726  0.000  0.000  0.000  0.274
  0.000  0.000  0.008  0.992  0.000
    occupations:
  0.695 -0.000 -0.000 -0.063  0.000
 -0.000  0.605  0.000  0.001  0.000
 -0.000  0.000  0.622  0.000 -0.006
 -0.063  0.001  0.000  0.631 -0.000
  0.000  0.000 -0.006 -0.000  0.691
atom   10   Tr[ns(na)] =   6.45767
    eigenvalues:
  0.502  0.542  0.667  0.745  0.772
    eigenvectors:
  0.994  0.000  0.000  0.005  0.001
  0.001  0.000  0.000  0.000  0.999
  0.000  0.000  1.000  0.000  0.000
  0.005  0.000  0.000  0.995  0.000
  0.000  1.000  0.000  0.000  0.000
    occupations:
  0.504 -0.006  0.000 -0.017 -0.000
 -0.006  0.772  0.000 -0.000  0.001
  0.000  0.000  0.667 -0.000  0.001
 -0.017 -0.000 -0.000  0.744 -0.000
 -0.000  0.001  0.001 -0.000  0.542
atom   16   Tr[ns(na)] =   6.51733
    eigenvalues:
  0.542  0.571  0.651  0.742  0.753
    eigenvectors:
  0.001  0.385  0.006  0.001  0.607
  0.997  0.001  0.000  0.001  0.001
  0.000  0.000  0.990  0.000  0.010
  0.000  0.614  0.004  0.000  0.381
  0.001  0.000  0.000  0.997  0.001
    occupations:
  0.682  0.004  0.008 -0.088 -0.000
  0.004  0.542 -0.000 -0.002 -0.007
  0.008 -0.000  0.652 -0.006  0.001
 -0.088 -0.002 -0.006  0.640  0.000
 -0.000 -0.007  0.001  0.000  0.742
atom   17   Tr[ns(na)] =   6.47955
    eigenvalues:
  0.564  0.603  0.616  0.690  0.767
    eigenvectors:
  0.000  0.980  0.000  0.001  0.018
  0.000  0.001  0.004  0.995  0.000
  0.000  0.000  0.996  0.004  0.000
  0.000  0.018  0.000  0.000  0.981
  1.000  0.000  0.000  0.000  0.000
    occupations:
  0.606  0.002  0.000 -0.022  0.000
  0.002  0.690  0.005 -0.000 -0.001
  0.000  0.005  0.616  0.001 -0.000
 -0.022 -0.000  0.001  0.764 -0.000
  0.000 -0.001 -0.000 -0.000  0.564
atom   22   Tr[ns(na)] =   6.48574
    eigenvalues:
  0.592  0.604  0.620  0.691  0.736
    eigenvectors:
  0.275  0.000  0.000  0.001  0.724
  0.000  1.000  0.000  0.000  0.000
  0.000  0.000  0.995  0.004  0.000
  0.725  0.000  0.000  0.000  0.275
  0.000  0.000  0.004  0.994  0.001
    occupations:
  0.696  0.001 -0.000 -0.064  0.001
  0.001  0.604  0.000 -0.000  0.000
 -0.000  0.000  0.620  0.000  0.005
 -0.064 -0.000  0.000  0.632 -0.001
  0.001  0.000  0.005 -0.001  0.691
atom   23   Tr[ns(na)] =   6.48477
    eigenvalues:
  0.559  0.581  0.594  0.739  0.770
    eigenvectors:
  0.000  0.001  0.988  0.001  0.010
  0.000  0.000  0.001  0.998  0.000
  0.002  0.997  0.001  0.000  0.000
  0.000  0.000  0.010  0.000  0.990
  0.998  0.002  0.000  0.000  0.000
    occupations:
  0.595  0.005 -0.000 -0.017  0.000
  0.005  0.739  0.000  0.001  0.001
 -0.000  0.000  0.581  0.001 -0.001
 -0.017  0.001  0.001  0.768 -0.000
  0.000  0.001 -0.001 -0.000  0.559
N of occupied +U levels =  51.9157294
 --- exit write_ns ---

[...]

          k = 0.2500-0.3828 0.0000 ( 29202 PWs)   bands (ev):

[...]

          k =-0.2500 0.1914 0.0000 ( 29229 PWs)   bands (ev):

   -81.4818 -81.4004 -81.3029 -81.2589 -81.2189 -81.0212 -80.9820 -80.9602
   -43.5640 -43.4231 -43.3693 -43.3647 -43.2727 -43.2682 -43.2443 -43.2414
   -43.2259 -43.1804 -43.1701 -43.1433 -43.0627 -42.9959 -42.9569 -42.9483
   -42.9411 -42.9113 -42.8971 -42.8713 -42.8514 -42.7905 -42.5754 -42.5189
   -20.8383 -20.3889 -20.3072 -20.1945 -20.1079 -19.7745 -19.7096 -19.6969
   -19.5181 -19.4179 -19.3973 -19.3513 -19.2566 -19.1135 -19.0775 -19.0431
   -18.8119 -18.2805 -18.0005  -8.9759  -8.6592  -8.6070  -8.5643  -8.3733
    -8.2865  -8.2450  -8.0364  -7.9792  -7.8874  -7.6602  -7.6099  -7.3602
    -7.2819  -7.2165  -6.9453  -6.8340  -6.7150  -6.6052  -6.4991  -6.3703
    -6.3410  -6.0033  -5.9042  -5.7471  -5.6840  -5.5926  -5.5066  -5.4245
    -5.3038  -5.0581  -4.9793  -4.9437  -4.8392  -4.7420  -4.6977  -4.6289
    -4.5592  -4.4834  -4.3670  -4.2567  -4.1273  -3.9428  -3.8553  -3.7920
    -3.6708  -3.5669  -3.5257  -3.3440  -3.3006  -3.2290  -3.1150  -2.9985
    -2.7818  -2.6764  -2.5951  -2.4488  -2.0141  -1.8538  -1.8019  -0.9668
    -0.8391  -0.7401  -0.6216  -0.0571   0.0695   0.5467   0.5900   0.6690
     0.7890   0.8771   1.0075   1.1850   1.3695   1.3917   1.5386   1.7049
     1.7335   1.9735   2.0257   2.1595   2.4105   3.6403   3.6643   3.7429
     3.7753   3.9621   4.0149   4.2578   4.4670   4.6023   4.7120   4.8795
     4.9478   5.1764   5.3536   5.6047   5.8402   5.8802   6.1105   6.2639
     6.4287   6.4801   6.6855   6.8916   6.9957   7.0673   7.3036   7.5523
     7.6828   7.7889   7.9332   8.1185   8.2641   8.3263   8.4994   8.5732
     8.6153   8.7152   8.9285   9.0336   9.1176   9.3696   9.4431   9.5846
     9.6188   9.6780   9.8078   9.8749   9.9026   9.9845  10.0845  10.1744
    10.2371  10.3303  10.3730  10.4220  10.4953  10.7178  10.7458  10.8775
    10.9965  11.1062  11.1540  11.2573  11.4623  11.5211  11.6769  11.7409
    11.8151  11.9089  12.0287  12.2167  12.3329  12.4422  12.5820  12.6233
    12.6366  12.7300  12.8060  12.8674  12.9341  13.0251  13.0942  13.2180
    13.2698  13.4150  13.5028  13.6143  13.6764  13.7362  13.8285  13.8453
    13.9288  13.9488  13.9813  14.0614  14.1305  14.2340  14.3048  14.4050
    14.4821  14.5116  14.5622  14.6332  14.7029  14.7292  14.8386  14.8780
    14.9401  14.9853  15.0238  15.0766  15.1273  15.2001  15.2926  15.4491
    15.4991  15.5886  15.6540  15.7248  15.8265  15.9256  16.0647  16.1293
    16.1780  16.2295  16.3028  16.4706  16.5130  16.5739  16.6141  16.6758
    16.7796  16.8669  16.9419  16.9962  17.1057  17.1981  17.2361  17.2650
    17.3517  17.4734  17.6069  17.6582  17.7252  17.7747  17.8293  17.9290
    17.9557  18.0408  18.1144  18.1461  18.2523  18.2763  18.3892  18.4353
    18.4987  18.5742  18.6291  18.6964  18.7453  18.8556  18.9234  19.0058
    19.0693  19.2249  19.2929  19.3287  19.4701  19.5325  19.6222  19.6667
    19.7337  19.8365  19.9233  20.0132  20.1112  20.1609  20.2180  20.2850
    20.4394  20.5062  20.5598  20.6063  20.6750  20.7293  20.7624  20.8233
    20.8733  20.9590  20.9797  21.1289  21.1602  21.2095  21.2524  21.3085
    21.3957  21.4258  21.5001  21.5988  21.6441  21.6907  21.7501  21.8367
    21.9244  22.0010  22.0830  22.1044  22.2123  22.2322  22.3056  22.3550
    22.4045  22.4504  22.4812  22.5443  22.6208  22.6642  22.6940  22.7348
    22.7694  22.8320  22.8827  22.9185  22.9931  23.0651

     the Fermi energy is     0.6110 ev

!    total energy              =   -2176.55930141 Ry
     Harris-Foulkes estimate   =   -2176.55930201 Ry
     estimated scf accuracy    <       0.00000064 Ry

     The total energy is the sum of the following terms:

     one-electron contribution =  -24246.28427742 Ry
     hartree contribution      =   12140.29728014 Ry
     xc contribution           =    -594.98089553 Ry
     ewald contribution        =   10524.41025219 Ry
     Hubbard energy            =       0.00000000 Ry
     smearing contrib. (-TS)   =      -0.00166080 Ry

     convergence has been achieved in   8 iterations

     Forces acting on atoms (Ry/au):

     negative rho (up, down):  0.247E+00 0.000E+00
     atom    1 type  1   force =    -0.00552274   -0.00739528   -0.00035483
     atom    2 type  1   force =     0.00003547    0.00569078   -0.00002003
     atom    3 type  2   force =     0.02981485   -0.00392971    0.00013182
     atom    4 type  2   force =     0.00186529    0.00784280   -0.00006343
     atom    5 type  1   force =     0.00275041    0.01373520    0.00003996
     atom    6 type  1   force =     0.00103956   -0.01468049    0.00003904
     atom    7 type  1   force =     0.00322603    0.00013861    0.00024991
     atom    8 type  1   force =     0.00302070   -0.00159448    0.00041762
     atom    9 type  2   force =    -0.02380675    0.00158803   -0.00000297
     atom   10 type  2   force =    -0.00678890   -0.00045428    0.00025531
     atom   11 type  1   force =    -0.00518338   -0.01577850    0.00021966
     atom   12 type  1   force =    -0.00531169    0.01586174    0.00026532
     atom   13 type  1   force =    -0.00074592   -0.00006679   -0.00009998
     atom   14 type  1   force =    -0.00279095   -0.00670735   -0.00023838
     atom   15 type  1   force =     0.00030097    0.00437231    0.00000599
     atom   16 type  2   force =    -0.03046766   -0.00393574    0.00001578
     atom   17 type  2   force =     0.00129417    0.00824080   -0.00024535
     atom   18 type  1   force =     0.00117809    0.01424453   -0.00000782
     atom   19 type  1   force =    -0.00076681   -0.01499122    0.00000889
     atom   20 type  1   force =    -0.00228562   -0.00124339    0.00046280
     atom   21 type  1   force =     0.00194359   -0.00160900    0.00010679
     atom   22 type  2   force =     0.01999528    0.00172868   -0.00008350
     atom   23 type  2   force =    -0.00114894   -0.00062159   -0.00025835
     atom   24 type  1   force =     0.00862496   -0.01455297    0.00027375
     atom   25 type  1   force =     0.00846718    0.01419057    0.00026025
     atom   26 type  1   force =     0.00067083   -0.00051997   -0.00063018
     atom   27 type  3   force =     0.00001476    0.00019955    0.00043353
     atom   28 type  3   force =     0.00000751    0.00024459    0.00035030
     atom   29 type  3   force =     0.00005146    0.00010533   -0.00043439
     atom   30 type  3   force =     0.00002629   -0.00001976   -0.00041863
     atom   31 type  1   force =    -0.00015796    0.00001766   -0.00041341
     atom   32 type  3   force =     0.00064989   -0.00010067   -0.00026548

     Total force =     0.001740     Total SCF correction =     0.003841
     SCF correction compared to forces is large: reduce conv_thr to get better values

     bfgs converged in   2 scf cycles and   1 bfgs steps
     (criteria: energy < 0.10E-03, force < 0.10E-02)

     End of BFGS Geometry Optimization

     Final energy   =   -2176.5593014084 Ry
Begin final coordinates

ATOMIC_POSITIONS (crystal)
O0       0.000000000   0.000000000   0.370607529    0   0   1
O0       0.000000000   0.500000000   0.382072679    0   0   1
Re1      0.250000000   0.500000000   0.441753585    0   0   1
Re1      0.000000000   0.000000000   0.443390608    0   0   1
O0       0.250000000   0.780000000   0.441750605    0   0   1
O0       0.250000000   0.220000000   0.441610594    0   0   1
O0       0.000000000   0.500000000   0.497085877    0   0   1
O0       0.000000000   0.000000000   0.515050040    0   0   1
Re1      0.250000000   0.000000000   0.574821698    0   0   1
Re1      0.000000000   0.500000000   0.566424761    0   0   1
O0       0.250000000   0.720000000   0.572995576    0   0   1
O0       0.250000000   0.280000000   0.573056512    0   0   1
O0       0.000000000   0.000000000   0.627099844    0   0   1
O0       0.500000000   0.000000000   0.370650901    0   0   1
O0       0.500000000   0.500000000   0.382359055    0   0   1
Re1      0.750000000   0.500000000   0.441779607    0   0   1
Re1      0.500000000   0.000000000   0.443234005    0   0   1
O0       0.750000000   0.780000000   0.441699598    0   0   1
O0       0.750000000   0.220000000   0.441680125    0   0   1
O0       0.500000000   0.500000000   0.499011933    0   0   1
O0       0.500000000   0.000000000   0.514909319    0   0   1
Re1      0.750000000   0.000000000   0.574680129    0   0   1
Re1      0.500000000   0.500000000   0.572643372    0   0   1
O0       0.750000000   0.720000000   0.572187147    0   0   1
O0       0.750000000   0.280000000   0.572186859    0   0   1
O0       0.500000000   0.000000000   0.626435678    0   0   1
H2      -0.000358612   0.625101690   0.365186413
H2       0.499621016   0.623162823   0.364557970
H2       0.169507759   0.023148210   0.356491006
H2       0.670440372   0.021876826   0.356672611
O0       0.527785303   0.499671168   0.643894544
H2       0.378848993   0.499162268   0.665049820
End final coordinates

     General routines

     Parallel routines
     Hubbard U routines

   This run was terminated on:  12: 5: 1  10May2014

   JOB DONE.