     Program PWSCF v.5.0.2 (svn rev. 9656) starts on 24Jan2014 at 14:51:51

     Current dimensions of program PWSCF are:
     Max number of different atomic species (ntypx) = 10
     Max number of k-points (npk) =  40000
     Max angular momentum in pseudopotentials (lmaxx) =  3
     Reading input from ReO2-v-1.05.in

     Subspace diagonalization in iterative solution of the eigenvalue problem:
     a serial algorithm will be used

     bravais-lattice index     =            0
     lattice parameter (alat)  =       8.9231  a.u.
     unit-cell volume          =     457.8600 (a.u.)^3
     number of atoms/cell      =            6
     number of atomic types    =            2
     number of electrons       =        54.00
     number of Kohn-Sham states=           81
     kinetic-energy cutoff     =      40.0000  Ry
     charge density cutoff     =     500.0000  Ry
     convergence threshold     =      1.0E-06
     mixing beta               =       0.3000
     number of iterations used =            8  plain     mixing
     Exchange-correlation      = SLA  PW   PBE  PBE ( 1 4 3 4 0)
     EXX-fraction              =        0.00
     nstep                     =           50

     celldm(1)=   8.923100  celldm(2)=   0.000000  celldm(3)=   0.000000
     celldm(4)=   0.000000  celldm(5)=   0.000000  celldm(6)=   0.000000

     crystal axes: (cart. coord. in units of alat)
               a(1) = (   1.000000   0.000000   0.000000 )
               a(2) = (   0.000000   1.000000   0.000000 )
               a(3) = (   0.000000   0.000000   0.644444 )

     reciprocal axes: (cart. coord. in units 2 pi/alat)
               b(1) = (  1.000000  0.000000  0.000000 )
               b(2) = (  0.000000  1.000000  0.000000 )
               b(3) = (  0.000000  0.000000  1.551724 )

     PseudoPot. # 1 for Re read from file:
     /home/camp/zhonxu/pseudo/re_pbe_v1.uspp.F.UPF
     MD5 check sum: 6f5a5dcaf9c96c20d0ffdde0de57afc6
     Pseudo is Ultrasoft + core correction, Zval = 15.0
     Generated by new atomic code, or converted to UPF format
     Using radial grid of  981 points,  8 beta functions with:
                l(1) =   0
                l(2) =   0
                l(3) =   1
                l(4) =   1
                l(5) =   2
                l(6) =   2
                l(7) =   3
                l(8) =   3
     Q(r) pseudized with  8 coefficients,  rinner =    1.000   1.000   1.000
                                                       1.000   1.000   1.000
                                                       1.000

     PseudoPot. # 2 for O  read from file:
     /home/camp/zhonxu/pseudo/o_pbe_v1.01.uspp.F.UPF
     MD5 check sum: 2bcb18d16ea4b960afae9ec6d52f22d2
     Pseudo is Ultrasoft + core correction, Zval =  6.0
     Generated by new atomic code, or converted to UPF format
     Using radial grid of  737 points,  5 beta functions with:
                l(1) =   0
                l(2) =   0
                l(3) =   1
                l(4) =   1
                l(5) =   2
     Q(r) pseudized with  8 coefficients,  rinner =    0.900   0.900   0.900
                                                       0.900   0.900

     atomic species   valence    mass     pseudopotential
        Re0           15.00   186.20700     Re( 1.00)
        O1             6.00    15.99940     O ( 1.00)

     Starting magnetic structure
     atomic species   magnetization
        Re0          0.000
        O1           0.000

      8 Sym. Ops., with inversion, found
          (note:  8 additional sym.ops. were found but ignored
           their fractional translations are incommensurate with FFT grid)

   Cartesian axes

     site n.     atom                  positions (alat units)
         1           Re0 tau(   1) = (   0.0000000   0.0000000   0.0000000  )
         2           Re0 tau(   2) = (   0.5000000   0.5000000   0.3222222  )
         3           O1  tau(   3) = (   0.3050000   0.3050000   0.0000000  )
         4           O1  tau(   4) = (  -0.3050000  -0.3050000   0.0000000  )
         5           O1  tau(   5) = (   0.8050000   0.1950000   0.3222222  )
         6           O1  tau(   6) = (   0.1950000   0.8050000   0.3222222  )

     number of k points=    54  Methfessel-Paxton smearing, width (Ry)=  0.0100
                       cart. coord. in units 2pi/alat
        k(    1) = (   0.0000000   0.0000000   0.0000000), wk =   0.0080000
        k(    2) = (   0.0000000   0.0000000   0.3103448), wk =   0.0160000
        k(    3) = (   0.0000000   0.0000000   0.6206897), wk =   0.0160000
        k(    4) = (   0.0000000   0.2000000   0.0000000), wk =   0.0320000
        k(    5) = (   0.0000000   0.2000000   0.3103448), wk =   0.0640000
        k(    6) = (   0.0000000   0.2000000   0.6206897), wk =   0.0640000
        k(    7) = (   0.0000000   0.4000000   0.0000000), wk =   0.0320000
        k(    8) = (   0.0000000   0.4000000   0.3103448), wk =   0.0640000
        k(    9) = (   0.0000000   0.4000000   0.6206897), wk =   0.0640000
        k(   10) = (   0.2000000   0.2000000   0.0000000), wk =   0.0160000
        k(   11) = (   0.2000000   0.2000000   0.3103448), wk =   0.0320000
        k(   12) = (   0.2000000   0.2000000   0.6206897), wk =   0.0320000
        k(   13) = (   0.2000000   0.4000000   0.0000000), wk =   0.0320000
        k(   14) = (   0.2000000   0.4000000   0.3103448), wk =   0.0640000
        k(   15) = (   0.2000000   0.4000000   0.6206897), wk =   0.0640000
        k(   16) = (   0.4000000   0.4000000   0.0000000), wk =   0.0160000
        k(   17) = (   0.4000000   0.4000000   0.3103448), wk =   0.0320000
        k(   18) = (   0.4000000   0.4000000   0.6206897), wk =   0.0320000
        k(   19) = (  -0.2000000   0.2000000   0.0000000), wk =   0.0160000
        k(   20) = (  -0.2000000   0.2000000  -0.3103448), wk =   0.0320000
        k(   21) = (  -0.2000000   0.2000000  -0.6206897), wk =   0.0320000
        k(   22) = (  -0.2000000   0.4000000   0.0000000), wk =   0.0320000
        k(   23) = (  -0.2000000   0.4000000  -0.3103448), wk =   0.0640000
        k(   24) = (  -0.2000000   0.4000000  -0.6206897), wk =   0.0640000
        k(   25) = (  -0.4000000   0.4000000   0.0000000), wk =   0.0160000
        k(   26) = (  -0.4000000   0.4000000  -0.3103448), wk =   0.0320000
        k(   27) = (  -0.4000000   0.4000000  -0.6206897), wk =   0.0320000
        k(   28) = (   0.0000000   0.0000000   0.0000000), wk =   0.0080000
        k(   29) = (   0.0000000   0.0000000   0.3103448), wk =   0.0160000
        k(   30) = (   0.0000000   0.0000000   0.6206897), wk =   0.0160000
        k(   31) = (   0.0000000   0.2000000   0.0000000), wk =   0.0320000
        k(   32) = (   0.0000000   0.2000000   0.3103448), wk =   0.0640000
        k(   33) = (   0.0000000   0.2000000   0.6206897), wk =   0.0640000
        k(   34) = (   0.0000000   0.4000000   0.0000000), wk =   0.0320000
        k(   35) = (   0.0000000   0.4000000   0.3103448), wk =   0.0640000
        k(   36) = (   0.0000000   0.4000000   0.6206897), wk =   0.0640000
        k(   37) = (   0.2000000   0.2000000   0.0000000), wk =   0.0160000
        k(   38) = (   0.2000000   0.2000000   0.3103448), wk =   0.0320000
        k(   39) = (   0.2000000   0.2000000   0.6206897), wk =   0.0320000
        k(   40) = (   0.2000000   0.4000000   0.0000000), wk =   0.0320000
        k(   41) = (   0.2000000   0.4000000   0.3103448), wk =   0.0640000
        k(   42) = (   0.2000000   0.4000000   0.6206897), wk =   0.0640000
        k(   43) = (   0.4000000   0.4000000   0.0000000), wk =   0.0160000
        k(   44) = (   0.4000000   0.4000000   0.3103448), wk =   0.0320000
        k(   45) = (   0.4000000   0.4000000   0.6206897), wk =   0.0320000
        k(   46) = (  -0.2000000   0.2000000   0.0000000), wk =   0.0160000
        k(   47) = (  -0.2000000   0.2000000  -0.3103448), wk =   0.0320000
        k(   48) = (  -0.2000000   0.2000000  -0.6206897), wk =   0.0320000
        k(   49) = (  -0.2000000   0.4000000   0.0000000), wk =   0.0320000
        k(   50) = (  -0.2000000   0.4000000  -0.3103448), wk =   0.0640000
        k(   51) = (  -0.2000000   0.4000000  -0.6206897), wk =   0.0640000
        k(   52) = (  -0.4000000   0.4000000   0.0000000), wk =   0.0160000
        k(   53) = (  -0.4000000   0.4000000  -0.3103448), wk =   0.0320000
        k(   54) = (  -0.4000000   0.4000000  -0.6206897), wk =   0.0320000

     Largest allocated arrays     est. size (Mb)     dimensions
     Largest temporary arrays     est. size (Mb)     dimensions

     Check: negative/imaginary core charge=   -0.000004    0.000000

     Initial potential from superposition of free atoms
     Check: negative starting charge=(component1):   -0.029088
     Check: negative starting charge=(component2):   -0.029088

     starting charge   52.99990, renormalised to   54.00000

     negative rho (up, down):  0.296E-01 0.296E-01
     Starting wfc are   42 randomized atomic wfcs

     Self-consistent Calculation

     iteration #  1     ecut=    40.00 Ry     beta=0.30
     Davidson diagonalization with overlap
     ethr =  1.00E-02,  avg # of iterations =  5.0

     negative rho (up, down):  0.316E-01 0.316E-01

     total energy              =    -518.22295747 Ry
     Harris-Foulkes estimate   =    -518.75633319 Ry
     estimated scf accuracy    <       1.19342592 Ry

     total magnetization       =     0.00 Bohr mag/cell
     absolute magnetization    =     0.00 Bohr mag/cell

[...]

     End of self-consistent calculation

 ------ SPIN UP ------------

          k = 0.0000 0.0000 0.0000 (  1955 PWs)   bands (ev):

   -67.1948 -67.1922 -29.0635 -29.0635 -29.0518 -29.0294 -28.9761 -28.9761
    -7.3264  -6.3043  -5.2907  -5.2905   4.3000   4.7448   6.0902   6.5007
     6.5008   8.5623   8.5623   9.0561  10.1271  10.3878  10.3878  10.9662
    12.6052  12.6093  13.4133  13.5379  13.5380  16.3907  16.6190  17.4616
    19.5615  19.5616  20.9405  22.0538  22.0538  25.8225  25.8588  26.3204
    28.9542  29.4271  29.4272  29.5451  31.5950  32.6838  33.5223  33.5223
    34.5788  34.5789  35.7855  39.0218  39.4880  39.4880  39.8294  40.8796
    41.7313  42.4240  42.7086  42.7738  42.7739  43.4675  43.4675  43.8955
    44.5744  44.8527  44.8527  45.9814  47.9769  49.8654  49.8655  50.7313
    50.8626  51.0501  51.0501  51.5998  52.3918  52.3918  52.4440  52.6323
    53.2170

[...]

          k =-0.2000 0.2000 0.0000 (  1955 PWs)   bands (ev):

[...]

 ------ SPIN DOWN ----------

[...]

     the Fermi energy is    14.2191 ev

!    total energy              =    -518.46895298 Ry
     Harris-Foulkes estimate   =    -518.46894388 Ry
     estimated scf accuracy    <       0.00000077 Ry

     The total energy is the sum of the following terms:

     one-electron contribution =    -127.05447633 Ry
     hartree contribution      =      92.90662319 Ry
     xc contribution           =    -142.47579060 Ry
     ewald contribution        =    -341.84490817 Ry
     smearing contrib. (-TS)   =      -0.00040109 Ry

[...]

     convergence has been achieved in   8 iterations

     Forces acting on atoms (Ry/au):

     negative rho (up, down):  0.291E-01 0.291E-01
[...]
        k(   13) = (   0.1891568   0.3783135   0.0000000), wk =   0.0320000
        k(   14) = (   0.1891568   0.3783135   0.3469452), wk =   0.0640000
        k(   15) = (   0.1891568   0.3783135   0.6938905), wk =   0.0640000
        k(   16) = (   0.3783135   0.3783135   0.0000000), wk =   0.0160000
        k(   17) = (   0.3783135   0.3783135   0.3469452), wk =   0.0320000
        k(   18) = (   0.3783135   0.3783135   0.6938905), wk =   0.0320000
        k(   19) = (  -0.1891567   0.1891567   0.0000000), wk =   0.0160000
        k(   20) = (  -0.1891567   0.1891567  -0.3469452), wk =   0.0320000
        k(   21) = (  -0.1891567   0.1891567  -0.6938905), wk =   0.0320000
        k(   22) = (  -0.1891567   0.3783134   0.0000000), wk =   0.0320000
        k(   23) = (  -0.1891567   0.3783134  -0.3469452), wk =   0.0640000
        k(   24) = (  -0.1891567   0.3783134  -0.6938905), wk =   0.0640000
        k(   25) = (  -0.3783134   0.3783134   0.0000000), wk =   0.0160000
        k(   26) = (  -0.3783134   0.3783134  -0.3469452), wk =   0.0320000
        k(   27) = (  -0.3783134   0.3783134  -0.6938905), wk =   0.0320000
        k(   28) = (   0.0000000   0.0000000   0.0000000), wk =   0.0080000
        k(   29) = (   0.0000000   0.0000000   0.3469452), wk =   0.0160000
        k(   30) = (   0.0000000   0.0000000   0.6938905), wk =   0.0160000
        k(   31) = (   0.0000000   0.1891567   0.0000000), wk =   0.0320000
        k(   32) = (   0.0000000   0.1891567   0.3469452), wk =   0.0640000
        k(   33) = (   0.0000000   0.1891567   0.6938905), wk =   0.0640000
        k(   34) = (   0.0000001   0.3783134   0.0000000), wk =   0.0320000
        k(   35) = (   0.0000001   0.3783134   0.3469452), wk =   0.0640000
        k(   36) = (   0.0000001   0.3783134   0.6938905), wk =   0.0640000
        k(   37) = (   0.1891567   0.1891567   0.0000000), wk =   0.0160000
        k(   38) = (   0.1891567   0.1891567   0.3469452), wk =   0.0320000
        k(   39) = (   0.1891567   0.1891567   0.6938905), wk =   0.0320000
        k(   40) = (   0.1891568   0.3783135   0.0000000), wk =   0.0320000
        k(   41) = (   0.1891568   0.3783135   0.3469452), wk =   0.0640000
        k(   42) = (   0.1891568   0.3783135   0.6938905), wk =   0.0640000
        k(   43) = (   0.3783135   0.3783135   0.0000000), wk =   0.0160000
        k(   44) = (   0.3783135   0.3783135   0.3469452), wk =   0.0320000
        k(   45) = (   0.3783135   0.3783135   0.6938905), wk =   0.0320000
        k(   46) = (  -0.1891567   0.1891567   0.0000000), wk =   0.0160000
        k(   47) = (  -0.1891567   0.1891567  -0.3469452), wk =   0.0320000
        k(   48) = (  -0.1891567   0.1891567  -0.6938905), wk =   0.0320000
        k(   49) = (  -0.1891567   0.3783134   0.0000000), wk =   0.0320000
        k(   50) = (  -0.1891567   0.3783134  -0.3469452), wk =   0.0640000
        k(   51) = (  -0.1891567   0.3783134  -0.6938905), wk =   0.0640000
        k(   52) = (  -0.3783134   0.3783134   0.0000000), wk =   0.0160000
        k(   53) = (  -0.3783134   0.3783134  -0.3469452), wk =   0.0320000
        k(   54) = (  -0.3783134   0.3783134  -0.6938905), wk =   0.0320000

     Check: negative/imaginary core charge=   -0.000003    0.000000
     Check: negative starting charge=(component1):   -0.057176

[...]

     Threshold (ethr) on eigenvalues was too large:
     Diagonalizing with lowered threshold

     Davidson diagonalization with overlap
     ethr =  9.46E-10,  avg # of iterations =  2.0

[...]

     Volume is kept fixed: isostatic pressure set to zero

     bfgs converged in   9 scf cycles and   8 bfgs steps
     (criteria: energy < 0.10E-03, force < 0.10E-02, cell < 0.50E+00)

     End of BFGS Geometry Optimization

     Final enthalpy =    -518.5451536437 Ry
Begin final coordinates
     new unit-cell volume =    457.85999 a.u.^3 (    67.84785 Ang^3 )

CELL_PARAMETERS (alat=  8.92309954)
   1.057324295  -0.000000141   0.000000000
  -0.000000141   1.057324295   0.000000000
   0.000000000   0.000000000   0.576459846

ATOMIC_POSITIONS (crystal)
Re0      0.000000000   0.000000000   0.000000000    0   0   0
Re0      0.500000000   0.500000000   0.500000000    0   0   0
O1       0.281903293   0.281903293   0.000000000    1   1   0
O1      -0.281903293  -0.281903293   0.000000000    1   1   0
O1       0.781903892   0.218096108   0.500000000    1   1   0
O1       0.218096108   0.781903892   0.500000000    1   1   0
End final coordinates

     A final scf calculation at the relaxed structure.
     The G-vectors are recalculated for the final unit cell
     Results may differ from those at the preceding step.

     bravais-lattice index     =            0
     lattice parameter (alat)  =       8.9231  a.u.
     unit-cell volume          =     457.8600 (a.u.)^3
     number of atoms/cell      =            6
     number of atomic types    =            2
     number of electrons       =        54.00
     number of Kohn-Sham states=           81
     kinetic-energy cutoff     =      40.0000  Ry
     charge density cutoff     =     500.0000  Ry
     convergence threshold     =      1.0E-08
     mixing beta               =       0.3000
     number of iterations used =            8  plain     mixing
     Exchange-correlation      = SLA  PW   PBE  PBE ( 1 4 3 4 0)
     EXX-fraction              =        0.00

     celldm(1)=   8.923100  celldm(2)=   0.000000  celldm(3)=   0.000000
     celldm(4)=   0.000000  celldm(5)=   0.000000  celldm(6)=   0.000000

     crystal axes: (cart. coord. in units of alat)
               a(1) = (   1.057324  -0.000000   0.000000 )
               a(2) = (  -0.000000   1.057324   0.000000 )
               a(3) = (   0.000000   0.000000   0.576460 )

     reciprocal axes: (cart. coord. in units 2 pi/alat)
               b(1) = (  0.945784  0.000000 -0.000000 )
               b(2) = (  0.000000  0.945784 -0.000000 )
               b(3) = ( -0.000000 -0.000000  1.734726 )

     PseudoPot. # 1 for Re read from file:
     /home/camp/zhonxu/pseudo/re_pbe_v1.uspp.F.UPF
     MD5 check sum: 6f5a5dcaf9c96c20d0ffdde0de57afc6
     Pseudo is Ultrasoft + core correction, Zval = 15.0
     Generated by new atomic code, or converted to UPF format
     Using radial grid of  981 points,  8 beta functions with:
                l(1) =   0
                l(2) =   0
                l(3) =   1
                l(4) =   1
                l(5) =   2
                l(6) =   2
                l(7) =   3
                l(8) =   3
     Q(r) pseudized with  8 coefficients,  rinner =    1.000   1.000   1.000
                                                       1.000   1.000   1.000
                                                       1.000

     PseudoPot. # 2 for O  read from file:
     /home/camp/zhonxu/pseudo/o_pbe_v1.01.uspp.F.UPF
     MD5 check sum: 2bcb18d16ea4b960afae9ec6d52f22d2
     Pseudo is Ultrasoft + core correction, Zval =  6.0
     Generated by new atomic code, or converted to UPF format
     Using radial grid of  737 points,  5 beta functions with:
                l(1) =   0
                l(2) =   0
                l(3) =   1
                l(4) =   1
                l(5) =   2
     Q(r) pseudized with  8 coefficients,  rinner =    0.900   0.900   0.900
                                                       0.900   0.900

     atomic species   valence    mass     pseudopotential
        Re0           15.00   186.20700     Re( 1.00)
        O1             6.00    15.99940     O ( 1.00)

     Starting magnetic structure
     atomic species   magnetization
        Re0          0.000
        O1           0.000

      8 Sym. Ops., with inversion, found
          (note:  8 additional sym.ops. were found but ignored
           their fractional translations are incommensurate with FFT grid)

   Cartesian axes

     site n.     atom                  positions (alat units)
         1           Re0 tau(   1) = (   0.0000000   0.0000000   0.0000000  )
         2           Re0 tau(   2) = (   0.5286621   0.5286621   0.2882299  )
         3           O1  tau(   3) = (   0.2980632   0.2980632   0.0000000  )
         4           O1  tau(   4) = (  -0.2980632  -0.2980632   0.0000000  )
         5           O1  tau(   5) = (   0.8267260   0.2305982   0.2882299  )
         6           O1  tau(   6) = (   0.2305982   0.8267260   0.2882299  )

     number of k points=    54  Methfessel-Paxton smearing, width (Ry)=  0.0100
                       cart. coord. in units 2pi/alat
        k(    1) = (   0.0000000   0.0000000   0.0000000), wk =   0.0080000
        k(    2) = (   0.0000000   0.0000000   0.3469452), wk =   0.0160000
        k(    3) = (   0.0000000   0.0000000   0.6938905), wk =   0.0160000
        k(    4) = (   0.0000000   0.1891567   0.0000000), wk =   0.0320000
        k(    5) = (   0.0000000   0.1891567   0.3469452), wk =   0.0640000
        k(    6) = (   0.0000000   0.1891567   0.6938905), wk =   0.0640000
        k(    7) = (   0.0000001   0.3783134   0.0000000), wk =   0.0320000
        k(    8) = (   0.0000001   0.3783134   0.3469452), wk =   0.0640000
        k(    9) = (   0.0000001   0.3783134   0.6938905), wk =   0.0640000
        k(   10) = (   0.1891567   0.1891567   0.0000000), wk =   0.0160000
        k(   11) = (   0.1891567   0.1891567   0.3469452), wk =   0.0320000
        k(   12) = (   0.1891567   0.1891567   0.6938905), wk =   0.0320000
        k(   13) = (   0.1891568   0.3783135   0.0000000), wk =   0.0320000
        k(   14) = (   0.1891568   0.3783135   0.3469452), wk =   0.0640000
        k(   15) = (   0.1891568   0.3783135   0.6938905), wk =   0.0640000
        k(   16) = (   0.3783135   0.3783135   0.0000000), wk =   0.0160000
        k(   17) = (   0.3783135   0.3783135   0.3469452), wk =   0.0320000
        k(   18) = (   0.3783135   0.3783135   0.6938905), wk =   0.0320000
        k(   19) = (  -0.1891567   0.1891567   0.0000000), wk =   0.0160000
        k(   20) = (  -0.1891567   0.1891567  -0.3469452), wk =   0.0320000
        k(   21) = (  -0.1891567   0.1891567  -0.6938905), wk =   0.0320000
        k(   22) = (  -0.1891567   0.3783134   0.0000000), wk =   0.0320000
        k(   23) = (  -0.1891567   0.3783134  -0.3469452), wk =   0.0640000
        k(   24) = (  -0.1891567   0.3783134  -0.6938905), wk =   0.0640000
        k(   25) = (  -0.3783134   0.3783134   0.0000000), wk =   0.0160000
        k(   26) = (  -0.3783134   0.3783134  -0.3469452), wk =   0.0320000
        k(   27) = (  -0.3783134   0.3783134  -0.6938905), wk =   0.0320000
        k(   28) = (   0.0000000   0.0000000   0.0000000), wk =   0.0080000
        k(   29) = (   0.0000000   0.0000000   0.3469452), wk =   0.0160000
        k(   30) = (   0.0000000   0.0000000   0.6938905), wk =   0.0160000
        k(   31) = (   0.0000000   0.1891567   0.0000000), wk =   0.0320000
        k(   32) = (   0.0000000   0.1891567   0.3469452), wk =   0.0640000
        k(   33) = (   0.0000000   0.1891567   0.6938905), wk =   0.0640000
        k(   34) = (   0.0000001   0.3783134   0.0000000), wk =   0.0320000
        k(   35) = (   0.0000001   0.3783134   0.3469452), wk =   0.0640000
        k(   36) = (   0.0000001   0.3783134   0.6938905), wk =   0.0640000
        k(   37) = (   0.1891567   0.1891567   0.0000000), wk =   0.0160000
        k(   38) = (   0.1891567   0.1891567   0.3469452), wk =   0.0320000
        k(   39) = (   0.1891567   0.1891567   0.6938905), wk =   0.0320000
        k(   40) = (   0.1891568   0.3783135   0.0000000), wk =   0.0320000
        k(   41) = (   0.1891568   0.3783135   0.3469452), wk =   0.0640000
        k(   42) = (   0.1891568   0.3783135   0.6938905), wk =   0.0640000
        k(   43) = (   0.3783135   0.3783135   0.0000000), wk =   0.0160000
        k(   44) = (   0.3783135   0.3783135   0.3469452), wk =   0.0320000
        k(   45) = (   0.3783135   0.3783135   0.6938905), wk =   0.0320000
        k(   46) = (  -0.1891567   0.1891567   0.0000000), wk =   0.0160000
        k(   47) = (  -0.1891567   0.1891567  -0.3469452), wk =   0.0320000
        k(   48) = (  -0.1891567   0.1891567  -0.6938905), wk =   0.0320000
        k(   49) = (  -0.1891567   0.3783134   0.0000000), wk =   0.0320000
        k(   50) = (  -0.1891567   0.3783134  -0.3469452), wk =   0.0640000
        k(   51) = (  -0.1891567   0.3783134  -0.6938905), wk =   0.0640000
        k(   52) = (  -0.3783134   0.3783134   0.0000000), wk =   0.0160000
        k(   53) = (  -0.3783134   0.3783134  -0.3469452), wk =   0.0320000
        k(   54) = (  -0.3783134   0.3783134  -0.6938905), wk =   0.0320000

     Largest allocated arrays     est. size (Mb)     dimensions
     Largest temporary arrays     est. size (Mb)     dimensions

     Check: negative/imaginary core charge=   -0.000004    0.000000

     Initial potential from superposition of free atoms
     Check: negative starting charge=(component1):   -0.030171
     Check: negative starting charge=(component2):   -0.030171

     starting charge   52.99990, renormalised to   54.00000

     negative rho (up, down):  0.307E-01 0.307E-01
     Starting wfc are   42 randomized atomic wfcs

     Self-consistent Calculation

[...]

     total energy              =    -518.54651220 Ry
     Harris-Foulkes estimate   =    -518.54651001 Ry
     estimated scf accuracy    <       0.00000013 Ry

[...]

     iteration # 10     ecut=    40.00 Ry     beta=0.30
     Davidson diagonalization with overlap
     ethr =  2.32E-10,  avg # of iterations =  1.0

     negative rho (up, down):  0.312E-01 0.312E-01

     End of self-consistent calculation

 ------ SPIN UP ------------

[...]

 ------ SPIN DOWN ----------

[...]

          k = 0.3783 0.3783 0.6939 (  1952 PWs)   bands (ev):

[...]

          k =-0.3783 0.3783-0.6939 (  1952 PWs)   bands (ev):

   -67.6914 -67.6914 -29.7975 -29.7970 -29.5563 -29.5550 -29.5188 -29.5181
    -5.9785  -5.7838  -5.6461  -5.4299   5.5499   5.8956   6.1145   6.3807
     6.4299   7.1549   7.2411   7.9159   9.1800   9.3509  10.1236  10.3414
    12.8224  13.1212  13.8884  14.2813  15.5145  15.6033  17.3281  18.2876
    18.5469  19.3462  22.2390  22.6357  23.2825  23.3626  26.8314  26.9283
    27.3591  27.5514  29.7085  29.9913  30.9059  31.5713  32.1145  32.7796
    35.0189  35.3189  36.3139  36.4000  38.8168  39.1451  40.2711  40.7140
    41.0225  41.2401  42.7596  43.6684  43.7946  44.1750  44.4905  45.1266
    45.6163  45.6243  45.9205  46.5917  47.2463  47.2504  47.9448  48.1723
    49.4706  50.4775  52.9883  53.5469  53.9439  54.3058  54.9751  55.1701
    56.3106

     the Fermi energy is    14.0577 ev

!    total energy              =    -518.54651435 Ry
     Harris-Foulkes estimate   =    -518.54651223 Ry
     estimated scf accuracy    <          4.1E-09 Ry

     The total energy is the sum of the following terms:

     one-electron contribution =    -131.57947151 Ry
     hartree contribution      =      94.70030733 Ry
     xc contribution           =    -142.38016508 Ry
     ewald contribution        =    -339.28679795 Ry
     smearing contrib. (-TS)   =      -0.00038715 Ry

     total magnetization       =     0.00 Bohr mag/cell
     absolute magnetization    =     0.00 Bohr mag/cell

     convergence has been achieved in  10 iterations

     Forces acting on atoms (Ry/au):

     negative rho (up, down):  0.312E-01 0.312E-01
     atom    1 type  1   force =     0.00000000    0.00000000    0.00000000
     atom    2 type  1   force =     0.00000000    0.00000000    0.00000000
     atom    3 type  2   force =    -0.00005818   -0.00005818    0.00000000
     atom    4 type  2   force =     0.00005818    0.00005818    0.00000000
     atom    5 type  2   force =    -0.00005842    0.00005842   -0.00000000
     atom    6 type  2   force =     0.00005842   -0.00005842   -0.00000000

     Total force =     0.000165     Total SCF correction =     0.000030
     SCF correction compared to forces is large: reduce conv_thr to get better values

     entering subroutine stress ...

     negative rho (up, down):  0.312E-01 0.312E-01
          total   stress  (Ry/bohr**3)                   (kbar)     P= -109.41
  -0.00072413  -0.00000003   0.00000000       -106.52     -0.00      0.00
  -0.00000003  -0.00072413   0.00000000         -0.00   -106.52      0.00
   0.00000000   0.00000000  -0.00078297          0.00      0.00   -115.18

     General routines

     Parallel routines

   This run was terminated on:  15:47:57  24Jan2014

   JOB DONE.
Running PBS batch system epilogue script
Job id: 251992.audhumbla.fysik.dtu.dk
Username: zhonxu
Groupname: campgst
Jobname: ReO2/fine-EOS/non-mag/ReO2-v-1.05
Sessionid: 3373
Queuename: verylong
Accounting:
This job has allocated the following 4 nodes:
q088 q088 q088 q088
Finished epilogue job 251992.audhumbla.fysik.dtu.dk for zhonxu