     Program PWSCF v.5.0.2 (svn rev. 9656) starts on  8Feb2014 at 17:13:53

     Current dimensions of program PWSCF are:
     Max number of different atomic species (ntypx) = 10
     Max number of k-points (npk) =  40000
     Max angular momentum in pseudopotentials (lmaxx) =  3
     Reading input from PtO2-1-pert.in
Warning: card &IONS ignored
Warning: card / ignored
Warning: card &CELL ignored
Warning: card / ignored

     Subspace diagonalization in iterative solution of the eigenvalue problem:
     a serial algorithm will be used

     bravais-lattice index     =            0
     lattice parameter (alat)  =      17.3477  a.u.
     unit-cell volume          =    3673.7913 (a.u.)^3
     number of atoms/cell      =           48
     number of atomic types    =            3
     number of electrons       =       448.00
     number of Kohn-Sham states=          672
     kinetic-energy cutoff     =      40.0000  Ry
     charge density cutoff     =     500.0000  Ry
     convergence threshold     =      1.0E-06
     mixing beta               =       0.7000
     number of iterations used =            8  plain     mixing
     Exchange-correlation      = SLA  PW   PBE  PBE ( 1 4 3 4 0)
     EXX-fraction              =        0.00

     celldm(1)=  17.347686  celldm(2)=   0.000000  celldm(3)=   0.000000
     celldm(4)=   0.000000  celldm(5)=   0.000000  celldm(6)=   0.000000

     crystal axes: (cart. coord. in units of alat)
               a(1) = (   1.000000   0.000000   0.000000 )
               a(2) = (   0.000000   1.000000   0.000000 )
               a(3) = (   0.000000   0.000000   0.703704 )

     reciprocal axes: (cart. coord. in units 2 pi/alat)
               b(1) = (  1.000000  0.000000  0.000000 )
               b(2) = (  0.000000  1.000000  0.000000 )
               b(3) = (  0.000000  0.000000  1.421053 )

     PseudoPot. # 1 for Pt read from file:
     /home/camp/zhonxu/pseudo/pt_pbe_v1.uspp.F.UPF
     MD5 check sum: 4c71d6ad5ef119f1eb26a4d0b7884226
     Pseudo is Ultrasoft + core correction, Zval = 16.0
     Generated by new atomic code, or converted to UPF format
     Using radial grid of  985 points,  6 beta functions with:
                l(1) =   0
                l(2) =   0
                l(3) =   1
                l(4) =   1
                l(5) =   2
                l(6) =   2
     Q(r) pseudized with  8 coefficients,  rinner =    1.300   1.300   1.300
                                                       1.300   1.300

     PseudoPot. # 2 for Pt read from file:
     /home/camp/zhonxu/pseudo/pt_pbe_v1.uspp.F.UPF
     MD5 check sum: 4c71d6ad5ef119f1eb26a4d0b7884226
     Pseudo is Ultrasoft + core correction, Zval = 16.0
     Generated by new atomic code, or converted to UPF format
     Using radial grid of  985 points,  6 beta functions with:
                l(1) =   0
                l(2) =   0
                l(3) =   1
                l(4) =   1
                l(5) =   2
                l(6) =   2
     Q(r) pseudized with  8 coefficients,  rinner =    1.300   1.300   1.300
                                                       1.300   1.300

     PseudoPot. # 3 for O  read from file:
     /home/camp/zhonxu/pseudo/o_pbe_v1.01.uspp.F.UPF
     MD5 check sum: 2bcb18d16ea4b960afae9ec6d52f22d2
     Pseudo is Ultrasoft + core correction, Zval =  6.0
     Generated by new atomic code, or converted to UPF format
     Using radial grid of  737 points,  5 beta functions with:
                l(1) =   0
                l(2) =   0
                l(3) =   1
                l(4) =   1
                l(5) =   2
     Q(r) pseudized with  8 coefficients,  rinner =    0.900   0.900   0.900
                                                       0.900   0.900

     atomic species   valence    mass     pseudopotential
        Pt0           16.00   195.08000     Pt( 1.00)
        Pt1           16.00   195.08000     Pt( 1.00)
        O2             6.00    15.99940     O ( 1.00)

     Starting magnetic structure
     atomic species   magnetization
        Pt0          0.000
        Pt1          0.000
        O2           0.000

     Simplified LDA+U calculation (l_max = 2) with parameters (eV):
     atomic species    L          U    alpha       J0     beta
        Pt0            2     0.0000   0.0000   0.0000   0.0000
        Pt1            2     0.0000   0.0000   0.0000   0.0000
        O2             1     0.0000   0.0000   0.0000   0.0000

      8 Sym. Ops., with inversion, found

   Cartesian axes

     site n.     atom                  positions (alat units)
         1           Pt0 tau(   1) = (   0.0000000   0.0000000   0.0000000  )
         2           Pt1 tau(   2) = (   0.2500000   0.2500000   0.1759259  )
         3           Pt1 tau(   3) = (   0.0000000   0.0000000   0.3518519  )
         4           Pt1 tau(   4) = (   0.2500000   0.2500000   0.5277778  )
         5           Pt1 tau(   5) = (   0.0000000   0.5000000   0.0000000  )
         6           Pt1 tau(   6) = (   0.2500000   0.7500000   0.1759259  )
         7           Pt1 tau(   7) = (   0.0000000   0.5000000   0.3518519  )
         8           Pt1 tau(   8) = (   0.2500000   0.7500000   0.5277778  )
         9           Pt1 tau(   9) = (   0.5000000   0.0000000   0.0000000  )
        10           Pt1 tau(  10) = (   0.7500000   0.2500000   0.1759259  )
        11           Pt1 tau(  11) = (   0.5000000   0.0000000   0.3518519  )
        12           Pt1 tau(  12) = (   0.7500000   0.2500000   0.5277778  )
        13           Pt1 tau(  13) = (   0.5000000   0.5000000   0.0000000  )
        14           Pt1 tau(  14) = (   0.7500000   0.7500000   0.1759259  )
        15           Pt1 tau(  15) = (   0.5000000   0.5000000   0.3518519  )
        16           Pt1 tau(  16) = (   0.7500000   0.7500000   0.5277778  )
        17           O2  tau(  17) = (   0.1550000   0.1550000   0.0000000  )
        18           O2  tau(  18) = (  -0.1550000  -0.1550000   0.0000000  )
        19           O2  tau(  19) = (   0.4050000   0.0950000   0.1759259  )
        20           O2  tau(  20) = (   0.0950000   0.4050000   0.1759259  )
        21           O2  tau(  21) = (   0.1550000   0.1550000   0.3518519  )
        22           O2  tau(  22) = (  -0.1550000  -0.1550000   0.3518519  )
        23           O2  tau(  23) = (   0.4050000   0.0950000   0.5277778  )
        24           O2  tau(  24) = (   0.0950000   0.4050000   0.5277778  )
        25           O2  tau(  25) = (   0.1550000   0.6550000   0.0000000  )
        26           O2  tau(  26) = (  -0.1550000   0.3450000   0.0000000  )
        27           O2  tau(  27) = (   0.4050000   0.5950000   0.1759259  )
        28           O2  tau(  28) = (   0.0950000   0.9050000   0.1759259  )
        29           O2  tau(  29) = (   0.1550000   0.6550000   0.3518519  )
        30           O2  tau(  30) = (  -0.1550000   0.3450000   0.3518519  )
        31           O2  tau(  31) = (   0.4050000   0.5950000   0.5277778  )
        32           O2  tau(  32) = (   0.0950000   0.9050000   0.5277778  )
        33           O2  tau(  33) = (   0.6550000   0.1550000   0.0000000  )
        34           O2  tau(  34) = (   0.3450000  -0.1550000   0.0000000  )
        35           O2  tau(  35) = (   0.9050000   0.0950000   0.1759259  )
        36           O2  tau(  36) = (   0.5950000   0.4050000   0.1759259  )
        37           O2  tau(  37) = (   0.6550000   0.1550000   0.3518519  )
        38           O2  tau(  38) = (   0.3450000  -0.1550000   0.3518519  )
        39           O2  tau(  39) = (   0.9050000   0.0950000   0.5277778  )
        40           O2  tau(  40) = (   0.5950000   0.4050000   0.5277778  )
        41           O2  tau(  41) = (   0.6550000   0.6550000   0.0000000  )
        42           O2  tau(  42) = (   0.3450000   0.3450000   0.0000000  )
        43           O2  tau(  43) = (   0.9050000   0.5950000   0.1759259  )
        44           O2  tau(  44) = (   0.5950000   0.9050000   0.1759259  )
        45           O2  tau(  45) = (   0.6550000   0.6550000   0.3518519  )
        46           O2  tau(  46) = (   0.3450000   0.3450000   0.3518519  )
        47           O2  tau(  47) = (   0.9050000   0.5950000   0.5277778  )
        48           O2  tau(  48) = (   0.5950000   0.9050000   0.5277778  )

     number of k points=    42  Methfessel-Paxton smearing, width (Ry)=  0.0100
                       cart. coord. in units 2pi/alat
        k(    1) = (   0.0000000   0.0000000   0.0000000), wk =   0.0156250
        k(    2) = (   0.0000000   0.0000000   0.3552632), wk =   0.0312500
        k(    3) = (   0.0000000   0.0000000  -0.7105263), wk =   0.0156250
        k(    4) = (   0.0000000   0.2500000   0.0000000), wk =   0.0625000
        k(    5) = (   0.0000000   0.2500000   0.3552632), wk =   0.1250000
        k(    6) = (   0.0000000   0.2500000  -0.7105263), wk =   0.0625000
        k(    7) = (   0.0000000  -0.5000000   0.0000000), wk =   0.0312500
        k(    8) = (   0.0000000  -0.5000000   0.3552632), wk =   0.0625000
        k(    9) = (   0.0000000  -0.5000000  -0.7105263), wk =   0.0312500
        k(   10) = (   0.2500000   0.2500000   0.0000000), wk =   0.0312500
        k(   11) = (   0.2500000   0.2500000   0.3552632), wk =   0.0625000
        k(   12) = (   0.2500000   0.2500000  -0.7105263), wk =   0.0312500
        k(   13) = (   0.2500000  -0.5000000   0.0000000), wk =   0.0625000
        k(   14) = (   0.2500000  -0.5000000   0.3552632), wk =   0.1250000
        k(   15) = (   0.2500000  -0.5000000  -0.7105263), wk =   0.0625000
        k(   16) = (  -0.5000000  -0.5000000   0.0000000), wk =   0.0156250
        k(   17) = (  -0.5000000  -0.5000000   0.3552632), wk =   0.0312500
        k(   18) = (  -0.5000000  -0.5000000  -0.7105263), wk =   0.0156250
        k(   19) = (  -0.2500000   0.2500000   0.0000000), wk =   0.0312500
        k(   20) = (  -0.2500000   0.2500000  -0.3552632), wk =   0.0625000
        k(   21) = (  -0.2500000   0.2500000   0.7105263), wk =   0.0312500
        k(   22) = (   0.0000000   0.0000000   0.0000000), wk =   0.0156250
        k(   23) = (   0.0000000   0.0000000   0.3552632), wk =   0.0312500
        k(   24) = (   0.0000000   0.0000000  -0.7105263), wk =   0.0156250
        k(   25) = (   0.0000000   0.2500000   0.0000000), wk =   0.0625000
        k(   26) = (   0.0000000   0.2500000   0.3552632), wk =   0.1250000
        k(   27) = (   0.0000000   0.2500000  -0.7105263), wk =   0.0625000
        k(   28) = (   0.0000000  -0.5000000   0.0000000), wk =   0.0312500
        k(   29) = (   0.0000000  -0.5000000   0.3552632), wk =   0.0625000
        k(   30) = (   0.0000000  -0.5000000  -0.7105263), wk =   0.0312500
        k(   31) = (   0.2500000   0.2500000   0.0000000), wk =   0.0312500
        k(   32) = (   0.2500000   0.2500000   0.3552632), wk =   0.0625000
        k(   33) = (   0.2500000   0.2500000  -0.7105263), wk =   0.0312500
        k(   34) = (   0.2500000  -0.5000000   0.0000000), wk =   0.0625000
        k(   35) = (   0.2500000  -0.5000000   0.3552632), wk =   0.1250000
        k(   36) = (   0.2500000  -0.5000000  -0.7105263), wk =   0.0625000
[...]
atomic mag. moment =    -0.000000
atom   42   Tr[ns(na)] (up, down, total) =   2.66723  2.66723  5.33447
   spin  1
    eigenvalues:
  0.845  0.848  0.974
    eigenvectors:
  0.000  1.000  0.000
  0.500  0.000  0.500
  0.500  0.000  0.500
    occupations:
  0.848 -0.000  0.000
 -0.000  0.910 -0.064
  0.000 -0.064  0.910
   spin  2
    eigenvalues:
  0.845  0.848  0.974
    eigenvectors:
  0.000  1.000  0.000
  0.500  0.000  0.500
  0.500  0.000  0.500
    occupations:
  0.848 -0.000  0.000
 -0.000  0.910 -0.064
  0.000 -0.064  0.910
atomic mag. moment =    -0.000000
atom   43   Tr[ns(na)] (up, down, total) =   2.66723  2.66723  5.33446
   spin  1
    eigenvalues:
  0.845  0.848  0.974
    eigenvectors:
  0.000  1.000  0.000
  0.500  0.000  0.500
  0.500  0.000  0.500
    occupations:
  0.848 -0.000  0.000
 -0.000  0.910  0.064
  0.000  0.064  0.910
   spin  2
    eigenvalues:
  0.845  0.848  0.974
    eigenvectors:
  0.000  1.000  0.000
  0.500  0.000  0.500
  0.500  0.000  0.500
    occupations:
  0.848 -0.000  0.000
 -0.000  0.910  0.064
  0.000  0.064  0.910
atomic mag. moment =    -0.000000
atom   44   Tr[ns(na)] (up, down, total) =   2.66723  2.66723  5.33446
   spin  1
    eigenvalues:
  0.845  0.848  0.974
    eigenvectors:
  0.000  1.000  0.000
  0.500  0.000  0.500
  0.500  0.000  0.500
    occupations:
  0.848  0.000 -0.000
  0.000  0.910  0.064
 -0.000  0.064  0.910
   spin  2
    eigenvalues:
  0.845  0.848  0.974
    eigenvectors:
  0.000  1.000  0.000
  0.500  0.000  0.500
  0.500  0.000  0.500
    occupations:
  0.848  0.000 -0.000
  0.000  0.910  0.064
 -0.000  0.064  0.910
atomic mag. moment =    -0.000000
atom   45   Tr[ns(na)] (up, down, total) =   2.66726  2.66726  5.33453
   spin  1
    eigenvalues:
  0.845  0.848  0.974
    eigenvectors:
  0.000  1.000  0.000
  0.500  0.000  0.500
  0.500  0.000  0.500
    occupations:
  0.848 -0.000  0.000
 -0.000  0.910 -0.064
  0.000 -0.064  0.910
   spin  2
    eigenvalues:
  0.845  0.848  0.974
    eigenvectors:
  0.000  1.000  0.000
  0.500  0.000  0.500
  0.500  0.000  0.500
    occupations:
  0.848 -0.000  0.000
 -0.000  0.910 -0.064
  0.000 -0.064  0.910
atomic mag. moment =    -0.000000
atom   46   Tr[ns(na)] (up, down, total) =   2.66726  2.66726  5.33453
   spin  1
    eigenvalues:
  0.845  0.848  0.974
    eigenvectors:
  0.000  1.000  0.000
  0.500  0.000  0.500
  0.500  0.000  0.500
    occupations:
  0.848 -0.000  0.000
 -0.000  0.910 -0.064
  0.000 -0.064  0.910
   spin  2
    eigenvalues:
  0.845  0.848  0.974
    eigenvectors:
  0.000  1.000  0.000
  0.500  0.000  0.500
  0.500  0.000  0.500
    occupations:
  0.848 -0.000  0.000
 -0.000  0.910 -0.064
  0.000 -0.064  0.910
atomic mag. moment =    -0.000000
atom   47   Tr[ns(na)] (up, down, total) =   2.66723  2.66723  5.33446
   spin  1
    eigenvalues:
  0.845  0.848  0.974
    eigenvectors:
  0.000  1.000  0.000
  0.500  0.000  0.500
  0.500  0.000  0.500
    occupations:
  0.848  0.000 -0.000
  0.000  0.910  0.064
 -0.000  0.064  0.910
   spin  2
    eigenvalues:
  0.845  0.848  0.974
    eigenvectors:
  0.000  1.000  0.000
  0.500  0.000  0.500
  0.500  0.000  0.500
    occupations:
  0.848  0.000 -0.000
  0.000  0.910  0.064
 -0.000  0.064  0.910
atomic mag. moment =    -0.000000
atom   48   Tr[ns(na)] (up, down, total) =   2.66723  2.66723  5.33446
   spin  1
    eigenvalues:
  0.845  0.848  0.974
    eigenvectors:
  0.000  1.000  0.000
  0.500  0.000  0.500
  0.500  0.000  0.500
    occupations:
  0.848 -0.000  0.000
 -0.000  0.910  0.064
  0.000  0.064  0.910
   spin  2
    eigenvalues:
  0.845  0.848  0.974
    eigenvectors:
  0.000  1.000  0.000
  0.500  0.000  0.500
  0.500  0.000  0.500
    occupations:
  0.848 -0.000  0.000
 -0.000  0.910  0.064
  0.000  0.064  0.910
atomic mag. moment =    -0.000000
N of occupied +U levels = 308.8074019
 --- exit write_ns ---

 ------ SPIN UP ------------

          k = 0.0000 0.0000 0.0000 ( 15677 PWs)   bands (ev):

   -41.9290 -41.9289 -41.9288 -41.9287 -41.9286 -41.9286 -41.9285 -41.9283
   -41.8774 -41.8738 -41.8737 -41.8737 -41.8735 -41.8734 -41.8734 -41.8696
   -41.7120 -41.7117 -41.7117 -41.7115 -41.7108 -41.7107 -41.7106 -41.7105
   -41.7076 -41.7073 -41.7073 -41.7072 -41.7071 -41.7070 -41.7070 -41.7068
   -41.6058 -41.6057 -41.6056 -41.6054 -41.6048 -41.6046 -41.6045 -41.6043
   -41.5984 -41.5983 -41.5982 -41.5982 -41.5982 -41.5980 -41.5979 -41.5979
    -7.8181  -7.1780  -7.1779  -7.0842  -7.0842  -7.0841  -7.0840  -6.6862
    -6.5488  -6.5487  -6.5487  -6.5486  -6.5429  -6.5428  -6.4271  -6.4270
    -6.2856  -6.2855  -6.1946  -6.1945  -6.1780  -6.1780  -6.1779  -6.1778
    -6.0397  -6.0396  -6.0396  -6.0395  -5.8632  -5.8631  -5.7414  -5.7413
     3.2703   3.3581   3.3581   3.4281   4.4729   4.4729   4.4729   4.4730
     4.5686   4.5687   4.5687   4.5688   4.6514   4.6514   4.7421   4.7423
     4.7929   4.7929   4.8093   4.8094   4.9105   4.9105   4.9107   4.9107
     5.0574   5.0574   5.0574   5.0575   5.3080   5.3081   5.4158   5.4159
     5.4258   5.6707   5.6708   5.9917   5.9918   6.1724   6.1725   6.1725
     6.1725   6.8735   6.8735   6.8735   6.8736   6.8948   6.8948   6.8949
     6.8949   7.0135   7.0137   7.0376   7.0377   7.3249   7.3249   7.3250
     7.3250   7.4937   7.4937   7.5435   7.5436   7.5436   7.5436   7.5608
     7.5609   7.8571   7.9705   7.9705   7.9705   7.9706   8.0711   8.0711
     8.2529   8.2529   8.3474   8.3475   8.6483   8.6485   8.9668   8.9668
     9.0500   9.0501   9.0501   9.0502   9.0732   9.1706   9.1708   9.1859
     9.1860   9.1959   9.1961   9.3564   9.3845   9.4839   9.4841   9.5457
     9.5459   9.5552   9.5552   9.5683   9.5684   9.5685   9.5686   9.5777
     9.6214   9.6214   9.9659   9.9659   9.9659   9.9660   9.9886   9.9886
     9.9887   9.9887  10.2289  10.2290  10.2290  10.2290  10.2754  10.2755
    10.4693  10.4693  10.4694  10.4694  10.9723  11.1916  11.1916  11.4162
    11.4163  11.5745  11.5746  11.7031  11.7032  11.7033  11.7033  11.8567
    12.0827  12.0827  12.0828  12.0828  12.3045  12.3046  12.3534  12.3536
    12.5696  12.5696  12.5697  12.5697  12.9278  13.5212  13.5214  13.5471
    13.5472  13.6621  13.6622  14.0208  14.0209  14.5138  14.5140  14.8823
    14.8823  14.8824  14.8824  15.0570  15.0570  15.0571  15.0572  15.4965
    15.4967  15.5121  15.5122  15.8690  15.8691  15.8691  15.8691  16.2521
    16.7702  19.3340  19.3340  19.3341  19.3341  20.7986  20.7987  21.1052
    21.1052  21.2858  21.2859  21.3128  21.3129  21.3625  21.3625  22.1057
    22.1057  22.1058  22.1058  22.1286  22.1286  22.1286  22.1286  22.1522
    22.1522  22.1522  22.1522  22.2150  22.2150  23.0232  24.2395  24.2396
    24.3541  24.3541  24.6834  24.6834  25.1671  25.1671  25.2118  25.2118
    25.4748  25.7236  25.7380  25.7380  25.7380  25.7380  25.7585  25.7585
    25.7585  25.7585  26.2568  26.2568  26.2568  26.2568  26.6515  26.6515
    26.7214  26.7215  27.2522  27.2522  27.2522  27.2522  27.2726  27.2726
    27.5332  27.5332  27.5332  27.5332  27.5787  28.0529  28.3262  28.5495
    28.5495  28.8839  28.8839  28.8839  28.8839  29.0971  29.0971  29.8184
    29.8184  29.8185  29.8185  29.8547  29.8548  29.9785  29.9785  30.0552
    30.0554  30.1032  30.1032  30.1032  30.1032  30.3906  30.3910  30.3949
    30.3950  30.3952  30.3954  30.3957  30.4109  30.4220  30.4221  30.4223
    30.4226  30.4229  30.4233  30.7873  30.7875  30.8006  31.0369  31.0370
    31.0370  31.0370  31.7055  31.7055  31.7888  31.7889  32.2841  32.2841
    32.2841  32.2841  32.7951  32.7952  32.9357  32.9357  33.3500  33.3501
    33.8697  33.8697  33.9337  33.9337  34.3433  34.3433  34.3433  34.3433
    34.7985  34.7985  34.8621  34.8621  34.8914  34.8914  34.8914  34.8914
    35.0777  35.0778  35.3349  35.3349  35.5519  36.1788  36.1788  36.1825
    36.1825  36.1825  36.1825  36.2440  36.2440  36.2440  36.2440  36.9245
    36.9245  37.0014  37.0014  37.0014  37.0014  37.2756  37.4694  37.4694
    37.4694  37.4695  37.5245  37.5246  37.5396  37.5397  37.8337  38.0341
    38.0341  38.3537  38.3537  38.3537  38.3537  38.6280  38.6281  38.7322
    38.7323  38.8325  38.8325  38.8325  38.8326  38.9479  38.9479  39.1029
    39.1029  39.1428  39.1647  39.1647  39.1648  39.1648  39.5732  39.6513
    40.1918  40.1918  40.3609  40.3609  40.6112  41.0896  41.0896  41.0896
    41.0896  41.1077  41.1078  41.2913  41.2914  41.2914  41.2914  41.3863
    41.3863  41.8743  41.8744  42.0510  42.1639  42.1639  42.1639  42.1639
[...]
    47.1392  47.2069  47.2445  47.2445  47.6963  47.6964  47.7649  47.7649
    47.7649  47.7649  47.8397  47.8398  48.1806  48.1806  48.3356  48.3356
    48.4829  48.4829  48.4926  48.4926  48.5428  48.5428  48.5428  48.5428
    48.8141  48.8142  49.1249  49.1249  49.1250  49.1250  49.2175  49.2175
    49.3036  49.3036  49.5498  49.5498  49.5499  49.5499  49.6871  50.1036
    50.1036  50.3041  50.3042  50.3770  50.3770  50.4856  50.6069  50.6069
    50.7694  50.7695  50.7695  50.7695  51.1628  51.1628  51.1628  51.1628
    51.2614  51.2614  51.5651  51.5652  51.6239  51.6239  51.6267  51.6267
    51.6267  51.6267  51.9403  52.0656  52.0657  52.1143  52.1143  52.1143
    52.1143  52.2205  52.2206  52.6727  52.6727  52.8770  52.8770  52.8770
    52.8770  53.0184  53.0895  53.0895  53.1321  53.4405  53.4405  53.4613
    53.7651  54.2384  54.2384  54.2637  54.2637  54.2637  54.2637  54.2995
    54.2995  54.2995  54.2995  54.5297  54.5297  54.5298  54.5298  54.8272
    54.8272  54.9601  54.9602  55.3565  55.3565  55.4292  55.4292  55.4293
    55.4293  55.4486  55.4486  55.4486  55.4486  55.5387  55.5387  55.8650

[...]

          k =-0.5000-0.5000 0.0000 ( 15760 PWs)   bands (ev):

[...]

 ------ SPIN DOWN ----------

[...]

          k = 0.2500-0.5000-0.7105 ( 15696 PWs)   bands (ev):

[...]

          k =-0.2500 0.2500 0.7105 ( 15684 PWs)   bands (ev):

   -41.9036 -41.9035 -41.9023 -41.9022 -41.9022 -41.9022 -41.9015 -41.9015
   -41.9007 -41.9007 -41.9003 -41.9003 -41.9002 -41.9002 -41.8988 -41.8988
   -41.7095 -41.7094 -41.7094 -41.7094 -41.7094 -41.7094 -41.7093 -41.7093
   -41.7093 -41.7093 -41.7092 -41.7092 -41.7088 -41.7087 -41.7086 -41.7086
   -41.6020 -41.6020 -41.6020 -41.6020 -41.6016 -41.6016 -41.6016 -41.6016
   -41.6016 -41.6016 -41.6015 -41.6015 -41.6014 -41.6014 -41.6013 -41.6012
    -7.2532  -7.2532  -6.9586  -6.9586  -6.9585  -6.9585  -6.8781  -6.8780
    -6.7153  -6.7153  -6.5370  -6.5370  -6.5370  -6.5370  -6.4540  -6.4540
    -6.2634  -6.2634  -6.2634  -6.2633  -6.1592  -6.1592  -6.1070  -6.1070
    -6.1068  -6.1068  -6.1004  -6.1004  -6.0651  -6.0651  -5.9909  -5.9909
     3.9515   3.9515   3.9667   3.9667   4.3009   4.3009   4.3098   4.3098
     4.3099   4.3099   4.3176   4.3176   4.8766   4.8766   4.8766   4.8766
     5.0082   5.0082   5.1291   5.1291   5.2104   5.2104   5.2210   5.2210
     5.2210   5.2210   5.3859   5.3859   5.3859   5.3860   5.4269   5.4269
     5.6136   5.6136   5.6137   5.6137   5.9468   5.9468   6.1792   6.1792
     6.1792   6.1792   6.1947   6.1947   6.2190   6.2190   6.7048   6.7048
     6.8348   6.8349   6.9376   6.9376   6.9376   6.9376   7.1485   7.1485
     7.1485   7.1485   7.2841   7.2841   7.7563   7.7563   7.7564   7.7564
     7.7688   7.7688   7.7801   7.7801   7.8078   7.8078   7.8376   7.8376
     7.9321   7.9321   7.9321   7.9321   8.1673   8.1673   8.3775   8.3776
     8.4462   8.4462   8.6087   8.6087   8.7012   8.7012   8.7012   8.7013
     9.1655   9.1655   9.2291   9.2291   9.2292   9.2292   9.2899   9.2899
     9.7418   9.7418   9.7702   9.7702  10.2949  10.2950  10.2950  10.2950
    10.3008  10.3008  10.3802  10.3802  10.4636  10.4636  10.4636  10.4636
    10.5064  10.5064  10.6098  10.6098  10.6098  10.6098  10.6907  10.6907
    10.8300  10.8300  10.9726  10.9726  10.9726  10.9727  11.2455  11.2455
    11.6743  11.6743  11.7796  11.7796  11.7797  11.7797  11.8347  11.8347
    11.9030  11.9030  12.0089  12.0089  12.0089  12.0089  12.3462  12.3462
    13.3121  13.3121  13.3122  13.3122  13.3684  13.3684  13.7037  13.7037
    13.7037  13.7037  13.7350  13.7350  13.9233  13.9233  14.2837  14.2837
    14.3655  14.3655  14.3956  14.3956  14.8102  14.8102  14.8102  14.8102
    15.0671  15.0671  15.6646  15.6646  15.6647  15.6647  15.6965  15.6965
    18.6310  18.6310  19.7603  19.7603  19.7603  19.7603  20.4546  20.4547
    21.2298  21.2298  21.2866  21.2866  21.2866  21.2867  22.2567  22.2567
    22.3494  22.3494  22.5950  22.5951  22.8247  22.8247  22.8612  22.8612
    22.8612  22.8612  22.9851  22.9851  23.0355  23.0355  23.0355  23.0356
    24.4277  24.4277  24.6503  24.6503  24.6529  24.6529  24.6529  24.6529
    25.1465  25.1465  25.6238  25.6238  25.6238  25.6238  25.9561  25.9561
    26.2114  26.2115  26.2733  26.2733  26.6903  26.6903  26.6903  26.6903
    26.9955  26.9955  26.9955  26.9955  27.0172  27.0172  27.1289  27.1289
    27.3456  27.3456  27.4223  27.4224  27.4224  27.4224  27.5168  27.5168
    27.7483  27.7483  28.3643  28.3643  28.3643  28.3643  28.5778  28.5778
    28.5833  28.5833  29.1643  29.1643  29.1643  29.1644  30.3761  30.3761
    30.3822  30.3824  30.3825  30.3826  30.3907  30.3908  30.3949  30.3950
    30.4060  30.4060  30.4062  30.4062  30.4173  30.4174  30.7105  30.7106
    30.7106  30.7106  30.8325  30.8325  31.1421  31.1421  31.6205  31.6205
    31.6205  31.6205  31.7775  31.7775  32.2749  32.2750  32.2882  32.2882
    33.0411  33.0411  33.0411  33.0411  33.1916  33.1916  33.6815  33.6815
    33.7812  33.7812  34.5160  34.5160  34.5160  34.5160  34.5986  34.5986
    34.6468  34.6468  34.6620  34.6620  34.7252  34.7252  34.8153  34.8153
    34.8153  34.8153  35.6443  35.6443  35.6690  35.6690  35.6690  35.6690
    35.7540  35.7540  35.7540  35.7540  35.9578  35.9578  37.2272  37.2272
    37.2272  37.2272  37.3209  37.3209  37.4384  37.4384  37.4838  37.4838
    37.5250  37.5251  37.5251  37.5251  37.5542  37.5542  37.8349  37.8350
    37.8484  37.8484  38.0601  38.0601  38.1195  38.1195  38.3633  38.3633
    38.3633  38.3633  38.5177  38.5177  38.5177  38.5177  38.7022  38.7022
    39.2310  39.2310  39.3708  39.3708  39.3708  39.3708  39.8324  39.8324
    40.3887  40.3887  40.4820  40.4820  40.7077  40.7077  40.8645  40.8645
    40.8645  40.8645  40.9343  40.9343  41.5111  41.5111  41.6157  41.6157
    41.6157  41.6157  41.6300  41.6300  41.8750  41.8750  41.8750  41.8750
[...]
    47.7279  47.7279  47.8584  47.8584  47.8584  47.8584  48.0484  48.0484
    48.0637  48.0637  48.1941  48.1941  48.1941  48.1941  48.3605  48.3605
    48.4063  48.4063  48.6657  48.6657  48.6657  48.6657  49.0306  49.0306
    49.1716  49.1716  49.2607  49.2607  49.2607  49.2607  49.4939  49.4939
    49.6370  49.6370  49.6370  49.6370  49.7314  49.7314  49.7784  49.7784
    49.9138  49.9138  49.9778  49.9778  49.9778  49.9778  50.5892  50.5892
    50.5892  50.5892  50.6213  50.6213  50.8414  50.8414  51.0429  51.0429
    51.1541  51.1541  51.3109  51.3110  51.3110  51.3110  51.7430  51.7431
    52.1128  52.1129  52.2379  52.2379  52.2379  52.2379  52.3524  52.3524
    52.5472  52.5472  52.8861  52.8861  52.9232  52.9232  52.9232  52.9232
    52.9659  52.9659  53.1270  53.1270  53.5649  53.5649  53.7403  53.7403
    53.7403  53.7403  53.7800  53.7800  53.7800  53.7800  53.9629  53.9629
    54.0227  54.0227  54.4506  54.4506  54.4546  54.4546  54.4546  54.4546
    54.7706  54.7706  54.7706  54.7706  54.7914  54.7914  55.2215  55.2215
    55.2829  55.2829  55.3922  55.3922  55.6160  55.6160  55.6160  55.6161

     the Fermi energy is    12.4873 ev

!    total energy              =   -4359.52004645 Ry
     Harris-Foulkes estimate   =   -4359.52004656 Ry
     estimated scf accuracy    <       0.00000012 Ry

     The total energy is the sum of the following terms:

     one-electron contribution =   -1092.72071626 Ry
     hartree contribution      =     841.62057535 Ry
     xc contribution           =   -1097.30359727 Ry
     ewald contribution        =   -3011.11594880 Ry
     Hubbard energy            =       0.00000000 Ry
     smearing contrib. (-TS)   =      -0.00035947 Ry

     total magnetization       =     0.00 Bohr mag/cell
     absolute magnetization    =     0.00 Bohr mag/cell

     convergence has been achieved in  14 iterations

     Writing output data file pwscf.save

     General routines

     Parallel routines
     Hubbard U routines

   This run was terminated on:   2: 1: 5   9Feb2014

   JOB DONE.
Running PBS batch system epilogue script
Job id: 266908.audhumbla.fysik.dtu.dk
Username: zhonxu
Groupname: campgst
Jobname: linear-response/PtO2-1-scf
Sessionid: 592
Queuename: verylong
Accounting:
This job has allocated the following 16 nodes:
c125 c125 c125 c125 c125 c125 c125 c125 c115 c115 c115 c115 c115 c115 c115 c115
Finished epilogue job 266908.audhumbla.fysik.dtu.dk for zhonxu