     Program PWSCF v.5.0.2 (svn rev. 9656) starts on 25May2014 at  3:24:28

     Current dimensions of program PWSCF are:
     Max number of different atomic species (ntypx) = 10
     Max number of k-points (npk) =  40000
     Max angular momentum in pseudopotentials (lmaxx) =  3
     Reading input from pwscf.in
Warning: card &CELL ignored
Warning: card / ignored

     Subspace diagonalization in iterative solution of the eigenvalue problem:
     a serial algorithm will be used

     bravais-lattice index     =            0
     lattice parameter (alat)  =      10.7336  a.u.
     unit-cell volume          =    6184.1966 (a.u.)^3
     number of atoms/cell      =           31
     number of atomic types    =            3
     number of electrons       =       238.00 (up: 130.00, down: 108.00)
     number of Kohn-Sham states=          345
     kinetic-energy cutoff     =      40.0000  Ry
     charge density cutoff     =     500.0000  Ry
     convergence threshold     =      1.0E-06
     mixing beta               =       0.7000
     number of iterations used =            8  plain     mixing
     Exchange-correlation      = SLA  PW   PBE  PBE ( 1 4 3 4 0)
     EXX-fraction              =        0.00
     nstep                     =           50

     celldm(1)=  10.733644  celldm(2)=   0.000000  celldm(3)=   0.000000
     celldm(4)=   0.000000  celldm(5)=   0.000000  celldm(6)=   0.000000

     crystal axes: (cart. coord. in units of alat)
               a(1) = (   1.000000   0.000000   0.000000 )
               a(2) = (   0.000000   1.085558   0.000000 )
               a(3) = (   0.000000   0.000000   4.606685 )

     reciprocal axes: (cart. coord. in units 2 pi/alat)
               b(1) = (  1.000000  0.000000  0.000000 )
               b(2) = (  0.000000  0.921185  0.000000 )
               b(3) = (  0.000000  0.000000  0.217076 )

     PseudoPot. # 1 for O  read from file:
     /home/camp/zhonxu/pseudo/o_pbe_v1.01.uspp.F.UPF
     MD5 check sum: 2bcb18d16ea4b960afae9ec6d52f22d2
     Pseudo is Ultrasoft + core correction, Zval =  6.0
     Generated by new atomic code, or converted to UPF format
     Using radial grid of  737 points,  5 beta functions with:
                l(1) =   0
                l(2) =   0
                l(3) =   1
                l(4) =   1
                l(5) =   2
     Q(r) pseudized with  8 coefficients,  rinner =    0.900   0.900   0.900
                                                       0.900   0.900

     PseudoPot. # 2 for Mn read from file:
     /home/camp/zhonxu/pseudo/mn_pbe_v1.uspp.F.UPF
     MD5 check sum: 5fd7c7b5c956fd19902447332617373a
     Pseudo is Ultrasoft + core correction, Zval = 15.0
     Generated by new atomic code, or converted to UPF format
     Using radial grid of  859 points,  6 beta functions with:
                l(1) =   0
                l(2) =   0
                l(3) =   1
                l(4) =   1
                l(5) =   2
                l(6) =   2
     Q(r) pseudized with  6 coefficients,  rinner =    1.150   1.150   1.150
                                                       1.150   1.150

     PseudoPot. # 3 for H  read from file:
     /home/camp/zhonxu/pseudo/h_pbe_v1.uspp.F.UPF
     MD5 check sum: 3408e3ff4ec8b0a4e358431e7e038a48
     Pseudo is Ultrasoft, Zval =  1.0
     Generated by new atomic code, or converted to UPF format
     Using radial grid of  615 points,  2 beta functions with:
                l(1) =   0
                l(2) =   0
     Q(r) pseudized with  8 coefficients,  rinner =    0.700

     atomic species   valence    mass     pseudopotential
        O0             6.00    15.99940     O ( 1.00)
        Mn1           15.00    54.93800     Mn( 1.00)
        H2             1.00     1.00794     H ( 1.00)

     Starting magnetic structure
     atomic species   magnetization
        O0           0.000
        Mn1          0.600
        H2           0.000

     Simplified LDA+U calculation (l_max = 2) with parameters (eV):
     atomic species    L          U    alpha       J0     beta
        Mn1            2     7.5000   0.0000   0.0000   0.0000

     No symmetry found

   Cartesian axes

     site n.     atom                  positions (alat units)
         1           O0  tau(   1) = (   0.0000000   0.0000000   1.7080206  )
         2           O0  tau(   2) = (   0.0000000   0.5427791   1.8045307  )
         3           Mn1 tau(   3) = (   0.2500000   0.5427791   2.0543973  )
         4           Mn1 tau(   4) = (   0.0000000   0.0000000   2.0560096  )
         5           O0  tau(   5) = (   0.2500000   0.8684466   2.0468423  )
         6           O0  tau(   6) = (   0.2500000   0.2171117   2.0654072  )
         7           O0  tau(   7) = (   0.0000000   0.5427791   2.2801248  )
         8           O0  tau(   8) = (   0.0000000   0.0000000   2.4266635  )
         9           Mn1 tau(   9) = (   0.2500000   0.0000000   2.6572741  )
        10           Mn1 tau(  10) = (   0.0000000   0.5427791   2.6377879  )
        11           O0  tau(  11) = (   0.2500000   0.7598908   2.7022354  )
        12           O0  tau(  12) = (   0.2500000   0.3256675   2.7041241  )
        13           O0  tau(  13) = (   0.0000000   0.0000000   2.8887601  )
        14           O0  tau(  14) = (   0.5000000   0.0000000   1.7070532  )
        15           O0  tau(  15) = (   0.5000000   0.5427791   1.8054981  )
        16           Mn1 tau(  16) = (   0.7500000   0.5427791   2.0542591  )
        17           Mn1 tau(  17) = (   0.5000000   0.0000000   2.0544894  )
        18           O0  tau(  18) = (   0.7500000   0.8684466   2.0468423  )
        19           O0  tau(  19) = (   0.7500000   0.2171117   2.0659140  )
        20           O0  tau(  20) = (   0.5000000   0.5427791   2.2906281  )
        21           O0  tau(  21) = (   0.5000000   0.0000000   2.4267096  )
        22           Mn1 tau(  22) = (   0.7500000   0.0000000   2.6572281  )
        23           Mn1 tau(  23) = (   0.5000000   0.5427791   2.6454350  )
        24           O0  tau(  24) = (   0.7500000   0.7598908   2.7022354  )
        25           O0  tau(  25) = (   0.7500000   0.3256675   2.7041702  )
        26           O0  tau(  26) = (   0.5000000   0.0000000   2.8928600  )
        27           H2  tau(  27) = (   0.0006400   0.7044188   1.7347855  )
        28           H2  tau(  28) = (   0.5007000   0.7030618   1.7339102  )
        29           H2  tau(  29) = (   0.1607300   0.0502396   1.6604336  )
        30           H2  tau(  30) = (   0.6604700   0.0508584   1.6594662  )
        31           O0  tau(  31) = (   0.4998600   0.5432894   2.9962340  )

     number of k points=    20  Methfessel-Paxton smearing, width (Ry)=  0.0100
                       cart. coord. in units 2pi/alat
        k(    1) = (   0.0000000   0.0000000   0.0000000), wk =   0.0625000
        k(    2) = (   0.0000000   0.2302962   0.0000000), wk =   0.1250000
        k(    3) = (   0.0000000  -0.4605925   0.0000000), wk =   0.0625000
        k(    4) = (   0.2500000   0.0000000   0.0000000), wk =   0.1250000
        k(    5) = (   0.2500000   0.2302962   0.0000000), wk =   0.1250000
        k(    6) = (   0.2500000  -0.4605925   0.0000000), wk =   0.1250000
        k(    7) = (  -0.5000000   0.0000000   0.0000000), wk =   0.0625000
        k(    8) = (  -0.5000000   0.2302962   0.0000000), wk =   0.1250000
        k(    9) = (  -0.5000000  -0.4605925   0.0000000), wk =   0.0625000
        k(   10) = (  -0.2500000   0.2302962   0.0000000), wk =   0.1250000
        k(   11) = (   0.0000000   0.0000000   0.0000000), wk =   0.0625000
        k(   12) = (   0.0000000   0.2302962   0.0000000), wk =   0.1250000
        k(   13) = (   0.0000000  -0.4605925   0.0000000), wk =   0.0625000
        k(   14) = (   0.2500000   0.0000000   0.0000000), wk =   0.1250000
        k(   15) = (   0.2500000   0.2302962   0.0000000), wk =   0.1250000
        k(   16) = (   0.2500000  -0.4605925   0.0000000), wk =   0.1250000
        k(   17) = (  -0.5000000   0.0000000   0.0000000), wk =   0.0625000
        k(   18) = (  -0.5000000   0.2302962   0.0000000), wk =   0.1250000
        k(   19) = (  -0.5000000  -0.4605925   0.0000000), wk =   0.0625000
        k(   20) = (  -0.2500000   0.2302962   0.0000000), wk =   0.1250000

     Largest allocated arrays     est. size (Mb)     dimensions
     Largest temporary arrays     est. size (Mb)     dimensions

     Check: negative/imaginary core charge=   -0.000023    0.000000

     Initial potential from superposition of free atoms
     Check: negative starting charge=(component1):   -0.000719
     Check: negative starting charge=(component2):   -0.000354

     starting charge  229.99987, renormalised to  238.00000

     negative rho (up, down):  0.744E-03 0.366E-03
     Number of +U iterations with fixed ns =  0
     Starting occupations:
 --- enter write_ns ---
 LDA+U parameters:
U( 2)     =  7.50000000
alpha( 2) =  0.00000000
atom    3   Tr[ns(na)] (up, down, total) =   5.00000  0.00000  5.00000
   spin  1
    eigenvalues:
  1.000  1.000  1.000  1.000  1.000
    eigenvectors:
  1.000  0.000  0.000  0.000  0.000
  0.000  1.000  0.000  0.000  0.000
  0.000  0.000  1.000  0.000  0.000
  0.000  0.000  0.000  1.000  0.000
  0.000  0.000  0.000  0.000  1.000
    occupations:
  1.000  0.000  0.000  0.000  0.000
  0.000  1.000  0.000  0.000  0.000
  0.000  0.000  1.000  0.000  0.000
  0.000  0.000  0.000  1.000  0.000
  0.000  0.000  0.000  0.000  1.000
   spin  2
    eigenvalues:
  0.000  0.000  0.000  0.000  0.000
    eigenvectors:
  1.000  0.000  0.000  0.000  0.000
  0.000  1.000  0.000  0.000  0.000
  0.000  0.000  1.000  0.000  0.000
  0.000  0.000  0.000  1.000  0.000
  0.000  0.000  0.000  0.000  1.000
    occupations:
  0.000  0.000  0.000  0.000  0.000
  0.000  0.000  0.000  0.000  0.000
  0.000  0.000  0.000  0.000  0.000
  0.000  0.000  0.000  0.000  0.000
  0.000  0.000  0.000  0.000  0.000
atomic mag. moment =     5.000000
atom    4   Tr[ns(na)] (up, down, total) =   5.00000  0.00000  5.00000
   spin  1
    eigenvalues:
  1.000  1.000  1.000  1.000  1.000
    eigenvectors:
  1.000  0.000  0.000  0.000  0.000
  0.000  1.000  0.000  0.000  0.000
  0.000  0.000  1.000  0.000  0.000
  0.000  0.000  0.000  1.000  0.000
  0.000  0.000  0.000  0.000  1.000
    occupations:
  1.000  0.000  0.000  0.000  0.000
  0.000  1.000  0.000  0.000  0.000
  0.000  0.000  1.000  0.000  0.000
  0.000  0.000  0.000  1.000  0.000
  0.000  0.000  0.000  0.000  1.000
   spin  2
    eigenvalues:
  0.000  0.000  0.000  0.000  0.000
    eigenvectors:
  1.000  0.000  0.000  0.000  0.000
  0.000  1.000  0.000  0.000  0.000
  0.000  0.000  1.000  0.000  0.000
  0.000  0.000  0.000  1.000  0.000
  0.000  0.000  0.000  0.000  1.000
    occupations:
  0.000  0.000  0.000  0.000  0.000
  0.000  0.000  0.000  0.000  0.000
  0.000  0.000  0.000  0.000  0.000
  0.000  0.000  0.000  0.000  0.000
  0.000  0.000  0.000  0.000  0.000
atomic mag. moment =     5.000000
atom    9   Tr[ns(na)] (up, down, total) =   5.00000  0.00000  5.00000
   spin  1
    eigenvalues:
  1.000  1.000  1.000  1.000  1.000
    eigenvectors:
  1.000  0.000  0.000  0.000  0.000
[...]
 -0.000  0.257  0.000  0.006  0.007
 -0.003  0.000  0.080 -0.004  0.001
  0.102  0.006 -0.004  0.245  0.000
 -0.000  0.007  0.001  0.000  0.071
atomic mag. moment =     3.780600
atom    4   Tr[ns(na)] (up, down, total) =   4.56493  0.74229  5.30722
   spin  1
    eigenvalues:
  0.748  0.812  0.997  1.004  1.004
    eigenvectors:
  0.000  0.997  0.001  0.002  0.000
  0.001  0.001  0.000  0.807  0.191
  0.000  0.001  0.000  0.191  0.808
  0.000  0.001  0.999  0.000  0.000
  0.999  0.000  0.000  0.000  0.000
    occupations:
  0.813 -0.006 -0.006  0.006 -0.000
 -0.006  1.003 -0.000  0.000  0.006
 -0.006 -0.000  1.004  0.000 -0.000
  0.006  0.000  0.000  0.997 -0.000
 -0.000  0.006 -0.000 -0.000  0.748
   spin  2
    eigenvalues:
  0.063  0.068  0.073  0.235  0.304
    eigenvectors:
  0.009  0.000  0.000  0.990  0.000
  0.022  0.145  0.830  0.001  0.002
  0.119  0.712  0.168  0.001  0.000
  0.849  0.143  0.000  0.008  0.000
  0.000  0.000  0.002  0.000  0.998
    occupations:
  0.233  0.005  0.006 -0.015  0.000
  0.005  0.072 -0.002  0.000 -0.011
  0.006 -0.002  0.068  0.001  0.000
 -0.015  0.000  0.001  0.065 -0.000
  0.000 -0.011  0.000 -0.000  0.303
atomic mag. moment =     3.822639
atom    9   Tr[ns(na)] (up, down, total) =   4.53130  0.80768  5.33898
   spin  1
    eigenvalues:
  0.761  0.782  0.992  0.995  1.001
    eigenvectors:
  0.235  0.000  0.000  0.000  0.765
  0.001  0.999  0.000  0.000  0.000
  0.000  0.000  0.029  0.971  0.000
  0.764  0.001  0.000  0.000  0.235
  0.000  0.000  0.971  0.029  0.000
    occupations:
  0.945  0.002 -0.000 -0.102  0.000
  0.002  0.782 -0.000 -0.000  0.000
 -0.000 -0.000  0.995 -0.000 -0.001
 -0.102 -0.000 -0.000  0.818  0.000
  0.000  0.000 -0.001  0.000  0.992
   spin  2
    eigenvalues:
  0.066  0.076  0.080  0.287  0.299
    eigenvectors:
  0.798  0.000  0.000  0.022  0.180
  0.000  0.000  0.000  0.900  0.100
  0.000  0.000  1.000  0.000  0.000
  0.202  0.000  0.000  0.078  0.720
  0.000  1.000  0.000  0.000  0.000
    occupations:
  0.112  0.000  0.000  0.093  0.000
  0.000  0.288  0.000  0.004 -0.000
  0.000  0.000  0.080  0.001 -0.000
  0.093  0.004  0.001  0.251 -0.000
  0.000 -0.000 -0.000 -0.000  0.076
atomic mag. moment =     3.723623
atom   10   Tr[ns(na)] (up, down, total) =   4.74038  0.52347  5.26385
   spin  1
    eigenvalues:
  0.776  0.972  0.996  0.997  0.998
    eigenvectors:
  0.000  0.968  0.000  0.032  0.000
  0.000  0.000  1.000  0.000  0.000
  0.000  0.000  0.000  0.002  0.998
  0.000  0.032  0.000  0.966  0.002
  1.000  0.000  0.000  0.000  0.000
    occupations:
  0.973  0.000 -0.000  0.004  0.000
  0.000  0.996 -0.000 -0.000 -0.001
 -0.000 -0.000  0.998  0.000 -0.000
  0.004 -0.000  0.000  0.997 -0.000
  0.000 -0.001 -0.000 -0.000  0.776
   spin  2
    eigenvalues:
  0.052  0.055  0.062  0.110  0.245
    eigenvectors:
  0.039  0.000  0.000  0.961  0.000
  0.000  0.000  1.000  0.000  0.000
  0.001  0.999  0.000  0.000  0.000
  0.960  0.001  0.000  0.039  0.000
  0.000  0.000  0.000  0.000  1.000
    occupations:
  0.108  0.000 -0.000 -0.011  0.000
  0.000  0.062  0.000  0.000  0.001
 -0.000  0.000  0.055 -0.000  0.000
 -0.011  0.000 -0.000  0.054 -0.000
  0.000  0.001  0.000 -0.000  0.245
atomic mag. moment =     4.216915
atom   16   Tr[ns(na)] (up, down, total) =   4.54701  0.76662  5.31363
   spin  1
    eigenvalues:
  0.761  0.780  1.000  1.002  1.004
    eigenvectors:
  0.250  0.005  0.000  0.634  0.111
  0.042  0.956  0.001  0.001  0.000
  0.000  0.000  0.001  0.148  0.851
  0.708  0.038  0.000  0.217  0.037
  0.000  0.001  0.998  0.000  0.001
    occupations:
  0.941 -0.009 -0.001 -0.105 -0.000
 -0.009  0.780 -0.001  0.001 -0.007
 -0.001 -0.001  1.004  0.000  0.000
 -0.105  0.001  0.000  0.823 -0.000
 -0.000 -0.007  0.000 -0.000  1.000
   spin  2
    eigenvalues:
  0.057  0.071  0.080  0.257  0.302
    eigenvectors:
  0.772  0.000  0.001  0.005  0.222
  0.000  0.001  0.000  0.982  0.016
  0.002  0.020  0.977  0.000  0.001
  0.226  0.000  0.002  0.011  0.761
  0.000  0.978  0.020  0.001  0.000
    occupations:
  0.112 -0.000 -0.003  0.102  0.000
 -0.000  0.258  0.000 -0.006  0.007
 -0.003  0.000  0.080 -0.004 -0.001
  0.102 -0.006 -0.004  0.245 -0.000
  0.000  0.007 -0.001 -0.000  0.071
atomic mag. moment =     3.780395
atom   17   Tr[ns(na)] (up, down, total) =   4.56647  0.74024  5.30671
   spin  1
    eigenvalues:
  0.748  0.813  0.997  1.004  1.005
    eigenvectors:
  0.000  0.997  0.001  0.002  0.000
  0.001  0.001  0.000  0.760  0.238
  0.000  0.001  0.000  0.238  0.761
  0.000  0.001  0.999  0.000  0.000
  0.999  0.000  0.000  0.000  0.000
    occupations:
  0.814 -0.006 -0.006  0.006 -0.001
 -0.006  1.004 -0.000  0.000  0.006
 -0.006 -0.000  1.004  0.000 -0.000
  0.006  0.000  0.000  0.997 -0.000
 -0.001  0.006 -0.000 -0.000  0.748
   spin  2
    eigenvalues:
  0.063  0.067  0.073  0.233  0.304
    eigenvectors:
  0.010  0.000  0.000  0.990  0.000
  0.026  0.160  0.812  0.001  0.002
  0.127  0.685  0.186  0.001  0.000
  0.837  0.155  0.000  0.008  0.000
  0.000  0.000  0.002  0.000  0.998
    occupations:
  0.232  0.005  0.006 -0.015  0.000
  0.005  0.072 -0.002  0.000 -0.011
  0.006 -0.002  0.068  0.001 -0.000
 -0.015  0.000  0.001  0.065 -0.000
  0.000 -0.011 -0.000 -0.000  0.303
atomic mag. moment =     3.826236
atom   22   Tr[ns(na)] (up, down, total) =   4.53142  0.80749  5.33891
   spin  1
    eigenvalues:
  0.762  0.783  0.992  0.995  1.001
    eigenvectors:
  0.235  0.000  0.000  0.000  0.765
  0.000  1.000  0.000  0.000  0.000
  0.000  0.000  0.030  0.970  0.000
  0.765  0.000  0.000  0.000  0.235
  0.000  0.000  0.970  0.030  0.000
    occupations:
  0.945 -0.001 -0.000 -0.101  0.000
 -0.001  0.783  0.000  0.001  0.000
 -0.000  0.000  0.995 -0.000  0.001
 -0.101  0.001 -0.000  0.818 -0.000
  0.000  0.000  0.001 -0.000  0.992
   spin  2
    eigenvalues:
  0.065  0.076  0.080  0.287  0.299
    eigenvectors:
  0.798  0.000  0.000  0.021  0.180
  0.000  0.000  0.000  0.902  0.098
  0.000  0.000  1.000  0.000  0.000
  0.202  0.000  0.000  0.077  0.722
  0.000  1.000  0.000  0.000  0.000
    occupations:
  0.112 -0.000  0.000  0.093 -0.000
 -0.000  0.288 -0.000 -0.004 -0.000
  0.000 -0.000  0.080  0.001  0.000
  0.093 -0.004  0.001  0.251  0.000
 -0.000 -0.000  0.000  0.000  0.076
atomic mag. moment =     3.723939
atom   23   Tr[ns(na)] (up, down, total) =   4.61948  0.67662  5.29610
   spin  1
    eigenvalues:
  0.789  0.828  1.000  1.001  1.002
    eigenvectors:
  0.000  0.999  0.001  0.000  0.000
  0.000  0.000  0.001  0.999  0.000
  0.000  0.000  0.001  0.000  0.999
  0.000  0.001  0.997  0.001  0.001
  1.000  0.000  0.000  0.000  0.000
    occupations:
  0.828 -0.000  0.001  0.006  0.000
 -0.000  1.001 -0.000  0.000 -0.001
  0.001 -0.000  1.002 -0.000  0.000
  0.006  0.000 -0.000  1.000  0.000
  0.000 -0.001  0.000  0.000  0.789
   spin  2
    eigenvalues:
  0.056  0.067  0.071  0.217  0.266
    eigenvectors:
  0.009  0.000  0.000  0.991  0.000
  0.000  0.000  1.000  0.000  0.000
  0.000  1.000  0.000  0.000  0.000
  0.991  0.000  0.000  0.009  0.000
  0.000  0.000  0.000  0.000  1.000
    occupations:
  0.216  0.000 -0.001 -0.015 -0.000
  0.000  0.071 -0.000 -0.000  0.001
 -0.001 -0.000  0.067 -0.000 -0.000
 -0.015 -0.000 -0.000  0.058 -0.000
 -0.000  0.001 -0.000 -0.000  0.266
atomic mag. moment =     3.942856
N of occupied +U levels =  42.4791651
 --- exit write_ns ---

 ------ SPIN UP ------------

[...]

 ------ SPIN DOWN ----------

[...]

          k = 0.2500-0.4606 0.0000 ( 26462 PWs)   bands (ev):

[...]

          k =-0.2500 0.2303 0.0000 ( 26396 PWs)   bands (ev):

   -79.9545 -79.9466 -79.8603 -79.8523 -79.7183 -79.7063 -79.7032 -78.9577
   -48.8547 -48.8122 -48.8043 -48.7610 -48.7511 -48.7375 -48.7296 -48.7187
   -48.6920 -48.6756 -48.6531 -48.6362 -48.6099 -48.5844 -48.5771 -48.5669
   -48.5554 -48.5280 -48.4454 -48.3656 -48.3495 -48.0127 -47.9166 -47.5098
   -21.7330 -21.5197 -21.2307 -21.0065 -20.8526 -20.7048 -20.4756 -20.4448
   -20.3703 -20.2849 -20.1849 -20.1183 -20.0578 -19.9914 -19.9276 -19.7992
   -19.7211 -19.6448 -19.5224  -8.9668  -8.6972  -8.3855  -8.2741  -8.2520
    -8.0160  -7.9077  -7.7572  -7.4615  -7.2512  -7.2368  -7.0712  -7.0570
    -6.9565  -6.8682  -6.7791  -6.7464  -6.6646  -6.4823  -6.3878  -6.3223
    -6.2826  -6.1940  -6.1502  -6.0307  -5.9830  -5.9059  -5.7891  -5.7489
    -5.7352  -5.6699  -5.5143  -5.4820  -5.3603  -5.2543  -5.2141  -5.1097
    -5.0532  -4.9995  -4.8945  -4.7884  -4.7441  -4.6322  -4.5730  -4.4800
    -4.4357  -4.3764  -4.3281  -4.2093  -4.0690  -4.0046  -3.8067  -3.7022
    -3.6605  -3.4181  -3.3264  -3.0908   1.9627   2.0393   2.0685   2.1116
     2.1975   2.2230   2.2382   2.2740   2.3049   2.3782   2.4311   2.4664
     2.4957   2.5118   2.5460   2.6587   2.6748   2.7749   2.8316   2.8740
     2.9001   2.9883   3.0056   3.0259   3.0767   3.1207   3.2193   3.2498
     3.2991   3.3413   3.3706   3.4197   3.5032   3.5593   3.6196   3.6827
     3.7090   3.7891   3.8160   3.8696   3.9479   4.3929   4.6344   5.0983
     5.5300   5.6899   5.8184   6.3001   6.3914   6.4628   6.6047   6.6610
     6.8560   7.0247   7.1257   7.4010   7.5604   7.7057   7.9151   8.0435
     8.1901   8.2833   8.4465   8.5189   8.6520   8.7051   8.9301   9.0960
     9.2042   9.2979   9.3998   9.4535   9.5527   9.8916   9.9651  10.0183
    10.1686  10.2421  10.3191  10.4404  10.5149  10.5667  10.7337  10.8198
    10.9378  11.0246  11.0498  11.2564  11.2941  11.3295  11.5091  11.5836
    11.6471  11.7238  11.7834  11.8975  11.9568  12.0283  12.1630  12.2797
    12.4024  12.4572  12.5564  12.5964  12.6145  12.7433  12.8964  12.9683
    12.9978  13.0516  13.0982  13.1661  13.2393  13.2841  13.3487  13.3967
    13.4880  13.5341  13.5811  13.6371  13.7525  13.7773  13.8502  13.9256
    14.0750  14.1392  14.1938  14.2415  14.2723  14.4039  14.4730  14.5300
    14.6527  14.6918  14.8076  14.9361  15.0607  15.0809  15.1488  15.2096
    15.2755  15.3948  15.4999  15.6048  15.7236  15.8242  15.9075  15.9869
    16.1228  16.1706  16.2704  16.3025  16.3706  16.4847  16.5454  16.5986
    16.6586  16.7263  16.8137  16.8412  16.9823  17.0890  17.1429  17.1939
    17.2844  17.4044  17.4411  17.5435  17.5854  17.6171  17.7247  17.8017
    17.8474  17.9288  17.9853  18.1299  18.1832  18.2519  18.3586  18.4074
    18.4753  18.5657  18.6288  18.7209  18.7961  18.8426  18.8723  18.9904
    19.0761  19.1475  19.1712  19.2589  19.3046  19.3589  19.4196  19.5083
    19.6777  19.7175  19.7890  19.9402  19.9541  20.0208  20.0911  20.1387
    20.2193  20.2552  20.3107  20.3607  20.4304  20.4907  20.6012  20.6617
    20.7981  20.8916  20.9531  21.0219  21.0872  21.1597  21.2102  21.2826
    21.3098  21.4274  21.5203  21.5750  21.6038  21.7174  21.7695  21.8252
    21.8725  21.9869  22.0435  22.1550  22.2100  22.3386  22.4392  22.4734
    22.5153

     the spin up/dw Fermi energies are    -2.4826   -0.4744 ev

!    total energy              =   -2318.22677377 Ry
     Harris-Foulkes estimate   =   -2318.22677377 Ry
     estimated scf accuracy    <          4.4E-09 Ry

     The total energy is the sum of the following terms:

     one-electron contribution =  -25649.93593752 Ry
     hartree contribution      =   12844.00111840 Ry
     xc contribution           =    -349.13060796 Ry
     ewald contribution        =   10834.85654940 Ry
     Hubbard energy            =       1.98097017 Ry
     smearing contrib. (-TS)   =       0.00113374 Ry

     total magnetization       =    22.00 Bohr mag/cell
     absolute magnetization    =    40.39 Bohr mag/cell

     convergence has been achieved in  19 iterations

     Forces acting on atoms (Ry/au):

     negative rho (up, down):  0.145E-02 0.150E-02
     atom    1 type  1   force =    -0.00372066   -0.01131331   -0.00007917
     atom    2 type  1   force =     0.00039098    0.00718257    0.00005569
     atom    3 type  2   force =     0.00207008    0.00207189   -0.00011849
     atom    4 type  2   force =     0.00561149    0.00887436    0.00009640
     atom    5 type  1   force =     0.00108015    0.00729600   -0.00002260
     atom    6 type  1   force =    -0.00091929   -0.01298301    0.00007436
     atom    7 type  1   force =     0.00009954    0.00329658   -0.00041532
     atom    8 type  1   force =    -0.00120422   -0.00334031    0.00024675
     atom    9 type  2   force =     0.00764193    0.00049370    0.00000799
     atom   10 type  2   force =    -0.00015882   -0.00197415    0.00014692
     atom   11 type  1   force =    -0.00609866   -0.01530757   -0.00010384
     atom   12 type  1   force =    -0.00593583    0.01650906   -0.00003628
     atom   13 type  1   force =    -0.00038263   -0.00041329   -0.00014569
     atom   14 type  1   force =    -0.00416520   -0.01117923   -0.00008054
     atom   15 type  1   force =     0.00059107    0.00590343    0.00010716
     atom   16 type  2   force =    -0.00367650    0.00196083   -0.00009637
     atom   17 type  2   force =     0.00569724    0.00891990    0.00025390
     atom   18 type  1   force =     0.00109506    0.00724487    0.00004497
     atom   19 type  1   force =    -0.00243175   -0.01284922   -0.00002379
     atom   20 type  1   force =     0.00003125    0.00431052   -0.00023170
     atom   21 type  1   force =    -0.00138248   -0.00311835    0.00032961
     atom   22 type  2   force =    -0.00630255    0.00043332    0.00002813
     atom   23 type  2   force =     0.00001776   -0.00233651    0.00015127
     atom   24 type  1   force =     0.00613433   -0.01529498   -0.00011301
     atom   25 type  1   force =     0.00611594    0.01657766   -0.00004555
     atom   26 type  1   force =    -0.00039072   -0.00077546   -0.00037760
     atom   27 type  3   force =    -0.00002136   -0.00018175   -0.00025815
     atom   28 type  3   force =    -0.00003037   -0.00017296   -0.00018015
     atom   29 type  3   force =     0.00012653   -0.00011487    0.00014916
     atom   30 type  3   force =     0.00012037   -0.00003394    0.00017610
     atom   31 type  1   force =    -0.00000266    0.00031418    0.00045983

     Total force =     0.001156     Total SCF correction =     0.000109

     entering subroutine stress ...

     negative rho (up, down):  0.145E-02 0.150E-02
          total   stress  (Ry/bohr**3)                   (kbar)     P=   44.68
   0.00049396  -0.00000158   0.00000284         72.66     -0.23      0.42
  -0.00000158   0.00045721   0.00000414         -0.23     67.26      0.61
   0.00000284   0.00000414  -0.00004002          0.42      0.61     -5.89

     bfgs converged in  13 scf cycles and  12 bfgs steps
     (criteria: energy < 0.10E-03, force < 0.10E-02)

     End of BFGS Geometry Optimization

     Final energy   =   -2318.2267737675 Ry
Begin final coordinates

ATOMIC_POSITIONS (crystal)
O0       0.000000000   0.000000000   0.371378620    0   0   1
O0       0.000000000   0.500000000   0.391257339    0   0   1
Mn1      0.250000000   0.500000000   0.445261287    0   0   1
Mn1      0.000000000   0.000000000   0.446914542    0   0   1
O0       0.250000000   0.800000000   0.444537678    0   0   1
O0       0.250000000   0.200000000   0.449764062    0   0   1
O0       0.000000000   0.500000000   0.494220419    0   0   1
O0       0.000000000   0.000000000   0.527275662    0   0   1
Mn1      0.250000000   0.000000000   0.577298433    0   0   1
Mn1      0.000000000   0.500000000   0.572502354    0   0   1
O0       0.250000000   0.700000000   0.585959030    0   0   1
O0       0.250000000   0.300000000   0.586409412    0   0   1
O0       0.000000000   0.000000000   0.627461145    0   0   1
O0       0.500000000   0.000000000   0.371119322    0   0   1
O0       0.500000000   0.500000000   0.391252624    0   0   1
Mn1      0.750000000   0.500000000   0.445239820    0   0   1
Mn1      0.500000000   0.000000000   0.446562943    0   0   1
O0       0.750000000   0.800000000   0.444661565    0   0   1
O0       0.750000000   0.200000000   0.449845858    0   0   1
O0       0.500000000   0.500000000   0.496393367    0   0   1
O0       0.500000000   0.000000000   0.527310931    0   0   1
Mn1      0.750000000   0.000000000   0.577297161    0   0   1
Mn1      0.500000000   0.500000000   0.573181315    0   0   1
O0       0.750000000   0.700000000   0.585965531    0   0   1
O0       0.750000000   0.300000000   0.586435169    0   0   1
O0       0.500000000   0.000000000   0.628288601    0   0   1
H2       0.000699926   0.649393238   0.376390213
H2       0.500814127   0.648288764   0.376002796
H2       0.161200433   0.045326688   0.361111623
H2       0.660496727   0.047009757   0.360828713
O0       0.499839099   0.501358797   0.649032466
End final coordinates

     General routines

     Parallel routines
     Hubbard U routines

   This run was terminated on:   5:21:39  26May2014

   JOB DONE.