     Program PWSCF v.5.0.2 (svn rev. 9656) starts on 17Sep2014 at 14:12:49

     Current dimensions of program PWSCF are:
     Max number of different atomic species (ntypx) = 10
     Max number of k-points (npk) =  40000
     Max angular momentum in pseudopotentials (lmaxx) =  3
     Reading input from pwscf.in
Warning: card &CELL ignored
Warning: card / ignored

     Subspace diagonalization in iterative solution of the eigenvalue problem:
     a serial algorithm will be used

     bravais-lattice index     =            0
     lattice parameter (alat)  =      10.7336  a.u.
     unit-cell volume          =    6184.1966 (a.u.)^3
     number of atoms/cell      =           33
     number of atomic types    =            3
     number of electrons       =       245.00 (up: 134.00, down: 111.00)
     number of Kohn-Sham states=          367
     kinetic-energy cutoff     =      40.0000  Ry
     charge density cutoff     =     500.0000  Ry
     convergence threshold     =      1.0E-06
     mixing beta               =       0.7000
     number of iterations used =            8  plain     mixing
     Exchange-correlation      = SLA  PW   PBE  PBE ( 1 4 3 4 0)
     EXX-fraction              =        0.00
     nstep                     =           50

     celldm(1)=  10.733644  celldm(2)=   0.000000  celldm(3)=   0.000000
     celldm(4)=   0.000000  celldm(5)=   0.000000  celldm(6)=   0.000000

     crystal axes: (cart. coord. in units of alat)
               a(1) = (   1.000000   0.000000   0.000000 )
               a(2) = (   0.000000   1.085558   0.000000 )
               a(3) = (   0.000000   0.000000   4.606685 )

     reciprocal axes: (cart. coord. in units 2 pi/alat)
               b(1) = (  1.000000  0.000000  0.000000 )
               b(2) = (  0.000000  0.921185  0.000000 )
               b(3) = (  0.000000  0.000000  0.217076 )

     PseudoPot. # 1 for O  read from file:
     /home-research/zhongnanxu/pseudopotentials/gbrv_espresso_pseudo_v1.01/o_pbe_v1.01.uspp.F.UPF
     MD5 check sum: 2bcb18d16ea4b960afae9ec6d52f22d2
     Pseudo is Ultrasoft + core correction, Zval =  6.0
     Generated by new atomic code, or converted to UPF format
     Using radial grid of  737 points,  5 beta functions with:
                l(1) =   0
                l(2) =   0
                l(3) =   1
                l(4) =   1
                l(5) =   2
     Q(r) pseudized with  8 coefficients,  rinner =    0.900   0.900   0.900
                                                       0.900   0.900

     PseudoPot. # 2 for Mn read from file:
     /home-research/zhongnanxu/pseudopotentials/gbrv_espresso_pseudo_v1.01/mn_pbe_v1.uspp.F.UPF
     MD5 check sum: 5fd7c7b5c956fd19902447332617373a
     Pseudo is Ultrasoft + core correction, Zval = 15.0
     Generated by new atomic code, or converted to UPF format
     Using radial grid of  859 points,  6 beta functions with:
                l(1) =   0
                l(2) =   0
                l(3) =   1
                l(4) =   1
                l(5) =   2
                l(6) =   2
     Q(r) pseudized with  6 coefficients,  rinner =    1.150   1.150   1.150
                                                       1.150   1.150

     PseudoPot. # 3 for H  read from file:
     /home-research/zhongnanxu/pseudopotentials/gbrv_espresso_pseudo_v1.01/h_pbe_v1.uspp.F.UPF
     MD5 check sum: 3408e3ff4ec8b0a4e358431e7e038a48
     Pseudo is Ultrasoft, Zval =  1.0
     Generated by new atomic code, or converted to UPF format
     Using radial grid of  615 points,  2 beta functions with:
                l(1) =   0
                l(2) =   0
     Q(r) pseudized with  8 coefficients,  rinner =    0.700

     atomic species   valence    mass     pseudopotential
        O0             6.00    15.99940     O ( 1.00)
        Mn1           15.00    54.93800     Mn( 1.00)
        H2             1.00     1.00794     H ( 1.00)

     Starting magnetic structure
     atomic species   magnetization
        O0           0.000
        Mn1          0.600
        H2           0.000

     Simplified LDA+U calculation (l_max = 2) with parameters (eV):
     atomic species    L          U    alpha       J0     beta
        Mn1            2     3.0000   0.0000   0.0000   0.0000

     No symmetry found

   Cartesian axes

     site n.     atom                  positions (alat units)
         1           O0  tau(   1) = (   0.0000000   0.0000000   1.7437224  )
         2           O0  tau(   2) = (   0.0000000   0.5427791   1.8429044  )
         3           Mn1 tau(   3) = (   0.2500000   0.5427791   2.0790891  )
         4           Mn1 tau(   4) = (   0.0000000   0.0000000   2.0720409  )
         5           O0  tau(   5) = (   0.2500000   0.8684466   2.0701982  )
         6           O0  tau(   6) = (   0.2500000   0.2171117   2.0775689  )
         7           O0  tau(   7) = (   0.0000000   0.5427791   2.2916415  )
         8           O0  tau(   8) = (   0.0000000   0.0000000   2.4165748  )
         9           Mn1 tau(   9) = (   0.2500000   0.0000000   2.6429013  )
        10           Mn1 tau(  10) = (   0.0000000   0.5427791   2.6202364  )
        11           O0  tau(  11) = (   0.2500000   0.7598908   2.6530821  )
        12           O0  tau(  12) = (   0.2500000   0.3256675   2.6691594  )
        13           O0  tau(  13) = (   0.0000000   0.0000000   2.8472538  )
        14           O0  tau(  14) = (   0.5000000   0.0000000   1.7445516  )
        15           O0  tau(  15) = (   0.5000000   0.5427791   1.8431808  )
        16           Mn1 tau(  16) = (   0.7500000   0.5427791   2.0791352  )
        17           Mn1 tau(  17) = (   0.5000000   0.0000000   2.0732386  )
        18           O0  tau(  18) = (   0.7500000   0.8684466   2.0702443  )
        19           O0  tau(  19) = (   0.7500000   0.2171117   2.0776150  )
        20           O0  tau(  20) = (   0.5000000   0.5427791   2.2991504  )
        21           O0  tau(  21) = (   0.5000000   0.0000000   2.4162063  )
        22           Mn1 tau(  22) = (   0.7500000   0.0000000   2.6429474  )
        23           Mn1 tau(  23) = (   0.5000000   0.5427791   2.6555697  )
        24           O0  tau(  24) = (   0.7500000   0.7598908   2.6530360  )
        25           O0  tau(  25) = (   0.7500000   0.3256675   2.6692055  )
        26           O0  tau(  26) = (   0.5000000   0.0000000   2.8451348  )
        27           H2  tau(  27) = (   0.0001200   0.7023996   1.7685525  )
        28           H2  tau(  28) = (   0.5001300   0.7024539   1.7688749  )
        29           H2  tau(  29) = (   0.1617300   0.0395469   1.6903309  )
        30           H2  tau(  30) = (   0.6616200   0.0396554   1.6909759  )
        31           O0  tau(  31) = (   0.4997000   0.5889697   2.9894622  )
        32           O0  tau(  32) = (   0.5006400   0.3801951   3.1245302  )
        33           H2  tau(  33) = (   0.4997200   0.4495948   3.2842900  )

     number of k points=    20  Methfessel-Paxton smearing, width (Ry)=  0.0100
                       cart. coord. in units 2pi/alat
        k(    1) = (   0.0000000   0.0000000   0.0000000), wk =   0.0625000
        k(    2) = (   0.0000000   0.2302962   0.0000000), wk =   0.1250000
        k(    3) = (   0.0000000  -0.4605925   0.0000000), wk =   0.0625000
        k(    4) = (   0.2500000   0.0000000   0.0000000), wk =   0.1250000
        k(    5) = (   0.2500000   0.2302962   0.0000000), wk =   0.1250000
        k(    6) = (   0.2500000  -0.4605925   0.0000000), wk =   0.1250000
        k(    7) = (  -0.5000000   0.0000000   0.0000000), wk =   0.0625000
        k(    8) = (  -0.5000000   0.2302962   0.0000000), wk =   0.1250000
        k(    9) = (  -0.5000000  -0.4605925   0.0000000), wk =   0.0625000
        k(   10) = (  -0.2500000   0.2302962   0.0000000), wk =   0.1250000
        k(   11) = (   0.0000000   0.0000000   0.0000000), wk =   0.0625000
        k(   12) = (   0.0000000   0.2302962   0.0000000), wk =   0.1250000
        k(   13) = (   0.0000000  -0.4605925   0.0000000), wk =   0.0625000
        k(   14) = (   0.2500000   0.0000000   0.0000000), wk =   0.1250000
        k(   15) = (   0.2500000   0.2302962   0.0000000), wk =   0.1250000
        k(   16) = (   0.2500000  -0.4605925   0.0000000), wk =   0.1250000
        k(   17) = (  -0.5000000   0.0000000   0.0000000), wk =   0.0625000
        k(   18) = (  -0.5000000   0.2302962   0.0000000), wk =   0.1250000
        k(   19) = (  -0.5000000  -0.4605925   0.0000000), wk =   0.0625000
        k(   20) = (  -0.2500000   0.2302962   0.0000000), wk =   0.1250000

     Largest allocated arrays     est. size (Mb)     dimensions
     Largest temporary arrays     est. size (Mb)     dimensions

     Check: negative/imaginary core charge=   -0.000022    0.000000

     Initial potential from superposition of free atoms
     Check: negative starting charge=(component1):   -0.000638
     Check: negative starting charge=(component2):   -0.000356

     starting charge  236.99986, renormalised to  245.00000

     negative rho (up, down):  0.660E-03 0.368E-03
     Number of +U iterations with fixed ns =  0
     Starting occupations:
 --- enter write_ns ---
 LDA+U parameters:
U( 2)     =  3.00000000
alpha( 2) =  0.00000000
atom    3   Tr[ns(na)] (up, down, total) =   5.00000  0.00000  5.00000
   spin  1
    eigenvalues:
  1.000  1.000  1.000  1.000  1.000
    eigenvectors:
  1.000  0.000  0.000  0.000  0.000
  0.000  1.000  0.000  0.000  0.000
  0.000  0.000  1.000  0.000  0.000
  0.000  0.000  0.000  1.000  0.000
  0.000  0.000  0.000  0.000  1.000
    occupations:
  1.000  0.000  0.000  0.000  0.000
  0.000  1.000  0.000  0.000  0.000
  0.000  0.000  1.000  0.000  0.000
  0.000  0.000  0.000  1.000  0.000
  0.000  0.000  0.000  0.000  1.000
   spin  2
    eigenvalues:
  0.000  0.000  0.000  0.000  0.000
    eigenvectors:
  1.000  0.000  0.000  0.000  0.000
  0.000  1.000  0.000  0.000  0.000
  0.000  0.000  1.000  0.000  0.000
  0.000  0.000  0.000  1.000  0.000
  0.000  0.000  0.000  0.000  1.000
    occupations:
  0.000  0.000  0.000  0.000  0.000
  0.000  0.000  0.000  0.000  0.000
  0.000  0.000  0.000  0.000  0.000
  0.000  0.000  0.000  0.000  0.000
  0.000  0.000  0.000  0.000  0.000
atomic mag. moment =     5.000000
atom    4   Tr[ns(na)] (up, down, total) =   5.00000  0.00000  5.00000
   spin  1
    eigenvalues:
  1.000  1.000  1.000  1.000  1.000
    eigenvectors:
  1.000  0.000  0.000  0.000  0.000
  0.000  1.000  0.000  0.000  0.000
  0.000  0.000  1.000  0.000  0.000
  0.000  0.000  0.000  1.000  0.000
  0.000  0.000  0.000  0.000  1.000
    occupations:
  1.000  0.000  0.000  0.000  0.000
  0.000  1.000  0.000  0.000  0.000
  0.000  0.000  1.000  0.000  0.000
  0.000  0.000  0.000  1.000  0.000
  0.000  0.000  0.000  0.000  1.000
   spin  2
    eigenvalues:
  0.000  0.000  0.000  0.000  0.000
    eigenvectors:
  1.000  0.000  0.000  0.000  0.000
  0.000  1.000  0.000  0.000  0.000
  0.000  0.000  1.000  0.000  0.000
  0.000  0.000  0.000  1.000  0.000
  0.000  0.000  0.000  0.000  1.000
    occupations:
  0.000  0.000  0.000  0.000  0.000
  0.000  0.000  0.000  0.000  0.000
  0.000  0.000  0.000  0.000  0.000
[...]
atom    4   Tr[ns(na)] (up, down, total) =   4.24821  1.19715  5.44536
   spin  1
    eigenvalues:
  0.600  0.648  0.993  1.003  1.004
    eigenvectors:
  0.000  0.999  0.000  0.000  0.001
  0.000  0.001  0.000  0.041  0.958
  0.000  0.000  0.001  0.958  0.041
  0.000  0.000  0.999  0.001  0.000
  1.000  0.000  0.000  0.000  0.000
    occupations:
  0.648 -0.011 -0.005  0.006  0.000
 -0.011  1.003  0.000  0.000  0.001
 -0.005  0.000  1.003  0.000  0.000
  0.006  0.000  0.000  0.993  0.000
  0.000  0.001  0.000  0.000  0.600
   spin  2
    eigenvalues:
  0.106  0.144  0.170  0.388  0.389
    eigenvectors:
  0.002  0.004  0.000  0.954  0.040
  0.001  0.906  0.090  0.003  0.000
  0.000  0.089  0.910  0.000  0.000
  0.996  0.001  0.000  0.002  0.000
  0.000  0.000  0.000  0.041  0.959
    occupations:
  0.387  0.014  0.005 -0.013  0.000
  0.014  0.147 -0.007  0.000 -0.003
  0.005 -0.007  0.168  0.001  0.000
 -0.013  0.000  0.001  0.106  0.000
  0.000 -0.003  0.000  0.000  0.389
atomic mag. moment =     3.051065
atom    9   Tr[ns(na)] (up, down, total) =   4.22202  1.26685  5.48887
   spin  1
    eigenvalues:
  0.638  0.648  0.962  0.978  0.996
    eigenvectors:
  0.208  0.003  0.000  0.000  0.789
  0.015  0.985  0.000  0.000  0.000
  0.000  0.000  0.056  0.944  0.000
  0.777  0.011  0.000  0.000  0.211
  0.000  0.000  0.944  0.056  0.000
    occupations:
  0.921  0.001  0.000 -0.146  0.000
  0.001  0.648  0.000  0.001  0.000
  0.000  0.000  0.977  0.000 -0.004
 -0.146  0.001  0.000  0.714  0.000
  0.000  0.000 -0.004  0.000  0.963
   spin  2
    eigenvalues:
  0.139  0.157  0.160  0.390  0.421
    eigenvectors:
  0.821  0.000  0.000  0.179  0.000
  0.000  0.000  0.000  0.001  0.999
  0.000  0.966  0.034  0.000  0.000
  0.179  0.000  0.000  0.820  0.001
  0.000  0.034  0.966  0.000  0.000
    occupations:
  0.184  0.000  0.001  0.096  0.000
  0.000  0.421  0.000  0.001  0.000
  0.001  0.000  0.157  0.002  0.001
  0.096  0.001  0.002  0.345  0.000
  0.000  0.000  0.001  0.000  0.160
atomic mag. moment =     2.955172
atom   10   Tr[ns(na)] (up, down, total) =   4.52102  0.84486  5.36589
   spin  1
    eigenvalues:
  0.610  0.930  0.988  0.995  0.998
    eigenvectors:
  0.000  0.960  0.000  0.038  0.003
  0.000  0.000  1.000  0.000  0.000
  0.000  0.000  0.000  0.028  0.972
  0.000  0.040  0.000  0.934  0.026
  1.000  0.000  0.000  0.000  0.000
    occupations:
  0.933  0.000  0.001  0.013  0.000
  0.000  0.988  0.000  0.000 -0.001
  0.001  0.000  0.998  0.000  0.000
  0.013  0.000  0.000  0.992  0.000
  0.000 -0.001  0.000  0.000  0.610
   spin  2
    eigenvalues:
  0.091  0.104  0.113  0.185  0.351
    eigenvectors:
  0.023  0.000  0.000  0.977  0.000
  0.000  0.000  1.000  0.000  0.000
  0.002  0.998  0.000  0.000  0.000
  0.974  0.002  0.000  0.023  0.000
  0.000  0.000  0.000  0.000  1.000
    occupations:
  0.183  0.000  0.000 -0.014  0.000
  0.000  0.113  0.000  0.000  0.002
  0.000  0.000  0.104 -0.001  0.000
 -0.014  0.000 -0.001  0.093  0.000
  0.000  0.002  0.000  0.000  0.351
atomic mag. moment =     3.676161
atom   16   Tr[ns(na)] (up, down, total) =   4.27823  1.16626  5.44449
   spin  1
    eigenvalues:
  0.620  0.659  0.996  0.997  1.005
    eigenvectors:
  0.236  0.019  0.026  0.711  0.008
  0.129  0.867  0.001  0.003  0.000
  0.000  0.000  0.000  0.009  0.990
  0.634  0.114  0.009  0.242  0.001
  0.000  0.000  0.964  0.035  0.000
    occupations:
  0.902 -0.023 -0.004 -0.161 -0.001
 -0.023  0.655 -0.002 -0.002 -0.008
 -0.004 -0.002  1.005 -0.005  0.000
 -0.161 -0.002 -0.005  0.720  0.000
 -0.001 -0.008  0.000  0.000  0.996
   spin  2
    eigenvalues:
  0.105  0.139  0.170  0.367  0.385
    eigenvectors:
  0.773  0.000  0.003  0.035  0.188
  0.001  0.002  0.000  0.874  0.123
  0.003  0.014  0.983  0.000  0.000
  0.223  0.000  0.000  0.089  0.688
  0.000  0.984  0.013  0.002  0.000
    occupations:
  0.167  0.003 -0.002  0.115  0.001
  0.003  0.369  0.000 -0.008  0.011
 -0.002  0.000  0.169  0.004 -0.003
  0.115 -0.008  0.004  0.321 -0.001
  0.001  0.011 -0.003 -0.001  0.140
atomic mag. moment =     3.111975
atom   17   Tr[ns(na)] (up, down, total) =   4.24806  1.19763  5.44569
   spin  1
    eigenvalues:
  0.601  0.647  0.993  1.003  1.004
    eigenvectors:
  0.000  0.999  0.000  0.000  0.001
  0.000  0.001  0.000  0.070  0.929
  0.000  0.000  0.000  0.929  0.070
  0.000  0.000  0.999  0.001  0.000
  1.000  0.000  0.000  0.000  0.000
    occupations:
  0.647 -0.011 -0.005  0.005  0.000
 -0.011  1.004  0.000  0.000  0.001
 -0.005  0.000  1.003  0.000  0.000
  0.005  0.000  0.000  0.993  0.000
  0.000  0.001  0.000  0.000  0.601
   spin  2
    eigenvalues:
  0.105  0.144  0.170  0.388  0.390
    eigenvectors:
  0.002  0.004  0.000  0.987  0.007
  0.001  0.897  0.098  0.003  0.000
  0.000  0.097  0.902  0.000  0.000
  0.996  0.001  0.000  0.002  0.000
  0.000  0.000  0.000  0.007  0.993
    occupations:
  0.386  0.014  0.005 -0.013  0.000
  0.014  0.148 -0.007  0.000 -0.003
  0.005 -0.007  0.168  0.001  0.000
 -0.013  0.000  0.001  0.106  0.000
  0.000 -0.003  0.000  0.000  0.390
atomic mag. moment =     3.050430
atom   22   Tr[ns(na)] (up, down, total) =   4.22200  1.26689  5.48889
   spin  1
    eigenvalues:
  0.638  0.648  0.962  0.978  0.996
    eigenvectors:
  0.211  0.000  0.000  0.000  0.789
  0.001  0.999  0.000  0.000  0.000
  0.000  0.000  0.055  0.945  0.000
  0.788  0.001  0.000  0.000  0.211
  0.000  0.000  0.945  0.055  0.000
    occupations:
  0.921  0.000  0.000 -0.146  0.000
  0.000  0.648  0.000  0.000  0.000
  0.000  0.000  0.977  0.000  0.004
 -0.146  0.000  0.000  0.714  0.000
  0.000  0.000  0.004  0.000  0.963
   spin  2
    eigenvalues:
  0.139  0.157  0.160  0.390  0.421
    eigenvectors:
  0.821  0.000  0.000  0.179  0.000
  0.000  0.000  0.000  0.001  0.999
  0.000  0.961  0.039  0.000  0.000
  0.179  0.000  0.000  0.820  0.001
  0.000  0.039  0.961  0.000  0.000
    occupations:
  0.184  0.000  0.001  0.096  0.000
  0.000  0.421  0.000 -0.001  0.000
  0.001  0.000  0.157  0.002 -0.001
  0.096 -0.001  0.002  0.345  0.000
  0.000  0.000 -0.001  0.000  0.160
atomic mag. moment =     2.955114
atom   23   Tr[ns(na)] (up, down, total) =   4.35343  1.04451  5.39794
   spin  1
    eigenvalues:
  0.644  0.711  0.998  0.998  1.002
    eigenvectors:
  0.000  0.997  0.000  0.002  0.001
  0.000  0.000  0.999  0.001  0.000
  0.000  0.001  0.000  0.002  0.998
  0.000  0.002  0.001  0.995  0.002
  1.000  0.000  0.000  0.000  0.000
    occupations:
  0.712  0.000  0.009  0.013  0.000
  0.000  0.998  0.000  0.000 -0.001
  0.009  0.000  1.001 -0.001  0.000
  0.013  0.000 -0.001  0.998  0.000
  0.000 -0.001  0.000  0.000  0.644
   spin  2
    eigenvalues:
  0.104  0.136  0.136  0.286  0.382
    eigenvectors:
  0.006  0.000  0.000  0.993  0.000
  0.000  0.927  0.073  0.000  0.000
  0.000  0.073  0.926  0.001  0.000
  0.993  0.000  0.000  0.006  0.000
  0.000  0.000  0.000  0.000  1.000
    occupations:
  0.285  0.000 -0.004 -0.014  0.000
  0.000  0.136  0.000  0.000  0.002
 -0.004  0.000  0.137  0.000  0.000
 -0.014  0.000  0.000  0.105  0.000
  0.000  0.002  0.000  0.000  0.382
atomic mag. moment =     3.308912
N of occupied +U levels =  43.5216728
 --- exit write_ns ---

 ------ SPIN UP ------------

[...]

 ------ SPIN DOWN ----------

[...]

          k = 0.2500-0.4606 0.0000 ( 26462 PWs)   bands (ev):

[...]

          k =-0.2500 0.2303 0.0000 ( 26396 PWs)   bands (ev):

   -79.6937 -79.6856 -79.5129 -79.5041 -79.4318 -79.4300 -79.4235 -78.5689
   -48.5791 -48.5205 -48.5156 -48.4846 -48.4744 -48.4053 -48.3840 -48.3733
   -48.3651 -48.3343 -48.3224 -48.3171 -48.2883 -48.2787 -48.2210 -48.2173
   -48.1290 -48.1211 -48.0876 -48.0855 -48.0682 -47.7020 -47.5336 -46.9382
   -25.8251 -20.9223 -20.4506 -20.1391 -19.9091 -19.4787 -19.4239 -19.3450
   -19.2602 -19.1160 -19.0649 -19.0068 -18.9471 -18.8383 -18.8295 -18.6856
   -18.5349 -18.3968 -18.2289 -17.9453  -9.9621  -8.3588  -8.2591  -8.0725
    -7.6624  -7.5819  -7.4717  -7.4120  -7.0963  -6.8996  -6.7603  -6.6567
    -6.6296  -6.4376  -6.4207  -6.2465  -6.2201  -6.0819  -6.0172  -5.9849
    -5.9309  -5.6872  -5.6605  -5.5048  -5.4399  -5.4174  -5.3022  -5.2202
    -4.8886  -4.8623  -4.8165  -4.6744  -4.5515  -4.5214  -4.4822  -4.3510
    -4.2645  -4.1996  -4.1568  -3.9779  -3.9077  -3.7672  -3.6777  -3.5871
    -3.4757  -3.4476  -3.2881  -3.2285  -3.0721  -2.9511  -2.8922  -2.8358
    -2.7574  -2.6507  -2.5286  -2.3907  -2.2774  -2.1789  -1.8577   0.7073
     0.7829   0.8055   0.8472   0.9192   0.9489   1.0327   1.1061   1.1525
     1.1947   1.2786   1.3066   1.4649   1.4854   1.5294   1.5468   1.6369
     1.6973   1.7687   1.8590   1.9213   2.0309   2.0417   2.1021   2.2199
     2.2531   2.3536   2.4680   2.5482   2.6725   2.6974   2.8218   2.9347
     3.0257   3.1942   3.2356   3.3332   3.3871   3.5985   3.7460   3.8109
     3.9682   4.2058   4.4050   4.8282   5.2432   5.5358   5.7008   6.0836
     6.2555   6.3570   6.4952   6.5517   6.8575   6.9742   7.1858   7.5165
     7.6089   7.7937   7.9614   8.1932   8.2941   8.3748   8.5038   8.7205
     8.7821   8.9997   9.1853   9.3200   9.4723   9.6045   9.6542   9.8329
     9.9147   9.9920  10.0593  10.2065  10.2400  10.4666  10.5234  10.5791
    10.6779  10.8681  10.9288  10.9891  11.1324  11.2330  11.3356  11.4179
    11.5450  11.6608  11.7607  11.8355  11.9589  12.0225  12.1320  12.2096
    12.2410  12.3381  12.4611  12.4837  12.5210  12.6075  12.7586  12.8102
    12.8978  12.9803  13.0885  13.1827  13.2498  13.3339  13.4702  13.4879
    13.5858  13.6330  13.6605  13.7430  13.9458  14.0402  14.1052  14.1675
    14.2875  14.3834  14.3893  14.4638  14.4859  14.5517  14.6941  14.7394
    14.8448  14.8981  14.9662  14.9980  15.1628  15.2589  15.2869  15.3144
    15.3941  15.4357  15.5452  15.6327  15.7054  15.7461  15.8107  15.9042
    16.0161  16.0957  16.1665  16.2420  16.2795  16.3219  16.4287  16.4543
    16.5141  16.5770  16.7004  16.7417  16.8636  16.9434  16.9904  17.0462
    17.1585  17.2098  17.2880  17.3553  17.4068  17.5573  17.5864  17.6498
    17.7134  17.7804  17.8589  17.9302  17.9790  18.0293  18.0734  18.1659
    18.2621  18.3140  18.3885  18.4523  18.5606  18.6147  18.7140  18.7433
    18.7883  18.8561  18.9643  19.0195  19.0813  19.1241  19.2059  19.2367
    19.3988  19.4668  19.5809  19.6243  19.6928  19.7235  19.8119  19.8730
    19.9969  20.0401  20.0956  20.2570  20.2948  20.3664  20.4375  20.4964
    20.5904  20.6917  20.7692  20.8477  20.9329  20.9824  21.0363  21.1809
    21.2193  21.2706  21.3102  21.4241  21.4679  21.5770  21.6514  21.7269
    21.8755  21.9388  21.9890  22.0611  22.1075  22.1801  22.2438  22.3311
    22.3869  22.4504  22.5524  22.5885  22.6679  22.7222  22.7656  22.8920
    22.9834  23.0286  23.1122  23.2047  23.3348  23.3897  23.4694  23.5305
    23.6260  23.6409  23.6894  23.7174  23.7693  23.8120  23.8685

     the spin up/dw Fermi energies are    -1.2263   -0.9800 ev

!    total energy              =   -2353.06896471 Ry
     Harris-Foulkes estimate   =   -2353.06896472 Ry
     estimated scf accuracy    <          9.1E-09 Ry

     The total energy is the sum of the following terms:

     one-electron contribution =  -26861.11481356 Ry
     hartree contribution      =   13458.47063771 Ry
     xc contribution           =    -356.33555513 Ry
     ewald contribution        =   11404.79358022 Ry
     Hubbard energy            =       1.11747304 Ry
     smearing contrib. (-TS)   =      -0.00028699 Ry

     total magnetization       =    23.00 Bohr mag/cell
     absolute magnetization    =    29.84 Bohr mag/cell

     convergence has been achieved in  16 iterations

     Forces acting on atoms (Ry/au):

     negative rho (up, down):  0.192E-02 0.136E-02
     atom    1 type  1   force =    -0.00544453   -0.01661956   -0.00000682
     atom    2 type  1   force =     0.00033421    0.01294564    0.00008817
     atom    3 type  2   force =    -0.00301622   -0.00278209    0.00028039
     atom    4 type  2   force =     0.00641497    0.01230649   -0.00001699
     atom    5 type  1   force =     0.00328577    0.01094206   -0.00028835
     atom    6 type  1   force =    -0.00111909   -0.01509559   -0.00008216
     atom    7 type  1   force =     0.00000018   -0.00047846    0.00087011
     atom    8 type  1   force =    -0.00122594   -0.00103875    0.00021607
     atom    9 type  2   force =     0.00277678    0.00269028    0.00001603
     atom   10 type  2   force =    -0.00008013   -0.00429733    0.00055918
     atom   11 type  1   force =    -0.00146478   -0.04143418   -0.00016792
     atom   12 type  1   force =     0.00171139    0.04550771   -0.00022139
     atom   13 type  1   force =    -0.00035009   -0.00125925    0.00092849
     atom   14 type  1   force =    -0.00495156   -0.01582383    0.00015500
     atom   15 type  1   force =     0.00035721    0.01187977   -0.00014640
     atom   16 type  2   force =     0.00189267   -0.00273219    0.00032277
     atom   17 type  2   force =     0.00615763    0.01223832    0.00015961
     atom   18 type  1   force =     0.00156129    0.01096152   -0.00030123
     atom   19 type  1   force =    -0.00363401   -0.01508331   -0.00010990
     atom   20 type  1   force =     0.00002672    0.00041328   -0.00006137
     atom   21 type  1   force =    -0.00115263   -0.00080432   -0.00007234
     atom   22 type  2   force =    -0.00149187    0.00271141    0.00002907
     atom   23 type  2   force =     0.00000033   -0.00724849   -0.00011139
     atom   24 type  1   force =     0.00157859   -0.04143929   -0.00016512
     atom   25 type  1   force =    -0.00164041    0.04555761   -0.00022844
     atom   26 type  1   force =    -0.00037224   -0.00350795    0.00010663
     atom   27 type  3   force =     0.00001027   -0.00013045   -0.00024517
     atom   28 type  3   force =     0.00000749   -0.00001652   -0.00024533
     atom   29 type  3   force =    -0.00004716   -0.00013070   -0.00015767
     atom   30 type  3   force =    -0.00012520   -0.00020665   -0.00024025
     atom   31 type  1   force =    -0.00008157    0.00065007    0.00006701
     atom   32 type  1   force =     0.00012860    0.00054473   -0.00033022
     atom   33 type  3   force =    -0.00004668    0.00078001   -0.00060008

     Total force =     0.002173     Total SCF correction =     0.000520
     SCF correction compared to forces is large: reduce conv_thr to get better values

     bfgs converged in  27 scf cycles and  26 bfgs steps
     (criteria: energy < 0.10E-03, force < 0.10E-02)

     End of BFGS Geometry Optimization

     Final energy   =   -2353.0689647114 Ry
Begin final coordinates

ATOMIC_POSITIONS (crystal)
O0       0.000000000   0.000000000   0.376679890    0   0   1
O0       0.000000000   0.500000000   0.397332109    0   0   1
Mn1      0.250000000   0.500000000   0.449049991    0   0   1
Mn1      0.000000000   0.000000000   0.448525686    0   0   1
O0       0.250000000   0.800000000   0.448316375    0   0   1
O0       0.250000000   0.200000000   0.449944408    0   0   1
O0       0.000000000   0.500000000   0.495197516    0   0   1
O0       0.000000000   0.000000000   0.524734833    0   0   1
Mn1      0.250000000   0.000000000   0.573607664    0   0   1
Mn1      0.000000000   0.500000000   0.570989633    0   0   1
O0       0.250000000   0.700000000   0.580042919    0   0   1
O0       0.250000000   0.300000000   0.581210251    0   0   1
O0       0.000000000   0.000000000   0.619745185    0   0   1
O0       0.500000000   0.000000000   0.376484164    0   0   1
O0       0.500000000   0.500000000   0.397241324    0   0   1
Mn1      0.750000000   0.500000000   0.449045061    0   0   1
Mn1      0.500000000   0.000000000   0.448197348    0   0   1
O0       0.750000000   0.800000000   0.448326155    0   0   1
O0       0.750000000   0.200000000   0.449919584    0   0   1
O0       0.500000000   0.500000000   0.498196767    0   0   1
O0       0.500000000   0.000000000   0.524725204    0   0   1
Mn1      0.750000000   0.000000000   0.573608539    0   0   1
Mn1      0.500000000   0.500000000   0.571719398    0   0   1
O0       0.750000000   0.700000000   0.580041361    0   0   1
O0       0.750000000   0.300000000   0.581215548    0   0   1
O0       0.500000000   0.000000000   0.619706451    0   0   1
H2       0.000308176   0.648228098   0.381706697
H2       0.500339162   0.647329010   0.381378535
H2       0.161916747   0.039042422   0.365704054
H2       0.661918686   0.039666626   0.365606897
O0       0.499700000   0.550943387   0.654694520    0   1   1
O0       0.500640000   0.369897347   0.684753479    0   1   1
H2       0.499720000   0.432924214   0.719682452    0   1   1
End final coordinates

     General routines

     Parallel routines
     Hubbard U routines

   This run was terminated on:  13:54:42  21Sep2014

   JOB DONE.