     Program PWSCF v.5.0.2 (svn rev. 9656) starts on  9May2014 at 12: 0:34

     Current dimensions of program PWSCF are:
     Max number of different atomic species (ntypx) = 10
     Max number of k-points (npk) =  40000
     Max angular momentum in pseudopotentials (lmaxx) =  3
     Reading input from pwscf.in
Warning: card &CELL ignored
Warning: card / ignored

     Subspace diagonalization in iterative solution of the eigenvalue problem:
     a serial algorithm will be used

     Found symmetry operation: I + ( -0.5000  0.0000  0.0000)
     This is a supercell, fractional translations are disabled

     bravais-lattice index     =            0
     lattice parameter (alat)  =      10.7336  a.u.
     unit-cell volume          =    6184.1966 (a.u.)^3
     number of atoms/cell      =           30
     number of atomic types    =            3
     number of electrons       =       232.00 (up: 128.00, down: 104.00)
     number of Kohn-Sham states=          336
     kinetic-energy cutoff     =      40.0000  Ry
     charge density cutoff     =     500.0000  Ry
     convergence threshold     =      1.0E-06
     mixing beta               =       0.7000
     number of iterations used =            8  plain     mixing
     Exchange-correlation      = SLA  PW   PBE  PBE ( 1 4 3 4 0)
     EXX-fraction              =        0.00
     nstep                     =           50

     celldm(1)=  10.733644  celldm(2)=   0.000000  celldm(3)=   0.000000
     celldm(4)=   0.000000  celldm(5)=   0.000000  celldm(6)=   0.000000

     crystal axes: (cart. coord. in units of alat)
               a(1) = (   1.000000   0.000000   0.000000 )
               a(2) = (   0.000000   1.085558   0.000000 )
               a(3) = (   0.000000   0.000000   4.606685 )

     reciprocal axes: (cart. coord. in units 2 pi/alat)
               b(1) = (  1.000000  0.000000  0.000000 )
               b(2) = (  0.000000  0.921185  0.000000 )
               b(3) = (  0.000000  0.000000  0.217076 )

     PseudoPot. # 1 for O  read from file:
     /home/camp/zhonxu/pseudo/o_pbe_v1.01.uspp.F.UPF
     MD5 check sum: 2bcb18d16ea4b960afae9ec6d52f22d2
     Pseudo is Ultrasoft + core correction, Zval =  6.0
     Generated by new atomic code, or converted to UPF format
     Using radial grid of  737 points,  5 beta functions with:
                l(1) =   0
                l(2) =   0
                l(3) =   1
                l(4) =   1
                l(5) =   2
     Q(r) pseudized with  8 coefficients,  rinner =    0.900   0.900   0.900
                                                       0.900   0.900

     PseudoPot. # 2 for Mn read from file:
     /home/camp/zhonxu/pseudo/mn_pbe_v1.uspp.F.UPF
     MD5 check sum: 5fd7c7b5c956fd19902447332617373a
     Pseudo is Ultrasoft + core correction, Zval = 15.0
     Generated by new atomic code, or converted to UPF format
     Using radial grid of  859 points,  6 beta functions with:
                l(1) =   0
                l(2) =   0
                l(3) =   1
                l(4) =   1
                l(5) =   2
                l(6) =   2
     Q(r) pseudized with  6 coefficients,  rinner =    1.150   1.150   1.150
                                                       1.150   1.150

     PseudoPot. # 3 for H  read from file:
     /home/camp/zhonxu/pseudo/h_pbe_v1.uspp.F.UPF
     MD5 check sum: 3408e3ff4ec8b0a4e358431e7e038a48
     Pseudo is Ultrasoft, Zval =  1.0
     Generated by new atomic code, or converted to UPF format
     Using radial grid of  615 points,  2 beta functions with:
                l(1) =   0
                l(2) =   0
     Q(r) pseudized with  8 coefficients,  rinner =    0.700

     atomic species   valence    mass     pseudopotential
        O0             6.00    15.99940     O ( 1.00)
        Mn1           15.00    54.93800     Mn( 1.00)
        H2             1.00     1.00794     H ( 1.00)

     Starting magnetic structure
     atomic species   magnetization
        O0           0.000
        Mn1          0.600
        H2           0.000

     Simplified LDA+U calculation (l_max = 2) with parameters (eV):
     atomic species    L          U    alpha       J0     beta
        Mn1            2     6.5000   0.0000   0.0000   0.0000

     No symmetry found

   Cartesian axes

     site n.     atom                  positions (alat units)
         1           O0  tau(   1) = (   0.0000000   0.0000000   1.7440910  )
         2           O0  tau(   2) = (   0.0000000   0.5427791   1.8348887  )
         3           Mn1 tau(   3) = (   0.2500000   0.5427791   2.0695072  )
         4           Mn1 tau(   4) = (   0.0000000   0.0000000   2.0719487  )
         5           O0  tau(   5) = (   0.2500000   0.8684466   2.0695533  )
         6           O0  tau(   6) = (   0.2500000   0.2171117   2.0770161  )
         7           O0  tau(   7) = (   0.0000000   0.5427791   2.2881405  )
         8           O0  tau(   8) = (   0.0000000   0.0000000   2.4167130  )
         9           Mn1 tau(   9) = (   0.2500000   0.0000000   2.6452046  )
        10           Mn1 tau(  10) = (   0.0000000   0.5427791   2.6189465  )
        11           O0  tau(  11) = (   0.2500000   0.7598908   2.6694358  )
        12           O0  tau(  12) = (   0.2500000   0.3256675   2.6696661  )
        13           O0  tau(  13) = (   0.0000000   0.0000000   2.8462864  )
        14           O0  tau(  14) = (   0.5000000   0.0000000   1.7440910  )
        15           O0  tau(  15) = (   0.5000000   0.5427791   1.8348887  )
        16           Mn1 tau(  16) = (   0.7500000   0.5427791   2.0695072  )
        17           Mn1 tau(  17) = (   0.5000000   0.0000000   2.0719487  )
        18           O0  tau(  18) = (   0.7500000   0.8684466   2.0695533  )
        19           O0  tau(  19) = (   0.7500000   0.2171117   2.0770161  )
        20           O0  tau(  20) = (   0.5000000   0.5427791   2.2881405  )
        21           O0  tau(  21) = (   0.5000000   0.0000000   2.4167130  )
        22           Mn1 tau(  22) = (   0.7500000   0.0000000   2.6452046  )
        23           Mn1 tau(  23) = (   0.5000000   0.5427791   2.6189465  )
        24           O0  tau(  24) = (   0.7500000   0.7598908   2.6694358  )
        25           O0  tau(  25) = (   0.7500000   0.3256675   2.6696661  )
        26           O0  tau(  26) = (   0.5000000   0.0000000   2.8462864  )
        27           H2  tau(  27) = (  -0.0000900   0.7018026   1.7591088  )
        28           H2  tau(  28) = (   0.4999100   0.7018026   1.7591088  )
        29           H2  tau(  29) = (   0.1616900   0.0388738   1.6898703  )
        30           H2  tau(  30) = (   0.6616900   0.0388738   1.6898703  )

     number of k points=    20  Methfessel-Paxton smearing, width (Ry)=  0.0100
                       cart. coord. in units 2pi/alat
        k(    1) = (   0.0000000   0.0000000   0.0000000), wk =   0.0625000
        k(    2) = (   0.0000000   0.2302962   0.0000000), wk =   0.1250000
        k(    3) = (   0.0000000  -0.4605925   0.0000000), wk =   0.0625000
        k(    4) = (   0.2500000   0.0000000   0.0000000), wk =   0.1250000
        k(    5) = (   0.2500000   0.2302962   0.0000000), wk =   0.1250000
        k(    6) = (   0.2500000  -0.4605925   0.0000000), wk =   0.1250000
        k(    7) = (  -0.5000000   0.0000000   0.0000000), wk =   0.0625000
        k(    8) = (  -0.5000000   0.2302962   0.0000000), wk =   0.1250000
        k(    9) = (  -0.5000000  -0.4605925   0.0000000), wk =   0.0625000
        k(   10) = (  -0.2500000   0.2302962   0.0000000), wk =   0.1250000
        k(   11) = (   0.0000000   0.0000000   0.0000000), wk =   0.0625000
        k(   12) = (   0.0000000   0.2302962   0.0000000), wk =   0.1250000
        k(   13) = (   0.0000000  -0.4605925   0.0000000), wk =   0.0625000
        k(   14) = (   0.2500000   0.0000000   0.0000000), wk =   0.1250000
        k(   15) = (   0.2500000   0.2302962   0.0000000), wk =   0.1250000
        k(   16) = (   0.2500000  -0.4605925   0.0000000), wk =   0.1250000
        k(   17) = (  -0.5000000   0.0000000   0.0000000), wk =   0.0625000
        k(   18) = (  -0.5000000   0.2302962   0.0000000), wk =   0.1250000
        k(   19) = (  -0.5000000  -0.4605925   0.0000000), wk =   0.0625000
        k(   20) = (  -0.2500000   0.2302962   0.0000000), wk =   0.1250000

     Largest allocated arrays     est. size (Mb)     dimensions
     Largest temporary arrays     est. size (Mb)     dimensions

     Check: negative/imaginary core charge=   -0.000022    0.000000

     Initial potential from superposition of free atoms
     Check: negative starting charge=(component1):   -0.000776
     Check: negative starting charge=(component2):   -0.000381

     starting charge  223.99987, renormalised to  232.00000

     negative rho (up, down):  0.804E-03 0.395E-03
     Number of +U iterations with fixed ns =  0
     Starting occupations:
 --- enter write_ns ---
 LDA+U parameters:
U( 2)     =  6.50000000
alpha( 2) =  0.00000000
atom    3   Tr[ns(na)] (up, down, total) =   5.00000  0.00000  5.00000
   spin  1
    eigenvalues:
  1.000  1.000  1.000  1.000  1.000
    eigenvectors:
  1.000  0.000  0.000  0.000  0.000
  0.000  1.000  0.000  0.000  0.000
  0.000  0.000  1.000  0.000  0.000
  0.000  0.000  0.000  1.000  0.000
  0.000  0.000  0.000  0.000  1.000
    occupations:
  1.000  0.000  0.000  0.000  0.000
  0.000  1.000  0.000  0.000  0.000
  0.000  0.000  1.000  0.000  0.000
  0.000  0.000  0.000  1.000  0.000
  0.000  0.000  0.000  0.000  1.000
   spin  2
    eigenvalues:
  0.000  0.000  0.000  0.000  0.000
    eigenvectors:
  1.000  0.000  0.000  0.000  0.000
  0.000  1.000  0.000  0.000  0.000
  0.000  0.000  1.000  0.000  0.000
  0.000  0.000  0.000  1.000  0.000
  0.000  0.000  0.000  0.000  1.000
    occupations:
  0.000  0.000  0.000  0.000  0.000
  0.000  0.000  0.000  0.000  0.000
  0.000  0.000  0.000  0.000  0.000
  0.000  0.000  0.000  0.000  0.000
  0.000  0.000  0.000  0.000  0.000
atomic mag. moment =     5.000000
atom    4   Tr[ns(na)] (up, down, total) =   5.00000  0.00000  5.00000
   spin  1
    eigenvalues:
  1.000  1.000  1.000  1.000  1.000
    eigenvectors:
  1.000  0.000  0.000  0.000  0.000
  0.000  1.000  0.000  0.000  0.000
  0.000  0.000  1.000  0.000  0.000
  0.000  0.000  0.000  1.000  0.000
  0.000  0.000  0.000  0.000  1.000
    occupations:
  1.000  0.000  0.000  0.000  0.000
  0.000  1.000  0.000  0.000  0.000
  0.000  0.000  1.000  0.000  0.000
  0.000  0.000  0.000  1.000  0.000
  0.000  0.000  0.000  0.000  1.000
   spin  2
    eigenvalues:
  0.000  0.000  0.000  0.000  0.000
    eigenvectors:
  1.000  0.000  0.000  0.000  0.000
  0.000  1.000  0.000  0.000  0.000
  0.000  0.000  1.000  0.000  0.000
  0.000  0.000  0.000  1.000  0.000
  0.000  0.000  0.000  0.000  1.000
    occupations:
  0.000  0.000  0.000  0.000  0.000
  0.000  0.000  0.000  0.000  0.000
  0.000  0.000  0.000  0.000  0.000
  0.000  0.000  0.000  0.000  0.000
  0.000  0.000  0.000  0.000  0.000
atomic mag. moment =     5.000000
atom    9   Tr[ns(na)] (up, down, total) =   5.00000  0.00000  5.00000
   spin  1
    eigenvalues:
  1.000  1.000  1.000  1.000  1.000
    eigenvectors:
[...]
    occupations:
  0.933  0.000 -0.002 -0.118  0.000
  0.000  0.758 -0.000  0.000 -0.007
 -0.002 -0.000  1.003 -0.002  0.000
 -0.118  0.000 -0.002  0.794  0.000
  0.000 -0.007  0.000  0.000  0.999
   spin  2
    eigenvalues:
  0.067  0.083  0.093  0.291  0.322
    eigenvectors:
  0.773  0.000  0.004  0.000  0.224
  0.000  0.001  0.000  0.999  0.000
  0.005  0.000  0.995  0.000  0.000
  0.222  0.000  0.002  0.000  0.776
  0.000  0.999  0.000  0.001  0.000
    occupations:
  0.124 -0.000 -0.002  0.107 -0.000
 -0.000  0.291  0.000 -0.000  0.008
 -0.002  0.000  0.093 -0.000 -0.000
  0.107 -0.000 -0.000  0.265 -0.000
 -0.000  0.008 -0.000 -0.000  0.083
atomic mag. moment =     3.632197
atom    4   Tr[ns(na)] (up, down, total) =   4.48959  0.84499  5.33458
   spin  1
    eigenvalues:
  0.711  0.773  0.997  1.004  1.005
    eigenvectors:
  0.000  0.997  0.001  0.001  0.000
  0.000  0.001  0.000  0.257  0.742
  0.000  0.001  0.000  0.741  0.258
  0.000  0.001  0.999  0.000  0.000
  1.000  0.000  0.000  0.000  0.000
    occupations:
  0.774 -0.007 -0.005  0.007 -0.001
 -0.007  1.004 -0.001  0.000  0.002
 -0.005 -0.001  1.004  0.000 -0.000
  0.007  0.000  0.000  0.997 -0.000
 -0.001  0.002 -0.000 -0.000  0.711
   spin  2
    eigenvalues:
  0.071  0.081  0.087  0.277  0.329
    eigenvectors:
  0.006  0.001  0.000  0.992  0.000
  0.005  0.372  0.621  0.001  0.001
  0.010  0.611  0.378  0.001  0.000
  0.979  0.015  0.000  0.006  0.000
  0.000  0.000  0.000  0.000  0.999
    occupations:
  0.275  0.007  0.005 -0.016  0.000
  0.007  0.085 -0.003  0.000 -0.007
  0.005 -0.003  0.083  0.001  0.000
 -0.016  0.000  0.001  0.072 -0.000
  0.000 -0.007  0.000 -0.000  0.329
atomic mag. moment =     3.644597
atom    9   Tr[ns(na)] (up, down, total) =   4.46421  0.89850  5.36271
   spin  1
    eigenvalues:
  0.736  0.747  0.988  0.993  1.001
    eigenvectors:
  0.230  0.000  0.000  0.000  0.770
  0.001  0.999  0.000  0.000  0.000
  0.000  0.000  0.000  1.000  0.000
  0.769  0.001  0.000  0.000  0.230
  0.000  0.000  1.000  0.000  0.000
    occupations:
  0.940  0.000  0.000 -0.112 -0.000
  0.000  0.747  0.000  0.000  0.000
  0.000  0.000  0.993  0.000  0.000
 -0.112  0.000  0.000  0.796  0.000
 -0.000  0.000  0.000  0.000  0.988
   spin  2
    eigenvalues:
  0.076  0.087  0.093  0.320  0.322
    eigenvectors:
  0.807  0.000  0.000  0.193  0.000
  0.000  0.000  0.000  0.000  1.000
  0.000  0.000  1.000  0.000  0.000
  0.193  0.000  0.000  0.807  0.000
  0.000  1.000  0.000  0.000  0.000
    occupations:
  0.123 -0.000  0.000  0.096  0.000
 -0.000  0.322 -0.000  0.000 -0.000
  0.000 -0.000  0.093  0.000 -0.000
  0.096  0.000  0.000  0.273  0.000
  0.000 -0.000 -0.000  0.000  0.087
atomic mag. moment =     3.565716
atom   10   Tr[ns(na)] (up, down, total) =   4.68230  0.58984  5.27214
   spin  1
    eigenvalues:
  0.721  0.964  0.999  0.999  0.999
    eigenvectors:
  0.000  0.957  0.000  0.000  0.043
  0.000  0.000  0.009  0.991  0.000
  0.000  0.000  0.987  0.009  0.003
  0.000  0.043  0.003  0.000  0.954
  1.000  0.000  0.000  0.000  0.000
    occupations:
  0.966 -0.000  0.000  0.007 -0.000
 -0.000  0.999  0.000  0.000 -0.000
  0.000  0.000  0.999 -0.000  0.000
  0.007  0.000 -0.000  0.998  0.000
 -0.000 -0.000  0.000  0.000  0.721
   spin  2
    eigenvalues:
  0.059  0.063  0.071  0.121  0.276
    eigenvectors:
  0.047  0.000  0.000  0.953  0.000
  0.000  0.000  1.000  0.000  0.000
  0.000  1.000  0.000  0.000  0.000
  0.953  0.000  0.000  0.047  0.000
  0.000  0.000  0.000  0.000  1.000
    occupations:
  0.118  0.000 -0.000 -0.013  0.000
  0.000  0.071  0.000 -0.000  0.000
 -0.000  0.000  0.063 -0.000 -0.000
 -0.013 -0.000 -0.000  0.062 -0.000
  0.000  0.000 -0.000 -0.000  0.276
atomic mag. moment =     4.092460
atom   16   Tr[ns(na)] (up, down, total) =   4.48767  0.85548  5.34315
   spin  1
    eigenvalues:
  0.727  0.758  0.999  1.001  1.003
    eigenvectors:
  0.247  0.000  0.000  0.613  0.140
  0.000  0.999  0.001  0.000  0.000
  0.000  0.000  0.001  0.180  0.818
  0.753  0.000  0.000  0.205  0.042
  0.000  0.001  0.997  0.001  0.000
    occupations:
  0.933  0.000 -0.002 -0.118  0.000
  0.000  0.758 -0.000  0.000 -0.007
 -0.002 -0.000  1.003 -0.002  0.000
 -0.118  0.000 -0.002  0.794  0.000
  0.000 -0.007  0.000  0.000  0.999
   spin  2
    eigenvalues:
  0.067  0.083  0.093  0.291  0.322
    eigenvectors:
  0.773  0.000  0.004  0.000  0.224
  0.000  0.001  0.000  0.999  0.000
  0.005  0.000  0.995  0.000  0.000
  0.222  0.000  0.002  0.000  0.776
  0.000  0.999  0.000  0.001  0.000
    occupations:
  0.124 -0.000 -0.002  0.107 -0.000
 -0.000  0.291  0.000 -0.000  0.008
 -0.002  0.000  0.093 -0.000 -0.000
  0.107 -0.000 -0.000  0.265 -0.000
 -0.000  0.008 -0.000 -0.000  0.083
atomic mag. moment =     3.632197
atom   17   Tr[ns(na)] (up, down, total) =   4.48959  0.84499  5.33458
   spin  1
    eigenvalues:
  0.711  0.773  0.997  1.004  1.005
    eigenvectors:
  0.000  0.997  0.001  0.001  0.000
  0.000  0.001  0.000  0.257  0.742
  0.000  0.001  0.000  0.741  0.258
  0.000  0.001  0.999  0.000  0.000
  1.000  0.000  0.000  0.000  0.000
    occupations:
  0.774 -0.007 -0.005  0.007 -0.001
 -0.007  1.004 -0.001  0.000  0.002
 -0.005 -0.001  1.004  0.000 -0.000
  0.007  0.000  0.000  0.997 -0.000
 -0.001  0.002 -0.000 -0.000  0.711
   spin  2
    eigenvalues:
  0.071  0.081  0.087  0.277  0.329
    eigenvectors:
  0.006  0.001  0.000  0.992  0.000
  0.005  0.372  0.621  0.001  0.001
  0.010  0.611  0.378  0.001  0.000
  0.979  0.015  0.000  0.006  0.000
  0.000  0.000  0.000  0.000  0.999
    occupations:
  0.275  0.007  0.005 -0.016  0.000
  0.007  0.085 -0.003  0.000 -0.007
  0.005 -0.003  0.083  0.001  0.000
 -0.016  0.000  0.001  0.072 -0.000
  0.000 -0.007  0.000 -0.000  0.329
atomic mag. moment =     3.644593
atom   22   Tr[ns(na)] (up, down, total) =   4.46421  0.89850  5.36271
   spin  1
    eigenvalues:
  0.736  0.747  0.988  0.993  1.001
    eigenvectors:
  0.230  0.000  0.000  0.000  0.770
  0.001  0.999  0.000  0.000  0.000
  0.000  0.000  0.000  1.000  0.000
  0.769  0.001  0.000  0.000  0.230
  0.000  0.000  1.000  0.000  0.000
    occupations:
  0.940  0.000  0.000 -0.112 -0.000
  0.000  0.747  0.000  0.000  0.000
  0.000  0.000  0.993  0.000  0.000
 -0.112  0.000  0.000  0.796  0.000
 -0.000  0.000  0.000  0.000  0.988
   spin  2
    eigenvalues:
  0.076  0.087  0.093  0.320  0.322
    eigenvectors:
  0.807  0.000  0.000  0.193  0.000
  0.000  0.000  0.000  0.000  1.000
  0.000  0.000  1.000  0.000  0.000
  0.193  0.000  0.000  0.807  0.000
  0.000  1.000  0.000  0.000  0.000
    occupations:
  0.123 -0.000  0.000  0.096  0.000
 -0.000  0.322 -0.000  0.000 -0.000
  0.000 -0.000  0.093  0.000 -0.000
  0.096  0.000  0.000  0.273  0.000
  0.000 -0.000 -0.000  0.000  0.087
atomic mag. moment =     3.565716
atom   23   Tr[ns(na)] (up, down, total) =   4.68230  0.58984  5.27214
   spin  1
    eigenvalues:
  0.721  0.964  0.999  0.999  0.999
    eigenvectors:
  0.000  0.957  0.000  0.000  0.043
  0.000  0.000  0.009  0.991  0.000
  0.000  0.000  0.987  0.009  0.003
  0.000  0.043  0.003  0.000  0.954
  1.000  0.000  0.000  0.000  0.000
    occupations:
  0.966 -0.000  0.000  0.007 -0.000
 -0.000  0.999  0.000  0.000 -0.000
  0.000  0.000  0.999 -0.000  0.000
  0.007  0.000 -0.000  0.998  0.000
 -0.000 -0.000  0.000  0.000  0.721
   spin  2
    eigenvalues:
  0.059  0.063  0.071  0.121  0.276
    eigenvectors:
  0.047  0.000  0.000  0.953  0.000
  0.000  0.000  1.000  0.000  0.000
  0.000  1.000  0.000  0.000  0.000
  0.953  0.000  0.000  0.047  0.000
  0.000  0.000  0.000  0.000  1.000
    occupations:
  0.118  0.000 -0.000 -0.013  0.000
  0.000  0.071  0.000 -0.000  0.000
 -0.000  0.000  0.063 -0.000 -0.000
 -0.013 -0.000 -0.000  0.062 -0.000
  0.000  0.000 -0.000 -0.000  0.276
atomic mag. moment =     4.092455
N of occupied +U levels =  42.6251495
 --- exit write_ns ---

 ------ SPIN UP ------------

[...]

 ------ SPIN DOWN ----------

[...]

          k = 0.2500-0.4606 0.0000 ( 26462 PWs)   bands (ev):

[...]

          k =-0.2500 0.2303 0.0000 ( 26396 PWs)   bands (ev):

   -80.0863 -80.0786 -80.0411 -80.0331 -79.9927 -79.9841 -79.1567 -79.1484
   -48.9886 -48.9710 -48.9585 -48.9465 -48.9392 -48.8831 -48.8802 -48.8753
   -48.8749 -48.8402 -48.8389 -48.8212 -48.8054 -48.7895 -48.7587 -48.7410
   -48.6270 -48.6194 -48.2838 -48.1784 -48.1281 -48.1101 -47.6318 -47.6229
   -21.6646 -21.1873 -21.1787 -20.9714 -20.5145 -20.4515 -20.4356 -20.3598
   -20.1558 -20.1379 -20.0757 -19.9812 -19.8634 -19.7934 -19.7296 -19.6952
   -19.6562 -19.5548  -8.9524  -8.7306  -8.3543  -8.3192  -8.1349  -7.9559
    -7.7498  -7.5774  -7.4217  -7.2840  -7.1047  -7.0997  -6.9676  -6.9296
    -6.8745  -6.7155  -6.6532  -6.5365  -6.4764  -6.3426  -6.2446  -6.1760
    -6.1138  -6.0201  -5.8335  -5.7929  -5.7358  -5.6685  -5.6218  -5.4996
    -5.4077  -5.3078  -5.2198  -5.1341  -5.1153  -5.0287  -4.9827  -4.8286
    -4.7517  -4.6155  -4.5308  -4.4938  -4.4362  -4.3460  -4.2895  -4.1922
    -4.0205  -3.9385  -3.7637  -3.6818  -3.6620  -3.3605  -3.3375  -3.0557
     1.4863   1.5474   1.5694   1.6343   1.6611   1.7561   1.7919   1.8214
     1.8697   1.8750   1.9581   1.9811   2.0375   2.0682   2.0740   2.1700
     2.2061   2.3122   2.3165   2.4094   2.4332   2.4841   2.6184   2.6330
     2.6414   2.7298   2.7520   2.7742   2.9118   2.9886   2.9946   3.0304
     3.1004   3.1124   3.2272   3.3383   3.3957   3.4080   3.4419   3.6057
     3.7383   4.2020   4.4109   4.8863   5.3605   5.6253   5.7890   6.0928
     6.2333   6.3753   6.4354   6.4556   6.6133   6.8694   6.9647   7.2888
     7.3212   7.5604   7.7386   7.9057   8.1401   8.1419   8.2078   8.3580
     8.4404   8.5824   8.8093   8.8841   9.1359   9.1922   9.2464   9.4506
     9.5091   9.5458   9.8623   9.9210  10.0635  10.0687  10.1622  10.3297
    10.4163  10.5304  10.5819  10.6917  10.7937  10.9147  11.0182  11.0581
    11.1900  11.2529  11.3050  11.5123  11.5126  11.6346  11.6638  11.7178
    11.8942  11.8954  12.0829  12.1726  12.2035  12.3203  12.4423  12.4699
    12.5070  12.6750  12.8120  12.8146  12.9327  12.9907  13.0371  13.0940
    13.1504  13.2036  13.3226  13.4066  13.4135  13.4489  13.4815  13.5239
    13.6167  13.7072  13.8313  13.8833  14.0369  14.0568  14.1582  14.2113
    14.2375  14.3160  14.3436  14.5430  14.5754  14.6067  14.6825  14.7752
    14.9182  15.0365  15.1058  15.1671  15.2360  15.4296  15.4643  15.5964
    15.6543  15.7738  15.8391  15.9047  16.0152  16.1182  16.1901  16.2722
    16.3266  16.4745  16.4886  16.5302  16.6273  16.7620  16.7789  16.8924
    16.9626  17.0509  17.1044  17.1215  17.2313  17.2889  17.3074  17.5009
    17.5111  17.5713  17.6730  17.7356  17.8868  17.9443  18.0021  18.1019
    18.1602  18.2323  18.2814  18.3058  18.3336  18.4733  18.5421  18.6099
    18.6633  18.7847  18.7908  18.8400  18.9598  19.0868  19.1305  19.1978
    19.2863  19.3094  19.3803  19.4854  19.6031  19.6880  19.7586  19.8466
    19.9183  19.9866  20.0485  20.0516  20.1402  20.1644  20.2806  20.3212
    20.3935  20.4223  20.4417  20.5330  20.6330  20.7638  20.8616  20.9522
    21.0358  21.1288  21.1340  21.2332  21.2630  21.3734  21.4144  21.5025
    21.5078  21.6984  21.7125  21.7845  21.8203  21.9415  21.9776  22.0975

     the spin up/dw Fermi energies are    -2.4781   -0.6110 ev

!    total energy              =   -2286.59546042 Ry
     Harris-Foulkes estimate   =   -2286.59546043 Ry
     estimated scf accuracy    <          8.0E-09 Ry

     The total energy is the sum of the following terms:

     one-electron contribution =  -25051.95740268 Ry
     hartree contribution      =   12542.83156350 Ry
     xc contribution           =    -342.03118438 Ry
     ewald contribution        =   10562.72753043 Ry
     Hubbard energy            =       1.83423506 Ry
     smearing contrib. (-TS)   =      -0.00020236 Ry

     total magnetization       =    24.00 Bohr mag/cell
     absolute magnetization    =    36.71 Bohr mag/cell

     convergence has been achieved in  14 iterations

     Forces acting on atoms (Ry/au):

     negative rho (up, down):  0.164E-02 0.141E-02
     atom    1 type  1   force =    -0.00478515   -0.01378570   -0.00087978
     atom    2 type  1   force =     0.00042702    0.00787699    0.00038705
     atom    3 type  2   force =    -0.00086566    0.00120446    0.00021933
     atom    4 type  2   force =     0.00654323    0.00948153    0.00050682
     atom    5 type  1   force =     0.00120506    0.01201713   -0.00043925
     atom    6 type  1   force =    -0.00167145   -0.01668504    0.00024694
     atom    7 type  1   force =     0.00005467    0.00183032   -0.00001725
     atom    8 type  1   force =    -0.00144543   -0.00238078   -0.00042337
     atom    9 type  2   force =     0.00078070    0.00010198   -0.00054894
     atom   10 type  2   force =    -0.00005490   -0.00071564   -0.00036984
     atom   11 type  1   force =     0.00005978   -0.01946643    0.00024377
     atom   12 type  1   force =     0.00003613    0.01977839    0.00027189
     atom   13 type  1   force =    -0.00048051   -0.00008439    0.00017034
     atom   14 type  1   force =    -0.00478361   -0.01378513   -0.00088152
     atom   15 type  1   force =     0.00042709    0.00787551    0.00038851
     atom   16 type  2   force =    -0.00086855    0.00120511    0.00021933
     atom   17 type  2   force =     0.00654272    0.00948160    0.00051119
     atom   18 type  1   force =     0.00120441    0.01201702   -0.00043926
     atom   19 type  1   force =    -0.00167243   -0.01668521    0.00024680
     atom   20 type  1   force =     0.00005465    0.00183029   -0.00001829
     atom   21 type  1   force =    -0.00144539   -0.00238078   -0.00042355
     atom   22 type  2   force =     0.00077424    0.00010207   -0.00054905
     atom   23 type  2   force =    -0.00005491   -0.00071563   -0.00037238
     atom   24 type  1   force =     0.00006123   -0.01946641    0.00024376
     atom   25 type  1   force =     0.00003762    0.01977839    0.00027187
     atom   26 type  1   force =    -0.00048050   -0.00008440    0.00017104
     atom   27 type  3   force =     0.00000758   -0.00004657    0.00042329
     atom   28 type  3   force =     0.00000759   -0.00004476    0.00042207
     atom   29 type  3   force =     0.00019266    0.00087327    0.00020963
     atom   30 type  3   force =     0.00019209    0.00087280    0.00020886

     Total force =     0.002566     Total SCF correction =     0.000439
     SCF correction compared to forces is large: reduce conv_thr to get better values

     bfgs converged in  17 scf cycles and  16 bfgs steps
     (criteria: energy < 0.10E-03, force < 0.10E-02)

     End of BFGS Geometry Optimization

     Final energy   =   -2286.5954604242 Ry
Begin final coordinates

ATOMIC_POSITIONS (crystal)
O0       0.000000000   0.000000000   0.373105297    0   0   1
O0       0.000000000   0.500000000   0.392205853    0   0   1
Mn1      0.250000000   0.500000000   0.445743182    0   0   1
Mn1      0.000000000   0.000000000   0.447349903    0   0   1
O0       0.250000000   0.800000000   0.446035119    0   0   1
O0       0.250000000   0.200000000   0.449281111    0   0   1
O0       0.000000000   0.500000000   0.494867165    0   0   1
O0       0.000000000   0.000000000   0.526707828    0   0   1
Mn1      0.250000000   0.000000000   0.576164715    0   0   1
Mn1      0.000000000   0.500000000   0.573772990    0   0   1
O0       0.250000000   0.700000000   0.587498774    0   0   1
O0       0.250000000   0.300000000   0.587609035    0   0   1
O0       0.000000000   0.000000000   0.625882456    0   0   1
O0       0.500000000   0.000000000   0.373105262    0   0   1
O0       0.500000000   0.500000000   0.392205851    0   0   1
Mn1      0.750000000   0.500000000   0.445743183    0   0   1
Mn1      0.500000000   0.000000000   0.447349521    0   0   1
O0       0.750000000   0.800000000   0.446035147    0   0   1
O0       0.750000000   0.200000000   0.449281100    0   0   1
O0       0.500000000   0.500000000   0.494867357    0   0   1
O0       0.500000000   0.000000000   0.526707804    0   0   1
Mn1      0.750000000   0.000000000   0.576164711    0   0   1
Mn1      0.500000000   0.500000000   0.573773647    0   0   1
O0       0.750000000   0.700000000   0.587498771    0   0   1
O0       0.750000000   0.300000000   0.587609040    0   0   1
O0       0.500000000   0.000000000   0.625882241    0   0   1
H2       0.000470035   0.648024374   0.376778937
H2       0.500470105   0.648024317   0.376779025
H2       0.161378319   0.043393739   0.362607386
H2       0.661378585   0.043394253   0.362607590
End final coordinates

     General routines

     Parallel routines
     Hubbard U routines

   This run was terminated on:  11: 6:18  10May2014

   JOB DONE.