     Program PWSCF v.5.0.2 (svn rev. 9656) starts on 14Aug2014 at 17:13:27

     Current dimensions of program PWSCF are:
     Max number of different atomic species (ntypx) = 10
     Max number of k-points (npk) =  40000
     Max angular momentum in pseudopotentials (lmaxx) =  3
     Reading input from pwscf.in
Warning: card &CELL ignored
Warning: card / ignored

     Subspace diagonalization in iterative solution of the eigenvalue problem:
     a serial algorithm will be used

     bravais-lattice index     =            0
     lattice parameter (alat)  =      11.7919  a.u.
     unit-cell volume          =    7123.6633 (a.u.)^3
     number of atoms/cell      =           33
     number of atomic types    =            3
     number of electrons       =       253.00
     number of Kohn-Sham states=          379
     kinetic-energy cutoff     =      40.0000  Ry
     charge density cutoff     =     500.0000  Ry
     convergence threshold     =      1.0E-06
     mixing beta               =       0.7000
     number of iterations used =            8  plain     mixing
     Exchange-correlation      = SLA  PW   PBE  PBE ( 1 4 3 4 0)
     EXX-fraction              =        0.00
     nstep                     =           50

     celldm(1)=  11.791891  celldm(2)=   0.000000  celldm(3)=   0.000000
     celldm(4)=   0.000000  celldm(5)=   0.000000  celldm(6)=   0.000000

     crystal axes: (cart. coord. in units of alat)
               a(1) = (   1.000000   0.000000   0.000000 )
               a(2) = (   0.000000   1.026665   0.000000 )
               a(3) = (   0.000000   0.000000   4.231793 )

     reciprocal axes: (cart. coord. in units 2 pi/alat)
               b(1) = (  1.000000  0.000000  0.000000 )
               b(2) = (  0.000000  0.974028  0.000000 )
               b(3) = (  0.000000  0.000000  0.236306 )

     PseudoPot. # 1 for O  read from file:
     /home-research/zhongnanxu/gbrv_espresso_pseudo_v1.01/o_pbe_v1.01.uspp.F.UPF
     MD5 check sum: 2bcb18d16ea4b960afae9ec6d52f22d2
     Pseudo is Ultrasoft + core correction, Zval =  6.0
     Generated by new atomic code, or converted to UPF format
     Using radial grid of  737 points,  5 beta functions with:
                l(1) =   0
                l(2) =   0
                l(3) =   1
                l(4) =   1
                l(5) =   2
     Q(r) pseudized with  8 coefficients,  rinner =    0.900   0.900   0.900
                                                       0.900   0.900

     PseudoPot. # 2 for Ru read from file:
     /home-research/zhongnanxu/gbrv_espresso_pseudo_v1.01/ru_pbe_v1.uspp.F.UPF
     MD5 check sum: df00be1c11b23341d9806d8f1dfa10cf
     Pseudo is Ultrasoft + core correction, Zval = 16.0
     Generated by new atomic code, or converted to UPF format
     Using radial grid of  967 points,  6 beta functions with:
                l(1) =   0
                l(2) =   0
                l(3) =   1
                l(4) =   1
                l(5) =   2
                l(6) =   2
     Q(r) pseudized with  8 coefficients,  rinner =    1.300   1.300   1.300
                                                       1.300   1.300

     PseudoPot. # 3 for H  read from file:
     /home-research/zhongnanxu/gbrv_espresso_pseudo_v1.01/h_pbe_v1.uspp.F.UPF
     MD5 check sum: 3408e3ff4ec8b0a4e358431e7e038a48
     Pseudo is Ultrasoft, Zval =  1.0
     Generated by new atomic code, or converted to UPF format
     Using radial grid of  615 points,  2 beta functions with:
                l(1) =   0
                l(2) =   0
     Q(r) pseudized with  8 coefficients,  rinner =    0.700

     atomic species   valence    mass     pseudopotential
        O0             6.00    15.99940     O ( 1.00)
        Ru1           16.00   101.07000     Ru( 1.00)
        H2             1.00     1.00794     H ( 1.00)

     Simplified LDA+U calculation (l_max = 2) with parameters (eV):
     atomic species    L          U    alpha       J0     beta
        Ru1            2     7.0000   0.0000   0.0000   0.0000

     No symmetry found

   Cartesian axes

     site n.     atom                  positions (alat units)
         1           O0  tau(   1) = (   0.0000000   0.0000000   1.6061347  )
         2           O0  tau(   2) = (   0.0000000   0.5133323   1.7112524  )
         3           Ru1 tau(   3) = (   0.2500000   0.5133323   1.9203030  )
         4           Ru1 tau(   4) = (   0.0000000   0.0000000   1.9156480  )
         5           O0  tau(   5) = (   0.2500000   0.8315984   1.9142515  )
         6           O0  tau(   6) = (   0.2500000   0.1950663   1.9135744  )
         7           O0  tau(   7) = (   0.0000000   0.5133323   2.1199166  )
         8           O0  tau(   8) = (   0.0000000   0.0000000   2.2245689  )
         9           Ru1 tau(   9) = (   0.2500000   0.0000000   2.4583754  )
        10           Ru1 tau(  10) = (   0.0000000   0.5133323   2.4111486  )
        11           O0  tau(  11) = (   0.2500000   0.7083986   2.4446644  )
        12           O0  tau(  12) = (   0.2500000   0.3182660   2.4541860  )
        13           O0  tau(  13) = (   0.0000000   0.0000000   2.6143593  )
        14           O0  tau(  14) = (   0.5000000   0.0000000   1.6020721  )
        15           O0  tau(  15) = (   0.5000000   0.5133323   1.7013077  )
        16           Ru1 tau(  16) = (   0.7500000   0.5133323   1.9198798  )
        17           Ru1 tau(  17) = (   0.5000000   0.0000000   1.9113739  )
        18           O0  tau(  18) = (   0.7500000   0.8315984   1.9139553  )
        19           O0  tau(  19) = (   0.7500000   0.1950663   1.9140399  )
        20           O0  tau(  20) = (   0.5000000   0.5133323   2.1199166  )
        21           O0  tau(  21) = (   0.5000000   0.0000000   2.2198293  )
        22           Ru1 tau(  22) = (   0.7500000   0.0000000   2.4205009  )
        23           Ru1 tau(  23) = (   0.5000000   0.5133323   2.4523240  )
        24           O0  tau(  24) = (   0.7500000   0.7083986   2.4243095  )
        25           O0  tau(  25) = (   0.7500000   0.3182660   2.4324345  )
        26           O0  tau(  26) = (   0.5000000   0.0000000   2.6066998  )
        27           H2  tau(  27) = (  -0.0000700   0.6298896   1.6047805  )
        28           H2  tau(  28) = (   0.4997900   0.6491190   1.6203112  )
        29           H2  tau(  29) = (   0.1472200   0.0271039   1.5540836  )
        30           H2  tau(  30) = (   0.6465300   0.0287979   1.5492170  )
        31           O0  tau(  31) = (   0.5000700   0.5421097   2.7536699  )
        32           O0  tau(  32) = (   0.4999900   0.3446821   2.8757572  )
        33           H2  tau(  33) = (   0.4999600   0.4048344   3.0217963  )

     number of k points=    10  Methfessel-Paxton smearing, width (Ry)=  0.0100
                       cart. coord. in units 2pi/alat
        k(    1) = (   0.0000000   0.0000000   0.0000000), wk =   0.1250000
        k(    2) = (   0.0000000   0.2435070   0.0000000), wk =   0.2500000
        k(    3) = (   0.0000000  -0.4870139   0.0000000), wk =   0.1250000
        k(    4) = (   0.2500000   0.0000000   0.0000000), wk =   0.2500000
        k(    5) = (   0.2500000   0.2435070   0.0000000), wk =   0.2500000
        k(    6) = (   0.2500000  -0.4870139   0.0000000), wk =   0.2500000
        k(    7) = (  -0.5000000   0.0000000   0.0000000), wk =   0.1250000
        k(    8) = (  -0.5000000   0.2435070   0.0000000), wk =   0.2500000
        k(    9) = (  -0.5000000  -0.4870139   0.0000000), wk =   0.1250000
        k(   10) = (  -0.2500000   0.2435070   0.0000000), wk =   0.2500000

     Largest allocated arrays     est. size (Mb)     dimensions
     Largest temporary arrays     est. size (Mb)     dimensions

     Check: negative/imaginary core charge=   -0.000003    0.000000

     Initial potential from superposition of free atoms
     Check: negative starting charge=   -0.521637

     starting charge  244.99980, renormalised to  253.00000

     negative rho (up, down):  0.539E+00 0.000E+00
     Number of +U iterations with fixed ns =  0
     Starting occupations:
 --- enter write_ns ---
 LDA+U parameters:
U( 2)     =  7.00000000
alpha( 2) =  0.00000000
atom    3   Tr[ns(na)] =   6.00000
    eigenvalues:
  0.600  0.600  0.600  0.600  0.600
    eigenvectors:
  1.000  0.000  0.000  0.000  0.000
  0.000  1.000  0.000  0.000  0.000
  0.000  0.000  1.000  0.000  0.000
  0.000  0.000  0.000  1.000  0.000
  0.000  0.000  0.000  0.000  1.000
    occupations:
  0.600  0.000  0.000  0.000  0.000
  0.000  0.600  0.000  0.000  0.000
  0.000  0.000  0.600  0.000  0.000
  0.000  0.000  0.000  0.600  0.000
  0.000  0.000  0.000  0.000  0.600
atom    4   Tr[ns(na)] =   6.00000
    eigenvalues:
  0.600  0.600  0.600  0.600  0.600
    eigenvectors:
  1.000  0.000  0.000  0.000  0.000
  0.000  1.000  0.000  0.000  0.000
  0.000  0.000  1.000  0.000  0.000
  0.000  0.000  0.000  1.000  0.000
  0.000  0.000  0.000  0.000  1.000
    occupations:
  0.600  0.000  0.000  0.000  0.000
  0.000  0.600  0.000  0.000  0.000
  0.000  0.000  0.600  0.000  0.000
  0.000  0.000  0.000  0.600  0.000
  0.000  0.000  0.000  0.000  0.600
atom    9   Tr[ns(na)] =   6.00000
    eigenvalues:
  0.600  0.600  0.600  0.600  0.600
    eigenvectors:
  1.000  0.000  0.000  0.000  0.000
  0.000  1.000  0.000  0.000  0.000
  0.000  0.000  1.000  0.000  0.000
  0.000  0.000  0.000  1.000  0.000
  0.000  0.000  0.000  0.000  1.000
    occupations:
  0.600  0.000  0.000  0.000  0.000
  0.000  0.600  0.000  0.000  0.000
  0.000  0.000  0.600  0.000  0.000
  0.000  0.000  0.000  0.600  0.000
  0.000  0.000  0.000  0.000  0.600
atom   10   Tr[ns(na)] =   6.00000
    eigenvalues:
  0.600  0.600  0.600  0.600  0.600
    eigenvectors:
  1.000  0.000  0.000  0.000  0.000
  0.000  1.000  0.000  0.000  0.000
  0.000  0.000  1.000  0.000  0.000
  0.000  0.000  0.000  1.000  0.000
  0.000  0.000  0.000  0.000  1.000
    occupations:
  0.600  0.000  0.000  0.000  0.000
  0.000  0.600  0.000  0.000  0.000
  0.000  0.000  0.600  0.000  0.000
  0.000  0.000  0.000  0.600  0.000
  0.000  0.000  0.000  0.000  0.600
atom   16   Tr[ns(na)] =   6.00000
    eigenvalues:
  0.600  0.600  0.600  0.600  0.600
    eigenvectors:
  1.000  0.000  0.000  0.000  0.000
  0.000  1.000  0.000  0.000  0.000
  0.000  0.000  1.000  0.000  0.000
  0.000  0.000  0.000  1.000  0.000
  0.000  0.000  0.000  0.000  1.000
    occupations:
  0.600  0.000  0.000  0.000  0.000
  0.000  0.600  0.000  0.000  0.000
  0.000  0.000  0.600  0.000  0.000
  0.000  0.000  0.000  0.600  0.000
  0.000  0.000  0.000  0.000  0.600
atom   17   Tr[ns(na)] =   6.00000
    eigenvalues:
  0.600  0.600  0.600  0.600  0.600
    eigenvectors:
  1.000  0.000  0.000  0.000  0.000
  0.000  1.000  0.000  0.000  0.000
  0.000  0.000  1.000  0.000  0.000
  0.000  0.000  0.000  1.000  0.000
  0.000  0.000  0.000  0.000  1.000
    occupations:
  0.600  0.000  0.000  0.000  0.000
  0.000  0.600  0.000  0.000  0.000
  0.000  0.000  0.600  0.000  0.000
  0.000  0.000  0.000  0.600  0.000
  0.000  0.000  0.000  0.000  0.600
atom   22   Tr[ns(na)] =   6.00000
    eigenvalues:
  0.600  0.600  0.600  0.600  0.600
    eigenvectors:
[...]
  0.000  0.601  0.002  0.002 -0.001
 -0.002  0.002  0.929 -0.005 -0.002
 -0.021  0.002 -0.005  0.626 -0.003
  0.007 -0.001 -0.002 -0.003  0.880
atom   10   Tr[ns(na)] =   7.28290
    eigenvalues:
  0.520  0.533  0.692  0.913  0.984
    eigenvectors:
  0.972  0.009  0.000  0.000  0.019
  0.000  0.000  0.001  0.993  0.005
  0.000  0.001  0.998  0.001  0.000
  0.019  0.000  0.000  0.005  0.977
  0.009  0.990  0.001  0.001  0.000
    occupations:
  0.528 -0.001  0.001  0.063 -0.001
 -0.001  0.913 -0.007  0.005 -0.009
  0.001 -0.007  0.693 -0.001  0.004
  0.063  0.005 -0.001  0.975  0.000
 -0.001 -0.009  0.004  0.000  0.533
atom   16   Tr[ns(na)] =   7.23255
    eigenvalues:
  0.503  0.556  0.624  0.947  0.987
    eigenvectors:
  0.007  0.164  0.003  0.000  0.826
  0.974  0.024  0.001  0.000  0.001
  0.000  0.012  0.924  0.053  0.011
  0.018  0.799  0.021  0.000  0.162
  0.000  0.001  0.051  0.947  0.001
    occupations:
  0.912  0.013  0.037 -0.159  0.009
  0.013  0.505  0.005  0.003 -0.007
  0.037  0.005  0.644 -0.009 -0.071
 -0.159  0.003 -0.009  0.626 -0.002
  0.009 -0.007 -0.071 -0.002  0.930
atom   17   Tr[ns(na)] =   7.26234
    eigenvalues:
  0.548  0.603  0.608  0.886  0.987
    eigenvectors:
  0.003  0.001  0.979  0.000  0.017
  0.000  0.021  0.000  0.979  0.000
  0.000  0.978  0.001  0.021  0.000
  0.000  0.000  0.017  0.000  0.983
  0.997  0.000  0.003  0.000  0.000
    occupations:
  0.614 -0.004  0.000  0.049  0.003
 -0.004  0.880  0.040  0.001 -0.001
  0.000  0.040  0.608  0.003  0.000
  0.049  0.001  0.003  0.981  0.000
  0.003 -0.001  0.000  0.000  0.548
atom   22   Tr[ns(na)] =   7.31238
    eigenvalues:
  0.535  0.564  0.685  0.899  0.973
    eigenvectors:
  0.005  0.151  0.000  0.000  0.843
  0.981  0.018  0.000  0.000  0.000
  0.000  0.000  0.989  0.010  0.000
  0.013  0.830  0.000  0.000  0.156
  0.000  0.000  0.010  0.989  0.001
    occupations:
  0.909  0.009  0.000 -0.148  0.002
  0.009  0.536  0.002  0.000  0.000
  0.000  0.002  0.687 -0.003 -0.022
 -0.148  0.000 -0.003  0.628  0.000
  0.002  0.000 -0.022  0.000  0.897
atom   23   Tr[ns(na)] =   7.30665
    eigenvalues:
  0.531  0.569  0.657  0.923  0.974
    eigenvectors:
  0.000  0.997  0.001  0.001  0.001
  0.003  0.001  0.993  0.001  0.002
  0.001  0.001  0.001  0.996  0.001
  0.000  0.001  0.002  0.001  0.996
  0.996  0.000  0.003  0.001  0.000
    occupations:
  0.569 -0.004  0.011  0.013 -0.001
 -0.004  0.658 -0.008 -0.013 -0.007
  0.011 -0.008  0.922 -0.003 -0.012
  0.013 -0.013 -0.003  0.973  0.000
 -0.001 -0.007 -0.012  0.000  0.532
N of occupied +U levels =  58.1066543
 --- exit write_ns ---

     Threshold (ethr) on eigenvalues was too large:
     Diagonalizing with lowered threshold

     Davidson diagonalization with overlap
     ethr =  2.22E-08,  avg # of iterations =  2.0

[...]

     total energy              =   -2193.11534166 Ry
     Harris-Foulkes estimate   =   -2193.11534166 Ry
     estimated scf accuracy    <       0.00000001 Ry

     iteration # 21     ecut=    40.00 Ry     beta=0.70
     Davidson diagonalization with overlap
     ethr =  5.80E-12,  avg # of iterations =  1.0

     negative rho (up, down):  0.571E+00 0.000E+00

     End of self-consistent calculation
 --- enter write_ns ---
 LDA+U parameters:
U( 2)     =  7.00000000
alpha( 2) =  0.00000000
atom    3   Tr[ns(na)] =   7.23208
    eigenvalues:
  0.503  0.558  0.621  0.947  0.987
    eigenvectors:
  0.010  0.166  0.002  0.000  0.822
  0.959  0.038  0.002  0.000  0.001
  0.001  0.014  0.864  0.110  0.010
  0.030  0.780  0.024  0.000  0.166
  0.000  0.002  0.108  0.889  0.001
    occupations:
  0.910 -0.015  0.036 -0.160 -0.013
 -0.015  0.505 -0.008 -0.006 -0.007
  0.036 -0.008  0.660 -0.009  0.101
 -0.160 -0.006 -0.009  0.629  0.002
 -0.013 -0.007  0.101  0.002  0.912
atom    4   Tr[ns(na)] =   7.25594
    eigenvalues:
  0.550  0.583  0.607  0.902  0.987
    eigenvectors:
  0.003  0.000  0.978  0.000  0.019
  0.000  0.014  0.000  0.986  0.000
  0.001  0.986  0.000  0.014  0.000
  0.000  0.000  0.019  0.000  0.981
  0.997  0.001  0.003  0.000  0.000
    occupations:
  0.614 -0.002  0.000  0.052  0.003
 -0.002  0.897  0.037 -0.001 -0.001
  0.000  0.037  0.588  0.001  0.001
  0.052 -0.001  0.001  0.979  0.000
  0.003 -0.001  0.001  0.000  0.550
atom    9   Tr[ns(na)] =   7.22434
    eigenvalues:
  0.568  0.601  0.634  0.880  0.929
    eigenvectors:
  0.885  0.000  0.114  0.001  0.000
  0.000  0.997  0.003  0.000  0.000
  0.000  0.000  0.000  0.002  0.998
  0.115  0.002  0.883  0.000  0.000
  0.000  0.000  0.000  0.997  0.002
    occupations:
  0.576  0.000 -0.002 -0.021  0.007
  0.000  0.601  0.002  0.002 -0.001
 -0.002  0.002  0.929 -0.005 -0.002
 -0.021  0.002 -0.005  0.626 -0.003
  0.007 -0.001 -0.002 -0.003  0.880
atom   10   Tr[ns(na)] =   7.28247
    eigenvalues:
  0.519  0.533  0.692  0.913  0.984
    eigenvectors:
  0.972  0.009  0.000  0.000  0.019
  0.000  0.000  0.001  0.993  0.005
  0.000  0.001  0.998  0.001  0.000
  0.019  0.000  0.000  0.005  0.977
  0.009  0.989  0.001  0.001  0.000
    occupations:
  0.528 -0.001  0.001  0.063 -0.001
 -0.001  0.913 -0.007  0.005 -0.009
  0.001 -0.007  0.692 -0.001  0.004
  0.063  0.005 -0.001  0.975  0.000
 -0.001 -0.009  0.004  0.000  0.533
atom   16   Tr[ns(na)] =   7.23375
    eigenvalues:
  0.503  0.556  0.624  0.947  0.987
    eigenvectors:
  0.007  0.164  0.003  0.000  0.826
  0.974  0.024  0.001  0.000  0.001
  0.000  0.012  0.924  0.053  0.011
  0.018  0.799  0.021  0.000  0.162
  0.000  0.001  0.052  0.946  0.001
    occupations:
  0.912  0.013  0.037 -0.159  0.009
  0.013  0.505  0.005  0.003 -0.007
  0.037  0.005  0.645 -0.009 -0.071
 -0.159  0.003 -0.009  0.626 -0.002
  0.009 -0.007 -0.071 -0.002  0.930
atom   17   Tr[ns(na)] =   7.26257
    eigenvalues:
  0.548  0.602  0.608  0.886  0.987
    eigenvectors:
  0.003  0.001  0.979  0.000  0.017
  0.000  0.021  0.000  0.979  0.000
  0.000  0.979  0.001  0.020  0.000
  0.000  0.000  0.017  0.000  0.983
  0.997  0.000  0.003  0.000  0.000
    occupations:
  0.614 -0.004  0.000  0.049  0.003
 -0.004  0.880  0.040  0.001 -0.001
  0.000  0.040  0.608  0.003  0.000
  0.049  0.001  0.003  0.981  0.000
  0.003 -0.001  0.000  0.000  0.548
atom   22   Tr[ns(na)] =   7.30945
    eigenvalues:
  0.535  0.564  0.684  0.899  0.973
    eigenvectors:
  0.005  0.151  0.000  0.000  0.843
  0.982  0.018  0.000  0.000  0.000
  0.000  0.000  0.989  0.010  0.000
  0.013  0.830  0.000  0.000  0.156
  0.000  0.000  0.010  0.989  0.001
    occupations:
  0.909  0.009  0.000 -0.148  0.002
  0.009  0.536  0.002  0.000  0.000
  0.000  0.002  0.686 -0.003 -0.022
 -0.148  0.000 -0.003  0.628  0.000
  0.002  0.000 -0.022  0.000  0.897
atom   23   Tr[ns(na)] =   7.30663
    eigenvalues:
  0.531  0.568  0.657  0.923  0.973
    eigenvectors:
  0.000  0.997  0.001  0.001  0.001
  0.003  0.001  0.993  0.001  0.002
  0.001  0.001  0.001  0.996  0.001
  0.000  0.001  0.002  0.001  0.996
  0.996  0.000  0.003  0.001  0.000
    occupations:
  0.569 -0.004  0.011  0.013 -0.001
 -0.004  0.658 -0.008 -0.013 -0.007
  0.011 -0.008  0.922 -0.003 -0.012
  0.013 -0.013 -0.003  0.972  0.000
 -0.001 -0.007 -0.012  0.000  0.532
N of occupied +U levels =  58.1072241
 --- exit write_ns ---

[...]

          k = 0.2500-0.4870 0.0000 ( 30468 PWs)   bands (ev):

[...]

          k =-0.2500 0.2435 0.0000 ( 30434 PWs)   bands (ev):

   -73.7297 -73.1014 -73.0863 -72.8665 -72.8072 -72.7984 -72.7872 -72.7405
   -44.0967 -43.8983 -43.4293 -43.4139 -43.3267 -43.2293 -43.1526 -43.1112
   -43.1080 -43.0525 -43.0335 -43.0323 -42.9836 -42.9427 -42.8889 -42.8576
   -42.7980 -42.7738 -42.7354 -42.6652 -42.6571 -42.5042 -42.4007 -42.2282
   -23.4611 -20.2910 -19.8863 -19.7389 -19.5938 -19.4588 -19.3907 -19.3501
   -19.3036 -19.0973 -19.0248 -18.8815 -18.8007 -18.7360 -18.6705 -18.6037
   -18.5332 -18.4885 -18.4348 -17.1671  -9.2078  -8.8761  -8.7347  -8.7020
    -8.5547  -8.5042  -8.2620  -8.2262  -7.9446  -7.4588  -7.4373  -7.2916
    -7.2527  -7.2109  -7.0996  -7.0667  -6.9902  -6.9339  -6.8088  -6.7414
    -6.4349  -6.2898  -6.1455  -6.0377  -5.9415  -5.7973  -5.7061  -5.6059
    -5.5217  -5.4111  -5.3219  -5.2387  -5.1589  -5.0352  -5.0002  -4.9230
    -4.7904  -4.7014  -4.6662  -4.5211  -4.4644  -4.3869  -4.3435  -4.1734
    -4.1013  -3.8566  -3.7480  -3.6394  -3.5862  -3.5348  -3.4441  -3.3483
    -3.2441  -3.1647  -3.0675  -2.8111  -2.7011  -2.6019  -2.5577  -2.4483
    -2.4092  -2.2528  -2.2106  -2.1090  -2.0294  -1.9428  -1.8679  -1.8244
    -1.7060  -1.6540  -1.5012  -1.3154  -1.2164  -0.8651  -0.8128  -0.4367
    -0.2633  -0.1117  -0.0301   0.1000   0.2306   0.3596   0.6390   1.7719
     2.0446   2.4145   2.5407   2.6025   3.1321   3.2758   3.4444   3.5757
     3.8272   3.8840   4.0143   4.1134   4.2166   4.2756   4.3251   4.3569
     4.5133   4.5981   4.8691   5.1551   5.5996   5.7521   5.9587   6.0707
     6.1344   6.4488   6.4853   6.6453   6.9179   7.0184   7.1288   7.4356
     7.5919   7.6796   7.8913   8.0916   8.1618   8.3255   8.3936   8.5378
     8.6711   8.8105   8.9581   9.0798   9.0929   9.3184   9.4320   9.4500
     9.6254   9.7027   9.8012   9.8797  10.0296  10.0728  10.1859  10.2908
    10.3195  10.4029  10.4820  10.6292  10.6778  10.7394  10.8808  10.9784
    11.0355  11.1887  11.2519  11.3431  11.4374  11.5716  11.6525  11.7544
    11.8073  11.8967  11.9406  12.0289  12.1155  12.1841  12.2049  12.2793
    12.3743  12.4725  12.5181  12.6257  12.7643  12.7826  12.8511  12.9235
    12.9925  13.0280  13.1740  13.2883  13.3542  13.3945  13.4666  13.5417
    13.6075  13.7233  13.8150  13.8778  13.9526  13.9867  14.1018  14.2042
    14.2827  14.3719  14.4708  14.5323  14.6122  14.6968  14.7858  14.8684
    14.9584  15.0143  15.1003  15.2165  15.2465  15.3425  15.3546  15.4357
    15.5101  15.5552  15.6011  15.7059  15.7520  15.8121  15.8684  15.9209
    15.9934  16.0288  16.0858  16.1278  16.1921  16.2321  16.2494  16.3410
    16.3874  16.4713  16.5512  16.6263  16.7143  16.7523  16.8030  16.9224
    16.9795  17.0210  17.0776  17.2032  17.2457  17.3106  17.3775  17.4687
    17.4991  17.5824  17.6389  17.7125  17.7690  17.8108  17.8579  17.9116
    17.9670  18.0564  18.0776  18.1313  18.2276  18.2814  18.3418  18.4147
    18.4680  18.5419  18.6133  18.7315  18.7860  18.8562  18.9089  19.0020
    19.0327  19.1403  19.2345  19.2690  19.3373  19.4038  19.5334  19.6260
    19.6723  19.7707  19.8305  19.8786  19.9447  19.9880  20.0601  20.1763
    20.2664  20.3407  20.4586  20.5060  20.5741  20.6058  20.6715  20.7511
    20.8719  20.9488  20.9796  21.0882  21.0983  21.1520  21.2143  21.2835
    21.2910  21.3439  21.4488  21.5142  21.5400  21.5936  21.6306  21.6902
    21.8085  21.8461  21.9108  21.9312  21.9538  22.0593  22.1116  22.1812
    22.2519  22.3447  22.3895  22.4220  22.4839  22.5513  22.6670  22.7315
    22.8023  22.8267  22.9053  22.9246  22.9890  23.0826  23.0999  23.1592
    23.1942  23.2685  23.3337

     the Fermi energy is    -0.7580 ev

!    total energy              =   -2193.11534166 Ry
     Harris-Foulkes estimate   =   -2193.11534166 Ry
     estimated scf accuracy    <          9.6E-09 Ry

     The total energy is the sum of the following terms:

     one-electron contribution =  -25551.93592172 Ry
     hartree contribution      =   12809.14564581 Ry
     xc contribution           =    -345.80309723 Ry
     ewald contribution        =   10892.08199886 Ry
     Hubbard energy            =       3.39569998 Ry
     smearing contrib. (-TS)   =       0.00033265 Ry

     convergence has been achieved in  21 iterations

     Forces acting on atoms (Ry/au):

     negative rho (up, down):  0.571E+00 0.000E+00
     atom    1 type  1   force =    -0.00570406   -0.00479304   -0.00053803
     atom    2 type  1   force =     0.00321997    0.00071488   -0.00014931
     atom    3 type  2   force =     0.05741841    0.00474820    0.00080468
     atom    4 type  2   force =     0.00973049    0.00393787   -0.00056844
     atom    5 type  1   force =    -0.00449388   -0.05035384    0.00021624
     atom    6 type  1   force =     0.00709079    0.04845075    0.00030513
     atom    7 type  1   force =    -0.00389848   -0.00725180   -0.00021587
     atom    8 type  1   force =     0.03345499    0.00145544   -0.00011003
     atom    9 type  2   force =    -0.02035798    0.00040298    0.00063919
     atom   10 type  2   force =     0.02004285    0.00260742    0.00054185
     atom   11 type  1   force =    -0.01886852    0.00611724   -0.00059277
     atom   12 type  1   force =    -0.00538229   -0.00068254   -0.00049741
     atom   13 type  1   force =     0.04326820   -0.00266130    0.00031269
     atom   14 type  1   force =    -0.00477947   -0.00836613   -0.00060640
     atom   15 type  1   force =     0.00114304    0.00149842   -0.00045650
     atom   16 type  2   force =    -0.05160791    0.00565495    0.00078020
     atom   17 type  2   force =     0.00234274    0.00592311   -0.00038615
     atom   18 type  1   force =    -0.00447189   -0.05100539    0.00033107
     atom   19 type  1   force =     0.00457340    0.05112160    0.00031521
     atom   20 type  1   force =    -0.00906221   -0.00347007    0.00024070
     atom   21 type  1   force =    -0.03501970    0.00084010   -0.00041046
     atom   22 type  2   force =    -0.00788791   -0.00206099   -0.00098340
     atom   23 type  2   force =    -0.00848169   -0.00154376    0.00002573
     atom   24 type  1   force =     0.00855707    0.03940059    0.00029435
     atom   25 type  1   force =     0.00669927   -0.03461285    0.00039418
     atom   26 type  1   force =    -0.02605237   -0.00678252    0.00050453
     atom   27 type  3   force =     0.00003410   -0.00031886   -0.00016715
     atom   28 type  3   force =     0.00002259    0.00044449   -0.00018830
     atom   29 type  3   force =     0.00007185    0.00006072   -0.00018074
     atom   30 type  3   force =     0.00011345    0.00016265   -0.00023228
     atom   31 type  1   force =     0.00592853    0.00046846    0.00037565
     atom   32 type  1   force =     0.00397464   -0.00034171    0.00006156
     atom   33 type  3   force =    -0.00161801    0.00023493    0.00014027

     Total force =     0.002677     Total SCF correction =     0.000177

     bfgs converged in  15 scf cycles and  14 bfgs steps
     (criteria: energy < 0.10E-03, force < 0.10E-02)

     End of BFGS Geometry Optimization

     Final energy   =   -2193.1153416563 Ry
Begin final coordinates

ATOMIC_POSITIONS (crystal)
O0       0.000000000   0.000000000   0.380078398    0   0   1
O0       0.000000000   0.500000000   0.404691128    0   0   1
Ru1      0.250000000   0.500000000   0.453348822    0   0   1
Ru1      0.000000000   0.000000000   0.453197029    0   0   1
O0       0.250000000   0.810000000   0.452716514    0   0   1
O0       0.250000000   0.190000000   0.452571923    0   0   1
O0       0.000000000   0.500000000   0.500778549    0   0   1
O0       0.000000000   0.000000000   0.525954715    0   0   1
Ru1      0.250000000   0.000000000   0.581111715    0   0   1
Ru1      0.000000000   0.500000000   0.569411133    0   0   1
O0       0.250000000   0.690000000   0.577251074    0   0   1
O0       0.250000000   0.310000000   0.579667417    0   0   1
O0       0.000000000   0.000000000   0.618133189    0   0   1
O0       0.500000000   0.000000000   0.379092072    0   0   1
O0       0.500000000   0.500000000   0.401488385    0   0   1
Ru1      0.750000000   0.500000000   0.453250505    0   0   1
Ru1      0.500000000   0.000000000   0.452206105    0   0   1
O0       0.750000000   0.810000000   0.452671224    0   0   1
O0       0.750000000   0.190000000   0.452639505    0   0   1
O0       0.500000000   0.500000000   0.500465004    0   0   1
O0       0.500000000   0.000000000   0.524867647    0   0   1
Ru1      0.750000000   0.000000000   0.572406449    0   0   1
Ru1      0.500000000   0.500000000   0.579213390    0   0   1
O0       0.750000000   0.690000000   0.572790309    0   0   1
O0       0.750000000   0.310000000   0.574898298    0   0   1
O0       0.500000000   0.000000000   0.616353308    0   0   1
H2      -0.000251515   0.593948603   0.375313581
H2       0.499652878   0.633730158   0.382986293
H2       0.148309834   0.022021639   0.367976254
H2       0.647298721   0.025471398   0.366786494
O0       0.500070000   0.530771043   0.650234124    0   1   1
O0       0.499990000   0.341173830   0.679928298    0   1   1
H2       0.499960000   0.403193593   0.714161148    0   1   1
End final coordinates

     General routines

     Parallel routines
     Hubbard U routines

   This run was terminated on:  22:10:18  15Aug2014

   JOB DONE.
mv: inter-device move failed: `/scratch/1089129.gilgamesh.cheme.cmu.edu/pwscf.save' to `./pwscf.save'; unable to remove target: Is a directory