     Program PWSCF v.5.0.2 (svn rev. 9656) starts on  5Jun2014 at 22:40:11

     Current dimensions of program PWSCF are:
     Max number of different atomic species (ntypx) = 10
     Max number of k-points (npk) =  40000
     Max angular momentum in pseudopotentials (lmaxx) =  3
     Reading input from pwscf.in
Warning: card &CELL ignored
Warning: card / ignored

     Subspace diagonalization in iterative solution of the eigenvalue problem:
     a serial algorithm will be used

     bravais-lattice index     =            0
     lattice parameter (alat)  =      10.7336  a.u.
     unit-cell volume          =    6184.1966 (a.u.)^3
     number of atoms/cell      =           31
     number of atomic types    =            3
     number of electrons       =       238.00 (up: 130.00, down: 108.00)
     number of Kohn-Sham states=          345
     kinetic-energy cutoff     =      40.0000  Ry
     charge density cutoff     =     500.0000  Ry
     convergence threshold     =      1.0E-06
     mixing beta               =       0.3000
     number of iterations used =            8  plain     mixing
     Exchange-correlation      = SLA  PW   PBE  PBE ( 1 4 3 4 0)
     EXX-fraction              =        0.00
     nstep                     =           50

     celldm(1)=  10.733644  celldm(2)=   0.000000  celldm(3)=   0.000000
     celldm(4)=   0.000000  celldm(5)=   0.000000  celldm(6)=   0.000000

     crystal axes: (cart. coord. in units of alat)
               a(1) = (   1.000000   0.000000   0.000000 )
               a(2) = (   0.000000   1.085558   0.000000 )
               a(3) = (   0.000000   0.000000   4.606685 )

     reciprocal axes: (cart. coord. in units 2 pi/alat)
               b(1) = (  1.000000  0.000000  0.000000 )
               b(2) = (  0.000000  0.921185  0.000000 )
               b(3) = (  0.000000  0.000000  0.217076 )

     PseudoPot. # 1 for O  read from file:
     /home/camp/zhonxu/pseudo/o_pbe_v1.01.uspp.F.UPF
     MD5 check sum: 2bcb18d16ea4b960afae9ec6d52f22d2
     Pseudo is Ultrasoft + core correction, Zval =  6.0
     Generated by new atomic code, or converted to UPF format
     Using radial grid of  737 points,  5 beta functions with:
                l(1) =   0
                l(2) =   0
                l(3) =   1
                l(4) =   1
                l(5) =   2
     Q(r) pseudized with  8 coefficients,  rinner =    0.900   0.900   0.900
                                                       0.900   0.900

     PseudoPot. # 2 for Mn read from file:
     /home/camp/zhonxu/pseudo/mn_pbe_v1.uspp.F.UPF
     MD5 check sum: 5fd7c7b5c956fd19902447332617373a
     Pseudo is Ultrasoft + core correction, Zval = 15.0
     Generated by new atomic code, or converted to UPF format
     Using radial grid of  859 points,  6 beta functions with:
                l(1) =   0
                l(2) =   0
                l(3) =   1
                l(4) =   1
                l(5) =   2
                l(6) =   2
     Q(r) pseudized with  6 coefficients,  rinner =    1.150   1.150   1.150
                                                       1.150   1.150

     PseudoPot. # 3 for H  read from file:
     /home/camp/zhonxu/pseudo/h_pbe_v1.uspp.F.UPF
     MD5 check sum: 3408e3ff4ec8b0a4e358431e7e038a48
     Pseudo is Ultrasoft, Zval =  1.0
     Generated by new atomic code, or converted to UPF format
     Using radial grid of  615 points,  2 beta functions with:
                l(1) =   0
                l(2) =   0
     Q(r) pseudized with  8 coefficients,  rinner =    0.700

     atomic species   valence    mass     pseudopotential
        O0             6.00    15.99940     O ( 1.00)
        Mn1           15.00    54.93800     Mn( 1.00)
        H2             1.00     1.00794     H ( 1.00)

     Starting magnetic structure
     atomic species   magnetization
        O0           0.000
        Mn1          0.600
        H2           0.000

     Simplified LDA+U calculation (l_max = 2) with parameters (eV):
     atomic species    L          U    alpha       J0     beta
        Mn1            2     6.5000   0.0000   0.0000   0.0000

     No symmetry found

   Cartesian axes

     site n.     atom                  positions (alat units)
         1           O0  tau(   1) = (   0.0000000   0.0000000   1.7161284  )
         2           O0  tau(   2) = (   0.0000000   0.5427791   1.8138362  )
         3           Mn1 tau(   3) = (   0.2500000   0.5427791   2.0603860  )
         4           Mn1 tau(   4) = (   0.0000000   0.0000000   2.0575298  )
         5           O0  tau(   5) = (   0.2500000   0.8684466   2.0501591  )
         6           O0  tau(   6) = (   0.2500000   0.2171117   2.0668814  )
         7           O0  tau(   7) = (   0.0000000   0.5427791   2.2820596  )
         8           O0  tau(   8) = (   0.0000000   0.0000000   2.4221950  )
         9           Mn1 tau(   9) = (   0.2500000   0.0000000   2.6506405  )
        10           Mn1 tau(  10) = (   0.0000000   0.5427791   2.6399991  )
        11           O0  tau(  11) = (   0.2500000   0.7598908   2.6923771  )
        12           O0  tau(  12) = (   0.2500000   0.3256675   2.6940355  )
        13           O0  tau(  13) = (   0.0000000   0.0000000   2.8768288  )
        14           O0  tau(  14) = (   0.5000000   0.0000000   1.7157599  )
        15           O0  tau(  15) = (   0.5000000   0.5427791   1.8139744  )
        16           Mn1 tau(  16) = (   0.7500000   0.5427791   2.0602938  )
        17           Mn1 tau(  17) = (   0.5000000   0.0000000   2.0567006  )
        18           O0  tau(  18) = (   0.7500000   0.8684466   2.0501591  )
        19           O0  tau(  19) = (   0.7500000   0.2171117   2.0669275  )
        20           O0  tau(  20) = (   0.5000000   0.5427791   2.2929314  )
        21           O0  tau(  21) = (   0.5000000   0.0000000   2.4225635  )
        22           Mn1 tau(  22) = (   0.7500000   0.0000000   2.6506405  )
        23           Mn1 tau(  23) = (   0.5000000   0.5427791   2.6449743  )
        24           O0  tau(  24) = (   0.7500000   0.7598908   2.6923771  )
        25           O0  tau(  25) = (   0.7500000   0.3256675   2.6939894  )
        26           O0  tau(  26) = (   0.5000000   0.0000000   2.8798231  )
        27           H2  tau(  27) = (   0.0005700   0.7038869   1.7426168  )
        28           H2  tau(  28) = (   0.5005800   0.7026710   1.7412809  )
        29           H2  tau(  29) = (   0.1606900   0.0489478   1.6674357  )
        30           H2  tau(  30) = (   0.6604600   0.0492084   1.6666987  )
        31           O0  tau(  31) = (   0.4998700   0.5432351   2.9881723  )

     number of k points=    20  Methfessel-Paxton smearing, width (Ry)=  0.0100
                       cart. coord. in units 2pi/alat
        k(    1) = (   0.0000000   0.0000000   0.0000000), wk =   0.0625000
        k(    2) = (   0.0000000   0.2302962   0.0000000), wk =   0.1250000
        k(    3) = (   0.0000000  -0.4605925   0.0000000), wk =   0.0625000
        k(    4) = (   0.2500000   0.0000000   0.0000000), wk =   0.1250000
        k(    5) = (   0.2500000   0.2302962   0.0000000), wk =   0.1250000
        k(    6) = (   0.2500000  -0.4605925   0.0000000), wk =   0.1250000
        k(    7) = (  -0.5000000   0.0000000   0.0000000), wk =   0.0625000
        k(    8) = (  -0.5000000   0.2302962   0.0000000), wk =   0.1250000
        k(    9) = (  -0.5000000  -0.4605925   0.0000000), wk =   0.0625000
        k(   10) = (  -0.2500000   0.2302962   0.0000000), wk =   0.1250000
        k(   11) = (   0.0000000   0.0000000   0.0000000), wk =   0.0625000
        k(   12) = (   0.0000000   0.2302962   0.0000000), wk =   0.1250000
        k(   13) = (   0.0000000  -0.4605925   0.0000000), wk =   0.0625000
        k(   14) = (   0.2500000   0.0000000   0.0000000), wk =   0.1250000
        k(   15) = (   0.2500000   0.2302962   0.0000000), wk =   0.1250000
        k(   16) = (   0.2500000  -0.4605925   0.0000000), wk =   0.1250000
        k(   17) = (  -0.5000000   0.0000000   0.0000000), wk =   0.0625000
        k(   18) = (  -0.5000000   0.2302962   0.0000000), wk =   0.1250000
        k(   19) = (  -0.5000000  -0.4605925   0.0000000), wk =   0.0625000
        k(   20) = (  -0.2500000   0.2302962   0.0000000), wk =   0.1250000

     Largest allocated arrays     est. size (Mb)     dimensions
     Largest temporary arrays     est. size (Mb)     dimensions

     Check: negative/imaginary core charge=   -0.000023    0.000000

     Initial potential from superposition of free atoms
     Check: negative starting charge=(component1):   -0.000736
     Check: negative starting charge=(component2):   -0.000361

     starting charge  229.99987, renormalised to  238.00000

     negative rho (up, down):  0.761E-03 0.374E-03
     Number of +U iterations with fixed ns =  0
     Starting occupations:
 --- enter write_ns ---
 LDA+U parameters:
U( 2)     =  6.50000000
alpha( 2) =  0.00000000
atom    3   Tr[ns(na)] (up, down, total) =   5.00000  0.00000  5.00000
   spin  1
    eigenvalues:
  1.000  1.000  1.000  1.000  1.000
    eigenvectors:
  1.000  0.000  0.000  0.000  0.000
  0.000  1.000  0.000  0.000  0.000
  0.000  0.000  1.000  0.000  0.000
  0.000  0.000  0.000  1.000  0.000
  0.000  0.000  0.000  0.000  1.000
    occupations:
  1.000  0.000  0.000  0.000  0.000
  0.000  1.000  0.000  0.000  0.000
  0.000  0.000  1.000  0.000  0.000
  0.000  0.000  0.000  1.000  0.000
  0.000  0.000  0.000  0.000  1.000
   spin  2
    eigenvalues:
  0.000  0.000  0.000  0.000  0.000
    eigenvectors:
  1.000  0.000  0.000  0.000  0.000
  0.000  1.000  0.000  0.000  0.000
  0.000  0.000  1.000  0.000  0.000
  0.000  0.000  0.000  1.000  0.000
  0.000  0.000  0.000  0.000  1.000
    occupations:
  0.000  0.000  0.000  0.000  0.000
  0.000  0.000  0.000  0.000  0.000
  0.000  0.000  0.000  0.000  0.000
  0.000  0.000  0.000  0.000  0.000
  0.000  0.000  0.000  0.000  0.000
atomic mag. moment =     5.000000
atom    4   Tr[ns(na)] (up, down, total) =   5.00000  0.00000  5.00000
   spin  1
    eigenvalues:
  1.000  1.000  1.000  1.000  1.000
    eigenvectors:
  1.000  0.000  0.000  0.000  0.000
  0.000  1.000  0.000  0.000  0.000
  0.000  0.000  1.000  0.000  0.000
  0.000  0.000  0.000  1.000  0.000
  0.000  0.000  0.000  0.000  1.000
    occupations:
  1.000  0.000  0.000  0.000  0.000
  0.000  1.000  0.000  0.000  0.000
  0.000  0.000  1.000  0.000  0.000
  0.000  0.000  0.000  1.000  0.000
  0.000  0.000  0.000  0.000  1.000
   spin  2
    eigenvalues:
  0.000  0.000  0.000  0.000  0.000
    eigenvectors:
  1.000  0.000  0.000  0.000  0.000
  0.000  1.000  0.000  0.000  0.000
  0.000  0.000  1.000  0.000  0.000
  0.000  0.000  0.000  1.000  0.000
  0.000  0.000  0.000  0.000  1.000
    occupations:
  0.000  0.000  0.000  0.000  0.000
  0.000  0.000  0.000  0.000  0.000
  0.000  0.000  0.000  0.000  0.000
  0.000  0.000  0.000  0.000  0.000
  0.000  0.000  0.000  0.000  0.000
atomic mag. moment =     5.000000
atom    9   Tr[ns(na)] (up, down, total) =   5.00000  0.00000  5.00000
   spin  1
    eigenvalues:
  1.000  1.000  1.000  1.000  1.000
    eigenvectors:
  1.000  0.000  0.000  0.000  0.000
[...]
  0.000  0.001  0.000  0.115  0.884
  0.000  0.001  0.999  0.000  0.000
  1.000  0.000  0.000  0.000  0.000
    occupations:
  0.773 -0.008 -0.006  0.006 -0.001
 -0.008  1.004 -0.000  0.000  0.004
 -0.006 -0.000  1.004  0.000 -0.000
  0.006  0.000  0.000  0.997 -0.000
 -0.001  0.004 -0.000 -0.000  0.712
   spin  2
    eigenvalues:
  0.071  0.082  0.088  0.277  0.328
    eigenvectors:
  0.006  0.001  0.000  0.992  0.000
  0.005  0.415  0.577  0.001  0.001
  0.014  0.564  0.422  0.001  0.000
  0.975  0.019  0.000  0.006  0.000
  0.000  0.000  0.001  0.000  0.999
    occupations:
  0.275  0.007  0.006 -0.015  0.000
  0.007  0.086 -0.003  0.000 -0.009
  0.006 -0.003  0.084  0.001  0.000
 -0.015  0.000  0.001  0.072 -0.000
  0.000 -0.009  0.000 -0.000  0.328
atomic mag. moment =     3.644576
atom    9   Tr[ns(na)] (up, down, total) =   4.46123  0.90938  5.37060
   spin  1
    eigenvalues:
  0.730  0.750  0.988  0.993  1.000
    eigenvectors:
  0.230  0.000  0.000  0.000  0.770
  0.001  0.998  0.000  0.000  0.000
  0.000  0.000  0.012  0.988  0.000
  0.768  0.001  0.000  0.000  0.230
  0.000  0.000  0.988  0.012  0.000
    occupations:
  0.938  0.002 -0.000 -0.114  0.000
  0.002  0.750 -0.000 -0.000  0.000
 -0.000 -0.000  0.993 -0.000 -0.001
 -0.114 -0.000 -0.000  0.792  0.000
  0.000  0.000 -0.001  0.000  0.988
   spin  2
    eigenvalues:
  0.077  0.090  0.093  0.321  0.328
    eigenvectors:
  0.803  0.000  0.000  0.131  0.066
  0.000  0.000  0.000  0.346  0.654
  0.000  0.001  0.999  0.000  0.000
  0.197  0.000  0.000  0.522  0.281
  0.000  0.999  0.001  0.000  0.000
    occupations:
  0.126 -0.000  0.000  0.098  0.000
 -0.000  0.326 -0.000  0.004 -0.000
  0.000 -0.000  0.093  0.000 -0.000
  0.098  0.004  0.000  0.275 -0.000
  0.000 -0.000 -0.000 -0.000  0.090
atomic mag. moment =     3.551848
atom   10   Tr[ns(na)] (up, down, total) =   4.69287  0.58849  5.28136
   spin  1
    eigenvalues:
  0.733  0.970  0.996  0.997  0.998
    eigenvectors:
  0.000  0.967  0.000  0.033  0.000
  0.000  0.000  1.000  0.000  0.000
  0.000  0.000  0.000  0.000  1.000
  0.000  0.033  0.000  0.967  0.000
  1.000  0.000  0.000  0.000  0.000
    occupations:
  0.970  0.000  0.000  0.005  0.000
  0.000  0.996  0.000 -0.000 -0.001
  0.000  0.000  0.998  0.000 -0.000
  0.005 -0.000  0.000  0.996 -0.000
  0.000 -0.001 -0.000 -0.000  0.733
   spin  2
    eigenvalues:
  0.059  0.062  0.070  0.125  0.272
    eigenvectors:
  0.035  0.000  0.000  0.965  0.000
  0.000  0.000  1.000  0.000  0.000
  0.001  0.999  0.000  0.000  0.000
  0.964  0.001  0.000  0.035  0.000
  0.000  0.000  0.000  0.000  1.000
    occupations:
  0.123 -0.000 -0.000 -0.012 -0.000
 -0.000  0.070  0.000  0.000  0.001
 -0.000  0.000  0.062 -0.000  0.000
 -0.012  0.000 -0.000  0.061 -0.000
 -0.000  0.001  0.000 -0.000  0.272
atomic mag. moment =     4.104387
atom   16   Tr[ns(na)] (up, down, total) =   4.47319  0.87092  5.34410
   spin  1
    eigenvalues:
  0.722  0.746  0.999  1.002  1.004
    eigenvectors:
  0.226  0.024  0.000  0.693  0.057
  0.140  0.858  0.001  0.002  0.000
  0.000  0.000  0.001  0.074  0.926
  0.634  0.117  0.000  0.232  0.017
  0.000  0.001  0.998  0.000  0.000
    occupations:
  0.933 -0.013 -0.002 -0.119 -0.000
 -0.013  0.743 -0.001 -0.002 -0.008
 -0.002 -0.001  1.004 -0.001  0.000
 -0.119 -0.002 -0.001  0.794 -0.000
 -0.000 -0.008  0.000 -0.000  0.999
   spin  2
    eigenvalues:
  0.067  0.084  0.096  0.295  0.328
    eigenvectors:
  0.775  0.000  0.002  0.009  0.215
  0.000  0.001  0.000  0.972  0.027
  0.003  0.022  0.976  0.000  0.000
  0.222  0.000  0.001  0.019  0.758
  0.000  0.977  0.021  0.001  0.000
    occupations:
  0.125  0.001 -0.003  0.108  0.000
  0.001  0.296  0.000 -0.007  0.008
 -0.003  0.000  0.096 -0.002 -0.002
  0.108 -0.007 -0.002  0.270 -0.001
  0.000  0.008 -0.002 -0.001  0.085
atomic mag. moment =     3.602269
atom   17   Tr[ns(na)] (up, down, total) =   4.49152  0.84344  5.33497
   spin  1
    eigenvalues:
  0.713  0.773  0.997  1.004  1.005
    eigenvectors:
  0.000  0.997  0.001  0.002  0.000
  0.000  0.001  0.000  0.894  0.105
  0.000  0.001  0.000  0.104  0.895
  0.000  0.001  0.999  0.000  0.000
  1.000  0.000  0.000  0.000  0.000
    occupations:
  0.774 -0.008 -0.006  0.006 -0.001
 -0.008  1.004 -0.000  0.000  0.004
 -0.006 -0.000  1.005  0.000 -0.000
  0.006  0.000  0.000  0.996 -0.000
 -0.001  0.004 -0.000 -0.000  0.713
   spin  2
    eigenvalues:
  0.071  0.081  0.088  0.275  0.328
    eigenvectors:
  0.007  0.001  0.000  0.992  0.000
  0.006  0.413  0.578  0.001  0.001
  0.014  0.565  0.421  0.001  0.000
  0.974  0.020  0.000  0.006  0.000
  0.000  0.000  0.001  0.000  0.999
    occupations:
  0.273  0.007  0.006 -0.015  0.000
  0.007  0.085 -0.003  0.000 -0.009
  0.006 -0.003  0.084  0.001  0.000
 -0.015  0.000  0.001  0.072 -0.000
  0.000 -0.009  0.000 -0.000  0.328
atomic mag. moment =     3.648084
atom   22   Tr[ns(na)] (up, down, total) =   4.46133  0.90922  5.37055
   spin  1
    eigenvalues:
  0.730  0.750  0.988  0.993  1.000
    eigenvectors:
  0.230  0.000  0.000  0.000  0.770
  0.000  1.000  0.000  0.000  0.000
  0.000  0.000  0.012  0.988  0.000
  0.770  0.000  0.000  0.000  0.230
  0.000  0.000  0.988  0.012  0.000
    occupations:
  0.938 -0.002 -0.000 -0.114  0.000
 -0.002  0.750  0.000  0.001  0.000
 -0.000  0.000  0.993 -0.000  0.001
 -0.114  0.001 -0.000  0.792 -0.000
  0.000  0.000  0.001 -0.000  0.988
   spin  2
    eigenvalues:
  0.077  0.090  0.093  0.321  0.328
    eigenvectors:
  0.803  0.000  0.000  0.131  0.066
  0.000  0.000  0.000  0.349  0.651
  0.000  0.000  1.000  0.000  0.000
  0.197  0.000  0.000  0.521  0.283
  0.000  1.000  0.000  0.000  0.000
    occupations:
  0.126 -0.000  0.000  0.098 -0.000
 -0.000  0.326 -0.000 -0.004 -0.000
  0.000 -0.000  0.093  0.000  0.000
  0.098 -0.004  0.000  0.275  0.000
 -0.000 -0.000  0.000  0.000  0.090
atomic mag. moment =     3.552112
atom   23   Tr[ns(na)] (up, down, total) =   4.54299  0.78304  5.32603
   spin  1
    eigenvalues:
  0.750  0.790  1.000  1.001  1.002
    eigenvectors:
  0.000  0.999  0.001  0.000  0.000
  0.000  0.000  0.000  1.000  0.000
  0.000  0.000  0.001  0.000  0.999
  0.000  0.001  0.999  0.000  0.001
  1.000  0.000  0.000  0.000  0.000
    occupations:
  0.791 -0.000  0.001  0.006  0.000
 -0.000  1.001 -0.000  0.000 -0.001
  0.001 -0.000  1.002 -0.000  0.000
  0.006  0.000 -0.000  1.000  0.000
  0.000 -0.001  0.000  0.000  0.750
   spin  2
    eigenvalues:
  0.065  0.079  0.082  0.257  0.300
    eigenvectors:
  0.007  0.000  0.000  0.993  0.000
  0.000  0.000  1.000  0.000  0.000
  0.000  1.000  0.000  0.000  0.000
  0.993  0.000  0.000  0.007  0.000
  0.000  0.000  0.000  0.000  1.000
    occupations:
  0.256  0.000 -0.001 -0.015  0.000
  0.000  0.082 -0.000 -0.000  0.001
 -0.001 -0.000  0.079 -0.000 -0.000
 -0.015 -0.000 -0.000  0.067 -0.000
  0.000  0.001 -0.000 -0.000  0.300
atomic mag. moment =     3.759947
N of occupied +U levels =  42.7073228
 --- exit write_ns ---

 ------ SPIN UP ------------

[...]

 ------ SPIN DOWN ----------

[...]

          k = 0.2500-0.4606 0.0000 ( 26462 PWs)   bands (ev):

[...]

          k =-0.2500 0.2303 0.0000 ( 26396 PWs)   bands (ev):

   -80.2273 -80.2193 -80.0936 -80.0856 -80.0142 -79.9991 -79.9884 -79.1614
   -49.1224 -49.0713 -49.0640 -49.0285 -48.9880 -48.9801 -48.9646 -48.9580
   -48.9546 -48.9364 -48.9318 -48.8817 -48.8807 -48.8454 -48.8262 -48.8259
   -48.8023 -48.7846 -48.7387 -48.6360 -48.6265 -48.2394 -48.1391 -47.6468
   -21.7883 -21.5156 -21.2889 -21.0155 -20.8403 -20.6987 -20.4685 -20.4361
   -20.3575 -20.2906 -20.1652 -20.1204 -20.0521 -19.9693 -19.9252 -19.8073
   -19.7389 -19.6389 -19.5558  -9.0615  -8.7947  -8.4680  -8.3590  -8.3213
    -8.0732  -7.9661  -7.8210  -7.5239  -7.3441  -7.3006  -7.1641  -7.1474
    -7.0102  -6.9768  -6.8879  -6.8322  -6.7414  -6.6224  -6.5009  -6.4000
    -6.3620  -6.2939  -6.2220  -6.1260  -6.0770  -6.0324  -5.8804  -5.8376
    -5.7862  -5.7334  -5.5566  -5.5195  -5.4153  -5.3073  -5.2475  -5.1417
    -5.0681  -4.9895  -4.8965  -4.7993  -4.7537  -4.6265  -4.5791  -4.4913
    -4.4436  -4.3578  -4.2992  -4.1731  -4.0495  -3.9610  -3.7781  -3.7088
    -3.6367  -3.3700  -3.3109  -3.0336   1.4143   1.4496   1.4611   1.5263
     1.5709   1.5859   1.6173   1.6856   1.7286   1.7662   1.8670   1.8871
     1.9167   1.9483   1.9760   2.1095   2.1308   2.2041   2.2320   2.3013
     2.3237   2.3816   2.4396   2.4709   2.5288   2.6047   2.6241   2.7039
     2.7223   2.7718   2.8604   2.9057   3.0094   3.0467   3.0936   3.2170
     3.2226   3.3559   3.4543   3.5283   3.7546   4.3775   4.6085   5.0721
     5.5117   5.6925   5.7967   6.2787   6.3889   6.5654   6.5928   6.6470
     6.8437   7.0096   7.1155   7.3948   7.5523   7.7201   7.9129   8.0548
     8.3242   8.4041   8.4484   8.5138   8.6434   8.7086   8.9092   9.0961
     9.2064   9.3258   9.4286   9.5362   9.5518   9.9024   9.9676  10.0467
    10.1602  10.2303  10.3339  10.4718  10.5746  10.6341  10.7484  10.8630
    10.9606  11.0332  11.1389  11.2622  11.3015  11.3504  11.5466  11.6126
    11.6577  11.7494  11.7840  11.9409  11.9896  12.0638  12.1797  12.2987
    12.4210  12.4892  12.5687  12.6017  12.6689  12.7811  12.9411  12.9724
    13.0325  13.0825  13.1494  13.1734  13.2818  13.2964  13.3955  13.5033
    13.5443  13.5799  13.6163  13.6730  13.7558  13.7838  13.8752  14.0036
    14.1105  14.1850  14.2244  14.2588  14.2873  14.3979  14.5076  14.5587
    14.6684  14.7299  14.8057  14.9487  15.0367  15.0847  15.1412  15.2090
    15.2873  15.4164  15.4766  15.6380  15.7245  15.8619  15.9083  15.9822
    16.1157  16.1746  16.2860  16.3151  16.3833  16.5061  16.5453  16.5945
    16.6471  16.7301  16.8034  16.8716  16.9994  17.0927  17.1407  17.2054
    17.2662  17.3937  17.4339  17.5244  17.5823  17.6197  17.7270  17.7869
    17.8452  17.9313  17.9686  18.1151  18.1744  18.2383  18.3432  18.3971
    18.4523  18.5614  18.6240  18.7170  18.7899  18.8314  18.8649  18.9842
    19.0898  19.1333  19.1528  19.2500  19.2940  19.3465  19.4092  19.5053
    19.6835  19.7570  19.7696  19.9369  19.9568  20.0201  20.0818  20.1373
    20.2025  20.2532  20.3051  20.3487  20.4240  20.4577  20.5876  20.6493
    20.8027  20.9285  20.9491  21.0193  21.1164  21.1507  21.2016  21.2726
    21.3191  21.4277  21.5271  21.5702  21.6109  21.7243  21.7923  21.8208
    21.9488  22.0293  22.0696  22.1841  22.2599  22.3380  22.4104  22.4825
    22.5239

     the spin up/dw Fermi energies are    -2.4861   -0.4740 ev

!    total energy              =   -2318.50507900 Ry
     Harris-Foulkes estimate   =   -2318.50507897 Ry
     estimated scf accuracy    <          2.2E-09 Ry

     The total energy is the sum of the following terms:

     one-electron contribution =  -25893.62031707 Ry
     hartree contribution      =   12964.96423750 Ry
     xc contribution           =    -348.95466177 Ry
     ewald contribution        =   10957.20541546 Ry
     Hubbard energy            =       1.89905056 Ry
     smearing contrib. (-TS)   =       0.00119631 Ry

     total magnetization       =    22.00 Bohr mag/cell
     absolute magnetization    =    37.87 Bohr mag/cell

     convergence has been achieved in  14 iterations

     Forces acting on atoms (Ry/au):

     negative rho (up, down):  0.163E-02 0.142E-02
     atom    1 type  1   force =    -0.00500783   -0.01294071   -0.00016104
     atom    2 type  1   force =     0.00042527    0.00908776    0.00066499
     atom    3 type  2   force =     0.00224159    0.00155461   -0.00024025
     atom    4 type  2   force =     0.00654072    0.01062392    0.00064208
     atom    5 type  1   force =     0.00157152    0.00918501    0.00019163
     atom    6 type  1   force =    -0.00090030   -0.01554033    0.00023180
     atom    7 type  1   force =     0.00007818    0.00244915   -0.00052568
     atom    8 type  1   force =    -0.00137279   -0.00315608   -0.00003136
     atom    9 type  2   force =     0.00750317    0.00048765    0.00013490
     atom   10 type  2   force =    -0.00013134   -0.00153470    0.00090553
     atom   11 type  1   force =    -0.00624938   -0.01953561   -0.00012392
     atom   12 type  1   force =    -0.00596307    0.02043302   -0.00004321
     atom   13 type  1   force =    -0.00041107   -0.00042335   -0.00072837
     atom   14 type  1   force =    -0.00473561   -0.01243862    0.00012352
     atom   15 type  1   force =     0.00052525    0.00778107    0.00047275
     atom   16 type  2   force =    -0.00396307    0.00149530   -0.00019647
     atom   17 type  2   force =     0.00643287    0.01052958    0.00074303
     atom   18 type  1   force =     0.00114951    0.00918283    0.00022367
     atom   19 type  1   force =    -0.00258009   -0.01543850    0.00017269
     atom   20 type  1   force =     0.00005632    0.00343574   -0.00089033
     atom   21 type  1   force =    -0.00142982   -0.00290644   -0.00026413
     atom   22 type  2   force =    -0.00608440    0.00052523    0.00012652
     atom   23 type  2   force =     0.00000186   -0.00194416   -0.00041508
     atom   24 type  1   force =     0.00629937   -0.01950266   -0.00015463
     atom   25 type  1   force =     0.00614349    0.02053862   -0.00004780
     atom   26 type  1   force =    -0.00045081   -0.00070547   -0.00025258
     atom   27 type  3   force =    -0.00001902   -0.00076492   -0.00070136
     atom   28 type  3   force =    -0.00001711   -0.00063017   -0.00063335
     atom   29 type  3   force =     0.00026152   -0.00008205    0.00032397
     atom   30 type  3   force =     0.00008713   -0.00008830    0.00018608
     atom   31 type  1   force =    -0.00000204    0.00032260    0.00026641

     Total force =     0.002650     Total SCF correction =     0.000198

     entering subroutine stress ...

     negative rho (up, down):  0.163E-02 0.142E-02
          total   stress  (Ry/bohr**3)                   (kbar)     P=   37.23
   0.00041617  -0.00000203   0.00000368         61.22     -0.30      0.54
  -0.00000203   0.00038833   0.00000485         -0.30     57.13      0.71
   0.00000368   0.00000485  -0.00004523          0.54      0.71     -6.65

     bfgs converged in  11 scf cycles and  10 bfgs steps
     (criteria: energy < 0.10E-03, force < 0.10E-02)

     End of BFGS Geometry Optimization

     Final energy   =   -2318.5050789985 Ry
Begin final coordinates

ATOMIC_POSITIONS (crystal)
O0       0.000000000   0.000000000   0.372941674    0   0   1
O0       0.000000000   0.500000000   0.393158731    0   0   1
Mn1      0.250000000   0.500000000   0.446422386    0   0   1
Mn1      0.000000000   0.000000000   0.447195667    0   0   1
O0       0.250000000   0.800000000   0.445465455    0   0   1
O0       0.250000000   0.200000000   0.449679731    0   0   1
O0       0.000000000   0.500000000   0.494315259    0   0   1
O0       0.000000000   0.000000000   0.526612022    0   0   1
Mn1      0.250000000   0.000000000   0.576153618    0   0   1
Mn1      0.000000000   0.500000000   0.572147643    0   0   1
O0       0.250000000   0.700000000   0.583995333    0   0   1
O0       0.250000000   0.300000000   0.584374047    0   0   1
O0       0.000000000   0.000000000   0.625287666    0   0   1
O0       0.500000000   0.000000000   0.372703685    0   0   1
O0       0.500000000   0.500000000   0.393084561    0   0   1
Mn1      0.750000000   0.500000000   0.446406563    0   0   1
Mn1      0.500000000   0.000000000   0.446857019    0   0   1
O0       0.750000000   0.800000000   0.445533874    0   0   1
O0       0.750000000   0.200000000   0.449713370    0   0   1
O0       0.500000000   0.500000000   0.496649294    0   0   1
O0       0.500000000   0.000000000   0.526700190    0   0   1
Mn1      0.750000000   0.000000000   0.576155618    0   0   1
Mn1      0.500000000   0.500000000   0.573078142    0   0   1
O0       0.750000000   0.700000000   0.584017918    0   0   1
O0       0.750000000   0.300000000   0.584382417    0   0   1
O0       0.500000000   0.000000000   0.626037574    0   0   1
H2       0.000633685   0.649389591   0.378225715
H2       0.500680591   0.648275560   0.377778393
H2       0.161048714   0.044329166   0.362407008
H2       0.660822791   0.045336446   0.362252376
O0       0.499900596   0.501273811   0.647437056
End final coordinates

     General routines

     Parallel routines
     Hubbard U routines

   This run was terminated on:  17:38:37   6Jun2014

   JOB DONE.
Running PBS batch system epilogue script
Job id: 381428.audhumbla.fysik.dtu.dk
Username: zhonxu
Groupname: campgst
Jobname: MnO2/Eads-2-layers/O-U-6.5
Sessionid: 27347
Queuename: verylong
Accounting:
This job has allocated the following 16 nodes:
a047 a047 a047 a047 a047 a047 a047 a047 a006 a006 a006 a006 a006 a006 a006 a006
Finished epilogue job 381428.audhumbla.fysik.dtu.dk for zhonxu