     Program PWSCF v.5.0.2 (svn rev. 9656) starts on 23Jan2014 at 18: 9:11

     Current dimensions of program PWSCF are:
     Max number of different atomic species (ntypx) = 10
     Max number of k-points (npk) =  40000
     Max angular momentum in pseudopotentials (lmaxx) =  3
     Reading input from TiO2-v-0.8.in

     Subspace diagonalization in iterative solution of the eigenvalue problem:
     a serial algorithm will be used

     bravais-lattice index     =            0
     lattice parameter (alat)  =       8.0383  a.u.
     unit-cell volume          =     334.7174 (a.u.)^3
     number of atoms/cell      =            6
     number of atomic types    =            2
     number of electrons       =        48.00
     number of Kohn-Sham states=           69
     kinetic-energy cutoff     =      40.0000  Ry
     charge density cutoff     =     500.0000  Ry
     convergence threshold     =      1.0E-06
     mixing beta               =       0.7000
     number of iterations used =            8  plain     mixing
     Exchange-correlation      = SLA  PW   PBE  PBE ( 1 4 3 4 0)
     EXX-fraction              =        0.00
     nstep                     =           50

     celldm(1)=   8.038301  celldm(2)=   0.000000  celldm(3)=   0.000000
     celldm(4)=   0.000000  celldm(5)=   0.000000  celldm(6)=   0.000000

     crystal axes: (cart. coord. in units of alat)
               a(1) = (   1.000000   0.000000   0.000000 )
               a(2) = (   0.000000   1.000000   0.000000 )
               a(3) = (   0.000000   0.000000   0.644444 )

     reciprocal axes: (cart. coord. in units 2 pi/alat)
               b(1) = (  1.000000  0.000000  0.000000 )
               b(2) = (  0.000000  1.000000  0.000000 )
               b(3) = (  0.000000  0.000000  1.551724 )

     PseudoPot. # 1 for Ti read from file:
     /home/camp/zhonxu/pseudo/ti_pbe_v1.uspp.F.UPF
     MD5 check sum: bcc8f6961b3b91f0cac3ca967d22d0fb
     Pseudo is Ultrasoft + core correction, Zval = 12.0
     Generated by new atomic code, or converted to UPF format
     Using radial grid of  851 points,  6 beta functions with:
                l(1) =   0
                l(2) =   0
                l(3) =   1
                l(4) =   1
                l(5) =   2
                l(6) =   2
     Q(r) pseudized with  6 coefficients,  rinner =    1.000   1.000   1.000
                                                       1.000   1.000

     PseudoPot. # 2 for O  read from file:
     /home/camp/zhonxu/pseudo/o_pbe_v1.01.uspp.F.UPF
     MD5 check sum: 2bcb18d16ea4b960afae9ec6d52f22d2
     Pseudo is Ultrasoft + core correction, Zval =  6.0
     Generated by new atomic code, or converted to UPF format
     Using radial grid of  737 points,  5 beta functions with:
                l(1) =   0
                l(2) =   0
                l(3) =   1
                l(4) =   1
                l(5) =   2
     Q(r) pseudized with  8 coefficients,  rinner =    0.900   0.900   0.900
                                                       0.900   0.900

     atomic species   valence    mass     pseudopotential
        Ti0           12.00    47.88000     Ti( 1.00)
        O1             6.00    15.99940     O ( 1.00)

     Starting magnetic structure
     atomic species   magnetization
        Ti0          0.600
        O1           0.000

     16 Sym. Ops., with inversion, found ( 8 have fractional translation)

   Cartesian axes

     site n.     atom                  positions (alat units)
         1           Ti0 tau(   1) = (   0.0000000   0.0000000   0.0000000  )
         2           Ti0 tau(   2) = (   0.5000000   0.5000000   0.3222222  )
         3           O1  tau(   3) = (   0.3050000   0.3050000   0.0000000  )
         4           O1  tau(   4) = (  -0.3050000  -0.3050000   0.0000000  )
         5           O1  tau(   5) = (   0.8050000   0.1950000   0.3222222  )
         6           O1  tau(   6) = (   0.1950000   0.8050000   0.3222222  )

     number of k points=    36  Methfessel-Paxton smearing, width (Ry)=  0.0100
                       cart. coord. in units 2pi/alat
        k(    1) = (   0.0000000   0.0000000   0.0000000), wk =   0.0080000
        k(    2) = (   0.0000000   0.0000000   0.3103448), wk =   0.0160000
        k(    3) = (   0.0000000   0.0000000   0.6206897), wk =   0.0160000
        k(    4) = (   0.0000000   0.2000000   0.0000000), wk =   0.0320000
        k(    5) = (   0.0000000   0.2000000   0.3103448), wk =   0.0640000
        k(    6) = (   0.0000000   0.2000000   0.6206897), wk =   0.0640000
        k(    7) = (   0.0000000   0.4000000   0.0000000), wk =   0.0320000
        k(    8) = (   0.0000000   0.4000000   0.3103448), wk =   0.0640000
        k(    9) = (   0.0000000   0.4000000   0.6206897), wk =   0.0640000
        k(   10) = (   0.2000000   0.2000000   0.0000000), wk =   0.0320000
        k(   11) = (   0.2000000   0.2000000   0.3103448), wk =   0.0640000
        k(   12) = (   0.2000000   0.2000000   0.6206897), wk =   0.0640000
        k(   13) = (   0.2000000   0.4000000   0.0000000), wk =   0.0640000
        k(   14) = (   0.2000000   0.4000000   0.3103448), wk =   0.1280000
        k(   15) = (   0.2000000   0.4000000   0.6206897), wk =   0.1280000
        k(   16) = (   0.4000000   0.4000000   0.0000000), wk =   0.0320000
        k(   17) = (   0.4000000   0.4000000   0.3103448), wk =   0.0640000
        k(   18) = (   0.4000000   0.4000000   0.6206897), wk =   0.0640000
        k(   19) = (   0.0000000   0.0000000   0.0000000), wk =   0.0080000
        k(   20) = (   0.0000000   0.0000000   0.3103448), wk =   0.0160000
        k(   21) = (   0.0000000   0.0000000   0.6206897), wk =   0.0160000
        k(   22) = (   0.0000000   0.2000000   0.0000000), wk =   0.0320000
        k(   23) = (   0.0000000   0.2000000   0.3103448), wk =   0.0640000
        k(   24) = (   0.0000000   0.2000000   0.6206897), wk =   0.0640000
        k(   25) = (   0.0000000   0.4000000   0.0000000), wk =   0.0320000
        k(   26) = (   0.0000000   0.4000000   0.3103448), wk =   0.0640000
        k(   27) = (   0.0000000   0.4000000   0.6206897), wk =   0.0640000
        k(   28) = (   0.2000000   0.2000000   0.0000000), wk =   0.0320000
        k(   29) = (   0.2000000   0.2000000   0.3103448), wk =   0.0640000
        k(   30) = (   0.2000000   0.2000000   0.6206897), wk =   0.0640000
        k(   31) = (   0.2000000   0.4000000   0.0000000), wk =   0.0640000
        k(   32) = (   0.2000000   0.4000000   0.3103448), wk =   0.1280000
        k(   33) = (   0.2000000   0.4000000   0.6206897), wk =   0.1280000
        k(   34) = (   0.4000000   0.4000000   0.0000000), wk =   0.0320000
        k(   35) = (   0.4000000   0.4000000   0.3103448), wk =   0.0640000
        k(   36) = (   0.4000000   0.4000000   0.6206897), wk =   0.0640000

     Largest allocated arrays     est. size (Mb)     dimensions
     Largest temporary arrays     est. size (Mb)     dimensions

     Check: negative/imaginary core charge=   -0.000016    0.000000

     Initial potential from superposition of free atoms
     Check: negative starting charge=(component1):   -0.020153
     Check: negative starting charge=(component2):   -0.004826

     starting charge   45.99991, renormalised to   48.00000

     negative rho (up, down):  0.210E-01 0.504E-02
     Starting wfc are   36 randomized atomic wfcs

     Self-consistent Calculation

     iteration #  1     ecut=    40.00 Ry     beta=0.70
     Davidson diagonalization with overlap
     ethr =  1.00E-02,  avg # of iterations =  5.3

     negative rho (up, down):  0.164E-01 0.126E-01

     total energy              =    -365.43520382 Ry
     Harris-Foulkes estimate   =    -364.93557865 Ry
     estimated scf accuracy    <       2.54359998 Ry

     total magnetization       =     0.00 Bohr mag/cell
     absolute magnetization    =     1.66 Bohr mag/cell

[...]

     End of self-consistent calculation

 ------ SPIN UP ------------

          k = 0.0000 0.0000 0.0000 (  1447 PWs)   bands (ev):

   -43.1493 -43.0923 -19.8451 -19.8451 -19.4040 -19.4040 -19.2924 -19.1911
    -6.3948  -4.9409  -3.3221  -3.3221   6.0875   6.2020   6.2793   8.1408
     8.1408   9.9850   9.9850  10.8262  12.2999  12.4909  12.4909  12.8993
    15.3736  15.9224  16.1084  16.2631  16.2631  19.2022  19.3728  21.9252
    21.9252  22.7287  23.3507  26.2291  26.2291  29.3814  30.5948  32.2408
    33.5633  35.7462  35.7462  35.7698  38.0072  38.9741  39.8196  39.8196
    40.8320  41.4902  41.4902  42.1720  42.6870  42.6870  43.8837  45.8802
    49.6981  49.6981  50.1189  50.1237  50.1946  51.2738  51.8506  51.8506
    53.6701  54.4136  55.8993  55.8993  58.1091

[...]

 ------ SPIN DOWN ----------

[...]

     the Fermi energy is    14.0586 ev

!    total energy              =    -366.23562078 Ry
     Harris-Foulkes estimate   =    -366.23562000 Ry
     estimated scf accuracy    <       0.00000062 Ry

     The total energy is the sum of the following terms:

     one-electron contribution =     -94.23236428 Ry
     hartree contribution      =      77.82626160 Ry
     xc contribution           =     -64.45786608 Ry
     ewald contribution        =    -285.37165202 Ry
     smearing contrib. (-TS)   =       0.00000000 Ry

[...]

     convergence has been achieved in   8 iterations

     Forces acting on atoms (Ry/au):

     negative rho (up, down):  0.130E-01 0.130E-01
     atom    1 type  1   force =     0.00000000    0.00000000    0.00000000
     atom    2 type  1   force =     0.00000000    0.00000000    0.00000000
     atom    3 type  2   force =    -0.04599043   -0.04599043   -0.00000000
     atom    4 type  2   force =     0.04599043    0.04599043    0.00000000
     atom    5 type  2   force =    -0.04599043    0.04599043   -0.00000000
     atom    6 type  2   force =     0.04599043   -0.04599043    0.00000000

     Total force =     0.130081     Total SCF correction =     0.000132

     entering subroutine stress ...

     negative rho (up, down):  0.130E-01 0.130E-01
          total   stress  (Ry/bohr**3)                   (kbar)     P=  971.55
   0.00606568   0.00000000   0.00000000        892.29      0.00      0.00
   0.00000000   0.00606568   0.00000000          0.00    892.29      0.00
   0.00000000   0.00000000   0.00768199          0.00      0.00   1130.06

     Volume is kept fixed: isostatic pressure set to zero

     BFGS Geometry Optimization

     number of scf cycles    =   1
     number of bfgs steps    =   0

     enthalpy new            =    -366.2356207812 Ry

     new trust radius        =       0.0985694392 bohr
     new conv_thr            =       0.0000010000 Ry

     new unit-cell volume =    334.71740 a.u.^3 (    49.60000 Ang^3 )

CELL_PARAMETERS (alat=  8.03830103)
   0.986708192   0.000000000   0.000000000
   0.000000000   0.986708192   0.000000000
   0.000000000   0.000000000   0.661923830

ATOMIC_POSITIONS (crystal)
Ti0      0.000000000   0.000000000   0.000000000    0   0   0
Ti0      0.500000000   0.500000000   0.500000000    0   0   0
O1       0.299278588   0.299278588   0.000000000    1   1   0
O1      -0.299278588  -0.299278588   0.000000000    1   1   0
[...]
        k(   28) = (   0.2026942   0.2026942   0.0000000), wk =   0.0320000
        k(   29) = (   0.2026942   0.2026942   0.3021496), wk =   0.0640000
        k(   30) = (   0.2026942   0.2026942   0.6042991), wk =   0.0640000
        k(   31) = (   0.2026942   0.4053883   0.0000000), wk =   0.0640000
        k(   32) = (   0.2026942   0.4053883   0.3021496), wk =   0.1280000
        k(   33) = (   0.2026942   0.4053883   0.6042991), wk =   0.1280000
        k(   34) = (   0.4053883   0.4053883   0.0000000), wk =   0.0320000
        k(   35) = (   0.4053883   0.4053883   0.3021496), wk =   0.0640000
        k(   36) = (   0.4053883   0.4053883   0.6042991), wk =   0.0640000

     Check: negative/imaginary core charge=   -0.000016    0.000000
     Check: negative starting charge=(component1):   -0.025026

[...]

     enthalpy old            =    -366.2356207812 Ry
     enthalpy new            =    -366.2464689042 Ry

     CASE: enthalpy_new < enthalpy_old

[...]

     Threshold (ethr) on eigenvalues was too large:
     Diagonalizing with lowered threshold

     Davidson diagonalization with overlap
     ethr =  2.63E-09,  avg # of iterations =  1.6

[...]

     number of scf cycles    =   4
     number of bfgs steps    =   3

     enthalpy old            =    -366.2475978729 Ry
     enthalpy new            =    -366.2476053242 Ry

     CASE: enthalpy_new < enthalpy_old

     new trust radius        =       0.0022729411 bohr
     new conv_thr            =       0.0000000100 Ry

     new unit-cell volume =    334.71740 a.u.^3 (    49.60000 Ang^3 )

[...]

ATOMIC_POSITIONS (crystal)
Ti0      0.000000000   0.000000000   0.000000000    0   0   0
Ti0      0.500000000   0.500000000   0.500000000    0   0   0
O1       0.300996569   0.300996569   0.000000000    1   1   0
O1      -0.300996569  -0.300996569   0.000000000    1   1   0
O1       0.800996569   0.199003431   0.500000000    1   1   0
O1       0.199003431   0.800996569   0.500000000    1   1   0

     Check: negative starting charge=(component1):   -0.025024
     NEW-OLD atomic charge density approx. for the potential
     NEW k-points:
        k(    1) = (   0.0000000   0.0000000   0.0000000), wk =   0.0080000
        k(    2) = (   0.0000000   0.0000000   0.3033731), wk =   0.0160000
        k(    3) = (   0.0000000   0.0000000   0.6067463), wk =   0.0160000
        k(    4) = (   0.0000000   0.2022850   0.0000000), wk =   0.0320000
        k(    5) = (   0.0000000   0.2022850   0.3033731), wk =   0.0640000
        k(    6) = (   0.0000000   0.2022850   0.6067463), wk =   0.0640000
        k(    7) = (   0.0000000   0.4045700   0.0000000), wk =   0.0320000
        k(    8) = (   0.0000000   0.4045700   0.3033731), wk =   0.0640000
        k(    9) = (   0.0000000   0.4045700   0.6067463), wk =   0.0640000
        k(   10) = (   0.2022850   0.2022850   0.0000000), wk =   0.0320000
        k(   11) = (   0.2022850   0.2022850   0.3033731), wk =   0.0640000
        k(   12) = (   0.2022850   0.2022850   0.6067463), wk =   0.0640000
        k(   13) = (   0.2022850   0.4045700   0.0000000), wk =   0.0640000
        k(   14) = (   0.2022850   0.4045700   0.3033731), wk =   0.1280000
        k(   15) = (   0.2022850   0.4045700   0.6067463), wk =   0.1280000
        k(   16) = (   0.4045700   0.4045700   0.0000000), wk =   0.0320000
        k(   17) = (   0.4045700   0.4045700   0.3033731), wk =   0.0640000
        k(   18) = (   0.4045700   0.4045700   0.6067463), wk =   0.0640000
        k(   19) = (   0.0000000   0.0000000   0.0000000), wk =   0.0080000
        k(   20) = (   0.0000000   0.0000000   0.3033731), wk =   0.0160000
        k(   21) = (   0.0000000   0.0000000   0.6067463), wk =   0.0160000
        k(   22) = (   0.0000000   0.2022850   0.0000000), wk =   0.0320000
        k(   23) = (   0.0000000   0.2022850   0.3033731), wk =   0.0640000
        k(   24) = (   0.0000000   0.2022850   0.6067463), wk =   0.0640000
        k(   25) = (   0.0000000   0.4045700   0.0000000), wk =   0.0320000
        k(   26) = (   0.0000000   0.4045700   0.3033731), wk =   0.0640000
        k(   27) = (   0.0000000   0.4045700   0.6067463), wk =   0.0640000
        k(   28) = (   0.2022850   0.2022850   0.0000000), wk =   0.0320000
        k(   29) = (   0.2022850   0.2022850   0.3033731), wk =   0.0640000
        k(   30) = (   0.2022850   0.2022850   0.6067463), wk =   0.0640000
        k(   31) = (   0.2022850   0.4045700   0.0000000), wk =   0.0640000
        k(   32) = (   0.2022850   0.4045700   0.3033731), wk =   0.1280000
        k(   33) = (   0.2022850   0.4045700   0.6067463), wk =   0.1280000
        k(   34) = (   0.4045700   0.4045700   0.0000000), wk =   0.0320000
        k(   35) = (   0.4045700   0.4045700   0.3033731), wk =   0.0640000
        k(   36) = (   0.4045700   0.4045700   0.6067463), wk =   0.0640000

     Check: negative/imaginary core charge=   -0.000016    0.000000
     Check: negative starting charge=(component1):   -0.025025

[...]

     Threshold (ethr) on eigenvalues was too large:
     Diagonalizing with lowered threshold

     Davidson diagonalization with overlap
     ethr =  7.73E-10,  avg # of iterations =  2.1

[...]

     Total force =     0.000119     Total SCF correction =     0.000014
     SCF correction compared to forces is large: reduce conv_thr to get better values

[...]

     Volume is kept fixed: isostatic pressure set to zero

     bfgs converged in   5 scf cycles and   4 bfgs steps
     (criteria: energy < 0.10E-03, force < 0.10E-02, cell < 0.50E+00)

     End of BFGS Geometry Optimization

     Final enthalpy =    -366.2476083636 Ry
Begin final coordinates
     new unit-cell volume =    334.71740 a.u.^3 (    49.60000 Ang^3 )

CELL_PARAMETERS (alat=  8.03830103)
   0.988704030   0.000000000   0.000000000
   0.000000000   0.988704030   0.000000000
   0.000000000   0.000000000   0.659254155

ATOMIC_POSITIONS (crystal)
Ti0      0.000000000   0.000000000   0.000000000    0   0   0
Ti0      0.500000000   0.500000000   0.500000000    0   0   0
O1       0.300996569   0.300996569   0.000000000    1   1   0
O1      -0.300996569  -0.300996569   0.000000000    1   1   0
O1       0.800996569   0.199003431   0.500000000    1   1   0
O1       0.199003431   0.800996569   0.500000000    1   1   0
End final coordinates

     A final scf calculation at the relaxed structure.
     The G-vectors are recalculated for the final unit cell
     Results may differ from those at the preceding step.

     bravais-lattice index     =            0
     lattice parameter (alat)  =       8.0383  a.u.
     unit-cell volume          =     334.7174 (a.u.)^3
     number of atoms/cell      =            6
     number of atomic types    =            2
     number of electrons       =        48.00
     number of Kohn-Sham states=           69
     kinetic-energy cutoff     =      40.0000  Ry
     charge density cutoff     =     500.0000  Ry
     convergence threshold     =      1.0E-08
     mixing beta               =       0.7000
     number of iterations used =            8  plain     mixing
     Exchange-correlation      = SLA  PW   PBE  PBE ( 1 4 3 4 0)
     EXX-fraction              =        0.00

     celldm(1)=   8.038301  celldm(2)=   0.000000  celldm(3)=   0.000000
     celldm(4)=   0.000000  celldm(5)=   0.000000  celldm(6)=   0.000000

     crystal axes: (cart. coord. in units of alat)
               a(1) = (   0.988704   0.000000   0.000000 )
               a(2) = (   0.000000   0.988704   0.000000 )
               a(3) = (   0.000000   0.000000   0.659254 )

     reciprocal axes: (cart. coord. in units 2 pi/alat)
               b(1) = (  1.011425  0.000000  0.000000 )
               b(2) = (  0.000000  1.011425  0.000000 )
               b(3) = (  0.000000  0.000000  1.516866 )

     PseudoPot. # 1 for Ti read from file:
     /home/camp/zhonxu/pseudo/ti_pbe_v1.uspp.F.UPF
     MD5 check sum: bcc8f6961b3b91f0cac3ca967d22d0fb
     Pseudo is Ultrasoft + core correction, Zval = 12.0
     Generated by new atomic code, or converted to UPF format
     Using radial grid of  851 points,  6 beta functions with:
                l(1) =   0
                l(2) =   0
                l(3) =   1
                l(4) =   1
                l(5) =   2
                l(6) =   2
     Q(r) pseudized with  6 coefficients,  rinner =    1.000   1.000   1.000
                                                       1.000   1.000

     PseudoPot. # 2 for O  read from file:
     /home/camp/zhonxu/pseudo/o_pbe_v1.01.uspp.F.UPF
     MD5 check sum: 2bcb18d16ea4b960afae9ec6d52f22d2
     Pseudo is Ultrasoft + core correction, Zval =  6.0
     Generated by new atomic code, or converted to UPF format
     Using radial grid of  737 points,  5 beta functions with:
                l(1) =   0
                l(2) =   0
                l(3) =   1
                l(4) =   1
                l(5) =   2
     Q(r) pseudized with  8 coefficients,  rinner =    0.900   0.900   0.900
                                                       0.900   0.900

     atomic species   valence    mass     pseudopotential
        Ti0           12.00    47.88000     Ti( 1.00)
        O1             6.00    15.99940     O ( 1.00)

     Starting magnetic structure
     atomic species   magnetization
        Ti0          0.600
        O1           0.000

     16 Sym. Ops., with inversion, found ( 8 have fractional translation)

   Cartesian axes

     site n.     atom                  positions (alat units)
         1           Ti0 tau(   1) = (   0.0000000   0.0000000   0.0000000  )
         2           Ti0 tau(   2) = (   0.4943520   0.4943520   0.3296271  )
         3           O1  tau(   3) = (   0.2975965   0.2975965   0.0000000  )
         4           O1  tau(   4) = (  -0.2975965  -0.2975965   0.0000000  )
         5           O1  tau(   5) = (   0.7919485   0.1967555   0.3296271  )
         6           O1  tau(   6) = (   0.1967555   0.7919485   0.3296271  )

     number of k points=    36  Methfessel-Paxton smearing, width (Ry)=  0.0100
                       cart. coord. in units 2pi/alat
        k(    1) = (   0.0000000   0.0000000   0.0000000), wk =   0.0080000
        k(    2) = (   0.0000000   0.0000000   0.3033731), wk =   0.0160000
        k(    3) = (   0.0000000   0.0000000   0.6067463), wk =   0.0160000
        k(    4) = (   0.0000000   0.2022850   0.0000000), wk =   0.0320000
        k(    5) = (   0.0000000   0.2022850   0.3033731), wk =   0.0640000
        k(    6) = (   0.0000000   0.2022850   0.6067463), wk =   0.0640000
        k(    7) = (   0.0000000   0.4045700   0.0000000), wk =   0.0320000
        k(    8) = (   0.0000000   0.4045700   0.3033731), wk =   0.0640000
        k(    9) = (   0.0000000   0.4045700   0.6067463), wk =   0.0640000
        k(   10) = (   0.2022850   0.2022850   0.0000000), wk =   0.0320000
        k(   11) = (   0.2022850   0.2022850   0.3033731), wk =   0.0640000
        k(   12) = (   0.2022850   0.2022850   0.6067463), wk =   0.0640000
        k(   13) = (   0.2022850   0.4045700   0.0000000), wk =   0.0640000
        k(   14) = (   0.2022850   0.4045700   0.3033731), wk =   0.1280000
        k(   15) = (   0.2022850   0.4045700   0.6067463), wk =   0.1280000
        k(   16) = (   0.4045700   0.4045700   0.0000000), wk =   0.0320000
        k(   17) = (   0.4045700   0.4045700   0.3033731), wk =   0.0640000
        k(   18) = (   0.4045700   0.4045700   0.6067463), wk =   0.0640000
        k(   19) = (   0.0000000   0.0000000   0.0000000), wk =   0.0080000
        k(   20) = (   0.0000000   0.0000000   0.3033731), wk =   0.0160000
        k(   21) = (   0.0000000   0.0000000   0.6067463), wk =   0.0160000
        k(   22) = (   0.0000000   0.2022850   0.0000000), wk =   0.0320000
        k(   23) = (   0.0000000   0.2022850   0.3033731), wk =   0.0640000
        k(   24) = (   0.0000000   0.2022850   0.6067463), wk =   0.0640000
        k(   25) = (   0.0000000   0.4045700   0.0000000), wk =   0.0320000
        k(   26) = (   0.0000000   0.4045700   0.3033731), wk =   0.0640000
        k(   27) = (   0.0000000   0.4045700   0.6067463), wk =   0.0640000
        k(   28) = (   0.2022850   0.2022850   0.0000000), wk =   0.0320000
        k(   29) = (   0.2022850   0.2022850   0.3033731), wk =   0.0640000
        k(   30) = (   0.2022850   0.2022850   0.6067463), wk =   0.0640000
        k(   31) = (   0.2022850   0.4045700   0.0000000), wk =   0.0640000
        k(   32) = (   0.2022850   0.4045700   0.3033731), wk =   0.1280000
        k(   33) = (   0.2022850   0.4045700   0.6067463), wk =   0.1280000
        k(   34) = (   0.4045700   0.4045700   0.0000000), wk =   0.0320000
        k(   35) = (   0.4045700   0.4045700   0.3033731), wk =   0.0640000
        k(   36) = (   0.4045700   0.4045700   0.6067463), wk =   0.0640000

     Largest allocated arrays     est. size (Mb)     dimensions
     Largest temporary arrays     est. size (Mb)     dimensions

     Check: negative/imaginary core charge=   -0.000016    0.000000

     Initial potential from superposition of free atoms
     Check: negative starting charge=(component1):   -0.020186
     Check: negative starting charge=(component2):   -0.004839

     starting charge   45.99991, renormalised to   48.00000

     negative rho (up, down):  0.211E-01 0.505E-02
     Starting wfc are   36 randomized atomic wfcs

     Self-consistent Calculation

[...]

     total energy              =    -366.24763987 Ry
     Harris-Foulkes estimate   =    -366.24764002 Ry
     estimated scf accuracy    <       0.00000041 Ry

[...]

     iteration # 11     ecut=    40.00 Ry     beta=0.70
     Davidson diagonalization with overlap
     ethr =  8.53E-10,  avg # of iterations =  1.0

     negative rho (up, down):  0.130E-01 0.130E-01

     End of self-consistent calculation

 ------ SPIN UP ------------

[...]

 ------ SPIN DOWN ----------

[...]

          k = 0.4046 0.4046 0.6067 (  1437 PWs)   bands (ev):

   -43.0548 -43.0530 -20.1070 -20.0881 -19.6607 -19.6301 -19.4026 -19.3984
    -4.7020  -4.3747  -4.1668  -3.8199   6.7757   6.9223   7.7617   7.9210
     8.6209   8.9980  10.3658  10.4194  10.7646  11.0587  12.1252  12.2282
    16.0816  16.6747  16.9422  17.0374  17.1252  17.6473  20.4115  20.9197
    21.4085  21.8653  25.6715  25.9565  28.8576  29.8449  30.0560  30.9523
    33.3896  33.4965  33.9815  34.6092  34.8794  35.5217  39.6334  40.2305
    41.8749  42.4576  43.0805  43.6092  46.1564  46.2172  47.5858  48.4413
    49.9585  50.2563  50.9493  51.1381  51.4691  52.4994  52.7295  53.0215
    54.2090  55.1749  55.9476  57.4727  57.5712

     the Fermi energy is    14.3723 ev

!    total energy              =    -366.24763993 Ry
     Harris-Foulkes estimate   =    -366.24763993 Ry
     estimated scf accuracy    <          4.7E-10 Ry

     The total energy is the sum of the following terms:

     one-electron contribution =     -91.62504675 Ry
     hartree contribution      =      76.53993800 Ry
     xc contribution           =     -64.41597943 Ry
     ewald contribution        =    -286.74655175 Ry
     smearing contrib. (-TS)   =       0.00000000 Ry

     total magnetization       =    -0.00 Bohr mag/cell
     absolute magnetization    =     0.00 Bohr mag/cell

     convergence has been achieved in  11 iterations

     Forces acting on atoms (Ry/au):

     negative rho (up, down):  0.130E-01 0.130E-01
     atom    1 type  1   force =     0.00000000    0.00000000    0.00000000
     atom    2 type  1   force =     0.00000000    0.00000000    0.00000000
     atom    3 type  2   force =    -0.00003330   -0.00003330    0.00000000
     atom    4 type  2   force =     0.00003330    0.00003330   -0.00000000
     atom    5 type  2   force =    -0.00003330    0.00003330    0.00000000
     atom    6 type  2   force =     0.00003330   -0.00003330   -0.00000000

     Total force =     0.000094     Total SCF correction =     0.000006

     entering subroutine stress ...

     negative rho (up, down):  0.130E-01 0.130E-01
          total   stress  (Ry/bohr**3)                   (kbar)     P=  933.01
   0.00634145   0.00000000   0.00000000        932.86      0.00      0.00
   0.00000000   0.00634145   0.00000000          0.00    932.86      0.00
   0.00000000   0.00000000   0.00634458          0.00      0.00    933.32

     General routines

     Parallel routines

   This run was terminated on:  18:21:27  23Jan2014

   JOB DONE.
Running PBS batch system epilogue script
Job id: 251196.audhumbla.fysik.dtu.dk
Username: zhonxu
Groupname: campgst
Jobname: TiO2/coarse-EOS/TiO2-v-0.8
Sessionid: 21842
Queuename: verylong
Accounting:
This job has allocated the following 4 nodes:
q094 q094 q094 q094
Finished epilogue job 251196.audhumbla.fysik.dtu.dk for zhonxu