     Program PWSCF v.5.0.2 (svn rev. 9656) starts on  5Jun2014 at 19:49:56

     Current dimensions of program PWSCF are:
     Max number of different atomic species (ntypx) = 10
     Max number of k-points (npk) =  40000
     Max angular momentum in pseudopotentials (lmaxx) =  3
     Reading input from pwscf.in
Warning: card &CELL ignored
Warning: card / ignored

     Subspace diagonalization in iterative solution of the eigenvalue problem:
     a serial algorithm will be used

     bravais-lattice index     =            0
     lattice parameter (alat)  =      11.7919  a.u.
     unit-cell volume          =    7123.6633 (a.u.)^3
     number of atoms/cell      =           33
     number of atomic types    =            3
     number of electrons       =       253.00
     number of Kohn-Sham states=          367
     kinetic-energy cutoff     =      40.0000  Ry
     charge density cutoff     =     500.0000  Ry
     convergence threshold     =      1.0E-06
     mixing beta               =       0.3000
     number of iterations used =            8  plain     mixing
     Exchange-correlation      = SLA  PW   PBE  PBE ( 1 4 3 4 0)
     EXX-fraction              =        0.00
     nstep                     =           50

     celldm(1)=  11.791891  celldm(2)=   0.000000  celldm(3)=   0.000000
     celldm(4)=   0.000000  celldm(5)=   0.000000  celldm(6)=   0.000000

     crystal axes: (cart. coord. in units of alat)
               a(1) = (   1.000000   0.000000   0.000000 )
               a(2) = (   0.000000   1.026665   0.000000 )
               a(3) = (   0.000000   0.000000   4.231793 )

     reciprocal axes: (cart. coord. in units 2 pi/alat)
               b(1) = (  1.000000  0.000000  0.000000 )
               b(2) = (  0.000000  0.974028  0.000000 )
               b(3) = (  0.000000  0.000000  0.236306 )

     PseudoPot. # 1 for O  read from file:
     /home/camp/zhonxu/pseudo/o_pbe_v1.01.uspp.F.UPF
     MD5 check sum: 2bcb18d16ea4b960afae9ec6d52f22d2
     Pseudo is Ultrasoft + core correction, Zval =  6.0
     Generated by new atomic code, or converted to UPF format
     Using radial grid of  737 points,  5 beta functions with:
                l(1) =   0
                l(2) =   0
                l(3) =   1
                l(4) =   1
                l(5) =   2
     Q(r) pseudized with  8 coefficients,  rinner =    0.900   0.900   0.900
                                                       0.900   0.900

     PseudoPot. # 2 for Ru read from file:
     /home/camp/zhonxu/pseudo/ru_pbe_v1.uspp.F.UPF
     MD5 check sum: df00be1c11b23341d9806d8f1dfa10cf
     Pseudo is Ultrasoft + core correction, Zval = 16.0
     Generated by new atomic code, or converted to UPF format
     Using radial grid of  967 points,  6 beta functions with:
                l(1) =   0
                l(2) =   0
                l(3) =   1
                l(4) =   1
                l(5) =   2
                l(6) =   2
     Q(r) pseudized with  8 coefficients,  rinner =    1.300   1.300   1.300
                                                       1.300   1.300

     PseudoPot. # 3 for H  read from file:
     /home/camp/zhonxu/pseudo/h_pbe_v1.uspp.F.UPF
     MD5 check sum: 3408e3ff4ec8b0a4e358431e7e038a48
     Pseudo is Ultrasoft, Zval =  1.0
     Generated by new atomic code, or converted to UPF format
     Using radial grid of  615 points,  2 beta functions with:
                l(1) =   0
                l(2) =   0
     Q(r) pseudized with  8 coefficients,  rinner =    0.700

     atomic species   valence    mass     pseudopotential
        O0             6.00    15.99940     O ( 1.00)
        Ru1           16.00   101.07000     Ru( 1.00)
        H2             1.00     1.00794     H ( 1.00)

     Simplified LDA+U calculation (l_max = 2) with parameters (eV):
     atomic species    L          U    alpha       J0     beta
        Ru1            2     1.5000   0.0000   0.0000   0.0000

     No symmetry found

   Cartesian axes

     site n.     atom                  positions (alat units)
         1           O0  tau(   1) = (   0.0000000   0.0000000   1.5976288  )
         2           O0  tau(   2) = (   0.0000000   0.5133323   1.7135376  )
         3           Ru1 tau(   3) = (   0.2500000   0.5133323   1.9265237  )
         4           Ru1 tau(   4) = (   0.0000000   0.0000000   1.9104429  )
         5           O0  tau(   5) = (   0.2500000   0.8315984   1.9133628  )
         6           O0  tau(   6) = (   0.2500000   0.1950663   1.9137014  )
         7           O0  tau(   7) = (   0.0000000   0.5133323   2.1143307  )
         8           O0  tau(   8) = (   0.0000000   0.0000000   2.2232570  )
         9           Ru1 tau(   9) = (   0.2500000   0.0000000   2.4362008  )
        10           Ru1 tau(  10) = (   0.0000000   0.5133323   2.4139839  )
        11           O0  tau(  11) = (   0.2500000   0.7083986   2.4352275  )
        12           O0  tau(  12) = (   0.2500000   0.3182660   2.4428024  )
        13           O0  tau(  13) = (   0.0000000   0.0000000   2.6141054  )
        14           O0  tau(  14) = (   0.5000000   0.0000000   1.5980943  )
        15           O0  tau(  15) = (   0.5000000   0.5133323   1.7110408  )
        16           Ru1 tau(  16) = (   0.7500000   0.5133323   1.9265660  )
        17           Ru1 tau(  17) = (   0.5000000   0.0000000   1.9113316  )
        18           O0  tau(  18) = (   0.7500000   0.8315984   1.9134475  )
        19           O0  tau(  19) = (   0.7500000   0.1950663   1.9137014  )
        20           O0  tau(  20) = (   0.5000000   0.5133323   2.1248255  )
        21           O0  tau(  21) = (   0.5000000   0.0000000   2.2236379  )
        22           Ru1 tau(  22) = (   0.7500000   0.0000000   2.4362855  )
        23           Ru1 tau(  23) = (   0.5000000   0.5133323   2.4472458  )
        24           O0  tau(  24) = (   0.7500000   0.7083986   2.4352698  )
        25           O0  tau(  25) = (   0.7500000   0.3182660   2.4426755  )
        26           O0  tau(  26) = (   0.5000000   0.0000000   2.6042453  )
        27           H2  tau(  27) = (  -0.0003700   0.6408749   1.6195494  )
        28           H2  tau(  28) = (   0.4997300   0.6446633   1.6222578  )
        29           H2  tau(  29) = (   0.1462300   0.0299786   1.5449853  )
        30           H2  tau(  30) = (   0.6457400   0.0313441   1.5450699  )
        31           O0  tau(  31) = (   0.5000700   0.5415759   2.7547279  )
        32           O0  tau(  32) = (   0.4999900   0.3417972   2.8749108  )
        33           H2  tau(  33) = (   0.4999600   0.4009947   3.0215847  )

     number of k points=    10  Methfessel-Paxton smearing, width (Ry)=  0.0100
                       cart. coord. in units 2pi/alat
        k(    1) = (   0.0000000   0.0000000   0.0000000), wk =   0.1250000
        k(    2) = (   0.0000000   0.2435070   0.0000000), wk =   0.2500000
        k(    3) = (   0.0000000  -0.4870139   0.0000000), wk =   0.1250000
        k(    4) = (   0.2500000   0.0000000   0.0000000), wk =   0.2500000
        k(    5) = (   0.2500000   0.2435070   0.0000000), wk =   0.2500000
        k(    6) = (   0.2500000  -0.4870139   0.0000000), wk =   0.2500000
        k(    7) = (  -0.5000000   0.0000000   0.0000000), wk =   0.1250000
        k(    8) = (  -0.5000000   0.2435070   0.0000000), wk =   0.2500000
        k(    9) = (  -0.5000000  -0.4870139   0.0000000), wk =   0.1250000
        k(   10) = (  -0.2500000   0.2435070   0.0000000), wk =   0.2500000

     Largest allocated arrays     est. size (Mb)     dimensions
     Largest temporary arrays     est. size (Mb)     dimensions

     Check: negative/imaginary core charge=   -0.000003    0.000000

     Initial potential from superposition of free atoms
     Check: negative starting charge=   -0.523679

     starting charge  244.99980, renormalised to  253.00000

     negative rho (up, down):  0.541E+00 0.000E+00
     Number of +U iterations with fixed ns =  0
     Starting occupations:
 --- enter write_ns ---
 LDA+U parameters:
U( 2)     =  1.50000000
alpha( 2) =  0.00000000
atom    3   Tr[ns(na)] =   6.00000
    eigenvalues:
  0.600  0.600  0.600  0.600  0.600
    eigenvectors:
  1.000  0.000  0.000  0.000  0.000
  0.000  1.000  0.000  0.000  0.000
  0.000  0.000  1.000  0.000  0.000
  0.000  0.000  0.000  1.000  0.000
  0.000  0.000  0.000  0.000  1.000
    occupations:
  0.600  0.000  0.000  0.000  0.000
  0.000  0.600  0.000  0.000  0.000
  0.000  0.000  0.600  0.000  0.000
  0.000  0.000  0.000  0.600  0.000
  0.000  0.000  0.000  0.000  0.600
atom    4   Tr[ns(na)] =   6.00000
    eigenvalues:
  0.600  0.600  0.600  0.600  0.600
    eigenvectors:
  1.000  0.000  0.000  0.000  0.000
  0.000  1.000  0.000  0.000  0.000
  0.000  0.000  1.000  0.000  0.000
  0.000  0.000  0.000  1.000  0.000
  0.000  0.000  0.000  0.000  1.000
    occupations:
  0.600  0.000  0.000  0.000  0.000
  0.000  0.600  0.000  0.000  0.000
  0.000  0.000  0.600  0.000  0.000
  0.000  0.000  0.000  0.600  0.000
  0.000  0.000  0.000  0.000  0.600
atom    9   Tr[ns(na)] =   6.00000
    eigenvalues:
  0.600  0.600  0.600  0.600  0.600
    eigenvectors:
  1.000  0.000  0.000  0.000  0.000
  0.000  1.000  0.000  0.000  0.000
  0.000  0.000  1.000  0.000  0.000
  0.000  0.000  0.000  1.000  0.000
  0.000  0.000  0.000  0.000  1.000
    occupations:
  0.600  0.000  0.000  0.000  0.000
  0.000  0.600  0.000  0.000  0.000
  0.000  0.000  0.600  0.000  0.000
  0.000  0.000  0.000  0.600  0.000
  0.000  0.000  0.000  0.000  0.600
atom   10   Tr[ns(na)] =   6.00000
    eigenvalues:
  0.600  0.600  0.600  0.600  0.600
    eigenvectors:
  1.000  0.000  0.000  0.000  0.000
  0.000  1.000  0.000  0.000  0.000
  0.000  0.000  1.000  0.000  0.000
  0.000  0.000  0.000  1.000  0.000
  0.000  0.000  0.000  0.000  1.000
    occupations:
  0.600  0.000  0.000  0.000  0.000
  0.000  0.600  0.000  0.000  0.000
  0.000  0.000  0.600  0.000  0.000
  0.000  0.000  0.000  0.600  0.000
  0.000  0.000  0.000  0.000  0.600
atom   16   Tr[ns(na)] =   6.00000
    eigenvalues:
  0.600  0.600  0.600  0.600  0.600
    eigenvectors:
  1.000  0.000  0.000  0.000  0.000
  0.000  1.000  0.000  0.000  0.000
  0.000  0.000  1.000  0.000  0.000
  0.000  0.000  0.000  1.000  0.000
  0.000  0.000  0.000  0.000  1.000
    occupations:
  0.600  0.000  0.000  0.000  0.000
  0.000  0.600  0.000  0.000  0.000
  0.000  0.000  0.600  0.000  0.000
  0.000  0.000  0.000  0.600  0.000
  0.000  0.000  0.000  0.000  0.600
atom   17   Tr[ns(na)] =   6.00000
    eigenvalues:
  0.600  0.600  0.600  0.600  0.600
    eigenvectors:
  1.000  0.000  0.000  0.000  0.000
  0.000  1.000  0.000  0.000  0.000
  0.000  0.000  1.000  0.000  0.000
  0.000  0.000  0.000  1.000  0.000
  0.000  0.000  0.000  0.000  1.000
    occupations:
  0.600  0.000  0.000  0.000  0.000
  0.000  0.600  0.000  0.000  0.000
  0.000  0.000  0.600  0.000  0.000
  0.000  0.000  0.000  0.600  0.000
  0.000  0.000  0.000  0.000  0.600
atom   22   Tr[ns(na)] =   6.00000
    eigenvalues:
  0.600  0.600  0.600  0.600  0.600
    eigenvectors:
  1.000  0.000  0.000  0.000  0.000
  0.000  1.000  0.000  0.000  0.000
  0.000  0.000  1.000  0.000  0.000
[...]
  0.000  0.826  0.001  0.000 -0.006
  0.002  0.001  0.727 -0.001  0.000
  0.042  0.000 -0.001  0.953 -0.000
  0.000 -0.006  0.000 -0.000  0.541
atom   16   Tr[ns(na)] =   7.18113
    eigenvalues:
  0.525  0.569  0.718  0.819  0.960
    eigenvectors:
  0.001  0.187  0.005  0.000  0.807
  0.997  0.003  0.000  0.000  0.000
  0.000  0.001  0.972  0.019  0.008
  0.002  0.809  0.004  0.000  0.185
  0.000  0.000  0.020  0.980  0.000
    occupations:
  0.885  0.005  0.021 -0.152  0.001
  0.005  0.525  0.001  0.000 -0.001
  0.021  0.001  0.722 -0.006 -0.014
 -0.152  0.000 -0.006  0.642  0.000
  0.001 -0.001 -0.014  0.000  0.817
atom   17   Tr[ns(na)] =   7.16988
    eigenvalues:
  0.556  0.603  0.683  0.779  0.964
    eigenvectors:
  0.001  0.989  0.000  0.000  0.010
  0.000  0.000  0.021  0.979  0.000
  0.000  0.000  0.979  0.021  0.000
  0.000  0.010  0.000  0.000  0.990
  0.999  0.001  0.000  0.000  0.000
    occupations:
  0.607 -0.000  0.000  0.036  0.001
 -0.000  0.777  0.014 -0.001 -0.001
  0.000  0.014  0.685  0.001  0.000
  0.036 -0.001  0.001  0.960  0.000
  0.001 -0.001  0.000  0.000  0.556
atom   22   Tr[ns(na)] =   7.15926
    eigenvalues:
  0.582  0.602  0.771  0.810  0.815
    eigenvectors:
  0.000  0.159  0.002  0.820  0.019
  0.998  0.001  0.000  0.000  0.000
  0.000  0.000  0.994  0.004  0.002
  0.002  0.839  0.002  0.155  0.003
  0.000  0.000  0.003  0.021  0.976
    occupations:
  0.776  0.004 -0.003 -0.076  0.001
  0.004  0.582  0.001 -0.002  0.000
 -0.003  0.001  0.771 -0.002  0.002
 -0.076 -0.002 -0.002  0.635 -0.000
  0.001  0.000  0.002 -0.000  0.815
atom   23   Tr[ns(na)] =   7.19642
    eigenvalues:
  0.552  0.592  0.716  0.797  0.941
    eigenvectors:
  0.000  0.996  0.000  0.000  0.003
  0.001  0.000  0.999  0.000  0.000
  0.000  0.000  0.000  0.999  0.000
  0.000  0.003  0.000  0.000  0.997
  0.999  0.000  0.001  0.000  0.000
    occupations:
  0.593  0.000  0.004  0.020  0.000
  0.000  0.716  0.001  0.000 -0.005
  0.004  0.001  0.797 -0.002 -0.000
  0.020  0.000 -0.002  0.940 -0.000
  0.000 -0.005 -0.000 -0.000  0.552
N of occupied +U levels =  57.4205377
 --- exit write_ns ---

     Threshold (ethr) on eigenvalues was too large:
     Diagonalizing with lowered threshold

     Davidson diagonalization with overlap
     ethr =  6.33E-08,  avg # of iterations =  2.0

[...]

     total energy              =   -2195.93124540 Ry
     Harris-Foulkes estimate   =   -2195.93124541 Ry
     estimated scf accuracy    <       0.00000001 Ry

     iteration # 17     ecut=    40.00 Ry     beta=0.30
     Davidson diagonalization with overlap
     ethr =  5.00E-12,  avg # of iterations =  1.0

     negative rho (up, down):  0.577E+00 0.000E+00

     End of self-consistent calculation
 --- enter write_ns ---
 LDA+U parameters:
U( 2)     =  1.50000000
alpha( 2) =  0.00000000
atom    3   Tr[ns(na)] =   7.18159
    eigenvalues:
  0.525  0.569  0.718  0.819  0.960
    eigenvectors:
  0.001  0.187  0.005  0.000  0.807
  0.997  0.003  0.000  0.000  0.000
  0.000  0.001  0.970  0.022  0.008
  0.002  0.809  0.004  0.000  0.185
  0.000  0.000  0.022  0.978  0.000
    occupations:
  0.885 -0.005  0.021 -0.152 -0.001
 -0.005  0.525 -0.001 -0.000 -0.001
  0.021 -0.001  0.722 -0.006  0.015
 -0.152 -0.000 -0.006  0.642 -0.000
 -0.001 -0.001  0.015 -0.000  0.817
atom    4   Tr[ns(na)] =   7.17605
    eigenvalues:
  0.556  0.602  0.678  0.786  0.966
    eigenvectors:
  0.000  0.989  0.000  0.000  0.010
  0.000  0.000  0.017  0.983  0.000
  0.000  0.000  0.983  0.017  0.000
  0.000  0.010  0.000  0.000  0.990
  0.999  0.000  0.000  0.000  0.000
    occupations:
  0.606 -0.001  0.000  0.037  0.001
 -0.001  0.784  0.014 -0.001 -0.001
  0.000  0.014  0.680  0.002  0.000
  0.037 -0.001  0.002  0.962  0.000
  0.001 -0.001  0.000  0.000  0.556
atom    9   Tr[ns(na)] =   7.15572
    eigenvalues:
  0.582  0.602  0.770  0.808  0.816
    eigenvectors:
  0.000  0.160  0.004  0.690  0.146
  0.995  0.004  0.000  0.000  0.000
  0.000  0.000  0.992  0.003  0.004
  0.004  0.835  0.003  0.130  0.028
  0.000  0.000  0.001  0.177  0.822
    occupations:
  0.776 -0.003 -0.004 -0.076  0.003
 -0.003  0.582  0.001  0.003  0.000
 -0.004  0.001  0.770 -0.002 -0.002
 -0.076  0.003 -0.002  0.635 -0.002
  0.003  0.000 -0.002 -0.002  0.815
atom   10   Tr[ns(na)] =   7.20004
    eigenvalues:
  0.540  0.548  0.727  0.827  0.958
    eigenvectors:
  0.000  0.989  0.000  0.000  0.011
  0.000  0.000  0.000  0.999  0.000
  0.000  0.000  1.000  0.000  0.000
  0.000  0.011  0.000  0.000  0.989
  1.000  0.000  0.000  0.000  0.000
    occupations:
  0.552  0.000  0.002  0.042  0.000
  0.000  0.826  0.001  0.000 -0.006
  0.002  0.001  0.727 -0.001  0.000
  0.042  0.000 -0.001  0.953 -0.000
  0.000 -0.006  0.000 -0.000  0.541
atom   16   Tr[ns(na)] =   7.18136
    eigenvalues:
  0.525  0.569  0.718  0.819  0.960
    eigenvectors:
  0.001  0.187  0.005  0.000  0.807
  0.997  0.003  0.000  0.000  0.000
  0.000  0.001  0.972  0.019  0.008
  0.002  0.809  0.004  0.000  0.185
  0.000  0.000  0.020  0.980  0.000
    occupations:
  0.885  0.005  0.021 -0.152  0.001
  0.005  0.525  0.001  0.000 -0.001
  0.021  0.001  0.722 -0.006 -0.014
 -0.152  0.000 -0.006  0.642  0.000
  0.001 -0.001 -0.014  0.000  0.817
atom   17   Tr[ns(na)] =   7.17246
    eigenvalues:
  0.556  0.603  0.683  0.780  0.964
    eigenvectors:
  0.000  0.989  0.000  0.000  0.010
  0.000  0.000  0.021  0.979  0.000
  0.000  0.000  0.979  0.021  0.000
  0.000  0.010  0.000  0.000  0.990
  0.999  0.000  0.000  0.000  0.000
    occupations:
  0.607 -0.000  0.000  0.036  0.001
 -0.000  0.778  0.014 -0.001 -0.001
  0.000  0.014  0.685  0.001  0.000
  0.036 -0.001  0.001  0.960  0.000
  0.001 -0.001  0.000  0.000  0.556
atom   22   Tr[ns(na)] =   7.15537
    eigenvalues:
  0.582  0.602  0.771  0.808  0.815
    eigenvectors:
  0.000  0.161  0.002  0.824  0.014
  0.998  0.001  0.000  0.000  0.000
  0.000  0.000  0.994  0.004  0.002
  0.002  0.838  0.002  0.157  0.002
  0.000  0.000  0.003  0.015  0.982
    occupations:
  0.775  0.004 -0.003 -0.076  0.001
  0.004  0.582  0.001 -0.002  0.000
 -0.003  0.001  0.771 -0.002  0.002
 -0.076 -0.002 -0.002  0.635 -0.000
  0.001  0.000  0.002 -0.000  0.815
atom   23   Tr[ns(na)] =   7.19786
    eigenvalues:
  0.552  0.592  0.716  0.798  0.942
    eigenvectors:
  0.000  0.996  0.000  0.000  0.003
  0.001  0.000  0.999  0.000  0.000
  0.000  0.000  0.000  0.999  0.000
  0.000  0.003  0.000  0.000  0.997
  0.999  0.000  0.001  0.000  0.000
    occupations:
  0.593  0.000  0.004  0.020  0.000
  0.000  0.716  0.001  0.000 -0.005
  0.004  0.001  0.798 -0.002 -0.000
  0.020  0.000 -0.002  0.940 -0.000
  0.000 -0.005 -0.000 -0.000  0.552
N of occupied +U levels =  57.4204438
 --- exit write_ns ---

[...]

          k = 0.2500-0.4870 0.0000 ( 30468 PWs)   bands (ev):

[...]

          k =-0.2500 0.2435 0.0000 ( 30434 PWs)   bands (ev):

   -74.1179 -74.1098 -73.8477 -73.8341 -73.7746 -73.5618 -73.5456 -73.5381
   -44.2731 -44.1387 -44.1179 -44.1049 -44.0679 -44.0596 -44.0224 -44.0106
   -44.0024 -43.9236 -43.8570 -43.7999 -43.7606 -43.7400 -43.6856 -43.6275
   -43.6213 -43.5084 -43.4714 -43.4396 -43.4173 -43.4024 -43.3795 -43.3686
   -23.2312 -20.5042 -20.0797 -19.9716 -19.9288 -19.7165 -19.4857 -19.3922
   -19.2839 -19.2408 -19.2010 -19.1546 -18.9721 -18.9446 -18.8818 -18.8124
   -18.7699 -18.7328 -18.4613 -16.9848  -8.7553  -8.5063  -8.1868  -8.1627
    -8.1419  -7.8900  -7.8374  -7.5790  -7.5360  -7.4014  -7.3594  -7.2590
    -7.2283  -7.1354  -7.0963  -7.0462  -6.9678  -6.8790  -6.8160  -6.5553
    -6.3836  -6.3437  -6.1378  -6.0522  -5.9653  -5.7654  -5.5832  -5.4776
    -5.3891  -5.2380  -5.1335  -5.0703  -5.0021  -4.9166  -4.8759  -4.7899
    -4.6913  -4.6212  -4.5945  -4.4652  -4.4369  -4.3826  -4.3010  -4.1211
    -4.0229  -3.8118  -3.7211  -3.6924  -3.5752  -3.5220  -3.4459  -3.3756
    -3.1696  -3.0982  -3.0007  -2.7503  -2.6917  -2.3997  -2.0897  -1.8803
    -1.6388  -1.5249  -1.4460  -1.3721  -1.3002  -1.2842  -1.2060  -1.1534
    -1.0993  -1.0882  -1.0025  -0.9694  -0.8237  -0.6575  -0.5580  -0.3277
    -0.2006  -0.1273   0.0605   0.1970   0.2690   0.3751   0.5581   1.2775
     1.9207   2.0346   2.1481   2.2058   2.7027   3.0142   3.1017   3.3049
     3.5089   3.6208   3.7051   3.7640   3.8536   3.9278   4.1269   4.1469
     4.3445   4.5563   4.7340   5.2465   5.6438   5.8047   6.0938   6.1261
     6.1994   6.5214   6.5784   6.7308   6.9172   7.1150   7.1500   7.4643
     7.6269   7.7558   7.9508   8.0806   8.1466   8.4144   8.4603   8.5812
     8.6726   8.7674   8.9366   9.0254   9.1159   9.2598   9.3764   9.4405
     9.6070   9.6938   9.7298   9.8635  10.0470  10.1069  10.1729  10.2630
    10.3019  10.4312  10.5203  10.6200  10.6606  10.7714  10.8367  10.9591
    11.0175  11.1563  11.2719  11.3727  11.4003  11.5494  11.6044  11.7038
    11.7946  11.8835  11.9988  12.0088  12.0613  12.1238  12.2042  12.2522
    12.3748  12.4075  12.5160  12.6163  12.7108  12.7551  12.8159  12.8751
    12.9293  12.9896  13.0779  13.1930  13.2336  13.3224  13.3830  13.4605
    13.5555  13.6715  13.7775  13.8362  13.9307  13.9728  14.0234  14.1453
    14.2266  14.2957  14.4304  14.4782  14.5837  14.6729  14.7352  14.7761
    14.8533  14.9132  15.0184  15.0871  15.1933  15.2262  15.3165  15.3392
    15.4406  15.5073  15.5554  15.6336  15.7004  15.7968  15.8427  15.9015
    15.9477  16.0094  16.0736  16.1313  16.1758  16.2155  16.2829  16.3081
    16.3963  16.4402  16.5609  16.6291  16.7053  16.7553  16.7932  16.8967
    16.9398  16.9789  17.0461  17.1349  17.2600  17.3337  17.3589  17.4673
    17.5092  17.5447  17.5799  17.6739  17.7622  17.7952  17.8355  17.9076
    17.9970  18.0198  18.0723  18.1066  18.2078  18.2519  18.3156  18.3957
    18.4480  18.4976  18.6237  18.7010  18.7774  18.8674  18.8763  18.9545
    19.0464  19.1315  19.2154  19.2644  19.3060  19.4195  19.4981  19.6007
    19.6419  19.7170  19.7896  19.8375  19.8919  19.9622  20.0225  20.1406
    20.2172  20.2465  20.3116  20.4992  20.5592  20.5886  20.6385  20.7346
    20.8827  20.9287  20.9497  20.9880  21.0485  21.0938  21.1512  21.2467
    21.3136  21.3575  21.4222  21.4690  21.5123  21.5744  21.6133  21.6730
    21.7468  21.8165  21.8866  21.9283  21.9536  22.0562  22.0735  22.1310
    22.2100  22.3049  22.3377  22.4237  22.4679  22.5186  22.6330

     the Fermi energy is    -0.5220 ev

!    total energy              =   -2195.93124540 Ry
     Harris-Foulkes estimate   =   -2195.93124540 Ry
     estimated scf accuracy    <          5.2E-09 Ry

     The total energy is the sum of the following terms:

     one-electron contribution =  -25627.84542120 Ry
     hartree contribution      =   12842.84950132 Ry
     xc contribution           =    -345.54565937 Ry
     ewald contribution        =   10933.80614662 Ry
     Hubbard energy            =       0.80477869 Ry
     smearing contrib. (-TS)   =      -0.00059146 Ry

     convergence has been achieved in  17 iterations

     Forces acting on atoms (Ry/au):

     negative rho (up, down):  0.577E+00 0.000E+00
     atom    1 type  1   force =    -0.00325729   -0.00936728    0.00074173
     atom    2 type  1   force =    -0.00020682    0.00623245   -0.00027676
     atom    3 type  2   force =     0.03400127    0.00026901   -0.00036275
     atom    4 type  2   force =     0.00308264    0.00543639    0.00034625
     atom    5 type  1   force =     0.00186854   -0.03143203   -0.00043443
     atom    6 type  1   force =     0.00228496    0.03330132   -0.00054451
     atom    7 type  1   force =     0.00022964   -0.00518633   -0.00093453
     atom    8 type  1   force =    -0.00004061    0.00033437    0.00093436
     atom    9 type  2   force =    -0.01460413    0.00012244   -0.00029187
     atom   10 type  2   force =     0.00005047    0.00176325    0.00051078
     atom   11 type  1   force =    -0.01081492    0.01295378    0.00015322
     atom   12 type  1   force =    -0.00428915   -0.00936301    0.00049528
     atom   13 type  1   force =    -0.00167322   -0.00212168   -0.00017550
     atom   14 type  1   force =    -0.00405435   -0.01013907    0.00083116
     atom   15 type  1   force =    -0.00012259    0.00573121   -0.00019479
     atom   16 type  2   force =    -0.03449548    0.00025541   -0.00028342
     atom   17 type  2   force =     0.00276827    0.00552095    0.00023646
     atom   18 type  1   force =    -0.00003109   -0.03167779   -0.00048743
     atom   19 type  1   force =     0.00024268    0.03343566   -0.00053393
     atom   20 type  1   force =     0.00006610   -0.00480310   -0.00026701
     atom   21 type  1   force =     0.00015008    0.00056672    0.00086670
     atom   22 type  2   force =     0.01631039   -0.00070273   -0.00021804
     atom   23 type  2   force =     0.00025689    0.00154323   -0.00038205
     atom   24 type  1   force =     0.01075376    0.01317081    0.00017258
     atom   25 type  1   force =     0.00420788   -0.00945738    0.00039230
     atom   26 type  1   force =    -0.00155301   -0.00698084   -0.00033545
     atom   27 type  3   force =     0.00001273   -0.00002627   -0.00010934
     atom   28 type  3   force =     0.00001936    0.00003798    0.00000364
     atom   29 type  3   force =    -0.00054428   -0.00011956   -0.00037916
     atom   30 type  3   force =    -0.00055618   -0.00012642   -0.00030794
     atom   31 type  1   force =     0.00017447    0.00031090    0.00040297
     atom   32 type  1   force =    -0.00025169    0.00005367    0.00030742
     atom   33 type  3   force =     0.00001469    0.00046394    0.00012405

     Total force =     0.002833     Total SCF correction =     0.000123

     entering subroutine stress ...

     negative rho (up, down):  0.577E+00 0.000E+00
          total   stress  (Ry/bohr**3)                   (kbar)     P=   -6.68
  -0.00005008   0.00000195   0.00000236         -7.37      0.29      0.35
   0.00000195  -0.00004806   0.00000243          0.29     -7.07      0.36
   0.00000236   0.00000243  -0.00003814          0.35      0.36     -5.61

     bfgs converged in  13 scf cycles and  12 bfgs steps
     (criteria: energy < 0.10E-03, force < 0.10E-02)

     End of BFGS Geometry Optimization

     Final energy   =   -2195.9312453999 Ry
Begin final coordinates

ATOMIC_POSITIONS (crystal)
O0       0.000000000   0.000000000   0.378138104    0   0   1
O0       0.000000000   0.500000000   0.404980990    0   0   1
Ru1      0.250000000   0.500000000   0.455013835    0   0   1
Ru1      0.000000000   0.000000000   0.451918863    0   0   1
O0       0.250000000   0.810000000   0.452527765    0   0   1
O0       0.250000000   0.190000000   0.452554611    0   0   1
O0       0.000000000   0.500000000   0.499793238    0   0   1
O0       0.000000000   0.000000000   0.525382242    0   0   1
Ru1      0.250000000   0.000000000   0.575860723    0   0   1
Ru1      0.000000000   0.500000000   0.569922421    0   0   1
O0       0.250000000   0.690000000   0.574978357    0   0   1
O0       0.250000000   0.310000000   0.576983512    0   0   1
O0       0.000000000   0.000000000   0.617795165    0   0   1
O0       0.500000000   0.000000000   0.378226548    0   0   1
O0       0.500000000   0.500000000   0.404391568    0   0   1
Ru1      0.750000000   0.500000000   0.455012499    0   0   1
Ru1      0.500000000   0.000000000   0.452131518    0   0   1
O0       0.750000000   0.810000000   0.452546946    0   0   1
O0       0.750000000   0.190000000   0.452550267    0   0   1
O0       0.500000000   0.500000000   0.501794701    0   0   1
O0       0.500000000   0.000000000   0.525506431    0   0   1
Ru1      0.750000000   0.000000000   0.575890395    0   0   1
Ru1      0.500000000   0.500000000   0.577805024    0   0   1
O0       0.750000000   0.690000000   0.574993216    0   0   1
O0       0.750000000   0.310000000   0.576915242    0   0   1
O0       0.500000000   0.000000000   0.615523088    0   0   1
H2      -0.000498466   0.621475101   0.381977540
H2       0.499613571   0.626451309   0.382972446
H2       0.146833144   0.028329525   0.365914867
H2       0.646350585   0.029733431   0.365932285
O0       0.500620554   0.528633809   0.650197800
O0       0.499458148   0.335751775   0.678987068
H2       0.499923014   0.394948144   0.713500724
End final coordinates

     General routines

     Parallel routines
     Hubbard U routines

   This run was terminated on:  12:35:40   6Jun2014

   JOB DONE.
Running PBS batch system epilogue script
Job id: 381402.audhumbla.fysik.dtu.dk
Username: zhonxu
Groupname: campgst
Jobname: RuO2/Eads-2-layers/OOH-U-1.5
Sessionid: 10200
Queuename: verylong
Accounting:
This job has allocated the following 16 nodes:
c064 c064 c064 c064 c064 c064 c064 c064 c043 c043 c043 c043 c043 c043 c043 c043
Finished epilogue job 381402.audhumbla.fysik.dtu.dk for zhonxu