     Program PWSCF v.5.0.2 (svn rev. 9656) starts on 24Jan2014 at 15:14:12

     Current dimensions of program PWSCF are:
     Max number of different atomic species (ntypx) = 10
     Max number of k-points (npk) =  40000
     Max angular momentum in pseudopotentials (lmaxx) =  3
     Reading input from RuO2-v-1.00.in

     Subspace diagonalization in iterative solution of the eigenvalue problem:
     a serial algorithm will be used

     bravais-lattice index     =            0
     lattice parameter (alat)  =       8.7567  a.u.
     unit-cell volume          =     432.7167 (a.u.)^3
     number of atoms/cell      =            6
     number of atomic types    =            2
     number of electrons       =        56.00
     number of Kohn-Sham states=           81
     kinetic-energy cutoff     =      40.0000  Ry
     charge density cutoff     =     500.0000  Ry
     convergence threshold     =      1.0E-06
     mixing beta               =       0.3000
     number of iterations used =            8  plain     mixing
     Exchange-correlation      = SLA  PW   PBE  PBE ( 1 4 3 4 0)
     EXX-fraction              =        0.00
     nstep                     =           50

     celldm(1)=   8.756678  celldm(2)=   0.000000  celldm(3)=   0.000000
     celldm(4)=   0.000000  celldm(5)=   0.000000  celldm(6)=   0.000000

     crystal axes: (cart. coord. in units of alat)
               a(1) = (   1.000000   0.000000   0.000000 )
               a(2) = (   0.000000   1.000000   0.000000 )
               a(3) = (   0.000000   0.000000   0.644444 )

     reciprocal axes: (cart. coord. in units 2 pi/alat)
               b(1) = (  1.000000  0.000000  0.000000 )
               b(2) = (  0.000000  1.000000  0.000000 )
               b(3) = (  0.000000  0.000000  1.551724 )

     PseudoPot. # 1 for Ru read from file:
     /home/camp/zhonxu/pseudo/ru_pbe_v1.uspp.F.UPF
     MD5 check sum: df00be1c11b23341d9806d8f1dfa10cf
     Pseudo is Ultrasoft + core correction, Zval = 16.0
     Generated by new atomic code, or converted to UPF format
     Using radial grid of  967 points,  6 beta functions with:
                l(1) =   0
                l(2) =   0
                l(3) =   1
                l(4) =   1
                l(5) =   2
                l(6) =   2
     Q(r) pseudized with  8 coefficients,  rinner =    1.300   1.300   1.300
                                                       1.300   1.300

     PseudoPot. # 2 for O  read from file:
     /home/camp/zhonxu/pseudo/o_pbe_v1.01.uspp.F.UPF
     MD5 check sum: 2bcb18d16ea4b960afae9ec6d52f22d2
     Pseudo is Ultrasoft + core correction, Zval =  6.0
     Generated by new atomic code, or converted to UPF format
     Using radial grid of  737 points,  5 beta functions with:
                l(1) =   0
                l(2) =   0
                l(3) =   1
                l(4) =   1
                l(5) =   2
     Q(r) pseudized with  8 coefficients,  rinner =    0.900   0.900   0.900
                                                       0.900   0.900

     atomic species   valence    mass     pseudopotential
        Ru0           16.00   101.07000     Ru( 1.00)
        O1             6.00    15.99940     O ( 1.00)

     Starting magnetic structure
     atomic species   magnetization
        Ru0          0.600
        O1           0.000

      8 Sym. Ops., with inversion, found
          (note:  8 additional sym.ops. were found but ignored
           their fractional translations are incommensurate with FFT grid)

   Cartesian axes

     site n.     atom                  positions (alat units)
         1           Ru0 tau(   1) = (   0.0000000   0.0000000   0.0000000  )
         2           Ru0 tau(   2) = (   0.5000000   0.5000000   0.3222222  )
         3           O1  tau(   3) = (   0.3050000   0.3050000   0.0000000  )
         4           O1  tau(   4) = (  -0.3050000  -0.3050000   0.0000000  )
         5           O1  tau(   5) = (   0.8050000   0.1950000   0.3222222  )
         6           O1  tau(   6) = (   0.1950000   0.8050000   0.3222222  )

     number of k points=    54  Methfessel-Paxton smearing, width (Ry)=  0.0100
                       cart. coord. in units 2pi/alat
        k(    1) = (   0.0000000   0.0000000   0.0000000), wk =   0.0080000
        k(    2) = (   0.0000000   0.0000000   0.3103448), wk =   0.0160000
        k(    3) = (   0.0000000   0.0000000   0.6206897), wk =   0.0160000
        k(    4) = (   0.0000000   0.2000000   0.0000000), wk =   0.0320000
        k(    5) = (   0.0000000   0.2000000   0.3103448), wk =   0.0640000
        k(    6) = (   0.0000000   0.2000000   0.6206897), wk =   0.0640000
        k(    7) = (   0.0000000   0.4000000   0.0000000), wk =   0.0320000
        k(    8) = (   0.0000000   0.4000000   0.3103448), wk =   0.0640000
        k(    9) = (   0.0000000   0.4000000   0.6206897), wk =   0.0640000
        k(   10) = (   0.2000000   0.2000000   0.0000000), wk =   0.0160000
        k(   11) = (   0.2000000   0.2000000   0.3103448), wk =   0.0320000
        k(   12) = (   0.2000000   0.2000000   0.6206897), wk =   0.0320000
        k(   13) = (   0.2000000   0.4000000   0.0000000), wk =   0.0320000
        k(   14) = (   0.2000000   0.4000000   0.3103448), wk =   0.0640000
        k(   15) = (   0.2000000   0.4000000   0.6206897), wk =   0.0640000
        k(   16) = (   0.4000000   0.4000000   0.0000000), wk =   0.0160000
        k(   17) = (   0.4000000   0.4000000   0.3103448), wk =   0.0320000
        k(   18) = (   0.4000000   0.4000000   0.6206897), wk =   0.0320000
        k(   19) = (  -0.2000000   0.2000000   0.0000000), wk =   0.0160000
        k(   20) = (  -0.2000000   0.2000000  -0.3103448), wk =   0.0320000
        k(   21) = (  -0.2000000   0.2000000  -0.6206897), wk =   0.0320000
        k(   22) = (  -0.2000000   0.4000000   0.0000000), wk =   0.0320000
        k(   23) = (  -0.2000000   0.4000000  -0.3103448), wk =   0.0640000
        k(   24) = (  -0.2000000   0.4000000  -0.6206897), wk =   0.0640000
        k(   25) = (  -0.4000000   0.4000000   0.0000000), wk =   0.0160000
        k(   26) = (  -0.4000000   0.4000000  -0.3103448), wk =   0.0320000
        k(   27) = (  -0.4000000   0.4000000  -0.6206897), wk =   0.0320000
        k(   28) = (   0.0000000   0.0000000   0.0000000), wk =   0.0080000
        k(   29) = (   0.0000000   0.0000000   0.3103448), wk =   0.0160000
        k(   30) = (   0.0000000   0.0000000   0.6206897), wk =   0.0160000
        k(   31) = (   0.0000000   0.2000000   0.0000000), wk =   0.0320000
        k(   32) = (   0.0000000   0.2000000   0.3103448), wk =   0.0640000
        k(   33) = (   0.0000000   0.2000000   0.6206897), wk =   0.0640000
        k(   34) = (   0.0000000   0.4000000   0.0000000), wk =   0.0320000
        k(   35) = (   0.0000000   0.4000000   0.3103448), wk =   0.0640000
        k(   36) = (   0.0000000   0.4000000   0.6206897), wk =   0.0640000
        k(   37) = (   0.2000000   0.2000000   0.0000000), wk =   0.0160000
        k(   38) = (   0.2000000   0.2000000   0.3103448), wk =   0.0320000
        k(   39) = (   0.2000000   0.2000000   0.6206897), wk =   0.0320000
        k(   40) = (   0.2000000   0.4000000   0.0000000), wk =   0.0320000
        k(   41) = (   0.2000000   0.4000000   0.3103448), wk =   0.0640000
        k(   42) = (   0.2000000   0.4000000   0.6206897), wk =   0.0640000
        k(   43) = (   0.4000000   0.4000000   0.0000000), wk =   0.0160000
        k(   44) = (   0.4000000   0.4000000   0.3103448), wk =   0.0320000
        k(   45) = (   0.4000000   0.4000000   0.6206897), wk =   0.0320000
        k(   46) = (  -0.2000000   0.2000000   0.0000000), wk =   0.0160000
        k(   47) = (  -0.2000000   0.2000000  -0.3103448), wk =   0.0320000
        k(   48) = (  -0.2000000   0.2000000  -0.6206897), wk =   0.0320000
        k(   49) = (  -0.2000000   0.4000000   0.0000000), wk =   0.0320000
        k(   50) = (  -0.2000000   0.4000000  -0.3103448), wk =   0.0640000
        k(   51) = (  -0.2000000   0.4000000  -0.6206897), wk =   0.0640000
        k(   52) = (  -0.4000000   0.4000000   0.0000000), wk =   0.0160000
        k(   53) = (  -0.4000000   0.4000000  -0.3103448), wk =   0.0320000
        k(   54) = (  -0.4000000   0.4000000  -0.6206897), wk =   0.0320000

     Largest allocated arrays     est. size (Mb)     dimensions
     Largest temporary arrays     est. size (Mb)     dimensions

     Check: negative/imaginary core charge=   -0.000008    0.000000

     Initial potential from superposition of free atoms
     Check: negative starting charge=(component1):   -0.104012
     Check: negative starting charge=(component2):   -0.025692

     starting charge   53.99996, renormalised to   56.00000

     negative rho (up, down):  0.108E+00 0.266E-01
     Starting wfc are   42 randomized atomic wfcs

     Self-consistent Calculation

     iteration #  1     ecut=    40.00 Ry     beta=0.30
     Davidson diagonalization with overlap
     ethr =  1.00E-02,  avg # of iterations =  5.3

     negative rho (up, down):  0.910E-01 0.518E-01

     total energy              =    -514.01169417 Ry
     Harris-Foulkes estimate   =    -515.13364333 Ry
     estimated scf accuracy    <       4.58397569 Ry

     total magnetization       =     7.92 Bohr mag/cell
     absolute magnetization    =     8.00 Bohr mag/cell

[...]

     End of self-consistent calculation

 ------ SPIN UP ------------

          k = 0.0000 0.0000 0.0000 (  1875 PWs)   bands (ev):

   -60.9322 -60.9258 -31.0433 -31.0402 -30.8718 -30.8678 -30.7432 -30.7238
    -7.4243  -6.4235  -5.5864  -5.5854   4.3326   4.4055   5.5781   5.9925
     5.9942   8.2826   8.2826   8.8073   9.9931  10.2607  10.2609  10.5302
    10.7988  11.3916  11.4295  11.4334  11.5886  13.8720  14.3405  17.1795
    17.1817  18.2160  18.6121  22.4737  22.4741  25.7633  27.0530  27.1417
    28.4389  29.8711  29.8717  30.0765  31.7549  33.3694  34.2009  34.2009
    35.3592  35.3599  36.6257  38.4278  38.7370  38.7378  39.7444  41.4844
    41.7710  42.0568  42.5027  43.3213  43.5286  43.5287  44.2939  44.2943
    44.9950  45.0809  45.0810  47.2484  48.6239  50.3706  50.3714  50.4706
    50.9279  51.4363  51.4369  52.2915  52.3554  52.3965  52.4137  52.4142
    53.9851

[...]

          k =-0.2000 0.2000 0.0000 (  1851 PWs)   bands (ev):

[...]

 ------ SPIN DOWN ----------

[...]

     the Fermi energy is    12.7868 ev

!    total energy              =    -515.58005009 Ry
     Harris-Foulkes estimate   =    -515.58004997 Ry
     estimated scf accuracy    <       0.00000022 Ry

     The total energy is the sum of the following terms:

     one-electron contribution =    -174.99235889 Ry
     hartree contribution      =     118.82053990 Ry
     xc contribution           =     -78.48111312 Ry
     ewald contribution        =    -380.92702446 Ry
     smearing contrib. (-TS)   =      -0.00009352 Ry

[...]

     convergence has been achieved in  16 iterations

     Forces acting on atoms (Ry/au):

     negative rho (up, down):  0.703E-01 0.745E-01
     atom    1 type  1   force =     0.00000000    0.00000000    0.00000000
     atom    2 type  1   force =     0.00000000    0.00000000    0.00000000
[...]
        k(   12) = (   0.2044657   0.2044657   0.5938745), wk =   0.0320000
        k(   13) = (   0.2044659   0.4089311   0.0000000), wk =   0.0320000
        k(   14) = (   0.2044659   0.4089311   0.2969372), wk =   0.0640000
        k(   15) = (   0.2044659   0.4089311   0.5938745), wk =   0.0640000
        k(   16) = (   0.4089314   0.4089314   0.0000000), wk =   0.0160000
        k(   17) = (   0.4089314   0.4089314   0.2969372), wk =   0.0320000
        k(   18) = (   0.4089314   0.4089314   0.5938745), wk =   0.0320000
        k(   19) = (  -0.2044652   0.2044652   0.0000000), wk =   0.0160000
        k(   20) = (  -0.2044652   0.2044652  -0.2969372), wk =   0.0320000
        k(   21) = (  -0.2044652   0.2044652  -0.5938745), wk =   0.0320000
        k(   22) = (  -0.2044650   0.4089306   0.0000000), wk =   0.0320000
        k(   23) = (  -0.2044650   0.4089306  -0.2969372), wk =   0.0640000
        k(   24) = (  -0.2044650   0.4089306  -0.5938745), wk =   0.0640000
        k(   25) = (  -0.4089304   0.4089304   0.0000000), wk =   0.0160000
        k(   26) = (  -0.4089304   0.4089304  -0.2969372), wk =   0.0320000
        k(   27) = (  -0.4089304   0.4089304  -0.5938745), wk =   0.0320000
        k(   28) = (   0.0000000   0.0000000   0.0000000), wk =   0.0080000
        k(   29) = (   0.0000000   0.0000000   0.2969372), wk =   0.0160000
        k(   30) = (   0.0000000   0.0000000   0.5938745), wk =   0.0160000
        k(   31) = (   0.0000002   0.2044654   0.0000000), wk =   0.0320000
        k(   32) = (   0.0000002   0.2044654   0.2969372), wk =   0.0640000
        k(   33) = (   0.0000002   0.2044654   0.5938745), wk =   0.0640000
        k(   34) = (   0.0000005   0.4089309   0.0000000), wk =   0.0320000
        k(   35) = (   0.0000005   0.4089309   0.2969372), wk =   0.0640000
        k(   36) = (   0.0000005   0.4089309   0.5938745), wk =   0.0640000
        k(   37) = (   0.2044657   0.2044657   0.0000000), wk =   0.0160000
        k(   38) = (   0.2044657   0.2044657   0.2969372), wk =   0.0320000
        k(   39) = (   0.2044657   0.2044657   0.5938745), wk =   0.0320000
        k(   40) = (   0.2044659   0.4089311   0.0000000), wk =   0.0320000
        k(   41) = (   0.2044659   0.4089311   0.2969372), wk =   0.0640000
        k(   42) = (   0.2044659   0.4089311   0.5938745), wk =   0.0640000
        k(   43) = (   0.4089314   0.4089314   0.0000000), wk =   0.0160000
        k(   44) = (   0.4089314   0.4089314   0.2969372), wk =   0.0320000
        k(   45) = (   0.4089314   0.4089314   0.5938745), wk =   0.0320000
        k(   46) = (  -0.2044652   0.2044652   0.0000000), wk =   0.0160000
        k(   47) = (  -0.2044652   0.2044652  -0.2969372), wk =   0.0320000
        k(   48) = (  -0.2044652   0.2044652  -0.5938745), wk =   0.0320000
        k(   49) = (  -0.2044650   0.4089306   0.0000000), wk =   0.0320000
        k(   50) = (  -0.2044650   0.4089306  -0.2969372), wk =   0.0640000
        k(   51) = (  -0.2044650   0.4089306  -0.5938745), wk =   0.0640000
        k(   52) = (  -0.4089304   0.4089304   0.0000000), wk =   0.0160000
        k(   53) = (  -0.4089304   0.4089304  -0.2969372), wk =   0.0320000
        k(   54) = (  -0.4089304   0.4089304  -0.5938745), wk =   0.0320000

     Check: negative/imaginary core charge=   -0.000008    0.000000
     Check: negative starting charge=(component1):   -0.130833

[...]

     Threshold (ethr) on eigenvalues was too large:
     Diagonalizing with lowered threshold

     Davidson diagonalization with overlap
     ethr =  2.28E-10,  avg # of iterations =  2.6

[...]

     Volume is kept fixed: isostatic pressure set to zero

     bfgs converged in   8 scf cycles and   7 bfgs steps
     (criteria: energy < 0.10E-03, force < 0.10E-02, cell < 0.50E+00)

     End of BFGS Geometry Optimization

     Final enthalpy =    -515.5927071868 Ry
Begin final coordinates
     new unit-cell volume =    432.71671 a.u.^3 (    64.12200 Ang^3 )

CELL_PARAMETERS (alat=  8.75667828)
   0.978160418  -0.000001142   0.000000000
  -0.000001142   0.978160418   0.000000000
   0.000000000   0.000000000   0.673542980

ATOMIC_POSITIONS (crystal)
Ru0      0.000000000   0.000000000   0.000000000    0   0   0
Ru0      0.500000000   0.500000000   0.500000000    0   0   0
O1       0.305918161   0.305918161   0.000000000    1   1   0
O1      -0.305918161  -0.305918161   0.000000000    1   1   0
O1       0.805918328   0.194081672   0.500000000    1   1   0
O1       0.194081672   0.805918328   0.500000000    1   1   0
End final coordinates

     A final scf calculation at the relaxed structure.
     The G-vectors are recalculated for the final unit cell
     Results may differ from those at the preceding step.

     bravais-lattice index     =            0
     lattice parameter (alat)  =       8.7567  a.u.
     unit-cell volume          =     432.7167 (a.u.)^3
     number of atoms/cell      =            6
     number of atomic types    =            2
     number of electrons       =        56.00
     number of Kohn-Sham states=           81
     kinetic-energy cutoff     =      40.0000  Ry
     charge density cutoff     =     500.0000  Ry
     convergence threshold     =      1.0E-08
     mixing beta               =       0.3000
     number of iterations used =            8  plain     mixing
     Exchange-correlation      = SLA  PW   PBE  PBE ( 1 4 3 4 0)
     EXX-fraction              =        0.00

     celldm(1)=   8.756678  celldm(2)=   0.000000  celldm(3)=   0.000000
     celldm(4)=   0.000000  celldm(5)=   0.000000  celldm(6)=   0.000000

     crystal axes: (cart. coord. in units of alat)
               a(1) = (   0.978160  -0.000001   0.000000 )
               a(2) = (  -0.000001   0.978160   0.000000 )
               a(3) = (   0.000000   0.000000   0.673543 )

     reciprocal axes: (cart. coord. in units 2 pi/alat)
               b(1) = (  1.022327  0.000001 -0.000000 )
               b(2) = (  0.000001  1.022327 -0.000000 )
               b(3) = ( -0.000000 -0.000000  1.484686 )

     PseudoPot. # 1 for Ru read from file:
     /home/camp/zhonxu/pseudo/ru_pbe_v1.uspp.F.UPF
     MD5 check sum: df00be1c11b23341d9806d8f1dfa10cf
     Pseudo is Ultrasoft + core correction, Zval = 16.0
     Generated by new atomic code, or converted to UPF format
     Using radial grid of  967 points,  6 beta functions with:
                l(1) =   0
                l(2) =   0
                l(3) =   1
                l(4) =   1
                l(5) =   2
                l(6) =   2
     Q(r) pseudized with  8 coefficients,  rinner =    1.300   1.300   1.300
                                                       1.300   1.300

     PseudoPot. # 2 for O  read from file:
     /home/camp/zhonxu/pseudo/o_pbe_v1.01.uspp.F.UPF
     MD5 check sum: 2bcb18d16ea4b960afae9ec6d52f22d2
     Pseudo is Ultrasoft + core correction, Zval =  6.0
     Generated by new atomic code, or converted to UPF format
     Using radial grid of  737 points,  5 beta functions with:
                l(1) =   0
                l(2) =   0
                l(3) =   1
                l(4) =   1
                l(5) =   2
     Q(r) pseudized with  8 coefficients,  rinner =    0.900   0.900   0.900
                                                       0.900   0.900

     atomic species   valence    mass     pseudopotential
        Ru0           16.00   101.07000     Ru( 1.00)
        O1             6.00    15.99940     O ( 1.00)

     Starting magnetic structure
     atomic species   magnetization
        Ru0          0.600
        O1           0.000

      8 Sym. Ops., with inversion, found
          (note:  8 additional sym.ops. were found but ignored
           their fractional translations are incommensurate with FFT grid)

   Cartesian axes

     site n.     atom                  positions (alat units)
         1           Ru0 tau(   1) = (   0.0000000   0.0000000   0.0000000  )
         2           Ru0 tau(   2) = (   0.4890796   0.4890796   0.3367715  )
         3           O1  tau(   3) = (   0.2992367   0.2992367   0.0000000  )
         4           O1  tau(   4) = (  -0.2992367  -0.2992367   0.0000000  )
         5           O1  tau(   5) = (   0.7883172   0.1898421   0.3367715  )
         6           O1  tau(   6) = (   0.1898421   0.7883172   0.3367715  )

     number of k points=    54  Methfessel-Paxton smearing, width (Ry)=  0.0100
                       cart. coord. in units 2pi/alat
        k(    1) = (   0.0000000   0.0000000   0.0000000), wk =   0.0080000
        k(    2) = (   0.0000000   0.0000000   0.2969372), wk =   0.0160000
        k(    3) = (   0.0000000   0.0000000   0.5938745), wk =   0.0160000
        k(    4) = (   0.0000002   0.2044654   0.0000000), wk =   0.0320000
        k(    5) = (   0.0000002   0.2044654   0.2969372), wk =   0.0640000
        k(    6) = (   0.0000002   0.2044654   0.5938745), wk =   0.0640000
        k(    7) = (   0.0000005   0.4089309   0.0000000), wk =   0.0320000
        k(    8) = (   0.0000005   0.4089309   0.2969372), wk =   0.0640000
        k(    9) = (   0.0000005   0.4089309   0.5938745), wk =   0.0640000
        k(   10) = (   0.2044657   0.2044657   0.0000000), wk =   0.0160000
        k(   11) = (   0.2044657   0.2044657   0.2969372), wk =   0.0320000
        k(   12) = (   0.2044657   0.2044657   0.5938745), wk =   0.0320000
        k(   13) = (   0.2044659   0.4089311   0.0000000), wk =   0.0320000
        k(   14) = (   0.2044659   0.4089311   0.2969372), wk =   0.0640000
        k(   15) = (   0.2044659   0.4089311   0.5938745), wk =   0.0640000
        k(   16) = (   0.4089314   0.4089314   0.0000000), wk =   0.0160000
        k(   17) = (   0.4089314   0.4089314   0.2969372), wk =   0.0320000
        k(   18) = (   0.4089314   0.4089314   0.5938745), wk =   0.0320000
        k(   19) = (  -0.2044652   0.2044652   0.0000000), wk =   0.0160000
        k(   20) = (  -0.2044652   0.2044652  -0.2969372), wk =   0.0320000
        k(   21) = (  -0.2044652   0.2044652  -0.5938745), wk =   0.0320000
        k(   22) = (  -0.2044650   0.4089306   0.0000000), wk =   0.0320000
        k(   23) = (  -0.2044650   0.4089306  -0.2969372), wk =   0.0640000
        k(   24) = (  -0.2044650   0.4089306  -0.5938745), wk =   0.0640000
        k(   25) = (  -0.4089304   0.4089304   0.0000000), wk =   0.0160000
        k(   26) = (  -0.4089304   0.4089304  -0.2969372), wk =   0.0320000
        k(   27) = (  -0.4089304   0.4089304  -0.5938745), wk =   0.0320000
        k(   28) = (   0.0000000   0.0000000   0.0000000), wk =   0.0080000
        k(   29) = (   0.0000000   0.0000000   0.2969372), wk =   0.0160000
        k(   30) = (   0.0000000   0.0000000   0.5938745), wk =   0.0160000
        k(   31) = (   0.0000002   0.2044654   0.0000000), wk =   0.0320000
        k(   32) = (   0.0000002   0.2044654   0.2969372), wk =   0.0640000
        k(   33) = (   0.0000002   0.2044654   0.5938745), wk =   0.0640000
        k(   34) = (   0.0000005   0.4089309   0.0000000), wk =   0.0320000
        k(   35) = (   0.0000005   0.4089309   0.2969372), wk =   0.0640000
        k(   36) = (   0.0000005   0.4089309   0.5938745), wk =   0.0640000
        k(   37) = (   0.2044657   0.2044657   0.0000000), wk =   0.0160000
        k(   38) = (   0.2044657   0.2044657   0.2969372), wk =   0.0320000
        k(   39) = (   0.2044657   0.2044657   0.5938745), wk =   0.0320000
        k(   40) = (   0.2044659   0.4089311   0.0000000), wk =   0.0320000
        k(   41) = (   0.2044659   0.4089311   0.2969372), wk =   0.0640000
        k(   42) = (   0.2044659   0.4089311   0.5938745), wk =   0.0640000
        k(   43) = (   0.4089314   0.4089314   0.0000000), wk =   0.0160000
        k(   44) = (   0.4089314   0.4089314   0.2969372), wk =   0.0320000
        k(   45) = (   0.4089314   0.4089314   0.5938745), wk =   0.0320000
        k(   46) = (  -0.2044652   0.2044652   0.0000000), wk =   0.0160000
        k(   47) = (  -0.2044652   0.2044652  -0.2969372), wk =   0.0320000
        k(   48) = (  -0.2044652   0.2044652  -0.5938745), wk =   0.0320000
        k(   49) = (  -0.2044650   0.4089306   0.0000000), wk =   0.0320000
        k(   50) = (  -0.2044650   0.4089306  -0.2969372), wk =   0.0640000
        k(   51) = (  -0.2044650   0.4089306  -0.5938745), wk =   0.0640000
        k(   52) = (  -0.4089304   0.4089304   0.0000000), wk =   0.0160000
        k(   53) = (  -0.4089304   0.4089304  -0.2969372), wk =   0.0320000
        k(   54) = (  -0.4089304   0.4089304  -0.5938745), wk =   0.0320000

     Largest allocated arrays     est. size (Mb)     dimensions
     Largest temporary arrays     est. size (Mb)     dimensions

     Check: negative/imaginary core charge=   -0.000008    0.000000

     Initial potential from superposition of free atoms
     Check: negative starting charge=(component1):   -0.104907
     Check: negative starting charge=(component2):   -0.025925

     starting charge   53.99996, renormalised to   56.00000

     negative rho (up, down):  0.109E+00 0.269E-01
     Starting wfc are   42 randomized atomic wfcs

     Self-consistent Calculation

[...]

     total energy              =    -515.59288914 Ry
     Harris-Foulkes estimate   =    -515.59288922 Ry
     estimated scf accuracy    <       0.00000002 Ry

[...]

     iteration # 22     ecut=    40.00 Ry     beta=0.30
     Davidson diagonalization with overlap
     ethr =  3.64E-11,  avg # of iterations =  2.0

     negative rho (up, down):  0.729E-01 0.730E-01

     End of self-consistent calculation

 ------ SPIN UP ------------

[...]

 ------ SPIN DOWN ----------

[...]

          k = 0.4089 0.4089 0.5939 (  1845 PWs)   bands (ev):

[...]

          k =-0.4089 0.4089-0.5939 (  1845 PWs)   bands (ev):

   -60.8286 -60.8273 -31.0541 -31.0534 -30.7966 -30.7959 -30.6378 -30.6366
    -6.2248  -6.1242  -6.0114  -5.9155   5.5931   5.7373   5.8390   5.9549
     6.6720   6.9943   8.0195   8.1007   8.8527   9.0668   9.8778  10.1070
    11.7839  12.1242  12.1893  12.3699  12.7553  13.2546  15.1790  15.7384
    16.3377  16.8641  22.6920  23.0333  24.4113  25.2316  25.4478  26.0711
    26.9128  27.3254  29.9600  30.0985  31.5883  32.0726  33.8815  34.5328
    35.5389  35.8902  36.0952  37.1369  39.7017  39.8082  40.3778  40.8327
    41.8900  42.2514  43.3548  44.2581  44.4492  45.0639  45.3023  46.1302
    46.1644  46.2671  47.1640  47.4545  48.1138  49.0461  49.1030  50.0929
    50.4934  50.7855  50.9243  51.7552  52.0118  53.1660  53.3229  53.8601
    55.7175

     the Fermi energy is    12.6834 ev

!    total energy              =    -515.59288930 Ry
     Harris-Foulkes estimate   =    -515.59288929 Ry
     estimated scf accuracy    <          4.5E-09 Ry

     The total energy is the sum of the following terms:

     one-electron contribution =    -170.06982910 Ry
     hartree contribution      =     116.38842510 Ry
     xc contribution           =     -78.41805288 Ry
     ewald contribution        =    -383.49260700 Ry
     smearing contrib. (-TS)   =      -0.00082541 Ry

     total magnetization       =     0.00 Bohr mag/cell
     absolute magnetization    =     0.00 Bohr mag/cell

     convergence has been achieved in  22 iterations

     Forces acting on atoms (Ry/au):

     negative rho (up, down):  0.729E-01 0.730E-01
     atom    1 type  1   force =     0.00000000    0.00000000    0.00000000
     atom    2 type  1   force =     0.00000000    0.00000000    0.00000000
     atom    3 type  2   force =     0.00020026    0.00020026    0.00000000
     atom    4 type  2   force =    -0.00020026   -0.00020026    0.00000000
     atom    5 type  2   force =     0.00019157   -0.00019157    0.00000000
     atom    6 type  2   force =    -0.00019157    0.00019157    0.00000000

     Total force =     0.000554     Total SCF correction =     0.000089
     SCF correction compared to forces is large: reduce conv_thr to get better values

     entering subroutine stress ...

     negative rho (up, down):  0.729E-01 0.730E-01
          total   stress  (Ry/bohr**3)                   (kbar)     P=  -21.39
  -0.00015117   0.00000011   0.00000000        -22.24      0.02      0.00
   0.00000011  -0.00015117   0.00000000          0.02    -22.24      0.00
   0.00000000   0.00000000  -0.00013391          0.00      0.00    -19.70

     General routines

     Parallel routines

   This run was terminated on:  16: 9:55  24Jan2014

   JOB DONE.
Running PBS batch system epilogue script
Job id: 251900.audhumbla.fysik.dtu.dk
Username: zhonxu
Groupname: campgst
Jobname: RuO2/fine-EOS/ferro/RuO2-v-1.00
Sessionid: 26812
Queuename: verylong
Accounting:
This job has allocated the following 4 nodes:
q015 q015 q015 q015
Finished epilogue job 251900.audhumbla.fysik.dtu.dk for zhonxu