     Program PWSCF v.5.0.2 (svn rev. 9656) starts on 17Apr2014 at  8: 7:45

     Current dimensions of program PWSCF are:
     Max number of different atomic species (ntypx) = 10
     Max number of k-points (npk) =  40000
     Max angular momentum in pseudopotentials (lmaxx) =  3
     Reading input from pwscf.in
Warning: card &CELL ignored
Warning: card / ignored

     Subspace diagonalization in iterative solution of the eigenvalue problem:
     a serial algorithm will be used

     bravais-lattice index     =            0
     lattice parameter (alat)  =      11.7919  a.u.
     unit-cell volume          =    9723.6088 (a.u.)^3
     number of atoms/cell      =           50
     number of atomic types    =            3
     number of electrons       =       455.00
     number of Kohn-Sham states=          658
     kinetic-energy cutoff     =      40.0000  Ry
     charge density cutoff     =     500.0000  Ry
     convergence threshold     =      1.0E-06
     mixing beta               =       0.3000
     number of iterations used =            8  plain     mixing
     Exchange-correlation      = SLA  PW   PBE  PBE ( 1 4 3 4 0)
     EXX-fraction              =        0.00
     nstep                     =           50

     celldm(1)=  11.791891  celldm(2)=   0.000000  celldm(3)=   0.000000
     celldm(4)=   0.000000  celldm(5)=   0.000000  celldm(6)=   0.000000

     crystal axes: (cart. coord. in units of alat)
               a(1) = (   1.000000   0.000000   0.000000 )
               a(2) = (   0.000000   1.026665   0.000000 )
               a(3) = (   0.000000   0.000000   5.776283 )

     reciprocal axes: (cart. coord. in units 2 pi/alat)
               b(1) = (  1.000000  0.000000  0.000000 )
               b(2) = (  0.000000  0.974028  0.000000 )
               b(3) = (  0.000000  0.000000  0.173122 )

     PseudoPot. # 1 for O  read from file:
     /home/camp/zhonxu/pseudo/o_pbe_v1.01.uspp.F.UPF
     MD5 check sum: 2bcb18d16ea4b960afae9ec6d52f22d2
     Pseudo is Ultrasoft + core correction, Zval =  6.0
     Generated by new atomic code, or converted to UPF format
     Using radial grid of  737 points,  5 beta functions with:
                l(1) =   0
                l(2) =   0
                l(3) =   1
                l(4) =   1
                l(5) =   2
     Q(r) pseudized with  8 coefficients,  rinner =    0.900   0.900   0.900
                                                       0.900   0.900

     PseudoPot. # 2 for Ru read from file:
     /home/camp/zhonxu/pseudo/ru_pbe_v1.uspp.F.UPF
     MD5 check sum: df00be1c11b23341d9806d8f1dfa10cf
     Pseudo is Ultrasoft + core correction, Zval = 16.0
     Generated by new atomic code, or converted to UPF format
     Using radial grid of  967 points,  6 beta functions with:
                l(1) =   0
                l(2) =   0
                l(3) =   1
                l(4) =   1
                l(5) =   2
                l(6) =   2
     Q(r) pseudized with  8 coefficients,  rinner =    1.300   1.300   1.300
                                                       1.300   1.300

     PseudoPot. # 3 for H  read from file:
     /home/camp/zhonxu/pseudo/h_pbe_v1.uspp.F.UPF
     MD5 check sum: 3408e3ff4ec8b0a4e358431e7e038a48
     Pseudo is Ultrasoft, Zval =  1.0
     Generated by new atomic code, or converted to UPF format
     Using radial grid of  615 points,  2 beta functions with:
                l(1) =   0
                l(2) =   0
     Q(r) pseudized with  8 coefficients,  rinner =    0.700

     atomic species   valence    mass     pseudopotential
        O0             6.00    15.99940     O ( 1.00)
        Ru1           16.00   101.07000     Ru( 1.00)
        H2             1.00     1.00794     H ( 1.00)

      2 Sym. Ops. (no inversion) found

   Cartesian axes

     site n.     atom                  positions (alat units)
         1           O0  tau(   1) = (   0.0000000   0.5133323   1.9230980  )
         2           Ru1 tau(   2) = (   0.2500000   0.5133323   2.1181631  )
         3           Ru1 tau(   3) = (   0.0000000   0.0000000   2.1181631  )
         4           O0  tau(   4) = (   0.2500000   0.8315984   2.1181631  )
         5           O0  tau(   5) = (   0.2500000   0.1950663   2.1181631  )
         6           O0  tau(   6) = (   0.0000000   0.5133323   2.3132282  )
         7           O0  tau(   7) = (   0.0000000   0.0000000   2.4364363  )
         8           Ru1 tau(   8) = (   0.2500000   0.0000000   2.6315014  )
         9           Ru1 tau(   9) = (   0.0000000   0.5133323   2.6315014  )
        10           O0  tau(  10) = (   0.2500000   0.7083986   2.6315014  )
        11           O0  tau(  11) = (   0.2500000   0.3182660   2.6315014  )
        12           O0  tau(  12) = (   0.0000000   0.0000000   2.8265665  )
        13           O0  tau(  13) = (   0.0000000   0.5133323   2.9427276  )
        14           Ru1 tau(  14) = (   0.2500000   0.5133323   3.1406808  )
        15           Ru1 tau(  15) = (   0.0000000   0.0000000   3.1457639  )
        16           O0  tau(  16) = (   0.2500000   0.8279742   3.1435689  )
        17           O0  tau(  17) = (   0.2500000   0.1986904   3.1435689  )
        18           O0  tau(  18) = (   0.0000000   0.5133323   3.3386918  )
        19           O0  tau(  19) = (   0.0000000   0.0000000   3.4580876  )
        20           Ru1 tau(  20) = (   0.2500000   0.0000000   3.6718101  )
        21           Ru1 tau(  21) = (   0.0000000   0.5133323   3.6403293  )
        22           O0  tau(  22) = (   0.2500000   0.7080495   3.6659760  )
        23           O0  tau(  23) = (   0.2500000   0.3186151   3.6659760  )
        24           O0  tau(  24) = (   0.0000000   0.0000000   3.8466582  )
        25           O0  tau(  25) = (   0.5000000   0.5133323   1.9230980  )
        26           Ru1 tau(  26) = (   0.7500000   0.5133323   2.1181631  )
        27           Ru1 tau(  27) = (   0.5000000   0.0000000   2.1181631  )
        28           O0  tau(  28) = (   0.7500000   0.8315984   2.1181631  )
        29           O0  tau(  29) = (   0.7500000   0.1950663   2.1181631  )
        30           O0  tau(  30) = (   0.5000000   0.5133323   2.3132282  )
        31           O0  tau(  31) = (   0.5000000   0.0000000   2.4364363  )
        32           Ru1 tau(  32) = (   0.7500000   0.0000000   2.6315014  )
        33           Ru1 tau(  33) = (   0.5000000   0.5133323   2.6315014  )
        34           O0  tau(  34) = (   0.7500000   0.7083986   2.6315014  )
        35           O0  tau(  35) = (   0.7500000   0.3182660   2.6315014  )
        36           O0  tau(  36) = (   0.5000000   0.0000000   2.8265665  )
        37           O0  tau(  37) = (   0.5000000   0.5133323   2.9427276  )
        38           Ru1 tau(  38) = (   0.7500000   0.5133323   3.1406808  )
        39           Ru1 tau(  39) = (   0.5000000   0.0000000   3.1457639  )
        40           O0  tau(  40) = (   0.7500000   0.8279742   3.1435689  )
        41           O0  tau(  41) = (   0.7500000   0.1986904   3.1435689  )
        42           O0  tau(  42) = (   0.5000000   0.5133323   3.3386918  )
        43           O0  tau(  43) = (   0.5000000   0.0000000   3.4580876  )
        44           Ru1 tau(  44) = (   0.7500000   0.0000000   3.6718101  )
        45           Ru1 tau(  45) = (   0.5000000   0.5133323   3.6403293  )
        46           O0  tau(  46) = (   0.7500000   0.7080495   3.6659760  )
        47           O0  tau(  47) = (   0.7500000   0.3186151   3.6659760  )
        48           O0  tau(  48) = (   0.5000000   0.0000000   3.8466582  )
        49           O0  tau(  49) = (   0.5142100   0.5133323   3.9519598  )
        50           H2  tau(  50) = (   0.3713400   0.5133323   4.0182138  )

     number of k points=     9  Methfessel-Paxton smearing, width (Ry)=  0.0100
                       cart. coord. in units 2pi/alat
        k(    1) = (   0.0000000   0.0000000   0.0000000), wk =   0.1250000
        k(    2) = (   0.0000000   0.2435070   0.0000000), wk =   0.2500000
        k(    3) = (   0.0000000  -0.4870139   0.0000000), wk =   0.1250000
        k(    4) = (   0.2500000   0.0000000   0.0000000), wk =   0.2500000
        k(    5) = (   0.2500000   0.2435070   0.0000000), wk =   0.5000000
        k(    6) = (   0.2500000  -0.4870139   0.0000000), wk =   0.2500000
        k(    7) = (  -0.5000000   0.0000000   0.0000000), wk =   0.1250000
        k(    8) = (  -0.5000000   0.2435070   0.0000000), wk =   0.2500000
        k(    9) = (  -0.5000000  -0.4870139   0.0000000), wk =   0.1250000

     Largest allocated arrays     est. size (Mb)     dimensions
     Largest temporary arrays     est. size (Mb)     dimensions

     Check: negative/imaginary core charge=   -0.000004    0.000000

     Initial potential from superposition of free atoms
     Check: negative starting charge=   -1.046920

     starting charge  438.99969, renormalised to  455.00000

     negative rho (up, down):  0.109E+01 0.000E+00
     Starting wfc are  341 randomized atomic wfcs

     Self-consistent Calculation

     iteration #  1     ecut=    40.00 Ry     beta=0.30
     Davidson diagonalization with overlap
     ethr =  1.00E-02,  avg # of iterations =  5.7

     negative rho (up, down):  0.115E+01 0.000E+00

     total energy              =   -4019.14483620 Ry
     Harris-Foulkes estimate   =   -4167.49954126 Ry
     estimated scf accuracy    <     294.90290006 Ry

[...]

     End of self-consistent calculation

          k = 0.0000 0.0000 0.0000 ( 41487 PWs)   bands (ev):

   -73.1295 -73.1172 -72.9287 -72.9257 -72.9185 -72.7628 -72.7523 -72.7197
   -72.7013 -72.6944 -72.6872 -72.6530 -72.6442 -72.6423 -72.4461 -72.4331
   -43.2901 -43.1524 -43.1060 -43.1025 -43.0874 -42.9895 -42.9888 -42.9886
   -42.9761 -42.9554 -42.9542 -42.9345 -42.9313 -42.9251 -42.9235 -42.9165
   -42.8821 -42.8577 -42.8422 -42.8292 -42.8096 -42.7999 -42.7792 -42.7739
   -42.7534 -42.7323 -42.6878 -42.6731 -42.6201 -42.6196 -42.6126 -42.5866
   -42.5786 -42.5764 -42.5581 -42.5530 -42.5172 -42.5119 -42.5071 -42.4973
   -42.4944 -42.4754 -42.4620 -42.4540 -42.4116 -42.3767 -42.2894 -42.2578
   -19.2777 -19.0750 -18.8476 -18.7822 -18.6710 -18.5166 -18.4502 -18.2691
   -18.2291 -18.2024 -18.1734 -18.0289 -17.9890 -17.9877 -17.9781 -17.9513
   -17.9100 -17.9020 -17.8901 -17.8386 -17.8332 -17.8074 -17.6923 -17.6606
   -17.5781 -17.4580 -17.4138 -17.4053 -17.3708 -17.3221 -17.1562 -16.6150
   -16.5481  -7.4747  -7.4611  -7.4384  -7.3946  -7.3097  -7.1678  -6.5726
    -6.4286  -6.3524  -6.2502  -6.2433  -6.2018  -6.1667  -6.1236  -6.0785
    -6.0694  -6.0489  -6.0341  -6.0211  -6.0171  -6.0106  -6.0055  -5.9197
    -5.8988  -5.8892  -5.8716  -5.8419  -5.7728  -5.7204  -5.6376  -5.6158
    -5.6045  -5.5377  -5.5129  -5.3755  -5.3319  -5.2226  -4.9826  -4.9107
    -4.8813  -4.8179  -4.6453  -4.1594  -4.1400  -4.1008  -3.9789  -3.9772
    -3.9733  -3.9600  -3.9355  -3.9274  -3.8989  -3.7133  -3.7085  -3.6925
    -3.6251  -3.5716  -3.5505  -3.4305  -3.4286  -3.3712  -3.3454  -3.3253
    -3.2267  -3.1668  -3.1142  -3.1100  -3.0057  -3.0005  -2.8709  -2.8098
    -2.8088  -2.7837  -2.7525  -2.6992  -2.6309  -2.5819  -2.5676  -2.5081
[...]
Ru1      0.250000000   0.500000000   0.366700000    0   0   0
Ru1      0.000000000   0.000000000   0.366700000    0   0   0
O0       0.250000000   0.810000000   0.366700000    0   0   0
O0       0.250000000   0.190000000   0.366700000    0   0   0
O0       0.000000000   0.500000000   0.400470000    0   0   0
O0       0.000000000   0.000000000   0.421800000    0   0   0
Ru1      0.250000000   0.000000000   0.455570000    0   0   0
Ru1      0.000000000   0.500000000   0.455570000    0   0   0
O0       0.250000000   0.690000000   0.455570000    0   0   0
O0       0.250000000   0.310000000   0.455570000    0   0   0
O0       0.000000000   0.000000000   0.489340000    0   0   0
O0       0.000327512   0.500000000   0.509494267
Ru1      0.253616408   0.500000000   0.543709278
Ru1      0.000231355   0.000000000   0.544063146
O0       0.250937371   0.806299969   0.544008347
O0       0.250937371   0.193700031   0.544008347
O0       0.000649268   0.500000000   0.576571775
O0       0.000294899   0.000000000   0.598354096
Ru1      0.243971384   0.000000000   0.635452128
Ru1     -0.001097742   0.500000000   0.628372299
O0       0.245700273   0.689895984   0.633694828
O0       0.245700273   0.310104016   0.633694828
O0       0.000266187   0.000000000   0.668615957
O0       0.500000000   0.500000000   0.332930000    0   0   0
Ru1      0.750000000   0.500000000   0.366700000    0   0   0
Ru1      0.500000000   0.000000000   0.366700000    0   0   0
O0       0.750000000   0.810000000   0.366700000    0   0   0
O0       0.750000000   0.190000000   0.366700000    0   0   0
O0       0.500000000   0.500000000   0.400470000    0   0   0
O0       0.500000000   0.000000000   0.421800000    0   0   0
Ru1      0.750000000   0.000000000   0.455570000    0   0   0
Ru1      0.500000000   0.500000000   0.455570000    0   0   0
O0       0.750000000   0.690000000   0.455570000    0   0   0
O0       0.750000000   0.310000000   0.455570000    0   0   0
O0       0.500000000   0.000000000   0.489340000    0   0   0
O0       0.500292504   0.500000000   0.509365738
Ru1      0.746952343   0.500000000   0.543723472
Ru1      0.500098740   0.000000000   0.544730264
O0       0.749410102   0.806422419   0.544060742
O0       0.749410102   0.193577581   0.544060742
O0       0.499966871   0.500000000   0.579461903
O0       0.499426579   0.000000000   0.598631343
Ru1      0.755749439   0.000000000   0.635324832
Ru1      0.499976785   0.500000000   0.633882231
O0       0.754009876   0.690821326   0.633180418
O0       0.754009876   0.309178674   0.633180418
O0       0.500067727   0.000000000   0.663193434
O0       0.513226552   0.500000000   0.686966339
H2       0.370505746   0.500000000   0.698567172

     Check: negative starting charge=   -1.047632
     NEW-OLD atomic charge density approx. for the potential

     Check: negative/imaginary core charge=   -0.000004    0.000000
     Check: negative starting charge=   -1.047552

[...]

     Self-consistent Calculation

[...]

     total energy              =   -4157.71713875 Ry
     Harris-Foulkes estimate   =   -4157.71713876 Ry
     estimated scf accuracy    <       0.00000002 Ry

     iteration # 21     ecut=    40.00 Ry     beta=0.30
     Davidson diagonalization with overlap
     ethr =  3.54E-12,  avg # of iterations =  1.0

     negative rho (up, down):  0.116E+01 0.000E+00

     End of self-consistent calculation

[...]

          k = 0.2500-0.4870 0.0000 ( 41596 PWs)   bands (ev):

[...]

          k =-0.5000-0.4870 0.0000 ( 41560 PWs)   bands (ev):

   -73.1208 -73.1132 -72.9047 -72.9039 -72.8021 -72.7382 -72.7378 -72.6999
   -72.6964 -72.6826 -72.6646 -72.6591 -72.6525 -72.6458 -72.4259 -72.4169
   -43.2042 -43.1772 -43.0963 -43.0907 -43.0053 -42.9620 -42.9619 -42.9618
   -42.9541 -42.9499 -42.9306 -42.9278 -42.9231 -42.9050 -42.9045 -42.8830
   -42.8784 -42.8773 -42.8590 -42.8495 -42.7473 -42.7462 -42.6927 -42.6923
   -42.6639 -42.6455 -42.6359 -42.6304 -42.6219 -42.6158 -42.5967 -42.5965
   -42.5857 -42.5816 -42.5589 -42.5577 -42.5512 -42.4949 -42.4869 -42.4850
   -42.4730 -42.4695 -42.4535 -42.4476 -42.4338 -42.4290 -42.2616 -42.2522
   -18.8600 -18.5424 -18.5163 -18.5070 -18.3711 -18.3155 -18.2947 -18.2648
   -18.1442 -18.1194 -18.1000 -18.0861 -18.0633 -18.0133 -17.9911 -17.9828
   -17.9461 -17.9174 -17.8935 -17.8931 -17.8862 -17.8856 -17.8493 -17.8371
   -17.8331 -17.7795 -17.7695 -17.7467 -17.7213 -17.3299 -17.0902 -16.6510
   -16.6482  -6.7957  -6.7307  -6.6787  -6.5285  -6.3956  -6.1551  -6.1404
    -6.0938  -6.0361  -6.0345  -6.0192  -6.0028  -5.9681  -5.9658  -5.9618
    -5.9579  -5.9459  -5.9028  -5.9005  -5.8535  -5.7431  -5.6854  -5.6690
    -5.6569  -5.6321  -5.6056  -5.5760  -5.5596  -5.5453  -5.4479  -5.3130
    -5.2882  -5.2832  -5.2630  -5.2574  -5.2414  -5.2309  -5.2280  -5.2198
    -5.1940  -4.9737  -4.8037  -4.7359  -4.7199  -4.7071  -4.6017  -4.5219
    -4.4889  -4.4380  -4.1800  -4.1498  -4.1297  -4.0936  -4.0697  -4.0511
    -3.9147  -3.8771  -3.8217  -3.8158  -3.8105  -3.8052  -3.7967  -3.7937
    -3.7855  -3.7198  -3.6069  -3.5667  -3.5263  -3.5217  -3.5125  -3.4279
    -3.4171  -3.3902  -3.2355  -3.0868  -3.0610  -3.0351  -2.6333  -2.4865
    -2.4633  -2.3929  -2.3350  -2.2983  -2.2698  -2.2177  -2.1855  -2.1319
    -2.0374  -2.0365  -1.9365  -1.8559  -1.8349  -1.7887  -1.7854  -1.7495
    -1.6648  -1.5972  -1.5455  -1.2450  -0.5265  -0.4258  -0.4101  -0.3748
    -0.1920  -0.1580  -0.1465  -0.0651   0.1181   0.1393   0.1778   0.1830
     0.2453   0.2524   0.3015   0.3036   0.4494   0.5568   0.6926   0.7032
     0.7122   0.8054   0.8111   0.8586   0.8676   0.8857   0.8923   0.9086
     0.9408   0.9862   0.9887   0.9905   1.0116   1.0908   1.1113   1.2150
     1.2168   1.2717   1.2840   1.3007   1.3175   1.4025   1.4254   1.4442
     1.4743   1.5290   1.5378   1.5971   2.2238   2.2299   2.6704   3.1621
     3.3186   3.3396   3.3952   3.3991   3.4070   3.4654   3.4696   3.4865
     3.6564   3.7032   3.7083   4.1685   4.1829   4.2941   4.3692   4.5572
     4.6254   4.7228   4.7520   5.0431   5.1420   5.1701   5.2259   5.3385
     5.4112   5.4738   5.4808   5.5519   6.5737   6.8699   6.8727   7.7643
     7.8140   7.8614   7.8649   7.9561   8.0373   8.0848   8.0887   8.1314
     8.3345   8.3798   8.3933   8.4621   8.7563   8.7843   8.8280   8.8948
     9.2571   9.2712   9.3703   9.4095   9.5899   9.5924   9.6291   9.6533
     9.9708   9.9853  10.0594  10.0739  10.1582  10.1798  10.2269  10.2422
    10.7675  10.7719  10.8639  10.8796  10.9690  11.0082  11.0169  11.0696
    11.5561  11.6082  11.6676  11.7439  12.0170  12.1049  12.1164  12.2852
    12.4188  12.6288  12.6487  12.8726  13.0456  13.0526  13.0549  13.0677
    13.1805  13.2948  13.3370  13.5627  13.5839  13.6314  13.7447  13.7999
    13.8082  13.8442  13.8648  13.8774  13.9340  14.0063  14.0539  14.0691
    14.1557  14.1666  14.2198  14.2495  14.2780  14.3307  14.4218  14.5131
    14.5452  14.5848  14.6128  14.6826  14.7164  14.8046  14.8226  14.8756
    14.8899  14.9553  14.9727  15.0976  15.1011  15.1236  15.1367  15.3151
    15.3187  15.3219  15.3423  15.3444  15.3684  15.3953  15.4005  15.5284
    15.6444  15.6729  15.6779  15.6903  15.6912  15.7105  15.7277  15.7415
    15.7532  15.7719  15.8304  15.8523  15.8668  15.8929  15.9116  15.9259
    15.9439  15.9848  15.9959  16.0066  16.0902  16.1193  16.1549  16.1736
    16.2208  16.2335  16.2418  16.3123  16.3377  16.3727  16.4068  16.4371
    16.4801  16.4920  16.5122  16.5405  16.6506  16.6777  16.7404  16.7458
    16.8105  16.8166  16.8285  16.8897  16.9365  17.0338  17.0509  17.0731
    17.2709  17.3051  17.3325  17.3410  17.4342  17.4347  17.4438  17.4961
    17.6451  17.6711  17.7311  17.7451  17.7663  17.7719  17.8523  17.9257
    18.0547  18.0692  18.0975  18.1168  18.1574  18.2105  18.2239  18.2998
    18.3099  18.3574  18.4003  18.4006  18.5088  18.5307  18.5815  18.6264
    18.7696  18.7814  18.7985  18.8080  18.8859  18.9551  18.9701  19.0290
    19.0502  19.1218  19.1472  19.2614  19.3539  19.3623  19.3848  19.4160
[...]
    23.1189  23.1602  23.1946  23.3215  23.3620  23.3634  23.3891  23.4197
    23.4640  23.4807  23.5232  23.5467  23.5801  23.6415  23.7403  23.7588
    23.8236  23.8512  23.8600  23.8887  23.8931  23.9522  23.9700  24.0379
    24.0379  24.0671  24.0885  24.1078  24.1406  24.1827  24.1894  24.2279
    24.2661  24.2762  24.4023  24.4102  24.4611  24.4872  24.5149  24.5366
    24.5789  24.5984  24.6731  24.8020  24.8569  24.8589  24.9212  24.9519
    24.9556  25.0044  25.0638  25.0934  25.1523  25.2261  25.2346  25.2551
    25.2776  25.3543  25.4043  25.4240  25.4339  25.4910  25.5176  25.5909
    25.6640  25.6983  25.7348  25.8092  25.8374  25.8403  25.8994  25.9440
    25.9675  25.9755  26.0445  26.1098  26.1495  26.2059  26.2063  26.2266
    26.3954  26.4899  26.4923  26.5243  26.5898  26.6110  26.6322  26.6473
    26.7505  26.8444  26.9640  26.9858  26.9965  27.0186  27.0215  27.0294
    27.1055  27.1219  27.1496  27.1934  27.2098  27.2933  27.3169  27.3521
    27.3673  27.4000  27.4339  27.4591  27.6054  27.6102  27.6296  27.6367
    27.6663  27.6997

     the Fermi energy is     0.8676 ev

!    total energy              =   -4157.71713875 Ry
     Harris-Foulkes estimate   =   -4157.71713875 Ry
     estimated scf accuracy    <          3.7E-09 Ry

     The total energy is the sum of the following terms:

     one-electron contribution =  -87172.23692799 Ry
     hartree contribution      =   43644.77594276 Ry
     xc contribution           =    -634.63876087 Ry
     ewald contribution        =   40004.38352045 Ry
     smearing contrib. (-TS)   =      -0.00091310 Ry

     convergence has been achieved in  21 iterations

     Forces acting on atoms (Ry/au):

     negative rho (up, down):  0.116E+01 0.000E+00
     atom    1 type  1   force =    -0.00010715    0.00000000    0.05459606
     atom    2 type  2   force =    -0.00153373    0.00000000   -0.08810126
     atom    3 type  2   force =     0.00001199    0.00000000    0.08314244
     atom    4 type  1   force =    -0.00015894   -0.00450849   -0.02560851
     atom    5 type  1   force =    -0.00015894    0.00450849   -0.02560851
     atom    6 type  1   force =     0.00008627    0.00000000    0.04071098
     atom    7 type  1   force =     0.00002403    0.00000000   -0.03082758
     atom    8 type  2   force =     0.00092154    0.00000000   -0.02057459
     atom    9 type  2   force =    -0.00005397    0.00000000   -0.00789676
     atom   10 type  1   force =     0.00013199    0.02302388   -0.00284539
     atom   11 type  1   force =     0.00013199   -0.02302388   -0.00284539
     atom   12 type  1   force =     0.00000872    0.00000000    0.02750845
     atom   13 type  1   force =     0.00000540    0.00000000   -0.00030874
     atom   14 type  2   force =     0.00008220    0.00000000   -0.00040171
     atom   15 type  2   force =    -0.00002286    0.00000000    0.00045110
     atom   16 type  1   force =     0.00013429    0.00009553    0.00044638
     atom   17 type  1   force =     0.00013429   -0.00009553    0.00044638
     atom   18 type  1   force =    -0.00011553    0.00000000   -0.00029223
     atom   19 type  1   force =    -0.00015138    0.00000000    0.00046315
     atom   20 type  2   force =    -0.00006733    0.00000000    0.00037844
     atom   21 type  2   force =    -0.00001990    0.00000000   -0.00003200
     atom   22 type  1   force =    -0.00003304    0.00007707    0.00049554
     atom   23 type  1   force =    -0.00003304   -0.00007707    0.00049554
     atom   24 type  1   force =    -0.00029141    0.00000000    0.00002528
     atom   25 type  1   force =     0.00001157    0.00000000    0.05670724
     atom   26 type  2   force =     0.00153390    0.00000000   -0.08841010
     atom   27 type  2   force =    -0.00001249    0.00000000    0.08287782
     atom   28 type  1   force =     0.00015894   -0.00443874   -0.02562748
     atom   29 type  1   force =     0.00015894    0.00443874   -0.02562748
     atom   30 type  1   force =     0.00005225    0.00000000    0.03722368
     atom   31 type  1   force =     0.00001587    0.00000000   -0.03039047
     atom   32 type  2   force =    -0.00090041    0.00000000   -0.02053595
     atom   33 type  2   force =     0.00015368    0.00000000   -0.01819512
     atom   34 type  1   force =    -0.00000707    0.02300626   -0.00283444
     atom   35 type  1   force =    -0.00000707   -0.02300626   -0.00283444
     atom   36 type  1   force =     0.00013939    0.00000000    0.03148298
     atom   37 type  1   force =    -0.00003004    0.00000000   -0.00043075
     atom   38 type  2   force =    -0.00025873    0.00000000   -0.00043345
     atom   39 type  2   force =     0.00004898    0.00000000    0.00058011
     atom   40 type  1   force =    -0.00014923   -0.00002014    0.00033004
     atom   41 type  1   force =    -0.00014923    0.00002014    0.00033004
     atom   42 type  1   force =    -0.00018968    0.00000000   -0.00045295
     atom   43 type  1   force =     0.00001268    0.00000000    0.00029429
     atom   44 type  2   force =    -0.00032594    0.00000000    0.00026349
     atom   45 type  2   force =    -0.00012798    0.00000000    0.00076062
     atom   46 type  1   force =     0.00010208   -0.00011673    0.00017717
     atom   47 type  1   force =     0.00010208    0.00011673    0.00017717
     atom   48 type  1   force =    -0.00019288    0.00000000    0.00027549
     atom   49 type  1   force =    -0.00005388    0.00000000    0.00003765
     atom   50 type  3   force =     0.00098879    0.00000000    0.00043778

     Total force =     0.002353     Total SCF correction =     0.000204

     bfgs converged in  17 scf cycles and  16 bfgs steps
     (criteria: energy < 0.10E-03, force < 0.10E-02)

     End of BFGS Geometry Optimization

     Final energy   =   -4157.7171387515 Ry
Begin final coordinates

ATOMIC_POSITIONS (crystal)
O0       0.000000000   0.500000000   0.332930000    0   0   0
Ru1      0.250000000   0.500000000   0.366700000    0   0   0
Ru1      0.000000000   0.000000000   0.366700000    0   0   0
O0       0.250000000   0.810000000   0.366700000    0   0   0
O0       0.250000000   0.190000000   0.366700000    0   0   0
O0       0.000000000   0.500000000   0.400470000    0   0   0
O0       0.000000000   0.000000000   0.421800000    0   0   0
Ru1      0.250000000   0.000000000   0.455570000    0   0   0
Ru1      0.000000000   0.500000000   0.455570000    0   0   0
O0       0.250000000   0.690000000   0.455570000    0   0   0
O0       0.250000000   0.310000000   0.455570000    0   0   0
O0       0.000000000   0.000000000   0.489340000    0   0   0
O0       0.000327512   0.500000000   0.509494267
Ru1      0.253616408   0.500000000   0.543709278
Ru1      0.000231355   0.000000000   0.544063146
O0       0.250937371   0.806299969   0.544008347
O0       0.250937371   0.193700031   0.544008347
O0       0.000649268   0.500000000   0.576571775
O0       0.000294899   0.000000000   0.598354096
Ru1      0.243971384   0.000000000   0.635452128
Ru1     -0.001097742   0.500000000   0.628372299
O0       0.245700273   0.689895984   0.633694828
O0       0.245700273   0.310104016   0.633694828
O0       0.000266187   0.000000000   0.668615957
O0       0.500000000   0.500000000   0.332930000    0   0   0
Ru1      0.750000000   0.500000000   0.366700000    0   0   0
Ru1      0.500000000   0.000000000   0.366700000    0   0   0
O0       0.750000000   0.810000000   0.366700000    0   0   0
O0       0.750000000   0.190000000   0.366700000    0   0   0
O0       0.500000000   0.500000000   0.400470000    0   0   0
O0       0.500000000   0.000000000   0.421800000    0   0   0
Ru1      0.750000000   0.000000000   0.455570000    0   0   0
Ru1      0.500000000   0.500000000   0.455570000    0   0   0
O0       0.750000000   0.690000000   0.455570000    0   0   0
O0       0.750000000   0.310000000   0.455570000    0   0   0
O0       0.500000000   0.000000000   0.489340000    0   0   0
O0       0.500292504   0.500000000   0.509365738
Ru1      0.746952343   0.500000000   0.543723472
Ru1      0.500098740   0.000000000   0.544730264
O0       0.749410102   0.806422419   0.544060742
O0       0.749410102   0.193577581   0.544060742
O0       0.499966871   0.500000000   0.579461903
O0       0.499426579   0.000000000   0.598631343
Ru1      0.755749439   0.000000000   0.635324832
Ru1      0.499976785   0.500000000   0.633882231
O0       0.754009876   0.690821326   0.633180418
O0       0.754009876   0.309178674   0.633180418
O0       0.500067727   0.000000000   0.663193434
O0       0.513226552   0.500000000   0.686966339
H2       0.370505746   0.500000000   0.698567172
End final coordinates

     General routines

     Parallel routines

   This run was terminated on:   3:52:16  19Apr2014

   JOB DONE.