     Program PWSCF v.5.0.2 (svn rev. 9656) starts on 20Mar2014 at 18:54: 3

     Current dimensions of program PWSCF are:
     Max number of different atomic species (ntypx) = 10
     Max number of k-points (npk) =  40000
     Max angular momentum in pseudopotentials (lmaxx) =  3
     Reading input from pwscf.in
Warning: card &CELL ignored
Warning: card / ignored

     Subspace diagonalization in iterative solution of the eigenvalue problem:
     a serial algorithm will be used

     bravais-lattice index     =            0
     lattice parameter (alat)  =      10.9604  a.u.
     unit-cell volume          =    6350.6732 (a.u.)^3
     number of atoms/cell      =           31
     number of atomic types    =            3
     number of electrons       =       230.00
     number of Kohn-Sham states=          333
     kinetic-energy cutoff     =      40.0000  Ry
     charge density cutoff     =     500.0000  Ry
     convergence threshold     =      1.0E-06
     mixing beta               =       0.7000
     number of iterations used =            8  plain     mixing
     Exchange-correlation      = SLA  PW   PBE  PBE ( 1 4 3 4 0)
     EXX-fraction              =        0.00
     nstep                     =           50

     celldm(1)=  10.960412  celldm(2)=   0.000000  celldm(3)=   0.000000
     celldm(4)=   0.000000  celldm(5)=   0.000000  celldm(6)=   0.000000

     crystal axes: (cart. coord. in units of alat)
               a(1) = (   1.000000   0.000000   0.000000 )
               a(2) = (   0.000000   1.067975   0.000000 )
               a(3) = (   0.000000   0.000000   4.516251 )

     reciprocal axes: (cart. coord. in units 2 pi/alat)
               b(1) = (  1.000000  0.000000  0.000000 )
               b(2) = (  0.000000  0.936351  0.000000 )
               b(3) = (  0.000000  0.000000  0.221423 )

     PseudoPot. # 1 for O  read from file:
     /home/camp/zhonxu/pseudo/o_pbe_v1.01.uspp.F.UPF
     MD5 check sum: 2bcb18d16ea4b960afae9ec6d52f22d2
     Pseudo is Ultrasoft + core correction, Zval =  6.0
     Generated by new atomic code, or converted to UPF format
     Using radial grid of  737 points,  5 beta functions with:
                l(1) =   0
                l(2) =   0
                l(3) =   1
                l(4) =   1
                l(5) =   2
     Q(r) pseudized with  8 coefficients,  rinner =    0.900   0.900   0.900
                                                       0.900   0.900

     PseudoPot. # 2 for Cr read from file:
     /home/camp/zhonxu/pseudo/cr_pbe_v1.uspp.F.UPF
     MD5 check sum: 68b6f918d1762dccfb11451fe85b0e0e
     Pseudo is Ultrasoft + core correction, Zval = 14.0
     Generated by new atomic code, or converted to UPF format
     Using radial grid of  857 points,  6 beta functions with:
                l(1) =   0
                l(2) =   0
                l(3) =   1
                l(4) =   1
                l(5) =   2
                l(6) =   2
     Q(r) pseudized with  6 coefficients,  rinner =    1.000   1.000   1.000
                                                       1.000   1.000

     PseudoPot. # 3 for H  read from file:
     /home/camp/zhonxu/pseudo/h_pbe_v1.uspp.F.UPF
     MD5 check sum: 3408e3ff4ec8b0a4e358431e7e038a48
     Pseudo is Ultrasoft, Zval =  1.0
     Generated by new atomic code, or converted to UPF format
     Using radial grid of  615 points,  2 beta functions with:
                l(1) =   0
                l(2) =   0
     Q(r) pseudized with  8 coefficients,  rinner =    0.700

     atomic species   valence    mass     pseudopotential
        O0             6.00    15.99940     O ( 1.00)
        Cr1           14.00    51.99600     Cr( 1.00)
        H2             1.00     1.00794     H ( 1.00)

     Starting magnetic structure
     atomic species   magnetization
        O0           0.000
        Cr1          0.600
        H2           0.000

     No symmetry found

   Cartesian axes

     site n.     atom                  positions (alat units)
         1           O0  tau(   1) = (   0.0000000   0.0000000   1.7181625  )
         2           O0  tau(   2) = (   0.0000000   0.5339875   1.8008551  )
         3           Cr1 tau(   3) = (   0.2500000   0.5339875   2.0300096  )
         4           Cr1 tau(   4) = (   0.0000000   0.0000000   2.0413454  )
         5           O0  tau(   5) = (   0.2500000   0.8543801   2.0369195  )
         6           O0  tau(   6) = (   0.2500000   0.2135950   2.0378227  )
         7           O0  tau(   7) = (   0.0000000   0.5339875   2.2471058  )
         8           O0  tau(   8) = (   0.0000000   0.0000000   2.3700833  )
         9           Cr1 tau(   9) = (   0.2500000   0.0000000   2.6079543  )
        10           Cr1 tau(  10) = (   0.0000000   0.5339875   2.5535334  )
        11           O0  tau(  11) = (   0.2500000   0.7475825   2.5983798  )
        12           O0  tau(  12) = (   0.2500000   0.3203925   2.5982895  )
        13           O0  tau(  13) = (   0.0000000   0.0000000   2.7910882  )
        14           O0  tau(  14) = (   0.5000000   0.0000000   1.7181625  )
        15           O0  tau(  15) = (   0.5000000   0.5339875   1.8008551  )
        16           Cr1 tau(  16) = (   0.7500000   0.5339875   2.0300096  )
        17           Cr1 tau(  17) = (   0.5000000   0.0000000   2.0413454  )
        18           O0  tau(  18) = (   0.7500000   0.8543801   2.0369195  )
        19           O0  tau(  19) = (   0.7500000   0.2135950   2.0378227  )
        20           O0  tau(  20) = (   0.5000000   0.5339875   2.2471058  )
        21           O0  tau(  21) = (   0.5000000   0.0000000   2.3700833  )
        22           Cr1 tau(  22) = (   0.7500000   0.0000000   2.6079543  )
        23           Cr1 tau(  23) = (   0.5000000   0.5339875   2.5535334  )
        24           O0  tau(  24) = (   0.7500000   0.7475825   2.5983798  )
        25           O0  tau(  25) = (   0.7500000   0.3203925   2.5982895  )
        26           O0  tau(  26) = (   0.5000000   0.0000000   2.7910882  )
        27           H2  tau(  27) = (  -0.0006900   0.6851274   1.7196980  )
        28           H2  tau(  28) = (   0.4993100   0.6851274   1.7196980  )
        29           H2  tau(  29) = (   0.1573400   0.0316548   1.6594512  )
        30           H2  tau(  30) = (   0.6573500   0.0316548   1.6594512  )
        31           O0  tau(  31) = (   0.5000000   0.5339875   2.7566292  )

     number of k points=    20  Methfessel-Paxton smearing, width (Ry)=  0.0100
                       cart. coord. in units 2pi/alat
        k(    1) = (   0.0000000   0.0000000   0.0000000), wk =   0.0625000
        k(    2) = (   0.0000000   0.2340879   0.0000000), wk =   0.1250000
        k(    3) = (   0.0000000  -0.4681757   0.0000000), wk =   0.0625000
        k(    4) = (   0.2500000   0.0000000   0.0000000), wk =   0.1250000
        k(    5) = (   0.2500000   0.2340879   0.0000000), wk =   0.1250000
        k(    6) = (   0.2500000  -0.4681757   0.0000000), wk =   0.1250000
        k(    7) = (  -0.5000000   0.0000000   0.0000000), wk =   0.0625000
        k(    8) = (  -0.5000000   0.2340879   0.0000000), wk =   0.1250000
        k(    9) = (  -0.5000000  -0.4681757   0.0000000), wk =   0.0625000
        k(   10) = (  -0.2500000   0.2340879   0.0000000), wk =   0.1250000
        k(   11) = (   0.0000000   0.0000000   0.0000000), wk =   0.0625000
        k(   12) = (   0.0000000   0.2340879   0.0000000), wk =   0.1250000
        k(   13) = (   0.0000000  -0.4681757   0.0000000), wk =   0.0625000
        k(   14) = (   0.2500000   0.0000000   0.0000000), wk =   0.1250000
        k(   15) = (   0.2500000   0.2340879   0.0000000), wk =   0.1250000
        k(   16) = (   0.2500000  -0.4681757   0.0000000), wk =   0.1250000
        k(   17) = (  -0.5000000   0.0000000   0.0000000), wk =   0.0625000
        k(   18) = (  -0.5000000   0.2340879   0.0000000), wk =   0.1250000
        k(   19) = (  -0.5000000  -0.4681757   0.0000000), wk =   0.0625000
        k(   20) = (  -0.2500000   0.2340879   0.0000000), wk =   0.1250000

     Largest allocated arrays     est. size (Mb)     dimensions
     Largest temporary arrays     est. size (Mb)     dimensions

     Check: negative/imaginary core charge=   -0.000012    0.000000

     Initial potential from superposition of free atoms
     Check: negative starting charge=(component1):   -0.001577
     Check: negative starting charge=(component2):   -0.000505

     starting charge  221.99984, renormalised to  230.00000

     negative rho (up, down):  0.163E-02 0.524E-03
     Starting wfc are  160 randomized atomic wfcs

     Self-consistent Calculation

     iteration #  1     ecut=    40.00 Ry     beta=0.70
     Davidson diagonalization with overlap
     ethr =  1.00E-02,  avg # of iterations =  5.2

     negative rho (up, down):  0.330E-02 0.127E-02

     total energy              =   -1993.11505777 Ry
     Harris-Foulkes estimate   =   -2021.82010422 Ry
     estimated scf accuracy    <      42.49289392 Ry

     total magnetization       =    21.99 Bohr mag/cell
     absolute magnetization    =    27.89 Bohr mag/cell

[...]

     End of self-consistent calculation

 ------ SPIN UP ------------

          k = 0.0000 0.0000 0.0000 ( 27003 PWs)   bands (ev):

   -76.1212 -75.2186 -75.2032 -75.0917 -74.9857 -74.9512 -74.8765 -74.8617
   -49.7963 -46.6210 -46.5859 -46.5432 -46.5265 -46.5256 -46.4950 -46.4660
   -46.4352 -46.3644 -46.3610 -46.3143 -46.3028 -46.2883 -46.2863 -46.2556
   -46.2537 -46.2496 -46.2268 -46.2221 -46.1905 -46.1655 -46.1570 -46.0279
   -21.4680 -21.1414 -20.7005 -20.5497 -20.3412 -20.2538 -19.8863 -19.8462
   -19.7658 -19.6668 -19.5593 -19.5405 -19.4939 -19.4260 -19.3040 -19.2981
   -19.0140 -18.9102 -18.8276 -11.0951 -10.8874  -9.6559  -9.1494  -8.8770
    -8.6897  -8.5782  -8.5617  -7.9173  -7.8307  -7.7638  -7.7295  -7.5985
    -7.5349  -7.2477  -7.2102  -6.9989  -6.9779  -6.9711  -6.9631  -6.8849
    -6.8533  -6.7093  -6.5250  -6.4200  -6.1424  -6.0625  -5.8946  -5.7814
    -5.6455  -5.6132  -5.2844  -5.1798  -5.1574  -5.1056  -4.9717  -4.9021
    -4.7618  -4.7544  -4.6465  -4.5972  -4.5152  -4.3410  -4.1883  -4.0795
    -3.9618  -3.9126  -3.8221  -3.7739  -3.7471  -3.6468  -3.4186  -3.3295
    -3.1376  -3.0943  -2.9686  -2.9307  -2.7696  -2.7083  -2.5556  -2.5202
    -2.3878  -2.2014  -2.1216  -2.0905  -1.9629  -1.9057  -1.7627  -1.6330
    -1.6016  -1.5962  -1.4400  -1.4330  -1.3175  -1.0403  -0.9893  -0.6662
    -0.5799  -0.4070  -0.3530   0.5556   0.7388   0.8207   1.3243   1.3517
     1.4673   1.4725   1.6471   1.6662   1.7140   1.9886   2.1398   2.2416
     2.2767   2.3168   2.5806   3.2380   3.5356   3.8152   4.3218   4.8457
     5.6097   5.8315   6.3348   6.5363   6.8159   7.1400   7.2393   7.2690
     7.3092   7.5830   7.6824   7.7193   7.8170   7.8815   8.0306   8.1428
     8.1736   8.2299   8.3081   8.4554   8.5322   8.7023   8.7172   8.8737
     8.9840   9.2389   9.3227   9.3806   9.4533   9.5591   9.6935   9.8477
     9.9551   9.9738  10.0018  10.2054  10.3189  10.3668  10.6381  10.6897
    10.8005  10.8439  11.1000  11.2461  11.3464  11.3798  11.4268  11.4392
[...]
     atom   10 type  2   force =     0.00001162    0.00003927   -0.02215990
     atom   11 type  1   force =    -0.08359918    0.00623146   -0.04155971
     atom   12 type  1   force =    -0.08326492   -0.00607549   -0.04100167
     atom   13 type  1   force =    -0.00056889    0.00008643   -0.00044306
     atom   14 type  1   force =    -0.00325714   -0.01415436   -0.00002183
     atom   15 type  1   force =    -0.00010586    0.01556317   -0.00366494
     atom   16 type  2   force =    -0.03009626   -0.00539021    0.00493722
     atom   17 type  2   force =     0.00014870    0.00726642    0.00122806
     atom   18 type  1   force =     0.00428109    0.00447458   -0.00075681
     atom   19 type  1   force =     0.00015049   -0.00379830   -0.00097218
     atom   20 type  1   force =    -0.00036699   -0.00177257   -0.20563523
     atom   21 type  1   force =     0.00085036   -0.00036736    0.00166113
     atom   22 type  2   force =     0.00469169   -0.00019479    0.00235466
     atom   23 type  2   force =    -0.00004423    0.00050327   -2.31725544
     atom   24 type  1   force =     0.08347948    0.00625079   -0.04141209
     atom   25 type  1   force =     0.08372037   -0.00596067   -0.04123404
     atom   26 type  1   force =    -0.00050871   -0.00004044   -0.00474238
     atom   27 type  3   force =     0.00001398   -0.00385079   -0.00028173
     atom   28 type  3   force =     0.00013055   -0.00257821   -0.00111434
     atom   29 type  3   force =     0.00079105    0.00063165   -0.00045208
     atom   30 type  3   force =    -0.00094424    0.00034706   -0.00043552
     atom   31 type  1   force =     0.00001446   -0.00067936    2.70883464

     Total force =     2.708835     Total SCF correction =     0.000298

     BFGS Geometry Optimization

     number of scf cycles    =   1
     number of bfgs steps    =   0

     energy   new            =   -2025.0230907416 Ry

     new trust radius        =       0.5000000000 bohr
     new conv_thr            =       0.0000010000 Ry

ATOMIC_POSITIONS (crystal)
O0       0.000000000   0.000000000   0.380440000    0   0   0
O0       0.000000000   0.500000000   0.398750000    0   0   0
Cr1      0.250000000   0.500000000   0.449490000    0   0   0
Cr1      0.000000000   0.000000000   0.452000000    0   0   0
O0       0.250000000   0.800000000   0.451020000    0   0   0
O0       0.250000000   0.200000000   0.451220000    0   0   0
O0       0.000000000   0.500000000   0.497560000    0   0   0
O0       0.000000000   0.000000000   0.524790000    0   0   0
Cr1      0.250000000   0.000000000   0.577460000    0   0   0
Cr1      0.000000000   0.500000000   0.565410000    0   0   0
O0       0.250000000   0.700000000   0.575340000    0   0   0
O0       0.250000000   0.300000000   0.575320000    0   0   0
O0       0.000000000   0.000000000   0.618010000    0   0   0
O0       0.500000000   0.000000000   0.380440000    0   0   0
O0       0.500000000   0.500000000   0.398750000    0   0   0
Cr1      0.750000000   0.500000000   0.449490000    0   0   0
Cr1      0.500000000   0.000000000   0.452000000    0   0   0
O0       0.750000000   0.800000000   0.451020000    0   0   0
O0       0.750000000   0.200000000   0.451220000    0   0   0
O0       0.500000000   0.500000000   0.497560000    0   0   0
O0       0.500000000   0.000000000   0.524790000    0   0   0
Cr1      0.750000000   0.000000000   0.577460000    0   0   0
Cr1      0.500000000   0.500000000   0.565410000    0   0   0
O0       0.750000000   0.700000000   0.575340000    0   0   0
O0       0.750000000   0.300000000   0.575320000    0   0   0
O0       0.500000000   0.000000000   0.618010000    0   0   0
H2      -0.000690000   0.641520000   0.380780000    0   0   0
H2       0.499310000   0.641520000   0.380780000    0   0   0
H2       0.157340000   0.029640000   0.367440000    0   0   0
H2       0.657350000   0.029640000   0.367440000    0   0   0
O0       0.500000244   0.499989287   0.620481016

     Check: negative starting charge=(component1):   -0.002012
     NEW-OLD atomic charge density approx. for the potential

     Check: negative/imaginary core charge=   -0.000012    0.000000
     Check: negative starting charge=(component1):   -0.001997

[...]

     iteration #  1     ecut=    40.00 Ry     beta=0.70
     Davidson diagonalization with overlap
     c_bands:  1 eigenvalues not converged
     ethr =  1.00E-06,  avg # of iterations =  7.4

[...]

     energy   old            =   -2025.0230907416 Ry
     energy   new            =   -2025.6783512516 Ry

     CASE: energy  _new < energy  _old

[...]

     Total force =     0.002539     Total SCF correction =     0.000133

     number of scf cycles    =   7
     number of bfgs steps    =   6

     energy   old            =   -2025.7503552490 Ry
     energy   new            =   -2025.7505522337 Ry

     CASE: energy  _new < energy  _old

     new trust radius        =       0.0052739490 bohr
     new conv_thr            =       0.0000000197 Ry

ATOMIC_POSITIONS (crystal)
O0       0.000000000   0.000000000   0.380440000    0   0   0
O0       0.000000000   0.500000000   0.398750000    0   0   0
Cr1      0.250000000   0.500000000   0.449490000    0   0   0
Cr1      0.000000000   0.000000000   0.452000000    0   0   0
O0       0.250000000   0.800000000   0.451020000    0   0   0
O0       0.250000000   0.200000000   0.451220000    0   0   0
O0       0.000000000   0.500000000   0.497560000    0   0   0
O0       0.000000000   0.000000000   0.524790000    0   0   0
Cr1      0.250000000   0.000000000   0.577460000    0   0   0
Cr1      0.000000000   0.500000000   0.565410000    0   0   0
O0       0.250000000   0.700000000   0.575340000    0   0   0
O0       0.250000000   0.300000000   0.575320000    0   0   0
O0       0.000000000   0.000000000   0.618010000    0   0   0
O0       0.500000000   0.000000000   0.380440000    0   0   0
O0       0.500000000   0.500000000   0.398750000    0   0   0
Cr1      0.750000000   0.500000000   0.449490000    0   0   0
Cr1      0.500000000   0.000000000   0.452000000    0   0   0
O0       0.750000000   0.800000000   0.451020000    0   0   0
O0       0.750000000   0.200000000   0.451220000    0   0   0
O0       0.500000000   0.500000000   0.497560000    0   0   0
O0       0.500000000   0.000000000   0.524790000    0   0   0
Cr1      0.750000000   0.000000000   0.577460000    0   0   0
Cr1      0.500000000   0.500000000   0.565410000    0   0   0
O0       0.750000000   0.700000000   0.575340000    0   0   0
O0       0.750000000   0.300000000   0.575320000    0   0   0
O0       0.500000000   0.000000000   0.618010000    0   0   0
H2      -0.000690000   0.641520000   0.380780000    0   0   0
H2       0.499310000   0.641520000   0.380780000    0   0   0
H2       0.157340000   0.029640000   0.367440000    0   0   0
H2       0.657350000   0.029640000   0.367440000    0   0   0
O0       0.500008694   0.499476555   0.628782378

     Check: negative starting charge=(component1):   -0.001981
     NEW-OLD atomic charge density approx. for the potential

     Check: negative/imaginary core charge=   -0.000012    0.000000
     Check: negative starting charge=(component1):   -0.001981

[...]

     Self-consistent Calculation

[...]

     Threshold (ethr) on eigenvalues was too large:
     Diagonalizing with lowered threshold

     Davidson diagonalization with overlap
     ethr =  8.46E-09,  avg # of iterations =  1.0

[...]

     total energy              =   -2025.75055976 Ry
     Harris-Foulkes estimate   =   -2025.75055976 Ry
     estimated scf accuracy    <       0.00000004 Ry

[...]

     iteration # 38     ecut=    40.00 Ry     beta=0.70
     Davidson diagonalization with overlap
     ethr =  1.53E-11,  avg # of iterations =  1.0

     negative rho (up, down):  0.452E-02 0.179E-02

     End of self-consistent calculation

 ------ SPIN UP ------------

[...]

 ------ SPIN DOWN ----------

[...]

          k = 0.2500-0.4682 0.0000 ( 27150 PWs)   bands (ev):

[...]

          k =-0.2500 0.2341 0.0000 ( 27132 PWs)   bands (ev):

   -73.9320 -73.7278 -73.7160 -73.1494 -73.0864 -72.9938 -72.7216 -72.7085
   -45.8614 -45.1267 -45.1241 -45.1179 -45.0939 -45.0548 -45.0351 -44.9704
   -44.9485 -44.7830 -44.7149 -44.6655 -44.4847 -44.3975 -44.2945 -44.2864
   -44.2651 -44.2244 -44.2101 -44.1646 -44.1434 -44.1350 -43.9050 -43.7742
   -21.5823 -21.1182 -21.0714 -20.7841 -20.7211 -20.5564 -20.2627 -20.2407
   -20.1864 -20.0704 -20.0078 -19.8838 -19.8132 -19.8080 -19.7532 -19.6914
   -19.5049 -19.3972 -19.1091  -9.1842  -8.9046  -8.4945  -8.4109  -8.3464
    -8.0276  -7.9224  -7.8757  -7.8405  -7.8090  -7.7150  -7.6393  -7.4679
    -7.3431  -7.2823  -7.1593  -7.1117  -7.0000  -6.9446  -6.8873  -6.7660
    -6.6328  -6.5637  -6.3437  -6.2348  -6.1354  -6.0239  -5.8587  -5.8145
    -5.7065  -5.6153  -5.5676  -5.5260  -5.3946  -5.3632  -5.2367  -5.1917
    -4.9798  -4.8949  -4.8434  -4.7997  -4.7378  -4.5224  -4.4757  -4.4481
    -4.3307  -4.3111  -4.1335  -4.0548  -3.9369  -3.8191  -3.6949  -3.4410
    -3.4129  -3.3079  -3.1840  -2.9225  -0.9881  -0.9001  -0.8177  -0.6753
    -0.5769  -0.5369  -0.4932  -0.4325  -0.3575  -0.2819  -0.2505  -0.1952
    -0.0447  -0.0079   0.0617   0.1365   0.1871   0.2418   0.2550   0.3363
     0.4887   0.5697   0.6799   0.7180   0.9862   1.2226   1.4108   1.6657
     1.8002   2.0193   2.0698   2.2291   2.4095   2.4977   2.6299   2.6874
     2.9636   3.0507   3.2112   3.6008   3.6468   4.3310   4.5406   4.9707
     5.3932   5.5539   5.6256   6.1650   6.3126   6.5021   6.5189   6.7237
     6.8250   6.9785   7.0061   7.3339   7.5017   7.7754   7.8574   8.0081
     8.2755   8.3610   8.4911   8.5679   8.7452   8.8508   8.9569   9.0649
     9.1759   9.2460   9.4423   9.5034   9.7218   9.7684  10.0105  10.1192
    10.1510  10.2479  10.3463  10.4909  10.5550  10.6761  10.7232  10.7683
    10.9268  11.0483  11.1588  11.2431  11.3144  11.4482  11.4845  11.6511
    11.7390  11.8316  11.9052  11.9649  12.0811  12.1368  12.2032  12.3048
    12.3724  12.4091  12.5744  12.6433  12.7790  12.8036  12.8961  12.9025
    12.9410  13.0141  13.0855  13.2149  13.2605  13.2990  13.3416  13.4684
    13.5485  13.6596  13.7228  13.8224  13.9134  13.9900  14.0379  14.1677
    14.2136  14.3229  14.4018  14.4291  14.5631  14.6158  14.6946  14.8077
    14.8556  14.9288  15.0149  15.0661  15.2076  15.2646  15.3314  15.3472
    15.4312  15.5947  15.6482  15.7242  15.8122  15.8900  15.9550  16.0299
    16.0719  16.1406  16.2517  16.3626  16.4226  16.4920  16.5087  16.6333
    16.7089  16.8177  16.8620  16.9083  17.0049  17.0428  17.0860  17.1408
    17.2731  17.3581  17.4024  17.4455  17.4857  17.6248  17.6858  17.7280
    17.7511  17.7843  17.8580  17.9282  18.0313  18.0646  18.1444  18.2527
    18.3310  18.4055  18.4567  18.5420  18.6079  18.6388  18.6669  18.7743
    18.8715  18.9274  19.0253  19.0769  19.1637  19.2220  19.3315  19.4086
    19.4331  19.5279  19.6474  19.6684  19.7150  19.7652  19.8504  19.9160
    19.9800  20.1456  20.1864  20.2282  20.3221  20.3932  20.4583  20.5289
    20.5659  20.6785  20.7314  20.8310  20.9098  20.9732  21.0796  21.1320
    21.2236  21.2748  21.3957  21.4527  21.4836

     the Fermi energy is    -1.7302 ev

!    total energy              =   -2025.75055976 Ry
     Harris-Foulkes estimate   =   -2025.75055976 Ry
     estimated scf accuracy    <          5.5E-09 Ry

     The total energy is the sum of the following terms:

     one-electron contribution =  -24391.08144633 Ry
     hartree contribution      =   12212.03900644 Ry
     xc contribution           =    -321.77041255 Ry
     ewald contribution        =   10475.06278608 Ry
     smearing contrib. (-TS)   =      -0.00049341 Ry

     total magnetization       =    14.00 Bohr mag/cell
     absolute magnetization    =    17.56 Bohr mag/cell

     convergence has been achieved in  38 iterations

     Forces acting on atoms (Ry/au):

     negative rho (up, down):  0.452E-02 0.179E-02
     atom    1 type  1   force =    -0.00396218   -0.01382364    0.00282859
     atom    2 type  1   force =     0.00010873    0.01362716    0.00005776
     atom    3 type  2   force =     0.00632802   -0.00575767   -0.01172551
     atom    4 type  2   force =     0.00026202    0.00786633    0.00372927
     atom    5 type  1   force =     0.00455772    0.00579670    0.00064490
     atom    6 type  1   force =    -0.00028158   -0.00475783    0.00018884
     atom    7 type  1   force =    -0.00007872   -0.00070874   -0.00077101
     atom    8 type  1   force =     0.00067905   -0.00077510   -0.01132326
     atom    9 type  2   force =     0.00398804    0.00042699    0.01734881
     atom   10 type  2   force =    -0.00000792   -0.00032075   -0.00128833
     atom   11 type  1   force =    -0.05266366   -0.01614037   -0.04167907
     atom   12 type  1   force =    -0.05295464    0.01586615   -0.04130634
     atom   13 type  1   force =    -0.00061381   -0.00003416   -0.01067839
     atom   14 type  1   force =    -0.00349401   -0.01407774    0.00073366
     atom   15 type  1   force =    -0.00007577    0.01496765   -0.00091863
     atom   16 type  2   force =    -0.00680910   -0.00481080   -0.01183233
     atom   17 type  2   force =     0.00048552    0.00753262    0.00132621
     atom   18 type  1   force =     0.00297803    0.00577567    0.00058957
     atom   19 type  1   force =    -0.00107035   -0.00533735    0.00031121
     atom   20 type  1   force =    -0.00019617   -0.00158131   -0.03427875
     atom   21 type  1   force =     0.00067391   -0.00058746    0.00017179
     atom   22 type  2   force =    -0.00325717    0.00019903    0.01746948
     atom   23 type  2   force =    -0.00007422    0.00097726    0.22011768
     atom   24 type  1   force =     0.05260839   -0.01616611   -0.04153029
     atom   25 type  1   force =     0.05339159    0.01583652   -0.04155765
     atom   26 type  1   force =    -0.00057124   -0.00003800   -0.01571750
     atom   27 type  3   force =     0.00002522   -0.00249404    0.00112242
     atom   28 type  3   force =     0.00010577   -0.00198066   -0.00088864
     atom   29 type  3   force =     0.00059217    0.00052843   -0.00064730
     atom   30 type  3   force =    -0.00067513    0.00021092   -0.00067014
     atom   31 type  1   force =     0.00000150   -0.00021970    0.00017293

     Total force =     0.000280     Total SCF correction =     0.000030
     SCF correction compared to forces is large: reduce conv_thr to get better values

     bfgs converged in   8 scf cycles and   7 bfgs steps
     (criteria: energy < 0.10E-03, force < 0.10E-02)

     End of BFGS Geometry Optimization

     Final energy   =   -2025.7505597574 Ry
Begin final coordinates

ATOMIC_POSITIONS (crystal)
O0       0.000000000   0.000000000   0.380440000    0   0   0
O0       0.000000000   0.500000000   0.398750000    0   0   0
Cr1      0.250000000   0.500000000   0.449490000    0   0   0
Cr1      0.000000000   0.000000000   0.452000000    0   0   0
O0       0.250000000   0.800000000   0.451020000    0   0   0
O0       0.250000000   0.200000000   0.451220000    0   0   0
O0       0.000000000   0.500000000   0.497560000    0   0   0
O0       0.000000000   0.000000000   0.524790000    0   0   0
Cr1      0.250000000   0.000000000   0.577460000    0   0   0
Cr1      0.000000000   0.500000000   0.565410000    0   0   0
O0       0.250000000   0.700000000   0.575340000    0   0   0
O0       0.250000000   0.300000000   0.575320000    0   0   0
O0       0.000000000   0.000000000   0.618010000    0   0   0
O0       0.500000000   0.000000000   0.380440000    0   0   0
O0       0.500000000   0.500000000   0.398750000    0   0   0
Cr1      0.750000000   0.500000000   0.449490000    0   0   0
Cr1      0.500000000   0.000000000   0.452000000    0   0   0
O0       0.750000000   0.800000000   0.451020000    0   0   0
O0       0.750000000   0.200000000   0.451220000    0   0   0
O0       0.500000000   0.500000000   0.497560000    0   0   0
O0       0.500000000   0.000000000   0.524790000    0   0   0
Cr1      0.750000000   0.000000000   0.577460000    0   0   0
Cr1      0.500000000   0.500000000   0.565410000    0   0   0
O0       0.750000000   0.700000000   0.575340000    0   0   0
O0       0.750000000   0.300000000   0.575320000    0   0   0
O0       0.500000000   0.000000000   0.618010000    0   0   0
H2      -0.000690000   0.641520000   0.380780000    0   0   0
H2       0.499310000   0.641520000   0.380780000    0   0   0
H2       0.157340000   0.029640000   0.367440000    0   0   0
H2       0.657350000   0.029640000   0.367440000    0   0   0
O0       0.500008694   0.499476555   0.628782378
End final coordinates

     General routines

     Parallel routines

   This run was terminated on:   0:55: 8  22Mar2014

   JOB DONE.