     Program PWSCF v.5.0.2 (svn rev. 9656) starts on  1Jun2014 at 13: 2: 8

     Current dimensions of program PWSCF are:
     Max number of different atomic species (ntypx) = 10
     Max number of k-points (npk) =  40000
     Max angular momentum in pseudopotentials (lmaxx) =  3
     Reading input from pwscf.in
Warning: card &CELL ignored
Warning: card / ignored

     Subspace diagonalization in iterative solution of the eigenvalue problem:
     a serial algorithm will be used

     bravais-lattice index     =            0
     lattice parameter (alat)  =      10.1289  a.u.
     unit-cell volume          =    6836.7721 (a.u.)^3
     number of atoms/cell      =           33
     number of atomic types    =            3
     number of electrons       =       245.00
     number of Kohn-Sham states=          367
     kinetic-energy cutoff     =      40.0000  Ry
     charge density cutoff     =     500.0000  Ry
     convergence threshold     =      1.0E-06
     mixing beta               =       0.7000
     number of iterations used =            8  plain     mixing
     Exchange-correlation      = SLA  PW   PBE  PBE ( 1 4 3 4 0)
     EXX-fraction              =        0.00
     nstep                     =           50

     celldm(1)=  10.128932  celldm(2)=   0.000000  celldm(3)=   0.000000
     celldm(4)=   0.000000  celldm(5)=   0.000000  celldm(6)=   0.000000

     crystal axes: (cart. coord. in units of alat)
               a(1) = (   1.000000   0.000000   0.000000 )
               a(2) = (   0.000000   1.306037   0.000000 )
               a(3) = (   0.000000   0.000000   5.037380 )

     reciprocal axes: (cart. coord. in units 2 pi/alat)
               b(1) = (  1.000000  0.000000  0.000000 )
               b(2) = (  0.000000  0.765675  0.000000 )
               b(3) = (  0.000000  0.000000  0.198516 )

     PseudoPot. # 1 for O  read from file:
     /home/camp/zhonxu/pseudo/o_pbe_v1.01.uspp.F.UPF
     MD5 check sum: 2bcb18d16ea4b960afae9ec6d52f22d2
     Pseudo is Ultrasoft + core correction, Zval =  6.0
     Generated by new atomic code, or converted to UPF format
     Using radial grid of  737 points,  5 beta functions with:
                l(1) =   0
                l(2) =   0
                l(3) =   1
                l(4) =   1
                l(5) =   2
     Q(r) pseudized with  8 coefficients,  rinner =    0.900   0.900   0.900
                                                       0.900   0.900

     PseudoPot. # 2 for Re read from file:
     /home/camp/zhonxu/pseudo/re_pbe_v1.uspp.F.UPF
     MD5 check sum: 6f5a5dcaf9c96c20d0ffdde0de57afc6
     Pseudo is Ultrasoft + core correction, Zval = 15.0
     Generated by new atomic code, or converted to UPF format
     Using radial grid of  981 points,  8 beta functions with:
                l(1) =   0
                l(2) =   0
                l(3) =   1
                l(4) =   1
                l(5) =   2
                l(6) =   2
                l(7) =   3
                l(8) =   3
     Q(r) pseudized with  8 coefficients,  rinner =    1.000   1.000   1.000
                                                       1.000   1.000   1.000
                                                       1.000

     PseudoPot. # 3 for H  read from file:
     /home/camp/zhonxu/pseudo/h_pbe_v1.uspp.F.UPF
     MD5 check sum: 3408e3ff4ec8b0a4e358431e7e038a48
     Pseudo is Ultrasoft, Zval =  1.0
     Generated by new atomic code, or converted to UPF format
     Using radial grid of  615 points,  2 beta functions with:
                l(1) =   0
                l(2) =   0
     Q(r) pseudized with  8 coefficients,  rinner =    0.700

     atomic species   valence    mass     pseudopotential
        O0             6.00    15.99940     O ( 1.00)
        Re1           15.00   186.20700     Re( 1.00)
        H2             1.00     1.00794     H ( 1.00)

     Simplified LDA+U calculation (l_max = 2) with parameters (eV):
     atomic species    L          U    alpha       J0     beta
        Re1            2     6.5000   0.0000   0.0000   0.0000

     No symmetry found

   Cartesian axes

     site n.     atom                  positions (alat units)
         1           O0  tau(   1) = (   0.0000000   0.0000000   1.8623194  )
         2           O0  tau(   2) = (   0.0000000   0.6530184   1.9253370  )
         3           Re1 tau(   3) = (   0.2500000   0.6530184   2.2271768  )
         4           Re1 tau(   4) = (   0.0000000   0.0000000   2.2287384  )
         5           O0  tau(   5) = (   0.2500000   1.0187087   2.2217869  )
         6           O0  tau(   6) = (   0.2500000   0.2873281   2.2210816  )
         7           O0  tau(   7) = (   0.0000000   0.6530184   2.5071544  )
         8           O0  tau(   8) = (   0.0000000   0.0000000   2.5894652  )
         9           Re1 tau(   9) = (   0.2500000   0.0000000   2.8894412  )
        10           Re1 tau(  10) = (   0.0000000   0.6530184   2.8583102  )
        11           O0  tau(  11) = (   0.2500000   0.9403465   2.8756892  )
        12           O0  tau(  12) = (   0.2500000   0.3656903   2.8872751  )
        13           O0  tau(  13) = (   0.0000000   0.0000000   3.1516368  )
        14           O0  tau(  14) = (   0.5000000   0.0000000   1.8624705  )
        15           O0  tau(  15) = (   0.5000000   0.6530184   1.9269994  )
        16           Re1 tau(  16) = (   0.7500000   0.6530184   2.2271768  )
        17           Re1 tau(  17) = (   0.5000000   0.0000000   2.2274287  )
        18           O0  tau(  18) = (   0.7500000   1.0187087   2.2214342  )
        19           O0  tau(  19) = (   0.7500000   0.2873281   2.2214846  )
        20           O0  tau(  20) = (   0.5000000   0.6530184   2.5086153  )
        21           O0  tau(  21) = (   0.5000000   0.0000000   2.5899690  )
        22           Re1 tau(  22) = (   0.7500000   0.0000000   2.8888367  )
        23           Re1 tau(  23) = (   0.5000000   0.6530184   2.9018835  )
        24           O0  tau(  24) = (   0.7500000   0.9403465   2.8756892  )
        25           O0  tau(  25) = (   0.7500000   0.3656903   2.8872248  )
        26           O0  tau(  26) = (   0.5000000   0.0000000   3.1466498  )
        27           H2  tau(  27) = (  -0.0002100   0.8169913   1.8417165  )
        28           H2  tau(  28) = (   0.4996400   0.8147057   1.8388956  )
        29           H2  tau(  29) = (   0.1678400   0.0328729   1.7887233  )
        30           H2  tau(  30) = (   0.6697500   0.0291246   1.7904864  )
        31           O0  tau(  31) = (   0.4996300   0.6876806   3.2307741  )
        32           O0  tau(  32) = (   0.5002900   0.4188329   3.4291461  )
        33           H2  tau(  33) = (   0.4999500   0.5176477   3.5843478  )

     number of k points=    10  Methfessel-Paxton smearing, width (Ry)=  0.0100
                       cart. coord. in units 2pi/alat
        k(    1) = (   0.0000000   0.0000000   0.0000000), wk =   0.1250000
        k(    2) = (   0.0000000   0.1914188   0.0000000), wk =   0.2500000
        k(    3) = (   0.0000000  -0.3828376   0.0000000), wk =   0.1250000
        k(    4) = (   0.2500000   0.0000000   0.0000000), wk =   0.2500000
        k(    5) = (   0.2500000   0.1914188   0.0000000), wk =   0.2500000
        k(    6) = (   0.2500000  -0.3828376   0.0000000), wk =   0.2500000
        k(    7) = (  -0.5000000   0.0000000   0.0000000), wk =   0.1250000
        k(    8) = (  -0.5000000   0.1914188   0.0000000), wk =   0.2500000
        k(    9) = (  -0.5000000  -0.3828376   0.0000000), wk =   0.1250000
        k(   10) = (  -0.2500000   0.1914188   0.0000000), wk =   0.2500000

     Largest allocated arrays     est. size (Mb)     dimensions
     Largest temporary arrays     est. size (Mb)     dimensions

     Check: negative/imaginary core charge=   -0.000003    0.000000

     Initial potential from superposition of free atoms
     Check: negative starting charge=   -0.236968

     starting charge  240.99957, renormalised to  245.00000

     negative rho (up, down):  0.241E+00 0.000E+00
     Number of +U iterations with fixed ns =  0
     Starting occupations:
 --- enter write_ns ---
 LDA+U parameters:
U( 2)     =  6.50000000
alpha( 2) =  0.00000000
atom    3   Tr[ns(na)] =   5.00000
    eigenvalues:
  0.500  0.500  0.500  0.500  0.500
    eigenvectors:
  1.000  0.000  0.000  0.000  0.000
  0.000  1.000  0.000  0.000  0.000
  0.000  0.000  1.000  0.000  0.000
  0.000  0.000  0.000  1.000  0.000
  0.000  0.000  0.000  0.000  1.000
    occupations:
  0.500  0.000  0.000  0.000  0.000
  0.000  0.500  0.000  0.000  0.000
  0.000  0.000  0.500  0.000  0.000
  0.000  0.000  0.000  0.500  0.000
  0.000  0.000  0.000  0.000  0.500
atom    4   Tr[ns(na)] =   5.00000
    eigenvalues:
  0.500  0.500  0.500  0.500  0.500
    eigenvectors:
  1.000  0.000  0.000  0.000  0.000
  0.000  1.000  0.000  0.000  0.000
  0.000  0.000  1.000  0.000  0.000
  0.000  0.000  0.000  1.000  0.000
  0.000  0.000  0.000  0.000  1.000
    occupations:
  0.500  0.000  0.000  0.000  0.000
  0.000  0.500  0.000  0.000  0.000
  0.000  0.000  0.500  0.000  0.000
  0.000  0.000  0.000  0.500  0.000
  0.000  0.000  0.000  0.000  0.500
atom    9   Tr[ns(na)] =   5.00000
    eigenvalues:
  0.500  0.500  0.500  0.500  0.500
    eigenvectors:
  1.000  0.000  0.000  0.000  0.000
  0.000  1.000  0.000  0.000  0.000
  0.000  0.000  1.000  0.000  0.000
  0.000  0.000  0.000  1.000  0.000
  0.000  0.000  0.000  0.000  1.000
    occupations:
  0.500  0.000  0.000  0.000  0.000
  0.000  0.500  0.000  0.000  0.000
  0.000  0.000  0.500  0.000  0.000
  0.000  0.000  0.000  0.500  0.000
  0.000  0.000  0.000  0.000  0.500
atom   10   Tr[ns(na)] =   5.00000
    eigenvalues:
  0.500  0.500  0.500  0.500  0.500
    eigenvectors:
  1.000  0.000  0.000  0.000  0.000
  0.000  1.000  0.000  0.000  0.000
  0.000  0.000  1.000  0.000  0.000
  0.000  0.000  0.000  1.000  0.000
  0.000  0.000  0.000  0.000  1.000
    occupations:
  0.500  0.000  0.000  0.000  0.000
  0.000  0.500  0.000  0.000  0.000
  0.000  0.000  0.500  0.000  0.000
  0.000  0.000  0.000  0.500  0.000
  0.000  0.000  0.000  0.000  0.500
atom   16   Tr[ns(na)] =   5.00000
    eigenvalues:
  0.500  0.500  0.500  0.500  0.500
    eigenvectors:
  1.000  0.000  0.000  0.000  0.000
  0.000  1.000  0.000  0.000  0.000
  0.000  0.000  1.000  0.000  0.000
  0.000  0.000  0.000  1.000  0.000
  0.000  0.000  0.000  0.000  1.000
    occupations:
  0.500  0.000  0.000  0.000  0.000
  0.000  0.500  0.000  0.000  0.000
  0.000  0.000  0.500  0.000  0.000
  0.000  0.000  0.000  0.500  0.000
  0.000  0.000  0.000  0.000  0.500
atom   17   Tr[ns(na)] =   5.00000
    eigenvalues:
  0.500  0.500  0.500  0.500  0.500
    eigenvectors:
  1.000  0.000  0.000  0.000  0.000
  0.000  1.000  0.000  0.000  0.000
  0.000  0.000  1.000  0.000  0.000
  0.000  0.000  0.000  1.000  0.000
  0.000  0.000  0.000  0.000  1.000
    occupations:
  0.500  0.000  0.000  0.000  0.000
  0.000  0.500  0.000  0.000  0.000
  0.000  0.000  0.500  0.000  0.000
  0.000  0.000  0.000  0.500  0.000
  0.000  0.000  0.000  0.000  0.500
atom   22   Tr[ns(na)] =   5.00000
    eigenvalues:
  0.500  0.500  0.500  0.500  0.500
[...]
  0.007  0.000 -0.038 -0.005  0.795
atom   10   Tr[ns(na)] =   6.53876
    eigenvalues:
  0.477  0.523  0.554  0.786  0.930
    eigenvectors:
  0.981  0.019  0.000  0.000  0.000
  0.000  0.000  0.000  0.000  1.000
  0.019  0.957  0.024  0.001  0.000
  0.000  0.001  0.000  0.999  0.000
  0.000  0.024  0.976  0.000  0.000
    occupations:
  0.478  0.001 -0.006  0.006 -0.000
  0.001  0.930  0.002 -0.000 -0.003
 -0.006  0.002  0.523  0.008 -0.005
  0.006 -0.000  0.008  0.785 -0.000
 -0.000 -0.003 -0.005 -0.000  0.553
atom   16   Tr[ns(na)] =   6.57293
    eigenvalues:
  0.456  0.540  0.576  0.788  0.927
    eigenvectors:
  0.007  0.018  0.256  0.719  0.000
  0.000  0.955  0.043  0.001  0.001
  0.948  0.000  0.001  0.006  0.046
  0.000  0.026  0.700  0.274  0.000
  0.045  0.001  0.000  0.000  0.954
    occupations:
  0.727  0.010  0.023 -0.095  0.005
  0.010  0.542  0.004  0.002 -0.009
  0.023  0.004  0.480 -0.010 -0.098
 -0.095  0.002 -0.010  0.633 -0.002
  0.005 -0.009 -0.098 -0.002  0.905
atom   17   Tr[ns(na)] =   6.60049
    eigenvalues:
  0.548  0.576  0.613  0.767  0.796
    eigenvectors:
  0.000  0.001  0.995  0.000  0.005
  0.004  0.000  0.000  0.994  0.001
  0.996  0.000  0.000  0.004  0.000
  0.000  0.000  0.004  0.001  0.995
  0.000  0.999  0.001  0.000  0.000
    occupations:
  0.614  0.003  0.000 -0.012  0.001
  0.003  0.766  0.014 -0.001 -0.001
  0.000  0.014  0.549  0.000 -0.000
 -0.012 -0.001  0.000  0.795 -0.000
  0.001 -0.001 -0.000 -0.000  0.576
atom   22   Tr[ns(na)] =   6.62945
    eigenvalues:
  0.516  0.583  0.588  0.807  0.821
    eigenvectors:
  0.000  0.035  0.209  0.620  0.136
  0.000  0.860  0.140  0.000  0.000
  0.964  0.000  0.000  0.007  0.029
  0.000  0.104  0.651  0.197  0.047
  0.036  0.000  0.000  0.177  0.787
    occupations:
  0.755 -0.002  0.001 -0.096  0.004
 -0.002  0.584  0.001 -0.001 -0.000
  0.001  0.001  0.527 -0.000  0.056
 -0.096 -0.001 -0.000  0.642 -0.004
  0.004 -0.000  0.056 -0.004  0.808
atom   23   Tr[ns(na)] =   6.62123
    eigenvalues:
  0.488  0.553  0.584  0.787  0.898
    eigenvectors:
  0.000  0.000  0.968  0.031  0.001
  0.992  0.006  0.000  0.000  0.002
  0.002  0.000  0.000  0.007  0.991
  0.000  0.000  0.031  0.962  0.006
  0.006  0.994  0.000  0.000  0.000
    occupations:
  0.590  0.001 -0.006 -0.036 -0.001
  0.001  0.489 -0.017 -0.006 -0.005
 -0.006 -0.017  0.897  0.008 -0.002
 -0.036 -0.006  0.008  0.781  0.000
 -0.001 -0.005 -0.002  0.000  0.553
N of occupied +U levels =  52.7268969
 --- exit write_ns ---

     Threshold (ethr) on eigenvalues was too large:
     Diagonalizing with lowered threshold

     Davidson diagonalization with overlap
     ethr =  8.89E-09,  avg # of iterations =  2.0

[...]

     total energy              =   -2204.46708040 Ry
     Harris-Foulkes estimate   =   -2204.46708041 Ry
     estimated scf accuracy    <       0.00000002 Ry

     iteration # 18     ecut=    40.00 Ry     beta=0.70
     Davidson diagonalization with overlap
     ethr =  4.22E-12,  avg # of iterations =  1.0

     negative rho (up, down):  0.237E+00 0.000E+00

     End of self-consistent calculation
 --- enter write_ns ---
 LDA+U parameters:
U( 2)     =  6.50000000
alpha( 2) =  0.00000000
atom    3   Tr[ns(na)] =   6.56352
    eigenvalues:
  0.444  0.540  0.578  0.791  0.929
    eigenvectors:
  0.006  0.019  0.254  0.720  0.000
  0.000  0.952  0.047  0.001  0.001
  0.943  0.000  0.001  0.006  0.050
  0.000  0.029  0.698  0.273  0.000
  0.050  0.000  0.000  0.000  0.949
    occupations:
  0.729 -0.010  0.024 -0.095 -0.006
 -0.010  0.543 -0.003 -0.003 -0.008
  0.024 -0.003  0.471 -0.011  0.105
 -0.095 -0.003 -0.011  0.635  0.002
 -0.006 -0.008  0.105  0.002  0.904
atom    4   Tr[ns(na)] =   6.60120
    eigenvalues:
  0.543  0.580  0.621  0.754  0.803
    eigenvectors:
  0.000  0.000  0.994  0.000  0.005
  0.003  0.000  0.000  0.996  0.001
  0.997  0.000  0.000  0.003  0.000
  0.000  0.000  0.005  0.001  0.994
  0.000  1.000  0.000  0.000  0.000
    occupations:
  0.622  0.003  0.001 -0.013  0.001
  0.003  0.753  0.011 -0.001 -0.001
  0.001  0.011  0.543  0.001  0.000
 -0.013 -0.001  0.001  0.802 -0.000
  0.001 -0.001  0.000 -0.000  0.580
atom    9   Tr[ns(na)] =   6.59815
    eigenvalues:
  0.569  0.598  0.624  0.706  0.802
    eigenvectors:
  0.000  0.159  0.000  0.835  0.006
  0.000  0.001  0.999  0.000  0.000
  0.973  0.000  0.000  0.000  0.027
  0.000  0.840  0.001  0.156  0.002
  0.027  0.000  0.000  0.008  0.965
    occupations:
  0.689  0.002 -0.001 -0.040  0.007
  0.002  0.624 -0.001 -0.000  0.000
 -0.001 -0.001  0.575  0.001 -0.038
 -0.040 -0.000  0.001  0.615 -0.005
  0.007  0.000 -0.038 -0.005  0.795
atom   10   Tr[ns(na)] =   6.54013
    eigenvalues:
  0.477  0.523  0.554  0.786  0.930
    eigenvectors:
  0.980  0.019  0.000  0.000  0.000
  0.000  0.000  0.000  0.000  1.000
  0.019  0.957  0.024  0.001  0.000
  0.000  0.001  0.000  0.999  0.000
  0.000  0.024  0.976  0.000  0.000
    occupations:
  0.478  0.001 -0.006  0.006 -0.000
  0.001  0.930  0.003 -0.000 -0.003
 -0.006  0.003  0.523  0.008 -0.005
  0.006 -0.000  0.008  0.786 -0.000
 -0.000 -0.003 -0.005 -0.000  0.553
atom   16   Tr[ns(na)] =   6.57223
    eigenvalues:
  0.456  0.540  0.576  0.788  0.927
    eigenvectors:
  0.007  0.018  0.256  0.719  0.000
  0.000  0.955  0.043  0.001  0.001
  0.947  0.000  0.001  0.006  0.046
  0.000  0.026  0.700  0.274  0.000
  0.046  0.001  0.000  0.000  0.953
    occupations:
  0.727  0.010  0.023 -0.095  0.005
  0.010  0.542  0.004  0.003 -0.009
  0.023  0.004  0.480 -0.010 -0.098
 -0.095  0.003 -0.010  0.633 -0.002
  0.005 -0.009 -0.098 -0.002  0.905
atom   17   Tr[ns(na)] =   6.60162
    eigenvalues:
  0.549  0.576  0.614  0.767  0.796
    eigenvectors:
  0.000  0.000  0.995  0.000  0.005
  0.004  0.000  0.000  0.995  0.001
  0.996  0.000  0.000  0.004  0.000
  0.000  0.000  0.004  0.001  0.995
  0.000  0.999  0.001  0.000  0.000
    occupations:
  0.614  0.003  0.000 -0.012  0.001
  0.003  0.766  0.014 -0.001 -0.001
  0.000  0.014  0.550  0.000 -0.000
 -0.012 -0.001  0.000  0.795 -0.000
  0.001 -0.001 -0.000 -0.000  0.576
atom   22   Tr[ns(na)] =   6.62931
    eigenvalues:
  0.516  0.583  0.588  0.807  0.821
    eigenvectors:
  0.000  0.035  0.209  0.619  0.136
  0.000  0.859  0.140  0.000  0.000
  0.963  0.000  0.000  0.007  0.029
  0.000  0.105  0.651  0.197  0.047
  0.036  0.000  0.000  0.177  0.787
    occupations:
  0.755 -0.001  0.001 -0.096  0.004
 -0.001  0.584  0.001 -0.001 -0.000
  0.001  0.001  0.526 -0.000  0.056
 -0.096 -0.001 -0.000  0.642 -0.004
  0.004 -0.000  0.056 -0.004  0.808
atom   23   Tr[ns(na)] =   6.62091
    eigenvalues:
  0.488  0.553  0.584  0.787  0.898
    eigenvectors:
  0.000  0.000  0.968  0.031  0.001
  0.992  0.006  0.000  0.000  0.002
  0.002  0.000  0.000  0.007  0.991
  0.000  0.000  0.031  0.962  0.006
  0.006  0.994  0.000  0.000  0.000
    occupations:
  0.590  0.001 -0.006 -0.036 -0.001
  0.001  0.489 -0.018 -0.006 -0.005
 -0.006 -0.018  0.897  0.008 -0.002
 -0.036 -0.006  0.008  0.781  0.000
 -0.001 -0.005 -0.002  0.000  0.553
N of occupied +U levels =  52.7270665
 --- exit write_ns ---

[...]

          k = 0.2500-0.3828 0.0000 ( 29202 PWs)   bands (ev):

[...]

          k =-0.2500 0.1914 0.0000 ( 29229 PWs)   bands (ev):

   -80.6130 -80.5235 -80.4210 -80.1855 -80.0779 -80.0264 -79.9919 -79.9629
   -42.6476 -42.6018 -42.5887 -42.5132 -42.4796 -42.4725 -42.4505 -42.4316
   -42.3505 -42.3346 -42.3072 -42.2870 -42.2435 -42.0481 -42.0290 -42.0096
   -41.9634 -41.9539 -41.9402 -41.8620 -41.6334 -41.5451 -41.4524 -41.2740
   -21.3439 -20.5804 -20.1185 -20.0014 -19.7752 -19.6971 -19.5609 -19.4924
   -19.4496 -19.3557 -19.2396 -18.9860 -18.9304 -18.8651 -18.8281 -18.6769
   -18.6092 -18.1540 -17.9698 -16.7623  -9.0324  -8.8410  -8.7179  -8.6252
    -8.5788  -8.3188  -8.1230  -8.0871  -7.8408  -7.7644  -7.7298  -7.6669
    -7.5657  -7.3003  -6.9854  -6.9145  -6.7868  -6.5603  -6.5194  -6.3691
    -6.2978  -6.1747  -6.1155  -5.8826  -5.6798  -5.5839  -5.5150  -5.4161
    -5.2972  -5.1755  -5.0867  -4.9625  -4.7879  -4.7312  -4.6888  -4.5957
    -4.5208  -4.4548  -4.3431  -4.3271  -4.3127  -4.1953  -4.0040  -3.8582
    -3.6931  -3.6199  -3.5343  -3.5030  -3.4472  -3.2546  -3.1506  -3.0559
    -2.9803  -2.8925  -2.7797  -2.5947  -2.5157  -2.4257  -2.1178  -2.0016
    -1.8704  -1.5266  -1.2295  -0.9847  -0.8644  -0.7473  -0.1732  -0.0315
     0.0881   0.3416   0.6935   0.9304   1.1621   1.2686   1.4872   1.5447
     1.6925   1.7988   1.8467   2.0152   2.0814   2.2270   2.4850   2.8365
     3.4136   3.9615   4.0908   4.2706   4.3005   4.5203   4.6738   4.8204
     4.9381   4.9637   5.0882   5.2000   5.3320   5.3651   5.4633   5.8664
     6.0741   6.1701   6.3359   6.6081   6.6529   6.7396   6.8398   6.9818
     7.0666   7.3210   7.4779   7.5506   7.6936   7.8016   8.0155   8.1199
     8.3799   8.5197   8.6666   8.7265   8.8653   8.9689   9.0812   9.1716
     9.2697   9.4391   9.5314   9.6283   9.8009   9.8194   9.8998  10.0092
    10.0841  10.1592  10.2181  10.3464  10.4217  10.5453  10.6625  10.7306
    10.8062  10.8874  10.9973  11.0702  11.1969  11.2466  11.4822  11.5336
    11.5812  11.7161  11.8154  11.8638  12.0563  12.1642  12.2713  12.3613
    12.5088  12.6067  12.6247  12.6883  12.7470  12.8558  12.9055  13.0113
    13.0701  13.1921  13.2434  13.3313  13.4160  13.6120  13.6480  13.7206
    13.7883  13.8960  13.9288  14.0014  14.0761  14.1232  14.2018  14.3193
    14.3768  14.4070  14.4550  14.5004  14.5611  14.6137  14.6980  14.7775
    14.8232  14.8672  14.9842  15.0067  15.0700  15.1091  15.2317  15.2936
    15.3172  15.4318  15.4662  15.4832  15.6289  15.7102  15.8649  15.9078
    16.0381  16.1014  16.1766  16.2972  16.3697  16.3828  16.4445  16.5207
    16.5792  16.7465  16.7985  16.8885  16.9346  16.9830  17.0821  17.1961
    17.2729  17.3416  17.3691  17.4059  17.5326  17.5847  17.6255  17.6847
    17.7772  17.8333  17.8923  18.0178  18.0651  18.1619  18.2668  18.3702
    18.4290  18.4851  18.5177  18.5910  18.7060  18.7454  18.7836  18.8606
    18.8929  18.9901  19.0935  19.1842  19.2350  19.3314  19.3834  19.4780
    19.5281  19.6427  19.7146  19.7886  19.8415  19.9572  20.0404  20.1395
    20.2520  20.3479  20.4038  20.5037  20.5566  20.6005  20.6558  20.7032
    20.7644  20.8461  20.8959  20.9259  20.9884  21.0587  21.1318  21.1704
    21.2297  21.3013  21.3842  21.4415  21.5221  21.5990  21.6392  21.7496
    21.7869  21.8700  21.9117  21.9685  22.0142  22.0619  22.1069  22.2220
    22.2471  22.3068  22.3577  22.4119  22.4589  22.5351  22.5679  22.6209
    22.6737  22.7249  22.7636  22.8259  22.8735  22.9077  23.0430  23.0859
    23.1142  23.1424  23.2010  23.2788  23.3132  23.3806  23.4241

     the Fermi energy is     0.5897 ev

!    total energy              =   -2204.46708040 Ry
     Harris-Foulkes estimate   =   -2204.46708041 Ry
     estimated scf accuracy    <          4.0E-09 Ry

     The total energy is the sum of the following terms:

     one-electron contribution =  -24722.44063758 Ry
     hartree contribution      =   12386.24054144 Ry
     xc contribution           =    -602.26144823 Ry
     ewald contribution        =   10730.08060379 Ry
     Hubbard energy            =       3.91285566 Ry
     smearing contrib. (-TS)   =       0.00100450 Ry

     convergence has been achieved in  18 iterations

     Forces acting on atoms (Ry/au):

     negative rho (up, down):  0.237E+00 0.000E+00
     atom    1 type  1   force =    -0.00163968   -0.00450742    0.00035334
     atom    2 type  1   force =     0.00016013    0.00268975   -0.00067271
     atom    3 type  2   force =     0.04175743   -0.00062161   -0.00017547
     atom    4 type  2   force =    -0.00594680    0.00517390   -0.00021447
     atom    5 type  1   force =     0.00233156    0.01339223    0.00035749
     atom    6 type  1   force =     0.00249455   -0.01478581    0.00043700
     atom    7 type  1   force =    -0.00073498   -0.00523841   -0.00061441
     atom    8 type  1   force =     0.01702760    0.00168739   -0.00002605
     atom    9 type  2   force =    -0.01927099   -0.00511255   -0.00065621
     atom   10 type  2   force =    -0.00314716    0.00214449   -0.00035314
     atom   11 type  1   force =    -0.02095554    0.00704653    0.00002618
     atom   12 type  1   force =    -0.01278013    0.00748735   -0.00087401
     atom   13 type  1   force =     0.00841440   -0.00475757   -0.00044663
     atom   14 type  1   force =    -0.00551385   -0.00553433    0.00035547
     atom   15 type  1   force =     0.00008240    0.00565627    0.00001456
     atom   16 type  2   force =    -0.04026822   -0.00171952   -0.00014124
     atom   17 type  2   force =     0.00995632    0.00657352    0.00007195
     atom   18 type  1   force =    -0.00058573    0.01346364    0.00016996
     atom   19 type  1   force =    -0.00061382   -0.01377806    0.00041285
     atom   20 type  1   force =    -0.00248591    0.00047654   -0.00065857
     atom   21 type  1   force =    -0.00938611    0.00160516   -0.00069591
     atom   22 type  2   force =     0.01249052    0.00170265    0.00002254
     atom   23 type  2   force =     0.00529849   -0.00761389    0.00026136
     atom   24 type  1   force =     0.01847352   -0.00489447    0.00059520
     atom   25 type  1   force =     0.01549388    0.00882197    0.00007302
     atom   26 type  1   force =    -0.01085730   -0.01066160    0.00040274
     atom   27 type  3   force =    -0.00002188   -0.00015510   -0.00045278
     atom   28 type  3   force =    -0.00000847   -0.00018023   -0.00031935
     atom   29 type  3   force =    -0.00032798   -0.00024950    0.00086315
     atom   30 type  3   force =    -0.00017211   -0.00015510    0.00083007
     atom   31 type  1   force =    -0.00023302    0.00091960    0.00029209
     atom   32 type  1   force =     0.00095393    0.00053666    0.00034215
     atom   33 type  3   force =     0.00001493    0.00058751    0.00041981

     Total force =     0.003094     Total SCF correction =     0.000265

     entering subroutine stress ...

     negative rho (up, down):  0.237E+00 0.000E+00
          total   stress  (Ry/bohr**3)                   (kbar)     P=   -9.04
  -0.00005609  -0.00000129  -0.00000051         -8.25     -0.19     -0.07
  -0.00000129  -0.00008195  -0.00000704         -0.19    -12.06     -1.04
  -0.00000051  -0.00000704  -0.00004629         -0.07     -1.04     -6.81

     bfgs converged in  18 scf cycles and  17 bfgs steps
     (criteria: energy < 0.10E-03, force < 0.10E-02)

     End of BFGS Geometry Optimization

     Final energy   =   -2204.4670804037 Ry
Begin final coordinates

ATOMIC_POSITIONS (crystal)
O0       0.000000000   0.000000000   0.371772398    0   0   1
O0       0.000000000   0.500000000   0.383751536    0   0   1
Re1      0.250000000   0.500000000   0.441981512    0   0   1
Re1      0.000000000   0.000000000   0.443644779    0   0   1
O0       0.250000000   0.780000000   0.441270378    0   0   1
O0       0.250000000   0.220000000   0.441209888    0   0   1
O0       0.000000000   0.500000000   0.498038801    0   0   1
O0       0.000000000   0.000000000   0.513663860    0   0   1
Re1      0.250000000   0.000000000   0.576669429    0   0   1
Re1      0.000000000   0.500000000   0.567280987    0   0   1
O0       0.250000000   0.720000000   0.571671222    0   0   1
O0       0.250000000   0.280000000   0.573556574    0   0   1
O0       0.000000000   0.000000000   0.626168038    0   0   1
O0       0.500000000   0.000000000   0.371050913    0   0   1
O0       0.500000000   0.500000000   0.382253301    0   0   1
Re1      0.750000000   0.500000000   0.441955568    0   0   1
Re1      0.500000000   0.000000000   0.442950990    0   0   1
O0       0.750000000   0.780000000   0.441388295    0   0   1
O0       0.750000000   0.220000000   0.441443492    0   0   1
O0       0.500000000   0.500000000   0.496982991    0   0   1
O0       0.500000000   0.000000000   0.513964853    0   0   1
Re1      0.750000000   0.000000000   0.572033525    0   0   1
Re1      0.500000000   0.500000000   0.574308045    0   0   1
O0       0.750000000   0.720000000   0.570422955    0   0   1
O0       0.750000000   0.280000000   0.572273414    0   0   1
O0       0.500000000   0.000000000   0.625860689    0   0   1
H2      -0.000143877   0.617720699   0.363807627
H2       0.499552942   0.626811104   0.366344404
H2       0.169368309   0.020512711   0.356997312
H2       0.669583713   0.021515664   0.356593068
O0       0.497422088   0.524648118   0.642151159
O0       0.503479160   0.341549994   0.674316127
H2       0.499837850   0.404894136   0.706951869
End final coordinates

     General routines

     Parallel routines
     Hubbard U routines

   This run was terminated on:   2:10:19   3Jun2014

   JOB DONE.