     Program PWSCF v.5.0.2 (svn rev. 9656) starts on 24Jan2014 at 13: 5:19

     Current dimensions of program PWSCF are:
     Max number of different atomic species (ntypx) = 10
     Max number of k-points (npk) =  40000
     Max angular momentum in pseudopotentials (lmaxx) =  3
     Reading input from RuO2-v-0.90.in

     Subspace diagonalization in iterative solution of the eigenvalue problem:
     a serial algorithm will be used

     bravais-lattice index     =            0
     lattice parameter (alat)  =       8.4545  a.u.
     unit-cell volume          =     389.4450 (a.u.)^3
     number of atoms/cell      =            6
     number of atomic types    =            2
     number of electrons       =        56.00
     number of Kohn-Sham states=           81
     kinetic-energy cutoff     =      40.0000  Ry
     charge density cutoff     =     500.0000  Ry
     convergence threshold     =      1.0E-06
     mixing beta               =       0.3000
     number of iterations used =            8  plain     mixing
     Exchange-correlation      = SLA  PW   PBE  PBE ( 1 4 3 4 0)
     EXX-fraction              =        0.00
     nstep                     =           50

     celldm(1)=   8.454480  celldm(2)=   0.000000  celldm(3)=   0.000000
     celldm(4)=   0.000000  celldm(5)=   0.000000  celldm(6)=   0.000000

     crystal axes: (cart. coord. in units of alat)
               a(1) = (   1.000000   0.000000   0.000000 )
               a(2) = (   0.000000   1.000000   0.000000 )
               a(3) = (   0.000000   0.000000   0.644444 )

     reciprocal axes: (cart. coord. in units 2 pi/alat)
               b(1) = (  1.000000  0.000000  0.000000 )
               b(2) = (  0.000000  1.000000  0.000000 )
               b(3) = (  0.000000  0.000000  1.551724 )

     PseudoPot. # 1 for Ru read from file:
     /home/camp/zhonxu/pseudo/ru_pbe_v1.uspp.F.UPF
     MD5 check sum: df00be1c11b23341d9806d8f1dfa10cf
     Pseudo is Ultrasoft + core correction, Zval = 16.0
     Generated by new atomic code, or converted to UPF format
     Using radial grid of  967 points,  6 beta functions with:
                l(1) =   0
                l(2) =   0
                l(3) =   1
                l(4) =   1
                l(5) =   2
                l(6) =   2
     Q(r) pseudized with  8 coefficients,  rinner =    1.300   1.300   1.300
                                                       1.300   1.300

     PseudoPot. # 2 for O  read from file:
     /home/camp/zhonxu/pseudo/o_pbe_v1.01.uspp.F.UPF
     MD5 check sum: 2bcb18d16ea4b960afae9ec6d52f22d2
     Pseudo is Ultrasoft + core correction, Zval =  6.0
     Generated by new atomic code, or converted to UPF format
     Using radial grid of  737 points,  5 beta functions with:
                l(1) =   0
                l(2) =   0
                l(3) =   1
                l(4) =   1
                l(5) =   2
     Q(r) pseudized with  8 coefficients,  rinner =    0.900   0.900   0.900
                                                       0.900   0.900

     atomic species   valence    mass     pseudopotential
        Ru0           16.00   101.07000     Ru( 1.00)
        O1             6.00    15.99940     O ( 1.00)

     Starting magnetic structure
     atomic species   magnetization
        Ru0          0.600
        O1           0.000

     16 Sym. Ops., with inversion, found ( 8 have fractional translation)

   Cartesian axes

     site n.     atom                  positions (alat units)
         1           Ru0 tau(   1) = (   0.0000000   0.0000000   0.0000000  )
         2           Ru0 tau(   2) = (   0.5000000   0.5000000   0.3222222  )
         3           O1  tau(   3) = (   0.3050000   0.3050000   0.0000000  )
         4           O1  tau(   4) = (  -0.3050000  -0.3050000   0.0000000  )
         5           O1  tau(   5) = (   0.8050000   0.1950000   0.3222222  )
         6           O1  tau(   6) = (   0.1950000   0.8050000   0.3222222  )

     number of k points=    36  Methfessel-Paxton smearing, width (Ry)=  0.0100
                       cart. coord. in units 2pi/alat
        k(    1) = (   0.0000000   0.0000000   0.0000000), wk =   0.0080000
        k(    2) = (   0.0000000   0.0000000   0.3103448), wk =   0.0160000
        k(    3) = (   0.0000000   0.0000000   0.6206897), wk =   0.0160000
        k(    4) = (   0.0000000   0.2000000   0.0000000), wk =   0.0320000
        k(    5) = (   0.0000000   0.2000000   0.3103448), wk =   0.0640000
        k(    6) = (   0.0000000   0.2000000   0.6206897), wk =   0.0640000
        k(    7) = (   0.0000000   0.4000000   0.0000000), wk =   0.0320000
        k(    8) = (   0.0000000   0.4000000   0.3103448), wk =   0.0640000
        k(    9) = (   0.0000000   0.4000000   0.6206897), wk =   0.0640000
        k(   10) = (   0.2000000   0.2000000   0.0000000), wk =   0.0320000
        k(   11) = (   0.2000000   0.2000000   0.3103448), wk =   0.0640000
        k(   12) = (   0.2000000   0.2000000   0.6206897), wk =   0.0640000
        k(   13) = (   0.2000000   0.4000000   0.0000000), wk =   0.0640000
        k(   14) = (   0.2000000   0.4000000   0.3103448), wk =   0.1280000
        k(   15) = (   0.2000000   0.4000000   0.6206897), wk =   0.1280000
        k(   16) = (   0.4000000   0.4000000   0.0000000), wk =   0.0320000
        k(   17) = (   0.4000000   0.4000000   0.3103448), wk =   0.0640000
        k(   18) = (   0.4000000   0.4000000   0.6206897), wk =   0.0640000
        k(   19) = (   0.0000000   0.0000000   0.0000000), wk =   0.0080000
        k(   20) = (   0.0000000   0.0000000   0.3103448), wk =   0.0160000
        k(   21) = (   0.0000000   0.0000000   0.6206897), wk =   0.0160000
        k(   22) = (   0.0000000   0.2000000   0.0000000), wk =   0.0320000
        k(   23) = (   0.0000000   0.2000000   0.3103448), wk =   0.0640000
        k(   24) = (   0.0000000   0.2000000   0.6206897), wk =   0.0640000
        k(   25) = (   0.0000000   0.4000000   0.0000000), wk =   0.0320000
        k(   26) = (   0.0000000   0.4000000   0.3103448), wk =   0.0640000
        k(   27) = (   0.0000000   0.4000000   0.6206897), wk =   0.0640000
        k(   28) = (   0.2000000   0.2000000   0.0000000), wk =   0.0320000
        k(   29) = (   0.2000000   0.2000000   0.3103448), wk =   0.0640000
        k(   30) = (   0.2000000   0.2000000   0.6206897), wk =   0.0640000
        k(   31) = (   0.2000000   0.4000000   0.0000000), wk =   0.0640000
        k(   32) = (   0.2000000   0.4000000   0.3103448), wk =   0.1280000
        k(   33) = (   0.2000000   0.4000000   0.6206897), wk =   0.1280000
        k(   34) = (   0.4000000   0.4000000   0.0000000), wk =   0.0320000
        k(   35) = (   0.4000000   0.4000000   0.3103448), wk =   0.0640000
        k(   36) = (   0.4000000   0.4000000   0.6206897), wk =   0.0640000

     Largest allocated arrays     est. size (Mb)     dimensions
     Largest temporary arrays     est. size (Mb)     dimensions

     Check: negative/imaginary core charge=   -0.000008    0.000000

     Initial potential from superposition of free atoms
     Check: negative starting charge=(component1):   -0.104535
     Check: negative starting charge=(component2):   -0.025684

     starting charge   53.99996, renormalised to   56.00000

     negative rho (up, down):  0.108E+00 0.266E-01
     Starting wfc are   42 randomized atomic wfcs

     Self-consistent Calculation

     iteration #  1     ecut=    40.00 Ry     beta=0.30
     Davidson diagonalization with overlap
     ethr =  1.00E-02,  avg # of iterations =  5.2

     negative rho (up, down):  0.923E-01 0.514E-01

     total energy              =    -513.94188109 Ry
     Harris-Foulkes estimate   =    -514.90326395 Ry
     estimated scf accuracy    <       4.47254249 Ry

     total magnetization       =     6.86 Bohr mag/cell
     absolute magnetization    =     7.02 Bohr mag/cell

[...]

     End of self-consistent calculation

 ------ SPIN UP ------------

          k = 0.0000 0.0000 0.0000 (  1651 PWs)   bands (ev):

   -58.8000 -58.7908 -28.9695 -28.9695 -28.8038 -28.8038 -28.6560 -28.6244
    -6.0633  -4.9519  -3.7780  -3.7780   5.5108   5.7053   6.7429   7.3794
     7.3794  10.0056  10.0056  10.6235  11.9070  12.1415  12.1415  12.4647
    12.7832  13.5144  13.5543  13.5543  13.6932  16.6773  16.9507  20.1626
    20.1626  21.2600  21.6149  25.0124  25.0124  28.5133  30.1472  30.3258
    31.8237  32.4456  33.2382  33.2382  35.1862  36.5563  37.0930  37.0930
    38.3095  38.3095  39.6248  42.0814  42.3207  42.3207  43.5290  44.5606
    45.6294  46.4887  47.1780  47.3397  47.3397  47.5235  48.1909  48.1909
    48.4978  49.4597  49.4597  51.0461  52.8219  54.7453  54.8477  54.8818
    54.8818  55.8938  55.8938  56.2467  56.8685  56.8685  57.0126  57.1281
    58.1244

[...]

 ------ SPIN DOWN ----------

[...]

     the Fermi energy is    15.1053 ev

!    total energy              =    -515.52057496 Ry
     Harris-Foulkes estimate   =    -515.52057467 Ry
     estimated scf accuracy    <       0.00000011 Ry

     The total energy is the sum of the following terms:

     one-electron contribution =    -154.78520827 Ry
     hartree contribution      =     112.84168678 Ry
     xc contribution           =     -79.03408330 Ry
     ewald contribution        =    -394.54294426 Ry
     smearing contrib. (-TS)   =      -0.00002591 Ry

[...]

     convergence has been achieved in  13 iterations

     Forces acting on atoms (Ry/au):

     negative rho (up, down):  0.712E-01 0.759E-01
     atom    1 type  1   force =     0.00000000    0.00000000    0.00000000
     atom    2 type  1   force =     0.00000000    0.00000000    0.00000000
     atom    3 type  2   force =    -0.03995036   -0.03995036    0.00000000
     atom    4 type  2   force =     0.03995036    0.03995036    0.00000000
     atom    5 type  2   force =    -0.03995036    0.03995036    0.00000000
     atom    6 type  2   force =     0.03995036   -0.03995036    0.00000000

     Total force =     0.112997     Total SCF correction =     0.000242

     entering subroutine stress ...

     negative rho (up, down):  0.712E-01 0.759E-01
          total   stress  (Ry/bohr**3)                   (kbar)     P=  377.72
   0.00186049   0.00000000   0.00000000        273.69      0.00      0.00
   0.00000000   0.00186049   0.00000000          0.00    273.69      0.00
   0.00000000   0.00000000   0.00398215          0.00      0.00    585.79

     Volume is kept fixed: isostatic pressure set to zero

     BFGS Geometry Optimization

     number of scf cycles    =   1
     number of bfgs steps    =   0

     enthalpy new            =    -515.5205749585 Ry

     new trust radius        =       0.1395650863 bohr
     new conv_thr            =       0.0000010000 Ry

     new unit-cell volume =    389.44504 a.u.^3 (    57.70980 Ang^3 )

CELL_PARAMETERS (alat=  8.45447993)
   0.982623174   0.000000000   0.000000000
   0.000000000   0.982623174   0.000000000
   0.000000000   0.000000000   0.667438846

ATOMIC_POSITIONS (crystal)
Ru0      0.000000000   0.000000000   0.000000000    0   0   0
Ru0      0.500000000   0.500000000   0.500000000    0   0   0
O1       0.300274652   0.300274652   0.000000000    1   1   0
[...]
        k(   25) = (   0.0000000   0.4070736   0.0000000), wk =   0.0320000
        k(   26) = (   0.0000000   0.4070736   0.2996529), wk =   0.0640000
        k(   27) = (   0.0000000   0.4070736   0.5993058), wk =   0.0640000
        k(   28) = (   0.2035368   0.2035368   0.0000000), wk =   0.0320000
        k(   29) = (   0.2035368   0.2035368   0.2996529), wk =   0.0640000
        k(   30) = (   0.2035368   0.2035368   0.5993058), wk =   0.0640000
        k(   31) = (   0.2035368   0.4070736   0.0000000), wk =   0.0640000
        k(   32) = (   0.2035368   0.4070736   0.2996529), wk =   0.1280000
        k(   33) = (   0.2035368   0.4070736   0.5993058), wk =   0.1280000
        k(   34) = (   0.4070736   0.4070736   0.0000000), wk =   0.0320000
        k(   35) = (   0.4070736   0.4070736   0.2996529), wk =   0.0640000
        k(   36) = (   0.4070736   0.4070736   0.5993058), wk =   0.0640000

     Check: negative/imaginary core charge=   -0.000008    0.000000
     Check: negative starting charge=(component1):   -0.130248

[...]

     enthalpy old            =    -515.5205749585 Ry
     enthalpy new            =    -515.5421078888 Ry

     CASE: enthalpy_new < enthalpy_old

[...]

     Total force =     0.001803     Total SCF correction =     0.000084

[...]

     number of scf cycles    =   5
     number of bfgs steps    =   4

     enthalpy old            =    -515.5473898461 Ry
     enthalpy new            =    -515.5480011352 Ry

     CASE: enthalpy_new < enthalpy_old

     new trust radius        =       0.0051721492 bohr
     new conv_thr            =       0.0000000100 Ry

     new unit-cell volume =    389.44504 a.u.^3 (    57.70980 Ang^3 )

[...]

ATOMIC_POSITIONS (crystal)
Ru0      0.000000000   0.000000000   0.000000000    0   0   0
Ru0      0.500000000   0.500000000   0.500000000    0   0   0
O1       0.306705364   0.306705364   0.000000000    1   1   0
O1      -0.306705364  -0.306705364   0.000000000    1   1   0
O1       0.806705364   0.193294636   0.500000000    1   1   0
O1       0.193294636   0.806705364   0.500000000    1   1   0

     Check: negative starting charge=(component1):   -0.130485
     NEW-OLD atomic charge density approx. for the potential
     NEW k-points:
        k(    1) = (   0.0000000   0.0000000   0.0000000), wk =   0.0080000
        k(    2) = (   0.0000000   0.0000000   0.2922526), wk =   0.0160000
        k(    3) = (   0.0000000   0.0000000   0.5845052), wk =   0.0160000
        k(    4) = (   0.0000000   0.2060977   0.0000000), wk =   0.0320000
        k(    5) = (   0.0000000   0.2060977   0.2922526), wk =   0.0640000
        k(    6) = (   0.0000000   0.2060977   0.5845052), wk =   0.0640000
        k(    7) = (   0.0000000   0.4121953   0.0000000), wk =   0.0320000
        k(    8) = (   0.0000000   0.4121953   0.2922526), wk =   0.0640000
        k(    9) = (   0.0000000   0.4121953   0.5845052), wk =   0.0640000
        k(   10) = (   0.2060977   0.2060977   0.0000000), wk =   0.0320000
        k(   11) = (   0.2060977   0.2060977   0.2922526), wk =   0.0640000
        k(   12) = (   0.2060977   0.2060977   0.5845052), wk =   0.0640000
        k(   13) = (   0.2060977   0.4121953   0.0000000), wk =   0.0640000
        k(   14) = (   0.2060977   0.4121953   0.2922526), wk =   0.1280000
        k(   15) = (   0.2060977   0.4121953   0.5845052), wk =   0.1280000
        k(   16) = (   0.4121953   0.4121953   0.0000000), wk =   0.0320000
        k(   17) = (   0.4121953   0.4121953   0.2922526), wk =   0.0640000
        k(   18) = (   0.4121953   0.4121953   0.5845052), wk =   0.0640000
        k(   19) = (   0.0000000   0.0000000   0.0000000), wk =   0.0080000
        k(   20) = (   0.0000000   0.0000000   0.2922526), wk =   0.0160000
        k(   21) = (   0.0000000   0.0000000   0.5845052), wk =   0.0160000
        k(   22) = (   0.0000000   0.2060977   0.0000000), wk =   0.0320000
        k(   23) = (   0.0000000   0.2060977   0.2922526), wk =   0.0640000
        k(   24) = (   0.0000000   0.2060977   0.5845052), wk =   0.0640000
        k(   25) = (   0.0000000   0.4121953   0.0000000), wk =   0.0320000
        k(   26) = (   0.0000000   0.4121953   0.2922526), wk =   0.0640000
        k(   27) = (   0.0000000   0.4121953   0.5845052), wk =   0.0640000
        k(   28) = (   0.2060977   0.2060977   0.0000000), wk =   0.0320000
        k(   29) = (   0.2060977   0.2060977   0.2922526), wk =   0.0640000
        k(   30) = (   0.2060977   0.2060977   0.5845052), wk =   0.0640000
        k(   31) = (   0.2060977   0.4121953   0.0000000), wk =   0.0640000
        k(   32) = (   0.2060977   0.4121953   0.2922526), wk =   0.1280000
        k(   33) = (   0.2060977   0.4121953   0.5845052), wk =   0.1280000
        k(   34) = (   0.4121953   0.4121953   0.0000000), wk =   0.0320000
        k(   35) = (   0.4121953   0.4121953   0.2922526), wk =   0.0640000
        k(   36) = (   0.4121953   0.4121953   0.5845052), wk =   0.0640000

     Check: negative/imaginary core charge=   -0.000008    0.000000
     Check: negative starting charge=(component1):   -0.130479

[...]

     Threshold (ethr) on eigenvalues was too large:
     Diagonalizing with lowered threshold

     Davidson diagonalization with overlap
     ethr =  5.24E-09,  avg # of iterations =  2.9

[...]

     Total force =     0.000152     Total SCF correction =     0.000093
     SCF correction compared to forces is large: reduce conv_thr to get better values

[...]

     Volume is kept fixed: isostatic pressure set to zero

     bfgs converged in   6 scf cycles and   5 bfgs steps
     (criteria: energy < 0.10E-03, force < 0.10E-02, cell < 0.50E+00)

     End of BFGS Geometry Optimization

     Final enthalpy =    -515.5480147640 Ry
Begin final coordinates
     new unit-cell volume =    389.44504 a.u.^3 (    57.70980 Ang^3 )

CELL_PARAMETERS (alat=  8.45447993)
   0.970413741   0.000000000   0.000000000
   0.000000000   0.970413741   0.000000000
   0.000000000   0.000000000   0.684339502

ATOMIC_POSITIONS (crystal)
Ru0      0.000000000   0.000000000   0.000000000    0   0   0
Ru0      0.500000000   0.500000000   0.500000000    0   0   0
O1       0.306705364   0.306705364   0.000000000    1   1   0
O1      -0.306705364  -0.306705364   0.000000000    1   1   0
O1       0.806705364   0.193294636   0.500000000    1   1   0
O1       0.193294636   0.806705364   0.500000000    1   1   0
End final coordinates

     A final scf calculation at the relaxed structure.
     The G-vectors are recalculated for the final unit cell
     Results may differ from those at the preceding step.

     bravais-lattice index     =            0
     lattice parameter (alat)  =       8.4545  a.u.
     unit-cell volume          =     389.4450 (a.u.)^3
     number of atoms/cell      =            6
     number of atomic types    =            2
     number of electrons       =        56.00
     number of Kohn-Sham states=           81
     kinetic-energy cutoff     =      40.0000  Ry
     charge density cutoff     =     500.0000  Ry
     convergence threshold     =      1.0E-08
     mixing beta               =       0.3000
     number of iterations used =            8  plain     mixing
     Exchange-correlation      = SLA  PW   PBE  PBE ( 1 4 3 4 0)
     EXX-fraction              =        0.00

     celldm(1)=   8.454480  celldm(2)=   0.000000  celldm(3)=   0.000000
     celldm(4)=   0.000000  celldm(5)=   0.000000  celldm(6)=   0.000000

     crystal axes: (cart. coord. in units of alat)
               a(1) = (   0.970414   0.000000   0.000000 )
               a(2) = (   0.000000   0.970414   0.000000 )
               a(3) = (   0.000000   0.000000   0.684340 )

     reciprocal axes: (cart. coord. in units 2 pi/alat)
               b(1) = (  1.030488  0.000000  0.000000 )
               b(2) = (  0.000000  1.030488  0.000000 )
               b(3) = (  0.000000  0.000000  1.461263 )

     PseudoPot. # 1 for Ru read from file:
     /home/camp/zhonxu/pseudo/ru_pbe_v1.uspp.F.UPF
     MD5 check sum: df00be1c11b23341d9806d8f1dfa10cf
     Pseudo is Ultrasoft + core correction, Zval = 16.0
     Generated by new atomic code, or converted to UPF format
     Using radial grid of  967 points,  6 beta functions with:
                l(1) =   0
                l(2) =   0
                l(3) =   1
                l(4) =   1
                l(5) =   2
                l(6) =   2
     Q(r) pseudized with  8 coefficients,  rinner =    1.300   1.300   1.300
                                                       1.300   1.300

     PseudoPot. # 2 for O  read from file:
     /home/camp/zhonxu/pseudo/o_pbe_v1.01.uspp.F.UPF
     MD5 check sum: 2bcb18d16ea4b960afae9ec6d52f22d2
     Pseudo is Ultrasoft + core correction, Zval =  6.0
     Generated by new atomic code, or converted to UPF format
     Using radial grid of  737 points,  5 beta functions with:
                l(1) =   0
                l(2) =   0
                l(3) =   1
                l(4) =   1
                l(5) =   2
     Q(r) pseudized with  8 coefficients,  rinner =    0.900   0.900   0.900
                                                       0.900   0.900

     atomic species   valence    mass     pseudopotential
        Ru0           16.00   101.07000     Ru( 1.00)
        O1             6.00    15.99940     O ( 1.00)

     Starting magnetic structure
     atomic species   magnetization
        Ru0          0.600
        O1           0.000

     16 Sym. Ops., with inversion, found ( 8 have fractional translation)

   Cartesian axes

     site n.     atom                  positions (alat units)
         1           Ru0 tau(   1) = (   0.0000000   0.0000000   0.0000000  )
         2           Ru0 tau(   2) = (   0.4852069   0.4852069   0.3421698  )
         3           O1  tau(   3) = (   0.2976311   0.2976311   0.0000000  )
         4           O1  tau(   4) = (  -0.2976311  -0.2976311   0.0000000  )
         5           O1  tau(   5) = (   0.7828380   0.1875758   0.3421698  )
         6           O1  tau(   6) = (   0.1875758   0.7828380   0.3421698  )

     number of k points=    36  Methfessel-Paxton smearing, width (Ry)=  0.0100
                       cart. coord. in units 2pi/alat
        k(    1) = (   0.0000000   0.0000000   0.0000000), wk =   0.0080000
        k(    2) = (   0.0000000   0.0000000   0.2922526), wk =   0.0160000
        k(    3) = (   0.0000000   0.0000000   0.5845052), wk =   0.0160000
        k(    4) = (   0.0000000   0.2060977   0.0000000), wk =   0.0320000
        k(    5) = (   0.0000000   0.2060977   0.2922526), wk =   0.0640000
        k(    6) = (   0.0000000   0.2060977   0.5845052), wk =   0.0640000
        k(    7) = (   0.0000000   0.4121953   0.0000000), wk =   0.0320000
        k(    8) = (   0.0000000   0.4121953   0.2922526), wk =   0.0640000
        k(    9) = (   0.0000000   0.4121953   0.5845052), wk =   0.0640000
        k(   10) = (   0.2060977   0.2060977   0.0000000), wk =   0.0320000
        k(   11) = (   0.2060977   0.2060977   0.2922526), wk =   0.0640000
        k(   12) = (   0.2060977   0.2060977   0.5845052), wk =   0.0640000
        k(   13) = (   0.2060977   0.4121953   0.0000000), wk =   0.0640000
        k(   14) = (   0.2060977   0.4121953   0.2922526), wk =   0.1280000
        k(   15) = (   0.2060977   0.4121953   0.5845052), wk =   0.1280000
        k(   16) = (   0.4121953   0.4121953   0.0000000), wk =   0.0320000
        k(   17) = (   0.4121953   0.4121953   0.2922526), wk =   0.0640000
        k(   18) = (   0.4121953   0.4121953   0.5845052), wk =   0.0640000
        k(   19) = (   0.0000000   0.0000000   0.0000000), wk =   0.0080000
        k(   20) = (   0.0000000   0.0000000   0.2922526), wk =   0.0160000
        k(   21) = (   0.0000000   0.0000000   0.5845052), wk =   0.0160000
        k(   22) = (   0.0000000   0.2060977   0.0000000), wk =   0.0320000
        k(   23) = (   0.0000000   0.2060977   0.2922526), wk =   0.0640000
        k(   24) = (   0.0000000   0.2060977   0.5845052), wk =   0.0640000
        k(   25) = (   0.0000000   0.4121953   0.0000000), wk =   0.0320000
        k(   26) = (   0.0000000   0.4121953   0.2922526), wk =   0.0640000
        k(   27) = (   0.0000000   0.4121953   0.5845052), wk =   0.0640000
        k(   28) = (   0.2060977   0.2060977   0.0000000), wk =   0.0320000
        k(   29) = (   0.2060977   0.2060977   0.2922526), wk =   0.0640000
        k(   30) = (   0.2060977   0.2060977   0.5845052), wk =   0.0640000
        k(   31) = (   0.2060977   0.4121953   0.0000000), wk =   0.0640000
        k(   32) = (   0.2060977   0.4121953   0.2922526), wk =   0.1280000
        k(   33) = (   0.2060977   0.4121953   0.5845052), wk =   0.1280000
        k(   34) = (   0.4121953   0.4121953   0.0000000), wk =   0.0320000
        k(   35) = (   0.4121953   0.4121953   0.2922526), wk =   0.0640000
        k(   36) = (   0.4121953   0.4121953   0.5845052), wk =   0.0640000

     Largest allocated arrays     est. size (Mb)     dimensions
     Largest temporary arrays     est. size (Mb)     dimensions

     Check: negative/imaginary core charge=   -0.000008    0.000000

     Initial potential from superposition of free atoms
     Check: negative starting charge=(component1):   -0.103801
     Check: negative starting charge=(component2):   -0.025566

     starting charge   53.99996, renormalised to   56.00000

     negative rho (up, down):  0.108E+00 0.265E-01
     Starting wfc are   42 randomized atomic wfcs

     Self-consistent Calculation

[...]

     total energy              =    -515.54841182 Ry
     Harris-Foulkes estimate   =    -515.54841179 Ry
     estimated scf accuracy    <       0.00000002 Ry

[...]

     iteration # 19     ecut=    40.00 Ry     beta=0.30
     Davidson diagonalization with overlap
     ethr =  2.82E-11,  avg # of iterations =  2.0

     negative rho (up, down):  0.728E-01 0.728E-01

     End of self-consistent calculation

 ------ SPIN UP ------------

[...]

 ------ SPIN DOWN ----------

[...]

          k = 0.4122 0.4122 0.5845 (  1664 PWs)   bands (ev):

   -58.6883 -58.6880 -29.0123 -29.0099 -28.7764 -28.7727 -28.5213 -28.5209
    -4.6466  -4.5096  -4.3465  -4.2116   6.9122   7.1361   7.1814   7.4123
     8.2818   8.6264   9.9416   9.9833  10.5205  10.8025  11.8106  12.0268
    13.9347  14.2046  14.2892  14.6113  15.0291  15.6353  17.9168  18.4238
    19.3207  19.7944  25.0660  25.3674  27.1802  28.0908  28.6064  29.3763
    30.1305  30.5634  32.7553  32.9648  34.7465  35.2281  37.2157  37.6802
    38.9987  39.4371  39.8406  40.9987  43.3166  43.4936  44.0885  44.5657
    45.3926  45.7911  47.4244  48.0950  48.4232  48.8801  49.3412  50.0680
    50.1188  50.2821  51.2811  51.7187  52.0383  52.9305  53.6235  54.0070
    54.3189  54.7036  54.8334  56.2818  56.5345  57.2751  57.7768  57.8228
    59.9451

     the Fermi energy is    14.9718 ev

!    total energy              =    -515.54841184 Ry
     Harris-Foulkes estimate   =    -515.54841184 Ry
     estimated scf accuracy    <          3.7E-09 Ry

     The total energy is the sum of the following terms:

     one-electron contribution =    -148.10274724 Ry
     hartree contribution      =     109.53105746 Ry
     xc contribution           =     -78.93782190 Ry
     ewald contribution        =    -398.03811851 Ry
     smearing contrib. (-TS)   =      -0.00078165 Ry

     total magnetization       =     0.00 Bohr mag/cell
     absolute magnetization    =     0.00 Bohr mag/cell

     convergence has been achieved in  19 iterations

     Forces acting on atoms (Ry/au):

     negative rho (up, down):  0.728E-01 0.728E-01
     atom    1 type  1   force =     0.00000000    0.00000000    0.00000000
     atom    2 type  1   force =     0.00000000    0.00000000   -0.00000000
     atom    3 type  2   force =     0.00005887    0.00005887    0.00000000
     atom    4 type  2   force =    -0.00005887   -0.00005887    0.00000000
     atom    5 type  2   force =     0.00005887   -0.00005887   -0.00000000
     atom    6 type  2   force =    -0.00005887    0.00005887    0.00000000

     Total force =     0.000167     Total SCF correction =     0.000032
     SCF correction compared to forces is large: reduce conv_thr to get better values

     entering subroutine stress ...

     negative rho (up, down):  0.728E-01 0.728E-01
          total   stress  (Ry/bohr**3)                   (kbar)     P=  311.64
   0.00211004   0.00000000   0.00000000        310.40      0.00      0.00
   0.00000000   0.00211004   0.00000000          0.00    310.40      0.00
   0.00000000   0.00000000   0.00213539          0.00      0.00    314.13

     General routines

     Parallel routines

   This run was terminated on:  13:30:38  24Jan2014

   JOB DONE.