     Program PWSCF v.5.0.2 (svn rev. 9656) starts on  4May2014 at 23:36: 4

     Current dimensions of program PWSCF are:
     Max number of different atomic species (ntypx) = 10
     Max number of k-points (npk) =  40000
     Max angular momentum in pseudopotentials (lmaxx) =  3
     Reading input from pwscf.in
Warning: card &CELL ignored
Warning: card / ignored

     Subspace diagonalization in iterative solution of the eigenvalue problem:
     a serial algorithm will be used

     bravais-lattice index     =            0
     lattice parameter (alat)  =      10.9604  a.u.
     unit-cell volume          =    6350.6732 (a.u.)^3
     number of atoms/cell      =           31
     number of atomic types    =            3
     number of electrons       =       230.00 (up: 122.00, down: 108.00)
     number of Kohn-Sham states=          333
     kinetic-energy cutoff     =      40.0000  Ry
     charge density cutoff     =     500.0000  Ry
     convergence threshold     =      1.0E-06
     mixing beta               =       0.7000
     number of iterations used =            8  plain     mixing
     Exchange-correlation      = SLA  PW   PBE  PBE ( 1 4 3 4 0)
     EXX-fraction              =        0.00
     nstep                     =           50

     celldm(1)=  10.960412  celldm(2)=   0.000000  celldm(3)=   0.000000
     celldm(4)=   0.000000  celldm(5)=   0.000000  celldm(6)=   0.000000

     crystal axes: (cart. coord. in units of alat)
               a(1) = (   1.000000   0.000000   0.000000 )
               a(2) = (   0.000000   1.067975   0.000000 )
               a(3) = (   0.000000   0.000000   4.516251 )

     reciprocal axes: (cart. coord. in units 2 pi/alat)
               b(1) = (  1.000000  0.000000  0.000000 )
               b(2) = (  0.000000  0.936351  0.000000 )
               b(3) = (  0.000000  0.000000  0.221423 )

     PseudoPot. # 1 for O  read from file:
     /home/camp/zhonxu/pseudo/o_pbe_v1.01.uspp.F.UPF
     MD5 check sum: 2bcb18d16ea4b960afae9ec6d52f22d2
     Pseudo is Ultrasoft + core correction, Zval =  6.0
     Generated by new atomic code, or converted to UPF format
     Using radial grid of  737 points,  5 beta functions with:
                l(1) =   0
                l(2) =   0
                l(3) =   1
                l(4) =   1
                l(5) =   2
     Q(r) pseudized with  8 coefficients,  rinner =    0.900   0.900   0.900
                                                       0.900   0.900

     PseudoPot. # 2 for Cr read from file:
     /home/camp/zhonxu/pseudo/cr_pbe_v1.uspp.F.UPF
     MD5 check sum: 68b6f918d1762dccfb11451fe85b0e0e
     Pseudo is Ultrasoft + core correction, Zval = 14.0
     Generated by new atomic code, or converted to UPF format
     Using radial grid of  857 points,  6 beta functions with:
                l(1) =   0
                l(2) =   0
                l(3) =   1
                l(4) =   1
                l(5) =   2
                l(6) =   2
     Q(r) pseudized with  6 coefficients,  rinner =    1.000   1.000   1.000
                                                       1.000   1.000

     PseudoPot. # 3 for H  read from file:
     /home/camp/zhonxu/pseudo/h_pbe_v1.uspp.F.UPF
     MD5 check sum: 3408e3ff4ec8b0a4e358431e7e038a48
     Pseudo is Ultrasoft, Zval =  1.0
     Generated by new atomic code, or converted to UPF format
     Using radial grid of  615 points,  2 beta functions with:
                l(1) =   0
                l(2) =   0
     Q(r) pseudized with  8 coefficients,  rinner =    0.700

     atomic species   valence    mass     pseudopotential
        O0             6.00    15.99940     O ( 1.00)
        Cr1           14.00    51.99600     Cr( 1.00)
        H2             1.00     1.00794     H ( 1.00)

     Starting magnetic structure
     atomic species   magnetization
        O0           0.000
        Cr1          0.600
        H2           0.000

     Simplified LDA+U calculation (l_max = 2) with parameters (eV):
     atomic species    L          U    alpha       J0     beta
        Cr1            2     6.0000   0.0000   0.0000   0.0000

     No symmetry found

   Cartesian axes

     site n.     atom                  positions (alat units)
         1           O0  tau(   1) = (   0.0000000   0.0000000   1.7030331  )
         2           O0  tau(   2) = (   0.0000000   0.5339875   1.8028422  )
         3           Cr1 tau(   3) = (   0.2500000   0.5339875   2.0350227  )
         4           Cr1 tau(   4) = (   0.0000000   0.0000000   2.0223320  )
         5           O0  tau(   5) = (   0.2500000   0.8543801   2.0287902  )
         6           O0  tau(   6) = (   0.2500000   0.2135950   2.0292419  )
         7           O0  tau(   7) = (   0.0000000   0.5339875   2.2445767  )
         8           O0  tau(   8) = (   0.0000000   0.0000000   2.3628573  )
         9           Cr1 tau(   9) = (   0.2500000   0.0000000   2.5580045  )
        10           Cr1 tau(  10) = (   0.0000000   0.5339875   2.5485656  )
        11           O0  tau(  11) = (   0.2500000   0.7475825   2.5953991  )
        12           O0  tau(  12) = (   0.2500000   0.3203925   2.5951281  )
        13           O0  tau(  13) = (   0.0000000   0.0000000   2.7889204  )
        14           O0  tau(  14) = (   0.5000000   0.0000000   1.7055170  )
        15           O0  tau(  15) = (   0.5000000   0.5339875   1.8012615  )
        16           Cr1 tau(  16) = (   0.7500000   0.5339875   2.0359259  )
        17           Cr1 tau(  17) = (   0.5000000   0.0000000   2.0265773  )
        18           O0  tau(  18) = (   0.7500000   0.8543801   2.0288354  )
        19           O0  tau(  19) = (   0.7500000   0.2135950   2.0296032  )
        20           O0  tau(  20) = (   0.5000000   0.5339875   2.2364023  )
        21           O0  tau(  21) = (   0.5000000   0.0000000   2.3615024  )
        22           Cr1 tau(  22) = (   0.7500000   0.0000000   2.6337872  )
        23           Cr1 tau(  23) = (   0.5000000   0.5339875   2.6580395  )
        24           O0  tau(  24) = (   0.7500000   0.7475825   2.5992379  )
        25           O0  tau(  25) = (   0.7500000   0.3203925   2.5991024  )
        26           O0  tau(  26) = (   0.5000000   0.0000000   2.7868881  )
        27           H2  tau(  27) = (  -0.0008000   0.6785059   1.7121107  )
        28           H2  tau(  28) = (   0.4997900   0.6815710   1.7150915  )
        29           H2  tau(  29) = (   0.1566700   0.0342393   1.6437347  )
        30           H2  tau(  30) = (   0.6553000   0.0356063   1.6443670  )
        31           O0  tau(  31) = (   0.4989300   0.5335603   2.9283823  )

     number of k points=    20  Methfessel-Paxton smearing, width (Ry)=  0.0100
                       cart. coord. in units 2pi/alat
        k(    1) = (   0.0000000   0.0000000   0.0000000), wk =   0.0625000
        k(    2) = (   0.0000000   0.2340879   0.0000000), wk =   0.1250000
        k(    3) = (   0.0000000  -0.4681757   0.0000000), wk =   0.0625000
        k(    4) = (   0.2500000   0.0000000   0.0000000), wk =   0.1250000
        k(    5) = (   0.2500000   0.2340879   0.0000000), wk =   0.1250000
        k(    6) = (   0.2500000  -0.4681757   0.0000000), wk =   0.1250000
        k(    7) = (  -0.5000000   0.0000000   0.0000000), wk =   0.0625000
        k(    8) = (  -0.5000000   0.2340879   0.0000000), wk =   0.1250000
        k(    9) = (  -0.5000000  -0.4681757   0.0000000), wk =   0.0625000
        k(   10) = (  -0.2500000   0.2340879   0.0000000), wk =   0.1250000
        k(   11) = (   0.0000000   0.0000000   0.0000000), wk =   0.0625000
        k(   12) = (   0.0000000   0.2340879   0.0000000), wk =   0.1250000
        k(   13) = (   0.0000000  -0.4681757   0.0000000), wk =   0.0625000
        k(   14) = (   0.2500000   0.0000000   0.0000000), wk =   0.1250000
        k(   15) = (   0.2500000   0.2340879   0.0000000), wk =   0.1250000
        k(   16) = (   0.2500000  -0.4681757   0.0000000), wk =   0.1250000
        k(   17) = (  -0.5000000   0.0000000   0.0000000), wk =   0.0625000
        k(   18) = (  -0.5000000   0.2340879   0.0000000), wk =   0.1250000
        k(   19) = (  -0.5000000  -0.4681757   0.0000000), wk =   0.0625000
        k(   20) = (  -0.2500000   0.2340879   0.0000000), wk =   0.1250000

     Largest allocated arrays     est. size (Mb)     dimensions
     Largest temporary arrays     est. size (Mb)     dimensions

     Check: negative/imaginary core charge=   -0.000012    0.000000

     Initial potential from superposition of free atoms
     Check: negative starting charge=(component1):   -0.001547
     Check: negative starting charge=(component2):   -0.000494

     starting charge  221.99984, renormalised to  230.00000

     negative rho (up, down):  0.160E-02 0.512E-03
     Number of +U iterations with fixed ns =  0
     Starting occupations:
 --- enter write_ns ---
 LDA+U parameters:
U( 2)     =  6.00000000
alpha( 2) =  0.00000000
atom    3   Tr[ns(na)] (up, down, total) =   5.00000  0.00000  5.00000
   spin  1
    eigenvalues:
  1.000  1.000  1.000  1.000  1.000
    eigenvectors:
  1.000  0.000  0.000  0.000  0.000
  0.000  1.000  0.000  0.000  0.000
  0.000  0.000  1.000  0.000  0.000
  0.000  0.000  0.000  1.000  0.000
  0.000  0.000  0.000  0.000  1.000
    occupations:
  1.000  0.000  0.000  0.000  0.000
  0.000  1.000  0.000  0.000  0.000
  0.000  0.000  1.000  0.000  0.000
  0.000  0.000  0.000  1.000  0.000
  0.000  0.000  0.000  0.000  1.000
   spin  2
    eigenvalues:
  0.000  0.000  0.000  0.000  0.000
    eigenvectors:
  1.000  0.000  0.000  0.000  0.000
  0.000  1.000  0.000  0.000  0.000
  0.000  0.000  1.000  0.000  0.000
  0.000  0.000  0.000  1.000  0.000
  0.000  0.000  0.000  0.000  1.000
    occupations:
  0.000  0.000  0.000  0.000  0.000
  0.000  0.000  0.000  0.000  0.000
  0.000  0.000  0.000  0.000  0.000
  0.000  0.000  0.000  0.000  0.000
  0.000  0.000  0.000  0.000  0.000
atomic mag. moment =     5.000000
atom    4   Tr[ns(na)] (up, down, total) =   5.00000  0.00000  5.00000
   spin  1
    eigenvalues:
  1.000  1.000  1.000  1.000  1.000
    eigenvectors:
  1.000  0.000  0.000  0.000  0.000
  0.000  1.000  0.000  0.000  0.000
  0.000  0.000  1.000  0.000  0.000
  0.000  0.000  0.000  1.000  0.000
  0.000  0.000  0.000  0.000  1.000
    occupations:
  1.000  0.000  0.000  0.000  0.000
  0.000  1.000  0.000  0.000  0.000
  0.000  0.000  1.000  0.000  0.000
  0.000  0.000  0.000  1.000  0.000
  0.000  0.000  0.000  0.000  1.000
   spin  2
    eigenvalues:
  0.000  0.000  0.000  0.000  0.000
    eigenvectors:
  1.000  0.000  0.000  0.000  0.000
  0.000  1.000  0.000  0.000  0.000
  0.000  0.000  1.000  0.000  0.000
  0.000  0.000  0.000  1.000  0.000
  0.000  0.000  0.000  0.000  1.000
    occupations:
  0.000  0.000  0.000  0.000  0.000
  0.000  0.000  0.000  0.000  0.000
  0.000  0.000  0.000  0.000  0.000
  0.000  0.000  0.000  0.000  0.000
  0.000  0.000  0.000  0.000  0.000
atomic mag. moment =     5.000000
atom    9   Tr[ns(na)] (up, down, total) =   5.00000  0.00000  5.00000
   spin  1
    eigenvalues:
  1.000  1.000  1.000  1.000  1.000
    eigenvectors:
  1.000  0.000  0.000  0.000  0.000
[...]
  0.006  0.001  0.800 -0.005  0.004
 -0.206 -0.005 -0.005  0.621 -0.001
 -0.001 -0.008  0.004 -0.001  0.956
   spin  2
    eigenvalues:
  0.067  0.081  0.088  0.291  0.330
    eigenvectors:
  0.740  0.002  0.034  0.000  0.224
  0.000  0.002  0.000  0.998  0.000
  0.042  0.020  0.938  0.000  0.000
  0.218  0.000  0.006  0.000  0.775
  0.000  0.976  0.022  0.002  0.000
    occupations:
  0.127 -0.001 -0.002  0.110 -0.000
 -0.001  0.291 -0.000  0.001  0.009
 -0.002 -0.000  0.087  0.006  0.001
  0.110  0.001  0.006  0.271 -0.000
 -0.000  0.009  0.001 -0.000  0.081
atomic mag. moment =     2.859179
atom    4   Tr[ns(na)] (up, down, total) =   3.71406  0.86602  4.58008
   spin  1
    eigenvalues:
  0.479  0.522  0.795  0.927  0.991
    eigenvectors:
  0.001  0.995  0.000  0.001  0.003
  0.000  0.001  0.011  0.987  0.000
  0.000  0.000  0.989  0.011  0.000
  0.000  0.003  0.000  0.000  0.997
  0.999  0.001  0.000  0.000  0.000
    occupations:
  0.524 -0.015 -0.001  0.026  0.001
 -0.015  0.925  0.014  0.001 -0.000
 -0.001  0.014  0.797  0.000  0.001
  0.026  0.001  0.000  0.989 -0.000
  0.001 -0.000  0.001 -0.000  0.479
   spin  2
    eigenvalues:
  0.074  0.080  0.084  0.309  0.319
    eigenvectors:
  0.007  0.001  0.000  0.990  0.002
  0.013  0.643  0.342  0.001  0.000
  0.003  0.339  0.657  0.000  0.000
  0.976  0.017  0.000  0.006  0.000
  0.000  0.000  0.000  0.002  0.998
    occupations:
  0.308  0.009  0.001 -0.018  0.000
  0.009  0.082 -0.002  0.000 -0.000
  0.001 -0.002  0.083  0.000  0.000
 -0.018  0.000  0.000  0.075 -0.000
  0.000 -0.000  0.000 -0.000  0.319
atomic mag. moment =     2.848034
atom    9   Tr[ns(na)] (up, down, total) =   3.70057  0.91993  4.62050
   spin  1
    eigenvalues:
  0.522  0.531  0.755  0.902  0.991
    eigenvectors:
  0.014  0.187  0.000  0.000  0.799
  0.937  0.063  0.000  0.000  0.000
  0.000  0.000  0.900  0.100  0.000
  0.049  0.750  0.000  0.000  0.201
  0.000  0.000  0.100  0.900  0.000
    occupations:
  0.898  0.003  0.001 -0.185 -0.000
  0.003  0.523  0.001  0.001 -0.000
  0.001  0.001  0.770 -0.000 -0.044
 -0.185  0.001 -0.000  0.623  0.001
 -0.000 -0.000 -0.044  0.001  0.887
   spin  2
    eigenvalues:
  0.082  0.088  0.094  0.315  0.340
    eigenvectors:
  0.811  0.000  0.000  0.000  0.189
  0.000  0.000  0.000  0.999  0.001
  0.000  0.332  0.668  0.000  0.000
  0.189  0.000  0.000  0.001  0.810
  0.000  0.668  0.332  0.000  0.000
    occupations:
  0.131  0.000  0.000  0.101 -0.000
  0.000  0.315 -0.000  0.001  0.000
  0.000 -0.000  0.092  0.000  0.003
  0.101  0.001  0.000  0.292 -0.000
 -0.000  0.000  0.003 -0.000  0.090
atomic mag. moment =     2.780633
atom   10   Tr[ns(na)] (up, down, total) =   3.76287  0.77893  4.54180
   spin  1
    eigenvalues:
  0.473  0.489  0.872  0.941  0.988
    eigenvectors:
  0.000  0.994  0.000  0.000  0.006
  0.000  0.000  0.000  1.000  0.000
  0.000  0.000  1.000  0.000  0.000
  0.000  0.006  0.000  0.000  0.994
  1.000  0.000  0.000  0.000  0.000
    occupations:
  0.492 -0.000 -0.003  0.039 -0.000
 -0.000  0.941 -0.000  0.000  0.000
 -0.003 -0.000  0.872  0.000  0.000
  0.039  0.000  0.000  0.985  0.000
 -0.000  0.000  0.000  0.000  0.473
   spin  2
    eigenvalues:
  0.066  0.091  0.095  0.227  0.301
    eigenvectors:
  0.012  0.000  0.000  0.988  0.000
  0.000  0.000  1.000  0.000  0.000
  0.000  1.000  0.000  0.000  0.000
  0.988  0.000  0.000  0.012  0.000
  0.000  0.000  0.000  0.000  1.000
    occupations:
  0.225  0.000 -0.000 -0.017 -0.000
  0.000  0.095  0.000 -0.000  0.000
 -0.000  0.000  0.091 -0.000 -0.000
 -0.017 -0.000 -0.000  0.068 -0.000
 -0.000  0.000 -0.000 -0.000  0.301
atomic mag. moment =     2.983946
atom   16   Tr[ns(na)] (up, down, total) =   3.71696  0.85747  4.57442
   spin  1
    eigenvalues:
  0.463  0.507  0.801  0.956  0.991
    eigenvectors:
  0.008  0.229  0.001  0.000  0.762
  0.971  0.029  0.000  0.000  0.000
  0.000  0.000  0.998  0.000  0.001
  0.021  0.742  0.000  0.000  0.237
  0.000  0.000  0.000  1.000  0.000
    occupations:
  0.876  0.007  0.006 -0.206  0.000
  0.007  0.464 -0.000  0.005 -0.008
  0.006 -0.000  0.801 -0.004  0.001
 -0.206  0.005 -0.004  0.621  0.000
  0.000 -0.008  0.001  0.000  0.955
   spin  2
    eigenvalues:
  0.067  0.081  0.088  0.291  0.330
    eigenvectors:
  0.740  0.002  0.034  0.000  0.224
  0.000  0.002  0.000  0.998  0.000
  0.042  0.020  0.938  0.000  0.000
  0.218  0.000  0.006  0.000  0.775
  0.000  0.976  0.022  0.002  0.000
    occupations:
  0.127  0.001 -0.002  0.110 -0.000
  0.001  0.291  0.000 -0.001  0.009
 -0.002  0.000  0.087  0.006 -0.001
  0.110 -0.001  0.006  0.271 -0.000
 -0.000  0.009 -0.001 -0.000  0.081
atomic mag. moment =     2.859490
atom   17   Tr[ns(na)] (up, down, total) =   3.71685  0.86333  4.58018
   spin  1
    eigenvalues:
  0.476  0.521  0.804  0.925  0.991
    eigenvectors:
  0.001  0.995  0.000  0.001  0.003
  0.000  0.001  0.009  0.989  0.000
  0.000  0.000  0.991  0.009  0.000
  0.000  0.003  0.000  0.000  0.997
  0.999  0.001  0.000  0.000  0.000
    occupations:
  0.523 -0.014 -0.001  0.026  0.001
 -0.014  0.923  0.012  0.001 -0.000
 -0.001  0.012  0.805  0.000  0.001
  0.026  0.001  0.000  0.989 -0.000
  0.001 -0.000  0.001 -0.000  0.476
   spin  2
    eigenvalues:
  0.073  0.080  0.084  0.309  0.318
    eigenvectors:
  0.007  0.000  0.000  0.991  0.002
  0.011  0.600  0.387  0.001  0.000
  0.003  0.384  0.612  0.000  0.000
  0.979  0.015  0.001  0.006  0.000
  0.000  0.000  0.000  0.002  0.998
    occupations:
  0.307  0.008  0.001 -0.018  0.000
  0.008  0.082 -0.002  0.000 -0.000
  0.001 -0.002  0.082  0.000  0.000
 -0.018  0.000  0.000  0.075  0.000
  0.000 -0.000  0.000  0.000  0.318
atomic mag. moment =     2.853516
atom   22   Tr[ns(na)] (up, down, total) =   3.70063  0.91984  4.62047
   spin  1
    eigenvalues:
  0.522  0.530  0.756  0.902  0.991
    eigenvectors:
  0.002  0.199  0.000  0.000  0.798
  0.991  0.009  0.000  0.000  0.000
  0.000  0.000  0.901  0.099  0.000
  0.007  0.792  0.000  0.000  0.202
  0.000  0.000  0.099  0.901  0.000
    occupations:
  0.898 -0.003 -0.001 -0.185 -0.001
 -0.003  0.523  0.001  0.001  0.000
 -0.001  0.001  0.770  0.000  0.044
 -0.185  0.001  0.000  0.623  0.001
 -0.001  0.000  0.044  0.001  0.887
   spin  2
    eigenvalues:
  0.082  0.088  0.094  0.315  0.340
    eigenvectors:
  0.811  0.000  0.000  0.000  0.189
  0.000  0.000  0.000  0.998  0.002
  0.000  0.333  0.667  0.000  0.000
  0.189  0.000  0.000  0.001  0.810
  0.000  0.667  0.333  0.000  0.000
    occupations:
  0.131 -0.000  0.000  0.101 -0.000
 -0.000  0.316 -0.000 -0.001  0.000
  0.000 -0.000  0.092  0.000 -0.003
  0.101 -0.001  0.000  0.291 -0.000
 -0.000  0.000 -0.003 -0.000  0.090
atomic mag. moment =     2.780783
atom   23   Tr[ns(na)] (up, down, total) =   3.57950  1.10524  4.68474
   spin  1
    eigenvalues:
  0.510  0.616  0.720  0.741  0.992
    eigenvectors:
  0.000  0.999  0.000  0.000  0.001
  0.000  0.000  1.000  0.000  0.000
  0.000  0.000  0.000  1.000  0.000
  0.000  0.001  0.000  0.000  0.999
  1.000  0.000  0.000  0.000  0.000
    occupations:
  0.617  0.000 -0.000  0.014 -0.000
  0.000  0.720 -0.000 -0.000 -0.000
 -0.000 -0.000  0.741  0.000 -0.000
  0.014 -0.000  0.000  0.991 -0.000
 -0.000 -0.000 -0.000 -0.000  0.510
   spin  2
    eigenvalues:
  0.071  0.155  0.167  0.325  0.387
    eigenvectors:
  0.004  0.000  0.000  0.000  0.996
  0.000  0.000  1.000  0.000  0.000
  0.000  1.000  0.000  0.000  0.000
  0.996  0.000  0.000  0.000  0.004
  0.000  0.000  0.000  1.000  0.000
    occupations:
  0.386  0.000  0.000 -0.019  0.000
  0.000  0.167 -0.000  0.000  0.000
  0.000 -0.000  0.155 -0.000  0.000
 -0.019  0.000 -0.000  0.072  0.000
  0.000  0.000  0.000  0.000  0.325
atomic mag. moment =     2.474257
N of occupied +U levels =  36.7764959
 --- exit write_ns ---

 ------ SPIN UP ------------

[...]

 ------ SPIN DOWN ----------

[...]

          k = 0.2500-0.4682 0.0000 ( 27150 PWs)   bands (ev):

[...]

          k =-0.2500 0.2341 0.0000 ( 27132 PWs)   bands (ev):

   -73.4850 -72.4584 -72.3305 -72.3207 -72.3096 -72.3017 -72.2819 -72.2710
   -45.2805 -44.7192 -44.5710 -44.0042 -43.9996 -43.9910 -43.8446 -43.8322
   -43.7875 -43.7838 -43.7517 -43.7421 -43.7233 -43.6972 -43.6899 -43.6722
   -43.6717 -43.6503 -43.6030 -43.5200 -43.5027 -43.4837 -43.3905 -43.3754
   -21.4283 -21.1070 -20.8186 -20.7792 -20.6017 -20.4928 -20.4343 -20.4073
   -20.3419 -20.2359 -20.1730 -20.1212 -20.0497 -20.0421 -19.8451 -19.7547
   -19.7386 -19.6325 -19.5674  -8.6874  -8.5375  -8.2543  -8.0947  -7.9698
    -7.7432  -7.5998  -7.5231  -7.3373  -7.2559  -7.1292  -7.0426  -7.0318
    -6.9751  -6.9362  -6.8183  -6.7135  -6.5101  -6.4590  -6.4151  -6.2846
    -6.2073  -6.0783  -6.0340  -5.9727  -5.8809  -5.8122  -5.7479  -5.6914
    -5.6812  -5.5725  -5.4953  -5.4430  -5.3999  -5.3645  -5.2821  -5.1901
    -5.0393  -4.9470  -4.8106  -4.7071  -4.6479  -4.5579  -4.5031  -4.4643
    -4.3829  -4.2905  -4.2572  -4.2250  -4.1929  -4.1369  -4.0458  -3.9962
    -3.8882  -3.7238  -3.7040  -3.5416   1.4371   1.5603   1.6088   1.7815
     1.8422   1.8837   2.0855   2.1533   2.1745   2.2343   2.2952   2.3059
     2.4172   2.4826   2.5051   2.5770   2.6363   2.7078   2.7240   2.7345
     2.7525   2.8557   2.9292   2.9549   3.0505   3.1213   3.1303   3.2198
     3.2324   3.2929   3.3687   3.4300   3.4774   3.4878   3.6770   3.7644
     3.7898   3.8799   3.9703   4.0863   4.1732   4.3810   4.5226   4.9989
     5.4413   5.6403   5.6762   6.1631   6.3512   6.5431   6.5792   6.7361
     6.7882   6.9727   7.0360   7.3540   7.5109   7.7827   7.8456   7.9979
     8.2943   8.3682   8.4552   8.6109   8.6661   8.7913   8.8425   9.0289
     9.1248   9.2481   9.3732   9.4862   9.5938   9.7661   9.9894  10.0693
    10.1389  10.1812  10.2461  10.3881  10.4519  10.6584  10.7243  10.7547
    10.8860  10.9793  11.0626  11.1814  11.2982  11.3857  11.4748  11.5696
    11.6350  11.7062  11.7916  11.8795  11.9541  11.9940  12.1859  12.2592
    12.3095  12.3875  12.4799  12.5687  12.6270  12.6840  12.8117  12.8789
    12.9255  12.9756  13.0270  13.0879  13.2071  13.2461  13.3142  13.3750
    13.4401  13.5192  13.5591  13.6559  13.7541  13.8547  13.9064  14.0529
    14.0882  14.1489  14.2203  14.2494  14.3687  14.4509  14.5255  14.5808
    14.6529  14.7738  14.8026  14.8842  14.9790  15.0610  15.1142  15.1948
    15.2509  15.3081  15.4881  15.5597  15.6697  15.8100  15.8997  16.0162
    16.0612  16.1405  16.2194  16.2353  16.3136  16.3685  16.4422  16.4789
    16.5291  16.6620  16.7530  16.8219  16.8824  16.9516  17.0470  17.0912
    17.1615  17.1952  17.2635  17.3647  17.4609  17.5120  17.6342  17.6828
    17.6971  17.7549  17.8193  17.9009  17.9429  18.0069  18.0994  18.2228
    18.2503  18.2977  18.4181  18.4676  18.5647  18.6773  18.7255  18.7872
    18.8793  18.9447  18.9615  19.0633  19.1079  19.2053  19.3028  19.3486
    19.4423  19.5193  19.6211  19.6776  19.7348  19.8064  19.8644  19.9120
    19.9694  20.0033  20.0575  20.1752  20.2601  20.3971  20.4306  20.5279
    20.5712  20.6182  20.7339  20.8511  20.9450  21.0083  21.0570  21.1275
    21.1657  21.2073  21.2937  21.3523  21.4379

     the spin up/dw Fermi energies are    -2.4481   -2.4156 ev

!    total energy              =   -2022.86485601 Ry
     Harris-Foulkes estimate   =   -2022.86485601 Ry
     estimated scf accuracy    <          6.1E-09 Ry

     The total energy is the sum of the following terms:

     one-electron contribution =  -23530.20441775 Ry
     hartree contribution      =   11783.43359277 Ry
     xc contribution           =    -322.38838291 Ry
     ewald contribution        =   10043.78480792 Ry
     Hubbard energy            =       2.50918573 Ry
     smearing contrib. (-TS)   =       0.00035823 Ry

     total magnetization       =    14.00 Bohr mag/cell
     absolute magnetization    =    30.57 Bohr mag/cell

     convergence has been achieved in  20 iterations

     Forces acting on atoms (Ry/au):

     negative rho (up, down):  0.554E-02 0.182E-02
     atom    1 type  1   force =    -0.00445963   -0.01025065    0.00013236
     atom    2 type  1   force =     0.00002432    0.00307670   -0.00038407
     atom    3 type  2   force =     0.03341092    0.00207540    0.00002194
     atom    4 type  2   force =     0.00459929    0.00559631    0.00027256
     atom    5 type  1   force =     0.00031848    0.00777744   -0.00020180
     atom    6 type  1   force =     0.00056560   -0.00588565   -0.00022947
     atom    7 type  1   force =    -0.00008286   -0.00252544    0.00091330
     atom    8 type  1   force =    -0.00109253   -0.00011716   -0.00052024
     atom    9 type  2   force =     0.01092100    0.00067830   -0.00022366
     atom   10 type  2   force =     0.00014690    0.00025418    0.00055195
     atom   11 type  1   force =    -0.00380641   -0.05274830   -0.00031024
     atom   12 type  1   force =    -0.00300113    0.05260860   -0.00032546
     atom   13 type  1   force =    -0.00044534   -0.00001917    0.00038424
     atom   14 type  1   force =    -0.00574254   -0.01070899    0.00002601
     atom   15 type  1   force =     0.00006643    0.00387507   -0.00019917
     atom   16 type  2   force =    -0.03344375    0.00267123    0.00006809
     atom   17 type  2   force =     0.00479142    0.00540352   -0.00017162
     atom   18 type  1   force =     0.00067959    0.00754724   -0.00026013
     atom   19 type  1   force =     0.00090465   -0.00622663   -0.00028878
     atom   20 type  1   force =    -0.00024627   -0.00334208   -0.00070059
     atom   21 type  1   force =    -0.00126870   -0.00023876   -0.00013280
     atom   22 type  2   force =    -0.00972848   -0.00034961    0.00005810
     atom   23 type  2   force =    -0.00001136    0.00024224    0.00061527
     atom   24 type  1   force =     0.00304874   -0.05259934    0.00004449
     atom   25 type  1   force =     0.00335556    0.05285656    0.00005738
     atom   26 type  1   force =    -0.00013233   -0.00003681    0.00017123
     atom   27 type  3   force =    -0.00005208    0.00026141   -0.00020436
     atom   28 type  3   force =    -0.00001913    0.00023439    0.00001947
     atom   29 type  3   force =     0.00021872   -0.00001262    0.00044567
     atom   30 type  3   force =     0.00027302   -0.00009816    0.00054920
     atom   31 type  1   force =     0.00020788    0.00000081   -0.00017886

     Total force =     0.002042     Total SCF correction =     0.000216
     SCF correction compared to forces is large: reduce conv_thr to get better values

     bfgs converged in  20 scf cycles and  19 bfgs steps
     (criteria: energy < 0.10E-03, force < 0.10E-02)

     End of BFGS Geometry Optimization

     Final energy   =   -2022.8648560107 Ry
Begin final coordinates

ATOMIC_POSITIONS (crystal)
O0       0.000000000   0.000000000   0.374131518    0   0   1
O0       0.000000000   0.500000000   0.395753587    0   0   1
Cr1      0.250000000   0.500000000   0.448296802    0   0   1
Cr1      0.000000000   0.000000000   0.448296481    0   0   1
O0       0.250000000   0.800000000   0.448303256    0   0   1
O0       0.250000000   0.200000000   0.448295347    0   0   1
O0       0.000000000   0.500000000   0.496457738    0   0   1
O0       0.000000000   0.000000000   0.524324262    0   0   1
Cr1      0.250000000   0.000000000   0.575819227    0   0   1
Cr1      0.000000000   0.500000000   0.565976560    0   0   1
O0       0.250000000   0.700000000   0.576643515    0   0   1
O0       0.250000000   0.300000000   0.576656827    0   0   1
O0       0.000000000   0.000000000   0.623130860    0   0   1
O0       0.500000000   0.000000000   0.374548056    0   0   1
O0       0.500000000   0.500000000   0.395934141    0   0   1
Cr1      0.750000000   0.500000000   0.448311477    0   0   1
Cr1      0.500000000   0.000000000   0.449108113    0   0   1
O0       0.750000000   0.800000000   0.448277442    0   0   1
O0       0.750000000   0.200000000   0.448310328    0   0   1
O0       0.500000000   0.500000000   0.499318923    0   0   1
O0       0.500000000   0.000000000   0.524580995    0   0   1
Cr1      0.750000000   0.000000000   0.575794400    0   0   1
Cr1      0.500000000   0.500000000   0.588574055    0   0   1
O0       0.750000000   0.700000000   0.576567647    0   0   1
O0       0.750000000   0.300000000   0.576586444    0   0   1
O0       0.500000000   0.000000000   0.623298533    0   0   1
H2      -0.000715611   0.636060514   0.376078201
H2       0.499394929   0.637106312   0.376617379
H2       0.158781773   0.026973225   0.361500513
H2       0.658255286   0.027511976   0.361726798
O0       0.499873672   0.499860234   0.651610575
End final coordinates

     General routines

     Parallel routines
     Hubbard U routines

   This run was terminated on:  15: 2:23   6May2014

   JOB DONE.