     Program PWSCF v.5.0.2 (svn rev. 9656) starts on  6May2014 at  4:59:22

     Current dimensions of program PWSCF are:
     Max number of different atomic species (ntypx) = 10
     Max number of k-points (npk) =  40000
     Max angular momentum in pseudopotentials (lmaxx) =  3
     Reading input from pwscf.in
Warning: card &CELL ignored
Warning: card / ignored

     Subspace diagonalization in iterative solution of the eigenvalue problem:
     a serial algorithm will be used

     bravais-lattice index     =            0
     lattice parameter (alat)  =      11.7919  a.u.
     unit-cell volume          =    7123.6633 (a.u.)^3
     number of atoms/cell      =           30
     number of atomic types    =            3
     number of electrons       =       240.00
     number of Kohn-Sham states=          348
     kinetic-energy cutoff     =      40.0000  Ry
     charge density cutoff     =     500.0000  Ry
     convergence threshold     =      1.0E-06
     mixing beta               =       0.7000
     number of iterations used =            8  plain     mixing
     Exchange-correlation      = SLA  PW   PBE  PBE ( 1 4 3 4 0)
     EXX-fraction              =        0.00
     nstep                     =           50

     celldm(1)=  11.791891  celldm(2)=   0.000000  celldm(3)=   0.000000
     celldm(4)=   0.000000  celldm(5)=   0.000000  celldm(6)=   0.000000

     crystal axes: (cart. coord. in units of alat)
               a(1) = (   1.000000   0.000000   0.000000 )
               a(2) = (   0.000000   1.026665   0.000000 )
               a(3) = (   0.000000   0.000000   4.231793 )

     reciprocal axes: (cart. coord. in units 2 pi/alat)
               b(1) = (  1.000000  0.000000  0.000000 )
               b(2) = (  0.000000  0.974028  0.000000 )
               b(3) = (  0.000000  0.000000  0.236306 )

     PseudoPot. # 1 for O  read from file:
     /home/camp/zhonxu/pseudo/o_pbe_v1.01.uspp.F.UPF
     MD5 check sum: 2bcb18d16ea4b960afae9ec6d52f22d2
     Pseudo is Ultrasoft + core correction, Zval =  6.0
     Generated by new atomic code, or converted to UPF format
     Using radial grid of  737 points,  5 beta functions with:
                l(1) =   0
                l(2) =   0
                l(3) =   1
                l(4) =   1
                l(5) =   2
     Q(r) pseudized with  8 coefficients,  rinner =    0.900   0.900   0.900
                                                       0.900   0.900

     PseudoPot. # 2 for Ru read from file:
     /home/camp/zhonxu/pseudo/ru_pbe_v1.uspp.F.UPF
     MD5 check sum: df00be1c11b23341d9806d8f1dfa10cf
     Pseudo is Ultrasoft + core correction, Zval = 16.0
     Generated by new atomic code, or converted to UPF format
     Using radial grid of  967 points,  6 beta functions with:
                l(1) =   0
                l(2) =   0
                l(3) =   1
                l(4) =   1
                l(5) =   2
                l(6) =   2
     Q(r) pseudized with  8 coefficients,  rinner =    1.300   1.300   1.300
                                                       1.300   1.300

     PseudoPot. # 3 for H  read from file:
     /home/camp/zhonxu/pseudo/h_pbe_v1.uspp.F.UPF
     MD5 check sum: 3408e3ff4ec8b0a4e358431e7e038a48
     Pseudo is Ultrasoft, Zval =  1.0
     Generated by new atomic code, or converted to UPF format
     Using radial grid of  615 points,  2 beta functions with:
                l(1) =   0
                l(2) =   0
     Q(r) pseudized with  8 coefficients,  rinner =    0.700

     atomic species   valence    mass     pseudopotential
        O0             6.00    15.99940     O ( 1.00)
        Ru1           16.00   101.07000     Ru( 1.00)
        H2             1.00     1.00794     H ( 1.00)

     Simplified LDA+U calculation (l_max = 2) with parameters (eV):
     atomic species    L          U    alpha       J0     beta
        Ru1            2     4.5000   0.0000   0.0000   0.0000

     No symmetry found

   Cartesian axes

     site n.     atom                  positions (alat units)
         1           O0  tau(   1) = (   0.0000000   0.0000000   1.6080390  )
         2           O0  tau(   2) = (   0.0000000   0.5133323   1.7023233  )
         3           Ru1 tau(   3) = (   0.2500000   0.5133323   1.9175523  )
         4           Ru1 tau(   4) = (   0.0000000   0.0000000   1.9215302  )
         5           O0  tau(   5) = (   0.2500000   0.8315984   1.9195836  )
         6           O0  tau(   6) = (   0.2500000   0.1950663   1.9193297  )
         7           O0  tau(   7) = (   0.0000000   0.5133323   2.1106490  )
         8           O0  tau(   8) = (   0.0000000   0.0000000   2.2345136  )
         9           Ru1 tau(   9) = (   0.2500000   0.0000000   2.4487269  )
        10           Ru1 tau(  10) = (   0.0000000   0.5133323   2.4113179  )
        11           O0  tau(  11) = (   0.2500000   0.7083986   2.4387399  )
        12           O0  tau(  12) = (   0.2500000   0.3182660   2.4402210  )
        13           O0  tau(  13) = (   0.0000000   0.0000000   2.6238385  )
        14           O0  tau(  14) = (   0.5000000   0.0000000   1.6080390  )
        15           O0  tau(  15) = (   0.5000000   0.5133323   1.7023233  )
        16           Ru1 tau(  16) = (   0.7500000   0.5133323   1.9175523  )
        17           Ru1 tau(  17) = (   0.5000000   0.0000000   1.9215302  )
        18           O0  tau(  18) = (   0.7500000   0.8315984   1.9195836  )
        19           O0  tau(  19) = (   0.7500000   0.1950663   1.9193297  )
        20           O0  tau(  20) = (   0.5000000   0.5133323   2.1106490  )
        21           O0  tau(  21) = (   0.5000000   0.0000000   2.2345136  )
        22           Ru1 tau(  22) = (   0.7500000   0.0000000   2.4487269  )
        23           Ru1 tau(  23) = (   0.5000000   0.5133323   2.4113179  )
        24           O0  tau(  24) = (   0.7500000   0.7083986   2.4387399  )
        25           O0  tau(  25) = (   0.7500000   0.3182660   2.4401787  )
        26           O0  tau(  26) = (   0.5000000   0.0000000   2.6238385  )
        27           H2  tau(  27) = (  -0.0004100   0.6466653   1.6162063  )
        28           H2  tau(  28) = (   0.4995900   0.6466653   1.6162063  )
        29           H2  tau(  29) = (   0.1464700   0.0296706   1.5559879  )
        30           H2  tau(  30) = (   0.6464700   0.0296706   1.5559879  )

     number of k points=    10  Methfessel-Paxton smearing, width (Ry)=  0.0100
                       cart. coord. in units 2pi/alat
        k(    1) = (   0.0000000   0.0000000   0.0000000), wk =   0.1250000
        k(    2) = (   0.0000000   0.2435070   0.0000000), wk =   0.2500000
        k(    3) = (   0.0000000  -0.4870139   0.0000000), wk =   0.1250000
        k(    4) = (   0.2500000   0.0000000   0.0000000), wk =   0.2500000
        k(    5) = (   0.2500000   0.2435070   0.0000000), wk =   0.2500000
        k(    6) = (   0.2500000  -0.4870139   0.0000000), wk =   0.2500000
        k(    7) = (  -0.5000000   0.0000000   0.0000000), wk =   0.1250000
        k(    8) = (  -0.5000000   0.2435070   0.0000000), wk =   0.2500000
        k(    9) = (  -0.5000000  -0.4870139   0.0000000), wk =   0.1250000
        k(   10) = (  -0.2500000   0.2435070   0.0000000), wk =   0.2500000

     Largest allocated arrays     est. size (Mb)     dimensions
     Largest temporary arrays     est. size (Mb)     dimensions

     Check: negative/imaginary core charge=   -0.000003    0.000000

     Initial potential from superposition of free atoms
     Check: negative starting charge=   -0.522083

     starting charge  231.99981, renormalised to  240.00000

     negative rho (up, down):  0.540E+00 0.000E+00
     Number of +U iterations with fixed ns =  0
     Starting occupations:
 --- enter write_ns ---
 LDA+U parameters:
U( 2)     =  4.50000000
alpha( 2) =  0.00000000
atom    3   Tr[ns(na)] =   6.00000
    eigenvalues:
  0.600  0.600  0.600  0.600  0.600
    eigenvectors:
  1.000  0.000  0.000  0.000  0.000
  0.000  1.000  0.000  0.000  0.000
  0.000  0.000  1.000  0.000  0.000
  0.000  0.000  0.000  1.000  0.000
  0.000  0.000  0.000  0.000  1.000
    occupations:
  0.600  0.000  0.000  0.000  0.000
  0.000  0.600  0.000  0.000  0.000
  0.000  0.000  0.600  0.000  0.000
  0.000  0.000  0.000  0.600  0.000
  0.000  0.000  0.000  0.000  0.600
atom    4   Tr[ns(na)] =   6.00000
    eigenvalues:
  0.600  0.600  0.600  0.600  0.600
    eigenvectors:
  1.000  0.000  0.000  0.000  0.000
  0.000  1.000  0.000  0.000  0.000
  0.000  0.000  1.000  0.000  0.000
  0.000  0.000  0.000  1.000  0.000
  0.000  0.000  0.000  0.000  1.000
    occupations:
  0.600  0.000  0.000  0.000  0.000
  0.000  0.600  0.000  0.000  0.000
  0.000  0.000  0.600  0.000  0.000
  0.000  0.000  0.000  0.600  0.000
  0.000  0.000  0.000  0.000  0.600
atom    9   Tr[ns(na)] =   6.00000
    eigenvalues:
  0.600  0.600  0.600  0.600  0.600
    eigenvectors:
  1.000  0.000  0.000  0.000  0.000
  0.000  1.000  0.000  0.000  0.000
  0.000  0.000  1.000  0.000  0.000
  0.000  0.000  0.000  1.000  0.000
  0.000  0.000  0.000  0.000  1.000
    occupations:
  0.600  0.000  0.000  0.000  0.000
  0.000  0.600  0.000  0.000  0.000
  0.000  0.000  0.600  0.000  0.000
  0.000  0.000  0.000  0.600  0.000
  0.000  0.000  0.000  0.000  0.600
atom   10   Tr[ns(na)] =   6.00000
    eigenvalues:
  0.600  0.600  0.600  0.600  0.600
    eigenvectors:
  1.000  0.000  0.000  0.000  0.000
  0.000  1.000  0.000  0.000  0.000
  0.000  0.000  1.000  0.000  0.000
  0.000  0.000  0.000  1.000  0.000
  0.000  0.000  0.000  0.000  1.000
    occupations:
  0.600  0.000  0.000  0.000  0.000
  0.000  0.600  0.000  0.000  0.000
  0.000  0.000  0.600  0.000  0.000
  0.000  0.000  0.000  0.600  0.000
  0.000  0.000  0.000  0.000  0.600
atom   16   Tr[ns(na)] =   6.00000
    eigenvalues:
  0.600  0.600  0.600  0.600  0.600
    eigenvectors:
  1.000  0.000  0.000  0.000  0.000
  0.000  1.000  0.000  0.000  0.000
  0.000  0.000  1.000  0.000  0.000
  0.000  0.000  0.000  1.000  0.000
  0.000  0.000  0.000  0.000  1.000
    occupations:
  0.600  0.000  0.000  0.000  0.000
  0.000  0.600  0.000  0.000  0.000
  0.000  0.000  0.600  0.000  0.000
  0.000  0.000  0.000  0.600  0.000
  0.000  0.000  0.000  0.000  0.600
atom   17   Tr[ns(na)] =   6.00000
    eigenvalues:
  0.600  0.600  0.600  0.600  0.600
    eigenvectors:
  1.000  0.000  0.000  0.000  0.000
  0.000  1.000  0.000  0.000  0.000
  0.000  0.000  1.000  0.000  0.000
  0.000  0.000  0.000  1.000  0.000
  0.000  0.000  0.000  0.000  1.000
    occupations:
  0.600  0.000  0.000  0.000  0.000
  0.000  0.600  0.000  0.000  0.000
  0.000  0.000  0.600  0.000  0.000
  0.000  0.000  0.000  0.600  0.000
  0.000  0.000  0.000  0.000  0.600
atom   22   Tr[ns(na)] =   6.00000
    eigenvalues:
  0.600  0.600  0.600  0.600  0.600
    eigenvectors:
  1.000  0.000  0.000  0.000  0.000
  0.000  1.000  0.000  0.000  0.000
  0.000  0.000  1.000  0.000  0.000
  0.000  0.000  0.000  1.000  0.000
  0.000  0.000  0.000  0.000  1.000
    occupations:
  0.600  0.000  0.000  0.000  0.000
  0.000  0.600  0.000  0.000  0.000
  0.000  0.000  0.600  0.000  0.000
  0.000  0.000  0.000  0.600  0.000
[...]
 -0.000 -0.005  0.000 -0.000  0.880
atom    4   Tr[ns(na)] =   7.23521
    eigenvalues:
  0.553  0.606  0.660  0.816  0.983
    eigenvectors:
  0.001  0.986  0.000  0.000  0.013
  0.000  0.000  0.018  0.982  0.000
  0.000  0.000  0.982  0.018  0.000
  0.000  0.013  0.000  0.000  0.987
  0.999  0.001  0.000  0.000  0.000
    occupations:
  0.611 -0.001  0.000  0.043  0.002
 -0.001  0.813  0.021 -0.001 -0.001
  0.000  0.021  0.663  0.002  0.000
  0.043 -0.001  0.002  0.978  0.000
  0.002 -0.001  0.000  0.000  0.553
atom    9   Tr[ns(na)] =   7.25010
    eigenvalues:
  0.565  0.586  0.756  0.856  0.864
    eigenvectors:
  0.000  0.136  0.002  0.465  0.397
  1.000  0.000  0.000  0.000  0.000
  0.000  0.000  0.998  0.001  0.001
  0.000  0.863  0.001  0.073  0.063
  0.000  0.000  0.000  0.461  0.539
    occupations:
  0.822  0.001 -0.005 -0.094  0.004
  0.001  0.565  0.001  0.000  0.001
 -0.005  0.001  0.756  0.001  0.000
 -0.094  0.000  0.001  0.623 -0.002
  0.004  0.001  0.000 -0.002  0.860
atom   10   Tr[ns(na)] =   7.26518
    eigenvalues:
  0.516  0.530  0.766  0.853  0.968
    eigenvectors:
  0.987  0.000  0.000  0.000  0.013
  0.000  0.000  0.000  1.000  0.000
  0.000  0.000  1.000  0.000  0.000
  0.013  0.000  0.000  0.000  0.987
  0.000  1.000  0.000  0.000  0.000
    occupations:
  0.522  0.000  0.001  0.051  0.000
  0.000  0.853  0.001  0.000 -0.001
  0.001  0.001  0.766 -0.002 -0.000
  0.051  0.000 -0.002  0.962 -0.000
  0.000 -0.001 -0.000 -0.000  0.530
atom   16   Tr[ns(na)] =   7.25515
    eigenvalues:
  0.503  0.551  0.720  0.880  0.973
    eigenvectors:
  0.000  0.185  0.008  0.000  0.807
  1.000  0.000  0.000  0.000  0.000
  0.000  0.001  0.987  0.000  0.013
  0.000  0.814  0.006  0.000  0.180
  0.000  0.000  0.000  1.000  0.000
    occupations:
  0.893  0.000  0.028 -0.162 -0.000
  0.000  0.503 -0.000 -0.000 -0.005
  0.028 -0.000  0.723 -0.008  0.000
 -0.162 -0.000 -0.008  0.628 -0.000
 -0.000 -0.005  0.000 -0.000  0.880
atom   17   Tr[ns(na)] =   7.23530
    eigenvalues:
  0.553  0.606  0.660  0.816  0.983
    eigenvectors:
  0.001  0.986  0.000  0.000  0.013
  0.000  0.000  0.018  0.982  0.000
  0.000  0.000  0.982  0.018  0.000
  0.000  0.013  0.000  0.000  0.987
  0.999  0.001  0.000  0.000  0.000
    occupations:
  0.611 -0.001  0.000  0.043  0.002
 -0.001  0.813  0.021 -0.001 -0.001
  0.000  0.021  0.663  0.002  0.000
  0.043 -0.001  0.002  0.978  0.000
  0.002 -0.001  0.000  0.000  0.553
atom   22   Tr[ns(na)] =   7.25002
    eigenvalues:
  0.565  0.586  0.755  0.856  0.864
    eigenvectors:
  0.000  0.136  0.002  0.461  0.401
  1.000  0.000  0.000  0.000  0.000
  0.000  0.000  0.998  0.001  0.001
  0.000  0.863  0.001  0.072  0.064
  0.000  0.000  0.000  0.465  0.535
    occupations:
  0.822  0.001 -0.005 -0.094  0.004
  0.001  0.565  0.001  0.000  0.001
 -0.005  0.001  0.756  0.001  0.000
 -0.094  0.000  0.001  0.623 -0.002
  0.004  0.001  0.000 -0.002  0.860
atom   23   Tr[ns(na)] =   7.26515
    eigenvalues:
  0.516  0.530  0.766  0.853  0.968
    eigenvectors:
  0.987  0.000  0.000  0.000  0.013
  0.000  0.000  0.000  1.000  0.000
  0.000  0.000  1.000  0.000  0.000
  0.013  0.000  0.000  0.000  0.987
  0.000  1.000  0.000  0.000  0.000
    occupations:
  0.522  0.000  0.001  0.051  0.000
  0.000  0.853  0.001  0.000 -0.001
  0.001  0.001  0.766 -0.002 -0.000
  0.051  0.000 -0.002  0.962 -0.000
  0.000 -0.001 -0.000 -0.000  0.530
N of occupied +U levels =  58.0108078
 --- exit write_ns ---

     Threshold (ethr) on eigenvalues was too large:
     Diagonalizing with lowered threshold

     Davidson diagonalization with overlap
     ethr =  1.72E-08,  avg # of iterations =  2.6

[...]

     total energy              =   -2128.94314068 Ry
     Harris-Foulkes estimate   =   -2128.94314068 Ry
     estimated scf accuracy    <       0.00000002 Ry

     iteration # 15     ecut=    40.00 Ry     beta=0.70
     Davidson diagonalization with overlap
     ethr =  6.73E-12,  avg # of iterations =  1.0

     negative rho (up, down):  0.571E+00 0.000E+00

     End of self-consistent calculation
 --- enter write_ns ---
 LDA+U parameters:
U( 2)     =  4.50000000
alpha( 2) =  0.00000000
atom    3   Tr[ns(na)] =   7.25647
    eigenvalues:
  0.503  0.551  0.720  0.880  0.973
    eigenvectors:
  0.000  0.185  0.008  0.000  0.807
  1.000  0.000  0.000  0.000  0.000
  0.000  0.001  0.987  0.000  0.013
  0.000  0.814  0.006  0.000  0.180
  0.000  0.000  0.000  1.000  0.000
    occupations:
  0.893  0.000  0.028 -0.162 -0.000
  0.000  0.503 -0.000 -0.000 -0.005
  0.028 -0.000  0.724 -0.008  0.000
 -0.162 -0.000 -0.008  0.628 -0.000
 -0.000 -0.005  0.000 -0.000  0.880
atom    4   Tr[ns(na)] =   7.23580
    eigenvalues:
  0.553  0.606  0.661  0.816  0.983
    eigenvectors:
  0.001  0.986  0.000  0.000  0.013
  0.000  0.000  0.018  0.982  0.000
  0.000  0.000  0.982  0.018  0.000
  0.000  0.013  0.000  0.000  0.987
  0.999  0.001  0.000  0.000  0.000
    occupations:
  0.610 -0.001  0.000  0.043  0.002
 -0.001  0.813  0.021 -0.001 -0.001
  0.000  0.021  0.663  0.002  0.000
  0.043 -0.001  0.002  0.978  0.000
  0.002 -0.001  0.000  0.000  0.553
atom    9   Tr[ns(na)] =   7.24875
    eigenvalues:
  0.565  0.586  0.755  0.855  0.863
    eigenvectors:
  0.000  0.136  0.002  0.473  0.389
  1.000  0.000  0.000  0.000  0.000
  0.000  0.000  0.998  0.002  0.001
  0.000  0.863  0.001  0.074  0.062
  0.000  0.000  0.000  0.451  0.549
    occupations:
  0.821  0.001 -0.005 -0.094  0.004
  0.001  0.565  0.001  0.000  0.001
 -0.005  0.001  0.756  0.001  0.000
 -0.094  0.000  0.001  0.623 -0.002
  0.004  0.001  0.000 -0.002  0.860
atom   10   Tr[ns(na)] =   7.26449
    eigenvalues:
  0.516  0.530  0.765  0.853  0.968
    eigenvectors:
  0.987  0.000  0.000  0.000  0.013
  0.000  0.000  0.000  1.000  0.000
  0.000  0.000  1.000  0.000  0.000
  0.013  0.000  0.000  0.000  0.987
  0.000  1.000  0.000  0.000  0.000
    occupations:
  0.522  0.000  0.001  0.051  0.000
  0.000  0.853  0.001  0.000 -0.001
  0.001  0.001  0.765 -0.002 -0.000
  0.051  0.000 -0.002  0.962 -0.000
  0.000 -0.001 -0.000 -0.000  0.530
atom   16   Tr[ns(na)] =   7.25651
    eigenvalues:
  0.503  0.551  0.721  0.880  0.973
    eigenvectors:
  0.000  0.185  0.008  0.000  0.807
  1.000  0.000  0.000  0.000  0.000
  0.000  0.001  0.987  0.000  0.013
  0.000  0.814  0.006  0.000  0.180
  0.000  0.000  0.000  1.000  0.000
    occupations:
  0.893  0.000  0.028 -0.162 -0.000
  0.000  0.503 -0.000 -0.000 -0.005
  0.028 -0.000  0.724 -0.008  0.000
 -0.162 -0.000 -0.008  0.628 -0.000
 -0.000 -0.005  0.000 -0.000  0.880
atom   17   Tr[ns(na)] =   7.23581
    eigenvalues:
  0.553  0.606  0.661  0.816  0.983
    eigenvectors:
  0.001  0.986  0.000  0.000  0.013
  0.000  0.000  0.018  0.982  0.000
  0.000  0.000  0.982  0.018  0.000
  0.000  0.013  0.000  0.000  0.987
  0.999  0.001  0.000  0.000  0.000
    occupations:
  0.610 -0.001  0.000  0.043  0.002
 -0.001  0.813  0.021 -0.001 -0.001
  0.000  0.021  0.663  0.002  0.000
  0.043 -0.001  0.002  0.978  0.000
  0.002 -0.001  0.000  0.000  0.553
atom   22   Tr[ns(na)] =   7.24875
    eigenvalues:
  0.565  0.586  0.755  0.855  0.863
    eigenvectors:
  0.000  0.136  0.002  0.469  0.393
  1.000  0.000  0.000  0.000  0.000
  0.000  0.000  0.998  0.001  0.001
  0.000  0.863  0.001  0.073  0.063
  0.000  0.000  0.000  0.456  0.544
    occupations:
  0.821  0.001 -0.005 -0.094  0.004
  0.001  0.565  0.001  0.000  0.001
 -0.005  0.001  0.756  0.001  0.000
 -0.094  0.000  0.001  0.623 -0.002
  0.004  0.001  0.000 -0.002  0.860
atom   23   Tr[ns(na)] =   7.26449
    eigenvalues:
  0.516  0.530  0.765  0.853  0.968
    eigenvectors:
  0.987  0.000  0.000  0.000  0.013
  0.000  0.000  0.000  1.000  0.000
  0.000  0.000  1.000  0.000  0.000
  0.013  0.000  0.000  0.000  0.987
  0.000  1.000  0.000  0.000  0.000
    occupations:
  0.522  0.000  0.001  0.051  0.000
  0.000  0.853  0.001  0.000 -0.001
  0.001  0.001  0.765 -0.002 -0.000
  0.051  0.000 -0.002  0.962 -0.000
  0.000 -0.001 -0.000 -0.000  0.530
N of occupied +U levels =  58.0110617
 --- exit write_ns ---

[...]

          k = 0.2500-0.4870 0.0000 ( 30468 PWs)   bands (ev):

[...]

          k =-0.2500 0.2435 0.0000 ( 30434 PWs)   bands (ev):

   -73.8495 -73.8485 -73.8420 -73.8408 -73.5620 -73.5542 -73.3977 -73.3906
   -44.1718 -44.1634 -43.9676 -43.9454 -43.9359 -43.8785 -43.8680 -43.8320
   -43.7897 -43.7788 -43.7667 -43.7266 -43.6600 -43.6162 -43.5969 -43.5880
   -43.5828 -43.4659 -43.3707 -43.3621 -43.3504 -43.3400 -43.3374 -43.2140
   -20.7804 -20.3457 -20.2744 -20.2658 -20.1670 -20.0247 -19.7877 -19.7784
   -19.6863 -19.6044 -19.5745 -19.3672 -19.2953 -19.2316 -19.1594 -19.0476
   -19.0264 -18.8696  -9.3310  -8.8613  -8.8283  -8.6684  -8.4934  -8.3501
    -8.2442  -8.1897  -7.8327  -7.7979  -7.7108  -7.6689  -7.5250  -7.4621
    -7.4206  -7.4096  -7.3502  -7.1973  -6.9362  -6.7720  -6.7214  -6.4479
    -6.2729  -6.2222  -6.0893  -5.9615  -5.9174  -5.7278  -5.6251  -5.5543
    -5.4568  -5.4494  -5.3430  -5.1826  -5.0994  -5.0711  -4.9440  -4.9244
    -4.7985  -4.7884  -4.6328  -4.5207  -4.3079  -4.2260  -4.1482  -4.0937
    -4.0124  -3.8707  -3.8181  -3.5568  -3.4925  -3.2208  -3.1841  -2.8675
    -2.7425  -2.6040  -2.4344  -2.3875  -2.2814  -2.2744  -2.2108  -2.0819
    -2.0575  -1.9291  -1.8851  -1.8413  -1.5994  -1.5224  -1.4198  -1.1908
    -0.9308  -0.7171  -0.6442  -0.5152  -0.4211  -0.2832  -0.1631   0.1116
     0.9053   1.0686   1.7948   1.9045   1.9859   2.4664   2.5735   2.8582
     3.0546   3.2924   3.4757   3.4770   3.5519   3.6823   3.9189   3.9340
     4.0373   4.3888   4.6310   5.0703   5.5302   5.7219   5.7854   6.0381
     6.1124   6.3761   6.5215   6.5250   6.7586   6.8573   6.9334   7.1646
     7.4637   7.5232   7.8121   7.9027   7.9437   8.2105   8.2472   8.3616
     8.4844   8.5529   8.7286   8.7466   8.8415   9.0107   9.1763   9.2304
     9.3050   9.5017   9.5224   9.7879   9.7951   9.9869   9.9908  10.0668
    10.0816  10.2905  10.3229  10.4144  10.4410  10.5928  10.6336  10.7994
    10.8443  10.8919  11.0551  11.1727  11.3171  11.3585  11.4588  11.5433
    11.5837  11.6645  11.7136  11.8291  11.8960  12.0024  12.0332  12.0947
    12.1731  12.3148  12.3910  12.4574  12.5369  12.5895  12.6830  12.7208
    12.7847  12.8773  12.9136  12.9824  13.0223  13.1550  13.2275  13.3720
    13.3732  13.4756  13.6231  13.6674  13.7200  13.7797  13.8614  13.9974
    14.0369  14.1084  14.2108  14.3559  14.3593  14.4189  14.5745  14.5880
    14.6197  14.7546  14.8457  14.9364  14.9792  15.0553  15.0866  15.2139
    15.2699  15.3902  15.4831  15.5212  15.6694  15.7326  15.7605  15.8160
    15.8282  15.9300  15.9421  15.9776  16.0285  16.0955  16.1652  16.1770
    16.2975  16.4177  16.4538  16.5440  16.5979  16.7165  16.7211  16.8282
    16.8605  16.8801  17.0153  17.0346  17.1282  17.2199  17.3162  17.4094
    17.4221  17.4792  17.5039  17.5904  17.6239  17.6384  17.7157  17.8143
    17.8830  17.8835  17.9828  18.0024  18.0634  18.1488  18.1649  18.3215
    18.3226  18.4495  18.5437  18.6387  18.6481  18.7428  18.7601  18.8835
    18.9828  19.0341  19.1117  19.1833  19.2490  19.2737  19.3746  19.4171
    19.4751  19.6143  19.6784  19.7741  19.8433  19.8535  19.9132  20.0073
    20.0985  20.2035  20.2430  20.4308  20.4356  20.5833  20.6655  20.7288
    20.7831  20.8161  20.9005  20.9070  21.0124  21.0790  21.0912  21.1250
    21.2496  21.2511  21.3287  21.3596  21.3894  21.4558  21.4938  21.6302
    21.6746  21.6950  21.8231  21.8589

     the Fermi energy is    -1.0730 ev

!    total energy              =   -2128.94314068 Ry
     Harris-Foulkes estimate   =   -2128.94314068 Ry
     estimated scf accuracy    <          3.0E-09 Ry

     The total energy is the sum of the following terms:

     one-electron contribution =  -24519.61347555 Ry
     hartree contribution      =   12282.75210673 Ry
     xc contribution           =    -330.87898087 Ry
     ewald contribution        =   10436.50831147 Ry
     Hubbard energy            =       2.28755021 Ry
     smearing contrib. (-TS)   =       0.00134734 Ry

     convergence has been achieved in  15 iterations

     Forces acting on atoms (Ry/au):

     negative rho (up, down):  0.571E+00 0.000E+00
     atom    1 type  1   force =    -0.00442147   -0.00874474    0.00029851
     atom    2 type  1   force =    -0.00017867    0.00417769   -0.00011305
     atom    3 type  2   force =    -0.00023980    0.00377056   -0.00017371
     atom    4 type  2   force =     0.00260110    0.00503958    0.00030562
     atom    5 type  1   force =     0.00043279   -0.03402711    0.00005758
     atom    6 type  1   force =     0.00259432    0.03390894   -0.00008969
     atom    7 type  1   force =     0.00001590   -0.00216916    0.00001899
     atom    8 type  1   force =     0.00019926   -0.00108408    0.00070253
     atom    9 type  2   force =     0.00079671    0.00146699    0.00010351
     atom   10 type  2   force =     0.00010335   -0.00086636   -0.00015284
     atom   11 type  1   force =    -0.00014410    0.01813991   -0.00018705
     atom   12 type  1   force =     0.00011499   -0.01906264   -0.00022611
     atom   13 type  1   force =    -0.00162944   -0.00043887   -0.00013965
     atom   14 type  1   force =    -0.00442460   -0.00874454    0.00029494
     atom   15 type  1   force =    -0.00018859    0.00417720   -0.00011393
     atom   16 type  2   force =    -0.00023926    0.00376826   -0.00017527
     atom   17 type  2   force =     0.00260267    0.00503945    0.00030704
     atom   18 type  1   force =     0.00043475   -0.03401936    0.00005996
     atom   19 type  1   force =     0.00259652    0.03390171   -0.00008860
     atom   20 type  1   force =     0.00000205   -0.00216905    0.00002163
     atom   21 type  1   force =     0.00018505   -0.00108413    0.00070774
     atom   22 type  2   force =     0.00078052    0.00146953    0.00010567
     atom   23 type  2   force =     0.00009873   -0.00086657   -0.00015363
     atom   24 type  1   force =    -0.00014495    0.01814220   -0.00018701
     atom   25 type  1   force =     0.00011382   -0.01906983   -0.00021566
     atom   26 type  1   force =    -0.00163790   -0.00043857   -0.00014327
     atom   27 type  3   force =     0.00001543    0.00001942   -0.00005429
     atom   28 type  3   force =     0.00001496    0.00001957   -0.00005442
     atom   29 type  3   force =    -0.00022707   -0.00012795   -0.00035808
     atom   30 type  3   force =    -0.00022707   -0.00012804   -0.00035745

     Total force =     0.001464     Total SCF correction =     0.000109

     bfgs converged in  16 scf cycles and  15 bfgs steps
     (criteria: energy < 0.10E-03, force < 0.10E-02)

     End of BFGS Geometry Optimization

     Final energy   =   -2128.9431406761 Ry
Begin final coordinates

ATOMIC_POSITIONS (crystal)
O0       0.000000000   0.000000000   0.380967149    0   0   1
O0       0.000000000   0.500000000   0.402919943    0   0   1
Ru1      0.250000000   0.500000000   0.453121874    0   0   1
Ru1      0.000000000   0.000000000   0.454560350    0   0   1
O0       0.250000000   0.810000000   0.453884907    0   0   1
O0       0.250000000   0.190000000   0.453744966    0   0   1
O0       0.000000000   0.500000000   0.499616785    0   0   1
O0       0.000000000   0.000000000   0.527278294    0   0   1
Ru1      0.250000000   0.000000000   0.578422875    0   0   1
Ru1      0.000000000   0.500000000   0.569749024    0   0   1
O0       0.250000000   0.690000000   0.575613132    0   0   1
O0       0.250000000   0.310000000   0.575833293    0   0   1
O0       0.000000000   0.000000000   0.619915211    0   0   1
O0       0.500000000   0.000000000   0.380967236    0   0   1
O0       0.500000000   0.500000000   0.402920010    0   0   1
Ru1      0.750000000   0.500000000   0.453121813    0   0   1
Ru1      0.500000000   0.000000000   0.454560228    0   0   1
O0       0.750000000   0.810000000   0.453884707    0   0   1
O0       0.750000000   0.190000000   0.453744857    0   0   1
O0       0.500000000   0.500000000   0.499616714    0   0   1
O0       0.500000000   0.000000000   0.527277990    0   0   1
Ru1      0.750000000   0.000000000   0.578420734    0   0   1
Ru1      0.500000000   0.500000000   0.569748991    0   0   1
O0       0.750000000   0.690000000   0.575612130    0   0   1
O0       0.750000000   0.310000000   0.575830508    0   0   1
O0       0.500000000   0.000000000   0.619915987    0   0   1
H2      -0.000621567   0.622260515   0.380211067
H2       0.499378322   0.622260102   0.380211019
H2       0.146732515   0.027771142   0.368599216
H2       0.646731993   0.027771449   0.368598988
End final coordinates

     General routines

     Parallel routines
     Hubbard U routines

   This run was terminated on:  22:37:12   6May2014

   JOB DONE.