     Program PWSCF v.5.0.2 (svn rev. 9656) starts on  4May2014 at 21: 3:37

     Current dimensions of program PWSCF are:
     Max number of different atomic species (ntypx) = 10
     Max number of k-points (npk) =  40000
     Max angular momentum in pseudopotentials (lmaxx) =  3
     Reading input from pwscf.in
Warning: card &CELL ignored
Warning: card / ignored

     Subspace diagonalization in iterative solution of the eigenvalue problem:
     a serial algorithm will be used

     bravais-lattice index     =            0
     lattice parameter (alat)  =      10.9604  a.u.
     unit-cell volume          =    6350.6732 (a.u.)^3
     number of atoms/cell      =           31
     number of atomic types    =            3
     number of electrons       =       230.00 (up: 122.00, down: 108.00)
     number of Kohn-Sham states=          333
     kinetic-energy cutoff     =      40.0000  Ry
     charge density cutoff     =     500.0000  Ry
     convergence threshold     =      1.0E-06
     mixing beta               =       0.7000
     number of iterations used =            8  plain     mixing
     Exchange-correlation      = SLA  PW   PBE  PBE ( 1 4 3 4 0)
     EXX-fraction              =        0.00
     nstep                     =           50

     celldm(1)=  10.960412  celldm(2)=   0.000000  celldm(3)=   0.000000
     celldm(4)=   0.000000  celldm(5)=   0.000000  celldm(6)=   0.000000

     crystal axes: (cart. coord. in units of alat)
               a(1) = (   1.000000   0.000000   0.000000 )
               a(2) = (   0.000000   1.067975   0.000000 )
               a(3) = (   0.000000   0.000000   4.516251 )

     reciprocal axes: (cart. coord. in units 2 pi/alat)
               b(1) = (  1.000000  0.000000  0.000000 )
               b(2) = (  0.000000  0.936351  0.000000 )
               b(3) = (  0.000000  0.000000  0.221423 )

     PseudoPot. # 1 for O  read from file:
     /home/camp/zhonxu/pseudo/o_pbe_v1.01.uspp.F.UPF
     MD5 check sum: 2bcb18d16ea4b960afae9ec6d52f22d2
     Pseudo is Ultrasoft + core correction, Zval =  6.0
     Generated by new atomic code, or converted to UPF format
     Using radial grid of  737 points,  5 beta functions with:
                l(1) =   0
                l(2) =   0
                l(3) =   1
                l(4) =   1
                l(5) =   2
     Q(r) pseudized with  8 coefficients,  rinner =    0.900   0.900   0.900
                                                       0.900   0.900

     PseudoPot. # 2 for Cr read from file:
     /home/camp/zhonxu/pseudo/cr_pbe_v1.uspp.F.UPF
     MD5 check sum: 68b6f918d1762dccfb11451fe85b0e0e
     Pseudo is Ultrasoft + core correction, Zval = 14.0
     Generated by new atomic code, or converted to UPF format
     Using radial grid of  857 points,  6 beta functions with:
                l(1) =   0
                l(2) =   0
                l(3) =   1
                l(4) =   1
                l(5) =   2
                l(6) =   2
     Q(r) pseudized with  6 coefficients,  rinner =    1.000   1.000   1.000
                                                       1.000   1.000

     PseudoPot. # 3 for H  read from file:
     /home/camp/zhonxu/pseudo/h_pbe_v1.uspp.F.UPF
     MD5 check sum: 3408e3ff4ec8b0a4e358431e7e038a48
     Pseudo is Ultrasoft, Zval =  1.0
     Generated by new atomic code, or converted to UPF format
     Using radial grid of  615 points,  2 beta functions with:
                l(1) =   0
                l(2) =   0
     Q(r) pseudized with  8 coefficients,  rinner =    0.700

     atomic species   valence    mass     pseudopotential
        O0             6.00    15.99940     O ( 1.00)
        Cr1           14.00    51.99600     Cr( 1.00)
        H2             1.00     1.00794     H ( 1.00)

     Starting magnetic structure
     atomic species   magnetization
        O0           0.000
        Cr1          0.600
        H2           0.000

     Simplified LDA+U calculation (l_max = 2) with parameters (eV):
     atomic species    L          U    alpha       J0     beta
        Cr1            2     2.0000   0.0000   0.0000   0.0000

     No symmetry found

   Cartesian axes

     site n.     atom                  positions (alat units)
         1           O0  tau(   1) = (   0.0000000   0.0000000   1.7030331  )
         2           O0  tau(   2) = (   0.0000000   0.5339875   1.8028422  )
         3           Cr1 tau(   3) = (   0.2500000   0.5339875   2.0350227  )
         4           Cr1 tau(   4) = (   0.0000000   0.0000000   2.0223320  )
         5           O0  tau(   5) = (   0.2500000   0.8543801   2.0287902  )
         6           O0  tau(   6) = (   0.2500000   0.2135950   2.0292419  )
         7           O0  tau(   7) = (   0.0000000   0.5339875   2.2445767  )
         8           O0  tau(   8) = (   0.0000000   0.0000000   2.3628573  )
         9           Cr1 tau(   9) = (   0.2500000   0.0000000   2.5580045  )
        10           Cr1 tau(  10) = (   0.0000000   0.5339875   2.5485656  )
        11           O0  tau(  11) = (   0.2500000   0.7475825   2.5953991  )
        12           O0  tau(  12) = (   0.2500000   0.3203925   2.5951281  )
        13           O0  tau(  13) = (   0.0000000   0.0000000   2.7889204  )
        14           O0  tau(  14) = (   0.5000000   0.0000000   1.7055170  )
        15           O0  tau(  15) = (   0.5000000   0.5339875   1.8012615  )
        16           Cr1 tau(  16) = (   0.7500000   0.5339875   2.0359259  )
        17           Cr1 tau(  17) = (   0.5000000   0.0000000   2.0265773  )
        18           O0  tau(  18) = (   0.7500000   0.8543801   2.0288354  )
        19           O0  tau(  19) = (   0.7500000   0.2135950   2.0296032  )
        20           O0  tau(  20) = (   0.5000000   0.5339875   2.2364023  )
        21           O0  tau(  21) = (   0.5000000   0.0000000   2.3615024  )
        22           Cr1 tau(  22) = (   0.7500000   0.0000000   2.6337872  )
        23           Cr1 tau(  23) = (   0.5000000   0.5339875   2.6580395  )
        24           O0  tau(  24) = (   0.7500000   0.7475825   2.5992379  )
        25           O0  tau(  25) = (   0.7500000   0.3203925   2.5991024  )
        26           O0  tau(  26) = (   0.5000000   0.0000000   2.7868881  )
        27           H2  tau(  27) = (  -0.0008000   0.6785059   1.7121107  )
        28           H2  tau(  28) = (   0.4997900   0.6815710   1.7150915  )
        29           H2  tau(  29) = (   0.1566700   0.0342393   1.6437347  )
        30           H2  tau(  30) = (   0.6553000   0.0356063   1.6443670  )
        31           O0  tau(  31) = (   0.4989300   0.5335603   2.9283823  )

     number of k points=    20  Methfessel-Paxton smearing, width (Ry)=  0.0100
                       cart. coord. in units 2pi/alat
        k(    1) = (   0.0000000   0.0000000   0.0000000), wk =   0.0625000
        k(    2) = (   0.0000000   0.2340879   0.0000000), wk =   0.1250000
        k(    3) = (   0.0000000  -0.4681757   0.0000000), wk =   0.0625000
        k(    4) = (   0.2500000   0.0000000   0.0000000), wk =   0.1250000
        k(    5) = (   0.2500000   0.2340879   0.0000000), wk =   0.1250000
        k(    6) = (   0.2500000  -0.4681757   0.0000000), wk =   0.1250000
        k(    7) = (  -0.5000000   0.0000000   0.0000000), wk =   0.0625000
        k(    8) = (  -0.5000000   0.2340879   0.0000000), wk =   0.1250000
        k(    9) = (  -0.5000000  -0.4681757   0.0000000), wk =   0.0625000
        k(   10) = (  -0.2500000   0.2340879   0.0000000), wk =   0.1250000
        k(   11) = (   0.0000000   0.0000000   0.0000000), wk =   0.0625000
        k(   12) = (   0.0000000   0.2340879   0.0000000), wk =   0.1250000
        k(   13) = (   0.0000000  -0.4681757   0.0000000), wk =   0.0625000
        k(   14) = (   0.2500000   0.0000000   0.0000000), wk =   0.1250000
        k(   15) = (   0.2500000   0.2340879   0.0000000), wk =   0.1250000
        k(   16) = (   0.2500000  -0.4681757   0.0000000), wk =   0.1250000
        k(   17) = (  -0.5000000   0.0000000   0.0000000), wk =   0.0625000
        k(   18) = (  -0.5000000   0.2340879   0.0000000), wk =   0.1250000
        k(   19) = (  -0.5000000  -0.4681757   0.0000000), wk =   0.0625000
        k(   20) = (  -0.2500000   0.2340879   0.0000000), wk =   0.1250000

     Largest allocated arrays     est. size (Mb)     dimensions
     Largest temporary arrays     est. size (Mb)     dimensions

     Check: negative/imaginary core charge=   -0.000012    0.000000

     Initial potential from superposition of free atoms
     Check: negative starting charge=(component1):   -0.001547
     Check: negative starting charge=(component2):   -0.000494

     starting charge  221.99984, renormalised to  230.00000

     negative rho (up, down):  0.160E-02 0.512E-03
     Number of +U iterations with fixed ns =  0
     Starting occupations:
 --- enter write_ns ---
 LDA+U parameters:
U( 2)     =  2.00000000
alpha( 2) =  0.00000000
atom    3   Tr[ns(na)] (up, down, total) =   5.00000  0.00000  5.00000
   spin  1
    eigenvalues:
  1.000  1.000  1.000  1.000  1.000
    eigenvectors:
  1.000  0.000  0.000  0.000  0.000
  0.000  1.000  0.000  0.000  0.000
  0.000  0.000  1.000  0.000  0.000
  0.000  0.000  0.000  1.000  0.000
  0.000  0.000  0.000  0.000  1.000
    occupations:
  1.000  0.000  0.000  0.000  0.000
  0.000  1.000  0.000  0.000  0.000
  0.000  0.000  1.000  0.000  0.000
  0.000  0.000  0.000  1.000  0.000
  0.000  0.000  0.000  0.000  1.000
   spin  2
    eigenvalues:
  0.000  0.000  0.000  0.000  0.000
    eigenvectors:
  1.000  0.000  0.000  0.000  0.000
  0.000  1.000  0.000  0.000  0.000
  0.000  0.000  1.000  0.000  0.000
  0.000  0.000  0.000  1.000  0.000
  0.000  0.000  0.000  0.000  1.000
    occupations:
  0.000  0.000  0.000  0.000  0.000
  0.000  0.000  0.000  0.000  0.000
  0.000  0.000  0.000  0.000  0.000
  0.000  0.000  0.000  0.000  0.000
  0.000  0.000  0.000  0.000  0.000
atomic mag. moment =     5.000000
atom    4   Tr[ns(na)] (up, down, total) =   5.00000  0.00000  5.00000
   spin  1
    eigenvalues:
  1.000  1.000  1.000  1.000  1.000
    eigenvectors:
  1.000  0.000  0.000  0.000  0.000
  0.000  1.000  0.000  0.000  0.000
  0.000  0.000  1.000  0.000  0.000
  0.000  0.000  0.000  1.000  0.000
  0.000  0.000  0.000  0.000  1.000
    occupations:
  1.000  0.000  0.000  0.000  0.000
  0.000  1.000  0.000  0.000  0.000
  0.000  0.000  1.000  0.000  0.000
  0.000  0.000  0.000  1.000  0.000
  0.000  0.000  0.000  0.000  1.000
   spin  2
    eigenvalues:
  0.000  0.000  0.000  0.000  0.000
    eigenvectors:
  1.000  0.000  0.000  0.000  0.000
  0.000  1.000  0.000  0.000  0.000
  0.000  0.000  1.000  0.000  0.000
  0.000  0.000  0.000  1.000  0.000
  0.000  0.000  0.000  0.000  1.000
    occupations:
  0.000  0.000  0.000  0.000  0.000
  0.000  0.000  0.000  0.000  0.000
  0.000  0.000  0.000  0.000  0.000
  0.000  0.000  0.000  0.000  0.000
  0.000  0.000  0.000  0.000  0.000
atomic mag. moment =     5.000000
atom    9   Tr[ns(na)] (up, down, total) =   5.00000  0.00000  5.00000
   spin  1
    eigenvalues:
  1.000  1.000  1.000  1.000  1.000
    eigenvectors:
  1.000  0.000  0.000  0.000  0.000
[...]
  0.017 -0.002  0.657 -0.006  0.033
 -0.191 -0.002 -0.006  0.612 -0.001
 -0.003 -0.006  0.033 -0.001  0.884
   spin  2
    eigenvalues:
  0.116  0.135  0.166  0.360  0.389
    eigenvectors:
  0.763  0.003  0.018  0.058  0.159
  0.001  0.002  0.000  0.790  0.206
  0.023  0.081  0.896  0.000  0.000
  0.213  0.000  0.002  0.150  0.634
  0.000  0.913  0.084  0.002  0.000
    occupations:
  0.174  0.003 -0.004  0.109  0.001
  0.003  0.365  0.001 -0.015  0.011
 -0.004  0.001  0.162  0.008 -0.009
  0.109 -0.015  0.008  0.326 -0.001
  0.001  0.011 -0.009 -0.001  0.138
atomic mag. moment =     2.341173
atom    4   Tr[ns(na)] (up, down, total) =   3.45655  1.20962  4.66616
   spin  1
    eigenvalues:
  0.484  0.528  0.588  0.873  0.984
    eigenvectors:
  0.003  0.991  0.000  0.001  0.004
  0.000  0.001  0.021  0.978  0.000
  0.000  0.000  0.979  0.021  0.000
  0.000  0.005  0.000  0.000  0.995
  0.997  0.003  0.000  0.000  0.000
    occupations:
  0.530 -0.011 -0.001  0.031  0.002
 -0.011  0.866  0.041  0.002 -0.000
 -0.001  0.041  0.594  0.002 -0.000
  0.031  0.002  0.002  0.982 -0.000
  0.002 -0.000 -0.000 -0.000  0.484
   spin  2
    eigenvalues:
  0.111  0.142  0.184  0.376  0.396
    eigenvectors:
  0.003  0.003  0.000  0.004  0.991
  0.002  0.948  0.047  0.000  0.003
  0.000  0.047  0.953  0.000  0.000
  0.995  0.002  0.000  0.000  0.002
  0.000  0.000  0.000  0.996  0.004
    occupations:
  0.395  0.014  0.003 -0.014  0.001
  0.014  0.145 -0.009  0.001 -0.000
  0.003 -0.009  0.182  0.000 -0.000
 -0.014  0.001  0.000  0.112  0.000
  0.001 -0.000 -0.000  0.000  0.376
atomic mag. moment =     2.246931
atom    9   Tr[ns(na)] (up, down, total) =   3.46478  1.24126  4.70604
   spin  1
    eigenvalues:
  0.500  0.505  0.628  0.851  0.981
    eigenvectors:
  0.038  0.135  0.000  0.000  0.827
  0.785  0.215  0.000  0.000  0.000
  0.000  0.000  0.990  0.010  0.000
  0.177  0.650  0.000  0.000  0.173
  0.000  0.000  0.010  0.990  0.000
    occupations:
  0.898  0.002 -0.000 -0.180 -0.000
  0.002  0.501  0.001  0.001 -0.001
 -0.000  0.001  0.630 -0.001 -0.022
 -0.180  0.001 -0.001  0.586  0.002
 -0.000 -0.001 -0.022  0.002  0.849
   spin  2
    eigenvalues:
  0.129  0.158  0.182  0.386  0.387
    eigenvectors:
  0.815  0.000  0.000  0.185  0.000
  0.000  0.000  0.000  0.001  0.999
  0.000  0.050  0.950  0.000  0.000
  0.185  0.000  0.000  0.814  0.001
  0.000  0.950  0.050  0.000  0.000
    occupations:
  0.176  0.000 -0.000  0.100 -0.000
  0.000  0.387 -0.000 -0.000  0.000
 -0.000 -0.000  0.181  0.000  0.005
  0.100 -0.000  0.000  0.338 -0.000
 -0.000  0.000  0.005 -0.000  0.159
atomic mag. moment =     2.223513
atom   10   Tr[ns(na)] (up, down, total) =   3.56697  1.07393  4.64090
   spin  1
    eigenvalues:
  0.466  0.492  0.728  0.902  0.979
    eigenvectors:
  0.000  0.993  0.000  0.000  0.007
  0.000  0.000  0.000  0.973  0.026
  0.000  0.000  0.999  0.000  0.000
  0.000  0.007  0.000  0.026  0.967
  1.000  0.000  0.000  0.000  0.000
    occupations:
  0.495 -0.010  0.000  0.040 -0.000
 -0.010  0.904 -0.003 -0.011  0.001
  0.000 -0.003  0.728  0.000  0.004
  0.040 -0.011  0.000  0.974  0.000
 -0.000  0.001  0.004  0.000  0.466
   spin  2
    eigenvalues:
  0.097  0.155  0.168  0.300  0.354
    eigenvectors:
  0.007  0.000  0.000  0.993  0.000
  0.001  0.999  0.000  0.000  0.000
  0.000  0.000  1.000  0.000  0.000
  0.992  0.001  0.000  0.007  0.000
  0.000  0.000  0.000  0.000  1.000
    occupations:
  0.299  0.000 -0.000 -0.017 -0.000
  0.000  0.155  0.000  0.002 -0.000
 -0.000  0.000  0.168 -0.000  0.003
 -0.017  0.002 -0.000  0.099  0.000
 -0.000 -0.000  0.003  0.000  0.354
atomic mag. moment =     2.493045
atom   16   Tr[ns(na)] (up, down, total) =   3.50263  1.16921  4.67184
   spin  1
    eigenvalues:
  0.470  0.518  0.648  0.888  0.979
    eigenvectors:
  0.034  0.183  0.002  0.000  0.782
  0.896  0.101  0.000  0.000  0.002
  0.000  0.000  0.958  0.039  0.003
  0.070  0.715  0.002  0.000  0.213
  0.000  0.000  0.039  0.961  0.000
    occupations:
  0.877  0.026  0.016 -0.191  0.004
  0.026  0.475  0.004  0.003 -0.005
  0.016  0.004  0.658 -0.006 -0.046
 -0.191  0.003 -0.006  0.613 -0.001
  0.004 -0.005 -0.046 -0.001  0.879
   spin  2
    eigenvalues:
  0.116  0.135  0.167  0.360  0.390
    eigenvectors:
  0.765  0.003  0.016  0.061  0.155
  0.002  0.002  0.000  0.781  0.216
  0.021  0.101  0.877  0.000  0.000
  0.213  0.000  0.002  0.157  0.628
  0.000  0.893  0.105  0.002  0.000
    occupations:
  0.174 -0.003 -0.004  0.109 -0.001
 -0.003  0.366 -0.001  0.015  0.011
 -0.004 -0.001  0.163  0.007  0.010
  0.109  0.015  0.007  0.327  0.001
 -0.001  0.011  0.010  0.001  0.139
atomic mag. moment =     2.333420
atom   17   Tr[ns(na)] (up, down, total) =   3.45994  1.20486  4.66480
   spin  1
    eigenvalues:
  0.483  0.530  0.604  0.859  0.984
    eigenvectors:
  0.002  0.992  0.000  0.001  0.004
  0.000  0.001  0.023  0.976  0.000
  0.000  0.001  0.977  0.022  0.000
  0.000  0.004  0.000  0.000  0.996
  0.998  0.002  0.000  0.000  0.000
    occupations:
  0.532 -0.012 -0.003  0.029  0.002
 -0.012  0.853  0.038  0.001 -0.000
 -0.003  0.038  0.609  0.001  0.002
  0.029  0.001  0.001  0.982 -0.000
  0.002 -0.000  0.002 -0.000  0.483
   spin  2
    eigenvalues:
  0.111  0.142  0.184  0.372  0.396
    eigenvectors:
  0.003  0.004  0.000  0.002  0.991
  0.002  0.941  0.052  0.000  0.004
  0.000  0.052  0.948  0.000  0.000
  0.995  0.003  0.000  0.000  0.002
  0.000  0.000  0.000  0.998  0.002
    occupations:
  0.395  0.016  0.003 -0.014  0.001
  0.016  0.145 -0.009  0.001 -0.000
  0.003 -0.009  0.182  0.000 -0.000
 -0.014  0.001  0.000  0.111  0.000
  0.001 -0.000 -0.000  0.000  0.372
atomic mag. moment =     2.255080
atom   22   Tr[ns(na)] (up, down, total) =   3.08921  1.72916  4.81837
   spin  1
    eigenvalues:
  0.498  0.543  0.557  0.629  0.862
    eigenvectors:
  0.981  0.004  0.016  0.000  0.000
  0.003  0.993  0.004  0.000  0.000
  0.000  0.000  0.000  0.083  0.917
  0.016  0.003  0.980  0.000  0.000
  0.000  0.000  0.000  0.917  0.083
    occupations:
  0.499 -0.002  0.001 -0.007  0.002
 -0.002  0.543  0.000 -0.001 -0.000
  0.001  0.000  0.843 -0.000  0.064
 -0.007 -0.001 -0.000  0.556 -0.001
  0.002 -0.000  0.064 -0.001  0.648
   spin  2
    eigenvalues:
  0.216  0.286  0.310  0.457  0.460
    eigenvectors:
  0.000  0.000  0.987  0.010  0.002
  0.000  0.000  0.000  0.104  0.896
  0.982  0.018  0.000  0.000  0.000
  0.000  0.000  0.012  0.886  0.102
  0.018  0.982  0.000  0.000  0.000
    occupations:
  0.312 -0.002 -0.000  0.016 -0.000
 -0.002  0.460 -0.000 -0.001  0.000
 -0.000 -0.000  0.218  0.000 -0.009
  0.016 -0.001  0.000  0.455  0.000
 -0.000  0.000 -0.009  0.000  0.285
atomic mag. moment =     1.360054
atom   23   Tr[ns(na)] (up, down, total) =   3.12533  1.69041  4.81575
   spin  1
    eigenvalues:
  0.486  0.537  0.537  0.581  0.983
    eigenvectors:
  0.000  0.004  0.000  0.995  0.001
  0.000  0.987  0.009  0.004  0.000
  0.000  0.009  0.991  0.000  0.000
  0.000  0.000  0.000  0.001  0.999
  1.000  0.000  0.000  0.000  0.000
    occupations:
  0.581  0.003 -0.000  0.015 -0.000
  0.003  0.537 -0.000 -0.003 -0.000
 -0.000 -0.000  0.537 -0.000  0.000
  0.015 -0.003 -0.000  0.983 -0.000
 -0.000 -0.000  0.000 -0.000  0.486
   spin  2
    eigenvalues:
  0.111  0.346  0.350  0.395  0.488
    eigenvectors:
  0.002  0.000  0.000  0.000  0.998
  0.000  0.001  0.999  0.000  0.001
  0.000  0.999  0.001  0.000  0.000
  0.998  0.000  0.000  0.000  0.002
  0.000  0.000  0.000  1.000  0.000
    occupations:
  0.488  0.003  0.000 -0.016 -0.000
  0.003  0.350  0.000  0.001  0.000
  0.000  0.000  0.346 -0.000 -0.001
 -0.016  0.001 -0.000  0.112  0.000
 -0.000  0.000 -0.001  0.000  0.395
atomic mag. moment =     1.434917
N of occupied +U levels =  37.6548592
 --- exit write_ns ---

 ------ SPIN UP ------------

[...]

 ------ SPIN DOWN ----------

[...]

          k = 0.2500-0.4682 0.0000 ( 27150 PWs)   bands (ev):

[...]

          k =-0.2500 0.2341 0.0000 ( 27132 PWs)   bands (ev):

   -74.2542 -74.1946 -72.7936 -72.7926 -72.7668 -72.7157 -72.6506 -72.6325
   -46.3593 -45.9866 -45.4201 -45.2983 -45.2282 -45.1848 -44.4951 -44.3861
   -44.3683 -44.3531 -44.2960 -44.2782 -44.2109 -44.1612 -44.0778 -44.0371
   -44.0328 -44.0023 -43.9069 -43.9049 -43.8874 -43.7863 -43.7725 -43.6520
   -21.3077 -20.8877 -20.7300 -20.6773 -20.5584 -20.2783 -20.1795 -20.1362
   -20.0528 -19.9325 -19.9175 -19.8299 -19.7409 -19.7225 -19.6938 -19.6367
   -19.4593 -19.3812 -19.2796  -8.8099  -8.5686  -8.2778  -8.1920  -8.0535
    -7.8126  -7.7019  -7.6255  -7.5370  -7.4669  -7.3645  -7.2663  -7.2138
    -7.0789  -7.0194  -6.9683  -6.8240  -6.7688  -6.5977  -6.5625  -6.4954
    -6.4392  -6.3379  -6.1486  -6.0627  -6.0069  -5.8360  -5.7687  -5.6912
    -5.6182  -5.5380  -5.4873  -5.4024  -5.3932  -5.2427  -5.1685  -5.1043
    -5.0513  -4.8669  -4.7798  -4.6407  -4.5624  -4.4417  -4.3924  -4.2917
    -4.2031  -4.1003  -4.0603  -3.9999  -3.9413  -3.8316  -3.6857  -3.6550
    -3.5257  -3.4177  -3.2781  -3.0737  -0.4850  -0.3321  -0.2529  -0.1331
    -0.0320   0.0296   0.1492   0.2727   0.4190   0.4771   0.5444   0.6312
     0.6538   0.7507   0.8151   0.8415   0.9200   0.9885   1.0522   1.1542
     1.2088   1.2892   1.3527   1.4073   1.4494   1.4876   1.5665   1.8289
     2.0835   2.2260   2.3499   2.5635   2.6572   2.7023   2.8128   2.9411
     3.0083   3.1937   3.4866   3.5879   3.8009   4.2515   4.4495   4.9398
     5.4275   5.6719   5.7559   6.0713   6.2760   6.4394   6.5107   6.6729
     6.7958   6.9532   7.0446   7.3430   7.4848   7.7860   7.8852   8.0095
     8.3081   8.3446   8.4266   8.5662   8.7235   8.8416   9.0171   9.0767
     9.2570   9.2757   9.4411   9.5745   9.7318   9.8079   9.9227  10.1265
    10.1665  10.2417  10.3310  10.4346  10.5070  10.6476  10.7362  10.8463
    10.9218  11.0177  11.2012  11.2371  11.3004  11.3565  11.5352  11.6190
    11.6631  11.7679  11.8374  11.9142  12.0310  12.0951  12.1790  12.2729
    12.3660  12.4292  12.5287  12.6536  12.7273  12.8014  12.8576  12.9080
    12.9733  12.9962  13.0896  13.1386  13.2112  13.2875  13.3308  13.4205
    13.4856  13.5721  13.6872  13.7815  13.8564  13.9258  13.9835  14.0570
    14.1229  14.2534  14.3602  14.4462  14.4638  14.5122  14.6167  14.7081
    14.7650  14.8388  14.9366  14.9909  15.0405  15.1625  15.2475  15.3627
    15.4105  15.4865  15.5718  15.6557  15.7613  15.8473  15.9506  16.0193
    16.0855  16.1440  16.2062  16.2679  16.3723  16.4400  16.4988  16.5331
    16.6180  16.7638  16.8060  16.8446  16.9223  17.0491  17.0704  17.1098
    17.1936  17.2250  17.3798  17.4525  17.4827  17.5278  17.5992  17.6807
    17.7092  17.7559  17.7946  17.9005  17.9697  18.0371  18.1275  18.2368
    18.2663  18.3267  18.3896  18.4117  18.5837  18.6859  18.7664  18.8138
    18.8641  18.9298  18.9884  19.0286  19.0663  19.2381  19.3286  19.3810
    19.4315  19.4954  19.5854  19.6542  19.6834  19.7623  19.8048  19.8763
    19.9633  20.0439  20.1171  20.1859  20.3068  20.3672  20.4571  20.5252
    20.6292  20.7083  20.7698  20.8351  20.9180  21.0204  21.0873  21.1497
    21.2203  21.2550  21.3371  21.4203  21.4992

     the spin up/dw Fermi energies are    -1.8662   -2.8844 ev

!    total energy              =   -2024.77300671 Ry
     Harris-Foulkes estimate   =   -2024.77300672 Ry
     estimated scf accuracy    <          9.0E-09 Ry

     The total energy is the sum of the following terms:

     one-electron contribution =  -23827.56633283 Ry
     hartree contribution      =   11931.15397204 Ry
     xc contribution           =    -321.77193026 Ry
     ewald contribution        =   10192.35616625 Ry
     Hubbard energy            =       1.05501766 Ry
     smearing contrib. (-TS)   =       0.00010044 Ry

     total magnetization       =    14.00 Bohr mag/cell
     absolute magnetization    =    19.97 Bohr mag/cell

     convergence has been achieved in  21 iterations

     Forces acting on atoms (Ry/au):

     negative rho (up, down):  0.494E-02 0.179E-02
     atom    1 type  1   force =    -0.00280579   -0.01109169    0.00028447
     atom    2 type  1   force =    -0.00091434    0.00632923   -0.00017443
     atom    3 type  2   force =     0.05749081   -0.00150133    0.00049184
     atom    4 type  2   force =    -0.00146273    0.00734044   -0.00096357
     atom    5 type  1   force =    -0.00316517    0.00914023    0.00005773
     atom    6 type  1   force =    -0.00237004   -0.00713174    0.00003096
     atom    7 type  1   force =     0.00259285   -0.00186133   -0.00023740
     atom    8 type  1   force =    -0.01282315   -0.00099172   -0.00001622
     atom    9 type  2   force =     0.01942227    0.00104576   -0.00044385
     atom   10 type  2   force =     0.00291012   -0.00010698   -0.00006856
     atom   11 type  1   force =    -0.00432756   -0.05481472   -0.00011948
     atom   12 type  1   force =    -0.00345638    0.05393552   -0.00015204
     atom   13 type  1   force =    -0.04573329    0.00019205   -0.00014787
     atom   14 type  1   force =    -0.00632329   -0.01205656    0.00058898
     atom   15 type  1   force =     0.00021797    0.00587731   -0.00068674
     atom   16 type  2   force =    -0.06206399   -0.00109209    0.00059434
     atom   17 type  2   force =     0.00796800    0.00717670   -0.00034167
     atom   18 type  1   force =     0.00490215    0.00955783    0.00007814
     atom   19 type  1   force =     0.00595730   -0.00789075    0.00016643
     atom   20 type  1   force =     0.00204258   -0.00223661    0.00058776
     atom   21 type  1   force =     0.00928412    0.00017030    0.00045305
     atom   22 type  2   force =     0.02072202   -0.00017272    0.00013117
     atom   23 type  2   force =    -0.00279671    0.00017663    0.00075195
     atom   24 type  1   force =    -0.00640150   -0.05604759   -0.00011361
     atom   25 type  1   force =    -0.00527095    0.05624334   -0.00012291
     atom   26 type  1   force =     0.02691110   -0.00017178    0.00016756
     atom   27 type  3   force =    -0.00002264    0.00007753   -0.00027731
     atom   28 type  3   force =    -0.00000039    0.00038663   -0.00047873
     atom   29 type  3   force =    -0.00022672   -0.00023737   -0.00009391
     atom   30 type  3   force =    -0.00034909   -0.00026062   -0.00016409
     atom   31 type  1   force =     0.00009240    0.00001610    0.00021802

     Total force =     0.002229     Total SCF correction =     0.000303
     SCF correction compared to forces is large: reduce conv_thr to get better values

     bfgs converged in  12 scf cycles and  11 bfgs steps
     (criteria: energy < 0.10E-03, force < 0.10E-02)

     End of BFGS Geometry Optimization

     Final energy   =   -2024.7730067101 Ry
Begin final coordinates

ATOMIC_POSITIONS (crystal)
O0       0.000000000   0.000000000   0.376839254    0   0   1
O0       0.000000000   0.500000000   0.398536273    0   0   1
Cr1      0.250000000   0.500000000   0.450078131    0   0   1
Cr1      0.000000000   0.000000000   0.448155572    0   0   1
O0       0.250000000   0.800000000   0.448867583    0   0   1
O0       0.250000000   0.200000000   0.448981617    0   0   1
O0       0.000000000   0.500000000   0.497248649    0   0   1
O0       0.000000000   0.000000000   0.522948030    0   0   1
Cr1      0.250000000   0.000000000   0.567643662    0   0   1
Cr1      0.000000000   0.500000000   0.564745268    0   0   1
O0       0.250000000   0.700000000   0.574727141    0   0   1
O0       0.250000000   0.300000000   0.574701788    0   0   1
O0       0.000000000   0.000000000   0.617547377    0   0   1
O0       0.500000000   0.000000000   0.376872950    0   0   1
O0       0.500000000   0.500000000   0.398362403    0   0   1
Cr1      0.750000000   0.500000000   0.450275145    0   0   1
Cr1      0.500000000   0.000000000   0.448426582    0   0   1
O0       0.750000000   0.800000000   0.448882276    0   0   1
O0       0.750000000   0.200000000   0.448973717    0   0   1
O0       0.500000000   0.500000000   0.496103875    0   0   1
O0       0.500000000   0.000000000   0.522862983    0   0   1
Cr1      0.750000000   0.000000000   0.582724309    0   0   1
Cr1      0.500000000   0.500000000   0.589080128    0   0   1
O0       0.750000000   0.700000000   0.576335146    0   0   1
O0       0.750000000   0.300000000   0.576342330    0   0   1
O0       0.500000000   0.000000000   0.617394049    0   0   1
H2      -0.000896573   0.635426031   0.378539410
H2       0.499677691   0.638666202   0.379550520
H2       0.157851053   0.030359777   0.364094349
H2       0.656844399   0.032164521   0.363960143
O0       0.495895875   0.499757153   0.649029337
End final coordinates

     General routines

     Parallel routines
     Hubbard U routines

   This run was terminated on:  17:52:51   5May2014

   JOB DONE.