     Program PWSCF v.5.0.2 (svn rev. 9656) starts on  1May2014 at  5:59:57

     Current dimensions of program PWSCF are:
     Max number of different atomic species (ntypx) = 10
     Max number of k-points (npk) =  40000
     Max angular momentum in pseudopotentials (lmaxx) =  3
     Reading input from pwscf.in
Warning: card &CELL ignored
Warning: card / ignored

     Subspace diagonalization in iterative solution of the eigenvalue problem:
     a serial algorithm will be used

     bravais-lattice index     =            0
     lattice parameter (alat)  =      10.1289  a.u.
     unit-cell volume          =    6836.7721 (a.u.)^3
     number of atoms/cell      =           31
     number of atomic types    =            3
     number of electrons       =       238.00
     number of Kohn-Sham states=          357
     kinetic-energy cutoff     =      40.0000  Ry
     charge density cutoff     =     500.0000  Ry
     convergence threshold     =      1.0E-06
     mixing beta               =       0.7000
     number of iterations used =            8  plain     mixing
     Exchange-correlation      = SLA  PW   PBE  PBE ( 1 4 3 4 0)
     EXX-fraction              =        0.00
     nstep                     =           50

     celldm(1)=  10.128932  celldm(2)=   0.000000  celldm(3)=   0.000000
     celldm(4)=   0.000000  celldm(5)=   0.000000  celldm(6)=   0.000000

     crystal axes: (cart. coord. in units of alat)
               a(1) = (   1.000000   0.000000   0.000000 )
               a(2) = (   0.000000   1.306037   0.000000 )
               a(3) = (   0.000000   0.000000   5.037380 )

     reciprocal axes: (cart. coord. in units 2 pi/alat)
               b(1) = (  1.000000  0.000000  0.000000 )
               b(2) = (  0.000000  0.765675  0.000000 )
               b(3) = (  0.000000  0.000000  0.198516 )

     PseudoPot. # 1 for O  read from file:
     /home/camp/zhonxu/pseudo/o_pbe_v1.01.uspp.F.UPF
     MD5 check sum: 2bcb18d16ea4b960afae9ec6d52f22d2
     Pseudo is Ultrasoft + core correction, Zval =  6.0
     Generated by new atomic code, or converted to UPF format
     Using radial grid of  737 points,  5 beta functions with:
                l(1) =   0
                l(2) =   0
                l(3) =   1
                l(4) =   1
                l(5) =   2
     Q(r) pseudized with  8 coefficients,  rinner =    0.900   0.900   0.900
                                                       0.900   0.900

     PseudoPot. # 2 for Re read from file:
     /home/camp/zhonxu/pseudo/re_pbe_v1.uspp.F.UPF
     MD5 check sum: 6f5a5dcaf9c96c20d0ffdde0de57afc6
     Pseudo is Ultrasoft + core correction, Zval = 15.0
     Generated by new atomic code, or converted to UPF format
     Using radial grid of  981 points,  8 beta functions with:
                l(1) =   0
                l(2) =   0
                l(3) =   1
                l(4) =   1
                l(5) =   2
                l(6) =   2
                l(7) =   3
                l(8) =   3
     Q(r) pseudized with  8 coefficients,  rinner =    1.000   1.000   1.000
                                                       1.000   1.000   1.000
                                                       1.000

     PseudoPot. # 3 for H  read from file:
     /home/camp/zhonxu/pseudo/h_pbe_v1.uspp.F.UPF
     MD5 check sum: 3408e3ff4ec8b0a4e358431e7e038a48
     Pseudo is Ultrasoft, Zval =  1.0
     Generated by new atomic code, or converted to UPF format
     Using radial grid of  615 points,  2 beta functions with:
                l(1) =   0
                l(2) =   0
     Q(r) pseudized with  8 coefficients,  rinner =    0.700

     atomic species   valence    mass     pseudopotential
        O0             6.00    15.99940     O ( 1.00)
        Re1           15.00   186.20700     Re( 1.00)
        H2             1.00     1.00794     H ( 1.00)

     Simplified LDA+U calculation (l_max = 2) with parameters (eV):
     atomic species    L          U    alpha       J0     beta
        Re1            2     0.5000   0.0000   0.0000   0.0000

     No symmetry found

   Cartesian axes

     site n.     atom                  positions (alat units)
         1           O0  tau(   1) = (   0.0000000   0.0000000   1.8646870  )
         2           O0  tau(   2) = (   0.0000000   0.6530184   1.9287121  )
         3           Re1 tau(   3) = (   0.2500000   0.6530184   2.2295948  )
         4           Re1 tau(   4) = (   0.0000000   0.0000000   2.2312068  )
         5           O0  tau(   5) = (   0.2500000   1.0187087   2.2244063  )
         6           O0  tau(   6) = (   0.2500000   0.2873281   2.2234996  )
         7           O0  tau(   7) = (   0.0000000   0.6530184   2.5067011  )
         8           O0  tau(   8) = (   0.0000000   0.0000000   2.5914802  )
         9           Re1 tau(   9) = (   0.2500000   0.0000000   2.8910532  )
        10           Re1 tau(  10) = (   0.0000000   0.6530184   2.8571012  )
        11           O0  tau(  11) = (   0.2500000   0.9403465   2.8803235  )
        12           O0  tau(  12) = (   0.2500000   0.3656903   2.8804747  )
        13           O0  tau(  13) = (   0.0000000   0.0000000   3.1540044  )
        14           O0  tau(  14) = (   0.5000000   0.0000000   1.8645359  )
        15           O0  tau(  15) = (   0.5000000   0.6530184   1.9300722  )
        16           Re1 tau(  16) = (   0.7500000   0.6530184   2.2295444  )
        17           Re1 tau(  17) = (   0.5000000   0.0000000   2.2295948  )
        18           O0  tau(  18) = (   0.7500000   1.0187087   2.2239529  )
        19           O0  tau(  19) = (   0.7500000   0.2873281   2.2238522  )
        20           O0  tau(  20) = (   0.5000000   0.6530184   2.5186397  )
        21           O0  tau(  21) = (   0.5000000   0.0000000   2.5912283  )
        22           Re1 tau(  22) = (   0.7500000   0.0000000   2.8912547  )
        23           Re1 tau(  23) = (   0.5000000   0.6530184   2.9058631  )
        24           O0  tau(  24) = (   0.7500000   0.9403465   2.8806762  )
        25           O0  tau(  25) = (   0.7500000   0.3656903   2.8804243  )
        26           O0  tau(  26) = (   0.5000000   0.0000000   3.1508309  )
        27           H2  tau(  27) = (  -0.0003300   0.8166387   1.8441345  )
        28           H2  tau(  28) = (   0.4996000   0.8128642   1.8387445  )
        29           H2  tau(  29) = (   0.1687200   0.0311098   1.7921991  )
        30           H2  tau(  30) = (   0.6701100   0.0285761   1.7932066  )
        31           O0  tau(  31) = (   0.4998900   0.6523393   3.2273487  )

     number of k points=    10  Methfessel-Paxton smearing, width (Ry)=  0.0100
                       cart. coord. in units 2pi/alat
        k(    1) = (   0.0000000   0.0000000   0.0000000), wk =   0.1250000
        k(    2) = (   0.0000000   0.1914188   0.0000000), wk =   0.2500000
        k(    3) = (   0.0000000  -0.3828376   0.0000000), wk =   0.1250000
        k(    4) = (   0.2500000   0.0000000   0.0000000), wk =   0.2500000
        k(    5) = (   0.2500000   0.1914188   0.0000000), wk =   0.2500000
        k(    6) = (   0.2500000  -0.3828376   0.0000000), wk =   0.2500000
        k(    7) = (  -0.5000000   0.0000000   0.0000000), wk =   0.1250000
        k(    8) = (  -0.5000000   0.1914188   0.0000000), wk =   0.2500000
        k(    9) = (  -0.5000000  -0.3828376   0.0000000), wk =   0.1250000
        k(   10) = (  -0.2500000   0.1914188   0.0000000), wk =   0.2500000

     Largest allocated arrays     est. size (Mb)     dimensions
     Largest temporary arrays     est. size (Mb)     dimensions

     Check: negative/imaginary core charge=   -0.000003    0.000000

     Initial potential from superposition of free atoms
     Check: negative starting charge=   -0.237495

     starting charge  233.99958, renormalised to  238.00000

     negative rho (up, down):  0.242E+00 0.000E+00
     Number of +U iterations with fixed ns =  0
     Starting occupations:
 --- enter write_ns ---
 LDA+U parameters:
U( 2)     =  0.50000000
alpha( 2) =  0.00000000
atom    3   Tr[ns(na)] =   5.00000
    eigenvalues:
  0.500  0.500  0.500  0.500  0.500
    eigenvectors:
  1.000  0.000  0.000  0.000  0.000
  0.000  1.000  0.000  0.000  0.000
  0.000  0.000  1.000  0.000  0.000
  0.000  0.000  0.000  1.000  0.000
  0.000  0.000  0.000  0.000  1.000
    occupations:
  0.500  0.000  0.000  0.000  0.000
  0.000  0.500  0.000  0.000  0.000
  0.000  0.000  0.500  0.000  0.000
  0.000  0.000  0.000  0.500  0.000
  0.000  0.000  0.000  0.000  0.500
atom    4   Tr[ns(na)] =   5.00000
    eigenvalues:
  0.500  0.500  0.500  0.500  0.500
    eigenvectors:
  1.000  0.000  0.000  0.000  0.000
  0.000  1.000  0.000  0.000  0.000
  0.000  0.000  1.000  0.000  0.000
  0.000  0.000  0.000  1.000  0.000
  0.000  0.000  0.000  0.000  1.000
    occupations:
  0.500  0.000  0.000  0.000  0.000
  0.000  0.500  0.000  0.000  0.000
  0.000  0.000  0.500  0.000  0.000
  0.000  0.000  0.000  0.500  0.000
  0.000  0.000  0.000  0.000  0.500
atom    9   Tr[ns(na)] =   5.00000
    eigenvalues:
  0.500  0.500  0.500  0.500  0.500
    eigenvectors:
  1.000  0.000  0.000  0.000  0.000
  0.000  1.000  0.000  0.000  0.000
  0.000  0.000  1.000  0.000  0.000
  0.000  0.000  0.000  1.000  0.000
  0.000  0.000  0.000  0.000  1.000
    occupations:
  0.500  0.000  0.000  0.000  0.000
  0.000  0.500  0.000  0.000  0.000
  0.000  0.000  0.500  0.000  0.000
  0.000  0.000  0.000  0.500  0.000
  0.000  0.000  0.000  0.000  0.500
atom   10   Tr[ns(na)] =   5.00000
    eigenvalues:
  0.500  0.500  0.500  0.500  0.500
    eigenvectors:
  1.000  0.000  0.000  0.000  0.000
  0.000  1.000  0.000  0.000  0.000
  0.000  0.000  1.000  0.000  0.000
  0.000  0.000  0.000  1.000  0.000
  0.000  0.000  0.000  0.000  1.000
    occupations:
  0.500  0.000  0.000  0.000  0.000
  0.000  0.500  0.000  0.000  0.000
  0.000  0.000  0.500  0.000  0.000
  0.000  0.000  0.000  0.500  0.000
  0.000  0.000  0.000  0.000  0.500
atom   16   Tr[ns(na)] =   5.00000
    eigenvalues:
  0.500  0.500  0.500  0.500  0.500
    eigenvectors:
  1.000  0.000  0.000  0.000  0.000
  0.000  1.000  0.000  0.000  0.000
  0.000  0.000  1.000  0.000  0.000
  0.000  0.000  0.000  1.000  0.000
  0.000  0.000  0.000  0.000  1.000
    occupations:
  0.500  0.000  0.000  0.000  0.000
  0.000  0.500  0.000  0.000  0.000
  0.000  0.000  0.500  0.000  0.000
  0.000  0.000  0.000  0.500  0.000
  0.000  0.000  0.000  0.000  0.500
atom   17   Tr[ns(na)] =   5.00000
    eigenvalues:
  0.500  0.500  0.500  0.500  0.500
    eigenvectors:
  1.000  0.000  0.000  0.000  0.000
  0.000  1.000  0.000  0.000  0.000
  0.000  0.000  1.000  0.000  0.000
  0.000  0.000  0.000  1.000  0.000
  0.000  0.000  0.000  0.000  1.000
    occupations:
  0.500  0.000  0.000  0.000  0.000
  0.000  0.500  0.000  0.000  0.000
  0.000  0.000  0.500  0.000  0.000
  0.000  0.000  0.000  0.500  0.000
  0.000  0.000  0.000  0.000  0.500
atom   22   Tr[ns(na)] =   5.00000
    eigenvalues:
  0.500  0.500  0.500  0.500  0.500
    eigenvectors:
  1.000  0.000  0.000  0.000  0.000
  0.000  1.000  0.000  0.000  0.000
  0.000  0.000  1.000  0.000  0.000
  0.000  0.000  0.000  1.000  0.000
[...]
    eigenvectors:
  0.268  0.000  0.000  0.000  0.732
  0.000  1.000  0.000  0.000  0.000
  0.000  0.000  0.985  0.015  0.000
  0.732  0.000  0.000  0.000  0.268
  0.000  0.000  0.015  0.985  0.000
    occupations:
  0.697 -0.000 -0.000 -0.064  0.000
 -0.000  0.605  0.000  0.000  0.000
 -0.000  0.000  0.619  0.000 -0.010
 -0.064  0.000  0.000  0.630 -0.000
  0.000  0.000 -0.010 -0.000  0.702
atom   10   Tr[ns(na)] =   6.47061
    eigenvalues:
  0.495  0.545  0.666  0.720  0.810
    eigenvectors:
  0.998  0.000  0.000  0.002  0.000
  0.000  0.000  0.000  0.000  1.000
  0.000  0.000  1.000  0.000  0.000
  0.002  0.000  0.000  0.998  0.000
  0.000  1.000  0.000  0.000  0.000
    occupations:
  0.495  0.000  0.000 -0.010 -0.000
  0.000  0.810  0.001 -0.000  0.000
  0.000  0.001  0.666 -0.000  0.000
 -0.010 -0.000 -0.000  0.720 -0.000
 -0.000  0.000  0.000 -0.000  0.545
atom   16   Tr[ns(na)] =   6.52446
    eigenvalues:
  0.544  0.572  0.640  0.749  0.757
    eigenvectors:
  0.001  0.374  0.004  0.014  0.607
  0.998  0.000  0.000  0.001  0.001
  0.000  0.000  0.991  0.000  0.008
  0.000  0.625  0.004  0.008  0.362
  0.001  0.000  0.000  0.977  0.022
    occupations:
  0.687  0.004  0.009 -0.089 -0.001
  0.004  0.544 -0.001 -0.003 -0.006
  0.009 -0.001  0.641 -0.006  0.000
 -0.089 -0.003 -0.006  0.641  0.001
 -0.001 -0.006  0.000  0.001  0.749
atom   17   Tr[ns(na)] =   6.48315
    eigenvalues:
  0.564  0.603  0.616  0.691  0.768
    eigenvectors:
  0.000  0.982  0.000  0.001  0.017
  0.000  0.001  0.005  0.994  0.000
  0.000  0.000  0.995  0.005  0.000
  0.000  0.017  0.000  0.000  0.983
  1.000  0.000  0.000  0.000  0.000
    occupations:
  0.606  0.002  0.000 -0.021  0.000
  0.002  0.690  0.005 -0.000 -0.001
  0.000  0.005  0.616  0.002 -0.000
 -0.021 -0.000  0.002  0.765 -0.000
  0.000 -0.001 -0.000 -0.000  0.564
atom   22   Tr[ns(na)] =   6.49900
    eigenvalues:
  0.591  0.606  0.617  0.701  0.734
    eigenvectors:
  0.267  0.000  0.000  0.003  0.730
  0.000  1.000  0.000  0.000  0.000
  0.000  0.000  0.985  0.015  0.000
  0.732  0.000  0.000  0.001  0.266
  0.000  0.000  0.015  0.981  0.004
    occupations:
  0.696  0.000 -0.000 -0.063  0.002
  0.000  0.606  0.000 -0.000  0.000
 -0.000  0.000  0.618  0.000  0.010
 -0.063 -0.000  0.000  0.630 -0.001
  0.002  0.000  0.010 -0.001  0.700
atom   23   Tr[ns(na)] =   6.52216
    eigenvalues:
  0.578  0.604  0.626  0.648  0.804
    eigenvectors:
  0.000  0.000  0.000  0.979  0.021
  0.000  0.000  1.000  0.000  0.000
  0.000  1.000  0.000  0.000  0.000
  0.000  0.000  0.000  0.021  0.979
  1.000  0.000  0.000  0.000  0.000
    occupations:
  0.651  0.000 -0.000 -0.022 -0.000
  0.000  0.626 -0.000 -0.000  0.001
 -0.000 -0.000  0.604  0.001  0.000
 -0.022 -0.000  0.001  0.801 -0.000
 -0.000  0.001  0.000 -0.000  0.578
N of occupied +U levels =  52.0249534
 --- exit write_ns ---

     Threshold (ethr) on eigenvalues was too large:
     Diagonalizing with lowered threshold

     Davidson diagonalization with overlap
     ethr =  6.14E-08,  avg # of iterations =  1.0

[...]

     total energy              =   -2175.04881617 Ry
     Harris-Foulkes estimate   =   -2175.04881618 Ry
     estimated scf accuracy    <       0.00000007 Ry

     iteration # 11     ecut=    40.00 Ry     beta=0.70
     Davidson diagonalization with overlap
     ethr =  2.81E-11,  avg # of iterations =  1.0

     negative rho (up, down):  0.249E+00 0.000E+00

     End of self-consistent calculation
 --- enter write_ns ---
 LDA+U parameters:
U( 2)     =  0.50000000
alpha( 2) =  0.00000000
atom    3   Tr[ns(na)] =   6.51984
    eigenvalues:
  0.544  0.572  0.639  0.749  0.757
    eigenvectors:
  0.001  0.374  0.004  0.013  0.608
  0.998  0.000  0.000  0.001  0.001
  0.000  0.000  0.991  0.000  0.008
  0.000  0.626  0.004  0.008  0.363
  0.001  0.000  0.000  0.979  0.020
    occupations:
  0.687 -0.004  0.009 -0.089  0.001
 -0.004  0.544  0.001  0.003 -0.007
  0.009  0.001  0.640 -0.006  0.000
 -0.089  0.003 -0.006  0.640 -0.001
  0.001 -0.007  0.000 -0.001  0.749
atom    4   Tr[ns(na)] =   6.49847
    eigenvalues:
  0.564  0.601  0.624  0.695  0.766
    eigenvectors:
  0.000  0.981  0.000  0.001  0.019
  0.000  0.001  0.007  0.992  0.000
  0.000  0.000  0.993  0.007  0.000
  0.000  0.018  0.000  0.000  0.981
  1.000  0.000  0.000  0.000  0.000
    occupations:
  0.604  0.003  0.000 -0.022  0.000
  0.003  0.694  0.006 -0.000 -0.001
  0.000  0.006  0.625  0.000 -0.000
 -0.022 -0.000  0.000  0.763 -0.000
  0.000 -0.001 -0.000 -0.000  0.564
atom    9   Tr[ns(na)] =   6.50260
    eigenvalues:
  0.591  0.605  0.617  0.702  0.736
    eigenvectors:
  0.268  0.000  0.000  0.000  0.732
  0.000  1.000  0.000  0.000  0.000
  0.000  0.000  0.985  0.015  0.000
  0.732  0.000  0.000  0.000  0.268
  0.000  0.000  0.015  0.985  0.000
    occupations:
  0.697 -0.000 -0.000 -0.064  0.000
 -0.000  0.605  0.000  0.000  0.000
 -0.000  0.000  0.618  0.000 -0.010
 -0.064  0.000  0.000  0.630 -0.000
  0.000  0.000 -0.010 -0.000  0.701
atom   10   Tr[ns(na)] =   6.47135
    eigenvalues:
  0.495  0.545  0.666  0.720  0.810
    eigenvectors:
  0.998  0.000  0.000  0.002  0.000
  0.000  0.000  0.000  0.000  1.000
  0.000  0.000  1.000  0.000  0.000
  0.002  0.000  0.000  0.998  0.000
  0.000  1.000  0.000  0.000  0.000
    occupations:
  0.495  0.000  0.000 -0.010 -0.000
  0.000  0.810  0.001 -0.000  0.000
  0.000  0.001  0.666 -0.000  0.000
 -0.010 -0.000 -0.000  0.720 -0.000
 -0.000  0.000  0.000 -0.000  0.545
atom   16   Tr[ns(na)] =   6.51965
    eigenvalues:
  0.544  0.572  0.639  0.748  0.757
    eigenvectors:
  0.001  0.374  0.004  0.012  0.609
  0.998  0.000  0.000  0.001  0.001
  0.000  0.000  0.991  0.000  0.008
  0.000  0.625  0.004  0.007  0.363
  0.001  0.000  0.000  0.980  0.019
    occupations:
  0.687  0.004  0.009 -0.089 -0.001
  0.004  0.544 -0.001 -0.003 -0.006
  0.009 -0.001  0.640 -0.006 -0.000
 -0.089 -0.003 -0.006  0.640  0.001
 -0.001 -0.006 -0.000  0.001  0.748
atom   17   Tr[ns(na)] =   6.49053
    eigenvalues:
  0.564  0.603  0.617  0.692  0.768
    eigenvectors:
  0.000  0.982  0.000  0.001  0.017
  0.000  0.001  0.005  0.994  0.000
  0.000  0.000  0.995  0.005  0.000
  0.000  0.017  0.000  0.000  0.983
  1.000  0.000  0.000  0.000  0.000
    occupations:
  0.606  0.002  0.000 -0.021  0.000
  0.002  0.692  0.005 -0.000 -0.001
  0.000  0.005  0.618  0.002 -0.000
 -0.021 -0.000  0.002  0.765 -0.000
  0.000 -0.001 -0.000 -0.000  0.564
atom   22   Tr[ns(na)] =   6.50213
    eigenvalues:
  0.592  0.606  0.617  0.702  0.735
    eigenvectors:
  0.268  0.000  0.000  0.003  0.729
  0.000  1.000  0.000  0.000  0.000
  0.000  0.000  0.984  0.015  0.000
  0.732  0.000  0.000  0.001  0.267
  0.000  0.000  0.015  0.981  0.004
    occupations:
  0.696  0.000 -0.000 -0.063  0.002
  0.000  0.606  0.000 -0.000  0.000
 -0.000  0.000  0.619  0.000  0.010
 -0.063 -0.000  0.000  0.630 -0.001
  0.002  0.000  0.010 -0.001  0.701
atom   23   Tr[ns(na)] =   6.51814
    eigenvalues:
  0.578  0.604  0.625  0.648  0.804
    eigenvectors:
  0.000  0.000  0.000  0.979  0.021
  0.000  0.000  1.000  0.000  0.000
  0.000  1.000  0.000  0.000  0.000
  0.000  0.000  0.000  0.021  0.979
  1.000  0.000  0.000  0.000  0.000
    occupations:
  0.651  0.000 -0.000 -0.022 -0.000
  0.000  0.625 -0.000 -0.000  0.001
 -0.000 -0.000  0.604  0.001  0.000
 -0.022 -0.000  0.001  0.801 -0.000
 -0.000  0.001  0.000 -0.000  0.578
N of occupied +U levels =  52.0227103
 --- exit write_ns ---

[...]

          k = 0.2500-0.3828 0.0000 ( 29202 PWs)   bands (ev):

[...]

          k =-0.2500 0.1914 0.0000 ( 29229 PWs)   bands (ev):

   -82.3085 -81.7366 -81.6513 -81.5122 -81.4721 -81.2866 -81.2475 -81.1960
   -44.4459 -44.1508 -44.0306 -43.8227 -43.6798 -43.6293 -43.6192 -43.5282
   -43.4998 -43.4969 -43.4349 -43.3877 -43.3329 -43.2620 -43.2278 -43.2064
   -43.1863 -43.1718 -43.1569 -43.1296 -43.1280 -43.0423 -42.9605 -42.7617
   -21.1050 -20.6760 -20.6080 -20.4825 -20.4089 -20.0816 -20.0609 -20.0302
   -19.7863 -19.7513 -19.6706 -19.6102 -19.5023 -19.4016 -19.3558 -19.1421
   -18.6160 -18.5173 -18.3418  -9.2483  -9.0419  -8.9715  -8.8325  -8.6887
    -8.6736  -8.5332  -8.3928  -8.2422  -8.0522  -7.9853  -7.7421  -7.6697
    -7.5678  -7.4005  -7.2602  -7.1476  -6.9938  -6.8984  -6.7321  -6.6685
    -6.4391  -6.3406  -6.2224  -6.0534  -5.9611  -5.8614  -5.7655  -5.6884
    -5.4530  -5.4070  -5.3336  -5.2665  -5.1952  -5.0279  -4.9868  -4.9040
    -4.8587  -4.7375  -4.6247  -4.4318  -4.3913  -4.2016  -4.1457  -4.0577
    -4.0144  -3.9073  -3.8478  -3.6935  -3.6491  -3.5796  -3.5068  -3.3333
    -3.1787  -3.0268  -2.9312  -2.8200  -2.3640  -2.3319  -2.0724  -1.1864
    -1.1392  -1.0497  -0.8458  -0.2902  -0.2306   0.2530   0.3250   0.3740
     0.5435   0.5693   0.7037   0.8904   1.0723   1.1941   1.2756   1.3735
     1.4006   1.6713   1.6865   1.8902   2.1131   3.2083   3.3720   3.4136
     3.5617   3.6381   3.8024   4.0827   4.1922   4.3343   4.4253   4.6292
     4.7824   5.2060   5.4212   5.4919   5.7245   5.8521   6.0486   6.1403
     6.2217   6.3985   6.6288   6.8763   7.0910   7.2342   7.3967   7.6044
     7.6238   7.8066   8.0286   8.1234   8.1971   8.3386   8.5157   8.5798
     8.6317   8.6962   8.9042   9.0006   9.1463   9.3472   9.4454   9.5621
     9.6409   9.7433   9.8134   9.8692   9.9088  10.0046  10.0368  10.1563
    10.2362  10.2978  10.3802  10.4200  10.5173  10.6609  10.7755  10.9115
    10.9942  11.0867  11.1596  11.3486  11.3673  11.5280  11.5879  11.7798
    11.8280  11.9374  12.0718  12.2244  12.3363  12.5130  12.5402  12.5840
    12.6693  12.7145  12.8006  12.8478  12.9661  13.0541  13.0909  13.2431
    13.3263  13.4648  13.5381  13.5707  13.6689  13.7286  13.7544  13.8133
    13.8540  13.9082  14.0247  14.1139  14.1432  14.2037  14.2420  14.3939
    14.4208  14.4608  14.5103  14.6429  14.6602  14.7834  14.8355  14.9014
    14.9823  15.0169  15.0688  15.1443  15.1868  15.2250  15.2924  15.4653
    15.5168  15.5789  15.6579  15.7776  15.8909  16.0320  16.0823  16.1416
    16.2142  16.2917  16.3352  16.4275  16.5086  16.5493  16.6146  16.6553
    16.7657  16.8625  16.9095  17.0336  17.1183  17.1744  17.2370  17.3571
    17.4485  17.4888  17.5971  17.6920  17.7283  17.8059  17.8912  17.9274
    17.9932  18.0839  18.1228  18.1609  18.2840  18.3004  18.3388  18.4183
    18.5056  18.5938  18.6557  18.7232  18.7866  18.8817  18.9447  19.0092
    19.1026  19.1703  19.2624  19.4155  19.4702  19.5592  19.6320  19.6838
    19.7752  19.8907  19.9739  20.0428  20.0856  20.1826  20.2074  20.3193
    20.4294  20.4762  20.5684  20.5922  20.6464  20.6937  20.7969  20.8698
    20.9395  21.0259  21.0941  21.1625  21.1912  21.2566  21.2972  21.3590
    21.4248  21.4796  21.5499  21.6094  21.6302  21.7339  21.8183  21.9025
    21.9592  22.0397  22.0788  22.1675  22.1964  22.2326  22.3135  22.4032
    22.4257  22.4717  22.5170  22.5526  22.6258  22.6770  22.7164  22.7796
    22.8084  22.8636  22.9190  22.9831  23.0351

     the Fermi energy is     0.2886 ev

!    total energy              =   -2175.04881617 Ry
     Harris-Foulkes estimate   =   -2175.04881617 Ry
     estimated scf accuracy    <          7.2E-09 Ry

     The total energy is the sum of the following terms:

     one-electron contribution =  -24188.42435818 Ry
     hartree contribution      =   12108.31232362 Ry
     xc contribution           =    -594.18764550 Ry
     ewald contribution        =   10498.92753030 Ry
     Hubbard energy            =       0.32473824 Ry
     smearing contrib. (-TS)   =      -0.00140466 Ry

     convergence has been achieved in  11 iterations

     Forces acting on atoms (Ry/au):

     negative rho (up, down):  0.249E+00 0.000E+00
     atom    1 type  1   force =    -0.00543696   -0.00692747    0.00018720
     atom    2 type  1   force =     0.00004546    0.00486380    0.00013182
     atom    3 type  2   force =     0.03280100   -0.00296829    0.00040564
     atom    4 type  2   force =     0.00187424    0.00787632    0.00033105
     atom    5 type  1   force =     0.00371183    0.01044496    0.00019973
     atom    6 type  1   force =     0.00220047   -0.01128190    0.00014615
     atom    7 type  1   force =    -0.00004827   -0.00024268   -0.00033948
     atom    8 type  1   force =     0.00258315   -0.00130776   -0.00019003
     atom    9 type  2   force =    -0.01977624    0.00185817   -0.00039489
     atom   10 type  2   force =    -0.00012422   -0.00076599   -0.00011093
     atom   11 type  1   force =    -0.01244882   -0.01980252   -0.00027890
     atom   12 type  1   force =    -0.01319547    0.01962939   -0.00025192
     atom   13 type  1   force =    -0.00041812   -0.00037410   -0.00031252
     atom   14 type  1   force =    -0.00190562   -0.00632801   -0.00000566
     atom   15 type  1   force =    -0.00004800    0.00300087    0.00001443
     atom   16 type  2   force =    -0.03313686   -0.00283007    0.00040158
     atom   17 type  2   force =     0.00150428    0.00863614    0.00044261
     atom   18 type  1   force =    -0.00015909    0.01027257    0.00015390
     atom   19 type  1   force =    -0.00178877   -0.01098606    0.00015069
     atom   20 type  1   force =    -0.00002899   -0.00145436   -0.00014013
     atom   21 type  1   force =     0.00307740   -0.00201223   -0.00024013
     atom   22 type  2   force =     0.01642563    0.00205856   -0.00038015
     atom   23 type  2   force =     0.00008651   -0.00006758   -0.00096622
     atom   24 type  1   force =     0.01283449   -0.01993739   -0.00028923
     atom   25 type  1   force =     0.01280154    0.01943257   -0.00025229
     atom   26 type  1   force =    -0.00050570   -0.00072806   -0.00042808
     atom   27 type  3   force =     0.00000288    0.00018883    0.00041506
     atom   28 type  3   force =    -0.00000425    0.00010072    0.00065320
     atom   29 type  3   force =    -0.00050203   -0.00014322    0.00037302
     atom   30 type  3   force =    -0.00042490   -0.00018774    0.00038324
     atom   31 type  1   force =     0.00000342   -0.00001747    0.00019121

     Total force =     0.002072     Total SCF correction =     0.000198

     bfgs converged in   3 scf cycles and   2 bfgs steps
     (criteria: energy < 0.10E-03, force < 0.10E-02)

     End of BFGS Geometry Optimization

     Final energy   =   -2175.0488161690 Ry
Begin final coordinates

ATOMIC_POSITIONS (crystal)
O0       0.000000000   0.000000000   0.370222612    0   0   1
O0       0.000000000   0.500000000   0.382896001    0   0   1
Re1      0.250000000   0.500000000   0.442598961    0   0   1
Re1      0.000000000   0.000000000   0.442944940    0   0   1
O0       0.250000000   0.780000000   0.441597403    0   0   1
O0       0.250000000   0.220000000   0.441413315    0   0   1
O0       0.000000000   0.500000000   0.497609525    0   0   1
O0       0.000000000   0.000000000   0.514414465    0   0   1
Re1      0.250000000   0.000000000   0.573900374    0   0   1
Re1      0.000000000   0.500000000   0.567155311    0   0   1
O0       0.250000000   0.720000000   0.571781875    0   0   1
O0       0.250000000   0.280000000   0.571813679    0   0   1
O0       0.000000000   0.000000000   0.626112048    0   0   1
O0       0.500000000   0.000000000   0.370187497    0   0   1
O0       0.500000000   0.500000000   0.383172524    0   0   1
Re1      0.750000000   0.500000000   0.442594844    0   0   1
Re1      0.500000000   0.000000000   0.442611077    0   0   1
O0       0.750000000   0.780000000   0.441504002    0   0   1
O0       0.750000000   0.220000000   0.441483012    0   0   1
O0       0.500000000   0.500000000   0.500001537    0   0   1
O0       0.500000000   0.000000000   0.514372998    0   0   1
Re1      0.750000000   0.000000000   0.573940761    0   0   1
Re1      0.500000000   0.500000000   0.576858494    0   0   1
O0       0.750000000   0.720000000   0.571850937    0   0   1
O0       0.750000000   0.280000000   0.571803536    0   0   1
O0       0.500000000   0.000000000   0.625437707    0   0   1
H2      -0.000327291   0.625277649   0.366118613
H2       0.499599377   0.622427386   0.365053288
H2       0.168713277   0.023811802   0.355784876
H2       0.670136611   0.021865173   0.355983846
O0       0.499891260   0.499476990   0.640629942
End final coordinates

     General routines

     Parallel routines
     Hubbard U routines

   This run was terminated on:   9:26:29   1May2014

   JOB DONE.
Running PBS batch system epilogue script
Job id: 340604.audhumbla.fysik.dtu.dk
Username: zhonxu
Groupname: campgst
Jobname: ReO2/Eads-2-layers/O-U-0.5
Sessionid: 21027
Queuename: verylong
Accounting:
This job has allocated the following 16 nodes:
a092 a092 a092 a092 a092 a092 a092 a092 a004 a004 a004 a004 a004 a004 a004 a004
Finished epilogue job 340604.audhumbla.fysik.dtu.dk for zhonxu