     Program PWSCF v.5.0.2 (svn rev. 9656) starts on 22Jun2014 at 12:41: 2

     Current dimensions of program PWSCF are:
     Max number of different atomic species (ntypx) = 10
     Max number of k-points (npk) =  40000
     Max angular momentum in pseudopotentials (lmaxx) =  3
     Reading input from pwscf.in
Warning: card &CELL ignored
Warning: card / ignored

     Subspace diagonalization in iterative solution of the eigenvalue problem:
     a serial algorithm will be used

     bravais-lattice index     =            0
     lattice parameter (alat)  =      11.1872  a.u.
     unit-cell volume          =   10442.1272 (a.u.)^3
     number of atoms/cell      =           51
     number of atomic types    =            3
     number of electrons       =       413.00
     number of Kohn-Sham states=          619
     kinetic-energy cutoff     =      40.0000  Ry
     charge density cutoff     =     500.0000  Ry
     convergence threshold     =      1.0E-06
     mixing beta               =       0.3000
     number of iterations used =            8  plain     mixing
     Exchange-correlation      = SLA  PW   PBE  PBE ( 1 4 3 4 0)
     EXX-fraction              =        0.00
     nstep                     =           50

     celldm(1)=  11.187179  celldm(2)=   0.000000  celldm(3)=   0.000000
     celldm(4)=   0.000000  celldm(5)=   0.000000  celldm(6)=   0.000000

     crystal axes: (cart. coord. in units of alat)
               a(1) = (   1.000000   0.000000   0.000000 )
               a(2) = (   0.000000   1.180104   0.000000 )
               a(3) = (   0.000000   0.000000   6.319854 )

     reciprocal axes: (cart. coord. in units 2 pi/alat)
               b(1) = (  1.000000  0.000000  0.000000 )
               b(2) = (  0.000000  0.847383  0.000000 )
               b(3) = (  0.000000  0.000000  0.158232 )

     PseudoPot. # 1 for O  read from file:
     /home/camp/zhonxu/pseudo/o_pbe_v1.01.uspp.F.UPF
     MD5 check sum: 2bcb18d16ea4b960afae9ec6d52f22d2
     Pseudo is Ultrasoft + core correction, Zval =  6.0
     Generated by new atomic code, or converted to UPF format
     Using radial grid of  737 points,  5 beta functions with:
                l(1) =   0
                l(2) =   0
                l(3) =   1
                l(4) =   1
                l(5) =   2
     Q(r) pseudized with  8 coefficients,  rinner =    0.900   0.900   0.900
                                                       0.900   0.900

     PseudoPot. # 2 for Nb read from file:
     /home/camp/zhonxu/pseudo/nb_pbe_v1.uspp.F.UPF
     MD5 check sum: 573aab8a2fa660278ed4a62cd769473f
     Pseudo is Ultrasoft + core correction, Zval = 13.0
     Generated by new atomic code, or converted to UPF format
     Using radial grid of  887 points,  6 beta functions with:
                l(1) =   0
                l(2) =   0
                l(3) =   1
                l(4) =   1
                l(5) =   2
                l(6) =   2
     Q(r) pseudized with  6 coefficients,  rinner =    1.000   1.000   1.000
                                                       1.000   1.000

     PseudoPot. # 3 for H  read from file:
     /home/camp/zhonxu/pseudo/h_pbe_v1.uspp.F.UPF
     MD5 check sum: 3408e3ff4ec8b0a4e358431e7e038a48
     Pseudo is Ultrasoft, Zval =  1.0
     Generated by new atomic code, or converted to UPF format
     Using radial grid of  615 points,  2 beta functions with:
                l(1) =   0
                l(2) =   0
     Q(r) pseudized with  8 coefficients,  rinner =    0.700

     atomic species   valence    mass     pseudopotential
        O0             6.00    15.99940     O ( 1.00)
        Nb1           13.00    92.90640     Nb( 1.00)
        H2             1.00     1.00794     H ( 1.00)

      2 Sym. Ops. (no inversion) found

   Cartesian axes

     site n.     atom                  positions (alat units)
         1           O0  tau(   1) = (   0.0000000   0.5900519   2.0270298  )
         2           Nb1 tau(   2) = (   0.2500000   0.5900519   2.2748313  )
         3           Nb1 tau(   3) = (   0.0000000   0.0000000   2.2748313  )
         4           O0  tau(   4) = (   0.2500000   0.9322821   2.2748313  )
         5           O0  tau(   5) = (   0.2500000   0.2478218   2.2748313  )
         6           O0  tau(   6) = (   0.0000000   0.5900519   2.5226959  )
         7           O0  tau(   7) = (   0.0000000   0.0000000   2.6170513  )
         8           Nb1 tau(   8) = (   0.2500000   0.0000000   2.8649160  )
         9           Nb1 tau(   9) = (   0.0000000   0.5900519   2.8649160  )
        10           O0  tau(  10) = (   0.2500000   0.8378738   2.8649160  )
        11           O0  tau(  11) = (   0.2500000   0.3422301   2.8649160  )
        12           O0  tau(  12) = (   0.0000000   0.0000000   3.1127175  )
        13           O0  tau(  13) = (   0.0000000   0.5890253   3.2077048  )
        14           Nb1 tau(  14) = (   0.2750100   0.5871253   3.4517144  )
        15           Nb1 tau(  15) = (   0.0000000  -0.0029739   3.4546215  )
        16           O0  tau(  16) = (   0.2472200   0.9323057   3.4606254  )
        17           O0  tau(  17) = (   0.2444600   0.2439747   3.4613838  )
        18           O0  tau(  18) = (   0.0000000   0.5927426   3.6881401  )
        19           O0  tau(  19) = (   0.0000000  -0.0014633   3.8100501  )
        20           Nb1 tau(  20) = (   0.2494500   0.0015459   4.0572828  )
        21           Nb1 tau(  21) = (   0.0000000   0.5899811   4.0016680  )
        22           O0  tau(  22) = (   0.2414600   0.8325515   4.0539964  )
        23           O0  tau(  23) = (   0.2412400   0.3488151   4.0518477  )
        24           O0  tau(  24) = (   0.0000000   0.0009559   4.2597077  )
        25           O0  tau(  25) = (   0.5000000   0.5900519   2.0270298  )
        26           Nb1 tau(  26) = (   0.7500000   0.5900519   2.2748313  )
        27           Nb1 tau(  27) = (   0.5000000   0.0000000   2.2748313  )
        28           O0  tau(  28) = (   0.7500000   0.9322821   2.2748313  )
        29           O0  tau(  29) = (   0.7500000   0.2478218   2.2748313  )
        30           O0  tau(  30) = (   0.5000000   0.5900519   2.5226959  )
        31           O0  tau(  31) = (   0.5000000   0.0000000   2.6170513  )
        32           Nb1 tau(  32) = (   0.7500000   0.0000000   2.8649160  )
        33           Nb1 tau(  33) = (   0.5000000   0.5900519   2.8649160  )
        34           O0  tau(  34) = (   0.7500000   0.8378738   2.8649160  )
        35           O0  tau(  35) = (   0.7500000   0.3422301   2.8649160  )
        36           O0  tau(  36) = (   0.5000000   0.0000000   3.1127175  )
        37           O0  tau(  37) = (   0.5000000   0.5898631   3.1935484  )
        38           Nb1 tau(  38) = (   0.7249900   0.5871253   3.4517144  )
        39           Nb1 tau(  39) = (   0.5000000  -0.0009441   3.4563279  )
        40           O0  tau(  40) = (   0.7527800   0.9323057   3.4606254  )
        41           O0  tau(  41) = (   0.7555400   0.2439747   3.4613838  )
        42           O0  tau(  42) = (   0.5000000   0.5854967   3.7196762  )
        43           O0  tau(  43) = (   0.5000000  -0.0001180   3.8075853  )
        44           Nb1 tau(  44) = (   0.7505500   0.0015459   4.0572828  )
        45           Nb1 tau(  45) = (   0.5000000   0.5931792   4.0634762  )
        46           O0  tau(  46) = (   0.7585400   0.8325515   4.0539964  )
        47           O0  tau(  47) = (   0.7587600   0.3488151   4.0518477  )
        48           O0  tau(  48) = (   0.5000000  -0.0030801   4.2577485  )
        49           O0  tau(  49) = (   0.5000000   0.5810950   4.3919822  )
        50           O0  tau(  50) = (   0.5000000   0.3970105   4.5537704  )
        51           H2  tau(  51) = (   0.5000000   0.4854711   4.6947664  )

     number of k points=     9  Methfessel-Paxton smearing, width (Ry)=  0.0100
                       cart. coord. in units 2pi/alat
        k(    1) = (   0.0000000   0.0000000   0.0000000), wk =   0.1250000
        k(    2) = (   0.0000000   0.2118458   0.0000000), wk =   0.2500000
        k(    3) = (   0.0000000  -0.4236915   0.0000000), wk =   0.1250000
        k(    4) = (   0.2500000   0.0000000   0.0000000), wk =   0.2500000
        k(    5) = (   0.2500000   0.2118458   0.0000000), wk =   0.5000000
        k(    6) = (   0.2500000  -0.4236915   0.0000000), wk =   0.2500000
        k(    7) = (  -0.5000000   0.0000000   0.0000000), wk =   0.1250000
        k(    8) = (  -0.5000000   0.2118458   0.0000000), wk =   0.2500000
        k(    9) = (  -0.5000000  -0.4236915   0.0000000), wk =   0.1250000

     Largest allocated arrays     est. size (Mb)     dimensions
     Largest temporary arrays     est. size (Mb)     dimensions

     Check: negative/imaginary core charge=   -0.000004    0.000000

     Initial potential from superposition of free atoms
     Check: negative starting charge=   -0.004853

     starting charge  412.95621, renormalised to  413.00000

     negative rho (up, down):  0.485E-02 0.000E+00
     Starting wfc are  345 randomized atomic wfcs

     Self-consistent Calculation

     iteration #  1     ecut=    40.00 Ry     beta=0.30
     Davidson diagonalization with overlap
     ethr =  1.00E-02,  avg # of iterations =  6.0

     negative rho (up, down):  0.439E-02 0.000E+00

     total energy              =   -2982.72855976 Ry
     Harris-Foulkes estimate   =   -2994.28114062 Ry
     estimated scf accuracy    <      25.98869703 Ry

[...]

     End of self-consistent calculation

          k = 0.0000 0.0000 0.0000 ( 44615 PWs)   bands (ev):

   -55.0797 -54.9894 -54.6796 -54.6687 -54.6245 -54.5895 -54.5514 -54.5464
   -54.5399 -54.5007 -54.4808 -54.4708 -54.4430 -54.4022 -54.1165 -53.9846
   -32.0289 -31.2921 -31.2749 -31.2355 -31.1963 -31.1913 -31.1568 -31.1474
   -31.1196 -31.0439 -31.0430 -31.0360 -30.9652 -30.9181 -30.8976 -30.8831
   -30.8635 -30.8550 -30.8212 -30.8086 -30.7915 -30.7826 -30.7571 -30.7271
   -30.7035 -30.6976 -30.6739 -30.6134 -30.6007 -30.5229 -30.5092 -30.4838
   -30.4539 -30.4392 -30.4331 -30.4162 -30.4137 -30.3986 -30.3829 -30.3594
   -30.3586 -30.3197 -30.2842 -30.2594 -30.2285 -30.1815 -29.9856 -29.5737
   -21.5192 -18.1658 -18.0227 -17.9352 -17.8616 -17.8215 -17.7325 -17.6941
   -17.5914 -17.5319 -17.3856 -17.3849 -17.3416 -17.3043 -17.3001 -17.1862
   -17.1208 -16.9835 -16.9775 -16.9704 -16.9428 -16.9030 -16.8639 -16.8084
   -16.6938 -16.6227 -16.5945 -16.5687 -16.5081 -16.3951 -16.2681 -15.4073
   -15.2835 -15.2513  -6.9735  -6.1639  -6.0945  -6.0760  -6.0579  -5.8719
    -5.7368  -5.4753  -5.4282  -5.3723  -5.3493  -5.2743  -5.1087  -5.0987
    -5.0581  -5.0218  -4.9394  -4.8857  -4.8455  -4.8331  -4.7704  -4.7070
    -4.6260  -4.6117  -4.5310  -4.5113  -4.4739  -4.3191  -4.2855  -4.2787
    -4.1894  -4.1856  -4.1199  -4.1197  -3.9731  -3.9641  -3.9220  -3.8907
    -3.8832  -3.8802  -3.8258  -3.8130  -3.7646  -3.7446  -3.6947  -3.6791
    -3.5957  -3.4975  -3.4877  -3.4583  -3.3253  -3.1269  -3.0610  -3.0296
    -2.9605  -2.9470  -2.8993  -2.8960  -2.7590  -2.7546  -2.5999  -2.5947
    -2.5908  -2.5083  -2.4949  -2.4763  -2.3441  -2.2698  -2.2484  -2.2293
[...]
O0       0.250000000   0.210000000   0.359950000    0   0   0
O0       0.000000000   0.500000000   0.399170000    0   0   0
O0       0.000000000   0.000000000   0.414100000    0   0   0
Nb1      0.250000000   0.000000000   0.453320000    0   0   0
Nb1      0.000000000   0.500000000   0.453320000    0   0   0
O0       0.250000000   0.710000000   0.453320000    0   0   0
O0       0.250000000   0.290000000   0.453320000    0   0   0
O0       0.000000000   0.000000000   0.492530000    0   0   0
O0       0.000000000   0.499150938   0.507507556
Nb1      0.274981373   0.497513346   0.546188765
Nb1      0.000000000  -0.002508120   0.546618821
O0       0.247137729   0.789917708   0.547570804
O0       0.244442459   0.206845152   0.547678300
O0       0.000000000   0.502126868   0.583563884
O0       0.000000000  -0.001165234   0.602907746
Nb1      0.249479820   0.001269414   0.641982349
Nb1      0.000000000   0.499962453   0.633182467
O0       0.241540479   0.705524685   0.641458682
O0       0.241361402   0.295562182   0.641148296
O0       0.000000000   0.000807679   0.673999813
O0       0.500000000   0.500000000   0.320740000    0   0   0
Nb1      0.750000000   0.500000000   0.359950000    0   0   0
Nb1      0.500000000   0.000000000   0.359950000    0   0   0
O0       0.750000000   0.790000000   0.359950000    0   0   0
O0       0.750000000   0.210000000   0.359950000    0   0   0
O0       0.500000000   0.500000000   0.399170000    0   0   0
O0       0.500000000   0.000000000   0.414100000    0   0   0
Nb1      0.750000000   0.000000000   0.453320000    0   0   0
Nb1      0.500000000   0.500000000   0.453320000    0   0   0
O0       0.750000000   0.710000000   0.453320000    0   0   0
O0       0.750000000   0.290000000   0.453320000    0   0   0
O0       0.500000000   0.000000000   0.492530000    0   0   0
O0       0.500000000   0.499878309   0.505341319
Nb1      0.725018627   0.497513346   0.546188765
Nb1      0.500000000  -0.000843459   0.546895263
O0       0.752862271   0.789917708   0.547570804
O0       0.755557541   0.206845152   0.547678300
O0       0.500000000   0.496187873   0.588557495
O0       0.500000000  -0.000063839   0.602471639
Nb1      0.750520180   0.001269414   0.641982349
Nb1      0.500000000   0.502574192   0.643003438
O0       0.758459521   0.705524685   0.641458682
O0       0.758638598   0.295562182   0.641148296
O0       0.500000000  -0.002652457   0.673714668
O0       0.500000000   0.492450531   0.694941198
O0       0.500000000   0.336704944   0.720545508
H2       0.500000000   0.411435196   0.742876393

     Check: negative starting charge=   -0.004854
     NEW-OLD atomic charge density approx. for the potential

     Check: negative/imaginary core charge=   -0.000004    0.000000
     Check: negative starting charge=   -0.004855

[...]

     Self-consistent Calculation

[...]

     total energy              =   -2987.50254070 Ry
     Harris-Foulkes estimate   =   -2987.50254070 Ry
     estimated scf accuracy    <       0.00000006 Ry

     iteration # 11     ecut=    40.00 Ry     beta=0.30
     Davidson diagonalization with overlap
     ethr =  1.51E-11,  avg # of iterations =  1.0

     negative rho (up, down):  0.453E-02 0.000E+00

     End of self-consistent calculation

[...]

          k = 0.2500-0.4237 0.0000 ( 44580 PWs)   bands (ev):

[...]

          k =-0.5000-0.4237 0.0000 ( 44696 PWs)   bands (ev):

   -55.0325 -55.0307 -54.6702 -54.6284 -54.6255 -54.5836 -54.5835 -54.5196
   -54.5088 -54.5088 -54.5079 -54.4620 -54.4402 -54.4397 -54.1033 -53.9967
   -31.5443 -31.5359 -31.1990 -31.1586 -31.1330 -31.0971 -31.0861 -30.8947
   -30.8867 -30.8794 -30.8789 -30.8663 -30.8545 -30.8533 -30.8183 -30.8178
   -30.8160 -30.8084 -30.8035 -30.8008 -30.7783 -30.7779 -30.7772 -30.6971
   -30.6941 -30.6934 -30.6792 -30.6734 -30.6454 -30.6252 -30.6084 -30.6034
   -30.5994 -30.5282 -30.5279 -30.5229 -30.5078 -30.5067 -30.5039 -30.5039
   -30.4721 -30.4385 -30.4299 -30.4254 -30.3868 -30.1852 -30.0329 -29.7783
   -21.5378 -17.6732 -17.5601 -17.4911 -17.4763 -17.4524 -17.4252 -17.4219
   -17.4101 -17.3878 -17.3556 -17.3484 -17.3050 -17.2680 -17.2440 -17.2419
   -17.1200 -17.1000 -17.0911 -17.0524 -17.0155 -16.9800 -16.9684 -16.9626
   -16.9523 -16.9518 -16.9344 -16.8926 -16.8435 -16.8420 -16.3486 -15.4370
   -15.4357 -15.2601  -6.9820  -5.6287  -5.4300  -5.4042  -5.3824  -5.3216
    -5.2927  -5.1934  -5.1916  -5.1393  -5.1348  -5.1142  -5.1035  -4.9741
    -4.9673  -4.9283  -4.8156  -4.7999  -4.7182  -4.6575  -4.6564  -4.6094
    -4.5085  -4.5034  -4.4607  -4.4030  -4.3931  -4.3147  -4.3008  -4.2657
    -4.2277  -4.1977  -4.1679  -4.0184  -3.9811  -3.9770  -3.9545  -3.9365
    -3.9179  -3.9064  -3.8582  -3.8489  -3.8451  -3.8278  -3.8183  -3.7894
    -3.7094  -3.6383  -3.4788  -3.4362  -3.3873  -3.3714  -3.3484  -3.2689
    -3.2681  -3.2505  -3.2373  -2.9798  -2.9116  -2.8833  -2.8714  -2.8424
    -2.7528  -2.7386  -2.7366  -2.7321  -2.6941  -2.6579  -2.6128  -2.5668
    -2.5531  -2.4857  -2.4580  -2.3987  -2.3805  -2.3157  -2.2000  -2.0818
    -2.0743  -2.0202  -1.9914  -1.8869  -1.8664  -1.8545  -1.7256  -1.6625
    -1.6386  -1.5935  -1.4897  -1.4855  -1.4516  -1.3728  -1.2961  -1.2747
    -1.1203  -0.9992  -0.7334  -0.7293  -0.6174  -0.6163  -0.0041   1.7454
     2.1427   2.1697   2.1806   2.3223   2.3478   2.3645   2.4236   2.4530
     2.4617   2.5051   2.5504   2.6282   2.6693   2.7080   2.8358   2.8804
     2.8837   2.9612   3.0230   3.1553   3.1653   3.1767   3.3006   3.3338
     3.3445   3.3753   3.3873   3.4377   3.4441   3.4645   3.5849   3.6039
     3.6498   3.7445   3.7701   3.8388   3.8549   3.9051   4.0112   4.0358
     4.0713   4.1616   4.2242   4.2568   4.2570   4.3669   4.5042   4.5744
     4.6543   5.1332   5.2818   5.6262   5.8031   5.8303   5.9542   5.9753
     5.9761   5.9772   6.1449   6.1755   6.2989   6.4262   6.4280   6.5747
     6.9360   7.1008   7.1495   7.1814   7.1994   7.2130   7.3280   7.4082
     7.4423   7.4572   7.5260   7.5838   7.5952   7.6422   7.6852   7.8283
     7.8358   7.8656   7.9273   7.9695   8.0401   8.0491   8.0549   8.1375
     8.1893   8.2348   8.2494   8.2524   8.2979   8.3865   8.3992   8.4684
     8.5612   8.6503   8.6508   8.8414   9.0127   9.0557   9.1345   9.3590
     9.3876   9.3897   9.4157   9.4722   9.8040   9.8065   9.8321   9.9247
     9.9366   9.9681   9.9724  10.0043  10.5248  10.5758  10.5936  10.6262
    10.6806  10.7101  10.7258  10.7540  11.1790  11.3132  11.3341  11.4713
    11.7267  11.8269  11.8578  11.9091  12.2161  12.4704  12.4890  12.6560
    12.7588  12.8236  12.8261  12.8929  12.9394  12.9805  13.0525  13.0896
    13.1844  13.3187  13.3191  13.3234  13.3398  13.4389  13.5303  13.6009
    13.6801  13.6886  13.7326  13.7407  13.7531  13.7543  13.8423  13.9037
    13.9212  13.9270  13.9639  14.0225  14.0556  14.1159  14.1247  14.1620
    14.1783  14.1945  14.2071  14.2649  14.2782  14.3248  14.3554  14.3817
    14.3902  14.4334  14.4390  14.5150  14.5694  14.5733  14.6190  14.6451
    14.7228  14.7453  14.8211  14.8307  14.8543  14.8893  14.9313  14.9564
    14.9710  15.0334  15.0876  15.0894  15.1770  15.2324  15.2733  15.2978
    15.3315  15.3944  15.4269  15.4791  15.4878  15.5543  15.5863  15.6361
    15.6474  15.6518  15.6797  15.7404  15.7724  15.8134  15.8534  15.8552
    15.9998  16.0324  16.0381  16.1030  16.2411  16.2638  16.2844  16.2940
    16.3204  16.3649  16.4443  16.4608  16.5193  16.5349  16.5992  16.6084
    16.6390  16.6853  16.6939  16.7567  16.8237  16.8291  16.8944  16.9423
    17.0228  17.0464  17.1045  17.1773  17.2090  17.2481  17.3154  17.3498
    17.3871  17.4321  17.4736  17.5002  17.5012  17.5472  17.6158  17.6304
    17.6816  17.6887  17.7258  17.7645  17.9481  18.0695  18.1184  18.1294
    18.1539  18.1691  18.1740  18.3629  18.3973  18.4616  18.5018  18.5768
    18.6000  18.6498  18.7032  18.8000  18.9748  19.0111  19.0523  19.1073
[...]
    20.1334  20.1931  20.2087  20.2249  20.2922  20.3923  20.4227  20.5939
    20.7451  20.7519  20.8287  20.8344  20.9186  20.9583  21.0063  21.0277
    21.1140  21.1466  21.1483  21.2662  21.2704  21.3832  21.4247  21.4569
    21.4935  21.5181  21.6081  21.6485  21.7064  21.7451  21.7773  21.8891
    21.9265  22.0020  22.0472  22.0632  22.1479  22.1575  22.1947  22.1995
    22.3279  22.3332  22.3453  22.3639  22.3949  22.4856  22.4928  22.5125
    22.6055  22.6337  22.6832  22.6843  22.7200  22.7374  22.7475  22.7683
    22.8004  22.8122  22.8521  22.8593  22.8884  22.9125  22.9233  22.9440
    22.9954  23.0421  23.0998  23.1141  23.1297  23.1524  23.1833  23.2259
    23.2777  23.2955  23.3001  23.3336  23.3763  23.3903  23.4144  23.4554
    23.4806  23.4965  23.5674  23.5863  23.5867  23.6350  23.6442  23.7309
    23.7578  23.8201  23.8337  23.8460  23.9138  23.9483  23.9937  24.1094
    24.1936  24.2331  24.2440  24.2570  24.3364  24.3608  24.4069  24.4453
    24.5860  24.5939  24.5995  24.6100  24.6538  24.7284  24.7336  24.8047
    24.8474  24.8673  24.9084

     the Fermi energy is     2.1738 ev

!    total energy              =   -2987.50254070 Ry
     Harris-Foulkes estimate   =   -2987.50254070 Ry
     estimated scf accuracy    <          6.7E-09 Ry

     The total energy is the sum of the following terms:

     one-electron contribution =  -65678.25671315 Ry
     hartree contribution      =   32905.98532623 Ry
     xc contribution           =    -539.59377532 Ry
     ewald contribution        =   30324.36554517 Ry
     smearing contrib. (-TS)   =      -0.00292363 Ry

     convergence has been achieved in  11 iterations

     Forces acting on atoms (Ry/au):

     negative rho (up, down):  0.453E-02 0.000E+00
     atom    1 type  1   force =     0.00000000    0.00009223    0.14345271
     atom    2 type  2   force =     0.00263055   -0.00001993   -0.14897729
     atom    3 type  2   force =     0.00000000   -0.00002790    0.07813672
     atom    4 type  1   force =     0.00008348    0.01600540   -0.01262334
     atom    5 type  1   force =     0.00013781   -0.01596175   -0.01264460
     atom    6 type  1   force =     0.00000000    0.00004521   -0.02349025
     atom    7 type  1   force =     0.00000000   -0.00006407   -0.03192380
     atom    8 type  2   force =     0.00042182   -0.00001016   -0.00865599
     atom    9 type  2   force =     0.00000000   -0.00020096    0.05063295
     atom   10 type  1   force =    -0.00038971    0.00002162   -0.00359215
     atom   11 type  1   force =    -0.00025358   -0.00007210   -0.00388205
     atom   12 type  1   force =     0.00000000   -0.00098059    0.01412526
     atom   13 type  1   force =     0.00000000    0.00007874   -0.00067761
     atom   14 type  2   force =     0.00007683    0.00000083   -0.00007736
     atom   15 type  2   force =     0.00000000    0.00010413   -0.00020632
     atom   16 type  1   force =    -0.00033622   -0.00017845   -0.00014684
     atom   17 type  1   force =    -0.00004640    0.00014402   -0.00048336
     atom   18 type  1   force =     0.00000000   -0.00070107   -0.00014019
     atom   19 type  1   force =     0.00000000    0.00034705    0.00014740
     atom   20 type  2   force =    -0.00002588   -0.00009084   -0.00000393
     atom   21 type  2   force =     0.00000000   -0.00004941    0.00006271
     atom   22 type  1   force =     0.00019646   -0.00003190   -0.00033274
     atom   23 type  1   force =     0.00033373    0.00006086    0.00039731
     atom   24 type  1   force =     0.00000000   -0.00006142   -0.00015701
     atom   25 type  1   force =     0.00000000   -0.00009520    0.14313941
     atom   26 type  2   force =    -0.00263055   -0.00001993   -0.14897729
     atom   27 type  2   force =     0.00000000    0.00001164    0.07686683
     atom   28 type  1   force =    -0.00008348    0.01600540   -0.01262334
     atom   29 type  1   force =    -0.00013781   -0.01596175   -0.01264460
     atom   30 type  1   force =     0.00000000    0.00007906   -0.02883467
     atom   31 type  1   force =     0.00000000    0.00005973   -0.03251273
     atom   32 type  2   force =    -0.00042182   -0.00001016   -0.00865599
     atom   33 type  2   force =     0.00000000   -0.00025757   -0.02728405
     atom   34 type  1   force =     0.00038971    0.00002162   -0.00359215
     atom   35 type  1   force =     0.00025358   -0.00007210   -0.00388205
     atom   36 type  1   force =     0.00000000    0.00008938    0.01999497
     atom   37 type  1   force =     0.00000000    0.00015312    0.00030102
     atom   38 type  2   force =    -0.00007683    0.00000083   -0.00007736
     atom   39 type  2   force =     0.00000000   -0.00014763   -0.00008281
     atom   40 type  1   force =     0.00033622   -0.00017845   -0.00014684
     atom   41 type  1   force =     0.00004640    0.00014402   -0.00048336
     atom   42 type  1   force =     0.00000000    0.00012981    0.00008358
     atom   43 type  1   force =     0.00000000    0.00015588   -0.00034134
     atom   44 type  2   force =     0.00002588   -0.00009084   -0.00000393
     atom   45 type  2   force =     0.00000000   -0.00010869   -0.00006053
     atom   46 type  1   force =    -0.00019646   -0.00003190   -0.00033274
     atom   47 type  1   force =    -0.00033373    0.00006086    0.00039731
     atom   48 type  1   force =     0.00000000   -0.00021515    0.00008622
     atom   49 type  1   force =     0.00000000    0.00074051    0.00016082
     atom   50 type  1   force =     0.00000000    0.00018440   -0.00023628
     atom   51 type  3   force =     0.00000000    0.00090355    0.00080165

     Total force =     0.002333     Total SCF correction =     0.000223

     bfgs converged in   3 scf cycles and   2 bfgs steps
     (criteria: energy < 0.10E-03, force < 0.10E-02)

     End of BFGS Geometry Optimization

     Final energy   =   -2987.5025407023 Ry
Begin final coordinates

ATOMIC_POSITIONS (crystal)
O0       0.000000000   0.500000000   0.320740000    0   0   0
Nb1      0.250000000   0.500000000   0.359950000    0   0   0
Nb1      0.000000000   0.000000000   0.359950000    0   0   0
O0       0.250000000   0.790000000   0.359950000    0   0   0
O0       0.250000000   0.210000000   0.359950000    0   0   0
O0       0.000000000   0.500000000   0.399170000    0   0   0
O0       0.000000000   0.000000000   0.414100000    0   0   0
Nb1      0.250000000   0.000000000   0.453320000    0   0   0
Nb1      0.000000000   0.500000000   0.453320000    0   0   0
O0       0.250000000   0.710000000   0.453320000    0   0   0
O0       0.250000000   0.290000000   0.453320000    0   0   0
O0       0.000000000   0.000000000   0.492530000    0   0   0
O0       0.000000000   0.499150938   0.507507556
Nb1      0.274981373   0.497513346   0.546188765
Nb1      0.000000000  -0.002508120   0.546618821
O0       0.247137729   0.789917708   0.547570804
O0       0.244442459   0.206845152   0.547678300
O0       0.000000000   0.502126868   0.583563884
O0       0.000000000  -0.001165234   0.602907746
Nb1      0.249479820   0.001269414   0.641982349
Nb1      0.000000000   0.499962453   0.633182467
O0       0.241540479   0.705524685   0.641458682
O0       0.241361402   0.295562182   0.641148296
O0       0.000000000   0.000807679   0.673999813
O0       0.500000000   0.500000000   0.320740000    0   0   0
Nb1      0.750000000   0.500000000   0.359950000    0   0   0
Nb1      0.500000000   0.000000000   0.359950000    0   0   0
O0       0.750000000   0.790000000   0.359950000    0   0   0
O0       0.750000000   0.210000000   0.359950000    0   0   0
O0       0.500000000   0.500000000   0.399170000    0   0   0
O0       0.500000000   0.000000000   0.414100000    0   0   0
Nb1      0.750000000   0.000000000   0.453320000    0   0   0
Nb1      0.500000000   0.500000000   0.453320000    0   0   0
O0       0.750000000   0.710000000   0.453320000    0   0   0
O0       0.750000000   0.290000000   0.453320000    0   0   0
O0       0.500000000   0.000000000   0.492530000    0   0   0
O0       0.500000000   0.499878309   0.505341319
Nb1      0.725018627   0.497513346   0.546188765
Nb1      0.500000000  -0.000843459   0.546895263
O0       0.752862271   0.789917708   0.547570804
O0       0.755557541   0.206845152   0.547678300
O0       0.500000000   0.496187873   0.588557495
O0       0.500000000  -0.000063839   0.602471639
Nb1      0.750520180   0.001269414   0.641982349
Nb1      0.500000000   0.502574192   0.643003438
O0       0.758459521   0.705524685   0.641458682
O0       0.758638598   0.295562182   0.641148296
O0       0.500000000  -0.002652457   0.673714668
O0       0.500000000   0.492450531   0.694941198
O0       0.500000000   0.336704944   0.720545508
H2       0.500000000   0.411435196   0.742876393
End final coordinates

     General routines

     Parallel routines

   This run was terminated on:  16:24:38  22Jun2014

   JOB DONE.