     Program PWSCF v.5.0.2 (svn rev. 9656) starts on  4May2014 at 20:46: 2

     Current dimensions of program PWSCF are:
     Max number of different atomic species (ntypx) = 10
     Max number of k-points (npk) =  40000
     Max angular momentum in pseudopotentials (lmaxx) =  3
     Reading input from pwscf.in
Warning: card &CELL ignored
Warning: card / ignored

     Subspace diagonalization in iterative solution of the eigenvalue problem:
     a serial algorithm will be used

     bravais-lattice index     =            0
     lattice parameter (alat)  =      10.7336  a.u.
     unit-cell volume          =    6184.1966 (a.u.)^3
     number of atoms/cell      =           32
     number of atomic types    =            3
     number of electrons       =       239.00 (up: 131.00, down: 108.00)
     number of Kohn-Sham states=          346
     kinetic-energy cutoff     =      40.0000  Ry
     charge density cutoff     =     500.0000  Ry
     convergence threshold     =      1.0E-06
     mixing beta               =       0.7000
     number of iterations used =            8  plain     mixing
     Exchange-correlation      = SLA  PW   PBE  PBE ( 1 4 3 4 0)
     EXX-fraction              =        0.00
     nstep                     =           50

     celldm(1)=  10.733644  celldm(2)=   0.000000  celldm(3)=   0.000000
     celldm(4)=   0.000000  celldm(5)=   0.000000  celldm(6)=   0.000000

     crystal axes: (cart. coord. in units of alat)
               a(1) = (   1.000000   0.000000   0.000000 )
               a(2) = (   0.000000   1.085558   0.000000 )
               a(3) = (   0.000000   0.000000   4.606685 )

     reciprocal axes: (cart. coord. in units 2 pi/alat)
               b(1) = (  1.000000  0.000000  0.000000 )
               b(2) = (  0.000000  0.921185  0.000000 )
               b(3) = (  0.000000  0.000000  0.217076 )

     PseudoPot. # 1 for O  read from file:
     /home/camp/zhonxu/pseudo/o_pbe_v1.01.uspp.F.UPF
     MD5 check sum: 2bcb18d16ea4b960afae9ec6d52f22d2
     Pseudo is Ultrasoft + core correction, Zval =  6.0
     Generated by new atomic code, or converted to UPF format
     Using radial grid of  737 points,  5 beta functions with:
                l(1) =   0
                l(2) =   0
                l(3) =   1
                l(4) =   1
                l(5) =   2
     Q(r) pseudized with  8 coefficients,  rinner =    0.900   0.900   0.900
                                                       0.900   0.900

     PseudoPot. # 2 for Mn read from file:
     /home/camp/zhonxu/pseudo/mn_pbe_v1.uspp.F.UPF
     MD5 check sum: 5fd7c7b5c956fd19902447332617373a
     Pseudo is Ultrasoft + core correction, Zval = 15.0
     Generated by new atomic code, or converted to UPF format
     Using radial grid of  859 points,  6 beta functions with:
                l(1) =   0
                l(2) =   0
                l(3) =   1
                l(4) =   1
                l(5) =   2
                l(6) =   2
     Q(r) pseudized with  6 coefficients,  rinner =    1.150   1.150   1.150
                                                       1.150   1.150

     PseudoPot. # 3 for H  read from file:
     /home/camp/zhonxu/pseudo/h_pbe_v1.uspp.F.UPF
     MD5 check sum: 3408e3ff4ec8b0a4e358431e7e038a48
     Pseudo is Ultrasoft, Zval =  1.0
     Generated by new atomic code, or converted to UPF format
     Using radial grid of  615 points,  2 beta functions with:
                l(1) =   0
                l(2) =   0
     Q(r) pseudized with  8 coefficients,  rinner =    0.700

     atomic species   valence    mass     pseudopotential
        O0             6.00    15.99940     O ( 1.00)
        Mn1           15.00    54.93800     Mn( 1.00)
        H2             1.00     1.00794     H ( 1.00)

     Starting magnetic structure
     atomic species   magnetization
        O0           0.000
        Mn1          0.600
        H2           0.000

     Simplified LDA+U calculation (l_max = 2) with parameters (eV):
     atomic species    L          U    alpha       J0     beta
        Mn1            2     6.5000   0.0000   0.0000   0.0000

     No symmetry found

   Cartesian axes

     site n.     atom                  positions (alat units)
         1           O0  tau(   1) = (   0.0000000   0.0000000   1.7414191  )
         2           O0  tau(   2) = (   0.0000000   0.5427791   1.8381134  )
         3           Mn1 tau(   3) = (   0.2500000   0.5427791   2.0740217  )
         4           Mn1 tau(   4) = (   0.0000000   0.0000000   2.0686319  )
         5           O0  tau(   5) = (   0.2500000   0.8684466   2.0678488  )
         6           O0  tau(   6) = (   0.2500000   0.2171117   2.0737453  )
         7           O0  tau(   7) = (   0.0000000   0.5427791   2.2873573  )
         8           O0  tau(   8) = (   0.0000000   0.0000000   2.4132120  )
         9           Mn1 tau(   9) = (   0.2500000   0.0000000   2.6399991  )
        10           Mn1 tau(  10) = (   0.0000000   0.5427791   2.6085815  )
        11           O0  tau(  11) = (   0.2500000   0.7598908   2.6551551  )
        12           O0  tau(  12) = (   0.2500000   0.3256675   2.6556157  )
        13           O0  tau(  13) = (   0.0000000   0.0000000   2.8417258  )
        14           O0  tau(  14) = (   0.5000000   0.0000000   1.7428932  )
        15           O0  tau(  15) = (   0.5000000   0.5427791   1.8386662  )
        16           Mn1 tau(  16) = (   0.7500000   0.5427791   2.0740678  )
        17           Mn1 tau(  17) = (   0.5000000   0.0000000   2.0707510  )
        18           O0  tau(  18) = (   0.7500000   0.8684466   2.0677106  )
        19           O0  tau(  19) = (   0.7500000   0.2171117   2.0738835  )
        20           O0  tau(  20) = (   0.5000000   0.5427791   2.2871270  )
        21           O0  tau(  21) = (   0.5000000   0.0000000   2.4132120  )
        22           Mn1 tau(  22) = (   0.7500000   0.0000000   2.6413811  )
        23           Mn1 tau(  23) = (   0.5000000   0.5427791   2.6662572  )
        24           O0  tau(  24) = (   0.7500000   0.7598908   2.6473698  )
        25           O0  tau(  25) = (   0.7500000   0.3256675   2.6477844  )
        26           O0  tau(  26) = (   0.5000000   0.0000000   2.8412191  )
        27           H2  tau(  27) = (   0.0000400   0.7014118   1.7620570  )
        28           H2  tau(  28) = (   0.5000900   0.7016832   1.7629323  )
        29           H2  tau(  29) = (   0.1613600   0.0398291   1.6869220  )
        30           H2  tau(  30) = (   0.6610200   0.0399703   1.6876591  )
        31           O0  tau(  31) = (   0.5153900   0.5432351   2.9826904  )
        32           H2  tau(  32) = (   0.3575300   0.5430397   3.0540479  )

     number of k points=    20  Methfessel-Paxton smearing, width (Ry)=  0.0100
                       cart. coord. in units 2pi/alat
        k(    1) = (   0.0000000   0.0000000   0.0000000), wk =   0.0625000
        k(    2) = (   0.0000000   0.2302962   0.0000000), wk =   0.1250000
        k(    3) = (   0.0000000  -0.4605925   0.0000000), wk =   0.0625000
        k(    4) = (   0.2500000   0.0000000   0.0000000), wk =   0.1250000
        k(    5) = (   0.2500000   0.2302962   0.0000000), wk =   0.1250000
        k(    6) = (   0.2500000  -0.4605925   0.0000000), wk =   0.1250000
        k(    7) = (  -0.5000000   0.0000000   0.0000000), wk =   0.0625000
        k(    8) = (  -0.5000000   0.2302962   0.0000000), wk =   0.1250000
        k(    9) = (  -0.5000000  -0.4605925   0.0000000), wk =   0.0625000
        k(   10) = (  -0.2500000   0.2302962   0.0000000), wk =   0.1250000
        k(   11) = (   0.0000000   0.0000000   0.0000000), wk =   0.0625000
        k(   12) = (   0.0000000   0.2302962   0.0000000), wk =   0.1250000
        k(   13) = (   0.0000000  -0.4605925   0.0000000), wk =   0.0625000
        k(   14) = (   0.2500000   0.0000000   0.0000000), wk =   0.1250000
        k(   15) = (   0.2500000   0.2302962   0.0000000), wk =   0.1250000
        k(   16) = (   0.2500000  -0.4605925   0.0000000), wk =   0.1250000
        k(   17) = (  -0.5000000   0.0000000   0.0000000), wk =   0.0625000
        k(   18) = (  -0.5000000   0.2302962   0.0000000), wk =   0.1250000
        k(   19) = (  -0.5000000  -0.4605925   0.0000000), wk =   0.0625000
        k(   20) = (  -0.2500000   0.2302962   0.0000000), wk =   0.1250000

     Largest allocated arrays     est. size (Mb)     dimensions
     Largest temporary arrays     est. size (Mb)     dimensions

     Check: negative/imaginary core charge=   -0.000022    0.000000

     Initial potential from superposition of free atoms
     Check: negative starting charge=(component1):   -0.000716
     Check: negative starting charge=(component2):   -0.000389

     starting charge  230.99986, renormalised to  239.00000

     negative rho (up, down):  0.741E-03 0.403E-03
     Number of +U iterations with fixed ns =  0
     Starting occupations:
 --- enter write_ns ---
 LDA+U parameters:
U( 2)     =  6.50000000
alpha( 2) =  0.00000000
atom    3   Tr[ns(na)] (up, down, total) =   5.00000  0.00000  5.00000
   spin  1
    eigenvalues:
  1.000  1.000  1.000  1.000  1.000
    eigenvectors:
  1.000  0.000  0.000  0.000  0.000
  0.000  1.000  0.000  0.000  0.000
  0.000  0.000  1.000  0.000  0.000
  0.000  0.000  0.000  1.000  0.000
  0.000  0.000  0.000  0.000  1.000
    occupations:
  1.000  0.000  0.000  0.000  0.000
  0.000  1.000  0.000  0.000  0.000
  0.000  0.000  1.000  0.000  0.000
  0.000  0.000  0.000  1.000  0.000
  0.000  0.000  0.000  0.000  1.000
   spin  2
    eigenvalues:
  0.000  0.000  0.000  0.000  0.000
    eigenvectors:
  1.000  0.000  0.000  0.000  0.000
  0.000  1.000  0.000  0.000  0.000
  0.000  0.000  1.000  0.000  0.000
  0.000  0.000  0.000  1.000  0.000
  0.000  0.000  0.000  0.000  1.000
    occupations:
  0.000  0.000  0.000  0.000  0.000
  0.000  0.000  0.000  0.000  0.000
  0.000  0.000  0.000  0.000  0.000
  0.000  0.000  0.000  0.000  0.000
  0.000  0.000  0.000  0.000  0.000
atomic mag. moment =     5.000000
atom    4   Tr[ns(na)] (up, down, total) =   5.00000  0.00000  5.00000
   spin  1
    eigenvalues:
  1.000  1.000  1.000  1.000  1.000
    eigenvectors:
  1.000  0.000  0.000  0.000  0.000
  0.000  1.000  0.000  0.000  0.000
  0.000  0.000  1.000  0.000  0.000
  0.000  0.000  0.000  1.000  0.000
  0.000  0.000  0.000  0.000  1.000
    occupations:
  1.000  0.000  0.000  0.000  0.000
  0.000  1.000  0.000  0.000  0.000
  0.000  0.000  1.000  0.000  0.000
  0.000  0.000  0.000  1.000  0.000
  0.000  0.000  0.000  0.000  1.000
   spin  2
    eigenvalues:
  0.000  0.000  0.000  0.000  0.000
    eigenvectors:
  1.000  0.000  0.000  0.000  0.000
  0.000  1.000  0.000  0.000  0.000
  0.000  0.000  1.000  0.000  0.000
  0.000  0.000  0.000  1.000  0.000
  0.000  0.000  0.000  0.000  1.000
    occupations:
  0.000  0.000  0.000  0.000  0.000
  0.000  0.000  0.000  0.000  0.000
  0.000  0.000  0.000  0.000  0.000
  0.000  0.000  0.000  0.000  0.000
  0.000  0.000  0.000  0.000  0.000
atomic mag. moment =     5.000000
atom    9   Tr[ns(na)] (up, down, total) =   5.00000  0.00000  5.00000
   spin  1
    eigenvalues:
  1.000  1.000  1.000  1.000  1.000
[...]
   spin  1
    eigenvalues:
  0.709  0.771  0.997  1.004  1.005
    eigenvectors:
  0.000  0.997  0.001  0.002  0.000
  0.000  0.001  0.000  0.891  0.108
  0.000  0.001  0.000  0.107  0.892
  0.000  0.001  0.999  0.000  0.000
  1.000  0.000  0.000  0.000  0.000
    occupations:
  0.772 -0.008 -0.006  0.006 -0.001
 -0.008  1.003 -0.001  0.000  0.003
 -0.006 -0.001  1.004  0.000 -0.000
  0.006  0.000  0.000  0.997 -0.000
 -0.001  0.003 -0.000 -0.000  0.709
   spin  2
    eigenvalues:
  0.071  0.082  0.088  0.281  0.329
    eigenvectors:
  0.006  0.001  0.000  0.992  0.000
  0.005  0.451  0.541  0.001  0.001
  0.012  0.530  0.458  0.001  0.000
  0.977  0.017  0.001  0.005  0.000
  0.000  0.001  0.001  0.000  0.999
    occupations:
  0.280  0.007  0.006 -0.015  0.000
  0.007  0.086 -0.003  0.000 -0.009
  0.006 -0.003  0.085  0.001 -0.000
 -0.015  0.000  0.001  0.072 -0.000
  0.000 -0.009 -0.000 -0.000  0.329
atomic mag. moment =     3.634246
atom    9   Tr[ns(na)] (up, down, total) =   4.46342  0.90140  5.36482
   spin  1
    eigenvalues:
  0.731  0.748  0.987  0.997  1.000
    eigenvectors:
  0.231  0.000  0.000  0.000  0.768
  0.000  1.000  0.000  0.000  0.000
  0.000  0.000  0.000  1.000  0.000
  0.768  0.000  0.000  0.000  0.231
  0.000  0.000  1.000  0.000  0.000
    occupations:
  0.938  0.001 -0.000 -0.114  0.000
  0.001  0.748  0.000 -0.000  0.000
 -0.000  0.000  0.997 -0.000  0.000
 -0.114 -0.000 -0.000  0.793  0.000
  0.000  0.000  0.000  0.000  0.987
   spin  2
    eigenvalues:
  0.076  0.088  0.095  0.318  0.324
    eigenvectors:
  0.805  0.000  0.000  0.155  0.040
  0.000  0.000  0.000  0.213  0.787
  0.000  0.001  0.999  0.000  0.000
  0.195  0.000  0.000  0.632  0.173
  0.000  0.999  0.001  0.000  0.000
    occupations:
  0.123 -0.000  0.000  0.096 -0.000
 -0.000  0.323 -0.000  0.003 -0.000
  0.000 -0.000  0.095  0.001  0.000
  0.096  0.003  0.001  0.272 -0.000
 -0.000 -0.000  0.000 -0.000  0.088
atomic mag. moment =     3.562021
atom   10   Tr[ns(na)] (up, down, total) =   4.67527  0.60422  5.27948
   spin  1
    eigenvalues:
  0.716  0.964  0.997  0.998  0.999
    eigenvectors:
  0.000  0.963  0.037  0.000  0.000
  0.000  0.001  0.056  0.943  0.000
  0.000  0.000  0.000  0.000  0.999
  0.000  0.037  0.907  0.056  0.000
  1.000  0.000  0.000  0.000  0.000
    occupations:
  0.965 -0.001  0.000  0.006  0.000
 -0.001  0.998  0.000  0.000 -0.002
  0.000  0.000  0.999  0.000  0.006
  0.006  0.000  0.000  0.996 -0.000
  0.000 -0.002  0.006 -0.000  0.717
   spin  2
    eigenvalues:
  0.058  0.067  0.073  0.132  0.274
    eigenvectors:
  0.033  0.000  0.000  0.967  0.000
  0.000  0.000  0.999  0.000  0.000
  0.000  1.000  0.000  0.000  0.000
  0.967  0.000  0.000  0.033  0.000
  0.000  0.000  0.000  0.000  1.000
    occupations:
  0.130  0.000 -0.000 -0.013  0.000
  0.000  0.073  0.000 -0.000  0.001
 -0.000  0.000  0.067 -0.000 -0.003
 -0.013 -0.000 -0.000  0.061 -0.000
  0.000  0.001 -0.003 -0.000  0.274
atomic mag. moment =     4.071049
atom   16   Tr[ns(na)] (up, down, total) =   4.47932  0.86471  5.34403
   spin  1
    eigenvalues:
  0.723  0.753  0.999  1.001  1.003
    eigenvectors:
  0.253  0.000  0.000  0.625  0.121
  0.010  0.987  0.001  0.002  0.000
  0.000  0.000  0.000  0.159  0.841
  0.737  0.012  0.000  0.213  0.037
  0.000  0.001  0.998  0.001  0.000
    occupations:
  0.931 -0.012 -0.002 -0.121 -0.000
 -0.012  0.754 -0.001  0.004 -0.008
 -0.002 -0.001  1.003 -0.002 -0.000
 -0.121  0.004 -0.002  0.793 -0.000
 -0.000 -0.008 -0.000 -0.000  0.999
   spin  2
    eigenvalues:
  0.067  0.084  0.095  0.292  0.327
    eigenvectors:
  0.774  0.000  0.002  0.013  0.211
  0.001  0.001  0.000  0.958  0.040
  0.003  0.036  0.961  0.000  0.000
  0.222  0.000  0.001  0.027  0.749
  0.000  0.962  0.036  0.001  0.000
    occupations:
  0.125  0.002 -0.003  0.107  0.000
  0.002  0.293  0.000 -0.008  0.008
 -0.003  0.000  0.095 -0.002 -0.002
  0.107 -0.008 -0.002  0.268 -0.001
  0.000  0.008 -0.002 -0.001  0.084
atomic mag. moment =     3.614604
atom   17   Tr[ns(na)] (up, down, total) =   4.48598  0.85085  5.33683
   spin  1
    eigenvalues:
  0.710  0.771  0.997  1.004  1.004
    eigenvectors:
  0.000  0.998  0.001  0.002  0.000
  0.000  0.001  0.000  0.728  0.270
  0.000  0.001  0.000  0.270  0.729
  0.000  0.001  0.999  0.000  0.000
  1.000  0.000  0.000  0.000  0.000
    occupations:
  0.771 -0.007 -0.006  0.006 -0.001
 -0.007  1.004 -0.000  0.000  0.003
 -0.006 -0.000  1.004  0.000 -0.001
  0.006  0.000  0.000  0.997 -0.000
 -0.001  0.003 -0.001 -0.000  0.710
   spin  2
    eigenvalues:
  0.071  0.082  0.088  0.280  0.329
    eigenvectors:
  0.006  0.001  0.000  0.992  0.000
  0.005  0.424  0.568  0.001  0.001
  0.012  0.556  0.431  0.001  0.000
  0.976  0.018  0.000  0.005  0.000
  0.000  0.000  0.001  0.000  0.999
    occupations:
  0.278  0.007  0.006 -0.015  0.000
  0.007  0.086 -0.003  0.000 -0.009
  0.006 -0.003  0.085  0.001  0.001
 -0.015  0.000  0.001  0.072 -0.000
  0.000 -0.009  0.001 -0.000  0.329
atomic mag. moment =     3.635134
atom   22   Tr[ns(na)] (up, down, total) =   4.45775  0.90903  5.36678
   spin  1
    eigenvalues:
  0.728  0.747  0.986  0.997  1.000
    eigenvectors:
  0.236  0.000  0.000  0.000  0.764
  0.001  0.999  0.000  0.000  0.000
  0.000  0.000  0.007  0.993  0.000
  0.763  0.001  0.000  0.000  0.236
  0.000  0.000  0.993  0.007  0.000
    occupations:
  0.936 -0.001 -0.000 -0.116 -0.000
 -0.001  0.746 -0.000  0.001  0.000
 -0.000 -0.000  0.997 -0.001 -0.001
 -0.116  0.001 -0.001  0.792 -0.000
 -0.000  0.000 -0.001 -0.000  0.986
   spin  2
    eigenvalues:
  0.076  0.090  0.096  0.321  0.327
    eigenvectors:
  0.802  0.000  0.000  0.053  0.145
  0.000  0.000  0.000  0.742  0.258
  0.000  0.003  0.997  0.000  0.000
  0.198  0.000  0.000  0.205  0.597
  0.000  0.997  0.003  0.000  0.000
    occupations:
  0.125  0.000  0.000  0.099 -0.000
  0.000  0.323 -0.000 -0.003 -0.000
  0.000 -0.000  0.096  0.001 -0.000
  0.099 -0.003  0.001  0.276  0.000
 -0.000 -0.000 -0.000  0.000  0.090
atomic mag. moment =     3.548724
atom   23   Tr[ns(na)] (up, down, total) =   4.52341  0.79505  5.31846
   spin  1
    eigenvalues:
  0.718  0.802  0.999  1.002  1.002
    eigenvectors:
  0.000  0.999  0.001  0.000  0.000
  0.000  0.000  0.009  0.001  0.991
  0.000  0.000  0.000  0.999  0.001
  0.000  0.001  0.990  0.000  0.009
  1.000  0.000  0.000  0.000  0.000
    occupations:
  0.802  0.003  0.002  0.006  0.000
  0.003  1.002 -0.000 -0.000 -0.001
  0.002 -0.000  1.002 -0.000 -0.005
  0.006 -0.000 -0.000  0.999  0.000
  0.000 -0.001 -0.005  0.000  0.718
   spin  2
    eigenvalues:
  0.072  0.074  0.078  0.244  0.328
    eigenvectors:
  0.007  0.000  0.000  0.993  0.000
  0.000  0.001  0.998  0.000  0.000
  0.005  0.993  0.001  0.000  0.000
  0.988  0.005  0.000  0.007  0.000
  0.000  0.000  0.000  0.000  1.000
    occupations:
  0.243 -0.002 -0.002 -0.015  0.000
 -0.002  0.078 -0.000  0.000  0.002
 -0.002 -0.000  0.074 -0.000  0.005
 -0.015  0.000 -0.000  0.073 -0.000
  0.000  0.002  0.005 -0.000  0.328
atomic mag. moment =     3.728356
N of occupied +U levels =  42.6921560
 --- exit write_ns ---

 ------ SPIN UP ------------

[...]

 ------ SPIN DOWN ----------

[...]

          k = 0.2500-0.4606 0.0000 ( 26462 PWs)   bands (ev):

[...]

          k =-0.2500 0.2303 0.0000 ( 26396 PWs)   bands (ev):

   -79.9834 -79.9749 -79.9504 -79.9424 -79.8522 -79.8399 -79.8275 -79.0164
   -48.8636 -48.8514 -48.8502 -48.8497 -48.8321 -48.8053 -48.7986 -48.7765
   -48.7688 -48.7511 -48.7342 -48.7057 -48.6962 -48.6883 -48.6772 -48.6723
   -48.6577 -48.6399 -48.4898 -48.4744 -48.4598 -48.0972 -47.9968 -47.4799
   -21.5589 -21.2013 -21.0538 -20.8261 -20.6514 -20.4445 -20.3039 -20.2874
   -20.1743 -20.0435 -19.9891 -19.9483 -19.8485 -19.7958 -19.7368 -19.6709
   -19.5515 -19.4383 -19.3842  -8.8471  -8.5923  -8.2457  -8.1705  -8.1395
    -7.9353  -7.7902  -7.6667  -7.3873  -7.3189  -7.1685  -7.0420  -6.9636
    -6.8691  -6.8028  -6.7721  -6.6820  -6.5729  -6.4342  -6.3636  -6.2465
    -6.1542  -6.0828  -6.0023  -5.9178  -5.8026  -5.7067  -5.6295  -5.5894
    -5.5133  -5.4233  -5.3523  -5.2428  -5.1654  -5.1442  -5.0018  -4.9597
    -4.8423  -4.7166  -4.6459  -4.6018  -4.5194  -4.3985  -4.3662  -4.3256
    -4.1953  -4.1125  -4.0124  -3.8821  -3.8157  -3.6324  -3.5668  -3.4948
    -3.3318  -3.1543  -3.1393  -2.8490   1.6019   1.6544   1.6722   1.7197
     1.7702   1.7873   1.8050   1.8688   1.8794   1.9276   2.0588   2.0773
     2.1089   2.1461   2.1666   2.2627   2.2827   2.3825   2.4194   2.4667
     2.5105   2.5612   2.6104   2.6412   2.7000   2.7543   2.8032   2.8547
     2.8801   2.9355   3.0412   3.0910   3.1766   3.2129   3.2720   3.3932
     3.4160   3.5225   3.5937   3.6688   3.8968   4.0979   4.4178   4.8951
     5.4259   5.7621   5.9616   6.0241   6.2945   6.4616   6.5672   6.6709
     6.7557   6.9336   7.1230   7.3693   7.5105   7.7189   7.9006   8.0112
     8.2798   8.4256   8.5059   8.5692   8.6575   8.7031   8.8814   9.0084
     9.2080   9.3156   9.4313   9.5327   9.6657   9.7269   9.9195  10.0032
    10.0912  10.2068  10.2856  10.3980  10.5149  10.7305  10.7432  10.8901
    10.9791  11.0607  11.1218  11.2283  11.3115  11.3873  11.4881  11.6369
    11.6969  11.7527  11.8058  11.8614  11.9635  12.0842  12.1537  12.2442
    12.3511  12.4541  12.5622  12.6757  12.7025  12.8263  12.8951  12.9647
    13.0231  13.1262  13.1572  13.2109  13.2629  13.3149  13.4014  13.5057
    13.5656  13.6162  13.6624  13.7079  13.7548  13.8388  13.9239  13.9790
    14.0625  14.1966  14.2329  14.2534  14.3464  14.3975  14.4483  14.5671
    14.6532  14.7340  14.8079  14.9116  14.9924  15.0197  15.1254  15.1860
    15.2861  15.3626  15.4805  15.6102  15.6791  15.8408  15.9051  15.9847
    16.0700  16.1874  16.2277  16.2818  16.3435  16.4103  16.4761  16.5697
    16.6364  16.6727  16.8169  16.8751  16.9678  17.0016  17.1106  17.1874
    17.2132  17.2998  17.4200  17.4535  17.5634  17.6077  17.6677  17.7874
    17.8573  17.8956  17.9917  18.0925  18.1297  18.2367  18.2785  18.3265
    18.4091  18.4947  18.5703  18.6145  18.6632  18.8224  18.8481  18.9203
    19.0490  19.0815  19.1247  19.2223  19.2772  19.3088  19.4124  19.4719
    19.5988  19.7025  19.8168  19.8816  19.9323  19.9868  20.0409  20.1001
    20.1421  20.2068  20.2296  20.3109  20.3845  20.4400  20.5956  20.6284
    20.7044  20.8587  20.9303  21.0311  21.0935  21.1353  21.1993  21.2365
    21.2955  21.3917  21.5328  21.5791  21.6368  21.7249  21.7499  21.8056
    21.8638  21.9873  22.0712  22.1514  22.2546  22.3269  22.3634  22.3986
    22.5188  22.6351

     the spin up/dw Fermi energies are    -2.3228   -0.3620 ev

!    total energy              =   -2319.84778534 Ry
     Harris-Foulkes estimate   =   -2319.84778534 Ry
     estimated scf accuracy    <          8.1E-09 Ry

     The total energy is the sum of the following terms:

     one-electron contribution =  -25912.29967485 Ry
     hartree contribution      =   12976.25110436 Ry
     xc contribution           =    -349.79487568 Ry
     ewald contribution        =   10964.08930213 Ry
     Hubbard energy            =       1.90579719 Ry
     smearing contrib. (-TS)   =       0.00056151 Ry

     total magnetization       =    23.00 Bohr mag/cell
     absolute magnetization    =    36.74 Bohr mag/cell

     convergence has been achieved in  15 iterations

     Forces acting on atoms (Ry/au):

     negative rho (up, down):  0.164E-02 0.139E-02
     atom    1 type  1   force =    -0.00398494   -0.01224804    0.00037139
     atom    2 type  1   force =     0.00078237    0.00578130   -0.00037588
     atom    3 type  2   force =     0.01304401    0.00268308    0.00029532
     atom    4 type  2   force =     0.00599187    0.01085479   -0.00033533
     atom    5 type  1   force =     0.00198545    0.01007750   -0.00038633
     atom    6 type  1   force =    -0.00038327   -0.01656354   -0.00029781
     atom    7 type  1   force =     0.00164545    0.00251970    0.00072848
     atom    8 type  1   force =     0.00029653   -0.00268709    0.00031562
     atom    9 type  2   force =     0.00952019    0.00017912   -0.00043768
     atom   10 type  2   force =     0.00053052   -0.00217198   -0.00041869
     atom   11 type  1   force =    -0.01676949   -0.01690394    0.00001145
     atom   12 type  1   force =    -0.01652533    0.01760382    0.00030079
     atom   13 type  1   force =    -0.00212072   -0.00070973    0.00011144
     atom   14 type  1   force =    -0.00429223   -0.01177337    0.00044636
     atom   15 type  1   force =     0.00043386    0.00480650   -0.00004821
     atom   16 type  2   force =    -0.01532365    0.00301764    0.00028381
     atom   17 type  2   force =     0.00623144    0.01073251   -0.00042926
     atom   18 type  1   force =     0.00075387    0.00997380   -0.00029748
     atom   19 type  1   force =    -0.00297594   -0.01666266   -0.00024213
     atom   20 type  1   force =    -0.00107035    0.00346080    0.00022303
     atom   21 type  1   force =    -0.00303269   -0.00266339    0.00005638
     atom   22 type  2   force =    -0.00819259    0.00075220   -0.00052906
     atom   23 type  2   force =     0.00092411   -0.00087664    0.00035350
     atom   24 type  1   force =     0.01577726   -0.01170468    0.00000221
     atom   25 type  1   force =     0.01651775    0.01214263    0.00014938
     atom   26 type  1   force =     0.00095787   -0.00063973    0.00029030
     atom   27 type  3   force =     0.00002818    0.00047890    0.00039017
     atom   28 type  3   force =     0.00001164    0.00029343    0.00051286
     atom   29 type  3   force =    -0.00028128   -0.00003591   -0.00031056
     atom   30 type  3   force =    -0.00030749   -0.00000121   -0.00027533
     atom   31 type  1   force =    -0.00030975    0.00028107   -0.00058308
     atom   32 type  3   force =     0.00013735    0.00000312    0.00012436

     Total force =     0.002150     Total SCF correction =     0.000504
     SCF correction compared to forces is large: reduce conv_thr to get better values

     bfgs converged in  23 scf cycles and  22 bfgs steps
     (criteria: energy < 0.10E-03, force < 0.10E-02)

     End of BFGS Geometry Optimization

     Final energy   =   -2319.8477853357 Ry
Begin final coordinates

ATOMIC_POSITIONS (crystal)
O0       0.000000000   0.000000000   0.372174461    0   0   1
O0       0.000000000   0.500000000   0.393032622    0   0   1
Mn1      0.250000000   0.500000000   0.446544013    0   0   1
Mn1      0.000000000   0.000000000   0.446421982    0   0   1
O0       0.250000000   0.800000000   0.444753411    0   0   1
O0       0.250000000   0.200000000   0.449101911    0   0   1
O0       0.000000000   0.500000000   0.493911523    0   0   1
O0       0.000000000   0.000000000   0.525146464    0   0   1
Mn1      0.250000000   0.000000000   0.574372430    0   0   1
Mn1      0.000000000   0.500000000   0.570501286    0   0   1
O0       0.250000000   0.700000000   0.584442037    0   0   1
O0       0.250000000   0.300000000   0.585027048    0   0   1
O0       0.000000000   0.000000000   0.623883088    0   0   1
O0       0.500000000   0.000000000   0.372095213    0   0   1
O0       0.500000000   0.500000000   0.393178151    0   0   1
Mn1      0.750000000   0.500000000   0.446590346    0   0   1
Mn1      0.500000000   0.000000000   0.446260125    0   0   1
O0       0.750000000   0.800000000   0.444535887    0   0   1
O0       0.750000000   0.200000000   0.448865327    0   0   1
O0       0.500000000   0.500000000   0.497626078    0   0   1
O0       0.500000000   0.000000000   0.525169221    0   0   1
Mn1      0.750000000   0.000000000   0.574183236    0   0   1
Mn1      0.500000000   0.500000000   0.579300833    0   0   1
O0       0.750000000   0.700000000   0.582116892    0   0   1
O0       0.750000000   0.300000000   0.582927065    0   0   1
O0       0.500000000   0.000000000   0.624590029    0   0   1
H2       0.000532698   0.647929120   0.377475500
H2       0.500658643   0.647009845   0.377329070
H2       0.161143815   0.045027232   0.361850945
H2       0.660986915   0.045778576   0.361827667
O0       0.517081605   0.502785693   0.654741258
H2       0.354310393   0.500219301   0.667904881
End final coordinates

     General routines

     Parallel routines
     Hubbard U routines

   This run was terminated on:  10: 8:34   6May2014

   JOB DONE.
Running PBS batch system epilogue script
Job id: 340701.audhumbla.fysik.dtu.dk
Username: zhonxu
Groupname: campgst
Jobname: MnO2/Eads-2-layers/OH-U-6.5
Sessionid: 2408
Queuename: verylong
Accounting:
This job has allocated the following 16 nodes:
b110 b110 b110 b110 b110 b110 b110 b110 b085 b085 b085 b085 b085 b085 b085 b085
Finished epilogue job 340701.audhumbla.fysik.dtu.dk for zhonxu