     Program PWSCF v.5.0.2 (svn rev. 9656) starts on  8May2014 at 23:13:49

     Current dimensions of program PWSCF are:
     Max number of different atomic species (ntypx) = 10
     Max number of k-points (npk) =  40000
     Max angular momentum in pseudopotentials (lmaxx) =  3
     Reading input from pwscf.in
Warning: card &CELL ignored
Warning: card / ignored

     Subspace diagonalization in iterative solution of the eigenvalue problem:
     a serial algorithm will be used

     bravais-lattice index     =            0
     lattice parameter (alat)  =      11.7541  a.u.
     unit-cell volume          =    7139.8207 (a.u.)^3
     number of atoms/cell      =           30
     number of atomic types    =            3
     number of electrons       =       232.00
     number of Kohn-Sham states=          348
     kinetic-energy cutoff     =      40.0000  Ry
     charge density cutoff     =     500.0000  Ry
     convergence threshold     =      1.0E-06
     mixing beta               =       0.7000
     number of iterations used =            8  plain     mixing
     Exchange-correlation      = SLA  PW   PBE  PBE ( 1 4 3 4 0)
     EXX-fraction              =        0.00
     nstep                     =           50

     celldm(1)=  11.754097  celldm(2)=   0.000000  celldm(3)=   0.000000
     celldm(4)=   0.000000  celldm(5)=   0.000000  celldm(6)=   0.000000

     crystal axes: (cart. coord. in units of alat)
               a(1) = (   1.000000   0.000000   0.000000 )
               a(2) = (   0.000000   1.034513   0.000000 )
               a(3) = (   0.000000   0.000000   4.249947 )

     reciprocal axes: (cart. coord. in units 2 pi/alat)
               b(1) = (  1.000000  0.000000  0.000000 )
               b(2) = (  0.000000  0.966638  0.000000 )
               b(3) = (  0.000000  0.000000  0.235297 )

     PseudoPot. # 1 for O  read from file:
     /home/camp/zhonxu/pseudo/o_pbe_v1.01.uspp.F.UPF
     MD5 check sum: 2bcb18d16ea4b960afae9ec6d52f22d2
     Pseudo is Ultrasoft + core correction, Zval =  6.0
     Generated by new atomic code, or converted to UPF format
     Using radial grid of  737 points,  5 beta functions with:
                l(1) =   0
                l(2) =   0
                l(3) =   1
                l(4) =   1
                l(5) =   2
     Q(r) pseudized with  8 coefficients,  rinner =    0.900   0.900   0.900
                                                       0.900   0.900

     PseudoPot. # 2 for Rh read from file:
     /home/camp/zhonxu/pseudo/rh_pbe_v1.uspp.F.UPF
     MD5 check sum: 37b626987ad0dd8ec6bf4cc9ef289918
     Pseudo is Ultrasoft + core correction, Zval = 15.0
     Generated by new atomic code, or converted to UPF format
     Using radial grid of  969 points,  7 beta functions with:
                l(1) =   0
                l(2) =   0
                l(3) =   1
                l(4) =   1
                l(5) =   2
                l(6) =   2
                l(7) =   2
     Q(r) pseudized with  6 coefficients,  rinner =    1.050   1.050   1.050
                                                       1.050   1.050

     PseudoPot. # 3 for H  read from file:
     /home/camp/zhonxu/pseudo/h_pbe_v1.uspp.F.UPF
     MD5 check sum: 3408e3ff4ec8b0a4e358431e7e038a48
     Pseudo is Ultrasoft, Zval =  1.0
     Generated by new atomic code, or converted to UPF format
     Using radial grid of  615 points,  2 beta functions with:
                l(1) =   0
                l(2) =   0
     Q(r) pseudized with  8 coefficients,  rinner =    0.700

     atomic species   valence    mass     pseudopotential
        O0             6.00    15.99940     O ( 1.00)
        Rh1           15.00   102.90550     Rh( 1.00)
        H2             1.00     1.00794     H ( 1.00)

     Simplified LDA+U calculation (l_max = 2) with parameters (eV):
     atomic species    L          U    alpha       J0     beta
        Rh1            2     0.5000   0.0000   0.0000   0.0000

     No symmetry found

   Cartesian axes

     site n.     atom                  positions (alat units)
         1           O0  tau(   1) = (   0.0000000   0.0000000   1.6092425  )
         2           O0  tau(   2) = (   0.0000000   0.5172566   1.7020614  )
         3           Rh1 tau(   3) = (   0.2500000   0.5172566   1.9209336  )
         4           Rh1 tau(   4) = (   0.0000000   0.0000000   1.9260761  )
         5           O0  tau(   5) = (   0.2500000   0.8379556   1.9243336  )
         6           O0  tau(   6) = (   0.2500000   0.1965575   1.9234411  )
         7           O0  tau(   7) = (   0.0000000   0.5172566   2.1185137  )
         8           O0  tau(   8) = (   0.0000000   0.0000000   2.2473721  )
         9           Rh1 tau(   9) = (   0.2500000   0.0000000   2.4498821  )
        10           Rh1 tau(  10) = (   0.0000000   0.5172566   2.4276124  )
        11           O0  tau(  11) = (   0.2500000   0.7138141   2.4560020  )
        12           O0  tau(  12) = (   0.2500000   0.3206991   2.4560870  )
        13           O0  tau(  13) = (   0.0000000   0.0000000   2.6421072  )
        14           O0  tau(  14) = (   0.5000000   0.0000000   1.6092425  )
        15           O0  tau(  15) = (   0.5000000   0.5172566   1.7020614  )
        16           Rh1 tau(  16) = (   0.7500000   0.5172566   1.9209336  )
        17           Rh1 tau(  17) = (   0.5000000   0.0000000   1.9260761  )
        18           O0  tau(  18) = (   0.7500000   0.8379556   1.9243336  )
        19           O0  tau(  19) = (   0.7500000   0.1965575   1.9234411  )
        20           O0  tau(  20) = (   0.5000000   0.5172566   2.1185137  )
        21           O0  tau(  21) = (   0.5000000   0.0000000   2.2473721  )
        22           Rh1 tau(  22) = (   0.7500000   0.0000000   2.4498821  )
        23           Rh1 tau(  23) = (   0.5000000   0.5172566   2.4276124  )
        24           O0  tau(  24) = (   0.7500000   0.7138141   2.4560020  )
        25           O0  tau(  25) = (   0.7500000   0.3206991   2.4560870  )
        26           O0  tau(  26) = (   0.5000000   0.0000000   2.6421072  )
        27           H2  tau(  27) = (  -0.0000700   0.6610229   1.6318947  )
        28           H2  tau(  28) = (   0.4999300   0.6610125   1.6318947  )
        29           H2  tau(  29) = (   0.1484400   0.0336527   1.5632581  )
        30           H2  tau(  30) = (   0.6484400   0.0336527   1.5632581  )

     number of k points=    10  Methfessel-Paxton smearing, width (Ry)=  0.0100
                       cart. coord. in units 2pi/alat
        k(    1) = (   0.0000000   0.0000000   0.0000000), wk =   0.1250000
        k(    2) = (   0.0000000   0.2416596   0.0000000), wk =   0.2500000
        k(    3) = (   0.0000000  -0.4833191   0.0000000), wk =   0.1250000
        k(    4) = (   0.2500000   0.0000000   0.0000000), wk =   0.2500000
        k(    5) = (   0.2500000   0.2416596   0.0000000), wk =   0.2500000
        k(    6) = (   0.2500000  -0.4833191   0.0000000), wk =   0.2500000
        k(    7) = (  -0.5000000   0.0000000   0.0000000), wk =   0.1250000
        k(    8) = (  -0.5000000   0.2416596   0.0000000), wk =   0.2500000
        k(    9) = (  -0.5000000  -0.4833191   0.0000000), wk =   0.1250000
        k(   10) = (  -0.2500000   0.2416596   0.0000000), wk =   0.2500000

     Largest allocated arrays     est. size (Mb)     dimensions
     Largest temporary arrays     est. size (Mb)     dimensions

     Check: negative/imaginary core charge=   -0.000002    0.000000

     Initial potential from superposition of free atoms
     Check: negative starting charge=   -0.642992

     starting charge  227.99915, renormalised to  232.00000

     negative rho (up, down):  0.654E+00 0.000E+00
     Number of +U iterations with fixed ns =  0
     Starting occupations:
 --- enter write_ns ---
 LDA+U parameters:
U( 2)     =  0.50000000
alpha( 2) =  0.00000000
atom    3   Tr[ns(na)] =   7.00000
    eigenvalues:
  0.700  0.700  0.700  0.700  0.700
    eigenvectors:
  1.000  0.000  0.000  0.000  0.000
  0.000  1.000  0.000  0.000  0.000
  0.000  0.000  1.000  0.000  0.000
  0.000  0.000  0.000  1.000  0.000
  0.000  0.000  0.000  0.000  1.000
    occupations:
  0.700  0.000  0.000  0.000  0.000
  0.000  0.700  0.000  0.000  0.000
  0.000  0.000  0.700  0.000  0.000
  0.000  0.000  0.000  0.700  0.000
  0.000  0.000  0.000  0.000  0.700
atom    4   Tr[ns(na)] =   7.00000
    eigenvalues:
  0.700  0.700  0.700  0.700  0.700
    eigenvectors:
  1.000  0.000  0.000  0.000  0.000
  0.000  1.000  0.000  0.000  0.000
  0.000  0.000  1.000  0.000  0.000
  0.000  0.000  0.000  1.000  0.000
  0.000  0.000  0.000  0.000  1.000
    occupations:
  0.700  0.000  0.000  0.000  0.000
  0.000  0.700  0.000  0.000  0.000
  0.000  0.000  0.700  0.000  0.000
  0.000  0.000  0.000  0.700  0.000
  0.000  0.000  0.000  0.000  0.700
atom    9   Tr[ns(na)] =   7.00000
    eigenvalues:
  0.700  0.700  0.700  0.700  0.700
    eigenvectors:
  1.000  0.000  0.000  0.000  0.000
  0.000  1.000  0.000  0.000  0.000
  0.000  0.000  1.000  0.000  0.000
  0.000  0.000  0.000  1.000  0.000
  0.000  0.000  0.000  0.000  1.000
    occupations:
  0.700  0.000  0.000  0.000  0.000
  0.000  0.700  0.000  0.000  0.000
  0.000  0.000  0.700  0.000  0.000
  0.000  0.000  0.000  0.700  0.000
  0.000  0.000  0.000  0.000  0.700
atom   10   Tr[ns(na)] =   7.00000
    eigenvalues:
  0.700  0.700  0.700  0.700  0.700
    eigenvectors:
  1.000  0.000  0.000  0.000  0.000
  0.000  1.000  0.000  0.000  0.000
  0.000  0.000  1.000  0.000  0.000
  0.000  0.000  0.000  1.000  0.000
  0.000  0.000  0.000  0.000  1.000
    occupations:
  0.700  0.000  0.000  0.000  0.000
  0.000  0.700  0.000  0.000  0.000
  0.000  0.000  0.700  0.000  0.000
  0.000  0.000  0.000  0.700  0.000
  0.000  0.000  0.000  0.000  0.700
atom   16   Tr[ns(na)] =   7.00000
    eigenvalues:
  0.700  0.700  0.700  0.700  0.700
    eigenvectors:
  1.000  0.000  0.000  0.000  0.000
  0.000  1.000  0.000  0.000  0.000
  0.000  0.000  1.000  0.000  0.000
  0.000  0.000  0.000  1.000  0.000
  0.000  0.000  0.000  0.000  1.000
    occupations:
  0.700  0.000  0.000  0.000  0.000
  0.000  0.700  0.000  0.000  0.000
  0.000  0.000  0.700  0.000  0.000
  0.000  0.000  0.000  0.700  0.000
  0.000  0.000  0.000  0.000  0.700
atom   17   Tr[ns(na)] =   7.00000
    eigenvalues:
  0.700  0.700  0.700  0.700  0.700
    eigenvectors:
  1.000  0.000  0.000  0.000  0.000
  0.000  1.000  0.000  0.000  0.000
  0.000  0.000  1.000  0.000  0.000
  0.000  0.000  0.000  1.000  0.000
  0.000  0.000  0.000  0.000  1.000
    occupations:
  0.700  0.000  0.000  0.000  0.000
  0.000  0.700  0.000  0.000  0.000
  0.000  0.000  0.700  0.000  0.000
  0.000  0.000  0.000  0.700  0.000
  0.000  0.000  0.000  0.000  0.700
atom   22   Tr[ns(na)] =   7.00000
    eigenvalues:
  0.700  0.700  0.700  0.700  0.700
    eigenvectors:
  1.000  0.000  0.000  0.000  0.000
  0.000  1.000  0.000  0.000  0.000
  0.000  0.000  1.000  0.000  0.000
  0.000  0.000  0.000  1.000  0.000
  0.000  0.000  0.000  0.000  1.000
    occupations:
  0.700  0.000  0.000  0.000  0.000
  0.000  0.700  0.000  0.000  0.000
  0.000  0.000  0.700  0.000  0.000
[...]
 -0.001  0.010  0.855 -0.001  0.001
  0.026  0.001 -0.001  0.968  0.000
  0.001 -0.001  0.001  0.000  0.604
atom    9   Tr[ns(na)] =   7.95145
    eigenvalues:
  0.637  0.651  0.846  0.870  0.972
    eigenvectors:
  0.000  0.156  0.000  0.000  0.844
  0.999  0.001  0.000  0.000  0.000
  0.000  0.000  1.000  0.000  0.000
  0.001  0.843  0.000  0.000  0.156
  0.000  0.000  0.000  1.000  0.000
    occupations:
  0.922  0.001 -0.000 -0.116 -0.001
  0.001  0.637  0.000  0.000 -0.000
 -0.000  0.000  0.846 -0.000 -0.000
 -0.116  0.000 -0.000  0.701  0.001
 -0.001 -0.000 -0.000  0.001  0.870
atom   10   Tr[ns(na)] =   7.96471
    eigenvalues:
  0.598  0.617  0.895  0.905  0.967
    eigenvectors:
  0.000  0.995  0.000  0.000  0.005
  0.000  0.000  0.000  1.000  0.000
  0.000  0.000  0.999  0.000  0.000
  0.000  0.005  0.000  0.000  0.995
  1.000  0.000  0.000  0.000  0.000
    occupations:
  0.619  0.000  0.002  0.024 -0.000
  0.000  0.905 -0.000  0.000 -0.001
  0.002 -0.000  0.895  0.000  0.000
  0.024  0.000  0.000  0.965  0.000
 -0.000 -0.001  0.000  0.000  0.598
atom   16   Tr[ns(na)] =   7.98039
    eigenvalues:
  0.592  0.608  0.884  0.947  0.959
    eigenvectors:
  0.000  0.212  0.003  0.000  0.785
  1.000  0.000  0.000  0.000  0.000
  0.000  0.000  0.997  0.000  0.003
  0.000  0.788  0.000  0.000  0.212
  0.000  0.000  0.000  0.999  0.000
    occupations:
  0.885 -0.000  0.002 -0.144 -0.000
 -0.000  0.592 -0.000 -0.000 -0.007
  0.002 -0.000  0.884 -0.005  0.001
 -0.144 -0.000 -0.005  0.683 -0.000
 -0.000 -0.007  0.001 -0.000  0.947
atom   17   Tr[ns(na)] =   7.95710
    eigenvalues:
  0.604  0.651  0.853  0.900  0.970
    eigenvectors:
  0.000  0.992  0.000  0.000  0.007
  0.000  0.000  0.045  0.955  0.000
  0.000  0.000  0.955  0.045  0.000
  0.000  0.007  0.000  0.000  0.993
  1.000  0.000  0.000  0.000  0.000
    occupations:
  0.653 -0.004 -0.001  0.026  0.001
 -0.004  0.898  0.010  0.001 -0.001
 -0.001  0.010  0.855 -0.001  0.001
  0.026  0.001 -0.001  0.968  0.000
  0.001 -0.001  0.001  0.000  0.604
atom   22   Tr[ns(na)] =   7.95149
    eigenvalues:
  0.637  0.651  0.846  0.870  0.972
    eigenvectors:
  0.000  0.156  0.000  0.000  0.844
  0.999  0.001  0.000  0.000  0.000
  0.000  0.000  1.000  0.000  0.000
  0.001  0.843  0.000  0.000  0.156
  0.000  0.000  0.000  1.000  0.000
    occupations:
  0.922  0.001 -0.000 -0.116 -0.001
  0.001  0.637  0.000  0.000 -0.000
 -0.000  0.000  0.846 -0.000 -0.000
 -0.116  0.000 -0.000  0.701  0.001
 -0.001 -0.000 -0.000  0.001  0.870
atom   23   Tr[ns(na)] =   7.96487
    eigenvalues:
  0.598  0.617  0.895  0.905  0.967
    eigenvectors:
  0.000  0.995  0.000  0.000  0.005
  0.000  0.000  0.000  1.000  0.000
  0.000  0.000  0.999  0.000  0.000
  0.000  0.005  0.000  0.000  0.995
  1.000  0.000  0.000  0.000  0.000
    occupations:
  0.619  0.000  0.002  0.024 -0.000
  0.000  0.905 -0.000  0.000 -0.001
  0.002 -0.000  0.895  0.000  0.000
  0.024  0.000  0.000  0.965  0.000
 -0.000 -0.001  0.000  0.000  0.598
N of occupied +U levels =  63.7081105
 --- exit write_ns ---

     Threshold (ethr) on eigenvalues was too large:
     Diagonalizing with lowered threshold

     Davidson diagonalization with overlap
     ethr =  1.18E-08,  avg # of iterations =  2.9

[...]

     total energy              =   -1948.04521899 Ry
     Harris-Foulkes estimate   =   -1948.04521900 Ry
     estimated scf accuracy    <       0.00000003 Ry

     iteration # 19     ecut=    40.00 Ry     beta=0.70
     Davidson diagonalization with overlap
     ethr =  4.32E-12,  avg # of iterations =  1.0

     negative rho (up, down):  0.689E+00 0.000E+00

     End of self-consistent calculation
 --- enter write_ns ---
 LDA+U parameters:
U( 2)     =  0.50000000
alpha( 2) =  0.00000000
atom    3   Tr[ns(na)] =   7.98129
    eigenvalues:
  0.592  0.608  0.884  0.947  0.960
    eigenvectors:
  0.000  0.212  0.003  0.000  0.785
  1.000  0.000  0.000  0.000  0.000
  0.000  0.000  0.997  0.000  0.003
  0.000  0.788  0.000  0.000  0.212
  0.000  0.000  0.000  0.999  0.000
    occupations:
  0.885 -0.000  0.002 -0.144 -0.000
 -0.000  0.592 -0.000 -0.000 -0.007
  0.002 -0.000  0.884 -0.005  0.001
 -0.144 -0.000 -0.005  0.683 -0.000
 -0.000 -0.007  0.001 -0.000  0.947
atom    4   Tr[ns(na)] =   7.95793
    eigenvalues:
  0.604  0.651  0.853  0.900  0.970
    eigenvectors:
  0.000  0.992  0.000  0.000  0.007
  0.000  0.000  0.045  0.955  0.000
  0.000  0.000  0.955  0.045  0.000
  0.000  0.007  0.000  0.000  0.993
  1.000  0.000  0.000  0.000  0.000
    occupations:
  0.653 -0.004 -0.001  0.026  0.001
 -0.004  0.898  0.010  0.001 -0.001
 -0.001  0.010  0.855 -0.001  0.001
  0.026  0.001 -0.001  0.968  0.000
  0.001 -0.001  0.001  0.000  0.604
atom    9   Tr[ns(na)] =   7.95102
    eigenvalues:
  0.637  0.651  0.846  0.870  0.972
    eigenvectors:
  0.000  0.156  0.000  0.000  0.844
  0.999  0.001  0.000  0.000  0.000
  0.000  0.000  1.000  0.000  0.000
  0.001  0.843  0.000  0.000  0.156
  0.000  0.000  0.000  1.000  0.000
    occupations:
  0.922  0.001 -0.000 -0.116 -0.001
  0.001  0.637  0.000  0.000 -0.000
 -0.000  0.000  0.846 -0.000 -0.000
 -0.116  0.000 -0.000  0.701  0.001
 -0.001 -0.000 -0.000  0.001  0.870
atom   10   Tr[ns(na)] =   7.96474
    eigenvalues:
  0.598  0.617  0.895  0.905  0.967
    eigenvectors:
  0.000  0.995  0.000  0.000  0.005
  0.000  0.000  0.000  1.000  0.000
  0.000  0.000  0.999  0.000  0.000
  0.000  0.005  0.000  0.000  0.995
  1.000  0.000  0.000  0.000  0.000
    occupations:
  0.619  0.000  0.002  0.024 -0.000
  0.000  0.905 -0.000  0.000 -0.001
  0.002 -0.000  0.895  0.000  0.000
  0.024  0.000  0.000  0.965  0.000
 -0.000 -0.001  0.000  0.000  0.598
atom   16   Tr[ns(na)] =   7.98129
    eigenvalues:
  0.592  0.608  0.884  0.947  0.960
    eigenvectors:
  0.000  0.212  0.003  0.000  0.785
  1.000  0.000  0.000  0.000  0.000
  0.000  0.000  0.997  0.000  0.003
  0.000  0.788  0.000  0.000  0.212
  0.000  0.000  0.000  0.999  0.000
    occupations:
  0.885 -0.000  0.002 -0.144 -0.000
 -0.000  0.592 -0.000 -0.000 -0.007
  0.002 -0.000  0.884 -0.005  0.001
 -0.144 -0.000 -0.005  0.683 -0.000
 -0.000 -0.007  0.001 -0.000  0.947
atom   17   Tr[ns(na)] =   7.95791
    eigenvalues:
  0.604  0.651  0.853  0.900  0.970
    eigenvectors:
  0.000  0.992  0.000  0.000  0.007
  0.000  0.000  0.045  0.955  0.000
  0.000  0.000  0.955  0.045  0.000
  0.000  0.007  0.000  0.000  0.993
  1.000  0.000  0.000  0.000  0.000
    occupations:
  0.653 -0.004 -0.001  0.026  0.001
 -0.004  0.898  0.010  0.001 -0.001
 -0.001  0.010  0.855 -0.001  0.001
  0.026  0.001 -0.001  0.968  0.000
  0.001 -0.001  0.001  0.000  0.604
atom   22   Tr[ns(na)] =   7.95101
    eigenvalues:
  0.637  0.651  0.846  0.870  0.972
    eigenvectors:
  0.000  0.156  0.000  0.000  0.844
  0.999  0.001  0.000  0.000  0.000
  0.000  0.000  1.000  0.000  0.000
  0.001  0.843  0.000  0.000  0.156
  0.000  0.000  0.000  1.000  0.000
    occupations:
  0.922  0.001 -0.000 -0.116 -0.001
  0.001  0.637  0.000  0.000 -0.000
 -0.000  0.000  0.846 -0.000 -0.000
 -0.116  0.000 -0.000  0.701  0.001
 -0.001 -0.000 -0.000  0.001  0.870
atom   23   Tr[ns(na)] =   7.96475
    eigenvalues:
  0.598  0.617  0.895  0.905  0.967
    eigenvectors:
  0.000  0.995  0.000  0.000  0.005
  0.000  0.000  0.000  1.000  0.000
  0.000  0.000  0.999  0.000  0.000
  0.000  0.005  0.000  0.000  0.995
  1.000  0.000  0.000  0.000  0.000
    occupations:
  0.619  0.000  0.002  0.024 -0.000
  0.000  0.905 -0.000  0.000 -0.001
  0.002 -0.000  0.895  0.000  0.000
  0.024  0.000  0.000  0.965  0.000
 -0.000 -0.001  0.000  0.000  0.598
N of occupied +U levels =  63.7099323
 --- exit write_ns ---

[...]

          k = 0.2500-0.4833 0.0000 ( 30510 PWs)   bands (ev):

[...]

          k =-0.2500 0.2417 0.0000 ( 30481 PWs)   bands (ev):

   -49.3779 -49.3454 -49.3356 -49.3230 -49.3178 -49.2956 -49.2089 -49.1995
   -49.1965 -49.1346 -49.1301 -49.1244 -49.1165 -49.0594 -49.0544 -49.0528
   -49.0255 -48.9876 -48.9767 -48.9494 -48.8918 -48.8860 -48.8792 -48.8736
   -21.4593 -21.1744 -20.9332 -20.8086 -20.5964 -20.4947 -20.3718 -20.3430
   -20.1773 -20.1744 -20.0663 -20.0010 -19.9521 -19.8944 -19.7929 -19.7223
   -18.9216 -18.8216  -9.5739  -9.3514  -9.2726  -9.1283  -8.7123  -8.6195
    -8.5992  -8.5874  -8.5466  -8.4278  -8.3656  -8.3419  -8.2743  -8.0906
    -7.9952  -7.9069  -7.7729  -7.7201  -7.3969  -7.3850  -7.2277  -7.1835
    -7.0392  -6.6776  -6.6431  -6.4976  -6.4209  -6.2594  -6.2352  -6.1177
    -6.1077  -6.0458  -5.9466  -5.9435  -5.7629  -5.7286  -5.6287  -5.6244
    -5.3555  -5.2542  -5.2193  -5.0023  -4.9904  -4.7805  -4.7623  -4.7177
    -4.5603  -4.4642  -4.3446  -4.1070  -4.0066  -3.7834  -3.6348  -3.5840
    -3.5474  -3.3970  -3.3223  -3.2298  -3.1551  -3.1459  -3.1169  -3.0067
    -2.9935  -2.8915  -2.7981  -2.7418  -2.6189  -2.5802  -2.4125  -2.2418
    -1.9083  -1.8880  -1.8466  -1.7824  -1.7328  -1.5414  -1.3690  -1.3214
    -1.0334  -0.7752  -0.4126  -0.2069   0.3242   0.4369   0.4427   0.7765
     0.9908   1.2602   1.4086   1.4902   1.6765   1.7278   1.8318   2.0493
     3.6101   3.9849   4.5197   4.9169   5.2799   5.4259   5.5083   5.7835
     5.9733   6.2086   6.3386   6.4132   6.4208   6.6746   6.8246   6.9756
     7.1939   7.3637   7.4129   7.6201   7.6854   7.8130   7.9908   8.0158
     8.0669   8.2579   8.3757   8.3988   8.6304   8.7690   8.7742   8.8487
     8.8913   9.1782   9.3436   9.3861   9.5215   9.6428   9.6566   9.6941
     9.8209   9.9018  10.1209  10.1651  10.2383  10.2724  10.3385  10.4887
    10.5871  10.6267  10.7622  10.8038  10.8603  10.9632  10.9979  11.1362
    11.3009  11.3053  11.3892  11.4597  11.5069  11.5877  11.6534  11.6915
    11.8153  11.9966  12.0607  12.0770  12.1528  12.1814  12.2182  12.3388
    12.4255  12.5085  12.5824  12.6036  12.6975  12.7774  12.8608  12.9805
    13.0060  13.0801  13.1648  13.2216  13.2572  13.3518  13.4176  13.5297
    13.5973  13.6976  13.7816  13.7819  13.8412  14.0249  14.0385  14.0740
    14.1511  14.2605  14.3418  14.4487  14.5347  14.5797  14.6342  14.6931
    14.7664  15.0387  15.2070  15.2697  15.3425  15.4107  15.4571  15.4787
    15.5137  15.6072  15.6861  15.7092  15.7897  15.8074  15.9661  15.9786
    16.0557  16.0568  16.1790  16.2272  16.2963  16.3599  16.3744  16.4711
    16.5179  16.5703  16.5893  16.6061  16.7110  16.7982  16.9685  16.9873
    17.1311  17.2116  17.2274  17.3121  17.3345  17.4335  17.4841  17.5388
    17.5677  17.6229  17.7465  17.7725  17.8741  17.8760  18.0680  18.0709
    18.0888  18.1494  18.2428  18.3554  18.4136  18.4766  18.5021  18.6606
    18.6816  18.8322  18.8817  18.9203  18.9809  19.0341  19.0467  19.1201
    19.2014  19.2064  19.2984  19.4220  19.4389  19.5591  19.6418  19.7196
    19.7385  19.8878  19.8908  20.0344  20.1355  20.1955  20.2840  20.3234
    20.4601  20.5172  20.5960  20.6369  20.6671  20.7144  20.8197  20.8847
    20.9348  21.0100  21.0975  21.1245  21.1682  21.2655  21.3108  21.3141
    21.3851  21.4343  21.5519  21.6394  21.6731  21.7184  21.7910  21.8258
    21.8478  21.9149  22.0112  22.0634

     the Fermi energy is    -1.7452 ev

!    total energy              =   -1948.04521899 Ry
     Harris-Foulkes estimate   =   -1948.04521899 Ry
     estimated scf accuracy    <          1.4E-09 Ry

     The total energy is the sum of the following terms:

     one-electron contribution =  -22574.20561872 Ry
     hartree contribution      =   11332.32120799 Ry
     xc contribution           =    -365.01466254 Ry
     ewald contribution        =    9658.64924262 Ry
     Hubbard energy            =       0.20577771 Ry
     smearing contrib. (-TS)   =      -0.00116605 Ry

     convergence has been achieved in  19 iterations

     Forces acting on atoms (Ry/au):

     negative rho (up, down):  0.689E+00 0.000E+00
     atom    1 type  1   force =    -0.00692323   -0.01392271   -0.00024700
     atom    2 type  1   force =     0.00013039    0.00645265    0.00052625
     atom    3 type  2   force =    -0.00021382    0.00354744    0.00072671
     atom    4 type  2   force =     0.00841107    0.00894886   -0.00001370
     atom    5 type  1   force =    -0.00075575   -0.03058804    0.00014123
     atom    6 type  1   force =     0.00182343    0.02751830    0.00020537
     atom    7 type  1   force =    -0.00023370   -0.00019971   -0.00096047
     atom    8 type  1   force =    -0.00278978   -0.00061585   -0.00071452
     atom    9 type  2   force =     0.00125680   -0.00023171    0.00004189
     atom   10 type  2   force =     0.00003810   -0.00204856   -0.00019553
     atom   11 type  1   force =    -0.00013529    0.00241727    0.00013431
     atom   12 type  1   force =     0.00027927   -0.00163991    0.00016031
     atom   13 type  1   force =    -0.00081208   -0.00005588   -0.00037603
     atom   14 type  1   force =    -0.00693183   -0.01392687   -0.00019835
     atom   15 type  1   force =     0.00013426    0.00647787    0.00052491
     atom   16 type  2   force =    -0.00022289    0.00354779    0.00072356
     atom   17 type  2   force =     0.00840837    0.00894741   -0.00001758
     atom   18 type  1   force =    -0.00076618   -0.03058778    0.00013666
     atom   19 type  1   force =     0.00181342    0.02751798    0.00019848
     atom   20 type  1   force =    -0.00024046   -0.00019971   -0.00097201
     atom   21 type  1   force =    -0.00279423   -0.00061537   -0.00075544
     atom   22 type  2   force =     0.00127076   -0.00023288    0.00002406
     atom   23 type  2   force =     0.00002793   -0.00204858   -0.00019564
     atom   24 type  1   force =    -0.00013171    0.00242533    0.00014507
     atom   25 type  1   force =     0.00028287   -0.00164788    0.00017152
     atom   26 type  1   force =    -0.00081080   -0.00005593   -0.00034764
     atom   27 type  3   force =    -0.00001012    0.00005627    0.00043281
     atom   28 type  3   force =    -0.00001044    0.00003166    0.00044707
     atom   29 type  3   force =    -0.00005591    0.00036223    0.00013226
     atom   30 type  3   force =    -0.00003845    0.00036631    0.00012142

     Total force =     0.002430     Total SCF correction =     0.000096

     bfgs converged in   5 scf cycles and   4 bfgs steps
     (criteria: energy < 0.10E-03, force < 0.10E-02)

     End of BFGS Geometry Optimization

     Final energy   =   -1948.0452189941 Ry
Begin final coordinates

ATOMIC_POSITIONS (crystal)
O0       0.000000000   0.000000000   0.378658448    0   0   1
O0       0.000000000   0.500000000   0.400664638    0   0   1
Rh1      0.250000000   0.500000000   0.452101716    0   0   1
Rh1      0.000000000   0.000000000   0.453167149    0   0   1
O0       0.250000000   0.810000000   0.452699120    0   0   1
O0       0.250000000   0.190000000   0.452551730    0   0   1
O0       0.000000000   0.500000000   0.498709509    0   0   1
O0       0.000000000   0.000000000   0.528793775    0   0   1
Rh1      0.250000000   0.000000000   0.576347769    0   0   1
Rh1      0.000000000   0.500000000   0.571290955    0   0   1
O0       0.250000000   0.690000000   0.577663792    0   0   1
O0       0.250000000   0.310000000   0.577682636    0   0   1
O0       0.000000000   0.000000000   0.621632961    0   0   1
O0       0.500000000   0.000000000   0.378655441    0   0   1
O0       0.500000000   0.500000000   0.400663749    0   0   1
Rh1      0.750000000   0.500000000   0.452102048    0   0   1
Rh1      0.500000000   0.000000000   0.453166239    0   0   1
O0       0.750000000   0.810000000   0.452700061    0   0   1
O0       0.750000000   0.190000000   0.452553022    0   0   1
O0       0.500000000   0.500000000   0.498709877    0   0   1
O0       0.500000000   0.000000000   0.528794936    0   0   1
Rh1      0.750000000   0.000000000   0.576348277    0   0   1
Rh1      0.500000000   0.500000000   0.571291218    0   0   1
O0       0.750000000   0.690000000   0.577661256    0   0   1
O0       0.750000000   0.310000000   0.577680048    0   0   1
O0       0.500000000   0.000000000   0.621631056    0   0   1
H2      -0.000099018   0.638738293   0.384073584
H2       0.499901884   0.638740617   0.384072381
H2       0.148449433   0.032907843   0.367896600
H2       0.648450723   0.032907891   0.367896009
End final coordinates

     General routines

     Parallel routines
     Hubbard U routines

   This run was terminated on:   9: 2: 9   9May2014

   JOB DONE.
Running PBS batch system epilogue script
Job id: 340826.audhumbla.fysik.dtu.dk
Username: zhonxu
Groupname: campgst
Jobname: RhO2/Eads-2-layers/bare-U-0.5
Sessionid: 4615
Queuename: verylong
Accounting:
This job has allocated the following 16 nodes:
b133 b133 b133 b133 b133 b133 b133 b133 b126 b126 b126 b126 b126 b126 b126 b126
Finished epilogue job 340826.audhumbla.fysik.dtu.dk for zhonxu