     Program PWSCF v.5.0.2 (svn rev. 9656) starts on 29Apr2014 at  0:28: 3

     Current dimensions of program PWSCF are:
     Max number of different atomic species (ntypx) = 10
     Max number of k-points (npk) =  40000
     Max angular momentum in pseudopotentials (lmaxx) =  3
     Reading input from pwscf.in
Warning: card &CELL ignored
Warning: card / ignored

     Subspace diagonalization in iterative solution of the eigenvalue problem:
     a serial algorithm will be used

     bravais-lattice index     =            0
     lattice parameter (alat)  =      10.3179  a.u.
     unit-cell volume          =    6964.3238 (a.u.)^3
     number of atoms/cell      =           32
     number of atomic types    =            3
     number of electrons       =       231.00
     number of Kohn-Sham states=          346
     kinetic-energy cutoff     =      40.0000  Ry
     charge density cutoff     =     500.0000  Ry
     convergence threshold     =      1.0E-06
     mixing beta               =       0.7000
     number of iterations used =            8  plain     mixing
     Exchange-correlation      = SLA  PW   PBE  PBE ( 1 4 3 4 0)
     EXX-fraction              =        0.00
     nstep                     =           50

     celldm(1)=  10.317905  celldm(2)=   0.000000  celldm(3)=   0.000000
     celldm(4)=   0.000000  celldm(5)=   0.000000  celldm(6)=   0.000000

     crystal axes: (cart. coord. in units of alat)
               a(1) = (   1.000000   0.000000   0.000000 )
               a(2) = (   0.000000   1.282117   0.000000 )
               a(3) = (   0.000000   0.000000   4.945120 )

     reciprocal axes: (cart. coord. in units 2 pi/alat)
               b(1) = (  1.000000  0.000000  0.000000 )
               b(2) = (  0.000000  0.779960  0.000000 )
               b(3) = (  0.000000  0.000000  0.202220 )

     PseudoPot. # 1 for O  read from file:
     /home/camp/zhonxu/pseudo/o_pbe_v1.01.uspp.F.UPF
     MD5 check sum: 2bcb18d16ea4b960afae9ec6d52f22d2
     Pseudo is Ultrasoft + core correction, Zval =  6.0
     Generated by new atomic code, or converted to UPF format
     Using radial grid of  737 points,  5 beta functions with:
                l(1) =   0
                l(2) =   0
                l(3) =   1
                l(4) =   1
                l(5) =   2
     Q(r) pseudized with  8 coefficients,  rinner =    0.900   0.900   0.900
                                                       0.900   0.900

     PseudoPot. # 2 for Mo read from file:
     /home/camp/zhonxu/pseudo/mo_pbe_v1.uspp.F.UPF
     MD5 check sum: 30c4dcd161f5d35cd49bb5239c51a633
     Pseudo is Ultrasoft + core correction, Zval = 14.0
     Generated by new atomic code, or converted to UPF format
     Using radial grid of  889 points,  6 beta functions with:
                l(1) =   0
                l(2) =   0
                l(3) =   1
                l(4) =   1
                l(5) =   2
                l(6) =   2
     Q(r) pseudized with  6 coefficients,  rinner =    1.000   1.000   1.000
                                                       1.000   1.000

     PseudoPot. # 3 for H  read from file:
     /home/camp/zhonxu/pseudo/h_pbe_v1.uspp.F.UPF
     MD5 check sum: 3408e3ff4ec8b0a4e358431e7e038a48
     Pseudo is Ultrasoft, Zval =  1.0
     Generated by new atomic code, or converted to UPF format
     Using radial grid of  615 points,  2 beta functions with:
                l(1) =   0
                l(2) =   0
     Q(r) pseudized with  8 coefficients,  rinner =    0.700

     atomic species   valence    mass     pseudopotential
        O0             6.00    15.99940     O ( 1.00)
        Mo1           14.00    95.94000     Mo( 1.00)
        H2             1.00     1.00794     H ( 1.00)

     Simplified LDA+U calculation (l_max = 2) with parameters (eV):
     atomic species    L          U    alpha       J0     beta
        Mo1            2     3.5000   0.0000   0.0000   0.0000

     No symmetry found

   Cartesian axes

     site n.     atom                  positions (alat units)
         1           O0  tau(   1) = (   0.0000000   0.0000000   1.8362221  )
         2           O0  tau(   2) = (   0.0000000   0.6410583   1.8932888  )
         3           Mo1 tau(   3) = (   0.2500000   0.6410583   2.1787211  )
         4           Mo1 tau(   4) = (   0.0000000   0.0000000   2.1942488  )
         5           O0  tau(   5) = (   0.2500000   1.0000510   2.1917762  )
         6           O0  tau(   6) = (   0.2500000   0.2820657   2.1916279  )
         7           O0  tau(   7) = (   0.0000000   0.6410583   2.4619282  )
         8           O0  tau(   8) = (   0.0000000   0.0000000   2.5552920  )
         9           Mo1 tau(   9) = (   0.2500000   0.0000000   2.8451750  )
        10           Mo1 tau(  10) = (   0.0000000   0.6410583   2.7951798  )
        11           O0  tau(  11) = (   0.2500000   0.9231240   2.8229220  )
        12           O0  tau(  12) = (   0.2500000   0.3589927   2.8238121  )
        13           O0  tau(  13) = (   0.0000000   0.0000000   3.0959420  )
        14           O0  tau(  14) = (   0.5000000   0.0000000   1.8365188  )
        15           O0  tau(  15) = (   0.5000000   0.6410583   1.8939316  )
        16           Mo1 tau(  16) = (   0.7500000   0.6410583   2.1784244  )
        17           Mo1 tau(  17) = (   0.5000000   0.0000000   2.1964741  )
        18           O0  tau(  18) = (   0.7500000   1.0000510   2.1920730  )
        19           O0  tau(  19) = (   0.7500000   0.2820657   2.1913806  )
        20           O0  tau(  20) = (   0.5000000   0.6410583   2.4641535  )
        21           O0  tau(  21) = (   0.5000000   0.0000000   2.5544514  )
        22           Mo1 tau(  22) = (   0.7500000   0.0000000   2.8455212  )
        23           Mo1 tau(  23) = (   0.5000000   0.6410583   2.8262846  )
        24           O0  tau(  24) = (   0.7500000   0.9231240   2.8210923  )
        25           O0  tau(  25) = (   0.7500000   0.3589927   2.8208450  )
        26           O0  tau(  26) = (   0.5000000   0.0000000   3.0950519  )
        27           H2  tau(  27) = (  -0.0007600   0.7828861   1.7821225  )
        28           H2  tau(  28) = (   0.4995000   0.7914763   1.7941391  )
        29           H2  tau(  29) = (   0.1669200   0.0220268   1.7647651  )
        30           H2  tau(  30) = (   0.6653100   0.0245269   1.7632816  )
        31           O0  tau(  31) = (   0.5147600   0.6413532   3.1767948  )
        32           H2  tau(  32) = (   0.3891500   0.6353401   3.3044778  )

     number of k points=    10  Methfessel-Paxton smearing, width (Ry)=  0.0100
                       cart. coord. in units 2pi/alat
        k(    1) = (   0.0000000   0.0000000   0.0000000), wk =   0.1250000
        k(    2) = (   0.0000000   0.1949901   0.0000000), wk =   0.2500000
        k(    3) = (   0.0000000  -0.3899801   0.0000000), wk =   0.1250000
        k(    4) = (   0.2500000   0.0000000   0.0000000), wk =   0.2500000
        k(    5) = (   0.2500000   0.1949901   0.0000000), wk =   0.2500000
        k(    6) = (   0.2500000  -0.3899801   0.0000000), wk =   0.2500000
        k(    7) = (  -0.5000000   0.0000000   0.0000000), wk =   0.1250000
        k(    8) = (  -0.5000000   0.1949901   0.0000000), wk =   0.2500000
        k(    9) = (  -0.5000000  -0.3899801   0.0000000), wk =   0.1250000
        k(   10) = (  -0.2500000   0.1949901   0.0000000), wk =   0.2500000

     Largest allocated arrays     est. size (Mb)     dimensions
     Largest temporary arrays     est. size (Mb)     dimensions

     Check: negative/imaginary core charge=   -0.000003    0.000000

     Initial potential from superposition of free atoms
     Check: negative starting charge=   -0.002345

     starting charge  230.99142, renormalised to  231.00000

     negative rho (up, down):  0.235E-02 0.000E+00
     Number of +U iterations with fixed ns =  0
     Starting occupations:
 --- enter write_ns ---
 LDA+U parameters:
U( 2)     =  3.50000000
alpha( 2) =  0.00000000
atom    3   Tr[ns(na)] =   5.00000
    eigenvalues:
  0.500  0.500  0.500  0.500  0.500
    eigenvectors:
  1.000  0.000  0.000  0.000  0.000
  0.000  1.000  0.000  0.000  0.000
  0.000  0.000  1.000  0.000  0.000
  0.000  0.000  0.000  1.000  0.000
  0.000  0.000  0.000  0.000  1.000
    occupations:
  0.500  0.000  0.000  0.000  0.000
  0.000  0.500  0.000  0.000  0.000
  0.000  0.000  0.500  0.000  0.000
  0.000  0.000  0.000  0.500  0.000
  0.000  0.000  0.000  0.000  0.500
atom    4   Tr[ns(na)] =   5.00000
    eigenvalues:
  0.500  0.500  0.500  0.500  0.500
    eigenvectors:
  1.000  0.000  0.000  0.000  0.000
  0.000  1.000  0.000  0.000  0.000
  0.000  0.000  1.000  0.000  0.000
  0.000  0.000  0.000  1.000  0.000
  0.000  0.000  0.000  0.000  1.000
    occupations:
  0.500  0.000  0.000  0.000  0.000
  0.000  0.500  0.000  0.000  0.000
  0.000  0.000  0.500  0.000  0.000
  0.000  0.000  0.000  0.500  0.000
  0.000  0.000  0.000  0.000  0.500
atom    9   Tr[ns(na)] =   5.00000
    eigenvalues:
  0.500  0.500  0.500  0.500  0.500
    eigenvectors:
  1.000  0.000  0.000  0.000  0.000
  0.000  1.000  0.000  0.000  0.000
  0.000  0.000  1.000  0.000  0.000
  0.000  0.000  0.000  1.000  0.000
  0.000  0.000  0.000  0.000  1.000
    occupations:
  0.500  0.000  0.000  0.000  0.000
  0.000  0.500  0.000  0.000  0.000
  0.000  0.000  0.500  0.000  0.000
  0.000  0.000  0.000  0.500  0.000
  0.000  0.000  0.000  0.000  0.500
atom   10   Tr[ns(na)] =   5.00000
    eigenvalues:
  0.500  0.500  0.500  0.500  0.500
    eigenvectors:
  1.000  0.000  0.000  0.000  0.000
  0.000  1.000  0.000  0.000  0.000
  0.000  0.000  1.000  0.000  0.000
  0.000  0.000  0.000  1.000  0.000
  0.000  0.000  0.000  0.000  1.000
    occupations:
  0.500  0.000  0.000  0.000  0.000
  0.000  0.500  0.000  0.000  0.000
  0.000  0.000  0.500  0.000  0.000
  0.000  0.000  0.000  0.500  0.000
  0.000  0.000  0.000  0.000  0.500
atom   16   Tr[ns(na)] =   5.00000
    eigenvalues:
  0.500  0.500  0.500  0.500  0.500
    eigenvectors:
  1.000  0.000  0.000  0.000  0.000
  0.000  1.000  0.000  0.000  0.000
  0.000  0.000  1.000  0.000  0.000
  0.000  0.000  0.000  1.000  0.000
  0.000  0.000  0.000  0.000  1.000
    occupations:
  0.500  0.000  0.000  0.000  0.000
  0.000  0.500  0.000  0.000  0.000
  0.000  0.000  0.500  0.000  0.000
  0.000  0.000  0.000  0.500  0.000
  0.000  0.000  0.000  0.000  0.500
atom   17   Tr[ns(na)] =   5.00000
    eigenvalues:
  0.500  0.500  0.500  0.500  0.500
    eigenvectors:
  1.000  0.000  0.000  0.000  0.000
  0.000  1.000  0.000  0.000  0.000
  0.000  0.000  1.000  0.000  0.000
  0.000  0.000  0.000  1.000  0.000
  0.000  0.000  0.000  0.000  1.000
    occupations:
  0.500  0.000  0.000  0.000  0.000
  0.000  0.500  0.000  0.000  0.000
  0.000  0.000  0.500  0.000  0.000
  0.000  0.000  0.000  0.500  0.000
  0.000  0.000  0.000  0.000  0.500
atom   22   Tr[ns(na)] =   5.00000
    eigenvalues:
  0.500  0.500  0.500  0.500  0.500
    eigenvectors:
  1.000  0.000  0.000  0.000  0.000
  0.000  1.000  0.000  0.000  0.000
  0.000  0.000  1.000  0.000  0.000
  0.000  0.000  0.000  1.000  0.000
  0.000  0.000  0.000  0.000  1.000
[...]
  0.000  0.000  0.750  0.031  0.219
  0.872  0.128  0.000  0.000  0.000
    occupations:
  0.688 -0.001 -0.001 -0.051 -0.001
 -0.001  0.597 -0.000 -0.001 -0.000
 -0.001 -0.000  0.521  0.000  0.013
 -0.051 -0.001  0.000  0.619  0.000
 -0.001 -0.000  0.013  0.000  0.493
atom   10   Tr[ns(na)] =   5.79180
    eigenvalues:
  0.474  0.494  0.517  0.675  0.736
    eigenvectors:
  0.019  0.981  0.000  0.000  0.000
  0.000  0.000  0.000  1.000  0.000
  0.981  0.019  0.000  0.000  0.000
  0.000  0.000  0.000  0.000  1.000
  0.000  0.000  1.000  0.000  0.000
    occupations:
  0.494 -0.002 -0.003 -0.001 -0.000
 -0.002  0.675 -0.002  0.000  0.000
 -0.003 -0.002  0.474 -0.000 -0.000
 -0.001  0.000 -0.000  0.736 -0.000
 -0.000  0.000 -0.000 -0.000  0.517
atom   16   Tr[ns(na)] =   5.83332
    eigenvalues:
  0.465  0.505  0.566  0.623  0.758
    eigenvectors:
  0.012  0.000  0.321  0.000  0.667
  0.001  0.998  0.000  0.001  0.000
  0.970  0.000  0.003  0.018  0.010
  0.000  0.000  0.676  0.000  0.324
  0.018  0.002  0.000  0.980  0.000
    occupations:
  0.693  0.002  0.026 -0.089  0.001
  0.002  0.505  0.002  0.000 -0.004
  0.026  0.002  0.471 -0.012 -0.021
 -0.089  0.000 -0.012  0.628  0.000
  0.001 -0.004 -0.021  0.000  0.620
atom   17   Tr[ns(na)] =   5.83543
    eigenvalues:
  0.433  0.521  0.586  0.626  0.752
    eigenvectors:
  0.000  0.000  0.989  0.010  0.001
  0.000  0.000  0.010  0.989  0.000
  0.999  0.000  0.000  0.000  0.000
  0.000  0.000  0.000  0.000  0.999
  0.000  1.000  0.000  0.000  0.000
    occupations:
  0.586  0.004  0.001 -0.004  0.000
  0.004  0.626  0.004 -0.002 -0.001
  0.001  0.004  0.433 -0.002  0.000
 -0.004 -0.002 -0.002  0.751  0.000
  0.000 -0.001  0.000  0.000  0.521
atom   22   Tr[ns(na)] =   5.83653
    eigenvalues:
  0.481  0.527  0.591  0.595  0.724
    eigenvectors:
  0.000  0.000  0.184  0.041  0.774
  0.000  0.000  0.185  0.815  0.000
  0.110  0.890  0.000  0.000  0.000
  0.000  0.000  0.631  0.143  0.226
  0.889  0.110  0.000  0.000  0.000
    occupations:
  0.694  0.001 -0.000 -0.055 -0.002
  0.001  0.594 -0.000  0.001 -0.000
 -0.000 -0.000  0.522 -0.000 -0.015
 -0.055  0.001 -0.000  0.622  0.001
 -0.002 -0.000 -0.015  0.001  0.486
atom   23   Tr[ns(na)] =   5.85209
    eigenvalues:
  0.492  0.527  0.537  0.593  0.777
    eigenvectors:
  0.000  0.000  0.032  0.960  0.008
  0.000  0.003  0.965  0.032  0.000
  0.999  0.001  0.000  0.000  0.000
  0.000  0.000  0.000  0.008  0.992
  0.001  0.996  0.003  0.000  0.000
    occupations:
  0.592  0.010  0.000 -0.017  0.000
  0.010  0.539  0.000  0.001  0.001
  0.000  0.000  0.492 -0.001 -0.001
 -0.017  0.001 -0.001  0.775 -0.000
  0.000  0.001 -0.001 -0.000  0.527
N of occupied +U levels =  46.6484522
 --- exit write_ns ---

     Threshold (ethr) on eigenvalues was too large:
     Diagonalizing with lowered threshold

     Davidson diagonalization with overlap
     ethr =  5.30E-09,  avg # of iterations =  2.9

[...]

     total energy              =   -1731.27376063 Ry
     Harris-Foulkes estimate   =   -1731.27376064 Ry
     estimated scf accuracy    <       0.00000002 Ry

     iteration # 16     ecut=    40.00 Ry     beta=0.70
     Davidson diagonalization with overlap
     ethr =  6.47E-12,  avg # of iterations =  1.0

     negative rho (up, down):  0.341E-02 0.000E+00

     End of self-consistent calculation
 --- enter write_ns ---
 LDA+U parameters:
U( 2)     =  3.50000000
alpha( 2) =  0.00000000
atom    3   Tr[ns(na)] =   5.83508
    eigenvalues:
  0.467  0.506  0.566  0.626  0.752
    eigenvectors:
  0.012  0.001  0.317  0.000  0.670
  0.000  0.998  0.001  0.001  0.000
  0.970  0.000  0.003  0.017  0.009
  0.000  0.000  0.679  0.000  0.320
  0.017  0.001  0.000  0.981  0.000
    occupations:
  0.690 -0.003  0.025 -0.086 -0.000
 -0.003  0.506 -0.002  0.000 -0.004
  0.025 -0.002  0.473 -0.011  0.021
 -0.086  0.000 -0.011  0.625 -0.000
 -0.000 -0.004  0.021 -0.000  0.623
atom    4   Tr[ns(na)] =   5.82699
    eigenvalues:
  0.422  0.521  0.583  0.638  0.749
    eigenvectors:
  0.000  0.000  0.993  0.007  0.000
  0.000  0.000  0.007  0.992  0.000
  1.000  0.000  0.000  0.000  0.000
  0.000  0.000  0.000  0.000  1.000
  0.000  1.000  0.000  0.000  0.000
    occupations:
  0.583  0.005  0.001 -0.002  0.000
  0.005  0.638  0.003 -0.002 -0.000
  0.001  0.003  0.422 -0.000  0.000
 -0.002 -0.002 -0.000  0.749  0.000
  0.000 -0.000  0.000  0.000  0.521
atom    9   Tr[ns(na)] =   5.83743
    eigenvalues:
  0.488  0.526  0.592  0.598  0.715
    eigenvectors:
  0.000  0.000  0.211  0.008  0.781
  0.000  0.000  0.039  0.961  0.000
  0.128  0.872  0.000  0.000  0.000
  0.000  0.000  0.750  0.031  0.219
  0.872  0.128  0.000  0.000  0.000
    occupations:
  0.688 -0.001 -0.001 -0.051 -0.001
 -0.001  0.597 -0.000 -0.001 -0.000
 -0.001 -0.000  0.521  0.000  0.013
 -0.051 -0.001  0.000  0.619  0.000
 -0.001 -0.000  0.013  0.000  0.493
atom   10   Tr[ns(na)] =   5.79144
    eigenvalues:
  0.474  0.494  0.517  0.675  0.735
    eigenvectors:
  0.019  0.981  0.000  0.000  0.000
  0.000  0.000  0.000  1.000  0.000
  0.981  0.019  0.000  0.000  0.000
  0.000  0.000  0.000  0.000  1.000
  0.000  0.000  1.000  0.000  0.000
    occupations:
  0.493 -0.002 -0.003 -0.001 -0.000
 -0.002  0.675 -0.002  0.000  0.000
 -0.003 -0.002  0.474 -0.000 -0.000
 -0.001  0.000 -0.000  0.735 -0.000
 -0.000  0.000 -0.000 -0.000  0.517
atom   16   Tr[ns(na)] =   5.83347
    eigenvalues:
  0.465  0.505  0.566  0.623  0.758
    eigenvectors:
  0.012  0.000  0.321  0.000  0.667
  0.001  0.998  0.000  0.001  0.000
  0.970  0.000  0.003  0.018  0.010
  0.000  0.000  0.676  0.000  0.324
  0.018  0.002  0.000  0.981  0.000
    occupations:
  0.693  0.002  0.026 -0.089  0.001
  0.002  0.505  0.002  0.000 -0.004
  0.026  0.002  0.471 -0.012 -0.021
 -0.089  0.000 -0.012  0.628  0.000
  0.001 -0.004 -0.021  0.000  0.620
atom   17   Tr[ns(na)] =   5.83505
    eigenvalues:
  0.433  0.521  0.586  0.626  0.752
    eigenvectors:
  0.000  0.000  0.989  0.011  0.001
  0.000  0.000  0.011  0.989  0.000
  0.999  0.000  0.000  0.000  0.000
  0.000  0.000  0.000  0.000  0.999
  0.000  1.000  0.000  0.000  0.000
    occupations:
  0.586  0.004  0.001 -0.004  0.000
  0.004  0.625  0.004 -0.002 -0.001
  0.001  0.004  0.433 -0.002  0.000
 -0.004 -0.002 -0.002  0.751  0.000
  0.000 -0.001  0.000  0.000  0.521
atom   22   Tr[ns(na)] =   5.83516
    eigenvalues:
  0.480  0.527  0.591  0.595  0.724
    eigenvectors:
  0.000  0.000  0.184  0.042  0.774
  0.000  0.000  0.188  0.812  0.000
  0.110  0.890  0.000  0.000  0.000
  0.000  0.000  0.628  0.146  0.226
  0.890  0.110  0.000  0.000  0.000
    occupations:
  0.694  0.001 -0.000 -0.055 -0.002
  0.001  0.594 -0.000  0.001 -0.000
 -0.000 -0.000  0.522 -0.000 -0.015
 -0.055  0.001 -0.000  0.622  0.001
 -0.002 -0.000 -0.015  0.001  0.486
atom   23   Tr[ns(na)] =   5.85354
    eigenvalues:
  0.492  0.527  0.538  0.593  0.777
    eigenvectors:
  0.000  0.000  0.032  0.960  0.008
  0.000  0.003  0.965  0.032  0.000
  0.999  0.001  0.000  0.000  0.000
  0.000  0.000  0.000  0.008  0.992
  0.001  0.996  0.003  0.000  0.000
    occupations:
  0.592  0.010  0.000 -0.017  0.000
  0.010  0.539  0.000  0.001  0.001
  0.000  0.000  0.492 -0.001 -0.001
 -0.017  0.001 -0.001  0.776 -0.000
  0.000  0.001 -0.001 -0.000  0.527
N of occupied +U levels =  46.6481689
 --- exit write_ns ---

[...]

          k = 0.2500-0.3900 0.0000 ( 29726 PWs)   bands (ev):

[...]

          k =-0.2500 0.1950 0.0000 ( 29746 PWs)   bands (ev):

   -62.2712 -62.2435 -62.1509 -61.9497 -61.9337 -61.9331 -61.8679 -61.8511
   -36.8184 -36.6947 -36.6456 -36.5717 -36.4826 -36.4368 -36.2780 -36.2635
   -36.2599 -36.2581 -36.2480 -36.1780 -36.1671 -36.1290 -36.1083 -36.0784
   -36.0357 -36.0232 -35.9716 -35.9482 -35.9460 -35.6654 -35.5222 -35.5096
   -20.5347 -20.2739 -19.7220 -19.6326 -19.5325 -19.4693 -19.3272 -19.2576
   -19.1590 -19.1144 -18.8726 -18.7677 -18.7368 -18.6698 -18.6396 -18.5435
   -18.4244 -18.0579 -17.8966  -8.6458  -8.4213  -8.0929  -8.0759  -7.7208
    -7.5887  -7.5278  -7.4140  -7.2531  -7.2090  -7.1380  -7.0120  -6.8547
    -6.6751  -6.6355  -6.3204  -6.2469  -6.1734  -6.0982  -5.9343  -5.8267
    -5.6846  -5.6419  -5.5239  -5.4361  -5.2095  -5.1646  -5.0467  -4.9204
    -4.8148  -4.6453  -4.5924  -4.4200  -4.3667  -4.3118  -4.2483  -4.2015
    -4.1707  -4.1034  -4.0270  -3.9412  -3.8160  -3.7289  -3.6292  -3.4991
    -3.4156  -3.3183  -3.2649  -3.1653  -3.1097  -3.0331  -2.9708  -2.8341
    -2.6905  -2.6353  -2.5789  -2.3101  -1.7716  -1.6254  -1.4978  -0.5452
    -0.4136  -0.3869  -0.2022   0.3912   0.4823   0.7816   0.8823   0.9877
     1.0604   1.2909   1.3101   1.5244   1.6933   1.7190   1.7369   1.9096
     1.9247   1.9902   2.0265   2.4067   2.6528   3.4960   3.7061   3.8016
     3.9330   4.0605   4.1547   4.2708   4.5372   4.6537   4.7325   4.8518
     4.9150   5.0488   5.1073   5.3575   5.7021   5.8947   5.9617   6.0795
     6.2069   6.2920   6.4434   6.4995   6.6101   6.8195   7.1243   7.1694
     7.2779   7.3579   7.6183   7.7034   8.0068   8.1167   8.2962   8.3697
     8.5324   8.6353   8.7494   8.8764   8.9694   9.0763   9.1711   9.3021
     9.4262   9.4990   9.5800   9.6479   9.7238   9.7822   9.8506   9.9792
    10.1009  10.3488  10.3819  10.4619  10.5207  10.6984  10.7553  10.8507
    10.9225  11.0375  11.1471  11.2107  11.3971  11.5167  11.6295  11.6645
    11.7957  11.8922  11.9177  12.0409  12.0830  12.2106  12.2997  12.3564
    12.4149  12.4431  12.5126  12.6509  12.7660  12.8481  12.9811  13.0438
    13.0970  13.1923  13.2495  13.3403  13.3762  13.4752  13.5124  13.5703
    13.6467  13.7363  13.8255  13.8782  13.9492  14.0270  14.0454  14.1190
    14.1842  14.2242  14.2876  14.3511  14.3970  14.5022  14.5367  14.6340
    14.6958  14.7624  14.8599  14.9441  15.0219  15.1224  15.1393  15.2506
    15.3493  15.4429  15.5299  15.5927  15.6195  15.7418  15.7959  15.9621
    15.9806  16.0316  16.0929  16.1428  16.2378  16.3308  16.4018  16.4349
    16.4692  16.4951  16.5723  16.6602  16.7803  16.8210  16.8513  16.9855
    17.0734  17.1394  17.2085  17.2511  17.2788  17.3397  17.4196  17.4893
    17.5367  17.6044  17.7014  17.8262  17.8978  17.9857  18.0614  18.1293
    18.2200  18.2628  18.3153  18.3313  18.4329  18.5607  18.5967  18.7184
    18.7772  18.8542  18.9622  18.9863  19.0580  19.1397  19.2294  19.2739
    19.3757  19.4352  19.5425  19.6056  19.8098  19.8279  19.9278  19.9741
    19.9909  20.0915  20.1343  20.1752  20.2555  20.2799  20.3511  20.3610
    20.3935  20.4797  20.5261  20.6130  20.6525  20.7426  20.7912  20.8246
    20.9096  21.0168  21.0421  21.1446  21.2358  21.2781  21.3316  21.3765
    21.4380  21.4951  21.5360  21.6079  21.6415  21.7236  21.7577  21.7918
    21.8372  21.8833

     the Fermi energy is     0.2238 ev

!    total energy              =   -1731.27376063 Ry
     Harris-Foulkes estimate   =   -1731.27376064 Ry
     estimated scf accuracy    <          3.7E-09 Ry

     The total energy is the sum of the following terms:

     one-electron contribution =  -22265.55116483 Ry
     hartree contribution      =   11158.55719527 Ry
     xc contribution           =    -294.56491394 Ry
     ewald contribution        =    9667.88448798 Ry
     Hubbard energy            =       2.40097310 Ry
     smearing contrib. (-TS)   =      -0.00033820 Ry

     convergence has been achieved in  16 iterations

     Forces acting on atoms (Ry/au):

     negative rho (up, down):  0.341E-02 0.000E+00
     atom    1 type  1   force =    -0.00105160   -0.00497819    0.00025069
     atom    2 type  1   force =    -0.00012187    0.00661701   -0.00043356
     atom    3 type  2   force =     0.01115277   -0.00544561    0.00004229
     atom    4 type  2   force =     0.00183241    0.00439261    0.00048266
     atom    5 type  1   force =     0.00102320   -0.01255169   -0.00022666
     atom    6 type  1   force =    -0.00046520    0.00959149   -0.00025029
     atom    7 type  1   force =     0.00018866    0.00110775    0.00016726
     atom    8 type  1   force =     0.00330812    0.00018660   -0.00023912
     atom    9 type  2   force =     0.00114744    0.00067047   -0.00032643
     atom   10 type  2   force =    -0.00609750    0.00088132    0.00029290
     atom   11 type  1   force =    -0.01570406   -0.01614932    0.00020370
     atom   12 type  1   force =    -0.01573115    0.01440518    0.00032488
     atom   13 type  1   force =     0.00132494    0.00018338    0.00013320
     atom   14 type  1   force =    -0.00213744   -0.00585957    0.00024591
     atom   15 type  1   force =    -0.00054108    0.00969146   -0.00009458
     atom   16 type  2   force =    -0.00630914   -0.00738558    0.00007457
     atom   17 type  2   force =    -0.00294630    0.00422040    0.00034220
     atom   18 type  1   force =     0.00157190   -0.01288042   -0.00025301
     atom   19 type  1   force =     0.00023065    0.01075431   -0.00013560
     atom   20 type  1   force =    -0.00828596    0.00052161   -0.00054974
     atom   21 type  1   force =     0.00340823    0.00097025    0.00011250
     atom   22 type  2   force =    -0.00544084   -0.00025439    0.00005796
     atom   23 type  2   force =     0.00935190    0.00255200    0.00033759
     atom   24 type  1   force =     0.01538296   -0.01393355    0.00009590
     atom   25 type  1   force =     0.01616499    0.01287557    0.00000765
     atom   26 type  1   force =    -0.00115408    0.00026309   -0.00060072
     atom   27 type  3   force =    -0.00000060    0.00021255   -0.00000687
     atom   28 type  3   force =    -0.00001383    0.00009197   -0.00002930
     atom   29 type  3   force =    -0.00007115   -0.00005990   -0.00006477
     atom   30 type  3   force =    -0.00020706   -0.00007013   -0.00027489
     atom   31 type  1   force =     0.00032058    0.00007420   -0.00021769
     atom   32 type  3   force =    -0.00012988   -0.00069486    0.00053136

     Total force =     0.001802     Total SCF correction =     0.000257
     SCF correction compared to forces is large: reduce conv_thr to get better values

     bfgs converged in  13 scf cycles and  12 bfgs steps
     (criteria: energy < 0.10E-03, force < 0.10E-02)

     End of BFGS Geometry Optimization

     Final energy   =   -1731.2737606319 Ry
Begin final coordinates

ATOMIC_POSITIONS (crystal)
O0       0.000000000   0.000000000   0.371226629    0   0   1
O0       0.000000000   0.500000000   0.383368680    0   0   1
Mo1      0.250000000   0.500000000   0.440818445    0   0   1
Mo1      0.000000000   0.000000000   0.443307971    0   0   1
O0       0.250000000   0.780000000   0.443357188    0   0   1
O0       0.250000000   0.220000000   0.443305858    0   0   1
O0       0.000000000   0.500000000   0.498106807    0   0   1
O0       0.000000000   0.000000000   0.516547675    0   0   1
Mo1      0.250000000   0.000000000   0.575345172    0   0   1
Mo1      0.000000000   0.500000000   0.565634908    0   0   1
O0       0.250000000   0.720000000   0.570954480    0   0   1
O0       0.250000000   0.280000000   0.571152489    0   0   1
O0       0.000000000   0.000000000   0.625547104    0   0   1
O0       0.500000000   0.000000000   0.371515780    0   0   1
O0       0.500000000   0.500000000   0.382846588    0   0   1
Mo1      0.750000000   0.500000000   0.440622013    0   0   1
Mo1      0.500000000   0.000000000   0.443875091    0   0   1
O0       0.750000000   0.780000000   0.443455291    0   0   1
O0       0.750000000   0.220000000   0.443192759    0   0   1
O0       0.500000000   0.500000000   0.499221178    0   0   1
O0       0.500000000   0.000000000   0.516154657    0   0   1
Mo1      0.750000000   0.000000000   0.574756950    0   0   1
Mo1      0.500000000   0.500000000   0.571037683    0   0   1
O0       0.750000000   0.720000000   0.570914833    0   0   1
O0       0.750000000   0.280000000   0.570896691    0   0   1
O0       0.500000000   0.000000000   0.625522827    0   0   1
H2      -0.000915250   0.608969078   0.360398323
H2       0.499487448   0.616000243   0.362230776
H2       0.166974893   0.017098201   0.356751786
H2       0.665587383   0.018741292   0.356688318
O0       0.509127417   0.500385487   0.641639045
H2       0.392232343   0.493460487   0.668956009
End final coordinates

     General routines

     Parallel routines
     Hubbard U routines

   This run was terminated on:  11:53:56  29Apr2014

   JOB DONE.
Running PBS batch system epilogue script
Job id: 340389.audhumbla.fysik.dtu.dk
Username: zhonxu
Groupname: campgst
Jobname: MoO2/Eads-2-layers/OH-U-3.5
Sessionid: 32449
Queuename: verylong
Accounting:
This job has allocated the following 16 nodes:
c105 c105 c105 c105 c105 c105 c105 c105 c104 c104 c104 c104 c104 c104 c104 c104
Finished epilogue job 340389.audhumbla.fysik.dtu.dk for zhonxu