     Program PWSCF v.5.0.2 (svn rev. 9656) starts on  4May2014 at 20:12:59

     Current dimensions of program PWSCF are:
     Max number of different atomic species (ntypx) = 10
     Max number of k-points (npk) =  40000
     Max angular momentum in pseudopotentials (lmaxx) =  3
     Reading input from pwscf.in
Warning: card &CELL ignored
Warning: card / ignored

     Subspace diagonalization in iterative solution of the eigenvalue problem:
     a serial algorithm will be used

     bravais-lattice index     =            0
     lattice parameter (alat)  =      10.7336  a.u.
     unit-cell volume          =    6184.1966 (a.u.)^3
     number of atoms/cell      =           32
     number of atomic types    =            3
     number of electrons       =       239.00 (up: 131.00, down: 108.00)
     number of Kohn-Sham states=          346
     kinetic-energy cutoff     =      40.0000  Ry
     charge density cutoff     =     500.0000  Ry
     convergence threshold     =      1.0E-06
     mixing beta               =       0.7000
     number of iterations used =            8  plain     mixing
     Exchange-correlation      = SLA  PW   PBE  PBE ( 1 4 3 4 0)
     EXX-fraction              =        0.00
     nstep                     =           50

     celldm(1)=  10.733644  celldm(2)=   0.000000  celldm(3)=   0.000000
     celldm(4)=   0.000000  celldm(5)=   0.000000  celldm(6)=   0.000000

     crystal axes: (cart. coord. in units of alat)
               a(1) = (   1.000000   0.000000   0.000000 )
               a(2) = (   0.000000   1.085558   0.000000 )
               a(3) = (   0.000000   0.000000   4.606685 )

     reciprocal axes: (cart. coord. in units 2 pi/alat)
               b(1) = (  1.000000  0.000000  0.000000 )
               b(2) = (  0.000000  0.921185  0.000000 )
               b(3) = (  0.000000  0.000000  0.217076 )

     PseudoPot. # 1 for O  read from file:
     /home/camp/zhonxu/pseudo/o_pbe_v1.01.uspp.F.UPF
     MD5 check sum: 2bcb18d16ea4b960afae9ec6d52f22d2
     Pseudo is Ultrasoft + core correction, Zval =  6.0
     Generated by new atomic code, or converted to UPF format
     Using radial grid of  737 points,  5 beta functions with:
                l(1) =   0
                l(2) =   0
                l(3) =   1
                l(4) =   1
                l(5) =   2
     Q(r) pseudized with  8 coefficients,  rinner =    0.900   0.900   0.900
                                                       0.900   0.900

     PseudoPot. # 2 for Mn read from file:
     /home/camp/zhonxu/pseudo/mn_pbe_v1.uspp.F.UPF
     MD5 check sum: 5fd7c7b5c956fd19902447332617373a
     Pseudo is Ultrasoft + core correction, Zval = 15.0
     Generated by new atomic code, or converted to UPF format
     Using radial grid of  859 points,  6 beta functions with:
                l(1) =   0
                l(2) =   0
                l(3) =   1
                l(4) =   1
                l(5) =   2
                l(6) =   2
     Q(r) pseudized with  6 coefficients,  rinner =    1.150   1.150   1.150
                                                       1.150   1.150

     PseudoPot. # 3 for H  read from file:
     /home/camp/zhonxu/pseudo/h_pbe_v1.uspp.F.UPF
     MD5 check sum: 3408e3ff4ec8b0a4e358431e7e038a48
     Pseudo is Ultrasoft, Zval =  1.0
     Generated by new atomic code, or converted to UPF format
     Using radial grid of  615 points,  2 beta functions with:
                l(1) =   0
                l(2) =   0
     Q(r) pseudized with  8 coefficients,  rinner =    0.700

     atomic species   valence    mass     pseudopotential
        O0             6.00    15.99940     O ( 1.00)
        Mn1           15.00    54.93800     Mn( 1.00)
        H2             1.00     1.00794     H ( 1.00)

     Starting magnetic structure
     atomic species   magnetization
        O0           0.000
        Mn1          0.600
        H2           0.000

     Simplified LDA+U calculation (l_max = 2) with parameters (eV):
     atomic species    L          U    alpha       J0     beta
        Mn1            2     5.5000   0.0000   0.0000   0.0000

     No symmetry found

   Cartesian axes

     site n.     atom                  positions (alat units)
         1           O0  tau(   1) = (   0.0000000   0.0000000   1.7414191  )
         2           O0  tau(   2) = (   0.0000000   0.5427791   1.8381134  )
         3           Mn1 tau(   3) = (   0.2500000   0.5427791   2.0740217  )
         4           Mn1 tau(   4) = (   0.0000000   0.0000000   2.0686319  )
         5           O0  tau(   5) = (   0.2500000   0.8684466   2.0678488  )
         6           O0  tau(   6) = (   0.2500000   0.2171117   2.0737453  )
         7           O0  tau(   7) = (   0.0000000   0.5427791   2.2873573  )
         8           O0  tau(   8) = (   0.0000000   0.0000000   2.4132120  )
         9           Mn1 tau(   9) = (   0.2500000   0.0000000   2.6399991  )
        10           Mn1 tau(  10) = (   0.0000000   0.5427791   2.6085815  )
        11           O0  tau(  11) = (   0.2500000   0.7598908   2.6551551  )
        12           O0  tau(  12) = (   0.2500000   0.3256675   2.6556157  )
        13           O0  tau(  13) = (   0.0000000   0.0000000   2.8417258  )
        14           O0  tau(  14) = (   0.5000000   0.0000000   1.7428932  )
        15           O0  tau(  15) = (   0.5000000   0.5427791   1.8386662  )
        16           Mn1 tau(  16) = (   0.7500000   0.5427791   2.0740678  )
        17           Mn1 tau(  17) = (   0.5000000   0.0000000   2.0707510  )
        18           O0  tau(  18) = (   0.7500000   0.8684466   2.0677106  )
        19           O0  tau(  19) = (   0.7500000   0.2171117   2.0738835  )
        20           O0  tau(  20) = (   0.5000000   0.5427791   2.2871270  )
        21           O0  tau(  21) = (   0.5000000   0.0000000   2.4132120  )
        22           Mn1 tau(  22) = (   0.7500000   0.0000000   2.6413811  )
        23           Mn1 tau(  23) = (   0.5000000   0.5427791   2.6662572  )
        24           O0  tau(  24) = (   0.7500000   0.7598908   2.6473698  )
        25           O0  tau(  25) = (   0.7500000   0.3256675   2.6477844  )
        26           O0  tau(  26) = (   0.5000000   0.0000000   2.8412191  )
        27           H2  tau(  27) = (   0.0000400   0.7014118   1.7620570  )
        28           H2  tau(  28) = (   0.5000900   0.7016832   1.7629323  )
        29           H2  tau(  29) = (   0.1613600   0.0398291   1.6869220  )
        30           H2  tau(  30) = (   0.6610200   0.0399703   1.6876591  )
        31           O0  tau(  31) = (   0.5153900   0.5432351   2.9826904  )
        32           H2  tau(  32) = (   0.3575300   0.5430397   3.0540479  )

     number of k points=    20  Methfessel-Paxton smearing, width (Ry)=  0.0100
                       cart. coord. in units 2pi/alat
        k(    1) = (   0.0000000   0.0000000   0.0000000), wk =   0.0625000
        k(    2) = (   0.0000000   0.2302962   0.0000000), wk =   0.1250000
        k(    3) = (   0.0000000  -0.4605925   0.0000000), wk =   0.0625000
        k(    4) = (   0.2500000   0.0000000   0.0000000), wk =   0.1250000
        k(    5) = (   0.2500000   0.2302962   0.0000000), wk =   0.1250000
        k(    6) = (   0.2500000  -0.4605925   0.0000000), wk =   0.1250000
        k(    7) = (  -0.5000000   0.0000000   0.0000000), wk =   0.0625000
        k(    8) = (  -0.5000000   0.2302962   0.0000000), wk =   0.1250000
        k(    9) = (  -0.5000000  -0.4605925   0.0000000), wk =   0.0625000
        k(   10) = (  -0.2500000   0.2302962   0.0000000), wk =   0.1250000
        k(   11) = (   0.0000000   0.0000000   0.0000000), wk =   0.0625000
        k(   12) = (   0.0000000   0.2302962   0.0000000), wk =   0.1250000
        k(   13) = (   0.0000000  -0.4605925   0.0000000), wk =   0.0625000
        k(   14) = (   0.2500000   0.0000000   0.0000000), wk =   0.1250000
        k(   15) = (   0.2500000   0.2302962   0.0000000), wk =   0.1250000
        k(   16) = (   0.2500000  -0.4605925   0.0000000), wk =   0.1250000
        k(   17) = (  -0.5000000   0.0000000   0.0000000), wk =   0.0625000
        k(   18) = (  -0.5000000   0.2302962   0.0000000), wk =   0.1250000
        k(   19) = (  -0.5000000  -0.4605925   0.0000000), wk =   0.0625000
        k(   20) = (  -0.2500000   0.2302962   0.0000000), wk =   0.1250000

     Largest allocated arrays     est. size (Mb)     dimensions
     Largest temporary arrays     est. size (Mb)     dimensions

     Check: negative/imaginary core charge=   -0.000022    0.000000

     Initial potential from superposition of free atoms
     Check: negative starting charge=(component1):   -0.000716
     Check: negative starting charge=(component2):   -0.000389

     starting charge  230.99986, renormalised to  239.00000

     negative rho (up, down):  0.741E-03 0.403E-03
     Number of +U iterations with fixed ns =  0
     Starting occupations:
 --- enter write_ns ---
 LDA+U parameters:
U( 2)     =  5.50000000
alpha( 2) =  0.00000000
atom    3   Tr[ns(na)] (up, down, total) =   5.00000  0.00000  5.00000
   spin  1
    eigenvalues:
  1.000  1.000  1.000  1.000  1.000
    eigenvectors:
  1.000  0.000  0.000  0.000  0.000
  0.000  1.000  0.000  0.000  0.000
  0.000  0.000  1.000  0.000  0.000
  0.000  0.000  0.000  1.000  0.000
  0.000  0.000  0.000  0.000  1.000
    occupations:
  1.000  0.000  0.000  0.000  0.000
  0.000  1.000  0.000  0.000  0.000
  0.000  0.000  1.000  0.000  0.000
  0.000  0.000  0.000  1.000  0.000
  0.000  0.000  0.000  0.000  1.000
   spin  2
    eigenvalues:
  0.000  0.000  0.000  0.000  0.000
    eigenvectors:
  1.000  0.000  0.000  0.000  0.000
  0.000  1.000  0.000  0.000  0.000
  0.000  0.000  1.000  0.000  0.000
  0.000  0.000  0.000  1.000  0.000
  0.000  0.000  0.000  0.000  1.000
    occupations:
  0.000  0.000  0.000  0.000  0.000
  0.000  0.000  0.000  0.000  0.000
  0.000  0.000  0.000  0.000  0.000
  0.000  0.000  0.000  0.000  0.000
  0.000  0.000  0.000  0.000  0.000
atomic mag. moment =     5.000000
atom    4   Tr[ns(na)] (up, down, total) =   5.00000  0.00000  5.00000
   spin  1
    eigenvalues:
  1.000  1.000  1.000  1.000  1.000
    eigenvectors:
  1.000  0.000  0.000  0.000  0.000
  0.000  1.000  0.000  0.000  0.000
  0.000  0.000  1.000  0.000  0.000
  0.000  0.000  0.000  1.000  0.000
  0.000  0.000  0.000  0.000  1.000
    occupations:
  1.000  0.000  0.000  0.000  0.000
  0.000  1.000  0.000  0.000  0.000
  0.000  0.000  1.000  0.000  0.000
  0.000  0.000  0.000  1.000  0.000
  0.000  0.000  0.000  0.000  1.000
   spin  2
    eigenvalues:
  0.000  0.000  0.000  0.000  0.000
    eigenvectors:
  1.000  0.000  0.000  0.000  0.000
  0.000  1.000  0.000  0.000  0.000
  0.000  0.000  1.000  0.000  0.000
  0.000  0.000  0.000  1.000  0.000
  0.000  0.000  0.000  0.000  1.000
    occupations:
  0.000  0.000  0.000  0.000  0.000
  0.000  0.000  0.000  0.000  0.000
  0.000  0.000  0.000  0.000  0.000
  0.000  0.000  0.000  0.000  0.000
  0.000  0.000  0.000  0.000  0.000
atomic mag. moment =     5.000000
atom    9   Tr[ns(na)] (up, down, total) =   5.00000  0.00000  5.00000
   spin  1
    eigenvalues:
  1.000  1.000  1.000  1.000  1.000
[...]
atomic mag. moment =     3.436716
atom    4   Tr[ns(na)] (up, down, total) =   4.40925  0.95819  5.36743
   spin  1
    eigenvalues:
  0.671  0.733  0.997  1.004  1.005
    eigenvectors:
  0.000  0.998  0.001  0.001  0.000
  0.000  0.001  0.000  0.911  0.088
  0.000  0.001  0.000  0.088  0.912
  0.000  0.001  0.999  0.000  0.000
  1.000  0.000  0.000  0.000  0.000
    occupations:
  0.734 -0.009 -0.006  0.007 -0.001
 -0.009  1.003 -0.000  0.000  0.001
 -0.006 -0.000  1.004  0.000  0.000
  0.007  0.000  0.000  0.996  0.000
 -0.001  0.001  0.000  0.000  0.671
   spin  2
    eigenvalues:
  0.080  0.098  0.108  0.321  0.352
    eigenvectors:
  0.005  0.002  0.000  0.993  0.000
  0.002  0.699  0.296  0.002  0.001
  0.003  0.292  0.703  0.001  0.000
  0.990  0.006  0.000  0.004  0.000
  0.000  0.001  0.000  0.000  0.999
    occupations:
  0.319  0.010  0.006 -0.015  0.000
  0.010  0.102 -0.004  0.000 -0.007
  0.006 -0.004  0.105  0.001 -0.000
 -0.015  0.000  0.001  0.081 -0.000
  0.000 -0.007 -0.000 -0.000  0.352
atomic mag. moment =     3.451062
atom    9   Tr[ns(na)] (up, down, total) =   4.39177  1.00614  5.39791
   spin  1
    eigenvalues:
  0.699  0.716  0.981  0.995  1.000
    eigenvectors:
  0.228  0.000  0.000  0.000  0.772
  0.000  1.000  0.000  0.000  0.000
  0.000  0.000  0.001  0.999  0.000
  0.772  0.000  0.000  0.000  0.228
  0.000  0.000  0.999  0.001  0.000
    occupations:
  0.931  0.001 -0.000 -0.126  0.000
  0.001  0.716  0.000 -0.001  0.000
 -0.000  0.000  0.995 -0.000  0.000
 -0.126 -0.001 -0.000  0.768  0.000
  0.000  0.000  0.000  0.000  0.981
   spin  2
    eigenvalues:
  0.090  0.105  0.110  0.344  0.357
    eigenvectors:
  0.809  0.000  0.000  0.186  0.005
  0.000  0.000  0.000  0.030  0.970
  0.000  0.000  1.000  0.000  0.000
  0.191  0.000  0.000  0.784  0.025
  0.000  1.000  0.000  0.000  0.000
    occupations:
  0.138 -0.000  0.000  0.100 -0.000
 -0.000  0.357 -0.000  0.003 -0.000
  0.000 -0.000  0.110  0.001  0.000
  0.100  0.003  0.001  0.296 -0.000
 -0.000 -0.000  0.000 -0.000  0.105
atomic mag. moment =     3.385626
atom   10   Tr[ns(na)] (up, down, total) =   4.62286  0.67886  5.30172
   spin  1
    eigenvalues:
  0.672  0.955  0.997  0.999  1.000
    eigenvectors:
  0.000  0.964  0.036  0.000  0.000
  0.000  0.001  0.018  0.981  0.000
  0.000  0.000  0.000  0.000  0.999
  0.000  0.035  0.946  0.019  0.000
  1.000  0.000  0.000  0.000  0.000
    occupations:
  0.957 -0.001  0.000  0.008  0.000
 -0.001  0.999  0.000  0.001 -0.001
  0.000  0.000  1.000 -0.000  0.007
  0.008  0.001 -0.000  0.995 -0.000
  0.000 -0.001  0.007 -0.000  0.672
   spin  2
    eigenvalues:
  0.067  0.076  0.083  0.149  0.303
    eigenvectors:
  0.029  0.000  0.000  0.971  0.000
  0.000  0.000  0.999  0.000  0.000
  0.000  0.999  0.000  0.000  0.000
  0.971  0.000  0.000  0.029  0.000
  0.000  0.000  0.000  0.000  1.000
    occupations:
  0.147  0.001 -0.000 -0.014  0.000
  0.001  0.083  0.000 -0.000  0.001
 -0.000  0.000  0.077 -0.000 -0.004
 -0.014 -0.000 -0.000  0.069 -0.000
  0.000  0.001 -0.004 -0.000  0.303
atomic mag. moment =     3.944002
atom   16   Tr[ns(na)] (up, down, total) =   4.40652  0.96893  5.37544
   spin  1
    eigenvalues:
  0.689  0.716  0.999  1.000  1.003
    eigenvectors:
  0.243  0.005  0.000  0.663  0.088
  0.048  0.949  0.001  0.002  0.000
  0.000  0.000  0.000  0.113  0.886
  0.709  0.045  0.000  0.221  0.025
  0.000  0.001  0.999  0.000  0.000
    occupations:
  0.923 -0.014 -0.003 -0.134 -0.000
 -0.014  0.715 -0.001  0.001 -0.008
 -0.003 -0.001  1.003 -0.003 -0.000
 -0.134  0.001 -0.003  0.767 -0.000
 -0.000 -0.008 -0.000 -0.000  0.999
   spin  2
    eigenvalues:
  0.079  0.100  0.114  0.328  0.349
    eigenvectors:
  0.777  0.000  0.003  0.014  0.206
  0.000  0.002  0.000  0.953  0.045
  0.004  0.018  0.978  0.000  0.000
  0.219  0.000  0.001  0.032  0.748
  0.000  0.980  0.018  0.002  0.000
    occupations:
  0.138  0.003 -0.002  0.111  0.000
  0.003  0.328  0.000 -0.006  0.009
 -0.002  0.000  0.113 -0.000 -0.002
  0.111 -0.006 -0.000  0.289 -0.001
  0.000  0.009 -0.002 -0.001  0.100
atomic mag. moment =     3.437589
atom   17   Tr[ns(na)] (up, down, total) =   4.40911  0.95776  5.36687
   spin  1
    eigenvalues:
  0.673  0.732  0.997  1.004  1.004
    eigenvectors:
  0.000  0.998  0.001  0.001  0.000
  0.000  0.001  0.000  0.795  0.204
  0.000  0.001  0.000  0.204  0.796
  0.000  0.001  0.999  0.000  0.000
  1.000  0.000  0.000  0.000  0.000
    occupations:
  0.732 -0.009 -0.006  0.006 -0.001
 -0.009  1.004 -0.000  0.000  0.001
 -0.006 -0.000  1.004  0.000 -0.000
  0.006  0.000  0.000  0.996  0.000
 -0.001  0.001 -0.000  0.000  0.673
   spin  2
    eigenvalues:
  0.080  0.098  0.107  0.320  0.353
    eigenvectors:
  0.005  0.002  0.000  0.993  0.000
  0.002  0.678  0.317  0.002  0.001
  0.003  0.314  0.682  0.001  0.000
  0.990  0.006  0.000  0.004  0.000
  0.000  0.000  0.000  0.000  0.999
    occupations:
  0.318  0.009  0.006 -0.015  0.000
  0.009  0.102 -0.004  0.000 -0.007
  0.006 -0.004  0.105  0.001  0.000
 -0.015  0.000  0.001  0.081 -0.000
  0.000 -0.007  0.000 -0.000  0.352
atomic mag. moment =     3.451351
atom   22   Tr[ns(na)] (up, down, total) =   4.38570  1.01422  5.39992
   spin  1
    eigenvalues:
  0.696  0.715  0.980  0.996  1.000
    eigenvectors:
  0.232  0.001  0.000  0.000  0.768
  0.002  0.998  0.000  0.000  0.000
  0.000  0.000  0.016  0.984  0.000
  0.766  0.001  0.000  0.000  0.232
  0.000  0.000  0.984  0.016  0.000
    occupations:
  0.929 -0.001 -0.000 -0.128 -0.000
 -0.001  0.715 -0.000  0.001  0.000
 -0.000 -0.000  0.996 -0.000 -0.002
 -0.128  0.001 -0.000  0.767 -0.000
 -0.000  0.000 -0.002 -0.000  0.980
   spin  2
    eigenvalues:
  0.089  0.106  0.112  0.350  0.357
    eigenvectors:
  0.805  0.000  0.000  0.177  0.018
  0.000  0.000  0.000  0.098  0.902
  0.000  0.003  0.997  0.000  0.000
  0.195  0.000  0.000  0.725  0.080
  0.000  0.997  0.003  0.000  0.000
    occupations:
  0.140  0.000  0.000  0.104 -0.000
  0.000  0.357 -0.000 -0.002 -0.000
  0.000 -0.000  0.112  0.001 -0.000
  0.104 -0.002  0.001  0.300  0.000
 -0.000 -0.000 -0.000  0.000  0.106
atomic mag. moment =     3.371484
atom   23   Tr[ns(na)] (up, down, total) =   4.44240  0.90668  5.34908
   spin  1
    eigenvalues:
  0.683  0.758  0.998  1.002  1.002
    eigenvectors:
  0.000  0.999  0.001  0.000  0.000
  0.000  0.000  0.017  0.021  0.962
  0.000  0.000  0.000  0.979  0.021
  0.000  0.000  0.982  0.000  0.017
  1.000  0.000  0.000  0.000  0.000
    occupations:
  0.758  0.003  0.002  0.005  0.000
  0.003  1.002 -0.000 -0.001 -0.001
  0.002 -0.000  1.002 -0.000 -0.006
  0.005 -0.001 -0.000  0.998  0.000
  0.000 -0.001 -0.006  0.000  0.683
   spin  2
    eigenvalues:
  0.081  0.092  0.093  0.288  0.353
    eigenvectors:
  0.005  0.000  0.000  0.995  0.000
  0.000  0.913  0.086  0.000  0.000
  0.000  0.086  0.913  0.000  0.000
  0.995  0.000  0.000  0.005  0.000
  0.000  0.000  0.000  0.000  1.000
    occupations:
  0.287 -0.002 -0.001 -0.015  0.000
 -0.002  0.092 -0.000  0.000  0.001
 -0.001 -0.000  0.093  0.000  0.005
 -0.015  0.000  0.000  0.082  0.000
  0.000  0.001  0.005  0.000  0.353
atomic mag. moment =     3.535716
N of occupied +U levels =  42.9344337
 --- exit write_ns ---

 ------ SPIN UP ------------

[...]

 ------ SPIN DOWN ----------

[...]

          k = 0.2500-0.4606 0.0000 ( 26462 PWs)   bands (ev):

[...]

          k =-0.2500 0.2303 0.0000 ( 26396 PWs)   bands (ev):

   -80.2090 -80.2011 -80.1534 -80.1453 -80.0939 -80.0911 -80.0766 -79.2021
   -49.0899 -49.0748 -49.0571 -49.0523 -49.0446 -49.0268 -49.0056 -48.9947
   -48.9946 -48.9656 -48.9523 -48.9299 -48.9243 -48.9181 -48.9099 -48.9055
   -48.8411 -48.8229 -48.7249 -48.7202 -48.6979 -48.3042 -48.1955 -47.6090
   -21.6019 -21.1865 -21.1118 -20.8311 -20.6140 -20.4249 -20.2878 -20.2669
   -20.1516 -20.0195 -19.9682 -19.9398 -19.8356 -19.7707 -19.7244 -19.6815
   -19.5502 -19.4415 -19.3864  -8.9375  -8.6934  -8.3159  -8.2459  -8.2071
    -7.9875  -7.8421  -7.7197  -7.4568  -7.3815  -7.2735  -7.1137  -7.0471
    -6.9533  -6.9070  -6.8337  -6.7955  -6.6663  -6.5328  -6.4812  -6.3265
    -6.2737  -6.1734  -6.0961  -6.0066  -5.9242  -5.7935  -5.6712  -5.6190
    -5.5541  -5.4504  -5.3827  -5.2708  -5.2035  -5.1849  -5.0193  -4.9893
    -4.8303  -4.7140  -4.6344  -4.6110  -4.5215  -4.4071  -4.3524  -4.3278
    -4.1801  -4.0876  -3.9996  -3.8733  -3.7720  -3.6113  -3.5544  -3.4798
    -3.2690  -3.1335  -3.1051  -2.7921   1.0724   1.1052   1.1158   1.1789
     1.2047   1.2143   1.2458   1.2945   1.3476   1.3685   1.4859   1.5336
     1.5978   1.6486   1.6901   1.7153   1.8098   1.8484   1.8587   1.9401
     2.0190   2.0362   2.1255   2.1479   2.1653   2.2421   2.3051   2.3611
     2.4401   2.4707   2.5723   2.6733   2.7386   2.7885   2.8652   2.9740
     3.0288   3.1868   3.2830   3.3512   3.8642   4.0623   4.4018   4.8766
     5.4064   5.7472   5.9350   6.0236   6.2897   6.4585   6.5656   6.7162
     6.7736   6.9374   7.1109   7.3813   7.5097   7.7438   7.8934   8.0021
     8.2776   8.4246   8.5034   8.6488   8.7196   8.8250   8.8769   9.0220
     9.2044   9.3230   9.4510   9.5404   9.6865   9.7962   9.9208  10.0288
    10.1425  10.2068  10.2913  10.4106  10.5469  10.7289  10.7883  10.9272
    11.0152  11.0832  11.1559  11.2592  11.3498  11.4255  11.5025  11.6790
    11.7115  11.7704  11.8229  11.9127  11.9829  12.1057  12.1963  12.2879
    12.3925  12.4603  12.5722  12.6996  12.7624  12.8645  12.9030  12.9872
    13.0493  13.1221  13.1715  13.2393  13.3072  13.3516  13.4309  13.5526
    13.5890  13.6659  13.7231  13.7652  13.8197  13.8929  13.9960  14.0459
    14.0841  14.2259  14.2745  14.2805  14.3981  14.4446  14.5003  14.5965
    14.7035  14.7794  14.8247  14.9363  14.9997  15.0517  15.1297  15.2141
    15.3079  15.3759  15.5065  15.6327  15.6917  15.8463  15.8795  16.0120
    16.0831  16.1917  16.2515  16.3001  16.3678  16.4271  16.4839  16.5696
    16.6376  16.6918  16.8280  16.8846  16.9777  17.0081  17.1297  17.1942
    17.2326  17.3076  17.4086  17.4548  17.5572  17.6112  17.6777  17.7815
    17.8648  17.8918  17.9946  18.0883  18.1088  18.2296  18.2910  18.3234
    18.4066  18.4862  18.5689  18.6027  18.6589  18.8181  18.8471  18.9309
    19.0466  19.0847  19.1234  19.2181  19.2624  19.3192  19.4125  19.4675
    19.5656  19.6807  19.8375  19.8630  19.9234  19.9914  20.0576  20.0993
    20.1393  20.2118  20.2634  20.3133  20.3807  20.4224  20.5900  20.6397
    20.7047  20.8684  20.9532  21.0261  21.0850  21.1427  21.1993  21.2340
    21.3274  21.4104  21.5178  21.5853  21.6651  21.6956  21.7473  21.8074
    21.8522  21.9863  22.0723  22.1647  22.2572  22.3533  22.3918  22.4444
    22.5244  22.6516

     the spin up/dw Fermi energies are    -2.3250   -0.3206 ev

!    total energy              =   -2320.15458578 Ry
     Harris-Foulkes estimate   =   -2320.15458579 Ry
     estimated scf accuracy    <          4.0E-09 Ry

     The total energy is the sum of the following terms:

     one-electron contribution =  -26143.12306898 Ry
     hartree contribution      =   13090.98400470 Ry
     xc contribution           =    -349.62744794 Ry
     ewald contribution        =   11079.85072131 Ry
     Hubbard energy            =       1.76069440 Ry
     smearing contrib. (-TS)   =       0.00051072 Ry

     total magnetization       =    23.00 Bohr mag/cell
     absolute magnetization    =    34.21 Bohr mag/cell

     convergence has been achieved in  17 iterations

     Forces acting on atoms (Ry/au):

     negative rho (up, down):  0.182E-02 0.139E-02
     atom    1 type  1   force =    -0.00476053   -0.01348475    0.00053812
     atom    2 type  1   force =     0.00053921    0.00678115   -0.00019844
     atom    3 type  2   force =     0.01398995    0.00214325    0.00023874
     atom    4 type  2   force =     0.00657820    0.01188658   -0.00039961
     atom    5 type  1   force =     0.00209627    0.01280918   -0.00023570
     atom    6 type  1   force =    -0.00097894   -0.01924196   -0.00032260
     atom    7 type  1   force =     0.00213995    0.00193584    0.00066675
     atom    8 type  1   force =     0.00050332   -0.00254515   -0.00008750
     atom    9 type  2   force =     0.00886386    0.00014887    0.00003793
     atom   10 type  2   force =     0.00028964   -0.00153925   -0.00051309
     atom   11 type  1   force =    -0.01483012   -0.02241715   -0.00005647
     atom   12 type  1   force =    -0.01461333    0.02290139    0.00017839
     atom   13 type  1   force =    -0.00213760   -0.00064767    0.00012644
     atom   14 type  1   force =    -0.00466287   -0.01280134    0.00049221
     atom   15 type  1   force =     0.00048485    0.00573658   -0.00036531
     atom   16 type  2   force =    -0.01601098    0.00228985    0.00022304
     atom   17 type  2   force =     0.00679384    0.01174964   -0.00062573
     atom   18 type  1   force =     0.00122359    0.01268033   -0.00016294
     atom   19 type  1   force =    -0.00274341   -0.01925080   -0.00024930
     atom   20 type  1   force =    -0.00184257    0.00248669    0.00053321
     atom   21 type  1   force =    -0.00341370   -0.00253164   -0.00042007
     atom   22 type  2   force =    -0.00790378    0.00056941   -0.00034401
     atom   23 type  2   force =     0.00215776   -0.00054587   -0.00015179
     atom   24 type  1   force =     0.01363728   -0.01717604    0.00007894
     atom   25 type  1   force =     0.01423436    0.01745633    0.00023025
     atom   26 type  1   force =     0.00117241   -0.00050970    0.00030552
     atom   27 type  3   force =     0.00003172    0.00036823    0.00041131
     atom   28 type  3   force =     0.00000902    0.00051323    0.00050187
     atom   29 type  3   force =    -0.00036990   -0.00000134   -0.00027920
     atom   30 type  3   force =    -0.00033942    0.00005336   -0.00013293
     atom   31 type  1   force =    -0.00015125    0.00019731   -0.00046772
     atom   32 type  3   force =     0.00001316   -0.00001456    0.00044967

     Total force =     0.002188     Total SCF correction =     0.000129

     bfgs converged in  21 scf cycles and  20 bfgs steps
     (criteria: energy < 0.10E-03, force < 0.10E-02)

     End of BFGS Geometry Optimization

     Final energy   =   -2320.1545857823 Ry
Begin final coordinates

ATOMIC_POSITIONS (crystal)
O0       0.000000000   0.000000000   0.373639890    0   0   1
O0       0.000000000   0.500000000   0.394729733    0   0   1
Mn1      0.250000000   0.500000000   0.447625427    0   0   1
Mn1      0.000000000   0.000000000   0.446903548    0   0   1
O0       0.250000000   0.800000000   0.445695077    0   0   1
O0       0.250000000   0.200000000   0.449246950    0   0   1
O0       0.000000000   0.500000000   0.494236531    0   0   1
O0       0.000000000   0.000000000   0.524856441    0   0   1
Mn1      0.250000000   0.000000000   0.573685154    0   0   1
Mn1      0.000000000   0.500000000   0.570350397    0   0   1
O0       0.250000000   0.700000000   0.582846021    0   0   1
O0       0.250000000   0.300000000   0.583302117    0   0   1
O0       0.000000000   0.000000000   0.622256229    0   0   1
O0       0.500000000   0.000000000   0.373657388    0   0   1
O0       0.500000000   0.500000000   0.394851167    0   0   1
Mn1      0.750000000   0.500000000   0.447669788    0   0   1
Mn1      0.500000000   0.000000000   0.446842684    0   0   1
O0       0.750000000   0.800000000   0.445521266    0   0   1
O0       0.750000000   0.200000000   0.449049841    0   0   1
O0       0.500000000   0.500000000   0.497614219    0   0   1
O0       0.500000000   0.000000000   0.524914222    0   0   1
Mn1      0.750000000   0.000000000   0.573598230    0   0   1
Mn1      0.500000000   0.500000000   0.578671526    0   0   1
O0       0.750000000   0.700000000   0.580163160    0   0   1
O0       0.750000000   0.300000000   0.580780007    0   0   1
O0       0.500000000   0.000000000   0.622873301    0   0   1
H2       0.000431999   0.647493748   0.378932645
H2       0.500524320   0.646595057   0.378769573
H2       0.161430729   0.043132694   0.363118807
H2       0.661504284   0.043214257   0.363158815
O0       0.518664300   0.502080888   0.652432227
H2       0.356550999   0.500195446   0.665887619
End final coordinates

     General routines

     Parallel routines
     Hubbard U routines

   This run was terminated on:   5: 0:47   6May2014

   JOB DONE.
Running PBS batch system epilogue script
Job id: 340699.audhumbla.fysik.dtu.dk
Username: zhonxu
Groupname: campgst
Jobname: MnO2/Eads-2-layers/OH-U-5.5
Sessionid: 10259
Queuename: verylong
Accounting:
This job has allocated the following 16 nodes:
b041 b041 b041 b041 b041 b041 b041 b041 b033 b033 b033 b033 b033 b033 b033 b033
Finished epilogue job 340699.audhumbla.fysik.dtu.dk for zhonxu