     Program PWSCF v.5.0.2 (svn rev. 9656) starts on  6May2014 at 10:18:24

     Current dimensions of program PWSCF are:
     Max number of different atomic species (ntypx) = 10
     Max number of k-points (npk) =  40000
     Max angular momentum in pseudopotentials (lmaxx) =  3
     Reading input from pwscf.in
Warning: card &CELL ignored
Warning: card / ignored

     Subspace diagonalization in iterative solution of the eigenvalue problem:
     a serial algorithm will be used

     Found symmetry operation: I + ( -0.5000  0.0000  0.0000)
     This is a supercell, fractional translations are disabled

     bravais-lattice index     =            0
     lattice parameter (alat)  =      12.2076  a.u.
     unit-cell volume          =    7496.5096 (a.u.)^3
     number of atoms/cell      =           30
     number of atomic types    =            3
     number of electrons       =       240.00
     number of Kohn-Sham states=          360
     kinetic-energy cutoff     =      40.0000  Ry
     charge density cutoff     =     500.0000  Ry
     convergence threshold     =      1.0E-06
     mixing beta               =       0.7000
     number of iterations used =            8  plain     mixing
     Exchange-correlation      = SLA  PW   PBE  PBE ( 1 4 3 4 0)
     EXX-fraction              =        0.00
     nstep                     =           50

     celldm(1)=  12.207631  celldm(2)=   0.000000  celldm(3)=   0.000000
     celldm(4)=   0.000000  celldm(5)=   0.000000  celldm(6)=   0.000000

     crystal axes: (cart. coord. in units of alat)
               a(1) = (   1.000000   0.000000   0.000000 )
               a(2) = (   0.000000   1.004836   0.000000 )
               a(3) = (   0.000000   0.000000   4.100811 )

     reciprocal axes: (cart. coord. in units 2 pi/alat)
               b(1) = (  1.000000  0.000000  0.000000 )
               b(2) = (  0.000000  0.995187  0.000000 )
               b(3) = (  0.000000  0.000000  0.243854 )

     PseudoPot. # 1 for O  read from file:
     /home/camp/zhonxu/pseudo/o_pbe_v1.01.uspp.F.UPF
     MD5 check sum: 2bcb18d16ea4b960afae9ec6d52f22d2
     Pseudo is Ultrasoft + core correction, Zval =  6.0
     Generated by new atomic code, or converted to UPF format
     Using radial grid of  737 points,  5 beta functions with:
                l(1) =   0
                l(2) =   0
                l(3) =   1
                l(4) =   1
                l(5) =   2
     Q(r) pseudized with  8 coefficients,  rinner =    0.900   0.900   0.900
                                                       0.900   0.900

     PseudoPot. # 2 for Pt read from file:
     /home/camp/zhonxu/pseudo/pt_pbe_v1.uspp.F.UPF
     MD5 check sum: 4c71d6ad5ef119f1eb26a4d0b7884226
     Pseudo is Ultrasoft + core correction, Zval = 16.0
     Generated by new atomic code, or converted to UPF format
     Using radial grid of  985 points,  6 beta functions with:
                l(1) =   0
                l(2) =   0
                l(3) =   1
                l(4) =   1
                l(5) =   2
                l(6) =   2
     Q(r) pseudized with  8 coefficients,  rinner =    1.300   1.300   1.300
                                                       1.300   1.300

     PseudoPot. # 3 for H  read from file:
     /home/camp/zhonxu/pseudo/h_pbe_v1.uspp.F.UPF
     MD5 check sum: 3408e3ff4ec8b0a4e358431e7e038a48
     Pseudo is Ultrasoft, Zval =  1.0
     Generated by new atomic code, or converted to UPF format
     Using radial grid of  615 points,  2 beta functions with:
                l(1) =   0
                l(2) =   0
     Q(r) pseudized with  8 coefficients,  rinner =    0.700

     atomic species   valence    mass     pseudopotential
        O0             6.00    15.99940     O ( 1.00)
        Pt1           16.00   195.08000     Pt( 1.00)
        H2             1.00     1.00794     H ( 1.00)

     Simplified LDA+U calculation (l_max = 2) with parameters (eV):
     atomic species    L          U    alpha       J0     beta
        Pt1            2     6.0000   0.0000   0.0000   0.0000

     No symmetry found

   Cartesian axes

     site n.     atom                  positions (alat units)
         1           O0  tau(   1) = (   0.0000000   0.0000000   1.5457188  )
         2           O0  tau(   2) = (   0.0000000   0.5024180   1.6369208  )
         3           Pt1 tau(   3) = (   0.2500000   0.5024180   1.8413872  )
         4           Pt1 tau(   4) = (   0.0000000   0.0000000   1.8534436  )
         5           O0  tau(   5) = (   0.2500000   0.8139171   1.8157162  )
         6           O0  tau(   6) = (   0.2500000   0.1909188   1.8824364  )
         7           O0  tau(   7) = (   0.0000000   0.5024180   2.0315829  )
         8           O0  tau(   8) = (   0.0000000   0.0000000   2.1708464  )
         9           Pt1 tau(   9) = (   0.2500000   0.0000000   2.3625593  )
        10           Pt1 tau(  10) = (   0.0000000   0.5024180   2.3549318  )
        11           O0  tau(  11) = (   0.2500000   0.6933368   2.3911010  )
        12           O0  tau(  12) = (   0.2500000   0.3114991   2.3934384  )
        13           O0  tau(  13) = (   0.0000000   0.0000000   2.5491052  )
        14           O0  tau(  14) = (   0.5000000   0.0000000   1.5457188  )
        15           O0  tau(  15) = (   0.5000000   0.5024180   1.6369208  )
        16           Pt1 tau(  16) = (   0.7500000   0.5024180   1.8413872  )
        17           Pt1 tau(  17) = (   0.5000000   0.0000000   1.8534436  )
        18           O0  tau(  18) = (   0.7500000   0.8139171   1.8157162  )
        19           O0  tau(  19) = (   0.7500000   0.1909188   1.8824364  )
        20           O0  tau(  20) = (   0.5000000   0.5024180   2.0315829  )
        21           O0  tau(  21) = (   0.5000000   0.0000000   2.1708464  )
        22           Pt1 tau(  22) = (   0.7500000   0.0000000   2.3625593  )
        23           Pt1 tau(  23) = (   0.5000000   0.5024180   2.3549318  )
        24           O0  tau(  24) = (   0.7500000   0.6933368   2.3911010  )
        25           O0  tau(  25) = (   0.7500000   0.3114991   2.3934384  )
        26           O0  tau(  26) = (   0.5000000   0.0000000   2.5491052  )
        27           H2  tau(  27) = (  -0.0000500   0.6431553   1.5728661  )
        28           H2  tau(  28) = (   0.4999500   0.6431553   1.5728661  )
        29           H2  tau(  29) = (   0.1440700   0.0315318   1.5048747  )
        30           H2  tau(  30) = (   0.6440700   0.0315318   1.5048747  )

     number of k points=    10  Methfessel-Paxton smearing, width (Ry)=  0.0100
                       cart. coord. in units 2pi/alat
        k(    1) = (   0.0000000   0.0000000   0.0000000), wk =   0.1250000
        k(    2) = (   0.0000000   0.2487968   0.0000000), wk =   0.2500000
        k(    3) = (   0.0000000  -0.4975937   0.0000000), wk =   0.1250000
        k(    4) = (   0.2500000   0.0000000   0.0000000), wk =   0.2500000
        k(    5) = (   0.2500000   0.2487968   0.0000000), wk =   0.2500000
        k(    6) = (   0.2500000  -0.4975937   0.0000000), wk =   0.2500000
        k(    7) = (  -0.5000000   0.0000000   0.0000000), wk =   0.1250000
        k(    8) = (  -0.5000000   0.2487968   0.0000000), wk =   0.2500000
        k(    9) = (  -0.5000000  -0.4975937   0.0000000), wk =   0.1250000
        k(   10) = (  -0.2500000   0.2487968   0.0000000), wk =   0.2500000

     Largest allocated arrays     est. size (Mb)     dimensions
     Largest temporary arrays     est. size (Mb)     dimensions

     Check: negative/imaginary core charge=   -0.000003    0.000000

     Initial potential from superposition of free atoms
     Check: negative starting charge=   -1.537272

     starting charge  235.99985, renormalised to  240.00000

     negative rho (up, down):  0.156E+01 0.000E+00
     Number of +U iterations with fixed ns =  0
     Starting occupations:
 --- enter write_ns ---
 LDA+U parameters:
U( 2)     =  6.00000000
alpha( 2) =  0.00000000
atom    3   Tr[ns(na)] =   8.00000
    eigenvalues:
  0.800  0.800  0.800  0.800  0.800
    eigenvectors:
  1.000  0.000  0.000  0.000  0.000
  0.000  1.000  0.000  0.000  0.000
  0.000  0.000  1.000  0.000  0.000
  0.000  0.000  0.000  1.000  0.000
  0.000  0.000  0.000  0.000  1.000
    occupations:
  0.800  0.000  0.000  0.000  0.000
  0.000  0.800  0.000  0.000  0.000
  0.000  0.000  0.800  0.000  0.000
  0.000  0.000  0.000  0.800  0.000
  0.000  0.000  0.000  0.000  0.800
atom    4   Tr[ns(na)] =   8.00000
    eigenvalues:
  0.800  0.800  0.800  0.800  0.800
    eigenvectors:
  1.000  0.000  0.000  0.000  0.000
  0.000  1.000  0.000  0.000  0.000
  0.000  0.000  1.000  0.000  0.000
  0.000  0.000  0.000  1.000  0.000
  0.000  0.000  0.000  0.000  1.000
    occupations:
  0.800  0.000  0.000  0.000  0.000
  0.000  0.800  0.000  0.000  0.000
  0.000  0.000  0.800  0.000  0.000
  0.000  0.000  0.000  0.800  0.000
  0.000  0.000  0.000  0.000  0.800
atom    9   Tr[ns(na)] =   8.00000
    eigenvalues:
  0.800  0.800  0.800  0.800  0.800
    eigenvectors:
  1.000  0.000  0.000  0.000  0.000
  0.000  1.000  0.000  0.000  0.000
  0.000  0.000  1.000  0.000  0.000
  0.000  0.000  0.000  1.000  0.000
  0.000  0.000  0.000  0.000  1.000
    occupations:
  0.800  0.000  0.000  0.000  0.000
  0.000  0.800  0.000  0.000  0.000
  0.000  0.000  0.800  0.000  0.000
  0.000  0.000  0.000  0.800  0.000
  0.000  0.000  0.000  0.000  0.800
atom   10   Tr[ns(na)] =   8.00000
    eigenvalues:
  0.800  0.800  0.800  0.800  0.800
    eigenvectors:
  1.000  0.000  0.000  0.000  0.000
  0.000  1.000  0.000  0.000  0.000
  0.000  0.000  1.000  0.000  0.000
  0.000  0.000  0.000  1.000  0.000
  0.000  0.000  0.000  0.000  1.000
    occupations:
  0.800  0.000  0.000  0.000  0.000
  0.000  0.800  0.000  0.000  0.000
  0.000  0.000  0.800  0.000  0.000
  0.000  0.000  0.000  0.800  0.000
  0.000  0.000  0.000  0.000  0.800
atom   16   Tr[ns(na)] =   8.00000
    eigenvalues:
  0.800  0.800  0.800  0.800  0.800
    eigenvectors:
  1.000  0.000  0.000  0.000  0.000
  0.000  1.000  0.000  0.000  0.000
  0.000  0.000  1.000  0.000  0.000
  0.000  0.000  0.000  1.000  0.000
  0.000  0.000  0.000  0.000  1.000
    occupations:
  0.800  0.000  0.000  0.000  0.000
  0.000  0.800  0.000  0.000  0.000
  0.000  0.000  0.800  0.000  0.000
  0.000  0.000  0.000  0.800  0.000
  0.000  0.000  0.000  0.000  0.800
atom   17   Tr[ns(na)] =   8.00000
    eigenvalues:
  0.800  0.800  0.800  0.800  0.800
    eigenvectors:
  1.000  0.000  0.000  0.000  0.000
  0.000  1.000  0.000  0.000  0.000
  0.000  0.000  1.000  0.000  0.000
  0.000  0.000  0.000  1.000  0.000
  0.000  0.000  0.000  0.000  1.000
    occupations:
  0.800  0.000  0.000  0.000  0.000
  0.000  0.800  0.000  0.000  0.000
  0.000  0.000  0.800  0.000  0.000
  0.000  0.000  0.000  0.800  0.000
  0.000  0.000  0.000  0.000  0.800
atom   22   Tr[ns(na)] =   8.00000
    eigenvalues:
  0.800  0.800  0.800  0.800  0.800
    eigenvectors:
  1.000  0.000  0.000  0.000  0.000
  0.000  1.000  0.000  0.000  0.000
  0.000  0.000  1.000  0.000  0.000
  0.000  0.000  0.000  1.000  0.000
  0.000  0.000  0.000  0.000  1.000
    occupations:
[...]
    eigenvectors:
  0.000  0.985  0.011  0.002  0.002
  0.012  0.000  0.025  0.927  0.036
  0.000  0.005  0.707  0.001  0.287
  0.000  0.010  0.257  0.059  0.675
  0.988  0.000  0.000  0.011  0.000
    occupations:
  0.727 -0.004 -0.018  0.026 -0.001
 -0.004  0.984  0.000  0.000  0.031
 -0.018  0.000  0.985  0.003  0.000
  0.026  0.000  0.003  0.985  0.000
 -0.001  0.031  0.000  0.000  0.702
atom    9   Tr[ns(na)] =   8.75652
    eigenvalues:
  0.724  0.731  0.965  0.970  0.988
    eigenvectors:
  0.001  0.141  0.000  0.000  0.859
  0.996  0.004  0.000  0.000  0.000
  0.000  0.000  0.000  1.000  0.000
  0.003  0.855  0.000  0.000  0.141
  0.000  0.000  1.000  0.000  0.000
    occupations:
  0.952  0.000 -0.000 -0.090  0.000
  0.000  0.724  0.000  0.000 -0.000
 -0.000  0.000  0.970 -0.001 -0.000
 -0.090  0.000 -0.001  0.767  0.000
  0.000 -0.000 -0.000  0.000  0.965
atom   10   Tr[ns(na)] =   8.83128
    eigenvalues:
  0.665  0.798  0.975  0.988  0.989
    eigenvectors:
  0.000  0.977  0.000  0.023  0.000
  0.000  0.000  1.000  0.000  0.000
  0.000  0.000  0.000  0.003  0.997
  0.000  0.023  0.000  0.974  0.003
  1.000  0.000  0.000  0.000  0.000
    occupations:
  0.802  0.000  0.001  0.029  0.000
  0.000  0.975 -0.000  0.000 -0.001
  0.001 -0.000  0.989 -0.000 -0.000
  0.029  0.000 -0.000  0.984 -0.000
  0.000 -0.001 -0.000 -0.000  0.665
atom   16   Tr[ns(na)] =   8.79105
    eigenvalues:
  0.709  0.720  0.986  0.989  0.992
    eigenvectors:
  0.174  0.000  0.793  0.000  0.033
  0.000  1.000  0.000  0.000  0.000
  0.004  0.000  0.052  0.000  0.944
  0.822  0.000  0.155  0.000  0.023
  0.000  0.000  0.000  1.000  0.000
    occupations:
  0.938 -0.000  0.007 -0.105  0.000
 -0.000  0.720  0.000  0.000 -0.001
  0.007  0.000  0.990  0.017 -0.000
 -0.105  0.000  0.017  0.758  0.000
  0.000 -0.001 -0.000  0.000  0.989
atom   17   Tr[ns(na)] =   8.76865
    eigenvalues:
  0.699  0.723  0.985  0.988  0.989
    eigenvectors:
  0.000  0.985  0.011  0.002  0.002
  0.012  0.000  0.025  0.927  0.036
  0.000  0.005  0.707  0.001  0.287
  0.000  0.010  0.257  0.059  0.675
  0.988  0.000  0.000  0.011  0.000
    occupations:
  0.727 -0.004 -0.018  0.026 -0.001
 -0.004  0.984  0.000  0.000  0.031
 -0.018  0.000  0.985  0.003  0.000
  0.026  0.000  0.003  0.985  0.000
 -0.001  0.031  0.000  0.000  0.702
atom   22   Tr[ns(na)] =   8.75652
    eigenvalues:
  0.724  0.731  0.965  0.970  0.988
    eigenvectors:
  0.001  0.141  0.000  0.000  0.859
  0.996  0.004  0.000  0.000  0.000
  0.000  0.000  0.000  1.000  0.000
  0.003  0.855  0.000  0.000  0.141
  0.000  0.000  1.000  0.000  0.000
    occupations:
  0.952  0.000 -0.000 -0.090  0.000
  0.000  0.724  0.000  0.000 -0.000
 -0.000  0.000  0.970 -0.001 -0.000
 -0.090  0.000 -0.001  0.767  0.000
  0.000 -0.000 -0.000  0.000  0.965
atom   23   Tr[ns(na)] =   8.83128
    eigenvalues:
  0.665  0.798  0.975  0.988  0.989
    eigenvectors:
  0.000  0.977  0.000  0.023  0.000
  0.000  0.000  1.000  0.000  0.000
  0.000  0.000  0.000  0.003  0.997
  0.000  0.023  0.000  0.974  0.003
  1.000  0.000  0.000  0.000  0.000
    occupations:
  0.802  0.000  0.001  0.029  0.000
  0.000  0.975 -0.000  0.000 -0.001
  0.001 -0.000  0.989 -0.000 -0.000
  0.029  0.000 -0.000  0.984 -0.000
  0.000 -0.001 -0.000 -0.000  0.665
N of occupied +U levels =  70.2950114
 --- exit write_ns ---

     Threshold (ethr) on eigenvalues was too large:
     Diagonalizing with lowered threshold

     Davidson diagonalization with overlap
     ethr =  1.21E-09,  avg # of iterations =  2.1

[...]

     total energy              =   -2247.14905278 Ry
     Harris-Foulkes estimate   =   -2247.14905278 Ry
     estimated scf accuracy    <       0.00000001 Ry

     iteration # 11     ecut=    40.00 Ry     beta=0.70
     Davidson diagonalization with overlap
     ethr =  4.41E-12,  avg # of iterations =  1.0

     negative rho (up, down):  0.158E+01 0.000E+00

     End of self-consistent calculation
 --- enter write_ns ---
 LDA+U parameters:
U( 2)     =  6.00000000
alpha( 2) =  0.00000000
atom    3   Tr[ns(na)] =   8.79089
    eigenvalues:
  0.708  0.720  0.986  0.989  0.992
    eigenvectors:
  0.174  0.000  0.793  0.000  0.033
  0.000  1.000  0.000  0.000  0.000
  0.004  0.000  0.052  0.000  0.944
  0.822  0.000  0.155  0.000  0.023
  0.000  0.000  0.000  1.000  0.000
    occupations:
  0.938 -0.000  0.007 -0.105  0.000
 -0.000  0.720  0.000  0.000 -0.001
  0.007  0.000  0.990  0.017 -0.000
 -0.105  0.000  0.017  0.758  0.000
  0.000 -0.001 -0.000  0.000  0.989
atom    4   Tr[ns(na)] =   8.76857
    eigenvalues:
  0.699  0.723  0.985  0.988  0.989
    eigenvectors:
  0.000  0.985  0.011  0.002  0.002
  0.012  0.000  0.025  0.927  0.036
  0.000  0.005  0.705  0.001  0.289
  0.000  0.010  0.258  0.059  0.673
  0.988  0.000  0.000  0.011  0.000
    occupations:
  0.727 -0.004 -0.018  0.026 -0.001
 -0.004  0.984  0.000  0.000  0.031
 -0.018  0.000  0.985  0.003  0.000
  0.026  0.000  0.003  0.985  0.000
 -0.001  0.031  0.000  0.000  0.702
atom    9   Tr[ns(na)] =   8.75674
    eigenvalues:
  0.724  0.731  0.965  0.970  0.988
    eigenvectors:
  0.001  0.141  0.000  0.000  0.859
  0.996  0.004  0.000  0.000  0.000
  0.000  0.000  0.000  1.000  0.000
  0.003  0.855  0.000  0.000  0.141
  0.000  0.000  1.000  0.000  0.000
    occupations:
  0.952  0.000 -0.000 -0.090  0.000
  0.000  0.724  0.000  0.000 -0.000
 -0.000  0.000  0.970 -0.001 -0.000
 -0.090  0.000 -0.001  0.767  0.000
  0.000 -0.000 -0.000  0.000  0.965
atom   10   Tr[ns(na)] =   8.83113
    eigenvalues:
  0.666  0.798  0.975  0.988  0.989
    eigenvectors:
  0.000  0.977  0.000  0.023  0.000
  0.000  0.000  1.000  0.000  0.000
  0.000  0.000  0.000  0.003  0.997
  0.000  0.023  0.000  0.974  0.003
  1.000  0.000  0.000  0.000  0.000
    occupations:
  0.802  0.000  0.001  0.029  0.000
  0.000  0.975 -0.000  0.000 -0.001
  0.001 -0.000  0.989 -0.000 -0.000
  0.029  0.000 -0.000  0.984 -0.000
  0.000 -0.001 -0.000 -0.000  0.666
atom   16   Tr[ns(na)] =   8.79089
    eigenvalues:
  0.708  0.720  0.986  0.989  0.992
    eigenvectors:
  0.174  0.000  0.793  0.000  0.033
  0.000  1.000  0.000  0.000  0.000
  0.004  0.000  0.052  0.000  0.944
  0.822  0.000  0.155  0.000  0.023
  0.000  0.000  0.000  1.000  0.000
    occupations:
  0.938 -0.000  0.007 -0.105  0.000
 -0.000  0.720  0.000  0.000 -0.001
  0.007  0.000  0.990  0.017 -0.000
 -0.105  0.000  0.017  0.758  0.000
  0.000 -0.001 -0.000  0.000  0.989
atom   17   Tr[ns(na)] =   8.76857
    eigenvalues:
  0.699  0.723  0.985  0.988  0.989
    eigenvectors:
  0.000  0.985  0.011  0.002  0.002
  0.012  0.000  0.025  0.927  0.036
  0.000  0.005  0.705  0.001  0.289
  0.000  0.010  0.258  0.059  0.673
  0.988  0.000  0.000  0.011  0.000
    occupations:
  0.727 -0.004 -0.018  0.026 -0.001
 -0.004  0.984  0.000  0.000  0.031
 -0.018  0.000  0.985  0.003  0.000
  0.026  0.000  0.003  0.985  0.000
 -0.001  0.031  0.000  0.000  0.702
atom   22   Tr[ns(na)] =   8.75674
    eigenvalues:
  0.724  0.731  0.965  0.970  0.988
    eigenvectors:
  0.001  0.141  0.000  0.000  0.859
  0.996  0.004  0.000  0.000  0.000
  0.000  0.000  0.000  1.000  0.000
  0.003  0.855  0.000  0.000  0.141
  0.000  0.000  1.000  0.000  0.000
    occupations:
  0.952  0.000 -0.000 -0.090  0.000
  0.000  0.724  0.000  0.000 -0.000
 -0.000  0.000  0.970 -0.001 -0.000
 -0.090  0.000 -0.001  0.767  0.000
  0.000 -0.000 -0.000  0.000  0.965
atom   23   Tr[ns(na)] =   8.83113
    eigenvalues:
  0.666  0.798  0.975  0.988  0.989
    eigenvectors:
  0.000  0.977  0.000  0.023  0.000
  0.000  0.000  1.000  0.000  0.000
  0.000  0.000  0.000  0.003  0.997
  0.000  0.023  0.000  0.974  0.003
  1.000  0.000  0.000  0.000  0.000
    occupations:
  0.802  0.000  0.001  0.029  0.000
  0.000  0.975 -0.000  0.000 -0.001
  0.001 -0.000  0.989 -0.000 -0.000
  0.029  0.000 -0.000  0.984 -0.000
  0.000 -0.001 -0.000 -0.000  0.666
N of occupied +U levels =  70.2946488
 --- exit write_ns ---

[...]

          k = 0.2500-0.4976 0.0000 ( 32026 PWs)   bands (ev):

[...]

          k =-0.2500 0.2488 0.0000 ( 32025 PWs)   bands (ev):

   -55.1621 -55.1538 -55.1226 -55.1212 -55.1140 -55.0831 -55.0193 -55.0166
   -55.0113 -55.0078 -54.9027 -54.8987 -54.8272 -54.8222 -54.7907 -54.7873
   -54.7620 -54.7569 -54.5214 -54.4810 -54.1795 -54.1744 -53.9010 -53.8982
   -22.1832 -22.0202 -21.3125 -21.2083 -20.9299 -20.7873 -20.7566 -20.6242
   -20.6021 -20.5652 -20.4167 -20.3203 -20.3170 -20.1362 -20.0816 -20.0440
   -19.3120 -19.0832 -11.1745 -11.0347 -10.9272 -10.7817 -10.4219 -10.3250
   -10.3038  -9.8736  -9.8108  -9.7949  -9.6701  -9.5279  -9.3878  -9.2863
    -9.2590  -9.1603  -9.0022  -8.8481  -8.8219  -8.6219  -8.4304  -8.3488
    -8.2020  -8.1341  -8.0380  -7.9757  -7.8379  -7.7157  -7.6573  -7.5793
    -7.5787  -7.4862  -7.2076  -7.2011  -7.1245  -7.0983  -7.0211  -6.8888
    -6.7632  -6.6022  -6.5785  -6.3308  -6.2147  -6.0512  -5.8040  -5.6528
    -5.6330  -5.5962  -5.4254  -5.2736  -5.1254  -5.1241  -4.8940  -4.7674
    -4.5708  -4.5618  -4.4539  -4.4050  -4.1701  -4.1217  -3.9949  -3.8529
    -3.7301  -3.6902  -3.6536  -3.5782  -3.2838  -3.2588  -2.9662  -2.8415
    -2.8268  -2.7497  -2.6159  -2.5710  -2.5369  -2.4418  -2.0574  -1.9684
    -1.9039  -1.5395  -1.1896  -0.7295  -0.4554  -0.3892  -0.2192   0.2233
     0.4611   0.6432   0.7813   0.9357   1.1691   1.1917   1.3264   1.5491
     3.0685   3.6948   4.5373   4.9647   5.0461   5.0731   5.1706   5.5257
     5.7066   5.9345   6.0539   6.2107   6.3851   6.4806   6.5744   6.6354
     6.7569   6.8086   7.0169   7.0799   7.2541   7.3970   7.4326   7.5055
     7.6179   7.7341   7.8062   7.9842   8.1180   8.1712   8.2584   8.3249
     8.3752   8.4997   8.5305   8.6413   8.7692   8.8753   9.0271   9.1197
     9.3071   9.3338   9.4452   9.5693   9.6310   9.7744   9.8994   9.9428
    10.0856  10.1293  10.2014  10.2181  10.4162  10.5151  10.5259  10.6321
    10.6541  10.8265  10.8433  10.9784  11.1457  11.2438  11.3430  11.3967
    11.4207  11.5591  11.6621  11.7185  11.7984  11.8064  11.9040  11.9309
    12.0013  12.1607  12.2150  12.2286  12.3177  12.3700  12.4397  12.5212
    12.5847  12.6200  12.7264  12.8054  12.8939  12.9243  13.0493  13.1059
    13.1690  13.2542  13.4107  13.5149  13.6271  13.6421  13.7085  13.8254
    13.8269  13.8971  14.0282  14.0480  14.1241  14.3045  14.3665  14.4345
    14.4693  14.6239  14.6823  14.7436  14.8424  14.9155  15.0737  15.1554
    15.2212  15.2344  15.3488  15.3531  15.4402  15.5115  15.5681  15.6250
    15.6264  15.6722  15.7627  15.8169  15.8711  15.9436  16.0248  16.0366
    16.1760  16.1781  16.2368  16.3368  16.3971  16.4970  16.6099  16.7195
    16.7769  16.8674  16.8949  17.0221  17.0618  17.1186  17.1202  17.1705
    17.2058  17.2090  17.2272  17.2558  17.3059  17.3181  17.3515  17.3648
    17.3809  17.4171  17.4567  17.4571  17.5042  17.6239  17.6985  17.7763
    17.7846  17.8890  18.0307  18.0699  18.0913  18.1733  18.1747  18.2095
    18.2290  18.3698  18.4062  18.4104  18.5351  18.6068  18.7075  18.7142
    18.7438  18.8984  18.9376  19.0082  19.0316  19.1090  19.1562  19.2926
    19.3402  19.4000  19.4078  19.5705  19.6215  19.7842  19.8313  19.8422
    19.9019  19.9469  19.9874  20.0557  20.0839  20.1021  20.2528  20.2748
    20.3152  20.3391  20.5151  20.5237  20.6663  20.6933  20.7714  20.8028
    20.8154  20.9293  20.9346  21.0005  21.0463  21.2137  21.2464  21.2602
    21.3578  21.4399  21.4415  21.5304  21.5833  21.6255  21.6597  21.7742

     the Fermi energy is    -1.8923 ev

!    total energy              =   -2247.14905278 Ry
     Harris-Foulkes estimate   =   -2247.14905278 Ry
     estimated scf accuracy    <          4.7E-09 Ry

     The total energy is the sum of the following terms:

     one-electron contribution =  -22790.44221415 Ry
     hartree contribution      =   11436.90392216 Ry
     xc contribution           =    -565.19052160 Ry
     ewald contribution        =    9670.00162696 Ry
     Hubbard energy            =       1.57913031 Ry
     smearing contrib. (-TS)   =      -0.00099646 Ry

     convergence has been achieved in  11 iterations

     Forces acting on atoms (Ry/au):

     negative rho (up, down):  0.158E+01 0.000E+00
     atom    1 type  1   force =    -0.00747054   -0.00405439   -0.00028440
     atom    2 type  1   force =     0.00008763    0.00444982    0.00040480
     atom    3 type  2   force =    -0.00047131    0.00209452   -0.00020201
     atom    4 type  2   force =     0.00981141    0.00181001    0.00009552
     atom    5 type  1   force =     0.00117152   -0.00165279    0.00014597
     atom    6 type  1   force =     0.00015921    0.00064936   -0.00001542
     atom    7 type  1   force =     0.00002326    0.00461254    0.00024910
     atom    8 type  1   force =    -0.00393354   -0.00794603    0.00062262
     atom    9 type  2   force =     0.00175806    0.00089397   -0.00032441
     atom   10 type  2   force =    -0.00002744   -0.00155415   -0.00000034
     atom   11 type  1   force =    -0.00001074   -0.00598190   -0.00016797
     atom   12 type  1   force =     0.00007405    0.00677326   -0.00007501
     atom   13 type  1   force =    -0.00106116   -0.00020814   -0.00005346
     atom   14 type  1   force =    -0.00746761   -0.00405355   -0.00028304
     atom   15 type  1   force =     0.00008763    0.00445018    0.00040504
     atom   16 type  2   force =    -0.00047167    0.00209453   -0.00020202
     atom   17 type  2   force =     0.00981085    0.00180992    0.00010244
     atom   18 type  1   force =     0.00117004   -0.00165278    0.00014591
     atom   19 type  1   force =     0.00015702    0.00064936   -0.00001550
     atom   20 type  1   force =     0.00002322    0.00461249    0.00024089
     atom   21 type  1   force =    -0.00393349   -0.00794609    0.00061807
     atom   22 type  2   force =     0.00175933    0.00089408   -0.00032442
     atom   23 type  2   force =    -0.00002751   -0.00155421    0.00000417
     atom   24 type  1   force =    -0.00000865   -0.00598187   -0.00016793
     atom   25 type  1   force =     0.00007582    0.00677325   -0.00007497
     atom   26 type  1   force =    -0.00106119   -0.00020817   -0.00006523
     atom   27 type  3   force =     0.00001499   -0.00014038    0.00018621
     atom   28 type  3   force =     0.00001501   -0.00014074    0.00018639
     atom   29 type  3   force =    -0.00012653    0.00025416   -0.00057536
     atom   30 type  3   force =    -0.00012767    0.00025372   -0.00057562

     Total force =     0.001656     Total SCF correction =     0.000133

     bfgs converged in  10 scf cycles and   9 bfgs steps
     (criteria: energy < 0.10E-03, force < 0.10E-02)

     End of BFGS Geometry Optimization

     Final energy   =   -2247.1490527808 Ry
Begin final coordinates

ATOMIC_POSITIONS (crystal)
O0       0.000000000   0.000000000   0.376757077    0   0   1
O0       0.000000000   0.500000000   0.399464787    0   0   1
Pt1      0.250000000   0.500000000   0.448951034    0   0   1
Pt1      0.000000000   0.000000000   0.451835155    0   0   1
O0       0.250000000   0.810000000   0.441586843    0   0   1
O0       0.250000000   0.190000000   0.459812730    0   0   1
O0       0.000000000   0.500000000   0.495355767    0   0   1
O0       0.000000000   0.000000000   0.529311817    0   0   1
Pt1      0.250000000   0.000000000   0.575774328    0   0   1
Pt1      0.000000000   0.500000000   0.573790569    0   0   1
O0       0.250000000   0.690000000   0.583438564    0   0   1
O0       0.250000000   0.310000000   0.583850182    0   0   1
O0       0.000000000   0.000000000   0.621368459    0   0   1
O0       0.500000000   0.000000000   0.376757058    0   0   1
O0       0.500000000   0.500000000   0.399464828    0   0   1
Pt1      0.750000000   0.500000000   0.448951036    0   0   1
Pt1      0.500000000   0.000000000   0.451835082    0   0   1
O0       0.750000000   0.810000000   0.441586855    0   0   1
O0       0.750000000   0.190000000   0.459812741    0   0   1
O0       0.500000000   0.500000000   0.495356070    0   0   1
O0       0.500000000   0.000000000   0.529312221    0   0   1
Pt1      0.750000000   0.000000000   0.575774327    0   0   1
Pt1      0.500000000   0.500000000   0.573790252    0   0   1
O0       0.750000000   0.690000000   0.583438554    0   0   1
O0       0.750000000   0.310000000   0.583850174    0   0   1
O0       0.500000000   0.000000000   0.621369990    0   0   1
H2      -0.000027671   0.641203107   0.384435176
H2       0.499972322   0.641203025   0.384435175
H2       0.144264564   0.032479316   0.367196500
H2       0.644264851   0.032479584   0.367196649
End final coordinates

     General routines

     Parallel routines
     Hubbard U routines

   This run was terminated on:  20:13: 6   6May2014

   JOB DONE.