     Program PWSCF v.5.0.2 (svn rev. 9656) starts on  7Jun2014 at  3:36:47

     Current dimensions of program PWSCF are:
     Max number of different atomic species (ntypx) = 10
     Max number of k-points (npk) =  40000
     Max angular momentum in pseudopotentials (lmaxx) =  3
     Reading input from pwscf.in
Warning: card &CELL ignored
Warning: card / ignored

     Subspace diagonalization in iterative solution of the eigenvalue problem:
     a serial algorithm will be used

     bravais-lattice index     =            0
     lattice parameter (alat)  =      12.0187  a.u.
     unit-cell volume          =    9939.8055 (a.u.)^3
     number of atoms/cell      =           51
     number of atomic types    =            3
     number of electrons       =       445.00
     number of Kohn-Sham states=          667
     kinetic-energy cutoff     =      40.0000  Ry
     charge density cutoff     =     500.0000  Ry
     convergence threshold     =      1.0E-06
     mixing beta               =       0.3000
     number of iterations used =            8  plain     mixing
     Exchange-correlation      = SLA  PW   PBE  PBE ( 1 4 3 4 0)
     EXX-fraction              =        0.00
     nstep                     =           50

     celldm(1)=  12.018658  celldm(2)=   0.000000  celldm(3)=   0.000000
     celldm(4)=   0.000000  celldm(5)=   0.000000  celldm(6)=   0.000000

     crystal axes: (cart. coord. in units of alat)
               a(1) = (   1.000000   0.000000   0.000000 )
               a(2) = (   0.000000   1.009517   0.000000 )
               a(3) = (   0.000000   0.000000   5.671477 )

     reciprocal axes: (cart. coord. in units 2 pi/alat)
               b(1) = (  1.000000  0.000000  0.000000 )
               b(2) = (  0.000000  0.990572  0.000000 )
               b(3) = (  0.000000  0.000000  0.176321 )

     PseudoPot. # 1 for O  read from file:
     /home/camp/zhonxu/pseudo/o_pbe_v1.01.uspp.F.UPF
     MD5 check sum: 2bcb18d16ea4b960afae9ec6d52f22d2
     Pseudo is Ultrasoft + core correction, Zval =  6.0
     Generated by new atomic code, or converted to UPF format
     Using radial grid of  737 points,  5 beta functions with:
                l(1) =   0
                l(2) =   0
                l(3) =   1
                l(4) =   1
                l(5) =   2
     Q(r) pseudized with  8 coefficients,  rinner =    0.900   0.900   0.900
                                                       0.900   0.900

     PseudoPot. # 2 for Ir read from file:
     /home/camp/zhonxu/pseudo/ir_pbe_v1.uspp.F.UPF
     MD5 check sum: abf987a9674477536ede83817f8f8b70
     Pseudo is Ultrasoft + core correction, Zval = 15.0
     Generated by new atomic code, or converted to UPF format
     Using radial grid of  983 points,  7 beta functions with:
                l(1) =   0
                l(2) =   0
                l(3) =   1
                l(4) =   1
                l(5) =   1
                l(6) =   2
                l(7) =   2
     Q(r) pseudized with  8 coefficients,  rinner =    1.350   1.350   1.350
                                                       1.350   1.350

     PseudoPot. # 3 for H  read from file:
     /home/camp/zhonxu/pseudo/h_pbe_v1.uspp.F.UPF
     MD5 check sum: 3408e3ff4ec8b0a4e358431e7e038a48
     Pseudo is Ultrasoft, Zval =  1.0
     Generated by new atomic code, or converted to UPF format
     Using radial grid of  615 points,  2 beta functions with:
                l(1) =   0
                l(2) =   0
     Q(r) pseudized with  8 coefficients,  rinner =    0.700

     atomic species   valence    mass     pseudopotential
        O0             6.00    15.99940     O ( 1.00)
        Ir1           15.00   192.22000     Ir( 1.00)
        H2             1.00     1.00794     H ( 1.00)

      2 Sym. Ops. (no inversion) found

   Cartesian axes

     site n.     atom                  positions (alat units)
         1           O0  tau(   1) = (   0.0000000   0.5047586   1.8867871  )
         2           Ir1 tau(   2) = (   0.2500000   0.5047586   2.0785964  )
         3           Ir1 tau(   3) = (   0.0000000   0.0000000   2.0785964  )
         4           O0  tau(   4) = (   0.2500000   0.8177090   2.0785964  )
         5           O0  tau(   5) = (   0.2500000   0.1918083   2.0785964  )
         6           O0  tau(   6) = (   0.0000000   0.5047586   2.2704058  )
         7           O0  tau(   7) = (   0.0000000   0.0000000   2.3915485  )
         8           Ir1 tau(   8) = (   0.2500000   0.0000000   2.5833579  )
         9           Ir1 tau(   9) = (   0.0000000   0.5047586   2.5833579  )
        10           O0  tau(  10) = (   0.2500000   0.6965669   2.5833579  )
        11           O0  tau(  11) = (   0.2500000   0.3129503   2.5833579  )
        12           O0  tau(  12) = (   0.0000000   0.0000000   2.7751673  )
        13           O0  tau(  13) = (   0.0000000   0.5047586   2.8930773  )
        14           Ir1 tau(  14) = (   0.2500000   0.5047586   3.0864747  )
        15           Ir1 tau(  15) = (   0.0000000   0.0000000   3.0901611  )
        16           O0  tau(  16) = (   0.2500000   0.8161846   3.0894805  )
        17           O0  tau(  17) = (   0.2500000   0.1933326   3.0894805  )
        18           O0  tau(  18) = (   0.0000000   0.5047586   3.2780572  )
        19           O0  tau(  19) = (   0.0000000   0.0000000   3.4018655  )
        20           Ir1 tau(  20) = (   0.2500000   0.0000000   3.5996299  )
        21           Ir1 tau(  21) = (   0.0000000   0.5047586   3.5839199  )
        22           O0  tau(  22) = (   0.2500000   0.6968899   3.6045641  )
        23           O0  tau(  23) = (   0.2500000   0.3126273   3.6045641  )
        24           O0  tau(  24) = (   0.0000000   0.0000000   3.7852574  )
        25           O0  tau(  25) = (   0.5000000   0.5047586   1.8867871  )
        26           Ir1 tau(  26) = (   0.7500000   0.5047586   2.0785964  )
        27           Ir1 tau(  27) = (   0.5000000   0.0000000   2.0785964  )
        28           O0  tau(  28) = (   0.7500000   0.8177090   2.0785964  )
        29           O0  tau(  29) = (   0.7500000   0.1918083   2.0785964  )
        30           O0  tau(  30) = (   0.5000000   0.5047586   2.2704058  )
        31           O0  tau(  31) = (   0.5000000   0.0000000   2.3915485  )
        32           Ir1 tau(  32) = (   0.7500000   0.0000000   2.5833579  )
        33           Ir1 tau(  33) = (   0.5000000   0.5047586   2.5833579  )
        34           O0  tau(  34) = (   0.7500000   0.6965669   2.5833579  )
        35           O0  tau(  35) = (   0.7500000   0.3129503   2.5833579  )
        36           O0  tau(  36) = (   0.5000000   0.0000000   2.7751673  )
        37           O0  tau(  37) = (   0.5000000   0.5047586   2.8930773  )
        38           Ir1 tau(  38) = (   0.7500000   0.5047586   3.0864747  )
        39           Ir1 tau(  39) = (   0.5000000   0.0000000   3.0901611  )
        40           O0  tau(  40) = (   0.7500000   0.8161846   3.0894805  )
        41           O0  tau(  41) = (   0.7500000   0.1933326   3.0894805  )
        42           O0  tau(  42) = (   0.5000000   0.5047586   3.2780572  )
        43           O0  tau(  43) = (   0.5000000   0.0000000   3.4018655  )
        44           Ir1 tau(  44) = (   0.7500000   0.0000000   3.5996299  )
        45           Ir1 tau(  45) = (   0.5000000   0.5047586   3.5839199  )
        46           O0  tau(  46) = (   0.7500000   0.6968899   3.6045641  )
        47           O0  tau(  47) = (   0.7500000   0.3126273   3.6045641  )
        48           O0  tau(  48) = (   0.5000000   0.0000000   3.7852574  )
        49           O0  tau(  49) = (   0.5000000   0.5047586   3.8932423  )
        50           O0  tau(  50) = (   0.5000000   0.3215817   4.0100180  )
        51           H2  tau(  51) = (   0.5000000   0.3681406   4.1576466  )

     number of k points=     9  Methfessel-Paxton smearing, width (Ry)=  0.0100
                       cart. coord. in units 2pi/alat
        k(    1) = (   0.0000000   0.0000000   0.0000000), wk =   0.1250000
        k(    2) = (   0.0000000   0.2476431   0.0000000), wk =   0.2500000
        k(    3) = (   0.0000000  -0.4952862   0.0000000), wk =   0.1250000
        k(    4) = (   0.2500000   0.0000000   0.0000000), wk =   0.2500000
        k(    5) = (   0.2500000   0.2476431   0.0000000), wk =   0.5000000
        k(    6) = (   0.2500000  -0.4952862   0.0000000), wk =   0.2500000
        k(    7) = (  -0.5000000   0.0000000   0.0000000), wk =   0.1250000
        k(    8) = (  -0.5000000   0.2476431   0.0000000), wk =   0.2500000
        k(    9) = (  -0.5000000  -0.4952862   0.0000000), wk =   0.1250000

     Largest allocated arrays     est. size (Mb)     dimensions
     Largest temporary arrays     est. size (Mb)     dimensions

     Check: negative/imaginary core charge=   -0.000003    0.000000

     Initial potential from superposition of free atoms
     Check: negative starting charge=   -6.666740

     starting charge  436.99944, renormalised to  445.00000

     negative rho (up, down):  0.679E+01 0.000E+00
     Starting wfc are  329 randomized atomic wfcs

     Self-consistent Calculation

     iteration #  1     ecut=    40.00 Ry     beta=0.30
     Davidson diagonalization with overlap
     ethr =  1.00E-02,  avg # of iterations =  8.0

     negative rho (up, down):  0.638E+01 0.000E+00

     total energy              =   -3982.51449348 Ry
     Harris-Foulkes estimate   =   -4086.86294008 Ry
     estimated scf accuracy    <     209.72869279 Ry

[...]

     End of self-consistent calculation

          k = 0.0000 0.0000 0.0000 ( 42445 PWs)   bands (ev):

   -49.0458 -49.0383 -49.0321 -49.0286 -49.0192 -49.0124 -49.0081 -49.0005
   -48.9986 -48.9958 -48.9865 -48.9843 -48.9792 -48.9776 -48.9773 -48.9744
   -48.9690 -48.9651 -48.9426 -48.9247 -48.9132 -48.8934 -48.8432 -48.8359
   -48.8284 -48.8088 -48.8022 -48.7940 -48.7655 -48.7508 -48.7357 -48.7320
   -48.7218 -48.7168 -48.7023 -48.6573 -48.6423 -48.6255 -48.6227 -48.6192
   -48.6173 -48.5236 -48.5210 -48.5089 -48.5065 -48.3607 -48.3458 -48.3357
   -22.1949 -19.5557 -19.2912 -19.0368 -18.9464 -18.8863 -18.6302 -18.3940
   -18.3485 -18.2399 -18.2329 -18.1890 -18.1691 -18.1398 -18.0898 -18.0771
   -18.0760 -18.0487 -18.0054 -17.9697 -17.8775 -17.7900 -17.7666 -17.7069
   -17.6631 -17.5507 -17.4988 -17.4458 -17.3789 -16.4247 -16.3428 -16.2149
   -16.1778 -15.0367  -8.1348  -8.1058  -8.0302  -7.9678  -7.8426  -7.6991
    -7.2365  -6.9264  -6.8877  -6.5715  -6.5520  -6.5405  -6.5347  -6.5245
    -6.5080  -6.4971  -6.4543  -6.3973  -6.3908  -6.3774  -6.3680  -6.3306
    -6.2909  -6.2536  -6.2091  -6.1576  -6.1555  -6.0777  -5.9759  -5.9425
    -5.8516  -5.8233  -5.8111  -5.7990  -5.7507  -5.5953  -5.5706  -5.5162
    -5.4045  -5.1337  -5.1216  -4.9707  -4.7617  -4.3479  -4.2542  -4.2131
    -4.2118  -4.1979  -4.1448  -4.1253  -4.1216  -4.1180  -3.9879  -3.9675
    -3.8155  -3.8006  -3.6597  -3.6063  -3.5918  -3.5723  -3.4878  -3.4510
    -3.4445  -3.2201  -3.1588  -3.1048  -3.0408  -3.0327  -2.9948  -2.9461
    -2.9355  -2.9004  -2.8819  -2.8634  -2.7949  -2.7609  -2.6899  -2.6794
[...]
O0       0.250545849   0.189746837   0.544352504
O0       0.000000000   0.487624390   0.577853849
O0       0.000000000   0.000476834   0.599524430
Ir1      0.250358161  -0.003056879   0.634048301
Ir1      0.000000000   0.497095089   0.631569086
O0       0.248410791   0.688747906   0.632957451
O0       0.250306144   0.306274186   0.635659416
O0       0.000000000  -0.007963169   0.666847084
O0       0.500000000   0.500000000   0.332680000    0   0   0
Ir1      0.750000000   0.500000000   0.366500000    0   0   0
Ir1      0.500000000   0.000000000   0.366500000    0   0   0
O0       0.750000000   0.810000000   0.366500000    0   0   0
O0       0.750000000   0.190000000   0.366500000    0   0   0
O0       0.500000000   0.500000000   0.400320000    0   0   0
O0       0.500000000   0.000000000   0.421680000    0   0   0
Ir1      0.750000000   0.000000000   0.455500000    0   0   0
Ir1      0.500000000   0.500000000   0.455500000    0   0   0
O0       0.750000000   0.690000000   0.455500000    0   0   0
O0       0.750000000   0.310000000   0.455500000    0   0   0
O0       0.500000000   0.000000000   0.489320000    0   0   0
O0       0.500000000   0.500548363   0.510163355
Ir1      0.748039029   0.497806885   0.544432126
Ir1      0.500000000  -0.001739060   0.544669544
O0       0.749936576   0.806197113   0.544889892
O0       0.749454151   0.189746837   0.544352504
O0       0.500000000   0.493718091   0.578863978
O0       0.500000000  -0.000280735   0.599362050
Ir1      0.749641839  -0.003056879   0.634048301
Ir1      0.500000000   0.498518142   0.635749475
O0       0.751589209   0.688747906   0.632957451
O0       0.749693856   0.306274186   0.635659416
O0       0.500000000  -0.013935294   0.666347187
O0       0.500000000   0.534819127   0.688605319
O0       0.500000000   0.337568475   0.709046322
H2       0.500000000   0.394733922   0.734465297

     Check: negative starting charge=   -6.667989
     NEW-OLD atomic charge density approx. for the potential

     Check: negative/imaginary core charge=   -0.000003    0.000000
     Check: negative starting charge=   -6.668219

[...]

     Self-consistent Calculation

[...]

     Threshold (ethr) on eigenvalues was too large:
     Diagonalizing with lowered threshold

     Davidson diagonalization with overlap
     ethr =  2.88E-08,  avg # of iterations =  1.0

[...]

     total energy              =   -4075.12794715 Ry
     Harris-Foulkes estimate   =   -4075.12794716 Ry
     estimated scf accuracy    <       0.00000001 Ry

     iteration # 19     ecut=    40.00 Ry     beta=0.30
     Davidson diagonalization with overlap
     ethr =  2.37E-12,  avg # of iterations =  1.0

     negative rho (up, down):  0.625E+01 0.000E+00

     End of self-consistent calculation

[...]

          k = 0.2500-0.4953 0.0000 ( 42460 PWs)   bands (ev):

[...]

          k =-0.5000-0.4953 0.0000 ( 42596 PWs)   bands (ev):

   -49.0943 -49.0922 -49.0614 -49.0515 -49.0421 -49.0415 -49.0396 -49.0392
   -49.0333 -49.0264 -49.0254 -49.0212 -49.0212 -49.0212 -49.0204 -49.0086
   -48.9973 -48.9907 -48.9884 -48.9860 -48.9811 -48.9771 -48.8924 -48.8900
   -48.8762 -48.8761 -48.8362 -48.8359 -48.8075 -48.7921 -48.7921 -48.7868
   -48.7715 -48.7688 -48.7559 -48.7287 -48.7133 -48.7111 -48.6674 -48.6626
   -48.6214 -48.6210 -48.6055 -48.5530 -48.5530 -48.4278 -48.3978 -48.3936
   -21.2617 -18.8761 -18.8037 -18.7989 -18.7133 -18.5338 -18.4988 -18.4909
   -18.4001 -18.2910 -18.2896 -18.2576 -18.2508 -18.2188 -18.2136 -18.1947
   -18.1876 -18.1415 -18.0940 -18.0931 -18.0842 -18.0123 -18.0084 -17.9974
   -17.8713 -17.8140 -17.8073 -17.7966 -17.6894 -16.6200 -16.4578 -16.3195
   -16.3154 -15.3493  -7.2005  -7.1668  -7.1593  -7.1208  -6.6907  -6.5219
    -6.5210  -6.5023  -6.4840  -6.4772  -6.4675  -6.4646  -6.4124  -6.3809
    -6.3680  -6.3607  -6.3062  -6.1253  -6.1204  -6.1097  -6.0718  -6.0676
    -6.0639  -6.0375  -6.0180  -5.9659  -5.9659  -5.9381  -5.9344  -5.8850
    -5.8783  -5.8655  -5.8476  -5.7603  -5.7052  -5.7041  -5.6700  -5.6313
    -5.5725  -5.5698  -5.4874  -5.2943  -5.0084  -4.9296  -4.9264  -4.8955
    -4.6463  -4.6251  -4.6240  -4.5533  -4.4521  -4.3950  -4.3789  -4.3574
    -4.2934  -4.2617  -4.2411  -4.2254  -4.1936  -4.1843  -4.1001  -4.0168
    -3.9634  -3.9507  -3.8961  -3.8318  -3.7634  -3.7401  -3.7152  -3.7140
    -3.6519  -3.5831  -3.5460  -3.4618  -3.3010  -3.2220  -3.1879  -3.0775
    -3.0409  -2.5116  -2.4942  -2.4674  -2.4433  -2.2567  -2.2525  -2.2363
    -2.1568  -1.9790  -1.9770  -1.9626  -1.9541  -1.8472  -1.7921  -1.7835
    -1.7563  -1.6768  -1.6366  -1.6011  -1.4686  -1.4101  -0.7366  -0.7317
    -0.7165  -0.6768  -0.4708  -0.4021  -0.3900  -0.3232  -0.2990  -0.2750
    -0.1987  -0.0912  -0.0603  -0.0224  -0.0093   0.0236   0.2987   0.3119
     0.3506   0.3557   0.3607   0.3875   0.4636   0.4656   0.5871   0.7159
     0.7638   0.7883   0.8176   0.8660   0.8949   0.9248   0.9644   0.9664
     1.0132   1.0188   1.0348   1.1816   1.1829   1.2213   1.2240   1.3217
     1.3253   1.3522   1.3595   1.3960   1.4082   1.4356   1.5420   2.0430
     2.0436   2.3477   3.1759   3.2350   3.2453   3.2479   3.2783   3.3889
     3.4376   3.4408   3.6143   3.6608   3.6655   3.6743   4.1223   4.4476
     4.4483   4.4582   4.6352   4.7824   4.7859   4.8230   4.9892   5.2921
     5.3074   5.3488   5.3967   5.6127   5.6387   5.6481   5.6620   5.7194
     6.6561   7.0203   7.0218   7.2609   7.9021   7.9075   7.9780   8.1160
     8.2263   8.2398   8.2570   8.3099   8.4078   8.5168   8.5656   8.6164
     8.6995   8.7585   8.7966   8.8301   9.0102   9.0378   9.0381   9.1823
     9.1956   9.2594   9.3213   9.3983   9.7497   9.7600   9.7899   9.9038
     9.9196   9.9396  10.0664  10.0794  10.5698  10.5985  10.6130  10.7447
    10.7703  10.7812  10.8522  10.8636  10.8641  10.8860  10.8884  10.8885
    10.9043  10.9106  10.9124  10.9237  10.9588  10.9853  10.9853  11.0532
    11.0532  11.1528  11.1848  11.1890  11.3956  11.4085  11.4950  11.5006
    11.6456  11.6469  11.6607  11.7038  11.9231  12.1680  12.2010  12.2074
    12.2237  12.2286  12.2601  12.2828  12.3749  12.4104  12.4553  12.5210
    12.7089  12.8382  12.8602  12.8847  13.0769  13.0835  13.2123  13.2219
    13.4854  13.5380  13.6218  13.6494  13.6895  13.9836  13.9899  14.0534
    14.2606  14.3050  14.3243  14.3354  14.4079  14.4220  14.4728  14.4977
    14.5309  14.5636  14.6222  14.6684  14.6860  14.7877  14.8079  14.8346
    14.8873  14.9343  14.9972  15.0205  15.1572  15.1722  15.2803  15.3019
    15.3091  15.3384  15.3926  15.4136  15.4167  15.4432  15.4653  15.4904
    15.5636  15.5694  15.5722  15.5940  15.6504  15.6634  15.7066  15.7169
    15.7237  15.7630  15.7761  15.7871  15.8641  15.8727  15.8912  15.9127
    15.9308  15.9457  15.9661  15.9856  16.0006  16.0369  16.0617  16.0619
    16.2760  16.2886  16.3159  16.3231  16.3362  16.3748  16.3870  16.4271
    16.4347  16.4628  16.4921  16.5057  16.5369  16.5934  16.5961  16.6588
    16.7050  16.7582  16.8156  16.9786  17.0402  17.0973  17.1150  17.1251
    17.2943  17.3055  17.3352  17.3874  17.3897  17.3961  17.4908  17.5032
    17.5233  17.5614  17.5951  17.6497  17.8187  17.8684  17.9045  17.9714
    17.9979  18.0198  18.0548  18.0783  18.1575  18.1696  18.1740  18.2254
    18.3240  18.3252  18.3516  18.3546  18.4981  18.4997  18.5668  18.5682
    18.6850  18.7333  18.7632  18.8150  18.9213  18.9362  19.0071  19.0820
[...]
    23.1391  23.1987  23.2363  23.2429  23.2611  23.2931  23.3462  23.3907
    23.4626  23.5090  23.5331  23.5644  23.5763  23.5830  23.6150  23.6630
    23.6701  23.7014  23.7291  23.7787  23.8133  23.8340  23.8343  23.9236
    23.9607  24.0393  24.1258  24.1374  24.1720  24.1921  24.2655  24.3008
    24.3305  24.3430  24.3646  24.4543  24.4549  24.4663  24.4770  24.5699
    24.5701  24.6004  24.6180  24.7208  24.7335  24.7965  24.8191  24.8392
    24.8631  24.9431  24.9547  25.0415  25.1341  25.1519  25.1996  25.2298
    25.3801  25.4289  25.4797  25.4963  25.5127  25.5334  25.6046  25.6117
    25.6603  25.7159  25.7834  25.8227  25.8588  25.8819  25.8937  25.8962
    25.9194  26.0240  26.0696  26.2264  26.2942  26.2997  26.3480  26.3593
    26.3743  26.4609  26.4693  26.5375  26.5990  26.6727  26.6881  26.7301
    26.7858  26.8438  26.8519  26.8703  26.8942  26.9522  27.0104  27.1036
    27.1254  27.1269  27.1684  27.1751  27.2260  27.3037  27.3067  27.3221
    27.3967  27.4990  27.5382  27.5878  27.6382  27.6584  27.6922  27.7016
    27.7536  27.7989  27.8207

     the Fermi energy is     1.3449 ev

!    total energy              =   -4075.12794715 Ry
     Harris-Foulkes estimate   =   -4075.12794715 Ry
     estimated scf accuracy    <          5.4E-09 Ry

     The total energy is the sum of the following terms:

     one-electron contribution =  -79053.83258197 Ry
     hartree contribution      =   39635.57316817 Ry
     xc contribution           =   -1119.17964213 Ry
     ewald contribution        =   36462.31145365 Ry
     smearing contrib. (-TS)   =      -0.00034487 Ry

     convergence has been achieved in  19 iterations

     Forces acting on atoms (Ry/au):

     negative rho (up, down):  0.625E+01 0.000E+00
     atom    1 type  1   force =     0.00000000   -0.00002771    0.02470587
     atom    2 type  2   force =    -0.00057025    0.00009710   -0.03659851
     atom    3 type  2   force =     0.00000000    0.00031082    0.06845657
     atom    4 type  1   force =    -0.00000507   -0.01234989   -0.02655428
     atom    5 type  1   force =    -0.00001804    0.01226575   -0.02670633
     atom    6 type  1   force =     0.00000000   -0.00008094    0.01945495
     atom    7 type  1   force =     0.00000000   -0.00031073   -0.01715802
     atom    8 type  2   force =     0.00013220   -0.00022646   -0.01158733
     atom    9 type  2   force =     0.00000000    0.00025918   -0.01218788
     atom   10 type  1   force =    -0.00003523    0.01143885   -0.00231867
     atom   11 type  1   force =     0.00002455   -0.01125281   -0.00218501
     atom   12 type  1   force =     0.00000000   -0.00092992    0.02318438
     atom   13 type  1   force =     0.00000000   -0.00040680    0.00094105
     atom   14 type  2   force =    -0.00004029   -0.00012039    0.00036548
     atom   15 type  2   force =     0.00000000   -0.00020019   -0.00049024
     atom   16 type  1   force =     0.00011134   -0.00011963   -0.00058580
     atom   17 type  1   force =    -0.00014450   -0.00010693   -0.00014924
     atom   18 type  1   force =     0.00000000    0.00027136    0.00094310
     atom   19 type  1   force =     0.00000000    0.00002057   -0.00062553
     atom   20 type  2   force =    -0.00015977    0.00042173    0.00017648
     atom   21 type  2   force =     0.00000000    0.00069000    0.00048796
     atom   22 type  1   force =    -0.00076584    0.00075000   -0.00052091
     atom   23 type  1   force =    -0.00051302    0.00027641   -0.00047562
     atom   24 type  1   force =     0.00000000    0.00065116   -0.00006095
     atom   25 type  1   force =     0.00000000   -0.00023852    0.02436786
     atom   26 type  2   force =     0.00057025    0.00009710   -0.03659851
     atom   27 type  2   force =     0.00000000    0.00036002    0.06779524
     atom   28 type  1   force =     0.00000507   -0.01234989   -0.02655428
     atom   29 type  1   force =     0.00001804    0.01226575   -0.02670633
     atom   30 type  1   force =     0.00000000    0.00009028    0.02078289
     atom   31 type  1   force =     0.00000000   -0.00041519   -0.01642146
     atom   32 type  2   force =    -0.00013220   -0.00022646   -0.01158733
     atom   33 type  2   force =     0.00000000    0.00013796   -0.01600312
     atom   34 type  1   force =     0.00003523    0.01143885   -0.00231867
     atom   35 type  1   force =    -0.00002455   -0.01125281   -0.00218501
     atom   36 type  1   force =     0.00000000   -0.00154273    0.02364538
     atom   37 type  1   force =     0.00000000   -0.00004176    0.00001526
     atom   38 type  2   force =     0.00004029   -0.00012039    0.00036548
     atom   39 type  2   force =     0.00000000   -0.00001089    0.00016458
     atom   40 type  1   force =    -0.00011134   -0.00011963   -0.00058580
     atom   41 type  1   force =     0.00014450   -0.00010693   -0.00014924
     atom   42 type  1   force =     0.00000000   -0.00033603   -0.00034905
     atom   43 type  1   force =     0.00000000    0.00002801    0.00049712
     atom   44 type  2   force =     0.00015977    0.00042173    0.00017648
     atom   45 type  2   force =     0.00000000    0.00028892   -0.00027828
     atom   46 type  1   force =     0.00076584    0.00075000   -0.00052091
     atom   47 type  1   force =     0.00051302    0.00027641   -0.00047562
     atom   48 type  1   force =     0.00000000   -0.00042932    0.00077492
     atom   49 type  1   force =     0.00000000   -0.00033994    0.00027674
     atom   50 type  1   force =     0.00000000   -0.00016938    0.00084272
     atom   51 type  3   force =     0.00000000    0.00022432    0.00051742

     Total force =     0.003482     Total SCF correction =     0.000266

     bfgs converged in  26 scf cycles and  25 bfgs steps
     (criteria: energy < 0.10E-03, force < 0.10E-02)

     End of BFGS Geometry Optimization

     Final energy   =   -4075.1279471506 Ry
Begin final coordinates

ATOMIC_POSITIONS (crystal)
O0       0.000000000   0.500000000   0.332680000    0   0   0
Ir1      0.250000000   0.500000000   0.366500000    0   0   0
Ir1      0.000000000   0.000000000   0.366500000    0   0   0
O0       0.250000000   0.810000000   0.366500000    0   0   0
O0       0.250000000   0.190000000   0.366500000    0   0   0
O0       0.000000000   0.500000000   0.400320000    0   0   0
O0       0.000000000   0.000000000   0.421680000    0   0   0
Ir1      0.250000000   0.000000000   0.455500000    0   0   0
Ir1      0.000000000   0.500000000   0.455500000    0   0   0
O0       0.250000000   0.690000000   0.455500000    0   0   0
O0       0.250000000   0.310000000   0.455500000    0   0   0
O0       0.000000000   0.000000000   0.489320000    0   0   0
O0       0.000000000   0.500237016   0.510361354
Ir1      0.251960971   0.497806885   0.544432126
Ir1      0.000000000  -0.001594256   0.544696871
O0       0.250063424   0.806197113   0.544889892
O0       0.250545849   0.189746837   0.544352504
O0       0.000000000   0.487624390   0.577853849
O0       0.000000000   0.000476834   0.599524430
Ir1      0.250358161  -0.003056879   0.634048301
Ir1      0.000000000   0.497095089   0.631569086
O0       0.248410791   0.688747906   0.632957451
O0       0.250306144   0.306274186   0.635659416
O0       0.000000000  -0.007963169   0.666847084
O0       0.500000000   0.500000000   0.332680000    0   0   0
Ir1      0.750000000   0.500000000   0.366500000    0   0   0
Ir1      0.500000000   0.000000000   0.366500000    0   0   0
O0       0.750000000   0.810000000   0.366500000    0   0   0
O0       0.750000000   0.190000000   0.366500000    0   0   0
O0       0.500000000   0.500000000   0.400320000    0   0   0
O0       0.500000000   0.000000000   0.421680000    0   0   0
Ir1      0.750000000   0.000000000   0.455500000    0   0   0
Ir1      0.500000000   0.500000000   0.455500000    0   0   0
O0       0.750000000   0.690000000   0.455500000    0   0   0
O0       0.750000000   0.310000000   0.455500000    0   0   0
O0       0.500000000   0.000000000   0.489320000    0   0   0
O0       0.500000000   0.500548363   0.510163355
Ir1      0.748039029   0.497806885   0.544432126
Ir1      0.500000000  -0.001739060   0.544669544
O0       0.749936576   0.806197113   0.544889892
O0       0.749454151   0.189746837   0.544352504
O0       0.500000000   0.493718091   0.578863978
O0       0.500000000  -0.000280735   0.599362050
Ir1      0.749641839  -0.003056879   0.634048301
Ir1      0.500000000   0.498518142   0.635749475
O0       0.751589209   0.688747906   0.632957451
O0       0.749693856   0.306274186   0.635659416
O0       0.500000000  -0.013935294   0.666347187
O0       0.500000000   0.534819127   0.688605319
O0       0.500000000   0.337568475   0.709046322
H2       0.500000000   0.394733922   0.734465297
End final coordinates

     General routines

     Parallel routines

   This run was terminated on:   2:51:23   9Jun2014

   JOB DONE.
Running PBS batch system epilogue script
Job id: 381384.audhumbla.fysik.dtu.dk
Username: zhonxu
Groupname: campgst
Jobname: IrO2/Eads-4-layers/OOH-relax
Sessionid: 45822
Queuename: verylong
Accounting:
This job has allocated the following 32 nodes:
g067 g067 g067 g067 g067 g067 g067 g067 g067 g067 g067 g067 g067 g067 g067 g067 g065 g065 g065 g065 g065 g065 g065 g065 g065 g065 g065 g065 g065 g065 g065 g065
Finished epilogue job 381384.audhumbla.fysik.dtu.dk for zhonxu