     Program PWSCF v.5.0.2 (svn rev. 9656) starts on 15May2014 at  9:19:50

     Current dimensions of program PWSCF are:
     Max number of different atomic species (ntypx) = 10
     Max number of k-points (npk) =  40000
     Max angular momentum in pseudopotentials (lmaxx) =  3
     Reading input from pwscf.in
Warning: card &CELL ignored
Warning: card / ignored

     Subspace diagonalization in iterative solution of the eigenvalue problem:
     a serial algorithm will be used

     bravais-lattice index     =            0
     lattice parameter (alat)  =      11.7541  a.u.
     unit-cell volume          =    7139.8207 (a.u.)^3
     number of atoms/cell      =           30
     number of atomic types    =            3
     number of electrons       =       232.00
     number of Kohn-Sham states=          348
     kinetic-energy cutoff     =      40.0000  Ry
     charge density cutoff     =     500.0000  Ry
     convergence threshold     =      1.0E-06
     mixing beta               =       0.7000
     number of iterations used =            8  plain     mixing
     Exchange-correlation      = SLA  PW   PBE  PBE ( 1 4 3 4 0)
     EXX-fraction              =        0.00
     nstep                     =           50

     celldm(1)=  11.754097  celldm(2)=   0.000000  celldm(3)=   0.000000
     celldm(4)=   0.000000  celldm(5)=   0.000000  celldm(6)=   0.000000

     crystal axes: (cart. coord. in units of alat)
               a(1) = (   1.000000   0.000000   0.000000 )
               a(2) = (   0.000000   1.034513   0.000000 )
               a(3) = (   0.000000   0.000000   4.249947 )

     reciprocal axes: (cart. coord. in units 2 pi/alat)
               b(1) = (  1.000000  0.000000  0.000000 )
               b(2) = (  0.000000  0.966638  0.000000 )
               b(3) = (  0.000000  0.000000  0.235297 )

     PseudoPot. # 1 for O  read from file:
     /home/camp/zhonxu/pseudo/o_pbe_v1.01.uspp.F.UPF
     MD5 check sum: 2bcb18d16ea4b960afae9ec6d52f22d2
     Pseudo is Ultrasoft + core correction, Zval =  6.0
     Generated by new atomic code, or converted to UPF format
     Using radial grid of  737 points,  5 beta functions with:
                l(1) =   0
                l(2) =   0
                l(3) =   1
                l(4) =   1
                l(5) =   2
     Q(r) pseudized with  8 coefficients,  rinner =    0.900   0.900   0.900
                                                       0.900   0.900

     PseudoPot. # 2 for Rh read from file:
     /home/camp/zhonxu/pseudo/rh_pbe_v1.uspp.F.UPF
     MD5 check sum: 37b626987ad0dd8ec6bf4cc9ef289918
     Pseudo is Ultrasoft + core correction, Zval = 15.0
     Generated by new atomic code, or converted to UPF format
     Using radial grid of  969 points,  7 beta functions with:
                l(1) =   0
                l(2) =   0
                l(3) =   1
                l(4) =   1
                l(5) =   2
                l(6) =   2
                l(7) =   2
     Q(r) pseudized with  6 coefficients,  rinner =    1.050   1.050   1.050
                                                       1.050   1.050

     PseudoPot. # 3 for H  read from file:
     /home/camp/zhonxu/pseudo/h_pbe_v1.uspp.F.UPF
     MD5 check sum: 3408e3ff4ec8b0a4e358431e7e038a48
     Pseudo is Ultrasoft, Zval =  1.0
     Generated by new atomic code, or converted to UPF format
     Using radial grid of  615 points,  2 beta functions with:
                l(1) =   0
                l(2) =   0
     Q(r) pseudized with  8 coefficients,  rinner =    0.700

     atomic species   valence    mass     pseudopotential
        O0             6.00    15.99940     O ( 1.00)
        Rh1           15.00   102.90550     Rh( 1.00)
        H2             1.00     1.00794     H ( 1.00)

     Simplified LDA+U calculation (l_max = 2) with parameters (eV):
     atomic species    L          U    alpha       J0     beta
        Rh1            2     0.0000   0.0000   0.0000   0.0000

     No symmetry found

   Cartesian axes

     site n.     atom                  positions (alat units)
         1           O0  tau(   1) = (   0.0000000   0.0000000   1.6092425  )
         2           O0  tau(   2) = (   0.0000000   0.5172566   1.7020614  )
         3           Rh1 tau(   3) = (   0.2500000   0.5172566   1.9209336  )
         4           Rh1 tau(   4) = (   0.0000000   0.0000000   1.9260761  )
         5           O0  tau(   5) = (   0.2500000   0.8379556   1.9243336  )
         6           O0  tau(   6) = (   0.2500000   0.1965575   1.9234411  )
         7           O0  tau(   7) = (   0.0000000   0.5172566   2.1185137  )
         8           O0  tau(   8) = (   0.0000000   0.0000000   2.2473721  )
         9           Rh1 tau(   9) = (   0.2500000   0.0000000   2.4498821  )
        10           Rh1 tau(  10) = (   0.0000000   0.5172566   2.4276124  )
        11           O0  tau(  11) = (   0.2500000   0.7138141   2.4560020  )
        12           O0  tau(  12) = (   0.2500000   0.3206991   2.4560870  )
        13           O0  tau(  13) = (   0.0000000   0.0000000   2.6421072  )
        14           O0  tau(  14) = (   0.5000000   0.0000000   1.6092425  )
        15           O0  tau(  15) = (   0.5000000   0.5172566   1.7020614  )
        16           Rh1 tau(  16) = (   0.7500000   0.5172566   1.9209336  )
        17           Rh1 tau(  17) = (   0.5000000   0.0000000   1.9260761  )
        18           O0  tau(  18) = (   0.7500000   0.8379556   1.9243336  )
        19           O0  tau(  19) = (   0.7500000   0.1965575   1.9234411  )
        20           O0  tau(  20) = (   0.5000000   0.5172566   2.1185137  )
        21           O0  tau(  21) = (   0.5000000   0.0000000   2.2473721  )
        22           Rh1 tau(  22) = (   0.7500000   0.0000000   2.4498821  )
        23           Rh1 tau(  23) = (   0.5000000   0.5172566   2.4276124  )
        24           O0  tau(  24) = (   0.7500000   0.7138141   2.4560020  )
        25           O0  tau(  25) = (   0.7500000   0.3206991   2.4560870  )
        26           O0  tau(  26) = (   0.5000000   0.0000000   2.6421072  )
        27           H2  tau(  27) = (  -0.0000700   0.6610229   1.6318947  )
        28           H2  tau(  28) = (   0.4999300   0.6610125   1.6318947  )
        29           H2  tau(  29) = (   0.1484400   0.0336527   1.5632581  )
        30           H2  tau(  30) = (   0.6484400   0.0336527   1.5632581  )

     number of k points=    10  Methfessel-Paxton smearing, width (Ry)=  0.0100
                       cart. coord. in units 2pi/alat
        k(    1) = (   0.0000000   0.0000000   0.0000000), wk =   0.1250000
        k(    2) = (   0.0000000   0.2416596   0.0000000), wk =   0.2500000
        k(    3) = (   0.0000000  -0.4833191   0.0000000), wk =   0.1250000
        k(    4) = (   0.2500000   0.0000000   0.0000000), wk =   0.2500000
        k(    5) = (   0.2500000   0.2416596   0.0000000), wk =   0.2500000
        k(    6) = (   0.2500000  -0.4833191   0.0000000), wk =   0.2500000
        k(    7) = (  -0.5000000   0.0000000   0.0000000), wk =   0.1250000
        k(    8) = (  -0.5000000   0.2416596   0.0000000), wk =   0.2500000
        k(    9) = (  -0.5000000  -0.4833191   0.0000000), wk =   0.1250000
        k(   10) = (  -0.2500000   0.2416596   0.0000000), wk =   0.2500000

     Largest allocated arrays     est. size (Mb)     dimensions
     Largest temporary arrays     est. size (Mb)     dimensions

     Check: negative/imaginary core charge=   -0.000002    0.000000

     Initial potential from superposition of free atoms
     Check: negative starting charge=   -0.642992

     starting charge  227.99915, renormalised to  232.00000

     negative rho (up, down):  0.654E+00 0.000E+00
     Number of +U iterations with fixed ns =  0
     Starting occupations:
 --- enter write_ns ---
 LDA+U parameters:
U( 2)     =  0.00000000
alpha( 2) =  0.00000000
atom    3   Tr[ns(na)] =   7.00000
    eigenvalues:
  0.700  0.700  0.700  0.700  0.700
    eigenvectors:
  1.000  0.000  0.000  0.000  0.000
  0.000  1.000  0.000  0.000  0.000
  0.000  0.000  1.000  0.000  0.000
  0.000  0.000  0.000  1.000  0.000
  0.000  0.000  0.000  0.000  1.000
    occupations:
  0.700  0.000  0.000  0.000  0.000
  0.000  0.700  0.000  0.000  0.000
  0.000  0.000  0.700  0.000  0.000
  0.000  0.000  0.000  0.700  0.000
  0.000  0.000  0.000  0.000  0.700
atom    4   Tr[ns(na)] =   7.00000
    eigenvalues:
  0.700  0.700  0.700  0.700  0.700
    eigenvectors:
  1.000  0.000  0.000  0.000  0.000
  0.000  1.000  0.000  0.000  0.000
  0.000  0.000  1.000  0.000  0.000
  0.000  0.000  0.000  1.000  0.000
  0.000  0.000  0.000  0.000  1.000
    occupations:
  0.700  0.000  0.000  0.000  0.000
  0.000  0.700  0.000  0.000  0.000
  0.000  0.000  0.700  0.000  0.000
  0.000  0.000  0.000  0.700  0.000
  0.000  0.000  0.000  0.000  0.700
atom    9   Tr[ns(na)] =   7.00000
    eigenvalues:
  0.700  0.700  0.700  0.700  0.700
    eigenvectors:
  1.000  0.000  0.000  0.000  0.000
  0.000  1.000  0.000  0.000  0.000
  0.000  0.000  1.000  0.000  0.000
  0.000  0.000  0.000  1.000  0.000
  0.000  0.000  0.000  0.000  1.000
    occupations:
  0.700  0.000  0.000  0.000  0.000
  0.000  0.700  0.000  0.000  0.000
  0.000  0.000  0.700  0.000  0.000
  0.000  0.000  0.000  0.700  0.000
  0.000  0.000  0.000  0.000  0.700
atom   10   Tr[ns(na)] =   7.00000
    eigenvalues:
  0.700  0.700  0.700  0.700  0.700
    eigenvectors:
  1.000  0.000  0.000  0.000  0.000
  0.000  1.000  0.000  0.000  0.000
  0.000  0.000  1.000  0.000  0.000
  0.000  0.000  0.000  1.000  0.000
  0.000  0.000  0.000  0.000  1.000
    occupations:
  0.700  0.000  0.000  0.000  0.000
  0.000  0.700  0.000  0.000  0.000
  0.000  0.000  0.700  0.000  0.000
  0.000  0.000  0.000  0.700  0.000
  0.000  0.000  0.000  0.000  0.700
atom   16   Tr[ns(na)] =   7.00000
    eigenvalues:
  0.700  0.700  0.700  0.700  0.700
    eigenvectors:
  1.000  0.000  0.000  0.000  0.000
  0.000  1.000  0.000  0.000  0.000
  0.000  0.000  1.000  0.000  0.000
  0.000  0.000  0.000  1.000  0.000
  0.000  0.000  0.000  0.000  1.000
    occupations:
  0.700  0.000  0.000  0.000  0.000
  0.000  0.700  0.000  0.000  0.000
  0.000  0.000  0.700  0.000  0.000
  0.000  0.000  0.000  0.700  0.000
  0.000  0.000  0.000  0.000  0.700
atom   17   Tr[ns(na)] =   7.00000
    eigenvalues:
  0.700  0.700  0.700  0.700  0.700
    eigenvectors:
  1.000  0.000  0.000  0.000  0.000
  0.000  1.000  0.000  0.000  0.000
  0.000  0.000  1.000  0.000  0.000
  0.000  0.000  0.000  1.000  0.000
  0.000  0.000  0.000  0.000  1.000
    occupations:
  0.700  0.000  0.000  0.000  0.000
  0.000  0.700  0.000  0.000  0.000
  0.000  0.000  0.700  0.000  0.000
  0.000  0.000  0.000  0.700  0.000
  0.000  0.000  0.000  0.000  0.700
atom   22   Tr[ns(na)] =   7.00000
    eigenvalues:
  0.700  0.700  0.700  0.700  0.700
    eigenvectors:
  1.000  0.000  0.000  0.000  0.000
  0.000  1.000  0.000  0.000  0.000
  0.000  0.000  1.000  0.000  0.000
  0.000  0.000  0.000  1.000  0.000
  0.000  0.000  0.000  0.000  1.000
    occupations:
  0.700  0.000  0.000  0.000  0.000
  0.000  0.700  0.000  0.000  0.000
  0.000  0.000  0.700  0.000  0.000
[...]
     ethr =  2.54E-09,  avg # of iterations =  1.0

     negative rho (up, down):  0.689E+00 0.000E+00

     End of self-consistent calculation
 --- enter write_ns ---
 LDA+U parameters:
U( 2)     =  0.00000000
alpha( 2) =  0.00000000
atom    3   Tr[ns(na)] =   7.96912
    eigenvalues:
  0.595  0.610  0.880  0.942  0.957
    eigenvectors:
  0.000  0.213  0.003  0.000  0.784
  1.000  0.000  0.000  0.000  0.000
  0.000  0.000  0.997  0.000  0.003
  0.000  0.787  0.000  0.000  0.213
  0.000  0.000  0.000  0.999  0.000
    occupations:
  0.883 -0.000  0.002 -0.142 -0.000
 -0.000  0.595 -0.000 -0.000 -0.007
  0.002 -0.000  0.881 -0.005  0.001
 -0.142 -0.000 -0.005  0.684 -0.000
 -0.000 -0.007  0.001 -0.000  0.942
atom    4   Tr[ns(na)] =   7.94436
    eigenvalues:
  0.605  0.651  0.851  0.896  0.969
    eigenvectors:
  0.000  0.993  0.000  0.000  0.007
  0.000  0.000  0.043  0.957  0.000
  0.000  0.000  0.957  0.043  0.000
  0.000  0.007  0.000  0.000  0.993
  1.000  0.000  0.000  0.000  0.000
    occupations:
  0.653 -0.004 -0.001  0.026  0.001
 -0.004  0.894  0.009  0.001 -0.001
 -0.001  0.009  0.853 -0.001  0.001
  0.026  0.001 -0.001  0.967  0.000
  0.001 -0.001  0.001  0.000  0.605
atom    9   Tr[ns(na)] =   7.93617
    eigenvalues:
  0.637  0.652  0.844  0.867  0.967
    eigenvectors:
  0.000  0.157  0.000  0.000  0.843
  0.999  0.001  0.000  0.000  0.000
  0.000  0.000  1.000  0.000  0.000
  0.001  0.842  0.000  0.000  0.157
  0.000  0.000  0.000  1.000  0.000
    occupations:
  0.918  0.001 -0.000 -0.115 -0.001
  0.001  0.637  0.000  0.000 -0.000
 -0.000  0.000  0.844 -0.000 -0.000
 -0.115  0.000 -0.000  0.702  0.001
 -0.001 -0.000 -0.000  0.001  0.867
atom   10   Tr[ns(na)] =   7.95166
    eigenvalues:
  0.599  0.623  0.888  0.901  0.965
    eigenvectors:
  0.000  0.995  0.000  0.000  0.004
  0.000  0.000  0.000  1.000  0.000
  0.000  0.000  1.000  0.000  0.000
  0.000  0.004  0.000  0.000  0.995
  1.000  0.000  0.000  0.000  0.000
    occupations:
  0.625  0.000  0.003  0.023 -0.000
  0.000  0.901 -0.000  0.000 -0.001
  0.003 -0.000  0.888  0.000  0.000
  0.023  0.000  0.000  0.963  0.000
 -0.000 -0.001  0.000  0.000  0.599
atom   16   Tr[ns(na)] =   7.96897
    eigenvalues:
  0.595  0.610  0.880  0.942  0.957
    eigenvectors:
  0.000  0.213  0.003  0.000  0.784
  1.000  0.000  0.000  0.000  0.000
  0.000  0.000  0.997  0.000  0.003
  0.000  0.787  0.000  0.000  0.213
  0.000  0.000  0.000  0.999  0.000
    occupations:
  0.883 -0.000  0.002 -0.142 -0.000
 -0.000  0.595 -0.000 -0.000 -0.007
  0.002 -0.000  0.881 -0.005  0.001
 -0.142 -0.000 -0.005  0.684 -0.000
 -0.000 -0.007  0.001 -0.000  0.942
atom   17   Tr[ns(na)] =   7.94421
    eigenvalues:
  0.605  0.651  0.851  0.896  0.969
    eigenvectors:
  0.000  0.993  0.000  0.000  0.007
  0.000  0.000  0.043  0.957  0.000
  0.000  0.000  0.957  0.043  0.000
  0.000  0.007  0.000  0.000  0.993
  1.000  0.000  0.000  0.000  0.000
    occupations:
  0.653 -0.004 -0.001  0.026  0.001
 -0.004  0.894  0.009  0.001 -0.001
 -0.001  0.009  0.853 -0.001  0.001
  0.026  0.001 -0.001  0.967  0.000
  0.001 -0.001  0.001  0.000  0.605
atom   22   Tr[ns(na)] =   7.93635
    eigenvalues:
  0.637  0.652  0.845  0.867  0.967
    eigenvectors:
  0.000  0.157  0.000  0.000  0.843
  0.999  0.001  0.000  0.000  0.000
  0.000  0.000  1.000  0.000  0.000
  0.001  0.842  0.000  0.000  0.157
  0.000  0.000  0.000  1.000  0.000
    occupations:
  0.918  0.001 -0.000 -0.115 -0.001
  0.001  0.637  0.000  0.000 -0.000
 -0.000  0.000  0.845 -0.000 -0.000
 -0.115  0.000 -0.000  0.702  0.001
 -0.001 -0.000 -0.000  0.001  0.867
atom   23   Tr[ns(na)] =   7.95190
    eigenvalues:
  0.599  0.623  0.888  0.901  0.965
    eigenvectors:
  0.000  0.995  0.000  0.000  0.004
  0.000  0.000  0.000  1.000  0.000
  0.000  0.000  1.000  0.000  0.000
  0.000  0.004  0.000  0.000  0.995
  1.000  0.000  0.000  0.000  0.000
    occupations:
  0.625  0.000  0.003  0.023 -0.000
  0.000  0.901 -0.000  0.000 -0.001
  0.003 -0.000  0.888  0.000  0.000
  0.023  0.000  0.000  0.963  0.000
 -0.000 -0.001  0.000  0.000  0.599
N of occupied +U levels =  63.6027396
 --- exit write_ns ---

          k = 0.0000 0.0000 0.0000 ( 30479 PWs)   bands (ev):

   -49.4716 -49.4268 -49.4160 -49.3975 -49.3890 -49.3600 -49.2952 -49.2899
   -49.2756 -49.2048 -49.1829 -49.1820 -49.1742 -49.1453 -49.1398 -49.1228
   -49.0895 -49.0713 -49.0561 -49.0165 -48.9716 -48.9599 -48.9540 -48.9425
   -21.5977 -21.1602 -21.0799 -20.9629 -20.5208 -20.4885 -20.3144 -20.2328
   -20.1944 -20.1690 -20.0936 -20.0031 -19.9603 -19.7429 -19.6829 -19.6612
   -18.8903 -18.7741  -9.8904  -9.7860  -9.6330  -8.9665  -8.7519  -8.6632
    -8.5754  -8.5648  -8.4206  -8.4198  -8.3761  -8.2414  -8.2166  -8.1817
    -7.9841  -7.9790  -7.8619  -7.8358  -7.6120  -7.5128  -7.3049  -7.1060
    -6.9793  -6.6802  -6.5868  -6.5342  -6.4725  -6.0823  -5.9036  -5.7898
    -5.6761  -5.6694  -5.4883  -5.4708  -5.4076  -5.3301  -5.3156  -5.2631
    -5.1786  -5.0829  -4.9017  -4.8196  -4.7067  -4.6757  -4.5225  -4.4753
    -4.4518  -4.4404  -4.2257  -4.2053  -3.9129  -3.8376  -3.7873  -3.7041
    -3.6596  -3.6528  -3.5549  -3.4334  -3.2329  -3.2017  -3.1658  -3.1395
    -3.1042  -3.0873  -2.9669  -2.8285  -2.5812  -2.4654  -2.4509  -2.2784
    -2.1393  -1.9214  -1.6929  -1.6491  -1.6063  -1.4404  -1.3703  -1.1677
    -1.0939  -0.9728   0.0146   0.1532   0.2934   0.3991   0.4392   0.4767
     0.8545   0.8748   1.1194   1.7528   1.8419   1.8678   2.0515   2.1965
     2.9937   3.5119   4.0415   4.4710   4.7879   5.6024   5.7857   6.0277
     6.1716   6.6921   6.7771   6.8318   7.0633   7.2255   7.2555   7.4695
     7.6349   7.6831   7.7522   7.8454   7.9150   7.9826   7.9833   8.0796
     8.1436   8.1739   8.2008   8.4019   8.4252   8.5368   8.5755   8.6160
     8.7849   8.8474   8.9893   9.1332   9.1441   9.2791   9.4264   9.4917
     9.6080   9.6308   9.8647  10.0084  10.0412  10.2991  10.4651  10.4760
    10.6330  10.6359  10.6800  10.8243  10.9476  11.0477  11.0517  11.0643
    11.0762  11.1339  11.2060  11.2228  11.5418  11.5632  11.5888  11.5999
    11.6903  11.7208  11.7733  11.8347  11.8961  11.9005  11.9832  12.0598
    12.0963  12.1246  12.2019  12.2179  12.3078  12.3659  12.4232  12.4963
    12.6301  12.6398  12.6913  12.7779  12.8657  12.9579  12.9867  13.1415
    13.3247  13.4428  13.4521  13.5167  13.6089  13.7317  13.7496  13.8712
    14.0484  14.0535  14.1972  14.2008  14.2978  14.3953  14.5309  14.7223
    14.7772  14.8685  14.9332  15.0576  15.1398  15.1438  15.3115  15.3850
    15.5066  15.5727  15.6059  15.6873  15.7566  15.8520  15.8610  16.0886
    16.1638  16.2226  16.4086  16.4545  16.6006  16.6158  16.9388  16.9423
    16.9440  17.0097  17.0754  17.0903  17.2225  17.2449  17.5195  17.5801
    17.6454  17.7248  17.8999  17.9368  17.9893  18.0903  18.1697  18.1771
    18.2345  18.3555  18.3790  18.3900  18.4020  18.5369  18.6133  18.6370
    18.6991  18.7089  18.7180  18.8404  18.9859  18.9954  19.1001  19.2298
    19.2392  19.2959  19.4432  19.4876  19.5347  19.5669  19.6101  19.6564
    19.6959  19.7099  19.7900  19.8520  19.8690  19.9430  20.0033  20.0747
    20.0939  20.2219  20.2653  20.3763  20.4124  20.4644  20.4962  20.5303
    20.5562  20.7346  20.8201  21.0203  21.0426  21.0566  21.1160  21.2028
    21.2761  21.4207  21.4395  21.4776  21.5574  21.6090  21.6406  21.7328
    21.7821  21.9653  21.9659  22.0454  22.1019  22.1686  22.1944  22.2239
    22.2756  22.3306  22.4322  22.4464

[...]

          k = 0.2500-0.4833 0.0000 ( 30510 PWs)   bands (ev):

[...]

          k =-0.5000 0.0000 0.0000 ( 30524 PWs)   bands (ev):

[...]

          k =-0.2500 0.2417 0.0000 ( 30481 PWs)   bands (ev):

   -49.4565 -49.4261 -49.4164 -49.3959 -49.3907 -49.3740 -49.2881 -49.2791
   -49.2782 -49.1994 -49.1878 -49.1807 -49.1750 -49.1454 -49.1407 -49.1078
   -49.1065 -49.0691 -49.0583 -49.0322 -48.9690 -48.9576 -48.9567 -48.9451
   -21.4691 -21.1799 -20.9340 -20.8024 -20.6077 -20.5036 -20.3745 -20.3325
   -20.1775 -20.1616 -20.0583 -19.9920 -19.9388 -19.8985 -19.7841 -19.7127
   -18.9195 -18.8221  -9.5384  -9.3083  -9.2119  -9.0995  -8.6808  -8.6070
    -8.5589  -8.5583  -8.5257  -8.4187  -8.3390  -8.3180  -8.2197  -8.0473
    -7.9644  -7.8621  -7.7425  -7.6961  -7.3951  -7.3470  -7.2240  -7.1463
    -7.0328  -6.6342  -6.5968  -6.4557  -6.3571  -6.2344  -6.1928  -6.0892
    -6.0780  -6.0190  -5.9298  -5.9171  -5.7353  -5.6976  -5.5902  -5.5782
    -5.3194  -5.2156  -5.1839  -4.9690  -4.9542  -4.7442  -4.7440  -4.6919
    -4.5276  -4.4367  -4.3172  -4.0496  -3.9971  -3.7194  -3.5828  -3.5352
    -3.4925  -3.3498  -3.2196  -3.1721  -3.1051  -3.0596  -3.0365  -2.9361
    -2.9163  -2.8339  -2.7345  -2.6955  -2.5511  -2.5072  -2.3682  -2.2086
    -1.8579  -1.8524  -1.8116  -1.7542  -1.6969  -1.5087  -1.3388  -1.2920
    -1.0302  -0.7782  -0.4355  -0.2148   0.3019   0.4109   0.4216   0.7552
     0.9753   1.2372   1.3839   1.4660   1.6580   1.7038   1.8152   2.0306
     3.6052   3.9941   4.5250   4.9231   5.2804   5.4213   5.5081   5.7992
     5.9792   6.2027   6.3409   6.4179   6.4242   6.6791   6.8312   6.9822
     7.1928   7.3672   7.4052   7.6197   7.6809   7.8030   7.9703   8.0142
     8.0674   8.2636   8.3725   8.4004   8.6303   8.7614   8.7733   8.8392
     8.8886   9.1785   9.3469   9.3756   9.5155   9.6426   9.6523   9.6860
     9.8100   9.9024  10.1196  10.1666  10.2296  10.2684  10.3388  10.4829
    10.5881  10.6216  10.7591  10.7965  10.8564  10.9540  10.9917  11.1213
    11.2963  11.3019  11.3787  11.4587  11.5075  11.5865  11.6374  11.6910
    11.8169  11.9922  12.0453  12.0576  12.1531  12.1631  12.2199  12.3295
    12.4247  12.5100  12.5832  12.6040  12.6948  12.7777  12.8534  12.9759
    12.9948  13.0744  13.1452  13.2177  13.2431  13.3482  13.4125  13.5271
    13.5834  13.6897  13.7688  13.7792  13.8379  14.0092  14.0325  14.0596
    14.1454  14.2574  14.3337  14.4457  14.5320  14.5865  14.6281  14.6877
    14.7607  15.0369  15.1994  15.2618  15.3384  15.4056  15.4551  15.4766
    15.5097  15.6064  15.6865  15.7129  15.7907  15.8118  15.9689  15.9731
    16.0518  16.0564  16.1727  16.2156  16.2881  16.3599  16.3698  16.4665
    16.5125  16.5705  16.5850  16.6034  16.7069  16.7951  16.9637  16.9893
    17.1317  17.2126  17.2298  17.3074  17.3371  17.4384  17.4845  17.5397
    17.5690  17.6220  17.7481  17.7741  17.8731  17.8753  18.0722  18.0737
    18.0867  18.1500  18.2433  18.3583  18.4142  18.4748  18.5036  18.6619
    18.6680  18.8227  18.8879  18.9213  18.9810  19.0374  19.0414  19.1148
    19.1996  19.2034  19.2979  19.4137  19.4322  19.5603  19.6319  19.7184
    19.7376  19.8825  19.8852  20.0367  20.1371  20.1892  20.2784  20.3226
    20.4611  20.5087  20.5923  20.6327  20.6674  20.7049  20.8159  20.8830
    20.9324  21.0052  21.0944  21.1250  21.1667  21.2707  21.3037  21.3082
    21.3806  21.4329  21.5518  21.6388  21.6792  21.7178  21.7878  21.8205
    21.8472  21.9170  22.0131  22.0492

     the Fermi energy is    -1.7096 ev

!    total energy              =   -1948.25207836 Ry
     Harris-Foulkes estimate   =   -1948.25207877 Ry
     estimated scf accuracy    <       0.00000043 Ry

     The total energy is the sum of the following terms:

     one-electron contribution =  -22563.77290888 Ry
     hartree contribution      =   11326.78281857 Ry
     xc contribution           =    -364.98218017 Ry
     ewald contribution        =    9653.72146861 Ry
     Hubbard energy            =       0.00000000 Ry
     smearing contrib. (-TS)   =      -0.00127649 Ry

     convergence has been achieved in  35 iterations

     Forces acting on atoms (Ry/au):

     negative rho (up, down):  0.689E+00 0.000E+00
     atom    1 type  1   force =    -0.00723004   -0.01432015   -0.00022245
     atom    2 type  1   force =     0.00012837    0.00727060    0.00075326
     atom    3 type  2   force =    -0.00027093    0.00318402    0.00018630
     atom    4 type  2   force =     0.00851169    0.00898026   -0.00021886
     atom    5 type  1   force =    -0.00051698   -0.03067103   -0.00062428
     atom    6 type  1   force =     0.00156702    0.02759291   -0.00016317
     atom    7 type  1   force =    -0.00023496   -0.00014642    0.00024332
     atom    8 type  1   force =    -0.00272434   -0.00053235    0.00028746
     atom    9 type  2   force =     0.00124322   -0.00025985   -0.00012286
     atom   10 type  2   force =     0.00004209   -0.00205850    0.00021739
     atom   11 type  1   force =    -0.00017579    0.00042091   -0.00018054
     atom   12 type  1   force =     0.00022204    0.00039749   -0.00015348
     atom   13 type  1   force =    -0.00082747   -0.00005569   -0.00059209
     atom   14 type  1   force =    -0.00719832   -0.01431425   -0.00018448
     atom   15 type  1   force =     0.00017057    0.00717727    0.00078795
     atom   16 type  2   force =    -0.00023222    0.00318114    0.00018873
     atom   17 type  2   force =     0.00854275    0.00897920   -0.00023697
     atom   18 type  1   force =    -0.00055015   -0.03069021   -0.00062978
     atom   19 type  1   force =     0.00153341    0.02761355   -0.00017054
     atom   20 type  1   force =    -0.00019376   -0.00014800    0.00018626
     atom   21 type  1   force =    -0.00276771   -0.00053221    0.00022217
     atom   22 type  2   force =     0.00131074   -0.00025910   -0.00013909
     atom   23 type  2   force =     0.00003454   -0.00205738    0.00027283
     atom   24 type  1   force =    -0.00007616    0.00039755   -0.00018167
     atom   25 type  1   force =     0.00032241    0.00042127   -0.00015457
     atom   26 type  1   force =    -0.00088432   -0.00005579   -0.00049126
     atom   27 type  3   force =    -0.00002865   -0.00027880    0.00032811
     atom   28 type  3   force =    -0.00002820   -0.00019184    0.00028388
     atom   29 type  3   force =     0.00015363    0.00047727    0.00025461
     atom   30 type  3   force =     0.00015753    0.00047811    0.00025380

     Total force =     0.002077     Total SCF correction =     0.002231
     SCF correction compared to forces is large: reduce conv_thr to get better values

     BFGS Geometry Optimization

     bfgs converged in   1 scf cycles and   0 bfgs steps
     (criteria: energy < 0.10E-03, force < 0.10E-02)

     End of BFGS Geometry Optimization

     Final energy   =   -1948.2520783621 Ry
Begin final coordinates

ATOMIC_POSITIONS (crystal)
O0       0.000000000   0.000000000   0.378650000    0   0   1
O0       0.000000000   0.500000000   0.400490000    0   0   1
Rh1      0.250000000   0.500000000   0.451990000    0   0   1
Rh1      0.000000000   0.000000000   0.453200000    0   0   1
O0       0.250000000   0.810000000   0.452790000    0   0   1
O0       0.250000000   0.190000000   0.452580000    0   0   1
O0       0.000000000   0.500000000   0.498480000    0   0   1
O0       0.000000000   0.000000000   0.528800000    0   0   1
Rh1      0.250000000   0.000000000   0.576450000    0   0   1
Rh1      0.000000000   0.500000000   0.571210000    0   0   1
O0       0.250000000   0.690000000   0.577890000    0   0   1
O0       0.250000000   0.310000000   0.577910000    0   0   1
O0       0.000000000   0.000000000   0.621680000    0   0   1
O0       0.500000000   0.000000000   0.378650000    0   0   1
O0       0.500000000   0.500000000   0.400490000    0   0   1
Rh1      0.750000000   0.500000000   0.451990000    0   0   1
Rh1      0.500000000   0.000000000   0.453200000    0   0   1
O0       0.750000000   0.810000000   0.452790000    0   0   1
O0       0.750000000   0.190000000   0.452580000    0   0   1
O0       0.500000000   0.500000000   0.498480000    0   0   1
O0       0.500000000   0.000000000   0.528800000    0   0   1
Rh1      0.750000000   0.000000000   0.576450000    0   0   1
Rh1      0.500000000   0.500000000   0.571210000    0   0   1
O0       0.750000000   0.690000000   0.577890000    0   0   1
O0       0.750000000   0.310000000   0.577910000    0   0   1
O0       0.500000000   0.000000000   0.621680000    0   0   1
H2      -0.000070000   0.638970000   0.383980000
H2       0.499930000   0.638960000   0.383980000
H2       0.148440000   0.032530000   0.367830000
H2       0.648440000   0.032530000   0.367830000
End final coordinates

     General routines

     Parallel routines
     Hubbard U routines

   This run was terminated on:  11:21:35  15May2014

   JOB DONE.
Running PBS batch system epilogue script
Job id: 359657.audhumbla.fysik.dtu.dk
Username: zhonxu
Groupname: campgst
Jobname: RhO2/Eads-2-layers/bare-U-0.0
Sessionid: 535
Queuename: verylong
Accounting:
This job has allocated the following 16 nodes:
a034 a034 a034 a034 a034 a034 a034 a034 a031 a031 a031 a031 a031 a031 a031 a031
Finished epilogue job 359657.audhumbla.fysik.dtu.dk for zhonxu