     Program PWSCF v.5.0.2 (svn rev. 9656) starts on 28Mar2014 at  5:53:59

     Current dimensions of program PWSCF are:
     Max number of different atomic species (ntypx) = 10
     Max number of k-points (npk) =  40000
     Max angular momentum in pseudopotentials (lmaxx) =  3
     Reading input from pwscf.in
Warning: card &CELL ignored
Warning: card / ignored

     Subspace diagonalization in iterative solution of the eigenvalue problem:
     a serial algorithm will be used

     bravais-lattice index     =            0
     lattice parameter (alat)  =      10.3179  a.u.
     unit-cell volume          =    9693.3575 (a.u.)^3
     number of atoms/cell      =           50
     number of atomic types    =            3
     number of electrons       =       423.00
     number of Kohn-Sham states=          634
     kinetic-energy cutoff     =      40.0000  Ry
     charge density cutoff     =     500.0000  Ry
     convergence threshold     =      1.0E-06
     mixing beta               =       0.3000
     number of iterations used =            8  plain     mixing
     Exchange-correlation      = SLA  PW   PBE  PBE ( 1 4 3 4 0)
     EXX-fraction              =        0.00
     nstep                     =           50

     celldm(1)=  10.317905  celldm(2)=   0.000000  celldm(3)=   0.000000
     celldm(4)=   0.000000  celldm(5)=   0.000000  celldm(6)=   0.000000

     crystal axes: (cart. coord. in units of alat)
               a(1) = (   1.000000   0.000000   0.000000 )
               a(2) = (   0.000000   1.282117   0.000000 )
               a(3) = (   0.000000   0.000000   6.882911 )

     reciprocal axes: (cart. coord. in units 2 pi/alat)
               b(1) = (  1.000000  0.000000  0.000000 )
               b(2) = (  0.000000  0.779960  0.000000 )
               b(3) = (  0.000000  0.000000  0.145287 )

     PseudoPot. # 1 for O  read from file:
     /home/camp/zhonxu/pseudo/o_pbe_v1.01.uspp.F.UPF
     MD5 check sum: 2bcb18d16ea4b960afae9ec6d52f22d2
     Pseudo is Ultrasoft + core correction, Zval =  6.0
     Generated by new atomic code, or converted to UPF format
     Using radial grid of  737 points,  5 beta functions with:
                l(1) =   0
                l(2) =   0
                l(3) =   1
                l(4) =   1
                l(5) =   2
     Q(r) pseudized with  8 coefficients,  rinner =    0.900   0.900   0.900
                                                       0.900   0.900

     PseudoPot. # 2 for Mo read from file:
     /home/camp/zhonxu/pseudo/mo_pbe_v1.uspp.F.UPF
     MD5 check sum: 30c4dcd161f5d35cd49bb5239c51a633
     Pseudo is Ultrasoft + core correction, Zval = 14.0
     Generated by new atomic code, or converted to UPF format
     Using radial grid of  889 points,  6 beta functions with:
                l(1) =   0
                l(2) =   0
                l(3) =   1
                l(4) =   1
                l(5) =   2
                l(6) =   2
     Q(r) pseudized with  6 coefficients,  rinner =    1.000   1.000   1.000
                                                       1.000   1.000

     PseudoPot. # 3 for H  read from file:
     /home/camp/zhonxu/pseudo/h_pbe_v1.uspp.F.UPF
     MD5 check sum: 3408e3ff4ec8b0a4e358431e7e038a48
     Pseudo is Ultrasoft, Zval =  1.0
     Generated by new atomic code, or converted to UPF format
     Using radial grid of  615 points,  2 beta functions with:
                l(1) =   0
                l(2) =   0
     Q(r) pseudized with  8 coefficients,  rinner =    0.700

     atomic species   valence    mass     pseudopotential
        O0             6.00    15.99940     O ( 1.00)
        Mo1           14.00    95.94000     Mo( 1.00)
        H2             1.00     1.00794     H ( 1.00)

      2 Sym. Ops. (no inversion) found

   Cartesian axes

     site n.     atom                  positions (alat units)
         1           O0  tau(   1) = (   0.0000000   0.6410583   2.1977822  )
         2           Mo1 tau(   2) = (   0.2500000   0.6410583   2.4798439  )
         3           Mo1 tau(   3) = (   0.0000000   0.0000000   2.4798439  )
         4           O0  tau(   4) = (   0.2500000   1.0000510   2.4798439  )
         5           O0  tau(   5) = (   0.2500000   0.2820657   2.4798439  )
         6           O0  tau(   6) = (   0.0000000   0.6410583   2.7619056  )
         7           O0  tau(   7) = (   0.0000000   0.0000000   2.8388565  )
         8           Mo1 tau(   8) = (   0.2500000   0.0000000   3.1209182  )
         9           Mo1 tau(   9) = (   0.0000000   0.6410583   3.1209182  )
        10           O0  tau(  10) = (   0.2500000   0.9231240   3.1209182  )
        11           O0  tau(  11) = (   0.2500000   0.3589927   3.1209182  )
        12           O0  tau(  12) = (   0.0000000   0.0000000   3.4029799  )
        13           O0  tau(  13) = (   0.0000000   0.6410583   3.4705701  )
        14           Mo1 tau(  14) = (   0.2286600   0.6410583   3.7488462  )
        15           Mo1 tau(  15) = (   0.0000000   0.0000000   3.7864269  )
        16           O0  tau(  16) = (   0.2460200   1.0042564   3.7683248  )
        17           O0  tau(  17) = (   0.2460200   0.2778603   3.7683248  )
        18           O0  tau(  18) = (   0.0000000   0.6410583   4.0400621  )
        19           O0  tau(  19) = (   0.0000000   0.0000000   4.1500511  )
        20           Mo1 tau(  20) = (   0.2719400   0.0000000   4.4350036  )
        21           Mo1 tau(  21) = (   0.0000000   0.6410583   4.3760858  )
        22           O0  tau(  22) = (   0.2568700   0.9035974   4.4329387  )
        23           O0  tau(  23) = (   0.2568700   0.3785193   4.4329387  )
        24           O0  tau(  24) = (   0.0000000   0.0000000   4.6642045  )
        25           O0  tau(  25) = (   0.5000000   0.6410583   2.1977822  )
        26           Mo1 tau(  26) = (   0.7500000   0.6410583   2.4798439  )
        27           Mo1 tau(  27) = (   0.5000000   0.0000000   2.4798439  )
        28           O0  tau(  28) = (   0.7500000   1.0000510   2.4798439  )
        29           O0  tau(  29) = (   0.7500000   0.2820657   2.4798439  )
        30           O0  tau(  30) = (   0.5000000   0.6410583   2.7619056  )
        31           O0  tau(  31) = (   0.5000000   0.0000000   2.8388565  )
        32           Mo1 tau(  32) = (   0.7500000   0.0000000   3.1209182  )
        33           Mo1 tau(  33) = (   0.5000000   0.6410583   3.1209182  )
        34           O0  tau(  34) = (   0.7500000   0.9231240   3.1209182  )
        35           O0  tau(  35) = (   0.7500000   0.3589927   3.1209182  )
        36           O0  tau(  36) = (   0.5000000   0.0000000   3.4029799  )
        37           O0  tau(  37) = (   0.5000000   0.6410583   3.4927331  )
        38           Mo1 tau(  38) = (   0.7713400   0.6410583   3.7488462  )
        39           Mo1 tau(  39) = (   0.5000000   0.0000000   3.7719728  )
        40           O0  tau(  40) = (   0.7539800   1.0042564   3.7683248  )
        41           O0  tau(  41) = (   0.7539800   0.2778603   3.7683248  )
        42           O0  tau(  42) = (   0.5000000   0.6410583   4.0184498  )
        43           O0  tau(  43) = (   0.5000000   0.0000000   4.1341515  )
        44           Mo1 tau(  44) = (   0.7280600   0.0000000   4.4350036  )
        45           Mo1 tau(  45) = (   0.5000000   0.6410583   4.3550241  )
        46           O0  tau(  46) = (   0.7431300   0.9035974   4.4329387  )
        47           O0  tau(  47) = (   0.7431300   0.3785193   4.4329387  )
        48           O0  tau(  48) = (   0.5000000   0.0000000   4.7053643  )
        49           O0  tau(  49) = (   0.5000000   0.6410583   4.7127290  )
        50           H2  tau(  50) = (   0.3443200   0.6410583   4.7768089  )

     number of k points=     9  Methfessel-Paxton smearing, width (Ry)=  0.0100
                       cart. coord. in units 2pi/alat
        k(    1) = (   0.0000000   0.0000000   0.0000000), wk =   0.1250000
        k(    2) = (   0.0000000   0.1949901   0.0000000), wk =   0.2500000
        k(    3) = (   0.0000000  -0.3899801   0.0000000), wk =   0.1250000
        k(    4) = (   0.2500000   0.0000000   0.0000000), wk =   0.2500000
        k(    5) = (   0.2500000   0.1949901   0.0000000), wk =   0.5000000
        k(    6) = (   0.2500000  -0.3899801   0.0000000), wk =   0.2500000
        k(    7) = (  -0.5000000   0.0000000   0.0000000), wk =   0.1250000
        k(    8) = (  -0.5000000   0.1949901   0.0000000), wk =   0.2500000
        k(    9) = (  -0.5000000  -0.3899801   0.0000000), wk =   0.1250000

     Largest allocated arrays     est. size (Mb)     dimensions
     Largest temporary arrays     est. size (Mb)     dimensions

     Check: negative/imaginary core charge=   -0.000004    0.000000

     Initial potential from superposition of free atoms
     Check: negative starting charge=   -0.003505

     starting charge  422.98293, renormalised to  423.00000

     negative rho (up, down):  0.351E-02 0.000E+00
     Starting wfc are  341 randomized atomic wfcs

     Self-consistent Calculation

     iteration #  1     ecut=    40.00 Ry     beta=0.30
     Davidson diagonalization with overlap
     ethr =  1.00E-02,  avg # of iterations =  6.2

     negative rho (up, down):  0.355E-02 0.000E+00

     total energy              =   -3291.60200392 Ry
     Harris-Foulkes estimate   =   -3298.95412966 Ry
     estimated scf accuracy    <      16.68696739 Ry

[...]

     End of self-consistent calculation

          k = 0.0000 0.0000 0.0000 ( 41461 PWs)   bands (ev):

   -61.4123 -61.3504 -61.2789 -61.2623 -61.2343 -61.1989 -61.1494 -61.1375
   -61.1094 -61.0887 -61.0820 -61.0545 -61.0314 -60.9907 -60.9595 -60.9076
   -35.9710 -35.9333 -35.9053 -35.8441 -35.8300 -35.8229 -35.7600 -35.7209
   -35.7138 -35.6718 -35.6618 -35.5522 -35.5184 -35.5048 -35.4688 -35.4490
   -35.4147 -35.4040 -35.3722 -35.3293 -35.3267 -35.3076 -35.2919 -35.2826
   -35.2558 -35.2540 -35.2441 -35.2357 -35.2143 -35.2128 -35.1796 -35.1718
   -35.0805 -35.0747 -35.0657 -35.0584 -35.0383 -35.0298 -34.9819 -34.9114
   -34.8876 -34.8160 -34.7677 -34.7231 -34.6803 -34.6167 -34.5455 -34.4497
   -19.2693 -18.9646 -18.8725 -18.7573 -18.7011 -18.6647 -18.4065 -18.2821
   -18.2046 -18.1155 -18.0452 -18.0109 -17.9888 -17.9719 -17.9011 -17.8991
   -17.7957 -17.6865 -17.6513 -17.6232 -17.5987 -17.5842 -17.5701 -17.5364
   -17.5210 -17.5013 -17.4721 -17.4506 -17.1916 -16.6217 -16.4187 -16.1653
   -15.8845  -7.2956  -7.1897  -7.1231  -7.0980  -7.0255  -6.9501  -6.8448
    -6.6060  -6.3668  -6.3002  -6.2836  -6.1631  -6.1261  -6.0530  -5.9501
    -5.9198  -5.8049  -5.7786  -5.7597  -5.7352  -5.6462  -5.6118  -5.5958
    -5.5137  -5.4939  -5.4772  -5.3222  -5.3073  -5.1893  -5.1513  -5.1478
    -5.1102  -5.0849  -5.0713  -5.0559  -5.0054  -4.7335  -4.5647  -4.5387
    -4.3922  -4.3816  -4.2551  -4.2131  -4.2035  -4.1338  -4.0820  -4.0794
    -4.0297  -4.0026  -3.8967  -3.8795  -3.8401  -3.6995  -3.6800  -3.5542
    -3.5386  -3.4536  -3.4499  -3.4320  -3.4283  -3.3285  -3.2123  -3.1952
    -3.0920  -3.0828  -3.0214  -3.0179  -2.9827  -2.9618  -2.8608  -2.8464
    -2.7252  -2.7030  -2.6948  -2.5856  -2.5140  -2.4631  -2.3813  -2.3071
[...]
O0       0.256870000   0.295230000   0.644050000    0   0   0
O0       0.000000000   0.000000000   0.677650000    0   0   0
O0       0.500000000   0.500000000   0.319310000    0   0   0
Mo1      0.750000000   0.500000000   0.360290000    0   0   0
Mo1      0.500000000   0.000000000   0.360290000    0   0   0
O0       0.750000000   0.780000000   0.360290000    0   0   0
O0       0.750000000   0.220000000   0.360290000    0   0   0
O0       0.500000000   0.500000000   0.401270000    0   0   0
O0       0.500000000   0.000000000   0.412450000    0   0   0
Mo1      0.750000000   0.000000000   0.453430000    0   0   0
Mo1      0.500000000   0.500000000   0.453430000    0   0   0
O0       0.750000000   0.720000000   0.453430000    0   0   0
O0       0.750000000   0.280000000   0.453430000    0   0   0
O0       0.500000000   0.000000000   0.494410000    0   0   0
O0       0.500000000   0.500000000   0.507450000    0   0   0
Mo1      0.771340000   0.500000000   0.544660000    0   0   0
Mo1      0.500000000   0.000000000   0.548020000    0   0   0
O0       0.753980000   0.783280000   0.547490000    0   0   0
O0       0.753980000   0.216720000   0.547490000    0   0   0
O0       0.500000000   0.500000000   0.583830000    0   0   0
O0       0.500000000   0.000000000   0.600640000    0   0   0
Mo1      0.728060000   0.000000000   0.644350000    0   0   0
Mo1      0.500000000   0.500000000   0.632730000    0   0   0
O0       0.743130000   0.704770000   0.644050000    0   0   0
O0       0.743130000   0.295230000   0.644050000    0   0   0
O0       0.500000000   0.000000000   0.683630000    0   0   0
O0       0.520440611   0.500000000   0.686548348
H2       0.378914571   0.500000000   0.702493747

     Check: negative starting charge=   -0.003471
     NEW-OLD atomic charge density approx. for the potential

     Check: negative/imaginary core charge=   -0.000004    0.000000
     Check: negative starting charge=   -0.003475

[...]

     Self-consistent Calculation

[...]

     Threshold (ethr) on eigenvalues was too large:
     Diagonalizing with lowered threshold

     Davidson diagonalization with overlap
     ethr =  2.61E-09,  avg # of iterations =  1.0

[...]

     total energy              =   -3295.48141934 Ry
     Harris-Foulkes estimate   =   -3295.48141934 Ry
     estimated scf accuracy    <       0.00000007 Ry

     iteration # 15     ecut=    40.00 Ry     beta=0.30
     Davidson diagonalization with overlap
     ethr =  6.07E-12,  avg # of iterations =  1.0

     negative rho (up, down):  0.470E-02 0.000E+00

     End of self-consistent calculation

[...]

          k = 0.2500-0.3900 0.0000 ( 41418 PWs)   bands (ev):

[...]

          k =-0.5000-0.3900 0.0000 ( 41316 PWs)   bands (ev):

   -61.3718 -61.2700 -61.2576 -61.2575 -61.2274 -61.1060 -61.1059 -61.0832
   -61.0624 -61.0498 -61.0371 -61.0251 -61.0243 -61.0071 -60.9520 -60.8901
   -35.7491 -35.7444 -35.6091 -35.5731 -35.5730 -35.5240 -35.5146 -35.4150
   -35.4075 -35.4067 -35.3975 -35.3970 -35.3925 -35.3869 -35.3766 -35.3482
   -35.3220 -35.3067 -35.3047 -35.2817 -35.2809 -35.2790 -35.2736 -35.2725
   -35.2434 -35.2174 -35.2167 -35.1907 -35.1844 -35.1705 -35.1695 -35.1573
   -35.1289 -35.1276 -35.1271 -35.1248 -35.1155 -35.1152 -35.1101 -35.0967
   -35.0859 -35.0668 -35.0522 -35.0433 -34.9731 -34.8305 -34.8129 -34.7200
   -18.8987 -18.7203 -18.5368 -18.2920 -18.2678 -18.2634 -18.2618 -18.1457
   -18.0905 -18.0887 -18.0723 -18.0629 -18.0437 -17.9903 -17.9133 -17.8321
   -17.8170 -17.8132 -17.7591 -17.7586 -17.6886 -17.6787 -17.6388 -17.6293
   -17.6079 -17.4867 -17.4761 -17.2109 -16.7687 -16.7685 -16.5082 -16.0717
   -16.0500  -7.0701  -6.5173  -6.4358  -6.4343  -6.4115  -6.3547  -6.3524
    -6.3223  -6.2702  -6.1686  -6.1416  -6.1248  -6.0145  -5.9941  -5.9116
    -5.7392  -5.7063  -5.6225  -5.5673  -5.5234  -5.4367  -5.4273  -5.4149
    -5.2091  -5.1245  -5.1131  -5.0992  -5.0832  -5.0718  -4.9127  -4.9106
    -4.8613  -4.7213  -4.7084  -4.6510  -4.6491  -4.6158  -4.6029  -4.5746
    -4.5483  -4.5463  -4.5301  -4.5206  -4.4045  -4.2502  -4.2205  -4.2148
    -4.1261  -4.0442  -3.9960  -3.9430  -3.8609  -3.8535  -3.7970  -3.7656
    -3.7326  -3.6594  -3.6219  -3.5984  -3.5676  -3.5220  -3.5024  -3.3649
    -3.3563  -3.3296  -3.2963  -3.2742  -3.2680  -3.2159  -3.2027  -3.1125
    -3.0592  -2.9027  -2.8918  -2.8057  -2.8027  -2.6805  -2.4536  -2.4393
    -2.3391  -2.2122  -2.1948  -2.1670  -2.1545  -2.0450  -1.9622  -1.9341
    -1.8682  -1.7595  -1.7534  -1.6821  -1.5291  -1.3926  -1.2474  -1.2417
    -1.2409  -1.2265  -0.5965  -0.1930   0.2077   0.4630   0.4675   0.6135
     0.6288   0.6508   0.8030   0.8111   0.8180   0.8570   0.8669   0.9319
     0.9893   1.0387   1.0778   1.1262   1.2139   1.2445   1.3526   1.3703
     1.6198   1.6912   1.7224   1.8828   1.9229   1.9502   2.0080   2.0904
     2.1807   2.1977   2.2904   2.3062   2.4498   2.4695   2.5002   2.5215
     2.6599   2.6739   2.7165   2.7317   2.8646   2.8889   2.9593   2.9982
     3.1265   3.1575   3.1690   3.1877   3.2160   3.5071   3.7726   4.0902
     4.0959   4.2205   4.2252   4.2279   4.2284   4.4843   4.5342   4.7361
     5.0044   5.0900   5.1242   5.5078   5.8960   5.9168   6.0504   6.1923
     6.3319   6.4991   6.5776   6.6137   6.6906   6.7491   6.8941   6.9988
     7.0181   7.0776   7.2211   7.2516   7.3219   7.3701   7.4147   8.3540
     8.3603   8.3722   8.4855   8.4874   8.6753   8.6773   8.6954   8.7419
     8.8693   8.8828   8.9680   8.9994   9.0958   9.1759   9.2321   9.2417
     9.4575   9.4611   9.4823   9.5786   9.6292   9.6898   9.7605   9.7667
    10.0944  10.1061  10.1709  10.2726  10.2886  10.3344  10.4559  10.5018
    10.8855  10.9202  10.9696  11.0275  11.0964  11.1105  11.2400  11.3658
    11.7655  11.8536  11.9540  12.1011  12.2830  12.3113  12.3292  12.5112
    12.7983  12.8316  12.8419  12.9288  13.0173  13.0703  13.0828  13.1437
    13.1895  13.2520  13.2910  13.3334  13.3496  13.3806  13.4999  13.5784
    13.6764  13.7163  13.7716  13.9782  14.1532  14.1631  14.1857  14.2986
    14.4715  14.5666  14.5738  14.5900  14.5934  14.5972  14.6282  14.6535
    14.6659  14.7388  14.7524  14.8152  14.8631  14.8691  14.8888  14.9203
    14.9322  14.9493  14.9613  14.9816  15.0728  15.1237  15.1549  15.2245
    15.2307  15.2665  15.2748  15.2814  15.3335  15.3338  15.4058  15.4705
    15.5039  15.5120  15.5651  15.6019  15.6210  15.6871  15.6895  15.7143
    15.7533  15.7557  15.8181  15.8478  15.8958  15.9402  16.0460  16.1006
    16.1403  16.1627  16.2458  16.2695  16.3094  16.3626  16.3990  16.4954
    16.5438  16.5541  16.6345  16.8150  16.8280  16.9440  16.9981  17.0136
    17.0341  17.0799  17.1306  17.1678  17.2800  17.3472  17.4201  17.4344
    17.5996  17.6324  17.6768  17.8077  17.8719  17.9115  17.9510  17.9752
    18.0083  18.0449  18.1339  18.1726  18.3070  18.4293  18.4483  18.4547
    18.4952  18.5270  18.5318  18.6264  18.6851  18.7237  18.7455  18.7847
    18.8191  18.8277  18.8446  18.8822  18.8836  18.9551  19.0457  19.0554
    19.1467  19.1485  19.1653  19.1934  19.2454  19.3119  19.3700  19.4346
    19.4786  19.4909  19.5464  19.5776  19.5804  19.6112  19.6287  19.6841
    19.6929  19.7864  19.7963  19.8336  19.9075  19.9383  19.9388  20.0333
[...]
    22.3392  22.3738  22.3863  22.4217  22.4601  22.4649  22.5268  22.6084
    22.6542  22.7828  22.8079  22.8111  22.8171  22.8967  23.0442  23.0637
    23.1264  23.1976  23.2452  23.2639  23.2677  23.3193  23.3487  23.3767
    23.3799  23.4238  23.4399  23.5069  23.5235  23.5377  23.5601  23.6287
    23.6321  23.6892  23.7174  23.7299  23.7634  23.7866  23.8277  24.0542
    24.0857  24.1568  24.1599  24.3222  24.3377  24.4120  24.4127  24.4643
    24.5132  24.5244  24.5601  24.5613  24.6497  24.6639  24.7275  24.7401
    24.7528  24.7903  24.8060  24.8227  24.8937  24.9228  24.9774  25.0007
    25.0186  25.0232  25.0379  25.0409  25.0798  25.1402  25.1704  25.2663
    25.2893  25.3241  25.3687  25.4420  25.4499  25.4634  25.5337  25.5606
    25.6052  25.6169  25.6829  25.6952  25.7172  25.7307  25.7755  25.7941
    25.8331  25.8340  25.9294  25.9479  25.9807  26.0399  26.0427  26.0926
    26.1083  26.2071  26.2278  26.2649  26.3297  26.3695  26.3884  26.4632
    26.4752  26.5092  26.5192  26.5515  26.6044  26.6610  26.7400  26.7428
    26.7876  26.7890

     the Fermi energy is     1.2153 ev

!    total energy              =   -3295.48141933 Ry
     Harris-Foulkes estimate   =   -3295.48141934 Ry
     estimated scf accuracy    <          7.6E-09 Ry

     The total energy is the sum of the following terms:

     one-electron contribution =  -76856.54245484 Ry
     hartree contribution      =   38481.71515884 Ry
     xc contribution           =    -546.45654794 Ry
     ewald contribution        =   35625.80294191 Ry
     smearing contrib. (-TS)   =      -0.00051729 Ry

     convergence has been achieved in  15 iterations

     Forces acting on atoms (Ry/au):

     negative rho (up, down):  0.470E-02 0.000E+00
     atom    1 type  1   force =     0.00000875    0.00000000    0.12881346
     atom    2 type  2   force =    -0.00265021    0.00000000   -0.15114486
     atom    3 type  2   force =     0.00001036    0.00000000    0.09281101
     atom    4 type  1   force =     0.00069799    0.02482823   -0.01323776
     atom    5 type  1   force =     0.00069799   -0.02482823   -0.01323776
     atom    6 type  1   force =     0.00000406    0.00000000   -0.01285709
     atom    7 type  1   force =     0.00000274    0.00000000   -0.03524803
     atom    8 type  2   force =    -0.00459094    0.00000000    0.02665699
     atom    9 type  2   force =    -0.00015025    0.00000000   -0.04465882
     atom   10 type  1   force =     0.00337193   -0.01660717   -0.00172205
     atom   11 type  1   force =     0.00337193    0.01660717   -0.00172205
     atom   12 type  1   force =     0.00002327    0.00000000    0.00008709
     atom   13 type  1   force =    -0.00021470    0.00000000    0.00157791
     atom   14 type  2   force =     0.00072839    0.00000000   -0.00047983
     atom   15 type  2   force =    -0.00003395    0.00000000    0.00115485
     atom   16 type  1   force =    -0.00105905    0.00064838   -0.00036205
     atom   17 type  1   force =    -0.00105905   -0.00064838   -0.00036205
     atom   18 type  1   force =     0.00080480    0.00000000    0.00456346
     atom   19 type  1   force =     0.00056707    0.00000000   -0.00641943
     atom   20 type  2   force =    -0.01951361    0.00000000    0.01019904
     atom   21 type  2   force =    -0.01233094    0.00000000    0.01407953
     atom   22 type  1   force =    -0.03109414    0.01867863   -0.03551409
     atom   23 type  1   force =    -0.03109414   -0.01867863   -0.03551409
     atom   24 type  1   force =     0.00118411    0.00000000   -0.00808061
     atom   25 type  1   force =    -0.00000821    0.00000000    0.13099818
     atom   26 type  2   force =     0.00264386    0.00000000   -0.15109270
     atom   27 type  2   force =    -0.00000459    0.00000000    0.09346319
     atom   28 type  1   force =    -0.00070387    0.02482540   -0.01324003
     atom   29 type  1   force =    -0.00070387   -0.02482540   -0.01324003
     atom   30 type  1   force =     0.00000802    0.00000000    0.00756343
     atom   31 type  1   force =     0.00001165    0.00000000   -0.03908218
     atom   32 type  2   force =     0.00451464    0.00000000    0.02662185
     atom   33 type  2   force =     0.00010351    0.00000000   -0.00494112
     atom   34 type  1   force =    -0.00336976   -0.01657257   -0.00168578
     atom   35 type  1   force =    -0.00336976    0.01657257   -0.00168578
     atom   36 type  1   force =     0.00000820    0.00000000   -0.00477579
     atom   37 type  1   force =     0.00004629    0.00000000   -0.00375287
     atom   38 type  2   force =     0.00064241    0.00000000   -0.00093084
     atom   39 type  2   force =     0.00005043    0.00000000    0.00070250
     atom   40 type  1   force =     0.00099667    0.00057606   -0.00037426
     atom   41 type  1   force =     0.00099667   -0.00057606   -0.00037426
     atom   42 type  1   force =    -0.00380575    0.00000000   -0.06139007
     atom   43 type  1   force =    -0.00028086    0.00000000    0.00564518
     atom   44 type  2   force =     0.01870702    0.00000000    0.01240892
     atom   45 type  2   force =     0.00737075    0.00000000    0.20524687
     atom   46 type  1   force =     0.03442436    0.02477298   -0.04514892
     atom   47 type  1   force =     0.03442436   -0.02477298   -0.04514892
     atom   48 type  1   force =    -0.00018766    0.00000000   -0.01475819
     atom   49 type  1   force =     0.00002201    0.00000000   -0.00046411
     atom   50 type  3   force =    -0.00021893    0.00000000    0.00005298

     Total force =     0.000516     Total SCF correction =     0.000030

     bfgs converged in  19 scf cycles and  17 bfgs steps
     (criteria: energy < 0.10E-03, force < 0.10E-02)

     End of BFGS Geometry Optimization

     Final energy   =   -3295.4814193327 Ry
Begin final coordinates

ATOMIC_POSITIONS (crystal)
O0       0.000000000   0.500000000   0.319310000    0   0   0
Mo1      0.250000000   0.500000000   0.360290000    0   0   0
Mo1      0.000000000   0.000000000   0.360290000    0   0   0
O0       0.250000000   0.780000000   0.360290000    0   0   0
O0       0.250000000   0.220000000   0.360290000    0   0   0
O0       0.000000000   0.500000000   0.401270000    0   0   0
O0       0.000000000   0.000000000   0.412450000    0   0   0
Mo1      0.250000000   0.000000000   0.453430000    0   0   0
Mo1      0.000000000   0.500000000   0.453430000    0   0   0
O0       0.250000000   0.720000000   0.453430000    0   0   0
O0       0.250000000   0.280000000   0.453430000    0   0   0
O0       0.000000000   0.000000000   0.494410000    0   0   0
O0       0.000000000   0.500000000   0.504230000    0   0   0
Mo1      0.228660000   0.500000000   0.544660000    0   0   0
Mo1      0.000000000   0.000000000   0.550120000    0   0   0
O0       0.246020000   0.783280000   0.547490000    0   0   0
O0       0.246020000   0.216720000   0.547490000    0   0   0
O0       0.000000000   0.500000000   0.586970000    0   0   0
O0       0.000000000   0.000000000   0.602950000    0   0   0
Mo1      0.271940000   0.000000000   0.644350000    0   0   0
Mo1      0.000000000   0.500000000   0.635790000    0   0   0
O0       0.256870000   0.704770000   0.644050000    0   0   0
O0       0.256870000   0.295230000   0.644050000    0   0   0
O0       0.000000000   0.000000000   0.677650000    0   0   0
O0       0.500000000   0.500000000   0.319310000    0   0   0
Mo1      0.750000000   0.500000000   0.360290000    0   0   0
Mo1      0.500000000   0.000000000   0.360290000    0   0   0
O0       0.750000000   0.780000000   0.360290000    0   0   0
O0       0.750000000   0.220000000   0.360290000    0   0   0
O0       0.500000000   0.500000000   0.401270000    0   0   0
O0       0.500000000   0.000000000   0.412450000    0   0   0
Mo1      0.750000000   0.000000000   0.453430000    0   0   0
Mo1      0.500000000   0.500000000   0.453430000    0   0   0
O0       0.750000000   0.720000000   0.453430000    0   0   0
O0       0.750000000   0.280000000   0.453430000    0   0   0
O0       0.500000000   0.000000000   0.494410000    0   0   0
O0       0.500000000   0.500000000   0.507450000    0   0   0
Mo1      0.771340000   0.500000000   0.544660000    0   0   0
Mo1      0.500000000   0.000000000   0.548020000    0   0   0
O0       0.753980000   0.783280000   0.547490000    0   0   0
O0       0.753980000   0.216720000   0.547490000    0   0   0
O0       0.500000000   0.500000000   0.583830000    0   0   0
O0       0.500000000   0.000000000   0.600640000    0   0   0
Mo1      0.728060000   0.000000000   0.644350000    0   0   0
Mo1      0.500000000   0.500000000   0.632730000    0   0   0
O0       0.743130000   0.704770000   0.644050000    0   0   0
O0       0.743130000   0.295230000   0.644050000    0   0   0
O0       0.500000000   0.000000000   0.683630000    0   0   0
O0       0.520440611   0.500000000   0.686548348
H2       0.378914571   0.500000000   0.702493747
End final coordinates

     General routines

     Parallel routines

   This run was terminated on:   7:30:24  29Mar2014

   JOB DONE.
Running PBS batch system epilogue script
Job id: 314579.audhumbla.fysik.dtu.dk
Username: zhonxu
Groupname: campgst
Jobname: MoO2/Eads-4-layers/OH
Sessionid: 59854
Queuename: verylong
Accounting:
This job has allocated the following 32 nodes:
g067 g067 g067 g067 g067 g067 g067 g067 g067 g067 g067 g067 g067 g067 g067 g067 g066 g066 g066 g066 g066 g066 g066 g066 g066 g066 g066 g066 g066 g066 g066 g066
Finished epilogue job 314579.audhumbla.fysik.dtu.dk for zhonxu