     Program PWSCF v.5.0.2 (svn rev. 9656) starts on 11Aug2014 at 15: 6:13

     Current dimensions of program PWSCF are:
     Max number of different atomic species (ntypx) = 10
     Max number of k-points (npk) =  40000
     Max angular momentum in pseudopotentials (lmaxx) =  3
     Reading input from pwscf.in
Warning: card &CELL ignored
Warning: card / ignored

     Subspace diagonalization in iterative solution of the eigenvalue problem:
     a serial algorithm will be used

     bravais-lattice index     =            0
     lattice parameter (alat)  =      11.7919  a.u.
     unit-cell volume          =    7123.6633 (a.u.)^3
     number of atoms/cell      =           33
     number of atomic types    =            3
     number of electrons       =       253.00
     number of Kohn-Sham states=          379
     kinetic-energy cutoff     =      40.0000  Ry
     charge density cutoff     =     500.0000  Ry
     convergence threshold     =      1.0E-06
     mixing beta               =       0.7000
     number of iterations used =            8  plain     mixing
     Exchange-correlation      = SLA  PW   PBE  PBE ( 1 4 3 4 0)
     EXX-fraction              =        0.00
     nstep                     =           50

     celldm(1)=  11.791891  celldm(2)=   0.000000  celldm(3)=   0.000000
     celldm(4)=   0.000000  celldm(5)=   0.000000  celldm(6)=   0.000000

     crystal axes: (cart. coord. in units of alat)
               a(1) = (   1.000000   0.000000   0.000000 )
               a(2) = (   0.000000   1.026665   0.000000 )
               a(3) = (   0.000000   0.000000   4.231793 )

     reciprocal axes: (cart. coord. in units 2 pi/alat)
               b(1) = (  1.000000  0.000000  0.000000 )
               b(2) = (  0.000000  0.974028  0.000000 )
               b(3) = (  0.000000  0.000000  0.236306 )

     PseudoPot. # 1 for O  read from file:
     /home-research/zhongnanxu/gbrv_espresso_pseudo_v1.01/o_pbe_v1.01.uspp.F.UPF
     MD5 check sum: 2bcb18d16ea4b960afae9ec6d52f22d2
     Pseudo is Ultrasoft + core correction, Zval =  6.0
     Generated by new atomic code, or converted to UPF format
     Using radial grid of  737 points,  5 beta functions with:
                l(1) =   0
                l(2) =   0
                l(3) =   1
                l(4) =   1
                l(5) =   2
     Q(r) pseudized with  8 coefficients,  rinner =    0.900   0.900   0.900
                                                       0.900   0.900

     PseudoPot. # 2 for Ru read from file:
     /home-research/zhongnanxu/gbrv_espresso_pseudo_v1.01/ru_pbe_v1.uspp.F.UPF
     MD5 check sum: df00be1c11b23341d9806d8f1dfa10cf
     Pseudo is Ultrasoft + core correction, Zval = 16.0
     Generated by new atomic code, or converted to UPF format
     Using radial grid of  967 points,  6 beta functions with:
                l(1) =   0
                l(2) =   0
                l(3) =   1
                l(4) =   1
                l(5) =   2
                l(6) =   2
     Q(r) pseudized with  8 coefficients,  rinner =    1.300   1.300   1.300
                                                       1.300   1.300

     PseudoPot. # 3 for H  read from file:
     /home-research/zhongnanxu/gbrv_espresso_pseudo_v1.01/h_pbe_v1.uspp.F.UPF
     MD5 check sum: 3408e3ff4ec8b0a4e358431e7e038a48
     Pseudo is Ultrasoft, Zval =  1.0
     Generated by new atomic code, or converted to UPF format
     Using radial grid of  615 points,  2 beta functions with:
                l(1) =   0
                l(2) =   0
     Q(r) pseudized with  8 coefficients,  rinner =    0.700

     atomic species   valence    mass     pseudopotential
        O0             6.00    15.99940     O ( 1.00)
        Ru1           16.00   101.07000     Ru( 1.00)
        H2             1.00     1.00794     H ( 1.00)

     Simplified LDA+U calculation (l_max = 2) with parameters (eV):
     atomic species    L          U    alpha       J0     beta
        Ru1            2     6.5000   0.0000   0.0000   0.0000

     No symmetry found

   Cartesian axes

     site n.     atom                  positions (alat units)
         1           O0  tau(   1) = (   0.0000000   0.0000000   1.6075735  )
         2           O0  tau(   2) = (   0.0000000   0.5133323   1.7115909  )
         3           Ru1 tau(   3) = (   0.2500000   0.5133323   1.9193297  )
         4           Ru1 tau(   4) = (   0.0000000   0.0000000   1.9174677  )
         5           O0  tau(   5) = (   0.2500000   0.8315984   1.9155634  )
         6           O0  tau(   6) = (   0.2500000   0.1950663   1.9148863  )
         7           O0  tau(   7) = (   0.0000000   0.5133323   2.1189010  )
         8           O0  tau(   8) = (   0.0000000   0.0000000   2.2257961  )
         9           Ru1 tau(   9) = (   0.2500000   0.0000000   2.4582485  )
        10           Ru1 tau(  10) = (   0.0000000   0.5133323   2.4096675  )
        11           O0  tau(  11) = (   0.2500000   0.7083986   2.4426755  )
        12           O0  tau(  12) = (   0.2500000   0.3182660   2.4524509  )
        13           O0  tau(  13) = (   0.0000000   0.0000000   2.6149518  )
        14           O0  tau(  14) = (   0.5000000   0.0000000   1.6040611  )
        15           O0  tau(  15) = (   0.5000000   0.5133323   1.7011807  )
        16           Ru1 tau(  16) = (   0.7500000   0.5133323   1.9189488  )
        17           Ru1 tau(  17) = (   0.5000000   0.0000000   1.9135321  )
        18           O0  tau(  18) = (   0.7500000   0.8315984   1.9154364  )
        19           O0  tau(  19) = (   0.7500000   0.1950663   1.9155210  )
        20           O0  tau(  20) = (   0.5000000   0.5133323   2.1189856  )
        21           O0  tau(  21) = (   0.5000000   0.0000000   2.2215643  )
        22           Ru1 tau(  22) = (   0.7500000   0.0000000   2.4224475  )
        23           Ru1 tau(  23) = (   0.5000000   0.5133323   2.4500388  )
        24           O0  tau(  24) = (   0.7500000   0.7083986   2.4243518  )
        25           O0  tau(  25) = (   0.7500000   0.3182660   2.4326461  )
        26           O0  tau(  26) = (   0.5000000   0.0000000   2.6072499  )
        27           H2  tau(  27) = (  -0.0001800   0.6233702   1.5987290  )
        28           H2  tau(  28) = (   0.4996600   0.6482669   1.6189993  )
        29           H2  tau(  29) = (   0.1478100   0.0258103   1.5564534  )
        30           H2  tau(  30) = (   0.6468800   0.0276583   1.5516292  )
        31           O0  tau(  31) = (   0.5000700   0.5425615   2.7514694  )
        32           O0  tau(  32) = (   0.4999900   0.3458525   2.8740644  )
        33           H2  tau(  33) = (   0.4999600   0.4066105   3.0201459  )

     number of k points=    10  Methfessel-Paxton smearing, width (Ry)=  0.0100
                       cart. coord. in units 2pi/alat
        k(    1) = (   0.0000000   0.0000000   0.0000000), wk =   0.1250000
        k(    2) = (   0.0000000   0.2435070   0.0000000), wk =   0.2500000
        k(    3) = (   0.0000000  -0.4870139   0.0000000), wk =   0.1250000
        k(    4) = (   0.2500000   0.0000000   0.0000000), wk =   0.2500000
        k(    5) = (   0.2500000   0.2435070   0.0000000), wk =   0.2500000
        k(    6) = (   0.2500000  -0.4870139   0.0000000), wk =   0.2500000
        k(    7) = (  -0.5000000   0.0000000   0.0000000), wk =   0.1250000
        k(    8) = (  -0.5000000   0.2435070   0.0000000), wk =   0.2500000
        k(    9) = (  -0.5000000  -0.4870139   0.0000000), wk =   0.1250000
        k(   10) = (  -0.2500000   0.2435070   0.0000000), wk =   0.2500000

     Largest allocated arrays     est. size (Mb)     dimensions
     Largest temporary arrays     est. size (Mb)     dimensions

     Check: negative/imaginary core charge=   -0.000003    0.000000

     Initial potential from superposition of free atoms
     Check: negative starting charge=   -0.521236

     starting charge  244.99980, renormalised to  253.00000

     negative rho (up, down):  0.538E+00 0.000E+00
     Number of +U iterations with fixed ns =  0
     Starting occupations:
 --- enter write_ns ---
 LDA+U parameters:
U( 2)     =  6.50000000
alpha( 2) =  0.00000000
atom    3   Tr[ns(na)] =   6.00000
    eigenvalues:
  0.600  0.600  0.600  0.600  0.600
    eigenvectors:
  1.000  0.000  0.000  0.000  0.000
  0.000  1.000  0.000  0.000  0.000
  0.000  0.000  1.000  0.000  0.000
  0.000  0.000  0.000  1.000  0.000
  0.000  0.000  0.000  0.000  1.000
    occupations:
  0.600  0.000  0.000  0.000  0.000
  0.000  0.600  0.000  0.000  0.000
  0.000  0.000  0.600  0.000  0.000
  0.000  0.000  0.000  0.600  0.000
  0.000  0.000  0.000  0.000  0.600
atom    4   Tr[ns(na)] =   6.00000
    eigenvalues:
  0.600  0.600  0.600  0.600  0.600
    eigenvectors:
  1.000  0.000  0.000  0.000  0.000
  0.000  1.000  0.000  0.000  0.000
  0.000  0.000  1.000  0.000  0.000
  0.000  0.000  0.000  1.000  0.000
  0.000  0.000  0.000  0.000  1.000
    occupations:
  0.600  0.000  0.000  0.000  0.000
  0.000  0.600  0.000  0.000  0.000
  0.000  0.000  0.600  0.000  0.000
  0.000  0.000  0.000  0.600  0.000
  0.000  0.000  0.000  0.000  0.600
atom    9   Tr[ns(na)] =   6.00000
    eigenvalues:
  0.600  0.600  0.600  0.600  0.600
    eigenvectors:
  1.000  0.000  0.000  0.000  0.000
  0.000  1.000  0.000  0.000  0.000
  0.000  0.000  1.000  0.000  0.000
  0.000  0.000  0.000  1.000  0.000
  0.000  0.000  0.000  0.000  1.000
    occupations:
  0.600  0.000  0.000  0.000  0.000
  0.000  0.600  0.000  0.000  0.000
  0.000  0.000  0.600  0.000  0.000
  0.000  0.000  0.000  0.600  0.000
  0.000  0.000  0.000  0.000  0.600
atom   10   Tr[ns(na)] =   6.00000
    eigenvalues:
  0.600  0.600  0.600  0.600  0.600
    eigenvectors:
  1.000  0.000  0.000  0.000  0.000
  0.000  1.000  0.000  0.000  0.000
  0.000  0.000  1.000  0.000  0.000
  0.000  0.000  0.000  1.000  0.000
  0.000  0.000  0.000  0.000  1.000
    occupations:
  0.600  0.000  0.000  0.000  0.000
  0.000  0.600  0.000  0.000  0.000
  0.000  0.000  0.600  0.000  0.000
  0.000  0.000  0.000  0.600  0.000
  0.000  0.000  0.000  0.000  0.600
atom   16   Tr[ns(na)] =   6.00000
    eigenvalues:
  0.600  0.600  0.600  0.600  0.600
    eigenvectors:
  1.000  0.000  0.000  0.000  0.000
  0.000  1.000  0.000  0.000  0.000
  0.000  0.000  1.000  0.000  0.000
  0.000  0.000  0.000  1.000  0.000
  0.000  0.000  0.000  0.000  1.000
    occupations:
  0.600  0.000  0.000  0.000  0.000
  0.000  0.600  0.000  0.000  0.000
  0.000  0.000  0.600  0.000  0.000
  0.000  0.000  0.000  0.600  0.000
  0.000  0.000  0.000  0.000  0.600
atom   17   Tr[ns(na)] =   6.00000
    eigenvalues:
  0.600  0.600  0.600  0.600  0.600
    eigenvectors:
  1.000  0.000  0.000  0.000  0.000
  0.000  1.000  0.000  0.000  0.000
  0.000  0.000  1.000  0.000  0.000
  0.000  0.000  0.000  1.000  0.000
  0.000  0.000  0.000  0.000  1.000
    occupations:
  0.600  0.000  0.000  0.000  0.000
  0.000  0.600  0.000  0.000  0.000
  0.000  0.000  0.600  0.000  0.000
  0.000  0.000  0.000  0.600  0.000
  0.000  0.000  0.000  0.000  0.600
atom   22   Tr[ns(na)] =   6.00000
    eigenvalues:
  0.600  0.600  0.600  0.600  0.600
    eigenvectors:
[...]
    occupations:
  0.589 -0.001 -0.003 -0.024  0.007
 -0.001  0.600  0.002  0.002 -0.001
 -0.003  0.002  0.922 -0.005 -0.003
 -0.024  0.002 -0.005  0.627 -0.003
  0.007 -0.001 -0.003 -0.003  0.874
atom   10   Tr[ns(na)] =   7.27931
    eigenvalues:
  0.522  0.533  0.696  0.906  0.983
    eigenvectors:
  0.973  0.009  0.000  0.000  0.018
  0.000  0.001  0.001  0.994  0.005
  0.000  0.000  0.999  0.001  0.000
  0.018  0.000  0.000  0.005  0.977
  0.009  0.990  0.000  0.001  0.000
    occupations:
  0.530 -0.001  0.001  0.061 -0.001
 -0.001  0.906 -0.006  0.006 -0.009
  0.001 -0.006  0.696 -0.001  0.003
  0.061  0.006 -0.001  0.974  0.000
 -0.001 -0.009  0.003  0.000  0.533
atom   16   Tr[ns(na)] =   7.23675
    eigenvalues:
  0.504  0.555  0.637  0.937  0.985
    eigenvectors:
  0.006  0.165  0.004  0.000  0.825
  0.978  0.021  0.000  0.000  0.000
  0.000  0.008  0.932  0.050  0.010
  0.016  0.806  0.015  0.000  0.164
  0.000  0.000  0.049  0.950  0.001
    occupations:
  0.910  0.013  0.035 -0.159  0.008
  0.013  0.505  0.005  0.003 -0.006
  0.035  0.005  0.655 -0.008 -0.064
 -0.159  0.003 -0.008  0.626 -0.002
  0.008 -0.006 -0.064 -0.002  0.922
atom   17   Tr[ns(na)] =   7.25804
    eigenvalues:
  0.548  0.606  0.613  0.875  0.987
    eigenvectors:
  0.002  0.981  0.001  0.000  0.016
  0.000  0.000  0.019  0.980  0.000
  0.000  0.001  0.980  0.019  0.000
  0.000  0.016  0.000  0.000  0.984
  0.998  0.002  0.000  0.000  0.000
    occupations:
  0.612 -0.004  0.000  0.048  0.003
 -0.004  0.870  0.036  0.001 -0.001
  0.000  0.036  0.618  0.003  0.000
  0.048  0.001  0.003  0.980  0.000
  0.003 -0.001  0.000  0.000  0.548
atom   22   Tr[ns(na)] =   7.30603
    eigenvalues:
  0.538  0.566  0.692  0.890  0.968
    eigenvectors:
  0.004  0.155  0.000  0.000  0.840
  0.985  0.014  0.000  0.000  0.000
  0.000  0.001  0.991  0.008  0.000
  0.010  0.830  0.001  0.000  0.159
  0.000  0.000  0.008  0.991  0.001
    occupations:
  0.904  0.008 -0.001 -0.147  0.002
  0.008  0.539  0.002  0.000  0.000
 -0.001  0.002  0.693 -0.003 -0.018
 -0.147  0.000 -0.003  0.629  0.000
  0.002  0.000 -0.018  0.000  0.888
atom   23   Tr[ns(na)] =   7.30084
    eigenvalues:
  0.532  0.570  0.661  0.915  0.972
    eigenvectors:
  0.000  0.997  0.001  0.001  0.001
  0.003  0.001  0.994  0.001  0.001
  0.001  0.001  0.001  0.997  0.001
  0.000  0.001  0.002  0.001  0.996
  0.996  0.000  0.003  0.001  0.000
    occupations:
  0.571 -0.004  0.010  0.013 -0.001
 -0.004  0.662 -0.007 -0.012 -0.006
  0.010 -0.007  0.914 -0.002 -0.010
  0.013 -0.012 -0.002  0.971  0.000
 -0.001 -0.006 -0.010  0.000  0.533
N of occupied +U levels =  58.0933400
 --- exit write_ns ---

     Threshold (ethr) on eigenvalues was too large:
     Diagonalizing with lowered threshold

     Davidson diagonalization with overlap
     ethr =  7.59E-09,  avg # of iterations =  3.0

[...]

     total energy              =   -2193.35889436 Ry
     Harris-Foulkes estimate   =   -2193.35889437 Ry
     estimated scf accuracy    <       0.00000005 Ry

     iteration # 19     ecut=    40.00 Ry     beta=0.70
     Davidson diagonalization with overlap
     ethr =  5.33E-12,  avg # of iterations =  1.0

     negative rho (up, down):  0.572E+00 0.000E+00

     End of self-consistent calculation
 --- enter write_ns ---
 LDA+U parameters:
U( 2)     =  6.50000000
alpha( 2) =  0.00000000
atom    3   Tr[ns(na)] =   7.23617
    eigenvalues:
  0.503  0.558  0.635  0.937  0.986
    eigenvectors:
  0.009  0.167  0.004  0.000  0.820
  0.964  0.034  0.001  0.000  0.001
  0.001  0.008  0.871  0.110  0.010
  0.026  0.789  0.016  0.000  0.168
  0.000  0.001  0.108  0.890  0.001
    occupations:
  0.908 -0.014  0.034 -0.160 -0.013
 -0.014  0.506 -0.007 -0.005 -0.006
  0.034 -0.007  0.671 -0.009  0.094
 -0.160 -0.005 -0.009  0.629  0.002
 -0.013 -0.006  0.094  0.002  0.904
atom    4   Tr[ns(na)] =   7.25508
    eigenvalues:
  0.549  0.598  0.605  0.890  0.986
    eigenvectors:
  0.002  0.002  0.977  0.000  0.018
  0.000  0.014  0.000  0.986  0.000
  0.000  0.984  0.002  0.014  0.000
  0.000  0.000  0.018  0.000  0.982
  0.997  0.000  0.002  0.000  0.000
    occupations:
  0.611 -0.001  0.000  0.051  0.003
 -0.001  0.886  0.034 -0.001 -0.001
  0.000  0.034  0.602  0.001  0.001
  0.051 -0.001  0.001  0.979  0.000
  0.003 -0.001  0.001  0.000  0.549
atom    9   Tr[ns(na)] =   7.22190
    eigenvalues:
  0.577  0.600  0.638  0.874  0.922
    eigenvectors:
  0.810  0.001  0.188  0.001  0.000
  0.000  0.998  0.002  0.000  0.000
  0.000  0.000  0.000  0.003  0.997
  0.189  0.002  0.809  0.000  0.000
  0.000  0.000  0.001  0.996  0.003
    occupations:
  0.589 -0.001 -0.003 -0.024  0.007
 -0.001  0.600  0.002  0.002 -0.001
 -0.003  0.002  0.922 -0.005 -0.003
 -0.024  0.002 -0.005  0.627 -0.003
  0.007 -0.001 -0.003 -0.003  0.874
atom   10   Tr[ns(na)] =   7.27848
    eigenvalues:
  0.522  0.533  0.696  0.906  0.983
    eigenvectors:
  0.974  0.009  0.000  0.000  0.018
  0.000  0.000  0.001  0.994  0.005
  0.000  0.000  0.999  0.001  0.000
  0.018  0.000  0.000  0.005  0.977
  0.009  0.990  0.000  0.001  0.000
    occupations:
  0.530 -0.001  0.001  0.061 -0.001
 -0.001  0.906 -0.006  0.006 -0.009
  0.001 -0.006  0.696 -0.001  0.003
  0.061  0.006 -0.001  0.974  0.000
 -0.001 -0.009  0.003  0.000  0.533
atom   16   Tr[ns(na)] =   7.23764
    eigenvalues:
  0.504  0.555  0.638  0.937  0.985
    eigenvectors:
  0.006  0.165  0.004  0.000  0.825
  0.978  0.021  0.000  0.000  0.000
  0.000  0.007  0.932  0.050  0.010
  0.016  0.806  0.015  0.000  0.164
  0.000  0.000  0.049  0.950  0.001
    occupations:
  0.910  0.013  0.035 -0.159  0.008
  0.013  0.505  0.005  0.003 -0.006
  0.035  0.005  0.656 -0.008 -0.064
 -0.159  0.003 -0.008  0.626 -0.002
  0.008 -0.006 -0.064 -0.002  0.922
atom   17   Tr[ns(na)] =   7.25863
    eigenvalues:
  0.548  0.606  0.613  0.875  0.987
    eigenvectors:
  0.002  0.981  0.001  0.000  0.016
  0.000  0.000  0.019  0.980  0.000
  0.000  0.000  0.980  0.019  0.000
  0.000  0.016  0.000  0.000  0.984
  0.998  0.002  0.000  0.000  0.000
    occupations:
  0.613 -0.004  0.000  0.048  0.003
 -0.004  0.870  0.036  0.001 -0.001
  0.000  0.036  0.618  0.003  0.000
  0.048  0.001  0.003  0.980  0.000
  0.003 -0.001  0.000  0.000  0.548
atom   22   Tr[ns(na)] =   7.30549
    eigenvalues:
  0.538  0.566  0.692  0.890  0.968
    eigenvectors:
  0.004  0.155  0.000  0.000  0.840
  0.986  0.014  0.000  0.000  0.000
  0.000  0.001  0.991  0.008  0.000
  0.010  0.830  0.001  0.000  0.159
  0.000  0.000  0.008  0.991  0.001
    occupations:
  0.904  0.008 -0.001 -0.147  0.002
  0.008  0.539  0.002  0.000  0.000
 -0.001  0.002  0.693 -0.003 -0.018
 -0.147  0.000 -0.003  0.629  0.000
  0.002  0.000 -0.018  0.000  0.888
atom   23   Tr[ns(na)] =   7.30080
    eigenvalues:
  0.533  0.570  0.661  0.915  0.972
    eigenvectors:
  0.000  0.997  0.001  0.001  0.001
  0.003  0.001  0.994  0.001  0.001
  0.001  0.001  0.001  0.997  0.001
  0.000  0.001  0.001  0.001  0.996
  0.996  0.000  0.003  0.001  0.000
    occupations:
  0.571 -0.004  0.010  0.013 -0.001
 -0.004  0.662 -0.007 -0.011 -0.006
  0.010 -0.007  0.914 -0.002 -0.010
  0.013 -0.011 -0.002  0.971  0.000
 -0.001 -0.006 -0.010  0.000  0.533
N of occupied +U levels =  58.0941770
 --- exit write_ns ---

[...]

          k = 0.2500-0.4870 0.0000 ( 30468 PWs)   bands (ev):

[...]

          k =-0.2500 0.2435 0.0000 ( 30434 PWs)   bands (ev):

   -73.7881 -73.1309 -73.1225 -72.9200 -72.8746 -72.8175 -72.8133 -72.7974
   -44.1468 -43.9357 -43.4578 -43.4462 -43.3757 -43.3117 -43.1658 -43.1500
   -43.1248 -43.1015 -43.0593 -43.0519 -43.0388 -42.9338 -42.9109 -42.8767
   -42.8599 -42.8177 -42.7882 -42.7505 -42.7261 -42.5414 -42.4383 -42.3130
   -23.4179 -20.2817 -19.8959 -19.7629 -19.6072 -19.4688 -19.3869 -19.3523
   -19.2965 -19.0970 -19.0477 -18.8959 -18.8151 -18.7408 -18.6969 -18.6288
   -18.5471 -18.5050 -18.4598 -17.1566  -9.1266  -8.8222  -8.6452  -8.6201
    -8.4388  -8.3933  -8.2069  -8.1384  -7.8623  -7.4253  -7.4165  -7.2621
    -7.2353  -7.1757  -7.0828  -7.0491  -6.9731  -6.9165  -6.7893  -6.7247
    -6.4303  -6.2926  -6.1121  -6.0169  -5.9152  -5.7828  -5.6839  -5.5794
    -5.5115  -5.3848  -5.3064  -5.2143  -5.1209  -4.9971  -4.9652  -4.8984
    -4.7666  -4.6897  -4.6442  -4.5119  -4.4482  -4.3632  -4.3355  -4.1688
    -4.0832  -3.8421  -3.7332  -3.6371  -3.5807  -3.5358  -3.4339  -3.3421
    -3.2176  -3.1532  -3.0544  -2.7964  -2.6703  -2.5557  -2.5144  -2.3895
    -2.3116  -2.1946  -2.1519  -2.0322  -1.9657  -1.8850  -1.8176  -1.7758
    -1.6444  -1.5956  -1.4630  -1.2791  -1.1810  -0.8403  -0.7847  -0.4235
    -0.2935  -0.1231  -0.0188   0.1100   0.2301   0.3571   0.6255   1.7395
     2.0399   2.4141   2.5260   2.5820   3.1188   3.2646   3.4248   3.5786
     3.8211   3.8749   4.0051   4.1078   4.2004   4.2543   4.3154   4.3491
     4.4945   4.6021   4.8565   5.1609   5.5962   5.7551   5.9728   6.0727
     6.1396   6.4523   6.4897   6.6493   6.9198   7.0249   7.1289   7.4368
     7.5900   7.6836   7.8935   8.0917   8.1579   8.3290   8.4004   8.5407
     8.6722   8.8117   8.9604   9.0792   9.0968   9.3134   9.4295   9.4483
     9.6250   9.6960   9.7988   9.8794  10.0329  10.0699  10.1869  10.2894
    10.3198  10.4041  10.4861  10.6308  10.6823  10.7385  10.8797  10.9754
    11.0346  11.1904  11.2533  11.3498  11.4342  11.5714  11.6480  11.7477
    11.8091  11.8935  11.9416  12.0321  12.1146  12.1824  12.2060  12.2752
    12.3755  12.4737  12.5133  12.6266  12.7662  12.7845  12.8495  12.9214
    12.9936  13.0259  13.1700  13.2859  13.3477  13.3969  13.4659  13.5313
    13.6043  13.7250  13.8195  13.8758  13.9508  13.9861  14.0970  14.2010
    14.2818  14.3668  14.4715  14.5341  14.6134  14.6961  14.7840  14.8623
    14.9525  15.0110  15.0991  15.2118  15.2381  15.3362  15.3541  15.4337
    15.5086  15.5504  15.6012  15.7009  15.7475  15.8109  15.8689  15.9200
    15.9956  16.0270  16.0879  16.1270  16.1923  16.2296  16.2515  16.3377
    16.3846  16.4688  16.5502  16.6256  16.7126  16.7542  16.8038  16.9208
    16.9750  17.0160  17.0741  17.2018  17.2455  17.3101  17.3783  17.4684
    17.4977  17.5775  17.6321  17.7109  17.7705  17.8116  17.8593  17.9119
    17.9696  18.0557  18.0809  18.1326  18.2279  18.2803  18.3431  18.4159
    18.4623  18.5416  18.6138  18.7323  18.7859  18.8573  18.9035  19.0022
    19.0322  19.1382  19.2341  19.2683  19.3337  19.4041  19.5294  19.6291
    19.6703  19.7701  19.8250  19.8779  19.9422  19.9861  20.0596  20.1733
    20.2643  20.3364  20.4552  20.5032  20.5724  20.6077  20.6690  20.7524
    20.8740  20.9508  20.9737  21.0833  21.0971  21.1521  21.2121  21.2759
    21.2922  21.3467  21.4484  21.5151  21.5435  21.5889  21.6326  21.6910
    21.8070  21.8399  21.9079  21.9304  21.9503  22.0580  22.1108  22.1738
    22.2526  22.3427  22.3901  22.4206  22.4803  22.5467  22.6685  22.7247
    22.8021  22.8246  22.9031  22.9248  22.9872  23.0826  23.0999  23.1566
    23.1925  23.2674  23.3350

     the Fermi energy is    -0.7394 ev

!    total energy              =   -2193.35889435 Ry
     Harris-Foulkes estimate   =   -2193.35889436 Ry
     estimated scf accuracy    <          9.5E-09 Ry

     The total energy is the sum of the following terms:

     one-electron contribution =  -25559.27591011 Ry
     hartree contribution      =   12812.56554942 Ry
     xc contribution           =    -345.78511447 Ry
     ewald contribution        =   10895.95524007 Ry
     Hubbard energy            =       3.18086958 Ry
     smearing contrib. (-TS)   =       0.00047114 Ry

     convergence has been achieved in  19 iterations

     Forces acting on atoms (Ry/au):

     negative rho (up, down):  0.572E+00 0.000E+00
     atom    1 type  1   force =    -0.00650886   -0.00519996   -0.00023345
     atom    2 type  1   force =     0.00324832    0.00134184   -0.00033380
     atom    3 type  2   force =     0.05626171    0.00415704    0.00009484
     atom    4 type  2   force =     0.01015030    0.00397694   -0.00010872
     atom    5 type  1   force =    -0.00416117   -0.04725702    0.00043282
     atom    6 type  1   force =     0.00594275    0.04608310    0.00054874
     atom    7 type  1   force =    -0.00401319   -0.00723876   -0.00043564
     atom    8 type  1   force =     0.03187424    0.00137126   -0.00077965
     atom    9 type  2   force =    -0.02004336    0.00055301    0.00086645
     atom   10 type  2   force =     0.01726139    0.00243021   -0.00060087
     atom   11 type  1   force =    -0.01691718    0.00679141    0.00021221
     atom   12 type  1   force =    -0.00446768   -0.00143840    0.00015333
     atom   13 type  1   force =     0.04087538   -0.00280639    0.00068358
     atom   14 type  1   force =    -0.00506138   -0.00843296   -0.00044097
     atom   15 type  1   force =     0.00112483    0.00203287   -0.00033898
     atom   16 type  2   force =    -0.05027368    0.00519517    0.00008834
     atom   17 type  2   force =     0.00230785    0.00590981   -0.00010590
     atom   18 type  1   force =    -0.00349949   -0.04809200    0.00053137
     atom   19 type  1   force =     0.00418114    0.04832259    0.00063943
     atom   20 type  1   force =    -0.00866008   -0.00343163    0.00037102
     atom   21 type  1   force =    -0.03322864    0.00082593   -0.00037983
     atom   22 type  2   force =    -0.00603017   -0.00157367   -0.00083354
     atom   23 type  2   force =    -0.00777291   -0.00155676    0.00026919
     atom   24 type  1   force =     0.00885080    0.03694761   -0.00045487
     atom   25 type  1   force =     0.00626754   -0.03272764   -0.00060162
     atom   26 type  1   force =    -0.02585648   -0.00655855    0.00067166
     atom   27 type  3   force =    -0.00004670   -0.00040887   -0.00020300
     atom   28 type  3   force =    -0.00003260    0.00012767   -0.00021669
     atom   29 type  3   force =     0.00040623    0.00006322    0.00077284
     atom   30 type  3   force =     0.00036449    0.00008143    0.00036655
     atom   31 type  1   force =     0.00529864    0.00002257    0.00008523
     atom   32 type  1   force =     0.00361874   -0.00009017   -0.00044909
     atom   33 type  3   force =    -0.00146079    0.00057908   -0.00027098

     Total force =     0.002855     Total SCF correction =     0.000327
     SCF correction compared to forces is large: reduce conv_thr to get better values

     bfgs converged in  13 scf cycles and  12 bfgs steps
     (criteria: energy < 0.10E-03, force < 0.10E-02)

     End of BFGS Geometry Optimization

     Final energy   =   -2193.3588943546 Ry
Begin final coordinates

ATOMIC_POSITIONS (crystal)
O0       0.000000000   0.000000000   0.379714262    0   0   1
O0       0.000000000   0.500000000   0.404991766    0   0   1
Ru1      0.250000000   0.500000000   0.453685700    0   0   1
Ru1      0.000000000   0.000000000   0.452934191    0   0   1
O0       0.250000000   0.810000000   0.452657684    0   0   1
O0       0.250000000   0.190000000   0.452501812    0   0   1
O0       0.000000000   0.500000000   0.500874953    0   0   1
O0       0.000000000   0.000000000   0.525792402    0   0   1
Ru1      0.250000000   0.000000000   0.580698194    0   0   1
Ru1      0.000000000   0.500000000   0.569583463    0   0   1
O0       0.250000000   0.690000000   0.577090437    0   0   1
O0       0.250000000   0.310000000   0.579493791    0   0   1
O0       0.000000000   0.000000000   0.617747733    0   0   1
O0       0.500000000   0.000000000   0.378866743    0   0   1
O0       0.500000000   0.500000000   0.401944758    0   0   1
Ru1      0.750000000   0.500000000   0.453583562    0   0   1
Ru1      0.500000000   0.000000000   0.452050611    0   0   1
O0       0.750000000   0.810000000   0.452617883    0   0   1
O0       0.750000000   0.190000000   0.452572670    0   0   1
O0       0.500000000   0.500000000   0.500748662    0   0   1
O0       0.500000000   0.000000000   0.524823119    0   0   1
Ru1      0.750000000   0.000000000   0.572377329    0   0   1
Ru1      0.500000000   0.500000000   0.579260379    0   0   1
O0       0.750000000   0.690000000   0.573107251    0   0   1
O0       0.750000000   0.310000000   0.575212055    0   0   1
O0       0.500000000   0.000000000   0.616008485    0   0   1
H2      -0.000104839   0.596111583   0.376011366
H2       0.499715362   0.633184609   0.383194826
H2       0.147762984   0.022494874   0.367325341
H2       0.646990768   0.025543010   0.366377895
O0       0.500070000   0.530325811   0.650411000    0   1   1
O0       0.499990000   0.340156865   0.680033472    0   1   1
H2       0.499960000   0.401642407   0.714326203    0   1   1
End final coordinates

     General routines

     Parallel routines
     Hubbard U routines

   This run was terminated on:   8:56:59  12Aug2014

   JOB DONE.