     Program PWSCF v.5.0.2 (svn rev. 9656) starts on  2May2014 at  0:11:23

     Current dimensions of program PWSCF are:
     Max number of different atomic species (ntypx) = 10
     Max number of k-points (npk) =  40000
     Max angular momentum in pseudopotentials (lmaxx) =  3
     Reading input from pwscf.in
Warning: card &CELL ignored
Warning: card / ignored

     Subspace diagonalization in iterative solution of the eigenvalue problem:
     a serial algorithm will be used

     bravais-lattice index     =            0
     lattice parameter (alat)  =      10.1289  a.u.
     unit-cell volume          =    6836.7721 (a.u.)^3
     number of atoms/cell      =           32
     number of atomic types    =            3
     number of electrons       =       239.00
     number of Kohn-Sham states=          358
     kinetic-energy cutoff     =      40.0000  Ry
     charge density cutoff     =     500.0000  Ry
     convergence threshold     =      1.0E-06
     mixing beta               =       0.7000
     number of iterations used =            8  plain     mixing
     Exchange-correlation      = SLA  PW   PBE  PBE ( 1 4 3 4 0)
     EXX-fraction              =        0.00
     nstep                     =           50

     celldm(1)=  10.128932  celldm(2)=   0.000000  celldm(3)=   0.000000
     celldm(4)=   0.000000  celldm(5)=   0.000000  celldm(6)=   0.000000

     crystal axes: (cart. coord. in units of alat)
               a(1) = (   1.000000   0.000000   0.000000 )
               a(2) = (   0.000000   1.306037   0.000000 )
               a(3) = (   0.000000   0.000000   5.037380 )

     reciprocal axes: (cart. coord. in units 2 pi/alat)
               b(1) = (  1.000000  0.000000  0.000000 )
               b(2) = (  0.000000  0.765675  0.000000 )
               b(3) = (  0.000000  0.000000  0.198516 )

     PseudoPot. # 1 for O  read from file:
     /home/camp/zhonxu/pseudo/o_pbe_v1.01.uspp.F.UPF
     MD5 check sum: 2bcb18d16ea4b960afae9ec6d52f22d2
     Pseudo is Ultrasoft + core correction, Zval =  6.0
     Generated by new atomic code, or converted to UPF format
     Using radial grid of  737 points,  5 beta functions with:
                l(1) =   0
                l(2) =   0
                l(3) =   1
                l(4) =   1
                l(5) =   2
     Q(r) pseudized with  8 coefficients,  rinner =    0.900   0.900   0.900
                                                       0.900   0.900

     PseudoPot. # 2 for Re read from file:
     /home/camp/zhonxu/pseudo/re_pbe_v1.uspp.F.UPF
     MD5 check sum: 6f5a5dcaf9c96c20d0ffdde0de57afc6
     Pseudo is Ultrasoft + core correction, Zval = 15.0
     Generated by new atomic code, or converted to UPF format
     Using radial grid of  981 points,  8 beta functions with:
                l(1) =   0
                l(2) =   0
                l(3) =   1
                l(4) =   1
                l(5) =   2
                l(6) =   2
                l(7) =   3
                l(8) =   3
     Q(r) pseudized with  8 coefficients,  rinner =    1.000   1.000   1.000
                                                       1.000   1.000   1.000
                                                       1.000

     PseudoPot. # 3 for H  read from file:
     /home/camp/zhonxu/pseudo/h_pbe_v1.uspp.F.UPF
     MD5 check sum: 3408e3ff4ec8b0a4e358431e7e038a48
     Pseudo is Ultrasoft, Zval =  1.0
     Generated by new atomic code, or converted to UPF format
     Using radial grid of  615 points,  2 beta functions with:
                l(1) =   0
                l(2) =   0
     Q(r) pseudized with  8 coefficients,  rinner =    0.700

     atomic species   valence    mass     pseudopotential
        O0             6.00    15.99940     O ( 1.00)
        Re1           15.00   186.20700     Re( 1.00)
        H2             1.00     1.00794     H ( 1.00)

     Simplified LDA+U calculation (l_max = 2) with parameters (eV):
     atomic species    L          U    alpha       J0     beta
        Re1            2     1.0000   0.0000   0.0000   0.0000

     No symmetry found

   Cartesian axes

     site n.     atom                  positions (alat units)
         1           O0  tau(   1) = (   0.0000000   0.0000000   1.8669538  )
         2           O0  tau(   2) = (   0.0000000   0.6530184   1.9246318  )
         3           Re1 tau(   3) = (   0.2500000   0.6530184   2.2252626  )
         4           Re1 tau(   4) = (   0.0000000   0.0000000   2.2335239  )
         5           O0  tau(   5) = (   0.2500000   1.0187087   2.2252626  )
         6           O0  tau(   6) = (   0.2500000   0.2873281   2.2245574  )
         7           O0  tau(   7) = (   0.0000000   0.6530184   2.5039809  )
         8           O0  tau(   8) = (   0.0000000   0.0000000   2.5944019  )
         9           Re1 tau(   9) = (   0.2500000   0.0000000   2.8956372  )
        10           Re1 tau(  10) = (   0.0000000   0.6530184   2.8532728  )
        11           O0  tau(  11) = (   0.2500000   0.9403465   2.8863684  )
        12           O0  tau(  12) = (   0.2500000   0.3656903   2.8866706  )
        13           O0  tau(  13) = (   0.0000000   0.0000000   3.1589410  )
        14           O0  tau(  14) = (   0.5000000   0.0000000   1.8671553  )
        15           O0  tau(  15) = (   0.5000000   0.6530184   1.9260926  )
        16           Re1 tau(  16) = (   0.7500000   0.6530184   2.2254138  )
        17           Re1 tau(  17) = (   0.5000000   0.0000000   2.2327683  )
        18           O0  tau(  18) = (   0.7500000   1.0187087   2.2250108  )
        19           O0  tau(  19) = (   0.7500000   0.2873281   2.2249100  )
        20           O0  tau(  20) = (   0.5000000   0.6530184   2.5136527  )
        21           O0  tau(  21) = (   0.5000000   0.0000000   2.5937470  )
        22           Re1 tau(  22) = (   0.7500000   0.0000000   2.8949319  )
        23           Re1 tau(  23) = (   0.5000000   0.6530184   2.8846557  )
        24           O0  tau(  24) = (   0.7500000   0.9403465   2.8822881  )
        25           O0  tau(  25) = (   0.7500000   0.3656903   2.8822881  )
        26           O0  tau(  26) = (   0.5000000   0.0000000   3.1556667  )
        27           H2  tau(  27) = (  -0.0003600   0.8163644   1.8395505  )
        28           H2  tau(  28) = (   0.4996200   0.8138568   1.8363769  )
        29           H2  tau(  29) = (   0.1695000   0.0302217   1.7958260  )
        30           H2  tau(  30) = (   0.6704500   0.0285761   1.7967327  )
        31           O0  tau(  31) = (   0.5277600   0.6525874   3.2436194  )
        32           H2  tau(  32) = (   0.3788200   0.6519344   3.3501096  )

     number of k points=    10  Methfessel-Paxton smearing, width (Ry)=  0.0100
                       cart. coord. in units 2pi/alat
        k(    1) = (   0.0000000   0.0000000   0.0000000), wk =   0.1250000
        k(    2) = (   0.0000000   0.1914188   0.0000000), wk =   0.2500000
        k(    3) = (   0.0000000  -0.3828376   0.0000000), wk =   0.1250000
        k(    4) = (   0.2500000   0.0000000   0.0000000), wk =   0.2500000
        k(    5) = (   0.2500000   0.1914188   0.0000000), wk =   0.2500000
        k(    6) = (   0.2500000  -0.3828376   0.0000000), wk =   0.2500000
        k(    7) = (  -0.5000000   0.0000000   0.0000000), wk =   0.1250000
        k(    8) = (  -0.5000000   0.1914188   0.0000000), wk =   0.2500000
        k(    9) = (  -0.5000000  -0.3828376   0.0000000), wk =   0.1250000
        k(   10) = (  -0.2500000   0.1914188   0.0000000), wk =   0.2500000

     Largest allocated arrays     est. size (Mb)     dimensions
     Largest temporary arrays     est. size (Mb)     dimensions

     Check: negative/imaginary core charge=   -0.000003    0.000000

     Initial potential from superposition of free atoms
     Check: negative starting charge=   -0.237247

     starting charge  234.99957, renormalised to  239.00000

     negative rho (up, down):  0.241E+00 0.000E+00
     Number of +U iterations with fixed ns =  0
     Starting occupations:
 --- enter write_ns ---
 LDA+U parameters:
U( 2)     =  1.00000000
alpha( 2) =  0.00000000
atom    3   Tr[ns(na)] =   5.00000
    eigenvalues:
  0.500  0.500  0.500  0.500  0.500
    eigenvectors:
  1.000  0.000  0.000  0.000  0.000
  0.000  1.000  0.000  0.000  0.000
  0.000  0.000  1.000  0.000  0.000
  0.000  0.000  0.000  1.000  0.000
  0.000  0.000  0.000  0.000  1.000
    occupations:
  0.500  0.000  0.000  0.000  0.000
  0.000  0.500  0.000  0.000  0.000
  0.000  0.000  0.500  0.000  0.000
  0.000  0.000  0.000  0.500  0.000
  0.000  0.000  0.000  0.000  0.500
atom    4   Tr[ns(na)] =   5.00000
    eigenvalues:
  0.500  0.500  0.500  0.500  0.500
    eigenvectors:
  1.000  0.000  0.000  0.000  0.000
  0.000  1.000  0.000  0.000  0.000
  0.000  0.000  1.000  0.000  0.000
  0.000  0.000  0.000  1.000  0.000
  0.000  0.000  0.000  0.000  1.000
    occupations:
  0.500  0.000  0.000  0.000  0.000
  0.000  0.500  0.000  0.000  0.000
  0.000  0.000  0.500  0.000  0.000
  0.000  0.000  0.000  0.500  0.000
  0.000  0.000  0.000  0.000  0.500
atom    9   Tr[ns(na)] =   5.00000
    eigenvalues:
  0.500  0.500  0.500  0.500  0.500
    eigenvectors:
  1.000  0.000  0.000  0.000  0.000
  0.000  1.000  0.000  0.000  0.000
  0.000  0.000  1.000  0.000  0.000
  0.000  0.000  0.000  1.000  0.000
  0.000  0.000  0.000  0.000  1.000
    occupations:
  0.500  0.000  0.000  0.000  0.000
  0.000  0.500  0.000  0.000  0.000
  0.000  0.000  0.500  0.000  0.000
  0.000  0.000  0.000  0.500  0.000
  0.000  0.000  0.000  0.000  0.500
atom   10   Tr[ns(na)] =   5.00000
    eigenvalues:
  0.500  0.500  0.500  0.500  0.500
    eigenvectors:
  1.000  0.000  0.000  0.000  0.000
  0.000  1.000  0.000  0.000  0.000
  0.000  0.000  1.000  0.000  0.000
  0.000  0.000  0.000  1.000  0.000
  0.000  0.000  0.000  0.000  1.000
    occupations:
  0.500  0.000  0.000  0.000  0.000
  0.000  0.500  0.000  0.000  0.000
  0.000  0.000  0.500  0.000  0.000
  0.000  0.000  0.000  0.500  0.000
  0.000  0.000  0.000  0.000  0.500
atom   16   Tr[ns(na)] =   5.00000
    eigenvalues:
  0.500  0.500  0.500  0.500  0.500
    eigenvectors:
  1.000  0.000  0.000  0.000  0.000
  0.000  1.000  0.000  0.000  0.000
  0.000  0.000  1.000  0.000  0.000
  0.000  0.000  0.000  1.000  0.000
  0.000  0.000  0.000  0.000  1.000
    occupations:
  0.500  0.000  0.000  0.000  0.000
  0.000  0.500  0.000  0.000  0.000
  0.000  0.000  0.500  0.000  0.000
  0.000  0.000  0.000  0.500  0.000
  0.000  0.000  0.000  0.000  0.500
atom   17   Tr[ns(na)] =   5.00000
    eigenvalues:
  0.500  0.500  0.500  0.500  0.500
    eigenvectors:
  1.000  0.000  0.000  0.000  0.000
  0.000  1.000  0.000  0.000  0.000
  0.000  0.000  1.000  0.000  0.000
  0.000  0.000  0.000  1.000  0.000
  0.000  0.000  0.000  0.000  1.000
    occupations:
  0.500  0.000  0.000  0.000  0.000
  0.000  0.500  0.000  0.000  0.000
  0.000  0.000  0.500  0.000  0.000
  0.000  0.000  0.000  0.500  0.000
  0.000  0.000  0.000  0.000  0.500
atom   22   Tr[ns(na)] =   5.00000
    eigenvalues:
  0.500  0.500  0.500  0.500  0.500
    eigenvectors:
  1.000  0.000  0.000  0.000  0.000
[...]
  0.605  0.003  0.000 -0.022  0.000
  0.003  0.696  0.006 -0.000 -0.001
  0.000  0.006  0.624  0.001 -0.000
 -0.022 -0.000  0.001  0.765 -0.000
  0.000 -0.001 -0.000 -0.000  0.564
atom    9   Tr[ns(na)] =   6.50997
    eigenvalues:
  0.592  0.605  0.619  0.698  0.741
    eigenvectors:
  0.269  0.000  0.000  0.000  0.730
  0.000  1.000  0.000  0.000  0.000
  0.000  0.000  0.991  0.009  0.000
  0.730  0.000  0.000  0.000  0.269
  0.000  0.000  0.009  0.991  0.000
    occupations:
  0.701 -0.000 -0.001 -0.066  0.001
 -0.000  0.605  0.000  0.001  0.000
 -0.001  0.000  0.620  0.000 -0.007
 -0.066  0.001  0.000  0.632 -0.000
  0.001  0.000 -0.007 -0.000  0.697
atom   10   Tr[ns(na)] =   6.48049
    eigenvalues:
  0.498  0.540  0.662  0.749  0.791
    eigenvectors:
  0.996  0.000  0.000  0.004  0.001
  0.001  0.000  0.000  0.000  0.999
  0.000  0.000  1.000  0.000  0.000
  0.004  0.000  0.000  0.996  0.000
  0.000  1.000  0.000  0.000  0.000
    occupations:
  0.499 -0.007  0.000 -0.016 -0.000
 -0.007  0.791  0.000 -0.001  0.001
  0.000  0.000  0.662 -0.000  0.001
 -0.016 -0.001 -0.000  0.748 -0.000
 -0.000  0.001  0.001 -0.000  0.540
atom   16   Tr[ns(na)] =   6.53941
    eigenvalues:
  0.541  0.570  0.648  0.753  0.757
    eigenvectors:
  0.001  0.377  0.006  0.008  0.608
  0.998  0.000  0.000  0.001  0.001
  0.000  0.000  0.989  0.001  0.010
  0.000  0.622  0.005  0.005  0.368
  0.001  0.000  0.000  0.985  0.014
    occupations:
  0.686  0.004  0.009 -0.090 -0.000
  0.004  0.541 -0.000 -0.002 -0.007
  0.009 -0.000  0.649 -0.006  0.002
 -0.090 -0.002 -0.006  0.640  0.000
 -0.000 -0.007  0.002  0.000  0.753
atom   17   Tr[ns(na)] =   6.50159
    eigenvalues:
  0.565  0.605  0.614  0.695  0.772
    eigenvectors:
  0.000  0.982  0.001  0.001  0.017
  0.000  0.001  0.004  0.995  0.000
  0.000  0.001  0.995  0.004  0.000
  0.000  0.017  0.000  0.000  0.983
  1.000  0.000  0.000  0.000  0.000
    occupations:
  0.607  0.002  0.000 -0.021  0.000
  0.002  0.695  0.005 -0.000 -0.001
  0.000  0.005  0.615  0.001 -0.000
 -0.021 -0.000  0.001  0.769 -0.000
  0.000 -0.001 -0.000 -0.000  0.565
atom   22   Tr[ns(na)] =   6.50789
    eigenvalues:
  0.592  0.604  0.617  0.698  0.742
    eigenvectors:
  0.271  0.000  0.000  0.001  0.728
  0.000  0.999  0.000  0.000  0.000
  0.000  0.000  0.995  0.005  0.000
  0.729  0.000  0.000  0.000  0.270
  0.000  0.000  0.005  0.993  0.002
    occupations:
  0.702  0.001 -0.001 -0.067  0.002
  0.001  0.604  0.000 -0.000  0.000
 -0.001  0.000  0.618  0.000  0.006
 -0.067 -0.000  0.000  0.633 -0.001
  0.002  0.000  0.006 -0.001  0.697
atom   23   Tr[ns(na)] =   6.50554
    eigenvalues:
  0.558  0.568  0.595  0.756  0.776
    eigenvectors:
  0.000  0.000  0.990  0.001  0.008
  0.000  0.000  0.001  0.998  0.001
  0.009  0.991  0.000  0.000  0.000
  0.000  0.000  0.008  0.001  0.991
  0.991  0.009  0.000  0.000  0.000
    occupations:
  0.596  0.006 -0.001 -0.016  0.000
  0.006  0.756  0.000  0.001  0.001
 -0.001  0.000  0.568  0.001 -0.001
 -0.016  0.001  0.001  0.775 -0.000
  0.000  0.001 -0.001 -0.000  0.558
N of occupied +U levels =  52.0908727
 --- exit write_ns ---

     Threshold (ethr) on eigenvalues was too large:
     Diagonalizing with lowered threshold

     Davidson diagonalization with overlap
     ethr =  3.70E-09,  avg # of iterations =  2.0

[...]

     total energy              =   -2175.91001975 Ry
     Harris-Foulkes estimate   =   -2175.91001975 Ry
     estimated scf accuracy    <       0.00000002 Ry

     iteration # 12     ecut=    40.00 Ry     beta=0.70
     Davidson diagonalization with overlap
     ethr =  6.72E-12,  avg # of iterations =  1.0

     negative rho (up, down):  0.245E+00 0.000E+00

     End of self-consistent calculation
 --- enter write_ns ---
 LDA+U parameters:
U( 2)     =  1.00000000
alpha( 2) =  0.00000000
atom    3   Tr[ns(na)] =   6.53832
    eigenvalues:
  0.541  0.570  0.646  0.754  0.758
    eigenvectors:
  0.001  0.376  0.006  0.009  0.608
  0.998  0.000  0.000  0.001  0.000
  0.000  0.000  0.989  0.001  0.010
  0.000  0.624  0.005  0.006  0.366
  0.001  0.000  0.000  0.983  0.015
    occupations:
  0.686 -0.003  0.009 -0.090  0.000
 -0.003  0.542  0.001  0.002 -0.007
  0.009  0.001  0.647 -0.007 -0.001
 -0.090  0.002 -0.007  0.640 -0.000
  0.000 -0.007 -0.001 -0.000  0.754
atom    4   Tr[ns(na)] =   6.50774
    eigenvalues:
  0.564  0.602  0.623  0.697  0.768
    eigenvectors:
  0.000  0.981  0.000  0.001  0.018
  0.000  0.001  0.006  0.993  0.000
  0.000  0.000  0.994  0.006  0.000
  0.000  0.018  0.000  0.000  0.982
  1.000  0.000  0.000  0.000  0.000
    occupations:
  0.605  0.003  0.000 -0.022  0.000
  0.003  0.696  0.006 -0.000 -0.001
  0.000  0.006  0.624  0.001 -0.000
 -0.022 -0.000  0.001  0.765 -0.000
  0.000 -0.001 -0.000 -0.000  0.564
atom    9   Tr[ns(na)] =   6.50984
    eigenvalues:
  0.592  0.605  0.619  0.698  0.741
    eigenvectors:
  0.269  0.000  0.000  0.000  0.730
  0.000  1.000  0.000  0.000  0.000
  0.000  0.000  0.991  0.009  0.000
  0.730  0.000  0.000  0.000  0.269
  0.000  0.000  0.009  0.991  0.000
    occupations:
  0.701 -0.000 -0.001 -0.066  0.001
 -0.000  0.605  0.000  0.001  0.000
 -0.001  0.000  0.620  0.000 -0.007
 -0.066  0.001  0.000  0.632 -0.000
  0.001  0.000 -0.007 -0.000  0.697
atom   10   Tr[ns(na)] =   6.47943
    eigenvalues:
  0.498  0.540  0.662  0.749  0.791
    eigenvectors:
  0.996  0.000  0.000  0.004  0.001
  0.001  0.000  0.000  0.000  0.999
  0.000  0.000  1.000  0.000  0.000
  0.004  0.000  0.000  0.996  0.000
  0.000  1.000  0.000  0.000  0.000
    occupations:
  0.499 -0.007  0.000 -0.016 -0.000
 -0.007  0.791  0.000 -0.001  0.001
  0.000  0.000  0.662 -0.000  0.001
 -0.016 -0.001 -0.000  0.748 -0.000
 -0.000  0.001  0.001 -0.000  0.540
atom   16   Tr[ns(na)] =   6.53912
    eigenvalues:
  0.541  0.570  0.648  0.753  0.757
    eigenvectors:
  0.001  0.377  0.006  0.008  0.608
  0.998  0.000  0.000  0.001  0.001
  0.000  0.000  0.989  0.001  0.010
  0.000  0.622  0.005  0.005  0.368
  0.001  0.000  0.000  0.986  0.013
    occupations:
  0.686  0.004  0.009 -0.090 -0.000
  0.004  0.541 -0.000 -0.002 -0.007
  0.009 -0.000  0.649 -0.006  0.002
 -0.090 -0.002 -0.006  0.640  0.000
 -0.000 -0.007  0.002  0.000  0.753
atom   17   Tr[ns(na)] =   6.50107
    eigenvalues:
  0.565  0.605  0.614  0.695  0.772
    eigenvectors:
  0.000  0.982  0.001  0.001  0.017
  0.000  0.001  0.004  0.995  0.000
  0.000  0.001  0.995  0.004  0.000
  0.000  0.017  0.000  0.000  0.983
  1.000  0.000  0.000  0.000  0.000
    occupations:
  0.607  0.002  0.000 -0.021  0.000
  0.002  0.695  0.005 -0.000 -0.001
  0.000  0.005  0.614  0.001 -0.000
 -0.021 -0.000  0.001  0.769 -0.000
  0.000 -0.001 -0.000 -0.000  0.565
atom   22   Tr[ns(na)] =   6.50743
    eigenvalues:
  0.592  0.604  0.617  0.698  0.742
    eigenvectors:
  0.271  0.000  0.000  0.001  0.728
  0.000  0.999  0.000  0.000  0.000
  0.000  0.000  0.995  0.005  0.000
  0.729  0.000  0.000  0.000  0.270
  0.000  0.000  0.005  0.993  0.002
    occupations:
  0.702  0.001 -0.001 -0.067  0.002
  0.001  0.604  0.000 -0.000  0.000
 -0.001  0.000  0.618  0.000  0.006
 -0.067 -0.000  0.000  0.633 -0.001
  0.002  0.000  0.006 -0.001  0.697
atom   23   Tr[ns(na)] =   6.50673
    eigenvalues:
  0.558  0.568  0.595  0.757  0.776
    eigenvectors:
  0.000  0.000  0.990  0.001  0.008
  0.000  0.000  0.001  0.998  0.001
  0.009  0.991  0.000  0.000  0.000
  0.000  0.000  0.008  0.001  0.991
  0.991  0.009  0.000  0.000  0.000
    occupations:
  0.596  0.006 -0.001 -0.016  0.000
  0.006  0.756  0.000  0.001  0.001
 -0.001  0.000  0.568  0.001 -0.001
 -0.016  0.001  0.001  0.775 -0.000
  0.000  0.001 -0.001 -0.000  0.558
N of occupied +U levels =  52.0896882
 --- exit write_ns ---

[...]

          k = 0.2500-0.3828 0.0000 ( 29202 PWs)   bands (ev):

[...]

          k =-0.2500 0.1914 0.0000 ( 29229 PWs)   bands (ev):

   -81.3883 -81.3010 -81.1842 -81.1594 -81.1195 -80.8858 -80.8466 -80.8324
   -43.4674 -43.3205 -43.2898 -43.2770 -43.1858 -43.1819 -43.1533 -43.1376
   -43.1108 -43.0841 -43.0609 -43.0053 -42.9742 -42.8770 -42.8683 -42.8494
   -42.8248 -42.7849 -42.7795 -42.7704 -42.7240 -42.6864 -42.4335 -42.3765
   -20.8245 -20.3786 -20.2950 -20.1870 -20.1033 -19.7867 -19.7288 -19.7119
   -19.5426 -19.4549 -19.3991 -19.3522 -19.2637 -19.1166 -19.0772 -19.0382
   -18.8359 -18.3012 -18.0215  -8.9872  -8.6858  -8.6182  -8.5816  -8.4105
    -8.2940  -8.2619  -8.0727  -8.0052  -7.9159  -7.7275  -7.6722  -7.4161
    -7.3202  -7.2679  -6.9726  -6.8474  -6.7195  -6.6136  -6.5127  -6.4122
    -6.3530  -6.0390  -5.9462  -5.7656  -5.7110  -5.6300  -5.5138  -5.4348
    -5.3152  -5.0871  -4.9829  -4.9560  -4.8447  -4.7581  -4.7238  -4.6587
    -4.5766  -4.5089  -4.4059  -4.2931  -4.1284  -3.9484  -3.8656  -3.7876
    -3.6868  -3.5847  -3.5406  -3.3576  -3.3135  -3.2477  -3.1378  -3.0195
    -2.7982  -2.6973  -2.6183  -2.4744  -2.0989  -1.9251  -1.8686  -1.0391
    -0.8964  -0.8120  -0.6848  -0.0918   0.0250   0.4875   0.5484   0.6349
     0.7465   0.8531   0.9700   1.1685   1.3599   1.3922   1.5471   1.6519
     1.7266   1.9335   1.9760   2.1534   2.4210   3.6697   3.6871   3.7764
     3.8133   3.9936   4.0470   4.2954   4.4941   4.6119   4.7365   4.8958
     4.9583   5.1925   5.3507   5.6147   5.8556   5.8907   6.1158   6.2781
     6.4470   6.4962   6.6970   6.8854   7.0007   7.0785   7.2993   7.5457
     7.6847   7.7832   7.9345   8.1109   8.2641   8.3411   8.4972   8.5777
     8.6229   8.7171   8.9421   9.0351   9.1201   9.3733   9.4359   9.5909
     9.6260   9.6791   9.8130   9.8823   9.9112   9.9869  10.0897  10.1846
    10.2374  10.3407  10.3797  10.4352  10.5141  10.7222  10.7508  10.8751
    10.9993  11.1101  11.1641  11.2675  11.4630  11.5365  11.6788  11.7395
    11.8167  11.9171  12.0334  12.2165  12.3364  12.4559  12.5867  12.6219
    12.6453  12.7423  12.8057  12.8764  12.9355  13.0338  13.0926  13.2231
    13.2717  13.4172  13.5025  13.6241  13.6764  13.7411  13.8284  13.8548
    13.9383  13.9515  14.0039  14.0757  14.1323  14.2403  14.3196  14.4072
    14.4892  14.5145  14.5703  14.6482  14.7085  14.7415  14.8430  14.8846
    14.9442  14.9857  15.0183  15.0813  15.1306  15.2047  15.2979  15.4433
    15.5102  15.5976  15.6512  15.7281  15.8304  15.9324  16.0689  16.1351
    16.1790  16.2339  16.3056  16.4709  16.5221  16.5801  16.6105  16.6840
    16.7824  16.8707  16.9464  17.0052  17.1078  17.2013  17.2459  17.2690
    17.3525  17.4810  17.6075  17.6585  17.7282  17.7784  17.8291  17.9376
    17.9632  18.0368  18.1196  18.1616  18.2600  18.2776  18.3944  18.4486
    18.5132  18.5769  18.6356  18.6995  18.7519  18.8577  18.9234  19.0175
    19.0772  19.2283  19.3030  19.3411  19.4770  19.5397  19.6234  19.6743
    19.7411  19.8392  19.9302  20.0164  20.1270  20.1730  20.2313  20.2990
    20.4493  20.5116  20.5733  20.6157  20.6772  20.7448  20.7687  20.8292
    20.8794  20.9598  20.9769  21.1243  21.1592  21.2050  21.2517  21.3139
    21.3991  21.4381  21.5051  21.6067  21.6451  21.6953  21.7578  21.8381
    21.9275  21.9997  22.0833  22.1127  22.2168  22.2365  22.3111  22.3525
    22.4028  22.4482  22.4858  22.5434  22.6214  22.6681  22.6934  22.7318
    22.7788  22.8372  22.8826  22.9259  22.9891  23.0709

     the Fermi energy is     0.5703 ev

!    total energy              =   -2175.91001975 Ry
     Harris-Foulkes estimate   =   -2175.91001975 Ry
     estimated scf accuracy    <          6.8E-09 Ry

     The total energy is the sum of the following terms:

     one-electron contribution =  -24255.84081393 Ry
     hartree contribution      =   12145.50019965 Ry
     xc contribution           =    -595.00574253 Ry
     ewald contribution        =   10528.79029223 Ry
     Hubbard energy            =       0.64725427 Ry
     smearing contrib. (-TS)   =      -0.00120942 Ry

     convergence has been achieved in  12 iterations

     Forces acting on atoms (Ry/au):

     negative rho (up, down):  0.245E+00 0.000E+00
     atom    1 type  1   force =    -0.00525636   -0.00713581    0.00008240
     atom    2 type  1   force =     0.00007459    0.00579275    0.00043749
     atom    3 type  2   force =     0.03008644   -0.00395999   -0.00003274
     atom    4 type  2   force =     0.00177206    0.00755073   -0.00008296
     atom    5 type  1   force =     0.00279330    0.01273883    0.00039276
     atom    6 type  1   force =     0.00109875   -0.01336890    0.00030038
     atom    7 type  1   force =     0.00333651    0.00012395   -0.00079099
     atom    8 type  1   force =     0.00304046   -0.00164559    0.00028412
     atom    9 type  2   force =    -0.02489345    0.00170349   -0.00007878
     atom   10 type  2   force =    -0.00709357   -0.00050619    0.00045427
     atom   11 type  1   force =    -0.00551528   -0.01258838   -0.00028576
     atom   12 type  1   force =    -0.00564900    0.01267772   -0.00021157
     atom   13 type  1   force =    -0.00066199   -0.00012578   -0.00043245
     atom   14 type  1   force =    -0.00236425   -0.00639755   -0.00014849
     atom   15 type  1   force =     0.00024966    0.00464333    0.00051386
     atom   16 type  2   force =    -0.03078359   -0.00398054   -0.00001386
     atom   17 type  2   force =     0.00127279    0.00791370    0.00007404
     atom   18 type  1   force =     0.00111440    0.01328052    0.00033142
     atom   19 type  1   force =    -0.00081620   -0.01373026    0.00029174
     atom   20 type  1   force =    -0.00237117   -0.00130568   -0.00032990
     atom   21 type  1   force =     0.00189538   -0.00162022    0.00018330
     atom   22 type  2   force =     0.02091877    0.00181348   -0.00014718
     atom   23 type  2   force =    -0.00067523   -0.00056237   -0.00063078
     atom   24 type  1   force =     0.00895505   -0.01113754   -0.00026108
     atom   25 type  1   force =     0.00876591    0.01077464   -0.00028353
     atom   26 type  1   force =     0.00077187   -0.00059233   -0.00031129
     atom   27 type  3   force =     0.00001032    0.00000370    0.00048094
     atom   28 type  3   force =    -0.00001181   -0.00016666    0.00039223
     atom   29 type  3   force =    -0.00031761    0.00003976   -0.00003608
     atom   30 type  3   force =    -0.00015083   -0.00010979   -0.00002815
     atom   31 type  1   force =     0.00008409   -0.00001461    0.00024370
     atom   32 type  3   force =     0.00032000   -0.00010840   -0.00035705

     Total force =     0.001959     Total SCF correction =     0.000125

     bfgs converged in   4 scf cycles and   3 bfgs steps
     (criteria: energy < 0.10E-03, force < 0.10E-02)

     End of BFGS Geometry Optimization

     Final energy   =   -2175.9100197455 Ry
Begin final coordinates

ATOMIC_POSITIONS (crystal)
O0       0.000000000   0.000000000   0.370711783    0   0   1
O0       0.000000000   0.500000000   0.382110036    0   0   1
Re1      0.250000000   0.500000000   0.441795153    0   0   1
Re1      0.000000000   0.000000000   0.443434335    0   0   1
O0       0.250000000   0.780000000   0.441780211    0   0   1
O0       0.250000000   0.220000000   0.441626262    0   0   1
O0       0.000000000   0.500000000   0.497045525    0   0   1
O0       0.000000000   0.000000000   0.514952144    0   0   1
Re1      0.250000000   0.000000000   0.574817197    0   0   1
Re1      0.000000000   0.500000000   0.566194631    0   0   1
O0       0.250000000   0.720000000   0.572985864    0   0   1
O0       0.250000000   0.280000000   0.573055105    0   0   1
O0       0.000000000   0.000000000   0.627089545    0   0   1
O0       0.500000000   0.000000000   0.370754168    0   0   1
O0       0.500000000   0.500000000   0.382432243    0   0   1
Re1      0.750000000   0.500000000   0.441809569    0   0   1
Re1      0.500000000   0.000000000   0.443228812    0   0   1
O0       0.750000000   0.780000000   0.441724746    0   0   1
O0       0.750000000   0.220000000   0.441697048    0   0   1
O0       0.500000000   0.500000000   0.499157309    0   0   1
O0       0.500000000   0.000000000   0.514791675    0   0   1
Re1      0.750000000   0.000000000   0.574662953    0   0   1
Re1      0.500000000   0.500000000   0.572686159    0   0   1
O0       0.750000000   0.720000000   0.572184860    0   0   1
O0       0.750000000   0.280000000   0.572183835    0   0   1
O0       0.500000000   0.000000000   0.626395089    0   0   1
H2      -0.000359545   0.625056007   0.365216409
H2       0.499615615   0.623050712   0.364586915
H2       0.169316622   0.023148780   0.356484034
H2       0.670293629   0.021839875   0.356668597
O0       0.527699624   0.499662572   0.643761733
H2       0.379040274   0.499135226   0.665006054
End final coordinates

     General routines

     Parallel routines
     Hubbard U routines

   This run was terminated on:   5: 6:10   2May2014

   JOB DONE.