     Program PWSCF v.5.0.2 (svn rev. 9656) starts on 31May2014 at  6: 0:12

     Current dimensions of program PWSCF are:
     Max number of different atomic species (ntypx) = 10
     Max number of k-points (npk) =  40000
     Max angular momentum in pseudopotentials (lmaxx) =  3
     Reading input from pwscf.in
Warning: card &CELL ignored
Warning: card / ignored

     Subspace diagonalization in iterative solution of the eigenvalue problem:
     a serial algorithm will be used

     bravais-lattice index     =            0
     lattice parameter (alat)  =      12.2076  a.u.
     unit-cell volume          =    7496.5096 (a.u.)^3
     number of atoms/cell      =           33
     number of atomic types    =            3
     number of electrons       =       253.00
     number of Kohn-Sham states=          379
     kinetic-energy cutoff     =      40.0000  Ry
     charge density cutoff     =     500.0000  Ry
     convergence threshold     =      1.0E-06
     mixing beta               =       0.7000
     number of iterations used =            8  plain     mixing
     Exchange-correlation      = SLA  PW   PBE  PBE ( 1 4 3 4 0)
     EXX-fraction              =        0.00
     nstep                     =           50

     celldm(1)=  12.207631  celldm(2)=   0.000000  celldm(3)=   0.000000
     celldm(4)=   0.000000  celldm(5)=   0.000000  celldm(6)=   0.000000

     crystal axes: (cart. coord. in units of alat)
               a(1) = (   1.000000   0.000000   0.000000 )
               a(2) = (   0.000000   1.004836   0.000000 )
               a(3) = (   0.000000   0.000000   4.100811 )

     reciprocal axes: (cart. coord. in units 2 pi/alat)
               b(1) = (  1.000000  0.000000  0.000000 )
               b(2) = (  0.000000  0.995187  0.000000 )
               b(3) = (  0.000000  0.000000  0.243854 )

     PseudoPot. # 1 for O  read from file:
     /home/camp/zhonxu/pseudo/o_pbe_v1.01.uspp.F.UPF
     MD5 check sum: 2bcb18d16ea4b960afae9ec6d52f22d2
     Pseudo is Ultrasoft + core correction, Zval =  6.0
     Generated by new atomic code, or converted to UPF format
     Using radial grid of  737 points,  5 beta functions with:
                l(1) =   0
                l(2) =   0
                l(3) =   1
                l(4) =   1
                l(5) =   2
     Q(r) pseudized with  8 coefficients,  rinner =    0.900   0.900   0.900
                                                       0.900   0.900

     PseudoPot. # 2 for Pt read from file:
     /home/camp/zhonxu/pseudo/pt_pbe_v1.uspp.F.UPF
     MD5 check sum: 4c71d6ad5ef119f1eb26a4d0b7884226
     Pseudo is Ultrasoft + core correction, Zval = 16.0
     Generated by new atomic code, or converted to UPF format
     Using radial grid of  985 points,  6 beta functions with:
                l(1) =   0
                l(2) =   0
                l(3) =   1
                l(4) =   1
                l(5) =   2
                l(6) =   2
     Q(r) pseudized with  8 coefficients,  rinner =    1.300   1.300   1.300
                                                       1.300   1.300

     PseudoPot. # 3 for H  read from file:
     /home/camp/zhonxu/pseudo/h_pbe_v1.uspp.F.UPF
     MD5 check sum: 3408e3ff4ec8b0a4e358431e7e038a48
     Pseudo is Ultrasoft, Zval =  1.0
     Generated by new atomic code, or converted to UPF format
     Using radial grid of  615 points,  2 beta functions with:
                l(1) =   0
                l(2) =   0
     Q(r) pseudized with  8 coefficients,  rinner =    0.700

     atomic species   valence    mass     pseudopotential
        O0             6.00    15.99940     O ( 1.00)
        Pt1           16.00   195.08000     Pt( 1.00)
        H2             1.00     1.00794     H ( 1.00)

     Simplified LDA+U calculation (l_max = 2) with parameters (eV):
     atomic species    L          U    alpha       J0     beta
        Pt1            2     3.0000   0.0000   0.0000   0.0000

     No symmetry found

   Cartesian axes

     site n.     atom                  positions (alat units)
         1           O0  tau(   1) = (   0.0000000   0.0000000   1.5494095  )
         2           O0  tau(   2) = (   0.0000000   0.5024180   1.6475009  )
         3           Pt1 tau(   3) = (   0.2500000   0.5024180   1.8504910  )
         4           Pt1 tau(   4) = (   0.0000000   0.0000000   1.8570523  )
         5           O0  tau(   5) = (   0.2500000   0.8139171   1.8187098  )
         6           O0  tau(   6) = (   0.2500000   0.1909188   1.8864142  )
         7           O0  tau(   7) = (   0.0000000   0.5024180   2.0369959  )
         8           O0  tau(   8) = (   0.0000000   0.0000000   2.1720357  )
         9           Pt1 tau(   9) = (   0.2500000   0.0000000   2.3614521  )
        10           Pt1 tau(  10) = (   0.0000000   0.5024180   2.3598528  )
        11           O0  tau(  11) = (   0.2500000   0.6933368   2.3268823  )
        12           O0  tau(  12) = (   0.2500000   0.3114991   2.4033624  )
        13           O0  tau(  13) = (   0.0000000   0.0000000   2.5482851  )
        14           O0  tau(  14) = (   0.5000000   0.0000000   1.5485073  )
        15           O0  tau(  15) = (   0.5000000   0.5024180   1.6434821  )
        16           Pt1 tau(  16) = (   0.7500000   0.5024180   1.8504910  )
        17           Pt1 tau(  17) = (   0.5000000   0.0000000   1.8561092  )
        18           O0  tau(  18) = (   0.7500000   0.8139171   1.8187918  )
        19           O0  tau(  19) = (   0.7500000   0.1909188   1.8863321  )
        20           O0  tau(  20) = (   0.5000000   0.5024180   2.0428191  )
        21           O0  tau(  21) = (   0.5000000   0.0000000   2.1708874  )
        22           Pt1 tau(  22) = (   0.7500000   0.0000000   2.3614521  )
        23           Pt1 tau(  23) = (   0.5000000   0.5024180   2.3628874  )
        24           O0  tau(  24) = (   0.7500000   0.6933368   2.3268003  )
        25           O0  tau(  25) = (   0.7500000   0.3114991   2.4034034  )
        26           O0  tau(  26) = (   0.5000000   0.0000000   2.5460296  )
        27           H2  tau(  27) = (   0.0000200   0.6429744   1.5830361  )
        28           H2  tau(  28) = (   0.5000600   0.6435874   1.5806577  )
        29           H2  tau(  29) = (   0.1433700   0.0339333   1.5082373  )
        30           H2  tau(  30) = (   0.6430800   0.0354607   1.5076632  )
        31           O0  tau(  31) = (   0.5001100   0.5589199   2.6603192  )
        32           O0  tau(  32) = (   0.4999400   0.3687346   2.7792838  )
        33           H2  tau(  33) = (   0.4999900   0.4305019   2.9192445  )

     number of k points=    10  Methfessel-Paxton smearing, width (Ry)=  0.0100
                       cart. coord. in units 2pi/alat
        k(    1) = (   0.0000000   0.0000000   0.0000000), wk =   0.1250000
        k(    2) = (   0.0000000   0.2487968   0.0000000), wk =   0.2500000
        k(    3) = (   0.0000000  -0.4975937   0.0000000), wk =   0.1250000
        k(    4) = (   0.2500000   0.0000000   0.0000000), wk =   0.2500000
        k(    5) = (   0.2500000   0.2487968   0.0000000), wk =   0.2500000
        k(    6) = (   0.2500000  -0.4975937   0.0000000), wk =   0.2500000
        k(    7) = (  -0.5000000   0.0000000   0.0000000), wk =   0.1250000
        k(    8) = (  -0.5000000   0.2487968   0.0000000), wk =   0.2500000
        k(    9) = (  -0.5000000  -0.4975937   0.0000000), wk =   0.1250000
        k(   10) = (  -0.2500000   0.2487968   0.0000000), wk =   0.2500000

     Largest allocated arrays     est. size (Mb)     dimensions
     Largest temporary arrays     est. size (Mb)     dimensions

     Check: negative/imaginary core charge=   -0.000003    0.000000

     Initial potential from superposition of free atoms
     Check: negative starting charge=   -1.535323

     starting charge  248.99983, renormalised to  253.00000

     negative rho (up, down):  0.156E+01 0.000E+00
     Number of +U iterations with fixed ns =  0
     Starting occupations:
 --- enter write_ns ---
 LDA+U parameters:
U( 2)     =  3.00000000
alpha( 2) =  0.00000000
atom    3   Tr[ns(na)] =   8.00000
    eigenvalues:
  0.800  0.800  0.800  0.800  0.800
    eigenvectors:
  1.000  0.000  0.000  0.000  0.000
  0.000  1.000  0.000  0.000  0.000
  0.000  0.000  1.000  0.000  0.000
  0.000  0.000  0.000  1.000  0.000
  0.000  0.000  0.000  0.000  1.000
    occupations:
  0.800  0.000  0.000  0.000  0.000
  0.000  0.800  0.000  0.000  0.000
  0.000  0.000  0.800  0.000  0.000
  0.000  0.000  0.000  0.800  0.000
  0.000  0.000  0.000  0.000  0.800
atom    4   Tr[ns(na)] =   8.00000
    eigenvalues:
  0.800  0.800  0.800  0.800  0.800
    eigenvectors:
  1.000  0.000  0.000  0.000  0.000
  0.000  1.000  0.000  0.000  0.000
  0.000  0.000  1.000  0.000  0.000
  0.000  0.000  0.000  1.000  0.000
  0.000  0.000  0.000  0.000  1.000
    occupations:
  0.800  0.000  0.000  0.000  0.000
  0.000  0.800  0.000  0.000  0.000
  0.000  0.000  0.800  0.000  0.000
  0.000  0.000  0.000  0.800  0.000
  0.000  0.000  0.000  0.000  0.800
atom    9   Tr[ns(na)] =   8.00000
    eigenvalues:
  0.800  0.800  0.800  0.800  0.800
    eigenvectors:
  1.000  0.000  0.000  0.000  0.000
  0.000  1.000  0.000  0.000  0.000
  0.000  0.000  1.000  0.000  0.000
  0.000  0.000  0.000  1.000  0.000
  0.000  0.000  0.000  0.000  1.000
    occupations:
  0.800  0.000  0.000  0.000  0.000
  0.000  0.800  0.000  0.000  0.000
  0.000  0.000  0.800  0.000  0.000
  0.000  0.000  0.000  0.800  0.000
  0.000  0.000  0.000  0.000  0.800
atom   10   Tr[ns(na)] =   8.00000
    eigenvalues:
  0.800  0.800  0.800  0.800  0.800
    eigenvectors:
  1.000  0.000  0.000  0.000  0.000
  0.000  1.000  0.000  0.000  0.000
  0.000  0.000  1.000  0.000  0.000
  0.000  0.000  0.000  1.000  0.000
  0.000  0.000  0.000  0.000  1.000
    occupations:
  0.800  0.000  0.000  0.000  0.000
  0.000  0.800  0.000  0.000  0.000
  0.000  0.000  0.800  0.000  0.000
  0.000  0.000  0.000  0.800  0.000
  0.000  0.000  0.000  0.000  0.800
atom   16   Tr[ns(na)] =   8.00000
    eigenvalues:
  0.800  0.800  0.800  0.800  0.800
    eigenvectors:
  1.000  0.000  0.000  0.000  0.000
  0.000  1.000  0.000  0.000  0.000
  0.000  0.000  1.000  0.000  0.000
  0.000  0.000  0.000  1.000  0.000
  0.000  0.000  0.000  0.000  1.000
    occupations:
  0.800  0.000  0.000  0.000  0.000
  0.000  0.800  0.000  0.000  0.000
  0.000  0.000  0.800  0.000  0.000
  0.000  0.000  0.000  0.800  0.000
  0.000  0.000  0.000  0.000  0.800
atom   17   Tr[ns(na)] =   8.00000
    eigenvalues:
  0.800  0.800  0.800  0.800  0.800
    eigenvectors:
  1.000  0.000  0.000  0.000  0.000
  0.000  1.000  0.000  0.000  0.000
  0.000  0.000  1.000  0.000  0.000
  0.000  0.000  0.000  1.000  0.000
  0.000  0.000  0.000  0.000  1.000
    occupations:
  0.800  0.000  0.000  0.000  0.000
  0.000  0.800  0.000  0.000  0.000
  0.000  0.000  0.800  0.000  0.000
  0.000  0.000  0.000  0.800  0.000
  0.000  0.000  0.000  0.000  0.800
atom   22   Tr[ns(na)] =   8.00000
    eigenvalues:
  0.800  0.800  0.800  0.800  0.800
    eigenvectors:
  1.000  0.000  0.000  0.000  0.000
  0.000  1.000  0.000  0.000  0.000
  0.000  0.000  1.000  0.000  0.000
[...]
  0.012  0.000  0.988  0.000  0.000
  0.000  0.001  0.000  0.244  0.755
  0.000  0.018  0.000  0.745  0.236
  0.988  0.000  0.012  0.000  0.000
    occupations:
  0.772 -0.000 -0.007  0.029  0.000
 -0.000  0.977 -0.000  0.000 -0.035
 -0.007 -0.000  0.986 -0.001  0.000
  0.029  0.000 -0.001  0.980 -0.000
  0.000 -0.035  0.000 -0.000  0.665
atom   16   Tr[ns(na)] =   8.70645
    eigenvalues:
  0.688  0.705  0.985  0.987  0.990
    eigenvectors:
  0.046  0.128  0.808  0.003  0.015
  0.761  0.239  0.000  0.000  0.000
  0.001  0.004  0.027  0.000  0.969
  0.192  0.630  0.162  0.000  0.016
  0.000  0.000  0.003  0.997  0.000
    occupations:
  0.935 -0.007  0.007 -0.108 -0.001
 -0.007  0.692 -0.002 -0.005 -0.002
  0.007 -0.002  0.988  0.017  0.000
 -0.108 -0.005  0.017  0.751 -0.001
 -0.001 -0.002  0.000 -0.001  0.986
atom   17   Tr[ns(na)] =   8.69712
    eigenvalues:
  0.688  0.710  0.981  0.984  0.986
    eigenvectors:
  0.000  0.986  0.007  0.003  0.004
  0.010  0.000  0.066  0.902  0.021
  0.000  0.005  0.857  0.041  0.097
  0.000  0.009  0.069  0.045  0.878
  0.990  0.000  0.001  0.009  0.000
    occupations:
  0.713 -0.004 -0.019  0.026 -0.001
 -0.004  0.981  0.001  0.000  0.030
 -0.019  0.001  0.980  0.003  0.000
  0.026  0.000  0.003  0.983  0.000
 -0.001  0.030  0.000  0.000  0.691
atom   22   Tr[ns(na)] =   8.67785
    eigenvalues:
  0.711  0.721  0.956  0.965  0.986
    eigenvectors:
  0.001  0.135  0.001  0.015  0.848
  0.997  0.003  0.000  0.000  0.000
  0.000  0.011  0.062  0.919  0.008
  0.002  0.851  0.000  0.004  0.143
  0.000  0.000  0.937  0.063  0.000
    occupations:
  0.949  0.002 -0.008 -0.090  0.000
  0.002  0.711  0.000 -0.000 -0.003
 -0.008  0.000  0.962 -0.025 -0.002
 -0.090 -0.000 -0.025  0.760 -0.000
  0.000 -0.003 -0.002 -0.000  0.957
atom   23   Tr[ns(na)] =   8.69116
    eigenvalues:
  0.701  0.707  0.967  0.984  0.987
    eigenvectors:
  0.000  0.959  0.000  0.032  0.009
  0.018  0.000  0.982  0.000  0.000
  0.000  0.032  0.000  0.968  0.000
  0.000  0.008  0.000  0.000  0.991
  0.982  0.000  0.018  0.000  0.000
    occupations:
  0.718  0.000  0.049  0.025 -0.000
  0.000  0.962  0.000 -0.000 -0.036
  0.049  0.000  0.975 -0.005 -0.000
  0.025 -0.000 -0.005  0.984 -0.000
 -0.000 -0.036 -0.000 -0.000  0.706
N of occupied +U levels =  69.6154052
 --- exit write_ns ---

     Threshold (ethr) on eigenvalues was too large:
     Diagonalizing with lowered threshold

     Davidson diagonalization with overlap
     ethr =  6.57E-09,  avg # of iterations =  2.0

[...]

     total energy              =   -2313.36145320 Ry
     Harris-Foulkes estimate   =   -2313.36145320 Ry
     estimated scf accuracy    <       0.00000005 Ry

     iteration # 15     ecut=    40.00 Ry     beta=0.70
     Davidson diagonalization with overlap
     ethr =  4.62E-12,  avg # of iterations =  1.0

     negative rho (up, down):  0.158E+01 0.000E+00

     End of self-consistent calculation
 --- enter write_ns ---
 LDA+U parameters:
U( 2)     =  3.00000000
alpha( 2) =  0.00000000
atom    3   Tr[ns(na)] =   8.70630
    eigenvalues:
  0.688  0.705  0.985  0.987  0.990
    eigenvectors:
  0.046  0.128  0.806  0.005  0.015
  0.762  0.238  0.000  0.000  0.000
  0.001  0.004  0.026  0.000  0.969
  0.191  0.630  0.161  0.001  0.016
  0.000  0.000  0.006  0.994  0.000
    occupations:
  0.935  0.007  0.007 -0.108  0.001
  0.007  0.692  0.002  0.005 -0.002
  0.007  0.002  0.988  0.017 -0.000
 -0.108  0.005  0.017  0.751  0.001
  0.001 -0.002 -0.000  0.001  0.986
atom    4   Tr[ns(na)] =   8.69856
    eigenvalues:
  0.688  0.710  0.981  0.984  0.986
    eigenvectors:
  0.000  0.986  0.008  0.002  0.004
  0.010  0.000  0.046  0.921  0.023
  0.000  0.005  0.883  0.027  0.086
  0.000  0.009  0.063  0.041  0.887
  0.990  0.000  0.000  0.009  0.000
    occupations:
  0.713 -0.004 -0.019  0.026 -0.001
 -0.004  0.981  0.000  0.000  0.029
 -0.019  0.000  0.980  0.003  0.000
  0.026  0.000  0.003  0.983  0.000
 -0.001  0.029  0.000  0.000  0.691
atom    9   Tr[ns(na)] =   8.67754
    eigenvalues:
  0.711  0.721  0.956  0.965  0.986
    eigenvectors:
  0.000  0.136  0.001  0.015  0.849
  0.999  0.001  0.000  0.000  0.000
  0.000  0.011  0.054  0.926  0.008
  0.001  0.852  0.000  0.004  0.143
  0.000  0.000  0.944  0.055  0.000
    occupations:
  0.949 -0.001 -0.008 -0.090 -0.000
 -0.001  0.711  0.000  0.001 -0.003
 -0.008  0.000  0.962 -0.025  0.002
 -0.090  0.001 -0.025  0.760  0.000
 -0.000 -0.003  0.002  0.000  0.957
atom   10   Tr[ns(na)] =   8.75905
    eigenvalues:
  0.661  0.767  0.980  0.983  0.987
    eigenvectors:
  0.000  0.981  0.000  0.011  0.008
  0.012  0.000  0.988  0.000  0.000
  0.000  0.001  0.000  0.244  0.755
  0.000  0.018  0.000  0.745  0.237
  0.988  0.000  0.012  0.000  0.000
    occupations:
  0.772 -0.000 -0.007  0.029  0.000
 -0.000  0.977 -0.000  0.000 -0.035
 -0.007 -0.000  0.986 -0.001  0.000
  0.029  0.000 -0.001  0.980 -0.000
  0.000 -0.035  0.000 -0.000  0.665
atom   16   Tr[ns(na)] =   8.70631
    eigenvalues:
  0.688  0.705  0.985  0.987  0.990
    eigenvectors:
  0.047  0.127  0.809  0.003  0.015
  0.759  0.240  0.000  0.000  0.000
  0.001  0.004  0.026  0.000  0.969
  0.193  0.629  0.162  0.000  0.016
  0.000  0.000  0.003  0.997  0.000
    occupations:
  0.935 -0.007  0.007 -0.108 -0.001
 -0.007  0.692 -0.002 -0.005 -0.002
  0.007 -0.002  0.988  0.017  0.000
 -0.108 -0.005  0.017  0.751 -0.001
 -0.001 -0.002  0.000 -0.001  0.986
atom   17   Tr[ns(na)] =   8.69711
    eigenvalues:
  0.688  0.710  0.981  0.984  0.986
    eigenvectors:
  0.000  0.986  0.007  0.003  0.004
  0.010  0.000  0.067  0.901  0.021
  0.000  0.005  0.855  0.041  0.099
  0.000  0.009  0.070  0.046  0.876
  0.990  0.000  0.001  0.009  0.000
    occupations:
  0.713 -0.004 -0.019  0.026 -0.001
 -0.004  0.981  0.001  0.000  0.030
 -0.019  0.001  0.980  0.003  0.000
  0.026  0.000  0.003  0.983  0.000
 -0.001  0.030  0.000  0.000  0.691
atom   22   Tr[ns(na)] =   8.67751
    eigenvalues:
  0.711  0.721  0.956  0.965  0.986
    eigenvectors:
  0.001  0.135  0.001  0.015  0.848
  0.997  0.003  0.000  0.000  0.000
  0.000  0.011  0.062  0.918  0.008
  0.002  0.851  0.000  0.004  0.143
  0.000  0.000  0.937  0.063  0.000
    occupations:
  0.949  0.002 -0.008 -0.090  0.000
  0.002  0.711  0.000 -0.000 -0.003
 -0.008  0.000  0.962 -0.025 -0.002
 -0.090 -0.000 -0.025  0.760 -0.000
  0.000 -0.003 -0.002 -0.000  0.957
atom   23   Tr[ns(na)] =   8.69080
    eigenvalues:
  0.701  0.707  0.967  0.984  0.987
    eigenvectors:
  0.000  0.959  0.000  0.032  0.009
  0.018  0.000  0.982  0.000  0.000
  0.000  0.032  0.000  0.968  0.000
  0.000  0.008  0.000  0.000  0.991
  0.982  0.000  0.018  0.000  0.000
    occupations:
  0.718  0.000  0.049  0.025 -0.000
  0.000  0.962  0.000 -0.000 -0.036
  0.049  0.000  0.975 -0.005 -0.000
  0.025 -0.000 -0.005  0.984 -0.000
 -0.000 -0.036 -0.000 -0.000  0.706
N of occupied +U levels =  69.6131876
 --- exit write_ns ---

[...]

          k = 0.2500-0.4976 0.0000 ( 32026 PWs)   bands (ev):

[...]

          k =-0.2500 0.2488 0.0000 ( 32025 PWs)   bands (ev):

   -54.9279 -54.8851 -54.8815 -54.8449 -54.8434 -54.8133 -54.7734 -54.7346
   -54.7338 -54.7308 -54.6960 -54.6920 -54.6551 -54.5572 -54.5525 -54.5266
   -54.5220 -54.4562 -54.4508 -54.4491 -54.4466 -54.0808 -53.8466 -53.4991
   -23.7074 -21.4483 -21.1570 -20.5276 -20.3566 -20.0609 -19.9699 -19.9171
   -19.7771 -19.7575 -19.6538 -19.6053 -19.5310 -19.4897 -19.3516 -19.2993
   -19.2599 -18.5554 -18.3650 -17.3907  -9.9063  -9.6701  -9.5278  -9.4819
    -9.0722  -9.0440  -8.9724  -8.8253  -8.6937  -8.6663  -8.6259  -8.5357
    -8.4212  -8.3424  -8.2573  -8.1675  -8.1288  -8.0248  -7.9812  -7.5199
    -7.4564  -7.3673  -7.2318  -7.1802  -7.0892  -7.0253  -6.7442  -6.7125
    -6.6181  -6.4382  -6.3936  -6.3592  -6.2555  -6.1474  -6.0431  -6.0176
    -5.9643  -5.8879  -5.8027  -5.6963  -5.6414  -5.5988  -5.4400  -5.1718
    -5.1448  -5.0182  -4.8843  -4.7582  -4.6315  -4.5781  -4.5008  -4.4517
    -4.3784  -4.2647  -4.1121  -4.0458  -3.8990  -3.8047  -3.7020  -3.6576
    -3.4956  -3.3801  -3.2720  -3.1751  -3.0940  -3.0864  -2.9657  -2.9049
    -2.8110  -2.7554  -2.4637  -2.4383  -2.1752  -2.0216  -1.9418  -1.7923
    -1.7442  -1.6877  -1.6382  -1.5142  -1.2598  -1.1513  -1.0973  -0.9571
    -0.4239  -0.2265  -0.0932   0.3698   0.5322   0.8534   1.0521   1.3357
     1.4089   1.5607   1.6001   1.8920   2.0398   2.0849   2.3665   3.4121
     3.7739   4.0806   4.5697   4.8831   5.1146   5.5686   5.7288   5.7814
     5.9928   6.1705   6.3040   6.4778   6.5334   6.7528   6.8686   6.9601
     7.0100   7.1298   7.2956   7.4693   7.6180   7.6567   7.7868   7.8930
     7.9598   8.0607   8.2114   8.2568   8.4318   8.4856   8.5844   8.6884
     8.8145   8.8220   8.9471   8.9635   9.1531   9.2058   9.3295   9.4206
     9.5326   9.5953   9.6791   9.7617   9.8674   9.9975  10.0267  10.1199
    10.1991  10.2952  10.3981  10.4835  10.5785  10.6505  10.7257  10.7848
    10.9507  11.0058  11.1018  11.2056  11.3175  11.3630  11.4416  11.5561
    11.6369  11.7297  11.8175  11.8787  11.9534  12.0385  12.0886  12.1530
    12.2324  12.2888  12.3769  12.4346  12.5796  12.6516  12.7277  12.7702
    12.8651  12.8974  12.9801  13.0377  13.2058  13.2763  13.3289  13.4359
    13.5359  13.6113  13.6548  13.7061  13.7988  13.8220  13.9407  14.0230
    14.1073  14.1565  14.2503  14.3840  14.4256  14.4748  14.5932  14.7199
    14.7637  14.8255  14.9186  14.9720  15.0589  15.1422  15.1853  15.2835
    15.3254  15.3365  15.3963  15.4314  15.5134  15.5740  15.6376  15.6622
    15.7626  15.8463  15.8701  15.9179  15.9787  16.0606  16.1208  16.1580
    16.2253  16.2784  16.3434  16.4317  16.5231  16.5950  16.7472  16.7790
    16.8204  16.9277  16.9927  17.0434  17.0833  17.1421  17.2034  17.2528
    17.2976  17.3241  17.3701  17.4051  17.4225  17.4308  17.4679  17.4823
    17.5140  17.5413  17.5856  17.6178  17.6260  17.6392  17.7046  17.7819
    17.8927  17.9844  17.9979  18.0856  18.1185  18.2650  18.3595  18.3780
    18.3975  18.4544  18.5021  18.5734  18.6102  18.6794  18.7388  18.8497
    18.9396  18.9760  19.0317  19.1090  19.1204  19.2023  19.3082  19.3758
    19.4472  19.5373  19.5918  19.6376  19.6908  19.8343  19.9732  20.0168
    20.0903  20.1547  20.1932  20.2362  20.2803  20.3229  20.3507  20.4134
    20.5258  20.5833  20.6400  20.7035  20.7441  20.8125  20.8267  20.8524
    20.9384  20.9841  21.0554  21.0878  21.1604  21.2252  21.3110  21.3359
    21.3924  21.5003  21.5062  21.5833  21.6130  21.6802  21.7752  21.8730
    21.9351  21.9862  22.0701  22.1451  22.1916  22.2662  22.3146  22.3430
    22.4373  22.4844  22.5387

     the Fermi energy is    -1.0754 ev

!    total energy              =   -2313.36145319 Ry
     Harris-Foulkes estimate   =   -2313.36145320 Ry
     estimated scf accuracy    <          5.4E-09 Ry

     The total energy is the sum of the following terms:

     one-electron contribution =  -24130.86168846 Ry
     hartree contribution      =   12115.99713949 Ry
     xc contribution           =    -580.01339727 Ry
     ewald contribution        =   10280.68263460 Ry
     Hubbard energy            =       0.83381727 Ry
     smearing contrib. (-TS)   =       0.00004117 Ry

     convergence has been achieved in  15 iterations

     Forces acting on atoms (Ry/au):

     negative rho (up, down):  0.158E+01 0.000E+00
     atom    1 type  1   force =    -0.00695947   -0.00369317    0.00053888
     atom    2 type  1   force =     0.00012791    0.00466462    0.00035382
     atom    3 type  2   force =     0.00705255    0.00611094   -0.00001704
     atom    4 type  2   force =     0.00972146    0.00391590    0.00037195
     atom    5 type  1   force =     0.00106625   -0.00410975    0.00006000
     atom    6 type  1   force =     0.00006537   -0.00266289    0.00007878
     atom    7 type  1   force =     0.00012409   -0.00122877    0.00077119
     atom    8 type  1   force =    -0.00396803    0.00027025    0.00051822
     atom    9 type  2   force =     0.00618707    0.00426224   -0.00032618
     atom   10 type  2   force =    -0.00006834   -0.02354177    0.00021097
     atom   11 type  1   force =    -0.00116598    0.00221408   -0.00021967
     atom   12 type  1   force =    -0.01314660    0.01104772    0.00001041
     atom   13 type  1   force =    -0.00111157   -0.00769011   -0.00016168
     atom   14 type  1   force =    -0.00751816   -0.00354619    0.00022365
     atom   15 type  1   force =     0.00014982    0.00100930   -0.00060739
     atom   16 type  2   force =    -0.00792357    0.00619848    0.00002519
     atom   17 type  2   force =     0.00978247    0.00540995    0.00019776
     atom   18 type  1   force =     0.00126424   -0.00413760    0.00006466
     atom   19 type  1   force =    -0.00008523   -0.00260790    0.00009851
     atom   20 type  1   force =    -0.00000397   -0.00371389   -0.00031018
     atom   21 type  1   force =    -0.00388272    0.00229128    0.00027442
     atom   22 type  2   force =    -0.00264246    0.00419843   -0.00032036
     atom   23 type  2   force =     0.00010830    0.00687341   -0.00075688
     atom   24 type  1   force =     0.00122319    0.00227417   -0.00023189
     atom   25 type  1   force =     0.01320404    0.01109011    0.00002803
     atom   26 type  1   force =    -0.00104093   -0.01582707   -0.00034572
     atom   27 type  3   force =     0.00000514   -0.00012550    0.00011026
     atom   28 type  3   force =    -0.00000901    0.00042961    0.00010092
     atom   29 type  3   force =    -0.00036628   -0.00016172   -0.00058022
     atom   30 type  3   force =    -0.00017492   -0.00017418   -0.00035887
     atom   31 type  1   force =     0.00002539   -0.00028669    0.00095538
     atom   32 type  1   force =    -0.00005307    0.00096200   -0.00027854
     atom   33 type  3   force =     0.00001301    0.00028474   -0.00047836

     Total force =     0.002523     Total SCF correction =     0.000276
     SCF correction compared to forces is large: reduce conv_thr to get better values

     entering subroutine stress ...

     negative rho (up, down):  0.158E+01 0.000E+00
          total   stress  (Ry/bohr**3)                   (kbar)     P=  -19.87
  -0.00021470   0.00000002   0.00000384        -31.58      0.00      0.57
   0.00000002  -0.00013926  -0.00000670          0.00    -20.49     -0.99
   0.00000384  -0.00000670  -0.00005131          0.57     -0.99     -7.55

     bfgs converged in   8 scf cycles and   7 bfgs steps
     (criteria: energy < 0.10E-03, force < 0.10E-02)

     End of BFGS Geometry Optimization

     Final energy   =   -2313.3614531940 Ry
Begin final coordinates

ATOMIC_POSITIONS (crystal)
O0       0.000000000   0.000000000   0.377580128    0   0   1
O0       0.000000000   0.500000000   0.401763456    0   0   1
Pt1      0.250000000   0.500000000   0.451321503    0   0   1
Pt1      0.000000000   0.000000000   0.452673768    0   0   1
O0       0.250000000   0.810000000   0.442863213    0   0   1
O0       0.250000000   0.190000000   0.460588709    0   0   1
O0       0.000000000   0.500000000   0.496700011    0   0   1
O0       0.000000000   0.000000000   0.529651405    0   0   1
Pt1      0.250000000   0.000000000   0.575763223    0   0   1
Pt1      0.000000000   0.500000000   0.575218804    0   0   1
O0       0.250000000   0.690000000   0.566511443    0   0   1
O0       0.250000000   0.310000000   0.586540880    0   0   1
O0       0.000000000   0.000000000   0.621363833    0   0   1
O0       0.500000000   0.000000000   0.377471024    0   0   1
O0       0.500000000   0.500000000   0.401213786    0   0   1
Pt1      0.750000000   0.500000000   0.451324103    0   0   1
Pt1      0.500000000   0.000000000   0.452539442    0   0   1
O0       0.750000000   0.810000000   0.442876434    0   0   1
O0       0.750000000   0.190000000   0.460570210    0   0   1
O0       0.500000000   0.500000000   0.498190997    0   0   1
O0       0.500000000   0.000000000   0.529448184    0   0   1
Pt1      0.750000000   0.000000000   0.575760113    0   0   1
Pt1      0.500000000   0.500000000   0.576130931    0   0   1
O0       0.750000000   0.690000000   0.566486442    0   0   1
O0       0.750000000   0.310000000   0.586525067    0   0   1
O0       0.500000000   0.000000000   0.620899059    0   0   1
H2       0.000032887   0.640756215   0.386462033
H2       0.500077186   0.640668280   0.386006856
H2       0.143877379   0.033862299   0.367949559
H2       0.643430385   0.035152880   0.367753683
O0       0.500200042   0.556451211   0.648913816
O0       0.499835293   0.367666978   0.677713099
H2       0.500009614   0.428426705   0.711954785
End final coordinates

     General routines

     Parallel routines
     Hubbard U routines

   This run was terminated on:  15:59: 0  31May2014

   JOB DONE.