     Program PWSCF v.5.0.2 (svn rev. 9656) starts on  5Jun2014 at 21:31:50

     Current dimensions of program PWSCF are:
     Max number of different atomic species (ntypx) = 10
     Max number of k-points (npk) =  40000
     Max angular momentum in pseudopotentials (lmaxx) =  3
     Reading input from pwscf.in
Warning: card &CELL ignored
Warning: card / ignored

     Subspace diagonalization in iterative solution of the eigenvalue problem:
     a serial algorithm will be used

     bravais-lattice index     =            0
     lattice parameter (alat)  =      11.7541  a.u.
     unit-cell volume          =    7139.8207 (a.u.)^3
     number of atoms/cell      =           33
     number of atomic types    =            3
     number of electrons       =       245.00
     number of Kohn-Sham states=          367
     kinetic-energy cutoff     =      40.0000  Ry
     charge density cutoff     =     500.0000  Ry
     convergence threshold     =      1.0E-06
     mixing beta               =       0.3000
     number of iterations used =            8  plain     mixing
     Exchange-correlation      = SLA  PW   PBE  PBE ( 1 4 3 4 0)
     EXX-fraction              =        0.00
     nstep                     =           50

     celldm(1)=  11.754097  celldm(2)=   0.000000  celldm(3)=   0.000000
     celldm(4)=   0.000000  celldm(5)=   0.000000  celldm(6)=   0.000000

     crystal axes: (cart. coord. in units of alat)
               a(1) = (   1.000000   0.000000   0.000000 )
               a(2) = (   0.000000   1.034513   0.000000 )
               a(3) = (   0.000000   0.000000   4.249947 )

     reciprocal axes: (cart. coord. in units 2 pi/alat)
               b(1) = (  1.000000  0.000000  0.000000 )
               b(2) = (  0.000000  0.966638  0.000000 )
               b(3) = (  0.000000  0.000000  0.235297 )

     PseudoPot. # 1 for O  read from file:
     /home/camp/zhonxu/pseudo/o_pbe_v1.01.uspp.F.UPF
     MD5 check sum: 2bcb18d16ea4b960afae9ec6d52f22d2
     Pseudo is Ultrasoft + core correction, Zval =  6.0
     Generated by new atomic code, or converted to UPF format
     Using radial grid of  737 points,  5 beta functions with:
                l(1) =   0
                l(2) =   0
                l(3) =   1
                l(4) =   1
                l(5) =   2
     Q(r) pseudized with  8 coefficients,  rinner =    0.900   0.900   0.900
                                                       0.900   0.900

     PseudoPot. # 2 for Rh read from file:
     /home/camp/zhonxu/pseudo/rh_pbe_v1.uspp.F.UPF
     MD5 check sum: 37b626987ad0dd8ec6bf4cc9ef289918
     Pseudo is Ultrasoft + core correction, Zval = 15.0
     Generated by new atomic code, or converted to UPF format
     Using radial grid of  969 points,  7 beta functions with:
                l(1) =   0
                l(2) =   0
                l(3) =   1
                l(4) =   1
                l(5) =   2
                l(6) =   2
                l(7) =   2
     Q(r) pseudized with  6 coefficients,  rinner =    1.050   1.050   1.050
                                                       1.050   1.050

     PseudoPot. # 3 for H  read from file:
     /home/camp/zhonxu/pseudo/h_pbe_v1.uspp.F.UPF
     MD5 check sum: 3408e3ff4ec8b0a4e358431e7e038a48
     Pseudo is Ultrasoft, Zval =  1.0
     Generated by new atomic code, or converted to UPF format
     Using radial grid of  615 points,  2 beta functions with:
                l(1) =   0
                l(2) =   0
     Q(r) pseudized with  8 coefficients,  rinner =    0.700

     atomic species   valence    mass     pseudopotential
        O0             6.00    15.99940     O ( 1.00)
        Rh1           15.00   102.90550     Rh( 1.00)
        H2             1.00     1.00794     H ( 1.00)

     Simplified LDA+U calculation (l_max = 2) with parameters (eV):
     atomic species    L          U    alpha       J0     beta
        Rh1            2     6.5000   0.0000   0.0000   0.0000

     No symmetry found

   Cartesian axes

     site n.     atom                  positions (alat units)
         1           O0  tau(   1) = (   0.0000000   0.0000000   1.6055876  )
         2           O0  tau(   2) = (   0.0000000   0.5172566   1.7058013  )
         3           Rh1 tau(   3) = (   0.2500000   0.5172566   1.9245886  )
         4           Rh1 tau(   4) = (   0.0000000   0.0000000   1.9225486  )
         5           O0  tau(   5) = (   0.2500000   0.8379556   1.9216561  )
         6           O0  tau(   6) = (   0.2500000   0.1965575   1.9210611  )
         7           O0  tau(   7) = (   0.0000000   0.5172566   2.1183012  )
         8           O0  tau(   8) = (   0.0000000   0.0000000   2.2433346  )
         9           Rh1 tau(   9) = (   0.2500000   0.0000000   2.4442296  )
        10           Rh1 tau(  10) = (   0.0000000   0.5172566   2.4248924  )
        11           O0  tau(  11) = (   0.2500000   0.7138141   2.4423597  )
        12           O0  tau(  12) = (   0.2500000   0.3206991   2.4526445  )
        13           O0  tau(  13) = (   0.0000000   0.0000000   2.6373472  )
        14           O0  tau(  14) = (   0.5000000   0.0000000   1.6058426  )
        15           O0  tau(  15) = (   0.5000000   0.5172566   1.7065663  )
        16           Rh1 tau(  16) = (   0.7500000   0.5172566   1.9245461  )
        17           Rh1 tau(  17) = (   0.5000000   0.0000000   1.9225486  )
        18           O0  tau(  18) = (   0.7500000   0.8379556   1.9215286  )
        19           O0  tau(  19) = (   0.7500000   0.1965575   1.9212311  )
        20           O0  tau(  20) = (   0.5000000   0.5172566   2.1254411  )
        21           O0  tau(  21) = (   0.5000000   0.0000000   2.2428246  )
        22           Rh1 tau(  22) = (   0.7500000   0.0000000   2.4442296  )
        23           Rh1 tau(  23) = (   0.5000000   0.5172566   2.4566820  )
        24           O0  tau(  24) = (   0.7500000   0.7138141   2.4423172  )
        25           O0  tau(  25) = (   0.7500000   0.3206991   2.4526445  )
        26           O0  tau(  26) = (   0.5000000   0.0000000   2.6350523  )
        27           H2  tau(  27) = (   0.0000500   0.6607849   1.6355072  )
        28           H2  tau(  28) = (   0.4999200   0.6608884   1.6361872  )
        29           H2  tau(  29) = (   0.1477700   0.0372011   1.5603681  )
        30           H2  tau(  30) = (   0.6484400   0.0346148   1.5604531  )
        31           O0  tau(  31) = (   0.4997300   0.5556577   2.7651007  )
        32           O0  tau(  32) = (   0.5003300   0.3573415   2.8834192  )
        33           H2  tau(  33) = (   0.4999300   0.4160398   3.0312324  )

     number of k points=    10  Methfessel-Paxton smearing, width (Ry)=  0.0100
                       cart. coord. in units 2pi/alat
        k(    1) = (   0.0000000   0.0000000   0.0000000), wk =   0.1250000
        k(    2) = (   0.0000000   0.2416596   0.0000000), wk =   0.2500000
        k(    3) = (   0.0000000  -0.4833191   0.0000000), wk =   0.1250000
        k(    4) = (   0.2500000   0.0000000   0.0000000), wk =   0.2500000
        k(    5) = (   0.2500000   0.2416596   0.0000000), wk =   0.2500000
        k(    6) = (   0.2500000  -0.4833191   0.0000000), wk =   0.2500000
        k(    7) = (  -0.5000000   0.0000000   0.0000000), wk =   0.1250000
        k(    8) = (  -0.5000000   0.2416596   0.0000000), wk =   0.2500000
        k(    9) = (  -0.5000000  -0.4833191   0.0000000), wk =   0.1250000
        k(   10) = (  -0.2500000   0.2416596   0.0000000), wk =   0.2500000

     Largest allocated arrays     est. size (Mb)     dimensions
     Largest temporary arrays     est. size (Mb)     dimensions

     Check: negative/imaginary core charge=   -0.000003    0.000000

     Initial potential from superposition of free atoms
     Check: negative starting charge=   -0.646062

     starting charge  240.99914, renormalised to  245.00000

     negative rho (up, down):  0.657E+00 0.000E+00
     Number of +U iterations with fixed ns =  0
     Starting occupations:
 --- enter write_ns ---
 LDA+U parameters:
U( 2)     =  6.50000000
alpha( 2) =  0.00000000
atom    3   Tr[ns(na)] =   7.00000
    eigenvalues:
  0.700  0.700  0.700  0.700  0.700
    eigenvectors:
  1.000  0.000  0.000  0.000  0.000
  0.000  1.000  0.000  0.000  0.000
  0.000  0.000  1.000  0.000  0.000
  0.000  0.000  0.000  1.000  0.000
  0.000  0.000  0.000  0.000  1.000
    occupations:
  0.700  0.000  0.000  0.000  0.000
  0.000  0.700  0.000  0.000  0.000
  0.000  0.000  0.700  0.000  0.000
  0.000  0.000  0.000  0.700  0.000
  0.000  0.000  0.000  0.000  0.700
atom    4   Tr[ns(na)] =   7.00000
    eigenvalues:
  0.700  0.700  0.700  0.700  0.700
    eigenvectors:
  1.000  0.000  0.000  0.000  0.000
  0.000  1.000  0.000  0.000  0.000
  0.000  0.000  1.000  0.000  0.000
  0.000  0.000  0.000  1.000  0.000
  0.000  0.000  0.000  0.000  1.000
    occupations:
  0.700  0.000  0.000  0.000  0.000
  0.000  0.700  0.000  0.000  0.000
  0.000  0.000  0.700  0.000  0.000
  0.000  0.000  0.000  0.700  0.000
  0.000  0.000  0.000  0.000  0.700
atom    9   Tr[ns(na)] =   7.00000
    eigenvalues:
  0.700  0.700  0.700  0.700  0.700
    eigenvectors:
  1.000  0.000  0.000  0.000  0.000
  0.000  1.000  0.000  0.000  0.000
  0.000  0.000  1.000  0.000  0.000
  0.000  0.000  0.000  1.000  0.000
  0.000  0.000  0.000  0.000  1.000
    occupations:
  0.700  0.000  0.000  0.000  0.000
  0.000  0.700  0.000  0.000  0.000
  0.000  0.000  0.700  0.000  0.000
  0.000  0.000  0.000  0.700  0.000
  0.000  0.000  0.000  0.000  0.700
atom   10   Tr[ns(na)] =   7.00000
    eigenvalues:
  0.700  0.700  0.700  0.700  0.700
    eigenvectors:
  1.000  0.000  0.000  0.000  0.000
  0.000  1.000  0.000  0.000  0.000
  0.000  0.000  1.000  0.000  0.000
  0.000  0.000  0.000  1.000  0.000
  0.000  0.000  0.000  0.000  1.000
    occupations:
  0.700  0.000  0.000  0.000  0.000
  0.000  0.700  0.000  0.000  0.000
  0.000  0.000  0.700  0.000  0.000
  0.000  0.000  0.000  0.700  0.000
  0.000  0.000  0.000  0.000  0.700
atom   16   Tr[ns(na)] =   7.00000
    eigenvalues:
  0.700  0.700  0.700  0.700  0.700
    eigenvectors:
  1.000  0.000  0.000  0.000  0.000
  0.000  1.000  0.000  0.000  0.000
  0.000  0.000  1.000  0.000  0.000
  0.000  0.000  0.000  1.000  0.000
  0.000  0.000  0.000  0.000  1.000
    occupations:
  0.700  0.000  0.000  0.000  0.000
  0.000  0.700  0.000  0.000  0.000
  0.000  0.000  0.700  0.000  0.000
  0.000  0.000  0.000  0.700  0.000
  0.000  0.000  0.000  0.000  0.700
atom   17   Tr[ns(na)] =   7.00000
    eigenvalues:
  0.700  0.700  0.700  0.700  0.700
    eigenvectors:
  1.000  0.000  0.000  0.000  0.000
  0.000  1.000  0.000  0.000  0.000
  0.000  0.000  1.000  0.000  0.000
  0.000  0.000  0.000  1.000  0.000
  0.000  0.000  0.000  0.000  1.000
    occupations:
  0.700  0.000  0.000  0.000  0.000
  0.000  0.700  0.000  0.000  0.000
  0.000  0.000  0.700  0.000  0.000
  0.000  0.000  0.000  0.700  0.000
  0.000  0.000  0.000  0.000  0.700
atom   22   Tr[ns(na)] =   7.00000
    eigenvalues:
  0.700  0.700  0.700  0.700  0.700
    eigenvectors:
  1.000  0.000  0.000  0.000  0.000
  0.000  1.000  0.000  0.000  0.000
[...]
  0.036  0.000 -0.000  0.978  0.000
 -0.000 -0.010 -0.000  0.000  0.593
atom   16   Tr[ns(na)] =   8.09281
    eigenvalues:
  0.580  0.601  0.919  0.967  0.980
    eigenvectors:
  0.018  0.183  0.003  0.000  0.796
  0.918  0.082  0.000  0.000  0.000
  0.000  0.000  0.987  0.011  0.003
  0.063  0.735  0.000  0.000  0.201
  0.000  0.000  0.010  0.989  0.000
    occupations:
  0.903  0.005  0.001 -0.153  0.000
  0.005  0.581 -0.000  0.004 -0.006
  0.001 -0.000  0.920 -0.005 -0.005
 -0.153  0.004 -0.005  0.676 -0.000
  0.000 -0.006 -0.005 -0.000  0.966
atom   17   Tr[ns(na)] =   8.10731
    eigenvalues:
  0.596  0.649  0.891  0.936  0.981
    eigenvectors:
  0.001  0.991  0.000  0.000  0.008
  0.000  0.000  0.062  0.938  0.000
  0.000  0.000  0.938  0.062  0.000
  0.000  0.008  0.000  0.000  0.992
  0.999  0.001  0.000  0.000  0.000
    occupations:
  0.652 -0.004 -0.001  0.030  0.002
 -0.004  0.933  0.011  0.001 -0.001
 -0.001  0.011  0.894 -0.000  0.001
  0.030  0.001 -0.000  0.979  0.000
  0.002 -0.001  0.001  0.000  0.596
atom   22   Tr[ns(na)] =   8.10994
    eigenvalues:
  0.635  0.643  0.880  0.914  0.982
    eigenvectors:
  0.000  0.152  0.000  0.000  0.847
  0.998  0.002  0.000  0.000  0.000
  0.000  0.000  0.983  0.016  0.000
  0.002  0.846  0.000  0.000  0.152
  0.000  0.000  0.016  0.984  0.000
    occupations:
  0.931  0.001 -0.000 -0.122  0.000
  0.001  0.635  0.001 -0.001 -0.000
 -0.000  0.001  0.881 -0.005  0.004
 -0.122 -0.001 -0.005  0.695  0.001
  0.000 -0.000  0.004  0.001  0.914
atom   23   Tr[ns(na)] =   8.11246
    eigenvalues:
  0.597  0.632  0.887  0.961  0.980
    eigenvectors:
  0.000  0.994  0.000  0.003  0.003
  0.001  0.000  0.999  0.000  0.000
  0.000  0.003  0.000  0.996  0.001
  0.000  0.004  0.000  0.001  0.996
  0.999  0.000  0.001  0.000  0.000
    occupations:
  0.634 -0.000  0.018  0.021 -0.000
 -0.000  0.886 -0.001 -0.000 -0.010
  0.018 -0.001  0.960 -0.002  0.000
  0.021 -0.000 -0.002  0.979  0.000
 -0.000 -0.010  0.000  0.000  0.597
N of occupied +U levels =  64.8180052
 --- exit write_ns ---

     Threshold (ethr) on eigenvalues was too large:
     Diagonalizing with lowered threshold

     Davidson diagonalization with overlap
     ethr =  8.80E-08,  avg # of iterations =  1.0

[...]

     total energy              =   -2011.10072057 Ry
     Harris-Foulkes estimate   =   -2011.10072059 Ry
     estimated scf accuracy    <       0.00000039 Ry

     iteration # 15     ecut=    40.00 Ry     beta=0.30
     Davidson diagonalization with overlap
     ethr =  6.67E-12,  avg # of iterations =  1.0

     negative rho (up, down):  0.688E+00 0.000E+00

     End of self-consistent calculation
 --- enter write_ns ---
 LDA+U parameters:
U( 2)     =  6.50000000
alpha( 2) =  0.00000000
atom    3   Tr[ns(na)] =   8.09199
    eigenvalues:
  0.580  0.601  0.919  0.967  0.980
    eigenvectors:
  0.019  0.182  0.003  0.000  0.796
  0.914  0.085  0.000  0.000  0.000
  0.000  0.000  0.980  0.017  0.003
  0.066  0.732  0.000  0.000  0.201
  0.000  0.000  0.017  0.982  0.000
    occupations:
  0.903 -0.005  0.001 -0.153 -0.001
 -0.005  0.581 -0.001 -0.004 -0.006
  0.001 -0.001  0.920 -0.005  0.006
 -0.153 -0.004 -0.005  0.676 -0.000
 -0.001 -0.006  0.006 -0.000  0.966
atom    4   Tr[ns(na)] =   8.10745
    eigenvalues:
  0.596  0.648  0.894  0.935  0.981
    eigenvectors:
  0.001  0.991  0.000  0.000  0.008
  0.000  0.000  0.096  0.904  0.000
  0.000  0.000  0.904  0.096  0.000
  0.000  0.008  0.000  0.000  0.992
  0.999  0.001  0.000  0.000  0.000
    occupations:
  0.651 -0.004 -0.001  0.029  0.002
 -0.004  0.931  0.012  0.001 -0.001
 -0.001  0.012  0.898 -0.000  0.001
  0.029  0.001 -0.000  0.978  0.000
  0.002 -0.001  0.001  0.000  0.596
atom    9   Tr[ns(na)] =   8.10997
    eigenvalues:
  0.635  0.643  0.880  0.914  0.982
    eigenvectors:
  0.003  0.149  0.000  0.000  0.847
  0.975  0.025  0.000  0.000  0.000
  0.000  0.000  0.981  0.018  0.000
  0.022  0.826  0.000  0.000  0.152
  0.000  0.000  0.018  0.982  0.000
    occupations:
  0.931 -0.000 -0.000 -0.122 -0.001
 -0.000  0.635  0.000  0.002 -0.000
 -0.000  0.000  0.881 -0.005 -0.005
 -0.122  0.002 -0.005  0.695  0.001
 -0.001 -0.000 -0.005  0.001  0.914
atom   10   Tr[ns(na)] =   8.08518
    eigenvalues:
  0.586  0.593  0.940  0.943  0.981
    eigenvectors:
  0.991  0.000  0.000  0.000  0.008
  0.000  0.001  0.002  0.997  0.000
  0.000  0.000  0.998  0.002  0.000
  0.008  0.000  0.000  0.000  0.991
  0.000  0.999  0.000  0.001  0.000
    occupations:
  0.589  0.000  0.008  0.036 -0.000
  0.000  0.943 -0.000  0.000 -0.010
  0.008 -0.000  0.940 -0.000 -0.000
  0.036  0.000 -0.000  0.978  0.000
 -0.000 -0.010 -0.000  0.000  0.593
atom   16   Tr[ns(na)] =   8.09196
    eigenvalues:
  0.580  0.601  0.919  0.966  0.980
    eigenvectors:
  0.018  0.183  0.003  0.000  0.796
  0.918  0.082  0.000  0.000  0.000
  0.000  0.000  0.986  0.011  0.003
  0.064  0.735  0.000  0.000  0.201
  0.000  0.000  0.011  0.989  0.000
    occupations:
  0.903  0.005  0.001 -0.153  0.000
  0.005  0.581 -0.000  0.004 -0.006
  0.001 -0.000  0.920 -0.005 -0.005
 -0.153  0.004 -0.005  0.676 -0.000
  0.000 -0.006 -0.005 -0.000  0.966
atom   17   Tr[ns(na)] =   8.10664
    eigenvalues:
  0.596  0.649  0.891  0.936  0.981
    eigenvectors:
  0.001  0.991  0.000  0.000  0.008
  0.000  0.000  0.061  0.938  0.000
  0.000  0.000  0.938  0.062  0.000
  0.000  0.008  0.000  0.000  0.992
  0.999  0.001  0.000  0.000  0.000
    occupations:
  0.652 -0.004 -0.001  0.030  0.002
 -0.004  0.933  0.011  0.001 -0.001
 -0.001  0.011  0.894 -0.000  0.001
  0.030  0.001 -0.000  0.979  0.000
  0.002 -0.001  0.001  0.000  0.596
atom   22   Tr[ns(na)] =   8.11002
    eigenvalues:
  0.635  0.643  0.880  0.915  0.982
    eigenvectors:
  0.000  0.152  0.000  0.000  0.847
  0.998  0.002  0.000  0.000  0.000
  0.000  0.000  0.983  0.016  0.000
  0.002  0.846  0.000  0.000  0.152
  0.000  0.000  0.016  0.984  0.000
    occupations:
  0.931  0.001 -0.000 -0.122  0.000
  0.001  0.635  0.001 -0.001 -0.000
 -0.000  0.001  0.881 -0.005  0.004
 -0.122 -0.001 -0.005  0.695  0.001
  0.000 -0.000  0.004  0.001  0.914
atom   23   Tr[ns(na)] =   8.11332
    eigenvalues:
  0.597  0.632  0.887  0.961  0.980
    eigenvectors:
  0.000  0.994  0.000  0.003  0.003
  0.001  0.000  0.999  0.000  0.000
  0.000  0.003  0.000  0.996  0.001
  0.000  0.004  0.000  0.001  0.996
  0.999  0.000  0.001  0.000  0.000
    occupations:
  0.634 -0.000  0.018  0.021 -0.000
 -0.000  0.887 -0.001 -0.000 -0.010
  0.018 -0.001  0.960 -0.002  0.000
  0.021 -0.000 -0.002  0.979  0.000
 -0.000 -0.010  0.000  0.000  0.597
N of occupied +U levels =  64.8165169
 --- exit write_ns ---

[...]

          k = 0.2500-0.4833 0.0000 ( 30510 PWs)   bands (ev):

[...]

          k =-0.2500 0.2417 0.0000 ( 30481 PWs)   bands (ev):

   -48.0310 -47.9001 -47.8952 -47.8735 -47.8680 -47.8518 -47.8445 -47.8184
   -47.8039 -47.7839 -47.7675 -47.6976 -47.6845 -47.6695 -47.5754 -47.5592
   -47.5436 -47.5391 -47.5376 -47.4627 -47.4619 -47.4493 -47.4349 -47.4208
   -24.5338 -20.6547 -20.3680 -20.3047 -20.2446 -19.9200 -19.8239 -19.8011
   -19.7773 -19.6555 -19.5250 -19.4738 -19.4506 -19.2723 -19.2600 -19.2108
   -19.0902 -18.5309 -18.3653 -17.6675  -9.7296  -9.6586  -9.6338  -9.3927
    -9.2870  -9.1268  -8.9555  -8.9113  -8.8161  -8.5577  -8.2332  -8.1651
    -8.1444  -8.0311  -7.9869  -7.8667  -7.7890  -7.6105  -7.5558  -7.3935
    -7.2195  -7.0925  -6.9839  -6.9090  -6.8531  -6.6937  -6.5858  -6.4850
    -6.4520  -6.3466  -6.2681  -6.1603  -6.1346  -6.0754  -6.0074  -5.9253
    -5.8813  -5.7472  -5.6809  -5.6376  -5.5363  -5.4670  -5.3763  -5.2626
    -4.8833  -4.8470  -4.6339  -4.5078  -4.4134  -4.3011  -4.2067  -4.1493
    -4.0174  -3.9388  -3.8772  -3.8398  -3.7527  -3.5686  -3.5027  -3.3746
    -3.2549  -3.0922  -3.0559  -3.0104  -2.9446  -2.9075  -2.8489  -2.7607
    -2.7483  -2.6140  -2.5095  -2.4444  -2.1832  -1.9754  -1.8385  -1.7710
    -1.6803  -1.6460  -1.4949  -1.3810  -1.2363  -1.1653  -1.0913  -0.1306
     0.4389   0.5062   0.6987   1.0504   1.3140   1.6078   1.7919   2.0098
     2.1265   2.2972   2.3523   2.4801   2.5217   2.6294   2.9169   3.2704
     3.8713   4.1840   4.4351   4.9757   5.2057   5.5092   5.8473   5.9805
     6.0233   6.2043   6.3079   6.4785   6.6234   6.8771   6.9164   7.2286
     7.3995   7.4948   7.6768   7.8248   7.8669   8.1552   8.2104   8.3059
     8.4087   8.5084   8.6943   8.8228   8.8754   9.0299   9.1491   9.1984
     9.3363   9.4036   9.4881   9.6293   9.7905   9.8375   9.9426   9.9855
    10.0851  10.1782  10.3082  10.3650  10.4757  10.5291  10.6275  10.7072
    10.7823  10.9072  11.0032  11.1317  11.1790  11.3007  11.3259  11.4185
    11.5077  11.6010  11.6746  11.7140  11.7892  11.8356  11.9242  11.9651
    12.0243  12.1409  12.2635  12.3440  12.4260  12.5017  12.5412  12.5855
    12.6448  12.7491  12.8303  12.9583  13.0187  13.0702  13.0984  13.1819
    13.3001  13.4241  13.4536  13.6069  13.6486  13.7234  13.7990  13.8806
    13.9922  14.0431  14.1339  14.1646  14.2710  14.3618  14.4399  14.4568
    14.5394  14.5570  14.6845  14.7310  14.8083  14.8639  15.0137  15.0312
    15.1069  15.2097  15.2733  15.3350  15.4605  15.5070  15.5809  15.6256
    15.6838  15.7751  15.8142  15.8544  15.9466  15.9803  16.0267  16.0912
    16.1368  16.1911  16.3250  16.3836  16.4505  16.4960  16.5336  16.6260
    16.6379  16.7330  16.7898  16.8870  16.9728  17.0675  17.1008  17.1687
    17.2308  17.2733  17.3035  17.4305  17.4639  17.5245  17.5702  17.6057
    17.7225  17.7339  17.7821  17.8659  17.9601  17.9974  18.0808  18.1262
    18.1972  18.2580  18.3606  18.4065  18.5315  18.6186  18.6488  18.6949
    18.8539  18.9233  18.9800  19.0095  19.0579  19.1803  19.2398  19.3293
    19.3910  19.4655  19.4954  19.5857  19.6414  19.6959  19.7826  19.9119
    19.9559  20.0526  20.1297  20.2168  20.2934  20.3363  20.3653  20.4963
    20.6097  20.6931  20.7222  20.7501  20.7875  20.8723  20.9613  20.9915
    21.0860  21.1254  21.1547  21.2041  21.2847  21.3682  21.4341  21.4539
    21.5227  21.5936  21.6802  21.7023  21.7685  21.8207  21.8476  21.9460
    22.0658  22.0896  22.1327  22.2180  22.2824  22.3530  22.4232  22.4591
    22.5509  22.6175  22.6630  22.7213  22.8094  22.8843  22.9273

     the Fermi energy is    -1.5497 ev

!    total energy              =   -2011.10072057 Ry
     Harris-Foulkes estimate   =   -2011.10072058 Ry
     estimated scf accuracy    <          8.4E-09 Ry

     The total energy is the sum of the following terms:

     one-electron contribution =  -23747.09195144 Ry
     hartree contribution      =   11931.84186718 Ry
     xc contribution           =    -380.12072531 Ry
     ewald contribution        =   10181.84616626 Ry
     Hubbard energy            =       2.42480706 Ry
     smearing contrib. (-TS)   =      -0.00088432 Ry

     convergence has been achieved in  15 iterations

     Forces acting on atoms (Ry/au):

     negative rho (up, down):  0.688E+00 0.000E+00
     atom    1 type  1   force =    -0.00704262   -0.01184525    0.00010484
     atom    2 type  1   force =     0.00014517    0.00330142   -0.00035366
     atom    3 type  2   force =     0.03053980    0.00553185   -0.00019231
     atom    4 type  2   force =     0.00784613    0.00786714    0.00009246
     atom    5 type  1   force =    -0.00414516   -0.02974871    0.00009177
     atom    6 type  1   force =     0.00303993    0.02810428    0.00025810
     atom    7 type  1   force =    -0.00028420   -0.00492570   -0.00016580
     atom    8 type  1   force =    -0.00276605    0.00114655   -0.00044948
     atom    9 type  2   force =     0.00409906    0.00042051   -0.00010197
     atom   10 type  2   force =    -0.00019211    0.00114324   -0.00029204
     atom   11 type  1   force =    -0.00980743    0.02292112    0.00019830
     atom   12 type  1   force =    -0.00318080   -0.01726825    0.00029216
     atom   13 type  1   force =    -0.00062556   -0.00260205   -0.00008521
     atom   14 type  1   force =    -0.00572920   -0.01152631    0.00043169
     atom   15 type  1   force =     0.00007680    0.00308876   -0.00020067
     atom   16 type  2   force =    -0.03051330    0.00563842   -0.00018240
     atom   17 type  2   force =     0.00751059    0.00854185   -0.00004019
     atom   18 type  1   force =    -0.00174750   -0.03053475    0.00008906
     atom   19 type  1   force =     0.00537730    0.02747418    0.00026433
     atom   20 type  1   force =    -0.00013626   -0.00653760    0.00070414
     atom   21 type  1   force =    -0.00292061    0.00135070   -0.00056475
     atom   22 type  2   force =    -0.00161456    0.00033242   -0.00011211
     atom   23 type  2   force =    -0.00053803    0.00281228   -0.00054288
     atom   24 type  1   force =     0.00926736    0.02266923    0.00019736
     atom   25 type  1   force =     0.00438549   -0.01742084    0.00035982
     atom   26 type  1   force =    -0.00087806   -0.01032283    0.00037992
     atom   27 type  3   force =     0.00000408    0.00028756    0.00027018
     atom   28 type  3   force =     0.00000591    0.00022565    0.00039655
     atom   29 type  3   force =    -0.00004292    0.00009616    0.00018215
     atom   30 type  3   force =    -0.00026476    0.00005753    0.00004690
     atom   31 type  1   force =    -0.00022866   -0.00012143    0.00031120
     atom   32 type  1   force =     0.00038372   -0.00010247   -0.00054914
     atom   33 type  3   force =    -0.00002352   -0.00005466   -0.00083835

     Total force =     0.002074     Total SCF correction =     0.000360
     SCF correction compared to forces is large: reduce conv_thr to get better values

     entering subroutine stress ...

     negative rho (up, down):  0.688E+00 0.000E+00
          total   stress  (Ry/bohr**3)                   (kbar)     P=  -17.45
  -0.00012266   0.00000622   0.00000406        -18.04      0.91      0.60
   0.00000622  -0.00014353   0.00000410          0.91    -21.11      0.60
   0.00000406   0.00000410  -0.00008973          0.60      0.60    -13.20

     bfgs converged in   9 scf cycles and   8 bfgs steps
     (criteria: energy < 0.10E-03, force < 0.10E-02)

     End of BFGS Geometry Optimization

     Final energy   =   -2011.1007205742 Ry
Begin final coordinates

ATOMIC_POSITIONS (crystal)
O0       0.000000000   0.000000000   0.378073064    0   0   1
O0       0.000000000   0.500000000   0.401945391    0   0   1
Rh1      0.250000000   0.500000000   0.453004881    0   0   1
Rh1      0.000000000   0.000000000   0.452420961    0   0   1
O0       0.250000000   0.810000000   0.452401856    0   0   1
O0       0.250000000   0.190000000   0.452060815    0   0   1
O0       0.000000000   0.500000000   0.499374151    0   0   1
O0       0.000000000   0.000000000   0.527737270    0   0   1
Rh1      0.250000000   0.000000000   0.574763606    0   0   1
Rh1      0.000000000   0.500000000   0.570854859    0   0   1
O0       0.250000000   0.690000000   0.574140989    0   0   1
O0       0.250000000   0.310000000   0.576481363    0   0   1
O0       0.000000000   0.000000000   0.620386868    0   0   1
O0       0.500000000   0.000000000   0.377954447    0   0   1
O0       0.500000000   0.500000000   0.402027643    0   0   1
Rh1      0.750000000   0.500000000   0.452995321    0   0   1
Rh1      0.500000000   0.000000000   0.452209528    0   0   1
O0       0.750000000   0.810000000   0.452366345    0   0   1
O0       0.750000000   0.190000000   0.452095998    0   0   1
O0       0.500000000   0.500000000   0.500485014    0   0   1
O0       0.500000000   0.000000000   0.527596710    0   0   1
Rh1      0.750000000   0.000000000   0.574761510    0   0   1
Rh1      0.500000000   0.500000000   0.577538700    0   0   1
O0       0.750000000   0.690000000   0.574144859    0   0   1
O0       0.750000000   0.310000000   0.576475564    0   0   1
O0       0.500000000   0.000000000   0.619971559    0   0   1
H2      -0.000151013   0.637425244   0.385004293
H2       0.499741429   0.637832255   0.385236752
H2       0.147762618   0.036247066   0.367430911
H2       0.648603755   0.033827412   0.367403680
O0       0.499301804   0.535824895   0.650584590
O0       0.500816948   0.346729762   0.677997840
H2       0.499932250   0.401653999   0.713002661
End final coordinates

     General routines

     Parallel routines
     Hubbard U routines

   This run was terminated on:   9:40:10   6Jun2014

   JOB DONE.
Running PBS batch system epilogue script
Job id: 381422.audhumbla.fysik.dtu.dk
Username: zhonxu
Groupname: campgst
Jobname: RhO2/Eads-2-layers/OOH-U-6.5
Sessionid: 13754
Queuename: verylong
Accounting:
This job has allocated the following 16 nodes:
a043 a043 a043 a043 a043 a043 a043 a043 a040 a040 a040 a040 a040 a040 a040 a040
Finished epilogue job 381422.audhumbla.fysik.dtu.dk for zhonxu