     Program PWSCF v.5.0.2 (svn rev. 9656) starts on 13May2014 at  0: 8:53

     Current dimensions of program PWSCF are:
     Max number of different atomic species (ntypx) = 10
     Max number of k-points (npk) =  40000
     Max angular momentum in pseudopotentials (lmaxx) =  3
     Reading input from pwscf.in
Warning: card &CELL ignored
Warning: card / ignored

     Subspace diagonalization in iterative solution of the eigenvalue problem:
     a serial algorithm will be used

     bravais-lattice index     =            0
     lattice parameter (alat)  =      10.7336  a.u.
     unit-cell volume          =    6184.1966 (a.u.)^3
     number of atoms/cell      =           31
     number of atomic types    =            3
     number of electrons       =       238.00 (up: 130.00, down: 108.00)
     number of Kohn-Sham states=          345
     kinetic-energy cutoff     =      40.0000  Ry
     charge density cutoff     =     500.0000  Ry
     convergence threshold     =      1.0E-06
     mixing beta               =       0.3000
     number of iterations used =            8  plain     mixing
     Exchange-correlation      = SLA  PW   PBE  PBE ( 1 4 3 4 0)
     EXX-fraction              =        0.00
     nstep                     =           50

     celldm(1)=  10.733644  celldm(2)=   0.000000  celldm(3)=   0.000000
     celldm(4)=   0.000000  celldm(5)=   0.000000  celldm(6)=   0.000000

     crystal axes: (cart. coord. in units of alat)
               a(1) = (   1.000000   0.000000   0.000000 )
               a(2) = (   0.000000   1.085558   0.000000 )
               a(3) = (   0.000000   0.000000   4.606685 )

     reciprocal axes: (cart. coord. in units 2 pi/alat)
               b(1) = (  1.000000  0.000000  0.000000 )
               b(2) = (  0.000000  0.921185  0.000000 )
               b(3) = (  0.000000  0.000000  0.217076 )

     PseudoPot. # 1 for O  read from file:
     /home/camp/zhonxu/pseudo/o_pbe_v1.01.uspp.F.UPF
     MD5 check sum: 2bcb18d16ea4b960afae9ec6d52f22d2
     Pseudo is Ultrasoft + core correction, Zval =  6.0
     Generated by new atomic code, or converted to UPF format
     Using radial grid of  737 points,  5 beta functions with:
                l(1) =   0
                l(2) =   0
                l(3) =   1
                l(4) =   1
                l(5) =   2
     Q(r) pseudized with  8 coefficients,  rinner =    0.900   0.900   0.900
                                                       0.900   0.900

     PseudoPot. # 2 for Mn read from file:
     /home/camp/zhonxu/pseudo/mn_pbe_v1.uspp.F.UPF
     MD5 check sum: 5fd7c7b5c956fd19902447332617373a
     Pseudo is Ultrasoft + core correction, Zval = 15.0
     Generated by new atomic code, or converted to UPF format
     Using radial grid of  859 points,  6 beta functions with:
                l(1) =   0
                l(2) =   0
                l(3) =   1
                l(4) =   1
                l(5) =   2
                l(6) =   2
     Q(r) pseudized with  6 coefficients,  rinner =    1.150   1.150   1.150
                                                       1.150   1.150

     PseudoPot. # 3 for H  read from file:
     /home/camp/zhonxu/pseudo/h_pbe_v1.uspp.F.UPF
     MD5 check sum: 3408e3ff4ec8b0a4e358431e7e038a48
     Pseudo is Ultrasoft, Zval =  1.0
     Generated by new atomic code, or converted to UPF format
     Using radial grid of  615 points,  2 beta functions with:
                l(1) =   0
                l(2) =   0
     Q(r) pseudized with  8 coefficients,  rinner =    0.700

     atomic species   valence    mass     pseudopotential
        O0             6.00    15.99940     O ( 1.00)
        Mn1           15.00    54.93800     Mn( 1.00)
        H2             1.00     1.00794     H ( 1.00)

     Starting magnetic structure
     atomic species   magnetization
        O0           0.000
        Mn1          0.600
        H2           0.000

     Simplified LDA+U calculation (l_max = 2) with parameters (eV):
     atomic species    L          U    alpha       J0     beta
        Mn1            2     7.0000   0.0000   0.0000   0.0000

     No symmetry found

   Cartesian axes

     site n.     atom                  positions (alat units)
         1           O0  tau(   1) = (   0.0000000   0.0000000   1.7399910  )
         2           O0  tau(   2) = (   0.0000000   0.5427791   1.8336449  )
         3           Mn1 tau(   3) = (   0.2500000   0.5427791   2.0703364  )
         4           Mn1 tau(   4) = (   0.0000000   0.0000000   2.0664668  )
         5           O0  tau(   5) = (   0.2500000   0.8684466   2.0675263  )
         6           O0  tau(   6) = (   0.2500000   0.2171117   2.0713959  )
         7           O0  tau(   7) = (   0.0000000   0.5427791   2.2853304  )
         8           O0  tau(   8) = (   0.0000000   0.0000000   2.4130738  )
         9           Mn1 tau(   9) = (   0.2500000   0.0000000   2.6404597  )
        10           Mn1 tau(  10) = (   0.0000000   0.5427791   2.6100556  )
        11           O0  tau(  11) = (   0.2500000   0.7598908   2.6550169  )
        12           O0  tau(  12) = (   0.2500000   0.3256675   2.6553393  )
        13           O0  tau(  13) = (   0.0000000   0.0000000   2.8422786  )
        14           O0  tau(  14) = (   0.5000000   0.0000000   1.7417876  )
        15           O0  tau(  15) = (   0.5000000   0.5427791   1.8324472  )
        16           Mn1 tau(  16) = (   0.7500000   0.5427791   2.0703364  )
        17           Mn1 tau(  17) = (   0.5000000   0.0000000   2.0689544  )
        18           O0  tau(  18) = (   0.7500000   0.8684466   2.0673421  )
        19           O0  tau(  19) = (   0.7500000   0.2171117   2.0716263  )
        20           O0  tau(  20) = (   0.5000000   0.5427791   2.2770384  )
        21           O0  tau(  21) = (   0.5000000   0.0000000   2.4133962  )
        22           Mn1 tau(  22) = (   0.7500000   0.0000000   2.6405058  )
        23           Mn1 tau(  23) = (   0.5000000   0.5427791   2.7093297  )
        24           O0  tau(  24) = (   0.7500000   0.7598908   2.6549708  )
        25           O0  tau(  25) = (   0.7500000   0.3256675   2.6552472  )
        26           O0  tau(  26) = (   0.5000000   0.0000000   2.8420483  )
        27           H2  tau(  27) = (   0.0000300   0.7005108   1.7564369  )
        28           H2  tau(  28) = (   0.5000400   0.7015529   1.7568515  )
        29           H2  tau(  29) = (   0.1610500   0.0407627   1.6853097  )
        30           H2  tau(  30) = (   0.6609300   0.0408604   1.6868759  )
        31           O0  tau(  31) = (   0.5000700   0.5432134   2.9889094  )

     number of k points=    20  Methfessel-Paxton smearing, width (Ry)=  0.0100
                       cart. coord. in units 2pi/alat
        k(    1) = (   0.0000000   0.0000000   0.0000000), wk =   0.0625000
        k(    2) = (   0.0000000   0.2302962   0.0000000), wk =   0.1250000
        k(    3) = (   0.0000000  -0.4605925   0.0000000), wk =   0.0625000
        k(    4) = (   0.2500000   0.0000000   0.0000000), wk =   0.1250000
        k(    5) = (   0.2500000   0.2302962   0.0000000), wk =   0.1250000
        k(    6) = (   0.2500000  -0.4605925   0.0000000), wk =   0.1250000
        k(    7) = (  -0.5000000   0.0000000   0.0000000), wk =   0.0625000
        k(    8) = (  -0.5000000   0.2302962   0.0000000), wk =   0.1250000
        k(    9) = (  -0.5000000  -0.4605925   0.0000000), wk =   0.0625000
        k(   10) = (  -0.2500000   0.2302962   0.0000000), wk =   0.1250000
        k(   11) = (   0.0000000   0.0000000   0.0000000), wk =   0.0625000
        k(   12) = (   0.0000000   0.2302962   0.0000000), wk =   0.1250000
        k(   13) = (   0.0000000  -0.4605925   0.0000000), wk =   0.0625000
        k(   14) = (   0.2500000   0.0000000   0.0000000), wk =   0.1250000
        k(   15) = (   0.2500000   0.2302962   0.0000000), wk =   0.1250000
        k(   16) = (   0.2500000  -0.4605925   0.0000000), wk =   0.1250000
        k(   17) = (  -0.5000000   0.0000000   0.0000000), wk =   0.0625000
        k(   18) = (  -0.5000000   0.2302962   0.0000000), wk =   0.1250000
        k(   19) = (  -0.5000000  -0.4605925   0.0000000), wk =   0.0625000
        k(   20) = (  -0.2500000   0.2302962   0.0000000), wk =   0.1250000

     Largest allocated arrays     est. size (Mb)     dimensions
     Largest temporary arrays     est. size (Mb)     dimensions

     Check: negative/imaginary core charge=   -0.000022    0.000000

     Initial potential from superposition of free atoms
     Check: negative starting charge=(component1):   -0.000737
     Check: negative starting charge=(component2):   -0.000364

     starting charge  229.99987, renormalised to  238.00000

     negative rho (up, down):  0.762E-03 0.377E-03
     Number of +U iterations with fixed ns =  0
     Starting occupations:
 --- enter write_ns ---
 LDA+U parameters:
U( 2)     =  7.00000000
alpha( 2) =  0.00000000
atom    3   Tr[ns(na)] (up, down, total) =   5.00000  0.00000  5.00000
   spin  1
    eigenvalues:
  1.000  1.000  1.000  1.000  1.000
    eigenvectors:
  1.000  0.000  0.000  0.000  0.000
  0.000  1.000  0.000  0.000  0.000
  0.000  0.000  1.000  0.000  0.000
  0.000  0.000  0.000  1.000  0.000
  0.000  0.000  0.000  0.000  1.000
    occupations:
  1.000  0.000  0.000  0.000  0.000
  0.000  1.000  0.000  0.000  0.000
  0.000  0.000  1.000  0.000  0.000
  0.000  0.000  0.000  1.000  0.000
  0.000  0.000  0.000  0.000  1.000
   spin  2
    eigenvalues:
  0.000  0.000  0.000  0.000  0.000
    eigenvectors:
  1.000  0.000  0.000  0.000  0.000
  0.000  1.000  0.000  0.000  0.000
  0.000  0.000  1.000  0.000  0.000
  0.000  0.000  0.000  1.000  0.000
  0.000  0.000  0.000  0.000  1.000
    occupations:
  0.000  0.000  0.000  0.000  0.000
  0.000  0.000  0.000  0.000  0.000
  0.000  0.000  0.000  0.000  0.000
  0.000  0.000  0.000  0.000  0.000
  0.000  0.000  0.000  0.000  0.000
atomic mag. moment =     5.000000
atom    4   Tr[ns(na)] (up, down, total) =   5.00000  0.00000  5.00000
   spin  1
    eigenvalues:
  1.000  1.000  1.000  1.000  1.000
    eigenvectors:
  1.000  0.000  0.000  0.000  0.000
  0.000  1.000  0.000  0.000  0.000
  0.000  0.000  1.000  0.000  0.000
  0.000  0.000  0.000  1.000  0.000
  0.000  0.000  0.000  0.000  1.000
    occupations:
  1.000  0.000  0.000  0.000  0.000
  0.000  1.000  0.000  0.000  0.000
  0.000  0.000  1.000  0.000  0.000
  0.000  0.000  0.000  1.000  0.000
  0.000  0.000  0.000  0.000  1.000
   spin  2
    eigenvalues:
  0.000  0.000  0.000  0.000  0.000
    eigenvectors:
  1.000  0.000  0.000  0.000  0.000
  0.000  1.000  0.000  0.000  0.000
  0.000  0.000  1.000  0.000  0.000
  0.000  0.000  0.000  1.000  0.000
  0.000  0.000  0.000  0.000  1.000
    occupations:
  0.000  0.000  0.000  0.000  0.000
  0.000  0.000  0.000  0.000  0.000
  0.000  0.000  0.000  0.000  0.000
  0.000  0.000  0.000  0.000  0.000
  0.000  0.000  0.000  0.000  0.000
atomic mag. moment =     5.000000
atom    9   Tr[ns(na)] (up, down, total) =   5.00000  0.00000  5.00000
   spin  1
    eigenvalues:
  1.000  1.000  1.000  1.000  1.000
    eigenvectors:
  1.000  0.000  0.000  0.000  0.000
[...]
 -0.000  0.007  0.001  0.000  0.078
atomic mag. moment =     3.690602
atom    4   Tr[ns(na)] (up, down, total) =   4.52787  0.79349  5.32136
   spin  1
    eigenvalues:
  0.731  0.792  0.997  1.004  1.004
    eigenvectors:
  0.000  0.997  0.001  0.002  0.000
  0.000  0.001  0.000  0.862  0.137
  0.000  0.001  0.000  0.136  0.863
  0.000  0.001  0.999  0.000  0.000
  1.000  0.000  0.000  0.000  0.000
    occupations:
  0.793 -0.007 -0.006  0.006 -0.001
 -0.007  1.003 -0.000  0.000  0.005
 -0.006 -0.000  1.004  0.000 -0.000
  0.006  0.000  0.000  0.997 -0.000
 -0.001  0.005 -0.000 -0.000  0.731
   spin  2
    eigenvalues:
  0.067  0.074  0.080  0.256  0.316
    eigenvectors:
  0.008  0.001  0.000  0.991  0.000
  0.009  0.271  0.717  0.001  0.002
  0.034  0.683  0.281  0.001  0.000
  0.948  0.045  0.000  0.006  0.000
  0.000  0.000  0.001  0.000  0.998
    occupations:
  0.255  0.006  0.006 -0.015  0.000
  0.006  0.079 -0.002  0.000 -0.010
  0.006 -0.002  0.076  0.001  0.000
 -0.015  0.000  0.001  0.069 -0.000
  0.000 -0.010  0.000 -0.000  0.316
atomic mag. moment =     3.734383
atom    9   Tr[ns(na)] (up, down, total) =   4.49607  0.85900  5.35507
   spin  1
    eigenvalues:
  0.745  0.766  0.990  0.994  1.001
    eigenvectors:
  0.232  0.000  0.000  0.000  0.768
  0.001  0.999  0.000  0.000  0.000
  0.000  0.000  0.017  0.983  0.000
  0.767  0.001  0.000  0.000  0.232
  0.000  0.000  0.983  0.017  0.000
    occupations:
  0.941  0.002 -0.000 -0.108  0.000
  0.002  0.766 -0.000 -0.000  0.000
 -0.000 -0.000  0.994 -0.000 -0.001
 -0.108 -0.000 -0.000  0.805  0.000
  0.000  0.000 -0.001  0.000  0.990
   spin  2
    eigenvalues:
  0.071  0.083  0.086  0.306  0.313
    eigenvectors:
  0.801  0.000  0.000  0.061  0.138
  0.000  0.000  0.000  0.704  0.296
  0.000  0.000  1.000  0.000  0.000
  0.199  0.000  0.000  0.235  0.566
  0.000  1.000  0.000  0.000  0.000
    occupations:
  0.119  0.000  0.000  0.096  0.000
  0.000  0.308 -0.000  0.004 -0.000
  0.000 -0.000  0.086  0.001 -0.000
  0.096  0.004  0.001  0.263 -0.000
  0.000 -0.000 -0.000 -0.000  0.083
atomic mag. moment =     3.637075
atom   10   Tr[ns(na)] (up, down, total) =   4.71634  0.55657  5.27291
   spin  1
    eigenvalues:
  0.754  0.971  0.996  0.997  0.998
    eigenvectors:
  0.000  0.967  0.000  0.033  0.000
  0.000  0.000  1.000  0.000  0.000
  0.000  0.000  0.000  0.001  0.999
  0.000  0.033  0.000  0.966  0.001
  1.000  0.000  0.000  0.000  0.000
    occupations:
  0.972  0.000  0.000  0.005  0.000
  0.000  0.996 -0.000 -0.000 -0.001
  0.000 -0.000  0.998  0.000 -0.000
  0.005 -0.000  0.000  0.996 -0.000
  0.000 -0.001 -0.000 -0.000  0.754
   spin  2
    eigenvalues:
  0.055  0.058  0.066  0.118  0.260
    eigenvectors:
  0.038  0.000  0.000  0.962  0.000
  0.000  0.000  1.000  0.000  0.000
  0.001  0.999  0.000  0.000  0.000
  0.961  0.001  0.000  0.038  0.000
  0.000  0.000  0.000  0.000  1.000
    occupations:
  0.115 -0.000 -0.000 -0.012 -0.000
 -0.000  0.066  0.000  0.000  0.001
 -0.000  0.000  0.058 -0.000  0.000
 -0.012  0.000 -0.000  0.058 -0.000
 -0.000  0.001  0.000 -0.000  0.260
atomic mag. moment =     4.159775
atom   16   Tr[ns(na)] (up, down, total) =   4.50962  0.81941  5.32903
   spin  1
    eigenvalues:
  0.741  0.762  1.000  1.002  1.004
    eigenvectors:
  0.233  0.019  0.000  0.666  0.082
  0.112  0.886  0.001  0.001  0.000
  0.000  0.000  0.001  0.108  0.891
  0.655  0.094  0.000  0.225  0.026
  0.000  0.001  0.998  0.001  0.001
    occupations:
  0.937 -0.011 -0.001 -0.112 -0.000
 -0.011  0.761 -0.001 -0.001 -0.008
 -0.001 -0.001  1.004 -0.001  0.000
 -0.112 -0.001 -0.001  0.809 -0.000
 -0.000 -0.008  0.000 -0.000  0.999
   spin  2
    eigenvalues:
  0.062  0.077  0.088  0.277  0.315
    eigenvectors:
  0.774  0.000  0.001  0.006  0.219
  0.000  0.001  0.000  0.980  0.019
  0.002  0.020  0.978  0.000  0.000
  0.224  0.000  0.002  0.013  0.762
  0.000  0.979  0.020  0.001  0.000
    occupations:
  0.119  0.000 -0.003  0.105  0.000
  0.000  0.277  0.000 -0.006  0.007
 -0.003  0.000  0.087 -0.003 -0.001
  0.105 -0.006 -0.003  0.258 -0.000
  0.000  0.007 -0.001 -0.000  0.078
atomic mag. moment =     3.690204
atom   17   Tr[ns(na)] (up, down, total) =   4.52913  0.79181  5.32094
   spin  1
    eigenvalues:
  0.731  0.793  0.997  1.004  1.005
    eigenvectors:
  0.000  0.997  0.001  0.002  0.000
  0.000  0.001  0.000  0.858  0.141
  0.000  0.001  0.000  0.140  0.859
  0.000  0.001  0.999  0.000  0.000
  1.000  0.000  0.000  0.000  0.000
    occupations:
  0.793 -0.007 -0.006  0.006 -0.001
 -0.007  1.004 -0.000  0.000  0.005
 -0.006 -0.000  1.004  0.000 -0.000
  0.006  0.000  0.000  0.997 -0.000
 -0.001  0.005 -0.000 -0.000  0.731
   spin  2
    eigenvalues:
  0.067  0.074  0.080  0.255  0.316
    eigenvectors:
  0.008  0.001  0.000  0.991  0.000
  0.010  0.281  0.706  0.001  0.002
  0.035  0.671  0.293  0.001  0.000
  0.946  0.047  0.000  0.007  0.000
  0.000  0.000  0.001  0.000  0.998
    occupations:
  0.253  0.006  0.006 -0.015  0.000
  0.006  0.079 -0.003  0.000 -0.010
  0.006 -0.003  0.076  0.001 -0.000
 -0.015  0.000  0.001  0.069 -0.000
  0.000 -0.010 -0.000 -0.000  0.316
atomic mag. moment =     3.737316
atom   22   Tr[ns(na)] (up, down, total) =   4.49618  0.85884  5.35502
   spin  1
    eigenvalues:
  0.745  0.766  0.990  0.994  1.001
    eigenvectors:
  0.232  0.000  0.000  0.000  0.768
  0.000  1.000  0.000  0.000  0.000
  0.000  0.000  0.017  0.983  0.000
  0.768  0.000  0.000  0.000  0.232
  0.000  0.000  0.983  0.017  0.000
    occupations:
  0.941 -0.001 -0.000 -0.108  0.000
 -0.001  0.766  0.000  0.001  0.000
 -0.000  0.000  0.994 -0.000  0.001
 -0.108  0.001 -0.000  0.805 -0.000
  0.000  0.000  0.001 -0.000  0.990
   spin  2
    eigenvalues:
  0.071  0.083  0.086  0.305  0.313
    eigenvectors:
  0.801  0.000  0.000  0.061  0.138
  0.000  0.000  0.000  0.707  0.293
  0.000  0.000  1.000  0.000  0.000
  0.199  0.000  0.000  0.233  0.568
  0.000  1.000  0.000  0.000  0.000
    occupations:
  0.119 -0.000  0.000  0.096 -0.000
 -0.000  0.308 -0.000 -0.004 -0.000
  0.000 -0.000  0.086  0.001  0.000
  0.096 -0.004  0.001  0.263  0.000
 -0.000 -0.000  0.000  0.000  0.083
atomic mag. moment =     3.637346
atom   23   Tr[ns(na)] (up, down, total) =   4.58138  0.72994  5.31133
   spin  1
    eigenvalues:
  0.771  0.808  1.000  1.001  1.002
    eigenvectors:
  0.000  0.999  0.001  0.000  0.000
  0.000  0.000  0.000  1.000  0.000
  0.000  0.000  0.001  0.000  0.999
  0.000  0.001  0.998  0.000  0.001
  1.000  0.000  0.000  0.000  0.000
    occupations:
  0.808 -0.000  0.002  0.006  0.000
 -0.000  1.001 -0.000  0.000 -0.001
  0.002 -0.000  1.002 -0.000  0.000
  0.006  0.000 -0.000  1.000  0.000
  0.000 -0.001  0.000  0.000  0.771
   spin  2
    eigenvalues:
  0.061  0.073  0.076  0.238  0.283
    eigenvectors:
  0.007  0.000  0.000  0.993  0.000
  0.000  0.000  1.000  0.000  0.000
  0.000  1.000  0.000  0.000  0.000
  0.992  0.000  0.000  0.007  0.000
  0.000  0.000  0.000  0.000  1.000
    occupations:
  0.236  0.000 -0.001 -0.015 -0.000
  0.000  0.076 -0.000 -0.000  0.001
 -0.001 -0.000  0.073 -0.000 -0.000
 -0.015 -0.000 -0.000  0.062 -0.000
 -0.000  0.001 -0.000 -0.000  0.283
atomic mag. moment =     3.851439
N of occupied +U levels =  42.5948069
 --- exit write_ns ---

 ------ SPIN UP ------------

[...]

 ------ SPIN DOWN ----------

[...]

          k = 0.2500-0.4606 0.0000 ( 26462 PWs)   bands (ev):

[...]

          k =-0.2500 0.2303 0.0000 ( 26396 PWs)   bands (ev):

   -80.0942 -80.0862 -79.9764 -79.9684 -79.8600 -79.8586 -79.8463 -79.0615
   -48.9927 -48.9437 -48.9361 -48.8988 -48.8658 -48.8524 -48.8497 -48.8421
   -48.8265 -48.8089 -48.7827 -48.7669 -48.7448 -48.7099 -48.6931 -48.6897
   -48.6755 -48.6748 -48.5960 -48.5025 -48.4907 -48.1283 -48.0300 -47.5799
   -21.7616 -21.5202 -21.2584 -21.0104 -20.8468 -20.7022 -20.4707 -20.4383
   -20.3618 -20.2884 -20.1720 -20.1172 -20.0549 -19.9764 -19.9231 -19.7977
   -19.7311 -19.6403 -19.5409  -9.0187  -8.7452  -8.4275  -8.3146  -8.2859
    -8.0460  -7.9362  -7.7891  -7.4908  -7.2945  -7.2711  -7.1171  -7.0995
    -6.9826  -6.9210  -6.8288  -6.7909  -6.7045  -6.5526  -6.4471  -6.3606
    -6.3239  -6.2383  -6.1860  -6.0797  -6.0291  -5.9690  -5.8227  -5.8031
    -5.7634  -5.7109  -5.5349  -5.5021  -5.3895  -5.2785  -5.2303  -5.1238
    -5.0579  -4.9924  -4.8924  -4.7903  -4.7457  -4.6269  -4.5746  -4.4799
    -4.4371  -4.3629  -4.3098  -4.1864  -4.0551  -3.9775  -3.7877  -3.7003
    -3.6456  -3.3880  -3.3122  -3.0563   1.6917   1.7412   1.7610   1.8203
     1.8827   1.9049   1.9229   1.9798   2.0140   2.0672   2.1533   2.1739
     2.2051   2.2216   2.2551   2.3853   2.4013   2.4883   2.5296   2.5913
     2.6080   2.6821   2.7286   2.7352   2.8233   2.8323   2.9231   2.9673
     3.0108   3.0646   3.1002   3.1514   3.2526   3.2976   3.3522   3.4452
     3.4655   3.5723   3.6452   3.7327   3.7803   4.3820   4.6187   5.0824
     5.5199   5.6913   5.8039   6.2890   6.3938   6.5182   6.5959   6.6517
     6.8477   7.0146   7.1193   7.3955   7.5553   7.7134   7.9169   8.0527
     8.2696   8.3548   8.4427   8.5134   8.6454   8.7068   8.9173   9.0955
     9.2065   9.3154   9.4203   9.5012   9.5471   9.8986   9.9665  10.0319
    10.1618  10.2342  10.3289  10.4595  10.5521  10.6040  10.7429  10.8461
    10.9487  11.0257  11.1068  11.2605  11.2947  11.3390  11.5316  11.6022
    11.6530  11.7381  11.7847  11.9348  11.9709  12.0401  12.1738  12.2905
    12.4184  12.4745  12.5631  12.6026  12.6410  12.7656  12.9271  12.9715
    13.0170  13.0704  13.1281  13.1698  13.2638  13.2940  13.3741  13.4669
    13.5253  13.5497  13.6025  13.6534  13.7564  13.7792  13.8647  13.9717
    14.0951  14.1685  14.2145  14.2480  14.2786  14.3995  14.4961  14.5467
    14.6612  14.7131  14.8062  14.9440  15.0471  15.0840  15.1451  15.2081
    15.2826  15.4081  15.4864  15.6274  15.7282  15.8480  15.9079  15.9839
    16.1193  16.1749  16.2790  16.3093  16.3772  16.4994  16.5440  16.5956
    16.6511  16.7291  16.8076  16.8592  16.9938  17.0913  17.1398  17.1997
    17.2737  17.4018  17.4320  17.5318  17.5846  17.6186  17.7269  17.7919
    17.8447  17.9278  17.9754  18.1214  18.1771  18.2428  18.3489  18.4003
    18.4604  18.5635  18.6255  18.7182  18.7935  18.8342  18.8664  18.9863
    19.0842  19.1390  19.1603  19.2524  19.2974  19.3501  19.4128  19.5061
    19.6831  19.7421  19.7778  19.9396  19.9569  20.0216  20.0845  20.1386
    20.2083  20.2525  20.3079  20.3525  20.4258  20.4705  20.5936  20.6537
    20.8000  20.9174  20.9467  21.0190  21.1068  21.1531  21.2042  21.2828
    21.3087  21.4280  21.5297  21.5752  21.6087  21.7272  21.7878  21.8247
    21.9255  22.0055  22.0540  22.1791  22.2297  22.3413  22.4251  22.4842
    22.5109

     the spin up/dw Fermi energies are    -2.4803   -0.4791 ev

!    total energy              =   -2318.36241490 Ry
     Harris-Foulkes estimate   =   -2318.36241490 Ry
     estimated scf accuracy    <          7.0E-09 Ry

     The total energy is the sum of the following terms:

     one-electron contribution =  -25792.08374624 Ry
     hartree contribution      =   12914.63986958 Ry
     xc contribution           =    -349.05005552 Ry
     ewald contribution        =   10906.18090124 Ry
     Hubbard energy            =       1.94948585 Ry
     smearing contrib. (-TS)   =       0.00113019 Ry

     total magnetization       =    22.00 Bohr mag/cell
     absolute magnetization    =    39.11 Bohr mag/cell

     convergence has been achieved in  11 iterations

     Forces acting on atoms (Ry/au):

     negative rho (up, down):  0.153E-02 0.146E-02
     atom    1 type  1   force =    -0.00435864   -0.01199222   -0.00014721
     atom    2 type  1   force =     0.00039929    0.00734071   -0.00013528
     atom    3 type  2   force =     0.00193415    0.00208175   -0.00020127
     atom    4 type  2   force =     0.00609224    0.00959992   -0.00022701
     atom    5 type  1   force =     0.00128790    0.00822023    0.00005312
     atom    6 type  1   force =    -0.00094787   -0.01426029    0.00005589
     atom    7 type  1   force =     0.00010045    0.00296830   -0.00040879
     atom    8 type  1   force =    -0.00129493   -0.00336717    0.00004201
     atom    9 type  2   force =     0.00750833    0.00059549    0.00031431
     atom   10 type  2   force =    -0.00012921   -0.00192778   -0.00002089
     atom   11 type  1   force =    -0.00584924   -0.01722021    0.00000280
     atom   12 type  1   force =    -0.00551958    0.01832387    0.00007192
     atom   13 type  1   force =    -0.00040150   -0.00044911   -0.00005829
     atom   14 type  1   force =    -0.00457079   -0.01172010   -0.00017803
     atom   15 type  1   force =     0.00056029    0.00636490    0.00019333
     atom   16 type  2   force =    -0.00360660    0.00198770   -0.00018514
     atom   17 type  2   force =     0.00613057    0.00956560    0.00000857
     atom   18 type  1   force =     0.00115736    0.00819841    0.00009501
     atom   19 type  1   force =    -0.00241139   -0.01412650   -0.00000799
     atom   20 type  1   force =     0.00003673    0.00405962   -0.00036238
     atom   21 type  1   force =    -0.00143660   -0.00308888    0.00015014
     atom   22 type  2   force =    -0.00612222    0.00057136    0.00031321
     atom   23 type  2   force =    -0.00001920   -0.00236675   -0.00013257
     atom   24 type  1   force =     0.00589650   -0.01718542   -0.00000831
     atom   25 type  1   force =     0.00570749    0.01841858    0.00007435
     atom   26 type  1   force =    -0.00042373   -0.00084796   -0.00035478
     atom   27 type  3   force =    -0.00002797    0.00001243   -0.00015937
     atom   28 type  3   force =    -0.00002928   -0.00015327   -0.00008327
     atom   29 type  3   force =     0.00017083   -0.00008038    0.00026044
     atom   30 type  3   force =     0.00016616   -0.00000389    0.00026763
     atom   31 type  1   force =     0.00000046    0.00048107    0.00076784

     Total force =     0.001418     Total SCF correction =     0.000156
     SCF correction compared to forces is large: reduce conv_thr to get better values

     bfgs converged in  29 scf cycles and  28 bfgs steps
     (criteria: energy < 0.10E-03, force < 0.10E-02)

     End of BFGS Geometry Optimization

     Final energy   =   -2318.3624148988 Ry
Begin final coordinates

ATOMIC_POSITIONS (crystal)
O0       0.000000000   0.000000000   0.372296975    0   0   1
O0       0.000000000   0.500000000   0.392345289    0   0   1
Mn1      0.250000000   0.500000000   0.445894270    0   0   1
Mn1      0.000000000   0.000000000   0.447167747    0   0   1
O0       0.250000000   0.800000000   0.445019372    0   0   1
O0       0.250000000   0.200000000   0.449856203    0   0   1
O0       0.000000000   0.500000000   0.494310121    0   0   1
O0       0.000000000   0.000000000   0.526913446    0   0   1
Mn1      0.250000000   0.000000000   0.576650649    0   0   1
Mn1      0.000000000   0.500000000   0.572448447    0   0   1
O0       0.250000000   0.700000000   0.584805406    0   0   1
O0       0.250000000   0.300000000   0.585251291    0   0   1
O0       0.000000000   0.000000000   0.626235628    0   0   1
O0       0.500000000   0.000000000   0.372087400    0   0   1
O0       0.500000000   0.500000000   0.392227303    0   0   1
Mn1      0.750000000   0.500000000   0.445875711    0   0   1
Mn1      0.500000000   0.000000000   0.446851617    0   0   1
O0       0.750000000   0.800000000   0.445138739    0   0   1
O0       0.750000000   0.200000000   0.449906770    0   0   1
O0       0.500000000   0.500000000   0.496464251    0   0   1
O0       0.500000000   0.000000000   0.526964203    0   0   1
Mn1      0.750000000   0.000000000   0.576652414    0   0   1
Mn1      0.500000000   0.500000000   0.572970483    0   0   1
O0       0.750000000   0.700000000   0.584816931    0   0   1
O0       0.750000000   0.300000000   0.585265992    0   0   1
O0       0.500000000   0.000000000   0.627064535    0   0   1
H2       0.000670194   0.649041208   0.377282109
H2       0.500733664   0.648068082   0.376848930
H2       0.161155115   0.044741156   0.361896596
H2       0.660613784   0.046120944   0.361677908
O0       0.499911582   0.501923597   0.647973265
End final coordinates

     General routines

     Parallel routines
     Hubbard U routines

   This run was terminated on:  22:34:59  14May2014

   JOB DONE.
Running PBS batch system epilogue script
Job id: 351125.audhumbla.fysik.dtu.dk
Username: zhonxu
Groupname: campgst
Jobname: MnO2/Eads-2-layers/O-U-7.0
Sessionid: 25867
Queuename: verylong
Accounting:
This job has allocated the following 16 nodes:
a092 a092 a092 a092 a092 a092 a092 a092 a090 a090 a090 a090 a090 a090 a090 a090
Finished epilogue job 351125.audhumbla.fysik.dtu.dk for zhonxu