     Program PWSCF v.5.0.2 (svn rev. 9656) starts on 10Apr2014 at 23:54:24

     Current dimensions of program PWSCF are:
     Max number of different atomic species (ntypx) = 10
     Max number of k-points (npk) =  40000
     Max angular momentum in pseudopotentials (lmaxx) =  3
     Reading input from pwscf.in
Warning: card &CELL ignored
Warning: card / ignored

     Subspace diagonalization in iterative solution of the eigenvalue problem:
     a serial algorithm will be used

     bravais-lattice index     =            0
     lattice parameter (alat)  =      10.3179  a.u.
     unit-cell volume          =    9693.3575 (a.u.)^3
     number of atoms/cell      =           50
     number of atomic types    =            3
     number of electrons       =       423.00
     number of Kohn-Sham states=          634
     kinetic-energy cutoff     =      40.0000  Ry
     charge density cutoff     =     500.0000  Ry
     convergence threshold     =      1.0E-06
     mixing beta               =       0.3000
     number of iterations used =            8  plain     mixing
     Exchange-correlation      = SLA  PW   PBE  PBE ( 1 4 3 4 0)
     EXX-fraction              =        0.00
     nstep                     =           50

     celldm(1)=  10.317905  celldm(2)=   0.000000  celldm(3)=   0.000000
     celldm(4)=   0.000000  celldm(5)=   0.000000  celldm(6)=   0.000000

     crystal axes: (cart. coord. in units of alat)
               a(1) = (   1.000000   0.000000   0.000000 )
               a(2) = (   0.000000   1.282117   0.000000 )
               a(3) = (   0.000000   0.000000   6.882911 )

     reciprocal axes: (cart. coord. in units 2 pi/alat)
               b(1) = (  1.000000  0.000000  0.000000 )
               b(2) = (  0.000000  0.779960  0.000000 )
               b(3) = (  0.000000  0.000000  0.145287 )

     PseudoPot. # 1 for O  read from file:
     /home/camp/zhonxu/pseudo/o_pbe_v1.01.uspp.F.UPF
     MD5 check sum: 2bcb18d16ea4b960afae9ec6d52f22d2
     Pseudo is Ultrasoft + core correction, Zval =  6.0
     Generated by new atomic code, or converted to UPF format
     Using radial grid of  737 points,  5 beta functions with:
                l(1) =   0
                l(2) =   0
                l(3) =   1
                l(4) =   1
                l(5) =   2
     Q(r) pseudized with  8 coefficients,  rinner =    0.900   0.900   0.900
                                                       0.900   0.900

     PseudoPot. # 2 for Mo read from file:
     /home/camp/zhonxu/pseudo/mo_pbe_v1.uspp.F.UPF
     MD5 check sum: 30c4dcd161f5d35cd49bb5239c51a633
     Pseudo is Ultrasoft + core correction, Zval = 14.0
     Generated by new atomic code, or converted to UPF format
     Using radial grid of  889 points,  6 beta functions with:
                l(1) =   0
                l(2) =   0
                l(3) =   1
                l(4) =   1
                l(5) =   2
                l(6) =   2
     Q(r) pseudized with  6 coefficients,  rinner =    1.000   1.000   1.000
                                                       1.000   1.000

     PseudoPot. # 3 for H  read from file:
     /home/camp/zhonxu/pseudo/h_pbe_v1.uspp.F.UPF
     MD5 check sum: 3408e3ff4ec8b0a4e358431e7e038a48
     Pseudo is Ultrasoft, Zval =  1.0
     Generated by new atomic code, or converted to UPF format
     Using radial grid of  615 points,  2 beta functions with:
                l(1) =   0
                l(2) =   0
     Q(r) pseudized with  8 coefficients,  rinner =    0.700

     atomic species   valence    mass     pseudopotential
        O0             6.00    15.99940     O ( 1.00)
        Mo1           14.00    95.94000     Mo( 1.00)
        H2             1.00     1.00794     H ( 1.00)

      2 Sym. Ops. (no inversion) found

   Cartesian axes

     site n.     atom                  positions (alat units)
         1           O0  tau(   1) = (   0.0000000   0.6410583   2.1977822  )
         2           Mo1 tau(   2) = (   0.2500000   0.6410583   2.4798439  )
         3           Mo1 tau(   3) = (   0.0000000   0.0000000   2.4798439  )
         4           O0  tau(   4) = (   0.2500000   1.0000510   2.4798439  )
         5           O0  tau(   5) = (   0.2500000   0.2820657   2.4798439  )
         6           O0  tau(   6) = (   0.0000000   0.6410583   2.7619056  )
         7           O0  tau(   7) = (   0.0000000   0.0000000   2.8388565  )
         8           Mo1 tau(   8) = (   0.2500000   0.0000000   3.1209182  )
         9           Mo1 tau(   9) = (   0.0000000   0.6410583   3.1209182  )
        10           O0  tau(  10) = (   0.2500000   0.9231240   3.1209182  )
        11           O0  tau(  11) = (   0.2500000   0.3589927   3.1209182  )
        12           O0  tau(  12) = (   0.0000000   0.0000000   3.4029799  )
        13           O0  tau(  13) = (   0.0000000   0.6410583   3.4705701  )
        14           Mo1 tau(  14) = (   0.2286600   0.6410583   3.7488462  )
        15           Mo1 tau(  15) = (   0.0000000   0.0000000   3.7864269  )
        16           O0  tau(  16) = (   0.2460200   1.0042564   3.7683248  )
        17           O0  tau(  17) = (   0.2460200   0.2778603   3.7683248  )
        18           O0  tau(  18) = (   0.0000000   0.6410583   4.0400621  )
        19           O0  tau(  19) = (   0.0000000   0.0000000   4.1500511  )
        20           Mo1 tau(  20) = (   0.2719400   0.0000000   4.4350036  )
        21           Mo1 tau(  21) = (   0.0000000   0.6410583   4.3760858  )
        22           O0  tau(  22) = (   0.2568700   0.9035974   4.4329387  )
        23           O0  tau(  23) = (   0.2568700   0.3785193   4.4329387  )
        24           O0  tau(  24) = (   0.0000000   0.0000000   4.6642045  )
        25           O0  tau(  25) = (   0.5000000   0.6410583   2.1977822  )
        26           Mo1 tau(  26) = (   0.7500000   0.6410583   2.4798439  )
        27           Mo1 tau(  27) = (   0.5000000   0.0000000   2.4798439  )
        28           O0  tau(  28) = (   0.7500000   1.0000510   2.4798439  )
        29           O0  tau(  29) = (   0.7500000   0.2820657   2.4798439  )
        30           O0  tau(  30) = (   0.5000000   0.6410583   2.7619056  )
        31           O0  tau(  31) = (   0.5000000   0.0000000   2.8388565  )
        32           Mo1 tau(  32) = (   0.7500000   0.0000000   3.1209182  )
        33           Mo1 tau(  33) = (   0.5000000   0.6410583   3.1209182  )
        34           O0  tau(  34) = (   0.7500000   0.9231240   3.1209182  )
        35           O0  tau(  35) = (   0.7500000   0.3589927   3.1209182  )
        36           O0  tau(  36) = (   0.5000000   0.0000000   3.4029799  )
        37           O0  tau(  37) = (   0.5000000   0.6410583   3.4927331  )
        38           Mo1 tau(  38) = (   0.7713400   0.6410583   3.7488462  )
        39           Mo1 tau(  39) = (   0.5000000   0.0000000   3.7719728  )
        40           O0  tau(  40) = (   0.7539800   1.0042564   3.7683248  )
        41           O0  tau(  41) = (   0.7539800   0.2778603   3.7683248  )
        42           O0  tau(  42) = (   0.5000000   0.6410583   4.0184498  )
        43           O0  tau(  43) = (   0.5000000   0.0000000   4.1341515  )
        44           Mo1 tau(  44) = (   0.7280600   0.0000000   4.4350036  )
        45           Mo1 tau(  45) = (   0.5000000   0.6410583   4.3550241  )
        46           O0  tau(  46) = (   0.7431300   0.9035974   4.4329387  )
        47           O0  tau(  47) = (   0.7431300   0.3785193   4.4329387  )
        48           O0  tau(  48) = (   0.5000000   0.0000000   4.7053643  )
        49           O0  tau(  49) = (   0.5204400   0.6410583   4.7254624  )
        50           H2  tau(  50) = (   0.3789100   0.6410583   4.8351760  )

     number of k points=     9  Methfessel-Paxton smearing, width (Ry)=  0.0100
                       cart. coord. in units 2pi/alat
        k(    1) = (   0.0000000   0.0000000   0.0000000), wk =   0.1250000
        k(    2) = (   0.0000000   0.1949901   0.0000000), wk =   0.2500000
        k(    3) = (   0.0000000  -0.3899801   0.0000000), wk =   0.1250000
        k(    4) = (   0.2500000   0.0000000   0.0000000), wk =   0.2500000
        k(    5) = (   0.2500000   0.1949901   0.0000000), wk =   0.5000000
        k(    6) = (   0.2500000  -0.3899801   0.0000000), wk =   0.2500000
        k(    7) = (  -0.5000000   0.0000000   0.0000000), wk =   0.1250000
        k(    8) = (  -0.5000000   0.1949901   0.0000000), wk =   0.2500000
        k(    9) = (  -0.5000000  -0.3899801   0.0000000), wk =   0.1250000

     Largest allocated arrays     est. size (Mb)     dimensions
     Largest temporary arrays     est. size (Mb)     dimensions

     Check: negative/imaginary core charge=   -0.000004    0.000000

     Initial potential from superposition of free atoms
     Check: negative starting charge=   -0.003475

     starting charge  422.98293, renormalised to  423.00000

     negative rho (up, down):  0.348E-02 0.000E+00
     Starting wfc are  341 randomized atomic wfcs

     Self-consistent Calculation

     iteration #  1     ecut=    40.00 Ry     beta=0.30
     Davidson diagonalization with overlap
     ethr =  1.00E-02,  avg # of iterations =  6.2

     negative rho (up, down):  0.352E-02 0.000E+00

     total energy              =   -3291.62517702 Ry
     Harris-Foulkes estimate   =   -3298.96297716 Ry
     estimated scf accuracy    <      16.65454876 Ry

[...]

     End of self-consistent calculation

          k = 0.0000 0.0000 0.0000 ( 41461 PWs)   bands (ev):

   -61.3982 -61.3150 -61.2436 -61.2423 -61.1989 -61.1636 -61.1145 -61.1054
   -61.0744 -61.0469 -61.0467 -61.0197 -60.9965 -60.9557 -60.9274 -60.8657
   -35.9473 -35.8978 -35.8743 -35.8012 -35.7952 -35.7817 -35.7247 -35.6858
   -35.6724 -35.6365 -35.6267 -35.5168 -35.4969 -35.4695 -35.4345 -35.4134
   -35.3804 -35.3691 -35.3369 -35.2941 -35.2917 -35.2727 -35.2566 -35.2478
   -35.2218 -35.2189 -35.2138 -35.2089 -35.1793 -35.1704 -35.1446 -35.1385
   -35.0429 -35.0387 -35.0305 -35.0232 -35.0038 -34.9950 -34.9469 -34.8759
   -34.8658 -34.7730 -34.7330 -34.6878 -34.6451 -34.5816 -34.5152 -34.4095
   -19.2290 -18.9296 -18.8359 -18.7061 -18.6449 -18.6076 -18.3724 -18.2359
   -18.1696 -18.0692 -17.9994 -17.9760 -17.9491 -17.9378 -17.8641 -17.8635
   -17.7607 -17.6516 -17.5962 -17.5893 -17.5637 -17.5337 -17.5036 -17.4809
   -17.4694 -17.4605 -17.4370 -17.1557 -16.8003 -16.5794 -16.3786 -16.1303
   -15.8495  -7.2445  -7.1536  -7.0864  -7.0528  -6.9904  -6.8983  -6.8056
    -6.5707  -6.3303  -6.2536  -6.1829  -6.1268  -6.0892  -6.0168  -5.9150
    -5.8798  -5.7447  -5.7293  -5.7037  -5.6881  -5.6096  -5.5659  -5.5507
    -5.4767  -5.4477  -5.4278  -5.2814  -5.2357  -5.1550  -5.1163  -5.1139
    -5.0641  -5.0479  -5.0362  -5.0153  -4.9662  -4.6984  -4.5403  -4.4984
    -4.3516  -4.3248  -4.2236  -4.1726  -4.1083  -4.0975  -4.0474  -4.0452
    -3.9954  -3.9676  -3.8616  -3.8460  -3.8041  -3.6512  -3.6413  -3.5215
    -3.5038  -3.4150  -3.4075  -3.3926  -3.3359  -3.2767  -3.1768  -3.1587
    -3.0563  -3.0132  -2.9799  -2.9799  -2.9460  -2.9239  -2.8302  -2.8118
    -2.6783  -2.6584  -2.6326  -2.5501  -2.4627  -2.4139  -2.3478  -2.2594
[...]
O0       0.250000000   0.220000000   0.360290000    0   0   0
O0       0.000000000   0.500000000   0.401270000    0   0   0
O0       0.000000000   0.000000000   0.412450000    0   0   0
Mo1      0.250000000   0.000000000   0.453430000    0   0   0
Mo1      0.000000000   0.500000000   0.453430000    0   0   0
O0       0.250000000   0.720000000   0.453430000    0   0   0
O0       0.250000000   0.280000000   0.453430000    0   0   0
O0       0.000000000   0.000000000   0.494410000    0   0   0
O0       0.004204599   0.500000000   0.504864042
Mo1      0.233701187   0.500000000   0.546316065
Mo1     -0.019459455   0.000000000   0.548100676
O0       0.243221185   0.791252313   0.546986056
O0       0.243221185   0.208747687   0.546986056
O0      -0.003015138   0.500000000   0.587417120
O0      -0.005473355   0.000000000   0.600949313
Mo1      0.260146407   0.000000000   0.640920012
Mo1     -0.026413598   0.500000000   0.636135803
O0       0.249026804   0.701387036   0.640284677
O0       0.249026804   0.298612964   0.640284677
O0      -0.003946328   0.000000000   0.674749917
O0       0.500000000   0.500000000   0.319310000    0   0   0
Mo1      0.750000000   0.500000000   0.360290000    0   0   0
Mo1      0.500000000   0.000000000   0.360290000    0   0   0
O0       0.750000000   0.780000000   0.360290000    0   0   0
O0       0.750000000   0.220000000   0.360290000    0   0   0
O0       0.500000000   0.500000000   0.401270000    0   0   0
O0       0.500000000   0.000000000   0.412450000    0   0   0
Mo1      0.750000000   0.000000000   0.453430000    0   0   0
Mo1      0.500000000   0.500000000   0.453430000    0   0   0
O0       0.750000000   0.720000000   0.453430000    0   0   0
O0       0.750000000   0.280000000   0.453430000    0   0   0
O0       0.500000000   0.000000000   0.494410000    0   0   0
O0       0.499259505   0.500000000   0.507719040
Mo1      0.771395827   0.500000000   0.545652384
Mo1      0.518630615   0.000000000   0.546931618
O0       0.750398594   0.778447037   0.546724783
O0       0.750398594   0.221552963   0.546724783
O0       0.501300351   0.500000000   0.584010336
O0       0.493997962   0.000000000   0.598920684
Mo1      0.721683911   0.000000000   0.641594349
Mo1      0.522361561   0.500000000   0.639681032
O0       0.749917723   0.723218595   0.637979163
O0       0.749917723   0.276781405   0.637979163
O0       0.487996198   0.000000000   0.680165436
O0       0.549603041   0.500000000   0.690550805
H2       0.408793117   0.500000000   0.706749923

     Check: negative starting charge=   -0.003482
     NEW-OLD atomic charge density approx. for the potential

     Check: negative/imaginary core charge=   -0.000004    0.000000
     Check: negative starting charge=   -0.003481

[...]

     Self-consistent Calculation

[...]

     Threshold (ethr) on eigenvalues was too large:
     Diagonalizing with lowered threshold

     Davidson diagonalization with overlap
     ethr =  6.26E-09,  avg # of iterations =  2.0

[...]

     total energy              =   -3295.60465533 Ry
     Harris-Foulkes estimate   =   -3295.60465534 Ry
     estimated scf accuracy    <       0.00000004 Ry

     iteration # 16     ecut=    40.00 Ry     beta=0.30
     Davidson diagonalization with overlap
     ethr =  8.62E-12,  avg # of iterations =  1.0

     negative rho (up, down):  0.472E-02 0.000E+00

     End of self-consistent calculation

[...]

          k = 0.2500-0.3900 0.0000 ( 41418 PWs)   bands (ev):

[...]

          k =-0.5000-0.3900 0.0000 ( 41316 PWs)   bands (ev):

   -61.0250 -61.0161 -61.0133 -60.9279 -60.9102 -60.8983 -60.8558 -60.8504
   -60.8301 -60.8169 -60.8138 -60.7979 -60.7961 -60.7889 -60.7676 -60.7596
   -35.4782 -35.3938 -35.3439 -35.3307 -35.3285 -35.3201 -35.2970 -35.2664
   -35.1980 -35.1678 -35.1633 -35.1626 -35.1540 -35.1485 -35.1458 -35.1247
   -35.1115 -35.1002 -35.0910 -35.0854 -35.0633 -35.0331 -35.0109 -35.0071
   -35.0040 -34.9658 -34.9614 -34.9509 -34.9348 -34.9120 -34.8937 -34.8895
   -34.8867 -34.8864 -34.8858 -34.8769 -34.8718 -34.8609 -34.8558 -34.8497
   -34.8400 -34.8312 -34.8208 -34.7248 -34.6876 -34.6436 -34.6146 -34.5456
   -18.5771 -18.2472 -18.2377 -18.1482 -18.1032 -18.0496 -18.0408 -18.0291
   -18.0144 -17.8904 -17.8422 -17.8285 -17.8097 -17.7680 -17.7050 -17.5642
   -17.5253 -17.5241 -17.4972 -17.4571 -17.4513 -17.4142 -17.3952 -17.3300
   -17.2937 -17.2713 -17.1830 -17.0833 -17.0269 -16.6874 -16.4254 -15.8256
   -15.8164  -6.8094  -6.6210  -6.6079  -6.3841  -6.2009  -6.1999  -6.1233
    -6.1161  -6.1046  -6.1006  -5.8404  -5.8026  -5.6988  -5.5814  -5.5359
    -5.4265  -5.3565  -5.3267  -5.2855  -5.2843  -5.2364  -5.2028  -5.0781
    -4.9046  -4.9022  -4.8907  -4.8714  -4.7523  -4.7462  -4.6767  -4.6400
    -4.5992  -4.4744  -4.4602  -4.4562  -4.3994  -4.3499  -4.3453  -4.3092
    -4.3032  -4.2977  -4.2908  -4.2277  -4.1539  -4.0240  -3.9660  -3.9393
    -3.8515  -3.7839  -3.7541  -3.7185  -3.7092  -3.6598  -3.5771  -3.5523
    -3.4735  -3.4234  -3.3456  -3.3175  -3.2860  -3.2156  -3.1606  -3.1498
    -3.1148  -3.0954  -3.0395  -2.9760  -2.9363  -2.9084  -2.8924  -2.8747
    -2.8508  -2.8191  -2.7386  -2.5580  -2.5531  -2.5528  -2.2242  -2.1678
    -2.0932  -2.0005  -1.9655  -1.9221  -1.8929  -1.8458  -1.7533  -1.6980
    -1.6890  -1.6539  -1.5844  -1.4094  -1.3815  -1.2553  -1.1597  -1.0902
    -1.0122  -1.0033  -0.9996  -0.9945   0.2228   0.3137   0.6079   0.7703
     0.7765   0.8222   0.8755   0.9426   1.0509   1.0618   1.0661   1.1091
     1.1631   1.1691   1.3016   1.3746   1.4476   1.4689   1.6924   1.7637
     1.8591   1.9253   2.0248   2.1159   2.1527   2.2511   2.2864   2.3129
     2.4165   2.4690   2.5192   2.6286   2.7337   2.7953   2.8465   2.8935
     2.9171   2.9518   3.0501   3.0614   3.1126   3.1703   3.1740   3.3103
     3.3624   3.3735   3.4070   3.6210   3.7890   3.8286   3.9805   4.2474
     4.3163   4.4541   4.4548   4.4638   4.4682   4.8551   4.8557   4.9954
     5.2700   5.3352   5.4647   5.6849   6.1389   6.1653   6.2721   6.4036
     6.5851   6.5937   6.7687   6.7868   6.9447   7.0158   7.1642   7.1846
     7.2756   7.3711   7.4731   7.5141   7.5702   7.7619   7.9826   8.0946
     8.3444   8.4081   8.4145   8.4280   8.5015   8.5516   8.5526   8.5950
     8.7531   8.8195   8.8233   8.8944   9.1186   9.1485   9.1956   9.2779
     9.5575   9.5870   9.6776   9.7213   9.7768   9.7958   9.7974   9.8981
    10.1779  10.2564  10.3519  10.3633  10.4056  10.4250  10.4609  10.4849
    10.9676  11.0087  11.1242  11.1364  11.1637  11.2178  11.2652  11.2979
    11.6793  11.7884  11.8705  11.9725  12.1420  12.2904  12.3834  12.4873
    12.6114  13.0475  13.0718  13.1027  13.1804  13.2697  13.2889  13.3103
    13.3196  13.4246  13.4353  13.5031  13.5414  13.5850  13.6238  13.7873
    13.8149  13.8704  13.9235  13.9737  14.0807  14.2731  14.2979  14.3871
    14.4651  14.5672  14.5681  14.5716  14.5735  14.6189  14.6263  14.6498
    14.7226  14.7259  14.7797  14.8073  14.8269  14.8713  14.9177  14.9436
    14.9682  14.9896  15.0270  15.0549  15.1519  15.1760  15.2220  15.2434
    15.3233  15.3484  15.3766  15.4181  15.4410  15.5006  15.6184  15.6793
    15.6907  15.7272  15.7875  15.8025  15.8125  15.8329  15.8544  15.9027
    15.9435  15.9533  15.9635  16.0067  16.0330  16.0569  16.0757  16.1582
    16.1736  16.2020  16.2074  16.2790  16.3177  16.3531  16.3642  16.4512
    16.5266  16.6656  16.6805  16.7647  16.8756  16.9481  16.9739  17.0384
    17.0728  17.0842  17.1337  17.1901  17.2870  17.2885  17.3800  17.4039
    17.5033  17.5847  17.5979  17.7055  17.8957  17.9150  17.9647  17.9659
    18.0008  18.0337  18.0867  18.1765  18.2035  18.3629  18.4167  18.4573
    18.5042  18.5055  18.5657  18.5821  18.6005  18.6215  18.6648  18.6733
    18.6988  18.7340  18.8266  18.8551  18.8556  18.9115  18.9831  19.0189
    19.0563  19.1026  19.1380  19.1539  19.2095  19.3628  19.3668  19.3900
    19.4953  19.5300  19.5434  19.5881  19.6389  19.6656  19.7197  19.7203
    19.7509  19.8064  19.8425  19.8755  19.8875  19.9381  19.9530  20.0269
[...]
    22.2991  22.3728  22.3808  22.4138  22.4299  22.4930  22.6734  22.6885
    22.7965  22.9091  22.9339  22.9788  23.0444  23.0862  23.1335  23.1594
    23.1823  23.2073  23.2326  23.2440  23.3822  23.4044  23.4692  23.5260
    23.5271  23.5893  23.6015  23.6205  23.6312  23.6661  23.6683  23.7192
    23.7950  23.8465  23.9518  23.9530  23.9731  24.0633  24.0839  24.1460
    24.1508  24.2671  24.2769  24.3558  24.4045  24.4931  24.4973  24.5538
    24.5632  24.6086  24.6200  24.6279  24.6320  24.6634  24.7015  24.7094
    24.7173  24.7567  24.7789  24.7943  24.8360  24.8566  24.8880  24.9160
    24.9992  25.0379  25.0405  25.0610  25.1371  25.1568  25.1726  25.1955
    25.2411  25.3442  25.3682  25.3817  25.4692  25.5026  25.5433  25.6050
    25.6334  25.6518  25.6866  25.6970  25.7207  25.7622  25.8144  25.8400
    25.8727  25.9402  25.9492  26.0297  26.0559  26.1048  26.1194  26.1519
    26.1853  26.1972  26.2480  26.3202  26.3254  26.3445  26.3693  26.3718
    26.4096  26.4267  26.4390  26.4933  26.5289  26.5663  26.6249  26.7812
    26.8212  26.8601

     the Fermi energy is     1.4483 ev

!    total energy              =   -3295.60465533 Ry
     Harris-Foulkes estimate   =   -3295.60465533 Ry
     estimated scf accuracy    <          2.3E-09 Ry

     The total energy is the sum of the following terms:

     one-electron contribution =  -77219.75451350 Ry
     hartree contribution      =   38666.83951388 Ry
     xc contribution           =    -546.61489577 Ry
     ewald contribution        =   35803.92618832 Ry
     smearing contrib. (-TS)   =      -0.00094826 Ry

     convergence has been achieved in  16 iterations

     Forces acting on atoms (Ry/au):

     negative rho (up, down):  0.472E-02 0.000E+00
     atom    1 type  1   force =     0.00019463    0.00000000    0.12868600
     atom    2 type  2   force =    -0.00379156    0.00000000   -0.15129004
     atom    3 type  2   force =    -0.00018784    0.00000000    0.09253295
     atom    4 type  1   force =     0.00050181    0.02421120   -0.01349896
     atom    5 type  1   force =     0.00050181   -0.02421120   -0.01349896
     atom    6 type  1   force =    -0.00019481    0.00000000   -0.00876959
     atom    7 type  1   force =    -0.00019621    0.00000000   -0.03642580
     atom    8 type  2   force =    -0.00149410    0.00000000    0.02289912
     atom    9 type  2   force =     0.00268736    0.00000000   -0.02236889
     atom   10 type  1   force =     0.00286753   -0.01579329   -0.00186898
     atom   11 type  1   force =     0.00286753    0.01579329   -0.00186898
     atom   12 type  1   force =    -0.00995950    0.00000000   -0.01100585
     atom   13 type  1   force =     0.00056259    0.00000000   -0.00065872
     atom   14 type  2   force =    -0.00060505    0.00000000   -0.00005798
     atom   15 type  2   force =     0.00002796    0.00000000    0.00010281
     atom   16 type  1   force =    -0.00006350    0.00027115    0.00001945
     atom   17 type  1   force =    -0.00006350   -0.00027115    0.00001945
     atom   18 type  1   force =    -0.00004263    0.00000000    0.00053441
     atom   19 type  1   force =     0.00053827    0.00000000    0.00003389
     atom   20 type  2   force =    -0.00000467    0.00000000    0.00036889
     atom   21 type  2   force =    -0.00053511    0.00000000    0.00086312
     atom   22 type  1   force =     0.00052815    0.00016513    0.00058067
     atom   23 type  1   force =     0.00052815   -0.00016513    0.00058067
     atom   24 type  1   force =    -0.00027098    0.00000000   -0.00011658
     atom   25 type  1   force =    -0.00002762    0.00000000    0.13005338
     atom   26 type  2   force =     0.00329894    0.00000000   -0.15053492
     atom   27 type  2   force =     0.00037958    0.00000000    0.09414593
     atom   28 type  1   force =    -0.00056861    0.02498977   -0.01289515
     atom   29 type  1   force =    -0.00056861   -0.02498977   -0.01289515
     atom   30 type  1   force =     0.00053568    0.00000000    0.00755597
     atom   31 type  1   force =    -0.00022774    0.00000000   -0.03888803
     atom   32 type  2   force =     0.00224957    0.00000000    0.00959108
     atom   33 type  2   force =    -0.00204337    0.00000000    0.00804304
     atom   34 type  1   force =    -0.00221137   -0.01788174    0.00076336
     atom   35 type  1   force =    -0.00221137    0.01788174    0.00076336
     atom   36 type  1   force =     0.00609663    0.00000000   -0.02352524
     atom   37 type  1   force =    -0.00041336    0.00000000    0.00070084
     atom   38 type  2   force =     0.00009425    0.00000000   -0.00008485
     atom   39 type  2   force =    -0.00036787    0.00000000   -0.00000051
     atom   40 type  1   force =     0.00001320    0.00018263    0.00000725
     atom   41 type  1   force =     0.00001320   -0.00018263    0.00000725
     atom   42 type  1   force =    -0.00005708    0.00000000   -0.00009630
     atom   43 type  1   force =    -0.00035713    0.00000000    0.00029703
     atom   44 type  2   force =     0.00016045    0.00000000   -0.00035106
     atom   45 type  2   force =     0.00003242    0.00000000   -0.00009162
     atom   46 type  1   force =     0.00043618    0.00027092    0.00062117
     atom   47 type  1   force =     0.00043618   -0.00027092    0.00062117
     atom   48 type  1   force =     0.00010583    0.00000000   -0.00014593
     atom   49 type  1   force =     0.00058974    0.00000000    0.00018210
     atom   50 type  3   force =     0.00021598    0.00000000    0.00036376

     Total force =     0.002751     Total SCF correction =     0.000138

     bfgs converged in  29 scf cycles and  28 bfgs steps
     (criteria: energy < 0.10E-03, force < 0.10E-02)

     End of BFGS Geometry Optimization

     Final energy   =   -3295.6046553317 Ry
Begin final coordinates

ATOMIC_POSITIONS (crystal)
O0       0.000000000   0.500000000   0.319310000    0   0   0
Mo1      0.250000000   0.500000000   0.360290000    0   0   0
Mo1      0.000000000   0.000000000   0.360290000    0   0   0
O0       0.250000000   0.780000000   0.360290000    0   0   0
O0       0.250000000   0.220000000   0.360290000    0   0   0
O0       0.000000000   0.500000000   0.401270000    0   0   0
O0       0.000000000   0.000000000   0.412450000    0   0   0
Mo1      0.250000000   0.000000000   0.453430000    0   0   0
Mo1      0.000000000   0.500000000   0.453430000    0   0   0
O0       0.250000000   0.720000000   0.453430000    0   0   0
O0       0.250000000   0.280000000   0.453430000    0   0   0
O0       0.000000000   0.000000000   0.494410000    0   0   0
O0       0.004204599   0.500000000   0.504864042
Mo1      0.233701187   0.500000000   0.546316065
Mo1     -0.019459455   0.000000000   0.548100676
O0       0.243221185   0.791252313   0.546986056
O0       0.243221185   0.208747687   0.546986056
O0      -0.003015138   0.500000000   0.587417120
O0      -0.005473355   0.000000000   0.600949313
Mo1      0.260146407   0.000000000   0.640920012
Mo1     -0.026413598   0.500000000   0.636135803
O0       0.249026804   0.701387036   0.640284677
O0       0.249026804   0.298612964   0.640284677
O0      -0.003946328   0.000000000   0.674749917
O0       0.500000000   0.500000000   0.319310000    0   0   0
Mo1      0.750000000   0.500000000   0.360290000    0   0   0
Mo1      0.500000000   0.000000000   0.360290000    0   0   0
O0       0.750000000   0.780000000   0.360290000    0   0   0
O0       0.750000000   0.220000000   0.360290000    0   0   0
O0       0.500000000   0.500000000   0.401270000    0   0   0
O0       0.500000000   0.000000000   0.412450000    0   0   0
Mo1      0.750000000   0.000000000   0.453430000    0   0   0
Mo1      0.500000000   0.500000000   0.453430000    0   0   0
O0       0.750000000   0.720000000   0.453430000    0   0   0
O0       0.750000000   0.280000000   0.453430000    0   0   0
O0       0.500000000   0.000000000   0.494410000    0   0   0
O0       0.499259505   0.500000000   0.507719040
Mo1      0.771395827   0.500000000   0.545652384
Mo1      0.518630615   0.000000000   0.546931618
O0       0.750398594   0.778447037   0.546724783
O0       0.750398594   0.221552963   0.546724783
O0       0.501300351   0.500000000   0.584010336
O0       0.493997962   0.000000000   0.598920684
Mo1      0.721683911   0.000000000   0.641594349
Mo1      0.522361561   0.500000000   0.639681032
O0       0.749917723   0.723218595   0.637979163
O0       0.749917723   0.276781405   0.637979163
O0       0.487996198   0.000000000   0.680165436
O0       0.549603041   0.500000000   0.690550805
H2       0.408793117   0.500000000   0.706749923
End final coordinates

     General routines

     Parallel routines

   This run was terminated on:  19:39:28  12Apr2014

   JOB DONE.