     Program PWSCF v.5.0.2 (svn rev. 9656) starts on  4May2014 at 23:47:49

     Current dimensions of program PWSCF are:
     Max number of different atomic species (ntypx) = 10
     Max number of k-points (npk) =  40000
     Max angular momentum in pseudopotentials (lmaxx) =  3
     Reading input from pwscf.in
Warning: card &CELL ignored
Warning: card / ignored

     Subspace diagonalization in iterative solution of the eigenvalue problem:
     a serial algorithm will be used

     bravais-lattice index     =            0
     lattice parameter (alat)  =      10.9604  a.u.
     unit-cell volume          =    6350.6732 (a.u.)^3
     number of atoms/cell      =           31
     number of atomic types    =            3
     number of electrons       =       230.00 (up: 122.00, down: 108.00)
     number of Kohn-Sham states=          333
     kinetic-energy cutoff     =      40.0000  Ry
     charge density cutoff     =     500.0000  Ry
     convergence threshold     =      1.0E-06
     mixing beta               =       0.7000
     number of iterations used =            8  plain     mixing
     Exchange-correlation      = SLA  PW   PBE  PBE ( 1 4 3 4 0)
     EXX-fraction              =        0.00
     nstep                     =           50

     celldm(1)=  10.960412  celldm(2)=   0.000000  celldm(3)=   0.000000
     celldm(4)=   0.000000  celldm(5)=   0.000000  celldm(6)=   0.000000

     crystal axes: (cart. coord. in units of alat)
               a(1) = (   1.000000   0.000000   0.000000 )
               a(2) = (   0.000000   1.067975   0.000000 )
               a(3) = (   0.000000   0.000000   4.516251 )

     reciprocal axes: (cart. coord. in units 2 pi/alat)
               b(1) = (  1.000000  0.000000  0.000000 )
               b(2) = (  0.000000  0.936351  0.000000 )
               b(3) = (  0.000000  0.000000  0.221423 )

     PseudoPot. # 1 for O  read from file:
     /home/camp/zhonxu/pseudo/o_pbe_v1.01.uspp.F.UPF
     MD5 check sum: 2bcb18d16ea4b960afae9ec6d52f22d2
     Pseudo is Ultrasoft + core correction, Zval =  6.0
     Generated by new atomic code, or converted to UPF format
     Using radial grid of  737 points,  5 beta functions with:
                l(1) =   0
                l(2) =   0
                l(3) =   1
                l(4) =   1
                l(5) =   2
     Q(r) pseudized with  8 coefficients,  rinner =    0.900   0.900   0.900
                                                       0.900   0.900

     PseudoPot. # 2 for Cr read from file:
     /home/camp/zhonxu/pseudo/cr_pbe_v1.uspp.F.UPF
     MD5 check sum: 68b6f918d1762dccfb11451fe85b0e0e
     Pseudo is Ultrasoft + core correction, Zval = 14.0
     Generated by new atomic code, or converted to UPF format
     Using radial grid of  857 points,  6 beta functions with:
                l(1) =   0
                l(2) =   0
                l(3) =   1
                l(4) =   1
                l(5) =   2
                l(6) =   2
     Q(r) pseudized with  6 coefficients,  rinner =    1.000   1.000   1.000
                                                       1.000   1.000

     PseudoPot. # 3 for H  read from file:
     /home/camp/zhonxu/pseudo/h_pbe_v1.uspp.F.UPF
     MD5 check sum: 3408e3ff4ec8b0a4e358431e7e038a48
     Pseudo is Ultrasoft, Zval =  1.0
     Generated by new atomic code, or converted to UPF format
     Using radial grid of  615 points,  2 beta functions with:
                l(1) =   0
                l(2) =   0
     Q(r) pseudized with  8 coefficients,  rinner =    0.700

     atomic species   valence    mass     pseudopotential
        O0             6.00    15.99940     O ( 1.00)
        Cr1           14.00    51.99600     Cr( 1.00)
        H2             1.00     1.00794     H ( 1.00)

     Starting magnetic structure
     atomic species   magnetization
        O0           0.000
        Cr1          0.600
        H2           0.000

     Simplified LDA+U calculation (l_max = 2) with parameters (eV):
     atomic species    L          U    alpha       J0     beta
        Cr1            2     7.0000   0.0000   0.0000   0.0000

     No symmetry found

   Cartesian axes

     site n.     atom                  positions (alat units)
         1           O0  tau(   1) = (   0.0000000   0.0000000   1.7030331  )
         2           O0  tau(   2) = (   0.0000000   0.5339875   1.8028422  )
         3           Cr1 tau(   3) = (   0.2500000   0.5339875   2.0350227  )
         4           Cr1 tau(   4) = (   0.0000000   0.0000000   2.0223320  )
         5           O0  tau(   5) = (   0.2500000   0.8543801   2.0287902  )
         6           O0  tau(   6) = (   0.2500000   0.2135950   2.0292419  )
         7           O0  tau(   7) = (   0.0000000   0.5339875   2.2445767  )
         8           O0  tau(   8) = (   0.0000000   0.0000000   2.3628573  )
         9           Cr1 tau(   9) = (   0.2500000   0.0000000   2.5580045  )
        10           Cr1 tau(  10) = (   0.0000000   0.5339875   2.5485656  )
        11           O0  tau(  11) = (   0.2500000   0.7475825   2.5953991  )
        12           O0  tau(  12) = (   0.2500000   0.3203925   2.5951281  )
        13           O0  tau(  13) = (   0.0000000   0.0000000   2.7889204  )
        14           O0  tau(  14) = (   0.5000000   0.0000000   1.7055170  )
        15           O0  tau(  15) = (   0.5000000   0.5339875   1.8012615  )
        16           Cr1 tau(  16) = (   0.7500000   0.5339875   2.0359259  )
        17           Cr1 tau(  17) = (   0.5000000   0.0000000   2.0265773  )
        18           O0  tau(  18) = (   0.7500000   0.8543801   2.0288354  )
        19           O0  tau(  19) = (   0.7500000   0.2135950   2.0296032  )
        20           O0  tau(  20) = (   0.5000000   0.5339875   2.2364023  )
        21           O0  tau(  21) = (   0.5000000   0.0000000   2.3615024  )
        22           Cr1 tau(  22) = (   0.7500000   0.0000000   2.6337872  )
        23           Cr1 tau(  23) = (   0.5000000   0.5339875   2.6580395  )
        24           O0  tau(  24) = (   0.7500000   0.7475825   2.5992379  )
        25           O0  tau(  25) = (   0.7500000   0.3203925   2.5991024  )
        26           O0  tau(  26) = (   0.5000000   0.0000000   2.7868881  )
        27           H2  tau(  27) = (  -0.0008000   0.6785059   1.7121107  )
        28           H2  tau(  28) = (   0.4997900   0.6815710   1.7150915  )
        29           H2  tau(  29) = (   0.1566700   0.0342393   1.6437347  )
        30           H2  tau(  30) = (   0.6553000   0.0356063   1.6443670  )
        31           O0  tau(  31) = (   0.4989300   0.5335603   2.9283823  )

     number of k points=    20  Methfessel-Paxton smearing, width (Ry)=  0.0100
                       cart. coord. in units 2pi/alat
        k(    1) = (   0.0000000   0.0000000   0.0000000), wk =   0.0625000
        k(    2) = (   0.0000000   0.2340879   0.0000000), wk =   0.1250000
        k(    3) = (   0.0000000  -0.4681757   0.0000000), wk =   0.0625000
        k(    4) = (   0.2500000   0.0000000   0.0000000), wk =   0.1250000
        k(    5) = (   0.2500000   0.2340879   0.0000000), wk =   0.1250000
        k(    6) = (   0.2500000  -0.4681757   0.0000000), wk =   0.1250000
        k(    7) = (  -0.5000000   0.0000000   0.0000000), wk =   0.0625000
        k(    8) = (  -0.5000000   0.2340879   0.0000000), wk =   0.1250000
        k(    9) = (  -0.5000000  -0.4681757   0.0000000), wk =   0.0625000
        k(   10) = (  -0.2500000   0.2340879   0.0000000), wk =   0.1250000
        k(   11) = (   0.0000000   0.0000000   0.0000000), wk =   0.0625000
        k(   12) = (   0.0000000   0.2340879   0.0000000), wk =   0.1250000
        k(   13) = (   0.0000000  -0.4681757   0.0000000), wk =   0.0625000
        k(   14) = (   0.2500000   0.0000000   0.0000000), wk =   0.1250000
        k(   15) = (   0.2500000   0.2340879   0.0000000), wk =   0.1250000
        k(   16) = (   0.2500000  -0.4681757   0.0000000), wk =   0.1250000
        k(   17) = (  -0.5000000   0.0000000   0.0000000), wk =   0.0625000
        k(   18) = (  -0.5000000   0.2340879   0.0000000), wk =   0.1250000
        k(   19) = (  -0.5000000  -0.4681757   0.0000000), wk =   0.0625000
        k(   20) = (  -0.2500000   0.2340879   0.0000000), wk =   0.1250000

     Largest allocated arrays     est. size (Mb)     dimensions
     Largest temporary arrays     est. size (Mb)     dimensions

     Check: negative/imaginary core charge=   -0.000012    0.000000

     Initial potential from superposition of free atoms
     Check: negative starting charge=(component1):   -0.001547
     Check: negative starting charge=(component2):   -0.000494

     starting charge  221.99984, renormalised to  230.00000

     negative rho (up, down):  0.160E-02 0.512E-03
     Number of +U iterations with fixed ns =  0
     Starting occupations:
 --- enter write_ns ---
 LDA+U parameters:
U( 2)     =  7.00000000
alpha( 2) =  0.00000000
atom    3   Tr[ns(na)] (up, down, total) =   5.00000  0.00000  5.00000
   spin  1
    eigenvalues:
  1.000  1.000  1.000  1.000  1.000
    eigenvectors:
  1.000  0.000  0.000  0.000  0.000
  0.000  1.000  0.000  0.000  0.000
  0.000  0.000  1.000  0.000  0.000
  0.000  0.000  0.000  1.000  0.000
  0.000  0.000  0.000  0.000  1.000
    occupations:
  1.000  0.000  0.000  0.000  0.000
  0.000  1.000  0.000  0.000  0.000
  0.000  0.000  1.000  0.000  0.000
  0.000  0.000  0.000  1.000  0.000
  0.000  0.000  0.000  0.000  1.000
   spin  2
    eigenvalues:
  0.000  0.000  0.000  0.000  0.000
    eigenvectors:
  1.000  0.000  0.000  0.000  0.000
  0.000  1.000  0.000  0.000  0.000
  0.000  0.000  1.000  0.000  0.000
  0.000  0.000  0.000  1.000  0.000
  0.000  0.000  0.000  0.000  1.000
    occupations:
  0.000  0.000  0.000  0.000  0.000
  0.000  0.000  0.000  0.000  0.000
  0.000  0.000  0.000  0.000  0.000
  0.000  0.000  0.000  0.000  0.000
  0.000  0.000  0.000  0.000  0.000
atomic mag. moment =     5.000000
atom    4   Tr[ns(na)] (up, down, total) =   5.00000  0.00000  5.00000
   spin  1
    eigenvalues:
  1.000  1.000  1.000  1.000  1.000
    eigenvectors:
  1.000  0.000  0.000  0.000  0.000
  0.000  1.000  0.000  0.000  0.000
  0.000  0.000  1.000  0.000  0.000
  0.000  0.000  0.000  1.000  0.000
  0.000  0.000  0.000  0.000  1.000
    occupations:
  1.000  0.000  0.000  0.000  0.000
  0.000  1.000  0.000  0.000  0.000
  0.000  0.000  1.000  0.000  0.000
  0.000  0.000  0.000  1.000  0.000
  0.000  0.000  0.000  0.000  1.000
   spin  2
    eigenvalues:
  0.000  0.000  0.000  0.000  0.000
    eigenvectors:
  1.000  0.000  0.000  0.000  0.000
  0.000  1.000  0.000  0.000  0.000
  0.000  0.000  1.000  0.000  0.000
  0.000  0.000  0.000  1.000  0.000
  0.000  0.000  0.000  0.000  1.000
    occupations:
  0.000  0.000  0.000  0.000  0.000
  0.000  0.000  0.000  0.000  0.000
  0.000  0.000  0.000  0.000  0.000
  0.000  0.000  0.000  0.000  0.000
  0.000  0.000  0.000  0.000  0.000
atomic mag. moment =     5.000000
atom    9   Tr[ns(na)] (up, down, total) =   5.00000  0.00000  5.00000
   spin  1
    eigenvalues:
  1.000  1.000  1.000  1.000  1.000
    eigenvectors:
  1.000  0.000  0.000  0.000  0.000
[...]
  0.220  0.001  0.006  0.003  0.769
  0.001  0.907  0.091  0.002  0.000
    occupations:
  0.117 -0.000 -0.001  0.106 -0.000
 -0.000  0.266 -0.000  0.004  0.008
 -0.001 -0.000  0.075  0.005  0.002
  0.106  0.004  0.005  0.255  0.000
 -0.000  0.008  0.002  0.000  0.072
atomic mag. moment =     2.979545
atom    4   Tr[ns(na)] (up, down, total) =   3.77561  0.77647  4.55208
   spin  1
    eigenvalues:
  0.469  0.504  0.883  0.929  0.991
    eigenvectors:
  0.000  0.996  0.000  0.001  0.002
  0.000  0.001  0.014  0.984  0.000
  0.000  0.000  0.986  0.014  0.000
  0.000  0.002  0.000  0.000  0.998
  1.000  0.000  0.000  0.000  0.000
    occupations:
  0.505 -0.016 -0.001  0.021  0.001
 -0.016  0.927  0.005  0.002  0.000
 -0.001  0.005  0.883 -0.000  0.002
  0.021  0.002 -0.000  0.990  0.000
  0.001  0.000  0.002  0.000  0.470
   spin  2
    eigenvalues:
  0.066  0.067  0.070  0.274  0.300
    eigenvectors:
  0.003  0.006  0.000  0.991  0.000
  0.115  0.000  0.884  0.001  0.000
  0.699  0.204  0.097  0.000  0.000
  0.183  0.790  0.019  0.008  0.000
  0.000  0.000  0.000  0.000  1.000
    occupations:
  0.272  0.007  0.001 -0.019  0.000
  0.007  0.070 -0.001 -0.000 -0.000
  0.001 -0.001  0.066  0.000 -0.000
 -0.019 -0.000  0.000  0.068 -0.000
  0.000 -0.000 -0.000 -0.000  0.300
atomic mag. moment =     2.999135
atom    9   Tr[ns(na)] (up, down, total) =   3.76553  0.83253  4.59806
   spin  1
    eigenvalues:
  0.516  0.522  0.816  0.919  0.992
    eigenvectors:
  0.003  0.212  0.000  0.000  0.785
  0.988  0.012  0.000  0.000  0.000
  0.000  0.000  0.891  0.109  0.000
  0.009  0.776  0.000  0.000  0.215
  0.000  0.000  0.109  0.891  0.000
    occupations:
  0.891  0.002  0.000 -0.193 -0.000
  0.002  0.516  0.001 -0.000 -0.000
  0.000  0.001  0.827  0.000 -0.032
 -0.193 -0.000  0.000  0.623  0.001
 -0.000 -0.000 -0.032  0.001  0.908
   spin  2
    eigenvalues:
  0.070  0.077  0.080  0.286  0.320
    eigenvectors:
  0.805  0.000  0.000  0.000  0.195
  0.000  0.000  0.000  1.000  0.000
  0.000  0.380  0.620  0.000  0.000
  0.195  0.000  0.000  0.000  0.805
  0.000  0.620  0.380  0.000  0.000
    occupations:
  0.119  0.000 -0.000  0.099 -0.000
  0.000  0.286 -0.000 -0.000  0.000
 -0.000 -0.000  0.079 -0.000  0.002
  0.099 -0.000 -0.000  0.271 -0.000
 -0.000  0.000  0.002 -0.000  0.078
atomic mag. moment =     2.932997
atom   10   Tr[ns(na)] (up, down, total) =   3.79684  0.71525  4.51209
   spin  1
    eigenvalues:
  0.474  0.491  0.897  0.946  0.989
    eigenvectors:
  0.000  0.994  0.000  0.000  0.006
  0.000  0.000  0.000  1.000  0.000
  0.000  0.000  1.000  0.000  0.000
  0.000  0.006  0.000  0.000  0.994
  1.000  0.000  0.000  0.000  0.000
    occupations:
  0.494  0.000 -0.005  0.039 -0.000
  0.000  0.946 -0.000 -0.000  0.001
 -0.005 -0.000  0.897  0.000 -0.001
  0.039 -0.000  0.000  0.986  0.000
 -0.000  0.001 -0.001  0.000  0.474
   spin  2
    eigenvalues:
  0.060  0.080  0.085  0.207  0.284
    eigenvectors:
  0.013  0.000  0.000  0.987  0.000
  0.000  0.000  1.000  0.000  0.000
  0.000  1.000  0.000  0.000  0.000
  0.987  0.000  0.000  0.013  0.000
  0.000  0.000  0.000  0.000  1.000
    occupations:
  0.205 -0.000 -0.000 -0.017  0.000
 -0.000  0.085  0.000  0.000 -0.000
 -0.000  0.000  0.080 -0.000  0.000
 -0.017  0.000 -0.000  0.062 -0.000
  0.000 -0.000  0.000 -0.000  0.284
atomic mag. moment =     3.081584
atom   16   Tr[ns(na)] (up, down, total) =   3.76342  0.78359  4.54700
   spin  1
    eigenvalues:
  0.454  0.501  0.852  0.964  0.993
    eigenvectors:
  0.005  0.242  0.001  0.000  0.752
  0.981  0.019  0.000  0.000  0.000
  0.000  0.000  0.999  0.000  0.001
  0.014  0.739  0.000  0.000  0.248
  0.000  0.000  0.000  1.000  0.000
    occupations:
  0.871  0.005  0.002 -0.213  0.000
  0.005  0.455 -0.001  0.004 -0.008
  0.002 -0.001  0.852 -0.005 -0.002
 -0.213  0.004 -0.005  0.622 -0.000
  0.000 -0.008 -0.002 -0.000  0.964
   spin  2
    eigenvalues:
  0.058  0.071  0.076  0.266  0.313
    eigenvectors:
  0.734  0.006  0.033  0.002  0.225
  0.000  0.001  0.000  0.993  0.005
  0.046  0.082  0.872  0.000  0.000
  0.220  0.001  0.006  0.004  0.769
  0.001  0.909  0.088  0.002  0.000
    occupations:
  0.117  0.000 -0.001  0.106  0.000
  0.000  0.266  0.000 -0.004  0.008
 -0.001  0.000  0.075  0.005 -0.002
  0.106 -0.004  0.005  0.255 -0.000
  0.000  0.008 -0.002 -0.000  0.072
atomic mag. moment =     2.979829
atom   17   Tr[ns(na)] (up, down, total) =   3.77510  0.77819  4.55329
   spin  1
    eigenvalues:
  0.469  0.504  0.880  0.931  0.991
    eigenvectors:
  0.000  0.996  0.000  0.001  0.002
  0.000  0.001  0.009  0.990  0.000
  0.000  0.000  0.991  0.009  0.000
  0.000  0.002  0.000  0.000  0.998
  1.000  0.000  0.000  0.000  0.000
    occupations:
  0.506 -0.015 -0.000  0.022  0.001
 -0.015  0.930  0.005  0.002  0.000
 -0.000  0.005  0.880 -0.000  0.001
  0.022  0.002 -0.000  0.990 -0.000
  0.001  0.000  0.001 -0.000  0.469
   spin  2
    eigenvalues:
  0.066  0.067  0.070  0.275  0.300
    eigenvectors:
  0.004  0.005  0.000  0.991  0.000
  0.109  0.004  0.886  0.001  0.000
  0.597  0.308  0.095  0.000  0.000
  0.290  0.683  0.019  0.008  0.000
  0.000  0.000  0.000  0.000  1.000
    occupations:
  0.273  0.007  0.001 -0.019  0.000
  0.007  0.070 -0.001  0.000 -0.000
  0.001 -0.001  0.067  0.000  0.000
 -0.019  0.000  0.000  0.068 -0.000
  0.000 -0.000  0.000 -0.000  0.300
atomic mag. moment =     2.996913
atom   22   Tr[ns(na)] (up, down, total) =   3.76544  0.83241  4.59785
   spin  1
    eigenvalues:
  0.516  0.522  0.816  0.919  0.992
    eigenvectors:
  0.004  0.212  0.000  0.000  0.785
  0.981  0.019  0.000  0.000  0.000
  0.000  0.000  0.893  0.107  0.000
  0.015  0.770  0.000  0.000  0.215
  0.000  0.000  0.107  0.893  0.000
    occupations:
  0.891 -0.001 -0.000 -0.193 -0.000
 -0.001  0.516  0.001  0.002 -0.000
 -0.000  0.001  0.827  0.000  0.032
 -0.193  0.002  0.000  0.623  0.001
 -0.000 -0.000  0.032  0.001  0.908
   spin  2
    eigenvalues:
  0.070  0.077  0.080  0.286  0.320
    eigenvectors:
  0.804  0.000  0.000  0.000  0.196
  0.000  0.000  0.000  1.000  0.000
  0.000  0.369  0.631  0.000  0.000
  0.196  0.000  0.000  0.000  0.804
  0.000  0.631  0.369  0.000  0.000
    occupations:
  0.119 -0.000 -0.000  0.099 -0.000
 -0.000  0.286 -0.000  0.000  0.000
 -0.000 -0.000  0.079 -0.000 -0.002
  0.099  0.000 -0.000  0.271 -0.000
 -0.000  0.000 -0.002 -0.000  0.078
atomic mag. moment =     2.933028
atom   23   Tr[ns(na)] (up, down, total) =   3.69482  0.94196  4.63678
   spin  1
    eigenvalues:
  0.510  0.617  0.780  0.796  0.992
    eigenvectors:
  0.000  0.998  0.000  0.000  0.002
  0.000  0.000  1.000  0.000  0.000
  0.000  0.000  0.000  1.000  0.000
  0.000  0.002  0.000  0.000  0.998
  1.000  0.000  0.000  0.000  0.000
    occupations:
  0.617 -0.000 -0.001  0.015 -0.000
 -0.000  0.780 -0.000  0.000  0.000
 -0.001 -0.000  0.796  0.000  0.000
  0.015  0.000  0.000  0.992 -0.000
 -0.000  0.000  0.000 -0.000  0.510
   spin  2
    eigenvalues:
  0.064  0.117  0.128  0.301  0.333
    eigenvectors:
  0.005  0.000  0.000  0.000  0.995
  0.000  0.000  1.000  0.000  0.000
  0.000  1.000  0.000  0.000  0.000
  0.995  0.000  0.000  0.000  0.005
  0.000  0.000  0.000  1.000  0.000
    occupations:
  0.332 -0.000  0.001 -0.019  0.000
 -0.000  0.128 -0.000 -0.000 -0.000
  0.001 -0.000  0.117 -0.000 -0.000
 -0.019 -0.000 -0.000  0.065 -0.000
  0.000 -0.000 -0.000 -0.000  0.301
atomic mag. moment =     2.752862
N of occupied +U levels =  36.5441373
 --- exit write_ns ---

 ------ SPIN UP ------------

[...]

 ------ SPIN DOWN ----------

[...]

          k = 0.2500-0.4682 0.0000 ( 27150 PWs)   bands (ev):

[...]

          k =-0.2500 0.2341 0.0000 ( 27132 PWs)   bands (ev):

   -73.1238 -72.3804 -72.0945 -72.0836 -72.0791 -72.0681 -72.0500 -72.0374
   -44.8111 -44.4153 -44.2733 -43.8958 -43.7465 -43.7269 -43.7085 -43.6523
   -43.6246 -43.6147 -43.5082 -43.4982 -43.4732 -43.4618 -43.4473 -43.4405
   -43.4019 -43.3797 -43.3668 -43.3628 -43.3555 -43.2873 -43.2453 -43.2049
   -21.4088 -21.1159 -20.7936 -20.7447 -20.6291 -20.4983 -20.4300 -20.4160
   -20.3692 -20.2221 -20.1669 -20.1225 -20.0620 -20.0307 -19.8673 -19.8147
   -19.7874 -19.6677 -19.6286  -8.6024  -8.4738  -8.1847  -8.0100  -7.8892
    -7.6768  -7.5436  -7.4665  -7.2479  -7.1803  -7.0438  -6.9736  -6.9556
    -6.8884  -6.8328  -6.7428  -6.6607  -6.4178  -6.3599  -6.2994  -6.1897
    -6.1436  -6.0088  -5.9838  -5.9352  -5.8507  -5.7968  -5.7290  -5.6520
    -5.5822  -5.5472  -5.4545  -5.4056  -5.4046  -5.3323  -5.2592  -5.1597
    -5.0511  -4.9725  -4.8329  -4.7341  -4.6575  -4.6241  -4.5506  -4.5177
    -4.3653  -4.3324  -4.2758  -4.2496  -4.1935  -4.1619  -4.1041  -4.0439
    -3.9267  -3.7892  -3.7541  -3.6058   1.9995   2.1798   2.2141   2.2867
     2.3294   2.4236   2.5965   2.6751   2.7695   2.7767   2.8159   2.8368
     2.9025   2.9546   3.0720   3.1140   3.1507   3.1926   3.2522   3.2911
     3.3282   3.3875   3.4075   3.4627   3.5552   3.6291   3.6516   3.7083
     3.7349   3.7952   3.8774   3.8895   3.9371   3.9494   3.9684   4.0870
     4.2058   4.2749   4.3274   4.3803   4.4336   4.4670   4.5523   5.0223
     5.4671   5.6645   5.7085   6.1770   6.3638   6.5485   6.5925   6.7388
     6.7549   6.9766   7.0485   7.3617   7.5149   7.7679   7.8497   8.0036
     8.2884   8.3670   8.4610   8.5791   8.6419   8.7578   8.8199   8.9987
     9.1241   9.2522   9.3521   9.4585   9.5663   9.7609   9.9855  10.0407
    10.1057  10.1870  10.2269  10.3581  10.4342  10.6455  10.7019  10.7645
    10.8630  10.9766  11.0203  11.1602  11.2911  11.3779  11.4542  11.5460
    11.6138  11.6788  11.7805  11.8590  11.9210  11.9708  12.1608  12.2482
    12.2837  12.3654  12.4549  12.5408  12.5754  12.6596  12.8062  12.8718
    12.9208  12.9847  13.0192  13.0952  13.1672  13.2285  13.2940  13.3630
    13.4040  13.4670  13.5216  13.6444  13.7272  13.8341  13.8771  14.0215
    14.0606  14.1193  14.1726  14.2063  14.3293  14.4087  14.4868  14.5603
    14.6158  14.7496  14.7672  14.8678  14.9431  14.9930  15.1064  15.1643
    15.2044  15.2798  15.4760  15.5229  15.6412  15.8096  15.8883  16.0206
    16.0655  16.1272  16.2249  16.2428  16.3085  16.3560  16.4288  16.4582
    16.5075  16.6380  16.7353  16.8068  16.8669  16.9380  17.0264  17.0817
    17.1566  17.1931  17.2814  17.3591  17.4444  17.5335  17.6301  17.6789
    17.7090  17.7668  17.8292  17.9093  17.9506  18.0037  18.0972  18.2238
    18.2582  18.2987  18.4197  18.4766  18.5595  18.6782  18.7226  18.7896
    18.8720  18.9513  18.9674  19.0756  19.1184  19.2051  19.3016  19.3453
    19.4644  19.5389  19.6391  19.6855  19.7539  19.8301  19.8781  19.9249
    19.9595  20.0021  20.0593  20.1728  20.2732  20.3813  20.4365  20.5240
    20.5636  20.6110  20.7293  20.8585  20.9564  21.0149  21.0447  21.1311
    21.1425  21.1839  21.2817  21.3377  21.4382

     the spin up/dw Fermi energies are    -2.5285   -2.4004 ev

!    total energy              =   -2022.46172697 Ry
     Harris-Foulkes estimate   =   -2022.46172697 Ry
     estimated scf accuracy    <          4.3E-09 Ry

     The total energy is the sum of the following terms:

     one-electron contribution =  -23332.19727640 Ry
     hartree contribution      =   11685.15578856 Ry
     xc contribution           =    -322.54318599 Ry
     ewald contribution        =    9944.40245215 Ry
     Hubbard energy            =       2.72020224 Ry
     smearing contrib. (-TS)   =       0.00029248 Ry

     total magnetization       =    14.00 Bohr mag/cell
     absolute magnetization    =    32.89 Bohr mag/cell

     convergence has been achieved in  22 iterations

     Forces acting on atoms (Ry/au):

     negative rho (up, down):  0.576E-02 0.171E-02
     atom    1 type  1   force =    -0.00437919   -0.01015670    0.00022220
     atom    2 type  1   force =     0.00007916    0.00281807   -0.00050811
     atom    3 type  2   force =     0.02832000    0.00210372    0.00017101
     atom    4 type  2   force =     0.00417748    0.00527717   -0.00052534
     atom    5 type  1   force =     0.00185720    0.00628429   -0.00020252
     atom    6 type  1   force =     0.00096107   -0.00472608   -0.00014957
     atom    7 type  1   force =    -0.00035422   -0.00239851    0.00078773
     atom    8 type  1   force =    -0.00119024   -0.00017977   -0.00005135
     atom    9 type  2   force =     0.01015591    0.00020657   -0.00029423
     atom   10 type  2   force =    -0.00030388    0.00046924    0.00097766
     atom   11 type  1   force =    -0.00586744   -0.05363731    0.00026964
     atom   12 type  1   force =    -0.00493943    0.05353771    0.00028696
     atom   13 type  1   force =    -0.00023493    0.00005192    0.00026648
     atom   14 type  1   force =    -0.00413043   -0.01014007    0.00002462
     atom   15 type  1   force =    -0.00006522    0.00300154   -0.00078827
     atom   16 type  2   force =    -0.02844471    0.00233174    0.00034363
     atom   17 type  2   force =     0.00379030    0.00557632   -0.00062455
     atom   18 type  1   force =     0.00004972    0.00628640   -0.00006157
     atom   19 type  1   force =    -0.00086020   -0.00484980   -0.00012067
     atom   20 type  1   force =    -0.00002338   -0.00289931   -0.00039022
     atom   21 type  1   force =    -0.00084129   -0.00033814    0.00001407
     atom   22 type  2   force =    -0.00932369   -0.00003013    0.00012496
     atom   23 type  2   force =    -0.00023301    0.00020911    0.00045685
     atom   24 type  1   force =     0.00587500   -0.05349247   -0.00039496
     atom   25 type  1   force =     0.00598865    0.05356669   -0.00038472
     atom   26 type  1   force =    -0.00030487    0.00004141    0.00027335
     atom   27 type  3   force =    -0.00000676    0.00033177   -0.00028638
     atom   28 type  3   force =    -0.00003269    0.00057264   -0.00027926
     atom   29 type  3   force =     0.00024320    0.00015398    0.00068862
     atom   30 type  3   force =     0.00034774    0.00003805    0.00063064
     atom   31 type  1   force =    -0.00030982   -0.00001002   -0.00047671

     Total force =     0.002544     Total SCF correction =     0.000188

     bfgs converged in  21 scf cycles and  20 bfgs steps
     (criteria: energy < 0.10E-03, force < 0.10E-02)

     End of BFGS Geometry Optimization

     Final energy   =   -2022.4617269718 Ry
Begin final coordinates

ATOMIC_POSITIONS (crystal)
O0       0.000000000   0.000000000   0.372879463    0   0   1
O0       0.000000000   0.500000000   0.394328642    0   0   1
Cr1      0.250000000   0.500000000   0.447172036    0   0   1
Cr1      0.000000000   0.000000000   0.448451721    0   0   1
O0       0.250000000   0.800000000   0.447802990    0   0   1
O0       0.250000000   0.200000000   0.447777285    0   0   1
O0       0.000000000   0.500000000   0.496153921    0   0   1
O0       0.000000000   0.000000000   0.525048193    0   0   1
Cr1      0.250000000   0.000000000   0.576700859    0   0   1
Cr1      0.000000000   0.500000000   0.566242155    0   0   1
O0       0.250000000   0.700000000   0.577717043    0   0   1
O0       0.250000000   0.300000000   0.577647056    0   0   1
O0       0.000000000   0.000000000   0.625165763    0   0   1
O0       0.500000000   0.000000000   0.373176792    0   0   1
O0       0.500000000   0.500000000   0.394560967    0   0   1
Cr1      0.750000000   0.500000000   0.447155870    0   0   1
Cr1      0.500000000   0.000000000   0.448826483    0   0   1
O0       0.750000000   0.800000000   0.447737953    0   0   1
O0       0.750000000   0.200000000   0.447771770    0   0   1
O0       0.500000000   0.500000000   0.499577013    0   0   1
O0       0.500000000   0.000000000   0.525092038    0   0   1
Cr1      0.750000000   0.000000000   0.576658319    0   0   1
Cr1      0.500000000   0.500000000   0.589649015    0   0   1
O0       0.750000000   0.700000000   0.577815745    0   0   1
O0       0.750000000   0.300000000   0.577790894    0   0   1
O0       0.500000000   0.000000000   0.625116127    0   0   1
H2      -0.000731556   0.636199887   0.374706841
H2       0.499270187   0.636964075   0.375235435
H2       0.158688849   0.026707521   0.360163520
H2       0.658807390   0.026229079   0.360453058
O0       0.500280340   0.499435943   0.654255035
End final coordinates

     General routines

     Parallel routines
     Hubbard U routines

   This run was terminated on:  16:38: 2   6May2014

   JOB DONE.
Running PBS batch system epilogue script
Job id: 340719.audhumbla.fysik.dtu.dk
Username: zhonxu
Groupname: campgst
Jobname: CrO2/Eads-2-layers/O-U-7.0
Sessionid: 4890
Queuename: verylong
Accounting:
This job has allocated the following 16 nodes:
c067 c067 c067 c067 c067 c067 c067 c067 c042 c042 c042 c042 c042 c042 c042 c042
Finished epilogue job 340719.audhumbla.fysik.dtu.dk for zhonxu