     Program PWSCF v.5.0.2 (svn rev. 9656) starts on 28Mar2014 at  6:31:10

     Current dimensions of program PWSCF are:
     Max number of different atomic species (ntypx) = 10
     Max number of k-points (npk) =  40000
     Max angular momentum in pseudopotentials (lmaxx) =  3
     Reading input from pwscf.in
Warning: card &CELL ignored
Warning: card / ignored

     Subspace diagonalization in iterative solution of the eigenvalue problem:
     a serial algorithm will be used

     bravais-lattice index     =            0
     lattice parameter (alat)  =      11.2250  a.u.
     unit-cell volume          =    9585.4248 (a.u.)^3
     number of atoms/cell      =           50
     number of atomic types    =            3
     number of electrons       =       391.00
     number of Kohn-Sham states=          562
     kinetic-energy cutoff     =      40.0000  Ry
     charge density cutoff     =     500.0000  Ry
     convergence threshold     =      1.0E-06
     mixing beta               =       0.3000
     number of iterations used =            8  plain     mixing
     Exchange-correlation      = SLA  PW   PBE  PBE ( 1 4 3 4 0)
     EXX-fraction              =        0.00
     nstep                     =           50

     celldm(1)=  11.224973  celldm(2)=   0.000000  celldm(3)=   0.000000
     celldm(4)=   0.000000  celldm(5)=   0.000000  celldm(6)=   0.000000

     crystal axes: (cart. coord. in units of alat)
               a(1) = (   1.000000   0.000000   0.000000 )
               a(2) = (   0.000000   1.107086   0.000000 )
               a(3) = (   0.000000   0.000000   6.121726 )

     reciprocal axes: (cart. coord. in units 2 pi/alat)
               b(1) = (  1.000000  0.000000  0.000000 )
               b(2) = (  0.000000  0.903272  0.000000 )
               b(3) = (  0.000000  0.000000  0.163353 )

     PseudoPot. # 1 for O  read from file:
     /home/camp/zhonxu/pseudo/o_pbe_v1.01.uspp.F.UPF
     MD5 check sum: 2bcb18d16ea4b960afae9ec6d52f22d2
     Pseudo is Ultrasoft + core correction, Zval =  6.0
     Generated by new atomic code, or converted to UPF format
     Using radial grid of  737 points,  5 beta functions with:
                l(1) =   0
                l(2) =   0
                l(3) =   1
                l(4) =   1
                l(5) =   2
     Q(r) pseudized with  8 coefficients,  rinner =    0.900   0.900   0.900
                                                       0.900   0.900

     PseudoPot. # 2 for Ti read from file:
     /home/camp/zhonxu/pseudo/ti_pbe_v1.uspp.F.UPF
     MD5 check sum: bcc8f6961b3b91f0cac3ca967d22d0fb
     Pseudo is Ultrasoft + core correction, Zval = 12.0
     Generated by new atomic code, or converted to UPF format
     Using radial grid of  851 points,  6 beta functions with:
                l(1) =   0
                l(2) =   0
                l(3) =   1
                l(4) =   1
                l(5) =   2
                l(6) =   2
     Q(r) pseudized with  6 coefficients,  rinner =    1.000   1.000   1.000
                                                       1.000   1.000

     PseudoPot. # 3 for H  read from file:
     /home/camp/zhonxu/pseudo/h_pbe_v1.uspp.F.UPF
     MD5 check sum: 3408e3ff4ec8b0a4e358431e7e038a48
     Pseudo is Ultrasoft, Zval =  1.0
     Generated by new atomic code, or converted to UPF format
     Using radial grid of  615 points,  2 beta functions with:
                l(1) =   0
                l(2) =   0
     Q(r) pseudized with  8 coefficients,  rinner =    0.700

     atomic species   valence    mass     pseudopotential
        O0             6.00    15.99940     O ( 1.00)
        Ti1           12.00    47.88000     Ti( 1.00)
        H2             1.00     1.00794     H ( 1.00)

      2 Sym. Ops. (no inversion) found

   Cartesian axes

     site n.     atom                  positions (alat units)
         1           O0  tau(   1) = (   0.0000000   0.5535432   2.0202309  )
         2           Ti1 tau(   2) = (   0.2500000   0.5535432   2.2305735  )
         3           Ti1 tau(   3) = (   0.0000000   0.0000000   2.2305735  )
         4           O0  tau(   4) = (   0.2500000   0.8967400   2.2305735  )
         5           O0  tau(   5) = (   0.2500000   0.2103464   2.2305735  )
         6           O0  tau(   6) = (   0.0000000   0.5535432   2.4409160  )
         7           O0  tau(   7) = (   0.0000000   0.0000000   2.5737574  )
         8           Ti1 tau(   8) = (   0.2500000   0.0000000   2.7841000  )
         9           Ti1 tau(   9) = (   0.0000000   0.5535432   2.7841000  )
        10           O0  tau(  10) = (   0.2500000   0.7638896   2.7841000  )
        11           O0  tau(  11) = (   0.2500000   0.3431968   2.7841000  )
        12           O0  tau(  12) = (   0.0000000   0.0000000   2.9944425  )
        13           O0  tau(  13) = (   0.0000000   0.5535432   3.1319977  )
        14           Ti1 tau(  14) = (   0.2500000   0.5535432   3.3288112  )
        15           Ti1 tau(  15) = (   0.0000000   0.0000000   3.3672556  )
        16           O0  tau(  16) = (   0.2500000   0.8873962   3.3437482  )
        17           O0  tau(  17) = (   0.2500000   0.2196902   3.3437482  )
        18           O0  tau(  18) = (   0.0000000   0.5535432   3.5641916  )
        19           O0  tau(  19) = (   0.0000000   0.0000000   3.6800146  )
        20           Ti1 tau(  20) = (   0.2500000   0.0000000   3.9334541  )
        21           Ti1 tau(  21) = (   0.0000000   0.5535432   3.8694821  )
        22           O0  tau(  22) = (   0.2500000   0.7608340   3.9259244  )
        23           O0  tau(  23) = (   0.2500000   0.3462523   3.9259244  )
        24           O0  tau(  24) = (   0.0000000   0.0000000   4.1134329  )
        25           O0  tau(  25) = (   0.5000000   0.5535432   2.0202309  )
        26           Ti1 tau(  26) = (   0.7500000   0.5535432   2.2305735  )
        27           Ti1 tau(  27) = (   0.5000000   0.0000000   2.2305735  )
        28           O0  tau(  28) = (   0.7500000   0.8967400   2.2305735  )
        29           O0  tau(  29) = (   0.7500000   0.2103464   2.2305735  )
        30           O0  tau(  30) = (   0.5000000   0.5535432   2.4409160  )
        31           O0  tau(  31) = (   0.5000000   0.0000000   2.5737574  )
        32           Ti1 tau(  32) = (   0.7500000   0.0000000   2.7841000  )
        33           Ti1 tau(  33) = (   0.5000000   0.5535432   2.7841000  )
        34           O0  tau(  34) = (   0.7500000   0.7638896   2.7841000  )
        35           O0  tau(  35) = (   0.7500000   0.3431968   2.7841000  )
        36           O0  tau(  36) = (   0.5000000   0.0000000   2.9944425  )
        37           O0  tau(  37) = (   0.5000000   0.5535432   3.1319977  )
        38           Ti1 tau(  38) = (   0.7500000   0.5535432   3.3288112  )
        39           Ti1 tau(  39) = (   0.5000000   0.0000000   3.3672556  )
        40           O0  tau(  40) = (   0.7500000   0.8873962   3.3437482  )
        41           O0  tau(  41) = (   0.7500000   0.2196902   3.3437482  )
        42           O0  tau(  42) = (   0.5000000   0.5535432   3.5641916  )
        43           O0  tau(  43) = (   0.5000000   0.0000000   3.6800146  )
        44           Ti1 tau(  44) = (   0.7500000   0.0000000   3.9334541  )
        45           Ti1 tau(  45) = (   0.5000000   0.5535432   3.8694821  )
        46           O0  tau(  46) = (   0.7500000   0.7608340   3.9259244  )
        47           O0  tau(  47) = (   0.7500000   0.3462523   3.9259244  )
        48           O0  tau(  48) = (   0.5000000   0.0000000   4.1134329  )
        49           O0  tau(  49) = (   0.5000000   0.5535432   4.1201668  )
        50           H2  tau(  50) = (   0.3569000   0.5535432   4.1791190  )

     number of k points=     9  Methfessel-Paxton smearing, width (Ry)=  0.0100
                       cart. coord. in units 2pi/alat
        k(    1) = (   0.0000000   0.0000000   0.0000000), wk =   0.1250000
        k(    2) = (   0.0000000   0.2258180   0.0000000), wk =   0.2500000
        k(    3) = (   0.0000000  -0.4516359   0.0000000), wk =   0.1250000
        k(    4) = (   0.2500000   0.0000000   0.0000000), wk =   0.2500000
        k(    5) = (   0.2500000   0.2258180   0.0000000), wk =   0.5000000
        k(    6) = (   0.2500000  -0.4516359   0.0000000), wk =   0.2500000
        k(    7) = (  -0.5000000   0.0000000   0.0000000), wk =   0.1250000
        k(    8) = (  -0.5000000   0.2258180   0.0000000), wk =   0.2500000
        k(    9) = (  -0.5000000  -0.4516359   0.0000000), wk =   0.1250000

     Largest allocated arrays     est. size (Mb)     dimensions
     Largest temporary arrays     est. size (Mb)     dimensions

     Check: negative/imaginary core charge=   -0.000007    0.000000

     Initial potential from superposition of free atoms
     Check: negative starting charge=   -0.203865

     starting charge  374.99924, renormalised to  391.00000

     negative rho (up, down):  0.213E+00 0.000E+00
     Starting wfc are  293 randomized atomic wfcs

     Self-consistent Calculation

     iteration #  1     ecut=    40.00 Ry     beta=0.30
     Davidson diagonalization with overlap
     ethr =  1.00E-02,  avg # of iterations =  6.6

     negative rho (up, down):  0.221E+00 0.000E+00

     total energy              =   -2962.61228196 Ry
     Harris-Foulkes estimate   =   -2966.88471145 Ry
     estimated scf accuracy    <       9.55507992 Ry

[...]

     End of self-consistent calculation

          k = 0.0000 0.0000 0.0000 ( 40985 PWs)   bands (ev):

   -58.8992 -58.8595 -58.3318 -58.2915 -58.2166 -58.1762 -58.1501 -58.1102
   -58.0725 -58.0328 -57.8721 -57.5401 -57.4927 -57.4384 -57.3984 -56.9656
   -35.3937 -35.1716 -35.1397 -35.1278 -35.0195 -34.9457 -34.8995 -34.7645
   -34.6977 -34.6354 -34.5947 -34.5493 -34.5249 -34.5220 -34.4915 -34.4704
   -34.4432 -34.4283 -34.4001 -34.3897 -34.3733 -34.3219 -34.3202 -34.3192
   -34.3141 -34.3083 -34.2752 -34.2717 -34.2463 -34.2441 -34.2366 -34.2288
   -34.1863 -34.0992 -34.0846 -33.9203 -33.8315 -33.7812 -33.7743 -33.7454
   -33.7393 -33.7299 -33.6851 -33.6158 -33.5805 -33.4667 -33.2370 -33.0722
   -20.1557 -19.4464 -19.2459 -18.9550 -18.6797 -18.6014 -18.5754 -18.4917
   -18.4282 -18.3490 -18.3460 -18.1605 -18.1461 -18.0569 -18.0023 -17.9784
   -17.9382 -17.9231 -17.8750 -17.7719 -17.7163 -17.6794 -17.6740 -17.6430
   -17.5893 -17.5503 -17.4935 -17.4773 -17.3260 -17.1535 -17.0170 -16.3799
   -16.3284  -8.4242  -7.1248  -6.8522  -6.7006  -6.6032  -6.4280  -6.3260
    -6.2062  -6.0702  -6.0292  -5.9236  -5.8770  -5.8422  -5.7982  -5.6888
    -5.6704  -5.6127  -5.5601  -5.5178  -5.4724  -5.4108  -5.3690  -5.3660
    -5.3536  -5.3357  -5.2874  -5.2070  -5.1390  -5.1280  -5.0858  -5.0245
    -4.9396  -4.8688  -4.8268  -4.8122  -4.6628  -4.5618  -4.5578  -4.5082
    -4.4872  -4.4184  -4.3630  -4.3568  -4.3237  -4.2837  -4.1843  -4.0498
    -3.9728  -3.9240  -3.8463  -3.7881  -3.7604  -3.7165  -3.6652  -3.6516
    -3.5876  -3.5671  -3.5497  -3.5157  -3.4647  -3.4128  -3.3350  -3.2393
    -3.2248  -3.2086  -3.1487  -3.1235  -3.0313  -2.9635  -2.8265  -2.8061
    -2.8045  -2.7922  -2.7216  -2.6618  -2.6369  -2.5160  -2.5086  -2.4635
[...]
O0       0.000000000   0.000000000   0.601140000    0   0   0
Ti1      0.250000000   0.000000000   0.642540000    0   0   0
Ti1      0.000000000   0.500000000   0.632090000    0   0   0
O0       0.250000000   0.687240000   0.641310000    0   0   0
O0       0.250000000   0.312760000   0.641310000    0   0   0
O0       0.000000000   0.000000000   0.671940000    0   0   0
O0       0.500000000   0.500000000   0.330010000    0   0   0
Ti1      0.750000000   0.500000000   0.364370000    0   0   0
Ti1      0.500000000   0.000000000   0.364370000    0   0   0
O0       0.750000000   0.810000000   0.364370000    0   0   0
O0       0.750000000   0.190000000   0.364370000    0   0   0
O0       0.500000000   0.500000000   0.398730000    0   0   0
O0       0.500000000   0.000000000   0.420430000    0   0   0
Ti1      0.750000000   0.000000000   0.454790000    0   0   0
Ti1      0.500000000   0.500000000   0.454790000    0   0   0
O0       0.750000000   0.690000000   0.454790000    0   0   0
O0       0.750000000   0.310000000   0.454790000    0   0   0
O0       0.500000000   0.000000000   0.489150000    0   0   0
O0       0.500000000   0.500000000   0.511620000    0   0   0
Ti1      0.750000000   0.500000000   0.543770000    0   0   0
Ti1      0.500000000   0.000000000   0.550050000    0   0   0
O0       0.750000000   0.801560000   0.546210000    0   0   0
O0       0.750000000   0.198440000   0.546210000    0   0   0
O0       0.500000000   0.500000000   0.582220000    0   0   0
O0       0.500000000   0.000000000   0.601140000    0   0   0
Ti1      0.750000000   0.000000000   0.642540000    0   0   0
Ti1      0.500000000   0.500000000   0.632090000    0   0   0
O0       0.750000000   0.687240000   0.641310000    0   0   0
O0       0.750000000   0.312760000   0.641310000    0   0   0
O0       0.500000000   0.000000000   0.671940000    0   0   0
O0       0.523021468   0.500000000   0.689336672
H2       0.379005340   0.500000000   0.702731771

     Check: negative starting charge=   -0.204002
     NEW-OLD atomic charge density approx. for the potential

     Check: negative/imaginary core charge=   -0.000007    0.000000
     Check: negative starting charge=   -0.204002

[...]

     Self-consistent Calculation

[...]

     Threshold (ethr) on eigenvalues was too large:
     Diagonalizing with lowered threshold

     Davidson diagonalization with overlap
     ethr =  1.11E-09,  avg # of iterations =  1.6

[...]

     total energy              =   -2964.90602425 Ry
     Harris-Foulkes estimate   =   -2964.90602425 Ry
     estimated scf accuracy    <       0.00000002 Ry

     iteration #  8     ecut=    40.00 Ry     beta=0.30
     Davidson diagonalization with overlap
     ethr =  4.25E-12,  avg # of iterations =  2.0

     negative rho (up, down):  0.202E+00 0.000E+00

     End of self-consistent calculation

[...]

          k = 0.2500-0.4516 0.0000 ( 40874 PWs)   bands (ev):

[...]

          k =-0.5000-0.4516 0.0000 ( 40844 PWs)   bands (ev):

   -58.9655 -58.9655 -58.6206 -58.6201 -58.3318 -58.3304 -58.2557 -58.2557
   -58.2257 -58.2253 -58.1571 -57.8750 -57.6369 -57.6363 -57.4778 -57.4777
   -35.2599 -35.2599 -35.2432 -35.2431 -35.1578 -35.1578 -35.0074 -35.0049
   -34.8861 -34.8785 -34.8020 -34.8018 -34.6844 -34.6835 -34.6090 -34.6088
   -34.5710 -34.5699 -34.5651 -34.5643 -34.5370 -34.5265 -34.5250 -34.5003
   -34.5002 -34.4623 -34.4620 -34.4614 -34.4546 -34.4545 -34.4210 -34.4195
   -34.3676 -34.2506 -34.1536 -34.1340 -33.9918 -33.9857 -33.8964 -33.8942
   -33.8827 -33.8770 -33.8224 -33.8223 -33.7564 -33.7563 -33.6927 -33.6926
   -18.9903 -18.9546 -18.8217 -18.8216 -18.7161 -18.6971 -18.6541 -18.6464
   -18.5336 -18.5334 -18.4043 -18.3358 -18.3317 -18.3004 -18.2884 -18.2092
   -18.1738 -18.1628 -18.1625 -18.0918 -18.0377 -18.0316 -17.9644 -17.7963
   -17.7960 -17.7795 -17.7760 -17.6732 -17.6581 -17.2680 -17.2458 -16.4963
   -16.4954  -6.4294  -6.3914  -6.1603  -6.1168  -6.0452  -6.0450  -6.0087
    -5.9063  -5.9038  -5.8449  -5.8446  -5.7582  -5.7335  -5.7297  -5.7213
    -5.6974  -5.6780  -5.5444  -5.5407  -5.5187  -5.5142  -5.4884  -5.4791
    -5.4749  -5.4590  -5.3366  -5.2942  -5.2637  -5.2189  -5.2181  -5.1221
    -5.0957  -5.0377  -5.0291  -5.0178  -4.9861  -4.9843  -4.9781  -4.9774
    -4.6051  -4.5694  -4.5108  -4.5040  -4.4967  -4.4919  -4.3050  -4.1772
    -4.1220  -4.0972  -4.0876  -4.0750  -4.0694  -4.0004  -3.9335  -3.9329
    -3.9256  -3.9095  -3.8964  -3.8845  -3.7547  -3.7491  -3.7459  -3.7012
    -3.6278  -3.5998  -3.5947  -3.5352  -3.5350  -3.5062  -3.4919  -3.3300
    -3.1799  -3.1696  -3.0711  -3.0670  -2.9556  -2.9508  -2.6904  -2.6896
    -2.6889  -2.6854  -2.4443  -2.4267  -2.4092  -2.3896  -2.3659  -2.3132
    -2.2995  -2.2590  -2.2175  -2.1636  -2.0679  -1.9837  -1.7561  -1.7555
    -1.7048  -1.4919  -1.4909  -1.4629   0.6817   0.6823   0.7191   0.7426
     0.7584   0.7774   0.8577   0.8717   1.0537   1.0544   1.1514   1.1532
     1.1630   1.1869   1.2500   1.2588   1.2588   1.2771   1.5345   1.5465
     1.5471   1.5625   1.6507   1.7086   1.8124   1.8226   1.8431   1.8520
     1.9645   2.0074   2.0601   2.0967   2.1014   2.1020   2.1791   2.2150
     2.2222   2.4227   2.4320   2.4320   2.4917   2.5409   2.5695   2.5698
     2.6151   2.6535   2.6702   2.6836   2.6864   2.7258   3.3195   3.4078
     3.4652   3.4653   3.5072   3.6073   3.6076   3.7765   3.8624   3.8944
     3.9578   4.0537   4.0554   4.2425   4.4500   4.7234   4.7239   4.8370
     4.9742   5.0339   5.0369   5.1296   5.1358   5.2200   5.2308   5.2538
     5.4595   5.4604   5.4671   5.4790   5.7489   5.7491   6.0678   6.9980
     6.9988   7.1240   7.1339   7.1582   7.2297   7.2899   7.3230   7.3539
     7.5278   7.5998   7.6057   7.7133   7.9600   8.0322   8.0422   8.1676
     8.5030   8.5452   8.5900   8.6701   8.7887   8.8412   8.8658   8.8907
     9.2316   9.2789   9.3061   9.3081   9.4375   9.4433   9.4630   9.4655
    10.0367  10.0502  10.1110  10.1253  10.2448  10.2606  10.2850  10.3770
    10.8653  10.8894  10.9798  11.0082  11.3918  11.5271  11.6538  11.6827
    11.8523  12.0031  12.0257  12.2886  12.3990  12.4429  12.4740  12.5730
    12.6775  12.7361  12.7496  12.9519  12.9636  13.0810  13.1355  13.2505
    13.3237  13.3285  13.3646  13.3669  13.4083  13.4778  13.4997  13.5016
    13.5099  13.5633  13.5775  13.6769  13.7053  13.7122  13.7269  13.7914
    13.7923  13.8375  13.8745  13.8786  13.8930  13.9236  13.9623  14.0041
    14.0595  14.1049  14.1075  14.1121  14.1264  14.1296  14.2733  14.3083
    14.3781  14.3870  14.3918  14.4080  14.4666  14.4862  14.7025  14.7509
    14.7831  14.7902  14.8170  14.8490  14.8943  14.9177  15.0025  15.0136
    15.0152  15.0515  15.1178  15.3333  15.3737  15.3807  15.4079  15.4544
    15.4613  15.4908  15.4949  15.5393  15.5493  15.5899  15.6192  15.6335
    15.6426  15.6659  15.7115  15.7284  15.7621  15.7728  15.8960  15.8981
    15.9121  15.9526  16.0029  16.0609  16.0691  16.1255  16.1522  16.2947
    16.3194  16.3740  16.4020  16.4725  16.5032  16.5064  16.5386  16.5546
    16.6001  16.6296  16.6473  16.6928  16.6981  16.7074  16.7790  16.8927
    16.9230  16.9887  16.9935  17.0196  17.1468  17.1560  17.2125  17.2933
    17.3566  17.3641  17.4076  17.4427  17.4959  17.5146  17.5443  17.5529
    17.5720  17.6111  17.6783  17.7373  17.8810  17.9080  17.9180  18.0099
    18.0431  18.0866  18.1146  18.1896  18.2165  18.2747  18.2877  18.3710
    18.4481  18.4675  18.4725  18.6245  18.7567  18.7905  18.8319  18.8354
    18.8921  18.9152  18.9726  18.9859  19.0046  19.0231  19.0605  19.1698
    19.2480  19.3624  19.4109  19.4399  19.4532  19.5568  19.5876  19.6738
    19.7796  19.7893  19.7894  19.8641  19.9191  20.0275  20.0354  20.0434
    20.1599  20.1829  20.2119  20.4985  20.6805  20.6892  20.7384  20.7805
    20.9151  20.9717  20.9839  21.0269  21.0479  21.0778  21.1334  21.2388
    21.3632  21.4117  21.4488  21.5751  21.7035  21.7041  21.7443  21.7964
    21.9504  21.9570  21.9657  22.0006  22.1683  22.1803  22.2475  22.2929
    22.3369  22.3993  22.4229  22.4892  22.5633  22.5690  22.5996  22.6247
    22.6556  22.6888  22.7149  22.7896  22.8071  22.8233  22.8738  22.8969
    22.9522  22.9973  23.0121  23.0286  23.0510  23.1036  23.1147  23.1168
    23.2787  23.2792

     the Fermi energy is    -1.4261 ev

!    total energy              =   -2964.90602425 Ry
     Harris-Foulkes estimate   =   -2964.90602426 Ry
     estimated scf accuracy    <          8.1E-09 Ry

     The total energy is the sum of the following terms:

     one-electron contribution =  -64160.21505080 Ry
     hartree contribution      =   32123.77802154 Ry
     xc contribution           =    -513.18690840 Ry
     ewald contribution        =   29584.71859973 Ry
     smearing contrib. (-TS)   =      -0.00068631 Ry

     convergence has been achieved in   8 iterations

     Forces acting on atoms (Ry/au):

     negative rho (up, down):  0.202E+00 0.000E+00
     atom    1 type  1   force =     0.00000120    0.00000000    0.05565962
     atom    2 type  2   force =    -0.00003104    0.00000000   -0.12409165
     atom    3 type  2   force =     0.00000232    0.00000000    0.12093870
     atom    4 type  1   force =    -0.00000335    0.03163083   -0.03269647
     atom    5 type  1   force =    -0.00000335   -0.03163083   -0.03269647
     atom    6 type  1   force =    -0.00000411    0.00000000    0.08642663
     atom    7 type  1   force =    -0.00000186    0.00000000   -0.09166183
     atom    8 type  2   force =    -0.00038666    0.00000000    0.06386375
     atom    9 type  2   force =     0.00001121    0.00000000   -0.05190575
     atom   10 type  1   force =     0.00001969    0.02063152    0.00524083
     atom   11 type  1   force =     0.00001969   -0.02063152    0.00524083
     atom   12 type  1   force =     0.00001842    0.00000000   -0.00233520
     atom   13 type  1   force =    -0.00002095    0.00000000   -0.01248023
     atom   14 type  2   force =     0.01053031    0.00000000    0.01702645
     atom   15 type  2   force =    -0.00019036    0.00000000    0.00761823
     atom   16 type  1   force =    -0.00115482    0.00241303   -0.00200504
     atom   17 type  1   force =    -0.00115482   -0.00241303   -0.00200504
     atom   18 type  1   force =    -0.00008267    0.00000000   -0.01397195
     atom   19 type  1   force =    -0.00059384    0.00000000   -0.01050767
     atom   20 type  2   force =     0.00299073    0.00000000    0.01380572
     atom   21 type  2   force =    -0.00271111    0.00000000    0.01579571
     atom   22 type  1   force =    -0.02316170    0.01696236   -0.01674822
     atom   23 type  1   force =    -0.02316170   -0.01696236   -0.01674822
     atom   24 type  1   force =     0.00100205    0.00000000   -0.00265829
     atom   25 type  1   force =    -0.00000356    0.00000000    0.05565646
     atom   26 type  2   force =     0.00003083    0.00000000   -0.12407904
     atom   27 type  2   force =    -0.00000114    0.00000000    0.12095703
     atom   28 type  1   force =     0.00000383    0.03162841   -0.03269688
     atom   29 type  1   force =     0.00000383   -0.03162841   -0.03269688
     atom   30 type  1   force =     0.00000198    0.00000000    0.08619677
     atom   31 type  1   force =     0.00000405    0.00000000   -0.09166993
     atom   32 type  2   force =     0.00038807    0.00000000    0.06385199
     atom   33 type  2   force =     0.00000545    0.00000000   -0.05176921
     atom   34 type  1   force =    -0.00002122    0.02063428    0.00524376
     atom   35 type  1   force =    -0.00002122   -0.02063428    0.00524376
     atom   36 type  1   force =    -0.00002123    0.00000000   -0.00170896
     atom   37 type  1   force =     0.00002857    0.00000000   -0.01383578
     atom   38 type  2   force =    -0.01053617    0.00000000    0.01717065
     atom   39 type  2   force =     0.00022530    0.00000000    0.01055113
     atom   40 type  1   force =     0.00112269    0.00249692   -0.00214794
     atom   41 type  1   force =     0.00112269   -0.00249692   -0.00214794
     atom   42 type  1   force =    -0.00016460    0.00000000   -0.06431341
     atom   43 type  1   force =     0.00025376    0.00000000   -0.01139034
     atom   44 type  2   force =    -0.00314560    0.00000000    0.01635520
     atom   45 type  2   force =     0.00047604    0.00000000    0.12250547
     atom   46 type  1   force =     0.02465175    0.02036395   -0.02427223
     atom   47 type  1   force =     0.02465175   -0.02036395   -0.02427223
     atom   48 type  1   force =    -0.00104630    0.00000000   -0.00629400
     atom   49 type  1   force =     0.00014161    0.00000000    0.00057703
     atom   50 type  3   force =    -0.00008440    0.00000000   -0.00011894

     Total force =     0.000612     Total SCF correction =     0.000123
     SCF correction compared to forces is large: reduce conv_thr to get better values

     bfgs converged in  21 scf cycles and  20 bfgs steps
     (criteria: energy < 0.10E-03, force < 0.10E-02)

     End of BFGS Geometry Optimization

     Final energy   =   -2964.9060242522 Ry
Begin final coordinates

ATOMIC_POSITIONS (crystal)
O0       0.000000000   0.500000000   0.330010000    0   0   0
Ti1      0.250000000   0.500000000   0.364370000    0   0   0
Ti1      0.000000000   0.000000000   0.364370000    0   0   0
O0       0.250000000   0.810000000   0.364370000    0   0   0
O0       0.250000000   0.190000000   0.364370000    0   0   0
O0       0.000000000   0.500000000   0.398730000    0   0   0
O0       0.000000000   0.000000000   0.420430000    0   0   0
Ti1      0.250000000   0.000000000   0.454790000    0   0   0
Ti1      0.000000000   0.500000000   0.454790000    0   0   0
O0       0.250000000   0.690000000   0.454790000    0   0   0
O0       0.250000000   0.310000000   0.454790000    0   0   0
O0       0.000000000   0.000000000   0.489150000    0   0   0
O0       0.000000000   0.500000000   0.511620000    0   0   0
Ti1      0.250000000   0.500000000   0.543770000    0   0   0
Ti1      0.000000000   0.000000000   0.550050000    0   0   0
O0       0.250000000   0.801560000   0.546210000    0   0   0
O0       0.250000000   0.198440000   0.546210000    0   0   0
O0       0.000000000   0.500000000   0.582220000    0   0   0
O0       0.000000000   0.000000000   0.601140000    0   0   0
Ti1      0.250000000   0.000000000   0.642540000    0   0   0
Ti1      0.000000000   0.500000000   0.632090000    0   0   0
O0       0.250000000   0.687240000   0.641310000    0   0   0
O0       0.250000000   0.312760000   0.641310000    0   0   0
O0       0.000000000   0.000000000   0.671940000    0   0   0
O0       0.500000000   0.500000000   0.330010000    0   0   0
Ti1      0.750000000   0.500000000   0.364370000    0   0   0
Ti1      0.500000000   0.000000000   0.364370000    0   0   0
O0       0.750000000   0.810000000   0.364370000    0   0   0
O0       0.750000000   0.190000000   0.364370000    0   0   0
O0       0.500000000   0.500000000   0.398730000    0   0   0
O0       0.500000000   0.000000000   0.420430000    0   0   0
Ti1      0.750000000   0.000000000   0.454790000    0   0   0
Ti1      0.500000000   0.500000000   0.454790000    0   0   0
O0       0.750000000   0.690000000   0.454790000    0   0   0
O0       0.750000000   0.310000000   0.454790000    0   0   0
O0       0.500000000   0.000000000   0.489150000    0   0   0
O0       0.500000000   0.500000000   0.511620000    0   0   0
Ti1      0.750000000   0.500000000   0.543770000    0   0   0
Ti1      0.500000000   0.000000000   0.550050000    0   0   0
O0       0.750000000   0.801560000   0.546210000    0   0   0
O0       0.750000000   0.198440000   0.546210000    0   0   0
O0       0.500000000   0.500000000   0.582220000    0   0   0
O0       0.500000000   0.000000000   0.601140000    0   0   0
Ti1      0.750000000   0.000000000   0.642540000    0   0   0
Ti1      0.500000000   0.500000000   0.632090000    0   0   0
O0       0.750000000   0.687240000   0.641310000    0   0   0
O0       0.750000000   0.312760000   0.641310000    0   0   0
O0       0.500000000   0.000000000   0.671940000    0   0   0
O0       0.523021468   0.500000000   0.689336672
H2       0.379005340   0.500000000   0.702731771
End final coordinates

     General routines

     Parallel routines

   This run was terminated on:   3:18:31  29Mar2014

   JOB DONE.
Running PBS batch system epilogue script
Job id: 314587.audhumbla.fysik.dtu.dk
Username: zhonxu
Groupname: campgst
Jobname: TiO2/Eads-4-layers/OH
Sessionid: 18910
Queuename: verylong
Accounting:
This job has allocated the following 32 nodes:
g025 g025 g025 g025 g025 g025 g025 g025 g025 g025 g025 g025 g025 g025 g025 g025 g022 g022 g022 g022 g022 g022 g022 g022 g022 g022 g022 g022 g022 g022 g022 g022
Finished epilogue job 314587.audhumbla.fysik.dtu.dk for zhonxu