     Program PWSCF v.5.0.2 (svn rev. 9656) starts on  1Jun2014 at 14:17:33

     Current dimensions of program PWSCF are:
     Max number of different atomic species (ntypx) = 10
     Max number of k-points (npk) =  40000
     Max angular momentum in pseudopotentials (lmaxx) =  3
     Reading input from pwscf.in
Warning: card &CELL ignored
Warning: card / ignored

     Subspace diagonalization in iterative solution of the eigenvalue problem:
     a serial algorithm will be used

     bravais-lattice index     =            0
     lattice parameter (alat)  =      10.7336  a.u.
     unit-cell volume          =    6184.1966 (a.u.)^3
     number of atoms/cell      =           33
     number of atomic types    =            3
     number of electrons       =       245.00 (up: 134.00, down: 111.00)
     number of Kohn-Sham states=          355
     kinetic-energy cutoff     =      40.0000  Ry
     charge density cutoff     =     500.0000  Ry
     convergence threshold     =      1.0E-06
     mixing beta               =       0.7000
     number of iterations used =            8  plain     mixing
     Exchange-correlation      = SLA  PW   PBE  PBE ( 1 4 3 4 0)
     EXX-fraction              =        0.00
     nstep                     =           50

     celldm(1)=  10.733644  celldm(2)=   0.000000  celldm(3)=   0.000000
     celldm(4)=   0.000000  celldm(5)=   0.000000  celldm(6)=   0.000000

     crystal axes: (cart. coord. in units of alat)
               a(1) = (   1.000000   0.000000   0.000000 )
               a(2) = (   0.000000   1.085558   0.000000 )
               a(3) = (   0.000000   0.000000   4.606685 )

     reciprocal axes: (cart. coord. in units 2 pi/alat)
               b(1) = (  1.000000  0.000000  0.000000 )
               b(2) = (  0.000000  0.921185  0.000000 )
               b(3) = (  0.000000  0.000000  0.217076 )

     PseudoPot. # 1 for O  read from file:
     /home/camp/zhonxu/pseudo/o_pbe_v1.01.uspp.F.UPF
     MD5 check sum: 2bcb18d16ea4b960afae9ec6d52f22d2
     Pseudo is Ultrasoft + core correction, Zval =  6.0
     Generated by new atomic code, or converted to UPF format
     Using radial grid of  737 points,  5 beta functions with:
                l(1) =   0
                l(2) =   0
                l(3) =   1
                l(4) =   1
                l(5) =   2
     Q(r) pseudized with  8 coefficients,  rinner =    0.900   0.900   0.900
                                                       0.900   0.900

     PseudoPot. # 2 for Mn read from file:
     /home/camp/zhonxu/pseudo/mn_pbe_v1.uspp.F.UPF
     MD5 check sum: 5fd7c7b5c956fd19902447332617373a
     Pseudo is Ultrasoft + core correction, Zval = 15.0
     Generated by new atomic code, or converted to UPF format
     Using radial grid of  859 points,  6 beta functions with:
                l(1) =   0
                l(2) =   0
                l(3) =   1
                l(4) =   1
                l(5) =   2
                l(6) =   2
     Q(r) pseudized with  6 coefficients,  rinner =    1.150   1.150   1.150
                                                       1.150   1.150

     PseudoPot. # 3 for H  read from file:
     /home/camp/zhonxu/pseudo/h_pbe_v1.uspp.F.UPF
     MD5 check sum: 3408e3ff4ec8b0a4e358431e7e038a48
     Pseudo is Ultrasoft, Zval =  1.0
     Generated by new atomic code, or converted to UPF format
     Using radial grid of  615 points,  2 beta functions with:
                l(1) =   0
                l(2) =   0
     Q(r) pseudized with  8 coefficients,  rinner =    0.700

     atomic species   valence    mass     pseudopotential
        O0             6.00    15.99940     O ( 1.00)
        Mn1           15.00    54.93800     Mn( 1.00)
        H2             1.00     1.00794     H ( 1.00)

     Starting magnetic structure
     atomic species   magnetization
        O0           0.000
        Mn1          0.600
        H2           0.000

     Simplified LDA+U calculation (l_max = 2) with parameters (eV):
     atomic species    L          U    alpha       J0     beta
        Mn1            2     0.0000   0.0000   0.0000   0.0000

     No symmetry found

   Cartesian axes

     site n.     atom                  positions (alat units)
         1           O0  tau(   1) = (   0.0000000   0.0000000   1.7457494  )
         2           O0  tau(   2) = (   0.0000000   0.5427791   1.8442864  )
         3           Mn1 tau(   3) = (   0.2500000   0.5427791   2.0803790  )
         4           Mn1 tau(   4) = (   0.0000000   0.0000000   2.0733307  )
         5           O0  tau(   5) = (   0.2500000   0.8684466   2.0718105  )
         6           O0  tau(   6) = (   0.2500000   0.2171117   2.0783981  )
         7           O0  tau(   7) = (   0.0000000   0.5427791   2.2929314  )
         8           O0  tau(   8) = (   0.0000000   0.0000000   2.4163906  )
         9           Mn1 tau(   9) = (   0.2500000   0.0000000   2.6432698  )
        10           Mn1 tau(  10) = (   0.0000000   0.5427791   2.6163668  )
        11           O0  tau(  11) = (   0.2500000   0.7598908   2.6487057  )
        12           O0  tau(  12) = (   0.2500000   0.3256675   2.6647830  )
        13           O0  tau(  13) = (   0.0000000   0.0000000   2.8448584  )
        14           O0  tau(  14) = (   0.5000000   0.0000000   1.7464864  )
        15           O0  tau(  15) = (   0.5000000   0.5427791   1.8448852  )
        16           Mn1 tau(  16) = (   0.7500000   0.5427791   2.0803790  )
        17           Mn1 tau(  17) = (   0.5000000   0.0000000   2.0744363  )
        18           O0  tau(  18) = (   0.7500000   0.8684466   2.0716723  )
        19           O0  tau(  19) = (   0.7500000   0.2171117   2.0786745  )
        20           O0  tau(  20) = (   0.5000000   0.5427791   2.2968932  )
        21           O0  tau(  21) = (   0.5000000   0.0000000   2.4162984  )
        22           Mn1 tau(  22) = (   0.7500000   0.0000000   2.6433159  )
        23           Mn1 tau(  23) = (   0.5000000   0.5427791   2.6660729  )
        24           O0  tau(  24) = (   0.7500000   0.7598908   2.6487057  )
        25           O0  tau(  25) = (   0.7500000   0.3256675   2.6648291  )
        26           O0  tau(  26) = (   0.5000000   0.0000000   2.8426011  )
        27           H2  tau(  27) = (   0.0000600   0.7014769   1.7682761  )
        28           H2  tau(  28) = (   0.5000200   0.7014226   1.7687367  )
        29           H2  tau(  29) = (   0.1615100   0.0393949   1.6915287  )
        30           H2  tau(  30) = (   0.6615300   0.0393515   1.6922658  )
        31           O0  tau(  31) = (   0.4998600   0.5845297   2.9855926  )
        32           O0  tau(  32) = (   0.5002900   0.3746370   3.1260965  )
        33           H2  tau(  33) = (   0.4998600   0.4487589   3.2835069  )

     number of k points=    20  Methfessel-Paxton smearing, width (Ry)=  0.0100
                       cart. coord. in units 2pi/alat
        k(    1) = (   0.0000000   0.0000000   0.0000000), wk =   0.0625000
        k(    2) = (   0.0000000   0.2302962   0.0000000), wk =   0.1250000
        k(    3) = (   0.0000000  -0.4605925   0.0000000), wk =   0.0625000
        k(    4) = (   0.2500000   0.0000000   0.0000000), wk =   0.1250000
        k(    5) = (   0.2500000   0.2302962   0.0000000), wk =   0.1250000
        k(    6) = (   0.2500000  -0.4605925   0.0000000), wk =   0.1250000
        k(    7) = (  -0.5000000   0.0000000   0.0000000), wk =   0.0625000
        k(    8) = (  -0.5000000   0.2302962   0.0000000), wk =   0.1250000
        k(    9) = (  -0.5000000  -0.4605925   0.0000000), wk =   0.0625000
        k(   10) = (  -0.2500000   0.2302962   0.0000000), wk =   0.1250000
        k(   11) = (   0.0000000   0.0000000   0.0000000), wk =   0.0625000
        k(   12) = (   0.0000000   0.2302962   0.0000000), wk =   0.1250000
        k(   13) = (   0.0000000  -0.4605925   0.0000000), wk =   0.0625000
        k(   14) = (   0.2500000   0.0000000   0.0000000), wk =   0.1250000
        k(   15) = (   0.2500000   0.2302962   0.0000000), wk =   0.1250000
        k(   16) = (   0.2500000  -0.4605925   0.0000000), wk =   0.1250000
        k(   17) = (  -0.5000000   0.0000000   0.0000000), wk =   0.0625000
        k(   18) = (  -0.5000000   0.2302962   0.0000000), wk =   0.1250000
        k(   19) = (  -0.5000000  -0.4605925   0.0000000), wk =   0.0625000
        k(   20) = (  -0.2500000   0.2302962   0.0000000), wk =   0.1250000

     Largest allocated arrays     est. size (Mb)     dimensions
     Largest temporary arrays     est. size (Mb)     dimensions

     Check: negative/imaginary core charge=   -0.000022    0.000000

     Initial potential from superposition of free atoms
     Check: negative starting charge=(component1):   -0.000643
     Check: negative starting charge=(component2):   -0.000358

     starting charge  236.99986, renormalised to  245.00000

     negative rho (up, down):  0.665E-03 0.370E-03
     Number of +U iterations with fixed ns =  0
     Starting occupations:
 --- enter write_ns ---
 LDA+U parameters:
U( 2)     =  0.00000000
alpha( 2) =  0.00000000
atom    3   Tr[ns(na)] (up, down, total) =   5.00000  0.00000  5.00000
   spin  1
    eigenvalues:
  1.000  1.000  1.000  1.000  1.000
    eigenvectors:
  1.000  0.000  0.000  0.000  0.000
  0.000  1.000  0.000  0.000  0.000
  0.000  0.000  1.000  0.000  0.000
  0.000  0.000  0.000  1.000  0.000
  0.000  0.000  0.000  0.000  1.000
    occupations:
  1.000  0.000  0.000  0.000  0.000
  0.000  1.000  0.000  0.000  0.000
  0.000  0.000  1.000  0.000  0.000
  0.000  0.000  0.000  1.000  0.000
  0.000  0.000  0.000  0.000  1.000
   spin  2
    eigenvalues:
  0.000  0.000  0.000  0.000  0.000
    eigenvectors:
  1.000  0.000  0.000  0.000  0.000
  0.000  1.000  0.000  0.000  0.000
  0.000  0.000  1.000  0.000  0.000
  0.000  0.000  0.000  1.000  0.000
  0.000  0.000  0.000  0.000  1.000
    occupations:
  0.000  0.000  0.000  0.000  0.000
  0.000  0.000  0.000  0.000  0.000
  0.000  0.000  0.000  0.000  0.000
  0.000  0.000  0.000  0.000  0.000
  0.000  0.000  0.000  0.000  0.000
atomic mag. moment =     5.000000
atom    4   Tr[ns(na)] (up, down, total) =   5.00000  0.00000  5.00000
   spin  1
    eigenvalues:
  1.000  1.000  1.000  1.000  1.000
    eigenvectors:
  1.000  0.000  0.000  0.000  0.000
  0.000  1.000  0.000  0.000  0.000
  0.000  0.000  1.000  0.000  0.000
  0.000  0.000  0.000  1.000  0.000
  0.000  0.000  0.000  0.000  1.000
    occupations:
  1.000  0.000  0.000  0.000  0.000
  0.000  1.000  0.000  0.000  0.000
  0.000  0.000  1.000  0.000  0.000
  0.000  0.000  0.000  1.000  0.000
  0.000  0.000  0.000  0.000  1.000
   spin  2
    eigenvalues:
  0.000  0.000  0.000  0.000  0.000
    eigenvectors:
  1.000  0.000  0.000  0.000  0.000
  0.000  1.000  0.000  0.000  0.000
  0.000  0.000  1.000  0.000  0.000
  0.000  0.000  0.000  1.000  0.000
  0.000  0.000  0.000  0.000  1.000
    occupations:
  0.000  0.000  0.000  0.000  0.000
  0.000  0.000  0.000  0.000  0.000
  0.000  0.000  0.000  0.000  0.000
  0.000  0.000  0.000  0.000  0.000
  0.000  0.000  0.000  0.000  0.000
atomic mag. moment =     5.000000
[...]
   spin  1
    eigenvalues:
  0.546  0.585  0.985  0.990  0.997
    eigenvectors:
  0.000  0.999  0.000  0.000  0.001
  0.000  0.001  0.001  0.017  0.982
  0.000  0.000  0.020  0.963  0.017
  0.000  0.000  0.980  0.020  0.000
  1.000  0.000  0.000  0.000  0.000
    occupations:
  0.586 -0.012 -0.004  0.003 -0.000
 -0.012  0.997  0.001 -0.000  0.001
 -0.004  0.001  0.990  0.001  0.000
  0.003 -0.000  0.001  0.985  0.000
 -0.000  0.001  0.000  0.000  0.546
   spin  2
    eigenvalues:
  0.145  0.205  0.251  0.411  0.424
    eigenvectors:
  0.001  0.005  0.000  0.000  0.993
  0.000  0.957  0.038  0.000  0.005
  0.000  0.037  0.962  0.000  0.001
  0.999  0.000  0.000  0.000  0.001
  0.000  0.000  0.000  1.000  0.000
    occupations:
  0.422  0.016  0.005 -0.008 -0.000
  0.016  0.208 -0.008  0.000 -0.002
  0.005 -0.008  0.250  0.001 -0.000
 -0.008  0.000  0.001  0.146 -0.000
 -0.000 -0.002 -0.000 -0.000  0.411
atomic mag. moment =     2.666446
atom   22   Tr[ns(na)] (up, down, total) =   3.96122  1.65732  5.61854
   spin  1
    eigenvalues:
  0.585  0.587  0.886  0.918  0.987
    eigenvectors:
  0.076  0.119  0.000  0.001  0.804
  0.626  0.374  0.000  0.000  0.000
  0.000  0.000  0.037  0.961  0.001
  0.299  0.506  0.000  0.000  0.195
  0.000  0.000  0.962  0.038  0.000
    occupations:
  0.908  0.003 -0.001 -0.159  0.001
  0.003  0.585  0.000 -0.000 -0.001
 -0.001  0.000  0.916 -0.007 -0.006
 -0.159 -0.000 -0.007  0.664 -0.001
  0.001 -0.001 -0.006 -0.001  0.887
   spin  2
    eigenvalues:
  0.226  0.268  0.273  0.427  0.464
    eigenvectors:
  0.843  0.000  0.000  0.157  0.000
  0.000  0.000  0.000  0.000  1.000
  0.000  0.928  0.072  0.001  0.000
  0.157  0.000  0.000  0.842  0.000
  0.000  0.072  0.928  0.000  0.000
    occupations:
  0.258 -0.002  0.001  0.073 -0.001
 -0.002  0.464  0.000  0.001  0.001
  0.001  0.000  0.268  0.004  0.001
  0.073  0.001  0.004  0.395  0.001
 -0.001  0.001  0.001  0.001  0.273
atomic mag. moment =     2.303905
atom   23   Tr[ns(na)] (up, down, total) =   4.02741  1.54154  5.56894
   spin  1
    eigenvalues:
  0.552  0.568  0.929  0.986  0.992
    eigenvectors:
  0.000  0.998  0.000  0.000  0.002
  0.001  0.000  0.999  0.000  0.000
  0.000  0.002  0.000  0.001  0.997
  0.000  0.000  0.000  0.999  0.001
  0.999  0.000  0.001  0.000  0.000
    occupations:
  0.569 -0.000  0.019  0.002 -0.000
 -0.000  0.929 -0.000 -0.000 -0.009
  0.019 -0.000  0.991 -0.000  0.000
  0.002 -0.000 -0.000  0.986 -0.000
 -0.000 -0.009  0.000 -0.000  0.553
   spin  2
    eigenvalues:
  0.154  0.206  0.355  0.402  0.425
    eigenvectors:
  0.000  0.000  0.000  1.000  0.000
  0.000  0.000  1.000  0.000  0.000
  0.000  1.000  0.000  0.000  0.000
  1.000  0.000  0.000  0.000  0.000
  0.000  0.000  0.000  0.000  1.000
    occupations:
  0.402  0.000 -0.000  0.002 -0.000
  0.000  0.355  0.000  0.000 -0.000
 -0.000  0.000  0.206  0.000  0.000
  0.002  0.000  0.000  0.154 -0.000
 -0.000 -0.000  0.000 -0.000  0.425
atomic mag. moment =     2.485872
N of occupied +U levels =  44.4662306
 --- exit write_ns ---

 ------ SPIN UP ------------

          k = 0.0000 0.0000 0.0000 ( 26393 PWs)   bands (ev):

   -83.5005 -83.4905 -83.3548 -83.2177 -83.2083 -83.2022 -82.9986 -82.9882
   -52.3425 -52.2295 -52.1327 -52.1168 -52.1110 -52.1094 -52.0979 -52.0902
   -52.0139 -52.0085 -51.9797 -51.9693 -51.9140 -51.8955 -51.8953 -51.7541
   -51.7513 -51.7381 -51.7302 -51.7127 -51.6991 -51.6259 -51.5797 -51.5597
   -23.9284 -21.4996 -20.7951 -20.7780 -20.4757 -20.1050 -19.7654 -19.6892
   -19.6438 -19.4730 -19.4099 -19.3780 -19.3652 -19.3014 -19.2406 -19.1777
   -18.8054 -18.5470 -18.3785 -17.3899  -9.3735  -9.1553  -9.0668  -9.0145
    -8.8065  -8.5420  -7.9841  -7.9677  -7.9097  -7.8554  -7.7518  -7.7435
    -7.6031  -7.5862  -7.4760  -7.2678  -7.1879  -7.1403  -7.0645  -6.9907
    -6.9571  -6.7642  -6.6465  -6.6046  -6.5443  -6.3106  -6.1748  -6.1396
    -6.0994  -5.9423  -5.5640  -5.4407  -5.4174  -5.2566  -5.0827  -5.0488
    -4.9542  -4.9262  -4.8682  -4.7773  -4.6005  -4.5417  -4.3795  -4.3401
    -4.3075  -4.2552  -4.1736  -4.1486  -4.1088  -4.0258  -3.9480  -3.9307
    -3.8805  -3.8562  -3.7021  -3.5754  -3.4959  -3.4729  -3.4508  -3.3856
    -3.3401  -3.2029  -3.1662  -3.1483  -2.8650  -2.8438  -2.7781  -2.6674
    -2.5375  -2.3212  -2.2275  -2.1473  -2.0962  -2.0019  -1.9884  -1.8528
    -1.8037  -1.6540  -1.4511  -1.3670  -1.3158  -1.2976  -1.0972  -0.9914
    -0.5485  -0.0894   0.1897   0.3550   0.3986   0.5173   0.5213   0.7247
     0.9942   1.0305   1.3350   1.3842   1.7239   1.8321   2.0253   2.9636
     3.4394   3.6453   3.8338   4.3339   4.9256   5.5972   5.9973   6.5855
     6.7261   7.1459   7.1912   7.2666   7.4550   7.5133   7.6167   7.6932
     7.7670   7.7850   7.9380   8.1652   8.2598   8.3461   8.3570   8.5577
     8.6950   8.8887   8.8990   8.9286   9.0367   9.3032   9.5056   9.6636
     9.6800   9.7673   9.8408   9.9932  10.0530  10.1205  10.3494  10.4618
    10.4959  10.7014  10.7927  10.8976  11.0527  11.1409  11.1646  11.2002
    11.2985  11.3935  11.4441  11.5237  11.5734  11.7287  11.7489  11.8801
    11.9219  12.0521  12.1324  12.1835  12.1983  12.2055  12.2723  12.3498
    12.4975  12.5396  12.5510  12.6572  12.7363  12.8668  12.9052  13.0208
    13.0512  13.1220  13.1897  13.2830  13.3528  13.3803  13.5080  13.5278
    13.6185  13.6730  13.7201  13.7613  13.8158  13.9085  14.0785  14.0872
    14.2934  14.3780  14.4281  14.4485  14.5364  14.5976  14.6086  14.7679
    14.9730  15.0078  15.0454  15.0814  15.1447  15.2793  15.3135  15.3667
    15.4063  15.4510  15.6033  15.6375  15.7978  15.8140  15.9795  16.0365
    16.3645  16.3947  16.4657  16.5180  16.6329  16.7406  16.8012  16.9126
    16.9308  17.1547  17.1771  17.3283  17.3933  17.5514  17.6116  17.6955
    17.7394  17.8874  17.9517  17.9682  18.1542  18.3044  18.3714  18.4055
    18.5095  18.5321  18.6364  18.8858  18.9566  18.9784  19.0976  19.1514
    19.1840  19.3089  19.4031  19.4359  19.4493  19.4974  19.5675  19.5969
    19.7331  19.8304  19.9128  19.9468  20.0080  20.0377  20.1554  20.2435
    20.2671  20.3570  20.3813  20.5498  20.6335  20.7021  20.8237  20.8885
    21.0375  21.1049  21.1745  21.2236  21.3494  21.5082  21.5243  21.5462
    21.5975  21.7000  21.7153  21.8472  21.9006  21.9432  22.0528  22.1547
    22.1890  22.2323  22.2670  22.3705  22.3984  22.4511  22.4721  22.5882
    22.5983  22.6083  22.7809  22.8285  22.8886  22.9156  22.9896  23.1614
    23.2106  23.3019  23.3676

[...]

          k =-0.5000 0.0000 0.0000 ( 26466 PWs)   bands (ev):

[...]

 ------ SPIN DOWN ----------

[...]

          k = 0.2500-0.4606 0.0000 ( 26462 PWs)   bands (ev):

[...]

          k =-0.2500 0.2303 0.0000 ( 26396 PWs)   bands (ev):

   -80.1528 -80.1525 -80.1445 -80.1094 -80.1009 -79.9104 -79.8977 -79.7215
   -49.0709 -49.0311 -49.0109 -49.0023 -49.0004 -48.9731 -48.9256 -48.9137
   -48.8989 -48.8962 -48.8698 -48.8637 -48.8626 -48.8519 -48.7569 -48.7300
   -48.7121 -48.7009 -48.6756 -48.6573 -48.5274 -48.5236 -48.5148 -48.3351
   -23.8414 -21.2527 -20.8237 -20.4498 -20.1965 -19.9971 -19.7098 -19.6101
   -19.5238 -19.4517 -19.3567 -19.2969 -19.2408 -19.1260 -18.9948 -18.9330
   -18.7671 -18.4274 -18.2859 -17.2772  -8.8908  -8.8310  -8.5690  -8.0549
    -7.9697  -7.9109  -7.6294  -7.4968  -7.3736  -7.2847  -7.2214  -7.1456
    -7.0207  -6.9647  -6.7702  -6.6851  -6.6160  -6.5094  -6.4537  -6.3643
    -6.2176  -6.1712  -6.0572  -5.9204  -5.8912  -5.7462  -5.6842  -5.4516
    -5.2653  -5.2299  -5.1346  -5.0186  -4.9525  -4.9090  -4.8454  -4.7782
    -4.7001  -4.5466  -4.4271  -4.3175  -4.1773  -4.1212  -4.0162  -3.8641
    -3.7714  -3.6787  -3.6147  -3.4984  -3.4203  -3.2702  -3.1043  -3.0434
    -2.9999  -2.7818  -2.6157  -2.5196  -2.3576  -2.1316  -1.6446  -0.7193
    -0.6810  -0.5293  -0.4651  -0.4433  -0.4037  -0.3136  -0.2448  -0.1764
    -0.1306  -0.0441   0.0112   0.0470   0.0847   0.0943   0.2794   0.3108
     0.4026   0.5212   0.6567   0.7243   0.8286   0.9129   1.0115   1.1394
     1.3612   1.4495   1.5559   1.9014   1.9155   2.0473   2.1412   2.3528
     2.4539   2.7615   2.8782   2.8857   3.1208   3.2213   3.3067   3.4416
     3.9786   4.0764   4.3345   4.8718   5.4989   5.6610   5.9185   6.0018
     6.1753   6.3136   6.4245   6.5746   6.8610   6.9703   7.1851   7.5097
     7.6411   7.7959   8.0628   8.1458   8.3709   8.4702   8.5615   8.6810
     8.8761   9.0314   9.2461   9.3461   9.4956   9.5892   9.8025   9.8474
     9.9664  10.0681  10.1152  10.2152  10.3338  10.4620  10.5476  10.5996
    10.7804  10.8588  10.9333  11.0506  11.1238  11.3400  11.3709  11.4590
    11.6057  11.6989  11.7776  11.8477  11.8998  12.0362  12.1421  12.2174
    12.2871  12.3586  12.4688  12.5208  12.6139  12.6438  12.7946  12.8821
    12.9086  13.0310  13.0987  13.2127  13.2764  13.3447  13.4719  13.5280
    13.6078  13.6832  13.7046  13.7674  13.9543  14.0119  14.0535  14.1643
    14.2682  14.3181  14.3943  14.4155  14.4509  14.6005  14.6605  14.8044
    14.8430  14.9065  14.9321  15.0332  15.1422  15.2063  15.2670  15.3194
    15.4376  15.5059  15.5671  15.6397  15.6948  15.7546  15.8681  15.8904
    16.0042  16.0798  16.1753  16.2193  16.2637  16.3591  16.4439  16.5036
    16.5576  16.6224  16.6769  16.7740  16.8582  16.9164  16.9995  17.0461
    17.1544  17.1889  17.3095  17.3591  17.4759  17.5549  17.6005  17.6485
    17.6972  17.7654  17.8575  17.8941  17.9834  18.0302  18.1104  18.1491
    18.2428  18.3424  18.4069  18.4332  18.5432  18.6019  18.6681  18.7347
    18.8141  18.8481  18.9166  18.9638  19.0309  19.1035  19.1804  19.2440
    19.4066  19.4713  19.5563  19.6212  19.6662  19.7203  19.8082  19.8840
    19.9493  20.0414  20.0757  20.2244  20.2456  20.3288  20.4323  20.4998
    20.5692  20.6792  20.7402  20.8353  20.9178  20.9642  21.0463  21.1366
    21.1849  21.2423  21.3226  21.3544  21.4619  21.5286  21.5945  21.7049
    21.8002  21.8970  21.9472  22.0192  22.1162  22.2112  22.2385  22.3384
    22.4075  22.4918  22.5712  22.6344  22.7165  22.7468  22.8127  22.8860
    22.9897  23.0482  23.1483

     the spin up/dw Fermi energies are    -1.2295   -1.4974 ev

!    total energy              =   -2354.30706900 Ry
     Harris-Foulkes estimate   =   -2354.30706929 Ry
     estimated scf accuracy    <       0.00000036 Ry

     The total energy is the sum of the following terms:

     one-electron contribution =  -27293.44056718 Ry
     hartree contribution      =   13671.98651320 Ry
     xc contribution           =    -355.87450242 Ry
     ewald contribution        =   11623.02136256 Ry
     Hubbard energy            =       0.00000000 Ry
     smearing contrib. (-TS)   =       0.00012484 Ry

     total magnetization       =    23.00 Bohr mag/cell
     absolute magnetization    =    23.96 Bohr mag/cell

     convergence has been achieved in  46 iterations

     Forces acting on atoms (Ry/au):

     negative rho (up, down):  0.218E-02 0.123E-02
     atom    1 type  1   force =    -0.00478964   -0.01558155   -0.00017888
     atom    2 type  1   force =     0.00026151    0.01208493    0.00040501
     atom    3 type  2   force =     0.03398754   -0.00381167   -0.00008678
     atom    4 type  2   force =     0.00414110    0.01109016   -0.00026599
     atom    5 type  1   force =     0.00236960    0.00836925    0.00026531
     atom    6 type  1   force =    -0.00425006   -0.01049757    0.00035564
     atom    7 type  1   force =     0.00002471   -0.00182803    0.00020114
     atom    8 type  1   force =    -0.00029973    0.00345066   -0.00027822
     atom    9 type  2   force =     0.00104070   -0.00145101   -0.00045972
     atom   10 type  2   force =    -0.00007351   -0.00280921    0.00016898
     atom   11 type  1   force =    -0.01701967   -0.04782048   -0.00004766
     atom   12 type  1   force =    -0.01235586    0.05871529    0.00072628
     atom   13 type  1   force =    -0.00020167   -0.00496661   -0.00044775
     atom   14 type  1   force =    -0.00465133   -0.01562507    0.00023283
     atom   15 type  1   force =     0.00022947    0.01144912   -0.00026409
     atom   16 type  2   force =    -0.03472978   -0.00370323   -0.00012158
     atom   17 type  2   force =     0.00394032    0.01119170    0.00015079
     atom   18 type  1   force =     0.00499656    0.00819488    0.00025559
     atom   19 type  1   force =    -0.00139641   -0.01062538    0.00024741
     atom   20 type  1   force =    -0.00006207   -0.00197960   -0.00084125
     atom   21 type  1   force =    -0.00031211    0.00306359   -0.00016935
     atom   22 type  2   force =    -0.00031316   -0.00134864   -0.00049513
     atom   23 type  2   force =    -0.00008231   -0.00438837   -0.00011905
     atom   24 type  1   force =     0.01720786   -0.04780931   -0.00006960
     atom   25 type  1   force =     0.01240169    0.05877270    0.00072714
     atom   26 type  1   force =    -0.00022494   -0.01299083   -0.00010919
     atom   27 type  3   force =    -0.00001699   -0.00015674    0.00063682
     atom   28 type  3   force =     0.00002426    0.00043820    0.00040886
     atom   29 type  3   force =     0.00012319    0.00012050   -0.00000507
     atom   30 type  3   force =     0.00002693    0.00003172   -0.00019929
     atom   31 type  1   force =    -0.00002447   -0.00035233   -0.00035435
     atom   32 type  1   force =     0.00004772    0.00008153    0.00021211
     atom   33 type  3   force =    -0.00001945    0.00069140   -0.00048094

     Total force =     0.002294     Total SCF correction =     0.002719
     SCF correction compared to forces is large: reduce conv_thr to get better values

     entering subroutine stress ...

     negative rho (up, down):  0.218E-02 0.123E-02
          total   stress  (Ry/bohr**3)                   (kbar)     P=    4.36
   0.00001732  -0.00000504   0.00000487          2.55     -0.74      0.72
  -0.00000504   0.00013498   0.00000234         -0.74     19.86      0.34
   0.00000487   0.00000234  -0.00006339          0.72      0.34     -9.33

     BFGS Geometry Optimization

     bfgs converged in   1 scf cycles and   0 bfgs steps
     (criteria: energy < 0.10E-03, force < 0.10E-02)

     End of BFGS Geometry Optimization

     Final energy   =   -2354.3070689972 Ry
Begin final coordinates

ATOMIC_POSITIONS (crystal)
O0       0.000000000   0.000000000   0.378960000    0   0   1
O0       0.000000000   0.500000000   0.400350000    0   0   1
Mn1      0.250000000   0.500000000   0.451600000    0   0   1
Mn1      0.000000000   0.000000000   0.450070000    0   0   1
O0       0.250000000   0.800000000   0.449740000    0   0   1
O0       0.250000000   0.200000000   0.451170000    0   0   1
O0       0.000000000   0.500000000   0.497740000    0   0   1
O0       0.000000000   0.000000000   0.524540000    0   0   1
Mn1      0.250000000   0.000000000   0.573790000    0   0   1
Mn1      0.000000000   0.500000000   0.567950000    0   0   1
O0       0.250000000   0.700000000   0.574970000    0   0   1
O0       0.250000000   0.300000000   0.578460000    0   0   1
O0       0.000000000   0.000000000   0.617550000    0   0   1
O0       0.500000000   0.000000000   0.379120000    0   0   1
O0       0.500000000   0.500000000   0.400480000    0   0   1
Mn1      0.750000000   0.500000000   0.451600000    0   0   1
Mn1      0.500000000   0.000000000   0.450310000    0   0   1
O0       0.750000000   0.800000000   0.449710000    0   0   1
O0       0.750000000   0.200000000   0.451230000    0   0   1
O0       0.500000000   0.500000000   0.498600000    0   0   1
O0       0.500000000   0.000000000   0.524520000    0   0   1
Mn1      0.750000000   0.000000000   0.573800000    0   0   1
Mn1      0.500000000   0.500000000   0.578740000    0   0   1
O0       0.750000000   0.700000000   0.574970000    0   0   1
O0       0.750000000   0.300000000   0.578470000    0   0   1
O0       0.500000000   0.000000000   0.617060000    0   0   1
H2       0.000060000   0.646190000   0.383850000
H2       0.500020000   0.646140000   0.383950000
H2       0.161510000   0.036290000   0.367190000
H2       0.661530000   0.036250000   0.367350000
O0       0.499860000   0.538460000   0.648100000
O0       0.500290000   0.345110000   0.678600000
H2       0.499860000   0.413390000   0.712770000
End final coordinates

     General routines

     Parallel routines
     Hubbard U routines

   This run was terminated on:  18: 1:57   1Jun2014

   JOB DONE.
Running PBS batch system epilogue script
Job id: 373392.audhumbla.fysik.dtu.dk
Username: zhonxu
Groupname: campgst
Jobname: MnO2/Eads-2-layers/OOH-U-0.0
Sessionid: 529
Queuename: verylong
Accounting:
This job has allocated the following 16 nodes:
b044 b044 b044 b044 b044 b044 b044 b044 b039 b039 b039 b039 b039 b039 b039 b039
Finished epilogue job 373392.audhumbla.fysik.dtu.dk for zhonxu