     Program PWSCF v.5.0.2 (svn rev. 9656) starts on  1Jun2014 at 11:26: 4

     Current dimensions of program PWSCF are:
     Max number of different atomic species (ntypx) = 10
     Max number of k-points (npk) =  40000
     Max angular momentum in pseudopotentials (lmaxx) =  3
     Reading input from pwscf.in
Warning: card &CELL ignored
Warning: card / ignored

     Subspace diagonalization in iterative solution of the eigenvalue problem:
     a serial algorithm will be used

     bravais-lattice index     =            0
     lattice parameter (alat)  =      11.1872  a.u.
     unit-cell volume          =    7531.8600 (a.u.)^3
     number of atoms/cell      =           33
     number of atomic types    =            3
     number of electrons       =       229.00
     number of Kohn-Sham states=          343
     kinetic-energy cutoff     =      40.0000  Ry
     charge density cutoff     =     500.0000  Ry
     convergence threshold     =      1.0E-06
     mixing beta               =       0.7000
     number of iterations used =            8  plain     mixing
     Exchange-correlation      = SLA  PW   PBE  PBE ( 1 4 3 4 0)
     EXX-fraction              =        0.00
     nstep                     =           50

     celldm(1)=  11.187179  celldm(2)=   0.000000  celldm(3)=   0.000000
     celldm(4)=   0.000000  celldm(5)=   0.000000  celldm(6)=   0.000000

     crystal axes: (cart. coord. in units of alat)
               a(1) = (   1.000000   0.000000   0.000000 )
               a(2) = (   0.000000   1.180104   0.000000 )
               a(3) = (   0.000000   0.000000   4.558482 )

     reciprocal axes: (cart. coord. in units 2 pi/alat)
               b(1) = (  1.000000  0.000000  0.000000 )
               b(2) = (  0.000000  0.847383  0.000000 )
               b(3) = (  0.000000  0.000000  0.219371 )

     PseudoPot. # 1 for O  read from file:
     /home/camp/zhonxu/pseudo/o_pbe_v1.01.uspp.F.UPF
     MD5 check sum: 2bcb18d16ea4b960afae9ec6d52f22d2
     Pseudo is Ultrasoft + core correction, Zval =  6.0
     Generated by new atomic code, or converted to UPF format
     Using radial grid of  737 points,  5 beta functions with:
                l(1) =   0
                l(2) =   0
                l(3) =   1
                l(4) =   1
                l(5) =   2
     Q(r) pseudized with  8 coefficients,  rinner =    0.900   0.900   0.900
                                                       0.900   0.900

     PseudoPot. # 2 for Nb read from file:
     /home/camp/zhonxu/pseudo/nb_pbe_v1.uspp.F.UPF
     MD5 check sum: 573aab8a2fa660278ed4a62cd769473f
     Pseudo is Ultrasoft + core correction, Zval = 13.0
     Generated by new atomic code, or converted to UPF format
     Using radial grid of  887 points,  6 beta functions with:
                l(1) =   0
                l(2) =   0
                l(3) =   1
                l(4) =   1
                l(5) =   2
                l(6) =   2
     Q(r) pseudized with  6 coefficients,  rinner =    1.000   1.000   1.000
                                                       1.000   1.000

     PseudoPot. # 3 for H  read from file:
     /home/camp/zhonxu/pseudo/h_pbe_v1.uspp.F.UPF
     MD5 check sum: 3408e3ff4ec8b0a4e358431e7e038a48
     Pseudo is Ultrasoft, Zval =  1.0
     Generated by new atomic code, or converted to UPF format
     Using radial grid of  615 points,  2 beta functions with:
                l(1) =   0
                l(2) =   0
     Q(r) pseudized with  8 coefficients,  rinner =    0.700

     atomic species   valence    mass     pseudopotential
        O0             6.00    15.99940     O ( 1.00)
        Nb1           13.00    92.90640     Nb( 1.00)
        H2             1.00     1.00794     H ( 1.00)

     Simplified LDA+U calculation (l_max = 2) with parameters (eV):
     atomic species    L          U    alpha       J0     beta
        Nb1            2     8.0000   0.0000   0.0000   0.0000

     No symmetry found

   Cartesian axes

     site n.     atom                  positions (alat units)
         1           O0  tau(   1) = (   0.0000000   0.0000000   1.6962113  )
         2           O0  tau(   2) = (   0.0000000   0.5900519   1.7723835  )
         3           Nb1 tau(   3) = (   0.2500000   0.5900519   2.0257895  )
         4           Nb1 tau(   4) = (   0.0000000   0.0000000   2.0274306  )
         5           O0  tau(   5) = (   0.2500000   0.9322821   2.0383253  )
         6           O0  tau(   6) = (   0.2500000   0.2478218   2.0381886  )
         7           O0  tau(   7) = (   0.0000000   0.5900519   2.2790132  )
         8           O0  tau(   8) = (   0.0000000   0.0000000   2.3853170  )
         9           Nb1 tau(   9) = (   0.2500000   0.0000000   2.6318397  )
        10           Nb1 tau(  10) = (   0.0000000   0.5900519   2.5956910  )
        11           O0  tau(  11) = (   0.2500000   0.8378738   2.6232242  )
        12           O0  tau(  12) = (   0.2500000   0.3422301   2.6255034  )
        13           O0  tau(  13) = (   0.0000000   0.0000000   2.8344187  )
        14           O0  tau(  14) = (   0.5000000   0.0000000   1.6974420  )
        15           O0  tau(  15) = (   0.5000000   0.5900519   1.7789021  )
        16           Nb1 tau(  16) = (   0.7500000   0.5900519   2.0259719  )
        17           Nb1 tau(  17) = (   0.5000000   0.0000000   2.0298010  )
        18           O0  tau(  18) = (   0.7500000   0.9322821   2.0382798  )
        19           O0  tau(  19) = (   0.7500000   0.2478218   2.0381886  )
        20           O0  tau(  20) = (   0.5000000   0.5900519   2.2737254  )
        21           O0  tau(  21) = (   0.5000000   0.0000000   2.3845421  )
        22           Nb1 tau(  22) = (   0.7500000   0.0000000   2.6318397  )
        23           Nb1 tau(  23) = (   0.5000000   0.5900519   2.6269166  )
        24           O0  tau(  24) = (   0.7500000   0.8378738   2.6231786  )
        25           O0  tau(  25) = (   0.7500000   0.3422301   2.6254579  )
        26           O0  tau(  26) = (   0.5000000   0.0000000   2.8332335  )
        27           H2  tau(  27) = (  -0.0005200   0.5958463   1.6070929  )
        28           H2  tau(  28) = (   0.4994400   0.5914445   1.6138395  )
        29           H2  tau(  29) = (   0.1507700   0.0008261   1.6243240  )
        30           H2  tau(  30) = (   0.6503900   0.0006019   1.6249166  )
        31           O0  tau(  31) = (   0.5000000   0.6010623   2.9587285  )
        32           O0  tau(  32) = (   0.5000000   0.4103103   3.1155403  )
        33           H2  tau(  33) = (   0.5000000   0.4955964   3.2584031  )

     number of k points=    10  Methfessel-Paxton smearing, width (Ry)=  0.0100
                       cart. coord. in units 2pi/alat
        k(    1) = (   0.0000000   0.0000000   0.0000000), wk =   0.1250000
        k(    2) = (   0.0000000   0.2118458   0.0000000), wk =   0.2500000
        k(    3) = (   0.0000000  -0.4236915   0.0000000), wk =   0.1250000
        k(    4) = (   0.2500000   0.0000000   0.0000000), wk =   0.2500000
        k(    5) = (   0.2500000   0.2118458   0.0000000), wk =   0.2500000
        k(    6) = (   0.2500000  -0.4236915   0.0000000), wk =   0.2500000
        k(    7) = (  -0.5000000   0.0000000   0.0000000), wk =   0.1250000
        k(    8) = (  -0.5000000   0.2118458   0.0000000), wk =   0.2500000
        k(    9) = (  -0.5000000  -0.4236915   0.0000000), wk =   0.1250000
        k(   10) = (  -0.2500000   0.2118458   0.0000000), wk =   0.2500000

     Largest allocated arrays     est. size (Mb)     dimensions
     Largest temporary arrays     est. size (Mb)     dimensions

     Check: negative/imaginary core charge=   -0.000003    0.000000

     Initial potential from superposition of free atoms
     Check: negative starting charge=   -0.003307

     starting charge  228.97806, renormalised to  229.00000

     negative rho (up, down):  0.331E-02 0.000E+00
     Number of +U iterations with fixed ns =  0
     Starting occupations:
 --- enter write_ns ---
 LDA+U parameters:
U( 2)     =  8.00000000
alpha( 2) =  0.00000000
atom    3   Tr[ns(na)] =   3.00000
    eigenvalues:
  0.300  0.300  0.300  0.300  0.300
    eigenvectors:
  1.000  0.000  0.000  0.000  0.000
  0.000  1.000  0.000  0.000  0.000
  0.000  0.000  1.000  0.000  0.000
  0.000  0.000  0.000  1.000  0.000
  0.000  0.000  0.000  0.000  1.000
    occupations:
  0.300  0.000  0.000  0.000  0.000
  0.000  0.300  0.000  0.000  0.000
  0.000  0.000  0.300  0.000  0.000
  0.000  0.000  0.000  0.300  0.000
  0.000  0.000  0.000  0.000  0.300
atom    4   Tr[ns(na)] =   3.00000
    eigenvalues:
  0.300  0.300  0.300  0.300  0.300
    eigenvectors:
  1.000  0.000  0.000  0.000  0.000
  0.000  1.000  0.000  0.000  0.000
  0.000  0.000  1.000  0.000  0.000
  0.000  0.000  0.000  1.000  0.000
  0.000  0.000  0.000  0.000  1.000
    occupations:
  0.300  0.000  0.000  0.000  0.000
  0.000  0.300  0.000  0.000  0.000
  0.000  0.000  0.300  0.000  0.000
  0.000  0.000  0.000  0.300  0.000
  0.000  0.000  0.000  0.000  0.300
atom    9   Tr[ns(na)] =   3.00000
    eigenvalues:
  0.300  0.300  0.300  0.300  0.300
    eigenvectors:
  1.000  0.000  0.000  0.000  0.000
  0.000  1.000  0.000  0.000  0.000
  0.000  0.000  1.000  0.000  0.000
  0.000  0.000  0.000  1.000  0.000
  0.000  0.000  0.000  0.000  1.000
    occupations:
  0.300  0.000  0.000  0.000  0.000
  0.000  0.300  0.000  0.000  0.000
  0.000  0.000  0.300  0.000  0.000
  0.000  0.000  0.000  0.300  0.000
  0.000  0.000  0.000  0.000  0.300
atom   10   Tr[ns(na)] =   3.00000
    eigenvalues:
  0.300  0.300  0.300  0.300  0.300
    eigenvectors:
  1.000  0.000  0.000  0.000  0.000
  0.000  1.000  0.000  0.000  0.000
  0.000  0.000  1.000  0.000  0.000
  0.000  0.000  0.000  1.000  0.000
  0.000  0.000  0.000  0.000  1.000
    occupations:
  0.300  0.000  0.000  0.000  0.000
  0.000  0.300  0.000  0.000  0.000
  0.000  0.000  0.300  0.000  0.000
  0.000  0.000  0.000  0.300  0.000
  0.000  0.000  0.000  0.000  0.300
atom   16   Tr[ns(na)] =   3.00000
    eigenvalues:
  0.300  0.300  0.300  0.300  0.300
    eigenvectors:
  1.000  0.000  0.000  0.000  0.000
  0.000  1.000  0.000  0.000  0.000
  0.000  0.000  1.000  0.000  0.000
  0.000  0.000  0.000  1.000  0.000
  0.000  0.000  0.000  0.000  1.000
    occupations:
  0.300  0.000  0.000  0.000  0.000
  0.000  0.300  0.000  0.000  0.000
  0.000  0.000  0.300  0.000  0.000
  0.000  0.000  0.000  0.300  0.000
  0.000  0.000  0.000  0.000  0.300
atom   17   Tr[ns(na)] =   3.00000
    eigenvalues:
  0.300  0.300  0.300  0.300  0.300
    eigenvectors:
  1.000  0.000  0.000  0.000  0.000
  0.000  1.000  0.000  0.000  0.000
  0.000  0.000  1.000  0.000  0.000
  0.000  0.000  0.000  1.000  0.000
  0.000  0.000  0.000  0.000  1.000
    occupations:
  0.300  0.000  0.000  0.000  0.000
  0.000  0.300  0.000  0.000  0.000
  0.000  0.000  0.300  0.000  0.000
  0.000  0.000  0.000  0.300  0.000
  0.000  0.000  0.000  0.000  0.300
atom   22   Tr[ns(na)] =   3.00000
    eigenvalues:
  0.300  0.300  0.300  0.300  0.300
    eigenvectors:
  1.000  0.000  0.000  0.000  0.000
  0.000  1.000  0.000  0.000  0.000
  0.000  0.000  1.000  0.000  0.000
[...]
  0.000  0.000  0.000  0.000  1.000
  0.000  0.000  0.000  1.000  0.000
    occupations:
  0.503  0.000  0.000  0.003 -0.000
  0.000  0.302 -0.000  0.001  0.001
  0.000 -0.000  0.287 -0.003 -0.000
  0.003  0.001 -0.003  0.850 -0.000
 -0.000  0.001 -0.000 -0.000  0.539
atom   16   Tr[ns(na)] =   5.04909
    eigenvalues:
  0.301  0.306  0.518  0.609  0.790
    eigenvectors:
  0.000  0.000  0.000  0.323  0.676
  0.000  0.000  1.000  0.000  0.000
  0.208  0.792  0.000  0.000  0.000
  0.000  0.000  0.000  0.676  0.324
  0.792  0.208  0.000  0.000  0.000
    occupations:
  0.731  0.004  0.001 -0.084  0.002
  0.004  0.518  0.001 -0.001  0.001
  0.001  0.001  0.305 -0.000  0.002
 -0.084 -0.001 -0.000  0.668 -0.001
  0.002  0.001  0.002 -0.001  0.302
atom   17   Tr[ns(na)] =   5.07413
    eigenvalues:
  0.293  0.320  0.560  0.589  0.775
    eigenvectors:
  0.003  0.000  0.000  0.997  0.000
  0.996  0.000  0.000  0.003  0.001
  0.000  1.000  0.000  0.000  0.000
  0.001  0.000  0.000  0.000  0.999
  0.000  0.000  1.000  0.000  0.000
    occupations:
  0.589  0.016  0.000  0.002 -0.000
  0.016  0.294 -0.000 -0.015 -0.000
  0.000 -0.000  0.320 -0.000  0.002
  0.002 -0.015 -0.000  0.775  0.000
 -0.000 -0.000  0.002  0.000  0.560
atom   22   Tr[ns(na)] =   5.22251
    eigenvalues:
  0.396  0.452  0.475  0.643  0.645
    eigenvectors:
  0.000  0.870  0.000  0.122  0.007
  0.000  0.000  0.000  0.061  0.939
  1.000  0.000  0.000  0.000  0.000
  0.000  0.129  0.000  0.818  0.053
  0.000  0.000  1.000  0.000  0.000
    occupations:
  0.477 -0.000 -0.000  0.064 -0.000
 -0.000  0.645 -0.000  0.001  0.000
 -0.000 -0.000  0.397  0.002 -0.000
  0.064  0.001  0.002  0.619  0.000
 -0.000  0.000 -0.000  0.000  0.475
atom   23   Tr[ns(na)] =   5.14146
    eigenvalues:
  0.289  0.450  0.569  0.612  0.650
    eigenvectors:
  0.000  0.000  0.000  0.873  0.127
  0.000  0.997  0.003  0.000  0.000
  1.000  0.000  0.000  0.000  0.000
  0.000  0.000  0.000  0.127  0.872
  0.000  0.003  0.997  0.000  0.000
    occupations:
  0.617 -0.000  0.005  0.013 -0.000
 -0.000  0.451 -0.000 -0.000 -0.007
  0.005 -0.000  0.289  0.006  0.000
  0.013 -0.000  0.006  0.645 -0.000
 -0.000 -0.007  0.000 -0.000  0.569
N of occupied +U levels =  40.7981625
 --- exit write_ns ---

     Threshold (ethr) on eigenvalues was too large:
     Diagonalizing with lowered threshold

     Davidson diagonalization with overlap
     ethr =  9.26E-09,  avg # of iterations =  2.3

[...]

     total energy              =   -1590.18121468 Ry
     Harris-Foulkes estimate   =   -1590.18121468 Ry
     estimated scf accuracy    <       0.00000002 Ry

     iteration # 10     ecut=    40.00 Ry     beta=0.70
     Davidson diagonalization with overlap
     ethr =  6.99E-12,  avg # of iterations =  1.0

     negative rho (up, down):  0.343E-02 0.000E+00

     End of self-consistent calculation
 --- enter write_ns ---
 LDA+U parameters:
U( 2)     =  8.00000000
alpha( 2) =  0.00000000
atom    3   Tr[ns(na)] =   5.04940
    eigenvalues:
  0.302  0.306  0.518  0.610  0.790
    eigenvectors:
  0.000  0.000  0.000  0.324  0.676
  0.000  0.000  1.000  0.000  0.000
  0.138  0.862  0.000  0.000  0.000
  0.000  0.000  0.000  0.676  0.324
  0.862  0.138  0.000  0.000  0.000
    occupations:
  0.731 -0.004  0.001 -0.084 -0.002
 -0.004  0.518 -0.001  0.001  0.001
  0.001 -0.001  0.305 -0.000 -0.001
 -0.084  0.001 -0.000  0.668  0.001
 -0.002  0.001 -0.001  0.001  0.302
atom    4   Tr[ns(na)] =   5.07960
    eigenvalues:
  0.292  0.322  0.560  0.589  0.778
    eigenvectors:
  0.003  0.000  0.000  0.997  0.000
  0.996  0.000  0.000  0.003  0.001
  0.000  1.000  0.000  0.000  0.000
  0.001  0.000  0.000  0.000  0.999
  0.000  0.000  1.000  0.000  0.000
    occupations:
  0.588  0.016  0.000  0.002 -0.000
  0.016  0.293 -0.001 -0.015 -0.000
  0.000 -0.001  0.322  0.000  0.002
  0.002 -0.015  0.000  0.777  0.000
 -0.000 -0.000  0.002  0.000  0.560
atom    9   Tr[ns(na)] =   5.22258
    eigenvalues:
  0.397  0.452  0.475  0.643  0.645
    eigenvectors:
  0.000  0.870  0.000  0.122  0.007
  0.000  0.000  0.000  0.057  0.943
  1.000  0.000  0.000  0.000  0.000
  0.000  0.129  0.000  0.821  0.050
  0.000  0.000  1.000  0.000  0.000
    occupations:
  0.477  0.000 -0.000  0.064  0.000
  0.000  0.645  0.000 -0.001  0.000
 -0.000  0.000  0.397  0.002  0.000
  0.064 -0.001  0.002  0.619 -0.000
  0.000  0.000  0.000 -0.000  0.475
atom   10   Tr[ns(na)] =   4.95987
    eigenvalues:
  0.287  0.302  0.502  0.539  0.850
    eigenvectors:
  0.000  0.000  1.000  0.000  0.000
  0.000  1.000  0.000  0.000  0.000
  1.000  0.000  0.000  0.000  0.000
  0.000  0.000  0.000  0.000  1.000
  0.000  0.000  0.000  1.000  0.000
    occupations:
  0.502  0.000  0.000  0.003 -0.000
  0.000  0.302 -0.000  0.001  0.001
  0.000 -0.000  0.287 -0.003 -0.000
  0.003  0.001 -0.003  0.850 -0.000
 -0.000  0.001 -0.000 -0.000  0.539
atom   16   Tr[ns(na)] =   5.04945
    eigenvalues:
  0.301  0.306  0.518  0.610  0.790
    eigenvectors:
  0.000  0.000  0.000  0.324  0.676
  0.000  0.000  1.000  0.000  0.000
  0.202  0.798  0.000  0.000  0.000
  0.000  0.000  0.000  0.676  0.324
  0.798  0.202  0.000  0.000  0.000
    occupations:
  0.731  0.004  0.001 -0.084  0.002
  0.004  0.518  0.001 -0.001  0.001
  0.001  0.001  0.305 -0.000  0.002
 -0.084 -0.001 -0.000  0.668 -0.001
  0.002  0.001  0.002 -0.001  0.302
atom   17   Tr[ns(na)] =   5.07436
    eigenvalues:
  0.293  0.320  0.560  0.589  0.775
    eigenvectors:
  0.003  0.000  0.000  0.997  0.000
  0.996  0.000  0.000  0.003  0.001
  0.000  1.000  0.000  0.000  0.000
  0.001  0.000  0.000  0.000  0.999
  0.000  0.000  1.000  0.000  0.000
    occupations:
  0.589  0.016  0.000  0.002 -0.000
  0.016  0.294 -0.000 -0.015 -0.000
  0.000 -0.000  0.320 -0.000  0.002
  0.002 -0.015 -0.000  0.775  0.000
 -0.000 -0.000  0.002  0.000  0.560
atom   22   Tr[ns(na)] =   5.22268
    eigenvalues:
  0.397  0.452  0.475  0.643  0.645
    eigenvectors:
  0.000  0.870  0.000  0.121  0.008
  0.000  0.000  0.000  0.063  0.937
  1.000  0.000  0.000  0.000  0.000
  0.000  0.129  0.000  0.816  0.055
  0.000  0.000  1.000  0.000  0.000
    occupations:
  0.477 -0.000 -0.000  0.064 -0.000
 -0.000  0.645 -0.000  0.001  0.000
 -0.000 -0.000  0.397  0.002 -0.000
  0.064  0.001  0.002  0.619  0.000
 -0.000  0.000 -0.000  0.000  0.475
atom   23   Tr[ns(na)] =   5.13994
    eigenvalues:
  0.289  0.450  0.569  0.612  0.650
    eigenvectors:
  0.000  0.000  0.000  0.869  0.131
  0.000  0.997  0.003  0.000  0.000
  1.000  0.000  0.000  0.000  0.000
  0.000  0.000  0.000  0.131  0.869
  0.000  0.003  0.997  0.000  0.000
    occupations:
  0.617 -0.000  0.005  0.013 -0.000
 -0.000  0.451 -0.000 -0.000 -0.007
  0.005 -0.000  0.289  0.005  0.000
  0.013 -0.000  0.005  0.645 -0.000
 -0.000 -0.007  0.000 -0.000  0.569
N of occupied +U levels =  40.7978635
 --- exit write_ns ---

[...]

          k = 0.2500-0.4237 0.0000 ( 32188 PWs)   bands (ev):

[...]

          k =-0.2500 0.2118 0.0000 ( 32165 PWs)   bands (ev):

   -56.5244 -56.4521 -55.8835 -55.8754 -55.8131 -55.6180 -55.5835 -55.5175
   -33.2158 -32.7591 -32.6120 -32.5657 -32.5525 -32.4814 -32.4681 -32.3340
   -32.2827 -32.1904 -32.1253 -32.0937 -32.0727 -32.0215 -31.8975 -31.8423
   -31.7155 -31.6067 -31.5456 -31.4163 -31.4068 -31.3319 -31.3121 -31.2648
   -22.5306 -20.0674 -19.9034 -19.3803 -19.2158 -18.9439 -18.8590 -18.8125
   -18.7015 -18.6757 -18.6552 -18.6227 -17.9785 -17.9463 -17.9386 -17.8861
   -17.7748 -17.7259 -17.6836 -16.1697  -8.9168  -8.2790  -7.7466  -7.4489
    -7.2982  -7.0995  -6.9225  -6.6965  -6.5273  -6.4460  -6.3640  -6.2243
    -6.1715  -6.0855  -5.8710  -5.8390  -5.7673  -5.5733  -5.3431  -5.3186
    -5.2952  -5.0098  -4.9799  -4.6679  -4.6283  -4.4204  -4.3763  -4.2546
    -4.2118  -4.1233  -4.0160  -3.9793  -3.9517  -3.8452  -3.8058  -3.7495
    -3.7240  -3.6067  -3.5720  -3.4823  -3.3429  -3.3146  -3.2532  -3.2212
    -3.1219  -3.0197  -2.9555  -2.8782  -2.8310  -2.8040  -2.7363  -2.5494
    -2.4748  -2.4629  -2.2608  -2.1515  -2.1400  -1.8551  -1.3208  -0.8023
    -0.4079  -0.2692   1.4396   1.6324   1.8144   1.8456   1.9355   1.9533
     2.2551   2.3112   2.4290   2.5340   2.7044   2.7483   2.8531   2.9215
     3.0596   3.0991   3.2116   3.2510   3.4253   3.4642   3.5803   3.7466
     4.0539   4.2536   4.3383   4.4504   4.6900   4.7506   4.8838   4.9008
     5.0448   5.1512   5.1755   5.2284   5.3414   5.6619   5.6951   5.7475
     5.8854   5.9901   6.0330   6.1438   6.3009   6.4096   6.4907   6.5842
     6.6817   6.7415   6.8067   6.9123   7.0172   7.2140   7.3019   7.4185
     7.4690   7.8426   7.8833   8.0192   8.0716   8.1578   8.2782   8.3551
     8.5206   8.6102   8.7239   8.8155   8.9646   8.9732   9.0877   9.2442
     9.3117   9.4163   9.4728   9.5831   9.7034   9.8433   9.8832   9.9631
    10.0592  10.1602  10.2452  10.3221  10.4252  10.4810  10.6206  10.7911
    10.8686  10.9815  11.0409  11.1551  11.1633  11.2255  11.2965  11.3885
    11.4700  11.5973  11.6105  11.6448  11.6856  11.8814  11.9229  12.0298
    12.1232  12.1987  12.2644  12.3456  12.4656  12.5325  12.5943  12.7084
    12.7418  12.7564  12.8425  12.9228  12.9720  12.9761  13.0623  13.1421
    13.1726  13.2931  13.4109  13.4390  13.5194  13.6144  13.6366  13.7124
    13.7937  13.8366  13.9031  14.0041  14.0545  14.0682  14.1429  14.2428
    14.3215  14.3842  14.4235  14.5074  14.6295  14.7205  14.7349  14.8748
    14.9477  15.0309  15.1564  15.2379  15.3168  15.3472  15.3933  15.4493
    15.4891  15.5496  15.5815  15.7454  15.7755  15.8171  15.8797  15.9048
    15.9955  16.0701  16.1240  16.2102  16.2680  16.3504  16.3862  16.4514
    16.5544  16.6451  16.7055  16.7389  16.7914  16.8783  16.9102  17.0402
    17.0693  17.1433  17.2016  17.2428  17.3331  17.3745  17.4933  17.5202
    17.5705  17.6315  17.7033  17.8428  17.8646  17.9431  17.9634  18.0566
    18.1289  18.2420  18.2696  18.3323  18.4175  18.5399  18.5843  18.6483
    18.6781  18.7592  18.8419  18.8906  18.9682  19.0042  19.0587  19.0972
    19.1967  19.2743  19.2935  19.3751  19.4348  19.4640  19.4864  19.5604
    19.6877  19.7495  19.7832  19.8187  19.8631  19.9123  19.9652  20.0209
    20.0706  20.1037  20.1759  20.2376  20.2859  20.3578  20.4055

     the Fermi energy is     0.9210 ev

!    total energy              =   -1590.18121468 Ry
     Harris-Foulkes estimate   =   -1590.18121468 Ry
     estimated scf accuracy    <          7.4E-09 Ry

     The total energy is the sum of the following terms:

     one-electron contribution =  -19226.13837848 Ry
     hartree contribution      =    9646.13472866 Ry
     xc contribution           =    -294.78827931 Ry
     ewald contribution        =    8279.36526346 Ry
     Hubbard energy            =       5.24550843 Ry
     smearing contrib. (-TS)   =      -0.00005745 Ry

     convergence has been achieved in  10 iterations

     Forces acting on atoms (Ry/au):

     negative rho (up, down):  0.343E-02 0.000E+00
     atom    1 type  1   force =    -0.00094075   -0.00036462   -0.00032918
     atom    2 type  1   force =    -0.00008685    0.00006856   -0.00013690
     atom    3 type  2   force =     0.02970427    0.00004355    0.00004958
     atom    4 type  2   force =     0.00049212   -0.00004558   -0.00023989
     atom    5 type  1   force =    -0.00109172   -0.02348472    0.00021010
     atom    6 type  1   force =    -0.00096774    0.02351451    0.00022857
     atom    7 type  1   force =    -0.00011556   -0.00071950   -0.00001759
     atom    8 type  1   force =     0.00020821    0.00155069    0.00030564
     atom    9 type  2   force =     0.00267019   -0.00168517    0.00021257
     atom   10 type  2   force =     0.00012546   -0.00008847    0.00003345
     atom   11 type  1   force =     0.00658103    0.01660259   -0.00051621
     atom   12 type  1   force =     0.01021521   -0.00904547   -0.00022014
     atom   13 type  1   force =     0.00004473   -0.00181912    0.00037408
     atom   14 type  1   force =    -0.00097916   -0.00002205   -0.00022238
     atom   15 type  1   force =    -0.00009524    0.00011545    0.00026062
     atom   16 type  2   force =    -0.02935843    0.00000346    0.00008291
     atom   17 type  2   force =     0.00036344   -0.00012970   -0.00033167
     atom   18 type  1   force =     0.00117234   -0.02348001    0.00020908
     atom   19 type  1   force =     0.00108466    0.02348822    0.00023536
     atom   20 type  1   force =    -0.00011493   -0.00228662   -0.00078646
     atom   21 type  1   force =     0.00013807    0.00128907    0.00013944
     atom   22 type  2   force =    -0.00255203   -0.00168334    0.00022004
     atom   23 type  2   force =    -0.00006691   -0.00379837   -0.00026440
     atom   24 type  1   force =    -0.00661457    0.01660354   -0.00053287
     atom   25 type  1   force =    -0.01024322   -0.00905927   -0.00023955
     atom   26 type  1   force =     0.00003063   -0.00512998    0.00039070
     atom   27 type  3   force =     0.00001269    0.00027677    0.00067416
     atom   28 type  3   force =     0.00000863   -0.00019676    0.00007505
     atom   29 type  3   force =     0.00019755    0.00006985    0.00010843
     atom   30 type  3   force =     0.00016282    0.00003387    0.00016627
     atom   31 type  1   force =     0.00001392    0.00072729    0.00071773
     atom   32 type  1   force =     0.00000209   -0.00062344   -0.00037372
     atom   33 type  3   force =    -0.00000099   -0.00072524   -0.00048282

     Total force =     0.002341     Total SCF correction =     0.000308
     SCF correction compared to forces is large: reduce conv_thr to get better values

     entering subroutine stress ...

     negative rho (up, down):  0.343E-02 0.000E+00
          total   stress  (Ry/bohr**3)                   (kbar)     P=    0.50
  -0.00000147   0.00000003   0.00000106         -0.22      0.00      0.16
   0.00000003   0.00004463  -0.00000218          0.00      6.57     -0.32
   0.00000106  -0.00000218  -0.00003306          0.16     -0.32     -4.86

     bfgs converged in  15 scf cycles and  14 bfgs steps
     (criteria: energy < 0.10E-03, force < 0.10E-02)

     End of BFGS Geometry Optimization

     Final energy   =   -1590.1812146799 Ry
Begin final coordinates

ATOMIC_POSITIONS (crystal)
O0       0.000000000   0.000000000   0.370043472    0   0   1
O0       0.000000000   0.500000000   0.387356868    0   0   1
Nb1      0.250000000   0.500000000   0.443229123    0   0   1
Nb1      0.000000000   0.000000000   0.443320264    0   0   1
O0       0.250000000   0.790000000   0.446949939    0   0   1
O0       0.250000000   0.210000000   0.446942987    0   0   1
O0       0.000000000   0.500000000   0.499170158    0   0   1
O0       0.000000000   0.000000000   0.525226393    0   0   1
Nb1      0.250000000   0.000000000   0.577951531    0   0   1
Nb1      0.000000000   0.500000000   0.569214615    0   0   1
O0       0.250000000   0.710000000   0.578475269    0   0   1
O0       0.250000000   0.290000000   0.579393511    0   0   1
O0       0.000000000   0.000000000   0.622529227    0   0   1
O0       0.500000000   0.000000000   0.370190026    0   0   1
O0       0.500000000   0.500000000   0.387493800    0   0   1
Nb1      0.750000000   0.500000000   0.443227134    0   0   1
Nb1      0.500000000   0.000000000   0.443488833    0   0   1
O0       0.750000000   0.790000000   0.446940330    0   0   1
O0       0.750000000   0.210000000   0.446947895    0   0   1
O0       0.500000000   0.500000000   0.501117444    0   0   1
O0       0.500000000   0.000000000   0.525308180    0   0   1
Nb1      0.750000000   0.000000000   0.577967676    0   0   1
Nb1      0.500000000   0.500000000   0.576212231    0   0   1
O0       0.750000000   0.710000000   0.578447976    0   0   1
O0       0.750000000   0.290000000   0.579366031    0   0   1
O0       0.500000000   0.000000000   0.622123241    0   0   1
H2      -0.000434082   0.505889861   0.351262747
H2       0.499582175   0.500634442   0.351370408
H2       0.152917078   0.000977554   0.355531658
H2       0.652800861   0.000686798   0.355619167
O0       0.500028640   0.518603901   0.650477336
O0       0.500000004   0.350098775   0.681945312
H2       0.499989561   0.414471574   0.714419218
End final coordinates

     General routines

     Parallel routines
     Hubbard U routines

   This run was terminated on:   1:58:47   2Jun2014

   JOB DONE.
Running PBS batch system epilogue script
Job id: 373374.audhumbla.fysik.dtu.dk
Username: zhonxu
Groupname: campgst
Jobname: NbO2/Eads-2-layers/OOH-U-8.0
Sessionid: 9462
Queuename: verylong
Accounting:
This job has allocated the following 16 nodes:
b057 b057 b057 b057 b057 b057 b057 b057 b003 b003 b003 b003 b003 b003 b003 b003
Finished epilogue job 373374.audhumbla.fysik.dtu.dk for zhonxu