     Program PWSCF v.5.0.2 (svn rev. 9656) starts on 23May2014 at 23:23:33

     Current dimensions of program PWSCF are:
     Max number of different atomic species (ntypx) = 10
     Max number of k-points (npk) =  40000
     Max angular momentum in pseudopotentials (lmaxx) =  3
     Reading input from pwscf.in
Warning: card &CELL ignored
Warning: card / ignored

     Subspace diagonalization in iterative solution of the eigenvalue problem:
     a serial algorithm will be used

     bravais-lattice index     =            0
     lattice parameter (alat)  =      10.9604  a.u.
     unit-cell volume          =    6350.6732 (a.u.)^3
     number of atoms/cell      =           33
     number of atomic types    =            3
     number of electrons       =       237.00 (up: 126.00, down: 111.00)
     number of Kohn-Sham states=          343
     kinetic-energy cutoff     =      40.0000  Ry
     charge density cutoff     =     500.0000  Ry
     convergence threshold     =      1.0E-06
     mixing beta               =       0.3000
     number of iterations used =            8  plain     mixing
     Exchange-correlation      = SLA  PW   PBE  PBE ( 1 4 3 4 0)
     EXX-fraction              =        0.00
     nstep                     =           50

     celldm(1)=  10.960412  celldm(2)=   0.000000  celldm(3)=   0.000000
     celldm(4)=   0.000000  celldm(5)=   0.000000  celldm(6)=   0.000000

     crystal axes: (cart. coord. in units of alat)
               a(1) = (   1.000000   0.000000   0.000000 )
               a(2) = (   0.000000   1.067975   0.000000 )
               a(3) = (   0.000000   0.000000   4.516251 )

     reciprocal axes: (cart. coord. in units 2 pi/alat)
               b(1) = (  1.000000  0.000000  0.000000 )
               b(2) = (  0.000000  0.936351  0.000000 )
               b(3) = (  0.000000  0.000000  0.221423 )

     PseudoPot. # 1 for O  read from file:
     /home/camp/zhonxu/pseudo/o_pbe_v1.01.uspp.F.UPF
     MD5 check sum: 2bcb18d16ea4b960afae9ec6d52f22d2
     Pseudo is Ultrasoft + core correction, Zval =  6.0
     Generated by new atomic code, or converted to UPF format
     Using radial grid of  737 points,  5 beta functions with:
                l(1) =   0
                l(2) =   0
                l(3) =   1
                l(4) =   1
                l(5) =   2
     Q(r) pseudized with  8 coefficients,  rinner =    0.900   0.900   0.900
                                                       0.900   0.900

     PseudoPot. # 2 for Cr read from file:
     /home/camp/zhonxu/pseudo/cr_pbe_v1.uspp.F.UPF
     MD5 check sum: 68b6f918d1762dccfb11451fe85b0e0e
     Pseudo is Ultrasoft + core correction, Zval = 14.0
     Generated by new atomic code, or converted to UPF format
     Using radial grid of  857 points,  6 beta functions with:
                l(1) =   0
                l(2) =   0
                l(3) =   1
                l(4) =   1
                l(5) =   2
                l(6) =   2
     Q(r) pseudized with  6 coefficients,  rinner =    1.000   1.000   1.000
                                                       1.000   1.000

     PseudoPot. # 3 for H  read from file:
     /home/camp/zhonxu/pseudo/h_pbe_v1.uspp.F.UPF
     MD5 check sum: 3408e3ff4ec8b0a4e358431e7e038a48
     Pseudo is Ultrasoft, Zval =  1.0
     Generated by new atomic code, or converted to UPF format
     Using radial grid of  615 points,  2 beta functions with:
                l(1) =   0
                l(2) =   0
     Q(r) pseudized with  8 coefficients,  rinner =    0.700

     atomic species   valence    mass     pseudopotential
        O0             6.00    15.99940     O ( 1.00)
        Cr1           14.00    51.99600     Cr( 1.00)
        H2             1.00     1.00794     H ( 1.00)

     Starting magnetic structure
     atomic species   magnetization
        O0           0.000
        Cr1          0.600
        H2           0.000

     No symmetry found

   Cartesian axes

     site n.     atom                  positions (alat units)
         1           O0  tau(   1) = (   0.0000000   0.0000000   1.7100333  )
         2           O0  tau(   2) = (   0.0000000   0.5339875   1.8058229  )
         3           Cr1 tau(   3) = (   0.2500000   0.5339875   2.0388163  )
         4           Cr1 tau(   4) = (   0.0000000   0.0000000   2.0304161  )
         5           O0  tau(   5) = (   0.2500000   0.8543801   2.0338033  )
         6           O0  tau(   6) = (   0.2500000   0.2135950   2.0343904  )
         7           O0  tau(   7) = (   0.0000000   0.5339875   2.2475574  )
         8           O0  tau(   8) = (   0.0000000   0.0000000   2.3615024  )
         9           Cr1 tau(   9) = (   0.2500000   0.0000000   2.5622498  )
        10           Cr1 tau(  10) = (   0.0000000   0.5339875   2.5509140  )
        11           O0  tau(  11) = (   0.2500000   0.7475825   2.5851020  )
        12           O0  tau(  12) = (   0.2500000   0.3203925   2.5943152  )
        13           O0  tau(  13) = (   0.0000000   0.0000000   2.7849461  )
        14           O0  tau(  14) = (   0.5000000   0.0000000   1.7106204  )
        15           O0  tau(  15) = (   0.5000000   0.5339875   1.8068165  )
        16           Cr1 tau(  16) = (   0.7500000   0.5339875   2.0392679  )
        17           Cr1 tau(  17) = (   0.5000000   0.0000000   2.0317258  )
        18           O0  tau(  18) = (   0.7500000   0.8543801   2.0334420  )
        19           O0  tau(  19) = (   0.7500000   0.2135950   2.0347065  )
        20           O0  tau(  20) = (   0.5000000   0.5339875   2.2521189  )
        21           O0  tau(  21) = (   0.5000000   0.0000000   2.3635348  )
        22           Cr1 tau(  22) = (   0.7500000   0.0000000   2.6259289  )
        23           Cr1 tau(  23) = (   0.5000000   0.5339875   2.6072317  )
        24           O0  tau(  24) = (   0.7500000   0.7475825   2.5890312  )
        25           O0  tau(  25) = (   0.7500000   0.3203925   2.5983346  )
        26           O0  tau(  26) = (   0.5000000   0.0000000   2.7808363  )
        27           H2  tau(  27) = (  -0.0004700   0.6857468   1.7261563  )
        28           H2  tau(  28) = (   0.4998400   0.6863662   1.7284144  )
        29           H2  tau(  29) = (   0.1550100   0.0326053   1.6463541  )
        30           H2  tau(  30) = (   0.6542500   0.0335985   1.6462638  )
        31           O0  tau(  31) = (   0.4998600   0.5745492   2.9237757  )
        32           O0  tau(  32) = (   0.5002200   0.3823351   3.0794057  )
        33           H2  tau(  33) = (   0.4998900   0.4651245   3.2288484  )

     number of k points=    20  Methfessel-Paxton smearing, width (Ry)=  0.0100
                       cart. coord. in units 2pi/alat
        k(    1) = (   0.0000000   0.0000000   0.0000000), wk =   0.0625000
        k(    2) = (   0.0000000   0.2340879   0.0000000), wk =   0.1250000
        k(    3) = (   0.0000000  -0.4681757   0.0000000), wk =   0.0625000
        k(    4) = (   0.2500000   0.0000000   0.0000000), wk =   0.1250000
        k(    5) = (   0.2500000   0.2340879   0.0000000), wk =   0.1250000
        k(    6) = (   0.2500000  -0.4681757   0.0000000), wk =   0.1250000
        k(    7) = (  -0.5000000   0.0000000   0.0000000), wk =   0.0625000
        k(    8) = (  -0.5000000   0.2340879   0.0000000), wk =   0.1250000
        k(    9) = (  -0.5000000  -0.4681757   0.0000000), wk =   0.0625000
        k(   10) = (  -0.2500000   0.2340879   0.0000000), wk =   0.1250000
        k(   11) = (   0.0000000   0.0000000   0.0000000), wk =   0.0625000
        k(   12) = (   0.0000000   0.2340879   0.0000000), wk =   0.1250000
        k(   13) = (   0.0000000  -0.4681757   0.0000000), wk =   0.0625000
        k(   14) = (   0.2500000   0.0000000   0.0000000), wk =   0.1250000
        k(   15) = (   0.2500000   0.2340879   0.0000000), wk =   0.1250000
        k(   16) = (   0.2500000  -0.4681757   0.0000000), wk =   0.1250000
        k(   17) = (  -0.5000000   0.0000000   0.0000000), wk =   0.0625000
        k(   18) = (  -0.5000000   0.2340879   0.0000000), wk =   0.1250000
        k(   19) = (  -0.5000000  -0.4681757   0.0000000), wk =   0.0625000
        k(   20) = (  -0.2500000   0.2340879   0.0000000), wk =   0.1250000

     Largest allocated arrays     est. size (Mb)     dimensions
     Largest temporary arrays     est. size (Mb)     dimensions

     Check: negative/imaginary core charge=   -0.000012    0.000000

     Initial potential from superposition of free atoms
     Check: negative starting charge=(component1):   -0.001314
     Check: negative starting charge=(component2):   -0.000455

     starting charge  228.99983, renormalised to  237.00000

     negative rho (up, down):  0.136E-02 0.471E-03
     Starting wfc are  165 randomized atomic wfcs

     Self-consistent Calculation

     iteration #  1     ecut=    40.00 Ry     beta=0.30
     Davidson diagonalization with overlap
     ethr =  1.00E-02,  avg # of iterations =  5.5

     negative rho (up, down):  0.162E-02 0.608E-03

     total energy              =   -2052.19634481 Ry
     Harris-Foulkes estimate   =   -2056.00750988 Ry
     estimated scf accuracy    <      18.44330584 Ry

     total magnetization       =    15.00 Bohr mag/cell
     absolute magnetization    =    31.26 Bohr mag/cell

[...]

     End of self-consistent calculation

 ------ SPIN UP ------------

          k = 0.0000 0.0000 0.0000 ( 27003 PWs)   bands (ev):

   -74.8775 -74.6130 -74.5030 -74.4680 -74.4467 -74.4434 -74.4313 -74.4263
   -46.2671 -46.1659 -46.1525 -46.1082 -45.9338 -45.8752 -45.8552 -45.8409
   -45.8335 -45.8311 -45.8273 -45.8264 -45.7736 -45.7618 -45.7445 -45.7402
   -45.7369 -45.7363 -45.7175 -45.7076 -45.7015 -45.6744 -45.6584 -45.6477
   -23.8690 -20.9008 -20.4183 -20.1275 -20.0078 -19.9279 -19.4221 -19.3935
   -19.3272 -19.2762 -19.1377 -19.1206 -19.0139 -18.9613 -18.8378 -18.8168
   -18.7587 -18.6432 -18.5279 -17.3080  -9.0692  -8.6894  -8.4914  -8.3747
    -8.1945  -8.0640  -7.5757  -7.5334  -7.4315  -7.3789  -7.3114  -7.2379
    -7.1943  -7.1571  -7.1084  -6.6934  -6.5595  -6.5476  -6.4799  -6.4690
    -6.4470  -6.3774  -6.2517  -6.0568  -5.9951  -5.8562  -5.6427  -5.5976
    -5.3795  -5.2903  -5.1709  -4.9289  -4.8884  -4.7691  -4.7092  -4.5953
    -4.4546  -4.4023  -4.3271  -4.2793  -4.2497  -4.1380  -3.9572  -3.8284
    -3.7904  -3.6853  -3.5627  -3.5490  -3.4768  -3.4113  -3.3414  -3.2289
    -3.1181  -3.1005  -2.9939  -2.8046  -2.6934  -2.4907  -2.4345  -2.1260
    -2.1073  -2.0737  -2.0058  -1.9511  -1.7465  -1.6952  -1.5828  -1.5611
    -1.5071  -1.4385  -1.2505  -1.2085  -1.0498  -1.0145  -0.9372  -0.7737
    -0.6319  -0.5864  -0.4709  -0.4061  -0.1545  -0.0351   0.1082   0.2207
     0.8891   1.1477   1.4011   1.7667   1.8389   1.9684   1.9922   2.1381
     2.2261   2.2952   2.6060   2.6331   2.7881   2.8351   2.8817   3.1965
     3.5557   3.7152   3.8848   4.3510   4.9403   5.5528   6.0162   6.4964
     6.8224   7.0332   7.2452   7.3170   7.4523   7.4832   7.5088   7.6275
     7.6361   7.7689   7.8901   8.0691   8.1585   8.2112   8.2961   8.5233
     8.6747   8.7430   8.8998   8.9702   9.0325   9.2576   9.3542   9.4577
[...]

     Total force =     0.020377     Total SCF correction =     0.002294
     SCF correction compared to forces is large: reduce conv_thr to get better values

     entering subroutine stress ...

     negative rho (up, down):  0.431E-02 0.162E-02
          total   stress  (Ry/bohr**3)                   (kbar)     P=    2.90
  -0.00000372  -0.00000135   0.00000393         -0.55     -0.20      0.58
  -0.00000135   0.00009366   0.00000269         -0.20     13.78      0.40
   0.00000393   0.00000269  -0.00003076          0.58      0.40     -4.53

     BFGS Geometry Optimization

     number of scf cycles    =   1
     number of bfgs steps    =   0

     energy   new            =   -2059.1126572496 Ry

     new trust radius        =       0.0091625337 bohr
     new conv_thr            =       0.0000010000 Ry

ATOMIC_POSITIONS (crystal)
O0       0.000000000   0.000000000   0.378564592    0   0   1
O0       0.000000000   0.500000000   0.399933992    0   0   1
Cr1      0.250000000   0.500000000   0.451476254    0   0   1
Cr1      0.000000000   0.000000000   0.449517107    0   0   1
O0       0.250000000   0.800000000   0.450300825    0   0   1
O0       0.250000000   0.200000000   0.450435719    0   0   1
O0       0.000000000   0.500000000   0.497638838    0   0   1
O0       0.000000000   0.000000000   0.522899843    0   0   1
Cr1      0.250000000   0.000000000   0.567329911    0   0   1
Cr1      0.000000000   0.500000000   0.564824978    0   0   1
O0       0.250000000   0.700000000   0.572428734    0   0   1
O0       0.250000000   0.300000000   0.574492328    0   0   1
O0       0.000000000   0.000000000   0.616683635    0   0   1
O0       0.500000000   0.000000000   0.378690432    0   0   1
O0       0.500000000   0.500000000   0.400098440    0   0   1
Cr1      0.750000000   0.500000000   0.451582125    0   0   1
Cr1      0.500000000   0.000000000   0.449783389    0   0   1
O0       0.750000000   0.800000000   0.450226861    0   0   1
O0       0.750000000   0.200000000   0.450501060    0   0   1
O0       0.500000000   0.500000000   0.498675243    0   0   1
O0       0.500000000   0.000000000   0.523193757    0   0   1
Cr1      0.750000000   0.000000000   0.581625102    0   0   1
Cr1      0.500000000   0.500000000   0.577325559    0   0   1
O0       0.750000000   0.700000000   0.573337503    0   0   1
O0       0.750000000   0.300000000   0.575412311    0   0   1
O0       0.500000000   0.000000000   0.615776312    0   0   1
H2      -0.000482196   0.641778267   0.382183169
H2       0.499838706   0.642480317   0.382675663
H2       0.155234095   0.030559708   0.364592071
H2       0.654530103   0.031494285   0.364571690
O0       0.499860000   0.538084787   0.647421728    0   1   1
O0       0.500220000   0.357729790   0.681822379    0   1   1
H2       0.499890000   0.435587133   0.714768451    0   1   1

     Check: negative starting charge=(component1):   -0.001691
     NEW-OLD atomic charge density approx. for the potential

     Check: negative/imaginary core charge=   -0.000012    0.000000
     Check: negative starting charge=(component1):   -0.001692

[...]

     Total force =     0.016854     Total SCF correction =     0.001294

[...]

     energy   old            =   -2059.1126572496 Ry
     energy   new            =   -2059.1130238620 Ry

     CASE: energy  _new < energy  _old

[...]

     Threshold (ethr) on eigenvalues was too large:
     Diagonalizing with lowered threshold

     Davidson diagonalization with overlap
     ethr =  4.21E-08,  avg # of iterations =  1.3

[...]

     number of scf cycles    =  20
     number of bfgs steps    =  19

     energy   old            =   -2059.1148773989 Ry
     energy   new            =   -2059.1149005650 Ry

     CASE: energy  _new < energy  _old

     new trust radius        =       0.0184079996 bohr
     new conv_thr            =       0.0000000100 Ry

ATOMIC_POSITIONS (crystal)
O0       0.000000000   0.000000000   0.377704038    0   0   1
O0       0.000000000   0.500000000   0.400795333    0   0   1
Cr1      0.250000000   0.500000000   0.451971240    0   0   1
Cr1      0.000000000   0.000000000   0.448682047    0   0   1
O0       0.250000000   0.800000000   0.449749476    0   0   1
O0       0.250000000   0.200000000   0.449912631    0   0   1
O0       0.000000000   0.500000000   0.498304541    0   0   1
O0       0.000000000   0.000000000   0.522942027    0   0   1
Cr1      0.250000000   0.000000000   0.566211291    0   0   1
Cr1      0.000000000   0.500000000   0.565632940    0   0   1
O0       0.250000000   0.700000000   0.573105028    0   0   1
O0       0.250000000   0.300000000   0.575396941    0   0   1
O0       0.000000000   0.000000000   0.617580342    0   0   1
O0       0.500000000   0.000000000   0.377577965    0   0   1
O0       0.500000000   0.500000000   0.400594512    0   0   1
Cr1      0.750000000   0.500000000   0.452130200    0   0   1
Cr1      0.500000000   0.000000000   0.448668843    0   0   1
O0       0.750000000   0.800000000   0.449719388    0   0   1
O0       0.750000000   0.200000000   0.449973030    0   0   1
O0       0.500000000   0.500000000   0.499134035    0   0   1
O0       0.500000000   0.000000000   0.522937200    0   0   1
Cr1      0.750000000   0.000000000   0.583042149    0   0   1
Cr1      0.500000000   0.500000000   0.577854906    0   0   1
O0       0.750000000   0.700000000   0.574473338    0   0   1
O0       0.750000000   0.300000000   0.576691619    0   0   1
O0       0.500000000   0.000000000   0.616456538    0   0   1
H2      -0.000657192   0.637538240   0.381473443
H2       0.499798365   0.639421625   0.381966792
H2       0.156827568   0.030795516   0.364532285
H2       0.656584202   0.031038067   0.364375080
O0       0.499860000   0.535142753   0.647755302    0   1   1
O0       0.500220000   0.347749644   0.679976105    0   1   1
H2       0.499890000   0.420853934   0.713469397    0   1   1

     Check: negative starting charge=(component1):   -0.001668
     NEW-OLD atomic charge density approx. for the potential

     Check: negative/imaginary core charge=   -0.000012    0.000000
     Check: negative starting charge=(component1):   -0.001668

[...]

     Self-consistent Calculation

[...]

     Threshold (ethr) on eigenvalues was too large:
     Diagonalizing with lowered threshold

     Davidson diagonalization with overlap
     ethr =  3.61E-08,  avg # of iterations =  1.4

[...]

     total energy              =   -2059.11491528 Ry
     Harris-Foulkes estimate   =   -2059.11491522 Ry
     estimated scf accuracy    <       0.00000011 Ry

[...]

     iteration # 16     ecut=    40.00 Ry     beta=0.30
     Davidson diagonalization with overlap
     ethr =  2.53E-11,  avg # of iterations =  1.0

     negative rho (up, down):  0.439E-02 0.162E-02

     End of self-consistent calculation

 ------ SPIN UP ------------

[...]

 ------ SPIN DOWN ----------

[...]

          k = 0.2500-0.4682 0.0000 ( 27150 PWs)   bands (ev):

[...]

          k =-0.2500 0.2341 0.0000 ( 27132 PWs)   bands (ev):

   -73.8357 -72.2258 -72.1843 -72.1592 -72.1521 -72.0734 -72.0615 -72.0239
   -45.4886 -45.1288 -44.9220 -43.9269 -43.7918 -43.7592 -43.7543 -43.7249
   -43.6780 -43.6398 -43.6218 -43.5279 -43.4830 -43.4489 -43.4031 -43.4015
   -43.3883 -43.3601 -43.3587 -43.2630 -43.2309 -43.2276 -43.2016 -43.1261
   -23.9633 -20.7110 -20.2221 -20.1679 -20.0466 -19.8945 -19.5581 -19.4755
   -19.4172 -19.3498 -19.2301 -19.1695 -19.0238 -19.0091 -18.9791 -18.8862
   -18.8245 -18.7584 -18.6412 -17.4195  -9.0049  -8.3267  -8.0456  -7.6887
    -7.6504  -7.5689  -7.4986  -7.1667  -7.1041  -7.0770  -6.9831  -6.9053
    -6.8691  -6.7149  -6.6141  -6.5136  -6.3845  -6.3550  -6.2483  -6.2042
    -6.0295  -5.9376  -5.8583  -5.8094  -5.7421  -5.5007  -5.3482  -5.2786
    -5.1948  -5.0701  -4.9149  -4.8516  -4.8081  -4.7506  -4.7246  -4.6495
    -4.5256  -4.4947  -4.3486  -4.3210  -4.1670  -4.0392  -3.9058  -3.8320
    -3.7240  -3.6021  -3.5782  -3.4873  -3.4272  -3.3729  -3.3109  -3.1708
    -3.0445  -2.9918  -2.8623  -2.7085  -2.5833  -2.3303  -1.9401  -0.3403
    -0.0590  -0.0407   0.2027   0.2311   0.3263   0.4086   0.4863   0.5226
     0.6116   0.6970   0.7021   0.8141   0.8976   0.9855   1.0350   1.0738
     1.1194   1.1617   1.2517   1.2907   1.3439   1.5237   1.5788   1.8488
     1.9161   2.2646   2.3449   2.5183   2.8342   3.0005   3.0491   3.1235
     3.2313   3.3177   3.4144   3.5004   3.5522   3.7756   3.9399   4.0015
     4.1456   4.2130   4.3747   4.8872   5.3889   5.5275   5.8404   6.0420
     6.2151   6.2847   6.3595   6.5413   6.8144   6.9361   7.1485   7.4963
     7.5701   7.7040   7.9270   8.0747   8.3320   8.3805   8.4864   8.6207
     8.7832   8.9232   9.1650   9.2438   9.4350   9.5153   9.5950   9.7700
     9.9175   9.9630  10.0527  10.1179  10.1760  10.3847  10.4744  10.4991
    10.6257  10.6937  10.8306  10.9343  11.0532  11.1640  11.2747  11.3269
    11.3907  11.5349  11.6582  11.7560  11.8351  11.9129  12.0530  12.0975
    12.1864  12.3323  12.3563  12.4064  12.4809  12.5598  12.7011  12.7332
    12.8621  12.8694  13.0143  13.0740  13.1893  13.2785  13.3494  13.4184
    13.4914  13.5388  13.6004  13.6895  13.7798  13.8443  13.9411  14.0084
    14.1203  14.1599  14.2466  14.2990  14.3413  14.4563  14.4775  14.5732
    14.7511  14.8197  14.8820  14.9752  15.0843  15.1364  15.2235  15.2743
    15.3854  15.4632  15.5708  15.6531  15.6946  15.7678  15.8571  15.9246
    15.9580  15.9915  16.0555  16.1390  16.2071  16.2368  16.3331  16.3855
    16.4574  16.5102  16.6037  16.7129  16.7866  16.8305  16.9067  16.9928
    17.0477  17.1174  17.1905  17.2430  17.3283  17.3660  17.4592  17.4754
    17.5448  17.5954  17.7286  17.7696  17.8060  17.8890  17.9447  18.0099
    18.0694  18.1698  18.2274  18.2929  18.3937  18.4676  18.5157  18.5753
    18.5966  18.6915  18.7701  18.8548  18.9148  18.9949  19.0155  19.0757
    19.1585  19.2909  19.3816  19.4235  19.4467  19.5178  19.5696  19.6642
    19.7056  19.7982  19.8502  19.9377  19.9924  20.1505  20.2067  20.2936
    20.3206  20.4028  20.5171  20.5776  20.6906  20.8208  20.8701  20.9456
    21.0290  21.1097  21.1609  21.2321  21.2837  21.3530  21.4103  21.5015
    21.5954  21.6826  21.8109  21.8507  21.9328  21.9725  22.0327

     the spin up/dw Fermi energies are    -0.8921   -1.8191 ev

!    total energy              =   -2059.11491536 Ry
     Harris-Foulkes estimate   =   -2059.11491528 Ry
     estimated scf accuracy    <          4.7E-09 Ry

     The total energy is the sum of the following terms:

     one-electron contribution =  -24604.77454781 Ry
     hartree contribution      =   12327.96177640 Ry
     xc contribution           =    -329.61515971 Ry
     ewald contribution        =   10547.31241170 Ry
     smearing contrib. (-TS)   =       0.00060406 Ry

     total magnetization       =    15.00 Bohr mag/cell
     absolute magnetization    =    17.54 Bohr mag/cell

     convergence has been achieved in  16 iterations

     Forces acting on atoms (Ry/au):

     negative rho (up, down):  0.439E-02 0.162E-02
     atom    1 type  1   force =    -0.00289069   -0.01258722   -0.00015085
     atom    2 type  1   force =    -0.00062810    0.00810425   -0.00019409
     atom    3 type  2   force =     0.04849595   -0.00453529   -0.00014950
     atom    4 type  2   force =    -0.00392439    0.00835030   -0.00003413
     atom    5 type  1   force =     0.00020324    0.01080010    0.00010703
     atom    6 type  1   force =    -0.00268649   -0.00791950    0.00014789
     atom    7 type  1   force =    -0.00018768   -0.00460632   -0.00059168
     atom    8 type  1   force =    -0.00673040    0.00277379    0.00062286
     atom    9 type  2   force =     0.00540386   -0.00235958   -0.00028997
     atom   10 type  2   force =     0.00608857    0.00294168   -0.00072433
     atom   11 type  1   force =    -0.02639956   -0.02786098    0.00004751
     atom   12 type  1   force =    -0.01839363    0.03449437   -0.00038670
     atom   13 type  1   force =    -0.04813749   -0.00333641   -0.00027676
     atom   14 type  1   force =    -0.00460922   -0.01282368    0.00001312
     atom   15 type  1   force =     0.00042418    0.00802516    0.00056258
     atom   16 type  2   force =    -0.05073182   -0.00395019   -0.00019571
     atom   17 type  2   force =     0.00477454    0.00790596    0.00018293
     atom   18 type  1   force =     0.00561194    0.00958847   -0.00000838
     atom   19 type  1   force =     0.00270252   -0.00767470    0.00017165
     atom   20 type  1   force =     0.00186132   -0.00352508    0.00080959
     atom   21 type  1   force =     0.00317115    0.00397489   -0.00082920
     atom   22 type  2   force =     0.01766266   -0.00560849   -0.00028350
     atom   23 type  2   force =    -0.00445345   -0.00412409    0.00014267
     atom   24 type  1   force =     0.02131332   -0.02105303    0.00051730
     atom   25 type  1   force =     0.01370128    0.03371718   -0.00001889
     atom   26 type  1   force =     0.03871521   -0.00858858    0.00066282
     atom   27 type  3   force =    -0.00000934    0.00011772    0.00001049
     atom   28 type  3   force =     0.00001636   -0.00024906    0.00021673
     atom   29 type  3   force =     0.00021335    0.00002125    0.00027342
     atom   30 type  3   force =     0.00010743    0.00007705    0.00038916
     atom   31 type  1   force =    -0.00072455   -0.00011565   -0.00071977
     atom   32 type  1   force =    -0.00020529    0.00068363   -0.00022098
     atom   33 type  3   force =     0.00024524   -0.00065797    0.00019671

     Total force =     0.002489     Total SCF correction =     0.000178

     entering subroutine stress ...

     negative rho (up, down):  0.439E-02 0.162E-02
          total   stress  (Ry/bohr**3)                   (kbar)     P=    2.17
  -0.00001200  -0.00000101   0.00000401         -1.76     -0.15      0.59
  -0.00000101   0.00009144   0.00000302         -0.15     13.45      0.44
   0.00000401   0.00000302  -0.00003529          0.59      0.44     -5.19

     bfgs converged in  21 scf cycles and  20 bfgs steps
     (criteria: energy < 0.10E-03, force < 0.10E-02)

     End of BFGS Geometry Optimization

     Final energy   =   -2059.1149153576 Ry
Begin final coordinates

ATOMIC_POSITIONS (crystal)
O0       0.000000000   0.000000000   0.377704038    0   0   1
O0       0.000000000   0.500000000   0.400795333    0   0   1
Cr1      0.250000000   0.500000000   0.451971240    0   0   1
Cr1      0.000000000   0.000000000   0.448682047    0   0   1
O0       0.250000000   0.800000000   0.449749476    0   0   1
O0       0.250000000   0.200000000   0.449912631    0   0   1
O0       0.000000000   0.500000000   0.498304541    0   0   1
O0       0.000000000   0.000000000   0.522942027    0   0   1
Cr1      0.250000000   0.000000000   0.566211291    0   0   1
Cr1      0.000000000   0.500000000   0.565632940    0   0   1
O0       0.250000000   0.700000000   0.573105028    0   0   1
O0       0.250000000   0.300000000   0.575396941    0   0   1
O0       0.000000000   0.000000000   0.617580342    0   0   1
O0       0.500000000   0.000000000   0.377577965    0   0   1
O0       0.500000000   0.500000000   0.400594512    0   0   1
Cr1      0.750000000   0.500000000   0.452130200    0   0   1
Cr1      0.500000000   0.000000000   0.448668843    0   0   1
O0       0.750000000   0.800000000   0.449719388    0   0   1
O0       0.750000000   0.200000000   0.449973030    0   0   1
O0       0.500000000   0.500000000   0.499134035    0   0   1
O0       0.500000000   0.000000000   0.522937200    0   0   1
Cr1      0.750000000   0.000000000   0.583042149    0   0   1
Cr1      0.500000000   0.500000000   0.577854906    0   0   1
O0       0.750000000   0.700000000   0.574473338    0   0   1
O0       0.750000000   0.300000000   0.576691619    0   0   1
O0       0.500000000   0.000000000   0.616456538    0   0   1
H2      -0.000657192   0.637538240   0.381473443
H2       0.499798365   0.639421625   0.381966792
H2       0.156827568   0.030795516   0.364532285
H2       0.656584202   0.031038067   0.364375080
O0       0.499860000   0.535142753   0.647755302    0   1   1
O0       0.500220000   0.347749644   0.679976105    0   1   1
H2       0.499890000   0.420853934   0.713469397    0   1   1
End final coordinates

     General routines

     Parallel routines

   This run was terminated on:   4:51:45  25May2014

   JOB DONE.
Running PBS batch system epilogue script
Job id: 366606.audhumbla.fysik.dtu.dk
Username: zhonxu
Groupname: campgst
Jobname: CrO2/Eads-2-layers/OOH-relax-surf
Sessionid: 23095
Queuename: verylong
Accounting:
This job has allocated the following 16 nodes:
a047 a047 a047 a047 a047 a047 a047 a047 a036 a036 a036 a036 a036 a036 a036 a036
Finished epilogue job 366606.audhumbla.fysik.dtu.dk for zhonxu