     Program PWSCF v.5.0.2 (svn rev. 9656) starts on  1May2014 at  7:29:21

     Current dimensions of program PWSCF are:
     Max number of different atomic species (ntypx) = 10
     Max number of k-points (npk) =  40000
     Max angular momentum in pseudopotentials (lmaxx) =  3
     Reading input from pwscf.in
Warning: card &CELL ignored
Warning: card / ignored

     Subspace diagonalization in iterative solution of the eigenvalue problem:
     a serial algorithm will be used

     bravais-lattice index     =            0
     lattice parameter (alat)  =      10.1289  a.u.
     unit-cell volume          =    6836.7721 (a.u.)^3
     number of atoms/cell      =           32
     number of atomic types    =            3
     number of electrons       =       239.00
     number of Kohn-Sham states=          358
     kinetic-energy cutoff     =      40.0000  Ry
     charge density cutoff     =     500.0000  Ry
     convergence threshold     =      1.0E-06
     mixing beta               =       0.7000
     number of iterations used =            8  plain     mixing
     Exchange-correlation      = SLA  PW   PBE  PBE ( 1 4 3 4 0)
     EXX-fraction              =        0.00
     nstep                     =           50

     celldm(1)=  10.128932  celldm(2)=   0.000000  celldm(3)=   0.000000
     celldm(4)=   0.000000  celldm(5)=   0.000000  celldm(6)=   0.000000

     crystal axes: (cart. coord. in units of alat)
               a(1) = (   1.000000   0.000000   0.000000 )
               a(2) = (   0.000000   1.306037   0.000000 )
               a(3) = (   0.000000   0.000000   5.037380 )

     reciprocal axes: (cart. coord. in units 2 pi/alat)
               b(1) = (  1.000000  0.000000  0.000000 )
               b(2) = (  0.000000  0.765675  0.000000 )
               b(3) = (  0.000000  0.000000  0.198516 )

     PseudoPot. # 1 for O  read from file:
     /home/camp/zhonxu/pseudo/o_pbe_v1.01.uspp.F.UPF
     MD5 check sum: 2bcb18d16ea4b960afae9ec6d52f22d2
     Pseudo is Ultrasoft + core correction, Zval =  6.0
     Generated by new atomic code, or converted to UPF format
     Using radial grid of  737 points,  5 beta functions with:
                l(1) =   0
                l(2) =   0
                l(3) =   1
                l(4) =   1
                l(5) =   2
     Q(r) pseudized with  8 coefficients,  rinner =    0.900   0.900   0.900
                                                       0.900   0.900

     PseudoPot. # 2 for Re read from file:
     /home/camp/zhonxu/pseudo/re_pbe_v1.uspp.F.UPF
     MD5 check sum: 6f5a5dcaf9c96c20d0ffdde0de57afc6
     Pseudo is Ultrasoft + core correction, Zval = 15.0
     Generated by new atomic code, or converted to UPF format
     Using radial grid of  981 points,  8 beta functions with:
                l(1) =   0
                l(2) =   0
                l(3) =   1
                l(4) =   1
                l(5) =   2
                l(6) =   2
                l(7) =   3
                l(8) =   3
     Q(r) pseudized with  8 coefficients,  rinner =    1.000   1.000   1.000
                                                       1.000   1.000   1.000
                                                       1.000

     PseudoPot. # 3 for H  read from file:
     /home/camp/zhonxu/pseudo/h_pbe_v1.uspp.F.UPF
     MD5 check sum: 3408e3ff4ec8b0a4e358431e7e038a48
     Pseudo is Ultrasoft, Zval =  1.0
     Generated by new atomic code, or converted to UPF format
     Using radial grid of  615 points,  2 beta functions with:
                l(1) =   0
                l(2) =   0
     Q(r) pseudized with  8 coefficients,  rinner =    0.700

     atomic species   valence    mass     pseudopotential
        O0             6.00    15.99940     O ( 1.00)
        Re1           15.00   186.20700     Re( 1.00)
        H2             1.00     1.00794     H ( 1.00)

     Simplified LDA+U calculation (l_max = 2) with parameters (eV):
     atomic species    L          U    alpha       J0     beta
        Re1            2     2.0000   0.0000   0.0000   0.0000

     No symmetry found

   Cartesian axes

     site n.     atom                  positions (alat units)
         1           O0  tau(   1) = (   0.0000000   0.0000000   1.8669538  )
         2           O0  tau(   2) = (   0.0000000   0.6530184   1.9246318  )
         3           Re1 tau(   3) = (   0.2500000   0.6530184   2.2252626  )
         4           Re1 tau(   4) = (   0.0000000   0.0000000   2.2335239  )
         5           O0  tau(   5) = (   0.2500000   1.0187087   2.2252626  )
         6           O0  tau(   6) = (   0.2500000   0.2873281   2.2245574  )
         7           O0  tau(   7) = (   0.0000000   0.6530184   2.5039809  )
         8           O0  tau(   8) = (   0.0000000   0.0000000   2.5944019  )
         9           Re1 tau(   9) = (   0.2500000   0.0000000   2.8956372  )
        10           Re1 tau(  10) = (   0.0000000   0.6530184   2.8532728  )
        11           O0  tau(  11) = (   0.2500000   0.9403465   2.8863684  )
        12           O0  tau(  12) = (   0.2500000   0.3656903   2.8866706  )
        13           O0  tau(  13) = (   0.0000000   0.0000000   3.1589410  )
        14           O0  tau(  14) = (   0.5000000   0.0000000   1.8671553  )
        15           O0  tau(  15) = (   0.5000000   0.6530184   1.9260926  )
        16           Re1 tau(  16) = (   0.7500000   0.6530184   2.2254138  )
        17           Re1 tau(  17) = (   0.5000000   0.0000000   2.2327683  )
        18           O0  tau(  18) = (   0.7500000   1.0187087   2.2250108  )
        19           O0  tau(  19) = (   0.7500000   0.2873281   2.2249100  )
        20           O0  tau(  20) = (   0.5000000   0.6530184   2.5136527  )
        21           O0  tau(  21) = (   0.5000000   0.0000000   2.5937470  )
        22           Re1 tau(  22) = (   0.7500000   0.0000000   2.8949319  )
        23           Re1 tau(  23) = (   0.5000000   0.6530184   2.8846557  )
        24           O0  tau(  24) = (   0.7500000   0.9403465   2.8822881  )
        25           O0  tau(  25) = (   0.7500000   0.3656903   2.8822881  )
        26           O0  tau(  26) = (   0.5000000   0.0000000   3.1556667  )
        27           H2  tau(  27) = (  -0.0003600   0.8163644   1.8395505  )
        28           H2  tau(  28) = (   0.4996200   0.8138568   1.8363769  )
        29           H2  tau(  29) = (   0.1695000   0.0302217   1.7958260  )
        30           H2  tau(  30) = (   0.6704500   0.0285761   1.7967327  )
        31           O0  tau(  31) = (   0.5277600   0.6525874   3.2436194  )
        32           H2  tau(  32) = (   0.3788200   0.6519344   3.3501096  )

     number of k points=    10  Methfessel-Paxton smearing, width (Ry)=  0.0100
                       cart. coord. in units 2pi/alat
        k(    1) = (   0.0000000   0.0000000   0.0000000), wk =   0.1250000
        k(    2) = (   0.0000000   0.1914188   0.0000000), wk =   0.2500000
        k(    3) = (   0.0000000  -0.3828376   0.0000000), wk =   0.1250000
        k(    4) = (   0.2500000   0.0000000   0.0000000), wk =   0.2500000
        k(    5) = (   0.2500000   0.1914188   0.0000000), wk =   0.2500000
        k(    6) = (   0.2500000  -0.3828376   0.0000000), wk =   0.2500000
        k(    7) = (  -0.5000000   0.0000000   0.0000000), wk =   0.1250000
        k(    8) = (  -0.5000000   0.1914188   0.0000000), wk =   0.2500000
        k(    9) = (  -0.5000000  -0.3828376   0.0000000), wk =   0.1250000
        k(   10) = (  -0.2500000   0.1914188   0.0000000), wk =   0.2500000

     Largest allocated arrays     est. size (Mb)     dimensions
     Largest temporary arrays     est. size (Mb)     dimensions

     Check: negative/imaginary core charge=   -0.000003    0.000000

     Initial potential from superposition of free atoms
     Check: negative starting charge=   -0.237247

     starting charge  234.99957, renormalised to  239.00000

     negative rho (up, down):  0.241E+00 0.000E+00
     Number of +U iterations with fixed ns =  0
     Starting occupations:
 --- enter write_ns ---
 LDA+U parameters:
U( 2)     =  2.00000000
alpha( 2) =  0.00000000
atom    3   Tr[ns(na)] =   5.00000
    eigenvalues:
  0.500  0.500  0.500  0.500  0.500
    eigenvectors:
  1.000  0.000  0.000  0.000  0.000
  0.000  1.000  0.000  0.000  0.000
  0.000  0.000  1.000  0.000  0.000
  0.000  0.000  0.000  1.000  0.000
  0.000  0.000  0.000  0.000  1.000
    occupations:
  0.500  0.000  0.000  0.000  0.000
  0.000  0.500  0.000  0.000  0.000
  0.000  0.000  0.500  0.000  0.000
  0.000  0.000  0.000  0.500  0.000
  0.000  0.000  0.000  0.000  0.500
atom    4   Tr[ns(na)] =   5.00000
    eigenvalues:
  0.500  0.500  0.500  0.500  0.500
    eigenvectors:
  1.000  0.000  0.000  0.000  0.000
  0.000  1.000  0.000  0.000  0.000
  0.000  0.000  1.000  0.000  0.000
  0.000  0.000  0.000  1.000  0.000
  0.000  0.000  0.000  0.000  1.000
    occupations:
  0.500  0.000  0.000  0.000  0.000
  0.000  0.500  0.000  0.000  0.000
  0.000  0.000  0.500  0.000  0.000
  0.000  0.000  0.000  0.500  0.000
  0.000  0.000  0.000  0.000  0.500
atom    9   Tr[ns(na)] =   5.00000
    eigenvalues:
  0.500  0.500  0.500  0.500  0.500
    eigenvectors:
  1.000  0.000  0.000  0.000  0.000
  0.000  1.000  0.000  0.000  0.000
  0.000  0.000  1.000  0.000  0.000
  0.000  0.000  0.000  1.000  0.000
  0.000  0.000  0.000  0.000  1.000
    occupations:
  0.500  0.000  0.000  0.000  0.000
  0.000  0.500  0.000  0.000  0.000
  0.000  0.000  0.500  0.000  0.000
  0.000  0.000  0.000  0.500  0.000
  0.000  0.000  0.000  0.000  0.500
atom   10   Tr[ns(na)] =   5.00000
    eigenvalues:
  0.500  0.500  0.500  0.500  0.500
    eigenvectors:
  1.000  0.000  0.000  0.000  0.000
  0.000  1.000  0.000  0.000  0.000
  0.000  0.000  1.000  0.000  0.000
  0.000  0.000  0.000  1.000  0.000
  0.000  0.000  0.000  0.000  1.000
    occupations:
  0.500  0.000  0.000  0.000  0.000
  0.000  0.500  0.000  0.000  0.000
  0.000  0.000  0.500  0.000  0.000
  0.000  0.000  0.000  0.500  0.000
  0.000  0.000  0.000  0.000  0.500
atom   16   Tr[ns(na)] =   5.00000
    eigenvalues:
  0.500  0.500  0.500  0.500  0.500
    eigenvectors:
  1.000  0.000  0.000  0.000  0.000
  0.000  1.000  0.000  0.000  0.000
  0.000  0.000  1.000  0.000  0.000
  0.000  0.000  0.000  1.000  0.000
  0.000  0.000  0.000  0.000  1.000
    occupations:
  0.500  0.000  0.000  0.000  0.000
  0.000  0.500  0.000  0.000  0.000
  0.000  0.000  0.500  0.000  0.000
  0.000  0.000  0.000  0.500  0.000
  0.000  0.000  0.000  0.000  0.500
atom   17   Tr[ns(na)] =   5.00000
    eigenvalues:
  0.500  0.500  0.500  0.500  0.500
    eigenvectors:
  1.000  0.000  0.000  0.000  0.000
  0.000  1.000  0.000  0.000  0.000
  0.000  0.000  1.000  0.000  0.000
  0.000  0.000  0.000  1.000  0.000
  0.000  0.000  0.000  0.000  1.000
    occupations:
  0.500  0.000  0.000  0.000  0.000
  0.000  0.500  0.000  0.000  0.000
  0.000  0.000  0.500  0.000  0.000
  0.000  0.000  0.000  0.500  0.000
  0.000  0.000  0.000  0.000  0.500
atom   22   Tr[ns(na)] =   5.00000
    eigenvalues:
  0.500  0.500  0.500  0.500  0.500
    eigenvectors:
  1.000  0.000  0.000  0.000  0.000
[...]
  0.736  0.000  0.000  0.000  0.264
  0.000  0.000  0.009  0.990  0.001
    occupations:
  0.706 -0.000 -0.001 -0.068  0.001
 -0.000  0.605  0.000  0.001  0.000
 -0.001  0.000  0.616  0.000 -0.009
 -0.068  0.001  0.000  0.634 -0.001
  0.001  0.000 -0.009 -0.001  0.704
atom   10   Tr[ns(na)] =   6.49986
    eigenvalues:
  0.492  0.538  0.655  0.753  0.812
    eigenvectors:
  0.997  0.000  0.000  0.003  0.000
  0.000  0.000  0.000  0.000  0.999
  0.000  0.000  1.000  0.000  0.000
  0.003  0.000  0.000  0.997  0.000
  0.000  1.000  0.000  0.000  0.000
    occupations:
  0.493 -0.007  0.000 -0.014 -0.000
 -0.007  0.812  0.000 -0.001  0.001
  0.000  0.000  0.655 -0.000  0.001
 -0.014 -0.001 -0.000  0.752 -0.000
 -0.000  0.001  0.001 -0.000  0.538
atom   16   Tr[ns(na)] =   6.56165
    eigenvalues:
  0.540  0.569  0.640  0.762  0.769
    eigenvectors:
  0.000  0.367  0.005  0.623  0.004
  0.998  0.000  0.000  0.000  0.001
  0.000  0.000  0.989  0.010  0.000
  0.000  0.633  0.005  0.360  0.002
  0.001  0.000  0.000  0.007  0.992
    occupations:
  0.690  0.003  0.010 -0.092 -0.001
  0.003  0.540 -0.000 -0.002 -0.008
  0.010 -0.000  0.641 -0.007  0.002
 -0.092 -0.002 -0.007  0.639  0.000
 -0.001 -0.008  0.002  0.000  0.769
atom   17   Tr[ns(na)] =   6.52337
    eigenvalues:
  0.566  0.606  0.611  0.701  0.777
    eigenvectors:
  0.000  0.982  0.002  0.001  0.015
  0.000  0.001  0.005  0.995  0.000
  0.000  0.002  0.993  0.005  0.000
  0.000  0.015  0.000  0.000  0.985
  1.000  0.000  0.000  0.000  0.000
    occupations:
  0.609  0.003  0.000 -0.021  0.000
  0.003  0.701  0.006 -0.000 -0.001
  0.000  0.006  0.612  0.001 -0.000
 -0.021 -0.000  0.001  0.775 -0.000
  0.000 -0.001 -0.000 -0.000  0.566
atom   22   Tr[ns(na)] =   6.52768
    eigenvalues:
  0.593  0.604  0.612  0.705  0.749
    eigenvectors:
  0.265  0.000  0.000  0.002  0.733
  0.000  0.999  0.001  0.000  0.000
  0.000  0.001  0.994  0.005  0.000
  0.735  0.000  0.000  0.001  0.265
  0.000  0.000  0.005  0.992  0.002
    occupations:
  0.708  0.001 -0.001 -0.069  0.002
  0.001  0.604  0.000 -0.000  0.000
 -0.001  0.000  0.613  0.000  0.007
 -0.069 -0.000  0.000  0.634 -0.001
  0.002  0.000  0.007 -0.001  0.704
atom   23   Tr[ns(na)] =   6.52657
    eigenvalues:
  0.553  0.556  0.595  0.776  0.782
    eigenvectors:
  0.000  0.000  0.993  0.002  0.005
  0.000  0.000  0.001  0.978  0.020
  0.877  0.123  0.000  0.000  0.000
  0.000  0.000  0.006  0.020  0.974
  0.123  0.877  0.000  0.000  0.000
    occupations:
  0.597  0.006 -0.001 -0.014  0.000
  0.006  0.776  0.000  0.001  0.001
 -0.001  0.000  0.554  0.001 -0.001
 -0.014  0.001  0.001  0.781 -0.000
  0.000  0.001 -0.001 -0.000  0.556
N of occupied +U levels =  52.2603686
 --- exit write_ns ---

     Threshold (ethr) on eigenvalues was too large:
     Diagonalizing with lowered threshold

     Davidson diagonalization with overlap
     ethr =  5.37E-09,  avg # of iterations =  2.0

[...]

     total energy              =   -2175.26497391 Ry
     Harris-Foulkes estimate   =   -2175.26497391 Ry
     estimated scf accuracy    <       0.00000001 Ry

     iteration # 16     ecut=    40.00 Ry     beta=0.70
     Davidson diagonalization with overlap
     ethr =  6.21E-12,  avg # of iterations =  1.0

     negative rho (up, down):  0.244E+00 0.000E+00

     End of self-consistent calculation
 --- enter write_ns ---
 LDA+U parameters:
U( 2)     =  2.00000000
alpha( 2) =  0.00000000
atom    3   Tr[ns(na)] =   6.55989
    eigenvalues:
  0.541  0.569  0.638  0.762  0.770
    eigenvectors:
  0.000  0.366  0.006  0.624  0.004
  0.998  0.000  0.000  0.000  0.001
  0.000  0.000  0.989  0.010  0.000
  0.000  0.634  0.005  0.359  0.002
  0.001  0.000  0.000  0.006  0.993
    occupations:
  0.691 -0.003  0.010 -0.092  0.000
 -0.003  0.541  0.001  0.002 -0.008
  0.010  0.001  0.639 -0.007 -0.002
 -0.092  0.002 -0.007  0.639 -0.000
  0.000 -0.008 -0.002 -0.000  0.770
atom    4   Tr[ns(na)] =   6.53036
    eigenvalues:
  0.565  0.603  0.621  0.704  0.773
    eigenvectors:
  0.000  0.983  0.000  0.001  0.016
  0.000  0.001  0.006  0.993  0.000
  0.000  0.000  0.993  0.006  0.000
  0.000  0.016  0.000  0.000  0.984
  1.000  0.000  0.000  0.000  0.000
    occupations:
  0.606  0.003  0.000 -0.021  0.000
  0.003  0.703  0.007 -0.000 -0.001
  0.000  0.007  0.621  0.001 -0.000
 -0.021 -0.000  0.001  0.770 -0.000
  0.000 -0.001 -0.000 -0.000  0.565
atom    9   Tr[ns(na)] =   6.53086
    eigenvalues:
  0.593  0.605  0.615  0.705  0.747
    eigenvectors:
  0.264  0.000  0.000  0.000  0.735
  0.000  1.000  0.000  0.000  0.000
  0.000  0.000  0.991  0.009  0.000
  0.736  0.000  0.000  0.000  0.264
  0.000  0.000  0.009  0.990  0.001
    occupations:
  0.706 -0.000 -0.001 -0.068  0.001
 -0.000  0.605  0.000  0.001  0.000
 -0.001  0.000  0.616  0.000 -0.009
 -0.068  0.001  0.000  0.634 -0.001
  0.001  0.000 -0.009 -0.001  0.704
atom   10   Tr[ns(na)] =   6.49946
    eigenvalues:
  0.492  0.538  0.655  0.753  0.812
    eigenvectors:
  0.997  0.000  0.000  0.003  0.000
  0.000  0.000  0.000  0.000  0.999
  0.000  0.000  1.000  0.000  0.000
  0.003  0.000  0.000  0.997  0.000
  0.000  1.000  0.000  0.000  0.000
    occupations:
  0.493 -0.007  0.000 -0.014 -0.000
 -0.007  0.812  0.000 -0.001  0.001
  0.000  0.000  0.655 -0.000  0.001
 -0.014 -0.001 -0.000  0.752 -0.000
 -0.000  0.001  0.001 -0.000  0.538
atom   16   Tr[ns(na)] =   6.56065
    eigenvalues:
  0.540  0.569  0.640  0.762  0.769
    eigenvectors:
  0.000  0.367  0.005  0.623  0.004
  0.998  0.000  0.000  0.000  0.001
  0.000  0.000  0.989  0.010  0.000
  0.000  0.633  0.005  0.360  0.003
  0.001  0.000  0.000  0.007  0.992
    occupations:
  0.690  0.003  0.010 -0.092 -0.001
  0.003  0.540 -0.000 -0.002 -0.008
  0.010 -0.000  0.641 -0.007  0.002
 -0.092 -0.002 -0.007  0.639  0.000
 -0.001 -0.008  0.002  0.000  0.769
atom   17   Tr[ns(na)] =   6.52294
    eigenvalues:
  0.566  0.606  0.611  0.701  0.777
    eigenvectors:
  0.000  0.982  0.002  0.001  0.015
  0.000  0.001  0.005  0.995  0.000
  0.000  0.002  0.993  0.005  0.000
  0.000  0.015  0.000  0.000  0.985
  1.000  0.000  0.000  0.000  0.000
    occupations:
  0.609  0.003  0.000 -0.021  0.000
  0.003  0.701  0.006 -0.000 -0.001
  0.000  0.006  0.612  0.001 -0.000
 -0.021 -0.000  0.001  0.775 -0.000
  0.000 -0.001 -0.000 -0.000  0.566
atom   22   Tr[ns(na)] =   6.52865
    eigenvalues:
  0.593  0.604  0.613  0.705  0.749
    eigenvectors:
  0.265  0.000  0.000  0.002  0.733
  0.000  0.999  0.001  0.000  0.000
  0.000  0.001  0.994  0.005  0.000
  0.735  0.000  0.000  0.001  0.265
  0.000  0.000  0.005  0.992  0.002
    occupations:
  0.708  0.001 -0.001 -0.069  0.002
  0.001  0.604  0.000 -0.000  0.000
 -0.001  0.000  0.613  0.000  0.007
 -0.069 -0.000  0.000  0.634 -0.001
  0.002  0.000  0.007 -0.001  0.705
atom   23   Tr[ns(na)] =   6.52679
    eigenvalues:
  0.553  0.557  0.595  0.776  0.783
    eigenvectors:
  0.000  0.000  0.993  0.002  0.005
  0.000  0.000  0.001  0.979  0.020
  0.878  0.122  0.000  0.000  0.000
  0.000  0.000  0.006  0.019  0.975
  0.122  0.878  0.000  0.000  0.000
    occupations:
  0.597  0.006 -0.001 -0.014  0.000
  0.006  0.776  0.000  0.001  0.001
 -0.001  0.000  0.554  0.001 -0.001
 -0.014  0.001  0.001  0.781 -0.000
  0.000  0.001 -0.001 -0.000  0.556
N of occupied +U levels =  52.2596030
 --- exit write_ns ---

[...]

          k = 0.2500-0.3828 0.0000 ( 29202 PWs)   bands (ev):

[...]

          k =-0.2500 0.1914 0.0000 ( 29229 PWs)   bands (ev):

   -81.2916 -81.2000 -81.0633 -81.0528 -81.0233 -80.7461 -80.7069 -80.7022
   -43.3668 -43.2192 -43.2082 -43.1877 -43.0965 -43.0937 -43.0620 -43.0492
   -43.0032 -42.9716 -42.9236 -42.8912 -42.8588 -42.7852 -42.7578 -42.7467
   -42.7052 -42.6705 -42.6652 -42.6542 -42.5930 -42.5826 -42.2837 -42.2225
   -20.8119 -20.3668 -20.2880 -20.1783 -20.0968 -19.8029 -19.7543 -19.7227
   -19.5604 -19.4992 -19.4072 -19.3516 -19.2706 -19.1097 -19.0734 -19.0323
   -18.8679 -18.3234 -18.0447  -9.0004  -8.7187  -8.6332  -8.6087  -8.4671
    -8.3070  -8.2778  -8.1173  -8.0348  -7.9405  -7.7930  -7.7369  -7.4803
    -7.3582  -7.3122  -7.0039  -6.8605  -6.7254  -6.6232  -6.5313  -6.4601
    -6.3661  -6.0756  -5.9847  -5.7905  -5.7378  -5.6677  -5.5220  -5.4451
    -5.3286  -5.1203  -4.9888  -4.9667  -4.8517  -4.7739  -4.7497  -4.6884
    -4.5930  -4.5361  -4.4462  -4.3325  -4.1330  -3.9564  -3.8763  -3.7879
    -3.7040  -3.6068  -3.5547  -3.3717  -3.3281  -3.2646  -3.1606  -3.0412
    -2.8157  -2.7218  -2.6433  -2.4989  -2.1769  -1.9931  -1.9269  -1.1182
    -0.9546  -0.8893  -0.7528  -0.1240  -0.0247   0.4184   0.4967   0.6023
     0.6999   0.8319   0.9308   1.1545   1.3507   1.3993   1.5539   1.5895
     1.7277   1.8879   1.9270   2.1589   2.4369   3.6973   3.7135   3.8120
     3.8567   4.0276   4.0841   4.3374   4.5253   4.6204   4.7627   4.9099
     4.9717   5.2114   5.3479   5.6253   5.8614   5.9136   6.1198   6.2940
     6.4601   6.5184   6.7096   6.8776   7.0023   7.0952   7.2971   7.5388
     7.6876   7.7749   7.9366   8.1028   8.2646   8.3574   8.4941   8.5798
     8.6347   8.7214   8.9554   9.0343   9.1233   9.3781   9.4281   9.5939
     9.6340   9.6815   9.8186   9.8901   9.9219   9.9882  10.0953  10.1951
    10.2373  10.3521  10.3866  10.4528  10.5355  10.7266  10.7570  10.8728
    11.0017  11.1133  11.1764  11.2789  11.4621  11.5532  11.6803  11.7387
    11.8172  11.9270  12.0377  12.2153  12.3391  12.4691  12.5897  12.6170
    12.6562  12.7552  12.8061  12.8843  12.9394  13.0394  13.0933  13.2266
    13.2762  13.4190  13.5038  13.6330  13.6765  13.7456  13.8270  13.8645
    13.9441  13.9556  14.0275  14.0892  14.1348  14.2471  14.3338  14.4075
    14.4929  14.5191  14.5764  14.6648  14.7098  14.7621  14.8484  14.8922
    14.9493  14.9867  15.0148  15.0863  15.1346  15.2098  15.3044  15.4376
    15.5208  15.6064  15.6487  15.7315  15.8356  15.9400  16.0720  16.1416
    16.1806  16.2377  16.3097  16.4711  16.5313  16.5850  16.6070  16.6926
    16.7844  16.8740  16.9496  17.0136  17.1102  17.2039  17.2561  17.2732
    17.3548  17.4880  17.6078  17.6589  17.7292  17.7839  17.8292  17.9438
    17.9736  18.0323  18.1245  18.1784  18.2651  18.2824  18.3997  18.4610
    18.5283  18.5811  18.6414  18.7021  18.7591  18.8596  18.9234  19.0295
    19.0855  19.2296  19.3104  19.3551  19.4817  19.5489  19.6252  19.6803
    19.7485  19.8414  19.9384  20.0187  20.1413  20.1863  20.2452  20.3147
    20.4576  20.5162  20.5840  20.6245  20.6822  20.7577  20.7791  20.8355
    20.8850  20.9592  20.9768  21.1191  21.1583  21.2007  21.2513  21.3191
    21.4020  21.4520  21.5104  21.6136  21.6483  21.7016  21.7659  21.8405
    21.9304  21.9984  22.0837  22.1218  22.2191  22.2430  22.3183  22.3494
    22.4015  22.4455  22.4906  22.5427  22.6224  22.6678  22.6948  22.7302
    22.7885  22.8435  22.8819  22.9362  22.9850  23.0767

     the Fermi energy is     0.5255 ev

!    total energy              =   -2175.26497391 Ry
     Harris-Foulkes estimate   =   -2175.26497391 Ry
     estimated scf accuracy    <          1.5E-09 Ry

     The total energy is the sum of the following terms:

     one-electron contribution =  -24267.34932135 Ry
     hartree contribution      =   12151.69359762 Ry
     xc contribution           =    -595.03540837 Ry
     ewald contribution        =   10534.14124659 Ry
     Hubbard energy            =       1.28550606 Ry
     smearing contrib. (-TS)   =      -0.00059446 Ry

     convergence has been achieved in  16 iterations

     Forces acting on atoms (Ry/au):

     negative rho (up, down):  0.244E+00 0.000E+00
     atom    1 type  1   force =    -0.00572949   -0.00696805    0.00013849
     atom    2 type  1   force =     0.00007868    0.00568526    0.00029031
     atom    3 type  2   force =     0.03085413   -0.00393827    0.00000182
     atom    4 type  2   force =     0.00172478    0.00727784    0.00050560
     atom    5 type  1   force =     0.00281368    0.01122165    0.00051475
     atom    6 type  1   force =     0.00116670   -0.01151960    0.00037030
     atom    7 type  1   force =     0.00342261    0.00008669    0.00053664
     atom    8 type  1   force =     0.00311624   -0.00171322    0.00056971
     atom    9 type  2   force =    -0.02570596    0.00183041   -0.00036436
     atom   10 type  2   force =    -0.00742132   -0.00064567   -0.00020750
     atom   11 type  1   force =    -0.00616856   -0.00852807   -0.00069842
     atom   12 type  1   force =    -0.00626747    0.00871974   -0.00060941
     atom   13 type  1   force =    -0.00049342   -0.00018110   -0.00044220
     atom   14 type  1   force =    -0.00257201   -0.00616990   -0.00002915
     atom   15 type  1   force =     0.00024781    0.00449529    0.00038421
     atom   16 type  2   force =    -0.03157866   -0.00392503    0.00005378
     atom   17 type  2   force =     0.00128571    0.00760423    0.00037427
     atom   18 type  1   force =     0.00103290    0.01169409    0.00044343
     atom   19 type  1   force =    -0.00086720   -0.01187351    0.00037742
     atom   20 type  1   force =    -0.00243964   -0.00143594   -0.00074716
     atom   21 type  1   force =     0.00180375   -0.00161368    0.00062824
     atom   22 type  2   force =     0.02156736    0.00190676   -0.00046906
     atom   23 type  2   force =    -0.00002568   -0.00054171   -0.00052401
     atom   24 type  1   force =     0.00954874   -0.00692055   -0.00066571
     atom   25 type  1   force =     0.00936998    0.00664918   -0.00069808
     atom   26 type  1   force =     0.00079661   -0.00068679   -0.00026273
     atom   27 type  3   force =     0.00000956   -0.00010806    0.00046563
     atom   28 type  3   force =    -0.00001938   -0.00027516    0.00024458
     atom   29 type  3   force =     0.00004173    0.00010426    0.00003843
     atom   30 type  3   force =     0.00021973   -0.00009856    0.00007604
     atom   31 type  1   force =    -0.00022480   -0.00003309    0.00036125
     atom   32 type  3   force =     0.00041289   -0.00009944   -0.00065711

     Total force =     0.002630     Total SCF correction =     0.000159

     bfgs converged in   5 scf cycles and   4 bfgs steps
     (criteria: energy < 0.10E-03, force < 0.10E-02)

     End of BFGS Geometry Optimization

     Final energy   =   -2175.2649739105 Ry
Begin final coordinates

ATOMIC_POSITIONS (crystal)
O0       0.000000000   0.000000000   0.370863948    0   0   1
O0       0.000000000   0.500000000   0.382163498    0   0   1
Re1      0.250000000   0.500000000   0.441826448    0   0   1
Re1      0.000000000   0.000000000   0.443486243    0   0   1
O0       0.250000000   0.780000000   0.441835462    0   0   1
O0       0.250000000   0.220000000   0.441659600    0   0   1
O0       0.000000000   0.500000000   0.496940405    0   0   1
O0       0.000000000   0.000000000   0.514835334    0   0   1
Re1      0.250000000   0.000000000   0.574809718    0   0   1
Re1      0.000000000   0.500000000   0.565984023    0   0   1
O0       0.250000000   0.720000000   0.572924506    0   0   1
O0       0.250000000   0.280000000   0.573003138    0   0   1
O0       0.000000000   0.000000000   0.627066475    0   0   1
O0       0.500000000   0.000000000   0.370889105    0   0   1
O0       0.500000000   0.500000000   0.382532999    0   0   1
Re1      0.750000000   0.500000000   0.441834383    0   0   1
Re1      0.500000000   0.000000000   0.443242224    0   0   1
O0       0.750000000   0.780000000   0.441775497    0   0   1
O0       0.750000000   0.220000000   0.441734723    0   0   1
O0       0.500000000   0.500000000   0.499248681    0   0   1
O0       0.500000000   0.000000000   0.514668822    0   0   1
Re1      0.750000000   0.000000000   0.574639187    0   0   1
Re1      0.500000000   0.500000000   0.572739179    0   0   1
O0       0.750000000   0.720000000   0.572134031    0   0   1
O0       0.750000000   0.280000000   0.572130022    0   0   1
O0       0.500000000   0.000000000   0.626362081    0   0   1
H2      -0.000356661   0.624939259   0.365233967
H2       0.499611311   0.622823201   0.364605411
H2       0.169009897   0.023124299   0.356513613
H2       0.670079407   0.021781490   0.356702459
O0       0.527665491   0.499648767   0.643681885
H2       0.379041020   0.499126071   0.664962934
End final coordinates

     General routines

     Parallel routines
     Hubbard U routines

   This run was terminated on:  14: 1: 9   1May2014

   JOB DONE.
Running PBS batch system epilogue script
Job id: 340624.audhumbla.fysik.dtu.dk
Username: zhonxu
Groupname: campgst
Jobname: ReO2/Eads-2-layers/OH-U-2.0
Sessionid: 29255
Queuename: verylong
Accounting:
This job has allocated the following 16 nodes:
a122 a122 a122 a122 a122 a122 a122 a122 a106 a106 a106 a106 a106 a106 a106 a106
Finished epilogue job 340624.audhumbla.fysik.dtu.dk for zhonxu