     Program PWSCF v.5.0.2 (svn rev. 9656) starts on 31May2014 at  4:26:52

     Current dimensions of program PWSCF are:
     Max number of different atomic species (ntypx) = 10
     Max number of k-points (npk) =  40000
     Max angular momentum in pseudopotentials (lmaxx) =  3
     Reading input from pwscf.in
Warning: card &CELL ignored
Warning: card / ignored

     Subspace diagonalization in iterative solution of the eigenvalue problem:
     a serial algorithm will be used

     bravais-lattice index     =            0
     lattice parameter (alat)  =      12.2076  a.u.
     unit-cell volume          =    7496.5096 (a.u.)^3
     number of atoms/cell      =           33
     number of atomic types    =            3
     number of electrons       =       253.00
     number of Kohn-Sham states=          379
     kinetic-energy cutoff     =      40.0000  Ry
     charge density cutoff     =     500.0000  Ry
     convergence threshold     =      1.0E-06
     mixing beta               =       0.7000
     number of iterations used =            8  plain     mixing
     Exchange-correlation      = SLA  PW   PBE  PBE ( 1 4 3 4 0)
     EXX-fraction              =        0.00
     nstep                     =           50

     celldm(1)=  12.207631  celldm(2)=   0.000000  celldm(3)=   0.000000
     celldm(4)=   0.000000  celldm(5)=   0.000000  celldm(6)=   0.000000

     crystal axes: (cart. coord. in units of alat)
               a(1) = (   1.000000   0.000000   0.000000 )
               a(2) = (   0.000000   1.004836   0.000000 )
               a(3) = (   0.000000   0.000000   4.100811 )

     reciprocal axes: (cart. coord. in units 2 pi/alat)
               b(1) = (  1.000000  0.000000  0.000000 )
               b(2) = (  0.000000  0.995187  0.000000 )
               b(3) = (  0.000000  0.000000  0.243854 )

     PseudoPot. # 1 for O  read from file:
     /home/camp/zhonxu/pseudo/o_pbe_v1.01.uspp.F.UPF
     MD5 check sum: 2bcb18d16ea4b960afae9ec6d52f22d2
     Pseudo is Ultrasoft + core correction, Zval =  6.0
     Generated by new atomic code, or converted to UPF format
     Using radial grid of  737 points,  5 beta functions with:
                l(1) =   0
                l(2) =   0
                l(3) =   1
                l(4) =   1
                l(5) =   2
     Q(r) pseudized with  8 coefficients,  rinner =    0.900   0.900   0.900
                                                       0.900   0.900

     PseudoPot. # 2 for Pt read from file:
     /home/camp/zhonxu/pseudo/pt_pbe_v1.uspp.F.UPF
     MD5 check sum: 4c71d6ad5ef119f1eb26a4d0b7884226
     Pseudo is Ultrasoft + core correction, Zval = 16.0
     Generated by new atomic code, or converted to UPF format
     Using radial grid of  985 points,  6 beta functions with:
                l(1) =   0
                l(2) =   0
                l(3) =   1
                l(4) =   1
                l(5) =   2
                l(6) =   2
     Q(r) pseudized with  8 coefficients,  rinner =    1.300   1.300   1.300
                                                       1.300   1.300

     PseudoPot. # 3 for H  read from file:
     /home/camp/zhonxu/pseudo/h_pbe_v1.uspp.F.UPF
     MD5 check sum: 3408e3ff4ec8b0a4e358431e7e038a48
     Pseudo is Ultrasoft, Zval =  1.0
     Generated by new atomic code, or converted to UPF format
     Using radial grid of  615 points,  2 beta functions with:
                l(1) =   0
                l(2) =   0
     Q(r) pseudized with  8 coefficients,  rinner =    0.700

     atomic species   valence    mass     pseudopotential
        O0             6.00    15.99940     O ( 1.00)
        Pt1           16.00   195.08000     Pt( 1.00)
        H2             1.00     1.00794     H ( 1.00)

     Simplified LDA+U calculation (l_max = 2) with parameters (eV):
     atomic species    L          U    alpha       J0     beta
        Pt1            2     2.0000   0.0000   0.0000   0.0000

     No symmetry found

   Cartesian axes

     site n.     atom                  positions (alat units)
         1           O0  tau(   1) = (   0.0000000   0.0000000   1.5494095  )
         2           O0  tau(   2) = (   0.0000000   0.5024180   1.6475009  )
         3           Pt1 tau(   3) = (   0.2500000   0.5024180   1.8504910  )
         4           Pt1 tau(   4) = (   0.0000000   0.0000000   1.8570523  )
         5           O0  tau(   5) = (   0.2500000   0.8139171   1.8187098  )
         6           O0  tau(   6) = (   0.2500000   0.1909188   1.8864142  )
         7           O0  tau(   7) = (   0.0000000   0.5024180   2.0369959  )
         8           O0  tau(   8) = (   0.0000000   0.0000000   2.1720357  )
         9           Pt1 tau(   9) = (   0.2500000   0.0000000   2.3614521  )
        10           Pt1 tau(  10) = (   0.0000000   0.5024180   2.3598528  )
        11           O0  tau(  11) = (   0.2500000   0.6933368   2.3268823  )
        12           O0  tau(  12) = (   0.2500000   0.3114991   2.4033624  )
        13           O0  tau(  13) = (   0.0000000   0.0000000   2.5482851  )
        14           O0  tau(  14) = (   0.5000000   0.0000000   1.5485073  )
        15           O0  tau(  15) = (   0.5000000   0.5024180   1.6434821  )
        16           Pt1 tau(  16) = (   0.7500000   0.5024180   1.8504910  )
        17           Pt1 tau(  17) = (   0.5000000   0.0000000   1.8561092  )
        18           O0  tau(  18) = (   0.7500000   0.8139171   1.8187918  )
        19           O0  tau(  19) = (   0.7500000   0.1909188   1.8863321  )
        20           O0  tau(  20) = (   0.5000000   0.5024180   2.0428191  )
        21           O0  tau(  21) = (   0.5000000   0.0000000   2.1708874  )
        22           Pt1 tau(  22) = (   0.7500000   0.0000000   2.3614521  )
        23           Pt1 tau(  23) = (   0.5000000   0.5024180   2.3628874  )
        24           O0  tau(  24) = (   0.7500000   0.6933368   2.3268003  )
        25           O0  tau(  25) = (   0.7500000   0.3114991   2.4034034  )
        26           O0  tau(  26) = (   0.5000000   0.0000000   2.5460296  )
        27           H2  tau(  27) = (   0.0000200   0.6429744   1.5830361  )
        28           H2  tau(  28) = (   0.5000600   0.6435874   1.5806577  )
        29           H2  tau(  29) = (   0.1433700   0.0339333   1.5082373  )
        30           H2  tau(  30) = (   0.6430800   0.0354607   1.5076632  )
        31           O0  tau(  31) = (   0.5001100   0.5589199   2.6603192  )
        32           O0  tau(  32) = (   0.4999400   0.3687346   2.7792838  )
        33           H2  tau(  33) = (   0.4999900   0.4305019   2.9192445  )

     number of k points=    10  Methfessel-Paxton smearing, width (Ry)=  0.0100
                       cart. coord. in units 2pi/alat
        k(    1) = (   0.0000000   0.0000000   0.0000000), wk =   0.1250000
        k(    2) = (   0.0000000   0.2487968   0.0000000), wk =   0.2500000
        k(    3) = (   0.0000000  -0.4975937   0.0000000), wk =   0.1250000
        k(    4) = (   0.2500000   0.0000000   0.0000000), wk =   0.2500000
        k(    5) = (   0.2500000   0.2487968   0.0000000), wk =   0.2500000
        k(    6) = (   0.2500000  -0.4975937   0.0000000), wk =   0.2500000
        k(    7) = (  -0.5000000   0.0000000   0.0000000), wk =   0.1250000
        k(    8) = (  -0.5000000   0.2487968   0.0000000), wk =   0.2500000
        k(    9) = (  -0.5000000  -0.4975937   0.0000000), wk =   0.1250000
        k(   10) = (  -0.2500000   0.2487968   0.0000000), wk =   0.2500000

     Largest allocated arrays     est. size (Mb)     dimensions
     Largest temporary arrays     est. size (Mb)     dimensions

     Check: negative/imaginary core charge=   -0.000003    0.000000

     Initial potential from superposition of free atoms
     Check: negative starting charge=   -1.535323

     starting charge  248.99983, renormalised to  253.00000

     negative rho (up, down):  0.156E+01 0.000E+00
     Number of +U iterations with fixed ns =  0
     Starting occupations:
 --- enter write_ns ---
 LDA+U parameters:
U( 2)     =  2.00000000
alpha( 2) =  0.00000000
atom    3   Tr[ns(na)] =   8.00000
    eigenvalues:
  0.800  0.800  0.800  0.800  0.800
    eigenvectors:
  1.000  0.000  0.000  0.000  0.000
  0.000  1.000  0.000  0.000  0.000
  0.000  0.000  1.000  0.000  0.000
  0.000  0.000  0.000  1.000  0.000
  0.000  0.000  0.000  0.000  1.000
    occupations:
  0.800  0.000  0.000  0.000  0.000
  0.000  0.800  0.000  0.000  0.000
  0.000  0.000  0.800  0.000  0.000
  0.000  0.000  0.000  0.800  0.000
  0.000  0.000  0.000  0.000  0.800
atom    4   Tr[ns(na)] =   8.00000
    eigenvalues:
  0.800  0.800  0.800  0.800  0.800
    eigenvectors:
  1.000  0.000  0.000  0.000  0.000
  0.000  1.000  0.000  0.000  0.000
  0.000  0.000  1.000  0.000  0.000
  0.000  0.000  0.000  1.000  0.000
  0.000  0.000  0.000  0.000  1.000
    occupations:
  0.800  0.000  0.000  0.000  0.000
  0.000  0.800  0.000  0.000  0.000
  0.000  0.000  0.800  0.000  0.000
  0.000  0.000  0.000  0.800  0.000
  0.000  0.000  0.000  0.000  0.800
atom    9   Tr[ns(na)] =   8.00000
    eigenvalues:
  0.800  0.800  0.800  0.800  0.800
    eigenvectors:
  1.000  0.000  0.000  0.000  0.000
  0.000  1.000  0.000  0.000  0.000
  0.000  0.000  1.000  0.000  0.000
  0.000  0.000  0.000  1.000  0.000
  0.000  0.000  0.000  0.000  1.000
    occupations:
  0.800  0.000  0.000  0.000  0.000
  0.000  0.800  0.000  0.000  0.000
  0.000  0.000  0.800  0.000  0.000
  0.000  0.000  0.000  0.800  0.000
  0.000  0.000  0.000  0.000  0.800
atom   10   Tr[ns(na)] =   8.00000
    eigenvalues:
  0.800  0.800  0.800  0.800  0.800
    eigenvectors:
  1.000  0.000  0.000  0.000  0.000
  0.000  1.000  0.000  0.000  0.000
  0.000  0.000  1.000  0.000  0.000
  0.000  0.000  0.000  1.000  0.000
  0.000  0.000  0.000  0.000  1.000
    occupations:
  0.800  0.000  0.000  0.000  0.000
  0.000  0.800  0.000  0.000  0.000
  0.000  0.000  0.800  0.000  0.000
  0.000  0.000  0.000  0.800  0.000
  0.000  0.000  0.000  0.000  0.800
atom   16   Tr[ns(na)] =   8.00000
    eigenvalues:
  0.800  0.800  0.800  0.800  0.800
    eigenvectors:
  1.000  0.000  0.000  0.000  0.000
  0.000  1.000  0.000  0.000  0.000
  0.000  0.000  1.000  0.000  0.000
  0.000  0.000  0.000  1.000  0.000
  0.000  0.000  0.000  0.000  1.000
    occupations:
  0.800  0.000  0.000  0.000  0.000
  0.000  0.800  0.000  0.000  0.000
  0.000  0.000  0.800  0.000  0.000
  0.000  0.000  0.000  0.800  0.000
  0.000  0.000  0.000  0.000  0.800
atom   17   Tr[ns(na)] =   8.00000
    eigenvalues:
  0.800  0.800  0.800  0.800  0.800
    eigenvectors:
  1.000  0.000  0.000  0.000  0.000
  0.000  1.000  0.000  0.000  0.000
  0.000  0.000  1.000  0.000  0.000
  0.000  0.000  0.000  1.000  0.000
  0.000  0.000  0.000  0.000  1.000
    occupations:
  0.800  0.000  0.000  0.000  0.000
  0.000  0.800  0.000  0.000  0.000
  0.000  0.000  0.800  0.000  0.000
  0.000  0.000  0.000  0.800  0.000
  0.000  0.000  0.000  0.000  0.800
atom   22   Tr[ns(na)] =   8.00000
    eigenvalues:
  0.800  0.800  0.800  0.800  0.800
    eigenvectors:
  1.000  0.000  0.000  0.000  0.000
  0.000  1.000  0.000  0.000  0.000
  0.000  0.000  1.000  0.000  0.000
[...]
  0.011  0.000  0.989  0.000  0.000
  0.000  0.001  0.000  0.336  0.663
  0.000  0.017  0.000  0.656  0.327
  0.989  0.000  0.011  0.000  0.000
    occupations:
  0.767  0.000 -0.007  0.029  0.000
  0.000  0.974 -0.000  0.000 -0.033
 -0.007 -0.000  0.984 -0.001  0.000
  0.029  0.000 -0.001  0.979 -0.000
  0.000 -0.033  0.000 -0.000  0.663
atom   16   Tr[ns(na)] =   8.68454
    eigenvalues:
  0.684  0.701  0.984  0.985  0.988
    eigenvectors:
  0.048  0.127  0.800  0.002  0.023
  0.753  0.247  0.000  0.000  0.000
  0.001  0.003  0.037  0.001  0.959
  0.199  0.622  0.160  0.000  0.018
  0.000  0.000  0.003  0.997  0.000
    occupations:
  0.933 -0.007  0.007 -0.109 -0.001
 -0.007  0.688 -0.002 -0.005 -0.002
  0.007 -0.002  0.987  0.016  0.000
 -0.109 -0.005  0.016  0.748 -0.001
 -0.001 -0.002  0.000 -0.001  0.985
atom   17   Tr[ns(na)] =   8.67366
    eigenvalues:
  0.685  0.706  0.979  0.983  0.985
    eigenvectors:
  0.000  0.986  0.007  0.002  0.005
  0.009  0.000  0.061  0.918  0.012
  0.000  0.005  0.883  0.045  0.068
  0.000  0.009  0.049  0.027  0.915
  0.991  0.000  0.001  0.008  0.000
    occupations:
  0.710 -0.005 -0.018  0.026 -0.001
 -0.005  0.980  0.001  0.000  0.028
 -0.018  0.001  0.978  0.003  0.000
  0.026  0.000  0.003  0.982  0.000
 -0.001  0.028  0.000  0.000  0.688
atom   22   Tr[ns(na)] =   8.64972
    eigenvalues:
  0.708  0.718  0.953  0.961  0.985
    eigenvectors:
  0.001  0.136  0.001  0.014  0.848
  0.997  0.003  0.000  0.000  0.000
  0.000  0.010  0.095  0.887  0.008
  0.002  0.851  0.000  0.003  0.143
  0.000  0.000  0.903  0.096  0.000
    occupations:
  0.948  0.002 -0.007 -0.091  0.000
  0.002  0.708  0.000 -0.000 -0.003
 -0.007  0.000  0.958 -0.024 -0.002
 -0.091 -0.000 -0.024  0.757 -0.000
  0.000 -0.003 -0.002 -0.000  0.954
atom   23   Tr[ns(na)] =   8.66676
    eigenvalues:
  0.698  0.704  0.963  0.983  0.986
    eigenvectors:
  0.000  0.961  0.000  0.031  0.008
  0.017  0.000  0.983  0.000  0.000
  0.000  0.031  0.000  0.969  0.000
  0.000  0.008  0.000  0.000  0.992
  0.983  0.000  0.017  0.000  0.000
    occupations:
  0.715  0.000  0.048  0.025 -0.000
  0.000  0.959  0.000 -0.000 -0.034
  0.048  0.000  0.974 -0.004 -0.000
  0.025 -0.000 -0.004  0.983 -0.000
 -0.000 -0.034 -0.000 -0.000  0.703
N of occupied +U levels =  69.4183019
 --- exit write_ns ---

     Threshold (ethr) on eigenvalues was too large:
     Diagonalizing with lowered threshold

     Davidson diagonalization with overlap
     ethr =  4.60E-09,  avg # of iterations =  2.0

[...]

     total energy              =   -2313.64176420 Ry
     Harris-Foulkes estimate   =   -2313.64176421 Ry
     estimated scf accuracy    <       0.00000002 Ry

     iteration # 12     ecut=    40.00 Ry     beta=0.70
     Davidson diagonalization with overlap
     ethr =  7.99E-12,  avg # of iterations =  1.0

     negative rho (up, down):  0.158E+01 0.000E+00

     End of self-consistent calculation
 --- enter write_ns ---
 LDA+U parameters:
U( 2)     =  2.00000000
alpha( 2) =  0.00000000
atom    3   Tr[ns(na)] =   8.68444
    eigenvalues:
  0.684  0.701  0.984  0.985  0.988
    eigenvectors:
  0.048  0.127  0.797  0.005  0.023
  0.754  0.246  0.000  0.000  0.000
  0.001  0.003  0.037  0.001  0.958
  0.198  0.623  0.160  0.001  0.019
  0.000  0.000  0.006  0.993  0.000
    occupations:
  0.933  0.007  0.007 -0.109  0.001
  0.007  0.688  0.002  0.005 -0.002
  0.007  0.002  0.987  0.017 -0.000
 -0.109  0.005  0.017  0.748  0.001
  0.001 -0.002 -0.000  0.001  0.985
atom    4   Tr[ns(na)] =   8.67501
    eigenvalues:
  0.686  0.706  0.979  0.983  0.984
    eigenvectors:
  0.000  0.986  0.007  0.002  0.005
  0.009  0.000  0.042  0.937  0.012
  0.000  0.005  0.908  0.030  0.058
  0.000  0.009  0.043  0.023  0.925
  0.991  0.000  0.000  0.008  0.000
    occupations:
  0.710 -0.005 -0.019  0.026 -0.001
 -0.005  0.980  0.001  0.000  0.028
 -0.019  0.001  0.978  0.003  0.000
  0.026  0.000  0.003  0.982  0.000
 -0.001  0.028  0.000  0.000  0.688
atom    9   Tr[ns(na)] =   8.64952
    eigenvalues:
  0.708  0.718  0.953  0.961  0.985
    eigenvectors:
  0.000  0.137  0.001  0.014  0.848
  0.999  0.001  0.000  0.000  0.000
  0.000  0.010  0.084  0.898  0.008
  0.001  0.852  0.000  0.003  0.143
  0.000  0.000  0.915  0.085  0.000
    occupations:
  0.948 -0.001 -0.007 -0.091 -0.000
 -0.001  0.708 -0.000  0.001 -0.003
 -0.007 -0.000  0.958 -0.024  0.002
 -0.091  0.001 -0.024  0.757  0.000
 -0.000 -0.003  0.002  0.000  0.954
atom   10   Tr[ns(na)] =   8.73313
    eigenvalues:
  0.659  0.763  0.978  0.981  0.985
    eigenvectors:
  0.000  0.982  0.000  0.008  0.010
  0.011  0.000  0.989  0.000  0.000
  0.000  0.001  0.000  0.335  0.664
  0.000  0.017  0.000  0.657  0.326
  0.989  0.000  0.011  0.000  0.000
    occupations:
  0.767 -0.000 -0.007  0.029  0.000
 -0.000  0.974 -0.000  0.000 -0.033
 -0.007 -0.000  0.984 -0.001  0.000
  0.029  0.000 -0.001  0.979 -0.000
  0.000 -0.033  0.000 -0.000  0.663
atom   16   Tr[ns(na)] =   8.68444
    eigenvalues:
  0.684  0.701  0.984  0.985  0.988
    eigenvectors:
  0.048  0.127  0.800  0.002  0.023
  0.751  0.249  0.000  0.000  0.000
  0.001  0.003  0.037  0.001  0.959
  0.200  0.621  0.160  0.000  0.018
  0.000  0.000  0.003  0.997  0.000
    occupations:
  0.933 -0.007  0.007 -0.109 -0.001
 -0.007  0.688 -0.002 -0.005 -0.002
  0.007 -0.002  0.987  0.017  0.000
 -0.109 -0.005  0.017  0.748 -0.001
 -0.001 -0.002  0.000 -0.001  0.985
atom   17   Tr[ns(na)] =   8.67352
    eigenvalues:
  0.685  0.706  0.979  0.983  0.985
    eigenvectors:
  0.000  0.986  0.007  0.002  0.005
  0.009  0.000  0.061  0.918  0.012
  0.000  0.005  0.882  0.045  0.069
  0.000  0.009  0.050  0.027  0.915
  0.991  0.000  0.001  0.008  0.000
    occupations:
  0.710 -0.005 -0.018  0.026 -0.001
 -0.005  0.980  0.001  0.000  0.028
 -0.018  0.001  0.978  0.003  0.000
  0.026  0.000  0.003  0.982  0.000
 -0.001  0.028  0.000  0.000  0.688
atom   22   Tr[ns(na)] =   8.64949
    eigenvalues:
  0.708  0.718  0.953  0.961  0.985
    eigenvectors:
  0.001  0.136  0.001  0.014  0.848
  0.997  0.003  0.000  0.000  0.000
  0.000  0.010  0.095  0.887  0.008
  0.002  0.851  0.000  0.003  0.143
  0.000  0.000  0.904  0.096  0.000
    occupations:
  0.948  0.002 -0.007 -0.091  0.000
  0.002  0.708  0.000 -0.000 -0.003
 -0.007  0.000  0.958 -0.024 -0.002
 -0.091 -0.000 -0.024  0.757 -0.000
  0.000 -0.003 -0.002 -0.000  0.954
atom   23   Tr[ns(na)] =   8.66645
    eigenvalues:
  0.698  0.704  0.963  0.983  0.986
    eigenvectors:
  0.000  0.961  0.000  0.031  0.008
  0.017  0.000  0.983  0.000  0.000
  0.000  0.031  0.000  0.969  0.000
  0.000  0.008  0.000  0.000  0.992
  0.983  0.000  0.017  0.000  0.000
    occupations:
  0.715  0.000  0.048  0.025 -0.000
  0.000  0.959  0.000 -0.000 -0.034
  0.048  0.000  0.974 -0.004 -0.000
  0.025 -0.000 -0.004  0.983 -0.000
 -0.000 -0.034 -0.000 -0.000  0.702
N of occupied +U levels =  69.4160049
 --- exit write_ns ---

[...]

          k = 0.2500-0.4976 0.0000 ( 32026 PWs)   bands (ev):

[...]

          k =-0.2500 0.2488 0.0000 ( 32025 PWs)   bands (ev):

   -55.0518 -55.0205 -54.9838 -54.9806 -54.9460 -54.9358 -54.8928 -54.8762
   -54.8732 -54.8542 -54.7978 -54.7939 -54.7745 -54.6761 -54.6713 -54.6310
   -54.6263 -54.5961 -54.5906 -54.5784 -54.5735 -54.2031 -53.9666 -53.6308
   -23.6339 -21.4304 -21.1278 -20.5148 -20.3273 -20.0293 -19.9247 -19.8781
   -19.7369 -19.7181 -19.6236 -19.5751 -19.5066 -19.4688 -19.3346 -19.2859
   -19.2441 -18.5061 -18.3360 -17.3507  -9.7453  -9.4948  -9.3673  -9.2967
    -8.9257  -8.8977  -8.8034  -8.6702  -8.5671  -8.5187  -8.4969  -8.3805
    -8.2866  -8.2218  -8.1356  -8.0524  -8.0199  -7.9167  -7.8076  -7.4338
    -7.3638  -7.2161  -7.1315  -7.0639  -7.0105  -6.8668  -6.5575  -6.5242
    -6.4112  -6.2861  -6.2253  -6.2049  -6.1038  -6.0036  -5.8869  -5.8800
    -5.8265  -5.6890  -5.6451  -5.5570  -5.4556  -5.4118  -5.2850  -5.0454
    -4.9745  -4.9010  -4.7669  -4.6157  -4.5202  -4.4385  -4.3815  -4.3076
    -4.2234  -4.1576  -3.9592  -3.9115  -3.7675  -3.6885  -3.6467  -3.5573
    -3.4117  -3.2932  -3.1805  -3.1044  -3.0298  -3.0099  -2.8897  -2.8501
    -2.7729  -2.7162  -2.4350  -2.3904  -2.1255  -1.9643  -1.8871  -1.7218
    -1.6802  -1.6137  -1.5622  -1.4413  -1.2049  -1.0887  -1.0453  -0.9024
    -0.4036  -0.2097  -0.0722   0.3855   0.5553   0.8665   1.0636   1.3483
     1.4188   1.5731   1.6088   1.8994   2.0476   2.0897   2.3755   3.4240
     3.7643   4.0943   4.5747   4.8886   5.1227   5.5780   5.7212   5.7769
     6.0005   6.1808   6.3172   6.4879   6.5383   6.7549   6.8689   6.9512
     7.0138   7.1209   7.2958   7.4703   7.6199   7.6536   7.7870   7.8971
     7.9585   8.0540   8.2143   8.2576   8.4315   8.4838   8.5735   8.6859
     8.8096   8.8224   8.9324   8.9507   9.1522   9.1992   9.3217   9.4182
     9.5347   9.5935   9.6737   9.7666   9.8641   9.9982  10.0348  10.1164
    10.2010  10.2957  10.3993  10.4878  10.5832  10.6514  10.7267  10.7806
    10.9497  11.0026  11.1091  11.2089  11.3145  11.3672  11.4386  11.5597
    11.6399  11.7278  11.8231  11.8827  11.9533  12.0341  12.0862  12.1528
    12.2372  12.2839  12.3742  12.4351  12.5774  12.6511  12.7236  12.7584
    12.8537  12.8915  12.9747  13.0242  13.1947  13.2643  13.3229  13.4264
    13.5294  13.5969  13.6476  13.7013  13.7901  13.8152  13.9312  14.0174
    14.1037  14.1553  14.2427  14.3710  14.4229  14.4646  14.5851  14.7183
    14.7594  14.8155  14.9070  14.9689  15.0604  15.1382  15.1827  15.2725
    15.3261  15.3366  15.4006  15.4367  15.5125  15.5741  15.6328  15.6635
    15.7574  15.8411  15.8647  15.9096  15.9784  16.0525  16.1177  16.1524
    16.2225  16.2780  16.3429  16.4328  16.5204  16.5909  16.7459  16.7774
    16.8182  16.9246  16.9937  17.0406  17.0850  17.1386  17.1879  17.2116
    17.2505  17.2617  17.2799  17.3254  17.3371  17.3856  17.3991  17.4153
    17.4490  17.4673  17.4801  17.5250  17.6127  17.6195  17.6914  17.7790
    17.8831  17.9772  17.9923  18.0824  18.1124  18.2534  18.3263  18.3653
    18.3815  18.4077  18.4844  18.5622  18.6091  18.6685  18.7320  18.8448
    18.9331  18.9666  19.0270  19.1053  19.1192  19.1960  19.3074  19.3742
    19.4440  19.5286  19.5800  19.6357  19.6817  19.8291  19.9705  20.0115
    20.0882  20.1506  20.1909  20.2348  20.2787  20.3201  20.3467  20.4079
    20.5193  20.5766  20.6445  20.7036  20.7443  20.8065  20.8264  20.8527
    20.9348  20.9849  21.0570  21.0775  21.1577  21.2238  21.3061  21.3344
    21.3868  21.4994  21.5036  21.5852  21.6124  21.6792  21.7759  21.8705
    21.9315  21.9838  22.0686  22.1462  22.1956  22.2691  22.3153  22.3448
    22.4293  22.4810  22.5448

     the Fermi energy is    -1.0191 ev

!    total energy              =   -2313.64176420 Ry
     Harris-Foulkes estimate   =   -2313.64176421 Ry
     estimated scf accuracy    <          6.3E-09 Ry

     The total energy is the sum of the following terms:

     one-electron contribution =  -24128.72233933 Ry
     hartree contribution      =   12114.45939568 Ry
     xc contribution           =    -579.99958233 Ry
     ewald contribution        =   10280.05520232 Ry
     Hubbard energy            =       0.56554020 Ry
     smearing contrib. (-TS)   =       0.00001926 Ry

     convergence has been achieved in  12 iterations

     Forces acting on atoms (Ry/au):

     negative rho (up, down):  0.158E+01 0.000E+00
     atom    1 type  1   force =    -0.00690637   -0.00393122    0.00073500
     atom    2 type  1   force =     0.00012462    0.00485154    0.00044708
     atom    3 type  2   force =     0.00631292    0.00628111    0.00003046
     atom    4 type  2   force =     0.00982722    0.00382521    0.00029393
     atom    5 type  1   force =     0.00103919   -0.00432840   -0.00019813
     atom    6 type  1   force =     0.00006804   -0.00236388    0.00013440
     atom    7 type  1   force =     0.00013000   -0.00156690    0.00024769
     atom    8 type  1   force =    -0.00397487    0.00035860    0.00016778
     atom    9 type  2   force =     0.00616897    0.00438194   -0.00038978
     atom   10 type  2   force =    -0.00006633   -0.02311633    0.00077177
     atom   11 type  1   force =    -0.00175153    0.00220676   -0.00037791
     atom   12 type  1   force =    -0.01324479    0.01096671    0.00002046
     atom   13 type  1   force =    -0.00111950   -0.00765668    0.00014480
     atom   14 type  1   force =    -0.00752737   -0.00379203    0.00041360
     atom   15 type  1   force =     0.00015658    0.00090520   -0.00091273
     atom   16 type  2   force =    -0.00718193    0.00637151    0.00003020
     atom   17 type  2   force =     0.00991990    0.00529442    0.00008193
     atom   18 type  1   force =     0.00124086   -0.00436151   -0.00018707
     atom   19 type  1   force =    -0.00013826   -0.00230634    0.00016111
     atom   20 type  1   force =     0.00000256   -0.00361166    0.00035444
     atom   21 type  1   force =    -0.00389153    0.00228772   -0.00017702
     atom   22 type  2   force =    -0.00258831    0.00432116   -0.00038695
     atom   23 type  2   force =     0.00009491    0.00642271   -0.00040388
     atom   24 type  1   force =     0.00180021    0.00226078   -0.00039378
     atom   25 type  1   force =     0.01330540    0.01101636    0.00003419
     atom   26 type  1   force =    -0.00105591   -0.01556058   -0.00019611
     atom   27 type  3   force =     0.00001114   -0.00019175    0.00019711
     atom   28 type  3   force =    -0.00000248    0.00065653    0.00007781
     atom   29 type  3   force =    -0.00047278   -0.00017618   -0.00058313
     atom   30 type  3   force =    -0.00027388   -0.00017872   -0.00031974
     atom   31 type  1   force =     0.00003090   -0.00028591    0.00051500
     atom   32 type  1   force =    -0.00004826    0.00071977   -0.00042159
     atom   33 type  3   force =     0.00001068    0.00030003    0.00008905

     Total force =     0.002467     Total SCF correction =     0.000254
     SCF correction compared to forces is large: reduce conv_thr to get better values

     entering subroutine stress ...

     negative rho (up, down):  0.158E+01 0.000E+00
          total   stress  (Ry/bohr**3)                   (kbar)     P=  -19.28
  -0.00020804  -0.00000000   0.00000392        -30.60     -0.00      0.58
  -0.00000000  -0.00013489  -0.00000654         -0.00    -19.84     -0.96
   0.00000392  -0.00000654  -0.00005024          0.58     -0.96     -7.39

     bfgs converged in   7 scf cycles and   6 bfgs steps
     (criteria: energy < 0.10E-03, force < 0.10E-02)

     End of BFGS Geometry Optimization

     Final energy   =   -2313.6417641993 Ry
Begin final coordinates

ATOMIC_POSITIONS (crystal)
O0       0.000000000   0.000000000   0.377601426    0   0   1
O0       0.000000000   0.500000000   0.401730867    0   0   1
Pt1      0.250000000   0.500000000   0.451311329    0   0   1
Pt1      0.000000000   0.000000000   0.452691555    0   0   1
O0       0.250000000   0.810000000   0.443091913    0   0   1
O0       0.250000000   0.190000000   0.460362387    0   0   1
O0       0.000000000   0.500000000   0.496728918    0   0   1
O0       0.000000000   0.000000000   0.529636050    0   0   1
Pt1      0.250000000   0.000000000   0.575777939    0   0   1
Pt1      0.000000000   0.500000000   0.575211863    0   0   1
O0       0.250000000   0.690000000   0.566841961    0   0   1
O0       0.250000000   0.310000000   0.586375536    0   0   1
O0       0.000000000   0.000000000   0.621332106    0   0   1
O0       0.500000000   0.000000000   0.377490761    0   0   1
O0       0.500000000   0.500000000   0.401182512    0   0   1
Pt1      0.750000000   0.500000000   0.451315558    0   0   1
Pt1      0.500000000   0.000000000   0.452554589    0   0   1
O0       0.750000000   0.810000000   0.443106065    0   0   1
O0       0.750000000   0.190000000   0.460341426    0   0   1
O0       0.500000000   0.500000000   0.498173676    0   0   1
O0       0.500000000   0.000000000   0.529440657    0   0   1
Pt1      0.750000000   0.000000000   0.575775135    0   0   1
Pt1      0.500000000   0.500000000   0.576180723    0   0   1
O0       0.750000000   0.690000000   0.566818319    0   0   1
O0       0.750000000   0.310000000   0.586361956    0   0   1
O0       0.500000000   0.000000000   0.620874007    0   0   1
H2       0.000027519   0.640543643   0.386309822
H2       0.500075176   0.640374929   0.385833914
H2       0.143829353   0.033851713   0.367919595
H2       0.643358989   0.035179473   0.367712767
O0       0.500178777   0.556279424   0.648899978
O0       0.499853695   0.367323814   0.677780729
H2       0.499997789   0.428466047   0.711963959
End final coordinates

     General routines

     Parallel routines
     Hubbard U routines

   This run was terminated on:  12:51: 3  31May2014

   JOB DONE.