     Program PWSCF v.5.0.2 (svn rev. 9656) starts on  1Apr2014 at 10: 3:23

     Current dimensions of program PWSCF are:
     Max number of different atomic species (ntypx) = 10
     Max number of k-points (npk) =  40000
     Max angular momentum in pseudopotentials (lmaxx) =  3
     Reading input from pwscf.in
Warning: card &CELL ignored
Warning: card / ignored

     Subspace diagonalization in iterative solution of the eigenvalue problem:
     a serial algorithm will be used

     bravais-lattice index     =            0
     lattice parameter (alat)  =      11.2250  a.u.
     unit-cell volume          =    7005.5484 (a.u.)^3
     number of atoms/cell      =           32
     number of atomic types    =            3
     number of electrons       =       215.00
     number of Kohn-Sham states=          310
     kinetic-energy cutoff     =      40.0000  Ry
     charge density cutoff     =     500.0000  Ry
     convergence threshold     =      1.0E-06
     mixing beta               =       0.7000
     number of iterations used =            8  plain     mixing
     Exchange-correlation      = SLA  PW   PBE  PBE ( 1 4 3 4 0)
     EXX-fraction              =        0.00
     nstep                     =           50

     celldm(1)=  11.224973  celldm(2)=   0.000000  celldm(3)=   0.000000
     celldm(4)=   0.000000  celldm(5)=   0.000000  celldm(6)=   0.000000

     crystal axes: (cart. coord. in units of alat)
               a(1) = (   1.000000   0.000000   0.000000 )
               a(2) = (   0.000000   1.107086   0.000000 )
               a(3) = (   0.000000   0.000000   4.474090 )

     reciprocal axes: (cart. coord. in units 2 pi/alat)
               b(1) = (  1.000000  0.000000  0.000000 )
               b(2) = (  0.000000  0.903272  0.000000 )
               b(3) = (  0.000000  0.000000  0.223509 )

     PseudoPot. # 1 for O  read from file:
     /home/camp/zhonxu/pseudo/o_pbe_v1.01.uspp.F.UPF
     MD5 check sum: 2bcb18d16ea4b960afae9ec6d52f22d2
     Pseudo is Ultrasoft + core correction, Zval =  6.0
     Generated by new atomic code, or converted to UPF format
     Using radial grid of  737 points,  5 beta functions with:
                l(1) =   0
                l(2) =   0
                l(3) =   1
                l(4) =   1
                l(5) =   2
     Q(r) pseudized with  8 coefficients,  rinner =    0.900   0.900   0.900
                                                       0.900   0.900

     PseudoPot. # 2 for Ti read from file:
     /home/camp/zhonxu/pseudo/ti_pbe_v1.uspp.F.UPF
     MD5 check sum: bcc8f6961b3b91f0cac3ca967d22d0fb
     Pseudo is Ultrasoft + core correction, Zval = 12.0
     Generated by new atomic code, or converted to UPF format
     Using radial grid of  851 points,  6 beta functions with:
                l(1) =   0
                l(2) =   0
                l(3) =   1
                l(4) =   1
                l(5) =   2
                l(6) =   2
     Q(r) pseudized with  6 coefficients,  rinner =    1.000   1.000   1.000
                                                       1.000   1.000

     PseudoPot. # 3 for H  read from file:
     /home/camp/zhonxu/pseudo/h_pbe_v1.uspp.F.UPF
     MD5 check sum: 3408e3ff4ec8b0a4e358431e7e038a48
     Pseudo is Ultrasoft, Zval =  1.0
     Generated by new atomic code, or converted to UPF format
     Using radial grid of  615 points,  2 beta functions with:
                l(1) =   0
                l(2) =   0
     Q(r) pseudized with  8 coefficients,  rinner =    0.700

     atomic species   valence    mass     pseudopotential
        O0             6.00    15.99940     O ( 1.00)
        Ti1           12.00    47.88000     Ti( 1.00)
        H2             1.00     1.00794     H ( 1.00)

     Starting magnetic structure
     atomic species   magnetization
        O0           0.000
        Ti1          0.000
        H2           0.000

     No symmetry found

   Cartesian axes

     site n.     atom                  positions (alat units)
         1           O0  tau(   1) = (   0.0000000   0.0000000   1.6989461  )
         2           O0  tau(   2) = (   0.0000000   0.5535432   1.7901728  )
         3           Ti1 tau(   3) = (   0.2500000   0.5535432   2.0162933  )
         4           Ti1 tau(   4) = (   0.0000000   0.0000000   2.0248388  )
         5           O0  tau(   5) = (   0.2500000   0.8967400   2.0178145  )
         6           O0  tau(   6) = (   0.2500000   0.2103464   2.0226912  )
         7           O0  tau(   7) = (   0.0000000   0.5535432   2.2326603  )
         8           O0  tau(   8) = (   0.0000000   0.0000000   2.3559662  )
         9           Ti1 tau(   9) = (   0.2500000   0.0000000   2.5995804  )
        10           Ti1 tau(  10) = (   0.0000000   0.5535432   2.5483968  )
        11           O0  tau(  11) = (   0.2500000   0.7638896   2.5964932  )
        12           O0  tau(  12) = (   0.2500000   0.3431968   2.5965380  )
        13           O0  tau(  13) = (   0.0000000   0.0000000   2.7842708  )
        14           O0  tau(  14) = (   0.5000000   0.0000000   1.6989461  )
        15           O0  tau(  15) = (   0.5000000   0.5535432   1.7901728  )
        16           Ti1 tau(  16) = (   0.7500000   0.5535432   2.0162933  )
        17           Ti1 tau(  17) = (   0.5000000   0.0000000   2.0248388  )
        18           O0  tau(  18) = (   0.7500000   0.8967400   2.0178145  )
        19           O0  tau(  19) = (   0.7500000   0.2103464   2.0226912  )
        20           O0  tau(  20) = (   0.5000000   0.5535432   2.2326603  )
        21           O0  tau(  21) = (   0.5000000   0.0000000   2.3559662  )
        22           Ti1 tau(  22) = (   0.7500000   0.0000000   2.5995804  )
        23           Ti1 tau(  23) = (   0.5000000   0.5535432   2.5483968  )
        24           O0  tau(  24) = (   0.7500000   0.7638896   2.5964932  )
        25           O0  tau(  25) = (   0.7500000   0.3431968   2.5965380  )
        26           O0  tau(  26) = (   0.5000000   0.0000000   2.7842708  )
        27           H2  tau(  27) = (  -0.0005400   0.6991915   1.7063283  )
        28           H2  tau(  28) = (   0.4994600   0.6991915   1.7063283  )
        29           H2  tau(  29) = (   0.1501800   0.0252084   1.6321479  )
        30           H2  tau(  30) = (   0.6501800   0.0252084   1.6321479  )
        31           O0  tau(  31) = (   0.5200800   0.5537093   2.8866827  )
        32           H2  tau(  32) = (   0.3772500   0.5533771   2.9703929  )

     number of k points=    20  Methfessel-Paxton smearing, width (Ry)=  0.0100
                       cart. coord. in units 2pi/alat
        k(    1) = (   0.0000000   0.0000000   0.0000000), wk =   0.0625000
        k(    2) = (   0.0000000   0.2258180   0.0000000), wk =   0.1250000
        k(    3) = (   0.0000000  -0.4516359   0.0000000), wk =   0.0625000
        k(    4) = (   0.2500000   0.0000000   0.0000000), wk =   0.1250000
        k(    5) = (   0.2500000   0.2258180   0.0000000), wk =   0.1250000
        k(    6) = (   0.2500000  -0.4516359   0.0000000), wk =   0.1250000
        k(    7) = (  -0.5000000   0.0000000   0.0000000), wk =   0.0625000
        k(    8) = (  -0.5000000   0.2258180   0.0000000), wk =   0.1250000
        k(    9) = (  -0.5000000  -0.4516359   0.0000000), wk =   0.0625000
        k(   10) = (  -0.2500000   0.2258180   0.0000000), wk =   0.1250000
        k(   11) = (   0.0000000   0.0000000   0.0000000), wk =   0.0625000
        k(   12) = (   0.0000000   0.2258180   0.0000000), wk =   0.1250000
        k(   13) = (   0.0000000  -0.4516359   0.0000000), wk =   0.0625000
        k(   14) = (   0.2500000   0.0000000   0.0000000), wk =   0.1250000
        k(   15) = (   0.2500000   0.2258180   0.0000000), wk =   0.1250000
        k(   16) = (   0.2500000  -0.4516359   0.0000000), wk =   0.1250000
        k(   17) = (  -0.5000000   0.0000000   0.0000000), wk =   0.0625000
        k(   18) = (  -0.5000000   0.2258180   0.0000000), wk =   0.1250000
        k(   19) = (  -0.5000000  -0.4516359   0.0000000), wk =   0.0625000
        k(   20) = (  -0.2500000   0.2258180   0.0000000), wk =   0.1250000

     Largest allocated arrays     est. size (Mb)     dimensions
     Largest temporary arrays     est. size (Mb)     dimensions

     Check: negative/imaginary core charge=   -0.000006    0.000000

     Initial potential from superposition of free atoms
     Check: negative starting charge=(component1):   -0.051406
     Check: negative starting charge=(component2):   -0.051406

     starting charge  206.99957, renormalised to  215.00000

     negative rho (up, down):  0.534E-01 0.534E-01
     Starting wfc are  161 randomized atomic wfcs

     Self-consistent Calculation

     iteration #  1     ecut=    40.00 Ry     beta=0.70
     Davidson diagonalization with overlap
     ethr =  1.00E-02,  avg # of iterations =  6.0

     negative rho (up, down):  0.580E-01 0.580E-01

     total energy              =   -1563.86698411 Ry
     Harris-Foulkes estimate   =   -1569.77544937 Ry
     estimated scf accuracy    <       7.21151345 Ry

     total magnetization       =    -0.00 Bohr mag/cell
     absolute magnetization    =     0.01 Bohr mag/cell

[...]

     End of self-consistent calculation

 ------ SPIN UP ------------

          k = 0.0000 0.0000 0.0000 ( 29975 PWs)   bands (ev):

   -60.5760 -60.5381 -59.8838 -59.5607 -59.1248 -59.0833 -58.6034 -58.5622
   -37.1424 -36.8422 -36.7418 -36.7276 -36.6754 -36.6397 -36.2707 -36.2516
   -36.0780 -35.8507 -35.7839 -35.7825 -35.7813 -35.4743 -35.3665 -35.3213
   -35.2428 -35.2109 -35.1166 -34.9243 -34.8949 -34.8673 -34.7664 -34.6433
   -22.1909 -21.9090 -21.0694 -20.7577 -20.4840 -20.3606 -20.1870 -19.7233
   -19.6784 -19.5273 -19.4720 -19.4107 -19.3760 -19.1628 -19.0881 -18.9600
   -18.5283 -18.0277 -17.9691  -9.9308  -9.4964  -8.4437  -8.3371  -8.1962
    -8.0623  -7.9900  -7.8715  -7.4484  -7.3541  -7.2069  -7.1576  -6.9965
    -6.8334  -6.7959  -6.7069  -6.7004  -6.6355  -6.5680  -6.5380  -6.4098
    -6.2423  -6.0927  -5.9005  -5.6587  -5.5274  -5.5021  -5.4634  -5.4051
    -5.3933  -5.3742  -5.3088  -5.0917  -4.9283  -4.8250  -4.7657  -4.7384
    -4.6915  -4.6484  -4.4774  -4.3339  -4.2192  -4.1772  -4.0519  -3.9781
    -3.8873  -3.7369  -3.6805  -3.4052  -3.3684  -3.3415  -3.2709  -3.0735
    -3.0697  -2.8817  -2.8704  -2.7785  -1.5543  -1.0495  -0.8767  -0.8377
    -0.6843  -0.5883  -0.4985  -0.4383  -0.0734   0.1431   0.3075   0.3991
     0.6074   0.6084   0.6731   0.7367   0.7413   0.7487   0.9580   1.0324
     1.2988   1.3889   1.4412   1.7008   1.8837   1.9277   1.9886   2.0839
     2.3387   2.6034   2.9218   3.0240   3.2133   3.3317   3.4979   3.5639
     3.5742   3.5885   3.7273   4.0762   4.1313   4.4127   4.5780   4.6420
     4.9686   5.3468   5.5977   5.7102   5.8261   6.3948   6.4802   6.5766
     6.9436   6.9684   7.1102   7.1680   7.2237   7.4600   7.6876   7.7053
     7.7542   7.7979   7.9101   7.9686   8.1017   8.2004   8.2887   8.3511
     8.4783   8.5806   8.6703   8.6972   8.7951   8.9022   8.9663   9.0803
     9.1675   9.2526   9.3299   9.4767   9.5458   9.6253   9.7936   9.9571
[...]
     atom   14 type  1   force =    -0.00007910   -0.01499179   -0.00329075
     atom   15 type  1   force =     0.00007946    0.02565652   -0.00460809
     atom   16 type  2   force =    -0.01032335   -0.01616437    0.01316003
     atom   17 type  2   force =    -0.00575366    0.00819175    0.00629625
     atom   18 type  1   force =     0.00446855   -0.10243265   -0.00072968
     atom   19 type  1   force =    -0.00048815    0.10233359   -0.00096391
     atom   20 type  1   force =    -0.00076267    0.00081614   -0.06329414
     atom   21 type  1   force =     0.00302457   -0.00154435   -0.00562394
     atom   22 type  2   force =    -0.00142747    0.00014812    0.01720164
     atom   23 type  2   force =     0.00088289   -0.00021957    0.10417780
     atom   24 type  1   force =     0.02602527   -0.01875847   -0.02431346
     atom   25 type  1   force =     0.02599483    0.01901718   -0.02446619
     atom   26 type  1   force =    -0.00085873   -0.00011474   -0.00393638
     atom   27 type  3   force =     0.00001109   -0.00179705   -0.00052539
     atom   28 type  3   force =    -0.00000453   -0.00262723   -0.00050463
     atom   29 type  3   force =    -0.00030102    0.00067893   -0.00063194
     atom   30 type  3   force =     0.00082573    0.00054279   -0.00072911
     atom   31 type  1   force =     0.00506700    0.00001796    0.01728669
     atom   32 type  3   force =    -0.00312691   -0.00002808    0.00185397

     Total force =     0.135328     Total SCF correction =     0.002932

     BFGS Geometry Optimization

     number of scf cycles    =   1
     number of bfgs steps    =   0

     energy   new            =   -1568.2534131140 Ry

     new trust radius        =       0.1041777963 bohr
     new conv_thr            =       0.0000010000 Ry

ATOMIC_POSITIONS (crystal)
O0       0.000000000   0.000000000   0.379680119    0   0   1
O0       0.000000000   0.500000000   0.400045049    0   0   1
Ti1      0.250000000   0.500000000   0.450915205    0   0   1
Ti1      0.000000000   0.000000000   0.452546030    0   0   1
O0       0.250000000   0.810000000   0.450989335    0   0   1
O0       0.250000000   0.190000000   0.452071988    0   0   1
O0       0.000000000   0.500000000   0.498770913    0   0   1
O0       0.000000000   0.000000000   0.526433170    0   0   1
Ti1      0.250000000   0.000000000   0.581330155    0   0   1
Ti1      0.000000000   0.500000000   0.569800279    0   0   1
O0       0.250000000   0.690000000   0.579999914    0   0   1
O0       0.250000000   0.310000000   0.580009377    0   0   1
O0       0.000000000   0.000000000   0.622273618    0   0   1
O0       0.500000000   0.000000000   0.379664475    0   0   1
O0       0.500000000   0.500000000   0.400028245    0   0   1
Ti1      0.750000000   0.500000000   0.450922039    0   0   1
Ti1      0.500000000   0.000000000   0.452695369    0   0   1
O0       0.750000000   0.810000000   0.450985471    0   0   1
O0       0.750000000   0.190000000   0.452070807    0   0   1
O0       0.500000000   0.500000000   0.497759701    0   0   1
O0       0.500000000   0.000000000   0.526468017    0   0   1
Ti1      0.750000000   0.000000000   0.581372515    0   0   1
Ti1      0.500000000   0.500000000   0.571664365    0   0   1
O0       0.750000000   0.690000000   0.579855876    0   0   1
O0       0.750000000   0.310000000   0.579862835    0   0   1
O0       0.500000000   0.000000000   0.622231620    0   0   1
H2      -0.000539012   0.631415391   0.381369539
H2       0.499459597   0.631348587   0.381369952
H2       0.150153183   0.022824634   0.364787417
H2       0.650253562   0.022813678   0.364785482
O0       0.520531404   0.500151445   0.645544209
H2       0.376971432   0.499847741   0.663946916

     Check: negative starting charge=(component1):   -0.102812
     NEW-OLD atomic charge density approx. for the potential

     Check: negative/imaginary core charge=   -0.000006    0.000000
     Check: negative starting charge=(component1):   -0.101859

[...]

     energy   old            =   -1568.2534131140 Ry
     energy   new            =   -1568.2681616037 Ry

     CASE: energy  _new < energy  _old

[...]

     iteration #  1     ecut=    40.00 Ry     beta=0.70
     Davidson diagonalization with overlap
     c_bands:  1 eigenvalues not converged
     c_bands:  1 eigenvalues not converged
     ethr =  1.00E-06,  avg # of iterations =  8.0

[...]

     CASE: energy  _new > energy  _old

[...]

     iteration #  1     ecut=    40.00 Ry     beta=0.70
     Davidson diagonalization with overlap
     c_bands:  1 eigenvalues not converged
     c_bands:  1 eigenvalues not converged
     ethr =  1.00E-06,  avg # of iterations =  6.5

[...]

     Threshold (ethr) on eigenvalues was too large:
     Diagonalizing with lowered threshold

     Davidson diagonalization with overlap
     ethr =  6.32E-08,  avg # of iterations =  1.0

[...]

     number of scf cycles    =  29
     number of bfgs steps    =  27

     energy   old            =   -1568.3328626656 Ry
     energy   new            =   -1568.3328771879 Ry

     CASE: energy  _new < energy  _old

     new trust radius        =       0.0097721558 bohr
     new conv_thr            =       0.0000000100 Ry

ATOMIC_POSITIONS (crystal)
O0       0.000000000   0.000000000   0.376926990    0   0   1
O0       0.000000000   0.500000000   0.396508754    0   0   1
Ti1      0.250000000   0.500000000   0.448687492    0   0   1
Ti1      0.000000000   0.000000000   0.454267785    0   0   1
O0       0.250000000   0.810000000   0.448018497    0   0   1
O0       0.250000000   0.190000000   0.449078314    0   0   1
O0       0.000000000   0.500000000   0.496124032    0   0   1
O0       0.000000000   0.000000000   0.525414575    0   0   1
Ti1      0.250000000   0.000000000   0.581609634    0   0   1
Ti1      0.000000000   0.500000000   0.566502804    0   0   1
O0       0.250000000   0.690000000   0.579593906    0   0   1
O0       0.250000000   0.310000000   0.579567514    0   0   1
O0       0.000000000   0.000000000   0.622358446    0   0   1
O0       0.500000000   0.000000000   0.377136906    0   0   1
O0       0.500000000   0.500000000   0.395834956    0   0   1
Ti1      0.750000000   0.500000000   0.448804800    0   0   1
Ti1      0.500000000   0.000000000   0.454890816    0   0   1
O0       0.750000000   0.810000000   0.447927012    0   0   1
O0       0.750000000   0.190000000   0.449134944    0   0   1
O0       0.500000000   0.500000000   0.491079191    0   0   1
O0       0.500000000   0.000000000   0.525563099    0   0   1
Ti1      0.750000000   0.000000000   0.581676456    0   0   1
Ti1      0.500000000   0.500000000   0.593841129    0   0   1
O0       0.750000000   0.690000000   0.578990390    0   0   1
O0       0.750000000   0.310000000   0.578932045    0   0   1
O0       0.500000000   0.000000000   0.622357482    0   0   1
H2      -0.000772505   0.622298679   0.374910936
H2       0.499333348   0.618761317   0.373160061
H2       0.149647016   0.039345252   0.363767858
H2       0.649507149   0.039352881   0.363895234
O0       0.504786272   0.499890238   0.661280560
H2       0.376605207   0.499510462   0.684407383

     Check: negative starting charge=(component1):   -0.102315
     NEW-OLD atomic charge density approx. for the potential

     Check: negative/imaginary core charge=   -0.000006    0.000000
     Check: negative starting charge=(component1):   -0.102328

[...]

     Self-consistent Calculation

[...]

     Threshold (ethr) on eigenvalues was too large:
     Diagonalizing with lowered threshold

     Davidson diagonalization with overlap
     ethr =  7.68E-09,  avg # of iterations =  2.7

[...]

     total energy              =   -1568.33288812 Ry
     Harris-Foulkes estimate   =   -1568.33288813 Ry
     estimated scf accuracy    <       0.00000003 Ry

[...]

     iteration #  9     ecut=    40.00 Ry     beta=0.70
     Davidson diagonalization with overlap
     ethr =  1.28E-11,  avg # of iterations =  1.1

     negative rho (up, down):  0.513E-01 0.509E-01

     End of self-consistent calculation

 ------ SPIN UP ------------

[...]

 ------ SPIN DOWN ----------

[...]

          k = 0.2500-0.4516 0.0000 ( 29882 PWs)   bands (ev):

[...]

          k =-0.2500 0.2258 0.0000 ( 29912 PWs)   bands (ev):

   -59.8851 -59.8568 -59.6496 -59.2632 -59.0095 -58.9798 -58.6795 -58.6483
   -36.3862 -36.1539 -36.0976 -36.0572 -36.0416 -36.0333 -36.0046 -35.9265
   -35.8290 -35.5976 -35.5618 -35.5188 -35.4653 -35.3309 -35.2575 -35.2448
   -35.1730 -35.1655 -35.1276 -34.9653 -34.9478 -34.9383 -34.8711 -34.8063
   -21.3317 -21.0944 -20.4279 -20.3982 -20.0008 -19.6763 -19.4919 -19.4394
   -19.3735 -19.2863 -19.2115 -19.0538 -19.0163 -18.9896 -18.9692 -18.6973
   -18.4724 -18.1910 -18.1709  -9.1565  -8.8727  -8.3371  -7.7668  -7.5761
    -7.3930  -7.2267  -7.1408  -7.0184  -6.8306  -6.6715  -6.6405  -6.6189
    -6.5503  -6.4215  -6.3722  -6.2824  -6.2100  -6.0946  -6.0588  -5.9332
    -5.8890  -5.7194  -5.5837  -5.4528  -5.3223  -5.2233  -5.1354  -5.0423
    -4.9988  -4.9349  -4.8061  -4.7562  -4.6795  -4.6624  -4.5685  -4.5065
    -4.4281  -4.3675  -4.2868  -4.1996  -4.1532  -4.0592  -3.9686  -3.8563
    -3.7628  -3.6718  -3.5691  -3.5295  -3.4080  -3.2757  -3.2031  -3.1655
    -3.0151  -2.7826  -2.6790  -2.4624  -0.5130  -0.4399  -0.3858  -0.2155
    -0.0174   0.0423   0.1618   0.2323   0.3019   0.4273   0.5548   0.5776
     0.7217   0.7869   0.8436   0.9256   1.0791   1.1433   1.2560   1.3349
     1.4340   1.5838   1.6084   1.7242   1.8850   2.2768   2.3687   2.5381
     2.5690   2.8236   2.9025   3.2354   3.3371   3.4045   3.6346   3.6470
     3.8553   3.8960   3.9907   4.1093   4.1862   4.4865   4.5190   4.6569
     5.0334   5.2637   5.2794   5.5618   5.8352   5.8655   6.0902   6.1997
     6.3226   6.4469   6.5416   6.8530   6.9648   7.2960   7.3756   7.4801
     7.6383   7.8291   7.8981   8.0194   8.0951   8.1590   8.2216   8.3884
     8.5377   8.5990   8.7827   8.8628   8.9560   9.1676   9.2588   9.3198
     9.4350   9.5633   9.6132   9.6305   9.8238   9.9242  10.0477  10.0840
    10.1875  10.2818  10.3937  10.5146  10.6241  10.6777  10.7840  10.8243
    10.9910  11.0136  11.0643  11.1575  11.3186  11.3445  11.4219  11.5084
    11.5180  11.6027  11.6977  11.7850  11.8732  12.0118  12.0344  12.1009
    12.1794  12.2339  12.2626  12.3819  12.4322  12.4869  12.5610  12.6486
    12.7650  12.8565  12.9086  12.9241  13.0274  13.0399  13.1073  13.1901
    13.3876  13.4173  13.5587  13.6453  13.6851  13.7428  13.8857  13.9042
    13.9581  14.0164  14.1795  14.2316  14.2525  14.3056  14.4898  14.5364
    14.5674  14.6086  14.6814  14.7233  14.7815  14.9177  15.0165  15.0261
    15.1096  15.2371  15.2968  15.3466  15.3830  15.4528  15.5337  15.6085
    15.6760  15.6840  15.8091  15.8624  15.9166  15.9834  16.0659  16.1217
    16.2346  16.3049  16.3809  16.4123  16.4548  16.5077  16.6340  16.7187
    16.7705  16.8031  16.8324  16.8746  16.9905  17.0597  17.0959  17.1654
    17.2343  17.3484  17.3664  17.4180  17.5003  17.5282  17.6583  17.7826
    17.8410  17.9097  17.9648  17.9861  18.1239  18.1355  18.2594  18.3020
    18.4171  18.4611  18.4919  18.5728  18.6295  18.7230

     the Fermi energy is    -2.5745 ev

!    total energy              =   -1568.33288812 Ry
     Harris-Foulkes estimate   =   -1568.33288812 Ry
     estimated scf accuracy    <          4.0E-09 Ry

     The total energy is the sum of the following terms:

     one-electron contribution =  -18638.05234095 Ry
     hartree contribution      =    9339.35813714 Ry
     xc contribution           =    -277.61142162 Ry
     ewald contribution        =    8007.97266033 Ry
     smearing contrib. (-TS)   =       0.00007699 Ry

     total magnetization       =     1.02 Bohr mag/cell
     absolute magnetization    =     1.26 Bohr mag/cell

     convergence has been achieved in   9 iterations

     Forces acting on atoms (Ry/au):

     negative rho (up, down):  0.513E-01 0.509E-01
     atom    1 type  1   force =    -0.00081952   -0.01093205    0.00007899
     atom    2 type  1   force =     0.00005377    0.01493548    0.00006045
     atom    3 type  2   force =     0.06123151   -0.01238241   -0.00028473
     atom    4 type  2   force =    -0.00317970    0.00639642    0.00059671
     atom    5 type  1   force =    -0.00351977   -0.06480328    0.00006817
     atom    6 type  1   force =    -0.00373078    0.06768675   -0.00002004
     atom    7 type  1   force =     0.00149330    0.00185300    0.00063532
     atom    8 type  1   force =     0.00253106   -0.00171919    0.00010816
     atom    9 type  2   force =     0.00007209   -0.00002405   -0.00026440
     atom   10 type  2   force =    -0.00451962   -0.00010814    0.00030834
     atom   11 type  1   force =    -0.01796858   -0.02383730   -0.00078453
     atom   12 type  1   force =    -0.01822947    0.02368766   -0.00077316
     atom   13 type  1   force =     0.00123056    0.00007366   -0.00031739
     atom   14 type  1   force =    -0.00114799   -0.01017367   -0.00006262
     atom   15 type  1   force =    -0.00001192    0.01138274   -0.00017274
     atom   16 type  2   force =    -0.06125690   -0.01272140   -0.00023570
     atom   17 type  2   force =    -0.00290211    0.00564665    0.00091511
     atom   18 type  1   force =     0.00556558   -0.06392287    0.00019046
     atom   19 type  1   force =     0.00620927    0.06817483   -0.00007000
     atom   20 type  1   force =    -0.00072233    0.00101399   -0.00068688
     atom   21 type  1   force =     0.00111124   -0.00151109    0.00008379
     atom   22 type  2   force =    -0.00088979    0.00002268   -0.00010949
     atom   23 type  2   force =    -0.00149992    0.00010033   -0.00048039
     atom   24 type  1   force =     0.02028336   -0.02221019    0.00000742
     atom   25 type  1   force =     0.02021029    0.02213150    0.00001374
     atom   26 type  1   force =    -0.00064945    0.00004148   -0.00040713
     atom   27 type  3   force =    -0.00005011    0.00027563    0.00046398
     atom   28 type  3   force =     0.00003051    0.00026777    0.00025287
     atom   29 type  3   force =    -0.00005264    0.00030384    0.00020421
     atom   30 type  3   force =     0.00005972    0.00037289    0.00030072
     atom   31 type  1   force =     0.00020444    0.00000035   -0.00017485
     atom   32 type  3   force =     0.00086389   -0.00002201    0.00055560

     Total force =     0.002476     Total SCF correction =     0.000085

     bfgs converged in  30 scf cycles and  28 bfgs steps
     (criteria: energy < 0.10E-03, force < 0.10E-02)

     End of BFGS Geometry Optimization

     Final energy   =   -1568.3328881189 Ry
Begin final coordinates

ATOMIC_POSITIONS (crystal)
O0       0.000000000   0.000000000   0.376926990    0   0   1
O0       0.000000000   0.500000000   0.396508754    0   0   1
Ti1      0.250000000   0.500000000   0.448687492    0   0   1
Ti1      0.000000000   0.000000000   0.454267785    0   0   1
O0       0.250000000   0.810000000   0.448018497    0   0   1
O0       0.250000000   0.190000000   0.449078314    0   0   1
O0       0.000000000   0.500000000   0.496124032    0   0   1
O0       0.000000000   0.000000000   0.525414575    0   0   1
Ti1      0.250000000   0.000000000   0.581609634    0   0   1
Ti1      0.000000000   0.500000000   0.566502804    0   0   1
O0       0.250000000   0.690000000   0.579593906    0   0   1
O0       0.250000000   0.310000000   0.579567514    0   0   1
O0       0.000000000   0.000000000   0.622358446    0   0   1
O0       0.500000000   0.000000000   0.377136906    0   0   1
O0       0.500000000   0.500000000   0.395834956    0   0   1
Ti1      0.750000000   0.500000000   0.448804800    0   0   1
Ti1      0.500000000   0.000000000   0.454890816    0   0   1
O0       0.750000000   0.810000000   0.447927012    0   0   1
O0       0.750000000   0.190000000   0.449134944    0   0   1
O0       0.500000000   0.500000000   0.491079191    0   0   1
O0       0.500000000   0.000000000   0.525563099    0   0   1
Ti1      0.750000000   0.000000000   0.581676456    0   0   1
Ti1      0.500000000   0.500000000   0.593841129    0   0   1
O0       0.750000000   0.690000000   0.578990390    0   0   1
O0       0.750000000   0.310000000   0.578932045    0   0   1
O0       0.500000000   0.000000000   0.622357482    0   0   1
H2      -0.000772505   0.622298679   0.374910936
H2       0.499333348   0.618761317   0.373160061
H2       0.149647016   0.039345252   0.363767858
H2       0.649507149   0.039352881   0.363895234
O0       0.504786272   0.499890238   0.661280560
H2       0.376605207   0.499510462   0.684407383
End final coordinates

     General routines

     Parallel routines

   This run was terminated on:   5:20:49   3Apr2014

   JOB DONE.