     Program PWSCF v.5.0.2 (svn rev. 9656) starts on  2May2014 at  0:39: 7

     Current dimensions of program PWSCF are:
     Max number of different atomic species (ntypx) = 10
     Max number of k-points (npk) =  40000
     Max angular momentum in pseudopotentials (lmaxx) =  3
     Reading input from pwscf.in
Warning: card &CELL ignored
Warning: card / ignored

     Subspace diagonalization in iterative solution of the eigenvalue problem:
     a serial algorithm will be used

     bravais-lattice index     =            0
     lattice parameter (alat)  =      10.1289  a.u.
     unit-cell volume          =    6836.7721 (a.u.)^3
     number of atoms/cell      =           32
     number of atomic types    =            3
     number of electrons       =       239.00
     number of Kohn-Sham states=          358
     kinetic-energy cutoff     =      40.0000  Ry
     charge density cutoff     =     500.0000  Ry
     convergence threshold     =      1.0E-06
     mixing beta               =       0.7000
     number of iterations used =            8  plain     mixing
     Exchange-correlation      = SLA  PW   PBE  PBE ( 1 4 3 4 0)
     EXX-fraction              =        0.00
     nstep                     =           50

     celldm(1)=  10.128932  celldm(2)=   0.000000  celldm(3)=   0.000000
     celldm(4)=   0.000000  celldm(5)=   0.000000  celldm(6)=   0.000000

     crystal axes: (cart. coord. in units of alat)
               a(1) = (   1.000000   0.000000   0.000000 )
               a(2) = (   0.000000   1.306037   0.000000 )
               a(3) = (   0.000000   0.000000   5.037380 )

     reciprocal axes: (cart. coord. in units 2 pi/alat)
               b(1) = (  1.000000  0.000000  0.000000 )
               b(2) = (  0.000000  0.765675  0.000000 )
               b(3) = (  0.000000  0.000000  0.198516 )

     PseudoPot. # 1 for O  read from file:
     /home/camp/zhonxu/pseudo/o_pbe_v1.01.uspp.F.UPF
     MD5 check sum: 2bcb18d16ea4b960afae9ec6d52f22d2
     Pseudo is Ultrasoft + core correction, Zval =  6.0
     Generated by new atomic code, or converted to UPF format
     Using radial grid of  737 points,  5 beta functions with:
                l(1) =   0
                l(2) =   0
                l(3) =   1
                l(4) =   1
                l(5) =   2
     Q(r) pseudized with  8 coefficients,  rinner =    0.900   0.900   0.900
                                                       0.900   0.900

     PseudoPot. # 2 for Re read from file:
     /home/camp/zhonxu/pseudo/re_pbe_v1.uspp.F.UPF
     MD5 check sum: 6f5a5dcaf9c96c20d0ffdde0de57afc6
     Pseudo is Ultrasoft + core correction, Zval = 15.0
     Generated by new atomic code, or converted to UPF format
     Using radial grid of  981 points,  8 beta functions with:
                l(1) =   0
                l(2) =   0
                l(3) =   1
                l(4) =   1
                l(5) =   2
                l(6) =   2
                l(7) =   3
                l(8) =   3
     Q(r) pseudized with  8 coefficients,  rinner =    1.000   1.000   1.000
                                                       1.000   1.000   1.000
                                                       1.000

     PseudoPot. # 3 for H  read from file:
     /home/camp/zhonxu/pseudo/h_pbe_v1.uspp.F.UPF
     MD5 check sum: 3408e3ff4ec8b0a4e358431e7e038a48
     Pseudo is Ultrasoft, Zval =  1.0
     Generated by new atomic code, or converted to UPF format
     Using radial grid of  615 points,  2 beta functions with:
                l(1) =   0
                l(2) =   0
     Q(r) pseudized with  8 coefficients,  rinner =    0.700

     atomic species   valence    mass     pseudopotential
        O0             6.00    15.99940     O ( 1.00)
        Re1           15.00   186.20700     Re( 1.00)
        H2             1.00     1.00794     H ( 1.00)

     Simplified LDA+U calculation (l_max = 2) with parameters (eV):
     atomic species    L          U    alpha       J0     beta
        Re1            2     5.0000   0.0000   0.0000   0.0000

     No symmetry found

   Cartesian axes

     site n.     atom                  positions (alat units)
         1           O0  tau(   1) = (   0.0000000   0.0000000   1.8669538  )
         2           O0  tau(   2) = (   0.0000000   0.6530184   1.9246318  )
         3           Re1 tau(   3) = (   0.2500000   0.6530184   2.2252626  )
         4           Re1 tau(   4) = (   0.0000000   0.0000000   2.2335239  )
         5           O0  tau(   5) = (   0.2500000   1.0187087   2.2252626  )
         6           O0  tau(   6) = (   0.2500000   0.2873281   2.2245574  )
         7           O0  tau(   7) = (   0.0000000   0.6530184   2.5039809  )
         8           O0  tau(   8) = (   0.0000000   0.0000000   2.5944019  )
         9           Re1 tau(   9) = (   0.2500000   0.0000000   2.8956372  )
        10           Re1 tau(  10) = (   0.0000000   0.6530184   2.8532728  )
        11           O0  tau(  11) = (   0.2500000   0.9403465   2.8863684  )
        12           O0  tau(  12) = (   0.2500000   0.3656903   2.8866706  )
        13           O0  tau(  13) = (   0.0000000   0.0000000   3.1589410  )
        14           O0  tau(  14) = (   0.5000000   0.0000000   1.8671553  )
        15           O0  tau(  15) = (   0.5000000   0.6530184   1.9260926  )
        16           Re1 tau(  16) = (   0.7500000   0.6530184   2.2254138  )
        17           Re1 tau(  17) = (   0.5000000   0.0000000   2.2327683  )
        18           O0  tau(  18) = (   0.7500000   1.0187087   2.2250108  )
        19           O0  tau(  19) = (   0.7500000   0.2873281   2.2249100  )
        20           O0  tau(  20) = (   0.5000000   0.6530184   2.5136527  )
        21           O0  tau(  21) = (   0.5000000   0.0000000   2.5937470  )
        22           Re1 tau(  22) = (   0.7500000   0.0000000   2.8949319  )
        23           Re1 tau(  23) = (   0.5000000   0.6530184   2.8846557  )
        24           O0  tau(  24) = (   0.7500000   0.9403465   2.8822881  )
        25           O0  tau(  25) = (   0.7500000   0.3656903   2.8822881  )
        26           O0  tau(  26) = (   0.5000000   0.0000000   3.1556667  )
        27           H2  tau(  27) = (  -0.0003600   0.8163644   1.8395505  )
        28           H2  tau(  28) = (   0.4996200   0.8138568   1.8363769  )
        29           H2  tau(  29) = (   0.1695000   0.0302217   1.7958260  )
        30           H2  tau(  30) = (   0.6704500   0.0285761   1.7967327  )
        31           O0  tau(  31) = (   0.5277600   0.6525874   3.2436194  )
        32           H2  tau(  32) = (   0.3788200   0.6519344   3.3501096  )

     number of k points=    10  Methfessel-Paxton smearing, width (Ry)=  0.0100
                       cart. coord. in units 2pi/alat
        k(    1) = (   0.0000000   0.0000000   0.0000000), wk =   0.1250000
        k(    2) = (   0.0000000   0.1914188   0.0000000), wk =   0.2500000
        k(    3) = (   0.0000000  -0.3828376   0.0000000), wk =   0.1250000
        k(    4) = (   0.2500000   0.0000000   0.0000000), wk =   0.2500000
        k(    5) = (   0.2500000   0.1914188   0.0000000), wk =   0.2500000
        k(    6) = (   0.2500000  -0.3828376   0.0000000), wk =   0.2500000
        k(    7) = (  -0.5000000   0.0000000   0.0000000), wk =   0.1250000
        k(    8) = (  -0.5000000   0.1914188   0.0000000), wk =   0.2500000
        k(    9) = (  -0.5000000  -0.3828376   0.0000000), wk =   0.1250000
        k(   10) = (  -0.2500000   0.1914188   0.0000000), wk =   0.2500000

     Largest allocated arrays     est. size (Mb)     dimensions
     Largest temporary arrays     est. size (Mb)     dimensions

     Check: negative/imaginary core charge=   -0.000003    0.000000

     Initial potential from superposition of free atoms
     Check: negative starting charge=   -0.237247

     starting charge  234.99957, renormalised to  239.00000

     negative rho (up, down):  0.241E+00 0.000E+00
     Number of +U iterations with fixed ns =  0
     Starting occupations:
 --- enter write_ns ---
 LDA+U parameters:
U( 2)     =  5.00000000
alpha( 2) =  0.00000000
atom    3   Tr[ns(na)] =   5.00000
    eigenvalues:
  0.500  0.500  0.500  0.500  0.500
    eigenvectors:
  1.000  0.000  0.000  0.000  0.000
  0.000  1.000  0.000  0.000  0.000
  0.000  0.000  1.000  0.000  0.000
  0.000  0.000  0.000  1.000  0.000
  0.000  0.000  0.000  0.000  1.000
    occupations:
  0.500  0.000  0.000  0.000  0.000
  0.000  0.500  0.000  0.000  0.000
  0.000  0.000  0.500  0.000  0.000
  0.000  0.000  0.000  0.500  0.000
  0.000  0.000  0.000  0.000  0.500
atom    4   Tr[ns(na)] =   5.00000
    eigenvalues:
  0.500  0.500  0.500  0.500  0.500
    eigenvectors:
  1.000  0.000  0.000  0.000  0.000
  0.000  1.000  0.000  0.000  0.000
  0.000  0.000  1.000  0.000  0.000
  0.000  0.000  0.000  1.000  0.000
  0.000  0.000  0.000  0.000  1.000
    occupations:
  0.500  0.000  0.000  0.000  0.000
  0.000  0.500  0.000  0.000  0.000
  0.000  0.000  0.500  0.000  0.000
  0.000  0.000  0.000  0.500  0.000
  0.000  0.000  0.000  0.000  0.500
atom    9   Tr[ns(na)] =   5.00000
    eigenvalues:
  0.500  0.500  0.500  0.500  0.500
    eigenvectors:
  1.000  0.000  0.000  0.000  0.000
  0.000  1.000  0.000  0.000  0.000
  0.000  0.000  1.000  0.000  0.000
  0.000  0.000  0.000  1.000  0.000
  0.000  0.000  0.000  0.000  1.000
    occupations:
  0.500  0.000  0.000  0.000  0.000
  0.000  0.500  0.000  0.000  0.000
  0.000  0.000  0.500  0.000  0.000
  0.000  0.000  0.000  0.500  0.000
  0.000  0.000  0.000  0.000  0.500
atom   10   Tr[ns(na)] =   5.00000
    eigenvalues:
  0.500  0.500  0.500  0.500  0.500
    eigenvectors:
  1.000  0.000  0.000  0.000  0.000
  0.000  1.000  0.000  0.000  0.000
  0.000  0.000  1.000  0.000  0.000
  0.000  0.000  0.000  1.000  0.000
  0.000  0.000  0.000  0.000  1.000
    occupations:
  0.500  0.000  0.000  0.000  0.000
  0.000  0.500  0.000  0.000  0.000
  0.000  0.000  0.500  0.000  0.000
  0.000  0.000  0.000  0.500  0.000
  0.000  0.000  0.000  0.000  0.500
atom   16   Tr[ns(na)] =   5.00000
    eigenvalues:
  0.500  0.500  0.500  0.500  0.500
    eigenvectors:
  1.000  0.000  0.000  0.000  0.000
  0.000  1.000  0.000  0.000  0.000
  0.000  0.000  1.000  0.000  0.000
  0.000  0.000  0.000  1.000  0.000
  0.000  0.000  0.000  0.000  1.000
    occupations:
  0.500  0.000  0.000  0.000  0.000
  0.000  0.500  0.000  0.000  0.000
  0.000  0.000  0.500  0.000  0.000
  0.000  0.000  0.000  0.500  0.000
  0.000  0.000  0.000  0.000  0.500
atom   17   Tr[ns(na)] =   5.00000
    eigenvalues:
  0.500  0.500  0.500  0.500  0.500
    eigenvectors:
  1.000  0.000  0.000  0.000  0.000
  0.000  1.000  0.000  0.000  0.000
  0.000  0.000  1.000  0.000  0.000
  0.000  0.000  0.000  1.000  0.000
  0.000  0.000  0.000  0.000  1.000
    occupations:
  0.500  0.000  0.000  0.000  0.000
  0.000  0.500  0.000  0.000  0.000
  0.000  0.000  0.500  0.000  0.000
  0.000  0.000  0.000  0.500  0.000
  0.000  0.000  0.000  0.000  0.500
atom   22   Tr[ns(na)] =   5.00000
    eigenvalues:
  0.500  0.500  0.500  0.500  0.500
    eigenvectors:
  1.000  0.000  0.000  0.000  0.000
[...]
 -0.018 -0.001  0.001  0.786 -0.000
  0.001 -0.002 -0.000 -0.000  0.571
atom    9   Tr[ns(na)] =   6.59366
    eigenvalues:
  0.588  0.594  0.607  0.748  0.760
    eigenvectors:
  0.000  0.230  0.000  0.062  0.707
  0.000  0.000  0.999  0.000  0.000
  0.995  0.000  0.000  0.004  0.001
  0.000  0.769  0.000  0.017  0.213
  0.005  0.000  0.000  0.917  0.079
    occupations:
  0.721  0.001 -0.001 -0.070  0.002
  0.001  0.607  0.000 -0.000  0.000
 -0.001  0.000  0.589  0.001 -0.011
 -0.070 -0.000  0.001  0.632 -0.002
  0.002  0.000 -0.011 -0.002  0.748
atom   10   Tr[ns(na)] =   6.53649
    eigenvalues:
  0.474  0.536  0.602  0.767  0.889
    eigenvectors:
  1.000  0.000  0.000  0.000  0.000
  0.000  0.000  0.000  0.000  1.000
  0.000  0.000  1.000  0.000  0.000
  0.000  0.000  0.000  1.000  0.000
  0.000  1.000  0.000  0.000  0.000
    occupations:
  0.474 -0.009 -0.001 -0.001  0.000
 -0.009  0.889  0.001 -0.000  0.001
 -0.001  0.001  0.602 -0.001 -0.000
 -0.001 -0.000 -0.001  0.767 -0.000
  0.000  0.001 -0.000 -0.000  0.536
atom   16   Tr[ns(na)] =   6.59882
    eigenvalues:
  0.540  0.559  0.570  0.778  0.852
    eigenvectors:
  0.001  0.039  0.280  0.679  0.000
  0.995  0.004  0.000  0.000  0.001
  0.003  0.936  0.054  0.007  0.000
  0.000  0.021  0.665  0.313  0.000
  0.001  0.000  0.000  0.000  0.999
    occupations:
  0.711  0.004  0.017 -0.096 -0.000
  0.004  0.541 -0.001 -0.002 -0.008
  0.017 -0.001  0.561 -0.008  0.003
 -0.096 -0.002 -0.008  0.635  0.000
 -0.000 -0.008  0.003  0.000  0.851
atom   17   Tr[ns(na)] =   6.59135
    eigenvalues:
  0.571  0.594  0.612  0.727  0.791
    eigenvectors:
  0.000  0.001  0.989  0.001  0.010
  0.000  0.006  0.001  0.992  0.000
  0.000  0.993  0.001  0.007  0.000
  0.000  0.000  0.010  0.000  0.990
  0.999  0.000  0.000  0.000  0.000
    occupations:
  0.613  0.003  0.001 -0.018  0.001
  0.003  0.726  0.011 -0.000 -0.002
  0.001  0.011  0.595  0.001 -0.000
 -0.018 -0.000  0.001  0.790 -0.000
  0.001 -0.002 -0.000 -0.000  0.571
atom   22   Tr[ns(na)] =   6.59455
    eigenvalues:
  0.583  0.593  0.604  0.748  0.769
    eigenvectors:
  0.000  0.237  0.000  0.032  0.730
  0.000  0.000  1.000  0.000  0.000
  0.997  0.000  0.000  0.003  0.000
  0.000  0.763  0.000  0.009  0.228
  0.003  0.000  0.000  0.955  0.042
    occupations:
  0.727 -0.001 -0.001 -0.074  0.003
 -0.001  0.604  0.000  0.000  0.000
 -0.001  0.000  0.584  0.000  0.009
 -0.074  0.000  0.000  0.635 -0.003
  0.003  0.000  0.009 -0.003  0.748
atom   23   Tr[ns(na)] =   6.56442
    eigenvalues:
  0.492  0.552  0.594  0.795  0.850
    eigenvectors:
  0.000  0.000  0.998  0.001  0.001
  0.000  0.000  0.001  0.001  0.998
  0.999  0.000  0.000  0.000  0.000
  0.000  0.000  0.001  0.998  0.001
  0.000  1.000  0.000  0.000  0.000
    occupations:
  0.594  0.008 -0.001 -0.007  0.000
  0.008  0.850  0.001  0.002  0.002
 -0.001  0.001  0.492  0.001 -0.001
 -0.007  0.002  0.001  0.795 -0.000
  0.000  0.002 -0.001 -0.000  0.552
N of occupied +U levels =  52.6734103
 --- exit write_ns ---

     Threshold (ethr) on eigenvalues was too large:
     Diagonalizing with lowered threshold

     Davidson diagonalization with overlap
     ethr =  1.93E-09,  avg # of iterations =  2.4

[...]

     total energy              =   -2173.36343440 Ry
     Harris-Foulkes estimate   =   -2173.36343440 Ry
     estimated scf accuracy    <       0.00000002 Ry

     iteration # 11     ecut=    40.00 Ry     beta=0.70
     Davidson diagonalization with overlap
     ethr =  6.74E-12,  avg # of iterations =  1.0

     negative rho (up, down):  0.239E+00 0.000E+00

     End of self-consistent calculation
 --- enter write_ns ---
 LDA+U parameters:
U( 2)     =  5.00000000
alpha( 2) =  0.00000000
atom    3   Tr[ns(na)] =   6.59685
    eigenvalues:
  0.541  0.555  0.571  0.779  0.852
    eigenvectors:
  0.001  0.025  0.294  0.680  0.000
  0.993  0.006  0.000  0.000  0.001
  0.005  0.964  0.024  0.008  0.000
  0.000  0.006  0.682  0.312  0.000
  0.001  0.000  0.000  0.000  0.999
    occupations:
  0.712 -0.004  0.018 -0.096  0.000
 -0.004  0.542  0.001  0.002 -0.008
  0.018  0.001  0.557 -0.009 -0.001
 -0.096  0.002 -0.009  0.636 -0.000
  0.000 -0.008 -0.001 -0.000  0.852
atom    4   Tr[ns(na)] =   6.59697
    eigenvalues:
  0.571  0.605  0.610  0.725  0.788
    eigenvectors:
  0.000  0.002  0.987  0.001  0.010
  0.000  0.012  0.001  0.987  0.000
  0.000  0.986  0.002  0.012  0.000
  0.000  0.000  0.010  0.000  0.989
  0.999  0.000  0.001  0.000  0.000
    occupations:
  0.612  0.003  0.001 -0.018  0.001
  0.003  0.724  0.013 -0.001 -0.002
  0.001  0.013  0.606  0.001 -0.000
 -0.018 -0.001  0.001  0.786 -0.000
  0.001 -0.002 -0.000 -0.000  0.571
atom    9   Tr[ns(na)] =   6.59430
    eigenvalues:
  0.588  0.594  0.607  0.748  0.760
    eigenvectors:
  0.000  0.230  0.000  0.064  0.706
  0.000  0.000  0.999  0.000  0.000
  0.995  0.000  0.000  0.004  0.001
  0.000  0.769  0.000  0.017  0.213
  0.005  0.000  0.000  0.915  0.080
    occupations:
  0.721  0.001 -0.001 -0.070  0.002
  0.001  0.607  0.000 -0.000  0.000
 -0.001  0.000  0.589  0.001 -0.011
 -0.070 -0.000  0.001  0.632 -0.002
  0.002  0.000 -0.011 -0.002  0.748
atom   10   Tr[ns(na)] =   6.53670
    eigenvalues:
  0.474  0.536  0.602  0.767  0.889
    eigenvectors:
  1.000  0.000  0.000  0.000  0.000
  0.000  0.000  0.000  0.000  1.000
  0.000  0.000  1.000  0.000  0.000
  0.000  0.000  0.000  1.000  0.000
  0.000  1.000  0.000  0.000  0.000
    occupations:
  0.474 -0.009 -0.001 -0.001  0.000
 -0.009  0.889  0.001 -0.000  0.001
 -0.001  0.001  0.602 -0.001 -0.000
 -0.001 -0.000 -0.001  0.767 -0.000
  0.000  0.001 -0.000 -0.000  0.536
atom   16   Tr[ns(na)] =   6.59896
    eigenvalues:
  0.540  0.559  0.570  0.778  0.852
    eigenvectors:
  0.001  0.040  0.280  0.679  0.000
  0.995  0.004  0.000  0.000  0.001
  0.003  0.935  0.055  0.007  0.000
  0.000  0.022  0.665  0.313  0.000
  0.001  0.000  0.000  0.000  0.999
    occupations:
  0.711  0.004  0.017 -0.096 -0.000
  0.004  0.541 -0.001 -0.002 -0.008
  0.017 -0.001  0.561 -0.008  0.003
 -0.096 -0.002 -0.008  0.635  0.000
 -0.000 -0.008  0.003  0.000  0.851
atom   17   Tr[ns(na)] =   6.59083
    eigenvalues:
  0.571  0.594  0.612  0.727  0.791
    eigenvectors:
  0.000  0.001  0.989  0.001  0.010
  0.000  0.006  0.001  0.992  0.000
  0.000  0.993  0.001  0.007  0.000
  0.000  0.000  0.010  0.000  0.990
  0.999  0.000  0.000  0.000  0.000
    occupations:
  0.613  0.003  0.001 -0.018  0.001
  0.003  0.726  0.011 -0.000 -0.002
  0.001  0.011  0.595  0.001 -0.000
 -0.018 -0.000  0.001  0.790 -0.000
  0.001 -0.002 -0.000 -0.000  0.571
atom   22   Tr[ns(na)] =   6.59389
    eigenvalues:
  0.583  0.593  0.604  0.748  0.769
    eigenvectors:
  0.000  0.237  0.000  0.032  0.730
  0.000  0.000  1.000  0.000  0.000
  0.997  0.000  0.000  0.003  0.000
  0.000  0.763  0.000  0.009  0.228
  0.003  0.000  0.000  0.955  0.041
    occupations:
  0.727 -0.001 -0.001 -0.074  0.003
 -0.001  0.604  0.000  0.000  0.000
 -0.001  0.000  0.583  0.000  0.009
 -0.074  0.000  0.000  0.635 -0.003
  0.003  0.000  0.009 -0.003  0.748
atom   23   Tr[ns(na)] =   6.56455
    eigenvalues:
  0.492  0.552  0.594  0.795  0.850
    eigenvectors:
  0.000  0.000  0.998  0.001  0.001
  0.000  0.000  0.001  0.001  0.998
  0.999  0.000  0.000  0.000  0.000
  0.000  0.000  0.001  0.998  0.001
  0.000  1.000  0.000  0.000  0.000
    occupations:
  0.594  0.008 -0.001 -0.007  0.000
  0.008  0.850  0.001  0.002  0.002
 -0.001  0.001  0.492  0.001 -0.001
 -0.007  0.002  0.001  0.795 -0.000
  0.000  0.002 -0.001 -0.000  0.552
N of occupied +U levels =  52.6730585
 --- exit write_ns ---

[...]

          k = 0.2500-0.3828 0.0000 ( 29202 PWs)   bands (ev):

[...]

          k =-0.2500 0.1914 0.0000 ( 29229 PWs)   bands (ev):

   -80.9552 -80.8901 -80.7270 -80.6805 -80.5852 -80.3941 -80.3550 -80.3364
   -43.0282 -42.9350 -42.8945 -42.8555 -42.8407 -42.7765 -42.7716 -42.7265
   -42.6779 -42.6336 -42.5772 -42.5240 -42.5137 -42.4655 -42.4201 -42.4146
   -42.4049 -42.3715 -42.3513 -42.3351 -42.2724 -42.2067 -41.7938 -41.7392
   -20.7511 -20.3180 -20.2954 -20.1596 -20.0568 -19.8945 -19.8022 -19.7449
   -19.6616 -19.5443 -19.4692 -19.3295 -19.2467 -19.0858 -19.0203 -18.9797
   -18.9687 -18.3944 -18.0970  -9.0596  -8.9011  -8.8045  -8.7299  -8.6781
    -8.4850  -8.4111  -8.2942  -8.1325  -7.9967  -7.9427  -7.8341  -7.7283
    -7.4519  -7.3535  -7.1329  -6.9123  -6.7573  -6.7073  -6.6126  -6.5621
    -6.4190  -6.1479  -6.0363  -5.9091  -5.7854  -5.7515  -5.5442  -5.4673
    -5.3789  -5.2258  -5.0281  -4.9647  -4.9207  -4.8188  -4.7631  -4.7385
    -4.6376  -4.6069  -4.5454  -4.4630  -4.1665  -3.9902  -3.9104  -3.8264
    -3.7539  -3.6966  -3.5817  -3.4014  -3.3613  -3.2988  -3.2193  -3.0863
    -2.8630  -2.7937  -2.7114  -2.5552  -2.3446  -2.1718  -2.0805  -1.4240
    -1.1528  -1.1043  -0.9632  -0.2008  -0.1935   0.1101   0.2076   0.4664
     0.6351   0.8192   0.8609   1.1777   1.3538   1.4077   1.5407   1.6389
     1.7130   1.7709   1.7973   2.2409   2.5477   3.7338   3.8017   3.9572
     3.9701   4.1369   4.2361   4.4563   4.6326   4.6800   4.8688   4.9787
     5.0190   5.2653   5.3495   5.6654   5.8739   5.9995   6.1278   6.3611
     6.4888   6.5911   6.7541   6.8489   7.0004   7.1630   7.3144   7.5149
     7.6981   7.7350   7.9485   8.0724   8.2780   8.4044   8.4752   8.5906
     8.6769   8.7592   8.9852   9.0310   9.1391   9.3897   9.4141   9.5919
     9.6497   9.7003   9.8279   9.9160   9.9596   9.9920  10.1040  10.2312
    10.2428  10.3804  10.4392  10.5353  10.6110  10.7448  10.7856  10.8636
    11.0131  11.1245  11.2153  11.3231  11.4534  11.6027  11.6811  11.7433
    11.8193  11.9714  12.0555  12.2102  12.3429  12.4996  12.5857  12.6114
    12.6820  12.7811  12.8282  12.9033  12.9795  13.0254  13.1130  13.2339
    13.3150  13.4229  13.5251  13.6540  13.6807  13.7600  13.8173  13.8965
    13.9481  13.9811  14.0696  14.1312  14.1604  14.2641  14.3680  14.4010
    14.4950  14.5440  14.5888  14.6972  14.7124  14.8471  14.8633  14.9214
    14.9769  15.0012  15.0203  15.1096  15.1643  15.2249  15.3318  15.4241
    15.5466  15.6255  15.6493  15.7448  15.8589  15.9732  16.0732  16.1611
    16.1879  16.2481  16.3324  16.4739  16.5598  16.5790  16.6130  16.7196
    16.7830  16.8769  16.9532  17.0389  17.1235  17.2113  17.2751  17.2932
    17.3810  17.5036  17.6068  17.6630  17.7276  17.8055  17.8343  17.9594
    18.0030  18.0233  18.1382  18.2259  18.2794  18.3216  18.4156  18.4922
    18.5667  18.6070  18.6555  18.7063  18.7808  18.8699  18.9275  19.0601
    19.1199  19.2259  19.3196  19.3989  19.4769  19.5833  19.6350  19.6827
    19.7732  19.8454  19.9644  20.0305  20.1696  20.2322  20.2894  20.3742
    20.4725  20.5314  20.5860  20.6555  20.7037  20.7820  20.8291  20.8628
    20.9111  20.9515  20.9912  21.0984  21.1543  21.1908  21.2507  21.3348
    21.4024  21.4921  21.5275  21.6155  21.6789  21.7359  21.7881  21.8544
    21.9412  21.9927  22.0916  22.1531  22.2168  22.2694  22.3335  22.3487
    22.4040  22.4382  22.5095  22.5411  22.6249  22.6452  22.7056  22.7499
    22.8210  22.8596  22.8802  22.9638  22.9903  23.0888

     the Fermi energy is     0.3747 ev

!    total energy              =   -2173.36343440 Ry
     Harris-Foulkes estimate   =   -2173.36343440 Ry
     estimated scf accuracy    <          8.8E-09 Ry

     The total energy is the sum of the following terms:

     one-electron contribution =  -24325.48584102 Ry
     hartree contribution      =   12182.22629441 Ry
     xc contribution           =    -595.17217776 Ry
     ewald contribution        =   10561.95186035 Ry
     Hubbard energy            =       3.11608452 Ry
     smearing contrib. (-TS)   =       0.00034509 Ry

     convergence has been achieved in  11 iterations

     Forces acting on atoms (Ry/au):

     negative rho (up, down):  0.239E+00 0.000E+00
     atom    1 type  1   force =    -0.00494730   -0.00646637   -0.00004871
     atom    2 type  1   force =     0.00014386    0.00431300   -0.00009987
     atom    3 type  2   force =     0.02860754   -0.00202314   -0.00004822
     atom    4 type  2   force =     0.00085753    0.00624121   -0.00044924
     atom    5 type  1   force =     0.00148883    0.00171866    0.00023481
     atom    6 type  1   force =     0.00046921   -0.00152030    0.00028870
     atom    7 type  1   force =     0.00349416   -0.00097381   -0.00020229
     atom    8 type  1   force =     0.00444810   -0.00200358   -0.00053699
     atom    9 type  2   force =    -0.03137996    0.00175796    0.00017232
     atom   10 type  2   force =    -0.00905374   -0.00181120    0.00020855
     atom   11 type  1   force =    -0.00930371    0.00364526    0.00027940
     atom   12 type  1   force =    -0.00928762   -0.00216233    0.00027425
     atom   13 type  1   force =     0.00043850   -0.00013420    0.00036920
     atom   14 type  1   force =    -0.00269769   -0.00540072   -0.00008126
     atom   15 type  1   force =     0.00030165    0.00279599   -0.00025420
     atom   16 type  2   force =    -0.02872216   -0.00130916   -0.00008189
     atom   17 type  2   force =     0.00211893    0.00655362   -0.00024055
     atom   18 type  1   force =     0.00148109    0.00200415    0.00026434
     atom   19 type  1   force =     0.00012957   -0.00217528    0.00033927
     atom   20 type  1   force =    -0.00322106   -0.00269677   -0.00008043
     atom   21 type  1   force =     0.00108417   -0.00120883   -0.00052796
     atom   22 type  2   force =     0.02615784    0.00185878    0.00009478
     atom   23 type  2   force =     0.00250882   -0.00079725   -0.00097058
     atom   24 type  1   force =     0.01227689    0.00530711    0.00013364
     atom   25 type  1   force =     0.01248922   -0.00449820    0.00016773
     atom   26 type  1   force =     0.00023293   -0.00114837    0.00026819
     atom   27 type  3   force =     0.00002003    0.00009673    0.00000088
     atom   28 type  3   force =    -0.00000772    0.00007788   -0.00022580
     atom   29 type  3   force =    -0.00003083    0.00019083    0.00076640
     atom   30 type  3   force =     0.00007937   -0.00009996    0.00085128
     atom   31 type  1   force =    -0.00002175   -0.00003543   -0.00047500
     atom   32 type  3   force =    -0.00015472   -0.00009626   -0.00039076

     Total force =     0.002137     Total SCF correction =     0.000298
     SCF correction compared to forces is large: reduce conv_thr to get better values

     bfgs converged in   9 scf cycles and   8 bfgs steps
     (criteria: energy < 0.10E-03, force < 0.10E-02)

     End of BFGS Geometry Optimization

     Final energy   =   -2173.3634343971 Ry
Begin final coordinates

ATOMIC_POSITIONS (crystal)
O0       0.000000000   0.000000000   0.371589343    0   0   1
O0       0.000000000   0.500000000   0.382378884    0   0   1
Re1      0.250000000   0.500000000   0.441942040    0   0   1
Re1      0.000000000   0.000000000   0.443833473    0   0   1
O0       0.250000000   0.780000000   0.442174361    0   0   1
O0       0.250000000   0.220000000   0.441904252    0   0   1
O0       0.000000000   0.500000000   0.497007610    0   0   1
O0       0.000000000   0.000000000   0.514494275    0   0   1
Re1      0.250000000   0.000000000   0.574751582    0   0   1
Re1      0.000000000   0.500000000   0.565981545    0   0   1
O0       0.250000000   0.720000000   0.572200556    0   0   1
O0       0.250000000   0.280000000   0.572305911    0   0   1
O0       0.000000000   0.000000000   0.626826521    0   0   1
O0       0.500000000   0.000000000   0.371599307    0   0   1
O0       0.500000000   0.500000000   0.382876656    0   0   1
Re1      0.750000000   0.500000000   0.441942101    0   0   1
Re1      0.500000000   0.000000000   0.443612674    0   0   1
O0       0.750000000   0.780000000   0.442099315    0   0   1
O0       0.750000000   0.220000000   0.442011271    0   0   1
O0       0.500000000   0.500000000   0.498938900    0   0   1
O0       0.500000000   0.000000000   0.514525302    0   0   1
Re1      0.750000000   0.000000000   0.574319887    0   0   1
Re1      0.500000000   0.500000000   0.572921150    0   0   1
O0       0.750000000   0.720000000   0.571452460    0   0   1
O0       0.750000000   0.280000000   0.571384449    0   0   1
O0       0.500000000   0.000000000   0.625994409    0   0   1
H2      -0.000296903   0.624228373   0.365203156
H2       0.499607422   0.621773208   0.364566055
H2       0.168197768   0.023359259   0.356820750
H2       0.669523119   0.021522817   0.357066468
O0       0.528073607   0.499586886   0.643618688
H2       0.378575070   0.499057003   0.664686650
End final coordinates

     General routines

     Parallel routines
     Hubbard U routines

   This run was terminated on:  12:57:50   2May2014

   JOB DONE.