     Program PWSCF v.5.0.2 (svn rev. 9656) starts on  1May2014 at  5:47:31

     Current dimensions of program PWSCF are:
     Max number of different atomic species (ntypx) = 10
     Max number of k-points (npk) =  40000
     Max angular momentum in pseudopotentials (lmaxx) =  3
     Reading input from pwscf.in
Warning: card &CELL ignored
Warning: card / ignored

     Subspace diagonalization in iterative solution of the eigenvalue problem:
     a serial algorithm will be used

     bravais-lattice index     =            0
     lattice parameter (alat)  =      11.1872  a.u.
     unit-cell volume          =    7531.8600 (a.u.)^3
     number of atoms/cell      =           32
     number of atomic types    =            3
     number of electrons       =       223.00
     number of Kohn-Sham states=          334
     kinetic-energy cutoff     =      40.0000  Ry
     charge density cutoff     =     500.0000  Ry
     convergence threshold     =      1.0E-06
     mixing beta               =       0.7000
     number of iterations used =            8  plain     mixing
     Exchange-correlation      = SLA  PW   PBE  PBE ( 1 4 3 4 0)
     EXX-fraction              =        0.00
     nstep                     =           50

     celldm(1)=  11.187179  celldm(2)=   0.000000  celldm(3)=   0.000000
     celldm(4)=   0.000000  celldm(5)=   0.000000  celldm(6)=   0.000000

     crystal axes: (cart. coord. in units of alat)
               a(1) = (   1.000000   0.000000   0.000000 )
               a(2) = (   0.000000   1.180104   0.000000 )
               a(3) = (   0.000000   0.000000   4.558482 )

     reciprocal axes: (cart. coord. in units 2 pi/alat)
               b(1) = (  1.000000  0.000000  0.000000 )
               b(2) = (  0.000000  0.847383  0.000000 )
               b(3) = (  0.000000  0.000000  0.219371 )

     PseudoPot. # 1 for O  read from file:
     /home/camp/zhonxu/pseudo/o_pbe_v1.01.uspp.F.UPF
     MD5 check sum: 2bcb18d16ea4b960afae9ec6d52f22d2
     Pseudo is Ultrasoft + core correction, Zval =  6.0
     Generated by new atomic code, or converted to UPF format
     Using radial grid of  737 points,  5 beta functions with:
                l(1) =   0
                l(2) =   0
                l(3) =   1
                l(4) =   1
                l(5) =   2
     Q(r) pseudized with  8 coefficients,  rinner =    0.900   0.900   0.900
                                                       0.900   0.900

     PseudoPot. # 2 for Nb read from file:
     /home/camp/zhonxu/pseudo/nb_pbe_v1.uspp.F.UPF
     MD5 check sum: 573aab8a2fa660278ed4a62cd769473f
     Pseudo is Ultrasoft + core correction, Zval = 13.0
     Generated by new atomic code, or converted to UPF format
     Using radial grid of  887 points,  6 beta functions with:
                l(1) =   0
                l(2) =   0
                l(3) =   1
                l(4) =   1
                l(5) =   2
                l(6) =   2
     Q(r) pseudized with  6 coefficients,  rinner =    1.000   1.000   1.000
                                                       1.000   1.000

     PseudoPot. # 3 for H  read from file:
     /home/camp/zhonxu/pseudo/h_pbe_v1.uspp.F.UPF
     MD5 check sum: 3408e3ff4ec8b0a4e358431e7e038a48
     Pseudo is Ultrasoft, Zval =  1.0
     Generated by new atomic code, or converted to UPF format
     Using radial grid of  615 points,  2 beta functions with:
                l(1) =   0
                l(2) =   0
     Q(r) pseudized with  8 coefficients,  rinner =    0.700

     atomic species   valence    mass     pseudopotential
        O0             6.00    15.99940     O ( 1.00)
        Nb1           13.00    92.90640     Nb( 1.00)
        H2             1.00     1.00794     H ( 1.00)

     Simplified LDA+U calculation (l_max = 2) with parameters (eV):
     atomic species    L          U    alpha       J0     beta
        Nb1            2     6.0000   0.0000   0.0000   0.0000

     No symmetry found

   Cartesian axes

     site n.     atom                  positions (alat units)
         1           O0  tau(   1) = (   0.0000000   0.0000000   1.6962568  )
         2           O0  tau(   2) = (   0.0000000   0.5900519   1.7738878  )
         3           Nb1 tau(   3) = (   0.2500000   0.5900519   2.0270203  )
         4           Nb1 tau(   4) = (   0.0000000   0.0000000   2.0275217  )
         5           O0  tau(   5) = (   0.2500000   0.9322821   2.0383253  )
         6           O0  tau(   6) = (   0.2500000   0.2478218   2.0383253  )
         7           O0  tau(   7) = (   0.0000000   0.5900519   2.2801984  )
         8           O0  tau(   8) = (   0.0000000   0.0000000   2.3861375  )
         9           Nb1 tau(   9) = (   0.2500000   0.0000000   2.6321588  )
        10           Nb1 tau(  10) = (   0.0000000   0.5900519   2.5957821  )
        11           O0  tau(  11) = (   0.2500000   0.8378738   2.6252299  )
        12           O0  tau(  12) = (   0.2500000   0.3422301   2.6252299  )
        13           O0  tau(  13) = (   0.0000000   0.0000000   2.8359230  )
        14           O0  tau(  14) = (   0.5000000   0.0000000   1.6977155  )
        15           O0  tau(  15) = (   0.5000000   0.5900519   1.7812725  )
        16           Nb1 tau(  16) = (   0.7500000   0.5900519   2.0271571  )
        17           Nb1 tau(  17) = (   0.5000000   0.0000000   2.0300745  )
        18           O0  tau(  18) = (   0.7500000   0.9322821   2.0383253  )
        19           O0  tau(  19) = (   0.7500000   0.2478218   2.0383709  )
        20           O0  tau(  20) = (   0.5000000   0.5900519   2.2745003  )
        21           O0  tau(  21) = (   0.5000000   0.0000000   2.3862287  )
        22           Nb1 tau(  22) = (   0.7500000   0.0000000   2.6327514  )
        23           Nb1 tau(  23) = (   0.5000000   0.5900519   2.6327970  )
        24           O0  tau(  24) = (   0.7500000   0.8378738   2.6254579  )
        25           O0  tau(  25) = (   0.7500000   0.3422301   2.6255034  )
        26           O0  tau(  26) = (   0.5000000   0.0000000   2.8354216  )
        27           H2  tau(  27) = (  -0.0004800   0.5922115   1.6084605  )
        28           H2  tau(  28) = (   0.4995300   0.5922233   1.6161643  )
        29           H2  tau(  29) = (   0.1505800   0.0006019   1.6239593  )
        30           H2  tau(  30) = (   0.6505400   0.0006019   1.6254180  )
        31           O0  tau(  31) = (   0.5024200   0.5900519   2.9584550  )
        32           H2  tau(  32) = (   0.3976800   0.5901109   3.0854543  )

     number of k points=    10  Methfessel-Paxton smearing, width (Ry)=  0.0100
                       cart. coord. in units 2pi/alat
        k(    1) = (   0.0000000   0.0000000   0.0000000), wk =   0.1250000
        k(    2) = (   0.0000000   0.2118458   0.0000000), wk =   0.2500000
        k(    3) = (   0.0000000  -0.4236915   0.0000000), wk =   0.1250000
        k(    4) = (   0.2500000   0.0000000   0.0000000), wk =   0.2500000
        k(    5) = (   0.2500000   0.2118458   0.0000000), wk =   0.2500000
        k(    6) = (   0.2500000  -0.4236915   0.0000000), wk =   0.2500000
        k(    7) = (  -0.5000000   0.0000000   0.0000000), wk =   0.1250000
        k(    8) = (  -0.5000000   0.2118458   0.0000000), wk =   0.2500000
        k(    9) = (  -0.5000000  -0.4236915   0.0000000), wk =   0.1250000
        k(   10) = (  -0.2500000   0.2118458   0.0000000), wk =   0.2500000

     Largest allocated arrays     est. size (Mb)     dimensions
     Largest temporary arrays     est. size (Mb)     dimensions

     Check: negative/imaginary core charge=   -0.000003    0.000000

     Initial potential from superposition of free atoms
     Check: negative starting charge=   -0.003641

     starting charge  222.97806, renormalised to  223.00000

     negative rho (up, down):  0.364E-02 0.000E+00
     Number of +U iterations with fixed ns =  0
     Starting occupations:
 --- enter write_ns ---
 LDA+U parameters:
U( 2)     =  6.00000000
alpha( 2) =  0.00000000
atom    3   Tr[ns(na)] =   3.00000
    eigenvalues:
  0.300  0.300  0.300  0.300  0.300
    eigenvectors:
  1.000  0.000  0.000  0.000  0.000
  0.000  1.000  0.000  0.000  0.000
  0.000  0.000  1.000  0.000  0.000
  0.000  0.000  0.000  1.000  0.000
  0.000  0.000  0.000  0.000  1.000
    occupations:
  0.300  0.000  0.000  0.000  0.000
  0.000  0.300  0.000  0.000  0.000
  0.000  0.000  0.300  0.000  0.000
  0.000  0.000  0.000  0.300  0.000
  0.000  0.000  0.000  0.000  0.300
atom    4   Tr[ns(na)] =   3.00000
    eigenvalues:
  0.300  0.300  0.300  0.300  0.300
    eigenvectors:
  1.000  0.000  0.000  0.000  0.000
  0.000  1.000  0.000  0.000  0.000
  0.000  0.000  1.000  0.000  0.000
  0.000  0.000  0.000  1.000  0.000
  0.000  0.000  0.000  0.000  1.000
    occupations:
  0.300  0.000  0.000  0.000  0.000
  0.000  0.300  0.000  0.000  0.000
  0.000  0.000  0.300  0.000  0.000
  0.000  0.000  0.000  0.300  0.000
  0.000  0.000  0.000  0.000  0.300
atom    9   Tr[ns(na)] =   3.00000
    eigenvalues:
  0.300  0.300  0.300  0.300  0.300
    eigenvectors:
  1.000  0.000  0.000  0.000  0.000
  0.000  1.000  0.000  0.000  0.000
  0.000  0.000  1.000  0.000  0.000
  0.000  0.000  0.000  1.000  0.000
  0.000  0.000  0.000  0.000  1.000
    occupations:
  0.300  0.000  0.000  0.000  0.000
  0.000  0.300  0.000  0.000  0.000
  0.000  0.000  0.300  0.000  0.000
  0.000  0.000  0.000  0.300  0.000
  0.000  0.000  0.000  0.000  0.300
atom   10   Tr[ns(na)] =   3.00000
    eigenvalues:
  0.300  0.300  0.300  0.300  0.300
    eigenvectors:
  1.000  0.000  0.000  0.000  0.000
  0.000  1.000  0.000  0.000  0.000
  0.000  0.000  1.000  0.000  0.000
  0.000  0.000  0.000  1.000  0.000
  0.000  0.000  0.000  0.000  1.000
    occupations:
  0.300  0.000  0.000  0.000  0.000
  0.000  0.300  0.000  0.000  0.000
  0.000  0.000  0.300  0.000  0.000
  0.000  0.000  0.000  0.300  0.000
  0.000  0.000  0.000  0.000  0.300
atom   16   Tr[ns(na)] =   3.00000
    eigenvalues:
  0.300  0.300  0.300  0.300  0.300
    eigenvectors:
  1.000  0.000  0.000  0.000  0.000
  0.000  1.000  0.000  0.000  0.000
  0.000  0.000  1.000  0.000  0.000
  0.000  0.000  0.000  1.000  0.000
  0.000  0.000  0.000  0.000  1.000
    occupations:
  0.300  0.000  0.000  0.000  0.000
  0.000  0.300  0.000  0.000  0.000
  0.000  0.000  0.300  0.000  0.000
  0.000  0.000  0.000  0.300  0.000
  0.000  0.000  0.000  0.000  0.300
atom   17   Tr[ns(na)] =   3.00000
    eigenvalues:
  0.300  0.300  0.300  0.300  0.300
    eigenvectors:
  1.000  0.000  0.000  0.000  0.000
  0.000  1.000  0.000  0.000  0.000
  0.000  0.000  1.000  0.000  0.000
  0.000  0.000  0.000  1.000  0.000
  0.000  0.000  0.000  0.000  1.000
    occupations:
  0.300  0.000  0.000  0.000  0.000
  0.000  0.300  0.000  0.000  0.000
  0.000  0.000  0.300  0.000  0.000
  0.000  0.000  0.000  0.300  0.000
  0.000  0.000  0.000  0.000  0.300
atom   22   Tr[ns(na)] =   3.00000
    eigenvalues:
  0.300  0.300  0.300  0.300  0.300
    eigenvectors:
  1.000  0.000  0.000  0.000  0.000
  0.000  1.000  0.000  0.000  0.000
  0.000  0.000  1.000  0.000  0.000
  0.000  0.000  0.000  1.000  0.000
  0.000  0.000  0.000  0.000  1.000
[...]
    eigenvectors:
  0.000  0.868  0.000  0.132  0.000
  0.000  0.000  0.000  0.000  1.000
  0.985  0.000  0.015  0.000  0.000
  0.000  0.132  0.000  0.868  0.000
  0.015  0.000  0.985  0.000  0.000
    occupations:
  0.470  0.000 -0.000  0.060  0.000
  0.000  0.633 -0.000 -0.000  0.000
 -0.000 -0.000  0.442 -0.000  0.004
  0.060 -0.000 -0.000  0.601  0.000
  0.000  0.000  0.004  0.000  0.473
atom   10   Tr[ns(na)] =   5.03484
    eigenvalues:
  0.322  0.341  0.509  0.542  0.803
    eigenvectors:
  0.000  0.000  0.999  0.000  0.001
  0.000  0.935  0.000  0.000  0.065
  0.982  0.000  0.000  0.018  0.000
  0.000  0.065  0.000  0.000  0.935
  0.018  0.000  0.000  0.982  0.000
    occupations:
  0.509  0.000 -0.000 -0.007  0.000
  0.000  0.371 -0.000  0.114 -0.000
 -0.000 -0.000  0.326 -0.000 -0.029
 -0.007  0.114 -0.000  0.773  0.000
  0.000 -0.000 -0.029  0.000  0.538
atom   16   Tr[ns(na)] =   5.10640
    eigenvalues:
  0.329  0.336  0.517  0.597  0.774
    eigenvectors:
  0.000  0.000  0.001  0.338  0.661
  0.000  0.000  0.998  0.001  0.001
  0.390  0.610  0.000  0.000  0.000
  0.000  0.000  0.000  0.661  0.339
  0.610  0.390  0.000  0.000  0.000
    occupations:
  0.714  0.007  0.000 -0.084 -0.000
  0.007  0.517 -0.000 -0.002  0.000
  0.000 -0.000  0.333 -0.000  0.003
 -0.084 -0.002 -0.000  0.657  0.000
 -0.000  0.000  0.003  0.000  0.332
atom   17   Tr[ns(na)] =   5.14957
    eigenvalues:
  0.332  0.358  0.554  0.586  0.744
    eigenvectors:
  0.003  0.000  0.000  0.996  0.000
  0.996  0.000  0.000  0.003  0.000
  0.000  1.000  0.000  0.000  0.000
  0.000  0.000  0.000  0.000  1.000
  0.000  0.000  1.000  0.000  0.000
    occupations:
  0.586  0.015  0.000 -0.002 -0.000
  0.015  0.333 -0.000  0.002  0.000
  0.000 -0.000  0.358 -0.000 -0.001
 -0.002  0.002 -0.000  0.744  0.000
 -0.000  0.000 -0.001  0.000  0.554
atom   22   Tr[ns(na)] =   5.25335
    eigenvalues:
  0.434  0.459  0.474  0.627  0.631
    eigenvectors:
  0.000  0.900  0.000  0.100  0.001
  0.000  0.000  0.000  0.008  0.992
  0.999  0.000  0.001  0.000  0.000
  0.000  0.100  0.000  0.893  0.007
  0.001  0.000  0.999  0.000  0.000
    occupations:
  0.476  0.000 -0.000  0.051 -0.000
  0.000  0.631 -0.000  0.000  0.000
 -0.000 -0.000  0.434  0.000  0.001
  0.051  0.000  0.000  0.611  0.000
 -0.000  0.000  0.001  0.000  0.474
atom   23   Tr[ns(na)] =   5.21384
    eigenvalues:
  0.376  0.396  0.557  0.608  0.670
    eigenvectors:
  0.001  0.000  0.000  0.996  0.003
  0.933  0.000  0.000  0.002  0.066
  0.000  0.986  0.014  0.000  0.000
  0.067  0.000  0.000  0.002  0.931
  0.000  0.014  0.986  0.000  0.000
    occupations:
  0.608 -0.005 -0.000 -0.005  0.000
 -0.005  0.396  0.000 -0.073 -0.000
 -0.000  0.000  0.399  0.000  0.019
 -0.005 -0.073  0.000  0.651 -0.000
  0.000 -0.000  0.019 -0.000  0.554
N of occupied +U levels =  41.2602558
 --- exit write_ns ---

     Threshold (ethr) on eigenvalues was too large:
     Diagonalizing with lowered threshold

     Davidson diagonalization with overlap
     ethr =  7.91E-09,  avg # of iterations =  3.0

[...]

     total energy              =   -1559.50312709 Ry
     Harris-Foulkes estimate   =   -1559.50312709 Ry
     estimated scf accuracy    <       0.00000002 Ry

     iteration # 10     ecut=    40.00 Ry     beta=0.70
     Davidson diagonalization with overlap
     ethr =  9.01E-12,  avg # of iterations =  1.0

     negative rho (up, down):  0.354E-02 0.000E+00

     End of self-consistent calculation
 --- enter write_ns ---
 LDA+U parameters:
U( 2)     =  6.00000000
alpha( 2) =  0.00000000
atom    3   Tr[ns(na)] =   5.11066
    eigenvalues:
  0.327  0.337  0.517  0.598  0.776
    eigenvectors:
  0.000  0.000  0.001  0.338  0.661
  0.000  0.000  0.998  0.001  0.001
  0.833  0.167  0.000  0.000  0.000
  0.000  0.000  0.000  0.661  0.339
  0.167  0.833  0.000  0.000  0.000
    occupations:
  0.715 -0.007  0.000 -0.084  0.000
 -0.007  0.518  0.000  0.001  0.000
  0.000  0.000  0.329 -0.000 -0.004
 -0.084  0.001 -0.000  0.658 -0.000
  0.000  0.000 -0.004 -0.000  0.336
atom    4   Tr[ns(na)] =   5.15579
    eigenvalues:
  0.330  0.358  0.554  0.585  0.751
    eigenvectors:
  0.003  0.000  0.000  0.997  0.000
  0.993  0.000  0.000  0.003  0.004
  0.000  1.000  0.000  0.000  0.000
  0.004  0.000  0.000  0.000  0.995
  0.000  0.000  1.000  0.000  0.000
    occupations:
  0.584  0.013  0.000 -0.001 -0.000
  0.013  0.333 -0.000 -0.028  0.000
  0.000 -0.000  0.358 -0.000  0.004
 -0.001 -0.028 -0.000  0.749  0.000
 -0.000  0.000  0.004  0.000  0.554
atom    9   Tr[ns(na)] =   5.23665
    eigenvalues:
  0.441  0.447  0.473  0.624  0.633
    eigenvectors:
  0.000  0.868  0.000  0.131  0.000
  0.000  0.000  0.000  0.000  1.000
  0.984  0.000  0.016  0.000  0.000
  0.000  0.132  0.000  0.868  0.000
  0.016  0.000  0.984  0.000  0.000
    occupations:
  0.470  0.000 -0.000  0.060  0.000
  0.000  0.633 -0.000 -0.000  0.000
 -0.000 -0.000  0.442 -0.000  0.004
  0.060 -0.000 -0.000  0.601  0.000
  0.000  0.000  0.004  0.000  0.472
atom   10   Tr[ns(na)] =   5.03425
    eigenvalues:
  0.322  0.341  0.509  0.542  0.803
    eigenvectors:
  0.000  0.000  0.999  0.000  0.001
  0.000  0.935  0.000  0.000  0.065
  0.982  0.000  0.000  0.018  0.000
  0.000  0.065  0.000  0.000  0.935
  0.018  0.000  0.000  0.982  0.000
    occupations:
  0.509  0.000 -0.000 -0.007  0.000
  0.000  0.371 -0.000  0.114 -0.000
 -0.000 -0.000  0.326 -0.000 -0.029
 -0.007  0.114 -0.000  0.773  0.000
  0.000 -0.000 -0.029  0.000  0.538
atom   16   Tr[ns(na)] =   5.10684
    eigenvalues:
  0.330  0.336  0.517  0.597  0.774
    eigenvectors:
  0.000  0.000  0.001  0.338  0.661
  0.000  0.000  0.998  0.001  0.001
  0.391  0.609  0.000  0.000  0.000
  0.000  0.000  0.000  0.661  0.339
  0.609  0.391  0.000  0.000  0.000
    occupations:
  0.714  0.007  0.000 -0.084 -0.000
  0.007  0.517 -0.000 -0.002  0.000
  0.000 -0.000  0.333 -0.000  0.003
 -0.084 -0.002 -0.000  0.657  0.000
 -0.000  0.000  0.003  0.000  0.332
atom   17   Tr[ns(na)] =   5.15055
    eigenvalues:
  0.332  0.358  0.554  0.586  0.745
    eigenvectors:
  0.003  0.000  0.000  0.996  0.000
  0.996  0.000  0.000  0.003  0.000
  0.000  1.000  0.000  0.000  0.000
  0.000  0.000  0.000  0.000  1.000
  0.000  0.000  1.000  0.000  0.000
    occupations:
  0.586  0.015  0.000 -0.002 -0.000
  0.015  0.333 -0.000  0.002  0.000
  0.000 -0.000  0.358 -0.000 -0.001
 -0.002  0.002 -0.000  0.745  0.000
 -0.000  0.000 -0.001  0.000  0.554
atom   22   Tr[ns(na)] =   5.25317
    eigenvalues:
  0.434  0.459  0.474  0.627  0.631
    eigenvectors:
  0.000  0.900  0.000  0.100  0.001
  0.000  0.000  0.000  0.008  0.992
  0.999  0.000  0.001  0.000  0.000
  0.000  0.100  0.000  0.893  0.007
  0.001  0.000  0.999  0.000  0.000
    occupations:
  0.476  0.000 -0.000  0.051 -0.000
  0.000  0.631 -0.000  0.000  0.000
 -0.000 -0.000  0.434  0.000  0.001
  0.051  0.000  0.000  0.611  0.000
 -0.000  0.000  0.001  0.000  0.474
atom   23   Tr[ns(na)] =   5.21241
    eigenvalues:
  0.376  0.396  0.557  0.608  0.670
    eigenvectors:
  0.001  0.000  0.000  0.996  0.003
  0.932  0.000  0.000  0.002  0.066
  0.000  0.986  0.014  0.000  0.000
  0.067  0.000  0.000  0.002  0.931
  0.000  0.014  0.986  0.000  0.000
    occupations:
  0.608 -0.005 -0.000 -0.005  0.000
 -0.005  0.396  0.000 -0.073 -0.000
 -0.000  0.000  0.399  0.000  0.019
 -0.005 -0.073  0.000  0.650 -0.000
  0.000 -0.000  0.019 -0.000  0.554
N of occupied +U levels =  41.2603171
 --- exit write_ns ---

[...]

          k = 0.2500-0.4237 0.0000 ( 32188 PWs)   bands (ev):

[...]

          k =-0.2500 0.2118 0.0000 ( 32165 PWs)   bands (ev):

   -56.5964 -56.4160 -55.8997 -55.8402 -55.8054 -55.7391 -55.7317 -55.6583
   -33.2670 -32.7879 -32.6703 -32.5631 -32.5488 -32.5242 -32.5001 -32.3693
   -32.3200 -32.2090 -32.1911 -32.1496 -32.1465 -32.0559 -32.0489 -31.7803
   -31.7404 -31.6694 -31.6076 -31.5782 -31.5530 -31.4828 -31.4731 -31.4527
   -20.2464 -20.0954 -19.3887 -19.3048 -18.9901 -18.9596 -18.9259 -18.8983
   -18.8470 -18.8062 -18.7822 -18.7508 -18.0639 -18.0284 -17.9772 -17.9539
   -17.8868 -17.8340 -17.7980  -8.9260  -8.4436  -7.4576  -7.2371  -7.1771
    -7.1446  -6.9655  -6.6542  -6.4646  -6.4160  -6.3060  -6.2694  -6.1840
    -6.0374  -5.9544  -5.8856  -5.6244  -5.5454  -5.5300  -5.4639  -5.2534
    -5.0293  -4.9009  -4.7575  -4.6561  -4.4888  -4.4440  -4.3369  -4.2806
    -4.2014  -4.1059  -4.0805  -4.0141  -3.9348  -3.8855  -3.8224  -3.7849
    -3.7283  -3.5621  -3.5187  -3.4574  -3.4203  -3.3607  -3.2095  -3.1829
    -3.0940  -3.0643  -3.0003  -2.9394  -2.7716  -2.6892  -2.6438  -2.5056
    -2.4653  -2.4085  -2.1716  -1.9542  -1.0668  -0.2488  -0.1081   1.3614
     1.5512   1.6219   1.7027   1.7835   1.8501   1.9842   2.1646   2.2925
     2.3634   2.4828   2.5265   2.5724   2.6619   2.7573   2.8496   2.9075
     2.9535   3.1153   3.1664   3.2258   3.3821   3.8157   4.2312   4.3163
     4.5661   4.6566   4.7923   4.9095   5.0055   5.0450   5.1031   5.2555
     5.2693   5.4993   5.6272   5.6637   5.8119   5.8888   5.9725   6.0691
     6.2338   6.4184   6.4498   6.5156   6.6120   6.6873   6.7368   6.8409
     6.9398   7.1302   7.2386   7.2938   7.3378   7.6639   7.8441   7.9306
     7.9715   8.0709   8.2030   8.2629   8.4196   8.4467   8.6466   8.7248
     8.8086   8.9221   8.9980   9.1152   9.2056   9.3116   9.3789   9.5143
     9.5841   9.6870   9.7629   9.8322   9.9950  10.0595  10.0968  10.2501
    10.3249  10.4004  10.5691  10.7329  10.8317  10.8700  10.9930  11.0467
    11.0885  11.1134  11.2247  11.3015  11.3723  11.4806  11.5337  11.5554
    11.6238  11.7232  11.8873  11.9108  12.0239  12.0886  12.1948  12.2874
    12.3908  12.4730  12.5028  12.5582  12.6463  12.6892  12.7860  12.8236
    12.8796  12.9217  12.9761  13.0333  13.1233  13.1891  13.2672  13.3939
    13.4730  13.5142  13.5775  13.6105  13.7062  13.7683  13.8430  13.9236
    13.9934  14.0362  14.0729  14.1067  14.2227  14.2934  14.3794  14.4576
    14.5496  14.6757  14.7141  14.7588  14.8700  14.9159  15.0285  15.0812
    15.1964  15.2529  15.3280  15.3717  15.3932  15.4555  15.5294  15.6279
    15.6511  15.7725  15.8229  15.8742  15.9077  15.9532  16.0449  16.1322
    16.2076  16.2509  16.2896  16.3777  16.4746  16.5775  16.6332  16.6879
    16.7265  16.8094  16.8717  16.9542  17.0203  17.0524  17.1639  17.2053
    17.2823  17.3030  17.3458  17.4119  17.4617  17.5428  17.6181  17.7363
    17.7795  17.8595  17.9297  18.0331  18.0639  18.1035  18.1488  18.2295
    18.3743  18.3941  18.5439  18.5569  18.6123  18.6464  18.7672  18.8234
    18.8796  18.9641  18.9973  19.0845  19.1737  19.1939  19.2395  19.2891
    19.3437  19.3938  19.4324  19.4996  19.6205  19.6597  19.7057  19.7580
    19.8107  19.8442  19.9046  19.9394  20.0193  20.0755

     the Fermi energy is     0.9736 ev

!    total energy              =   -1559.50312708 Ry
     Harris-Foulkes estimate   =   -1559.50312709 Ry
     estimated scf accuracy    <          8.3E-09 Ry

     The total energy is the sum of the following terms:

     one-electron contribution =  -18967.29817219 Ry
     hartree contribution      =    9513.26577817 Ry
     xc contribution           =    -287.71656387 Ry
     ewald contribution        =    8178.19985552 Ry
     Hubbard energy            =       4.04646516 Ry
     smearing contrib. (-TS)   =      -0.00048987 Ry

     convergence has been achieved in  10 iterations

     Forces acting on atoms (Ry/au):

     negative rho (up, down):  0.354E-02 0.000E+00
     atom    1 type  1   force =     0.00035525    0.00000830   -0.00033066
     atom    2 type  1   force =    -0.00031798    0.00006682   -0.00011054
     atom    3 type  2   force =     0.03429329   -0.00004980    0.00007703
     atom    4 type  2   force =    -0.01148090   -0.00001827   -0.00014806
     atom    5 type  1   force =    -0.00147695   -0.02324837   -0.00001276
     atom    6 type  1   force =    -0.00150854    0.02326250   -0.00001063
     atom    7 type  1   force =     0.00169672    0.00000274    0.00071545
     atom    8 type  1   force =     0.01382261    0.00000459   -0.00046726
     atom    9 type  2   force =     0.00322528    0.00002208    0.00018416
     atom   10 type  2   force =     0.02202474    0.00000824    0.00086193
     atom   11 type  1   force =    -0.01023936    0.00294198   -0.00048095
     atom   12 type  1   force =    -0.01024919   -0.00299109   -0.00048634
     atom   13 type  1   force =    -0.00324265    0.00000131    0.00053117
     atom   14 type  1   force =     0.00073878   -0.00000042   -0.00034289
     atom   15 type  1   force =     0.00010006    0.00007719    0.00002434
     atom   16 type  2   force =    -0.03453650   -0.00003978    0.00014599
     atom   17 type  2   force =     0.00682742   -0.00001603   -0.00029864
     atom   18 type  1   force =     0.00226546   -0.02503044   -0.00001971
     atom   19 type  1   force =     0.00224445    0.02504180   -0.00001189
     atom   20 type  1   force =    -0.00554441    0.00002248   -0.00043060
     atom   21 type  1   force =    -0.01231149    0.00000459   -0.00064552
     atom   22 type  2   force =     0.00011194   -0.00001541    0.00010915
     atom   23 type  2   force =    -0.00868926   -0.00002240   -0.00071717
     atom   24 type  1   force =     0.00489847    0.01592363    0.00031068
     atom   25 type  1   force =     0.00488961   -0.01589464    0.00031498
     atom   26 type  1   force =     0.00093423   -0.00000292    0.00076364
     atom   27 type  3   force =     0.00000201   -0.00001134    0.00016663
     atom   28 type  3   force =     0.00000917   -0.00000813    0.00016840
     atom   29 type  3   force =     0.00012259   -0.00002999    0.00000587
     atom   30 type  3   force =     0.00010690   -0.00003124   -0.00001386
     atom   31 type  1   force =     0.00006578   -0.00000225   -0.00016562
     atom   32 type  3   force =     0.00086249    0.00002428    0.00031366

     Total force =     0.002346     Total SCF correction =     0.000322
     SCF correction compared to forces is large: reduce conv_thr to get better values

     bfgs converged in  37 scf cycles and  36 bfgs steps
     (criteria: energy < 0.10E-03, force < 0.10E-02)

     End of BFGS Geometry Optimization

     Final energy   =   -1559.5031270831 Ry
Begin final coordinates

ATOMIC_POSITIONS (crystal)
O0       0.000000000   0.000000000   0.371338502    0   0   1
O0       0.000000000   0.500000000   0.387850563    0   0   1
Nb1      0.250000000   0.500000000   0.443520364    0   0   1
Nb1      0.000000000   0.000000000   0.444113476    0   0   1
O0       0.250000000   0.790000000   0.447228177    0   0   1
O0       0.250000000   0.210000000   0.447224091    0   0   1
O0       0.000000000   0.500000000   0.499428661    0   0   1
O0       0.000000000   0.000000000   0.524775318    0   0   1
Nb1      0.250000000   0.000000000   0.576110530    0   0   1
Nb1      0.000000000   0.500000000   0.568764592    0   0   1
O0       0.250000000   0.710000000   0.583078172    0   0   1
O0       0.250000000   0.290000000   0.583068502    0   0   1
O0       0.000000000   0.000000000   0.622562712    0   0   1
O0       0.500000000   0.000000000   0.371617255    0   0   1
O0       0.500000000   0.500000000   0.388071792    0   0   1
Nb1      0.750000000   0.500000000   0.443560949    0   0   1
Nb1      0.500000000   0.000000000   0.444432359    0   0   1
O0       0.750000000   0.790000000   0.448142499    0   0   1
O0       0.750000000   0.210000000   0.448136818    0   0   1
O0       0.500000000   0.500000000   0.500945130    0   0   1
O0       0.500000000   0.000000000   0.524843513    0   0   1
Nb1      0.750000000   0.000000000   0.579649996    0   0   1
Nb1      0.500000000   0.500000000   0.576772326    0   0   1
O0       0.750000000   0.710000000   0.572858379    0   0   1
O0       0.750000000   0.290000000   0.572861886    0   0   1
O0       0.500000000   0.000000000   0.622368327    0   0   1
H2      -0.000193566   0.500700370   0.351679165
H2       0.499306133   0.500784061   0.351882723
H2       0.151563278   0.000420821   0.356129618
H2       0.651778700   0.000433951   0.356499990
O0       0.537460187   0.499965488   0.648586570
H2       0.432558448   0.500298580   0.676407047
End final coordinates

     General routines

     Parallel routines
     Hubbard U routines

   This run was terminated on:  13: 0:58   2May2014

   JOB DONE.
Running PBS batch system epilogue script
Job id: 340598.audhumbla.fysik.dtu.dk
Username: zhonxu
Groupname: campgst
Jobname: NbO2/Eads-2-layers/OH-U-6.0
Sessionid: 25395
Queuename: verylong
Accounting:
This job has allocated the following 16 nodes:
a019 a019 a019 a019 a019 a019 a019 a019 a013 a013 a013 a013 a013 a013 a013 a013
Finished epilogue job 340598.audhumbla.fysik.dtu.dk for zhonxu