     Program PWSCF v.5.0.2 (svn rev. 9656) starts on  5May2014 at  9:28:14

     Current dimensions of program PWSCF are:
     Max number of different atomic species (ntypx) = 10
     Max number of k-points (npk) =  40000
     Max angular momentum in pseudopotentials (lmaxx) =  3
     Reading input from pwscf.in
Warning: card &CELL ignored
Warning: card / ignored

     Subspace diagonalization in iterative solution of the eigenvalue problem:
     a serial algorithm will be used

     Found symmetry operation: I + ( -0.5000  0.0000  0.0000)
     This is a supercell, fractional translations are disabled

     bravais-lattice index     =            0
     lattice parameter (alat)  =      10.3179  a.u.
     unit-cell volume          =    6964.3238 (a.u.)^3
     number of atoms/cell      =           30
     number of atomic types    =            3
     number of electrons       =       224.00
     number of Kohn-Sham states=          336
     kinetic-energy cutoff     =      40.0000  Ry
     charge density cutoff     =     500.0000  Ry
     convergence threshold     =      1.0E-06
     mixing beta               =       0.7000
     number of iterations used =            8  plain     mixing
     Exchange-correlation      = SLA  PW   PBE  PBE ( 1 4 3 4 0)
     EXX-fraction              =        0.00
     nstep                     =           50

     celldm(1)=  10.317905  celldm(2)=   0.000000  celldm(3)=   0.000000
     celldm(4)=   0.000000  celldm(5)=   0.000000  celldm(6)=   0.000000

     crystal axes: (cart. coord. in units of alat)
               a(1) = (   1.000000   0.000000   0.000000 )
               a(2) = (   0.000000   1.282117   0.000000 )
               a(3) = (   0.000000   0.000000   4.945120 )

     reciprocal axes: (cart. coord. in units 2 pi/alat)
               b(1) = (  1.000000  0.000000  0.000000 )
               b(2) = (  0.000000  0.779960  0.000000 )
               b(3) = (  0.000000  0.000000  0.202220 )

     PseudoPot. # 1 for O  read from file:
     /home/camp/zhonxu/pseudo/o_pbe_v1.01.uspp.F.UPF
     MD5 check sum: 2bcb18d16ea4b960afae9ec6d52f22d2
     Pseudo is Ultrasoft + core correction, Zval =  6.0
     Generated by new atomic code, or converted to UPF format
     Using radial grid of  737 points,  5 beta functions with:
                l(1) =   0
                l(2) =   0
                l(3) =   1
                l(4) =   1
                l(5) =   2
     Q(r) pseudized with  8 coefficients,  rinner =    0.900   0.900   0.900
                                                       0.900   0.900

     PseudoPot. # 2 for Mo read from file:
     /home/camp/zhonxu/pseudo/mo_pbe_v1.uspp.F.UPF
     MD5 check sum: 30c4dcd161f5d35cd49bb5239c51a633
     Pseudo is Ultrasoft + core correction, Zval = 14.0
     Generated by new atomic code, or converted to UPF format
     Using radial grid of  889 points,  6 beta functions with:
                l(1) =   0
                l(2) =   0
                l(3) =   1
                l(4) =   1
                l(5) =   2
                l(6) =   2
     Q(r) pseudized with  6 coefficients,  rinner =    1.000   1.000   1.000
                                                       1.000   1.000

     PseudoPot. # 3 for H  read from file:
     /home/camp/zhonxu/pseudo/h_pbe_v1.uspp.F.UPF
     MD5 check sum: 3408e3ff4ec8b0a4e358431e7e038a48
     Pseudo is Ultrasoft, Zval =  1.0
     Generated by new atomic code, or converted to UPF format
     Using radial grid of  615 points,  2 beta functions with:
                l(1) =   0
                l(2) =   0
     Q(r) pseudized with  8 coefficients,  rinner =    0.700

     atomic species   valence    mass     pseudopotential
        O0             6.00    15.99940     O ( 1.00)
        Mo1           14.00    95.94000     Mo( 1.00)
        H2             1.00     1.00794     H ( 1.00)

     Simplified LDA+U calculation (l_max = 2) with parameters (eV):
     atomic species    L          U    alpha       J0     beta
        Mo1            2     0.5000   0.0000   0.0000   0.0000

     No symmetry found

   Cartesian axes

     site n.     atom                  positions (alat units)
         1           O0  tau(   1) = (   0.0000000   0.0000000   1.8465574  )
         2           O0  tau(   2) = (   0.0000000   0.6410583   1.8808271  )
         3           Mo1 tau(   3) = (   0.2500000   0.6410583   2.1650231  )
         4           Mo1 tau(   4) = (   0.0000000   0.0000000   2.2064633  )
         5           O0  tau(   5) = (   0.2500000   1.0000510   2.1927158  )
         6           O0  tau(   6) = (   0.2500000   0.2820657   2.1921224  )
         7           O0  tau(   7) = (   0.0000000   0.6410583   2.4520379  )
         8           O0  tau(   8) = (   0.0000000   0.0000000   2.5658746  )
         9           Mo1 tau(   9) = (   0.2500000   0.0000000   2.8596642  )
        10           Mo1 tau(  10) = (   0.0000000   0.6410583   2.7884050  )
        11           O0  tau(  11) = (   0.2500000   0.9231240   2.8369661  )
        12           O0  tau(  12) = (   0.2500000   0.3589927   2.8372628  )
        13           O0  tau(  13) = (   0.0000000   0.0000000   3.1104807  )
        14           O0  tau(  14) = (   0.5000000   0.0000000   1.8465574  )
        15           O0  tau(  15) = (   0.5000000   0.6410583   1.8808271  )
        16           Mo1 tau(  16) = (   0.7500000   0.6410583   2.1650231  )
        17           Mo1 tau(  17) = (   0.5000000   0.0000000   2.2064633  )
        18           O0  tau(  18) = (   0.7500000   1.0000510   2.1927158  )
        19           O0  tau(  19) = (   0.7500000   0.2820657   2.1921224  )
        20           O0  tau(  20) = (   0.5000000   0.6410583   2.4520379  )
        21           O0  tau(  21) = (   0.5000000   0.0000000   2.5658746  )
        22           Mo1 tau(  22) = (   0.7500000   0.0000000   2.8596642  )
        23           Mo1 tau(  23) = (   0.5000000   0.6410583   2.7884050  )
        24           O0  tau(  24) = (   0.7500000   0.9231240   2.8369661  )
        25           O0  tau(  25) = (   0.7500000   0.3589927   2.8372628  )
        26           O0  tau(  26) = (   0.5000000   0.0000000   3.1104807  )
        27           H2  tau(  27) = (  -0.0004900   0.7868222   1.7746059  )
        28           H2  tau(  28) = (   0.4995100   0.7868222   1.7746059  )
        29           H2  tau(  29) = (   0.1657500   0.0265270   1.7749026  )
        30           H2  tau(  30) = (   0.6657500   0.0265270   1.7749026  )

     number of k points=    10  Methfessel-Paxton smearing, width (Ry)=  0.0100
                       cart. coord. in units 2pi/alat
        k(    1) = (   0.0000000   0.0000000   0.0000000), wk =   0.1250000
        k(    2) = (   0.0000000   0.1949901   0.0000000), wk =   0.2500000
        k(    3) = (   0.0000000  -0.3899801   0.0000000), wk =   0.1250000
        k(    4) = (   0.2500000   0.0000000   0.0000000), wk =   0.2500000
        k(    5) = (   0.2500000   0.1949901   0.0000000), wk =   0.2500000
        k(    6) = (   0.2500000  -0.3899801   0.0000000), wk =   0.2500000
        k(    7) = (  -0.5000000   0.0000000   0.0000000), wk =   0.1250000
        k(    8) = (  -0.5000000   0.1949901   0.0000000), wk =   0.2500000
        k(    9) = (  -0.5000000  -0.3899801   0.0000000), wk =   0.1250000
        k(   10) = (  -0.2500000   0.1949901   0.0000000), wk =   0.2500000

     Largest allocated arrays     est. size (Mb)     dimensions
     Largest temporary arrays     est. size (Mb)     dimensions

     Check: negative/imaginary core charge=   -0.000003    0.000000

     Initial potential from superposition of free atoms
     Check: negative starting charge=   -0.002478

     starting charge  223.99143, renormalised to  224.00000

     negative rho (up, down):  0.248E-02 0.000E+00
     Number of +U iterations with fixed ns =  0
     Starting occupations:
 --- enter write_ns ---
 LDA+U parameters:
U( 2)     =  0.50000000
alpha( 2) =  0.00000000
atom    3   Tr[ns(na)] =   5.00000
    eigenvalues:
  0.500  0.500  0.500  0.500  0.500
    eigenvectors:
  1.000  0.000  0.000  0.000  0.000
  0.000  1.000  0.000  0.000  0.000
  0.000  0.000  1.000  0.000  0.000
  0.000  0.000  0.000  1.000  0.000
  0.000  0.000  0.000  0.000  1.000
    occupations:
  0.500  0.000  0.000  0.000  0.000
  0.000  0.500  0.000  0.000  0.000
  0.000  0.000  0.500  0.000  0.000
  0.000  0.000  0.000  0.500  0.000
  0.000  0.000  0.000  0.000  0.500
atom    4   Tr[ns(na)] =   5.00000
    eigenvalues:
  0.500  0.500  0.500  0.500  0.500
    eigenvectors:
  1.000  0.000  0.000  0.000  0.000
  0.000  1.000  0.000  0.000  0.000
  0.000  0.000  1.000  0.000  0.000
  0.000  0.000  0.000  1.000  0.000
  0.000  0.000  0.000  0.000  1.000
    occupations:
  0.500  0.000  0.000  0.000  0.000
  0.000  0.500  0.000  0.000  0.000
  0.000  0.000  0.500  0.000  0.000
  0.000  0.000  0.000  0.500  0.000
  0.000  0.000  0.000  0.000  0.500
atom    9   Tr[ns(na)] =   5.00000
    eigenvalues:
  0.500  0.500  0.500  0.500  0.500
    eigenvectors:
  1.000  0.000  0.000  0.000  0.000
  0.000  1.000  0.000  0.000  0.000
  0.000  0.000  1.000  0.000  0.000
  0.000  0.000  0.000  1.000  0.000
  0.000  0.000  0.000  0.000  1.000
    occupations:
  0.500  0.000  0.000  0.000  0.000
  0.000  0.500  0.000  0.000  0.000
  0.000  0.000  0.500  0.000  0.000
  0.000  0.000  0.000  0.500  0.000
  0.000  0.000  0.000  0.000  0.500
atom   10   Tr[ns(na)] =   5.00000
    eigenvalues:
  0.500  0.500  0.500  0.500  0.500
    eigenvectors:
  1.000  0.000  0.000  0.000  0.000
  0.000  1.000  0.000  0.000  0.000
  0.000  0.000  1.000  0.000  0.000
  0.000  0.000  0.000  1.000  0.000
  0.000  0.000  0.000  0.000  1.000
    occupations:
  0.500  0.000  0.000  0.000  0.000
  0.000  0.500  0.000  0.000  0.000
  0.000  0.000  0.500  0.000  0.000
  0.000  0.000  0.000  0.500  0.000
  0.000  0.000  0.000  0.000  0.500
atom   16   Tr[ns(na)] =   5.00000
    eigenvalues:
  0.500  0.500  0.500  0.500  0.500
    eigenvectors:
  1.000  0.000  0.000  0.000  0.000
  0.000  1.000  0.000  0.000  0.000
  0.000  0.000  1.000  0.000  0.000
  0.000  0.000  0.000  1.000  0.000
  0.000  0.000  0.000  0.000  1.000
    occupations:
  0.500  0.000  0.000  0.000  0.000
  0.000  0.500  0.000  0.000  0.000
  0.000  0.000  0.500  0.000  0.000
  0.000  0.000  0.000  0.500  0.000
  0.000  0.000  0.000  0.000  0.500
atom   17   Tr[ns(na)] =   5.00000
    eigenvalues:
  0.500  0.500  0.500  0.500  0.500
    eigenvectors:
  1.000  0.000  0.000  0.000  0.000
  0.000  1.000  0.000  0.000  0.000
  0.000  0.000  1.000  0.000  0.000
  0.000  0.000  0.000  1.000  0.000
  0.000  0.000  0.000  0.000  1.000
    occupations:
  0.500  0.000  0.000  0.000  0.000
  0.000  0.500  0.000  0.000  0.000
  0.000  0.000  0.500  0.000  0.000
  0.000  0.000  0.000  0.500  0.000
  0.000  0.000  0.000  0.000  0.500
atom   22   Tr[ns(na)] =   5.00000
    eigenvalues:
  0.500  0.500  0.500  0.500  0.500
    eigenvectors:
  1.000  0.000  0.000  0.000  0.000
  0.000  1.000  0.000  0.000  0.000
  0.000  0.000  1.000  0.000  0.000
  0.000  0.000  0.000  1.000  0.000
  0.000  0.000  0.000  0.000  1.000
    occupations:
[...]
 -0.086 -0.000 -0.009  0.622 -0.000
  0.000 -0.002 -0.000 -0.000  0.606
atom    4   Tr[ns(na)] =   5.81011
    eigenvalues:
  0.487  0.524  0.578  0.603  0.713
    eigenvectors:
  0.000  0.000  0.968  0.030  0.002
  0.001  0.000  0.030  0.969  0.000
  0.999  0.000  0.000  0.001  0.000
  0.000  0.000  0.002  0.000  0.998
  0.000  1.000  0.000  0.000  0.000
    occupations:
  0.579  0.004  0.001 -0.006  0.000
  0.004  0.603  0.004 -0.001 -0.000
  0.001  0.004  0.487 -0.001  0.000
 -0.006 -0.001 -0.001  0.713  0.000
  0.000 -0.000  0.000  0.000  0.524
atom    9   Tr[ns(na)] =   5.81553
    eigenvalues:
  0.530  0.536  0.578  0.585  0.678
    eigenvectors:
  0.000  0.000  0.245  0.000  0.755
  0.000  0.000  0.000  1.000  0.000
  0.000  0.999  0.000  0.000  0.000
  0.000  0.000  0.755  0.000  0.245
  0.999  0.000  0.000  0.000  0.000
    occupations:
  0.654 -0.000  0.001 -0.043 -0.001
 -0.000  0.585 -0.000  0.000 -0.001
  0.001 -0.000  0.536 -0.001  0.000
 -0.043  0.000 -0.001  0.603  0.000
 -0.001 -0.001  0.000  0.000  0.531
atom   10   Tr[ns(na)] =   5.77098
    eigenvalues:
  0.501  0.508  0.517  0.624  0.736
    eigenvectors:
  0.977  0.000  0.014  0.000  0.009
  0.000  0.000  0.000  1.000  0.000
  0.014  0.000  0.986  0.000  0.000
  0.009  0.000  0.000  0.000  0.991
  0.000  1.000  0.000  0.000  0.000
    occupations:
  0.503  0.000 -0.002 -0.022 -0.000
  0.000  0.624 -0.000  0.000 -0.000
 -0.002 -0.000  0.517 -0.000 -0.000
 -0.022  0.000 -0.000  0.734  0.000
 -0.000 -0.000 -0.000  0.000  0.508
atom   16   Tr[ns(na)] =   5.82710
    eigenvalues:
  0.501  0.516  0.556  0.606  0.734
    eigenvectors:
  0.000  0.016  0.364  0.000  0.620
  1.000  0.000  0.000  0.000  0.000
  0.000  0.984  0.008  0.000  0.008
  0.000  0.000  0.627  0.000  0.372
  0.000  0.000  0.000  1.000  0.000
    occupations:
  0.666  0.000  0.017 -0.085  0.000
  0.000  0.501 -0.000 -0.000 -0.002
  0.017 -0.000  0.518 -0.009 -0.000
 -0.085 -0.000 -0.009  0.622 -0.000
  0.000 -0.002 -0.000 -0.000  0.606
atom   17   Tr[ns(na)] =   5.81061
    eigenvalues:
  0.487  0.524  0.578  0.603  0.713
    eigenvectors:
  0.000  0.000  0.968  0.029  0.002
  0.001  0.000  0.030  0.969  0.000
  0.999  0.000  0.000  0.001  0.000
  0.000  0.000  0.002  0.000  0.998
  0.000  1.000  0.000  0.000  0.000
    occupations:
  0.579  0.004  0.001 -0.006  0.000
  0.004  0.603  0.004 -0.001 -0.000
  0.001  0.004  0.487 -0.001  0.000
 -0.006 -0.001 -0.001  0.713  0.000
  0.000 -0.000  0.000  0.000  0.524
atom   22   Tr[ns(na)] =   5.81500
    eigenvalues:
  0.530  0.536  0.578  0.585  0.678
    eigenvectors:
  0.000  0.000  0.245  0.000  0.755
  0.000  0.000  0.000  1.000  0.000
  0.000  1.000  0.000  0.000  0.000
  0.000  0.000  0.755  0.000  0.245
  0.999  0.000  0.000  0.000  0.000
    occupations:
  0.653 -0.000  0.001 -0.043 -0.001
 -0.000  0.585 -0.000  0.000 -0.001
  0.001 -0.000  0.536 -0.001  0.000
 -0.043  0.000 -0.001  0.603  0.000
 -0.001 -0.001  0.000  0.000  0.530
atom   23   Tr[ns(na)] =   5.77024
    eigenvalues:
  0.501  0.508  0.517  0.623  0.736
    eigenvectors:
  0.977  0.000  0.014  0.000  0.009
  0.000  0.000  0.000  1.000  0.000
  0.014  0.000  0.986  0.000  0.000
  0.009  0.000  0.000  0.000  0.991
  0.000  1.000  0.000  0.000  0.000
    occupations:
  0.503  0.000 -0.002 -0.022 -0.000
  0.000  0.623 -0.000  0.000 -0.000
 -0.002 -0.000  0.517 -0.000 -0.000
 -0.022  0.000 -0.000  0.734  0.000
 -0.000 -0.000 -0.000  0.000  0.508
N of occupied +U levels =  46.4488576
 --- exit write_ns ---

     Threshold (ethr) on eigenvalues was too large:
     Diagonalizing with lowered threshold

     Davidson diagonalization with overlap
     ethr =  3.29E-08,  avg # of iterations =  1.6

[...]

     total energy              =   -1699.87968117 Ry
     Harris-Foulkes estimate   =   -1699.87968168 Ry
     estimated scf accuracy    <       0.00000367 Ry

     iteration #  8     ecut=    40.00 Ry     beta=0.70
     Davidson diagonalization with overlap
     ethr =  9.95E-10,  avg # of iterations =  1.0

     negative rho (up, down):  0.351E-02 0.000E+00

     End of self-consistent calculation
 --- enter write_ns ---
 LDA+U parameters:
U( 2)     =  0.50000000
alpha( 2) =  0.00000000
atom    3   Tr[ns(na)] =   5.82533
    eigenvalues:
  0.501  0.516  0.556  0.606  0.734
    eigenvectors:
  0.000  0.016  0.364  0.000  0.620
  1.000  0.000  0.000  0.000  0.000
  0.000  0.984  0.008  0.000  0.008
  0.000  0.000  0.627  0.000  0.372
  0.000  0.000  0.000  1.000  0.000
    occupations:
  0.666 -0.000  0.017 -0.085  0.000
 -0.000  0.501 -0.000 -0.000 -0.002
  0.017 -0.000  0.518 -0.009 -0.000
 -0.085 -0.000 -0.009  0.622 -0.000
  0.000 -0.002 -0.000 -0.000  0.606
atom    4   Tr[ns(na)] =   5.80892
    eigenvalues:
  0.487  0.524  0.578  0.603  0.713
    eigenvectors:
  0.000  0.000  0.967  0.031  0.002
  0.001  0.000  0.031  0.968  0.000
  0.999  0.000  0.000  0.001  0.000
  0.000  0.000  0.002  0.000  0.998
  0.000  1.000  0.000  0.000  0.000
    occupations:
  0.579  0.004  0.001 -0.006  0.000
  0.004  0.602  0.004 -0.001 -0.000
  0.001  0.004  0.487 -0.001  0.000
 -0.006 -0.001 -0.001  0.713  0.000
  0.000 -0.000  0.000  0.000  0.524
atom    9   Tr[ns(na)] =   5.81553
    eigenvalues:
  0.531  0.536  0.578  0.585  0.678
    eigenvectors:
  0.000  0.000  0.245  0.000  0.755
  0.000  0.000  0.000  1.000  0.000
  0.000  0.999  0.000  0.000  0.000
  0.000  0.000  0.755  0.000  0.245
  0.999  0.000  0.000  0.000  0.000
    occupations:
  0.653 -0.000  0.001 -0.043 -0.001
 -0.000  0.585 -0.000  0.000 -0.001
  0.001 -0.000  0.536 -0.001  0.000
 -0.043  0.000 -0.001  0.603  0.000
 -0.001 -0.001  0.000  0.000  0.531
atom   10   Tr[ns(na)] =   5.77253
    eigenvalues:
  0.501  0.508  0.517  0.624  0.736
    eigenvectors:
  0.978  0.000  0.013  0.000  0.009
  0.000  0.000  0.000  1.000  0.000
  0.013  0.000  0.987  0.000  0.000
  0.009  0.000  0.000  0.000  0.991
  0.000  1.000  0.000  0.000  0.000
    occupations:
  0.503  0.000 -0.002 -0.022 -0.000
  0.000  0.624 -0.000  0.000 -0.000
 -0.002 -0.000  0.517 -0.000 -0.000
 -0.022  0.000 -0.000  0.734  0.000
 -0.000 -0.000 -0.000  0.000  0.508
atom   16   Tr[ns(na)] =   5.82552
    eigenvalues:
  0.501  0.516  0.556  0.606  0.734
    eigenvectors:
  0.000  0.016  0.364  0.000  0.620
  1.000  0.000  0.000  0.000  0.000
  0.000  0.984  0.008  0.000  0.008
  0.000  0.000  0.627  0.000  0.372
  0.000  0.000  0.000  1.000  0.000
    occupations:
  0.666 -0.000  0.017 -0.085  0.000
 -0.000  0.501 -0.000 -0.000 -0.002
  0.017 -0.000  0.518 -0.009 -0.000
 -0.085 -0.000 -0.009  0.622 -0.000
  0.000 -0.002 -0.000 -0.000  0.606
atom   17   Tr[ns(na)] =   5.80905
    eigenvalues:
  0.487  0.524  0.578  0.603  0.713
    eigenvectors:
  0.000  0.000  0.967  0.031  0.002
  0.001  0.000  0.031  0.968  0.000
  0.999  0.000  0.000  0.001  0.000
  0.000  0.000  0.002  0.000  0.998
  0.000  1.000  0.000  0.000  0.000
    occupations:
  0.579  0.004  0.001 -0.006  0.000
  0.004  0.602  0.004 -0.001 -0.000
  0.001  0.004  0.487 -0.001  0.000
 -0.006 -0.001 -0.001  0.713  0.000
  0.000 -0.000  0.000  0.000  0.524
atom   22   Tr[ns(na)] =   5.81544
    eigenvalues:
  0.531  0.536  0.578  0.585  0.678
    eigenvectors:
  0.000  0.000  0.245  0.000  0.755
  0.000  0.000  0.000  1.000  0.000
  0.000  0.999  0.000  0.000  0.000
  0.000  0.000  0.755  0.000  0.245
  0.999  0.000  0.000  0.000  0.000
    occupations:
  0.653 -0.000  0.001 -0.043 -0.001
 -0.000  0.585 -0.000  0.000 -0.001
  0.001 -0.000  0.536 -0.001  0.000
 -0.043  0.000 -0.001  0.603  0.000
 -0.001 -0.001  0.000  0.000  0.531
atom   23   Tr[ns(na)] =   5.77244
    eigenvalues:
  0.501  0.508  0.517  0.624  0.736
    eigenvectors:
  0.978  0.000  0.013  0.000  0.009
  0.000  0.000  0.000  1.000  0.000
  0.013  0.000  0.987  0.000  0.000
  0.009  0.000  0.000  0.000  0.991
  0.000  1.000  0.000  0.000  0.000
    occupations:
  0.503  0.000 -0.002 -0.022 -0.000
  0.000  0.624 -0.000  0.000 -0.000
 -0.002 -0.000  0.517 -0.000 -0.000
 -0.022  0.000 -0.000  0.734  0.000
 -0.000 -0.000 -0.000  0.000  0.508
N of occupied +U levels =  46.4447599
 --- exit write_ns ---

[...]

          k = 0.2500-0.3900 0.0000 ( 29726 PWs)   bands (ev):

[...]

          k =-0.2500 0.1950 0.0000 ( 29746 PWs)   bands (ev):

   -62.3766 -62.3077 -62.2905 -62.2540 -62.2262 -62.1718 -62.1585 -62.0762
   -36.9439 -36.7921 -36.7216 -36.7157 -36.6563 -36.6442 -36.5881 -36.5344
   -36.4926 -36.4667 -36.4102 -36.3905 -36.3572 -36.3514 -36.3260 -36.3138
   -36.2562 -36.2298 -36.1760 -36.1664 -36.1616 -35.9084 -35.8792 -35.8072
   -20.7596 -20.5159 -19.9049 -19.6863 -19.6449 -19.5990 -19.4213 -19.3467
   -19.2637 -19.0767 -19.0417 -18.8655 -18.8195 -18.7933 -18.6401 -18.5912
   -18.0837 -17.9344  -8.7489  -8.6280  -7.9951  -7.7286  -7.6230  -7.6026
    -7.5190  -7.3412  -7.3233  -7.2366  -7.1441  -7.0526  -6.9079  -6.8558
    -6.6254  -6.2732  -6.2087  -6.1021  -6.0746  -5.9351  -5.8340  -5.8240
    -5.6702  -5.5632  -5.4181  -5.3355  -5.2528  -5.2309  -5.0187  -4.8856
    -4.7299  -4.6162  -4.5965  -4.4763  -4.3820  -4.3156  -4.3100  -4.1824
    -4.1730  -4.1012  -4.0577  -3.8695  -3.7985  -3.6873  -3.4926  -3.3548
    -3.3214  -3.2546  -3.1904  -3.0495  -2.9926  -2.7553  -2.6517  -2.4576
    -1.6677  -1.5094  -1.3614  -0.6609  -0.5386  -0.3019  -0.2948   0.1133
     0.1954   0.5628   0.7791   0.8164   0.9951   1.0427   1.1778   1.4019
     1.4472   1.4710   1.6238   1.6677   1.9198   1.9727   1.9791   2.0996
     2.3757   2.4590   3.3390   3.4733   3.6882   3.7005   3.8964   4.0338
     4.3234   4.3588   4.5656   4.6094   4.7210   4.8622   4.9578   5.1886
     5.5426   5.6757   5.7652   5.9022   5.9267   6.0871   6.2967   6.4169
     6.5650   6.6673   6.9631   6.9958   7.1132   7.2808   7.5195   7.6095
     7.9312   7.9393   8.1789   8.2789   8.2902   8.4768   8.6447   8.6481
     8.9132   8.9915   9.0664   9.2878   9.3983   9.4274   9.5083   9.5424
     9.5738   9.6077   9.8361   9.9744  10.0320  10.1799  10.2227  10.2769
    10.4805  10.4825  10.6163  10.7143  10.7336  10.9246  11.0544  11.0805
    11.0858  11.2419  11.5250  11.6033  11.6108  11.7386  11.8006  11.9191
    11.9520  12.0822  12.2658  12.3154  12.3401  12.3703  12.4531  12.5843
    12.6829  12.7374  12.8451  12.8922  12.9661  13.0553  13.1096  13.1894
    13.3208  13.4206  13.4327  13.4932  13.5134  13.6265  13.6676  13.7208
    13.8523  13.8816  13.9635  13.9942  14.1243  14.1563  14.2512  14.3463
    14.3928  14.4500  14.5075  14.5711  14.6097  14.7336  14.8389  14.8484
    14.9482  15.0391  15.0466  15.2053  15.2897  15.3880  15.4943  15.5372
    15.6376  15.6572  15.7487  15.8136  15.8850  15.9481  16.0349  16.0937
    16.1841  16.2669  16.2895  16.3346  16.3708  16.4447  16.5818  16.6886
    16.7108  16.7705  16.7740  16.8868  17.0099  17.0886  17.1770  17.1859
    17.2185  17.3091  17.3430  17.4010  17.4986  17.6809  17.6932  17.7902
    17.8984  17.9139  18.0865  18.0988  18.1818  18.2215  18.3219  18.3482
    18.4165  18.4334  18.5220  18.5494  18.6092  18.7815  18.8647  18.9946
    19.0623  19.1146  19.1406  19.2475  19.2927  19.4972  19.5573  19.5998
    19.6973  19.7680  19.7940  19.8995  19.9668  20.0491  20.1342  20.1416
    20.2039  20.2605  20.3300  20.3641  20.4095  20.4243  20.4980  20.5164
    20.6486  20.6942  20.7337  20.8144  20.9261  20.9684  21.0219  21.0599
    21.1098  21.1926  21.2065  21.2945  21.4282  21.4768  21.5562  21.6440

     the Fermi energy is     0.1172 ev

!    total energy              =   -1699.87968135 Ry
     Harris-Foulkes estimate   =   -1699.87968144 Ry
     estimated scf accuracy    <       0.00000010 Ry

     The total energy is the sum of the following terms:

     one-electron contribution =  -21422.97581231 Ry
     hartree contribution      =   10732.89766192 Ry
     xc contribution           =    -286.60552284 Ry
     ewald contribution        =    9276.45631551 Ry
     Hubbard energy            =       0.34905803 Ry
     smearing contrib. (-TS)   =      -0.00138167 Ry

     convergence has been achieved in   8 iterations

     Forces acting on atoms (Ry/au):

     negative rho (up, down):  0.351E-02 0.000E+00
     atom    1 type  1   force =    -0.00246735   -0.00538489   -0.00052631
     atom    2 type  1   force =    -0.00004284    0.01019347    0.00051063
     atom    3 type  2   force =    -0.00031457   -0.00567828    0.00011761
     atom    4 type  2   force =    -0.00064460    0.00341834   -0.00011630
     atom    5 type  1   force =     0.00168911    0.00259838    0.00004580
     atom    6 type  1   force =    -0.00002829   -0.00516985    0.00005566
     atom    7 type  1   force =     0.00025699    0.00052422    0.00023560
     atom    8 type  1   force =     0.00307529    0.00069282   -0.00072413
     atom    9 type  2   force =    -0.00197289   -0.00043716    0.00007643
     atom   10 type  2   force =     0.00002303    0.00078936   -0.00004972
     atom   11 type  1   force =    -0.00021972   -0.05034676   -0.00025855
     atom   12 type  1   force =     0.00029897    0.04956514   -0.00028470
     atom   13 type  1   force =    -0.00003680    0.00019768    0.00061523
     atom   14 type  1   force =    -0.00247235   -0.00538536   -0.00054123
     atom   15 type  1   force =    -0.00007117    0.01018294    0.00050228
     atom   16 type  2   force =    -0.00031235   -0.00567657    0.00011921
     atom   17 type  2   force =    -0.00063592    0.00341869   -0.00011467
     atom   18 type  1   force =     0.00171361    0.00262323    0.00004907
     atom   19 type  1   force =    -0.00000577   -0.00519405    0.00005803
     atom   20 type  1   force =     0.00022956    0.00052417    0.00026314
     atom   21 type  1   force =     0.00308292    0.00069394   -0.00071062
     atom   22 type  2   force =    -0.00198127   -0.00043779    0.00008681
     atom   23 type  2   force =     0.00002092    0.00079122   -0.00006187
     atom   24 type  1   force =    -0.00021898   -0.05033996   -0.00025712
     atom   25 type  1   force =     0.00030068    0.04955873   -0.00028324
     atom   26 type  1   force =    -0.00001948    0.00019691    0.00062159
     atom   27 type  3   force =    -0.00000053   -0.00065486   -0.00024809
     atom   28 type  3   force =    -0.00000044   -0.00064775   -0.00025452
     atom   29 type  3   force =     0.00037971   -0.00030758    0.00053604
     atom   30 type  3   force =     0.00037450   -0.00030838    0.00053793

     Total force =     0.002325     Total SCF correction =     0.000933
     SCF correction compared to forces is large: reduce conv_thr to get better values

     bfgs converged in   2 scf cycles and   1 bfgs steps
     (criteria: energy < 0.10E-03, force < 0.10E-02)

     End of BFGS Geometry Optimization

     Final energy   =   -1699.8796813502 Ry
Begin final coordinates

ATOMIC_POSITIONS (crystal)
O0       0.000000000   0.000000000   0.373411935    0   0   1
O0       0.000000000   0.500000000   0.380353224    0   0   1
Mo1      0.250000000   0.500000000   0.437810844    0   0   1
Mo1      0.000000000   0.000000000   0.446172368    0   0   1
O0       0.250000000   0.780000000   0.443412860    0   0   1
O0       0.250000000   0.220000000   0.443293220    0   0   1
O0       0.000000000   0.500000000   0.495876757    0   0   1
O0       0.000000000   0.000000000   0.518848884    0   0   1
Mo1      0.250000000   0.000000000   0.578304465    0   0   1
Mo1      0.000000000   0.500000000   0.563845495    0   0   1
O0       0.250000000   0.720000000   0.573682465    0   0   1
O0       0.250000000   0.280000000   0.573741606    0   0   1
O0       0.000000000   0.000000000   0.629002502    0   0   1
O0       0.500000000   0.000000000   0.373412247    0   0   1
O0       0.500000000   0.500000000   0.380352907    0   0   1
Mo1      0.750000000   0.500000000   0.437810912    0   0   1
Mo1      0.500000000   0.000000000   0.446172427    0   0   1
O0       0.750000000   0.780000000   0.443412876    0   0   1
O0       0.750000000   0.220000000   0.443293235    0   0   1
O0       0.500000000   0.500000000   0.495876629    0   0   1
O0       0.500000000   0.000000000   0.518848742    0   0   1
Mo1      0.750000000   0.000000000   0.578304370    0   0   1
Mo1      0.500000000   0.500000000   0.563845702    0   0   1
O0       0.750000000   0.720000000   0.573682485    0   0   1
O0       0.750000000   0.280000000   0.573741626    0   0   1
O0       0.500000000   0.000000000   0.629002973    0   0   1
H2      -0.000490720   0.613634871   0.358855901
H2       0.499509261   0.613634918   0.358855874
H2       0.165840238   0.020673704   0.358927244
H2       0.665840125   0.020673697   0.358927227
End final coordinates

     General routines

     Parallel routines
     Hubbard U routines

   This run was terminated on:  11: 2:34   5May2014

   JOB DONE.