     Program PWSCF v.5.0.2 (svn rev. 9656) starts on  6May2014 at 12:16:39

     Current dimensions of program PWSCF are:
     Max number of different atomic species (ntypx) = 10
     Max number of k-points (npk) =  40000
     Max angular momentum in pseudopotentials (lmaxx) =  3
     Reading input from pwscf.in
Warning: card &CELL ignored
Warning: card / ignored

     Subspace diagonalization in iterative solution of the eigenvalue problem:
     a serial algorithm will be used

     Found symmetry operation: I + ( -0.5000  0.0000  0.0000)
     This is a supercell, fractional translations are disabled

     bravais-lattice index     =            0
     lattice parameter (alat)  =      11.2250  a.u.
     unit-cell volume          =    7005.5484 (a.u.)^3
     number of atoms/cell      =           30
     number of atomic types    =            3
     number of electrons       =       208.00
     number of Kohn-Sham states=          300
     kinetic-energy cutoff     =      40.0000  Ry
     charge density cutoff     =     500.0000  Ry
     convergence threshold     =      1.0E-06
     mixing beta               =       0.7000
     number of iterations used =            8  plain     mixing
     Exchange-correlation      = SLA  PW   PBE  PBE ( 1 4 3 4 0)
     EXX-fraction              =        0.00
     nstep                     =           50

     celldm(1)=  11.224973  celldm(2)=   0.000000  celldm(3)=   0.000000
     celldm(4)=   0.000000  celldm(5)=   0.000000  celldm(6)=   0.000000

     crystal axes: (cart. coord. in units of alat)
               a(1) = (   1.000000   0.000000   0.000000 )
               a(2) = (   0.000000   1.107086   0.000000 )
               a(3) = (   0.000000   0.000000   4.474090 )

     reciprocal axes: (cart. coord. in units 2 pi/alat)
               b(1) = (  1.000000  0.000000  0.000000 )
               b(2) = (  0.000000  0.903272  0.000000 )
               b(3) = (  0.000000  0.000000  0.223509 )

     PseudoPot. # 1 for O  read from file:
     /home/camp/zhonxu/pseudo/o_pbe_v1.01.uspp.F.UPF
     MD5 check sum: 2bcb18d16ea4b960afae9ec6d52f22d2
     Pseudo is Ultrasoft + core correction, Zval =  6.0
     Generated by new atomic code, or converted to UPF format
     Using radial grid of  737 points,  5 beta functions with:
                l(1) =   0
                l(2) =   0
                l(3) =   1
                l(4) =   1
                l(5) =   2
     Q(r) pseudized with  8 coefficients,  rinner =    0.900   0.900   0.900
                                                       0.900   0.900

     PseudoPot. # 2 for Ti read from file:
     /home/camp/zhonxu/pseudo/ti_pbe_v1.uspp.F.UPF
     MD5 check sum: bcc8f6961b3b91f0cac3ca967d22d0fb
     Pseudo is Ultrasoft + core correction, Zval = 12.0
     Generated by new atomic code, or converted to UPF format
     Using radial grid of  851 points,  6 beta functions with:
                l(1) =   0
                l(2) =   0
                l(3) =   1
                l(4) =   1
                l(5) =   2
                l(6) =   2
     Q(r) pseudized with  6 coefficients,  rinner =    1.000   1.000   1.000
                                                       1.000   1.000

     PseudoPot. # 3 for H  read from file:
     /home/camp/zhonxu/pseudo/h_pbe_v1.uspp.F.UPF
     MD5 check sum: 3408e3ff4ec8b0a4e358431e7e038a48
     Pseudo is Ultrasoft, Zval =  1.0
     Generated by new atomic code, or converted to UPF format
     Using radial grid of  615 points,  2 beta functions with:
                l(1) =   0
                l(2) =   0
     Q(r) pseudized with  8 coefficients,  rinner =    0.700

     atomic species   valence    mass     pseudopotential
        O0             6.00    15.99940     O ( 1.00)
        Ti1           12.00    47.88000     Ti( 1.00)
        H2             1.00     1.00794     H ( 1.00)

     Simplified LDA+U calculation (l_max = 2) with parameters (eV):
     atomic species    L          U    alpha       J0     beta
        Ti1            2     0.5000   0.0000   0.0000   0.0000

     No symmetry found

   Cartesian axes

     site n.     atom                  positions (alat units)
         1           O0  tau(   1) = (   0.0000000   0.0000000   1.6989461  )
         2           O0  tau(   2) = (   0.0000000   0.5535432   1.7901728  )
         3           Ti1 tau(   3) = (   0.2500000   0.5535432   2.0162933  )
         4           Ti1 tau(   4) = (   0.0000000   0.0000000   2.0248388  )
         5           O0  tau(   5) = (   0.2500000   0.8967400   2.0178145  )
         6           O0  tau(   6) = (   0.2500000   0.2103464   2.0226912  )
         7           O0  tau(   7) = (   0.0000000   0.5535432   2.2326603  )
         8           O0  tau(   8) = (   0.0000000   0.0000000   2.3559662  )
         9           Ti1 tau(   9) = (   0.2500000   0.0000000   2.5995804  )
        10           Ti1 tau(  10) = (   0.0000000   0.5535432   2.5483968  )
        11           O0  tau(  11) = (   0.2500000   0.7638896   2.5964932  )
        12           O0  tau(  12) = (   0.2500000   0.3431968   2.5965380  )
        13           O0  tau(  13) = (   0.0000000   0.0000000   2.7842708  )
        14           O0  tau(  14) = (   0.5000000   0.0000000   1.6989461  )
        15           O0  tau(  15) = (   0.5000000   0.5535432   1.7901728  )
        16           Ti1 tau(  16) = (   0.7500000   0.5535432   2.0162933  )
        17           Ti1 tau(  17) = (   0.5000000   0.0000000   2.0248388  )
        18           O0  tau(  18) = (   0.7500000   0.8967400   2.0178145  )
        19           O0  tau(  19) = (   0.7500000   0.2103464   2.0226912  )
        20           O0  tau(  20) = (   0.5000000   0.5535432   2.2326603  )
        21           O0  tau(  21) = (   0.5000000   0.0000000   2.3559662  )
        22           Ti1 tau(  22) = (   0.7500000   0.0000000   2.5995804  )
        23           Ti1 tau(  23) = (   0.5000000   0.5535432   2.5483968  )
        24           O0  tau(  24) = (   0.7500000   0.7638896   2.5964932  )
        25           O0  tau(  25) = (   0.7500000   0.3431968   2.5965380  )
        26           O0  tau(  26) = (   0.5000000   0.0000000   2.7842708  )
        27           H2  tau(  27) = (  -0.0005400   0.6991915   1.7063283  )
        28           H2  tau(  28) = (   0.4994600   0.6991915   1.7063283  )
        29           H2  tau(  29) = (   0.1501800   0.0252084   1.6321479  )
        30           H2  tau(  30) = (   0.6501800   0.0252084   1.6321479  )

     number of k points=    10  Methfessel-Paxton smearing, width (Ry)=  0.0100
                       cart. coord. in units 2pi/alat
        k(    1) = (   0.0000000   0.0000000   0.0000000), wk =   0.1250000
        k(    2) = (   0.0000000   0.2258180   0.0000000), wk =   0.2500000
        k(    3) = (   0.0000000  -0.4516359   0.0000000), wk =   0.1250000
        k(    4) = (   0.2500000   0.0000000   0.0000000), wk =   0.2500000
        k(    5) = (   0.2500000   0.2258180   0.0000000), wk =   0.2500000
        k(    6) = (   0.2500000  -0.4516359   0.0000000), wk =   0.2500000
        k(    7) = (  -0.5000000   0.0000000   0.0000000), wk =   0.1250000
        k(    8) = (  -0.5000000   0.2258180   0.0000000), wk =   0.2500000
        k(    9) = (  -0.5000000  -0.4516359   0.0000000), wk =   0.1250000
        k(   10) = (  -0.2500000   0.2258180   0.0000000), wk =   0.2500000

     Largest allocated arrays     est. size (Mb)     dimensions
     Largest temporary arrays     est. size (Mb)     dimensions

     Check: negative/imaginary core charge=   -0.000005    0.000000

     Initial potential from superposition of free atoms
     Check: negative starting charge=   -0.102816

     starting charge  199.99958, renormalised to  208.00000

     negative rho (up, down):  0.107E+00 0.000E+00
     Number of +U iterations with fixed ns =  0
     Starting occupations:
 --- enter write_ns ---
 LDA+U parameters:
U( 2)     =  0.50000000
alpha( 2) =  0.00000000
atom    3   Tr[ns(na)] =   2.00000
    eigenvalues:
  0.200  0.200  0.200  0.200  0.200
    eigenvectors:
  1.000  0.000  0.000  0.000  0.000
  0.000  1.000  0.000  0.000  0.000
  0.000  0.000  1.000  0.000  0.000
  0.000  0.000  0.000  1.000  0.000
  0.000  0.000  0.000  0.000  1.000
    occupations:
  0.200  0.000  0.000  0.000  0.000
  0.000  0.200  0.000  0.000  0.000
  0.000  0.000  0.200  0.000  0.000
  0.000  0.000  0.000  0.200  0.000
  0.000  0.000  0.000  0.000  0.200
atom    4   Tr[ns(na)] =   2.00000
    eigenvalues:
  0.200  0.200  0.200  0.200  0.200
    eigenvectors:
  1.000  0.000  0.000  0.000  0.000
  0.000  1.000  0.000  0.000  0.000
  0.000  0.000  1.000  0.000  0.000
  0.000  0.000  0.000  1.000  0.000
  0.000  0.000  0.000  0.000  1.000
    occupations:
  0.200  0.000  0.000  0.000  0.000
  0.000  0.200  0.000  0.000  0.000
  0.000  0.000  0.200  0.000  0.000
  0.000  0.000  0.000  0.200  0.000
  0.000  0.000  0.000  0.000  0.200
atom    9   Tr[ns(na)] =   2.00000
    eigenvalues:
  0.200  0.200  0.200  0.200  0.200
    eigenvectors:
  1.000  0.000  0.000  0.000  0.000
  0.000  1.000  0.000  0.000  0.000
  0.000  0.000  1.000  0.000  0.000
  0.000  0.000  0.000  1.000  0.000
  0.000  0.000  0.000  0.000  1.000
    occupations:
  0.200  0.000  0.000  0.000  0.000
  0.000  0.200  0.000  0.000  0.000
  0.000  0.000  0.200  0.000  0.000
  0.000  0.000  0.000  0.200  0.000
  0.000  0.000  0.000  0.000  0.200
atom   10   Tr[ns(na)] =   2.00000
    eigenvalues:
  0.200  0.200  0.200  0.200  0.200
    eigenvectors:
  1.000  0.000  0.000  0.000  0.000
  0.000  1.000  0.000  0.000  0.000
  0.000  0.000  1.000  0.000  0.000
  0.000  0.000  0.000  1.000  0.000
  0.000  0.000  0.000  0.000  1.000
    occupations:
  0.200  0.000  0.000  0.000  0.000
  0.000  0.200  0.000  0.000  0.000
  0.000  0.000  0.200  0.000  0.000
  0.000  0.000  0.000  0.200  0.000
  0.000  0.000  0.000  0.000  0.200
atom   16   Tr[ns(na)] =   2.00000
    eigenvalues:
  0.200  0.200  0.200  0.200  0.200
    eigenvectors:
  1.000  0.000  0.000  0.000  0.000
  0.000  1.000  0.000  0.000  0.000
  0.000  0.000  1.000  0.000  0.000
  0.000  0.000  0.000  1.000  0.000
  0.000  0.000  0.000  0.000  1.000
    occupations:
  0.200  0.000  0.000  0.000  0.000
  0.000  0.200  0.000  0.000  0.000
  0.000  0.000  0.200  0.000  0.000
  0.000  0.000  0.000  0.200  0.000
  0.000  0.000  0.000  0.000  0.200
atom   17   Tr[ns(na)] =   2.00000
    eigenvalues:
  0.200  0.200  0.200  0.200  0.200
    eigenvectors:
  1.000  0.000  0.000  0.000  0.000
  0.000  1.000  0.000  0.000  0.000
  0.000  0.000  1.000  0.000  0.000
  0.000  0.000  0.000  1.000  0.000
  0.000  0.000  0.000  0.000  1.000
    occupations:
  0.200  0.000  0.000  0.000  0.000
  0.000  0.200  0.000  0.000  0.000
  0.000  0.000  0.200  0.000  0.000
  0.000  0.000  0.000  0.200  0.000
  0.000  0.000  0.000  0.000  0.200
atom   22   Tr[ns(na)] =   2.00000
    eigenvalues:
  0.200  0.200  0.200  0.200  0.200
    eigenvectors:
  1.000  0.000  0.000  0.000  0.000
  0.000  1.000  0.000  0.000  0.000
  0.000  0.000  1.000  0.000  0.000
  0.000  0.000  0.000  1.000  0.000
  0.000  0.000  0.000  0.000  1.000
    occupations:
[...]
atom    4   Tr[ns(na)] =   2.95891
    eigenvalues:
  0.181  0.217  0.245  0.408  0.429
    eigenvectors:
  0.006  0.004  0.000  0.000  0.990
  0.001  0.956  0.038  0.000  0.004
  0.000  0.038  0.961  0.000  0.000
  0.993  0.002  0.000  0.000  0.005
  0.000  0.000  0.000  1.000  0.000
    occupations:
  0.427  0.014  0.003 -0.018 -0.000
  0.014  0.219 -0.005  0.000 -0.002
  0.003 -0.005  0.244  0.001 -0.000
 -0.018  0.000  0.001  0.182 -0.000
 -0.000 -0.002 -0.000 -0.000  0.408
atom    9   Tr[ns(na)] =   2.94466
    eigenvalues:
  0.191  0.230  0.248  0.371  0.432
    eigenvectors:
  0.000  0.000  0.923  0.077  0.000
  0.000  0.000  0.000  0.000  1.000
  1.000  0.000  0.000  0.000  0.000
  0.000  0.000  0.077  0.923  0.000
  0.000  1.000  0.000  0.000  0.000
    occupations:
  0.257 -0.000 -0.000  0.033  0.000
 -0.000  0.432  0.000 -0.000 -0.000
 -0.000  0.000  0.191  0.000  0.000
  0.033 -0.000  0.000  0.362 -0.000
  0.000 -0.000  0.000 -0.000  0.230
atom   10   Tr[ns(na)] =   2.87391
    eigenvalues:
  0.192  0.239  0.243  0.335  0.429
    eigenvectors:
  0.024  0.000  0.000  0.975  0.000
  0.000  0.001  0.999  0.000  0.000
  0.000  0.999  0.001  0.000  0.000
  0.975  0.000  0.000  0.024  0.000
  0.000  0.000  0.000  0.000  1.000
    occupations:
  0.331 -0.000 -0.000 -0.022 -0.000
 -0.000  0.243 -0.000 -0.000  0.000
 -0.000 -0.000  0.239 -0.000  0.000
 -0.022 -0.000 -0.000  0.196 -0.000
 -0.000  0.000  0.000 -0.000  0.429
atom   16   Tr[ns(na)] =   2.83049
    eigenvalues:
  0.179  0.203  0.235  0.397  0.401
    eigenvectors:
  0.792  0.000  0.010  0.198  0.000
  0.000  0.003  0.000  0.000  0.997
  0.011  0.000  0.989  0.000  0.000
  0.197  0.000  0.001  0.802  0.000
  0.000  0.997  0.000  0.000  0.003
    occupations:
  0.223 -0.000 -0.004  0.087 -0.000
 -0.000  0.400  0.000  0.000  0.010
 -0.004  0.000  0.235  0.006 -0.000
  0.087  0.000  0.006  0.354 -0.000
 -0.000  0.010 -0.000 -0.000  0.204
atom   17   Tr[ns(na)] =   2.95891
    eigenvalues:
  0.181  0.217  0.245  0.408  0.429
    eigenvectors:
  0.006  0.004  0.000  0.000  0.990
  0.001  0.956  0.038  0.000  0.004
  0.000  0.038  0.961  0.000  0.000
  0.993  0.002  0.000  0.000  0.005
  0.000  0.000  0.000  1.000  0.000
    occupations:
  0.427  0.014  0.003 -0.018 -0.000
  0.014  0.219 -0.005  0.000 -0.002
  0.003 -0.005  0.244  0.001 -0.000
 -0.018  0.000  0.001  0.182 -0.000
 -0.000 -0.002 -0.000 -0.000  0.408
atom   22   Tr[ns(na)] =   2.94466
    eigenvalues:
  0.191  0.230  0.248  0.371  0.432
    eigenvectors:
  0.000  0.000  0.923  0.077  0.000
  0.000  0.000  0.000  0.000  1.000
  1.000  0.000  0.000  0.000  0.000
  0.000  0.000  0.077  0.923  0.000
  0.000  1.000  0.000  0.000  0.000
    occupations:
  0.257 -0.000 -0.000  0.033  0.000
 -0.000  0.432  0.000 -0.000 -0.000
 -0.000  0.000  0.191  0.000  0.000
  0.033 -0.000  0.000  0.362 -0.000
  0.000 -0.000  0.000 -0.000  0.230
atom   23   Tr[ns(na)] =   2.87391
    eigenvalues:
  0.192  0.239  0.243  0.335  0.429
    eigenvectors:
  0.024  0.000  0.000  0.975  0.000
  0.000  0.001  0.999  0.000  0.000
  0.000  0.999  0.001  0.000  0.000
  0.975  0.000  0.000  0.024  0.000
  0.000  0.000  0.000  0.000  1.000
    occupations:
  0.331 -0.000 -0.000 -0.022 -0.000
 -0.000  0.243 -0.000 -0.000  0.000
 -0.000 -0.000  0.239 -0.000  0.000
 -0.022 -0.000 -0.000  0.196 -0.000
 -0.000  0.000  0.000 -0.000  0.429
N of occupied +U levels =  23.2159314
 --- exit write_ns ---

     Threshold (ethr) on eigenvalues was too large:
     Diagonalizing with lowered threshold

     Davidson diagonalization with overlap
     ethr =  1.39E-08,  avg # of iterations =  1.9

[...]

     total energy              =   -1534.69191566 Ry
     Harris-Foulkes estimate   =   -1534.69191567 Ry
     estimated scf accuracy    <       0.00000005 Ry

     iteration #  7     ecut=    40.00 Ry     beta=0.70
     Davidson diagonalization with overlap
     ethr =  2.32E-11,  avg # of iterations =  1.0

     negative rho (up, down):  0.102E+00 0.000E+00

     End of self-consistent calculation
 --- enter write_ns ---
 LDA+U parameters:
U( 2)     =  0.50000000
alpha( 2) =  0.00000000
atom    3   Tr[ns(na)] =   2.83112
    eigenvalues:
  0.179  0.203  0.235  0.397  0.401
    eigenvectors:
  0.792  0.000  0.011  0.198  0.000
  0.000  0.003  0.000  0.000  0.997
  0.011  0.000  0.989  0.000  0.000
  0.197  0.000  0.001  0.802  0.000
  0.000  0.997  0.000  0.000  0.003
    occupations:
  0.223 -0.000 -0.004  0.087 -0.000
 -0.000  0.400  0.000  0.000  0.010
 -0.004  0.000  0.235  0.006 -0.000
  0.087  0.000  0.006  0.354 -0.000
 -0.000  0.010 -0.000 -0.000  0.204
atom    4   Tr[ns(na)] =   2.95961
    eigenvalues:
  0.181  0.217  0.245  0.408  0.429
    eigenvectors:
  0.006  0.004  0.000  0.000  0.990
  0.001  0.956  0.038  0.000  0.004
  0.000  0.038  0.961  0.000  0.000
  0.993  0.002  0.000  0.000  0.005
  0.000  0.000  0.000  1.000  0.000
    occupations:
  0.427  0.014  0.003 -0.018 -0.000
  0.014  0.219 -0.005  0.000 -0.002
  0.003 -0.005  0.244  0.001 -0.000
 -0.018  0.000  0.001  0.182 -0.000
 -0.000 -0.002 -0.000 -0.000  0.408
atom    9   Tr[ns(na)] =   2.94585
    eigenvalues:
  0.191  0.230  0.248  0.371  0.432
    eigenvectors:
  0.000  0.000  0.924  0.076  0.000
  0.000  0.000  0.000  0.000  1.000
  1.000  0.000  0.000  0.000  0.000
  0.000  0.000  0.076  0.924  0.000
  0.000  1.000  0.000  0.000  0.000
    occupations:
  0.258 -0.000 -0.000  0.033  0.000
 -0.000  0.432  0.000 -0.000 -0.000
 -0.000  0.000  0.191  0.000  0.000
  0.033 -0.000  0.000  0.362 -0.000
  0.000 -0.000  0.000 -0.000  0.230
atom   10   Tr[ns(na)] =   2.87371
    eigenvalues:
  0.192  0.239  0.243  0.334  0.429
    eigenvectors:
  0.025  0.000  0.000  0.975  0.000
  0.000  0.001  0.999  0.000  0.000
  0.000  0.999  0.001  0.000  0.000
  0.975  0.000  0.000  0.025  0.000
  0.000  0.000  0.000  0.000  1.000
    occupations:
  0.331 -0.000 -0.000 -0.022 -0.000
 -0.000  0.243 -0.000 -0.000  0.000
 -0.000 -0.000  0.239 -0.000  0.000
 -0.022 -0.000 -0.000  0.196 -0.000
 -0.000  0.000  0.000 -0.000  0.429
atom   16   Tr[ns(na)] =   2.83112
    eigenvalues:
  0.179  0.203  0.235  0.397  0.401
    eigenvectors:
  0.792  0.000  0.011  0.198  0.000
  0.000  0.003  0.000  0.000  0.997
  0.011  0.000  0.989  0.000  0.000
  0.197  0.000  0.001  0.802  0.000
  0.000  0.997  0.000  0.000  0.003
    occupations:
  0.223 -0.000 -0.004  0.087 -0.000
 -0.000  0.400  0.000  0.000  0.010
 -0.004  0.000  0.235  0.006 -0.000
  0.087  0.000  0.006  0.354 -0.000
 -0.000  0.010 -0.000 -0.000  0.204
atom   17   Tr[ns(na)] =   2.95961
    eigenvalues:
  0.181  0.217  0.245  0.408  0.429
    eigenvectors:
  0.006  0.004  0.000  0.000  0.990
  0.001  0.956  0.038  0.000  0.004
  0.000  0.038  0.961  0.000  0.000
  0.993  0.002  0.000  0.000  0.005
  0.000  0.000  0.000  1.000  0.000
    occupations:
  0.427  0.014  0.003 -0.018 -0.000
  0.014  0.219 -0.005  0.000 -0.002
  0.003 -0.005  0.244  0.001 -0.000
 -0.018  0.000  0.001  0.182 -0.000
 -0.000 -0.002 -0.000 -0.000  0.408
atom   22   Tr[ns(na)] =   2.94584
    eigenvalues:
  0.191  0.230  0.248  0.371  0.432
    eigenvectors:
  0.000  0.000  0.924  0.076  0.000
  0.000  0.000  0.000  0.000  1.000
  1.000  0.000  0.000  0.000  0.000
  0.000  0.000  0.076  0.924  0.000
  0.000  1.000  0.000  0.000  0.000
    occupations:
  0.258 -0.000 -0.000  0.033  0.000
 -0.000  0.432  0.000 -0.000 -0.000
 -0.000  0.000  0.191  0.000  0.000
  0.033 -0.000  0.000  0.362 -0.000
  0.000 -0.000  0.000 -0.000  0.230
atom   23   Tr[ns(na)] =   2.87371
    eigenvalues:
  0.192  0.239  0.243  0.334  0.429
    eigenvectors:
  0.025  0.000  0.000  0.975  0.000
  0.000  0.001  0.999  0.000  0.000
  0.000  0.999  0.001  0.000  0.000
  0.975  0.000  0.000  0.025  0.000
  0.000  0.000  0.000  0.000  1.000
    occupations:
  0.331 -0.000 -0.000 -0.022 -0.000
 -0.000  0.243 -0.000 -0.000  0.000
 -0.000 -0.000  0.239 -0.000  0.000
 -0.022 -0.000 -0.000  0.196 -0.000
 -0.000  0.000  0.000 -0.000  0.429
N of occupied +U levels =  23.2205541
 --- exit write_ns ---

[...]

          k = 0.2500-0.4516 0.0000 ( 29882 PWs)   bands (ev):

[...]

          k =-0.2500 0.2258 0.0000 ( 29912 PWs)   bands (ev):

   -60.7899 -60.7633 -60.3548 -60.3279 -59.2255 -59.1965 -58.8361 -58.8074
   -37.3137 -37.0502 -37.0232 -36.9741 -36.8617 -36.8390 -36.7524 -36.7016
   -36.6798 -36.5473 -36.4791 -36.4526 -35.8191 -35.5673 -35.4947 -35.4897
   -35.3263 -35.3071 -35.2614 -35.1819 -35.1584 -35.0761 -35.0010 -34.9299
   -22.2045 -22.0000 -20.9529 -20.8049 -20.3178 -20.2276 -19.8962 -19.7374
   -19.6563 -19.5667 -19.5571 -19.5049 -19.3150 -19.2844 -18.7768 -18.3890
   -18.1587 -18.0860  -9.9220  -9.6227  -8.1941  -8.0428  -7.8908  -7.8841
    -7.8444  -7.7978  -7.4524  -7.4281  -7.1963  -7.1926  -7.0152  -6.9580
    -6.9277  -6.8370  -6.8024  -6.5594  -6.5401  -6.3479  -6.2140  -6.1729
    -6.0931  -5.8131  -5.8018  -5.6667  -5.6305  -5.4474  -5.4357  -5.3829
    -5.2746  -5.1822  -5.1485  -5.0838  -4.9684  -4.9176  -4.8459  -4.7805
    -4.6834  -4.5780  -4.5052  -4.4822  -3.9729  -3.8457  -3.7572  -3.5277
    -3.4699  -3.4137  -3.3188  -3.2803  -3.2073  -2.9688  -2.8748  -2.7309
    -1.4713  -1.1551  -1.0175  -0.9569  -0.8892  -0.7148  -0.6405  -0.5287
    -0.2149  -0.1148   0.0285   0.0398   0.1417   0.3813   0.6341   0.6366
     0.7453   0.7637   0.9929   1.0350   1.1276   1.2422   1.4430   1.4780
     1.6183   1.7206   1.7495   1.8718   1.8747   2.0766   2.1760   2.7383
     3.0813   3.2796   3.4012   3.5997   3.7036   3.7467   3.8099   4.0045
     4.1016   4.4495   4.4561   4.6473   4.9426   4.9740   5.2204   5.6623
     5.8462   5.8529   5.9899   6.1032   6.1093   6.4140   6.4374   6.7973
     6.8020   7.1418   7.2203   7.3776   7.5027   7.7250   7.8261   7.8625
     7.8740   7.9728   8.0257   8.2000   8.4451   8.5209   8.5997   8.8102
     8.8340   8.9624   9.2224   9.3056   9.3579   9.3650   9.4032   9.5269
     9.6114   9.6373   9.9293   9.9415  10.0466  10.1818  10.2436  10.3653
    10.4573  10.6319  10.6334  10.6953  10.8659  10.8743  11.0009  11.0388
    11.1443  11.2748  11.3117  11.3900  11.4134  11.4466  11.5930  11.6464
    11.8170  11.8311  11.8992  11.9617  11.9687  12.0788  12.1090  12.2871
    12.3530  12.3588  12.4986  12.6106  12.6802  12.7113  12.7816  12.8692
    12.9069  13.0022  13.1295  13.2109  13.3171  13.3881  13.4615  13.5484
    13.6171  13.6935  13.7803  13.7820  13.8739  13.9307  14.0176  14.1122
    14.1505  14.2562  14.3163  14.3181  14.5155  14.5730  14.6108  14.6272
    14.7692  14.7896  14.8963  14.9473  15.0610  15.1005  15.1746  15.2522
    15.3603  15.3922  15.4692  15.5504  15.6297  15.7592  15.7616  15.8287
    15.8287  15.9247  15.9344  16.1086  16.1608  16.2316  16.2520  16.3644
    16.3991  16.5266  16.6789  16.7221  16.7779  16.8347  16.8376  16.8781
    16.9898  17.0016  17.0497  17.1005  17.2491  17.2691  17.3021  17.3893
    17.4517  17.4734  17.5517  17.5823  17.7581  17.8289  17.9059  18.0089
    18.0546  18.1806  18.2271  18.3108

     the Fermi energy is    -2.6346 ev

!    total energy              =   -1534.69191566 Ry
     Harris-Foulkes estimate   =   -1534.69191567 Ry
     estimated scf accuracy    <          9.7E-09 Ry

     The total energy is the sum of the following terms:

     one-electron contribution =  -18395.14052198 Ry
     hartree contribution      =    9212.22559510 Ry
     xc contribution           =    -269.88436301 Ry
     ewald contribution        =    7917.81632454 Ry
     Hubbard energy            =       0.28984099 Ry
     smearing contrib. (-TS)   =       0.00120870 Ry

     convergence has been achieved in   7 iterations

     Forces acting on atoms (Ry/au):

     negative rho (up, down):  0.102E+00 0.000E+00
     atom    1 type  1   force =     0.00063568   -0.01563947    0.00068252
     atom    2 type  1   force =     0.00003850    0.02421049    0.00017870
     atom    3 type  2   force =     0.00019170   -0.01588516   -0.00013209
     atom    4 type  2   force =    -0.00576150    0.00835303    0.00038883
     atom    5 type  1   force =     0.00392435   -0.10891006   -0.00032228
     atom    6 type  1   force =    -0.00141260    0.10875423   -0.00033733
     atom    7 type  1   force =    -0.00005596    0.00105763    0.00005510
     atom    8 type  1   force =     0.00312695   -0.00152577   -0.00029187
     atom    9 type  2   force =    -0.00081671    0.00010420    0.00038211
     atom   10 type  2   force =    -0.00005055   -0.00026192   -0.00058053
     atom   11 type  1   force =     0.00008453   -0.04325924    0.00029864
     atom   12 type  1   force =    -0.00000795    0.04330610    0.00030179
     atom   13 type  1   force =     0.00058685   -0.00005217    0.00000929
     atom   14 type  1   force =     0.00063579   -0.01563947    0.00068253
     atom   15 type  1   force =     0.00003855    0.02421047    0.00017866
     atom   16 type  2   force =     0.00019149   -0.01588517   -0.00013200
     atom   17 type  2   force =    -0.00576157    0.00835302    0.00038887
     atom   18 type  1   force =     0.00392434   -0.10891007   -0.00032245
     atom   19 type  1   force =    -0.00141260    0.10875423   -0.00033752
     atom   20 type  1   force =    -0.00005609    0.00105763    0.00005477
     atom   21 type  1   force =     0.00312703   -0.00152577   -0.00029198
     atom   22 type  2   force =    -0.00081627    0.00010420    0.00038259
     atom   23 type  2   force =    -0.00005072   -0.00026192   -0.00058088
     atom   24 type  1   force =     0.00008467   -0.04325912    0.00029883
     atom   25 type  1   force =    -0.00000781    0.04330595    0.00030202
     atom   26 type  1   force =     0.00058743   -0.00005217    0.00000983
     atom   27 type  3   force =     0.00003187   -0.00036396   -0.00044063
     atom   28 type  3   force =     0.00003186   -0.00036393   -0.00044064
     atom   29 type  3   force =    -0.00051563    0.00011210   -0.00019243
     atom   30 type  3   force =    -0.00051564    0.00011210   -0.00019244

     Total force =     0.002135     Total SCF correction =     0.000263
     SCF correction compared to forces is large: reduce conv_thr to get better values

     bfgs converged in   6 scf cycles and   5 bfgs steps
     (criteria: energy < 0.10E-03, force < 0.10E-02)

     End of BFGS Geometry Optimization

     Final energy   =   -1534.6919156590 Ry
Begin final coordinates

ATOMIC_POSITIONS (crystal)
O0       0.000000000   0.000000000   0.379472971    0   0   1
O0       0.000000000   0.500000000   0.399913000    0   0   1
Ti1      0.250000000   0.500000000   0.450565921    0   0   1
Ti1      0.000000000   0.000000000   0.452476416    0   0   1
O0       0.250000000   0.810000000   0.451004910    0   0   1
O0       0.250000000   0.190000000   0.452066849    0   0   1
O0       0.000000000   0.500000000   0.498942926    0   0   1
O0       0.000000000   0.000000000   0.526754346    0   0   1
Ti1      0.250000000   0.000000000   0.581221679    0   0   1
Ti1      0.000000000   0.500000000   0.569710133    0   0   1
O0       0.250000000   0.690000000   0.580460376    0   0   1
O0       0.250000000   0.310000000   0.580473141    0   0   1
O0       0.000000000   0.000000000   0.622634746    0   0   1
O0       0.500000000   0.000000000   0.379472968    0   0   1
O0       0.500000000   0.500000000   0.399913008    0   0   1
Ti1      0.750000000   0.500000000   0.450565915    0   0   1
Ti1      0.500000000   0.000000000   0.452476413    0   0   1
O0       0.750000000   0.810000000   0.451004934    0   0   1
O0       0.750000000   0.190000000   0.452066879    0   0   1
O0       0.500000000   0.500000000   0.498942955    0   0   1
O0       0.500000000   0.000000000   0.526754348    0   0   1
Ti1      0.750000000   0.000000000   0.581221601    0   0   1
Ti1      0.500000000   0.500000000   0.569710165    0   0   1
O0       0.750000000   0.690000000   0.580460338    0   0   1
O0       0.750000000   0.310000000   0.580473094    0   0   1
O0       0.500000000   0.000000000   0.622634716    0   0   1
H2      -0.000485875   0.631638776   0.381194634
H2       0.499514131   0.631638762   0.381194636
H2       0.150465557   0.023080745   0.364677990
H2       0.650465566   0.023080734   0.364677990
End final coordinates

     General routines

     Parallel routines
     Hubbard U routines

   This run was terminated on:  15:20:46   6May2014

   JOB DONE.
Running PBS batch system epilogue script
Job id: 340809.audhumbla.fysik.dtu.dk
Username: zhonxu
Groupname: campgst
Jobname: TiO2/Eads-2-layers/bare-U-0.5
Sessionid: 3301
Queuename: verylong
Accounting:
This job has allocated the following 16 nodes:
b065 b065 b065 b065 b065 b065 b065 b065 b063 b063 b063 b063 b063 b063 b063 b063
Finished epilogue job 340809.audhumbla.fysik.dtu.dk for zhonxu