     Program PWSCF v.5.0.2 (svn rev. 9656) starts on 10May2014 at  2:45:28

     Current dimensions of program PWSCF are:
     Max number of different atomic species (ntypx) = 10
     Max number of k-points (npk) =  40000
     Max angular momentum in pseudopotentials (lmaxx) =  3
     Reading input from pwscf.in
Warning: card &CELL ignored
Warning: card / ignored

     Subspace diagonalization in iterative solution of the eigenvalue problem:
     a serial algorithm will be used

     bravais-lattice index     =            0
     lattice parameter (alat)  =      12.0187  a.u.
     unit-cell volume          =    7280.5819 (a.u.)^3
     number of atoms/cell      =           33
     number of atomic types    =            3
     number of electrons       =       245.00
     number of Kohn-Sham states=          367
     kinetic-energy cutoff     =      40.0000  Ry
     charge density cutoff     =     500.0000  Ry
     convergence threshold     =      1.0E-06
     mixing beta               =       0.7000
     number of iterations used =            8  plain     mixing
     Exchange-correlation      = SLA  PW   PBE  PBE ( 1 4 3 4 0)
     EXX-fraction              =        0.00
     nstep                     =           50

     celldm(1)=  12.018658  celldm(2)=   0.000000  celldm(3)=   0.000000
     celldm(4)=   0.000000  celldm(5)=   0.000000  celldm(6)=   0.000000

     crystal axes: (cart. coord. in units of alat)
               a(1) = (   1.000000   0.000000   0.000000 )
               a(2) = (   0.000000   1.009517   0.000000 )
               a(3) = (   0.000000   0.000000   4.154171 )

     reciprocal axes: (cart. coord. in units 2 pi/alat)
               b(1) = (  1.000000  0.000000  0.000000 )
               b(2) = (  0.000000  0.990572  0.000000 )
               b(3) = (  0.000000  0.000000  0.240722 )

     PseudoPot. # 1 for O  read from file:
     /home/camp/zhonxu/pseudo/o_pbe_v1.01.uspp.F.UPF
     MD5 check sum: 2bcb18d16ea4b960afae9ec6d52f22d2
     Pseudo is Ultrasoft + core correction, Zval =  6.0
     Generated by new atomic code, or converted to UPF format
     Using radial grid of  737 points,  5 beta functions with:
                l(1) =   0
                l(2) =   0
                l(3) =   1
                l(4) =   1
                l(5) =   2
     Q(r) pseudized with  8 coefficients,  rinner =    0.900   0.900   0.900
                                                       0.900   0.900

     PseudoPot. # 2 for Ir read from file:
     /home/camp/zhonxu/pseudo/ir_pbe_v1.uspp.F.UPF
     MD5 check sum: abf987a9674477536ede83817f8f8b70
     Pseudo is Ultrasoft + core correction, Zval = 15.0
     Generated by new atomic code, or converted to UPF format
     Using radial grid of  983 points,  7 beta functions with:
                l(1) =   0
                l(2) =   0
                l(3) =   1
                l(4) =   1
                l(5) =   1
                l(6) =   2
                l(7) =   2
     Q(r) pseudized with  8 coefficients,  rinner =    1.350   1.350   1.350
                                                       1.350   1.350

     PseudoPot. # 3 for H  read from file:
     /home/camp/zhonxu/pseudo/h_pbe_v1.uspp.F.UPF
     MD5 check sum: 3408e3ff4ec8b0a4e358431e7e038a48
     Pseudo is Ultrasoft, Zval =  1.0
     Generated by new atomic code, or converted to UPF format
     Using radial grid of  615 points,  2 beta functions with:
                l(1) =   0
                l(2) =   0
     Q(r) pseudized with  8 coefficients,  rinner =    0.700

     atomic species   valence    mass     pseudopotential
        O0             6.00    15.99940     O ( 1.00)
        Ir1           15.00   192.22000     Ir( 1.00)
        H2             1.00     1.00794     H ( 1.00)

     No symmetry found

   Cartesian axes

     site n.     atom                  positions (alat units)
         1           O0  tau(   1) = (   0.0000000   0.0000000   1.5730185  )
         2           O0  tau(   2) = (   0.0000000   0.5047586   1.6673182  )
         3           Ir1 tau(   3) = (   0.2500000   0.5047586   1.8780178  )
         4           Ir1 tau(   4) = (   0.0000000   0.0000000   1.8842906  )
         5           O0  tau(   5) = (   0.2500000   0.8177090   1.8825458  )
         6           O0  tau(   6) = (   0.2500000   0.1918083   1.8810503  )
         7           O0  tau(   7) = (   0.0000000   0.5047586   2.0695666  )
         8           O0  tau(   8) = (   0.0000000   0.0000000   2.1991352  )
         9           Ir1 tau(   9) = (   0.2500000   0.0000000   2.3955860  )
        10           Ir1 tau(  10) = (   0.0000000   0.5047586   2.3764768  )
        11           O0  tau(  11) = (   0.2500000   0.6965669   2.3975800  )
        12           O0  tau(  12) = (   0.2500000   0.3129503   2.3977461  )
        13           O0  tau(  13) = (   0.0000000   0.0000000   2.5806958  )
        14           O0  tau(  14) = (   0.5000000   0.0000000   1.5730185  )
        15           O0  tau(  15) = (   0.5000000   0.5047586   1.6673182  )
        16           Ir1 tau(  16) = (   0.7500000   0.5047586   1.8780178  )
        17           Ir1 tau(  17) = (   0.5000000   0.0000000   1.8842906  )
        18           O0  tau(  18) = (   0.7500000   0.8177090   1.8825458  )
        19           O0  tau(  19) = (   0.7500000   0.1918083   1.8810503  )
        20           O0  tau(  20) = (   0.5000000   0.5047586   2.0695666  )
        21           O0  tau(  21) = (   0.5000000   0.0000000   2.1991352  )
        22           Ir1 tau(  22) = (   0.7500000   0.0000000   2.3955860  )
        23           Ir1 tau(  23) = (   0.5000000   0.5047586   2.3764768  )
        24           O0  tau(  24) = (   0.7500000   0.6965669   2.3975800  )
        25           O0  tau(  25) = (   0.7500000   0.3129503   2.3977461  )
        26           O0  tau(  26) = (   0.5000000   0.0000000   2.5807374  )
        27           H2  tau(  27) = (  -0.0000500   0.6423962   1.5933324  )
        28           H2  tau(  28) = (   0.4999500   0.6423962   1.5933324  )
        29           H2  tau(  29) = (   0.1436500   0.0338188   1.5249132  )
        30           H2  tau(  30) = (   0.6436500   0.0338188   1.5249132  )
        31           O0  tau(  31) = (   0.4997900   0.5047586   2.6855887  )
        32           O0  tau(  32) = (   0.5001800   0.3215817   2.8023624  )
        33           H2  tau(  33) = (   0.4999800   0.3681406   2.9499601  )

     number of k points=    10  Methfessel-Paxton smearing, width (Ry)=  0.0100
                       cart. coord. in units 2pi/alat
        k(    1) = (   0.0000000   0.0000000   0.0000000), wk =   0.1250000
        k(    2) = (   0.0000000   0.2476431   0.0000000), wk =   0.2500000
        k(    3) = (   0.0000000  -0.4952862   0.0000000), wk =   0.1250000
        k(    4) = (   0.2500000   0.0000000   0.0000000), wk =   0.2500000
        k(    5) = (   0.2500000   0.2476431   0.0000000), wk =   0.2500000
        k(    6) = (   0.2500000  -0.4952862   0.0000000), wk =   0.2500000
        k(    7) = (  -0.5000000   0.0000000   0.0000000), wk =   0.1250000
        k(    8) = (  -0.5000000   0.2476431   0.0000000), wk =   0.2500000
        k(    9) = (  -0.5000000  -0.4952862   0.0000000), wk =   0.1250000
        k(   10) = (  -0.2500000   0.2476431   0.0000000), wk =   0.2500000

     Largest allocated arrays     est. size (Mb)     dimensions
     Largest temporary arrays     est. size (Mb)     dimensions

     Check: negative/imaginary core charge=   -0.000003    0.000000

     Initial potential from superposition of free atoms
     Check: negative starting charge=   -3.334065

     starting charge  240.99967, renormalised to  245.00000

     negative rho (up, down):  0.339E+01 0.000E+00
     Starting wfc are  181 randomized atomic wfcs

     Self-consistent Calculation

     iteration #  1     ecut=    40.00 Ry     beta=0.70
     Davidson diagonalization with overlap
     ethr =  1.00E-02,  avg # of iterations =  9.2

     negative rho (up, down):  0.292E+01 0.000E+00

     total energy              =   -2128.45542795 Ry
     Harris-Foulkes estimate   =   -2144.38047380 Ry
     estimated scf accuracy    <      19.51954973 Ry

[...]

     End of self-consistent calculation

          k = 0.0000 0.0000 0.0000 ( 31045 PWs)   bands (ev):

   -50.7423 -50.7197 -50.7057 -50.6984 -50.6515 -50.5973 -50.5900 -50.5567
   -50.5498 -50.4568 -50.4348 -50.4130 -50.3821 -50.3795 -50.3635 -50.3368
   -50.3360 -50.3232 -50.2673 -50.2627 -50.2519 -50.2065 -50.1917 -50.0191
   -23.8921 -21.1762 -20.7017 -20.6027 -20.5719 -19.9722 -19.8973 -19.7828
   -19.7805 -19.7131 -19.7034 -19.5828 -19.4306 -19.2745 -19.2004 -19.0818
   -19.0060 -18.1225 -18.0133 -16.7352  -9.7407  -9.6703  -9.3833  -8.8959
    -8.4554  -8.2210  -8.1809  -8.1788  -8.1513  -8.1029  -8.0227  -8.0151
    -7.9971  -7.7681  -7.7380  -7.7117  -7.4912  -7.4447  -7.3403  -7.2998
    -6.9437  -6.7655  -6.6593  -6.5868  -6.5083  -6.4081  -5.8796  -5.8153
    -5.6965  -5.6069  -5.3623  -5.1941  -5.1530  -4.9959  -4.9196  -4.8220
    -4.8020  -4.7293  -4.6954  -4.5406  -4.5054  -4.3776  -4.3218  -4.2343
    -4.1856  -4.0349  -3.9542  -3.8995  -3.7234  -3.5997  -3.5057  -3.4294
    -3.3214  -2.9873  -2.9052  -2.8186  -2.6513  -2.6344  -2.5377  -2.5052
    -2.3897  -2.3373  -2.2321  -2.1069  -2.0782  -1.9468  -1.8204  -1.7721
    -1.7650  -1.6029  -1.3237  -1.3055  -1.0942  -1.0556  -0.9116  -0.8353
    -0.4512  -0.4394  -0.2286  -0.0927   0.0915   0.1080   0.4202   0.6829
     1.2499   1.7588   1.8989   1.9309   2.0283   2.1179   2.5262   2.8519
     3.0099   3.0701   3.4466   3.6552   3.8170   3.8232   3.8374   4.1042
     4.2489   4.3697   4.8478   4.9500   5.4575   5.9686   6.1255   6.5742
     6.7589   6.7768   7.2741   7.3141   7.5868   7.6056   7.6204   7.7366
     7.8203   8.0378   8.0941   8.1210   8.1556   8.1925   8.2645   8.4132
     8.4330   8.4499   8.4796   8.5976   8.6507   8.7336   8.7785   8.8169
     9.0436   9.0469   9.2601   9.2822   9.3092   9.3115   9.3191   9.3570
     9.3785   9.3802   9.4742   9.4893   9.4910   9.5098   9.5579   9.7648
     9.9425  10.0212  10.0687  10.1891  10.2646  10.4205  10.5217  10.5673
    10.6852  10.7212  10.7831  10.8683  11.1226  11.1730  11.2213  11.2841
    11.3324  11.4047  11.4285  11.4604  11.5530  11.5868  11.5982  11.7546
    11.7703  11.8078  11.8156  11.8779  11.9676  12.0249  12.2011  12.2178
    12.2413  12.3277  12.3768  12.4776  12.5367  12.6030  12.6360  12.7169
    12.8192  12.8426  12.8788  12.9025  13.0242  13.1043  13.3242  13.3904
    13.6034  13.6399  13.7557  13.8234  13.8848  13.9806  14.0448  14.1550
    14.2097  14.4009  14.4266  14.4719  14.5782  14.6491  14.8453  14.8874
    14.9397  15.0745  15.3794  15.4449  15.5036  15.5473  15.5728  15.6700
    15.7336  15.7589  15.8302  15.9311  16.0669  16.0995  16.2698  16.2957
    16.4457  16.5123  16.5929  16.7438  16.8950  16.9046  17.0399  17.1096
    17.2437  17.3398  17.3968  17.4159  17.4962  17.5025  17.6091  17.7879
    17.8182  17.8490  17.9322  18.1068  18.1746  18.2399  18.2529  18.3310
    18.4096  18.5096  18.5477  18.6681  18.7208  18.8068  18.9353  18.9550
[...]
     atom   18 type  1   force =    -0.00114583   -0.01996668   -0.00091048
     atom   19 type  1   force =     0.00307776    0.01753237   -0.00084093
     atom   20 type  1   force =    -0.00036406    0.00166802   -0.02024210
     atom   21 type  1   force =    -0.00323318    0.00000483    0.00157827
     atom   22 type  2   force =    -0.00912370    0.00302917    0.00454418
     atom   23 type  2   force =     0.00010501   -0.03674087    0.12102197
     atom   24 type  1   force =     0.00953948    0.00990985   -0.02393718
     atom   25 type  1   force =     0.00937184   -0.01123517   -0.02628627
     atom   26 type  1   force =    -0.00108157   -0.02133757   -0.01781314
     atom   27 type  3   force =     0.00000090   -0.00031920    0.00067584
     atom   28 type  3   force =    -0.00001586    0.00013235    0.00090498
     atom   29 type  3   force =    -0.00006371    0.00026183    0.00042416
     atom   30 type  3   force =    -0.00006018    0.00018124    0.00044933
     atom   31 type  1   force =    -0.00046602    0.09974660    0.00062716
     atom   32 type  1   force =     0.00051918   -0.07362008    0.00065199
     atom   33 type  3   force =    -0.00010621    0.02200657    0.00065844

     Total force =     0.184229     Total SCF correction =     0.002578

     BFGS Geometry Optimization

     number of scf cycles    =   1
     number of bfgs steps    =   0

     energy   new            =   -2139.4383415389 Ry

     new trust radius        =       0.1210219685 bohr
     new conv_thr            =       0.0000010000 Ry

ATOMIC_POSITIONS (crystal)
O0       0.000000000   0.000000000   0.378648032    0   0   1
O0       0.000000000   0.500000000   0.401481940    0   0   1
Ir1      0.250000000   0.500000000   0.452009831    0   0   1
Ir1      0.000000000   0.000000000   0.453579559    0   0   1
O0       0.250000000   0.810000000   0.453150992    0   0   1
O0       0.250000000   0.190000000   0.452793011    0   0   1
O0       0.000000000   0.500000000   0.498206339    0   0   1
O0       0.000000000   0.000000000   0.529383473    0   0   1
Ir1      0.250000000   0.000000000   0.576761964    0   0   1
Ir1      0.000000000   0.500000000   0.572235582    0   0   1
O0       0.250000000   0.690000000   0.576670482    0   0   1
O0       0.250000000   0.310000000   0.576663497    0   0   1
O0       0.000000000   0.000000000   0.621251496    0   0   1
O0       0.500000000   0.000000000   0.378648462    0   0   1
O0       0.500000000   0.500000000   0.401339353    0   0   1
Ir1      0.750000000   0.500000000   0.452009033    0   0   1
Ir1      0.500000000   0.000000000   0.453575626    0   0   1
O0       0.750000000   0.810000000   0.453151764    0   0   1
O0       0.750000000   0.190000000   0.452793157    0   0   1
O0       0.500000000   0.500000000   0.497784571    0   0   1
O0       0.500000000   0.000000000   0.529411611    0   0   1
Ir1      0.750000000   0.000000000   0.576761015    0   0   1
Ir1      0.500000000   0.500000000   0.574493951    0   0   1
O0       0.750000000   0.690000000   0.576670562    0   0   1
O0       0.750000000   0.310000000   0.576663512    0   0   1
O0       0.500000000   0.000000000   0.620883220    0   0   1
H2      -0.000049925   0.636313691   0.383563536
H2       0.499948680   0.636350908   0.383568126
H2       0.143644699   0.033521580   0.367088495
H2       0.643644992   0.033514937   0.367089000
O0       0.499790000   0.508221071   0.646492561    0   1   1
O0       0.500180000   0.312482266   0.674603059    0   1   1
H2       0.499980000   0.366483771   0.710133188    0   1   1

     Check: negative starting charge=   -3.334065
     NEW-OLD atomic charge density approx. for the potential

     Check: negative/imaginary core charge=   -0.000003    0.000000
     Check: negative starting charge=   -3.333665

[...]

     energy   old            =   -2139.4383415389 Ry
     energy   new            =   -2139.4596793026 Ry

     CASE: energy  _new < energy  _old

[...]

     Threshold (ethr) on eigenvalues was too large:
     Diagonalizing with lowered threshold

     Davidson diagonalization with overlap
     ethr =  6.92E-08,  avg # of iterations =  1.0

[...]

     Total force =     0.002742     Total SCF correction =     0.000159

     number of scf cycles    =  26
     number of bfgs steps    =  25

     energy   old            =   -2139.4754076815 Ry
     energy   new            =   -2139.4754255438 Ry

     CASE: energy  _new < energy  _old

     new trust radius        =       0.0053704129 bohr
     new conv_thr            =       0.0000000100 Ry

ATOMIC_POSITIONS (crystal)
O0       0.000000000   0.000000000   0.377806954    0   0   1
O0       0.000000000   0.500000000   0.402066127    0   0   1
Ir1      0.250000000   0.500000000   0.452699957    0   0   1
Ir1      0.000000000   0.000000000   0.452741279    0   0   1
O0       0.250000000   0.810000000   0.452602580    0   0   1
O0       0.250000000   0.190000000   0.452255552    0   0   1
O0       0.000000000   0.500000000   0.498189897    0   0   1
O0       0.000000000   0.000000000   0.528353494    0   0   1
Ir1      0.250000000   0.000000000   0.575347930    0   0   1
Ir1      0.000000000   0.500000000   0.571542204    0   0   1
O0       0.250000000   0.690000000   0.574280485    0   0   1
O0       0.250000000   0.310000000   0.576519327    0   0   1
O0       0.000000000   0.000000000   0.619957152    0   0   1
O0       0.500000000   0.000000000   0.377808768    0   0   1
O0       0.500000000   0.500000000   0.402105663    0   0   1
Ir1      0.750000000   0.500000000   0.452695523    0   0   1
Ir1      0.500000000   0.000000000   0.452686281    0   0   1
O0       0.750000000   0.810000000   0.452593465    0   0   1
O0       0.750000000   0.190000000   0.452275563    0   0   1
O0       0.500000000   0.500000000   0.499728098    0   0   1
O0       0.500000000   0.000000000   0.528273874    0   0   1
Ir1      0.750000000   0.000000000   0.575344205    0   0   1
Ir1      0.500000000   0.500000000   0.577696783    0   0   1
O0       0.750000000   0.690000000   0.574279593    0   0   1
O0       0.750000000   0.310000000   0.576519163    0   0   1
O0       0.500000000   0.000000000   0.619344471    0   0   1
H2       0.000038522   0.635981521   0.384130537
H2       0.499938607   0.636440089   0.384323129
H2       0.143210259   0.035671017   0.366324453
H2       0.643673243   0.033651153   0.366275990
O0       0.499790000   0.538112934   0.649802775    0   1   1
O0       0.500180000   0.344799080   0.679418668    0   1   1
H2       0.499980000   0.407569629   0.713570059    0   1   1

     Check: negative starting charge=   -3.336843
     NEW-OLD atomic charge density approx. for the potential

     Check: negative/imaginary core charge=   -0.000003    0.000000
     Check: negative starting charge=   -3.336866

[...]

     Self-consistent Calculation

[...]

     Threshold (ethr) on eigenvalues was too large:
     Diagonalizing with lowered threshold

     Davidson diagonalization with overlap
     ethr =  1.17E-08,  avg # of iterations =  2.0

[...]

     total energy              =   -2139.47543649 Ry
     Harris-Foulkes estimate   =   -2139.47543649 Ry
     estimated scf accuracy    <       0.00000005 Ry

     iteration # 15     ecut=    40.00 Ry     beta=0.70
     Davidson diagonalization with overlap
     ethr =  1.98E-11,  avg # of iterations =  1.0

     negative rho (up, down):  0.313E+01 0.000E+00

     End of self-consistent calculation

[...]

          k = 0.2500-0.4953 0.0000 ( 31088 PWs)   bands (ev):

[...]

          k =-0.2500 0.2476 0.0000 ( 31099 PWs)   bands (ev):

   -50.8125 -50.8095 -50.7960 -50.6973 -50.6877 -50.6617 -50.6542 -50.6436
   -50.6234 -50.5798 -50.4861 -50.4828 -50.4662 -50.4631 -50.4384 -50.4378
   -50.3960 -50.3385 -50.3233 -50.3106 -50.3100 -50.3035 -50.2999 -50.1479
   -22.9412 -21.0532 -20.6673 -20.5929 -20.5065 -20.2198 -20.0521 -20.0041
   -19.8281 -19.7512 -19.6426 -19.5096 -19.4991 -19.3988 -19.2686 -19.2020
   -19.0930 -18.2587 -18.1280 -17.0693  -9.2446  -9.1306  -9.0821  -8.7428
    -8.4384  -8.3726  -8.3251  -8.2727  -8.1538  -8.1065  -8.0171  -7.9659
    -7.8930  -7.8106  -7.6618  -7.5363  -7.4739  -7.3280  -7.1939  -7.0470
    -6.9316  -6.8211  -6.6671  -6.5652  -6.5266  -6.2524  -5.9874  -5.9068
    -5.7624  -5.7349  -5.6758  -5.6028  -5.5400  -5.4703  -5.4344  -5.4044
    -5.2547  -5.1225  -4.9903  -4.8611  -4.7829  -4.7143  -4.5556  -4.4515
    -4.2631  -4.1881  -4.1331  -3.9807  -3.8785  -3.7778  -3.6638  -3.5777
    -3.4068  -3.2177  -3.1498  -2.8735  -2.8234  -2.6173  -2.4580  -2.3062
    -2.0683  -2.0353  -1.9575  -1.9178  -1.8122  -1.7899  -1.7011  -1.6750
    -1.6333  -1.5664  -1.5137  -1.2913  -1.2064  -1.0224  -0.7855  -0.6604
    -0.5613  -0.5240  -0.3193  -0.1811  -0.0640   0.0440   0.2009   0.4200
     1.3303   1.4057   1.6029   2.0346   2.1101   2.5555   2.6100   2.9104
     3.0272   3.2148   3.2451   3.5155   3.5538   3.7130   3.7943   4.0705
     4.1897   4.4457   4.8580   5.3475   5.3907   5.9104   5.9758   6.0761
     6.3510   6.4851   6.6149   6.7383   6.8276   7.0740   7.2315   7.3174
     7.5343   7.6570   7.7915   7.9023   8.0149   8.1325   8.2578   8.3416
     8.3663   8.5377   8.7023   8.7752   8.8654   9.0079   9.0774   9.1662
     9.1901   9.2462   9.2513   9.2610   9.2749   9.2766   9.3336   9.4260
     9.4299   9.4322   9.5179   9.5618   9.6335   9.7439   9.8181   9.9206
     9.9895  10.1315  10.2029  10.2493  10.3477  10.3996  10.5045  10.5401
    10.6242  10.7100  10.8093  10.8596  10.9573  11.0180  11.1414  11.1843
    11.3173  11.3978  11.4479  11.5920  11.6373  11.7618  11.8022  11.9115
    11.9799  12.0553  12.2020  12.2564  12.3418  12.4419  12.4841  12.5377
    12.5819  12.6966  12.7773  12.8544  12.9305  13.0147  13.0530  13.1194
    13.1953  13.3082  13.3577  13.4297  13.5261  13.6501  13.6698  13.7691
    13.8751  13.9407  14.0260  14.0572  14.0974  14.1631  14.2776  14.3819
    14.4631  14.5059  14.6245  14.6941  14.8325  14.8759  14.9965  15.0650
    15.1235  15.2323  15.3770  15.4434  15.4737  15.6091  15.6603  15.6839
    15.7342  15.7616  15.8642  15.8736  15.9547  16.0074  16.0745  16.0979
    16.2209  16.2523  16.3483  16.3785  16.4589  16.5072  16.5439  16.5778
    16.6933  16.7496  16.7823  16.8186  16.8741  16.9592  17.1478  17.2380
    17.2924  17.3499  17.4073  17.5089  17.5554  17.5870  17.6167  17.6813
    17.7487  17.8225  17.8732  17.9043  17.9214  18.0197  18.0606  18.1429
    18.2435  18.3400  18.3744  18.5109  18.6083  18.7099  18.7368  18.7878
    18.8411  18.8701  18.9992  19.0307  19.0748  19.1630  19.2309  19.3419
    19.3760  19.3965  19.5333  19.6170  19.6744  19.7549  19.7829  19.8392
    19.9100  19.9828  20.1230  20.1313  20.2281  20.3078  20.4459  20.5104
    20.5434  20.6199  20.7127  20.7587  20.7996  20.8514  20.9026  21.0338
    21.0810  21.1412  21.1623  21.2407  21.2692  21.2947  21.3428  21.4119
    21.4968  21.5341  21.6153  21.6715  21.7525  21.7850  21.8424  21.8898
    21.9652  21.9810  22.0576  22.1181  22.1841  22.2637  22.3749

     the Fermi energy is    -0.3777 ev

!    total energy              =   -2139.47543648 Ry
     Harris-Foulkes estimate   =   -2139.47543649 Ry
     estimated scf accuracy    <          8.5E-09 Ry

     The total energy is the sum of the following terms:

     one-electron contribution =  -23085.50464011 Ry
     hartree contribution      =   11591.75771863 Ry
     xc contribution           =    -584.09687645 Ry
     ewald contribution        =    9938.36793430 Ry
     smearing contrib. (-TS)   =       0.00042715 Ry

     convergence has been achieved in  15 iterations

     Forces acting on atoms (Ry/au):

     negative rho (up, down):  0.313E+01 0.000E+00
     atom    1 type  1   force =    -0.00748274   -0.01400523    0.00006343
     atom    2 type  1   force =     0.00017838    0.00683376    0.00061862
     atom    3 type  2   force =     0.03021007    0.00379771   -0.00009822
     atom    4 type  2   force =     0.00906168    0.00786447    0.00020148
     atom    5 type  1   force =    -0.00243923   -0.02098524   -0.00013648
     atom    6 type  1   force =     0.00252591    0.01965327    0.00015325
     atom    7 type  1   force =    -0.00027838   -0.00300621    0.00010815
     atom    8 type  1   force =    -0.00304067    0.00023484    0.00033459
     atom    9 type  2   force =     0.00706776    0.00186939    0.00013091
     atom   10 type  2   force =    -0.00010041   -0.00126527    0.00004331
     atom   11 type  1   force =    -0.00728440    0.01140932   -0.00037828
     atom   12 type  1   force =    -0.00154197   -0.00596288    0.00016634
     atom   13 type  1   force =    -0.00090101   -0.00297055    0.00016118
     atom   14 type  1   force =    -0.00722289   -0.01417982   -0.00032319
     atom   15 type  1   force =     0.00013864    0.00703210    0.00030045
     atom   16 type  2   force =    -0.03029731    0.00367972   -0.00009016
     atom   17 type  2   force =     0.00918892    0.00849327   -0.00009905
     atom   18 type  1   force =    -0.00116224   -0.02136005   -0.00010422
     atom   19 type  1   force =     0.00343621    0.01935189    0.00016073
     atom   20 type  1   force =    -0.00023054   -0.00602452   -0.00097805
     atom   21 type  1   force =    -0.00328631    0.00121619    0.00019341
     atom   22 type  2   force =    -0.00456486    0.00164601    0.00013456
     atom   23 type  2   force =    -0.00015455    0.00218361   -0.00039265
     atom   24 type  1   force =     0.00719815    0.01139102   -0.00038148
     atom   25 type  1   force =     0.00203518   -0.00605611    0.00016222
     atom   26 type  1   force =    -0.00109236   -0.01042328    0.00024571
     atom   27 type  3   force =     0.00000033   -0.00041862    0.00006894
     atom   28 type  3   force =    -0.00000373   -0.00023868    0.00002725
     atom   29 type  3   force =    -0.00006624   -0.00006148   -0.00023720
     atom   30 type  3   force =     0.00010211    0.00006305   -0.00010252
     atom   31 type  1   force =    -0.00014717   -0.00035523    0.00078772
     atom   32 type  1   force =     0.00014762    0.00055254   -0.00001122
     atom   33 type  3   force =     0.00000607    0.00004101   -0.00072953

     Total force =     0.002093     Total SCF correction =     0.000290
     SCF correction compared to forces is large: reduce conv_thr to get better values

     bfgs converged in  27 scf cycles and  26 bfgs steps
     (criteria: energy < 0.10E-03, force < 0.10E-02)

     End of BFGS Geometry Optimization

     Final energy   =   -2139.4754364839 Ry
Begin final coordinates

ATOMIC_POSITIONS (crystal)
O0       0.000000000   0.000000000   0.377806954    0   0   1
O0       0.000000000   0.500000000   0.402066127    0   0   1
Ir1      0.250000000   0.500000000   0.452699957    0   0   1
Ir1      0.000000000   0.000000000   0.452741279    0   0   1
O0       0.250000000   0.810000000   0.452602580    0   0   1
O0       0.250000000   0.190000000   0.452255552    0   0   1
O0       0.000000000   0.500000000   0.498189897    0   0   1
O0       0.000000000   0.000000000   0.528353494    0   0   1
Ir1      0.250000000   0.000000000   0.575347930    0   0   1
Ir1      0.000000000   0.500000000   0.571542204    0   0   1
O0       0.250000000   0.690000000   0.574280485    0   0   1
O0       0.250000000   0.310000000   0.576519327    0   0   1
O0       0.000000000   0.000000000   0.619957152    0   0   1
O0       0.500000000   0.000000000   0.377808768    0   0   1
O0       0.500000000   0.500000000   0.402105663    0   0   1
Ir1      0.750000000   0.500000000   0.452695523    0   0   1
Ir1      0.500000000   0.000000000   0.452686281    0   0   1
O0       0.750000000   0.810000000   0.452593465    0   0   1
O0       0.750000000   0.190000000   0.452275563    0   0   1
O0       0.500000000   0.500000000   0.499728098    0   0   1
O0       0.500000000   0.000000000   0.528273874    0   0   1
Ir1      0.750000000   0.000000000   0.575344205    0   0   1
Ir1      0.500000000   0.500000000   0.577696783    0   0   1
O0       0.750000000   0.690000000   0.574279593    0   0   1
O0       0.750000000   0.310000000   0.576519163    0   0   1
O0       0.500000000   0.000000000   0.619344471    0   0   1
H2       0.000038522   0.635981521   0.384130537
H2       0.499938607   0.636440089   0.384323129
H2       0.143210259   0.035671017   0.366324453
H2       0.643673243   0.033651153   0.366275990
O0       0.499790000   0.538112934   0.649802775    0   1   1
O0       0.500180000   0.344799080   0.679418668    0   1   1
H2       0.499980000   0.407569629   0.713570059    0   1   1
End final coordinates

     General routines

     Parallel routines

   This run was terminated on:   6:29:45  11May2014

   JOB DONE.