     Program PWSCF v.5.0.2 (svn rev. 9656) starts on 24Jan2014 at 14:21:30

     Current dimensions of program PWSCF are:
     Max number of different atomic species (ntypx) = 10
     Max number of k-points (npk) =  40000
     Max angular momentum in pseudopotentials (lmaxx) =  3
     Reading input from SnO2-v-1.05.in

     Subspace diagonalization in iterative solution of the eigenvalue problem:
     a serial algorithm will be used

     bravais-lattice index     =            0
     lattice parameter (alat)  =       9.4074  a.u.
     unit-cell volume          =     536.5260 (a.u.)^3
     number of atoms/cell      =            6
     number of atomic types    =            2
     number of electrons       =        52.00
     number of Kohn-Sham states=           75
     kinetic-energy cutoff     =      40.0000  Ry
     charge density cutoff     =     500.0000  Ry
     convergence threshold     =      1.0E-06
     mixing beta               =       0.3000
     number of iterations used =            8  plain     mixing
     Exchange-correlation      = SLA  PW   PBE  PBE ( 1 4 3 4 0)
     EXX-fraction              =        0.00
     nstep                     =           50

     celldm(1)=   9.407374  celldm(2)=   0.000000  celldm(3)=   0.000000
     celldm(4)=   0.000000  celldm(5)=   0.000000  celldm(6)=   0.000000

     crystal axes: (cart. coord. in units of alat)
               a(1) = (   1.000000   0.000000   0.000000 )
               a(2) = (   0.000000   1.000000   0.000000 )
               a(3) = (   0.000000   0.000000   0.644444 )

     reciprocal axes: (cart. coord. in units 2 pi/alat)
               b(1) = (  1.000000  0.000000  0.000000 )
               b(2) = (  0.000000  1.000000  0.000000 )
               b(3) = (  0.000000  0.000000  1.551724 )

     PseudoPot. # 1 for Sn read from file:
     /home/camp/zhonxu/pseudo/sn_pbe_v1.uspp.F.UPF
     MD5 check sum: 4cf58ce39ec5d5d420df3dd08604eb00
     Pseudo is Ultrasoft + core correction, Zval = 14.0
     Generated by new atomic code, or converted to UPF format
     Using radial grid of  891 points,  6 beta functions with:
                l(1) =   0
                l(2) =   0
                l(3) =   1
                l(4) =   1
                l(5) =   2
                l(6) =   2
     Q(r) pseudized with  6 coefficients,  rinner =    1.200   1.200   1.200
                                                       1.200   1.200

     PseudoPot. # 2 for O  read from file:
     /home/camp/zhonxu/pseudo/o_pbe_v1.01.uspp.F.UPF
     MD5 check sum: 2bcb18d16ea4b960afae9ec6d52f22d2
     Pseudo is Ultrasoft + core correction, Zval =  6.0
     Generated by new atomic code, or converted to UPF format
     Using radial grid of  737 points,  5 beta functions with:
                l(1) =   0
                l(2) =   0
                l(3) =   1
                l(4) =   1
                l(5) =   2
     Q(r) pseudized with  8 coefficients,  rinner =    0.900   0.900   0.900
                                                       0.900   0.900

     atomic species   valence    mass     pseudopotential
        Sn0           14.00   118.71000     Sn( 1.00)
        O1             6.00    15.99940     O ( 1.00)

     Starting magnetic structure
     atomic species   magnetization
        Sn0          0.000
        O1           0.000

      8 Sym. Ops., with inversion, found
          (note:  8 additional sym.ops. were found but ignored
           their fractional translations are incommensurate with FFT grid)

   Cartesian axes

     site n.     atom                  positions (alat units)
         1           Sn0 tau(   1) = (   0.0000000   0.0000000   0.0000000  )
         2           Sn0 tau(   2) = (   0.5000000   0.5000000   0.3222222  )
         3           O1  tau(   3) = (   0.3050000   0.3050000   0.0000000  )
         4           O1  tau(   4) = (  -0.3050000  -0.3050000   0.0000000  )
         5           O1  tau(   5) = (   0.8050000   0.1950000   0.3222222  )
         6           O1  tau(   6) = (   0.1950000   0.8050000   0.3222222  )

     number of k points=    54  Methfessel-Paxton smearing, width (Ry)=  0.0100
                       cart. coord. in units 2pi/alat
        k(    1) = (   0.0000000   0.0000000   0.0000000), wk =   0.0080000
        k(    2) = (   0.0000000   0.0000000   0.3103448), wk =   0.0160000
        k(    3) = (   0.0000000   0.0000000   0.6206897), wk =   0.0160000
        k(    4) = (   0.0000000   0.2000000   0.0000000), wk =   0.0320000
        k(    5) = (   0.0000000   0.2000000   0.3103448), wk =   0.0640000
        k(    6) = (   0.0000000   0.2000000   0.6206897), wk =   0.0640000
        k(    7) = (   0.0000000   0.4000000   0.0000000), wk =   0.0320000
        k(    8) = (   0.0000000   0.4000000   0.3103448), wk =   0.0640000
        k(    9) = (   0.0000000   0.4000000   0.6206897), wk =   0.0640000
        k(   10) = (   0.2000000   0.2000000   0.0000000), wk =   0.0160000
        k(   11) = (   0.2000000   0.2000000   0.3103448), wk =   0.0320000
        k(   12) = (   0.2000000   0.2000000   0.6206897), wk =   0.0320000
        k(   13) = (   0.2000000   0.4000000   0.0000000), wk =   0.0320000
        k(   14) = (   0.2000000   0.4000000   0.3103448), wk =   0.0640000
        k(   15) = (   0.2000000   0.4000000   0.6206897), wk =   0.0640000
        k(   16) = (   0.4000000   0.4000000   0.0000000), wk =   0.0160000
        k(   17) = (   0.4000000   0.4000000   0.3103448), wk =   0.0320000
        k(   18) = (   0.4000000   0.4000000   0.6206897), wk =   0.0320000
        k(   19) = (  -0.2000000   0.2000000   0.0000000), wk =   0.0160000
        k(   20) = (  -0.2000000   0.2000000  -0.3103448), wk =   0.0320000
        k(   21) = (  -0.2000000   0.2000000  -0.6206897), wk =   0.0320000
        k(   22) = (  -0.2000000   0.4000000   0.0000000), wk =   0.0320000
        k(   23) = (  -0.2000000   0.4000000  -0.3103448), wk =   0.0640000
        k(   24) = (  -0.2000000   0.4000000  -0.6206897), wk =   0.0640000
        k(   25) = (  -0.4000000   0.4000000   0.0000000), wk =   0.0160000
        k(   26) = (  -0.4000000   0.4000000  -0.3103448), wk =   0.0320000
        k(   27) = (  -0.4000000   0.4000000  -0.6206897), wk =   0.0320000
        k(   28) = (   0.0000000   0.0000000   0.0000000), wk =   0.0080000
        k(   29) = (   0.0000000   0.0000000   0.3103448), wk =   0.0160000
        k(   30) = (   0.0000000   0.0000000   0.6206897), wk =   0.0160000
        k(   31) = (   0.0000000   0.2000000   0.0000000), wk =   0.0320000
        k(   32) = (   0.0000000   0.2000000   0.3103448), wk =   0.0640000
        k(   33) = (   0.0000000   0.2000000   0.6206897), wk =   0.0640000
        k(   34) = (   0.0000000   0.4000000   0.0000000), wk =   0.0320000
        k(   35) = (   0.0000000   0.4000000   0.3103448), wk =   0.0640000
        k(   36) = (   0.0000000   0.4000000   0.6206897), wk =   0.0640000
        k(   37) = (   0.2000000   0.2000000   0.0000000), wk =   0.0160000
        k(   38) = (   0.2000000   0.2000000   0.3103448), wk =   0.0320000
        k(   39) = (   0.2000000   0.2000000   0.6206897), wk =   0.0320000
        k(   40) = (   0.2000000   0.4000000   0.0000000), wk =   0.0320000
        k(   41) = (   0.2000000   0.4000000   0.3103448), wk =   0.0640000
        k(   42) = (   0.2000000   0.4000000   0.6206897), wk =   0.0640000
        k(   43) = (   0.4000000   0.4000000   0.0000000), wk =   0.0160000
        k(   44) = (   0.4000000   0.4000000   0.3103448), wk =   0.0320000
        k(   45) = (   0.4000000   0.4000000   0.6206897), wk =   0.0320000
        k(   46) = (  -0.2000000   0.2000000   0.0000000), wk =   0.0160000
        k(   47) = (  -0.2000000   0.2000000  -0.3103448), wk =   0.0320000
        k(   48) = (  -0.2000000   0.2000000  -0.6206897), wk =   0.0320000
        k(   49) = (  -0.2000000   0.4000000   0.0000000), wk =   0.0320000
        k(   50) = (  -0.2000000   0.4000000  -0.3103448), wk =   0.0640000
        k(   51) = (  -0.2000000   0.4000000  -0.6206897), wk =   0.0640000
        k(   52) = (  -0.4000000   0.4000000   0.0000000), wk =   0.0160000
        k(   53) = (  -0.4000000   0.4000000  -0.3103448), wk =   0.0320000
        k(   54) = (  -0.4000000   0.4000000  -0.6206897), wk =   0.0320000

     Largest allocated arrays     est. size (Mb)     dimensions
     Largest temporary arrays     est. size (Mb)     dimensions

     Check: negative/imaginary core charge=   -0.000005    0.000000

     Initial potential from superposition of free atoms

     starting charge   49.99990, renormalised to   52.00000
     Starting wfc are   34 randomized atomic wfcs

     Self-consistent Calculation

     iteration #  1     ecut=    40.00 Ry     beta=0.30
     Davidson diagonalization with overlap
     ethr =  1.00E-02,  avg # of iterations =  5.1

     total energy              =    -455.37558004 Ry
     Harris-Foulkes estimate   =    -456.15772076 Ry
     estimated scf accuracy    <       1.68974657 Ry

     total magnetization       =     0.00 Bohr mag/cell
     absolute magnetization    =     0.00 Bohr mag/cell

[...]

     End of self-consistent calculation

 ------ SPIN UP ------------

          k = 0.0000 0.0000 0.0000 (  2297 PWs)   bands (ev):

   -12.9915 -12.4840 -12.2853 -12.2430 -12.2429 -12.1778 -12.1772 -12.1256
   -12.1068 -12.1068 -10.3555  -8.8150  -8.8149  -7.5473   0.1072   4.1473
     4.1474   4.6615   5.2993   5.8985   6.2226   6.8593   6.8594   7.3081
     7.3081   8.0411   8.3124  13.6078  14.0716  14.0716  17.9059  18.1040
    18.7998  18.7998  19.7693  19.9717  21.9362  25.1401  25.9669  26.0170
    26.9925  26.9925  27.1820  27.1820  27.7925  27.7925  28.1744  28.1761
    28.6806  29.4516  29.6437  30.6490  32.3949  32.3949  34.2142  34.2143
    34.3508  35.5484  36.4653  36.6849  36.6849  38.2574  38.4740  38.6322
    39.5383  39.9737  39.9737  40.1905  40.1905  40.7550  42.4456  42.5104
    43.5270  43.5270  44.3270

[...]

          k =-0.2000 0.2000 0.0000 (  2293 PWs)   bands (ev):

[...]

 ------ SPIN DOWN ----------

[...]

     the Fermi energy is     8.1663 ev

!    total energy              =    -455.50431563 Ry
     Harris-Foulkes estimate   =    -455.50429899 Ry
     estimated scf accuracy    <       0.00000019 Ry

     The total energy is the sum of the following terms:

     one-electron contribution =    -147.56562783 Ry
     hartree contribution      =     112.04320551 Ry
     xc contribution           =    -124.30136085 Ry
     ewald contribution        =    -295.68055503 Ry
     smearing contrib. (-TS)   =       0.00002257 Ry

[...]

     convergence has been achieved in   7 iterations

     Forces acting on atoms (Ry/au):

     atom    1 type  1   force =     0.00000000    0.00000000    0.00000000
     atom    2 type  1   force =     0.00000000    0.00000000    0.00000000
     atom    3 type  2   force =     0.00923476    0.00923476   -0.00000000
     atom    4 type  2   force =    -0.00923476   -0.00923476   -0.00000000
     atom    5 type  2   force =     0.00923441   -0.00923441    0.00000000
     atom    6 type  2   force =    -0.00923441    0.00923441    0.00000000

[...]
     by performing a new scf iteration without any "electronic" history

[...]

     starting charge   49.99990, renormalised to   52.00000
     Starting wfc are   34 randomized atomic wfcs
     NEW-OLD atomic charge density approx. for the potential
     NEW k-points:
        k(    1) = (   0.0000000   0.0000000   0.0000000), wk =   0.0080000
        k(    2) = (   0.0000000   0.0000000   0.3048275), wk =   0.0160000
        k(    3) = (   0.0000000   0.0000000   0.6096550), wk =   0.0160000
        k(    4) = (  -0.0000003   0.2018019   0.0000000), wk =   0.0320000
        k(    5) = (  -0.0000003   0.2018019   0.3048275), wk =   0.0640000
        k(    6) = (  -0.0000003   0.2018019   0.6096550), wk =   0.0640000
        k(    7) = (  -0.0000006   0.4036037   0.0000000), wk =   0.0320000
        k(    8) = (  -0.0000006   0.4036037   0.3048275), wk =   0.0640000
        k(    9) = (  -0.0000006   0.4036037   0.6096550), wk =   0.0640000
        k(   10) = (   0.2018016   0.2018016   0.0000000), wk =   0.0160000
        k(   11) = (   0.2018016   0.2018016   0.3048275), wk =   0.0320000
        k(   12) = (   0.2018016   0.2018016   0.6096550), wk =   0.0320000
        k(   13) = (   0.2018013   0.4036035   0.0000000), wk =   0.0320000
        k(   14) = (   0.2018013   0.4036035   0.3048275), wk =   0.0640000
        k(   15) = (   0.2018013   0.4036035   0.6096550), wk =   0.0640000
        k(   16) = (   0.4036032   0.4036032   0.0000000), wk =   0.0160000
        k(   17) = (   0.4036032   0.4036032   0.3048275), wk =   0.0320000
        k(   18) = (   0.4036032   0.4036032   0.6096550), wk =   0.0320000
        k(   19) = (  -0.2018022   0.2018022   0.0000000), wk =   0.0160000
        k(   20) = (  -0.2018022   0.2018022  -0.3048275), wk =   0.0320000
        k(   21) = (  -0.2018022   0.2018022  -0.6096550), wk =   0.0320000
        k(   22) = (  -0.2018025   0.4036040   0.0000000), wk =   0.0320000
        k(   23) = (  -0.2018025   0.4036040  -0.3048275), wk =   0.0640000
        k(   24) = (  -0.2018025   0.4036040  -0.6096550), wk =   0.0640000
        k(   25) = (  -0.4036043   0.4036043   0.0000000), wk =   0.0160000
        k(   26) = (  -0.4036043   0.4036043  -0.3048275), wk =   0.0320000
        k(   27) = (  -0.4036043   0.4036043  -0.6096550), wk =   0.0320000
        k(   28) = (   0.0000000   0.0000000   0.0000000), wk =   0.0080000
        k(   29) = (   0.0000000   0.0000000   0.3048275), wk =   0.0160000
        k(   30) = (   0.0000000   0.0000000   0.6096550), wk =   0.0160000
        k(   31) = (  -0.0000003   0.2018019   0.0000000), wk =   0.0320000
        k(   32) = (  -0.0000003   0.2018019   0.3048275), wk =   0.0640000
        k(   33) = (  -0.0000003   0.2018019   0.6096550), wk =   0.0640000
        k(   34) = (  -0.0000006   0.4036037   0.0000000), wk =   0.0320000
        k(   35) = (  -0.0000006   0.4036037   0.3048275), wk =   0.0640000
        k(   36) = (  -0.0000006   0.4036037   0.6096550), wk =   0.0640000
        k(   37) = (   0.2018016   0.2018016   0.0000000), wk =   0.0160000
        k(   38) = (   0.2018016   0.2018016   0.3048275), wk =   0.0320000
        k(   39) = (   0.2018016   0.2018016   0.6096550), wk =   0.0320000
        k(   40) = (   0.2018013   0.4036035   0.0000000), wk =   0.0320000
        k(   41) = (   0.2018013   0.4036035   0.3048275), wk =   0.0640000
        k(   42) = (   0.2018013   0.4036035   0.6096550), wk =   0.0640000
        k(   43) = (   0.4036032   0.4036032   0.0000000), wk =   0.0160000
        k(   44) = (   0.4036032   0.4036032   0.3048275), wk =   0.0320000
        k(   45) = (   0.4036032   0.4036032   0.6096550), wk =   0.0320000
        k(   46) = (  -0.2018022   0.2018022   0.0000000), wk =   0.0160000
        k(   47) = (  -0.2018022   0.2018022  -0.3048275), wk =   0.0320000
        k(   48) = (  -0.2018022   0.2018022  -0.6096550), wk =   0.0320000
        k(   49) = (  -0.2018025   0.4036040   0.0000000), wk =   0.0320000
        k(   50) = (  -0.2018025   0.4036040  -0.3048275), wk =   0.0640000
        k(   51) = (  -0.2018025   0.4036040  -0.6096550), wk =   0.0640000
        k(   52) = (  -0.4036043   0.4036043   0.0000000), wk =   0.0160000
        k(   53) = (  -0.4036043   0.4036043  -0.3048275), wk =   0.0320000
        k(   54) = (  -0.4036043   0.4036043  -0.6096550), wk =   0.0320000

[...]

     Volume is kept fixed: isostatic pressure set to zero

     bfgs converged in   6 scf cycles and   5 bfgs steps
     (criteria: energy < 0.10E-03, force < 0.10E-02, cell < 0.50E+00)

     End of BFGS Geometry Optimization

     Final enthalpy =    -455.5069482902 Ry
Begin final coordinates
     new unit-cell volume =    536.52600 a.u.^3 (    79.50495 Ang^3 )

CELL_PARAMETERS (alat=  9.40737444)
   0.991071087   0.000001425   0.000000000
   0.000001425   0.991071087   0.000000000
   0.000000000   0.000000000   0.656108813

ATOMIC_POSITIONS (crystal)
Sn0      0.000000000   0.000000000   0.000000000    0   0   0
Sn0      0.500000000   0.500000000   0.500000000    0   0   0
O1       0.307908254   0.307908254   0.000000000    1   1   0
O1      -0.307908254  -0.307908254   0.000000000    1   1   0
O1       0.807908216   0.192091784   0.500000000    1   1   0
O1       0.192091784   0.807908216   0.500000000    1   1   0
End final coordinates

     A final scf calculation at the relaxed structure.
     The G-vectors are recalculated for the final unit cell
     Results may differ from those at the preceding step.

     bravais-lattice index     =            0
     lattice parameter (alat)  =       9.4074  a.u.
     unit-cell volume          =     536.5260 (a.u.)^3
     number of atoms/cell      =            6
     number of atomic types    =            2
     number of electrons       =        52.00
     number of Kohn-Sham states=           75
     kinetic-energy cutoff     =      40.0000  Ry
     charge density cutoff     =     500.0000  Ry
     convergence threshold     =      1.0E-08
     mixing beta               =       0.3000
     number of iterations used =            8  plain     mixing
     Exchange-correlation      = SLA  PW   PBE  PBE ( 1 4 3 4 0)
     EXX-fraction              =        0.00

     celldm(1)=   9.407374  celldm(2)=   0.000000  celldm(3)=   0.000000
     celldm(4)=   0.000000  celldm(5)=   0.000000  celldm(6)=   0.000000

     crystal axes: (cart. coord. in units of alat)
               a(1) = (   0.991071   0.000001   0.000000 )
               a(2) = (   0.000001   0.991071   0.000000 )
               a(3) = (   0.000000   0.000000   0.656109 )

     reciprocal axes: (cart. coord. in units 2 pi/alat)
               b(1) = (  1.009009 -0.000001  0.000000 )
               b(2) = ( -0.000001  1.009009  0.000000 )
               b(3) = (  0.000000  0.000000  1.524137 )

     PseudoPot. # 1 for Sn read from file:
     /home/camp/zhonxu/pseudo/sn_pbe_v1.uspp.F.UPF
     MD5 check sum: 4cf58ce39ec5d5d420df3dd08604eb00
     Pseudo is Ultrasoft + core correction, Zval = 14.0
     Generated by new atomic code, or converted to UPF format
     Using radial grid of  891 points,  6 beta functions with:
                l(1) =   0
                l(2) =   0
                l(3) =   1
                l(4) =   1
                l(5) =   2
                l(6) =   2
     Q(r) pseudized with  6 coefficients,  rinner =    1.200   1.200   1.200
                                                       1.200   1.200

     PseudoPot. # 2 for O  read from file:
     /home/camp/zhonxu/pseudo/o_pbe_v1.01.uspp.F.UPF
     MD5 check sum: 2bcb18d16ea4b960afae9ec6d52f22d2
     Pseudo is Ultrasoft + core correction, Zval =  6.0
     Generated by new atomic code, or converted to UPF format
     Using radial grid of  737 points,  5 beta functions with:
                l(1) =   0
                l(2) =   0
                l(3) =   1
                l(4) =   1
                l(5) =   2
     Q(r) pseudized with  8 coefficients,  rinner =    0.900   0.900   0.900
                                                       0.900   0.900

     atomic species   valence    mass     pseudopotential
        Sn0           14.00   118.71000     Sn( 1.00)
        O1             6.00    15.99940     O ( 1.00)

     Starting magnetic structure
     atomic species   magnetization
        Sn0          0.000
        O1           0.000

      8 Sym. Ops., with inversion, found
          (note:  8 additional sym.ops. were found but ignored
           their fractional translations are incommensurate with FFT grid)

   Cartesian axes

     site n.     atom                  positions (alat units)
         1           Sn0 tau(   1) = (   0.0000000   0.0000000   0.0000000  )
         2           Sn0 tau(   2) = (   0.4955363   0.4955363   0.3280544  )
         3           O1  tau(   3) = (   0.3051594   0.3051594   0.0000000  )
         4           O1  tau(   4) = (  -0.3051594  -0.3051594   0.0000000  )
         5           O1  tau(   5) = (   0.8006947   0.1903778   0.3280544  )
         6           O1  tau(   6) = (   0.1903778   0.8006947   0.3280544  )

     number of k points=    54  Methfessel-Paxton smearing, width (Ry)=  0.0100
                       cart. coord. in units 2pi/alat
        k(    1) = (   0.0000000   0.0000000   0.0000000), wk =   0.0080000
        k(    2) = (   0.0000000   0.0000000   0.3048275), wk =   0.0160000
        k(    3) = (   0.0000000   0.0000000   0.6096550), wk =   0.0160000
        k(    4) = (  -0.0000003   0.2018019   0.0000000), wk =   0.0320000
        k(    5) = (  -0.0000003   0.2018019   0.3048275), wk =   0.0640000
        k(    6) = (  -0.0000003   0.2018019   0.6096550), wk =   0.0640000
        k(    7) = (  -0.0000006   0.4036037   0.0000000), wk =   0.0320000
        k(    8) = (  -0.0000006   0.4036037   0.3048275), wk =   0.0640000
        k(    9) = (  -0.0000006   0.4036037   0.6096550), wk =   0.0640000
        k(   10) = (   0.2018016   0.2018016   0.0000000), wk =   0.0160000
        k(   11) = (   0.2018016   0.2018016   0.3048275), wk =   0.0320000
        k(   12) = (   0.2018016   0.2018016   0.6096550), wk =   0.0320000
        k(   13) = (   0.2018013   0.4036035   0.0000000), wk =   0.0320000
        k(   14) = (   0.2018013   0.4036035   0.3048275), wk =   0.0640000
        k(   15) = (   0.2018013   0.4036035   0.6096550), wk =   0.0640000
        k(   16) = (   0.4036032   0.4036032   0.0000000), wk =   0.0160000
        k(   17) = (   0.4036032   0.4036032   0.3048275), wk =   0.0320000
        k(   18) = (   0.4036032   0.4036032   0.6096550), wk =   0.0320000
        k(   19) = (  -0.2018022   0.2018022   0.0000000), wk =   0.0160000
        k(   20) = (  -0.2018022   0.2018022  -0.3048275), wk =   0.0320000
        k(   21) = (  -0.2018022   0.2018022  -0.6096550), wk =   0.0320000
        k(   22) = (  -0.2018025   0.4036040   0.0000000), wk =   0.0320000
        k(   23) = (  -0.2018025   0.4036040  -0.3048275), wk =   0.0640000
        k(   24) = (  -0.2018025   0.4036040  -0.6096550), wk =   0.0640000
        k(   25) = (  -0.4036043   0.4036043   0.0000000), wk =   0.0160000
        k(   26) = (  -0.4036043   0.4036043  -0.3048275), wk =   0.0320000
        k(   27) = (  -0.4036043   0.4036043  -0.6096550), wk =   0.0320000
        k(   28) = (   0.0000000   0.0000000   0.0000000), wk =   0.0080000
        k(   29) = (   0.0000000   0.0000000   0.3048275), wk =   0.0160000
        k(   30) = (   0.0000000   0.0000000   0.6096550), wk =   0.0160000
        k(   31) = (  -0.0000003   0.2018019   0.0000000), wk =   0.0320000
        k(   32) = (  -0.0000003   0.2018019   0.3048275), wk =   0.0640000
        k(   33) = (  -0.0000003   0.2018019   0.6096550), wk =   0.0640000
        k(   34) = (  -0.0000006   0.4036037   0.0000000), wk =   0.0320000
        k(   35) = (  -0.0000006   0.4036037   0.3048275), wk =   0.0640000
        k(   36) = (  -0.0000006   0.4036037   0.6096550), wk =   0.0640000
        k(   37) = (   0.2018016   0.2018016   0.0000000), wk =   0.0160000
        k(   38) = (   0.2018016   0.2018016   0.3048275), wk =   0.0320000
        k(   39) = (   0.2018016   0.2018016   0.6096550), wk =   0.0320000
        k(   40) = (   0.2018013   0.4036035   0.0000000), wk =   0.0320000
        k(   41) = (   0.2018013   0.4036035   0.3048275), wk =   0.0640000
        k(   42) = (   0.2018013   0.4036035   0.6096550), wk =   0.0640000
        k(   43) = (   0.4036032   0.4036032   0.0000000), wk =   0.0160000
        k(   44) = (   0.4036032   0.4036032   0.3048275), wk =   0.0320000
        k(   45) = (   0.4036032   0.4036032   0.6096550), wk =   0.0320000
        k(   46) = (  -0.2018022   0.2018022   0.0000000), wk =   0.0160000
        k(   47) = (  -0.2018022   0.2018022  -0.3048275), wk =   0.0320000
        k(   48) = (  -0.2018022   0.2018022  -0.6096550), wk =   0.0320000
        k(   49) = (  -0.2018025   0.4036040   0.0000000), wk =   0.0320000
        k(   50) = (  -0.2018025   0.4036040  -0.3048275), wk =   0.0640000
        k(   51) = (  -0.2018025   0.4036040  -0.6096550), wk =   0.0640000
        k(   52) = (  -0.4036043   0.4036043   0.0000000), wk =   0.0160000
        k(   53) = (  -0.4036043   0.4036043  -0.3048275), wk =   0.0320000
        k(   54) = (  -0.4036043   0.4036043  -0.6096550), wk =   0.0320000

     Largest allocated arrays     est. size (Mb)     dimensions
     Largest temporary arrays     est. size (Mb)     dimensions

     Check: negative/imaginary core charge=   -0.000005    0.000000

     Initial potential from superposition of free atoms

     starting charge   49.99990, renormalised to   52.00000
     Starting wfc are   34 randomized atomic wfcs

     Self-consistent Calculation

[...]

     total energy              =    -455.50694446 Ry
     Harris-Foulkes estimate   =    -455.50694030 Ry
     estimated scf accuracy    <       0.00000006 Ry

[...]

     iteration #  9     ecut=    40.00 Ry     beta=0.30
     Davidson diagonalization with overlap
     ethr =  1.09E-10,  avg # of iterations =  1.0

     End of self-consistent calculation

 ------ SPIN UP ------------

[...]

 ------ SPIN DOWN ----------

[...]

          k = 0.4036 0.4036 0.6097 (  2297 PWs)   bands (ev):

[...]

          k =-0.4036 0.4036-0.6097 (  2297 PWs)   bands (ev):

   -12.8106 -12.7621 -12.4326 -12.3630 -12.1468 -12.1465 -12.1216 -12.1197
   -12.0861 -12.0846  -8.9588  -8.8229  -7.7525  -7.6676   0.7340   0.8627
     3.7231   3.7341   4.4111   5.4589   5.4683   6.4385   7.0873   7.1119
     7.2712   7.3263  12.1556  12.2755  16.0815  16.5249  17.8114  18.1355
    18.2098  18.6133  20.3209  20.5704  21.8543  22.1258  22.4313  24.1056
    24.9110  25.0797  26.1388  27.1333  28.1953  28.1957  29.5722  30.0733
    31.2151  31.3964  32.1807  32.7509  33.4417  33.8587  34.2293  34.8545
    35.1191  36.5130  37.0095  37.4015  38.5416  38.8416  39.6829  40.1196
    40.2655  40.4919  40.9007  41.4800  41.6556  42.7052  42.7385  43.5882
    44.0533  44.2862  45.0906

     the Fermi energy is     8.1525 ev

!    total energy              =    -455.50694845 Ry
     Harris-Foulkes estimate   =    -455.50694447 Ry
     estimated scf accuracy    <          5.4E-09 Ry

     The total energy is the sum of the following terms:

     one-electron contribution =    -146.67354934 Ry
     hartree contribution      =     111.64404409 Ry
     xc contribution           =    -124.29379136 Ry
     ewald contribution        =    -296.18367302 Ry
     smearing contrib. (-TS)   =       0.00002118 Ry

     total magnetization       =     0.00 Bohr mag/cell
     absolute magnetization    =     0.00 Bohr mag/cell

     convergence has been achieved in   9 iterations

     Forces acting on atoms (Ry/au):

     atom    1 type  1   force =     0.00000000    0.00000000    0.00000000
     atom    2 type  1   force =     0.00000000    0.00000000    0.00000000
     atom    3 type  2   force =    -0.00001898   -0.00001898    0.00000000
     atom    4 type  2   force =     0.00001898    0.00001898    0.00000000
     atom    5 type  2   force =    -0.00001867    0.00001867    0.00000000
     atom    6 type  2   force =     0.00001867   -0.00001867    0.00000000

     Total force =     0.000053     Total SCF correction =     0.000107
     SCF correction compared to forces is large: reduce conv_thr to get better values

     entering subroutine stress ...

          total   stress  (Ry/bohr**3)                   (kbar)     P=  -78.33
  -0.00053227  -0.00000004   0.00000000        -78.30     -0.01      0.00
  -0.00000004  -0.00053227   0.00000000         -0.01    -78.30      0.00
   0.00000000   0.00000000  -0.00053281          0.00      0.00    -78.38

     General routines

     Parallel routines

   This run was terminated on:  15:10:31  24Jan2014

   JOB DONE.