     Program PWSCF v.5.0.2 (svn rev. 9656) starts on 24Jan2014 at 14:45:45

     Current dimensions of program PWSCF are:
     Max number of different atomic species (ntypx) = 10
     Max number of k-points (npk) =  40000
     Max angular momentum in pseudopotentials (lmaxx) =  3
     Reading input from MnO2-v-1.00.in

     Subspace diagonalization in iterative solution of the eigenvalue problem:
     a serial algorithm will be used

     bravais-lattice index     =            0
     lattice parameter (alat)  =       8.4195  a.u.
     unit-cell volume          =     384.6281 (a.u.)^3
     number of atoms/cell      =            6
     number of atomic types    =            2
     number of electrons       =        54.00
     number of Kohn-Sham states=           78
     kinetic-energy cutoff     =      40.0000  Ry
     charge density cutoff     =     500.0000  Ry
     convergence threshold     =      1.0E-06
     mixing beta               =       0.3000
     number of iterations used =            8  plain     mixing
     Exchange-correlation      = SLA  PW   PBE  PBE ( 1 4 3 4 0)
     EXX-fraction              =        0.00
     nstep                     =           50

     celldm(1)=   8.419478  celldm(2)=   0.000000  celldm(3)=   0.000000
     celldm(4)=   0.000000  celldm(5)=   0.000000  celldm(6)=   0.000000

     crystal axes: (cart. coord. in units of alat)
               a(1) = (   1.000000   0.000000   0.000000 )
               a(2) = (   0.000000   1.000000   0.000000 )
               a(3) = (   0.000000   0.000000   0.644444 )

     reciprocal axes: (cart. coord. in units 2 pi/alat)
               b(1) = (  1.000000  0.000000  0.000000 )
               b(2) = (  0.000000  1.000000  0.000000 )
               b(3) = (  0.000000  0.000000  1.551724 )

     PseudoPot. # 1 for Mn read from file:
     /home/camp/zhonxu/pseudo/mn_pbe_v1.uspp.F.UPF
     MD5 check sum: 5fd7c7b5c956fd19902447332617373a
     Pseudo is Ultrasoft + core correction, Zval = 15.0
     Generated by new atomic code, or converted to UPF format
     Using radial grid of  859 points,  6 beta functions with:
                l(1) =   0
                l(2) =   0
                l(3) =   1
                l(4) =   1
                l(5) =   2
                l(6) =   2
     Q(r) pseudized with  6 coefficients,  rinner =    1.150   1.150   1.150
                                                       1.150   1.150

     PseudoPot. # 2 for O  read from file:
     /home/camp/zhonxu/pseudo/o_pbe_v1.01.uspp.F.UPF
     MD5 check sum: 2bcb18d16ea4b960afae9ec6d52f22d2
     Pseudo is Ultrasoft + core correction, Zval =  6.0
     Generated by new atomic code, or converted to UPF format
     Using radial grid of  737 points,  5 beta functions with:
                l(1) =   0
                l(2) =   0
                l(3) =   1
                l(4) =   1
                l(5) =   2
     Q(r) pseudized with  8 coefficients,  rinner =    0.900   0.900   0.900
                                                       0.900   0.900

     atomic species   valence    mass     pseudopotential
        Mn0           15.00    54.93800     Mn( 1.00)
        O1             6.00    15.99940     O ( 1.00)

     Starting magnetic structure
     atomic species   magnetization
        Mn0          0.000
        O1           0.000

     16 Sym. Ops., with inversion, found ( 8 have fractional translation)

   Cartesian axes

     site n.     atom                  positions (alat units)
         1           Mn0 tau(   1) = (   0.0000000   0.0000000   0.0000000  )
         2           Mn0 tau(   2) = (   0.5000000   0.5000000   0.3222222  )
         3           O1  tau(   3) = (   0.3050000   0.3050000   0.0000000  )
         4           O1  tau(   4) = (  -0.3050000  -0.3050000   0.0000000  )
         5           O1  tau(   5) = (   0.8050000   0.1950000   0.3222222  )
         6           O1  tau(   6) = (   0.1950000   0.8050000   0.3222222  )

     number of k points=    36  Methfessel-Paxton smearing, width (Ry)=  0.0100
                       cart. coord. in units 2pi/alat
        k(    1) = (   0.0000000   0.0000000   0.0000000), wk =   0.0080000
        k(    2) = (   0.0000000   0.0000000   0.3103448), wk =   0.0160000
        k(    3) = (   0.0000000   0.0000000   0.6206897), wk =   0.0160000
        k(    4) = (   0.0000000   0.2000000   0.0000000), wk =   0.0320000
        k(    5) = (   0.0000000   0.2000000   0.3103448), wk =   0.0640000
        k(    6) = (   0.0000000   0.2000000   0.6206897), wk =   0.0640000
        k(    7) = (   0.0000000   0.4000000   0.0000000), wk =   0.0320000
        k(    8) = (   0.0000000   0.4000000   0.3103448), wk =   0.0640000
        k(    9) = (   0.0000000   0.4000000   0.6206897), wk =   0.0640000
        k(   10) = (   0.2000000   0.2000000   0.0000000), wk =   0.0320000
        k(   11) = (   0.2000000   0.2000000   0.3103448), wk =   0.0640000
        k(   12) = (   0.2000000   0.2000000   0.6206897), wk =   0.0640000
        k(   13) = (   0.2000000   0.4000000   0.0000000), wk =   0.0640000
        k(   14) = (   0.2000000   0.4000000   0.3103448), wk =   0.1280000
        k(   15) = (   0.2000000   0.4000000   0.6206897), wk =   0.1280000
        k(   16) = (   0.4000000   0.4000000   0.0000000), wk =   0.0320000
        k(   17) = (   0.4000000   0.4000000   0.3103448), wk =   0.0640000
        k(   18) = (   0.4000000   0.4000000   0.6206897), wk =   0.0640000
        k(   19) = (   0.0000000   0.0000000   0.0000000), wk =   0.0080000
        k(   20) = (   0.0000000   0.0000000   0.3103448), wk =   0.0160000
        k(   21) = (   0.0000000   0.0000000   0.6206897), wk =   0.0160000
        k(   22) = (   0.0000000   0.2000000   0.0000000), wk =   0.0320000
        k(   23) = (   0.0000000   0.2000000   0.3103448), wk =   0.0640000
        k(   24) = (   0.0000000   0.2000000   0.6206897), wk =   0.0640000
        k(   25) = (   0.0000000   0.4000000   0.0000000), wk =   0.0320000
        k(   26) = (   0.0000000   0.4000000   0.3103448), wk =   0.0640000
        k(   27) = (   0.0000000   0.4000000   0.6206897), wk =   0.0640000
        k(   28) = (   0.2000000   0.2000000   0.0000000), wk =   0.0320000
        k(   29) = (   0.2000000   0.2000000   0.3103448), wk =   0.0640000
        k(   30) = (   0.2000000   0.2000000   0.6206897), wk =   0.0640000
        k(   31) = (   0.2000000   0.4000000   0.0000000), wk =   0.0640000
        k(   32) = (   0.2000000   0.4000000   0.3103448), wk =   0.1280000
        k(   33) = (   0.2000000   0.4000000   0.6206897), wk =   0.1280000
        k(   34) = (   0.4000000   0.4000000   0.0000000), wk =   0.0320000
        k(   35) = (   0.4000000   0.4000000   0.3103448), wk =   0.0640000
        k(   36) = (   0.4000000   0.4000000   0.6206897), wk =   0.0640000

     Largest allocated arrays     est. size (Mb)     dimensions
     Largest temporary arrays     est. size (Mb)     dimensions

     Check: negative/imaginary core charge=   -0.000062    0.000000

     Initial potential from superposition of free atoms

     starting charge   51.99998, renormalised to   54.00000
     Starting wfc are   42 randomized atomic wfcs

     Self-consistent Calculation

     iteration #  1     ecut=    40.00 Ry     beta=0.30
     Davidson diagonalization with overlap
     ethr =  1.00E-02,  avg # of iterations =  5.0

     total energy              =    -554.09301766 Ry
     Harris-Foulkes estimate   =    -555.29675383 Ry
     estimated scf accuracy    <       2.55476991 Ry

     total magnetization       =    -0.00 Bohr mag/cell
     absolute magnetization    =     0.00 Bohr mag/cell

[...]

     End of self-consistent calculation

 ------ SPIN UP ------------

          k = 0.0000 0.0000 0.0000 (  1647 PWs)   bands (ev):

   -69.7358 -69.7333 -38.5338 -38.5338 -38.4363 -38.4363 -38.3343 -38.3246
    -9.6289  -7.8640  -7.5402  -7.5402   2.6962   3.5989   4.0613   5.0810
     5.0810   6.1919   6.1919   6.8372   8.5140   8.9210   8.9210   9.0655
     9.3312   9.7020   9.7069   9.7069   9.9131  11.2927  11.6066  13.8593
    13.8593  14.5950  17.8884  21.4804  21.4804  24.3559  24.7898  25.4890
    27.6471  28.8340  28.8340  29.5943  30.3099  33.5822  34.5949  34.8158
    34.8158  35.8555  35.8555  36.3250  36.9187  36.9187  37.0709  38.4716
    39.8564  40.5491  43.5182  43.5827  43.5827  43.6847  43.6847  45.8034
    47.0910  48.2729  48.2729  49.3259  50.5509  50.6432  50.6432  51.1587
    52.2551  53.1194  53.9952  53.9952  55.8598  55.8686

[...]

 ------ SPIN DOWN ----------

[...]

     the Fermi energy is    10.3181 ev

!    total energy              =    -554.86820031 Ry
     Harris-Foulkes estimate   =    -554.86819752 Ry
     estimated scf accuracy    <       0.00000059 Ry

     The total energy is the sum of the following terms:

     one-electron contribution =    -277.76854338 Ry
     hartree contribution      =     165.70391450 Ry
     xc contribution           =     -80.51018145 Ry
     ewald contribution        =    -362.29278578 Ry
     smearing contrib. (-TS)   =      -0.00060421 Ry

[...]

     convergence has been achieved in  10 iterations

     Forces acting on atoms (Ry/au):

     atom    1 type  1   force =     0.00000000    0.00000000   -0.00000000
     atom    2 type  1   force =     0.00000000    0.00000000   -0.00000000
     atom    3 type  2   force =    -0.00790649   -0.00790649    0.00000000
     atom    4 type  2   force =     0.00790649    0.00790649   -0.00000000
     atom    5 type  2   force =    -0.00790649    0.00790649    0.00000000
     atom    6 type  2   force =     0.00790649   -0.00790649    0.00000000

     Total force =     0.022363     Total SCF correction =     0.000288

     entering subroutine stress ...

          total   stress  (Ry/bohr**3)                   (kbar)     P= -141.90
  -0.00083855   0.00000000   0.00000000       -123.36      0.00      0.00
   0.00000000  -0.00083855   0.00000000          0.00   -123.36      0.00
   0.00000000   0.00000000  -0.00121679          0.00      0.00   -179.00

     Volume is kept fixed: isostatic pressure set to zero

     BFGS Geometry Optimization

     number of scf cycles    =   1
     number of bfgs steps    =   0

     enthalpy new            =    -554.8682003132 Ry

     new trust radius        =       0.0247268035 bohr
     new conv_thr            =       0.0000010000 Ry

     new unit-cell volume =    384.62808 a.u.^3 (    56.99600 Ang^3 )

CELL_PARAMETERS (alat=  8.41947801)
   1.003161997   0.000000000   0.000000000
   0.000000000   1.003161997   0.000000000
   0.000000000   0.000000000   0.640388230

ATOMIC_POSITIONS (crystal)
Mn0      0.000000000   0.000000000   0.000000000    0   0   0
Mn0      0.500000000   0.500000000   0.500000000    0   0   0
O1       0.304060929   0.304060929   0.000000000    1   1   0
O1      -0.304060929  -0.304060929   0.000000000    1   1   0
O1       0.804060929   0.195939071   0.500000000    1   1   0
O1       0.195939071   0.804060929   0.500000000    1   1   0

     NEW-OLD atomic charge density approx. for the potential
     NEW k-points:
        k(    1) = (   0.0000000   0.0000000   0.0000000), wk =   0.0080000
[...]
        k(   20) = (   0.0000000   0.0000000   0.3123105), wk =   0.0160000
        k(   21) = (   0.0000000   0.0000000   0.6246211), wk =   0.0160000
        k(   22) = (   0.0000000   0.1993696   0.0000000), wk =   0.0320000
        k(   23) = (   0.0000000   0.1993696   0.3123105), wk =   0.0640000
        k(   24) = (   0.0000000   0.1993696   0.6246211), wk =   0.0640000
        k(   25) = (   0.0000000   0.3987392   0.0000000), wk =   0.0320000
        k(   26) = (   0.0000000   0.3987392   0.3123105), wk =   0.0640000
        k(   27) = (   0.0000000   0.3987392   0.6246211), wk =   0.0640000
        k(   28) = (   0.1993696   0.1993696   0.0000000), wk =   0.0320000
        k(   29) = (   0.1993696   0.1993696   0.3123105), wk =   0.0640000
        k(   30) = (   0.1993696   0.1993696   0.6246211), wk =   0.0640000
        k(   31) = (   0.1993696   0.3987392   0.0000000), wk =   0.0640000
        k(   32) = (   0.1993696   0.3987392   0.3123105), wk =   0.1280000
        k(   33) = (   0.1993696   0.3987392   0.6246211), wk =   0.1280000
        k(   34) = (   0.3987392   0.3987392   0.0000000), wk =   0.0320000
        k(   35) = (   0.3987392   0.3987392   0.3123105), wk =   0.0640000
        k(   36) = (   0.3987392   0.3987392   0.6246211), wk =   0.0640000

[...]

     enthalpy old            =    -554.8682003132 Ry
     enthalpy new            =    -554.8694756917 Ry

     CASE: enthalpy_new < enthalpy_old

     WARNING: bfgs curvature condition failed, Theta= 0.996
     new trust radius        =       0.0273288082 bohr
     new conv_thr            =       0.0000000699 Ry

[...]

     Threshold (ethr) on eigenvalues was too large:
     Diagonalizing with lowered threshold

     Davidson diagonalization with overlap
     ethr =  2.30E-08,  avg # of iterations =  1.1

[...]

     Total force =     0.000627     Total SCF correction =     0.000078
     SCF correction compared to forces is large: reduce conv_thr to get better values

[...]

     number of scf cycles    =   6
     number of bfgs steps    =   5

     enthalpy old            =    -554.8714258157 Ry
     enthalpy new            =    -554.8714301403 Ry

     CASE: enthalpy_new < enthalpy_old

     new trust radius        =       0.0021361380 bohr
     new conv_thr            =       0.0000000100 Ry

     new unit-cell volume =    384.62808 a.u.^3 (    56.99600 Ang^3 )

[...]

ATOMIC_POSITIONS (crystal)
Mn0      0.000000000   0.000000000   0.000000000    0   0   0
Mn0      0.500000000   0.500000000   0.500000000    0   0   0
O1       0.300186192   0.300186192   0.000000000    1   1   0
O1      -0.300186192  -0.300186192   0.000000000    1   1   0
O1       0.800186192   0.199813808   0.500000000    1   1   0
O1       0.199813808   0.800186192   0.500000000    1   1   0

     NEW-OLD atomic charge density approx. for the potential
     NEW k-points:
        k(    1) = (   0.0000000   0.0000000   0.0000000), wk =   0.0080000
        k(    2) = (   0.0000000   0.0000000   0.3179705), wk =   0.0160000
        k(    3) = (   0.0000000   0.0000000   0.6359409), wk =   0.0160000
        k(    4) = (   0.0000000   0.1975872   0.0000000), wk =   0.0320000
        k(    5) = (   0.0000000   0.1975872   0.3179705), wk =   0.0640000
        k(    6) = (   0.0000000   0.1975872   0.6359409), wk =   0.0640000
        k(    7) = (   0.0000000   0.3951745   0.0000000), wk =   0.0320000
        k(    8) = (   0.0000000   0.3951745   0.3179705), wk =   0.0640000
        k(    9) = (   0.0000000   0.3951745   0.6359409), wk =   0.0640000
        k(   10) = (   0.1975872   0.1975872   0.0000000), wk =   0.0320000
        k(   11) = (   0.1975872   0.1975872   0.3179705), wk =   0.0640000
        k(   12) = (   0.1975872   0.1975872   0.6359409), wk =   0.0640000
        k(   13) = (   0.1975872   0.3951745   0.0000000), wk =   0.0640000
        k(   14) = (   0.1975872   0.3951745   0.3179705), wk =   0.1280000
        k(   15) = (   0.1975872   0.3951745   0.6359409), wk =   0.1280000
        k(   16) = (   0.3951745   0.3951745   0.0000000), wk =   0.0320000
        k(   17) = (   0.3951745   0.3951745   0.3179705), wk =   0.0640000
        k(   18) = (   0.3951745   0.3951745   0.6359409), wk =   0.0640000
        k(   19) = (   0.0000000   0.0000000   0.0000000), wk =   0.0080000
        k(   20) = (   0.0000000   0.0000000   0.3179705), wk =   0.0160000
        k(   21) = (   0.0000000   0.0000000   0.6359409), wk =   0.0160000
        k(   22) = (   0.0000000   0.1975872   0.0000000), wk =   0.0320000
        k(   23) = (   0.0000000   0.1975872   0.3179705), wk =   0.0640000
        k(   24) = (   0.0000000   0.1975872   0.6359409), wk =   0.0640000
        k(   25) = (   0.0000000   0.3951745   0.0000000), wk =   0.0320000
        k(   26) = (   0.0000000   0.3951745   0.3179705), wk =   0.0640000
        k(   27) = (   0.0000000   0.3951745   0.6359409), wk =   0.0640000
        k(   28) = (   0.1975872   0.1975872   0.0000000), wk =   0.0320000
        k(   29) = (   0.1975872   0.1975872   0.3179705), wk =   0.0640000
        k(   30) = (   0.1975872   0.1975872   0.6359409), wk =   0.0640000
        k(   31) = (   0.1975872   0.3951745   0.0000000), wk =   0.0640000
        k(   32) = (   0.1975872   0.3951745   0.3179705), wk =   0.1280000
        k(   33) = (   0.1975872   0.3951745   0.6359409), wk =   0.1280000
        k(   34) = (   0.3951745   0.3951745   0.0000000), wk =   0.0320000
        k(   35) = (   0.3951745   0.3951745   0.3179705), wk =   0.0640000
        k(   36) = (   0.3951745   0.3951745   0.6359409), wk =   0.0640000

[...]

     Threshold (ethr) on eigenvalues was too large:
     Diagonalizing with lowered threshold

     Davidson diagonalization with overlap
     ethr =  2.85E-09,  avg # of iterations =  2.0

[...]

     Total force =     0.000010     Total SCF correction =     0.000109
     SCF correction compared to forces is large: reduce conv_thr to get better values

[...]

     Volume is kept fixed: isostatic pressure set to zero

     bfgs converged in   7 scf cycles and   6 bfgs steps
     (criteria: energy < 0.10E-03, force < 0.10E-02, cell < 0.50E+00)

     End of BFGS Geometry Optimization

     Final enthalpy =    -554.8714321506 Ry
Begin final coordinates
     new unit-cell volume =    384.62808 a.u.^3 (    56.99600 Ang^3 )

CELL_PARAMETERS (alat=  8.41947801)
   1.012211181   0.000000000   0.000000000
   0.000000000   1.012211181   0.000000000
   0.000000000   0.000000000   0.628989250

ATOMIC_POSITIONS (crystal)
Mn0      0.000000000   0.000000000   0.000000000    0   0   0
Mn0      0.500000000   0.500000000   0.500000000    0   0   0
O1       0.300186192   0.300186192   0.000000000    1   1   0
O1      -0.300186192  -0.300186192   0.000000000    1   1   0
O1       0.800186192   0.199813808   0.500000000    1   1   0
O1       0.199813808   0.800186192   0.500000000    1   1   0
End final coordinates

     A final scf calculation at the relaxed structure.
     The G-vectors are recalculated for the final unit cell
     Results may differ from those at the preceding step.

     bravais-lattice index     =            0
     lattice parameter (alat)  =       8.4195  a.u.
     unit-cell volume          =     384.6281 (a.u.)^3
     number of atoms/cell      =            6
     number of atomic types    =            2
     number of electrons       =        54.00
     number of Kohn-Sham states=           78
     kinetic-energy cutoff     =      40.0000  Ry
     charge density cutoff     =     500.0000  Ry
     convergence threshold     =      1.0E-08
     mixing beta               =       0.3000
     number of iterations used =            8  plain     mixing
     Exchange-correlation      = SLA  PW   PBE  PBE ( 1 4 3 4 0)
     EXX-fraction              =        0.00

     celldm(1)=   8.419478  celldm(2)=   0.000000  celldm(3)=   0.000000
     celldm(4)=   0.000000  celldm(5)=   0.000000  celldm(6)=   0.000000

     crystal axes: (cart. coord. in units of alat)
               a(1) = (   1.012211   0.000000   0.000000 )
               a(2) = (   0.000000   1.012211   0.000000 )
               a(3) = (   0.000000   0.000000   0.628989 )

     reciprocal axes: (cart. coord. in units 2 pi/alat)
               b(1) = (  0.987936  0.000000  0.000000 )
               b(2) = (  0.000000  0.987936  0.000000 )
               b(3) = (  0.000000  0.000000  1.589852 )

     PseudoPot. # 1 for Mn read from file:
     /home/camp/zhonxu/pseudo/mn_pbe_v1.uspp.F.UPF
     MD5 check sum: 5fd7c7b5c956fd19902447332617373a
     Pseudo is Ultrasoft + core correction, Zval = 15.0
     Generated by new atomic code, or converted to UPF format
     Using radial grid of  859 points,  6 beta functions with:
                l(1) =   0
                l(2) =   0
                l(3) =   1
                l(4) =   1
                l(5) =   2
                l(6) =   2
     Q(r) pseudized with  6 coefficients,  rinner =    1.150   1.150   1.150
                                                       1.150   1.150

     PseudoPot. # 2 for O  read from file:
     /home/camp/zhonxu/pseudo/o_pbe_v1.01.uspp.F.UPF
     MD5 check sum: 2bcb18d16ea4b960afae9ec6d52f22d2
     Pseudo is Ultrasoft + core correction, Zval =  6.0
     Generated by new atomic code, or converted to UPF format
     Using radial grid of  737 points,  5 beta functions with:
                l(1) =   0
                l(2) =   0
                l(3) =   1
                l(4) =   1
                l(5) =   2
     Q(r) pseudized with  8 coefficients,  rinner =    0.900   0.900   0.900
                                                       0.900   0.900

     atomic species   valence    mass     pseudopotential
        Mn0           15.00    54.93800     Mn( 1.00)
        O1             6.00    15.99940     O ( 1.00)

     Starting magnetic structure
     atomic species   magnetization
        Mn0          0.000
        O1           0.000

     16 Sym. Ops., with inversion, found ( 8 have fractional translation)

   Cartesian axes

     site n.     atom                  positions (alat units)
         1           Mn0 tau(   1) = (   0.0000000   0.0000000   0.0000000  )
         2           Mn0 tau(   2) = (   0.5061056   0.5061056   0.3144946  )
         3           O1  tau(   3) = (   0.3038518   0.3038518   0.0000000  )
         4           O1  tau(   4) = (  -0.3038518  -0.3038518   0.0000000  )
         5           O1  tau(   5) = (   0.8099574   0.2022538   0.3144946  )
         6           O1  tau(   6) = (   0.2022538   0.8099574   0.3144946  )

     number of k points=    36  Methfessel-Paxton smearing, width (Ry)=  0.0100
                       cart. coord. in units 2pi/alat
        k(    1) = (   0.0000000   0.0000000   0.0000000), wk =   0.0080000
        k(    2) = (   0.0000000   0.0000000   0.3179705), wk =   0.0160000
        k(    3) = (   0.0000000   0.0000000   0.6359409), wk =   0.0160000
        k(    4) = (   0.0000000   0.1975872   0.0000000), wk =   0.0320000
        k(    5) = (   0.0000000   0.1975872   0.3179705), wk =   0.0640000
        k(    6) = (   0.0000000   0.1975872   0.6359409), wk =   0.0640000
        k(    7) = (   0.0000000   0.3951745   0.0000000), wk =   0.0320000
        k(    8) = (   0.0000000   0.3951745   0.3179705), wk =   0.0640000
        k(    9) = (   0.0000000   0.3951745   0.6359409), wk =   0.0640000
        k(   10) = (   0.1975872   0.1975872   0.0000000), wk =   0.0320000
        k(   11) = (   0.1975872   0.1975872   0.3179705), wk =   0.0640000
        k(   12) = (   0.1975872   0.1975872   0.6359409), wk =   0.0640000
        k(   13) = (   0.1975872   0.3951745   0.0000000), wk =   0.0640000
        k(   14) = (   0.1975872   0.3951745   0.3179705), wk =   0.1280000
        k(   15) = (   0.1975872   0.3951745   0.6359409), wk =   0.1280000
        k(   16) = (   0.3951745   0.3951745   0.0000000), wk =   0.0320000
        k(   17) = (   0.3951745   0.3951745   0.3179705), wk =   0.0640000
        k(   18) = (   0.3951745   0.3951745   0.6359409), wk =   0.0640000
        k(   19) = (   0.0000000   0.0000000   0.0000000), wk =   0.0080000
        k(   20) = (   0.0000000   0.0000000   0.3179705), wk =   0.0160000
        k(   21) = (   0.0000000   0.0000000   0.6359409), wk =   0.0160000
        k(   22) = (   0.0000000   0.1975872   0.0000000), wk =   0.0320000
        k(   23) = (   0.0000000   0.1975872   0.3179705), wk =   0.0640000
        k(   24) = (   0.0000000   0.1975872   0.6359409), wk =   0.0640000
        k(   25) = (   0.0000000   0.3951745   0.0000000), wk =   0.0320000
        k(   26) = (   0.0000000   0.3951745   0.3179705), wk =   0.0640000
        k(   27) = (   0.0000000   0.3951745   0.6359409), wk =   0.0640000
        k(   28) = (   0.1975872   0.1975872   0.0000000), wk =   0.0320000
        k(   29) = (   0.1975872   0.1975872   0.3179705), wk =   0.0640000
        k(   30) = (   0.1975872   0.1975872   0.6359409), wk =   0.0640000
        k(   31) = (   0.1975872   0.3951745   0.0000000), wk =   0.0640000
        k(   32) = (   0.1975872   0.3951745   0.3179705), wk =   0.1280000
        k(   33) = (   0.1975872   0.3951745   0.6359409), wk =   0.1280000
        k(   34) = (   0.3951745   0.3951745   0.0000000), wk =   0.0320000
        k(   35) = (   0.3951745   0.3951745   0.3179705), wk =   0.0640000
        k(   36) = (   0.3951745   0.3951745   0.6359409), wk =   0.0640000

     Largest allocated arrays     est. size (Mb)     dimensions
     Largest temporary arrays     est. size (Mb)     dimensions

     Check: negative/imaginary core charge=   -0.000060    0.000000

     Initial potential from superposition of free atoms

     starting charge   51.99998, renormalised to   54.00000
     Starting wfc are   42 randomized atomic wfcs

     Self-consistent Calculation

[...]

     total energy              =    -554.87166484 Ry
     Harris-Foulkes estimate   =    -554.87166415 Ry
     estimated scf accuracy    <       0.00000001 Ry

[...]

     iteration # 12     ecut=    40.00 Ry     beta=0.30
     Davidson diagonalization with overlap
     ethr =  2.73E-11,  avg # of iterations =  2.0

     End of self-consistent calculation

 ------ SPIN UP ------------

[...]

 ------ SPIN DOWN ----------

[...]

          k = 0.3952 0.3952 0.6359 (  1629 PWs)   bands (ev):

   -69.7955 -69.7954 -38.5599 -38.5595 -38.5235 -38.5220 -38.5166 -38.5157
    -8.0098  -7.9126  -7.8256  -7.7817   3.7426   3.8849   4.0628   4.1034
     5.1439   5.3934   5.9618   6.0210   7.3667   7.5002   8.0899   8.3708
     9.8424  10.3188  10.3321  10.3579  10.5438  10.8914  12.3489  13.0078
    13.1103  13.7434  21.9066  22.3134  23.1425  23.4879  25.5334  25.6286
    26.5455  26.6619  27.7060  27.7359  28.9783  29.2626  32.0467  33.8569
    33.9623  34.6955  35.3361  36.1165  39.5929  39.6995  40.5802  41.2478
    43.5139  43.8964  44.3675  45.2077  45.5654  45.7211  46.4988  47.0176
    47.7790  48.5818  49.2820  49.9503  49.9851  50.7652  51.3099  52.2196
    52.3897  53.0481  53.9665  53.9976  56.1920  56.6132

     the Fermi energy is    10.3595 ev

!    total energy              =    -554.87166549 Ry
     Harris-Foulkes estimate   =    -554.87166484 Ry
     estimated scf accuracy    <          1.5E-09 Ry

     The total energy is the sum of the following terms:

     one-electron contribution =    -278.97373729 Ry
     hartree contribution      =     166.22542774 Ry
     xc contribution           =     -80.50181306 Ry
     ewald contribution        =    -361.62164143 Ry
     smearing contrib. (-TS)   =       0.00009855 Ry

     total magnetization       =    -0.00 Bohr mag/cell
     absolute magnetization    =     0.00 Bohr mag/cell

     convergence has been achieved in  12 iterations

     Forces acting on atoms (Ry/au):

     atom    1 type  1   force =     0.00000000    0.00000000    0.00000000
     atom    2 type  1   force =     0.00000000    0.00000000    0.00000000
     atom    3 type  2   force =     0.00004626    0.00004626   -0.00000000
     atom    4 type  2   force =    -0.00004626   -0.00004626   -0.00000000
     atom    5 type  2   force =     0.00004626   -0.00004626   -0.00000000
     atom    6 type  2   force =    -0.00004626    0.00004626   -0.00000000

     Total force =     0.000131     Total SCF correction =     0.000000

     entering subroutine stress ...

          total   stress  (Ry/bohr**3)                   (kbar)     P= -145.30
  -0.00097849   0.00000000   0.00000000       -143.94      0.00      0.00
   0.00000000  -0.00097849   0.00000000          0.00   -143.94      0.00
   0.00000000   0.00000000  -0.00100619          0.00      0.00   -148.02

     General routines

     Parallel routines

   This run was terminated on:  15: 9:33  24Jan2014

   JOB DONE.