     Program PWSCF v.5.0.2 (svn rev. 9656) starts on 14Feb2014 at 12:53: 9

     Current dimensions of program PWSCF are:
     Max number of different atomic species (ntypx) = 10
     Max number of k-points (npk) =  40000
     Max angular momentum in pseudopotentials (lmaxx) =  3
     Reading input from alpha_-0.07/alpha_-0.07.in
Warning: card &IONS ignored
Warning: card / ignored
Warning: card &CELL ignored
Warning: card / ignored

     Subspace diagonalization in iterative solution of the eigenvalue problem:
     a serial algorithm will be used

     bravais-lattice index     =            0
     lattice parameter (alat)  =      16.4784  a.u.
     unit-cell volume          =    2914.5930 (a.u.)^3
     number of atoms/cell      =           48
     number of atomic types    =            3
     number of electrons       =       432.00
     number of Kohn-Sham states=          624
     kinetic-energy cutoff     =      40.0000  Ry
     charge density cutoff     =     500.0000  Ry
     convergence threshold     =      1.0E-06
     mixing beta               =       0.7000
     number of iterations used =            8  plain     mixing
     Exchange-correlation      = SLA  PW   PBE  PBE ( 1 4 3 4 0)
     EXX-fraction              =        0.00

     celldm(1)=  16.478412  celldm(2)=   0.000000  celldm(3)=   0.000000
     celldm(4)=   0.000000  celldm(5)=   0.000000  celldm(6)=   0.000000

     crystal axes: (cart. coord. in units of alat)
               a(1) = (   1.000000   0.000000   0.000000 )
               a(2) = (   0.000000   1.000000   0.000000 )
               a(3) = (   0.000000   0.000000   0.651376 )

     reciprocal axes: (cart. coord. in units 2 pi/alat)
               b(1) = (  1.000000  0.000000  0.000000 )
               b(2) = (  0.000000  1.000000  0.000000 )
               b(3) = (  0.000000  0.000000  1.535211 )

     PseudoPot. # 1 for Mn read from file:
     /home/camp/zhonxu/pseudo/mn_pbe_v1.uspp.F.UPF
     MD5 check sum: 5fd7c7b5c956fd19902447332617373a
     Pseudo is Ultrasoft + core correction, Zval = 15.0
     Generated by new atomic code, or converted to UPF format
     Using radial grid of  859 points,  6 beta functions with:
                l(1) =   0
                l(2) =   0
                l(3) =   1
                l(4) =   1
                l(5) =   2
                l(6) =   2
     Q(r) pseudized with  6 coefficients,  rinner =    1.150   1.150   1.150
                                                       1.150   1.150

     PseudoPot. # 2 for O  read from file:
     /home/camp/zhonxu/pseudo/o_pbe_v1.01.uspp.F.UPF
     MD5 check sum: 2bcb18d16ea4b960afae9ec6d52f22d2
     Pseudo is Ultrasoft + core correction, Zval =  6.0
     Generated by new atomic code, or converted to UPF format
     Using radial grid of  737 points,  5 beta functions with:
                l(1) =   0
                l(2) =   0
                l(3) =   1
                l(4) =   1
                l(5) =   2
     Q(r) pseudized with  8 coefficients,  rinner =    0.900   0.900   0.900
                                                       0.900   0.900

     PseudoPot. # 3 for O  read from file:
     /home/camp/zhonxu/pseudo/o_pbe_v1.01.uspp.F.UPF
     MD5 check sum: 2bcb18d16ea4b960afae9ec6d52f22d2
     Pseudo is Ultrasoft + core correction, Zval =  6.0
     Generated by new atomic code, or converted to UPF format
     Using radial grid of  737 points,  5 beta functions with:
                l(1) =   0
                l(2) =   0
                l(3) =   1
                l(4) =   1
                l(5) =   2
     Q(r) pseudized with  8 coefficients,  rinner =    0.900   0.900   0.900
                                                       0.900   0.900

     atomic species   valence    mass     pseudopotential
        Mn0           15.00    54.93800     Mn( 1.00)
        O1             6.00    15.99940     O ( 1.00)
        O2             6.00    15.99940     O ( 1.00)

     Starting magnetic structure
     atomic species   magnetization
        Mn0          0.600
        O1           0.000
        O2           0.000

     Simplified LDA+U calculation (l_max = 2) with parameters (eV):
     atomic species    L          U    alpha       J0     beta
        Mn0            2     0.0000   0.0000   0.0000   0.0000
        O1             1     0.0000  -0.0700   0.0000   0.0000
        O2             1     0.0000   0.0000   0.0000   0.0000

      4 Sym. Ops. (no inversion) found

   Cartesian axes

     site n.     atom                  positions (alat units)
         1           Mn0 tau(   1) = (  -0.1500000  -0.1500000   0.0000000  )
         2           Mn0 tau(   2) = (   0.1000000   0.1000000   0.1628440  )
         3           Mn0 tau(   3) = (  -0.1500000  -0.1500000   0.3256881  )
         4           Mn0 tau(   4) = (   0.1000000   0.1000000   0.4885321  )
         5           Mn0 tau(   5) = (  -0.1500000   0.3500000   0.0000000  )
         6           Mn0 tau(   6) = (   0.1000000   0.6000000   0.1628440  )
         7           Mn0 tau(   7) = (  -0.1500000   0.3500000   0.3256881  )
         8           Mn0 tau(   8) = (   0.1000000   0.6000000   0.4885321  )
         9           Mn0 tau(   9) = (   0.3500000  -0.1500000   0.0000000  )
        10           Mn0 tau(  10) = (   0.6000000   0.1000000   0.1628440  )
        11           Mn0 tau(  11) = (   0.3500000  -0.1500000   0.3256881  )
        12           Mn0 tau(  12) = (   0.6000000   0.1000000   0.4885321  )
        13           Mn0 tau(  13) = (   0.3500000   0.3500000   0.0000000  )
        14           Mn0 tau(  14) = (   0.6000000   0.6000000   0.1628440  )
        15           Mn0 tau(  15) = (   0.3500000   0.3500000   0.3256881  )
        16           Mn0 tau(  16) = (   0.6000000   0.6000000   0.4885321  )
        17           O1  tau(  17) = (   0.0000000   0.0000000   0.0000000  )
        18           O2  tau(  18) = (  -0.3000000  -0.3000000   0.0000000  )
        19           O2  tau(  19) = (   0.2500000  -0.0500000   0.1628440  )
        20           O2  tau(  20) = (  -0.0500000   0.2500000   0.1628440  )
        21           O2  tau(  21) = (   0.0000000   0.0000000   0.3256881  )
        22           O2  tau(  22) = (  -0.3000000  -0.3000000   0.3256881  )
        23           O2  tau(  23) = (   0.2500000  -0.0500000   0.4885321  )
        24           O2  tau(  24) = (  -0.0500000   0.2500000   0.4885321  )
        25           O2  tau(  25) = (   0.0000000   0.5000000   0.0000000  )
        26           O2  tau(  26) = (  -0.3000000   0.2000000   0.0000000  )
        27           O2  tau(  27) = (   0.2500000   0.4500000   0.1628440  )
        28           O2  tau(  28) = (  -0.0500000   0.7500000   0.1628440  )
        29           O2  tau(  29) = (   0.0000000   0.5000000   0.3256881  )
        30           O2  tau(  30) = (  -0.3000000   0.2000000   0.3256881  )
        31           O2  tau(  31) = (   0.2500000   0.4500000   0.4885321  )
        32           O2  tau(  32) = (  -0.0500000   0.7500000   0.4885321  )
        33           O2  tau(  33) = (   0.5000000   0.0000000   0.0000000  )
        34           O2  tau(  34) = (   0.2000000  -0.3000000   0.0000000  )
        35           O2  tau(  35) = (   0.7500000  -0.0500000   0.1628440  )
        36           O2  tau(  36) = (   0.4500000   0.2500000   0.1628440  )
        37           O2  tau(  37) = (   0.5000000   0.0000000   0.3256881  )
        38           O2  tau(  38) = (   0.2000000  -0.3000000   0.3256881  )
        39           O2  tau(  39) = (   0.7500000  -0.0500000   0.4885321  )
        40           O2  tau(  40) = (   0.4500000   0.2500000   0.4885321  )
        41           O2  tau(  41) = (   0.5000000   0.5000000   0.0000000  )
        42           O2  tau(  42) = (   0.2000000   0.2000000   0.0000000  )
        43           O2  tau(  43) = (   0.7500000   0.4500000   0.1628440  )
        44           O2  tau(  44) = (   0.4500000   0.7500000   0.1628440  )
        45           O2  tau(  45) = (   0.5000000   0.5000000   0.3256881  )
        46           O2  tau(  46) = (   0.2000000   0.2000000   0.3256881  )
        47           O2  tau(  47) = (   0.7500000   0.4500000   0.4885321  )
        48           O2  tau(  48) = (   0.4500000   0.7500000   0.4885321  )

     number of k points=    42  Methfessel-Paxton smearing, width (Ry)=  0.0100
                       cart. coord. in units 2pi/alat
        k(    1) = (   0.0000000   0.0000000   0.0000000), wk =   0.0156250
        k(    2) = (   0.0000000   0.0000000   0.3838028), wk =   0.0312500
        k(    3) = (   0.0000000   0.0000000  -0.7676056), wk =   0.0156250
        k(    4) = (   0.0000000   0.2500000   0.0000000), wk =   0.0625000
        k(    5) = (   0.0000000   0.2500000   0.3838028), wk =   0.1250000
        k(    6) = (   0.0000000   0.2500000  -0.7676056), wk =   0.0625000
        k(    7) = (   0.0000000  -0.5000000   0.0000000), wk =   0.0312500
        k(    8) = (   0.0000000  -0.5000000   0.3838028), wk =   0.0625000
        k(    9) = (   0.0000000  -0.5000000  -0.7676056), wk =   0.0312500
        k(   10) = (   0.2500000   0.2500000   0.0000000), wk =   0.0312500
        k(   11) = (   0.2500000   0.2500000   0.3838028), wk =   0.0625000
        k(   12) = (   0.2500000   0.2500000  -0.7676056), wk =   0.0312500
        k(   13) = (   0.2500000  -0.5000000   0.0000000), wk =   0.0625000
        k(   14) = (   0.2500000  -0.5000000   0.3838028), wk =   0.1250000
        k(   15) = (   0.2500000  -0.5000000  -0.7676056), wk =   0.0625000
        k(   16) = (  -0.5000000  -0.5000000   0.0000000), wk =   0.0156250
        k(   17) = (  -0.5000000  -0.5000000   0.3838028), wk =   0.0312500
        k(   18) = (  -0.5000000  -0.5000000  -0.7676056), wk =   0.0156250
        k(   19) = (   0.2500000  -0.2500000   0.0000000), wk =   0.0312500
        k(   20) = (   0.2500000  -0.2500000   0.3838028), wk =   0.0625000
        k(   21) = (   0.2500000  -0.2500000  -0.7676056), wk =   0.0312500
        k(   22) = (   0.0000000   0.0000000   0.0000000), wk =   0.0156250
        k(   23) = (   0.0000000   0.0000000   0.3838028), wk =   0.0312500
        k(   24) = (   0.0000000   0.0000000  -0.7676056), wk =   0.0156250
        k(   25) = (   0.0000000   0.2500000   0.0000000), wk =   0.0625000
        k(   26) = (   0.0000000   0.2500000   0.3838028), wk =   0.1250000
        k(   27) = (   0.0000000   0.2500000  -0.7676056), wk =   0.0625000
        k(   28) = (   0.0000000  -0.5000000   0.0000000), wk =   0.0312500
        k(   29) = (   0.0000000  -0.5000000   0.3838028), wk =   0.0625000
        k(   30) = (   0.0000000  -0.5000000  -0.7676056), wk =   0.0312500
        k(   31) = (   0.2500000   0.2500000   0.0000000), wk =   0.0312500
        k(   32) = (   0.2500000   0.2500000   0.3838028), wk =   0.0625000
        k(   33) = (   0.2500000   0.2500000  -0.7676056), wk =   0.0312500
        k(   34) = (   0.2500000  -0.5000000   0.0000000), wk =   0.0625000
        k(   35) = (   0.2500000  -0.5000000   0.3838028), wk =   0.1250000
        k(   36) = (   0.2500000  -0.5000000  -0.7676056), wk =   0.0625000
[...]
    eigenvectors:
  0.000  1.000  0.000
  0.500  0.000  0.500
  0.500  0.000  0.500
    occupations:
  0.858 -0.000 -0.000
 -0.000  0.921 -0.073
 -0.000 -0.073  0.921
   spin  2
    eigenvalues:
  0.869  0.873  0.883
    eigenvectors:
  0.000  0.000  1.000
  0.500  0.500  0.000
  0.500  0.500  0.000
    occupations:
  0.883 -0.000 -0.000
 -0.000  0.871  0.002
 -0.000  0.002  0.871
atomic mag. moment =     0.075180
atom   42   Tr[ns(na)] (up, down, total) =   2.69925  2.62417  5.32342
   spin  1
    eigenvalues:
  0.848  0.857  0.994
    eigenvectors:
  0.000  1.000  0.000
  0.500  0.000  0.500
  0.500  0.000  0.500
    occupations:
  0.857 -0.000 -0.000
 -0.000  0.921 -0.073
 -0.000 -0.073  0.921
   spin  2
    eigenvalues:
  0.869  0.873  0.883
    eigenvectors:
  0.000  0.000  1.000
  0.500  0.500  0.000
  0.500  0.500  0.000
    occupations:
  0.883 -0.000 -0.000
 -0.000  0.871  0.002
 -0.000  0.002  0.871
atomic mag. moment =     0.075080
atom   43   Tr[ns(na)] (up, down, total) =   2.69938  2.62422  5.32361
   spin  1
    eigenvalues:
  0.848  0.858  0.994
    eigenvectors:
  0.000  1.000  0.000
  0.500  0.000  0.500
  0.500  0.000  0.500
    occupations:
  0.858  0.000 -0.000
  0.000  0.921  0.073
 -0.000  0.073  0.921
   spin  2
    eigenvalues:
  0.869  0.873  0.883
    eigenvectors:
  0.000  0.000  1.000
  0.500  0.500  0.000
  0.500  0.500  0.000
    occupations:
  0.883  0.000 -0.000
  0.000  0.871 -0.002
 -0.000 -0.002  0.871
atomic mag. moment =     0.075159
atom   44   Tr[ns(na)] (up, down, total) =   2.69938  2.62422  5.32361
   spin  1
    eigenvalues:
  0.848  0.858  0.994
    eigenvectors:
  0.000  1.000  0.000
  0.500  0.000  0.500
  0.500  0.000  0.500
    occupations:
  0.858 -0.000  0.000
 -0.000  0.921  0.073
  0.000  0.073  0.921
   spin  2
    eigenvalues:
  0.869  0.873  0.883
    eigenvectors:
  0.000  0.000  1.000
  0.500  0.500  0.000
  0.500  0.500  0.000
    occupations:
  0.883 -0.000  0.000
 -0.000  0.871 -0.002
  0.000 -0.002  0.871
atomic mag. moment =     0.075159
atom   45   Tr[ns(na)] (up, down, total) =   2.69941  2.62418  5.32359
   spin  1
    eigenvalues:
  0.848  0.858  0.994
    eigenvectors:
  0.000  1.000  0.000
  0.500  0.000  0.500
  0.500  0.000  0.500
    occupations:
  0.858 -0.000 -0.000
 -0.000  0.921 -0.073
 -0.000 -0.073  0.921
   spin  2
    eigenvalues:
  0.869  0.873  0.883
    eigenvectors:
  0.000  0.000  1.000
  0.500  0.500  0.000
  0.500  0.500  0.000
    occupations:
  0.883 -0.000 -0.000
 -0.000  0.871  0.002
 -0.000  0.002  0.871
atomic mag. moment =     0.075230
atom   46   Tr[ns(na)] (up, down, total) =   2.69936  2.62431  5.32367
   spin  1
    eigenvalues:
  0.848  0.857  0.994
    eigenvectors:
  0.000  1.000  0.000
  0.500  0.000  0.500
  0.500  0.000  0.500
    occupations:
  0.857 -0.000 -0.000
 -0.000  0.921 -0.073
 -0.000 -0.073  0.921
   spin  2
    eigenvalues:
  0.869  0.873  0.883
    eigenvectors:
  0.000  0.000  1.000
  0.500  0.500  0.000
  0.500  0.500  0.000
    occupations:
  0.883 -0.000 -0.000
 -0.000  0.871  0.002
 -0.000  0.002  0.871
atomic mag. moment =     0.075048
atom   47   Tr[ns(na)] (up, down, total) =   2.69938  2.62422  5.32361
   spin  1
    eigenvalues:
  0.848  0.858  0.994
    eigenvectors:
  0.000  1.000  0.000
  0.500  0.000  0.500
  0.500  0.000  0.500
    occupations:
  0.858 -0.000  0.000
 -0.000  0.921  0.073
  0.000  0.073  0.921
   spin  2
    eigenvalues:
  0.869  0.873  0.883
    eigenvectors:
  0.000  0.000  1.000
  0.500  0.500  0.000
  0.500  0.500  0.000
    occupations:
  0.883 -0.000  0.000
 -0.000  0.871 -0.002
  0.000 -0.002  0.871
atomic mag. moment =     0.075159
atom   48   Tr[ns(na)] (up, down, total) =   2.69938  2.62422  5.32361
   spin  1
    eigenvalues:
  0.848  0.858  0.994
    eigenvectors:
  0.000  1.000  0.000
  0.500  0.000  0.500
  0.500  0.000  0.500
    occupations:
  0.858  0.000 -0.000
  0.000  0.921  0.073
 -0.000  0.073  0.921
   spin  2
    eigenvalues:
  0.869  0.873  0.883
    eigenvectors:
  0.000  0.000  1.000
  0.500  0.500  0.000
  0.500  0.500  0.000
    occupations:
  0.883  0.000 -0.000
  0.000  0.871 -0.002
 -0.000 -0.002  0.871
atomic mag. moment =     0.075159
N of occupied +U levels = 259.2805270
 --- exit write_ns ---

 ------ SPIN UP ------------

          k = 0.0000 0.0000 0.0000 ( 12425 PWs)   bands (ev):

   -70.7872 -70.7862 -70.7849 -70.7842 -70.7841 -70.7841 -70.7839 -70.7827
   -70.7769 -70.7753 -70.7739 -70.7739 -70.7738 -70.7738 -70.7738 -70.7736
   -39.6286 -39.6273 -39.6264 -39.6263 -39.6262 -39.6261 -39.6259 -39.6257
   -39.5103 -39.5065 -39.5056 -39.5048 -39.5048 -39.5048 -39.5046 -39.5000
   -39.4432 -39.4428 -39.4410 -39.4408 -39.4380 -39.4376 -39.4373 -39.4372
   -39.4200 -39.4188 -39.4178 -39.4177 -39.4175 -39.4174 -39.4173 -39.4172
   -39.3828 -39.3822 -39.3815 -39.3814 -39.3781 -39.3779 -39.3769 -39.3768
   -39.3741 -39.3732 -39.3722 -39.3721 -39.3718 -39.3716 -39.3716 -39.3715
    -8.9481  -8.0228  -8.0222  -8.0221  -8.0179  -7.8723  -7.8702  -7.2336
    -7.2315  -7.1379  -7.1379  -7.1378  -7.1340  -7.0389  -7.0369  -6.9608
    -6.9426  -6.9407  -6.8746  -6.8746  -6.8745  -6.8707  -6.8491  -6.8464
    -6.7934  -6.7911  -6.6857  -6.6856  -6.6855  -6.6807  -6.6197  -6.6172
     3.0015   3.3800   3.3823   3.6756   3.9959   3.9989   4.0000   4.0003
     4.0739   4.0769   4.0778   4.0779   4.2340   4.2497   4.2501   4.3065
     4.3067   4.4928   4.4928   4.9255   4.9279   4.9280   4.9280   5.2710
     5.2723   5.3408   5.3419   5.3450   5.3459   5.4537   5.4561   5.4561
     5.4562   5.5574   5.5581   5.5897   5.5905   5.8848   5.8853   5.8865
     5.8865   5.9402   5.9406   5.9430   5.9431   6.1973   6.1975   6.1991
     6.1992   6.3978   6.3992   6.4367   6.4379   6.8141   6.8160   6.8181
     6.8188   7.0430   7.0434   7.0478   7.0489   7.0732   7.0738   7.0745
     7.0745   7.2039   7.2045   7.2051   7.2061   7.4796   7.4814   7.4816
     7.4816   7.6855   7.7330   7.7336   8.2254   8.2258   8.4173   8.5040
     8.5042   8.5330   8.5330   8.5331   8.5333   8.6575   8.6748   8.6766
     8.7656   8.7659   8.7843   8.7846   8.7937   8.9487   8.9488   9.1844
     9.1852   9.1886   9.1887   9.1892   9.1894   9.2363   9.2366   9.2540
     9.2543   9.2575   9.2579   9.2581   9.2582   9.2642   9.2666   9.2669
     9.2671   9.6344   9.6453   9.6470   9.6470   9.6471  10.0053  10.0057
    10.0615  10.0626  10.0630  10.0630  10.3244  10.3251  10.3689  10.3698
    10.4517  10.4529  10.5862  10.6084  10.6102  10.6104  10.6106  11.1462
    11.1470  11.2726  11.2844  11.3121  11.3138  11.3139  11.3139  11.3581
    11.3589  11.5749  11.5753  11.5753  11.5754  12.7912  12.7916  12.9940
    12.9947  13.0341  13.0346  13.0646  13.0650  13.5263  13.5265  13.6601
    13.6612  13.6614  13.6615  13.7446  13.7452  13.7455  13.7456  13.9371
    13.9377  13.9702  13.9707  14.7459  14.7463  14.7467  14.7468  15.1097
    19.2454  21.6193  21.6194  21.6204  21.6218  22.3932  22.3935  22.9095
    22.9098  23.1088  23.1090  23.8953  23.8954  23.8960  23.8961  23.9054
    23.9057  23.9795  23.9795  23.9798  23.9808  24.0313  24.0316  24.3310
    24.3314  25.0488  25.5822  25.5824  25.5827  25.5827  26.2679  26.2681
    26.3000  26.4723  26.6088  26.6093  26.6695  26.6696  26.8531  26.8536
    26.9818  26.9824  26.9831  26.9834  27.6383  27.6384  27.6877  27.6878
    27.6879  27.6888  27.8080  27.8082  27.8086  27.8086  27.8901  27.8905
    28.0012  28.0012  28.0020  28.0023  28.4891  28.4896  28.4897  28.4902
    28.6295  28.6297  28.6885  28.6886  28.8239  28.8240  28.8249  28.8260
    29.0816  29.3116  29.3117  29.4834  29.4841  30.2568  30.3468  30.3469
    30.3550  30.3554  30.5066  30.5066  30.6973  30.6973  30.6977  30.6980
    31.3279  32.7340  32.7342  32.7344  32.7355  32.8296  32.8297  32.8560
    32.8561  33.1114  33.1116  33.3884  33.3885  33.3903  33.3909  33.9379
    33.9380  33.9384  33.9388  33.9594  33.9594  35.1171  35.1473  35.1473
    35.1473  35.1477  35.1479  35.1485  35.3973  35.3979  35.8345  36.4352
    36.4352  37.0188  37.0190  37.1372  37.1372  37.3822  37.4409  37.4415
    37.4416  37.4421  37.5021  37.5026  38.3439  38.3441  38.3445  38.3448
    38.3653  38.3655  38.4334  39.0691  39.0694  39.0699  39.0700  39.1741
    39.1746  39.2966  39.2967  39.2968  39.2969  39.3310  39.3315  39.5167
    39.5168  39.5173  39.5174  39.5821  39.5821  39.8753  39.9801  39.9807
    40.1764  40.1766  40.1769  40.1770  40.1965  40.1966  40.9450  40.9451
    40.9454  40.9454  41.1436  42.0923  42.0931  42.1946  42.6741  42.6744
    42.7095  42.7099  42.9718  42.9724  43.0155  43.0157  44.0103  44.0103
    44.0104  44.0118  44.2618  44.2622  44.2623  44.2623  44.4989  44.4990
    45.3794  45.3802  45.4050  45.4054  45.4211  45.4215  45.4790  45.4796
    45.5935  45.6544  45.6546  45.6548  45.6554  45.7327  45.7329  45.7331
[...]
    48.4695  48.4696  48.5021  48.5024  48.5025  48.5035  48.8754  49.2147
    49.2150  49.4039  49.4042  49.6994  49.6996  49.8068  49.8071  50.1297
    50.1302  50.1307  50.1310  50.3601  50.3604  50.3606  50.3611  50.3972
    50.3972  50.3973  50.3975  50.6055  50.6058  50.6183  50.6185  50.7089
    50.9472  50.9477  51.8764  51.8769  51.8774  51.8777  52.0324  52.0328
    52.1606  52.1608  52.1704  52.2042  52.2046  52.2049  52.2053  52.5556
    52.5561  52.8482  52.8482  52.8933  52.8936  52.9170  52.9174  52.9176
    52.9178  53.5823  53.5827  53.5830  53.5832  53.6591  53.6593  53.6593
    53.6601  53.6732  54.1581  54.1581  54.1583  54.1585  54.2514  54.2517
    54.3760  54.4258  54.4258  54.6467  54.6469  54.7938  54.7940  54.9463
    54.9470  55.0680  55.0683  55.1763  55.1764  55.1773  55.1790  55.2832
    55.2836  55.7557  55.7558  55.7566  55.7566  55.8314  56.1331  56.1332
    56.1614  56.1614  56.1617  56.1620  56.2018  56.2020  56.4750  56.4751
    56.8122  56.8127  56.9518  56.9520  56.9525  56.9527  57.0099  57.0099
    57.7871  57.9694  57.9695  58.0123  58.0125  58.1277  58.1280  58.1622

[...]

          k =-0.5000-0.5000 0.0000 ( 12432 PWs)   bands (ev):

[...]

 ------ SPIN DOWN ----------

[...]

          k =-0.5000-0.5000-0.7676 ( 12448 PWs)   bands (ev):

[...]

          k = 0.2500-0.2500-0.7676 ( 12434 PWs)   bands (ev):

   -67.4772 -67.4771 -67.4766 -67.4757 -67.4753 -67.4753 -67.4751 -67.4748
   -67.4748 -67.4747 -67.4744 -67.4742 -67.4742 -67.4740 -67.4736 -67.4735
   -36.3708 -36.3708 -36.3691 -36.3688 -36.3688 -36.3686 -36.3676 -36.3675
   -36.3664 -36.3663 -36.3657 -36.3655 -36.3654 -36.3653 -36.3628 -36.3626
   -36.2408 -36.2406 -36.2392 -36.2391 -36.2384 -36.2381 -36.2374 -36.2372
   -36.2372 -36.2367 -36.2364 -36.2362 -36.2353 -36.2352 -36.2347 -36.2347
   -36.1888 -36.1885 -36.1883 -36.1877 -36.1876 -36.1875 -36.1863 -36.1863
   -36.1862 -36.1862 -36.1859 -36.1858 -36.1849 -36.1849 -36.1843 -36.1839
    -8.0229  -8.0203  -7.6480  -7.6479  -7.6477  -7.6440  -7.4182  -7.4147
    -7.1496  -7.1495  -7.0748  -7.0747  -7.0744  -7.0684  -6.6704  -6.6695
    -6.6446  -6.6404  -6.6213  -6.6206  -6.5656  -6.5654  -6.5652  -6.5613
    -6.5445  -6.5443  -6.5433  -6.5432  -6.5431  -6.5388  -6.5130  -6.5067
     4.4079   4.4117   4.4913   4.4953   4.7857   4.7858   4.7867   4.7867
     4.8049   4.8054   5.1127   5.1131   5.1919   5.1939   5.2822   5.2838
     5.3200   5.3245   5.3255   5.3256   5.4133   5.4161   5.4168   5.4168
     5.4951   5.4958   5.6551   5.6564   5.6584   5.6584   5.7586   5.7589
     6.2285   6.2321   6.2339   6.2341   6.3060   6.3072   6.3754   6.3772
     6.7103   6.7109   6.7112   6.7112   6.8176   6.8176   7.0396   7.0397
     7.0417   7.0420   7.1259   7.1290   7.2485   7.2505   7.5149   7.5154
     7.5173   7.5175   7.7539   7.7543   7.8001   7.8002   7.8007   7.8009
     7.8095   7.8097   7.8679   7.8695   8.1132   8.1138   8.2351   8.2363
     8.7361   8.7369   8.7374   8.7388   8.7390   8.7391   8.8949   8.8952
     9.0942   9.0966   9.2245   9.2264   9.5141   9.5151   9.5153   9.5154
     9.5834   9.5842  10.0699  10.0729  10.0731  10.0731  10.3488  10.3501
    11.8387  11.8388  11.9891  11.9892  11.9893  11.9894  12.1013  12.1015
    12.1355  12.1357  12.2435  12.2438  12.3489  12.3490  12.3491  12.3492
    12.3914  12.3915  12.4725  12.4725  12.4728  12.4728  12.5049  12.5051
    12.5375  12.5378  12.7411  12.7414  12.8037  12.8038  12.8039  12.8041
    13.0055  13.0057  13.1778  13.1779  13.2102  13.2107  13.2107  13.2108
    13.2887  13.2889  13.4451  13.4454  13.4456  13.4457  13.7087  13.7088
    13.9947  13.9956  13.9958  13.9959  14.2508  14.2509  14.4284  14.4285
    14.4286  14.4287  14.4408  14.4408  14.6552  14.6553  14.8995  14.8998
    14.9202  14.9205  15.1609  15.1611  15.3801  15.3801  15.3803  15.3804
    15.6356  15.6356  16.0406  16.0408  16.0409  16.0411  16.0786  16.0787
    21.6474  21.6484  22.6277  22.6281  22.6288  22.6307  23.2184  23.2195
    24.0311  24.0324  24.0408  24.0413  24.0420  24.0440  24.9703  24.9706
    24.9894  24.9907  25.2973  25.2984  25.6867  25.6873  25.6880  25.6890
    25.9862  25.9874  26.2947  26.2950  26.6423  26.6425  26.6443  26.6443
    26.8774  26.8779  26.9037  26.9044  26.9044  26.9055  26.9233  26.9247
    27.0500  27.0501  27.3474  27.3481  27.3483  27.3492  27.7450  27.7461
    28.3543  28.3544  28.4646  28.4654  28.4654  28.4664  28.8186  28.8190
    28.8662  28.8663  28.8668  28.8684  28.9586  28.9588  29.0599  29.0602
    29.1486  29.1487  29.3383  29.3383  29.3391  29.3391  29.5931  29.5942
    29.6015  29.6023  29.9958  29.9958  29.9962  29.9969  30.5226  30.5227
    30.7156  30.7169  30.8565  30.8568  30.8569  30.8573  31.5519  31.5519
    31.8071  31.8078  31.8079  31.8083  32.1509  32.1520  32.7562  32.7568
    33.1605  33.1611  33.1611  33.1619  33.6934  33.6935  33.7920  33.7922
    35.4336  35.4338  35.6413  35.6416  35.6417  35.6421  35.9677  35.9691
    36.0962  36.0962  36.1954  36.1955  37.0129  37.0132  37.3910  37.3916
    37.3918  37.3923  37.6424  37.6432  37.6516  37.6527  38.0262  38.0263
    38.0268  38.0272  38.4589  38.4593  38.4596  38.4598  38.5697  38.5704
    38.6572  38.6575  38.6576  38.6578  38.8961  38.8964  38.9202  38.9213
    39.6881  39.6888  40.0055  40.0056  40.0057  40.0069  40.4208  40.4209
    40.4213  40.4218  40.4897  40.4901  41.0398  41.0403  41.1681  41.1687
    41.1688  41.1690  41.3714  41.3718  41.5716  41.5719  41.8633  41.8633
    41.8773  41.8776  42.7083  42.7083  42.7086  42.7091  43.1234  43.1238
    43.2014  43.2020  43.2020  43.2026  43.4113  43.4115  44.1315  44.1318
    44.6253  44.6256  44.6257  44.6261  44.7849  44.7851  45.0783  45.0788
    45.3288  45.3291  45.3689  45.3692  45.4526  45.4533  45.4533  45.4535
    45.7232  45.7233  46.4058  46.4061  46.4063  46.4064  46.8022  46.8032
[...]
    49.2592  49.2595  49.5097  49.5099  49.5100  49.5105  49.6234  49.6235
    50.0675  50.0676  50.2380  50.2382  50.7251  50.7253  50.7255  50.7262
    51.1683  51.1684  51.1686  51.1688  51.2547  51.2553  51.3724  51.3726
    51.5975  51.5982  51.6333  51.6337  51.9659  51.9660  51.9665  51.9668
    52.1872  52.1875  52.1881  52.1882  52.1904  52.1911  52.2852  52.2858
    52.3903  52.3906  52.3907  52.3912  52.5207  52.5208  52.7162  52.7163
    52.7171  52.7172  52.8222  52.8223  52.8960  52.8968  53.0192  53.0199
    53.3205  53.3208  53.3595  53.3596  53.3599  53.3610  53.5962  53.5969
    53.6868  53.6872  53.7404  53.7409  53.8576  53.8579  53.8585  53.8589
    53.8681  53.8687  54.3701  54.3702  54.3705  54.3706  54.5537  54.5544
    55.0022  55.0034  55.1731  55.1736  55.1739  55.1746  55.4127  55.4133
    55.4135  55.4142  55.5764  55.5767  55.7927  55.7934  56.0208  56.0210
    56.7299  56.7310  57.0665  57.0668  57.1134  57.1137  57.1138  57.1149
    57.2634  57.2640  57.3117  57.3120  57.3123  57.3132  57.4192  57.4198
    57.5129  57.5134  57.6052  57.6063  58.2288  58.2290  58.2294  58.2299

     the Fermi energy is    11.3873 ev

!    total energy              =   -4439.68291419 Ry
     Harris-Foulkes estimate   =   -4439.68291467 Ry
     estimated scf accuracy    <       0.00000054 Ry

     The total energy is the sum of the following terms:

     one-electron contribution =   -2118.27682620 Ry
     hartree contribution      =    1288.01007940 Ry
     xc contribution           =    -649.33067779 Ry
     ewald contribution        =   -2960.06000834 Ry
     Hubbard energy            =      -0.02741486 Ry
     smearing contrib. (-TS)   =       0.00193359 Ry

     total magnetization       =    47.98 Bohr mag/cell
     absolute magnetization    =    49.33 Bohr mag/cell

     convergence has been achieved in   5 iterations

     Writing output data file pwscf.save

     General routines

     Parallel routines
     Hubbard U routines

   This run was terminated on:  15:48:59  14Feb2014

   JOB DONE.