     Program PWSCF v.5.0.2 (svn rev. 9656) starts on 14Feb2014 at  9:20:54

     Current dimensions of program PWSCF are:
     Max number of different atomic species (ntypx) = 10
     Max number of k-points (npk) =  40000
     Max angular momentum in pseudopotentials (lmaxx) =  3
     Reading input from alpha_-0.15/alpha_-0.15.in
Warning: card &IONS ignored
Warning: card / ignored
Warning: card &CELL ignored
Warning: card / ignored

     Subspace diagonalization in iterative solution of the eigenvalue problem:
     a serial algorithm will be used

     bravais-lattice index     =            0
     lattice parameter (alat)  =      16.4784  a.u.
     unit-cell volume          =    2914.5930 (a.u.)^3
     number of atoms/cell      =           48
     number of atomic types    =            3
     number of electrons       =       432.00
     number of Kohn-Sham states=          624
     kinetic-energy cutoff     =      40.0000  Ry
     charge density cutoff     =     500.0000  Ry
     convergence threshold     =      1.0E-06
     mixing beta               =       0.7000
     number of iterations used =            8  plain     mixing
     Exchange-correlation      = SLA  PW   PBE  PBE ( 1 4 3 4 0)
     EXX-fraction              =        0.00

     celldm(1)=  16.478412  celldm(2)=   0.000000  celldm(3)=   0.000000
     celldm(4)=   0.000000  celldm(5)=   0.000000  celldm(6)=   0.000000

     crystal axes: (cart. coord. in units of alat)
               a(1) = (   1.000000   0.000000   0.000000 )
               a(2) = (   0.000000   1.000000   0.000000 )
               a(3) = (   0.000000   0.000000   0.651376 )

     reciprocal axes: (cart. coord. in units 2 pi/alat)
               b(1) = (  1.000000  0.000000  0.000000 )
               b(2) = (  0.000000  1.000000  0.000000 )
               b(3) = (  0.000000  0.000000  1.535211 )

     PseudoPot. # 1 for Mn read from file:
     /home/camp/zhonxu/pseudo/mn_pbe_v1.uspp.F.UPF
     MD5 check sum: 5fd7c7b5c956fd19902447332617373a
     Pseudo is Ultrasoft + core correction, Zval = 15.0
     Generated by new atomic code, or converted to UPF format
     Using radial grid of  859 points,  6 beta functions with:
                l(1) =   0
                l(2) =   0
                l(3) =   1
                l(4) =   1
                l(5) =   2
                l(6) =   2
     Q(r) pseudized with  6 coefficients,  rinner =    1.150   1.150   1.150
                                                       1.150   1.150

     PseudoPot. # 2 for O  read from file:
     /home/camp/zhonxu/pseudo/o_pbe_v1.01.uspp.F.UPF
     MD5 check sum: 2bcb18d16ea4b960afae9ec6d52f22d2
     Pseudo is Ultrasoft + core correction, Zval =  6.0
     Generated by new atomic code, or converted to UPF format
     Using radial grid of  737 points,  5 beta functions with:
                l(1) =   0
                l(2) =   0
                l(3) =   1
                l(4) =   1
                l(5) =   2
     Q(r) pseudized with  8 coefficients,  rinner =    0.900   0.900   0.900
                                                       0.900   0.900

     PseudoPot. # 3 for O  read from file:
     /home/camp/zhonxu/pseudo/o_pbe_v1.01.uspp.F.UPF
     MD5 check sum: 2bcb18d16ea4b960afae9ec6d52f22d2
     Pseudo is Ultrasoft + core correction, Zval =  6.0
     Generated by new atomic code, or converted to UPF format
     Using radial grid of  737 points,  5 beta functions with:
                l(1) =   0
                l(2) =   0
                l(3) =   1
                l(4) =   1
                l(5) =   2
     Q(r) pseudized with  8 coefficients,  rinner =    0.900   0.900   0.900
                                                       0.900   0.900

     atomic species   valence    mass     pseudopotential
        Mn0           15.00    54.93800     Mn( 1.00)
        O1             6.00    15.99940     O ( 1.00)
        O2             6.00    15.99940     O ( 1.00)

     Starting magnetic structure
     atomic species   magnetization
        Mn0          0.600
        O1           0.000
        O2           0.000

     Simplified LDA+U calculation (l_max = 2) with parameters (eV):
     atomic species    L          U    alpha       J0     beta
        Mn0            2     0.0000   0.0000   0.0000   0.0000
        O1             1     0.0000  -0.1500   0.0000   0.0000
        O2             1     0.0000   0.0000   0.0000   0.0000

      4 Sym. Ops. (no inversion) found

   Cartesian axes

     site n.     atom                  positions (alat units)
         1           Mn0 tau(   1) = (  -0.1500000  -0.1500000   0.0000000  )
         2           Mn0 tau(   2) = (   0.1000000   0.1000000   0.1628440  )
         3           Mn0 tau(   3) = (  -0.1500000  -0.1500000   0.3256881  )
         4           Mn0 tau(   4) = (   0.1000000   0.1000000   0.4885321  )
         5           Mn0 tau(   5) = (  -0.1500000   0.3500000   0.0000000  )
         6           Mn0 tau(   6) = (   0.1000000   0.6000000   0.1628440  )
         7           Mn0 tau(   7) = (  -0.1500000   0.3500000   0.3256881  )
         8           Mn0 tau(   8) = (   0.1000000   0.6000000   0.4885321  )
         9           Mn0 tau(   9) = (   0.3500000  -0.1500000   0.0000000  )
        10           Mn0 tau(  10) = (   0.6000000   0.1000000   0.1628440  )
        11           Mn0 tau(  11) = (   0.3500000  -0.1500000   0.3256881  )
        12           Mn0 tau(  12) = (   0.6000000   0.1000000   0.4885321  )
        13           Mn0 tau(  13) = (   0.3500000   0.3500000   0.0000000  )
        14           Mn0 tau(  14) = (   0.6000000   0.6000000   0.1628440  )
        15           Mn0 tau(  15) = (   0.3500000   0.3500000   0.3256881  )
        16           Mn0 tau(  16) = (   0.6000000   0.6000000   0.4885321  )
        17           O1  tau(  17) = (   0.0000000   0.0000000   0.0000000  )
        18           O2  tau(  18) = (  -0.3000000  -0.3000000   0.0000000  )
        19           O2  tau(  19) = (   0.2500000  -0.0500000   0.1628440  )
        20           O2  tau(  20) = (  -0.0500000   0.2500000   0.1628440  )
        21           O2  tau(  21) = (   0.0000000   0.0000000   0.3256881  )
        22           O2  tau(  22) = (  -0.3000000  -0.3000000   0.3256881  )
        23           O2  tau(  23) = (   0.2500000  -0.0500000   0.4885321  )
        24           O2  tau(  24) = (  -0.0500000   0.2500000   0.4885321  )
        25           O2  tau(  25) = (   0.0000000   0.5000000   0.0000000  )
        26           O2  tau(  26) = (  -0.3000000   0.2000000   0.0000000  )
        27           O2  tau(  27) = (   0.2500000   0.4500000   0.1628440  )
        28           O2  tau(  28) = (  -0.0500000   0.7500000   0.1628440  )
        29           O2  tau(  29) = (   0.0000000   0.5000000   0.3256881  )
        30           O2  tau(  30) = (  -0.3000000   0.2000000   0.3256881  )
        31           O2  tau(  31) = (   0.2500000   0.4500000   0.4885321  )
        32           O2  tau(  32) = (  -0.0500000   0.7500000   0.4885321  )
        33           O2  tau(  33) = (   0.5000000   0.0000000   0.0000000  )
        34           O2  tau(  34) = (   0.2000000  -0.3000000   0.0000000  )
        35           O2  tau(  35) = (   0.7500000  -0.0500000   0.1628440  )
        36           O2  tau(  36) = (   0.4500000   0.2500000   0.1628440  )
        37           O2  tau(  37) = (   0.5000000   0.0000000   0.3256881  )
        38           O2  tau(  38) = (   0.2000000  -0.3000000   0.3256881  )
        39           O2  tau(  39) = (   0.7500000  -0.0500000   0.4885321  )
        40           O2  tau(  40) = (   0.4500000   0.2500000   0.4885321  )
        41           O2  tau(  41) = (   0.5000000   0.5000000   0.0000000  )
        42           O2  tau(  42) = (   0.2000000   0.2000000   0.0000000  )
        43           O2  tau(  43) = (   0.7500000   0.4500000   0.1628440  )
        44           O2  tau(  44) = (   0.4500000   0.7500000   0.1628440  )
        45           O2  tau(  45) = (   0.5000000   0.5000000   0.3256881  )
        46           O2  tau(  46) = (   0.2000000   0.2000000   0.3256881  )
        47           O2  tau(  47) = (   0.7500000   0.4500000   0.4885321  )
        48           O2  tau(  48) = (   0.4500000   0.7500000   0.4885321  )

     number of k points=    42  Methfessel-Paxton smearing, width (Ry)=  0.0100
                       cart. coord. in units 2pi/alat
        k(    1) = (   0.0000000   0.0000000   0.0000000), wk =   0.0156250
        k(    2) = (   0.0000000   0.0000000   0.3838028), wk =   0.0312500
        k(    3) = (   0.0000000   0.0000000  -0.7676056), wk =   0.0156250
        k(    4) = (   0.0000000   0.2500000   0.0000000), wk =   0.0625000
        k(    5) = (   0.0000000   0.2500000   0.3838028), wk =   0.1250000
        k(    6) = (   0.0000000   0.2500000  -0.7676056), wk =   0.0625000
        k(    7) = (   0.0000000  -0.5000000   0.0000000), wk =   0.0312500
        k(    8) = (   0.0000000  -0.5000000   0.3838028), wk =   0.0625000
        k(    9) = (   0.0000000  -0.5000000  -0.7676056), wk =   0.0312500
        k(   10) = (   0.2500000   0.2500000   0.0000000), wk =   0.0312500
        k(   11) = (   0.2500000   0.2500000   0.3838028), wk =   0.0625000
        k(   12) = (   0.2500000   0.2500000  -0.7676056), wk =   0.0312500
        k(   13) = (   0.2500000  -0.5000000   0.0000000), wk =   0.0625000
        k(   14) = (   0.2500000  -0.5000000   0.3838028), wk =   0.1250000
        k(   15) = (   0.2500000  -0.5000000  -0.7676056), wk =   0.0625000
        k(   16) = (  -0.5000000  -0.5000000   0.0000000), wk =   0.0156250
        k(   17) = (  -0.5000000  -0.5000000   0.3838028), wk =   0.0312500
        k(   18) = (  -0.5000000  -0.5000000  -0.7676056), wk =   0.0156250
        k(   19) = (   0.2500000  -0.2500000   0.0000000), wk =   0.0312500
        k(   20) = (   0.2500000  -0.2500000   0.3838028), wk =   0.0625000
        k(   21) = (   0.2500000  -0.2500000  -0.7676056), wk =   0.0312500
        k(   22) = (   0.0000000   0.0000000   0.0000000), wk =   0.0156250
        k(   23) = (   0.0000000   0.0000000   0.3838028), wk =   0.0312500
        k(   24) = (   0.0000000   0.0000000  -0.7676056), wk =   0.0156250
        k(   25) = (   0.0000000   0.2500000   0.0000000), wk =   0.0625000
        k(   26) = (   0.0000000   0.2500000   0.3838028), wk =   0.1250000
        k(   27) = (   0.0000000   0.2500000  -0.7676056), wk =   0.0625000
        k(   28) = (   0.0000000  -0.5000000   0.0000000), wk =   0.0312500
        k(   29) = (   0.0000000  -0.5000000   0.3838028), wk =   0.0625000
        k(   30) = (   0.0000000  -0.5000000  -0.7676056), wk =   0.0312500
        k(   31) = (   0.2500000   0.2500000   0.0000000), wk =   0.0312500
        k(   32) = (   0.2500000   0.2500000   0.3838028), wk =   0.0625000
        k(   33) = (   0.2500000   0.2500000  -0.7676056), wk =   0.0312500
        k(   34) = (   0.2500000  -0.5000000   0.0000000), wk =   0.0625000
        k(   35) = (   0.2500000  -0.5000000   0.3838028), wk =   0.1250000
        k(   36) = (   0.2500000  -0.5000000  -0.7676056), wk =   0.0625000
[...]
    eigenvectors:
  0.000  1.000  0.000
  0.500  0.000  0.500
  0.500  0.000  0.500
    occupations:
  0.858 -0.000 -0.000
 -0.000  0.921 -0.073
 -0.000 -0.073  0.921
   spin  2
    eigenvalues:
  0.869  0.873  0.883
    eigenvectors:
  0.000  0.000  1.000
  0.500  0.500  0.000
  0.500  0.500  0.000
    occupations:
  0.883 -0.000 -0.000
 -0.000  0.871  0.002
 -0.000  0.002  0.871
atomic mag. moment =     0.075193
atom   42   Tr[ns(na)] (up, down, total) =   2.69905  2.62410  5.32316
   spin  1
    eigenvalues:
  0.848  0.857  0.994
    eigenvectors:
  0.000  1.000  0.000
  0.500  0.000  0.500
  0.500  0.000  0.500
    occupations:
  0.857 -0.000 -0.000
 -0.000  0.921 -0.073
 -0.000 -0.073  0.921
   spin  2
    eigenvalues:
  0.869  0.873  0.883
    eigenvectors:
  0.000  0.000  1.000
  0.500  0.500  0.000
  0.500  0.500  0.000
    occupations:
  0.883 -0.000 -0.000
 -0.000  0.871  0.002
 -0.000  0.002  0.871
atomic mag. moment =     0.074949
atom   43   Tr[ns(na)] (up, down, total) =   2.69937  2.62423  5.32360
   spin  1
    eigenvalues:
  0.848  0.858  0.994
    eigenvectors:
  0.000  1.000  0.000
  0.500  0.000  0.500
  0.500  0.000  0.500
    occupations:
  0.858 -0.000  0.000
 -0.000  0.921  0.073
  0.000  0.073  0.921
   spin  2
    eigenvalues:
  0.869  0.873  0.883
    eigenvectors:
  0.000  0.000  1.000
  0.500  0.500  0.000
  0.500  0.500  0.000
    occupations:
  0.883  0.000  0.000
  0.000  0.871 -0.002
  0.000 -0.002  0.871
atomic mag. moment =     0.075144
atom   44   Tr[ns(na)] (up, down, total) =   2.69937  2.62423  5.32360
   spin  1
    eigenvalues:
  0.848  0.858  0.994
    eigenvectors:
  0.000  1.000  0.000
  0.500  0.000  0.500
  0.500  0.000  0.500
    occupations:
  0.858  0.000 -0.000
  0.000  0.921  0.073
 -0.000  0.073  0.921
   spin  2
    eigenvalues:
  0.869  0.873  0.883
    eigenvectors:
  0.000  0.000  1.000
  0.500  0.500  0.000
  0.500  0.500  0.000
    occupations:
  0.883  0.000  0.000
  0.000  0.871 -0.002
  0.000 -0.002  0.871
atomic mag. moment =     0.075144
atom   45   Tr[ns(na)] (up, down, total) =   2.69947  2.62417  5.32364
   spin  1
    eigenvalues:
  0.848  0.858  0.994
    eigenvectors:
  0.000  1.000  0.000
  0.500  0.000  0.500
  0.500  0.000  0.500
    occupations:
  0.858 -0.000 -0.000
 -0.000  0.921 -0.073
 -0.000 -0.073  0.921
   spin  2
    eigenvalues:
  0.869  0.873  0.883
    eigenvectors:
  0.000  0.000  1.000
  0.500  0.500  0.000
  0.500  0.500  0.000
    occupations:
  0.883 -0.000 -0.000
 -0.000  0.871  0.002
 -0.000  0.002  0.871
atomic mag. moment =     0.075293
atom   46   Tr[ns(na)] (up, down, total) =   2.69933  2.62445  5.32378
   spin  1
    eigenvalues:
  0.848  0.857  0.994
    eigenvectors:
  0.000  1.000  0.000
  0.500  0.000  0.500
  0.500  0.000  0.500
    occupations:
  0.857 -0.000 -0.000
 -0.000  0.921 -0.073
 -0.000 -0.073  0.921
   spin  2
    eigenvalues:
  0.869  0.873  0.883
    eigenvectors:
  0.000  0.000  1.000
  0.500  0.500  0.000
  0.500  0.500  0.000
    occupations:
  0.883 -0.000 -0.000
 -0.000  0.871  0.002
 -0.000  0.002  0.871
atomic mag. moment =     0.074880
atom   47   Tr[ns(na)] (up, down, total) =   2.69937  2.62423  5.32360
   spin  1
    eigenvalues:
  0.848  0.858  0.994
    eigenvectors:
  0.000  1.000  0.000
  0.500  0.000  0.500
  0.500  0.000  0.500
    occupations:
  0.858  0.000 -0.000
  0.000  0.921  0.073
 -0.000  0.073  0.921
   spin  2
    eigenvalues:
  0.869  0.873  0.883
    eigenvectors:
  0.000  0.000  1.000
  0.500  0.500  0.000
  0.500  0.500  0.000
    occupations:
  0.883 -0.000 -0.000
 -0.000  0.871 -0.002
 -0.000 -0.002  0.871
atomic mag. moment =     0.075144
atom   48   Tr[ns(na)] (up, down, total) =   2.69937  2.62423  5.32360
   spin  1
    eigenvalues:
  0.848  0.858  0.994
    eigenvectors:
  0.000  1.000  0.000
  0.500  0.000  0.500
  0.500  0.000  0.500
    occupations:
  0.858 -0.000  0.000
 -0.000  0.921  0.073
  0.000  0.073  0.921
   spin  2
    eigenvalues:
  0.869  0.873  0.883
    eigenvectors:
  0.000  0.000  1.000
  0.500  0.500  0.000
  0.500  0.500  0.000
    occupations:
  0.883 -0.000 -0.000
 -0.000  0.871 -0.002
 -0.000 -0.002  0.871
atomic mag. moment =     0.075144
N of occupied +U levels = 259.2800663
 --- exit write_ns ---

 ------ SPIN UP ------------

          k = 0.0000 0.0000 0.0000 ( 12425 PWs)   bands (ev):

   -70.7918 -70.7877 -70.7860 -70.7851 -70.7850 -70.7850 -70.7846 -70.7836
   -70.7816 -70.7761 -70.7751 -70.7748 -70.7747 -70.7747 -70.7744 -70.7744
   -39.6326 -39.6279 -39.6274 -39.6273 -39.6271 -39.6269 -39.6268 -39.6265
   -39.5126 -39.5088 -39.5063 -39.5058 -39.5057 -39.5057 -39.5053 -39.5010
   -39.4458 -39.4439 -39.4419 -39.4419 -39.4398 -39.4387 -39.4381 -39.4377
   -39.4239 -39.4196 -39.4188 -39.4186 -39.4184 -39.4183 -39.4182 -39.4179
   -39.3860 -39.3835 -39.3823 -39.3819 -39.3796 -39.3793 -39.3778 -39.3778
   -39.3776 -39.3739 -39.3730 -39.3730 -39.3728 -39.3727 -39.3724 -39.3721
    -8.9479  -8.0244  -8.0237  -8.0230  -8.0144  -7.8735  -7.8688  -7.2347
    -7.2307  -7.1390  -7.1389  -7.1385  -7.1309  -7.0397  -7.0358  -6.9611
    -6.9435  -6.9395  -6.8757  -6.8755  -6.8755  -6.8681  -6.8503  -6.8434
    -6.7942  -6.7886  -6.6868  -6.6866  -6.6864  -6.6754  -6.6205  -6.6139
     2.9987   3.3765   3.3814   3.6739   3.9901   3.9963   3.9990   3.9993
     4.0684   4.0748   4.0769   4.0772   4.2314   4.2467   4.2473   4.3039
     4.3043   4.4908   4.4909   4.9219   4.9267   4.9270   4.9273   5.2685
     5.2715   5.3375   5.3405   5.3436   5.3451   5.4500   5.4552   5.4553
     5.4554   5.5546   5.5559   5.5878   5.5893   5.8819   5.8829   5.8855
     5.8855   5.9362   5.9370   5.9419   5.9421   6.1944   6.1948   6.1981
     6.1983   6.3954   6.3983   6.4345   6.4371   6.8107   6.8152   6.8168
     6.8180   7.0388   7.0408   7.0463   7.0478   7.0711   7.0722   7.0734
     7.0737   7.2008   7.2019   7.2033   7.2052   7.4767   7.4800   7.4806
     7.4810   7.6835   7.7314   7.7326   8.2234   8.2242   8.4162   8.5029
     8.5033   8.5316   8.5317   8.5324   8.5326   8.6564   8.6720   8.6758
     8.7643   8.7651   8.7831   8.7837   8.7925   8.9468   8.9471   9.1824
     9.1841   9.1865   9.1869   9.1883   9.1886   9.2348   9.2357   9.2524
     9.2534   9.2557   9.2570   9.2572   9.2575   9.2606   9.2652   9.2659
     9.2664   9.6328   9.6424   9.6458   9.6460   9.6463  10.0036  10.0043
    10.0592  10.0609  10.0620  10.0624  10.3226  10.3240  10.3671  10.3688
    10.4496  10.4521  10.5846  10.6054  10.6093  10.6095  10.6098  11.1444
    11.1460  11.2716  11.2828  11.3093  11.3125  11.3130  11.3132  11.3564
    11.3579  11.5732  11.5742  11.5745  11.5747  12.7897  12.7905  12.9923
    12.9939  13.0326  13.0336  13.0631  13.0640  13.5248  13.5255  13.6575
    13.6603  13.6605  13.6606  13.7425  13.7441  13.7446  13.7449  13.9354
    13.9367  13.9686  13.9698  14.7442  14.7446  14.7458  14.7459  15.1085
    19.2455  21.6185  21.6187  21.6207  21.6237  22.3930  22.3937  22.9096
    22.9102  23.1088  23.1093  23.8949  23.8951  23.8964  23.8964  23.9053
    23.9060  23.9790  23.9792  23.9797  23.9818  24.0314  24.0320  24.3307
    24.3314  25.0486  25.5820  25.5825  25.5830  25.5831  26.2678  26.2682
    26.3000  26.4726  26.6085  26.6096  26.6697  26.6699  26.8530  26.8541
    26.9810  26.9823  26.9835  26.9844  27.6381  27.6383  27.6874  27.6877
    27.6878  27.6898  27.8075  27.8077  27.8087  27.8089  27.8900  27.8908
    28.0005  28.0006  28.0022  28.0032  28.4885  28.4895  28.4896  28.4908
    28.6294  28.6298  28.6883  28.6886  28.8231  28.8232  28.8250  28.8274
    29.0817  29.3114  29.3116  29.4830  29.4845  30.2566  30.3468  30.3468
    30.3546  30.3554  30.5066  30.5066  30.6969  30.6969  30.6977  30.6983
    31.3280  32.7332  32.7334  32.7342  32.7363  32.8294  32.8296  32.8558
    32.8561  33.1114  33.1118  33.3874  33.3875  33.3912  33.3925  33.9373
    33.9377  33.9385  33.9392  33.9595  33.9596  35.1172  35.1468  35.1469
    35.1469  35.1478  35.1481  35.1494  35.3969  35.3981  35.8343  36.4352
    36.4353  37.0187  37.0191  37.1370  37.1371  37.3819  37.4401  37.4415
    37.4418  37.4426  37.5019  37.5030  38.3435  38.3438  38.3447  38.3455
    38.3652  38.3656  38.4336  39.0685  39.0689  39.0702  39.0703  39.1738
    39.1749  39.2964  39.2965  39.2968  39.2970  39.3308  39.3320  39.5162
    39.5163  39.5177  39.5178  39.5821  39.5821  39.8752  39.9798  39.9810
    40.1760  40.1764  40.1772  40.1774  40.1964  40.1966  40.9448  40.9449
    40.9455  40.9456  41.1434  42.0920  42.0938  42.1944  42.6737  42.6745
    42.7092  42.7100  42.9715  42.9726  43.0154  43.0158  44.0098  44.0099
    44.0099  44.0131  44.2614  44.2624  44.2624  44.2625  44.4989  44.4992
    45.3789  45.3806  45.4047  45.4057  45.4210  45.4218  45.4787  45.4800
    45.5936  45.6539  45.6544  45.6550  45.6561  45.7321  45.7327  45.7332
[...]
    48.4695  48.4697  48.5012  48.5021  48.5021  48.5042  48.8753  49.2145
    49.2152  49.4038  49.4045  49.6992  49.6997  49.8065  49.8073  50.1291
    50.1300  50.1312  50.1318  50.3595  50.3601  50.3605  50.3616  50.3970
    50.3972  50.3973  50.3977  50.6052  50.6058  50.6182  50.6186  50.7089
    50.9470  50.9481  51.8756  51.8766  51.8778  51.8785  52.0323  52.0332
    52.1604  52.1609  52.1704  52.2036  52.2044  52.2051  52.2059  52.5554
    52.5565  52.8481  52.8482  52.8931  52.8938  52.9164  52.9171  52.9176
    52.9183  53.5817  53.5825  53.5831  53.5836  53.6587  53.6590  53.6590
    53.6609  53.6730  54.1579  54.1580  54.1584  54.1588  54.2511  54.2518
    54.3760  54.4258  54.4259  54.6467  54.6471  54.7936  54.7940  54.9458
    54.9471  55.0680  55.0687  55.1755  55.1755  55.1773  55.1811  55.2827
    55.2837  55.7552  55.7553  55.7569  55.7572  55.8315  56.1331  56.1334
    56.1611  56.1612  56.1617  56.1623  56.2017  56.2023  56.4752  56.4752
    56.8119  56.8128  56.9515  56.9518  56.9529  56.9534  57.0100  57.0100
    57.7873  57.9691  57.9695  58.0121  58.0127  58.1274  58.1280  58.1625

[...]

          k =-0.5000-0.5000 0.0000 ( 12432 PWs)   bands (ev):

[...]

 ------ SPIN DOWN ----------

[...]

          k =-0.5000-0.5000-0.7676 ( 12448 PWs)   bands (ev):

[...]

          k = 0.2500-0.2500-0.7676 ( 12434 PWs)   bands (ev):

   -67.4805 -67.4804 -67.4776 -67.4766 -67.4762 -67.4761 -67.4759 -67.4757
   -67.4757 -67.4755 -67.4754 -67.4751 -67.4750 -67.4749 -67.4745 -67.4744
   -36.3725 -36.3723 -36.3705 -36.3703 -36.3694 -36.3693 -36.3686 -36.3684
   -36.3675 -36.3673 -36.3668 -36.3665 -36.3662 -36.3661 -36.3637 -36.3636
   -36.2429 -36.2422 -36.2400 -36.2399 -36.2390 -36.2389 -36.2384 -36.2380
   -36.2379 -36.2378 -36.2374 -36.2372 -36.2371 -36.2369 -36.2352 -36.2352
   -36.1900 -36.1898 -36.1894 -36.1894 -36.1892 -36.1888 -36.1872 -36.1872
   -36.1868 -36.1868 -36.1867 -36.1866 -36.1858 -36.1858 -36.1853 -36.1849
    -8.0244  -8.0189  -7.6494  -7.6494  -7.6488  -7.6412  -7.4197  -7.4121
    -7.1507  -7.1505  -7.0762  -7.0758  -7.0756  -7.0630  -6.6714  -6.6698
    -6.6461  -6.6379  -6.6223  -6.6207  -6.5668  -6.5664  -6.5663  -6.5595
    -6.5457  -6.5453  -6.5443  -6.5442  -6.5441  -6.5349  -6.5144  -6.4956
     4.4019   4.4105   4.4859   4.4940   4.7836   4.7837   4.7857   4.7858
     4.8033   4.8043   5.1110   5.1120   5.1879   5.1922   5.2792   5.2828
     5.3129   5.3223   5.3245   5.3248   5.4085   5.4143   5.4159   5.4160
     5.4921   5.4935   5.6507   5.6531   5.6573   5.6574   5.7571   5.7577
     6.2213   6.2290   6.2329   6.2331   6.3039   6.3062   6.3720   6.3758
     6.7085   6.7098   6.7102   6.7104   6.8166   6.8166   7.0360   7.0360
     7.0406   7.0411   7.1214   7.1277   7.2453   7.2492   7.5113   7.5123
     7.5164   7.5165   7.7523   7.7532   7.7982   7.7987   7.7998   7.7999
     7.8085   7.8087   7.8652   7.8685   8.1101   8.1113   8.2318   8.2343
     8.7322   8.7360   8.7364   8.7373   8.7380   8.7381   8.8939   8.8944
     9.0904   9.0955   9.2214   9.2252   9.5115   9.5138   9.5144   9.5145
     9.5815   9.5831  10.0654  10.0718  10.0720  10.0723  10.3465  10.3491
    11.8379  11.8381  11.9880  11.9882  11.9884  11.9889  12.1004  12.1008
    12.1345  12.1349  12.2425  12.2431  12.3481  12.3482  12.3483  12.3483
    12.3904  12.3907  12.4716  12.4717  12.4718  12.4719  12.5040  12.5043
    12.5362  12.5368  12.7397  12.7404  12.8023  12.8027  12.8031  12.8033
    13.0046  13.0049  13.1769  13.1771  13.2088  13.2097  13.2097  13.2100
    13.2874  13.2880  13.4439  13.4444  13.4448  13.4448  13.7075  13.7078
    13.9926  13.9949  13.9950  13.9952  14.2497  14.2499  14.4273  14.4273
    14.4278  14.4279  14.4398  14.4399  14.6543  14.6544  14.8979  14.8987
    14.9187  14.9194  15.1599  15.1603  15.3788  15.3790  15.3793  15.3794
    15.6344  15.6345  16.0395  16.0396  16.0398  16.0400  16.0775  16.0776
    21.6470  21.6492  22.6265  22.6276  22.6288  22.6330  23.2180  23.2203
    24.0303  24.0327  24.0397  24.0407  24.0421  24.0469  24.9704  24.9710
    24.9884  24.9913  25.2965  25.2990  25.6857  25.6870  25.6884  25.6906
    25.9856  25.9882  26.2946  26.2951  26.6413  26.6418  26.6453  26.6454
    26.8770  26.8782  26.9028  26.9041  26.9043  26.9064  26.9227  26.9259
    27.0503  27.0504  27.3464  27.3479  27.3483  27.3502  27.7443  27.7468
    28.3541  28.3542  28.4637  28.4653  28.4654  28.4675  28.8184  28.8193
    28.8653  28.8657  28.8668  28.8702  28.9582  28.9588  29.0596  29.0603
    29.1484  29.1488  29.3379  29.3379  29.3395  29.3396  29.5924  29.5948
    29.6011  29.6029  29.9953  29.9953  29.9961  29.9977  30.5225  30.5228
    30.7148  30.7178  30.8558  30.8565  30.8568  30.8577  31.5519  31.5519
    31.8062  31.8078  31.8081  31.8089  32.1502  32.1526  32.7557  32.7571
    33.1596  33.1610  33.1611  33.1627  33.6931  33.6933  33.7917  33.7922
    35.4335  35.4337  35.6409  35.6413  35.6416  35.6424  35.9669  35.9701
    36.0960  36.0960  36.1954  36.1957  37.0127  37.0133  37.3903  37.3916
    37.3920  37.3931  37.6419  37.6436  37.6512  37.6534  38.0257  38.0259
    38.0269  38.0279  38.4582  38.4591  38.4598  38.4601  38.5694  38.5710
    38.6567  38.6574  38.6575  38.6581  38.8959  38.8963  38.9196  38.9222
    39.6876  39.6891  40.0050  40.0052  40.0055  40.0081  40.4204  40.4206
    40.4216  40.4225  40.4894  40.4903  41.0392  41.0404  41.1675  41.1688
    41.1690  41.1695  41.3712  41.3720  41.5714  41.5719  41.8634  41.8634
    41.8772  41.8780  42.7079  42.7079  42.7086  42.7097  43.1232  43.1241
    43.2009  43.2020  43.2021  43.2033  43.4111  43.4115  44.1315  44.1320
    44.6248  44.6255  44.6256  44.6265  44.7849  44.7854  45.0781  45.0793
    45.3286  45.3293  45.3688  45.3693  45.4519  45.4534  45.4535  45.4538
    45.7230  45.7233  46.4054  46.4061  46.4065  46.4068  46.8016  46.8038
[...]
    49.2591  49.2598  49.5092  49.5095  49.5098  49.5110  49.6232  49.6234
    50.0676  50.0678  50.2377  50.2382  50.7247  50.7251  50.7254  50.7271
    51.1679  51.1682  51.1686  51.1690  51.2543  51.2555  51.3723  51.3728
    51.5969  51.5984  51.6331  51.6339  51.9653  51.9655  51.9668  51.9675
    52.1866  52.1872  52.1884  52.1886  52.1899  52.1913  52.2849  52.2863
    52.3900  52.3906  52.3907  52.3919  52.5209  52.5211  52.7155  52.7158
    52.7174  52.7178  52.8219  52.8222  52.8956  52.8973  53.0190  53.0205
    53.3201  53.3207  53.3589  53.3593  53.3598  53.3622  53.5958  53.5973
    53.6864  53.6873  53.7402  53.7412  53.8567  53.8574  53.8586  53.8595
    53.8681  53.8693  54.3698  54.3700  54.3708  54.3708  54.5533  54.5548
    55.0015  55.0043  55.1722  55.1734  55.1740  55.1757  55.4119  55.4131
    55.4135  55.4151  55.5760  55.5767  55.7922  55.7936  56.0207  56.0213
    56.7295  56.7319  57.0661  57.0667  57.1126  57.1133  57.1135  57.1159
    57.2630  57.2645  57.3110  57.3115  57.3122  57.3141  57.4187  57.4201
    57.5125  57.5137  57.6048  57.6072  58.2282  58.2287  58.2295  58.2306

     the Fermi energy is    11.3861 ev

!    total energy              =   -4439.71426150 Ry
     Harris-Foulkes estimate   =   -4439.71426180 Ry
     estimated scf accuracy    <       0.00000032 Ry

     The total energy is the sum of the following terms:

     one-electron contribution =   -2118.25015398 Ry
     hartree contribution      =    1287.98290025 Ry
     xc contribution           =    -649.33012721 Ry
     ewald contribution        =   -2960.06000834 Ry
     Hubbard energy            =      -0.05880597 Ry
     smearing contrib. (-TS)   =       0.00193376 Ry

     total magnetization       =    47.98 Bohr mag/cell
     absolute magnetization    =    49.33 Bohr mag/cell

     convergence has been achieved in   7 iterations

     Writing output data file pwscf.save

     General routines

     Parallel routines
     Hubbard U routines

   This run was terminated on:  12:50:17  14Feb2014

   JOB DONE.