     Program PWSCF v.5.0.2 (svn rev. 9656) starts on 14Feb2014 at 15:51:39

     Current dimensions of program PWSCF are:
     Max number of different atomic species (ntypx) = 10
     Max number of k-points (npk) =  40000
     Max angular momentum in pseudopotentials (lmaxx) =  3
     Reading input from alpha_0/alpha_0.in
Warning: card &IONS ignored
Warning: card / ignored
Warning: card &CELL ignored
Warning: card / ignored

     Subspace diagonalization in iterative solution of the eigenvalue problem:
     a serial algorithm will be used

     bravais-lattice index     =            0
     lattice parameter (alat)  =      16.4784  a.u.
     unit-cell volume          =    2914.5930 (a.u.)^3
     number of atoms/cell      =           48
     number of atomic types    =            3
     number of electrons       =       432.00
     number of Kohn-Sham states=          624
     kinetic-energy cutoff     =      40.0000  Ry
     charge density cutoff     =     500.0000  Ry
     convergence threshold     =      1.0E-06
     mixing beta               =       0.7000
     number of iterations used =            8  plain     mixing
     Exchange-correlation      = SLA  PW   PBE  PBE ( 1 4 3 4 0)
     EXX-fraction              =        0.00

     celldm(1)=  16.478412  celldm(2)=   0.000000  celldm(3)=   0.000000
     celldm(4)=   0.000000  celldm(5)=   0.000000  celldm(6)=   0.000000

     crystal axes: (cart. coord. in units of alat)
               a(1) = (   1.000000   0.000000   0.000000 )
               a(2) = (   0.000000   1.000000   0.000000 )
               a(3) = (   0.000000   0.000000   0.651376 )

     reciprocal axes: (cart. coord. in units 2 pi/alat)
               b(1) = (  1.000000  0.000000  0.000000 )
               b(2) = (  0.000000  1.000000  0.000000 )
               b(3) = (  0.000000  0.000000  1.535211 )

     PseudoPot. # 1 for Mn read from file:
     /home/camp/zhonxu/pseudo/mn_pbe_v1.uspp.F.UPF
     MD5 check sum: 5fd7c7b5c956fd19902447332617373a
     Pseudo is Ultrasoft + core correction, Zval = 15.0
     Generated by new atomic code, or converted to UPF format
     Using radial grid of  859 points,  6 beta functions with:
                l(1) =   0
                l(2) =   0
                l(3) =   1
                l(4) =   1
                l(5) =   2
                l(6) =   2
     Q(r) pseudized with  6 coefficients,  rinner =    1.150   1.150   1.150
                                                       1.150   1.150

     PseudoPot. # 2 for O  read from file:
     /home/camp/zhonxu/pseudo/o_pbe_v1.01.uspp.F.UPF
     MD5 check sum: 2bcb18d16ea4b960afae9ec6d52f22d2
     Pseudo is Ultrasoft + core correction, Zval =  6.0
     Generated by new atomic code, or converted to UPF format
     Using radial grid of  737 points,  5 beta functions with:
                l(1) =   0
                l(2) =   0
                l(3) =   1
                l(4) =   1
                l(5) =   2
     Q(r) pseudized with  8 coefficients,  rinner =    0.900   0.900   0.900
                                                       0.900   0.900

     PseudoPot. # 3 for O  read from file:
     /home/camp/zhonxu/pseudo/o_pbe_v1.01.uspp.F.UPF
     MD5 check sum: 2bcb18d16ea4b960afae9ec6d52f22d2
     Pseudo is Ultrasoft + core correction, Zval =  6.0
     Generated by new atomic code, or converted to UPF format
     Using radial grid of  737 points,  5 beta functions with:
                l(1) =   0
                l(2) =   0
                l(3) =   1
                l(4) =   1
                l(5) =   2
     Q(r) pseudized with  8 coefficients,  rinner =    0.900   0.900   0.900
                                                       0.900   0.900

     atomic species   valence    mass     pseudopotential
        Mn0           15.00    54.93800     Mn( 1.00)
        O1             6.00    15.99940     O ( 1.00)
        O2             6.00    15.99940     O ( 1.00)

     Starting magnetic structure
     atomic species   magnetization
        Mn0          0.600
        O1           0.000
        O2           0.000

     Simplified LDA+U calculation (l_max = 2) with parameters (eV):
     atomic species    L          U    alpha       J0     beta
        Mn0            2     0.0000   0.0000   0.0000   0.0000
        O1             1     0.0000   0.0000   0.0000   0.0000
        O2             1     0.0000   0.0000   0.0000   0.0000

      4 Sym. Ops. (no inversion) found

   Cartesian axes

     site n.     atom                  positions (alat units)
         1           Mn0 tau(   1) = (  -0.1500000  -0.1500000   0.0000000  )
         2           Mn0 tau(   2) = (   0.1000000   0.1000000   0.1628440  )
         3           Mn0 tau(   3) = (  -0.1500000  -0.1500000   0.3256881  )
         4           Mn0 tau(   4) = (   0.1000000   0.1000000   0.4885321  )
         5           Mn0 tau(   5) = (  -0.1500000   0.3500000   0.0000000  )
         6           Mn0 tau(   6) = (   0.1000000   0.6000000   0.1628440  )
         7           Mn0 tau(   7) = (  -0.1500000   0.3500000   0.3256881  )
         8           Mn0 tau(   8) = (   0.1000000   0.6000000   0.4885321  )
         9           Mn0 tau(   9) = (   0.3500000  -0.1500000   0.0000000  )
        10           Mn0 tau(  10) = (   0.6000000   0.1000000   0.1628440  )
        11           Mn0 tau(  11) = (   0.3500000  -0.1500000   0.3256881  )
        12           Mn0 tau(  12) = (   0.6000000   0.1000000   0.4885321  )
        13           Mn0 tau(  13) = (   0.3500000   0.3500000   0.0000000  )
        14           Mn0 tau(  14) = (   0.6000000   0.6000000   0.1628440  )
        15           Mn0 tau(  15) = (   0.3500000   0.3500000   0.3256881  )
        16           Mn0 tau(  16) = (   0.6000000   0.6000000   0.4885321  )
        17           O1  tau(  17) = (   0.0000000   0.0000000   0.0000000  )
        18           O2  tau(  18) = (  -0.3000000  -0.3000000   0.0000000  )
        19           O2  tau(  19) = (   0.2500000  -0.0500000   0.1628440  )
        20           O2  tau(  20) = (  -0.0500000   0.2500000   0.1628440  )
        21           O2  tau(  21) = (   0.0000000   0.0000000   0.3256881  )
        22           O2  tau(  22) = (  -0.3000000  -0.3000000   0.3256881  )
        23           O2  tau(  23) = (   0.2500000  -0.0500000   0.4885321  )
        24           O2  tau(  24) = (  -0.0500000   0.2500000   0.4885321  )
        25           O2  tau(  25) = (   0.0000000   0.5000000   0.0000000  )
        26           O2  tau(  26) = (  -0.3000000   0.2000000   0.0000000  )
        27           O2  tau(  27) = (   0.2500000   0.4500000   0.1628440  )
        28           O2  tau(  28) = (  -0.0500000   0.7500000   0.1628440  )
        29           O2  tau(  29) = (   0.0000000   0.5000000   0.3256881  )
        30           O2  tau(  30) = (  -0.3000000   0.2000000   0.3256881  )
        31           O2  tau(  31) = (   0.2500000   0.4500000   0.4885321  )
        32           O2  tau(  32) = (  -0.0500000   0.7500000   0.4885321  )
        33           O2  tau(  33) = (   0.5000000   0.0000000   0.0000000  )
        34           O2  tau(  34) = (   0.2000000  -0.3000000   0.0000000  )
        35           O2  tau(  35) = (   0.7500000  -0.0500000   0.1628440  )
        36           O2  tau(  36) = (   0.4500000   0.2500000   0.1628440  )
        37           O2  tau(  37) = (   0.5000000   0.0000000   0.3256881  )
        38           O2  tau(  38) = (   0.2000000  -0.3000000   0.3256881  )
        39           O2  tau(  39) = (   0.7500000  -0.0500000   0.4885321  )
        40           O2  tau(  40) = (   0.4500000   0.2500000   0.4885321  )
        41           O2  tau(  41) = (   0.5000000   0.5000000   0.0000000  )
        42           O2  tau(  42) = (   0.2000000   0.2000000   0.0000000  )
        43           O2  tau(  43) = (   0.7500000   0.4500000   0.1628440  )
        44           O2  tau(  44) = (   0.4500000   0.7500000   0.1628440  )
        45           O2  tau(  45) = (   0.5000000   0.5000000   0.3256881  )
        46           O2  tau(  46) = (   0.2000000   0.2000000   0.3256881  )
        47           O2  tau(  47) = (   0.7500000   0.4500000   0.4885321  )
        48           O2  tau(  48) = (   0.4500000   0.7500000   0.4885321  )

     number of k points=    42  Methfessel-Paxton smearing, width (Ry)=  0.0100
                       cart. coord. in units 2pi/alat
        k(    1) = (   0.0000000   0.0000000   0.0000000), wk =   0.0156250
        k(    2) = (   0.0000000   0.0000000   0.3838028), wk =   0.0312500
        k(    3) = (   0.0000000   0.0000000  -0.7676056), wk =   0.0156250
        k(    4) = (   0.0000000   0.2500000   0.0000000), wk =   0.0625000
        k(    5) = (   0.0000000   0.2500000   0.3838028), wk =   0.1250000
        k(    6) = (   0.0000000   0.2500000  -0.7676056), wk =   0.0625000
        k(    7) = (   0.0000000  -0.5000000   0.0000000), wk =   0.0312500
        k(    8) = (   0.0000000  -0.5000000   0.3838028), wk =   0.0625000
        k(    9) = (   0.0000000  -0.5000000  -0.7676056), wk =   0.0312500
        k(   10) = (   0.2500000   0.2500000   0.0000000), wk =   0.0312500
        k(   11) = (   0.2500000   0.2500000   0.3838028), wk =   0.0625000
        k(   12) = (   0.2500000   0.2500000  -0.7676056), wk =   0.0312500
        k(   13) = (   0.2500000  -0.5000000   0.0000000), wk =   0.0625000
        k(   14) = (   0.2500000  -0.5000000   0.3838028), wk =   0.1250000
        k(   15) = (   0.2500000  -0.5000000  -0.7676056), wk =   0.0625000
        k(   16) = (  -0.5000000  -0.5000000   0.0000000), wk =   0.0156250
        k(   17) = (  -0.5000000  -0.5000000   0.3838028), wk =   0.0312500
        k(   18) = (  -0.5000000  -0.5000000  -0.7676056), wk =   0.0156250
        k(   19) = (   0.2500000  -0.2500000   0.0000000), wk =   0.0312500
        k(   20) = (   0.2500000  -0.2500000   0.3838028), wk =   0.0625000
        k(   21) = (   0.2500000  -0.2500000  -0.7676056), wk =   0.0312500
        k(   22) = (   0.0000000   0.0000000   0.0000000), wk =   0.0156250
        k(   23) = (   0.0000000   0.0000000   0.3838028), wk =   0.0312500
        k(   24) = (   0.0000000   0.0000000  -0.7676056), wk =   0.0156250
        k(   25) = (   0.0000000   0.2500000   0.0000000), wk =   0.0625000
        k(   26) = (   0.0000000   0.2500000   0.3838028), wk =   0.1250000
        k(   27) = (   0.0000000   0.2500000  -0.7676056), wk =   0.0625000
        k(   28) = (   0.0000000  -0.5000000   0.0000000), wk =   0.0312500
        k(   29) = (   0.0000000  -0.5000000   0.3838028), wk =   0.0625000
        k(   30) = (   0.0000000  -0.5000000  -0.7676056), wk =   0.0312500
        k(   31) = (   0.2500000   0.2500000   0.0000000), wk =   0.0312500
        k(   32) = (   0.2500000   0.2500000   0.3838028), wk =   0.0625000
        k(   33) = (   0.2500000   0.2500000  -0.7676056), wk =   0.0312500
        k(   34) = (   0.2500000  -0.5000000   0.0000000), wk =   0.0625000
        k(   35) = (   0.2500000  -0.5000000   0.3838028), wk =   0.1250000
        k(   36) = (   0.2500000  -0.5000000  -0.7676056), wk =   0.0625000
[...]
    eigenvectors:
  0.000  1.000  0.000
  0.500  0.000  0.500
  0.500  0.000  0.500
    occupations:
  0.858 -0.000 -0.000
 -0.000  0.921 -0.073
 -0.000 -0.073  0.921
   spin  2
    eigenvalues:
  0.869  0.873  0.883
    eigenvectors:
  0.000  0.000  1.000
  0.500  0.500  0.000
  0.500  0.500  0.000
    occupations:
  0.883 -0.000 -0.000
 -0.000  0.871  0.002
 -0.000  0.002  0.871
atomic mag. moment =     0.075157
atom   42   Tr[ns(na)] (up, down, total) =   2.69937  2.62419  5.32355
   spin  1
    eigenvalues:
  0.848  0.858  0.994
    eigenvectors:
  0.000  1.000  0.000
  0.500  0.000  0.500
  0.500  0.000  0.500
    occupations:
  0.858 -0.000 -0.000
 -0.000  0.921 -0.073
 -0.000 -0.073  0.921
   spin  2
    eigenvalues:
  0.869  0.873  0.883
    eigenvectors:
  0.000  0.000  1.000
  0.500  0.500  0.000
  0.500  0.500  0.000
    occupations:
  0.883 -0.000 -0.000
 -0.000  0.871  0.002
 -0.000  0.002  0.871
atomic mag. moment =     0.075177
atom   43   Tr[ns(na)] (up, down, total) =   2.69942  2.62425  5.32367
   spin  1
    eigenvalues:
  0.848  0.858  0.994
    eigenvectors:
  0.000  1.000  0.000
  0.500  0.000  0.500
  0.500  0.000  0.500
    occupations:
  0.858 -0.000  0.000
 -0.000  0.921  0.073
  0.000  0.073  0.921
   spin  2
    eigenvalues:
  0.869  0.873  0.883
    eigenvectors:
  0.000  0.000  1.000
  0.500  0.500  0.000
  0.500  0.500  0.000
    occupations:
  0.883 -0.000  0.000
 -0.000  0.871 -0.002
  0.000 -0.002  0.871
atomic mag. moment =     0.075168
atom   44   Tr[ns(na)] (up, down, total) =   2.69942  2.62425  5.32367
   spin  1
    eigenvalues:
  0.848  0.858  0.994
    eigenvectors:
  0.000  1.000  0.000
  0.500  0.000  0.500
  0.500  0.000  0.500
    occupations:
  0.858  0.000 -0.000
  0.000  0.921  0.073
 -0.000  0.073  0.921
   spin  2
    eigenvalues:
  0.869  0.873  0.883
    eigenvectors:
  0.000  0.000  1.000
  0.500  0.500  0.000
  0.500  0.500  0.000
    occupations:
  0.883  0.000 -0.000
  0.000  0.871 -0.002
 -0.000 -0.002  0.871
atomic mag. moment =     0.075168
atom   45   Tr[ns(na)] (up, down, total) =   2.69941  2.62424  5.32365
   spin  1
    eigenvalues:
  0.848  0.858  0.994
    eigenvectors:
  0.000  1.000  0.000
  0.500  0.000  0.500
  0.500  0.000  0.500
    occupations:
  0.858 -0.000 -0.000
 -0.000  0.921 -0.073
 -0.000 -0.073  0.921
   spin  2
    eigenvalues:
  0.869  0.873  0.883
    eigenvectors:
  0.000  0.000  1.000
  0.500  0.500  0.000
  0.500  0.500  0.000
    occupations:
  0.883 -0.000 -0.000
 -0.000  0.871  0.002
 -0.000  0.002  0.871
atomic mag. moment =     0.075168
atom   46   Tr[ns(na)] (up, down, total) =   2.69937  2.62419  5.32357
   spin  1
    eigenvalues:
  0.848  0.858  0.994
    eigenvectors:
  0.000  1.000  0.000
  0.500  0.000  0.500
  0.500  0.000  0.500
    occupations:
  0.858 -0.000 -0.000
 -0.000  0.921 -0.073
 -0.000 -0.073  0.921
   spin  2
    eigenvalues:
  0.869  0.873  0.883
    eigenvectors:
  0.000  0.000  1.000
  0.500  0.500  0.000
  0.500  0.500  0.000
    occupations:
  0.883 -0.000 -0.000
 -0.000  0.871  0.002
 -0.000  0.002  0.871
atomic mag. moment =     0.075181
atom   47   Tr[ns(na)] (up, down, total) =   2.69942  2.62425  5.32367
   spin  1
    eigenvalues:
  0.848  0.858  0.994
    eigenvectors:
  0.000  1.000  0.000
  0.500  0.000  0.500
  0.500  0.000  0.500
    occupations:
  0.858  0.000 -0.000
  0.000  0.921  0.073
 -0.000  0.073  0.921
   spin  2
    eigenvalues:
  0.869  0.873  0.883
    eigenvectors:
  0.000  0.000  1.000
  0.500  0.500  0.000
  0.500  0.500  0.000
    occupations:
  0.883  0.000 -0.000
  0.000  0.871 -0.002
 -0.000 -0.002  0.871
atomic mag. moment =     0.075168
atom   48   Tr[ns(na)] (up, down, total) =   2.69942  2.62425  5.32367
   spin  1
    eigenvalues:
  0.848  0.858  0.994
    eigenvectors:
  0.000  1.000  0.000
  0.500  0.000  0.500
  0.500  0.000  0.500
    occupations:
  0.858 -0.000  0.000
 -0.000  0.921  0.073
  0.000  0.073  0.921
   spin  2
    eigenvalues:
  0.869  0.873  0.883
    eigenvectors:
  0.000  0.000  1.000
  0.500  0.500  0.000
  0.500  0.500  0.000
    occupations:
  0.883 -0.000  0.000
 -0.000  0.871 -0.002
  0.000 -0.002  0.871
atomic mag. moment =     0.075168
N of occupied +U levels = 259.2804248
 --- exit write_ns ---

 ------ SPIN UP ------------

          k = 0.0000 0.0000 0.0000 ( 12425 PWs)   bands (ev):

   -70.7846 -70.7832 -70.7831 -70.7831 -70.7830 -70.7829 -70.7828 -70.7814
   -70.7730 -70.7729 -70.7729 -70.7727 -70.7727 -70.7727 -70.7727 -70.7724
   -39.6254 -39.6254 -39.6252 -39.6252 -39.6251 -39.6251 -39.6247 -39.6246
   -39.5087 -39.5039 -39.5039 -39.5038 -39.5037 -39.5036 -39.5035 -39.4987
   -39.4413 -39.4413 -39.4395 -39.4395 -39.4363 -39.4362 -39.4360 -39.4359
   -39.4168 -39.4167 -39.4165 -39.4165 -39.4165 -39.4163 -39.4162 -39.4160
   -39.3806 -39.3804 -39.3803 -39.3802 -39.3766 -39.3765 -39.3755 -39.3755
   -39.3713 -39.3712 -39.3710 -39.3710 -39.3707 -39.3706 -39.3704 -39.3703
    -8.9485  -8.0215  -8.0214  -8.0214  -8.0213  -7.8715  -7.8714  -7.2328
    -7.2327  -7.1374  -7.1372  -7.1371  -7.1371  -7.0383  -7.0383  -6.9610
    -6.9421  -6.9420  -6.8741  -6.8739  -6.8739  -6.8738  -6.8482  -6.8481
    -6.7928  -6.7927  -6.6850  -6.6849  -6.6848  -6.6848  -6.6191  -6.6191
     3.0039   3.3830   3.3831   3.6771   4.0009   4.0009   4.0010   4.0010
     4.0785   4.0786   4.0787   4.0787   4.2362   4.2523   4.2523   4.3088
     4.3088   4.4946   4.4946   4.9287   4.9288   4.9289   4.9289   5.2731
     5.2732   5.3432   5.3432   5.3467   5.3468   5.4568   5.4570   5.4570
     5.4571   5.5598   5.5598   5.5915   5.5916   5.8873   5.8874   5.8874
     5.8874   5.9437   5.9437   5.9438   5.9438   6.1998   6.1999   6.1999
     6.1999   6.3999   6.4000   6.4387   6.4387   6.8168   6.8168   6.8196
     6.8197   7.0455   7.0455   7.0500   7.0500   7.0753   7.0754   7.0754
     7.0755   7.2066   7.2066   7.2067   7.2067   7.4823   7.4824   7.4825
     7.4826   7.6872   7.7346   7.7346   8.2271   8.2271   8.4185   8.5053
     8.5054   8.5342   8.5343   8.5344   8.5344   8.6587   8.6771   8.6772
     8.7670   8.7670   8.7857   8.7857   8.7950   8.9501   8.9502   9.1861
     9.1862   9.1902   9.1903   9.1904   9.1905   9.2378   9.2378   9.2555
     9.2556   9.2590   9.2591   9.2593   9.2594   9.2675   9.2676   9.2676
     9.2676   9.6357   9.6479   9.6479   9.6479   9.6480  10.0067  10.0067
    10.0637  10.0638  10.0639  10.0640  10.3261  10.3262  10.3706  10.3706
    10.4536  10.4537  10.5874  10.6111  10.6112  10.6113  10.6114  11.1479
    11.1480  11.2738  11.2859  11.3146  11.3147  11.3148  11.3148  11.3598
    11.3598  11.5763  11.5765  11.5765  11.5766  12.7927  12.7927  12.9956
    12.9956  13.0356  13.0356  13.0660  13.0660  13.5276  13.5276  13.6621
    13.6623  13.6623  13.6624  13.7463  13.7464  13.7465  13.7466  13.9386
    13.9387  13.9717  13.9717  14.7475  14.7476  14.7477  14.7477  15.1110
    19.2452  21.6200  21.6200  21.6201  21.6201  22.3933  22.3933  22.9094
    22.9094  23.1087  23.1087  23.8955  23.8955  23.8956  23.8956  23.9055
    23.9055  23.9799  23.9799  23.9800  23.9800  24.0312  24.0312  24.3313
    24.3313  25.0491  25.5823  25.5823  25.5823  25.5823  26.2679  26.2679
    26.3001  26.4719  26.6090  26.6090  26.6692  26.6692  26.8532  26.8532
    26.9825  26.9825  26.9826  26.9826  27.6386  27.6386  27.6878  27.6879
    27.6879  27.6879  27.8084  27.8085  27.8085  27.8085  27.8901  27.8902
    28.0017  28.0017  28.0018  28.0018  28.4896  28.4896  28.4897  28.4897
    28.6296  28.6296  28.6886  28.6886  28.8247  28.8247  28.8247  28.8248
    29.0815  29.3119  29.3119  29.4838  29.4838  30.2571  30.3469  30.3469
    30.3555  30.3555  30.5066  30.5066  30.6976  30.6977  30.6977  30.6977
    31.3277  32.7347  32.7347  32.7348  32.7349  32.8298  32.8298  32.8562
    32.8563  33.1115  33.1115  33.3894  33.3894  33.3894  33.3894  33.9384
    33.9384  33.9385  33.9385  33.9593  33.9593  35.1169  35.1477  35.1477
    35.1477  35.1477  35.1477  35.1477  35.3976  35.3977  35.8347  36.4352
    36.4352  37.0189  37.0189  37.1373  37.1373  37.3824  37.4415  37.4416
    37.4416  37.4416  37.5022  37.5022  38.3442  38.3442  38.3443  38.3443
    38.3654  38.3654  38.4333  39.0697  39.0697  39.0698  39.0698  39.1744
    39.1744  39.2968  39.2968  39.2968  39.2968  39.3312  39.3312  39.5171
    39.5171  39.5171  39.5171  39.5821  39.5821  39.8755  39.9804  39.9805
    40.1766  40.1766  40.1767  40.1767  40.1967  40.1967  40.9452  40.9452
    40.9452  40.9452  41.1438  42.0925  42.0925  42.1948  42.6745  42.6745
    42.7099  42.7099  42.9721  42.9722  43.0156  43.0156  44.0106  44.0107
    44.0107  44.0108  44.2621  44.2622  44.2622  44.2623  44.4989  44.4989
    45.3799  45.3799  45.4053  45.4053  45.4212  45.4212  45.4793  45.4793
    45.5933  45.6547  45.6547  45.6547  45.6547  45.7331  45.7331  45.7331
[...]
    48.4696  48.4696  48.5028  48.5028  48.5029  48.5029  48.8754  49.2149
    49.2149  49.4039  49.4039  49.6996  49.6996  49.8071  49.8071  50.1302
    50.1302  50.1302  50.1302  50.3606  50.3606  50.3607  50.3607  50.3973
    50.3973  50.3973  50.3973  50.6059  50.6059  50.6183  50.6183  50.7089
    50.9475  50.9475  51.8771  51.8771  51.8771  51.8771  52.0324  52.0324
    52.1608  52.1608  52.1704  52.2047  52.2047  52.2047  52.2047  52.5557
    52.5557  52.8482  52.8482  52.8934  52.8934  52.9175  52.9175  52.9176
    52.9176  53.5828  53.5829  53.5829  53.5829  53.6595  53.6595  53.6595
    53.6596  53.6734  54.1582  54.1582  54.1582  54.1582  54.2517  54.2517
    54.3759  54.4257  54.4257  54.6467  54.6467  54.7940  54.7940  54.9468
    54.9469  55.0680  55.0680  55.1771  55.1771  55.1771  55.1772  55.2836
    55.2836  55.7562  55.7562  55.7563  55.7563  55.8312  56.1331  56.1331
    56.1616  56.1616  56.1617  56.1617  56.2018  56.2018  56.4749  56.4749
    56.8125  56.8126  56.9521  56.9521  56.9521  56.9521  57.0098  57.0098
    57.7869  57.9697  57.9697  58.0124  58.0124  58.1280  58.1280  58.1620

[...]

          k =-0.5000-0.5000 0.0000 ( 12432 PWs)   bands (ev):

[...]

 ------ SPIN DOWN ----------

[...]

          k =-0.5000-0.5000-0.7676 ( 12448 PWs)   bands (ev):

[...]

          k = 0.2500-0.2500-0.7676 ( 12434 PWs)   bands (ev):

   -67.4747 -67.4746 -67.4743 -67.4740 -67.4739 -67.4738 -67.4738 -67.4737
   -67.4734 -67.4734 -67.4733 -67.4731 -67.4730 -67.4729 -67.4724 -67.4724
   -36.3693 -36.3693 -36.3677 -36.3674 -36.3674 -36.3672 -36.3663 -36.3662
   -36.3650 -36.3650 -36.3645 -36.3643 -36.3642 -36.3640 -36.3614 -36.3614
   -36.2391 -36.2391 -36.2377 -36.2377 -36.2369 -36.2368 -36.2364 -36.2359
   -36.2359 -36.2356 -36.2353 -36.2353 -36.2336 -36.2336 -36.2335 -36.2335
   -36.1875 -36.1870 -36.1870 -36.1867 -36.1854 -36.1854 -36.1851 -36.1851
   -36.1850 -36.1850 -36.1847 -36.1847 -36.1838 -36.1835 -36.1830 -36.1829
    -8.0218  -8.0218  -7.6469  -7.6469  -7.6468  -7.6468  -7.4172  -7.4172
    -7.1490  -7.1490  -7.0737  -7.0737  -7.0736  -7.0736  -6.6697  -6.6697
    -6.6436  -6.6436  -6.6207  -6.6207  -6.5647  -6.5647  -6.5646  -6.5646
    -6.5438  -6.5438  -6.5426  -6.5426  -6.5424  -6.5424  -6.5120  -6.5120
     4.4126   4.4126   4.4964   4.4964   4.7874   4.7874   4.7876   4.7876
     4.8062   4.8062   5.1141   5.1141   5.1954   5.1954   5.2846   5.2846
     5.3262   5.3262   5.3262   5.3263   5.4174   5.4175   5.4176   5.4176
     5.4978   5.4978   5.6593   5.6593   5.6593   5.6594   5.7598   5.7598
     6.2347   6.2348   6.2348   6.2348   6.3080   6.3080   6.3784   6.3784
     6.7117   6.7117   6.7119   6.7119   6.8184   6.8184   7.0427   7.0427
     7.0427   7.0427   7.1300   7.1300   7.2515   7.2515   7.5181   7.5181
     7.5181   7.5182   7.7551   7.7551   7.8015   7.8015   7.8016   7.8016
     7.8103   7.8103   7.8703   7.8704   8.1158   8.1158   8.2381   8.2381
     8.7375   8.7375   8.7399   8.7399   8.7399   8.7399   8.8958   8.8958
     9.0975   9.0975   9.2273   9.2273   9.5161   9.5161   9.5162   9.5162
     9.5851   9.5851  10.0737  10.0737  10.0737  10.0738  10.3507  10.3507
    11.8398  11.8398  11.9902  11.9903  11.9903  11.9903  12.1024  12.1025
    12.1366  12.1366  12.2446  12.2446  12.3500  12.3500  12.3501  12.3501
    12.3925  12.3926  12.4735  12.4737  12.4737  12.4739  12.5060  12.5061
    12.5389  12.5389  12.7425  12.7425  12.8050  12.8051  12.8051  12.8051
    13.0065  13.0065  13.1788  13.1789  13.2117  13.2118  13.2119  13.2119
    13.2900  13.2900  13.4464  13.4466  13.4467  13.4468  13.7099  13.7099
    13.9967  13.9967  13.9967  13.9967  14.2520  14.2520  14.4294  14.4296
    14.4297  14.4298  14.4418  14.4419  14.6563  14.6563  14.9010  14.9010
    14.9217  14.9217  15.1620  15.1621  15.3813  15.3813  15.3815  15.3815
    15.6368  15.6368  16.0418  16.0420  16.0421  16.0422  16.0798  16.0798
    21.6477  21.6477  22.6286  22.6286  22.6286  22.6286  23.2187  23.2187
    24.0316  24.0316  24.0417  24.0417  24.0418  24.0418  24.9701  24.9701
    24.9902  24.9902  25.2979  25.2979  25.6876  25.6876  25.6876  25.6876
    25.9867  25.9867  26.2949  26.2949  26.6432  26.6433  26.6433  26.6433
    26.8777  26.8777  26.9045  26.9046  26.9046  26.9046  26.9237  26.9237
    27.0497  27.0497  27.3482  27.3482  27.3483  27.3483  27.7455  27.7455
    28.3546  28.3546  28.4654  28.4654  28.4654  28.4654  28.8188  28.8188
    28.8668  28.8669  28.8669  28.8669  28.9588  28.9588  29.0600  29.0601
    29.1487  29.1487  29.3386  29.3386  29.3387  29.3387  29.5936  29.5936
    29.6019  29.6019  29.9963  29.9963  29.9963  29.9963  30.5227  30.5227
    30.7162  30.7162  30.8570  30.8570  30.8571  30.8571  31.5519  31.5519
    31.8078  31.8079  31.8079  31.8079  32.1516  32.1516  32.7566  32.7566
    33.1612  33.1612  33.1612  33.1612  33.6937  33.6937  33.7923  33.7923
    35.4338  35.4338  35.6418  35.6418  35.6418  35.6418  35.9684  35.9684
    36.0964  36.0964  36.1955  36.1955  37.0132  37.0132  37.3916  37.3916
    37.3916  37.3916  37.6428  37.6428  37.6520  37.6520  38.0265  38.0266
    38.0266  38.0266  38.4595  38.4595  38.4595  38.4595  38.5699  38.5699
    38.6576  38.6576  38.6577  38.6577  38.8964  38.8964  38.9207  38.9207
    39.6885  39.6885  40.0059  40.0059  40.0059  40.0059  40.4211  40.4211
    40.4212  40.4212  40.4899  40.4899  41.0403  41.0403  41.1686  41.1686
    41.1687  41.1687  41.3716  41.3716  41.5718  41.5718  41.8633  41.8633
    41.8773  41.8773  42.7086  42.7086  42.7086  42.7086  43.1235  43.1235
    43.2019  43.2019  43.2019  43.2019  43.4115  43.4115  44.1316  44.1316
    44.6257  44.6257  44.6257  44.6257  44.7849  44.7849  45.0784  45.0784
    45.3290  45.3290  45.3690  45.3690  45.4532  45.4532  45.4532  45.4532
    45.7233  45.7233  46.4061  46.4061  46.4061  46.4061  46.8026  46.8026
[...]
    49.2593  49.2593  49.5101  49.5101  49.5102  49.5102  49.6236  49.6236
    50.0675  50.0675  50.2383  50.2383  50.7254  50.7254  50.7255  50.7255
    51.1685  51.1685  51.1686  51.1686  51.2550  51.2550  51.3725  51.3725
    51.5980  51.5980  51.6336  51.6336  51.9663  51.9663  51.9663  51.9663
    52.1877  52.1877  52.1877  52.1877  52.1908  52.1908  52.2854  52.2854
    52.3906  52.3906  52.3906  52.3906  52.5206  52.5206  52.7167  52.7167
    52.7168  52.7168  52.8224  52.8224  52.8963  52.8963  53.0194  53.0194
    53.3209  53.3209  53.3599  53.3600  53.3600  53.3600  53.5965  53.5965
    53.6871  53.6871  53.7406  53.7406  53.8583  53.8583  53.8584  53.8584
    53.8682  53.8682  54.3703  54.3703  54.3703  54.3703  54.5541  54.5541
    55.0026  55.0026  55.1738  55.1738  55.1738  55.1738  55.4134  55.4134
    55.4134  55.4134  55.5767  55.5767  55.7932  55.7932  56.0209  56.0209
    56.7303  56.7303  57.0668  57.0668  57.1140  57.1140  57.1141  57.1141
    57.2637  57.2637  57.3123  57.3123  57.3124  57.3124  57.4196  57.4196
    57.5132  57.5132  57.6056  57.6056  58.2293  58.2293  58.2293  58.2293

     the Fermi energy is    11.3885 ev

!    total energy              =   -4439.65551242 Ry
     Harris-Foulkes estimate   =   -4439.65551261 Ry
     estimated scf accuracy    <       0.00000021 Ry

     The total energy is the sum of the following terms:

     one-electron contribution =   -2118.27618672 Ry
     hartree contribution      =    1288.00853482 Ry
     xc contribution           =    -649.32978581 Ry
     ewald contribution        =   -2960.06000834 Ry
     Hubbard energy            =       0.00000000 Ry
     smearing contrib. (-TS)   =       0.00193364 Ry

     total magnetization       =    47.98 Bohr mag/cell
     absolute magnetization    =    49.33 Bohr mag/cell

     convergence has been achieved in   4 iterations

     Writing output data file pwscf.save

     General routines

     Parallel routines
     Hubbard U routines

   This run was terminated on:  18:31:56  14Feb2014

   JOB DONE.