     Program PWSCF v.5.0.2 (svn rev. 9656) starts on 14Feb2014 at 21:35:26

     Current dimensions of program PWSCF are:
     Max number of different atomic species (ntypx) = 10
     Max number of k-points (npk) =  40000
     Max angular momentum in pseudopotentials (lmaxx) =  3
     Reading input from alpha_0.15/alpha_0.15.in
Warning: card &IONS ignored
Warning: card / ignored
Warning: card &CELL ignored
Warning: card / ignored

     Subspace diagonalization in iterative solution of the eigenvalue problem:
     a serial algorithm will be used

     bravais-lattice index     =            0
     lattice parameter (alat)  =      16.4784  a.u.
     unit-cell volume          =    2914.5930 (a.u.)^3
     number of atoms/cell      =           48
     number of atomic types    =            3
     number of electrons       =       432.00
     number of Kohn-Sham states=          624
     kinetic-energy cutoff     =      40.0000  Ry
     charge density cutoff     =     500.0000  Ry
     convergence threshold     =      1.0E-06
     mixing beta               =       0.7000
     number of iterations used =            8  plain     mixing
     Exchange-correlation      = SLA  PW   PBE  PBE ( 1 4 3 4 0)
     EXX-fraction              =        0.00

     celldm(1)=  16.478412  celldm(2)=   0.000000  celldm(3)=   0.000000
     celldm(4)=   0.000000  celldm(5)=   0.000000  celldm(6)=   0.000000

     crystal axes: (cart. coord. in units of alat)
               a(1) = (   1.000000   0.000000   0.000000 )
               a(2) = (   0.000000   1.000000   0.000000 )
               a(3) = (   0.000000   0.000000   0.651376 )

     reciprocal axes: (cart. coord. in units 2 pi/alat)
               b(1) = (  1.000000  0.000000  0.000000 )
               b(2) = (  0.000000  1.000000  0.000000 )
               b(3) = (  0.000000  0.000000  1.535211 )

     PseudoPot. # 1 for Mn read from file:
     /home/camp/zhonxu/pseudo/mn_pbe_v1.uspp.F.UPF
     MD5 check sum: 5fd7c7b5c956fd19902447332617373a
     Pseudo is Ultrasoft + core correction, Zval = 15.0
     Generated by new atomic code, or converted to UPF format
     Using radial grid of  859 points,  6 beta functions with:
                l(1) =   0
                l(2) =   0
                l(3) =   1
                l(4) =   1
                l(5) =   2
                l(6) =   2
     Q(r) pseudized with  6 coefficients,  rinner =    1.150   1.150   1.150
                                                       1.150   1.150

     PseudoPot. # 2 for O  read from file:
     /home/camp/zhonxu/pseudo/o_pbe_v1.01.uspp.F.UPF
     MD5 check sum: 2bcb18d16ea4b960afae9ec6d52f22d2
     Pseudo is Ultrasoft + core correction, Zval =  6.0
     Generated by new atomic code, or converted to UPF format
     Using radial grid of  737 points,  5 beta functions with:
                l(1) =   0
                l(2) =   0
                l(3) =   1
                l(4) =   1
                l(5) =   2
     Q(r) pseudized with  8 coefficients,  rinner =    0.900   0.900   0.900
                                                       0.900   0.900

     PseudoPot. # 3 for O  read from file:
     /home/camp/zhonxu/pseudo/o_pbe_v1.01.uspp.F.UPF
     MD5 check sum: 2bcb18d16ea4b960afae9ec6d52f22d2
     Pseudo is Ultrasoft + core correction, Zval =  6.0
     Generated by new atomic code, or converted to UPF format
     Using radial grid of  737 points,  5 beta functions with:
                l(1) =   0
                l(2) =   0
                l(3) =   1
                l(4) =   1
                l(5) =   2
     Q(r) pseudized with  8 coefficients,  rinner =    0.900   0.900   0.900
                                                       0.900   0.900

     atomic species   valence    mass     pseudopotential
        Mn0           15.00    54.93800     Mn( 1.00)
        O1             6.00    15.99940     O ( 1.00)
        O2             6.00    15.99940     O ( 1.00)

     Starting magnetic structure
     atomic species   magnetization
        Mn0          0.600
        O1           0.000
        O2           0.000

     Simplified LDA+U calculation (l_max = 2) with parameters (eV):
     atomic species    L          U    alpha       J0     beta
        Mn0            2     0.0000   0.0000   0.0000   0.0000
        O1             1     0.0000   0.1500   0.0000   0.0000
        O2             1     0.0000   0.0000   0.0000   0.0000

      4 Sym. Ops. (no inversion) found

   Cartesian axes

     site n.     atom                  positions (alat units)
         1           Mn0 tau(   1) = (  -0.1500000  -0.1500000   0.0000000  )
         2           Mn0 tau(   2) = (   0.1000000   0.1000000   0.1628440  )
         3           Mn0 tau(   3) = (  -0.1500000  -0.1500000   0.3256881  )
         4           Mn0 tau(   4) = (   0.1000000   0.1000000   0.4885321  )
         5           Mn0 tau(   5) = (  -0.1500000   0.3500000   0.0000000  )
         6           Mn0 tau(   6) = (   0.1000000   0.6000000   0.1628440  )
         7           Mn0 tau(   7) = (  -0.1500000   0.3500000   0.3256881  )
         8           Mn0 tau(   8) = (   0.1000000   0.6000000   0.4885321  )
         9           Mn0 tau(   9) = (   0.3500000  -0.1500000   0.0000000  )
        10           Mn0 tau(  10) = (   0.6000000   0.1000000   0.1628440  )
        11           Mn0 tau(  11) = (   0.3500000  -0.1500000   0.3256881  )
        12           Mn0 tau(  12) = (   0.6000000   0.1000000   0.4885321  )
        13           Mn0 tau(  13) = (   0.3500000   0.3500000   0.0000000  )
        14           Mn0 tau(  14) = (   0.6000000   0.6000000   0.1628440  )
        15           Mn0 tau(  15) = (   0.3500000   0.3500000   0.3256881  )
        16           Mn0 tau(  16) = (   0.6000000   0.6000000   0.4885321  )
        17           O1  tau(  17) = (   0.0000000   0.0000000   0.0000000  )
        18           O2  tau(  18) = (  -0.3000000  -0.3000000   0.0000000  )
        19           O2  tau(  19) = (   0.2500000  -0.0500000   0.1628440  )
        20           O2  tau(  20) = (  -0.0500000   0.2500000   0.1628440  )
        21           O2  tau(  21) = (   0.0000000   0.0000000   0.3256881  )
        22           O2  tau(  22) = (  -0.3000000  -0.3000000   0.3256881  )
        23           O2  tau(  23) = (   0.2500000  -0.0500000   0.4885321  )
        24           O2  tau(  24) = (  -0.0500000   0.2500000   0.4885321  )
        25           O2  tau(  25) = (   0.0000000   0.5000000   0.0000000  )
        26           O2  tau(  26) = (  -0.3000000   0.2000000   0.0000000  )
        27           O2  tau(  27) = (   0.2500000   0.4500000   0.1628440  )
        28           O2  tau(  28) = (  -0.0500000   0.7500000   0.1628440  )
        29           O2  tau(  29) = (   0.0000000   0.5000000   0.3256881  )
        30           O2  tau(  30) = (  -0.3000000   0.2000000   0.3256881  )
        31           O2  tau(  31) = (   0.2500000   0.4500000   0.4885321  )
        32           O2  tau(  32) = (  -0.0500000   0.7500000   0.4885321  )
        33           O2  tau(  33) = (   0.5000000   0.0000000   0.0000000  )
        34           O2  tau(  34) = (   0.2000000  -0.3000000   0.0000000  )
        35           O2  tau(  35) = (   0.7500000  -0.0500000   0.1628440  )
        36           O2  tau(  36) = (   0.4500000   0.2500000   0.1628440  )
        37           O2  tau(  37) = (   0.5000000   0.0000000   0.3256881  )
        38           O2  tau(  38) = (   0.2000000  -0.3000000   0.3256881  )
        39           O2  tau(  39) = (   0.7500000  -0.0500000   0.4885321  )
        40           O2  tau(  40) = (   0.4500000   0.2500000   0.4885321  )
        41           O2  tau(  41) = (   0.5000000   0.5000000   0.0000000  )
        42           O2  tau(  42) = (   0.2000000   0.2000000   0.0000000  )
        43           O2  tau(  43) = (   0.7500000   0.4500000   0.1628440  )
        44           O2  tau(  44) = (   0.4500000   0.7500000   0.1628440  )
        45           O2  tau(  45) = (   0.5000000   0.5000000   0.3256881  )
        46           O2  tau(  46) = (   0.2000000   0.2000000   0.3256881  )
        47           O2  tau(  47) = (   0.7500000   0.4500000   0.4885321  )
        48           O2  tau(  48) = (   0.4500000   0.7500000   0.4885321  )

     number of k points=    42  Methfessel-Paxton smearing, width (Ry)=  0.0100
                       cart. coord. in units 2pi/alat
        k(    1) = (   0.0000000   0.0000000   0.0000000), wk =   0.0156250
        k(    2) = (   0.0000000   0.0000000   0.3838028), wk =   0.0312500
        k(    3) = (   0.0000000   0.0000000  -0.7676056), wk =   0.0156250
        k(    4) = (   0.0000000   0.2500000   0.0000000), wk =   0.0625000
        k(    5) = (   0.0000000   0.2500000   0.3838028), wk =   0.1250000
        k(    6) = (   0.0000000   0.2500000  -0.7676056), wk =   0.0625000
        k(    7) = (   0.0000000  -0.5000000   0.0000000), wk =   0.0312500
        k(    8) = (   0.0000000  -0.5000000   0.3838028), wk =   0.0625000
        k(    9) = (   0.0000000  -0.5000000  -0.7676056), wk =   0.0312500
        k(   10) = (   0.2500000   0.2500000   0.0000000), wk =   0.0312500
        k(   11) = (   0.2500000   0.2500000   0.3838028), wk =   0.0625000
        k(   12) = (   0.2500000   0.2500000  -0.7676056), wk =   0.0312500
        k(   13) = (   0.2500000  -0.5000000   0.0000000), wk =   0.0625000
        k(   14) = (   0.2500000  -0.5000000   0.3838028), wk =   0.1250000
        k(   15) = (   0.2500000  -0.5000000  -0.7676056), wk =   0.0625000
        k(   16) = (  -0.5000000  -0.5000000   0.0000000), wk =   0.0156250
        k(   17) = (  -0.5000000  -0.5000000   0.3838028), wk =   0.0312500
        k(   18) = (  -0.5000000  -0.5000000  -0.7676056), wk =   0.0156250
        k(   19) = (   0.2500000  -0.2500000   0.0000000), wk =   0.0312500
        k(   20) = (   0.2500000  -0.2500000   0.3838028), wk =   0.0625000
        k(   21) = (   0.2500000  -0.2500000  -0.7676056), wk =   0.0312500
        k(   22) = (   0.0000000   0.0000000   0.0000000), wk =   0.0156250
        k(   23) = (   0.0000000   0.0000000   0.3838028), wk =   0.0312500
        k(   24) = (   0.0000000   0.0000000  -0.7676056), wk =   0.0156250
        k(   25) = (   0.0000000   0.2500000   0.0000000), wk =   0.0625000
        k(   26) = (   0.0000000   0.2500000   0.3838028), wk =   0.1250000
        k(   27) = (   0.0000000   0.2500000  -0.7676056), wk =   0.0625000
        k(   28) = (   0.0000000  -0.5000000   0.0000000), wk =   0.0312500
        k(   29) = (   0.0000000  -0.5000000   0.3838028), wk =   0.0625000
        k(   30) = (   0.0000000  -0.5000000  -0.7676056), wk =   0.0312500
        k(   31) = (   0.2500000   0.2500000   0.0000000), wk =   0.0312500
        k(   32) = (   0.2500000   0.2500000   0.3838028), wk =   0.0625000
        k(   33) = (   0.2500000   0.2500000  -0.7676056), wk =   0.0312500
        k(   34) = (   0.2500000  -0.5000000   0.0000000), wk =   0.0625000
        k(   35) = (   0.2500000  -0.5000000   0.3838028), wk =   0.1250000
        k(   36) = (   0.2500000  -0.5000000  -0.7676056), wk =   0.0625000
[...]
    eigenvectors:
  0.000  1.000  0.000
  0.500  0.000  0.500
  0.500  0.000  0.500
    occupations:
  0.858 -0.000 -0.000
 -0.000  0.921 -0.073
 -0.000 -0.073  0.921
   spin  2
    eigenvalues:
  0.869  0.873  0.883
    eigenvectors:
  0.000  0.000  1.000
  0.500  0.500  0.000
  0.500  0.500  0.000
    occupations:
  0.883 -0.000 -0.000
 -0.000  0.871  0.002
 -0.000  0.002  0.871
atomic mag. moment =     0.075155
atom   42   Tr[ns(na)] (up, down, total) =   2.69973  2.62433  5.32406
   spin  1
    eigenvalues:
  0.848  0.858  0.994
    eigenvectors:
  0.000  1.000  0.000
  0.500  0.000  0.500
  0.500  0.000  0.500
    occupations:
  0.858 -0.000 -0.000
 -0.000  0.921 -0.073
 -0.000 -0.073  0.921
   spin  2
    eigenvalues:
  0.869  0.873  0.883
    eigenvectors:
  0.000  0.000  1.000
  0.500  0.500  0.000
  0.500  0.500  0.000
    occupations:
  0.883 -0.000 -0.000
 -0.000  0.871  0.002
 -0.000  0.002  0.871
atomic mag. moment =     0.075405
atom   43   Tr[ns(na)] (up, down, total) =   2.69942  2.62421  5.32362
   spin  1
    eigenvalues:
  0.848  0.858  0.994
    eigenvectors:
  0.000  1.000  0.000
  0.500  0.000  0.500
  0.500  0.000  0.500
    occupations:
  0.858  0.000 -0.000
  0.000  0.921  0.073
 -0.000  0.073  0.921
   spin  2
    eigenvalues:
  0.869  0.873  0.883
    eigenvectors:
  0.000  0.000  1.000
  0.500  0.500  0.000
  0.500  0.500  0.000
    occupations:
  0.883 -0.000 -0.000
 -0.000  0.871 -0.002
 -0.000 -0.002  0.871
atomic mag. moment =     0.075212
atom   44   Tr[ns(na)] (up, down, total) =   2.69942  2.62421  5.32362
   spin  1
    eigenvalues:
  0.848  0.858  0.994
    eigenvectors:
  0.000  1.000  0.000
  0.500  0.000  0.500
  0.500  0.000  0.500
    occupations:
  0.858 -0.000  0.000
 -0.000  0.921  0.073
  0.000  0.073  0.921
   spin  2
    eigenvalues:
  0.869  0.873  0.883
    eigenvectors:
  0.000  0.000  1.000
  0.500  0.500  0.000
  0.500  0.500  0.000
    occupations:
  0.883 -0.000 -0.000
 -0.000  0.871 -0.002
 -0.000 -0.002  0.871
atomic mag. moment =     0.075212
atom   45   Tr[ns(na)] (up, down, total) =   2.69931  2.62429  5.32361
   spin  1
    eigenvalues:
  0.848  0.858  0.994
    eigenvectors:
  0.000  1.000  0.000
  0.500  0.000  0.500
  0.500  0.000  0.500
    occupations:
  0.858 -0.000 -0.000
 -0.000  0.921 -0.073
 -0.000 -0.073  0.921
   spin  2
    eigenvalues:
  0.869  0.873  0.883
    eigenvectors:
  0.000  0.000  1.000
  0.500  0.500  0.000
  0.500  0.500  0.000
    occupations:
  0.883 -0.000 -0.000
 -0.000  0.871  0.002
 -0.000  0.002  0.871
atomic mag. moment =     0.075019
atom   46   Tr[ns(na)] (up, down, total) =   2.69944  2.62403  5.32347
   spin  1
    eigenvalues:
  0.848  0.858  0.994
    eigenvectors:
  0.000  1.000  0.000
  0.500  0.000  0.500
  0.500  0.000  0.500
    occupations:
  0.858 -0.000 -0.000
 -0.000  0.921 -0.073
 -0.000 -0.073  0.921
   spin  2
    eigenvalues:
  0.869  0.873  0.883
    eigenvectors:
  0.000  0.000  1.000
  0.500  0.500  0.000
  0.500  0.500  0.000
    occupations:
  0.883 -0.000 -0.000
 -0.000  0.871  0.002
 -0.000  0.002  0.871
atomic mag. moment =     0.075412
atom   47   Tr[ns(na)] (up, down, total) =   2.69942  2.62421  5.32362
   spin  1
    eigenvalues:
  0.848  0.858  0.994
    eigenvectors:
  0.000  1.000  0.000
  0.500  0.000  0.500
  0.500  0.000  0.500
    occupations:
  0.858 -0.000  0.000
 -0.000  0.921  0.073
  0.000  0.073  0.921
   spin  2
    eigenvalues:
  0.869  0.873  0.883
    eigenvectors:
  0.000  0.000  1.000
  0.500  0.500  0.000
  0.500  0.500  0.000
    occupations:
  0.883  0.000  0.000
  0.000  0.871 -0.002
  0.000 -0.002  0.871
atomic mag. moment =     0.075212
atom   48   Tr[ns(na)] (up, down, total) =   2.69942  2.62421  5.32362
   spin  1
    eigenvalues:
  0.848  0.858  0.994
    eigenvectors:
  0.000  1.000  0.000
  0.500  0.000  0.500
  0.500  0.000  0.500
    occupations:
  0.858  0.000 -0.000
  0.000  0.921  0.073
 -0.000  0.073  0.921
   spin  2
    eigenvalues:
  0.869  0.873  0.883
    eigenvectors:
  0.000  0.000  1.000
  0.500  0.500  0.000
  0.500  0.500  0.000
    occupations:
  0.883  0.000  0.000
  0.000  0.871 -0.002
  0.000 -0.002  0.871
atomic mag. moment =     0.075212
N of occupied +U levels = 259.2807976
 --- exit write_ns ---

 ------ SPIN UP ------------

          k = 0.0000 0.0000 0.0000 ( 12425 PWs)   bands (ev):

   -70.7824 -70.7814 -70.7812 -70.7810 -70.7807 -70.7801 -70.7794 -70.7745
   -70.7712 -70.7711 -70.7709 -70.7709 -70.7704 -70.7702 -70.7680 -70.7640
   -39.6236 -39.6234 -39.6233 -39.6231 -39.6228 -39.6225 -39.6222 -39.6177
   -39.5063 -39.5021 -39.5019 -39.5017 -39.5014 -39.5011 -39.4985 -39.4950
   -39.4391 -39.4389 -39.4372 -39.4363 -39.4345 -39.4343 -39.4333 -39.4307
   -39.4150 -39.4148 -39.4146 -39.4144 -39.4142 -39.4139 -39.4129 -39.4090
   -39.3788 -39.3786 -39.3776 -39.3766 -39.3746 -39.3742 -39.3731 -39.3704
   -39.3696 -39.3693 -39.3689 -39.3687 -39.3685 -39.3684 -39.3666 -39.3639
    -8.9493  -8.0302  -8.0198  -8.0193  -8.0184  -7.8743  -7.8695  -7.2371
    -7.2308  -7.1462  -7.1359  -7.1355  -7.1355  -7.0418  -7.0369  -6.9628
    -6.9450  -6.9407  -6.8819  -6.8724  -6.8724  -6.8723  -6.8498  -6.8461
    -6.7950  -6.7914  -6.6919  -6.6834  -6.6833  -6.6830  -6.6210  -6.6177
     3.0087   3.3847   3.3893   3.6801   4.0025   4.0029   4.0052   4.0110
     4.0801   4.0803   4.0822   4.0884   4.2408   4.2570   4.2581   4.3134
     4.3138   4.4984   4.4984   4.9304   4.9305   4.9308   4.9357   5.2748
     5.2772   5.3459   5.3463   5.3484   5.3521   5.4585   5.4586   5.4587
     5.4639   5.5634   5.5650   5.5937   5.5959   5.8892   5.8892   5.8912
     5.8926   5.9453   5.9456   5.9508   5.9517   6.2014   6.2016   6.2049
     6.2054   6.4015   6.4043   6.4403   6.4434   6.8184   6.8198   6.8213
     6.8250   7.0479   7.0486   7.0537   7.0566   7.0771   7.0774   7.0786
     7.0809   7.2081   7.2102   7.2117   7.2125   7.4840   7.4841   7.4849
     7.4883   7.6909   7.7367   7.7378   8.2301   8.2309   8.4207   8.5073
     8.5079   8.5360   8.5364   8.5370   8.5370   8.6610   8.6785   8.6823
     8.7689   8.7697   8.7875   8.7885   8.7974   8.9530   8.9534   9.1882
     9.1899   9.1922   9.1925   9.1935   9.1942   9.2398   9.2406   9.2576
     9.2583   9.2609   9.2610   9.2616   9.2635   9.2687   9.2692   9.2700
     9.2747   9.6385   9.6495   9.6498   9.6500   9.6534  10.0090  10.0098
    10.0654  10.0655  10.0668  10.0686  10.3283  10.3294  10.3724  10.3742
    10.4551  10.4577  10.5898  10.6126  10.6129  10.6134  10.6177  11.1498
    11.1515  11.2761  11.2888  11.3163  11.3163  11.3168  11.3204  11.3616
    11.3635  11.5783  11.5786  11.5788  11.5796  12.7948  12.7957  12.9973
    12.9989  13.0375  13.0386  13.0679  13.0691  13.5297  13.5305  13.6638
    13.6640  13.6643  13.6670  13.7480  13.7481  13.7489  13.7504  13.9405
    13.9418  13.9736  13.9750  14.7493  14.7494  14.7505  14.7511  15.1136
    19.2448  21.6163  21.6193  21.6213  21.6215  22.3929  22.3936  22.9085
    22.9092  23.1081  23.1086  23.8938  23.8945  23.8959  23.8961  23.9053
    23.9057  23.9782  23.9802  23.9807  23.9809  24.0305  24.0311  24.3312
    24.3319  25.0495  25.5815  25.5815  25.5821  25.5826  26.2675  26.2680
    26.3002  26.4711  26.6081  26.6094  26.6686  26.6686  26.8522  26.8533
    26.9808  26.9816  26.9828  26.9841  27.6386  27.6390  27.6860  27.6880
    27.6880  27.6884  27.8081  27.8082  27.8091  27.8095  27.8894  27.8903
    28.0004  28.0012  28.0029  28.0029  28.4886  28.4896  28.4898  28.4908
    28.6293  28.6297  28.6886  28.6889  28.8221  28.8245  28.8263  28.8263
    29.0813  29.3122  29.3124  29.4830  29.4846  30.2576  30.3471  30.3471
    30.3555  30.3564  30.5065  30.5065  30.6971  30.6977  30.6985  30.6985
    31.3274  32.7331  32.7353  32.7360  32.7363  32.8300  32.8301  32.8566
    32.8567  33.1113  33.1117  33.3862  33.3875  33.3912  33.3913  33.9376
    33.9384  33.9392  33.9396  33.9590  33.9592  35.1167  35.1460  35.1473
    35.1476  35.1485  35.1485  35.1486  35.3972  35.3984  35.8350  36.4351
    36.4351  37.0187  37.0191  37.1375  37.1376  37.3829  37.4405  37.4413
    37.4417  37.4430  37.5015  37.5025  38.3430  38.3437  38.3446  38.3450
    38.3653  38.3656  38.4329  39.0691  39.0693  39.0705  39.0710  39.1739
    39.1750  39.2965  39.2968  39.2969  39.2972  39.3305  39.3316  39.5165
    39.5165  39.5179  39.5180  39.5821  39.5822  39.8759  39.9799  39.9811
    40.1759  40.1762  40.1769  40.1773  40.1968  40.1970  40.9448  40.9449
    40.9455  40.9457  41.1442  42.0912  42.0931  42.1951  42.6744  42.6753
    42.7097  42.7105  42.9716  42.9728  43.0155  43.0159  44.0083  44.0115
    44.0116  44.0116  44.2619  44.2619  44.2621  44.2630  44.4986  44.4989
    45.3789  45.3808  45.4049  45.4058  45.4205  45.4214  45.4787  45.4800
    45.5929  45.6533  45.6544  45.6550  45.6554  45.7324  45.7331  45.7335
[...]
    48.4694  48.4696  48.5015  48.5035  48.5037  48.5045  48.8755  49.2145
    49.2153  49.4033  49.4040  49.6995  49.6999  49.8069  49.8077  50.1286
    50.1292  50.1304  50.1313  50.3596  50.3607  50.3612  50.3618  50.3968
    50.3972  50.3974  50.3975  50.6061  50.6068  50.6180  50.6184  50.7089
    50.9468  50.9479  51.8757  51.8764  51.8775  51.8786  52.0316  52.0325
    52.1607  52.1611  52.1703  52.2035  52.2044  52.2050  52.2058  52.5550
    52.5560  52.8482  52.8482  52.8929  52.8937  52.9168  52.9176  52.9179
    52.9187  53.5822  53.5826  53.5833  53.5840  53.6581  53.6600  53.6600
    53.6604  53.6737  54.1576  54.1580  54.1584  54.1585  54.2517  54.2524
    54.3757  54.4255  54.4256  54.6463  54.6467  54.7939  54.7944  54.9465
    54.9478  55.0673  55.0679  55.1732  55.1768  55.1787  55.1787  55.2834
    55.2844  55.7553  55.7556  55.7571  55.7573  55.8307  56.1326  56.1330
    56.1610  56.1616  56.1622  56.1623  56.2013  56.2019  56.4745  56.4746
    56.8123  56.8132  56.9508  56.9512  56.9524  56.9527  57.0096  57.0097
    57.7865  57.9699  57.9702  58.0121  58.0127  58.1280  58.1287  58.1615

[...]

          k =-0.5000-0.5000 0.0000 ( 12432 PWs)   bands (ev):

[...]

 ------ SPIN DOWN ----------

[...]

          k =-0.5000-0.5000-0.7676 ( 12448 PWs)   bands (ev):

[...]

          k = 0.2500-0.2500-0.7676 ( 12434 PWs)   bands (ev):

   -67.4727 -67.4726 -67.4722 -67.4721 -67.4720 -67.4719 -67.4717 -67.4715
   -67.4713 -67.4713 -67.4711 -67.4708 -67.4705 -67.4700 -67.4669 -67.4663
   -36.3672 -36.3671 -36.3655 -36.3654 -36.3652 -36.3651 -36.3641 -36.3639
   -36.3629 -36.3628 -36.3622 -36.3621 -36.3612 -36.3612 -36.3588 -36.3587
   -36.2368 -36.2368 -36.2351 -36.2349 -36.2348 -36.2347 -36.2343 -36.2342
   -36.2341 -36.2338 -36.2334 -36.2332 -36.2317 -36.2317 -36.2298 -36.2292
   -36.1855 -36.1854 -36.1850 -36.1847 -36.1833 -36.1833 -36.1832 -36.1832
   -36.1828 -36.1827 -36.1818 -36.1817 -36.1808 -36.1805 -36.1805 -36.1803
    -8.0254  -8.0193  -7.6537  -7.6449  -7.6444  -7.6443  -7.4230  -7.4148
    -7.1474  -7.1473  -7.0854  -7.0717  -7.0715  -7.0712  -6.6734  -6.6679
    -6.6524  -6.6413  -6.6204  -6.6191  -6.5753  -6.5629  -6.5629  -6.5626
    -6.5474  -6.5423  -6.5416  -6.5408  -6.5408  -6.5404  -6.5160  -6.5097
     4.4147   4.4210   4.4986   4.5078   4.7891   4.7892   4.7909   4.7913
     4.8082   4.8091   5.1161   5.1170   5.1984   5.2023   5.2863   5.2892
     5.3277   5.3279   5.3300   5.3394   5.4191   5.4192   5.4206   5.4264
     5.5022   5.5033   5.6611   5.6613   5.6655   5.6686   5.7619   5.7625
     6.2364   6.2365   6.2406   6.2471   6.3098   6.3128   6.3812   6.3849
     6.7133   6.7134   6.7139   6.7151   6.8202   6.8202   7.0442   7.0447
     7.0485   7.0493   7.1323   7.1388   7.2537   7.2586   7.5196   7.5198
     7.5242   7.5247   7.7570   7.7579   7.8031   7.8033   7.8045   7.8047
     7.8119   7.8123   7.8721   7.8757   8.1203   8.1215   8.2420   8.2446
     8.7389   8.7389   8.7418   8.7419   8.7425   8.7472   8.8971   8.8977
     9.0994   9.1043   9.2293   9.2335   9.5178   9.5179   9.5185   9.5207
     9.5870   9.5890  10.0751  10.0754  10.0756  10.0823  10.3523  10.3552
    11.8415  11.8417  11.9917  11.9921  11.9923  11.9926  12.1041  12.1045
    12.1384  12.1387  12.2461  12.2466  12.3517  12.3518  12.3518  12.3519
    12.3944  12.3944  12.4755  12.4756  12.4756  12.4758  12.5079  12.5080
    12.5409  12.5415  12.7446  12.7453  12.8069  12.8070  12.8075  12.8078
    13.0081  13.0084  13.1806  13.1806  13.2137  13.2139  13.2139  13.2149
    13.2920  13.2926  13.4484  13.4484  13.4486  13.4494  13.7119  13.7124
    13.9982  13.9984  13.9985  14.0008  14.2540  14.2542  14.4315  14.4316
    14.4316  14.4319  14.4437  14.4439  14.6580  14.6582  14.9033  14.9040
    14.9240  14.9248  15.1639  15.1640  15.3834  15.3835  15.3839  15.3839
    15.6391  15.6391  16.0440  16.0440  16.0443  16.0445  16.0820  16.0821
    21.6462  21.6483  22.6241  22.6283  22.6296  22.6306  23.2171  23.2193
    24.0282  24.0327  24.0389  24.0415  24.0428  24.0437  24.9692  24.9698
    24.9891  24.9919  25.2968  25.2993  25.6847  25.6868  25.6882  25.6895
    25.9852  25.9877  26.2946  26.2951  26.6411  26.6411  26.6448  26.6453
    26.8770  26.8783  26.9026  26.9049  26.9050  26.9063  26.9219  26.9248
    27.0491  27.0492  27.3462  27.3482  27.3486  27.3500  27.7442  27.7466
    28.3549  28.3550  28.4632  28.4653  28.4654  28.4670  28.8181  28.8190
    28.8633  28.8670  28.8680  28.8684  28.9589  28.9594  29.0599  29.0605
    29.1486  29.1490  29.3378  29.3378  29.3394  29.3395  29.5921  29.5948
    29.6013  29.6028  29.9949  29.9965  29.9973  29.9974  30.5226  30.5228
    30.7146  30.7175  30.8564  30.8573  30.8576  30.8583  31.5519  31.5519
    31.8069  31.8077  31.8079  31.8095  32.1506  32.1528  32.7561  32.7575
    33.1596  33.1613  33.1613  33.1627  33.6941  33.6943  33.7924  33.7927
    35.4338  35.4340  35.6412  35.6420  35.6423  35.6428  35.9667  35.9698
    36.0968  36.0968  36.1952  36.1955  37.0130  37.0136  37.3901  37.3912
    37.3916  37.3930  37.6421  37.6437  37.6506  37.6528  38.0253  38.0262
    38.0272  38.0275  38.4589  38.4592  38.4599  38.4608  38.5689  38.5704
    38.6572  38.6577  38.6579  38.6585  38.8962  38.8968  38.9194  38.9217
    39.6880  39.6894  40.0037  40.0062  40.0066  40.0068  40.4197  40.4207
    40.4216  40.4218  40.4896  40.4905  41.0401  41.0413  41.1678  41.1683
    41.1685  41.1697  41.3711  41.3719  41.5717  41.5722  41.8632  41.8632
    41.8766  41.8773  42.7075  42.7087  42.7093  42.7094  43.1228  43.1237
    43.2006  43.2018  43.2018  43.2030  43.4116  43.4120  44.1312  44.1317
    44.6250  44.6258  44.6259  44.6266  44.7843  44.7849  45.0774  45.0786
    45.3288  45.3295  45.3686  45.3692  45.4526  45.4530  45.4531  45.4545
    45.7233  45.7237  46.4055  46.4057  46.4062  46.4068  46.8014  46.8036
[...]
    49.2589  49.2596  49.5092  49.5104  49.5107  49.5110  49.6238  49.6240
    50.0672  50.0673  50.2383  50.2388  50.7236  50.7254  50.7257  50.7262
    51.1681  51.1684  51.1689  51.1692  51.2545  51.2557  51.3721  51.3726
    51.5976  51.5992  51.6332  51.6340  51.9651  51.9657  51.9670  51.9673
    52.1867  52.1869  52.1881  52.1887  52.1904  52.1918  52.2846  52.2860
    52.3893  52.3905  52.3905  52.3912  52.5201  52.5203  52.7158  52.7160
    52.7178  52.7180  52.8226  52.8230  52.8953  52.8969  53.0183  53.0197
    53.3211  53.3216  53.3577  53.3601  53.3606  53.3609  53.5956  53.5971
    53.6868  53.6877  53.7401  53.7410  53.8573  53.8581  53.8590  53.8600
    53.8673  53.8683  54.3698  54.3698  54.3706  54.3708  54.5533  54.5548
    55.0009  55.0037  55.1719  55.1736  55.1741  55.1754  55.4118  55.4133
    55.4137  55.4149  55.5767  55.5773  55.7928  55.7941  56.0205  56.0210
    56.7286  56.7310  57.0669  57.0675  57.1122  57.1145  57.1148  57.1155
    57.2629  57.2643  57.3106  57.3125  57.3132  57.3138  57.4192  57.4205
    57.5127  57.5139  57.6039  57.6063  58.2280  58.2290  58.2299  58.2303

     the Fermi energy is    11.3910 ev

!    total energy              =   -4439.59687862 Ry
     Harris-Foulkes estimate   =   -4439.59687884 Ry
     estimated scf accuracy    <       0.00000025 Ry

     The total energy is the sum of the following terms:

     one-electron contribution =   -2118.30348979 Ry
     hartree contribution      =    1288.03587879 Ry
     xc contribution           =    -649.32976678 Ry
     ewald contribution        =   -2960.06000834 Ry
     Hubbard energy            =       0.05857480 Ry
     smearing contrib. (-TS)   =       0.00193270 Ry

     total magnetization       =    47.98 Bohr mag/cell
     absolute magnetization    =    49.33 Bohr mag/cell

     convergence has been achieved in   7 iterations

     Writing output data file pwscf.save

     General routines

     Parallel routines
     Hubbard U routines

   This run was terminated on:   1: 6:28  15Feb2014

   JOB DONE.