     Program PWSCF v.5.0.2 (svn rev. 9656) starts on  5May2014 at 10:37:25

     Current dimensions of program PWSCF are:
     Max number of different atomic species (ntypx) = 10
     Max number of k-points (npk) =  40000
     Max angular momentum in pseudopotentials (lmaxx) =  3
     Reading input from pwscf.in
Warning: card &CELL ignored
Warning: card / ignored

     Subspace diagonalization in iterative solution of the eigenvalue problem:
     a serial algorithm will be used

     Found symmetry operation: I + ( -0.5000  0.0000  0.0000)
     This is a supercell, fractional translations are disabled

     bravais-lattice index     =            0
     lattice parameter (alat)  =      10.3179  a.u.
     unit-cell volume          =    6964.3238 (a.u.)^3
     number of atoms/cell      =           30
     number of atomic types    =            3
     number of electrons       =       224.00
     number of Kohn-Sham states=          336
     kinetic-energy cutoff     =      40.0000  Ry
     charge density cutoff     =     500.0000  Ry
     convergence threshold     =      1.0E-06
     mixing beta               =       0.7000
     number of iterations used =            8  plain     mixing
     Exchange-correlation      = SLA  PW   PBE  PBE ( 1 4 3 4 0)
     EXX-fraction              =        0.00
     nstep                     =           50

     celldm(1)=  10.317905  celldm(2)=   0.000000  celldm(3)=   0.000000
     celldm(4)=   0.000000  celldm(5)=   0.000000  celldm(6)=   0.000000

     crystal axes: (cart. coord. in units of alat)
               a(1) = (   1.000000   0.000000   0.000000 )
               a(2) = (   0.000000   1.282117   0.000000 )
               a(3) = (   0.000000   0.000000   4.945120 )

     reciprocal axes: (cart. coord. in units 2 pi/alat)
               b(1) = (  1.000000  0.000000  0.000000 )
               b(2) = (  0.000000  0.779960  0.000000 )
               b(3) = (  0.000000  0.000000  0.202220 )

     PseudoPot. # 1 for O  read from file:
     /home/camp/zhonxu/pseudo/o_pbe_v1.01.uspp.F.UPF
     MD5 check sum: 2bcb18d16ea4b960afae9ec6d52f22d2
     Pseudo is Ultrasoft + core correction, Zval =  6.0
     Generated by new atomic code, or converted to UPF format
     Using radial grid of  737 points,  5 beta functions with:
                l(1) =   0
                l(2) =   0
                l(3) =   1
                l(4) =   1
                l(5) =   2
     Q(r) pseudized with  8 coefficients,  rinner =    0.900   0.900   0.900
                                                       0.900   0.900

     PseudoPot. # 2 for Mo read from file:
     /home/camp/zhonxu/pseudo/mo_pbe_v1.uspp.F.UPF
     MD5 check sum: 30c4dcd161f5d35cd49bb5239c51a633
     Pseudo is Ultrasoft + core correction, Zval = 14.0
     Generated by new atomic code, or converted to UPF format
     Using radial grid of  889 points,  6 beta functions with:
                l(1) =   0
                l(2) =   0
                l(3) =   1
                l(4) =   1
                l(5) =   2
                l(6) =   2
     Q(r) pseudized with  6 coefficients,  rinner =    1.000   1.000   1.000
                                                       1.000   1.000

     PseudoPot. # 3 for H  read from file:
     /home/camp/zhonxu/pseudo/h_pbe_v1.uspp.F.UPF
     MD5 check sum: 3408e3ff4ec8b0a4e358431e7e038a48
     Pseudo is Ultrasoft, Zval =  1.0
     Generated by new atomic code, or converted to UPF format
     Using radial grid of  615 points,  2 beta functions with:
                l(1) =   0
                l(2) =   0
     Q(r) pseudized with  8 coefficients,  rinner =    0.700

     atomic species   valence    mass     pseudopotential
        O0             6.00    15.99940     O ( 1.00)
        Mo1           14.00    95.94000     Mo( 1.00)
        H2             1.00     1.00794     H ( 1.00)

     Simplified LDA+U calculation (l_max = 2) with parameters (eV):
     atomic species    L          U    alpha       J0     beta
        Mo1            2     1.5000   0.0000   0.0000   0.0000

     No symmetry found

   Cartesian axes

     site n.     atom                  positions (alat units)
         1           O0  tau(   1) = (   0.0000000   0.0000000   1.8465574  )
         2           O0  tau(   2) = (   0.0000000   0.6410583   1.8808271  )
         3           Mo1 tau(   3) = (   0.2500000   0.6410583   2.1650231  )
         4           Mo1 tau(   4) = (   0.0000000   0.0000000   2.2064633  )
         5           O0  tau(   5) = (   0.2500000   1.0000510   2.1927158  )
         6           O0  tau(   6) = (   0.2500000   0.2820657   2.1921224  )
         7           O0  tau(   7) = (   0.0000000   0.6410583   2.4520379  )
         8           O0  tau(   8) = (   0.0000000   0.0000000   2.5658746  )
         9           Mo1 tau(   9) = (   0.2500000   0.0000000   2.8596642  )
        10           Mo1 tau(  10) = (   0.0000000   0.6410583   2.7884050  )
        11           O0  tau(  11) = (   0.2500000   0.9231240   2.8369661  )
        12           O0  tau(  12) = (   0.2500000   0.3589927   2.8372628  )
        13           O0  tau(  13) = (   0.0000000   0.0000000   3.1104807  )
        14           O0  tau(  14) = (   0.5000000   0.0000000   1.8465574  )
        15           O0  tau(  15) = (   0.5000000   0.6410583   1.8808271  )
        16           Mo1 tau(  16) = (   0.7500000   0.6410583   2.1650231  )
        17           Mo1 tau(  17) = (   0.5000000   0.0000000   2.2064633  )
        18           O0  tau(  18) = (   0.7500000   1.0000510   2.1927158  )
        19           O0  tau(  19) = (   0.7500000   0.2820657   2.1921224  )
        20           O0  tau(  20) = (   0.5000000   0.6410583   2.4520379  )
        21           O0  tau(  21) = (   0.5000000   0.0000000   2.5658746  )
        22           Mo1 tau(  22) = (   0.7500000   0.0000000   2.8596642  )
        23           Mo1 tau(  23) = (   0.5000000   0.6410583   2.7884050  )
        24           O0  tau(  24) = (   0.7500000   0.9231240   2.8369661  )
        25           O0  tau(  25) = (   0.7500000   0.3589927   2.8372628  )
        26           O0  tau(  26) = (   0.5000000   0.0000000   3.1104807  )
        27           H2  tau(  27) = (  -0.0004900   0.7868222   1.7746059  )
        28           H2  tau(  28) = (   0.4995100   0.7868222   1.7746059  )
        29           H2  tau(  29) = (   0.1657500   0.0265270   1.7749026  )
        30           H2  tau(  30) = (   0.6657500   0.0265270   1.7749026  )

     number of k points=    10  Methfessel-Paxton smearing, width (Ry)=  0.0100
                       cart. coord. in units 2pi/alat
        k(    1) = (   0.0000000   0.0000000   0.0000000), wk =   0.1250000
        k(    2) = (   0.0000000   0.1949901   0.0000000), wk =   0.2500000
        k(    3) = (   0.0000000  -0.3899801   0.0000000), wk =   0.1250000
        k(    4) = (   0.2500000   0.0000000   0.0000000), wk =   0.2500000
        k(    5) = (   0.2500000   0.1949901   0.0000000), wk =   0.2500000
        k(    6) = (   0.2500000  -0.3899801   0.0000000), wk =   0.2500000
        k(    7) = (  -0.5000000   0.0000000   0.0000000), wk =   0.1250000
        k(    8) = (  -0.5000000   0.1949901   0.0000000), wk =   0.2500000
        k(    9) = (  -0.5000000  -0.3899801   0.0000000), wk =   0.1250000
        k(   10) = (  -0.2500000   0.1949901   0.0000000), wk =   0.2500000

     Largest allocated arrays     est. size (Mb)     dimensions
     Largest temporary arrays     est. size (Mb)     dimensions

     Check: negative/imaginary core charge=   -0.000003    0.000000

     Initial potential from superposition of free atoms
     Check: negative starting charge=   -0.002478

     starting charge  223.99143, renormalised to  224.00000

     negative rho (up, down):  0.248E-02 0.000E+00
     Number of +U iterations with fixed ns =  0
     Starting occupations:
 --- enter write_ns ---
 LDA+U parameters:
U( 2)     =  1.50000000
alpha( 2) =  0.00000000
atom    3   Tr[ns(na)] =   5.00000
    eigenvalues:
  0.500  0.500  0.500  0.500  0.500
    eigenvectors:
  1.000  0.000  0.000  0.000  0.000
  0.000  1.000  0.000  0.000  0.000
  0.000  0.000  1.000  0.000  0.000
  0.000  0.000  0.000  1.000  0.000
  0.000  0.000  0.000  0.000  1.000
    occupations:
  0.500  0.000  0.000  0.000  0.000
  0.000  0.500  0.000  0.000  0.000
  0.000  0.000  0.500  0.000  0.000
  0.000  0.000  0.000  0.500  0.000
  0.000  0.000  0.000  0.000  0.500
atom    4   Tr[ns(na)] =   5.00000
    eigenvalues:
  0.500  0.500  0.500  0.500  0.500
    eigenvectors:
  1.000  0.000  0.000  0.000  0.000
  0.000  1.000  0.000  0.000  0.000
  0.000  0.000  1.000  0.000  0.000
  0.000  0.000  0.000  1.000  0.000
  0.000  0.000  0.000  0.000  1.000
    occupations:
  0.500  0.000  0.000  0.000  0.000
  0.000  0.500  0.000  0.000  0.000
  0.000  0.000  0.500  0.000  0.000
  0.000  0.000  0.000  0.500  0.000
  0.000  0.000  0.000  0.000  0.500
atom    9   Tr[ns(na)] =   5.00000
    eigenvalues:
  0.500  0.500  0.500  0.500  0.500
    eigenvectors:
  1.000  0.000  0.000  0.000  0.000
  0.000  1.000  0.000  0.000  0.000
  0.000  0.000  1.000  0.000  0.000
  0.000  0.000  0.000  1.000  0.000
  0.000  0.000  0.000  0.000  1.000
    occupations:
  0.500  0.000  0.000  0.000  0.000
  0.000  0.500  0.000  0.000  0.000
  0.000  0.000  0.500  0.000  0.000
  0.000  0.000  0.000  0.500  0.000
  0.000  0.000  0.000  0.000  0.500
atom   10   Tr[ns(na)] =   5.00000
    eigenvalues:
  0.500  0.500  0.500  0.500  0.500
    eigenvectors:
  1.000  0.000  0.000  0.000  0.000
  0.000  1.000  0.000  0.000  0.000
  0.000  0.000  1.000  0.000  0.000
  0.000  0.000  0.000  1.000  0.000
  0.000  0.000  0.000  0.000  1.000
    occupations:
  0.500  0.000  0.000  0.000  0.000
  0.000  0.500  0.000  0.000  0.000
  0.000  0.000  0.500  0.000  0.000
  0.000  0.000  0.000  0.500  0.000
  0.000  0.000  0.000  0.000  0.500
atom   16   Tr[ns(na)] =   5.00000
    eigenvalues:
  0.500  0.500  0.500  0.500  0.500
    eigenvectors:
  1.000  0.000  0.000  0.000  0.000
  0.000  1.000  0.000  0.000  0.000
  0.000  0.000  1.000  0.000  0.000
  0.000  0.000  0.000  1.000  0.000
  0.000  0.000  0.000  0.000  1.000
    occupations:
  0.500  0.000  0.000  0.000  0.000
  0.000  0.500  0.000  0.000  0.000
  0.000  0.000  0.500  0.000  0.000
  0.000  0.000  0.000  0.500  0.000
  0.000  0.000  0.000  0.000  0.500
atom   17   Tr[ns(na)] =   5.00000
    eigenvalues:
  0.500  0.500  0.500  0.500  0.500
    eigenvectors:
  1.000  0.000  0.000  0.000  0.000
  0.000  1.000  0.000  0.000  0.000
  0.000  0.000  1.000  0.000  0.000
  0.000  0.000  0.000  1.000  0.000
  0.000  0.000  0.000  0.000  1.000
    occupations:
  0.500  0.000  0.000  0.000  0.000
  0.000  0.500  0.000  0.000  0.000
  0.000  0.000  0.500  0.000  0.000
  0.000  0.000  0.000  0.500  0.000
  0.000  0.000  0.000  0.000  0.500
atom   22   Tr[ns(na)] =   5.00000
    eigenvalues:
  0.500  0.500  0.500  0.500  0.500
    eigenvectors:
  1.000  0.000  0.000  0.000  0.000
  0.000  1.000  0.000  0.000  0.000
  0.000  0.000  1.000  0.000  0.000
  0.000  0.000  0.000  1.000  0.000
  0.000  0.000  0.000  0.000  1.000
    occupations:
[...]
 -0.088 -0.000 -0.010  0.624  0.000
  0.000 -0.002 -0.000  0.000  0.612
atom    4   Tr[ns(na)] =   5.82126
    eigenvalues:
  0.475  0.523  0.580  0.610  0.723
    eigenvectors:
  0.000  0.000  0.975  0.023  0.002
  0.001  0.000  0.023  0.976  0.000
  0.999  0.000  0.000  0.001  0.000
  0.000  0.000  0.001  0.000  0.998
  0.000  1.000  0.000  0.000  0.000
    occupations:
  0.581  0.004  0.001 -0.006  0.000
  0.004  0.609  0.004 -0.001 -0.000
  0.001  0.004  0.475 -0.002  0.000
 -0.006 -0.001 -0.002  0.723  0.000
  0.000 -0.000  0.000  0.000  0.523
atom    9   Tr[ns(na)] =   5.82605
    eigenvalues:
  0.524  0.531  0.579  0.586  0.693
    eigenvectors:
  0.000  0.000  0.244  0.000  0.756
  0.000  0.000  0.000  1.000  0.000
  0.000  0.999  0.000  0.000  0.000
  0.000  0.000  0.756  0.000  0.244
  0.999  0.000  0.000  0.000  0.000
    occupations:
  0.665 -0.000  0.002 -0.049 -0.001
 -0.000  0.586 -0.000  0.000 -0.001
  0.002 -0.000  0.531 -0.001  0.000
 -0.049  0.000 -0.001  0.607  0.000
 -0.001 -0.001  0.000  0.000  0.524
atom   10   Tr[ns(na)] =   5.78328
    eigenvalues:
  0.499  0.507  0.509  0.633  0.744
    eigenvectors:
  0.943  0.000  0.049  0.000  0.007
  0.000  0.000  0.000  1.000  0.000
  0.050  0.001  0.949  0.000  0.000
  0.007  0.000  0.000  0.000  0.993
  0.000  0.999  0.001  0.000  0.000
    occupations:
  0.502  0.000 -0.002 -0.021 -0.000
  0.000  0.633 -0.001  0.000 -0.000
 -0.002 -0.001  0.508 -0.000 -0.000
 -0.021  0.000 -0.000  0.742  0.000
 -0.000 -0.000 -0.000  0.000  0.507
atom   16   Tr[ns(na)] =   5.83268
    eigenvalues:
  0.499  0.506  0.557  0.612  0.742
    eigenvectors:
  0.000  0.015  0.356  0.000  0.629
  0.999  0.000  0.000  0.000  0.000
  0.000  0.985  0.006  0.000  0.008
  0.000  0.000  0.637  0.000  0.362
  0.000  0.000  0.000  1.000  0.000
    occupations:
  0.673  0.000  0.019 -0.088  0.000
  0.000  0.499 -0.000 -0.000 -0.002
  0.019 -0.000  0.509 -0.010 -0.000
 -0.088 -0.000 -0.010  0.624  0.000
  0.000 -0.002 -0.000  0.000  0.612
atom   17   Tr[ns(na)] =   5.82151
    eigenvalues:
  0.475  0.523  0.580  0.610  0.723
    eigenvectors:
  0.000  0.000  0.975  0.023  0.002
  0.001  0.000  0.023  0.976  0.000
  0.999  0.000  0.000  0.001  0.000
  0.000  0.000  0.001  0.000  0.998
  0.000  1.000  0.000  0.000  0.000
    occupations:
  0.581  0.004  0.001 -0.006  0.000
  0.004  0.609  0.004 -0.001 -0.000
  0.001  0.004  0.475 -0.002  0.000
 -0.006 -0.001 -0.002  0.723  0.000
  0.000 -0.000  0.000  0.000  0.523
atom   22   Tr[ns(na)] =   5.82618
    eigenvalues:
  0.524  0.531  0.579  0.586  0.693
    eigenvectors:
  0.000  0.000  0.244  0.000  0.756
  0.000  0.000  0.000  1.000  0.000
  0.000  0.999  0.000  0.000  0.000
  0.000  0.000  0.756  0.000  0.244
  0.999  0.000  0.000  0.000  0.000
    occupations:
  0.665 -0.000  0.002 -0.049 -0.001
 -0.000  0.586 -0.000  0.000 -0.001
  0.002 -0.000  0.531 -0.001  0.000
 -0.049  0.000 -0.001  0.607  0.000
 -0.001 -0.001  0.000  0.000  0.524
atom   23   Tr[ns(na)] =   5.78340
    eigenvalues:
  0.499  0.507  0.509  0.633  0.744
    eigenvectors:
  0.943  0.000  0.049  0.000  0.007
  0.000  0.000  0.000  1.000  0.000
  0.050  0.001  0.949  0.000  0.000
  0.007  0.000  0.000  0.000  0.993
  0.000  0.999  0.001  0.000  0.000
    occupations:
  0.502  0.000 -0.002 -0.021 -0.000
  0.000  0.633 -0.001  0.000 -0.000
 -0.002 -0.001  0.508 -0.000 -0.000
 -0.021  0.000 -0.000  0.742  0.000
 -0.000 -0.000 -0.000  0.000  0.507
N of occupied +U levels =  46.5270539
 --- exit write_ns ---

     Threshold (ethr) on eigenvalues was too large:
     Diagonalizing with lowered threshold

     Davidson diagonalization with overlap
     ethr =  7.51E-09,  avg # of iterations =  2.0

[...]

     total energy              =   -1699.18320328 Ry
     Harris-Foulkes estimate   =   -1699.18320329 Ry
     estimated scf accuracy    <       0.00000003 Ry

     iteration # 12     ecut=    40.00 Ry     beta=0.70
     Davidson diagonalization with overlap
     ethr =  1.27E-11,  avg # of iterations =  1.0

     negative rho (up, down):  0.352E-02 0.000E+00

     End of self-consistent calculation
 --- enter write_ns ---
 LDA+U parameters:
U( 2)     =  1.50000000
alpha( 2) =  0.00000000
atom    3   Tr[ns(na)] =   5.83377
    eigenvalues:
  0.499  0.507  0.557  0.612  0.742
    eigenvectors:
  0.000  0.015  0.356  0.000  0.629
  0.999  0.000  0.000  0.000  0.000
  0.000  0.985  0.007  0.000  0.008
  0.000  0.000  0.637  0.000  0.362
  0.000  0.000  0.000  1.000  0.000
    occupations:
  0.673  0.000  0.019 -0.088  0.000
  0.000  0.499 -0.000 -0.000 -0.002
  0.019 -0.000  0.509 -0.010 -0.000
 -0.088 -0.000 -0.010  0.624  0.000
  0.000 -0.002 -0.000  0.000  0.612
atom    4   Tr[ns(na)] =   5.82114
    eigenvalues:
  0.475  0.523  0.580  0.610  0.723
    eigenvectors:
  0.000  0.000  0.975  0.023  0.002
  0.001  0.000  0.024  0.975  0.000
  0.999  0.000  0.000  0.001  0.000
  0.000  0.000  0.001  0.000  0.998
  0.000  1.000  0.000  0.000  0.000
    occupations:
  0.581  0.004  0.001 -0.006  0.000
  0.004  0.609  0.004 -0.001 -0.000
  0.001  0.004  0.475 -0.002  0.000
 -0.006 -0.001 -0.002  0.723  0.000
  0.000 -0.000  0.000  0.000  0.523
atom    9   Tr[ns(na)] =   5.82508
    eigenvalues:
  0.524  0.531  0.579  0.586  0.693
    eigenvectors:
  0.000  0.000  0.244  0.000  0.755
  0.000  0.000  0.000  1.000  0.000
  0.000  0.999  0.000  0.000  0.000
  0.000  0.000  0.756  0.000  0.244
  0.999  0.000  0.000  0.000  0.000
    occupations:
  0.665 -0.000  0.002 -0.049 -0.001
 -0.000  0.586 -0.000  0.000 -0.001
  0.002 -0.000  0.531 -0.001  0.000
 -0.049  0.000 -0.001  0.607  0.000
 -0.001 -0.001  0.000  0.000  0.524
atom   10   Tr[ns(na)] =   5.78269
    eigenvalues:
  0.499  0.507  0.508  0.633  0.744
    eigenvectors:
  0.942  0.000  0.050  0.000  0.007
  0.000  0.000  0.000  1.000  0.000
  0.051  0.001  0.948  0.000  0.000
  0.007  0.000  0.000  0.000  0.993
  0.000  0.998  0.002  0.000  0.000
    occupations:
  0.502  0.000 -0.002 -0.021 -0.000
  0.000  0.633 -0.001  0.000 -0.000
 -0.002 -0.001  0.508 -0.000 -0.000
 -0.021  0.000 -0.000  0.742  0.000
 -0.000 -0.000 -0.000  0.000  0.507
atom   16   Tr[ns(na)] =   5.83377
    eigenvalues:
  0.499  0.507  0.557  0.612  0.742
    eigenvectors:
  0.000  0.015  0.356  0.000  0.629
  0.999  0.000  0.000  0.000  0.000
  0.000  0.985  0.007  0.000  0.008
  0.000  0.000  0.637  0.000  0.362
  0.000  0.000  0.000  1.000  0.000
    occupations:
  0.673  0.000  0.019 -0.088  0.000
  0.000  0.499 -0.000 -0.000 -0.002
  0.019 -0.000  0.509 -0.010 -0.000
 -0.088 -0.000 -0.010  0.624  0.000
  0.000 -0.002 -0.000  0.000  0.612
atom   17   Tr[ns(na)] =   5.82113
    eigenvalues:
  0.475  0.523  0.580  0.610  0.723
    eigenvectors:
  0.000  0.000  0.975  0.023  0.002
  0.001  0.000  0.024  0.975  0.000
  0.999  0.000  0.000  0.001  0.000
  0.000  0.000  0.001  0.000  0.998
  0.000  1.000  0.000  0.000  0.000
    occupations:
  0.581  0.004  0.001 -0.006  0.000
  0.004  0.609  0.004 -0.001 -0.000
  0.001  0.004  0.475 -0.002  0.000
 -0.006 -0.001 -0.002  0.723  0.000
  0.000 -0.000  0.000  0.000  0.523
atom   22   Tr[ns(na)] =   5.82509
    eigenvalues:
  0.524  0.531  0.579  0.586  0.693
    eigenvectors:
  0.000  0.000  0.244  0.000  0.755
  0.000  0.000  0.000  1.000  0.000
  0.000  0.999  0.000  0.000  0.000
  0.000  0.000  0.756  0.000  0.244
  0.999  0.000  0.000  0.000  0.000
    occupations:
  0.665 -0.000  0.002 -0.049 -0.001
 -0.000  0.586 -0.000  0.000 -0.001
  0.002 -0.000  0.531 -0.001  0.000
 -0.049  0.000 -0.001  0.607  0.000
 -0.001 -0.001  0.000  0.000  0.524
atom   23   Tr[ns(na)] =   5.78275
    eigenvalues:
  0.499  0.507  0.508  0.633  0.744
    eigenvectors:
  0.942  0.000  0.050  0.000  0.007
  0.000  0.000  0.000  1.000  0.000
  0.051  0.001  0.948  0.000  0.000
  0.007  0.000  0.000  0.000  0.993
  0.000  0.998  0.002  0.000  0.000
    occupations:
  0.502  0.000 -0.002 -0.021 -0.000
  0.000  0.633 -0.001  0.000 -0.000
 -0.002 -0.001  0.508 -0.000 -0.000
 -0.021  0.000 -0.000  0.742  0.000
 -0.000 -0.000 -0.000  0.000  0.507
N of occupied +U levels =  46.5254043
 --- exit write_ns ---

[...]

          k = 0.2500-0.3900 0.0000 ( 29726 PWs)   bands (ev):

[...]

          k =-0.2500 0.1950 0.0000 ( 29746 PWs)   bands (ev):

   -62.3232 -62.2775 -62.2369 -62.1960 -62.1888 -62.1175 -62.1066 -62.0352
   -36.8803 -36.7786 -36.7010 -36.6952 -36.6250 -36.5609 -36.5447 -36.4800
   -36.4452 -36.4285 -36.3676 -36.3629 -36.3224 -36.3052 -36.2769 -36.2598
   -36.2334 -36.1763 -36.1419 -36.1028 -36.0944 -35.8309 -35.8238 -35.7516
   -20.7693 -20.5230 -19.9037 -19.6922 -19.6499 -19.5974 -19.4359 -19.3620
   -19.2621 -19.0942 -19.0427 -18.8639 -18.8092 -18.7997 -18.6436 -18.5826
   -18.0941 -17.9433  -8.7779  -8.6383  -8.0206  -7.7689  -7.6335  -7.6292
    -7.5305  -7.4040  -7.3315  -7.2519  -7.1627  -7.0875  -6.9052  -6.8891
    -6.6484  -6.2936  -6.2170  -6.1140  -6.0889  -5.9429  -5.8455  -5.8349
    -5.6947  -5.5711  -5.4333  -5.3404  -5.2621  -5.2276  -5.0201  -4.9108
    -4.7431  -4.6213  -4.5980  -4.4809  -4.3933  -4.3280  -4.3071  -4.2082
    -4.1713  -4.1198  -4.0573  -3.8878  -3.8007  -3.6933  -3.4924  -3.3556
    -3.3291  -3.2613  -3.1908  -3.0436  -2.9936  -2.7565  -2.6517  -2.4579
    -1.8061  -1.6409  -1.4548  -0.6981  -0.5702  -0.3704  -0.3065   0.1232
     0.1885   0.5467   0.7781   0.7986   0.9856   1.0581   1.1784   1.4042
     1.4655   1.4869   1.6198   1.6425   1.8585   1.9139   2.0023   2.0417
     2.3532   2.4752   3.3353   3.4735   3.7049   3.7118   3.9106   4.0526
     4.3307   4.3722   4.5632   4.6153   4.7142   4.8502   4.9516   5.1831
     5.5374   5.6805   5.7631   5.8979   5.9246   6.0890   6.3067   6.4110
     6.5606   6.6648   6.9661   6.9973   7.1100   7.2747   7.5176   7.6047
     7.9268   7.9368   8.1834   8.2795   8.2869   8.4760   8.6436   8.6522
     8.9125   8.9951   9.0667   9.2915   9.3961   9.4254   9.5061   9.5480
     9.5720   9.6060   9.8344   9.9762  10.0326  10.1817  10.2279  10.2745
    10.4778  10.4889  10.6251  10.7186  10.7342  10.9334  11.0603  11.0857
    11.0859  11.2453  11.5280  11.6041  11.6120  11.7385  11.8028  11.9151
    11.9549  12.0796  12.2681  12.3124  12.3417  12.3679  12.4511  12.5949
    12.6801  12.7445  12.8555  12.8922  12.9706  13.0684  13.1093  13.1896
    13.3219  13.4229  13.4325  13.4957  13.5119  13.6286  13.6661  13.7235
    13.8560  13.8840  13.9628  13.9901  14.1250  14.1538  14.2474  14.3473
    14.3931  14.4496  14.5057  14.5677  14.6089  14.7333  14.8395  14.8487
    14.9505  15.0458  15.0472  15.2080  15.2918  15.3976  15.4936  15.5413
    15.6410  15.6580  15.7528  15.8222  15.8883  15.9514  16.0398  16.0951
    16.1900  16.2702  16.2884  16.3380  16.3731  16.4459  16.5803  16.6958
    16.7129  16.7718  16.7721  16.8876  17.0072  17.0924  17.1836  17.1869
    17.2213  17.3092  17.3445  17.4046  17.4970  17.6800  17.6903  17.7921
    17.8997  17.9138  18.0926  18.0972  18.1828  18.2308  18.3289  18.3571
    18.4173  18.4335  18.5242  18.5544  18.6106  18.7857  18.8654  19.0048
    19.0628  19.1167  19.1414  19.2505  19.2974  19.4964  19.5630  19.5996
    19.7053  19.7733  19.8003  19.9024  19.9647  20.0586  20.1434  20.1454
    20.2006  20.2596  20.3351  20.3697  20.4091  20.4246  20.5092  20.5152
    20.6501  20.6944  20.7367  20.8164  20.9274  20.9658  21.0237  21.0655
    21.1119  21.1957  21.2096  21.2966  21.4260  21.4741  21.5547  21.6429

     the Fermi energy is     0.1133 ev

!    total energy              =   -1699.18320328 Ry
     Harris-Foulkes estimate   =   -1699.18320329 Ry
     estimated scf accuracy    <          6.0E-09 Ry

     The total energy is the sum of the following terms:

     one-electron contribution =  -21423.28654415 Ry
     hartree contribution      =   10733.23073222 Ry
     xc contribution           =    -286.61369623 Ry
     ewald contribution        =    9276.44518924 Ry
     Hubbard energy            =       1.04218319 Ry
     smearing contrib. (-TS)   =      -0.00106756 Ry

     convergence has been achieved in  12 iterations

     Forces acting on atoms (Ry/au):

     negative rho (up, down):  0.352E-02 0.000E+00
     atom    1 type  1   force =    -0.00233666   -0.00526471   -0.00035302
     atom    2 type  1   force =    -0.00005942    0.01008127    0.00007873
     atom    3 type  2   force =    -0.00029910   -0.00576608    0.00080547
     atom    4 type  2   force =    -0.00076324    0.00314401    0.00002053
     atom    5 type  1   force =     0.00167912   -0.00178493   -0.00001283
     atom    6 type  1   force =     0.00000253   -0.00059638   -0.00000883
     atom    7 type  1   force =     0.00022619    0.00055934   -0.00065798
     atom    8 type  1   force =     0.00312623    0.00076071   -0.00011241
     atom    9 type  2   force =    -0.00195284   -0.00048025   -0.00019686
     atom   10 type  2   force =     0.00001146    0.00080262    0.00081191
     atom   11 type  1   force =    -0.00022118   -0.04641461   -0.00001837
     atom   12 type  1   force =     0.00027471    0.04557121   -0.00002508
     atom   13 type  1   force =    -0.00010368    0.00022589   -0.00007586
     atom   14 type  1   force =    -0.00232985   -0.00526480   -0.00035343
     atom   15 type  1   force =    -0.00005937    0.01007883    0.00007340
     atom   16 type  2   force =    -0.00031190   -0.00576630    0.00080515
     atom   17 type  2   force =    -0.00076451    0.00314452    0.00002510
     atom   18 type  1   force =     0.00168620   -0.00178486   -0.00001240
     atom   19 type  1   force =     0.00000697   -0.00059677   -0.00000907
     atom   20 type  1   force =     0.00022626    0.00055928   -0.00065284
     atom   21 type  1   force =     0.00312301    0.00076160   -0.00011077
     atom   22 type  2   force =    -0.00197464   -0.00048038   -0.00019778
     atom   23 type  2   force =     0.00001107    0.00080234    0.00079406
     atom   24 type  1   force =    -0.00019946   -0.04641616   -0.00001840
     atom   25 type  1   force =     0.00029843    0.04557248   -0.00002533
     atom   26 type  1   force =    -0.00010810    0.00022481   -0.00007609
     atom   27 type  3   force =    -0.00000325   -0.00046555   -0.00055588
     atom   28 type  3   force =    -0.00000328   -0.00046653   -0.00055412
     atom   29 type  3   force =     0.00041202   -0.00036988    0.00030549
     atom   30 type  3   force =     0.00040628   -0.00037074    0.00030751

     Total force =     0.002382     Total SCF correction =     0.000325
     SCF correction compared to forces is large: reduce conv_thr to get better values

     bfgs converged in   4 scf cycles and   3 bfgs steps
     (criteria: energy < 0.10E-03, force < 0.10E-02)

     End of BFGS Geometry Optimization

     Final energy   =   -1699.1832032804 Ry
Begin final coordinates

ATOMIC_POSITIONS (crystal)
O0       0.000000000   0.000000000   0.373449452    0   0   1
O0       0.000000000   0.500000000   0.380384679    0   0   1
Mo1      0.250000000   0.500000000   0.437775611    0   0   1
Mo1      0.000000000   0.000000000   0.446144070    0   0   1
O0       0.250000000   0.780000000   0.443427933    0   0   1
O0       0.250000000   0.220000000   0.443308211    0   0   1
O0       0.000000000   0.500000000   0.496004341    0   0   1
O0       0.000000000   0.000000000   0.518611228    0   0   1
Mo1      0.250000000   0.000000000   0.578332729    0   0   1
Mo1      0.000000000   0.500000000   0.563817628    0   0   1
O0       0.250000000   0.720000000   0.573690152    0   0   1
O0       0.250000000   0.280000000   0.573748603    0   0   1
O0       0.000000000   0.000000000   0.629042231    0   0   1
O0       0.500000000   0.000000000   0.373449801    0   0   1
O0       0.500000000   0.500000000   0.380383630    0   0   1
Mo1      0.750000000   0.500000000   0.437775615    0   0   1
Mo1      0.500000000   0.000000000   0.446144026    0   0   1
O0       0.750000000   0.780000000   0.443427956    0   0   1
O0       0.750000000   0.220000000   0.443308184    0   0   1
O0       0.500000000   0.500000000   0.496004532    0   0   1
O0       0.500000000   0.000000000   0.518611155    0   0   1
Mo1      0.750000000   0.000000000   0.578332604    0   0   1
Mo1      0.500000000   0.500000000   0.563818546    0   0   1
O0       0.750000000   0.720000000   0.573690101    0   0   1
O0       0.750000000   0.280000000   0.573748521    0   0   1
O0       0.500000000   0.000000000   0.629043472    0   0   1
H2      -0.000492713   0.613400801   0.358818412
H2       0.499507251   0.613402606   0.358817911
H2       0.165939906   0.020532802   0.358984389
H2       0.665939629   0.020532850   0.358984275
End final coordinates

     General routines

     Parallel routines
     Hubbard U routines

   This run was terminated on:  13:46:55   5May2014

   JOB DONE.