     Program PWSCF v.5.0.2 (svn rev. 9656) starts on  9May2014 at  6:20:50

     Current dimensions of program PWSCF are:
     Max number of different atomic species (ntypx) = 10
     Max number of k-points (npk) =  40000
     Max angular momentum in pseudopotentials (lmaxx) =  3
     Reading input from pwscf.in
Warning: card &CELL ignored
Warning: card / ignored

     Subspace diagonalization in iterative solution of the eigenvalue problem:
     a serial algorithm will be used

     bravais-lattice index     =            0
     lattice parameter (alat)  =      11.1872  a.u.
     unit-cell volume          =    7531.8600 (a.u.)^3
     number of atoms/cell      =           30
     number of atomic types    =            3
     number of electrons       =       216.00
     number of Kohn-Sham states=          324
     kinetic-energy cutoff     =      40.0000  Ry
     charge density cutoff     =     500.0000  Ry
     convergence threshold     =      1.0E-06
     mixing beta               =       0.7000
     number of iterations used =            8  plain     mixing
     Exchange-correlation      = SLA  PW   PBE  PBE ( 1 4 3 4 0)
     EXX-fraction              =        0.00
     nstep                     =           50

     celldm(1)=  11.187179  celldm(2)=   0.000000  celldm(3)=   0.000000
     celldm(4)=   0.000000  celldm(5)=   0.000000  celldm(6)=   0.000000

     crystal axes: (cart. coord. in units of alat)
               a(1) = (   1.000000   0.000000   0.000000 )
               a(2) = (   0.000000   1.180104   0.000000 )
               a(3) = (   0.000000   0.000000   4.558482 )

     reciprocal axes: (cart. coord. in units 2 pi/alat)
               b(1) = (  1.000000  0.000000  0.000000 )
               b(2) = (  0.000000  0.847383  0.000000 )
               b(3) = (  0.000000  0.000000  0.219371 )

     PseudoPot. # 1 for O  read from file:
     /home/camp/zhonxu/pseudo/o_pbe_v1.01.uspp.F.UPF
     MD5 check sum: 2bcb18d16ea4b960afae9ec6d52f22d2
     Pseudo is Ultrasoft + core correction, Zval =  6.0
     Generated by new atomic code, or converted to UPF format
     Using radial grid of  737 points,  5 beta functions with:
                l(1) =   0
                l(2) =   0
                l(3) =   1
                l(4) =   1
                l(5) =   2
     Q(r) pseudized with  8 coefficients,  rinner =    0.900   0.900   0.900
                                                       0.900   0.900

     PseudoPot. # 2 for Nb read from file:
     /home/camp/zhonxu/pseudo/nb_pbe_v1.uspp.F.UPF
     MD5 check sum: 573aab8a2fa660278ed4a62cd769473f
     Pseudo is Ultrasoft + core correction, Zval = 13.0
     Generated by new atomic code, or converted to UPF format
     Using radial grid of  887 points,  6 beta functions with:
                l(1) =   0
                l(2) =   0
                l(3) =   1
                l(4) =   1
                l(5) =   2
                l(6) =   2
     Q(r) pseudized with  6 coefficients,  rinner =    1.000   1.000   1.000
                                                       1.000   1.000

     PseudoPot. # 3 for H  read from file:
     /home/camp/zhonxu/pseudo/h_pbe_v1.uspp.F.UPF
     MD5 check sum: 3408e3ff4ec8b0a4e358431e7e038a48
     Pseudo is Ultrasoft, Zval =  1.0
     Generated by new atomic code, or converted to UPF format
     Using radial grid of  615 points,  2 beta functions with:
                l(1) =   0
                l(2) =   0
     Q(r) pseudized with  8 coefficients,  rinner =    0.700

     atomic species   valence    mass     pseudopotential
        O0             6.00    15.99940     O ( 1.00)
        Nb1           13.00    92.90640     Nb( 1.00)
        H2             1.00     1.00794     H ( 1.00)

     Simplified LDA+U calculation (l_max = 2) with parameters (eV):
     atomic species    L          U    alpha       J0     beta
        Nb1            2     8.0000   0.0000   0.0000   0.0000

     No symmetry found

   Cartesian axes

     site n.     atom                  positions (alat units)
         1           O0  tau(   1) = (   0.0000000   0.0000000   1.7080633  )
         2           O0  tau(   2) = (   0.0000000   0.5900519   1.7583889  )
         3           Nb1 tau(   3) = (   0.2500000   0.5900519   2.0066439  )
         4           Nb1 tau(   4) = (   0.0000000   0.0000000   2.0401487  )
         5           O0  tau(   5) = (   0.2500000   0.9322821   2.0429294  )
         6           O0  tau(   6) = (   0.2500000   0.2478218   2.0431118  )
         7           O0  tau(   7) = (   0.0000000   0.5900519   2.2709903  )
         8           O0  tau(   8) = (   0.0000000   0.0000000   2.3999042  )
         9           Nb1 tau(   9) = (   0.2500000   0.0000000   2.6489340  )
        10           Nb1 tau(  10) = (   0.0000000   0.5900519   2.5868019  )
        11           O0  tau(  11) = (   0.2500000   0.8378738   2.6444667  )
        12           O0  tau(  12) = (   0.2500000   0.3422301   2.6445123  )
        13           O0  tau(  13) = (   0.0000000   0.0000000   2.8518777  )
        14           O0  tau(  14) = (   0.5000000   0.0000000   1.7080633  )
        15           O0  tau(  15) = (   0.5000000   0.5900519   1.7583889  )
        16           Nb1 tau(  16) = (   0.7500000   0.5900519   2.0066439  )
        17           Nb1 tau(  17) = (   0.5000000   0.0000000   2.0401487  )
        18           O0  tau(  18) = (   0.7500000   0.9322821   2.0429294  )
        19           O0  tau(  19) = (   0.7500000   0.2478218   2.0431118  )
        20           O0  tau(  20) = (   0.5000000   0.5900519   2.2709903  )
        21           O0  tau(  21) = (   0.5000000   0.0000000   2.3999497  )
        22           Nb1 tau(  22) = (   0.7500000   0.0000000   2.6489340  )
        23           Nb1 tau(  23) = (   0.5000000   0.5900519   2.5867563  )
        24           O0  tau(  24) = (   0.7500000   0.8378738   2.6444667  )
        25           O0  tau(  25) = (   0.7500000   0.3422301   2.6445123  )
        26           O0  tau(  26) = (   0.5000000   0.0000000   2.8518777  )
        27           H2  tau(  27) = (  -0.0004200   0.5934860   1.5928705  )
        28           H2  tau(  28) = (   0.4995800   0.5932146   1.5928249  )
        29           H2  tau(  29) = (   0.1513000  -0.0014397   1.6372701  )
        30           H2  tau(  30) = (   0.6512900  -0.0014397   1.6372701  )

     number of k points=    10  Methfessel-Paxton smearing, width (Ry)=  0.0100
                       cart. coord. in units 2pi/alat
        k(    1) = (   0.0000000   0.0000000   0.0000000), wk =   0.1250000
        k(    2) = (   0.0000000   0.2118458   0.0000000), wk =   0.2500000
        k(    3) = (   0.0000000  -0.4236915   0.0000000), wk =   0.1250000
        k(    4) = (   0.2500000   0.0000000   0.0000000), wk =   0.2500000
        k(    5) = (   0.2500000   0.2118458   0.0000000), wk =   0.2500000
        k(    6) = (   0.2500000  -0.4236915   0.0000000), wk =   0.2500000
        k(    7) = (  -0.5000000   0.0000000   0.0000000), wk =   0.1250000
        k(    8) = (  -0.5000000   0.2118458   0.0000000), wk =   0.2500000
        k(    9) = (  -0.5000000  -0.4236915   0.0000000), wk =   0.1250000
        k(   10) = (  -0.2500000   0.2118458   0.0000000), wk =   0.2500000

     Largest allocated arrays     est. size (Mb)     dimensions
     Largest temporary arrays     est. size (Mb)     dimensions

     Check: negative/imaginary core charge=   -0.000003    0.000000

     Initial potential from superposition of free atoms
     Check: negative starting charge=   -0.003843

     starting charge  215.97807, renormalised to  216.00000

     negative rho (up, down):  0.384E-02 0.000E+00
     Number of +U iterations with fixed ns =  0
     Starting occupations:
 --- enter write_ns ---
 LDA+U parameters:
U( 2)     =  8.00000000
alpha( 2) =  0.00000000
atom    3   Tr[ns(na)] =   3.00000
    eigenvalues:
  0.300  0.300  0.300  0.300  0.300
    eigenvectors:
  1.000  0.000  0.000  0.000  0.000
  0.000  1.000  0.000  0.000  0.000
  0.000  0.000  1.000  0.000  0.000
  0.000  0.000  0.000  1.000  0.000
  0.000  0.000  0.000  0.000  1.000
    occupations:
  0.300  0.000  0.000  0.000  0.000
  0.000  0.300  0.000  0.000  0.000
  0.000  0.000  0.300  0.000  0.000
  0.000  0.000  0.000  0.300  0.000
  0.000  0.000  0.000  0.000  0.300
atom    4   Tr[ns(na)] =   3.00000
    eigenvalues:
  0.300  0.300  0.300  0.300  0.300
    eigenvectors:
  1.000  0.000  0.000  0.000  0.000
  0.000  1.000  0.000  0.000  0.000
  0.000  0.000  1.000  0.000  0.000
  0.000  0.000  0.000  1.000  0.000
  0.000  0.000  0.000  0.000  1.000
    occupations:
  0.300  0.000  0.000  0.000  0.000
  0.000  0.300  0.000  0.000  0.000
  0.000  0.000  0.300  0.000  0.000
  0.000  0.000  0.000  0.300  0.000
  0.000  0.000  0.000  0.000  0.300
atom    9   Tr[ns(na)] =   3.00000
    eigenvalues:
  0.300  0.300  0.300  0.300  0.300
    eigenvectors:
  1.000  0.000  0.000  0.000  0.000
  0.000  1.000  0.000  0.000  0.000
  0.000  0.000  1.000  0.000  0.000
  0.000  0.000  0.000  1.000  0.000
  0.000  0.000  0.000  0.000  1.000
    occupations:
  0.300  0.000  0.000  0.000  0.000
  0.000  0.300  0.000  0.000  0.000
  0.000  0.000  0.300  0.000  0.000
  0.000  0.000  0.000  0.300  0.000
  0.000  0.000  0.000  0.000  0.300
atom   10   Tr[ns(na)] =   3.00000
    eigenvalues:
  0.300  0.300  0.300  0.300  0.300
    eigenvectors:
  1.000  0.000  0.000  0.000  0.000
  0.000  1.000  0.000  0.000  0.000
  0.000  0.000  1.000  0.000  0.000
  0.000  0.000  0.000  1.000  0.000
  0.000  0.000  0.000  0.000  1.000
    occupations:
  0.300  0.000  0.000  0.000  0.000
  0.000  0.300  0.000  0.000  0.000
  0.000  0.000  0.300  0.000  0.000
  0.000  0.000  0.000  0.300  0.000
  0.000  0.000  0.000  0.000  0.300
atom   16   Tr[ns(na)] =   3.00000
    eigenvalues:
  0.300  0.300  0.300  0.300  0.300
    eigenvectors:
  1.000  0.000  0.000  0.000  0.000
  0.000  1.000  0.000  0.000  0.000
  0.000  0.000  1.000  0.000  0.000
  0.000  0.000  0.000  1.000  0.000
  0.000  0.000  0.000  0.000  1.000
    occupations:
  0.300  0.000  0.000  0.000  0.000
  0.000  0.300  0.000  0.000  0.000
  0.000  0.000  0.300  0.000  0.000
  0.000  0.000  0.000  0.300  0.000
  0.000  0.000  0.000  0.000  0.300
atom   17   Tr[ns(na)] =   3.00000
    eigenvalues:
  0.300  0.300  0.300  0.300  0.300
    eigenvectors:
  1.000  0.000  0.000  0.000  0.000
  0.000  1.000  0.000  0.000  0.000
  0.000  0.000  1.000  0.000  0.000
  0.000  0.000  0.000  1.000  0.000
  0.000  0.000  0.000  0.000  1.000
    occupations:
  0.300  0.000  0.000  0.000  0.000
  0.000  0.300  0.000  0.000  0.000
  0.000  0.000  0.300  0.000  0.000
  0.000  0.000  0.000  0.300  0.000
  0.000  0.000  0.000  0.000  0.300
atom   22   Tr[ns(na)] =   3.00000
    eigenvalues:
  0.300  0.300  0.300  0.300  0.300
    eigenvectors:
  1.000  0.000  0.000  0.000  0.000
  0.000  1.000  0.000  0.000  0.000
  0.000  0.000  1.000  0.000  0.000
  0.000  0.000  0.000  1.000  0.000
  0.000  0.000  0.000  0.000  1.000
    occupations:
  0.300  0.000  0.000  0.000  0.000
  0.000  0.300  0.000  0.000  0.000
  0.000  0.000  0.300  0.000  0.000
  0.000  0.000  0.000  0.300  0.000
[...]
  0.001  0.000  0.000  0.000  0.999
  0.000  0.000  1.000  0.000  0.000
    occupations:
  0.579  0.016 -0.000  0.003 -0.000
  0.016  0.284 -0.000 -0.017  0.000
 -0.000 -0.000  0.308 -0.000  0.002
  0.003 -0.017 -0.000  0.798  0.000
 -0.000  0.000  0.002  0.000  0.558
atom    9   Tr[ns(na)] =   5.22402
    eigenvalues:
  0.406  0.450  0.473  0.638  0.644
    eigenvectors:
  0.000  0.874  0.000  0.126  0.000
  0.000  0.000  0.000  0.000  1.000
  1.000  0.000  0.000  0.000  0.000
  0.000  0.126  0.000  0.874  0.000
  0.000  0.000  1.000  0.000  0.000
    occupations:
  0.474  0.000  0.000  0.062 -0.000
  0.000  0.644  0.000  0.000 -0.000
  0.000  0.000  0.406 -0.000  0.000
  0.062  0.000 -0.000  0.615 -0.000
 -0.000 -0.000  0.000 -0.000  0.473
atom   10   Tr[ns(na)] =   5.02658
    eigenvalues:
  0.320  0.390  0.496  0.508  0.799
    eigenvectors:
  0.000  0.000  0.999  0.000  0.001
  0.000  1.000  0.000  0.000  0.000
  1.000  0.000  0.000  0.000  0.000
  0.000  0.000  0.001  0.000  0.999
  0.000  0.000  0.000  1.000  0.000
    occupations:
  0.496 -0.000 -0.000 -0.010  0.000
 -0.000  0.390  0.000  0.000  0.000
 -0.000  0.000  0.320  0.000 -0.000
 -0.010  0.000  0.000  0.799  0.000
  0.000  0.000 -0.000  0.000  0.508
atom   16   Tr[ns(na)] =   5.00974
    eigenvalues:
  0.284  0.305  0.496  0.598  0.821
    eigenvectors:
  0.000  0.000  0.000  0.337  0.663
  0.000  0.000  1.000  0.000  0.000
  0.000  1.000  0.000  0.000  0.000
  0.000  0.000  0.000  0.663  0.337
  1.000  0.000  0.000  0.000  0.000
    occupations:
  0.746  0.000  0.001 -0.106  0.000
  0.000  0.496  0.000 -0.000  0.000
  0.001  0.000  0.305 -0.000 -0.000
 -0.106 -0.000 -0.000  0.673 -0.000
  0.000  0.000 -0.000 -0.000  0.284
atom   17   Tr[ns(na)] =   5.05337
    eigenvalues:
  0.282  0.308  0.558  0.580  0.798
    eigenvectors:
  0.003  0.000  0.000  0.997  0.000
  0.996  0.000  0.000  0.003  0.001
  0.000  1.000  0.000  0.000  0.000
  0.001  0.000  0.000  0.000  0.999
  0.000  0.000  1.000  0.000  0.000
    occupations:
  0.579  0.016 -0.000  0.003 -0.000
  0.016  0.284 -0.000 -0.017  0.000
 -0.000 -0.000  0.308 -0.000  0.002
  0.003 -0.017 -0.000  0.798  0.000
 -0.000  0.000  0.002  0.000  0.558
atom   22   Tr[ns(na)] =   5.22402
    eigenvalues:
  0.406  0.450  0.473  0.638  0.644
    eigenvectors:
  0.000  0.874  0.000  0.126  0.000
  0.000  0.000  0.000  0.000  1.000
  1.000  0.000  0.000  0.000  0.000
  0.000  0.126  0.000  0.874  0.000
  0.000  0.000  1.000  0.000  0.000
    occupations:
  0.474  0.000  0.000  0.062 -0.000
  0.000  0.644 -0.000  0.000 -0.000
  0.000 -0.000  0.406 -0.000  0.000
  0.062  0.000 -0.000  0.615  0.000
 -0.000 -0.000  0.000  0.000  0.473
atom   23   Tr[ns(na)] =   5.02677
    eigenvalues:
  0.320  0.390  0.496  0.508  0.799
    eigenvectors:
  0.000  0.000  0.999  0.000  0.001
  0.000  1.000  0.000  0.000  0.000
  1.000  0.000  0.000  0.000  0.000
  0.000  0.000  0.001  0.000  0.999
  0.000  0.000  0.000  1.000  0.000
    occupations:
  0.496 -0.000 -0.000 -0.010  0.000
 -0.000  0.390  0.000  0.000  0.000
 -0.000  0.000  0.320 -0.000 -0.000
 -0.010  0.000 -0.000  0.799  0.000
  0.000  0.000 -0.000  0.000  0.508
N of occupied +U levels =  40.6275807
 --- exit write_ns ---

     Threshold (ethr) on eigenvalues was too large:
     Diagonalizing with lowered threshold

     Davidson diagonalization with overlap
     ethr =  5.45E-09,  avg # of iterations =  2.4

[...]

     total energy              =   -1524.68322097 Ry
     Harris-Foulkes estimate   =   -1524.68322097 Ry
     estimated scf accuracy    <       0.00000001 Ry

     iteration #  9     ecut=    40.00 Ry     beta=0.70
     Davidson diagonalization with overlap
     ethr =  6.75E-12,  avg # of iterations =  1.0

     negative rho (up, down):  0.369E-02 0.000E+00

     End of self-consistent calculation
 --- enter write_ns ---
 LDA+U parameters:
U( 2)     =  8.00000000
alpha( 2) =  0.00000000
atom    3   Tr[ns(na)] =   5.00971
    eigenvalues:
  0.284  0.305  0.496  0.598  0.821
    eigenvectors:
  0.000  0.000  0.000  0.337  0.663
  0.000  0.000  1.000  0.000  0.000
  0.000  1.000  0.000  0.000  0.000
  0.000  0.000  0.000  0.663  0.337
  1.000  0.000  0.000  0.000  0.000
    occupations:
  0.746  0.000  0.001 -0.105 -0.000
  0.000  0.496 -0.000 -0.000  0.000
  0.001 -0.000  0.305 -0.000 -0.000
 -0.105 -0.000 -0.000  0.673  0.000
 -0.000  0.000 -0.000  0.000  0.284
atom    4   Tr[ns(na)] =   5.05362
    eigenvalues:
  0.282  0.309  0.558  0.580  0.798
    eigenvectors:
  0.003  0.000  0.000  0.997  0.000
  0.996  0.000  0.000  0.003  0.001
  0.000  1.000  0.000  0.000  0.000
  0.001  0.000  0.000  0.000  0.999
  0.000  0.000  1.000  0.000  0.000
    occupations:
  0.579  0.016 -0.000  0.003 -0.000
  0.016  0.284 -0.000 -0.018  0.000
 -0.000 -0.000  0.309 -0.000  0.002
  0.003 -0.018 -0.000  0.798  0.000
 -0.000  0.000  0.002  0.000  0.558
atom    9   Tr[ns(na)] =   5.22400
    eigenvalues:
  0.406  0.450  0.473  0.638  0.644
    eigenvectors:
  0.000  0.874  0.000  0.126  0.000
  0.000  0.000  0.000  0.000  1.000
  1.000  0.000  0.000  0.000  0.000
  0.000  0.126  0.000  0.874  0.000
  0.000  0.000  1.000  0.000  0.000
    occupations:
  0.474  0.000  0.000  0.062 -0.000
  0.000  0.644  0.000  0.000 -0.000
  0.000  0.000  0.406 -0.000  0.000
  0.062  0.000 -0.000  0.615 -0.000
 -0.000 -0.000  0.000 -0.000  0.473
atom   10   Tr[ns(na)] =   5.02657
    eigenvalues:
  0.320  0.390  0.496  0.508  0.799
    eigenvectors:
  0.000  0.000  0.999  0.000  0.001
  0.000  1.000  0.000  0.000  0.000
  1.000  0.000  0.000  0.000  0.000
  0.000  0.000  0.001  0.000  0.999
  0.000  0.000  0.000  1.000  0.000
    occupations:
  0.496 -0.000 -0.000 -0.010  0.000
 -0.000  0.390  0.000  0.000  0.000
 -0.000  0.000  0.320  0.000 -0.000
 -0.010  0.000  0.000  0.799  0.000
  0.000  0.000 -0.000  0.000  0.508
atom   16   Tr[ns(na)] =   5.00971
    eigenvalues:
  0.284  0.305  0.496  0.598  0.821
    eigenvectors:
  0.000  0.000  0.000  0.337  0.663
  0.000  0.000  1.000  0.000  0.000
  0.000  1.000  0.000  0.000  0.000
  0.000  0.000  0.000  0.663  0.337
  1.000  0.000  0.000  0.000  0.000
    occupations:
  0.746  0.000  0.001 -0.105  0.000
  0.000  0.496  0.000 -0.000  0.000
  0.001  0.000  0.305 -0.000 -0.000
 -0.105 -0.000 -0.000  0.673 -0.000
  0.000  0.000 -0.000 -0.000  0.284
atom   17   Tr[ns(na)] =   5.05364
    eigenvalues:
  0.282  0.309  0.558  0.580  0.798
    eigenvectors:
  0.003  0.000  0.000  0.997  0.000
  0.996  0.000  0.000  0.003  0.001
  0.000  1.000  0.000  0.000  0.000
  0.001  0.000  0.000  0.000  0.999
  0.000  0.000  1.000  0.000  0.000
    occupations:
  0.579  0.016 -0.000  0.003 -0.000
  0.016  0.284 -0.000 -0.018  0.000
 -0.000 -0.000  0.309 -0.000  0.002
  0.003 -0.018 -0.000  0.798  0.000
 -0.000  0.000  0.002  0.000  0.558
atom   22   Tr[ns(na)] =   5.22400
    eigenvalues:
  0.406  0.450  0.473  0.638  0.644
    eigenvectors:
  0.000  0.874  0.000  0.126  0.000
  0.000  0.000  0.000  0.000  1.000
  1.000  0.000  0.000  0.000  0.000
  0.000  0.126  0.000  0.874  0.000
  0.000  0.000  1.000  0.000  0.000
    occupations:
  0.474  0.000  0.000  0.062 -0.000
  0.000  0.644 -0.000  0.000 -0.000
  0.000 -0.000  0.406 -0.000  0.000
  0.062  0.000 -0.000  0.615  0.000
 -0.000 -0.000  0.000  0.000  0.473
atom   23   Tr[ns(na)] =   5.02665
    eigenvalues:
  0.320  0.390  0.496  0.508  0.799
    eigenvectors:
  0.000  0.000  0.999  0.000  0.001
  0.000  1.000  0.000  0.000  0.000
  1.000  0.000  0.000  0.000  0.000
  0.000  0.000  0.001  0.000  0.999
  0.000  0.000  0.000  1.000  0.000
    occupations:
  0.496 -0.000 -0.000 -0.010  0.000
 -0.000  0.390  0.000  0.000  0.000
 -0.000  0.000  0.320 -0.000 -0.000
 -0.010  0.000 -0.000  0.799  0.000
  0.000  0.000 -0.000  0.000  0.508
N of occupied +U levels =  40.6278999
 --- exit write_ns ---

[...]

          k = 0.2500-0.4237 0.0000 ( 32188 PWs)   bands (ev):

[...]

          k =-0.2500 0.2118 0.0000 ( 32165 PWs)   bands (ev):

   -56.7405 -56.6693 -55.9905 -55.9292 -55.8107 -55.7483 -55.6334 -55.5703
   -33.4191 -32.9646 -32.8275 -32.7733 -32.7675 -32.6808 -32.5539 -32.4976
   -32.4582 -32.4060 -32.2178 -32.1575 -32.1085 -31.9591 -31.9344 -31.8349
   -31.7042 -31.6640 -31.6435 -31.5162 -31.4528 -31.3937 -31.3463 -31.3010
   -20.3264 -20.1433 -19.5332 -19.3359 -19.0527 -18.9314 -18.8373 -18.7850
   -18.7576 -18.7250 -18.6394 -18.5360 -18.1319 -18.0921 -18.0212 -17.9047
   -17.8614 -17.7740  -9.2251  -8.5096  -7.4943  -7.4147  -7.1879  -6.9989
    -6.7221  -6.6389  -6.5697  -6.3472  -6.3049  -6.2767  -6.2287  -5.9987
    -5.9037  -5.7653  -5.5124  -5.4713  -5.4327  -5.1346  -5.1118  -4.8575
    -4.7289  -4.6938  -4.5562  -4.5140  -4.3559  -4.2731  -4.2006  -4.0982
    -4.0571  -3.9771  -3.9590  -3.8743  -3.8608  -3.7819  -3.6327  -3.6035
    -3.4759  -3.4675  -3.4310  -3.2715  -3.2635  -3.1690  -3.1444  -3.0574
    -3.0506  -2.9842  -2.7919  -2.7281  -2.6285  -2.5044  -2.2440  -2.1232
    -1.8871  -0.9313  -0.4213   1.0006   1.2806   1.5300   1.6174   1.6547
     1.7663   2.0581   2.2003   2.3046   2.3096   2.5226   2.5998   2.6553
     2.7439   2.8999   3.0393   3.0824   3.1377   3.2876   3.3067   3.3142
     3.5148   3.5746   3.9927   4.2798   4.4544   4.4678   4.5668   4.6519
     4.6638   4.8195   4.8949   4.9416   5.0995   5.1434   5.2595   5.5083
     5.6736   5.8527   5.8830   5.9665   6.0437   6.1998   6.2305   6.2496
     6.4181   6.4322   6.6004   6.6985   6.8228   6.8671   7.1184   7.2175
     7.2431   7.6461   7.6668   7.8042   7.8664   7.9863   8.1370   8.1499
     8.1986   8.3690   8.4339   8.6983   8.7526   8.8967   9.0236   9.0728
     9.1020   9.2013   9.3473   9.4372   9.5793   9.5929   9.7158   9.7298
     9.8935   9.9982  10.0169  10.2044  10.2506  10.3702  10.4590  10.6032
    10.6708  10.7803  10.9587  10.9702  11.0291  11.0808  11.1772  11.2085
    11.2537  11.3898  11.4622  11.4623  11.5586  11.5829  11.7245  11.9207
    11.9400  12.0224  12.1239  12.1913  12.2524  12.2611  12.4315  12.4960
    12.6141  12.6634  12.7266  12.7415  12.8453  12.8797  12.9168  12.9787
    13.0253  13.0881  13.2190  13.2455  13.3280  13.4542  13.5128  13.5197
    13.5369  13.7184  13.7506  13.8430  13.9235  13.9287  14.0056  14.0968
    14.1172  14.2952  14.3555  14.3719  14.4244  14.5589  14.6152  14.8592
    14.9132  14.9280  14.9924  15.1110  15.2148  15.2514  15.2764  15.3634
    15.3972  15.4270  15.5038  15.5386  15.6367  15.7241  15.7896  15.8220
    15.8667  15.9004  16.0012  16.0315  16.0446  16.2694  16.2848  16.3734
    16.4812  16.5819  16.5996  16.6377  16.7302  16.7705  16.7960  16.9142
    16.9997  17.0251  17.0792  17.2702  17.2933  17.2995  17.3818  17.4544
    17.5442  17.5448  17.6150  17.7013  17.7281  17.8365  17.8666  17.9938
    18.0018  18.0242  18.1131  18.2666  18.3621  18.4512  18.5243  18.6176
    18.6814  18.7534  18.7717  18.8404  18.8462  18.9330  18.9342  19.0570
    19.0749  19.2048  19.2620  19.2688  19.3649  19.3717  19.4494  19.5026
    19.5293  19.5811  19.6305  19.6984

     the Fermi energy is     0.9974 ev

!    total energy              =   -1524.68322097 Ry
     Harris-Foulkes estimate   =   -1524.68322097 Ry
     estimated scf accuracy    <          6.4E-09 Ry

     The total energy is the sum of the following terms:

     one-electron contribution =  -18087.62609954 Ry
     hartree contribution      =    9070.49461172 Ry
     xc contribution           =    -279.80735009 Ry
     ewald contribution        =    7767.04174348 Ry
     Hubbard energy            =       5.21470687 Ry
     smearing contrib. (-TS)   =      -0.00083340 Ry

     convergence has been achieved in   9 iterations

     Forces acting on atoms (Ry/au):

     negative rho (up, down):  0.369E-02 0.000E+00
     atom    1 type  1   force =    -0.00148724   -0.00024892   -0.00014490
     atom    2 type  1   force =    -0.00006361    0.00016998   -0.00040836
     atom    3 type  2   force =     0.00022989   -0.00002088    0.00035402
     atom    4 type  2   force =     0.00111475    0.00007206   -0.00035975
     atom    5 type  1   force =     0.00004509   -0.04150975    0.00030013
     atom    6 type  1   force =     0.00005549    0.04147456    0.00028106
     atom    7 type  1   force =    -0.00014444   -0.00001049    0.00060401
     atom    8 type  1   force =    -0.00003432    0.00000560   -0.00019486
     atom    9 type  2   force =     0.00007370   -0.00000191   -0.00012173
     atom   10 type  2   force =     0.00000504   -0.00001477    0.00075475
     atom   11 type  1   force =    -0.00000653   -0.01982708   -0.00021544
     atom   12 type  1   force =    -0.00000627    0.01983678   -0.00021933
     atom   13 type  1   force =    -0.00000713   -0.00000044   -0.00052488
     atom   14 type  1   force =    -0.00148661   -0.00022931   -0.00014186
     atom   15 type  1   force =    -0.00006324    0.00016051   -0.00021049
     atom   16 type  2   force =     0.00020043   -0.00002350    0.00035393
     atom   17 type  2   force =     0.00111415    0.00006756   -0.00036424
     atom   18 type  1   force =     0.00005526   -0.04151050    0.00030009
     atom   19 type  1   force =     0.00004722    0.04147385    0.00028148
     atom   20 type  1   force =    -0.00014438   -0.00002839    0.00059143
     atom   21 type  1   force =    -0.00003415    0.00000554   -0.00016313
     atom   22 type  2   force =     0.00007904   -0.00000169   -0.00012174
     atom   23 type  2   force =     0.00000503   -0.00001673    0.00073778
     atom   24 type  1   force =     0.00000709   -0.01982701   -0.00021546
     atom   25 type  1   force =     0.00000733    0.01983685   -0.00021932
     atom   26 type  1   force =    -0.00000719   -0.00000057   -0.00050897
     atom   27 type  3   force =    -0.00000164   -0.00002640   -0.00014239
     atom   28 type  3   force =    -0.00000204   -0.00004534   -0.00031124
     atom   29 type  3   force =     0.00022595    0.00012129    0.00001475
     atom   30 type  3   force =     0.00022334    0.00011909    0.00001465

     Total force =     0.002000     Total SCF correction =     0.000228
     SCF correction compared to forces is large: reduce conv_thr to get better values

     bfgs converged in  18 scf cycles and  17 bfgs steps
     (criteria: energy < 0.10E-03, force < 0.10E-02)

     End of BFGS Geometry Optimization

     Final energy   =   -1524.6832209679 Ry
Begin final coordinates

ATOMIC_POSITIONS (crystal)
O0       0.000000000   0.000000000   0.371434794    0   0   1
O0       0.000000000   0.500000000   0.384182369    0   0   1
Nb1      0.250000000   0.500000000   0.439576535    0   0   1
Nb1      0.000000000   0.000000000   0.444853610    0   0   1
O0       0.250000000   0.790000000   0.447864142    0   0   1
O0       0.250000000   0.210000000   0.447856143    0   0   1
O0       0.000000000   0.500000000   0.498579333    0   0   1
O0       0.000000000   0.000000000   0.528769606    0   0   1
Nb1      0.250000000   0.000000000   0.581480345    0   0   1
Nb1      0.000000000   0.500000000   0.567912826    0   0   1
O0       0.250000000   0.710000000   0.584075776    0   0   1
O0       0.250000000   0.290000000   0.584076908    0   0   1
O0       0.000000000   0.000000000   0.626211908    0   0   1
O0       0.500000000   0.000000000   0.371434679    0   0   1
O0       0.500000000   0.500000000   0.384180397    0   0   1
Nb1      0.750000000   0.500000000   0.439576535    0   0   1
Nb1      0.500000000   0.000000000   0.444853832    0   0   1
O0       0.750000000   0.790000000   0.447863604    0   0   1
O0       0.750000000   0.210000000   0.447856583    0   0   1
O0       0.500000000   0.500000000   0.498580806    0   0   1
O0       0.500000000   0.000000000   0.528767387    0   0   1
Nb1      0.750000000   0.000000000   0.581480353    0   0   1
Nb1      0.500000000   0.500000000   0.567914189    0   0   1
O0       0.750000000   0.710000000   0.584075757    0   0   1
O0       0.750000000   0.290000000   0.584076925    0   0   1
O0       0.500000000   0.000000000   0.626211373    0   0   1
H2      -0.000380110   0.502601057   0.348072752
H2       0.499619938   0.502272412   0.348072442
H2       0.153666883   0.000095420   0.357299058
H2       0.653667125   0.000078146   0.357299033
End final coordinates

     General routines

     Parallel routines
     Hubbard U routines

   This run was terminated on:  17:39: 4   9May2014

   JOB DONE.
Running PBS batch system epilogue script
Job id: 340858.audhumbla.fysik.dtu.dk
Username: zhonxu
Groupname: campgst
Jobname: NbO2/Eads-2-layers/bare-U-8.0
Sessionid: 11748
Queuename: verylong
Accounting:
This job has allocated the following 16 nodes:
b103 b103 b103 b103 b103 b103 b103 b103 b090 b090 b090 b090 b090 b090 b090 b090
Finished epilogue job 340858.audhumbla.fysik.dtu.dk for zhonxu