     Program PWSCF v.5.0.2 (svn rev. 9656) starts on 24Jan2014 at 15:18:21

     Current dimensions of program PWSCF are:
     Max number of different atomic species (ntypx) = 10
     Max number of k-points (npk) =  40000
     Max angular momentum in pseudopotentials (lmaxx) =  3
     Reading input from PtO2-v-1.00.in

     Subspace diagonalization in iterative solution of the eigenvalue problem:
     a serial algorithm will be used

     bravais-lattice index     =            0
     lattice parameter (alat)  =       8.9323  a.u.
     unit-cell volume          =     459.2849 (a.u.)^3
     number of atoms/cell      =            6
     number of atomic types    =            2
     number of electrons       =        56.00
     number of Kohn-Sham states=           84
     kinetic-energy cutoff     =      40.0000  Ry
     charge density cutoff     =     500.0000  Ry
     convergence threshold     =      1.0E-06
     mixing beta               =       0.3000
     number of iterations used =            8  plain     mixing
     Exchange-correlation      = SLA  PW   PBE  PBE ( 1 4 3 4 0)
     EXX-fraction              =        0.00
     nstep                     =           50

     celldm(1)=   8.932347  celldm(2)=   0.000000  celldm(3)=   0.000000
     celldm(4)=   0.000000  celldm(5)=   0.000000  celldm(6)=   0.000000

     crystal axes: (cart. coord. in units of alat)
               a(1) = (   1.000000   0.000000   0.000000 )
               a(2) = (   0.000000   1.000000   0.000000 )
               a(3) = (   0.000000   0.000000   0.644444 )

     reciprocal axes: (cart. coord. in units 2 pi/alat)
               b(1) = (  1.000000  0.000000  0.000000 )
               b(2) = (  0.000000  1.000000  0.000000 )
               b(3) = (  0.000000  0.000000  1.551724 )

     PseudoPot. # 1 for Pt read from file:
     /home/camp/zhonxu/pseudo/pt_pbe_v1.uspp.F.UPF
     MD5 check sum: 4c71d6ad5ef119f1eb26a4d0b7884226
     Pseudo is Ultrasoft + core correction, Zval = 16.0
     Generated by new atomic code, or converted to UPF format
     Using radial grid of  985 points,  6 beta functions with:
                l(1) =   0
                l(2) =   0
                l(3) =   1
                l(4) =   1
                l(5) =   2
                l(6) =   2
     Q(r) pseudized with  8 coefficients,  rinner =    1.300   1.300   1.300
                                                       1.300   1.300

     PseudoPot. # 2 for O  read from file:
     /home/camp/zhonxu/pseudo/o_pbe_v1.01.uspp.F.UPF
     MD5 check sum: 2bcb18d16ea4b960afae9ec6d52f22d2
     Pseudo is Ultrasoft + core correction, Zval =  6.0
     Generated by new atomic code, or converted to UPF format
     Using radial grid of  737 points,  5 beta functions with:
                l(1) =   0
                l(2) =   0
                l(3) =   1
                l(4) =   1
                l(5) =   2
     Q(r) pseudized with  8 coefficients,  rinner =    0.900   0.900   0.900
                                                       0.900   0.900

     atomic species   valence    mass     pseudopotential
        Pt0           16.00   195.08000     Pt( 1.00)
        O1             6.00    15.99940     O ( 1.00)

     Starting magnetic structure
     atomic species   magnetization
        Pt0          0.600
        O1           0.000

      8 Sym. Ops., with inversion, found
          (note:  8 additional sym.ops. were found but ignored
           their fractional translations are incommensurate with FFT grid)

   Cartesian axes

     site n.     atom                  positions (alat units)
         1           Pt0 tau(   1) = (   0.0000000   0.0000000   0.0000000  )
         2           Pt0 tau(   2) = (   0.5000000   0.5000000   0.3222222  )
         3           O1  tau(   3) = (   0.3050000   0.3050000   0.0000000  )
         4           O1  tau(   4) = (  -0.3050000  -0.3050000   0.0000000  )
         5           O1  tau(   5) = (   0.8050000   0.1950000   0.3222222  )
         6           O1  tau(   6) = (   0.1950000   0.8050000   0.3222222  )

     number of k points=    54  Methfessel-Paxton smearing, width (Ry)=  0.0100
                       cart. coord. in units 2pi/alat
        k(    1) = (   0.0000000   0.0000000   0.0000000), wk =   0.0080000
        k(    2) = (   0.0000000   0.0000000   0.3103448), wk =   0.0160000
        k(    3) = (   0.0000000   0.0000000   0.6206897), wk =   0.0160000
        k(    4) = (   0.0000000   0.2000000   0.0000000), wk =   0.0320000
        k(    5) = (   0.0000000   0.2000000   0.3103448), wk =   0.0640000
        k(    6) = (   0.0000000   0.2000000   0.6206897), wk =   0.0640000
        k(    7) = (   0.0000000   0.4000000   0.0000000), wk =   0.0320000
        k(    8) = (   0.0000000   0.4000000   0.3103448), wk =   0.0640000
        k(    9) = (   0.0000000   0.4000000   0.6206897), wk =   0.0640000
        k(   10) = (   0.2000000   0.2000000   0.0000000), wk =   0.0160000
        k(   11) = (   0.2000000   0.2000000   0.3103448), wk =   0.0320000
        k(   12) = (   0.2000000   0.2000000   0.6206897), wk =   0.0320000
        k(   13) = (   0.2000000   0.4000000   0.0000000), wk =   0.0320000
        k(   14) = (   0.2000000   0.4000000   0.3103448), wk =   0.0640000
        k(   15) = (   0.2000000   0.4000000   0.6206897), wk =   0.0640000
        k(   16) = (   0.4000000   0.4000000   0.0000000), wk =   0.0160000
        k(   17) = (   0.4000000   0.4000000   0.3103448), wk =   0.0320000
        k(   18) = (   0.4000000   0.4000000   0.6206897), wk =   0.0320000
        k(   19) = (  -0.2000000   0.2000000   0.0000000), wk =   0.0160000
        k(   20) = (  -0.2000000   0.2000000  -0.3103448), wk =   0.0320000
        k(   21) = (  -0.2000000   0.2000000  -0.6206897), wk =   0.0320000
        k(   22) = (  -0.2000000   0.4000000   0.0000000), wk =   0.0320000
        k(   23) = (  -0.2000000   0.4000000  -0.3103448), wk =   0.0640000
        k(   24) = (  -0.2000000   0.4000000  -0.6206897), wk =   0.0640000
        k(   25) = (  -0.4000000   0.4000000   0.0000000), wk =   0.0160000
        k(   26) = (  -0.4000000   0.4000000  -0.3103448), wk =   0.0320000
        k(   27) = (  -0.4000000   0.4000000  -0.6206897), wk =   0.0320000
        k(   28) = (   0.0000000   0.0000000   0.0000000), wk =   0.0080000
        k(   29) = (   0.0000000   0.0000000   0.3103448), wk =   0.0160000
        k(   30) = (   0.0000000   0.0000000   0.6206897), wk =   0.0160000
        k(   31) = (   0.0000000   0.2000000   0.0000000), wk =   0.0320000
        k(   32) = (   0.0000000   0.2000000   0.3103448), wk =   0.0640000
        k(   33) = (   0.0000000   0.2000000   0.6206897), wk =   0.0640000
        k(   34) = (   0.0000000   0.4000000   0.0000000), wk =   0.0320000
        k(   35) = (   0.0000000   0.4000000   0.3103448), wk =   0.0640000
        k(   36) = (   0.0000000   0.4000000   0.6206897), wk =   0.0640000
        k(   37) = (   0.2000000   0.2000000   0.0000000), wk =   0.0160000
        k(   38) = (   0.2000000   0.2000000   0.3103448), wk =   0.0320000
        k(   39) = (   0.2000000   0.2000000   0.6206897), wk =   0.0320000
        k(   40) = (   0.2000000   0.4000000   0.0000000), wk =   0.0320000
        k(   41) = (   0.2000000   0.4000000   0.3103448), wk =   0.0640000
        k(   42) = (   0.2000000   0.4000000   0.6206897), wk =   0.0640000
        k(   43) = (   0.4000000   0.4000000   0.0000000), wk =   0.0160000
        k(   44) = (   0.4000000   0.4000000   0.3103448), wk =   0.0320000
        k(   45) = (   0.4000000   0.4000000   0.6206897), wk =   0.0320000
        k(   46) = (  -0.2000000   0.2000000   0.0000000), wk =   0.0160000
        k(   47) = (  -0.2000000   0.2000000  -0.3103448), wk =   0.0320000
        k(   48) = (  -0.2000000   0.2000000  -0.6206897), wk =   0.0320000
        k(   49) = (  -0.2000000   0.4000000   0.0000000), wk =   0.0320000
        k(   50) = (  -0.2000000   0.4000000  -0.3103448), wk =   0.0640000
        k(   51) = (  -0.2000000   0.4000000  -0.6206897), wk =   0.0640000
        k(   52) = (  -0.4000000   0.4000000   0.0000000), wk =   0.0160000
        k(   53) = (  -0.4000000   0.4000000  -0.3103448), wk =   0.0320000
        k(   54) = (  -0.4000000   0.4000000  -0.6206897), wk =   0.0320000

     Largest allocated arrays     est. size (Mb)     dimensions
     Largest temporary arrays     est. size (Mb)     dimensions

     Check: negative/imaginary core charge=   -0.000005    0.000000

     Initial potential from superposition of free atoms
     Check: negative starting charge=(component1):   -0.307108
     Check: negative starting charge=(component2):   -0.076289

     starting charge   54.99997, renormalised to   56.00000

     negative rho (up, down):  0.313E+00 0.777E-01
     Starting wfc are   40 randomized atomic wfcs

     Self-consistent Calculation

     iteration #  1     ecut=    40.00 Ry     beta=0.30
     Davidson diagonalization with overlap
     ethr =  1.00E-02,  avg # of iterations =  6.3

     negative rho (up, down):  0.278E+00 0.109E+00

     total energy              =    -542.66101044 Ry
     Harris-Foulkes estimate   =    -545.04960966 Ry
     estimated scf accuracy    <       6.87683827 Ry

     total magnetization       =     7.47 Bohr mag/cell
     absolute magnetization    =     7.51 Bohr mag/cell

[...]

     End of self-consistent calculation

 ------ SPIN UP ------------

          k = 0.0000 0.0000 0.0000 (  1955 PWs)   bands (ev):

   -41.8947 -41.8888 -41.8019 -41.8015 -41.7505 -41.7500  -7.8330  -6.7095
    -5.8909  -5.8903   3.1198   3.3361   4.8666   4.8667   5.2898   7.9043
     7.9045   8.2954   8.7001   9.0745   9.1188   9.2753   9.2756   9.5363
    10.1909  10.1911  11.1770  11.6885  12.9336  15.5100  15.5102  16.0849
    16.9087  21.3667  21.3667  23.2706  24.7276  25.3941  27.5120  28.1106
    28.1106  29.2767  29.6992  30.3287  30.3454  32.1181  33.1429  33.1430
    34.3867  34.3868  35.9783  37.7540  37.8452  38.0208  38.0209  39.1723
    39.5748  40.6926  40.7110  42.0691  42.4363  42.4363  42.5072  42.5073
    43.3828  43.3829  44.0686  46.0574  47.0295  48.7023  48.7024  49.0467
    50.2030  50.2030  50.2883  51.0476  51.2584  51.2585  51.5769  51.6113
    52.0992  52.5642  52.6917  57.1981

[...]

          k =-0.2000 0.2000 0.0000 (  1963 PWs)   bands (ev):

[...]

 ------ SPIN DOWN ----------

[...]

     the Fermi energy is    12.4986 ev

!    total energy              =    -544.92035759 Ry
     Harris-Foulkes estimate   =    -544.92035686 Ry
     estimated scf accuracy    <       0.00000028 Ry

     The total energy is the sum of the following terms:

     one-electron contribution =    -142.14523312 Ry
     hartree contribution      =     107.90379990 Ry
     xc contribution           =    -137.24348212 Ry
     ewald contribution        =    -373.43551317 Ry
     smearing contrib. (-TS)   =       0.00007092 Ry

[...]

     convergence has been achieved in  13 iterations

     Forces acting on atoms (Ry/au):

     negative rho (up, down):  0.197E+00 0.197E+00
     atom    1 type  1   force =     0.00000000    0.00000000    0.00000000
[...]
        k(   12) = (   0.2059292   0.2059292   0.5854598), wk =   0.0320000
        k(   13) = (   0.2059288   0.4118588   0.0000000), wk =   0.0320000
        k(   14) = (   0.2059288   0.4118588   0.2927299), wk =   0.0640000
        k(   15) = (   0.2059288   0.4118588   0.5854598), wk =   0.0640000
        k(   16) = (   0.4118584   0.4118584   0.0000000), wk =   0.0160000
        k(   17) = (   0.4118584   0.4118584   0.2927299), wk =   0.0320000
        k(   18) = (   0.4118584   0.4118584   0.5854598), wk =   0.0320000
        k(   19) = (  -0.2059299   0.2059299   0.0000000), wk =   0.0160000
        k(   20) = (  -0.2059299   0.2059299  -0.2927299), wk =   0.0320000
        k(   21) = (  -0.2059299   0.2059299  -0.5854598), wk =   0.0320000
        k(   22) = (  -0.2059303   0.4118595   0.0000000), wk =   0.0320000
        k(   23) = (  -0.2059303   0.4118595  -0.2927299), wk =   0.0640000
        k(   24) = (  -0.2059303   0.4118595  -0.5854598), wk =   0.0640000
        k(   25) = (  -0.4118599   0.4118599   0.0000000), wk =   0.0160000
        k(   26) = (  -0.4118599   0.4118599  -0.2927299), wk =   0.0320000
        k(   27) = (  -0.4118599   0.4118599  -0.5854598), wk =   0.0320000
        k(   28) = (   0.0000000   0.0000000   0.0000000), wk =   0.0080000
        k(   29) = (   0.0000000   0.0000000   0.2927299), wk =   0.0160000
        k(   30) = (   0.0000000   0.0000000   0.5854598), wk =   0.0160000
        k(   31) = (  -0.0000004   0.2059296   0.0000000), wk =   0.0320000
        k(   32) = (  -0.0000004   0.2059296   0.2927299), wk =   0.0640000
        k(   33) = (  -0.0000004   0.2059296   0.5854598), wk =   0.0640000
        k(   34) = (  -0.0000007   0.4118592   0.0000000), wk =   0.0320000
        k(   35) = (  -0.0000007   0.4118592   0.2927299), wk =   0.0640000
        k(   36) = (  -0.0000007   0.4118592   0.5854598), wk =   0.0640000
        k(   37) = (   0.2059292   0.2059292   0.0000000), wk =   0.0160000
        k(   38) = (   0.2059292   0.2059292   0.2927299), wk =   0.0320000
        k(   39) = (   0.2059292   0.2059292   0.5854598), wk =   0.0320000
        k(   40) = (   0.2059288   0.4118588   0.0000000), wk =   0.0320000
        k(   41) = (   0.2059288   0.4118588   0.2927299), wk =   0.0640000
        k(   42) = (   0.2059288   0.4118588   0.5854598), wk =   0.0640000
        k(   43) = (   0.4118584   0.4118584   0.0000000), wk =   0.0160000
        k(   44) = (   0.4118584   0.4118584   0.2927299), wk =   0.0320000
        k(   45) = (   0.4118584   0.4118584   0.5854598), wk =   0.0320000
        k(   46) = (  -0.2059299   0.2059299   0.0000000), wk =   0.0160000
        k(   47) = (  -0.2059299   0.2059299  -0.2927299), wk =   0.0320000
        k(   48) = (  -0.2059299   0.2059299  -0.5854598), wk =   0.0320000
        k(   49) = (  -0.2059303   0.4118595   0.0000000), wk =   0.0320000
        k(   50) = (  -0.2059303   0.4118595  -0.2927299), wk =   0.0640000
        k(   51) = (  -0.2059303   0.4118595  -0.5854598), wk =   0.0640000
        k(   52) = (  -0.4118599   0.4118599   0.0000000), wk =   0.0160000
        k(   53) = (  -0.4118599   0.4118599  -0.2927299), wk =   0.0320000
        k(   54) = (  -0.4118599   0.4118599  -0.5854598), wk =   0.0320000

     Check: negative/imaginary core charge=   -0.000005    0.000000
     Check: negative starting charge=(component1):   -0.382297

[...]

     Threshold (ethr) on eigenvalues was too large:
     Diagonalizing with lowered threshold

     Davidson diagonalization with overlap
     ethr =  9.41E-10,  avg # of iterations =  2.0

[...]

     Volume is kept fixed: isostatic pressure set to zero

     bfgs converged in   7 scf cycles and   6 bfgs steps
     (criteria: energy < 0.10E-03, force < 0.10E-02, cell < 0.50E+00)

     End of BFGS Geometry Optimization

     Final enthalpy =    -544.9378963579 Ry
Begin final coordinates
     new unit-cell volume =    459.28490 a.u.^3 (    68.05900 Ang^3 )

CELL_PARAMETERS (alat=  8.93234651)
   0.971205807   0.000001740   0.000000000
   0.000001740   0.971205807   0.000000000
   0.000000000   0.000000000   0.683223731

ATOMIC_POSITIONS (crystal)
Pt0      0.000000000   0.000000000   0.000000000    0   0   0
Pt0      0.500000000   0.500000000   0.500000000    0   0   0
O1       0.308750474   0.308750474   0.000000000    1   1   0
O1      -0.308750474  -0.308750474   0.000000000    1   1   0
O1       0.808750331   0.191249669   0.500000000    1   1   0
O1       0.191249669   0.808750331   0.500000000    1   1   0
End final coordinates

     A final scf calculation at the relaxed structure.
     The G-vectors are recalculated for the final unit cell
     Results may differ from those at the preceding step.

     bravais-lattice index     =            0
     lattice parameter (alat)  =       8.9323  a.u.
     unit-cell volume          =     459.2849 (a.u.)^3
     number of atoms/cell      =            6
     number of atomic types    =            2
     number of electrons       =        56.00
     number of Kohn-Sham states=           84
     kinetic-energy cutoff     =      40.0000  Ry
     charge density cutoff     =     500.0000  Ry
     convergence threshold     =      1.0E-08
     mixing beta               =       0.3000
     number of iterations used =            8  plain     mixing
     Exchange-correlation      = SLA  PW   PBE  PBE ( 1 4 3 4 0)
     EXX-fraction              =        0.00

     celldm(1)=   8.932347  celldm(2)=   0.000000  celldm(3)=   0.000000
     celldm(4)=   0.000000  celldm(5)=   0.000000  celldm(6)=   0.000000

     crystal axes: (cart. coord. in units of alat)
               a(1) = (   0.971206   0.000002   0.000000 )
               a(2) = (   0.000002   0.971206   0.000000 )
               a(3) = (   0.000000   0.000000   0.683224 )

     reciprocal axes: (cart. coord. in units 2 pi/alat)
               b(1) = (  1.029648 -0.000002  0.000000 )
               b(2) = ( -0.000002  1.029648  0.000000 )
               b(3) = (  0.000000  0.000000  1.463649 )

     PseudoPot. # 1 for Pt read from file:
     /home/camp/zhonxu/pseudo/pt_pbe_v1.uspp.F.UPF
     MD5 check sum: 4c71d6ad5ef119f1eb26a4d0b7884226
     Pseudo is Ultrasoft + core correction, Zval = 16.0
     Generated by new atomic code, or converted to UPF format
     Using radial grid of  985 points,  6 beta functions with:
                l(1) =   0
                l(2) =   0
                l(3) =   1
                l(4) =   1
                l(5) =   2
                l(6) =   2
     Q(r) pseudized with  8 coefficients,  rinner =    1.300   1.300   1.300
                                                       1.300   1.300

     PseudoPot. # 2 for O  read from file:
     /home/camp/zhonxu/pseudo/o_pbe_v1.01.uspp.F.UPF
     MD5 check sum: 2bcb18d16ea4b960afae9ec6d52f22d2
     Pseudo is Ultrasoft + core correction, Zval =  6.0
     Generated by new atomic code, or converted to UPF format
     Using radial grid of  737 points,  5 beta functions with:
                l(1) =   0
                l(2) =   0
                l(3) =   1
                l(4) =   1
                l(5) =   2
     Q(r) pseudized with  8 coefficients,  rinner =    0.900   0.900   0.900
                                                       0.900   0.900

     atomic species   valence    mass     pseudopotential
        Pt0           16.00   195.08000     Pt( 1.00)
        O1             6.00    15.99940     O ( 1.00)

     Starting magnetic structure
     atomic species   magnetization
        Pt0          0.600
        O1           0.000

      8 Sym. Ops., with inversion, found
          (note:  8 additional sym.ops. were found but ignored
           their fractional translations are incommensurate with FFT grid)

   Cartesian axes

     site n.     atom                  positions (alat units)
         1           Pt0 tau(   1) = (   0.0000000   0.0000000   0.0000000  )
         2           Pt0 tau(   2) = (   0.4856038   0.4856038   0.3416119  )
         3           O1  tau(   3) = (   0.2998608   0.2998608   0.0000000  )
         4           O1  tau(   4) = (  -0.2998608  -0.2998608   0.0000000  )
         5           O1  tau(   5) = (   0.7854634   0.1857442   0.3416119  )
         6           O1  tau(   6) = (   0.1857442   0.7854634   0.3416119  )

     number of k points=    54  Methfessel-Paxton smearing, width (Ry)=  0.0100
                       cart. coord. in units 2pi/alat
        k(    1) = (   0.0000000   0.0000000   0.0000000), wk =   0.0080000
        k(    2) = (   0.0000000   0.0000000   0.2927299), wk =   0.0160000
        k(    3) = (   0.0000000   0.0000000   0.5854598), wk =   0.0160000
        k(    4) = (  -0.0000004   0.2059296   0.0000000), wk =   0.0320000
        k(    5) = (  -0.0000004   0.2059296   0.2927299), wk =   0.0640000
        k(    6) = (  -0.0000004   0.2059296   0.5854598), wk =   0.0640000
        k(    7) = (  -0.0000007   0.4118592   0.0000000), wk =   0.0320000
        k(    8) = (  -0.0000007   0.4118592   0.2927299), wk =   0.0640000
        k(    9) = (  -0.0000007   0.4118592   0.5854598), wk =   0.0640000
        k(   10) = (   0.2059292   0.2059292   0.0000000), wk =   0.0160000
        k(   11) = (   0.2059292   0.2059292   0.2927299), wk =   0.0320000
        k(   12) = (   0.2059292   0.2059292   0.5854598), wk =   0.0320000
        k(   13) = (   0.2059288   0.4118588   0.0000000), wk =   0.0320000
        k(   14) = (   0.2059288   0.4118588   0.2927299), wk =   0.0640000
        k(   15) = (   0.2059288   0.4118588   0.5854598), wk =   0.0640000
        k(   16) = (   0.4118584   0.4118584   0.0000000), wk =   0.0160000
        k(   17) = (   0.4118584   0.4118584   0.2927299), wk =   0.0320000
        k(   18) = (   0.4118584   0.4118584   0.5854598), wk =   0.0320000
        k(   19) = (  -0.2059299   0.2059299   0.0000000), wk =   0.0160000
        k(   20) = (  -0.2059299   0.2059299  -0.2927299), wk =   0.0320000
        k(   21) = (  -0.2059299   0.2059299  -0.5854598), wk =   0.0320000
        k(   22) = (  -0.2059303   0.4118595   0.0000000), wk =   0.0320000
        k(   23) = (  -0.2059303   0.4118595  -0.2927299), wk =   0.0640000
        k(   24) = (  -0.2059303   0.4118595  -0.5854598), wk =   0.0640000
        k(   25) = (  -0.4118599   0.4118599   0.0000000), wk =   0.0160000
        k(   26) = (  -0.4118599   0.4118599  -0.2927299), wk =   0.0320000
        k(   27) = (  -0.4118599   0.4118599  -0.5854598), wk =   0.0320000
        k(   28) = (   0.0000000   0.0000000   0.0000000), wk =   0.0080000
        k(   29) = (   0.0000000   0.0000000   0.2927299), wk =   0.0160000
        k(   30) = (   0.0000000   0.0000000   0.5854598), wk =   0.0160000
        k(   31) = (  -0.0000004   0.2059296   0.0000000), wk =   0.0320000
        k(   32) = (  -0.0000004   0.2059296   0.2927299), wk =   0.0640000
        k(   33) = (  -0.0000004   0.2059296   0.5854598), wk =   0.0640000
        k(   34) = (  -0.0000007   0.4118592   0.0000000), wk =   0.0320000
        k(   35) = (  -0.0000007   0.4118592   0.2927299), wk =   0.0640000
        k(   36) = (  -0.0000007   0.4118592   0.5854598), wk =   0.0640000
        k(   37) = (   0.2059292   0.2059292   0.0000000), wk =   0.0160000
        k(   38) = (   0.2059292   0.2059292   0.2927299), wk =   0.0320000
        k(   39) = (   0.2059292   0.2059292   0.5854598), wk =   0.0320000
        k(   40) = (   0.2059288   0.4118588   0.0000000), wk =   0.0320000
        k(   41) = (   0.2059288   0.4118588   0.2927299), wk =   0.0640000
        k(   42) = (   0.2059288   0.4118588   0.5854598), wk =   0.0640000
        k(   43) = (   0.4118584   0.4118584   0.0000000), wk =   0.0160000
        k(   44) = (   0.4118584   0.4118584   0.2927299), wk =   0.0320000
        k(   45) = (   0.4118584   0.4118584   0.5854598), wk =   0.0320000
        k(   46) = (  -0.2059299   0.2059299   0.0000000), wk =   0.0160000
        k(   47) = (  -0.2059299   0.2059299  -0.2927299), wk =   0.0320000
        k(   48) = (  -0.2059299   0.2059299  -0.5854598), wk =   0.0320000
        k(   49) = (  -0.2059303   0.4118595   0.0000000), wk =   0.0320000
        k(   50) = (  -0.2059303   0.4118595  -0.2927299), wk =   0.0640000
        k(   51) = (  -0.2059303   0.4118595  -0.5854598), wk =   0.0640000
        k(   52) = (  -0.4118599   0.4118599   0.0000000), wk =   0.0160000
        k(   53) = (  -0.4118599   0.4118599  -0.2927299), wk =   0.0320000
        k(   54) = (  -0.4118599   0.4118599  -0.5854598), wk =   0.0320000

     Largest allocated arrays     est. size (Mb)     dimensions
     Largest temporary arrays     est. size (Mb)     dimensions

     Check: negative/imaginary core charge=   -0.000005    0.000000

     Initial potential from superposition of free atoms
     Check: negative starting charge=(component1):   -0.306186
     Check: negative starting charge=(component2):   -0.076108

     starting charge   54.99997, renormalised to   56.00000

     negative rho (up, down):  0.312E+00 0.775E-01
     Starting wfc are   40 randomized atomic wfcs

     Self-consistent Calculation

[...]

     total energy              =    -544.93860350 Ry
     Harris-Foulkes estimate   =    -544.93860353 Ry
     estimated scf accuracy    <       0.00000002 Ry

[...]

     iteration # 20     ecut=    40.00 Ry     beta=0.30
     Davidson diagonalization with overlap
     ethr =  3.32E-11,  avg # of iterations =  2.0

     negative rho (up, down):  0.197E+00 0.197E+00

     End of self-consistent calculation

 ------ SPIN UP ------------

[...]

 ------ SPIN DOWN ----------

[...]

          k = 0.4119 0.4119 0.5855 (  1970 PWs)   bands (ev):

[...]

          k =-0.4119 0.4119-0.5855 (  1970 PWs)   bands (ev):

   -41.8871 -41.8868 -41.7268 -41.7266 -41.5809 -41.5809  -6.5381  -6.4923
    -6.2405  -6.2364   4.5692   4.6153   5.1069   5.2604   5.6238   6.0174
     7.1231   7.2421   8.1008   8.2805   9.1822   9.6274   9.6424   9.7758
    10.6384  11.3551  11.4181  11.9904  13.0558  13.6762  14.5613  15.1443
    21.1229  21.4275  22.3633  22.4889  23.9449  24.4252  25.4056  25.9669
    29.0376  29.1223  30.4013  30.4131  31.0010  31.5259  32.3227  33.4775
    33.7749  34.0194  34.2375  35.4603  37.6362  38.1068  38.7935  38.8818
    40.0451  40.6618  41.9566  43.2119  43.2632  43.5822  44.1281  44.5225
    45.0975  45.3057  46.0810  46.6099  47.1023  47.8959  48.0705  48.5938
    49.1318  49.5515  49.8073  50.4431  51.0454  51.8414  51.8884  52.3783
    53.7848  53.9568  54.4628  55.0657

     the Fermi energy is    12.4410 ev

!    total energy              =    -544.93860357 Ry
     Harris-Foulkes estimate   =    -544.93860356 Ry
     estimated scf accuracy    <          3.3E-09 Ry

     The total energy is the sum of the following terms:

     one-electron contribution =    -136.42147122 Ry
     hartree contribution      =     105.12421973 Ry
     xc contribution           =    -137.15877150 Ry
     ewald contribution        =    -376.48224990 Ry
     smearing contrib. (-TS)   =      -0.00033069 Ry

     total magnetization       =    -0.00 Bohr mag/cell
     absolute magnetization    =     0.00 Bohr mag/cell

     convergence has been achieved in  20 iterations

     Forces acting on atoms (Ry/au):

     negative rho (up, down):  0.197E+00 0.197E+00
     atom    1 type  1   force =     0.00000000    0.00000000    0.00000000
     atom    2 type  1   force =     0.00000000    0.00000000    0.00000000
     atom    3 type  2   force =     0.00002410    0.00002410    0.00000000
     atom    4 type  2   force =    -0.00002410   -0.00002410    0.00000000
     atom    5 type  2   force =     0.00002296   -0.00002296   -0.00000000
     atom    6 type  2   force =    -0.00002296    0.00002296   -0.00000000

     Total force =     0.000067     Total SCF correction =     0.000023
     SCF correction compared to forces is large: reduce conv_thr to get better values

     entering subroutine stress ...

     negative rho (up, down):  0.197E+00 0.197E+00
          total   stress  (Ry/bohr**3)                   (kbar)     P=  -24.66
  -0.00018092  -0.00000003   0.00000000        -26.61     -0.00      0.00
  -0.00000003  -0.00018092   0.00000000         -0.00    -26.61      0.00
   0.00000000   0.00000000  -0.00014111          0.00      0.00    -20.76

     General routines

     Parallel routines

   This run was terminated on:  16: 7:13  24Jan2014

   JOB DONE.
Running PBS batch system epilogue script
Job id: 251905.audhumbla.fysik.dtu.dk
Username: zhonxu
Groupname: campgst
Jobname: PtO2/fine-EOS/ferro/PtO2-v-1.00
Sessionid: 15251
Queuename: verylong
Accounting:
This job has allocated the following 4 nodes:
q106 q106 q106 q106
Finished epilogue job 251905.audhumbla.fysik.dtu.dk for zhonxu