     Program PWSCF v.5.0.2 (svn rev. 9656) starts on  4May2014 at 18:47:17

     Current dimensions of program PWSCF are:
     Max number of different atomic species (ntypx) = 10
     Max number of k-points (npk) =  40000
     Max angular momentum in pseudopotentials (lmaxx) =  3
     Reading input from pwscf.in
Warning: card &CELL ignored
Warning: card / ignored

     Subspace diagonalization in iterative solution of the eigenvalue problem:
     a serial algorithm will be used

     bravais-lattice index     =            0
     lattice parameter (alat)  =      10.7336  a.u.
     unit-cell volume          =    6184.1966 (a.u.)^3
     number of atoms/cell      =           32
     number of atomic types    =            3
     number of electrons       =       239.00 (up: 131.00, down: 108.00)
     number of Kohn-Sham states=          346
     kinetic-energy cutoff     =      40.0000  Ry
     charge density cutoff     =     500.0000  Ry
     convergence threshold     =      1.0E-06
     mixing beta               =       0.7000
     number of iterations used =            8  plain     mixing
     Exchange-correlation      = SLA  PW   PBE  PBE ( 1 4 3 4 0)
     EXX-fraction              =        0.00
     nstep                     =           50

     celldm(1)=  10.733644  celldm(2)=   0.000000  celldm(3)=   0.000000
     celldm(4)=   0.000000  celldm(5)=   0.000000  celldm(6)=   0.000000

     crystal axes: (cart. coord. in units of alat)
               a(1) = (   1.000000   0.000000   0.000000 )
               a(2) = (   0.000000   1.085558   0.000000 )
               a(3) = (   0.000000   0.000000   4.606685 )

     reciprocal axes: (cart. coord. in units 2 pi/alat)
               b(1) = (  1.000000  0.000000  0.000000 )
               b(2) = (  0.000000  0.921185  0.000000 )
               b(3) = (  0.000000  0.000000  0.217076 )

     PseudoPot. # 1 for O  read from file:
     /home/camp/zhonxu/pseudo/o_pbe_v1.01.uspp.F.UPF
     MD5 check sum: 2bcb18d16ea4b960afae9ec6d52f22d2
     Pseudo is Ultrasoft + core correction, Zval =  6.0
     Generated by new atomic code, or converted to UPF format
     Using radial grid of  737 points,  5 beta functions with:
                l(1) =   0
                l(2) =   0
                l(3) =   1
                l(4) =   1
                l(5) =   2
     Q(r) pseudized with  8 coefficients,  rinner =    0.900   0.900   0.900
                                                       0.900   0.900

     PseudoPot. # 2 for Mn read from file:
     /home/camp/zhonxu/pseudo/mn_pbe_v1.uspp.F.UPF
     MD5 check sum: 5fd7c7b5c956fd19902447332617373a
     Pseudo is Ultrasoft + core correction, Zval = 15.0
     Generated by new atomic code, or converted to UPF format
     Using radial grid of  859 points,  6 beta functions with:
                l(1) =   0
                l(2) =   0
                l(3) =   1
                l(4) =   1
                l(5) =   2
                l(6) =   2
     Q(r) pseudized with  6 coefficients,  rinner =    1.150   1.150   1.150
                                                       1.150   1.150

     PseudoPot. # 3 for H  read from file:
     /home/camp/zhonxu/pseudo/h_pbe_v1.uspp.F.UPF
     MD5 check sum: 3408e3ff4ec8b0a4e358431e7e038a48
     Pseudo is Ultrasoft, Zval =  1.0
     Generated by new atomic code, or converted to UPF format
     Using radial grid of  615 points,  2 beta functions with:
                l(1) =   0
                l(2) =   0
     Q(r) pseudized with  8 coefficients,  rinner =    0.700

     atomic species   valence    mass     pseudopotential
        O0             6.00    15.99940     O ( 1.00)
        Mn1           15.00    54.93800     Mn( 1.00)
        H2             1.00     1.00794     H ( 1.00)

     Starting magnetic structure
     atomic species   magnetization
        O0           0.000
        Mn1          0.600
        H2           0.000

     Simplified LDA+U calculation (l_max = 2) with parameters (eV):
     atomic species    L          U    alpha       J0     beta
        Mn1            2     2.0000   0.0000   0.0000   0.0000

     No symmetry found

   Cartesian axes

     site n.     atom                  positions (alat units)
         1           O0  tau(   1) = (   0.0000000   0.0000000   1.7414191  )
         2           O0  tau(   2) = (   0.0000000   0.5427791   1.8381134  )
         3           Mn1 tau(   3) = (   0.2500000   0.5427791   2.0740217  )
         4           Mn1 tau(   4) = (   0.0000000   0.0000000   2.0686319  )
         5           O0  tau(   5) = (   0.2500000   0.8684466   2.0678488  )
         6           O0  tau(   6) = (   0.2500000   0.2171117   2.0737453  )
         7           O0  tau(   7) = (   0.0000000   0.5427791   2.2873573  )
         8           O0  tau(   8) = (   0.0000000   0.0000000   2.4132120  )
         9           Mn1 tau(   9) = (   0.2500000   0.0000000   2.6399991  )
        10           Mn1 tau(  10) = (   0.0000000   0.5427791   2.6085815  )
        11           O0  tau(  11) = (   0.2500000   0.7598908   2.6551551  )
        12           O0  tau(  12) = (   0.2500000   0.3256675   2.6556157  )
        13           O0  tau(  13) = (   0.0000000   0.0000000   2.8417258  )
        14           O0  tau(  14) = (   0.5000000   0.0000000   1.7428932  )
        15           O0  tau(  15) = (   0.5000000   0.5427791   1.8386662  )
        16           Mn1 tau(  16) = (   0.7500000   0.5427791   2.0740678  )
        17           Mn1 tau(  17) = (   0.5000000   0.0000000   2.0707510  )
        18           O0  tau(  18) = (   0.7500000   0.8684466   2.0677106  )
        19           O0  tau(  19) = (   0.7500000   0.2171117   2.0738835  )
        20           O0  tau(  20) = (   0.5000000   0.5427791   2.2871270  )
        21           O0  tau(  21) = (   0.5000000   0.0000000   2.4132120  )
        22           Mn1 tau(  22) = (   0.7500000   0.0000000   2.6413811  )
        23           Mn1 tau(  23) = (   0.5000000   0.5427791   2.6662572  )
        24           O0  tau(  24) = (   0.7500000   0.7598908   2.6473698  )
        25           O0  tau(  25) = (   0.7500000   0.3256675   2.6477844  )
        26           O0  tau(  26) = (   0.5000000   0.0000000   2.8412191  )
        27           H2  tau(  27) = (   0.0000400   0.7014118   1.7620570  )
        28           H2  tau(  28) = (   0.5000900   0.7016832   1.7629323  )
        29           H2  tau(  29) = (   0.1613600   0.0398291   1.6869220  )
        30           H2  tau(  30) = (   0.6610200   0.0399703   1.6876591  )
        31           O0  tau(  31) = (   0.5153900   0.5432351   2.9826904  )
        32           H2  tau(  32) = (   0.3575300   0.5430397   3.0540479  )

     number of k points=    20  Methfessel-Paxton smearing, width (Ry)=  0.0100
                       cart. coord. in units 2pi/alat
        k(    1) = (   0.0000000   0.0000000   0.0000000), wk =   0.0625000
        k(    2) = (   0.0000000   0.2302962   0.0000000), wk =   0.1250000
        k(    3) = (   0.0000000  -0.4605925   0.0000000), wk =   0.0625000
        k(    4) = (   0.2500000   0.0000000   0.0000000), wk =   0.1250000
        k(    5) = (   0.2500000   0.2302962   0.0000000), wk =   0.1250000
        k(    6) = (   0.2500000  -0.4605925   0.0000000), wk =   0.1250000
        k(    7) = (  -0.5000000   0.0000000   0.0000000), wk =   0.0625000
        k(    8) = (  -0.5000000   0.2302962   0.0000000), wk =   0.1250000
        k(    9) = (  -0.5000000  -0.4605925   0.0000000), wk =   0.0625000
        k(   10) = (  -0.2500000   0.2302962   0.0000000), wk =   0.1250000
        k(   11) = (   0.0000000   0.0000000   0.0000000), wk =   0.0625000
        k(   12) = (   0.0000000   0.2302962   0.0000000), wk =   0.1250000
        k(   13) = (   0.0000000  -0.4605925   0.0000000), wk =   0.0625000
        k(   14) = (   0.2500000   0.0000000   0.0000000), wk =   0.1250000
        k(   15) = (   0.2500000   0.2302962   0.0000000), wk =   0.1250000
        k(   16) = (   0.2500000  -0.4605925   0.0000000), wk =   0.1250000
        k(   17) = (  -0.5000000   0.0000000   0.0000000), wk =   0.0625000
        k(   18) = (  -0.5000000   0.2302962   0.0000000), wk =   0.1250000
        k(   19) = (  -0.5000000  -0.4605925   0.0000000), wk =   0.0625000
        k(   20) = (  -0.2500000   0.2302962   0.0000000), wk =   0.1250000

     Largest allocated arrays     est. size (Mb)     dimensions
     Largest temporary arrays     est. size (Mb)     dimensions

     Check: negative/imaginary core charge=   -0.000022    0.000000

     Initial potential from superposition of free atoms
     Check: negative starting charge=(component1):   -0.000716
     Check: negative starting charge=(component2):   -0.000389

     starting charge  230.99986, renormalised to  239.00000

     negative rho (up, down):  0.741E-03 0.403E-03
     Number of +U iterations with fixed ns =  0
     Starting occupations:
 --- enter write_ns ---
 LDA+U parameters:
U( 2)     =  2.00000000
alpha( 2) =  0.00000000
atom    3   Tr[ns(na)] (up, down, total) =   5.00000  0.00000  5.00000
   spin  1
    eigenvalues:
  1.000  1.000  1.000  1.000  1.000
    eigenvectors:
  1.000  0.000  0.000  0.000  0.000
  0.000  1.000  0.000  0.000  0.000
  0.000  0.000  1.000  0.000  0.000
  0.000  0.000  0.000  1.000  0.000
  0.000  0.000  0.000  0.000  1.000
    occupations:
  1.000  0.000  0.000  0.000  0.000
  0.000  1.000  0.000  0.000  0.000
  0.000  0.000  1.000  0.000  0.000
  0.000  0.000  0.000  1.000  0.000
  0.000  0.000  0.000  0.000  1.000
   spin  2
    eigenvalues:
  0.000  0.000  0.000  0.000  0.000
    eigenvectors:
  1.000  0.000  0.000  0.000  0.000
  0.000  1.000  0.000  0.000  0.000
  0.000  0.000  1.000  0.000  0.000
  0.000  0.000  0.000  1.000  0.000
  0.000  0.000  0.000  0.000  1.000
    occupations:
  0.000  0.000  0.000  0.000  0.000
  0.000  0.000  0.000  0.000  0.000
  0.000  0.000  0.000  0.000  0.000
  0.000  0.000  0.000  0.000  0.000
  0.000  0.000  0.000  0.000  0.000
atomic mag. moment =     5.000000
atom    4   Tr[ns(na)] (up, down, total) =   5.00000  0.00000  5.00000
   spin  1
    eigenvalues:
  1.000  1.000  1.000  1.000  1.000
    eigenvectors:
  1.000  0.000  0.000  0.000  0.000
  0.000  1.000  0.000  0.000  0.000
  0.000  0.000  1.000  0.000  0.000
  0.000  0.000  0.000  1.000  0.000
  0.000  0.000  0.000  0.000  1.000
    occupations:
  1.000  0.000  0.000  0.000  0.000
  0.000  1.000  0.000  0.000  0.000
  0.000  0.000  1.000  0.000  0.000
  0.000  0.000  0.000  1.000  0.000
  0.000  0.000  0.000  0.000  1.000
   spin  2
    eigenvalues:
  0.000  0.000  0.000  0.000  0.000
    eigenvectors:
  1.000  0.000  0.000  0.000  0.000
  0.000  1.000  0.000  0.000  0.000
  0.000  0.000  1.000  0.000  0.000
  0.000  0.000  0.000  1.000  0.000
  0.000  0.000  0.000  0.000  1.000
    occupations:
  0.000  0.000  0.000  0.000  0.000
  0.000  0.000  0.000  0.000  0.000
  0.000  0.000  0.000  0.000  0.000
  0.000  0.000  0.000  0.000  0.000
  0.000  0.000  0.000  0.000  0.000
atomic mag. moment =     5.000000
atom    9   Tr[ns(na)] (up, down, total) =   5.00000  0.00000  5.00000
   spin  1
    eigenvalues:
  1.000  1.000  1.000  1.000  1.000
[...]
   spin  1
    eigenvalues:
  0.571  0.623  0.992  1.001  1.003
    eigenvectors:
  0.000  0.999  0.000  0.000  0.001
  0.000  0.001  0.000  0.013  0.986
  0.000  0.000  0.000  0.986  0.013
  0.000  0.000  0.999  0.000  0.000
  1.000  0.000  0.000  0.000  0.000
    occupations:
  0.624 -0.012 -0.005  0.006 -0.000
 -0.012  1.003  0.000  0.000  0.000
 -0.005  0.000  1.001  0.000  0.000
  0.006  0.000  0.000  0.992  0.000
 -0.000  0.000  0.000  0.000  0.571
   spin  2
    eigenvalues:
  0.118  0.166  0.200  0.401  0.404
    eigenvectors:
  0.002  0.005  0.000  0.008  0.986
  0.001  0.930  0.065  0.000  0.004
  0.000  0.064  0.935  0.000  0.001
  0.997  0.001  0.000  0.000  0.002
  0.000  0.000  0.000  0.992  0.007
    occupations:
  0.402  0.016  0.005 -0.012 -0.000
  0.016  0.169 -0.008  0.001 -0.002
  0.005 -0.008  0.198  0.001 -0.000
 -0.012  0.001  0.001  0.118 -0.000
 -0.000 -0.002 -0.000 -0.000  0.401
atomic mag. moment =     2.901426
atom    9   Tr[ns(na)] (up, down, total) =   4.13698  1.39770  5.53469
   spin  1
    eigenvalues:
  0.618  0.628  0.930  0.967  0.994
    eigenvectors:
  0.208  0.000  0.000  0.000  0.792
  0.000  1.000  0.000  0.000  0.000
  0.000  0.000  0.069  0.931  0.000
  0.792  0.000  0.000  0.000  0.208
  0.000  0.000  0.931  0.069  0.000
    occupations:
  0.916  0.001 -0.000 -0.153  0.000
  0.001  0.628  0.000 -0.000 -0.000
 -0.000  0.000  0.965 -0.000  0.010
 -0.153 -0.000 -0.000  0.696  0.000
  0.000 -0.000  0.010  0.000  0.932
   spin  2
    eigenvalues:
  0.166  0.191  0.195  0.407  0.440
    eigenvectors:
  0.826  0.000  0.000  0.174  0.000
  0.000  0.000  0.000  0.001  0.999
  0.000  0.855  0.145  0.000  0.000
  0.174  0.000  0.000  0.826  0.001
  0.000  0.145  0.855  0.000  0.000
    occupations:
  0.208 -0.001  0.000  0.091 -0.000
 -0.001  0.440 -0.000  0.001 -0.000
  0.000 -0.000  0.191  0.000  0.001
  0.091  0.001  0.000  0.365 -0.000
 -0.000 -0.000  0.001 -0.000  0.194
atomic mag. moment =     2.739283
atom   10   Tr[ns(na)] (up, down, total) =   4.35303  1.06998  5.42301
   spin  1
    eigenvalues:
  0.596  0.763  0.995  0.995  1.004
    eigenvectors:
  0.000  0.994  0.002  0.004  0.000
  0.000  0.000  0.899  0.100  0.000
  0.000  0.000  0.000  0.000  1.000
  0.000  0.006  0.099  0.895  0.000
  1.000  0.000  0.000  0.000  0.000
    occupations:
  0.764 -0.005  0.001  0.017 -0.000
 -0.005  0.995  0.000  0.001 -0.000
  0.001  0.000  1.004 -0.000  0.004
  0.017  0.001 -0.000  0.994 -0.000
 -0.000 -0.000  0.004 -0.000  0.596
   spin  2
    eigenvalues:
  0.110  0.159  0.163  0.255  0.383
    eigenvectors:
  0.012  0.000  0.000  0.988  0.000
  0.000  1.000  0.000  0.000  0.000
  0.000  0.000  1.000  0.000  0.000
  0.988  0.000  0.000  0.012  0.000
  0.000  0.000  0.000  0.000  1.000
    occupations:
  0.253  0.001 -0.000 -0.016  0.000
  0.001  0.159 -0.000 -0.000  0.000
 -0.000 -0.000  0.163 -0.000 -0.002
 -0.016 -0.000 -0.000  0.111 -0.000
  0.000  0.000 -0.002 -0.000  0.383
atomic mag. moment =     3.283051
atom   16   Tr[ns(na)] (up, down, total) =   4.19771  1.28819  5.48590
   spin  1
    eigenvalues:
  0.600  0.604  0.994  0.995  1.005
    eigenvectors:
  0.005  0.242  0.740  0.004  0.008
  0.981  0.018  0.000  0.001  0.000
  0.000  0.000  0.009  0.002  0.990
  0.013  0.740  0.245  0.001  0.001
  0.001  0.000  0.006  0.992  0.001
    occupations:
  0.897  0.003 -0.004 -0.168  0.000
  0.003  0.601  0.001 -0.001 -0.010
 -0.004  0.001  1.004 -0.005 -0.000
 -0.168 -0.001 -0.005  0.701  0.000
  0.000 -0.010 -0.000  0.000  0.995
   spin  2
    eigenvalues:
  0.126  0.167  0.202  0.390  0.403
    eigenvectors:
  0.780  0.000  0.002  0.123  0.095
  0.000  0.002  0.000  0.465  0.533
  0.002  0.032  0.966  0.000  0.000
  0.218  0.000  0.000  0.411  0.371
  0.000  0.965  0.032  0.001  0.001
    occupations:
  0.185 -0.001 -0.001  0.112 -0.001
 -0.001  0.396 -0.001  0.008  0.011
 -0.001 -0.001  0.201  0.004  0.006
  0.112  0.008  0.004  0.337  0.000
 -0.001  0.011  0.006  0.000  0.169
atomic mag. moment =     2.909518
atom   17   Tr[ns(na)] (up, down, total) =   4.18878  1.28933  5.47811
   spin  1
    eigenvalues:
  0.572  0.623  0.992  0.999  1.003
    eigenvectors:
  0.000  0.999  0.000  0.000  0.001
  0.000  0.001  0.000  0.014  0.985
  0.000  0.000  0.001  0.985  0.014
  0.000  0.000  0.999  0.001  0.000
  1.000  0.000  0.000  0.000  0.000
    occupations:
  0.624 -0.012 -0.005  0.005 -0.000
 -0.012  1.002  0.000  0.000  0.000
 -0.005  0.000  0.999  0.000  0.000
  0.005  0.000  0.000  0.992  0.000
 -0.000  0.000  0.000  0.000  0.572
   spin  2
    eigenvalues:
  0.118  0.165  0.200  0.400  0.406
    eigenvectors:
  0.002  0.005  0.000  0.002  0.992
  0.001  0.934  0.061  0.000  0.004
  0.000  0.060  0.939  0.000  0.001
  0.997  0.001  0.000  0.000  0.002
  0.000  0.000  0.000  0.998  0.001
    occupations:
  0.404  0.016  0.006 -0.012 -0.000
  0.016  0.168 -0.008  0.000 -0.002
  0.006 -0.008  0.198  0.001  0.000
 -0.012  0.000  0.001  0.119 -0.000
 -0.000 -0.002  0.000 -0.000  0.400
atomic mag. moment =     2.899451
atom   22   Tr[ns(na)] (up, down, total) =   4.12880  1.40871  5.53751
   spin  1
    eigenvalues:
  0.617  0.627  0.926  0.965  0.994
    eigenvectors:
  0.207  0.001  0.000  0.000  0.792
  0.005  0.995  0.000  0.000  0.000
  0.000  0.000  0.093  0.907  0.000
  0.788  0.004  0.000  0.000  0.208
  0.000  0.000  0.907  0.093  0.000
    occupations:
  0.916 -0.000 -0.000 -0.153  0.000
 -0.000  0.627  0.000  0.001 -0.000
 -0.000  0.000  0.962 -0.000 -0.012
 -0.153  0.001 -0.000  0.696  0.000
  0.000 -0.000 -0.012  0.000  0.929
   spin  2
    eigenvalues:
  0.167  0.194  0.197  0.410  0.439
    eigenvectors:
  0.826  0.000  0.000  0.174  0.000
  0.000  0.000  0.000  0.001  0.999
  0.000  0.620  0.380  0.000  0.000
  0.174  0.000  0.000  0.825  0.001
  0.000  0.380  0.620  0.000  0.000
    occupations:
  0.209  0.001  0.000  0.092 -0.000
  0.001  0.439 -0.000 -0.001 -0.000
  0.000 -0.000  0.195  0.000 -0.001
  0.092 -0.001  0.000  0.368  0.000
 -0.000 -0.000 -0.001  0.000  0.196
atomic mag. moment =     2.720098
atom   23   Tr[ns(na)] (up, down, total) =   4.19611  1.27543  5.47154
   spin  1
    eigenvalues:
  0.584  0.632  0.989  0.992  1.000
    eigenvectors:
  0.000  1.000  0.000  0.000  0.000
  0.000  0.000  0.988  0.012  0.000
  0.000  0.000  0.000  0.000  1.000
  0.000  0.000  0.012  0.988  0.000
  1.000  0.000  0.000  0.000  0.000
    occupations:
  0.632  0.001  0.001  0.003 -0.000
  0.001  0.989  0.000 -0.000 -0.000
  0.001  0.000  1.000 -0.000 -0.003
  0.003 -0.000 -0.000  0.992 -0.000
 -0.000 -0.000 -0.003 -0.000  0.584
   spin  2
    eigenvalues:
  0.118  0.157  0.204  0.390  0.406
    eigenvectors:
  0.002  0.001  0.000  0.997  0.000
  0.001  0.998  0.000  0.001  0.000
  0.000  0.000  1.000  0.000  0.000
  0.997  0.001  0.000  0.002  0.000
  0.000  0.000  0.000  0.000  1.000
    occupations:
  0.389  0.008 -0.000 -0.012 -0.000
  0.008  0.158 -0.000 -0.001  0.000
 -0.000 -0.000  0.204  0.000  0.003
 -0.012 -0.001  0.000  0.119  0.000
 -0.000  0.000  0.003  0.000  0.406
atomic mag. moment =     2.920673
N of occupied +U levels =  43.8974480
 --- exit write_ns ---

 ------ SPIN UP ------------

[...]

 ------ SPIN DOWN ----------

[...]

          k = 0.2500-0.4606 0.0000 ( 26462 PWs)   bands (ev):

[...]

          k =-0.2500 0.2303 0.0000 ( 26396 PWs)   bands (ev):

   -80.7543 -80.7462 -80.5461 -80.5346 -80.4927 -80.4879 -80.4637 -80.1468
   -49.6656 -49.5690 -49.5314 -49.5202 -49.4731 -49.4591 -49.4470 -49.4438
   -49.4276 -49.4199 -49.4070 -49.3452 -49.3412 -49.3083 -49.2811 -49.2636
   -49.1575 -49.1476 -49.1403 -49.1204 -49.0926 -49.0680 -48.9772 -48.7178
   -21.8393 -21.4082 -21.0721 -20.8138 -20.5698 -20.3555 -20.2586 -20.1846
   -20.0644 -20.0253 -19.9412 -19.8621 -19.8335 -19.7152 -19.5741 -19.5219
   -19.4281 -19.3067 -19.0995  -9.3259  -9.0733  -8.5538  -8.4558  -8.4157
    -8.0834  -8.0041  -7.9150  -7.7340  -7.6923  -7.5997  -7.4683  -7.3683
    -7.2522  -7.1900  -7.1101  -7.0088  -6.9296  -6.8929  -6.7123  -6.6315
    -6.4879  -6.4379  -6.3740  -6.2440  -6.0915  -5.8527  -5.7801  -5.7302
    -5.6232  -5.5282  -5.4862  -5.4491  -5.3133  -5.2501  -5.1800  -4.9753
    -4.9351  -4.7577  -4.6805  -4.5627  -4.4804  -4.3780  -4.2787  -4.2092
    -4.1348  -4.0463  -3.8626  -3.7969  -3.6773  -3.5697  -3.4537  -3.3502
    -3.1548  -3.0609  -2.9690  -2.6616  -0.6502  -0.5393  -0.5313  -0.4997
    -0.3804  -0.3539  -0.3236  -0.2398  -0.1679  -0.1057  -0.0721   0.0054
     0.0662   0.1469   0.1587   0.2196   0.3463   0.3579   0.4310   0.4687
     0.6483   0.7425   0.7689   0.8719   0.9984   1.0298   1.0873   1.2491
     1.4238   1.4514   1.6265   1.8007   1.9773   2.0167   2.2416   2.3304
     2.3581   2.5883   2.7255   2.8292   3.7282   4.0639   4.3489   4.8218
     5.3321   5.6501   5.7706   6.0255   6.2752   6.4574   6.5540   6.6857
     6.7989   6.9591   7.0613   7.3756   7.5020   7.7521   7.9245   8.0108
     8.2769   8.3868   8.4807   8.6347   8.7279   8.9151   9.0750   9.1885
     9.2838   9.3432   9.4789   9.5793   9.7294   9.8464   9.9635  10.0908
    10.1687  10.2294  10.3810  10.4751  10.6182  10.7115  10.7887  10.9900
    11.0661  11.1367  11.1978  11.2975  11.4219  11.4937  11.5588  11.6905
    11.7437  11.8495  11.9085  12.0366  12.0625  12.1711  12.2212  12.3963
    12.4370  12.4849  12.6539  12.7353  12.8639  12.9111  12.9658  13.0273
    13.0975  13.1330  13.1771  13.2667  13.3874  13.4211  13.5129  13.5889
    13.6765  13.7758  13.8148  13.8552  13.9293  14.0124  14.0852  14.0958
    14.2038  14.3375  14.3769  14.4912  14.5292  14.5943  14.6670  14.7730
    14.8129  14.8645  14.9130  14.9788  15.0868  15.1394  15.2639  15.3005
    15.4133  15.4559  15.5742  15.6835  15.7263  15.8335  15.8677  16.0592
    16.0931  16.1978  16.2598  16.3266  16.4080  16.5036  16.5147  16.5544
    16.6491  16.7390  16.8690  16.9159  16.9798  17.0768  17.1376  17.2033
    17.2810  17.3450  17.4007  17.4718  17.5295  17.6421  17.6908  17.7616
    17.8474  17.9179  17.9859  18.0569  18.0960  18.2167  18.2891  18.3252
    18.3901  18.4800  18.5428  18.5894  18.6485  18.7687  18.8368  18.9408
    19.0403  19.0844  19.1570  19.1967  19.2410  19.3353  19.4149  19.4925
    19.5304  19.6408  19.7633  19.8272  19.8911  19.9613  20.0509  20.0807
    20.1233  20.2635  20.3245  20.3556  20.3743  20.4986  20.6182  20.6523
    20.7546  20.8800  20.9858  21.0212  21.0564  21.1145  21.1918  21.2351
    21.3901  21.4129  21.5007  21.5861  21.6586  21.7158  21.7528  21.8435
    21.8948  21.9948  22.0737  22.1348  22.2170  22.3413  22.4084  22.4933
    22.5647  22.6342

     the spin up/dw Fermi energies are    -2.0782   -2.4250 ev

!    total energy              =   -2321.42985028 Ry
     Harris-Foulkes estimate   =   -2321.42985028 Ry
     estimated scf accuracy    <          4.4E-09 Ry

     The total energy is the sum of the following terms:

     one-electron contribution =  -26688.65971552 Ry
     hartree contribution      =   13362.50381143 Ry
     xc contribution           =    -349.09962588 Ry
     ewald contribution        =   11353.00898319 Ry
     Hubbard energy            =       0.81667269 Ry
     smearing contrib. (-TS)   =       0.00002382 Ry

     total magnetization       =    23.00 Bohr mag/cell
     absolute magnetization    =    26.68 Bohr mag/cell

     convergence has been achieved in  13 iterations

     Forces acting on atoms (Ry/au):

     negative rho (up, down):  0.219E-02 0.134E-02
     atom    1 type  1   force =    -0.00535239   -0.01605399   -0.00034052
     atom    2 type  1   force =     0.00024673    0.01168140   -0.00026329
     atom    3 type  2   force =     0.03292800   -0.00305709    0.00021684
     atom    4 type  2   force =     0.00589712    0.01227687   -0.00023960
     atom    5 type  1   force =     0.00143008    0.01064131    0.00008289
     atom    6 type  1   force =    -0.00413492   -0.01421671    0.00015771
     atom    7 type  1   force =     0.00282342    0.00109607    0.00016750
     atom    8 type  1   force =     0.00126839   -0.00180205   -0.00024638
     atom    9 type  2   force =     0.00228640    0.00021680    0.00029573
     atom   10 type  2   force =    -0.00404526   -0.00107206    0.00010373
     atom   11 type  1   force =    -0.02014830   -0.05184849    0.00000730
     atom   12 type  1   force =    -0.02041349    0.05204715    0.00001966
     atom   13 type  1   force =    -0.00171744   -0.00024903   -0.00043298
     atom   14 type  1   force =    -0.00584683   -0.01627962   -0.00027467
     atom   15 type  1   force =     0.00045368    0.01218354   -0.00023345
     atom   16 type  2   force =    -0.03414136   -0.00298393    0.00021077
     atom   17 type  2   force =     0.00622788    0.01229253   -0.00028450
     atom   18 type  1   force =     0.00422641    0.01040601    0.00007455
     atom   19 type  1   force =    -0.00096452   -0.01417990    0.00015729
     atom   20 type  1   force =    -0.00241643    0.00059054    0.00065618
     atom   21 type  1   force =    -0.00310262   -0.00174448   -0.00018684
     atom   22 type  2   force =     0.00032560    0.00039494    0.00026501
     atom   23 type  2   force =     0.00474840   -0.00042545    0.00078556
     atom   24 type  1   force =     0.01864212   -0.04701442   -0.00018661
     atom   25 type  1   force =     0.01903246    0.04716387   -0.00015910
     atom   26 type  1   force =     0.00144974   -0.00029187   -0.00014669
     atom   27 type  3   force =    -0.00000712   -0.00002512   -0.00046665
     atom   28 type  3   force =     0.00000111   -0.00003805   -0.00046699
     atom   29 type  3   force =     0.00009787    0.00012768   -0.00005619
     atom   30 type  3   force =     0.00008110    0.00011033   -0.00002749
     atom   31 type  1   force =     0.00015678    0.00004471    0.00009239
     atom   32 type  3   force =    -0.00003260    0.00000851    0.00071883

     Total force =     0.001804     Total SCF correction =     0.000280
     SCF correction compared to forces is large: reduce conv_thr to get better values

     bfgs converged in  12 scf cycles and  11 bfgs steps
     (criteria: energy < 0.10E-03, force < 0.10E-02)

     End of BFGS Geometry Optimization

     Final energy   =   -2321.4298502763 Ry
Begin final coordinates

ATOMIC_POSITIONS (crystal)
O0       0.000000000   0.000000000   0.377103963    0   0   1
O0       0.000000000   0.500000000   0.398148738    0   0   1
Mn1      0.250000000   0.500000000   0.449670143    0   0   1
Mn1      0.000000000   0.000000000   0.448411876    0   0   1
O0       0.250000000   0.800000000   0.448361092    0   0   1
O0       0.250000000   0.200000000   0.449996304    0   0   1
O0       0.000000000   0.500000000   0.495885809    0   0   1
O0       0.000000000   0.000000000   0.524345256    0   0   1
Mn1      0.250000000   0.000000000   0.573189208    0   0   1
Mn1      0.000000000   0.500000000   0.566969892    0   0   1
O0       0.250000000   0.700000000   0.577771174    0   0   1
O0       0.250000000   0.300000000   0.577935570    0   0   1
O0       0.000000000   0.000000000   0.618322383    0   0   1
O0       0.500000000   0.000000000   0.377462240    0   0   1
O0       0.500000000   0.500000000   0.398305322    0   0   1
Mn1      0.750000000   0.500000000   0.449693935    0   0   1
Mn1      0.500000000   0.000000000   0.448896938    0   0   1
O0       0.750000000   0.800000000   0.448339512    0   0   1
O0       0.750000000   0.200000000   0.449978527    0   0   1
O0       0.500000000   0.500000000   0.496688692    0   0   1
O0       0.500000000   0.000000000   0.524348337    0   0   1
Mn1      0.750000000   0.000000000   0.573443757    0   0   1
Mn1      0.500000000   0.500000000   0.578376602    0   0   1
O0       0.750000000   0.700000000   0.575477389    0   0   1
O0       0.750000000   0.300000000   0.575668325    0   0   1
O0       0.500000000   0.000000000   0.618470345    0   0   1
H2       0.000159417   0.646996356   0.382044696
H2       0.500212236   0.647359060   0.382297360
H2       0.161801782   0.037320480   0.365698624
H2       0.661580197   0.037379086   0.365938398
O0       0.517709963   0.500433013   0.647968808
H2       0.358263893   0.500253655   0.662670783
End final coordinates

     General routines

     Parallel routines
     Hubbard U routines

   This run was terminated on:  11:24:25   5May2014

   JOB DONE.
Running PBS batch system epilogue script
Job id: 340692.audhumbla.fysik.dtu.dk
Username: zhonxu
Groupname: campgst
Jobname: MnO2/Eads-2-layers/OH-U-2.0
Sessionid: 11503
Queuename: verylong
Accounting:
This job has allocated the following 16 nodes:
a076 a076 a076 a076 a076 a076 a076 a076 a072 a072 a072 a072 a072 a072 a072 a072
Finished epilogue job 340692.audhumbla.fysik.dtu.dk for zhonxu