     Program PWSCF v.5.0.2 (svn rev. 9656) starts on 31May2014 at  5:46: 9

     Current dimensions of program PWSCF are:
     Max number of different atomic species (ntypx) = 10
     Max number of k-points (npk) =  40000
     Max angular momentum in pseudopotentials (lmaxx) =  3
     Reading input from pwscf.in
Warning: card &CELL ignored
Warning: card / ignored

     Subspace diagonalization in iterative solution of the eigenvalue problem:
     a serial algorithm will be used

     bravais-lattice index     =            0
     lattice parameter (alat)  =      12.2076  a.u.
     unit-cell volume          =    7496.5096 (a.u.)^3
     number of atoms/cell      =           33
     number of atomic types    =            3
     number of electrons       =       253.00
     number of Kohn-Sham states=          379
     kinetic-energy cutoff     =      40.0000  Ry
     charge density cutoff     =     500.0000  Ry
     convergence threshold     =      1.0E-06
     mixing beta               =       0.7000
     number of iterations used =            8  plain     mixing
     Exchange-correlation      = SLA  PW   PBE  PBE ( 1 4 3 4 0)
     EXX-fraction              =        0.00
     nstep                     =           50

     celldm(1)=  12.207631  celldm(2)=   0.000000  celldm(3)=   0.000000
     celldm(4)=   0.000000  celldm(5)=   0.000000  celldm(6)=   0.000000

     crystal axes: (cart. coord. in units of alat)
               a(1) = (   1.000000   0.000000   0.000000 )
               a(2) = (   0.000000   1.004836   0.000000 )
               a(3) = (   0.000000   0.000000   4.100811 )

     reciprocal axes: (cart. coord. in units 2 pi/alat)
               b(1) = (  1.000000  0.000000  0.000000 )
               b(2) = (  0.000000  0.995187  0.000000 )
               b(3) = (  0.000000  0.000000  0.243854 )

     PseudoPot. # 1 for O  read from file:
     /home/camp/zhonxu/pseudo/o_pbe_v1.01.uspp.F.UPF
     MD5 check sum: 2bcb18d16ea4b960afae9ec6d52f22d2
     Pseudo is Ultrasoft + core correction, Zval =  6.0
     Generated by new atomic code, or converted to UPF format
     Using radial grid of  737 points,  5 beta functions with:
                l(1) =   0
                l(2) =   0
                l(3) =   1
                l(4) =   1
                l(5) =   2
     Q(r) pseudized with  8 coefficients,  rinner =    0.900   0.900   0.900
                                                       0.900   0.900

     PseudoPot. # 2 for Pt read from file:
     /home/camp/zhonxu/pseudo/pt_pbe_v1.uspp.F.UPF
     MD5 check sum: 4c71d6ad5ef119f1eb26a4d0b7884226
     Pseudo is Ultrasoft + core correction, Zval = 16.0
     Generated by new atomic code, or converted to UPF format
     Using radial grid of  985 points,  6 beta functions with:
                l(1) =   0
                l(2) =   0
                l(3) =   1
                l(4) =   1
                l(5) =   2
                l(6) =   2
     Q(r) pseudized with  8 coefficients,  rinner =    1.300   1.300   1.300
                                                       1.300   1.300

     PseudoPot. # 3 for H  read from file:
     /home/camp/zhonxu/pseudo/h_pbe_v1.uspp.F.UPF
     MD5 check sum: 3408e3ff4ec8b0a4e358431e7e038a48
     Pseudo is Ultrasoft, Zval =  1.0
     Generated by new atomic code, or converted to UPF format
     Using radial grid of  615 points,  2 beta functions with:
                l(1) =   0
                l(2) =   0
     Q(r) pseudized with  8 coefficients,  rinner =    0.700

     atomic species   valence    mass     pseudopotential
        O0             6.00    15.99940     O ( 1.00)
        Pt1           16.00   195.08000     Pt( 1.00)
        H2             1.00     1.00794     H ( 1.00)

     Simplified LDA+U calculation (l_max = 2) with parameters (eV):
     atomic species    L          U    alpha       J0     beta
        Pt1            2     2.5000   0.0000   0.0000   0.0000

     No symmetry found

   Cartesian axes

     site n.     atom                  positions (alat units)
         1           O0  tau(   1) = (   0.0000000   0.0000000   1.5494095  )
         2           O0  tau(   2) = (   0.0000000   0.5024180   1.6475009  )
         3           Pt1 tau(   3) = (   0.2500000   0.5024180   1.8504910  )
         4           Pt1 tau(   4) = (   0.0000000   0.0000000   1.8570523  )
         5           O0  tau(   5) = (   0.2500000   0.8139171   1.8187098  )
         6           O0  tau(   6) = (   0.2500000   0.1909188   1.8864142  )
         7           O0  tau(   7) = (   0.0000000   0.5024180   2.0369959  )
         8           O0  tau(   8) = (   0.0000000   0.0000000   2.1720357  )
         9           Pt1 tau(   9) = (   0.2500000   0.0000000   2.3614521  )
        10           Pt1 tau(  10) = (   0.0000000   0.5024180   2.3598528  )
        11           O0  tau(  11) = (   0.2500000   0.6933368   2.3268823  )
        12           O0  tau(  12) = (   0.2500000   0.3114991   2.4033624  )
        13           O0  tau(  13) = (   0.0000000   0.0000000   2.5482851  )
        14           O0  tau(  14) = (   0.5000000   0.0000000   1.5485073  )
        15           O0  tau(  15) = (   0.5000000   0.5024180   1.6434821  )
        16           Pt1 tau(  16) = (   0.7500000   0.5024180   1.8504910  )
        17           Pt1 tau(  17) = (   0.5000000   0.0000000   1.8561092  )
        18           O0  tau(  18) = (   0.7500000   0.8139171   1.8187918  )
        19           O0  tau(  19) = (   0.7500000   0.1909188   1.8863321  )
        20           O0  tau(  20) = (   0.5000000   0.5024180   2.0428191  )
        21           O0  tau(  21) = (   0.5000000   0.0000000   2.1708874  )
        22           Pt1 tau(  22) = (   0.7500000   0.0000000   2.3614521  )
        23           Pt1 tau(  23) = (   0.5000000   0.5024180   2.3628874  )
        24           O0  tau(  24) = (   0.7500000   0.6933368   2.3268003  )
        25           O0  tau(  25) = (   0.7500000   0.3114991   2.4034034  )
        26           O0  tau(  26) = (   0.5000000   0.0000000   2.5460296  )
        27           H2  tau(  27) = (   0.0000200   0.6429744   1.5830361  )
        28           H2  tau(  28) = (   0.5000600   0.6435874   1.5806577  )
        29           H2  tau(  29) = (   0.1433700   0.0339333   1.5082373  )
        30           H2  tau(  30) = (   0.6430800   0.0354607   1.5076632  )
        31           O0  tau(  31) = (   0.5001100   0.5589199   2.6603192  )
        32           O0  tau(  32) = (   0.4999400   0.3687346   2.7792838  )
        33           H2  tau(  33) = (   0.4999900   0.4305019   2.9192445  )

     number of k points=    10  Methfessel-Paxton smearing, width (Ry)=  0.0100
                       cart. coord. in units 2pi/alat
        k(    1) = (   0.0000000   0.0000000   0.0000000), wk =   0.1250000
        k(    2) = (   0.0000000   0.2487968   0.0000000), wk =   0.2500000
        k(    3) = (   0.0000000  -0.4975937   0.0000000), wk =   0.1250000
        k(    4) = (   0.2500000   0.0000000   0.0000000), wk =   0.2500000
        k(    5) = (   0.2500000   0.2487968   0.0000000), wk =   0.2500000
        k(    6) = (   0.2500000  -0.4975937   0.0000000), wk =   0.2500000
        k(    7) = (  -0.5000000   0.0000000   0.0000000), wk =   0.1250000
        k(    8) = (  -0.5000000   0.2487968   0.0000000), wk =   0.2500000
        k(    9) = (  -0.5000000  -0.4975937   0.0000000), wk =   0.1250000
        k(   10) = (  -0.2500000   0.2487968   0.0000000), wk =   0.2500000

     Largest allocated arrays     est. size (Mb)     dimensions
     Largest temporary arrays     est. size (Mb)     dimensions

     Check: negative/imaginary core charge=   -0.000003    0.000000

     Initial potential from superposition of free atoms
     Check: negative starting charge=   -1.535323

     starting charge  248.99983, renormalised to  253.00000

     negative rho (up, down):  0.156E+01 0.000E+00
     Number of +U iterations with fixed ns =  0
     Starting occupations:
 --- enter write_ns ---
 LDA+U parameters:
U( 2)     =  2.50000000
alpha( 2) =  0.00000000
atom    3   Tr[ns(na)] =   8.00000
    eigenvalues:
  0.800  0.800  0.800  0.800  0.800
    eigenvectors:
  1.000  0.000  0.000  0.000  0.000
  0.000  1.000  0.000  0.000  0.000
  0.000  0.000  1.000  0.000  0.000
  0.000  0.000  0.000  1.000  0.000
  0.000  0.000  0.000  0.000  1.000
    occupations:
  0.800  0.000  0.000  0.000  0.000
  0.000  0.800  0.000  0.000  0.000
  0.000  0.000  0.800  0.000  0.000
  0.000  0.000  0.000  0.800  0.000
  0.000  0.000  0.000  0.000  0.800
atom    4   Tr[ns(na)] =   8.00000
    eigenvalues:
  0.800  0.800  0.800  0.800  0.800
    eigenvectors:
  1.000  0.000  0.000  0.000  0.000
  0.000  1.000  0.000  0.000  0.000
  0.000  0.000  1.000  0.000  0.000
  0.000  0.000  0.000  1.000  0.000
  0.000  0.000  0.000  0.000  1.000
    occupations:
  0.800  0.000  0.000  0.000  0.000
  0.000  0.800  0.000  0.000  0.000
  0.000  0.000  0.800  0.000  0.000
  0.000  0.000  0.000  0.800  0.000
  0.000  0.000  0.000  0.000  0.800
atom    9   Tr[ns(na)] =   8.00000
    eigenvalues:
  0.800  0.800  0.800  0.800  0.800
    eigenvectors:
  1.000  0.000  0.000  0.000  0.000
  0.000  1.000  0.000  0.000  0.000
  0.000  0.000  1.000  0.000  0.000
  0.000  0.000  0.000  1.000  0.000
  0.000  0.000  0.000  0.000  1.000
    occupations:
  0.800  0.000  0.000  0.000  0.000
  0.000  0.800  0.000  0.000  0.000
  0.000  0.000  0.800  0.000  0.000
  0.000  0.000  0.000  0.800  0.000
  0.000  0.000  0.000  0.000  0.800
atom   10   Tr[ns(na)] =   8.00000
    eigenvalues:
  0.800  0.800  0.800  0.800  0.800
    eigenvectors:
  1.000  0.000  0.000  0.000  0.000
  0.000  1.000  0.000  0.000  0.000
  0.000  0.000  1.000  0.000  0.000
  0.000  0.000  0.000  1.000  0.000
  0.000  0.000  0.000  0.000  1.000
    occupations:
  0.800  0.000  0.000  0.000  0.000
  0.000  0.800  0.000  0.000  0.000
  0.000  0.000  0.800  0.000  0.000
  0.000  0.000  0.000  0.800  0.000
  0.000  0.000  0.000  0.000  0.800
atom   16   Tr[ns(na)] =   8.00000
    eigenvalues:
  0.800  0.800  0.800  0.800  0.800
    eigenvectors:
  1.000  0.000  0.000  0.000  0.000
  0.000  1.000  0.000  0.000  0.000
  0.000  0.000  1.000  0.000  0.000
  0.000  0.000  0.000  1.000  0.000
  0.000  0.000  0.000  0.000  1.000
    occupations:
  0.800  0.000  0.000  0.000  0.000
  0.000  0.800  0.000  0.000  0.000
  0.000  0.000  0.800  0.000  0.000
  0.000  0.000  0.000  0.800  0.000
  0.000  0.000  0.000  0.000  0.800
atom   17   Tr[ns(na)] =   8.00000
    eigenvalues:
  0.800  0.800  0.800  0.800  0.800
    eigenvectors:
  1.000  0.000  0.000  0.000  0.000
  0.000  1.000  0.000  0.000  0.000
  0.000  0.000  1.000  0.000  0.000
  0.000  0.000  0.000  1.000  0.000
  0.000  0.000  0.000  0.000  1.000
    occupations:
  0.800  0.000  0.000  0.000  0.000
  0.000  0.800  0.000  0.000  0.000
  0.000  0.000  0.800  0.000  0.000
  0.000  0.000  0.000  0.800  0.000
  0.000  0.000  0.000  0.000  0.800
atom   22   Tr[ns(na)] =   8.00000
    eigenvalues:
  0.800  0.800  0.800  0.800  0.800
    eigenvectors:
  1.000  0.000  0.000  0.000  0.000
  0.000  1.000  0.000  0.000  0.000
  0.000  0.000  1.000  0.000  0.000
[...]
  0.012  0.000  0.988  0.000  0.000
  0.000  0.001  0.000  0.280  0.719
  0.000  0.018  0.000  0.711  0.272
  0.988  0.000  0.012  0.000  0.000
    occupations:
  0.770 -0.000 -0.007  0.029  0.000
 -0.000  0.975 -0.000  0.000 -0.034
 -0.007 -0.000  0.985 -0.001  0.000
  0.029  0.000 -0.001  0.980 -0.000
  0.000 -0.034  0.000 -0.000  0.664
atom   16   Tr[ns(na)] =   8.69577
    eigenvalues:
  0.686  0.703  0.984  0.986  0.989
    eigenvectors:
  0.048  0.127  0.805  0.003  0.018
  0.754  0.245  0.000  0.000  0.000
  0.001  0.003  0.031  0.000  0.965
  0.197  0.624  0.161  0.000  0.017
  0.000  0.000  0.003  0.997  0.000
    occupations:
  0.934 -0.007  0.007 -0.108 -0.001
 -0.007  0.690 -0.002 -0.005 -0.002
  0.007 -0.002  0.988  0.017  0.000
 -0.108 -0.005  0.017  0.750 -0.001
 -0.001 -0.002  0.000 -0.001  0.986
atom   17   Tr[ns(na)] =   8.68545
    eigenvalues:
  0.687  0.708  0.980  0.983  0.985
    eigenvectors:
  0.000  0.986  0.007  0.002  0.005
  0.010  0.000  0.064  0.910  0.016
  0.000  0.005  0.870  0.043  0.082
  0.000  0.009  0.059  0.035  0.897
  0.990  0.000  0.001  0.009  0.000
    occupations:
  0.711 -0.005 -0.019  0.026 -0.001
 -0.005  0.980  0.001  0.000  0.029
 -0.019  0.001  0.979  0.003  0.000
  0.026  0.000  0.003  0.982  0.000
 -0.001  0.029  0.000  0.000  0.689
atom   22   Tr[ns(na)] =   8.66382
    eigenvalues:
  0.709  0.719  0.955  0.963  0.985
    eigenvectors:
  0.001  0.136  0.001  0.014  0.848
  0.997  0.003  0.000  0.000  0.000
  0.000  0.011  0.076  0.904  0.008
  0.002  0.851  0.000  0.004  0.143
  0.000  0.000  0.922  0.078  0.000
    occupations:
  0.949  0.002 -0.007 -0.091  0.000
  0.002  0.709  0.000 -0.000 -0.003
 -0.007  0.000  0.960 -0.024 -0.002
 -0.091 -0.000 -0.024  0.758 -0.000
  0.000 -0.003 -0.002 -0.000  0.956
atom   23   Tr[ns(na)] =   8.67871
    eigenvalues:
  0.700  0.706  0.965  0.983  0.986
    eigenvectors:
  0.000  0.960  0.000  0.032  0.008
  0.018  0.000  0.982  0.000  0.000
  0.000  0.032  0.000  0.968  0.000
  0.000  0.008  0.000  0.000  0.992
  0.982  0.000  0.018  0.000  0.000
    occupations:
  0.717  0.000  0.049  0.025 -0.000
  0.000  0.960  0.000 -0.000 -0.035
  0.049  0.000  0.974 -0.004 -0.000
  0.025 -0.000 -0.004  0.984 -0.000
 -0.000 -0.035 -0.000 -0.000  0.704
N of occupied +U levels =  69.5184692
 --- exit write_ns ---

     Threshold (ethr) on eigenvalues was too large:
     Diagonalizing with lowered threshold

     Davidson diagonalization with overlap
     ethr =  1.14E-08,  avg # of iterations =  2.0

[...]

     total energy              =   -2313.50101026 Ry
     Harris-Foulkes estimate   =   -2313.50101027 Ry
     estimated scf accuracy    <       0.00000018 Ry

     iteration # 14     ecut=    40.00 Ry     beta=0.70
     Davidson diagonalization with overlap
     ethr =  7.69E-12,  avg # of iterations =  1.0

     negative rho (up, down):  0.158E+01 0.000E+00

     End of self-consistent calculation
 --- enter write_ns ---
 LDA+U parameters:
U( 2)     =  2.50000000
alpha( 2) =  0.00000000
atom    3   Tr[ns(na)] =   8.69534
    eigenvalues:
  0.686  0.703  0.984  0.986  0.989
    eigenvectors:
  0.047  0.128  0.802  0.005  0.018
  0.758  0.241  0.000  0.000  0.000
  0.001  0.004  0.031  0.001  0.964
  0.194  0.627  0.161  0.001  0.017
  0.000  0.000  0.006  0.994  0.000
    occupations:
  0.934  0.007  0.007 -0.108  0.001
  0.007  0.690  0.002  0.005 -0.002
  0.007  0.002  0.988  0.017 -0.000
 -0.108  0.005  0.017  0.750  0.001
  0.001 -0.002 -0.000  0.001  0.986
atom    4   Tr[ns(na)] =   8.68683
    eigenvalues:
  0.687  0.708  0.980  0.984  0.985
    eigenvectors:
  0.000  0.986  0.007  0.002  0.005
  0.009  0.000  0.044  0.930  0.016
  0.000  0.005  0.896  0.029  0.070
  0.000  0.009  0.052  0.030  0.908
  0.990  0.000  0.000  0.009  0.000
    occupations:
  0.712 -0.004 -0.019  0.026 -0.001
 -0.004  0.981  0.000  0.000  0.029
 -0.019  0.000  0.979  0.003  0.000
  0.026  0.000  0.003  0.982  0.000
 -0.001  0.029  0.000  0.000  0.690
atom    9   Tr[ns(na)] =   8.66361
    eigenvalues:
  0.709  0.719  0.955  0.963  0.985
    eigenvectors:
  0.000  0.136  0.001  0.014  0.848
  0.999  0.001  0.000  0.000  0.000
  0.000  0.011  0.066  0.915  0.008
  0.001  0.852  0.000  0.004  0.143
  0.000  0.000  0.932  0.067  0.000
    occupations:
  0.949 -0.001 -0.007 -0.091 -0.000
 -0.001  0.709 -0.000  0.001 -0.003
 -0.007 -0.000  0.960 -0.024  0.002
 -0.091  0.001 -0.024  0.758  0.000
 -0.000 -0.003  0.002  0.000  0.955
atom   10   Tr[ns(na)] =   8.74615
    eigenvalues:
  0.660  0.765  0.979  0.982  0.986
    eigenvectors:
  0.000  0.981  0.000  0.009  0.009
  0.012  0.000  0.988  0.000  0.000
  0.000  0.001  0.000  0.280  0.719
  0.000  0.018  0.000  0.710  0.272
  0.988  0.000  0.012  0.000  0.000
    occupations:
  0.769 -0.000 -0.007  0.029  0.000
 -0.000  0.975 -0.000  0.000 -0.034
 -0.007 -0.000  0.985 -0.001  0.000
  0.029  0.000 -0.001  0.980 -0.000
  0.000 -0.034  0.000 -0.000  0.664
atom   16   Tr[ns(na)] =   8.69534
    eigenvalues:
  0.686  0.703  0.984  0.986  0.989
    eigenvectors:
  0.047  0.127  0.805  0.003  0.018
  0.756  0.244  0.000  0.000  0.000
  0.001  0.003  0.031  0.000  0.965
  0.196  0.625  0.161  0.000  0.017
  0.000  0.000  0.003  0.997  0.000
    occupations:
  0.934 -0.007  0.007 -0.108 -0.001
 -0.007  0.690 -0.002 -0.005 -0.002
  0.007 -0.002  0.988  0.017  0.000
 -0.108 -0.005  0.017  0.750 -0.001
 -0.001 -0.002  0.000 -0.001  0.986
atom   17   Tr[ns(na)] =   8.68537
    eigenvalues:
  0.686  0.708  0.980  0.984  0.985
    eigenvectors:
  0.000  0.986  0.007  0.002  0.005
  0.010  0.000  0.064  0.910  0.016
  0.000  0.005  0.870  0.043  0.082
  0.000  0.009  0.059  0.035  0.897
  0.990  0.000  0.001  0.009  0.000
    occupations:
  0.711 -0.005 -0.019  0.026 -0.001
 -0.005  0.980  0.001  0.000  0.029
 -0.019  0.001  0.979  0.003  0.000
  0.026  0.000  0.003  0.982  0.000
 -0.001  0.029  0.000  0.000  0.689
atom   22   Tr[ns(na)] =   8.66358
    eigenvalues:
  0.709  0.719  0.955  0.963  0.985
    eigenvectors:
  0.001  0.136  0.001  0.014  0.848
  0.997  0.003  0.000  0.000  0.000
  0.000  0.011  0.075  0.906  0.008
  0.002  0.851  0.000  0.004  0.143
  0.000  0.000  0.923  0.077  0.000
    occupations:
  0.949  0.002 -0.007 -0.091  0.000
  0.002  0.709  0.000 -0.000 -0.003
 -0.007  0.000  0.960 -0.024 -0.002
 -0.091 -0.000 -0.024  0.758 -0.000
  0.000 -0.003 -0.002 -0.000  0.955
atom   23   Tr[ns(na)] =   8.67865
    eigenvalues:
  0.699  0.706  0.965  0.983  0.986
    eigenvectors:
  0.000  0.960  0.000  0.032  0.008
  0.018  0.000  0.982  0.000  0.000
  0.000  0.032  0.000  0.968  0.000
  0.000  0.008  0.000  0.000  0.992
  0.982  0.000  0.018  0.000  0.000
    occupations:
  0.717  0.000  0.049  0.025 -0.000
  0.000  0.960  0.000 -0.000 -0.035
  0.049  0.000  0.974 -0.004 -0.000
  0.025 -0.000 -0.004  0.984 -0.000
 -0.000 -0.035 -0.000 -0.000  0.704
N of occupied +U levels =  69.5148687
 --- exit write_ns ---

[...]

          k = 0.2500-0.4976 0.0000 ( 32026 PWs)   bands (ev):

[...]

          k =-0.2500 0.2488 0.0000 ( 32025 PWs)   bands (ev):

   -54.9894 -54.9523 -54.9327 -54.9123 -54.8947 -54.8743 -54.8329 -54.8044
   -54.8014 -54.7942 -54.7470 -54.7430 -54.7145 -54.6167 -54.6121 -54.5787
   -54.5740 -54.5249 -54.5192 -54.5142 -54.5099 -54.1415 -53.9063 -53.5642
   -23.6706 -21.4398 -21.1412 -20.5205 -20.3409 -20.0439 -19.9464 -19.8964
   -19.7560 -19.7376 -19.6384 -19.5901 -19.5188 -19.4788 -19.3425 -19.2925
   -19.2512 -18.5304 -18.3502 -17.3707  -9.8233  -9.5788  -9.4441  -9.3845
    -8.9918  -8.9733  -8.8819  -8.7401  -8.6268  -8.5838  -8.5657  -8.4601
    -8.3501  -8.2795  -8.1955  -8.1097  -8.0731  -7.9686  -7.8976  -7.4751
    -7.4079  -7.2900  -7.1719  -7.1267  -7.0512  -6.9461  -6.6450  -6.6202
    -6.5129  -6.3598  -6.3043  -6.2822  -6.1770  -6.0734  -5.9582  -5.9494
    -5.8936  -5.7862  -5.7214  -5.6241  -5.5440  -5.5084  -5.3664  -5.1006
    -5.0575  -4.9623  -4.8269  -4.6890  -4.5741  -4.5079  -4.4384  -4.3849
    -4.3035  -4.2142  -4.0241  -3.9943  -3.8270  -3.7539  -3.6763  -3.6132
    -3.4550  -3.3386  -3.2276  -3.1390  -3.0591  -3.0553  -2.9291  -2.8794
    -2.7933  -2.7366  -2.4495  -2.4153  -2.1513  -1.9938  -1.9150  -1.7579
    -1.7136  -1.6525  -1.6019  -1.4793  -1.2327  -1.1208  -1.0716  -0.9301
    -0.4131  -0.2174  -0.0820   0.3784   0.5440   0.8601   1.0582   1.3422
     1.4140   1.5669   1.6042   1.8956   2.0444   2.0877   2.3713   3.4178
     3.7694   4.0872   4.5719   4.8854   5.1186   5.5730   5.7255   5.7795
     5.9963   6.1756   6.3103   6.4828   6.5358   6.7536   6.8687   6.9559
     7.0117   7.1255   7.2955   7.4699   7.6189   7.6551   7.7868   7.8948
     7.9592   8.0571   8.2129   8.2570   8.4315   8.4845   8.5789   8.6867
     8.8125   8.8217   8.9404   8.9565   9.1528   9.2023   9.3253   9.4193
     9.5334   9.5946   9.6763   9.7641   9.8657   9.9978  10.0304  10.1179
    10.1997  10.2953  10.3986  10.4855  10.5807  10.6508  10.7262  10.7828
    10.9506  11.0040  11.1053  11.2070  11.3163  11.3651  11.4399  11.5579
    11.6385  11.7288  11.8203  11.8806  11.9534  12.0364  12.0874  12.1527
    12.2347  12.2860  12.3756  12.4348  12.5786  12.6516  12.7260  12.7642
    12.8600  12.8943  12.9777  13.0310  13.2009  13.2709  13.3259  13.4314
    13.5330  13.6044  13.6515  13.7040  13.7948  13.8186  13.9363  14.0204
    14.1056  14.1559  14.2467  14.3779  14.4243  14.4696  14.5894  14.7192
    14.7619  14.8207  14.9130  14.9704  15.0597  15.1403  15.1838  15.2783
    15.3259  15.3366  15.3984  15.4338  15.5131  15.5741  15.6353  15.6629
    15.7601  15.8439  15.8676  15.9139  15.9785  16.0566  16.1192  16.1553
    16.2238  16.2782  16.3434  16.4324  16.5220  16.5931  16.7469  16.7783
    16.8193  16.9266  16.9934  17.0425  17.0847  17.1408  17.2012  17.2464
    17.2689  17.3011  17.3433  17.3569  17.3722  17.4017  17.4373  17.4518
    17.4774  17.5010  17.5285  17.5676  17.6159  17.6243  17.6972  17.7799
    17.8879  17.9817  17.9944  18.0840  18.1156  18.2609  18.3532  18.3741
    18.3902  18.4217  18.4901  18.5659  18.6094  18.6739  18.7353  18.8473
    18.9364  18.9713  19.0295  19.1071  19.1194  19.1991  19.3077  19.3749
    19.4456  19.5331  19.5861  19.6365  19.6864  19.8319  19.9719  20.0140
    20.0891  20.1528  20.1919  20.2352  20.2794  20.3214  20.3485  20.4104
    20.5226  20.5800  20.6421  20.7035  20.7444  20.8097  20.8266  20.8522
    20.9367  20.9844  21.0563  21.0827  21.1592  21.2243  21.3086  21.3349
    21.3896  21.5003  21.5045  21.5843  21.6126  21.6797  21.7755  21.8717
    21.9334  21.9851  22.0692  22.1456  22.1934  22.2675  22.3148  22.3438
    22.4336  22.4828  22.5416

     the Fermi energy is    -1.0478 ev

!    total energy              =   -2313.50101026 Ry
     Harris-Foulkes estimate   =   -2313.50101026 Ry
     estimated scf accuracy    <          3.4E-09 Ry

     The total energy is the sum of the following terms:

     one-electron contribution =  -24130.19040889 Ry
     hartree contribution      =   12115.43096528 Ry
     xc contribution           =    -580.00596603 Ry
     ewald contribution        =   10280.56357823 Ry
     Hubbard energy            =       0.70078951 Ry
     smearing contrib. (-TS)   =       0.00003164 Ry

     convergence has been achieved in  14 iterations

     Forces acting on atoms (Ry/au):

     negative rho (up, down):  0.158E+01 0.000E+00
     atom    1 type  1   force =    -0.00708394   -0.00379856    0.00045675
     atom    2 type  1   force =     0.00013132    0.00465918    0.00029287
     atom    3 type  2   force =     0.00683079    0.00619570   -0.00001336
     atom    4 type  2   force =     0.00982453    0.00388897    0.00030588
     atom    5 type  1   force =     0.00105571   -0.00423477    0.00002174
     atom    6 type  1   force =     0.00006911   -0.00253393    0.00006607
     atom    7 type  1   force =     0.00012712   -0.00138030    0.00075722
     atom    8 type  1   force =    -0.00398056    0.00030654    0.00047909
     atom    9 type  2   force =     0.00618660    0.00432728   -0.00027971
     atom   10 type  2   force =    -0.00006902   -0.02331116    0.00024590
     atom   11 type  1   force =    -0.00144674    0.00217498   -0.00019393
     atom   12 type  1   force =    -0.01319201    0.01102594    0.00002590
     atom   13 type  1   force =    -0.00111775   -0.00769236   -0.00011370
     atom   14 type  1   force =    -0.00765531   -0.00366076    0.00012590
     atom   15 type  1   force =     0.00015508    0.00105439   -0.00060472
     atom   16 type  2   force =    -0.00769945    0.00628138    0.00002620
     atom   17 type  2   force =     0.00988186    0.00537510    0.00015107
     atom   18 type  1   force =     0.00125859   -0.00426290    0.00002550
     atom   19 type  1   force =    -0.00010918   -0.00247587    0.00008474
     atom   20 type  1   force =    -0.00000099   -0.00367720   -0.00030556
     atom   21 type  1   force =    -0.00389418    0.00227839    0.00026902
     atom   22 type  2   force =    -0.00261652    0.00426391   -0.00027516
     atom   23 type  2   force =     0.00010952    0.00667068   -0.00061472
     atom   24 type  1   force =     0.00150244    0.00223409   -0.00020822
     atom   25 type  1   force =     0.01325137    0.01107034    0.00004309
     atom   26 type  1   force =    -0.00104827   -0.01570962   -0.00033833
     atom   27 type  3   force =     0.00000445   -0.00008696    0.00010135
     atom   28 type  3   force =    -0.00000952    0.00044146    0.00008970
     atom   29 type  3   force =    -0.00032429   -0.00014815   -0.00052874
     atom   30 type  3   force =    -0.00012881   -0.00015518   -0.00031695
     atom   31 type  1   force =     0.00002563   -0.00026390    0.00081582
     atom   32 type  1   force =    -0.00005021    0.00089760   -0.00020700
     atom   33 type  3   force =     0.00001261    0.00024572   -0.00038373

     Total force =     0.002267     Total SCF correction =     0.000344
     SCF correction compared to forces is large: reduce conv_thr to get better values

     entering subroutine stress ...

     negative rho (up, down):  0.158E+01 0.000E+00
          total   stress  (Ry/bohr**3)                   (kbar)     P=  -19.58
  -0.00021154   0.00000001   0.00000390        -31.12      0.00      0.57
   0.00000001  -0.00013722  -0.00000665          0.00    -20.19     -0.98
   0.00000390  -0.00000665  -0.00005061          0.57     -0.98     -7.44

     bfgs converged in   8 scf cycles and   7 bfgs steps
     (criteria: energy < 0.10E-03, force < 0.10E-02)

     End of BFGS Geometry Optimization

     Final energy   =   -2313.5010102583 Ry
Begin final coordinates

ATOMIC_POSITIONS (crystal)
O0       0.000000000   0.000000000   0.377599292    0   0   1
O0       0.000000000   0.500000000   0.401761275    0   0   1
Pt1      0.250000000   0.500000000   0.451322527    0   0   1
Pt1      0.000000000   0.000000000   0.452683691    0   0   1
O0       0.250000000   0.810000000   0.442951498    0   0   1
O0       0.250000000   0.190000000   0.460499244    0   0   1
O0       0.000000000   0.500000000   0.496712131    0   0   1
O0       0.000000000   0.000000000   0.529637665    0   0   1
Pt1      0.250000000   0.000000000   0.575763920    0   0   1
Pt1      0.000000000   0.500000000   0.575225296    0   0   1
O0       0.250000000   0.690000000   0.566642901    0   0   1
O0       0.250000000   0.310000000   0.586471025    0   0   1
O0       0.000000000   0.000000000   0.621346708    0   0   1
O0       0.500000000   0.000000000   0.377488389    0   0   1
O0       0.500000000   0.500000000   0.401192469    0   0   1
Pt1      0.750000000   0.500000000   0.451325310    0   0   1
Pt1      0.500000000   0.000000000   0.452545619    0   0   1
O0       0.750000000   0.810000000   0.442965501    0   0   1
O0       0.750000000   0.190000000   0.460480379    0   0   1
O0       0.500000000   0.500000000   0.498198242    0   0   1
O0       0.500000000   0.000000000   0.529433028    0   0   1
Pt1      0.750000000   0.000000000   0.575760878    0   0   1
Pt1      0.500000000   0.500000000   0.576158241    0   0   1
O0       0.750000000   0.690000000   0.566618071    0   0   1
O0       0.750000000   0.310000000   0.586455384    0   0   1
O0       0.500000000   0.000000000   0.620880868    0   0   1
H2       0.000034155   0.640643405   0.386400844
H2       0.500079420   0.640573365   0.385936789
H2       0.143822765   0.033845146   0.367920834
H2       0.643372811   0.035146028   0.367724561
O0       0.500199346   0.556397707   0.648905178
O0       0.499842004   0.367550991   0.677753398
H2       0.500009787   0.428512547   0.711968843
End final coordinates

     General routines

     Parallel routines
     Hubbard U routines

   This run was terminated on:  15:39:55  31May2014

   JOB DONE.