     Program PWSCF v.5.0.2 (svn rev. 9656) starts on 30Apr2014 at 20:42:56

     Current dimensions of program PWSCF are:
     Max number of different atomic species (ntypx) = 10
     Max number of k-points (npk) =  40000
     Max angular momentum in pseudopotentials (lmaxx) =  3
     Reading input from pwscf.in
Warning: card &CELL ignored
Warning: card / ignored

     Subspace diagonalization in iterative solution of the eigenvalue problem:
     a serial algorithm will be used

     bravais-lattice index     =            0
     lattice parameter (alat)  =      11.7541  a.u.
     unit-cell volume          =    7139.8207 (a.u.)^3
     number of atoms/cell      =           32
     number of atomic types    =            3
     number of electrons       =       239.00
     number of Kohn-Sham states=          358
     kinetic-energy cutoff     =      40.0000  Ry
     charge density cutoff     =     500.0000  Ry
     convergence threshold     =      1.0E-06
     mixing beta               =       0.7000
     number of iterations used =            8  plain     mixing
     Exchange-correlation      = SLA  PW   PBE  PBE ( 1 4 3 4 0)
     EXX-fraction              =        0.00
     nstep                     =           50

     celldm(1)=  11.754097  celldm(2)=   0.000000  celldm(3)=   0.000000
     celldm(4)=   0.000000  celldm(5)=   0.000000  celldm(6)=   0.000000

     crystal axes: (cart. coord. in units of alat)
               a(1) = (   1.000000   0.000000   0.000000 )
               a(2) = (   0.000000   1.034513   0.000000 )
               a(3) = (   0.000000   0.000000   4.249947 )

     reciprocal axes: (cart. coord. in units 2 pi/alat)
               b(1) = (  1.000000  0.000000  0.000000 )
               b(2) = (  0.000000  0.966638  0.000000 )
               b(3) = (  0.000000  0.000000  0.235297 )

     PseudoPot. # 1 for O  read from file:
     /home/camp/zhonxu/pseudo/o_pbe_v1.01.uspp.F.UPF
     MD5 check sum: 2bcb18d16ea4b960afae9ec6d52f22d2
     Pseudo is Ultrasoft + core correction, Zval =  6.0
     Generated by new atomic code, or converted to UPF format
     Using radial grid of  737 points,  5 beta functions with:
                l(1) =   0
                l(2) =   0
                l(3) =   1
                l(4) =   1
                l(5) =   2
     Q(r) pseudized with  8 coefficients,  rinner =    0.900   0.900   0.900
                                                       0.900   0.900

     PseudoPot. # 2 for Rh read from file:
     /home/camp/zhonxu/pseudo/rh_pbe_v1.uspp.F.UPF
     MD5 check sum: 37b626987ad0dd8ec6bf4cc9ef289918
     Pseudo is Ultrasoft + core correction, Zval = 15.0
     Generated by new atomic code, or converted to UPF format
     Using radial grid of  969 points,  7 beta functions with:
                l(1) =   0
                l(2) =   0
                l(3) =   1
                l(4) =   1
                l(5) =   2
                l(6) =   2
                l(7) =   2
     Q(r) pseudized with  6 coefficients,  rinner =    1.050   1.050   1.050
                                                       1.050   1.050

     PseudoPot. # 3 for H  read from file:
     /home/camp/zhonxu/pseudo/h_pbe_v1.uspp.F.UPF
     MD5 check sum: 3408e3ff4ec8b0a4e358431e7e038a48
     Pseudo is Ultrasoft, Zval =  1.0
     Generated by new atomic code, or converted to UPF format
     Using radial grid of  615 points,  2 beta functions with:
                l(1) =   0
                l(2) =   0
     Q(r) pseudized with  8 coefficients,  rinner =    0.700

     atomic species   valence    mass     pseudopotential
        O0             6.00    15.99940     O ( 1.00)
        Rh1           15.00   102.90550     Rh( 1.00)
        H2             1.00     1.00794     H ( 1.00)

     Simplified LDA+U calculation (l_max = 2) with parameters (eV):
     atomic species    L          U    alpha       J0     beta
        Rh1            2     6.5000   0.0000   0.0000   0.0000

     No symmetry found

   Cartesian axes

     site n.     atom                  positions (alat units)
         1           O0  tau(   1) = (   0.0000000   0.0000000   1.6077125  )
         2           O0  tau(   2) = (   0.0000000   0.5172566   1.7060138  )
         3           Rh1 tau(   3) = (   0.2500000   0.5172566   1.9233561  )
         4           Rh1 tau(   4) = (   0.0000000   0.0000000   1.9242061  )
         5           O0  tau(   5) = (   0.2500000   0.8379556   1.9221236  )
         6           O0  tau(   6) = (   0.2500000   0.1965575   1.9218261  )
         7           O0  tau(   7) = (   0.0000000   0.5172566   2.1180887  )
         8           O0  tau(   8) = (   0.0000000   0.0000000   2.2452046  )
         9           Rh1 tau(   9) = (   0.2500000   0.0000000   2.4467796  )
        10           Rh1 tau(  10) = (   0.0000000   0.5172566   2.4248074  )
        11           O0  tau(  11) = (   0.2500000   0.7138141   2.4490746  )
        12           O0  tau(  12) = (   0.2500000   0.3206991   2.4494996  )
        13           O0  tau(  13) = (   0.0000000   0.0000000   2.6392597  )
        14           O0  tau(  14) = (   0.5000000   0.0000000   1.6071175  )
        15           O0  tau(  15) = (   0.5000000   0.5172566   1.7046963  )
        16           Rh1 tau(  16) = (   0.7500000   0.5172566   1.9233561  )
        17           Rh1 tau(  17) = (   0.5000000   0.0000000   1.9236961  )
        18           O0  tau(  18) = (   0.7500000   0.8379556   1.9222086  )
        19           O0  tau(  19) = (   0.7500000   0.1965575   1.9219111  )
        20           O0  tau(  20) = (   0.5000000   0.5172566   2.1234861  )
        21           O0  tau(  21) = (   0.5000000   0.0000000   2.2446521  )
        22           Rh1 tau(  22) = (   0.7500000   0.0000000   2.4466946  )
        23           Rh1 tau(  23) = (   0.5000000   0.5172566   2.4467371  )
        24           O0  tau(  24) = (   0.7500000   0.7138141   2.4449521  )
        25           O0  tau(  25) = (   0.7500000   0.3206991   2.4452921  )
        26           O0  tau(  26) = (   0.5000000   0.0000000   2.6379847  )
        27           H2  tau(  27) = (  -0.0000100   0.6596573   1.6332972  )
        28           H2  tau(  28) = (   0.4999400   0.6612505   1.6349547  )
        29           H2  tau(  29) = (   0.1484100   0.0351631   1.5627056  )
        30           H2  tau(  30) = (   0.6482100   0.0356700   1.5619406  )
        31           O0  tau(  31) = (   0.5154200   0.5168841   2.7565583  )
        32           H2  tau(  32) = (   0.3686900   0.5167083   2.8162275  )

     number of k points=    10  Methfessel-Paxton smearing, width (Ry)=  0.0100
                       cart. coord. in units 2pi/alat
        k(    1) = (   0.0000000   0.0000000   0.0000000), wk =   0.1250000
        k(    2) = (   0.0000000   0.2416596   0.0000000), wk =   0.2500000
        k(    3) = (   0.0000000  -0.4833191   0.0000000), wk =   0.1250000
        k(    4) = (   0.2500000   0.0000000   0.0000000), wk =   0.2500000
        k(    5) = (   0.2500000   0.2416596   0.0000000), wk =   0.2500000
        k(    6) = (   0.2500000  -0.4833191   0.0000000), wk =   0.2500000
        k(    7) = (  -0.5000000   0.0000000   0.0000000), wk =   0.1250000
        k(    8) = (  -0.5000000   0.2416596   0.0000000), wk =   0.2500000
        k(    9) = (  -0.5000000  -0.4833191   0.0000000), wk =   0.1250000
        k(   10) = (  -0.2500000   0.2416596   0.0000000), wk =   0.2500000

     Largest allocated arrays     est. size (Mb)     dimensions
     Largest temporary arrays     est. size (Mb)     dimensions

     Check: negative/imaginary core charge=   -0.000003    0.000000

     Initial potential from superposition of free atoms
     Check: negative starting charge=   -0.644969

     starting charge  234.99914, renormalised to  239.00000

     negative rho (up, down):  0.656E+00 0.000E+00
     Number of +U iterations with fixed ns =  0
     Starting occupations:
 --- enter write_ns ---
 LDA+U parameters:
U( 2)     =  6.50000000
alpha( 2) =  0.00000000
atom    3   Tr[ns(na)] =   7.00000
    eigenvalues:
  0.700  0.700  0.700  0.700  0.700
    eigenvectors:
  1.000  0.000  0.000  0.000  0.000
  0.000  1.000  0.000  0.000  0.000
  0.000  0.000  1.000  0.000  0.000
  0.000  0.000  0.000  1.000  0.000
  0.000  0.000  0.000  0.000  1.000
    occupations:
  0.700  0.000  0.000  0.000  0.000
  0.000  0.700  0.000  0.000  0.000
  0.000  0.000  0.700  0.000  0.000
  0.000  0.000  0.000  0.700  0.000
  0.000  0.000  0.000  0.000  0.700
atom    4   Tr[ns(na)] =   7.00000
    eigenvalues:
  0.700  0.700  0.700  0.700  0.700
    eigenvectors:
  1.000  0.000  0.000  0.000  0.000
  0.000  1.000  0.000  0.000  0.000
  0.000  0.000  1.000  0.000  0.000
  0.000  0.000  0.000  1.000  0.000
  0.000  0.000  0.000  0.000  1.000
    occupations:
  0.700  0.000  0.000  0.000  0.000
  0.000  0.700  0.000  0.000  0.000
  0.000  0.000  0.700  0.000  0.000
  0.000  0.000  0.000  0.700  0.000
  0.000  0.000  0.000  0.000  0.700
atom    9   Tr[ns(na)] =   7.00000
    eigenvalues:
  0.700  0.700  0.700  0.700  0.700
    eigenvectors:
  1.000  0.000  0.000  0.000  0.000
  0.000  1.000  0.000  0.000  0.000
  0.000  0.000  1.000  0.000  0.000
  0.000  0.000  0.000  1.000  0.000
  0.000  0.000  0.000  0.000  1.000
    occupations:
  0.700  0.000  0.000  0.000  0.000
  0.000  0.700  0.000  0.000  0.000
  0.000  0.000  0.700  0.000  0.000
  0.000  0.000  0.000  0.700  0.000
  0.000  0.000  0.000  0.000  0.700
atom   10   Tr[ns(na)] =   7.00000
    eigenvalues:
  0.700  0.700  0.700  0.700  0.700
    eigenvectors:
  1.000  0.000  0.000  0.000  0.000
  0.000  1.000  0.000  0.000  0.000
  0.000  0.000  1.000  0.000  0.000
  0.000  0.000  0.000  1.000  0.000
  0.000  0.000  0.000  0.000  1.000
    occupations:
  0.700  0.000  0.000  0.000  0.000
  0.000  0.700  0.000  0.000  0.000
  0.000  0.000  0.700  0.000  0.000
  0.000  0.000  0.000  0.700  0.000
  0.000  0.000  0.000  0.000  0.700
atom   16   Tr[ns(na)] =   7.00000
    eigenvalues:
  0.700  0.700  0.700  0.700  0.700
    eigenvectors:
  1.000  0.000  0.000  0.000  0.000
  0.000  1.000  0.000  0.000  0.000
  0.000  0.000  1.000  0.000  0.000
  0.000  0.000  0.000  1.000  0.000
  0.000  0.000  0.000  0.000  1.000
    occupations:
  0.700  0.000  0.000  0.000  0.000
  0.000  0.700  0.000  0.000  0.000
  0.000  0.000  0.700  0.000  0.000
  0.000  0.000  0.000  0.700  0.000
  0.000  0.000  0.000  0.000  0.700
atom   17   Tr[ns(na)] =   7.00000
    eigenvalues:
  0.700  0.700  0.700  0.700  0.700
    eigenvectors:
  1.000  0.000  0.000  0.000  0.000
  0.000  1.000  0.000  0.000  0.000
  0.000  0.000  1.000  0.000  0.000
  0.000  0.000  0.000  1.000  0.000
  0.000  0.000  0.000  0.000  1.000
    occupations:
  0.700  0.000  0.000  0.000  0.000
  0.000  0.700  0.000  0.000  0.000
  0.000  0.000  0.700  0.000  0.000
  0.000  0.000  0.000  0.700  0.000
  0.000  0.000  0.000  0.000  0.700
atom   22   Tr[ns(na)] =   7.00000
    eigenvalues:
  0.700  0.700  0.700  0.700  0.700
    eigenvectors:
  1.000  0.000  0.000  0.000  0.000
  0.000  1.000  0.000  0.000  0.000
  0.000  0.000  1.000  0.000  0.000
  0.000  0.000  0.000  1.000  0.000
[...]
  0.029  0.001 -0.000  0.978  0.000
  0.001 -0.001  0.001  0.000  0.597
atom    9   Tr[ns(na)] =   8.10927
    eigenvalues:
  0.634  0.641  0.883  0.915  0.982
    eigenvectors:
  0.005  0.148  0.000  0.000  0.847
  0.970  0.030  0.000  0.000  0.000
  0.000  0.000  0.993  0.007  0.000
  0.025  0.822  0.000  0.000  0.153
  0.000  0.000  0.007  0.993  0.000
    occupations:
  0.930  0.001 -0.000 -0.123 -0.000
  0.001  0.634  0.001  0.001 -0.000
 -0.000  0.001  0.883 -0.000 -0.003
 -0.123  0.001 -0.000  0.693  0.001
 -0.000 -0.000 -0.003  0.001  0.915
atom   10   Tr[ns(na)] =   8.08641
    eigenvalues:
  0.590  0.593  0.937  0.942  0.982
    eigenvectors:
  0.992  0.000  0.000  0.000  0.008
  0.000  0.000  1.000  0.000  0.000
  0.000  0.000  0.000  1.000  0.000
  0.008  0.000  0.000  0.000  0.992
  0.000  1.000  0.000  0.000  0.000
    occupations:
  0.593 -0.003  0.001  0.035 -0.000
 -0.003  0.937  0.000  0.000 -0.000
  0.001  0.000  0.942  0.000  0.003
  0.035  0.000  0.000  0.978  0.000
 -0.000 -0.000  0.003  0.000  0.593
atom   16   Tr[ns(na)] =   8.09543
    eigenvalues:
  0.578  0.600  0.919  0.969  0.981
    eigenvectors:
  0.007  0.194  0.003  0.001  0.796
  0.972  0.027  0.000  0.000  0.000
  0.000  0.000  0.971  0.027  0.002
  0.020  0.779  0.000  0.000  0.200
  0.000  0.000  0.026  0.972  0.001
    occupations:
  0.904  0.006  0.001 -0.153  0.001
  0.006  0.579  0.001  0.001 -0.006
  0.001  0.001  0.921 -0.004 -0.008
 -0.153  0.001 -0.004  0.676  0.000
  0.001 -0.006 -0.008  0.000  0.967
atom   17   Tr[ns(na)] =   8.10726
    eigenvalues:
  0.596  0.648  0.894  0.935  0.981
    eigenvectors:
  0.001  0.991  0.000  0.000  0.008
  0.000  0.000  0.092  0.908  0.000
  0.000  0.000  0.908  0.092  0.000
  0.000  0.008  0.000  0.000  0.992
  0.999  0.001  0.000  0.000  0.000
    occupations:
  0.651 -0.004 -0.001  0.029  0.002
 -0.004  0.931  0.012  0.001 -0.001
 -0.001  0.012  0.897 -0.000  0.001
  0.029  0.001 -0.000  0.978  0.000
  0.002 -0.001  0.001  0.000  0.596
atom   22   Tr[ns(na)] =   8.10635
    eigenvalues:
  0.635  0.643  0.876  0.917  0.982
    eigenvectors:
  0.000  0.151  0.000  0.000  0.849
  0.998  0.002  0.000  0.000  0.000
  0.000  0.000  0.995  0.005  0.000
  0.002  0.847  0.000  0.000  0.151
  0.000  0.000  0.005  0.995  0.000
    occupations:
  0.931  0.000 -0.000 -0.122 -0.000
  0.000  0.635  0.001 -0.000 -0.000
 -0.000  0.001  0.876 -0.000  0.003
 -0.122 -0.000 -0.000  0.694  0.001
 -0.000 -0.000  0.003  0.001  0.917
atom   23   Tr[ns(na)] =   8.09830
    eigenvalues:
  0.602  0.653  0.871  0.942  0.981
    eigenvectors:
  0.000  0.991  0.000  0.000  0.009
  0.000  0.000  0.000  0.999  0.000
  0.000  0.000  1.000  0.000  0.000
  0.000  0.009  0.000  0.000  0.991
  1.000  0.000  0.000  0.000  0.000
    occupations:
  0.656  0.006 -0.000  0.030 -0.000
  0.006  0.942 -0.000 -0.000 -0.000
 -0.000 -0.000  0.871  0.000 -0.002
  0.030 -0.000  0.000  0.978  0.000
 -0.000 -0.000 -0.002  0.000  0.602
N of occupied +U levels =  64.8055391
 --- exit write_ns ---

     Threshold (ethr) on eigenvalues was too large:
     Diagonalizing with lowered threshold

     Davidson diagonalization with overlap
     ethr =  1.10E-08,  avg # of iterations =  2.7

[...]

     total energy              =   -1979.06695489 Ry
     Harris-Foulkes estimate   =   -1979.06695492 Ry
     estimated scf accuracy    <       0.00000041 Ry

     iteration # 15     ecut=    40.00 Ry     beta=0.70
     Davidson diagonalization with overlap
     ethr =  2.73E-11,  avg # of iterations =  1.0

     negative rho (up, down):  0.690E+00 0.000E+00

     End of self-consistent calculation
 --- enter write_ns ---
 LDA+U parameters:
U( 2)     =  6.50000000
alpha( 2) =  0.00000000
atom    3   Tr[ns(na)] =   8.09498
    eigenvalues:
  0.578  0.600  0.920  0.969  0.981
    eigenvectors:
  0.006  0.195  0.003  0.000  0.796
  0.976  0.024  0.000  0.000  0.000
  0.000  0.000  0.965  0.033  0.002
  0.018  0.781  0.000  0.000  0.200
  0.000  0.000  0.032  0.966  0.001
    occupations:
  0.904 -0.006  0.001 -0.153 -0.001
 -0.006  0.579 -0.002 -0.001 -0.005
  0.001 -0.002  0.921 -0.004  0.009
 -0.153 -0.001 -0.004  0.676 -0.001
 -0.001 -0.005  0.009 -0.001  0.967
atom    4   Tr[ns(na)] =   8.10677
    eigenvalues:
  0.597  0.649  0.890  0.936  0.981
    eigenvectors:
  0.001  0.991  0.000  0.000  0.008
  0.000  0.000  0.062  0.938  0.000
  0.000  0.000  0.938  0.062  0.000
  0.000  0.008  0.000  0.000  0.992
  0.999  0.001  0.000  0.000  0.000
    occupations:
  0.652 -0.004 -0.001  0.029  0.001
 -0.004  0.933  0.011  0.001 -0.001
 -0.001  0.011  0.893 -0.000  0.001
  0.029  0.001 -0.000  0.978  0.000
  0.001 -0.001  0.001  0.000  0.597
atom    9   Tr[ns(na)] =   8.10956
    eigenvalues:
  0.634  0.641  0.883  0.915  0.982
    eigenvectors:
  0.005  0.148  0.000  0.000  0.847
  0.970  0.030  0.000  0.000  0.000
  0.000  0.000  0.993  0.007  0.000
  0.025  0.822  0.000  0.000  0.153
  0.000  0.000  0.007  0.993  0.000
    occupations:
  0.930  0.001 -0.000 -0.123 -0.000
  0.001  0.634  0.001  0.001 -0.000
 -0.000  0.001  0.883 -0.000 -0.003
 -0.123  0.001 -0.000  0.693  0.001
 -0.000 -0.000 -0.003  0.001  0.915
atom   10   Tr[ns(na)] =   8.08676
    eigenvalues:
  0.590  0.593  0.937  0.942  0.982
    eigenvectors:
  0.992  0.000  0.000  0.000  0.008
  0.000  0.000  1.000  0.000  0.000
  0.000  0.000  0.000  1.000  0.000
  0.008  0.000  0.000  0.000  0.992
  0.000  1.000  0.000  0.000  0.000
    occupations:
  0.593 -0.003  0.001  0.035 -0.000
 -0.003  0.937  0.000  0.000 -0.000
  0.001  0.000  0.942  0.000  0.003
  0.035  0.000  0.000  0.978  0.000
 -0.000 -0.000  0.003  0.000  0.593
atom   16   Tr[ns(na)] =   8.09501
    eigenvalues:
  0.578  0.600  0.919  0.969  0.981
    eigenvectors:
  0.007  0.194  0.003  0.001  0.796
  0.973  0.027  0.000  0.000  0.000
  0.000  0.000  0.971  0.027  0.002
  0.020  0.779  0.000  0.000  0.200
  0.000  0.000  0.026  0.972  0.001
    occupations:
  0.904  0.006  0.001 -0.153  0.001
  0.006  0.579  0.001  0.001 -0.006
  0.001  0.001  0.921 -0.004 -0.008
 -0.153  0.001 -0.004  0.676  0.000
  0.001 -0.006 -0.008  0.000  0.967
atom   17   Tr[ns(na)] =   8.10691
    eigenvalues:
  0.596  0.648  0.893  0.935  0.981
    eigenvectors:
  0.001  0.991  0.000  0.000  0.008
  0.000  0.000  0.092  0.908  0.000
  0.000  0.000  0.908  0.092  0.000
  0.000  0.008  0.000  0.000  0.992
  0.999  0.001  0.000  0.000  0.000
    occupations:
  0.651 -0.004 -0.001  0.029  0.002
 -0.004  0.931  0.012  0.001 -0.001
 -0.001  0.012  0.897 -0.000  0.001
  0.029  0.001 -0.000  0.978  0.000
  0.002 -0.001  0.001  0.000  0.596
atom   22   Tr[ns(na)] =   8.10645
    eigenvalues:
  0.635  0.643  0.876  0.917  0.982
    eigenvectors:
  0.000  0.151  0.000  0.000  0.849
  0.998  0.002  0.000  0.000  0.000
  0.000  0.000  0.995  0.005  0.000
  0.002  0.847  0.000  0.000  0.151
  0.000  0.000  0.005  0.995  0.000
    occupations:
  0.931  0.000 -0.000 -0.122 -0.000
  0.000  0.635  0.001 -0.001 -0.000
 -0.000  0.001  0.876 -0.000  0.003
 -0.122 -0.001 -0.000  0.694  0.001
 -0.000 -0.000  0.003  0.001  0.917
atom   23   Tr[ns(na)] =   8.09938
    eigenvalues:
  0.602  0.653  0.872  0.942  0.981
    eigenvectors:
  0.000  0.991  0.000  0.000  0.009
  0.000  0.000  0.000  0.999  0.000
  0.000  0.000  1.000  0.000  0.000
  0.000  0.009  0.000  0.000  0.991
  1.000  0.000  0.000  0.000  0.000
    occupations:
  0.656  0.006 -0.000  0.030 -0.000
  0.006  0.942 -0.000 -0.000 -0.000
 -0.000 -0.000  0.872  0.000 -0.002
  0.030 -0.000  0.000  0.978  0.000
 -0.000 -0.000 -0.002  0.000  0.602
N of occupied +U levels =  64.8058172
 --- exit write_ns ---

[...]

          k = 0.2500-0.4833 0.0000 ( 30510 PWs)   bands (ev):

[...]

          k =-0.2500 0.2417 0.0000 ( 30481 PWs)   bands (ev):

   -48.5778 -48.5594 -48.5022 -48.4769 -48.4749 -48.4674 -48.4589 -48.4341
   -48.3985 -48.3836 -48.3682 -48.3591 -48.2807 -48.2793 -48.2521 -48.1710
   -48.1593 -48.1525 -48.1487 -48.0816 -48.0797 -48.0551 -48.0400 -48.0396
   -21.2746 -20.9939 -20.9537 -20.8431 -20.5479 -20.4571 -20.4278 -20.3817
   -20.3334 -20.2270 -20.1097 -20.0977 -20.0452 -20.0334 -19.8556 -19.8318
   -19.8061 -19.1256 -18.9807 -10.3441 -10.2633 -10.0665  -9.9135  -9.7593
    -9.6221  -9.5373  -9.5228  -9.1984  -8.8484  -8.7956  -8.7088  -8.6642
    -8.5837  -8.4771  -8.2944  -8.1947  -8.1837  -7.9900  -7.8037  -7.6804
    -7.6221  -7.5023  -7.4375  -7.2609  -7.1998  -7.0902  -7.0331  -6.9104
    -6.8082  -6.7596  -6.7171  -6.6250  -6.5897  -6.5188  -6.3775  -6.3277
    -6.2853  -6.1874  -6.1412  -6.0689  -5.8655  -5.5961  -5.4475  -5.2344
    -5.1259  -5.0766  -4.9134  -4.8305  -4.7753  -4.6020  -4.5478  -4.4570
    -4.4100  -4.3564  -4.1716  -4.0942  -3.9600  -3.8856  -3.7171  -3.7039
    -3.6267  -3.5412  -3.4800  -3.4628  -3.3946  -3.3573  -3.2580  -3.1659
    -3.1324  -3.0318  -2.7115  -2.5131  -2.4381  -2.2546  -2.1256  -2.0850
    -2.0652  -1.8779  -1.7764  -1.6848  -0.7432  -0.1814  -0.0895   0.1906
     0.4516   0.7311   0.9915   1.2226   1.4789   1.5499   1.7109   1.7632
     1.8690   1.9465   2.0380   2.3828   3.6953   3.8670   4.5552   4.9457
     5.3478   5.5152   5.5574   5.8533   6.1172   6.3232   6.4434   6.4678
     6.5238   6.7590   6.8522   7.0592   7.2565   7.4363   7.5507   7.7041
     7.8712   7.9988   8.0793   8.1764   8.2857   8.3136   8.4522   8.5567
     8.7200   8.8612   8.9474   9.0155   9.1097   9.2414   9.4507   9.5938
     9.6554   9.7400   9.8298   9.9062   9.9620  10.0206  10.1879  10.2224
    10.3393  10.3656  10.4561  10.6012  10.6950  10.7365  10.8484  10.9635
    11.0638  11.1165  11.2241  11.2679  11.3730  11.4480  11.5101  11.5457
    11.6055  11.6992  11.8012  11.8630  11.9211  12.0317  12.1736  12.2044
    12.2525  12.3057  12.4117  12.4807  12.5096  12.5447  12.6498  12.7054
    12.7850  12.8388  12.9296  13.0104  13.1511  13.1997  13.2702  13.3005
    13.4246  13.5002  13.5605  13.6109  13.7647  13.8052  13.8845  13.9550
    14.0679  14.1046  14.1934  14.2771  14.3053  14.3528  14.4280  14.4861
    14.6113  14.7110  14.7368  14.8373  15.0005  15.0782  15.2238  15.3442
    15.3761  15.4150  15.4998  15.5442  15.5962  15.6180  15.7011  15.7836
    15.8194  15.8662  15.9098  16.0334  16.0923  16.1506  16.1836  16.3227
    16.3854  16.4360  16.4900  16.5161  16.5586  16.5961  16.6521  16.7400
    16.8163  16.9050  16.9594  17.0464  17.0942  17.1978  17.2320  17.2544
    17.3567  17.4003  17.4561  17.5240  17.5917  17.6585  17.7407  17.8251
    17.8884  17.9541  18.0228  18.0716  18.0967  18.2223  18.2966  18.3313
    18.4483  18.5271  18.5972  18.6612  18.7377  18.8248  18.8750  18.9299
    18.9774  19.0436  19.1453  19.1721  19.2675  19.2924  19.3727  19.4749
    19.5349  19.6400  19.6766  19.7803  19.8110  19.9263  19.9657  20.0573
    20.1826  20.2306  20.3394  20.4035  20.4982  20.5375  20.6274  20.6668
    20.7505  20.7944  20.8631  20.9273  20.9687  21.0871  21.1625  21.1915
    21.2409  21.2787  21.3470  21.4040  21.4740  21.5037  21.5690  21.6641
    21.7155  21.7794  21.8155  21.8610  21.9642  21.9937  22.0811  22.1328
    22.2402  22.2838  22.3830  22.4083  22.5091  22.5900

     the Fermi energy is    -2.1215 ev

!    total energy              =   -1979.06695490 Ry
     Harris-Foulkes estimate   =   -1979.06695491 Ry
     estimated scf accuracy    <          7.4E-09 Ry

     The total energy is the sum of the following terms:

     one-electron contribution =  -23373.18535459 Ry
     hartree contribution      =   11737.77001405 Ry
     xc contribution           =    -373.09758250 Ry
     ewald contribution        =   10027.01469728 Ry
     Hubbard energy            =       2.43308890 Ry
     smearing contrib. (-TS)   =      -0.00181806 Ry

     convergence has been achieved in  15 iterations

     Forces acting on atoms (Ry/au):

     negative rho (up, down):  0.690E+00 0.000E+00
     atom    1 type  1   force =    -0.00669616   -0.01184620    0.00014581
     atom    2 type  1   force =     0.00027293    0.00264822   -0.00045971
     atom    3 type  2   force =     0.02900764    0.00859049    0.00018679
     atom    4 type  2   force =     0.00806748    0.00859302    0.00001026
     atom    5 type  1   force =    -0.00411258   -0.02709147   -0.00005149
     atom    6 type  1   force =     0.00331717    0.02353186    0.00006780
     atom    7 type  1   force =     0.00197226   -0.00207149   -0.00014667
     atom    8 type  1   force =    -0.00169397   -0.00093427   -0.00037262
     atom    9 type  2   force =     0.00317365   -0.00009973   -0.00009236
     atom   10 type  2   force =    -0.00614784   -0.00137599   -0.00006103
     atom   11 type  1   force =    -0.00758760    0.01612309    0.00017320
     atom   12 type  1   force =    -0.00781974   -0.01605159    0.00012911
     atom   13 type  1   force =    -0.00122533   -0.00004893   -0.00011115
     atom   14 type  1   force =    -0.00658431   -0.01209222    0.00019951
     atom   15 type  1   force =     0.00025476    0.00278325   -0.00038745
     atom   16 type  2   force =    -0.02995039    0.00697890    0.00018047
     atom   17 type  2   force =     0.00807209    0.00869661    0.00006185
     atom   18 type  1   force =    -0.00186639   -0.02681737   -0.00002989
     atom   19 type  1   force =     0.00515367    0.02446312    0.00006858
     atom   20 type  1   force =    -0.00169012   -0.00535924    0.00060494
     atom   21 type  1   force =    -0.00382320   -0.00057143   -0.00037706
     atom   22 type  2   force =    -0.00016204    0.00068204   -0.00018666
     atom   23 type  2   force =     0.00247102    0.00065568    0.00027758
     atom   24 type  1   force =     0.00820459    0.02118006   -0.00007878
     atom   25 type  1   force =     0.00938247   -0.02152027   -0.00011007
     atom   26 type  1   force =    -0.00059486   -0.00017696    0.00015200
     atom   27 type  3   force =    -0.00000165    0.00043442    0.00015653
     atom   28 type  3   force =     0.00001312    0.00048351    0.00033977
     atom   29 type  3   force =    -0.00010323    0.00015209    0.00007769
     atom   30 type  3   force =    -0.00019890    0.00030674   -0.00004770
     atom   31 type  1   force =     0.00071297   -0.00014891   -0.00023674
     atom   32 type  3   force =     0.00018249   -0.00009703   -0.00008252

     Total force =     0.001666     Total SCF correction =     0.000346
     SCF correction compared to forces is large: reduce conv_thr to get better values

     bfgs converged in  10 scf cycles and   9 bfgs steps
     (criteria: energy < 0.10E-03, force < 0.10E-02)

     End of BFGS Geometry Optimization

     Final energy   =   -1979.0669549017 Ry
Begin final coordinates

ATOMIC_POSITIONS (crystal)
O0       0.000000000   0.000000000   0.378517063    0   0   1
O0       0.000000000   0.500000000   0.402183895    0   0   1
Rh1      0.250000000   0.500000000   0.452774547    0   0   1
Rh1      0.000000000   0.000000000   0.452753733    0   0   1
O0       0.250000000   0.810000000   0.452479219    0   0   1
O0       0.250000000   0.190000000   0.452236893    0   0   1
O0       0.000000000   0.500000000   0.499378178    0   0   1
O0       0.000000000   0.000000000   0.528105907    0   0   1
Rh1      0.250000000   0.000000000   0.575380989    0   0   1
Rh1      0.000000000   0.500000000   0.570888113    0   0   1
O0       0.250000000   0.690000000   0.575718588    0   0   1
O0       0.250000000   0.310000000   0.575782867    0   0   1
O0       0.000000000   0.000000000   0.620813038    0   0   1
O0       0.500000000   0.000000000   0.378222332    0   0   1
O0       0.500000000   0.500000000   0.401720635    0   0   1
Rh1      0.750000000   0.500000000   0.452769347    0   0   1
Rh1      0.500000000   0.000000000   0.452442166    0   0   1
O0       0.750000000   0.810000000   0.452480275    0   0   1
O0       0.750000000   0.190000000   0.452246517    0   0   1
O0       0.500000000   0.500000000   0.500234598    0   0   1
O0       0.500000000   0.000000000   0.528005164    0   0   1
Rh1      0.750000000   0.000000000   0.575317852    0   0   1
Rh1      0.500000000   0.500000000   0.575140347    0   0   1
O0       0.750000000   0.690000000   0.574730386    0   0   1
O0       0.750000000   0.310000000   0.574793622    0   0   1
O0       0.500000000   0.000000000   0.620675066    0   0   1
H2      -0.000216831   0.635920178   0.384532124
H2       0.499771821   0.638007913   0.385009079
H2       0.148198372   0.034507280   0.367817294
H2       0.648032527   0.035419760   0.367580368
O0       0.516590142   0.499190707   0.647974989
H2       0.370536176   0.499300086   0.662414810
End final coordinates

     General routines

     Parallel routines
     Hubbard U routines

   This run was terminated on:  11: 5:53   1May2014

   JOB DONE.