     Program PWSCF v.5.0.2 (svn rev. 9656) starts on  1Jun2014 at 11:45:47

     Current dimensions of program PWSCF are:
     Max number of different atomic species (ntypx) = 10
     Max number of k-points (npk) =  40000
     Max angular momentum in pseudopotentials (lmaxx) =  3
     Reading input from pwscf.in
Warning: card &CELL ignored
Warning: card / ignored

     Subspace diagonalization in iterative solution of the eigenvalue problem:
     a serial algorithm will be used

     bravais-lattice index     =            0
     lattice parameter (alat)  =      10.1289  a.u.
     unit-cell volume          =    6836.7721 (a.u.)^3
     number of atoms/cell      =           33
     number of atomic types    =            3
     number of electrons       =       245.00
     number of Kohn-Sham states=          367
     kinetic-energy cutoff     =      40.0000  Ry
     charge density cutoff     =     500.0000  Ry
     convergence threshold     =      1.0E-06
     mixing beta               =       0.7000
     number of iterations used =            8  plain     mixing
     Exchange-correlation      = SLA  PW   PBE  PBE ( 1 4 3 4 0)
     EXX-fraction              =        0.00
     nstep                     =           50

     celldm(1)=  10.128932  celldm(2)=   0.000000  celldm(3)=   0.000000
     celldm(4)=   0.000000  celldm(5)=   0.000000  celldm(6)=   0.000000

     crystal axes: (cart. coord. in units of alat)
               a(1) = (   1.000000   0.000000   0.000000 )
               a(2) = (   0.000000   1.306037   0.000000 )
               a(3) = (   0.000000   0.000000   5.037380 )

     reciprocal axes: (cart. coord. in units 2 pi/alat)
               b(1) = (  1.000000  0.000000  0.000000 )
               b(2) = (  0.000000  0.765675  0.000000 )
               b(3) = (  0.000000  0.000000  0.198516 )

     PseudoPot. # 1 for O  read from file:
     /home/camp/zhonxu/pseudo/o_pbe_v1.01.uspp.F.UPF
     MD5 check sum: 2bcb18d16ea4b960afae9ec6d52f22d2
     Pseudo is Ultrasoft + core correction, Zval =  6.0
     Generated by new atomic code, or converted to UPF format
     Using radial grid of  737 points,  5 beta functions with:
                l(1) =   0
                l(2) =   0
                l(3) =   1
                l(4) =   1
                l(5) =   2
     Q(r) pseudized with  8 coefficients,  rinner =    0.900   0.900   0.900
                                                       0.900   0.900

     PseudoPot. # 2 for Re read from file:
     /home/camp/zhonxu/pseudo/re_pbe_v1.uspp.F.UPF
     MD5 check sum: 6f5a5dcaf9c96c20d0ffdde0de57afc6
     Pseudo is Ultrasoft + core correction, Zval = 15.0
     Generated by new atomic code, or converted to UPF format
     Using radial grid of  981 points,  8 beta functions with:
                l(1) =   0
                l(2) =   0
                l(3) =   1
                l(4) =   1
                l(5) =   2
                l(6) =   2
                l(7) =   3
                l(8) =   3
     Q(r) pseudized with  8 coefficients,  rinner =    1.000   1.000   1.000
                                                       1.000   1.000   1.000
                                                       1.000

     PseudoPot. # 3 for H  read from file:
     /home/camp/zhonxu/pseudo/h_pbe_v1.uspp.F.UPF
     MD5 check sum: 3408e3ff4ec8b0a4e358431e7e038a48
     Pseudo is Ultrasoft, Zval =  1.0
     Generated by new atomic code, or converted to UPF format
     Using radial grid of  615 points,  2 beta functions with:
                l(1) =   0
                l(2) =   0
     Q(r) pseudized with  8 coefficients,  rinner =    0.700

     atomic species   valence    mass     pseudopotential
        O0             6.00    15.99940     O ( 1.00)
        Re1           15.00   186.20700     Re( 1.00)
        H2             1.00     1.00794     H ( 1.00)

     Simplified LDA+U calculation (l_max = 2) with parameters (eV):
     atomic species    L          U    alpha       J0     beta
        Re1            2     1.0000   0.0000   0.0000   0.0000

     No symmetry found

   Cartesian axes

     site n.     atom                  positions (alat units)
         1           O0  tau(   1) = (   0.0000000   0.0000000   1.8623194  )
         2           O0  tau(   2) = (   0.0000000   0.6530184   1.9253370  )
         3           Re1 tau(   3) = (   0.2500000   0.6530184   2.2271768  )
         4           Re1 tau(   4) = (   0.0000000   0.0000000   2.2287384  )
         5           O0  tau(   5) = (   0.2500000   1.0187087   2.2217869  )
         6           O0  tau(   6) = (   0.2500000   0.2873281   2.2210816  )
         7           O0  tau(   7) = (   0.0000000   0.6530184   2.5071544  )
         8           O0  tau(   8) = (   0.0000000   0.0000000   2.5894652  )
         9           Re1 tau(   9) = (   0.2500000   0.0000000   2.8894412  )
        10           Re1 tau(  10) = (   0.0000000   0.6530184   2.8583102  )
        11           O0  tau(  11) = (   0.2500000   0.9403465   2.8756892  )
        12           O0  tau(  12) = (   0.2500000   0.3656903   2.8872751  )
        13           O0  tau(  13) = (   0.0000000   0.0000000   3.1516368  )
        14           O0  tau(  14) = (   0.5000000   0.0000000   1.8624705  )
        15           O0  tau(  15) = (   0.5000000   0.6530184   1.9269994  )
        16           Re1 tau(  16) = (   0.7500000   0.6530184   2.2271768  )
        17           Re1 tau(  17) = (   0.5000000   0.0000000   2.2274287  )
        18           O0  tau(  18) = (   0.7500000   1.0187087   2.2214342  )
        19           O0  tau(  19) = (   0.7500000   0.2873281   2.2214846  )
        20           O0  tau(  20) = (   0.5000000   0.6530184   2.5086153  )
        21           O0  tau(  21) = (   0.5000000   0.0000000   2.5899690  )
        22           Re1 tau(  22) = (   0.7500000   0.0000000   2.8888367  )
        23           Re1 tau(  23) = (   0.5000000   0.6530184   2.9018835  )
        24           O0  tau(  24) = (   0.7500000   0.9403465   2.8756892  )
        25           O0  tau(  25) = (   0.7500000   0.3656903   2.8872248  )
        26           O0  tau(  26) = (   0.5000000   0.0000000   3.1466498  )
        27           H2  tau(  27) = (  -0.0002100   0.8169913   1.8417165  )
        28           H2  tau(  28) = (   0.4996400   0.8147057   1.8388956  )
        29           H2  tau(  29) = (   0.1678400   0.0328729   1.7887233  )
        30           H2  tau(  30) = (   0.6697500   0.0291246   1.7904864  )
        31           O0  tau(  31) = (   0.4996300   0.6876806   3.2307741  )
        32           O0  tau(  32) = (   0.5002900   0.4188329   3.4291461  )
        33           H2  tau(  33) = (   0.4999500   0.5176477   3.5843478  )

     number of k points=    10  Methfessel-Paxton smearing, width (Ry)=  0.0100
                       cart. coord. in units 2pi/alat
        k(    1) = (   0.0000000   0.0000000   0.0000000), wk =   0.1250000
        k(    2) = (   0.0000000   0.1914188   0.0000000), wk =   0.2500000
        k(    3) = (   0.0000000  -0.3828376   0.0000000), wk =   0.1250000
        k(    4) = (   0.2500000   0.0000000   0.0000000), wk =   0.2500000
        k(    5) = (   0.2500000   0.1914188   0.0000000), wk =   0.2500000
        k(    6) = (   0.2500000  -0.3828376   0.0000000), wk =   0.2500000
        k(    7) = (  -0.5000000   0.0000000   0.0000000), wk =   0.1250000
        k(    8) = (  -0.5000000   0.1914188   0.0000000), wk =   0.2500000
        k(    9) = (  -0.5000000  -0.3828376   0.0000000), wk =   0.1250000
        k(   10) = (  -0.2500000   0.1914188   0.0000000), wk =   0.2500000

     Largest allocated arrays     est. size (Mb)     dimensions
     Largest temporary arrays     est. size (Mb)     dimensions

     Check: negative/imaginary core charge=   -0.000003    0.000000

     Initial potential from superposition of free atoms
     Check: negative starting charge=   -0.236968

     starting charge  240.99957, renormalised to  245.00000

     negative rho (up, down):  0.241E+00 0.000E+00
     Number of +U iterations with fixed ns =  0
     Starting occupations:
 --- enter write_ns ---
 LDA+U parameters:
U( 2)     =  1.00000000
alpha( 2) =  0.00000000
atom    3   Tr[ns(na)] =   5.00000
    eigenvalues:
  0.500  0.500  0.500  0.500  0.500
    eigenvectors:
  1.000  0.000  0.000  0.000  0.000
  0.000  1.000  0.000  0.000  0.000
  0.000  0.000  1.000  0.000  0.000
  0.000  0.000  0.000  1.000  0.000
  0.000  0.000  0.000  0.000  1.000
    occupations:
  0.500  0.000  0.000  0.000  0.000
  0.000  0.500  0.000  0.000  0.000
  0.000  0.000  0.500  0.000  0.000
  0.000  0.000  0.000  0.500  0.000
  0.000  0.000  0.000  0.000  0.500
atom    4   Tr[ns(na)] =   5.00000
    eigenvalues:
  0.500  0.500  0.500  0.500  0.500
    eigenvectors:
  1.000  0.000  0.000  0.000  0.000
  0.000  1.000  0.000  0.000  0.000
  0.000  0.000  1.000  0.000  0.000
  0.000  0.000  0.000  1.000  0.000
  0.000  0.000  0.000  0.000  1.000
    occupations:
  0.500  0.000  0.000  0.000  0.000
  0.000  0.500  0.000  0.000  0.000
  0.000  0.000  0.500  0.000  0.000
  0.000  0.000  0.000  0.500  0.000
  0.000  0.000  0.000  0.000  0.500
atom    9   Tr[ns(na)] =   5.00000
    eigenvalues:
  0.500  0.500  0.500  0.500  0.500
    eigenvectors:
  1.000  0.000  0.000  0.000  0.000
  0.000  1.000  0.000  0.000  0.000
  0.000  0.000  1.000  0.000  0.000
  0.000  0.000  0.000  1.000  0.000
  0.000  0.000  0.000  0.000  1.000
    occupations:
  0.500  0.000  0.000  0.000  0.000
  0.000  0.500  0.000  0.000  0.000
  0.000  0.000  0.500  0.000  0.000
  0.000  0.000  0.000  0.500  0.000
  0.000  0.000  0.000  0.000  0.500
atom   10   Tr[ns(na)] =   5.00000
    eigenvalues:
  0.500  0.500  0.500  0.500  0.500
    eigenvectors:
  1.000  0.000  0.000  0.000  0.000
  0.000  1.000  0.000  0.000  0.000
  0.000  0.000  1.000  0.000  0.000
  0.000  0.000  0.000  1.000  0.000
  0.000  0.000  0.000  0.000  1.000
    occupations:
  0.500  0.000  0.000  0.000  0.000
  0.000  0.500  0.000  0.000  0.000
  0.000  0.000  0.500  0.000  0.000
  0.000  0.000  0.000  0.500  0.000
  0.000  0.000  0.000  0.000  0.500
atom   16   Tr[ns(na)] =   5.00000
    eigenvalues:
  0.500  0.500  0.500  0.500  0.500
    eigenvectors:
  1.000  0.000  0.000  0.000  0.000
  0.000  1.000  0.000  0.000  0.000
  0.000  0.000  1.000  0.000  0.000
  0.000  0.000  0.000  1.000  0.000
  0.000  0.000  0.000  0.000  1.000
    occupations:
  0.500  0.000  0.000  0.000  0.000
  0.000  0.500  0.000  0.000  0.000
  0.000  0.000  0.500  0.000  0.000
  0.000  0.000  0.000  0.500  0.000
  0.000  0.000  0.000  0.000  0.500
atom   17   Tr[ns(na)] =   5.00000
    eigenvalues:
  0.500  0.500  0.500  0.500  0.500
    eigenvectors:
  1.000  0.000  0.000  0.000  0.000
  0.000  1.000  0.000  0.000  0.000
  0.000  0.000  1.000  0.000  0.000
  0.000  0.000  0.000  1.000  0.000
  0.000  0.000  0.000  0.000  1.000
    occupations:
  0.500  0.000  0.000  0.000  0.000
  0.000  0.500  0.000  0.000  0.000
  0.000  0.000  0.500  0.000  0.000
  0.000  0.000  0.000  0.500  0.000
  0.000  0.000  0.000  0.000  0.500
atom   22   Tr[ns(na)] =   5.00000
    eigenvalues:
  0.500  0.500  0.500  0.500  0.500
[...]
 -0.010  0.000  0.005  0.737 -0.000
  0.000 -0.003 -0.000 -0.000  0.544
atom   16   Tr[ns(na)] =   6.52423
    eigenvalues:
  0.548  0.574  0.626  0.754  0.761
    eigenvectors:
  0.009  0.356  0.002  0.025  0.607
  0.985  0.013  0.000  0.000  0.002
  0.000  0.000  0.984  0.007  0.009
  0.005  0.630  0.004  0.014  0.347
  0.001  0.000  0.009  0.954  0.036
    occupations:
  0.692  0.008  0.009 -0.090  0.000
  0.008  0.549 -0.000 -0.002 -0.006
  0.009 -0.000  0.628 -0.005 -0.013
 -0.090 -0.002 -0.005  0.641  0.001
  0.000 -0.006 -0.013  0.001  0.752
atom   17   Tr[ns(na)] =   6.50431
    eigenvalues:
  0.564  0.602  0.618  0.698  0.770
    eigenvectors:
  0.000  0.984  0.000  0.001  0.015
  0.000  0.001  0.005  0.995  0.000
  0.000  0.000  0.995  0.005  0.000
  0.000  0.015  0.000  0.000  0.985
  1.000  0.000  0.000  0.000  0.000
    occupations:
  0.605  0.002  0.000 -0.020  0.000
  0.002  0.698  0.005 -0.000 -0.001
  0.000  0.005  0.618  0.001 -0.000
 -0.020 -0.000  0.001  0.767 -0.000
  0.000 -0.001 -0.000 -0.000  0.564
atom   22   Tr[ns(na)] =   6.50765
    eigenvalues:
  0.596  0.608  0.616  0.699  0.734
    eigenvectors:
  0.264  0.001  0.001  0.002  0.732
  0.001  0.985  0.014  0.000  0.000
  0.003  0.013  0.925  0.059  0.000
  0.731  0.001  0.002  0.001  0.264
  0.000  0.000  0.058  0.938  0.003
    occupations:
  0.697 -0.001  0.000 -0.061  0.002
 -0.001  0.608  0.001  0.001  0.000
  0.000  0.001  0.621 -0.001  0.020
 -0.061  0.001 -0.001  0.633 -0.000
  0.002  0.000  0.020 -0.000  0.694
atom   23   Tr[ns(na)] =   6.55632
    eigenvalues:
  0.556  0.594  0.608  0.745  0.776
    eigenvectors:
  0.000  0.000  0.958  0.004  0.038
  0.013  0.987  0.000  0.000  0.000
  0.000  0.000  0.011  0.942  0.046
  0.000  0.000  0.031  0.054  0.915
  0.987  0.013  0.000  0.000  0.000
    occupations:
  0.615  0.000 -0.016 -0.029 -0.000
  0.000  0.593 -0.001 -0.000 -0.004
 -0.016 -0.001  0.744  0.004  0.000
 -0.029 -0.000  0.004  0.769  0.000
 -0.000 -0.004  0.000  0.000  0.557
N of occupied +U levels =  52.1156791
 --- exit write_ns ---

     Threshold (ethr) on eigenvalues was too large:
     Diagonalizing with lowered threshold

     Davidson diagonalization with overlap
     ethr =  2.66E-08,  avg # of iterations =  1.2

[...]

     total energy              =   -2207.93473550 Ry
     Harris-Foulkes estimate   =   -2207.93473550 Ry
     estimated scf accuracy    <       0.00000002 Ry

     iteration # 15     ecut=    40.00 Ry     beta=0.70
     Davidson diagonalization with overlap
     ethr =  7.39E-12,  avg # of iterations =  1.0

     negative rho (up, down):  0.247E+00 0.000E+00

     End of self-consistent calculation
 --- enter write_ns ---
 LDA+U parameters:
U( 2)     =  1.00000000
alpha( 2) =  0.00000000
atom    3   Tr[ns(na)] =   6.52414
    eigenvalues:
  0.548  0.574  0.626  0.754  0.761
    eigenvectors:
  0.009  0.356  0.002  0.025  0.607
  0.985  0.013  0.000  0.000  0.002
  0.000  0.000  0.983  0.007  0.009
  0.005  0.631  0.004  0.013  0.348
  0.001  0.000  0.010  0.954  0.035
    occupations:
  0.692 -0.008  0.009 -0.090 -0.000
 -0.008  0.549  0.000  0.002 -0.006
  0.009  0.000  0.628 -0.005  0.013
 -0.090  0.002 -0.005  0.641 -0.001
 -0.000 -0.006  0.013 -0.001  0.753
atom    4   Tr[ns(na)] =   6.50871
    eigenvalues:
  0.563  0.602  0.628  0.692  0.769
    eigenvectors:
  0.000  0.981  0.000  0.001  0.018
  0.000  0.001  0.011  0.988  0.000
  0.000  0.000  0.989  0.011  0.000
  0.000  0.017  0.000  0.000  0.982
  1.000  0.000  0.000  0.000  0.000
    occupations:
  0.605  0.003  0.000 -0.022  0.000
  0.003  0.691  0.007 -0.000 -0.002
  0.000  0.007  0.629  0.000 -0.000
 -0.022 -0.000  0.000  0.766 -0.000
  0.000 -0.002 -0.000 -0.000  0.563
atom    9   Tr[ns(na)] =   6.50468
    eigenvalues:
  0.596  0.609  0.617  0.698  0.731
    eigenvectors:
  0.263  0.000  0.001  0.003  0.733
  0.000  0.995  0.005  0.000  0.000
  0.003  0.005  0.933  0.059  0.000
  0.734  0.000  0.002  0.001  0.263
  0.000  0.000  0.058  0.938  0.003
    occupations:
  0.696  0.001 -0.001 -0.060  0.001
  0.001  0.609 -0.001 -0.001  0.000
 -0.001 -0.001  0.622 -0.001 -0.019
 -0.060 -0.001 -0.001  0.632 -0.002
  0.001  0.000 -0.019 -0.002  0.694
atom   10   Tr[ns(na)] =   6.48350
    eigenvalues:
  0.491  0.544  0.652  0.738  0.817
    eigenvectors:
  0.998  0.000  0.000  0.002  0.000
  0.000  0.000  0.000  0.000  1.000
  0.000  0.000  0.996  0.004  0.000
  0.002  0.000  0.004  0.994  0.000
  0.000  1.000  0.000  0.000  0.000
    occupations:
  0.491  0.000 -0.002 -0.010  0.000
  0.000  0.817  0.001  0.000 -0.003
 -0.002  0.001  0.653  0.005 -0.000
 -0.010  0.000  0.005  0.737 -0.000
  0.000 -0.003 -0.000 -0.000  0.544
atom   16   Tr[ns(na)] =   6.52398
    eigenvalues:
  0.548  0.574  0.626  0.754  0.761
    eigenvectors:
  0.009  0.356  0.002  0.024  0.608
  0.985  0.013  0.000  0.000  0.002
  0.000  0.000  0.984  0.007  0.009
  0.005  0.630  0.004  0.013  0.348
  0.001  0.000  0.009  0.955  0.034
    occupations:
  0.692  0.008  0.009 -0.090  0.000
  0.008  0.549 -0.000 -0.002 -0.006
  0.009 -0.000  0.628 -0.005 -0.013
 -0.090 -0.002 -0.005  0.641  0.001
  0.000 -0.006 -0.013  0.001  0.752
atom   17   Tr[ns(na)] =   6.50415
    eigenvalues:
  0.564  0.602  0.618  0.698  0.770
    eigenvectors:
  0.000  0.984  0.000  0.001  0.015
  0.000  0.001  0.005  0.995  0.000
  0.000  0.000  0.995  0.005  0.000
  0.000  0.015  0.000  0.000  0.985
  1.000  0.000  0.000  0.000  0.000
    occupations:
  0.605  0.002  0.000 -0.020  0.000
  0.002  0.698  0.005 -0.000 -0.001
  0.000  0.005  0.618  0.001 -0.000
 -0.020 -0.000  0.001  0.767 -0.000
  0.000 -0.001 -0.000 -0.000  0.564
atom   22   Tr[ns(na)] =   6.50634
    eigenvalues:
  0.596  0.608  0.616  0.699  0.734
    eigenvectors:
  0.264  0.001  0.001  0.002  0.732
  0.001  0.984  0.014  0.000  0.000
  0.003  0.013  0.924  0.059  0.000
  0.731  0.001  0.002  0.001  0.264
  0.000  0.001  0.058  0.938  0.003
    occupations:
  0.697 -0.001  0.000 -0.061  0.002
 -0.001  0.608  0.001  0.001  0.000
  0.000  0.001  0.621 -0.001  0.020
 -0.061  0.001 -0.001  0.632 -0.000
  0.002  0.000  0.020 -0.000  0.694
atom   23   Tr[ns(na)] =   6.55428
    eigenvalues:
  0.556  0.593  0.608  0.744  0.776
    eigenvectors:
  0.000  0.000  0.957  0.004  0.038
  0.013  0.987  0.000  0.000  0.000
  0.000  0.000  0.012  0.943  0.045
  0.000  0.000  0.031  0.053  0.916
  0.987  0.013  0.000  0.000  0.000
    occupations:
  0.615  0.000 -0.016 -0.029 -0.000
  0.000  0.593 -0.001 -0.000 -0.004
 -0.016 -0.001  0.744  0.004  0.000
 -0.029 -0.000  0.004  0.769  0.000
 -0.000 -0.004  0.000  0.000  0.557
N of occupied +U levels =  52.1097678
 --- exit write_ns ---

[...]

          k = 0.2500-0.3828 0.0000 ( 29202 PWs)   bands (ev):

[...]

          k =-0.2500 0.1914 0.0000 ( 29229 PWs)   bands (ev):

   -81.5085 -81.4454 -81.3328 -81.2901 -81.2031 -81.0717 -81.0328 -80.8944
   -43.6131 -43.5227 -43.4080 -43.3966 -43.3821 -43.3281 -43.3029 -43.2819
   -43.2374 -43.2021 -43.1418 -43.1402 -43.0565 -43.0431 -43.0013 -42.9871
   -42.9568 -42.9317 -42.9197 -42.8749 -42.8535 -42.8124 -42.5634 -42.5240
   -20.8240 -20.3980 -20.3606 -20.2400 -20.1112 -19.9067 -19.8503 -19.7674
   -19.6382 -19.5627 -19.5077 -19.4746 -19.3315 -19.2259 -19.0895 -19.0029
   -18.9779 -18.4314 -18.1731 -16.9368  -8.9792  -8.8017  -8.7153  -8.6447
    -8.5363  -8.3721  -8.3190  -8.2607  -7.9550  -7.8009  -7.7462  -7.5749
    -7.4123  -7.3127  -7.1855  -7.0859  -6.8520  -6.7727  -6.6138  -6.5803
    -6.4641  -6.2489  -6.1237  -6.0204  -5.8318  -5.7832  -5.6662  -5.5900
    -5.4896  -5.3904  -5.2028  -5.1720  -5.0462  -4.9500  -4.8668  -4.8373
    -4.7384  -4.6580  -4.5740  -4.5134  -4.4492  -4.2751  -4.2334  -4.0276
    -3.9223  -3.8209  -3.7940  -3.7078  -3.6549  -3.4654  -3.4082  -3.2959
    -3.2728  -3.0749  -3.0002  -2.8170  -2.7414  -2.6185  -2.2151  -1.9731
    -1.8637  -1.1479  -1.0166  -0.8762  -0.8315  -0.5311  -0.1758  -0.0136
     0.1726   0.4263   0.5299   0.7128   0.7701   0.8514   1.0219   1.1160
     1.3084   1.4845   1.5193   1.6445   1.8043   1.9373   1.9930   2.2483
     2.5809   3.5597   3.6410   3.7211   3.7909   3.9669   4.0831   4.3439
     4.4537   4.5413   4.7321   4.8704   4.9970   5.3694   5.4334   5.6647
     5.8356   5.9594   6.1210   6.2522   6.3818   6.5315   6.7480   6.9262
     7.0633   7.2364   7.4267   7.6272   7.7406   7.8567   8.0698   8.1774
     8.3003   8.3708   8.5373   8.6940   8.7192   8.7972   9.0147   9.0594
     9.1948   9.4646   9.5159   9.6504   9.7025   9.8488   9.8849   9.9734
    10.0118  10.0753  10.1528  10.1902  10.3017  10.4050  10.4747  10.5125
    10.5625  10.7041  10.8869  10.9936  11.1033  11.1742  11.3453  11.4603
    11.5053  11.5917  11.7242  11.8170  11.9238  12.0633  12.2198  12.3185
    12.4394  12.5518  12.6249  12.6584  12.7428  12.7854  12.8881  12.9442
    12.9738  13.0933  13.1969  13.2250  13.3737  13.4763  13.5523  13.6392
    13.7599  13.7739  13.8572  13.9019  13.9348  14.0410  14.0865  14.1486
    14.2212  14.2820  14.3929  14.4344  14.5390  14.5939  14.6206  14.6516
    14.7261  14.8106  14.8640  14.9273  14.9805  15.0475  15.1087  15.1771
    15.2303  15.2919  15.3969  15.5046  15.5608  15.6437  15.6906  15.8417
    15.9454  16.1010  16.1270  16.2128  16.2812  16.3470  16.4436  16.4863
    16.5673  16.6386  16.7465  16.7816  16.8377  16.9763  17.0111  17.1032
    17.1780  17.2785  17.3260  17.4014  17.4687  17.5277  17.5799  17.7183
    17.7902  17.8493  17.9174  17.9487  18.0378  18.1014  18.1437  18.2544
    18.3617  18.3758  18.4474  18.4859  18.5544  18.6214  18.7015  18.7734
    18.8344  18.9329  19.0116  19.0878  19.1209  19.2175  19.3140  19.4374
    19.5119  19.5564  19.6740  19.7336  19.8479  19.9047  20.0020  20.0853
    20.1534  20.2242  20.2922  20.3865  20.4534  20.5236  20.5875  20.6863
    20.7041  20.7822  20.8372  20.8935  20.9168  21.0114  21.0852  21.1556
    21.2324  21.2642  21.3204  21.4159  21.4795  21.5579  21.5869  21.6604
    21.7205  21.7909  21.8516  21.8988  21.9908  22.0341  22.1293  22.1777
    22.2532  22.2774  22.3702  22.3926  22.4377  22.5005  22.5346  22.5967
    22.6719  22.7255  22.7685  22.8059  22.8276  22.8889  22.9421  23.0225
    23.0877  23.1204  23.1513  23.1877  23.2454  23.3141  23.3682

     the Fermi energy is     0.4177 ev

!    total energy              =   -2207.93473550 Ry
     Harris-Foulkes estimate   =   -2207.93473550 Ry
     estimated scf accuracy    <          4.3E-09 Ry

     The total energy is the sum of the following terms:

     one-electron contribution =  -24612.14134705 Ry
     hartree contribution      =   12325.63890776 Ry
     xc contribution           =    -601.90937384 Ry
     ewald contribution        =   10679.82956636 Ry
     Hubbard energy            =       0.64745516 Ry
     smearing contrib. (-TS)   =       0.00005611 Ry

     convergence has been achieved in  15 iterations

     Forces acting on atoms (Ry/au):

     negative rho (up, down):  0.247E+00 0.000E+00
     atom    1 type  1   force =    -0.00632633   -0.00699962   -0.00052310
     atom    2 type  1   force =     0.00004572    0.00512643   -0.00017349
     atom    3 type  2   force =     0.01767639   -0.00270498   -0.00015127
     atom    4 type  2   force =     0.00150386    0.00770572    0.00044178
     atom    5 type  1   force =     0.00299293    0.00833890    0.00017353
     atom    6 type  1   force =     0.00144004   -0.00947822    0.00019805
     atom    7 type  1   force =    -0.00022267   -0.00251203   -0.00011359
     atom    8 type  1   force =     0.00320954    0.00247921    0.00090734
     atom    9 type  2   force =    -0.03981843   -0.00333395    0.00022918
     atom   10 type  2   force =    -0.00008200    0.00224740   -0.00012144
     atom   11 type  1   force =    -0.02085860   -0.01011975    0.00001076
     atom   12 type  1   force =    -0.01230507    0.02156687   -0.00014806
     atom   13 type  1   force =    -0.00027128   -0.00480074   -0.00013477
     atom   14 type  1   force =    -0.00319388   -0.00619746   -0.00011573
     atom   15 type  1   force =    -0.00001777    0.00405732    0.00006041
     atom   16 type  2   force =    -0.01770645   -0.00259703   -0.00011242
     atom   17 type  2   force =     0.00197897    0.00784187   -0.00004699
     atom   18 type  1   force =     0.00035786    0.00822191    0.00016831
     atom   19 type  1   force =    -0.00108150   -0.00931986    0.00018520
     atom   20 type  1   force =    -0.00026105    0.00032215   -0.00034837
     atom   21 type  1   force =     0.00260449    0.00189763    0.00077206
     atom   22 type  2   force =     0.03630449   -0.00237768    0.00026000
     atom   23 type  2   force =     0.00032391   -0.00875744    0.00041592
     atom   24 type  1   force =     0.02087786   -0.01083328   -0.00000418
     atom   25 type  1   force =     0.01205466    0.02133133   -0.00015097
     atom   26 type  1   force =    -0.00071859   -0.01234995   -0.00003280
     atom   27 type  3   force =    -0.00000574   -0.00001295   -0.00027172
     atom   28 type  3   force =    -0.00000755   -0.00011678    0.00003174
     atom   29 type  3   force =     0.00084224    0.00007167    0.00004088
     atom   30 type  3   force =     0.00056908    0.00000061    0.00010760
     atom   31 type  1   force =    -0.00002993    0.00083590   -0.00010023
     atom   32 type  1   force =     0.00013320   -0.00010816   -0.00081029
     atom   33 type  3   force =    -0.00000838    0.00057494   -0.00064331

     Total force =     0.002427     Total SCF correction =     0.000280
     SCF correction compared to forces is large: reduce conv_thr to get better values

     entering subroutine stress ...

     negative rho (up, down):  0.247E+00 0.000E+00
          total   stress  (Ry/bohr**3)                   (kbar)     P=   -7.37
  -0.00003844  -0.00000001   0.00000233         -5.66     -0.00      0.34
  -0.00000001  -0.00006465  -0.00000725         -0.00     -9.51     -1.07
   0.00000233  -0.00000725  -0.00004731          0.34     -1.07     -6.96

     bfgs converged in   6 scf cycles and   5 bfgs steps
     (criteria: energy < 0.10E-03, force < 0.10E-02)

     End of BFGS Geometry Optimization

     Final energy   =   -2207.9347354983 Ry
Begin final coordinates

ATOMIC_POSITIONS (crystal)
O0       0.000000000   0.000000000   0.369915895    0   0   1
O0       0.000000000   0.500000000   0.382311925    0   0   1
Re1      0.250000000   0.500000000   0.442158622    0   0   1
Re1      0.000000000   0.000000000   0.442512422    0   0   1
O0       0.250000000   0.780000000   0.441100299    0   0   1
O0       0.250000000   0.220000000   0.440928061    0   0   1
O0       0.000000000   0.500000000   0.497723152    0   0   1
O0       0.000000000   0.000000000   0.513906585    0   0   1
Re1      0.250000000   0.000000000   0.573577475    0   0   1
Re1      0.000000000   0.500000000   0.567422982    0   0   1
O0       0.250000000   0.720000000   0.570846328    0   0   1
O0       0.250000000   0.280000000   0.573101957    0   0   1
O0       0.000000000   0.000000000   0.625619010    0   0   1
O0       0.500000000   0.000000000   0.369890930    0   0   1
O0       0.500000000   0.500000000   0.382526520    0   0   1
Re1      0.750000000   0.500000000   0.442154132    0   0   1
Re1      0.500000000   0.000000000   0.442219866    0   0   1
O0       0.750000000   0.780000000   0.441035830    0   0   1
O0       0.750000000   0.220000000   0.441020354    0   0   1
O0       0.500000000   0.500000000   0.498063315    0   0   1
O0       0.500000000   0.000000000   0.514063840    0   0   1
Re1      0.750000000   0.000000000   0.573441494    0   0   1
Re1      0.500000000   0.500000000   0.575923890    0   0   1
O0       0.750000000   0.720000000   0.570838659    0   0   1
O0       0.750000000   0.280000000   0.573080971    0   0   1
O0       0.500000000   0.000000000   0.624627714    0   0   1
H2      -0.000221597   0.625109832   0.365505017
H2       0.499624058   0.623710414   0.365002878
H2       0.167892300   0.025027765   0.355325518
H2       0.669913232   0.022138900   0.355671854
O0       0.499596965   0.526056590   0.641271647
O0       0.500443750   0.321736975   0.680483679
H2       0.499934992   0.396478160   0.711457179
End final coordinates

     General routines

     Parallel routines
     Hubbard U routines

   This run was terminated on:  20:23:51   1Jun2014

   JOB DONE.
Running PBS batch system epilogue script
Job id: 373377.audhumbla.fysik.dtu.dk
Username: zhonxu
Groupname: campgst
Jobname: ReO2/Eads-2-layers/OOH-U-1.0
Sessionid: 12708
Queuename: verylong
Accounting:
This job has allocated the following 16 nodes:
c061 c061 c061 c061 c061 c061 c061 c061 c035 c035 c035 c035 c035 c035 c035 c035
Finished epilogue job 373377.audhumbla.fysik.dtu.dk for zhonxu