     Program PWSCF v.5.0.2 (svn rev. 9656) starts on 25May2014 at  6: 4:20

     Current dimensions of program PWSCF are:
     Max number of different atomic species (ntypx) = 10
     Max number of k-points (npk) =  40000
     Max angular momentum in pseudopotentials (lmaxx) =  3
     Reading input from pwscf.in
Warning: card &CELL ignored
Warning: card / ignored

     Subspace diagonalization in iterative solution of the eigenvalue problem:
     a serial algorithm will be used

     bravais-lattice index     =            0
     lattice parameter (alat)  =      10.3179  a.u.
     unit-cell volume          =    6964.3238 (a.u.)^3
     number of atoms/cell      =           30
     number of atomic types    =            3
     number of electrons       =       224.00
     number of Kohn-Sham states=          336
     kinetic-energy cutoff     =      40.0000  Ry
     charge density cutoff     =     500.0000  Ry
     convergence threshold     =      1.0E-06
     mixing beta               =       0.7000
     number of iterations used =            8  plain     mixing
     Exchange-correlation      = SLA  PW   PBE  PBE ( 1 4 3 4 0)
     EXX-fraction              =        0.00
     nstep                     =           50

     celldm(1)=  10.317905  celldm(2)=   0.000000  celldm(3)=   0.000000
     celldm(4)=   0.000000  celldm(5)=   0.000000  celldm(6)=   0.000000

     crystal axes: (cart. coord. in units of alat)
               a(1) = (   1.000000   0.000000   0.000000 )
               a(2) = (   0.000000   1.282117   0.000000 )
               a(3) = (   0.000000   0.000000   4.945120 )

     reciprocal axes: (cart. coord. in units 2 pi/alat)
               b(1) = (  1.000000  0.000000  0.000000 )
               b(2) = (  0.000000  0.779960  0.000000 )
               b(3) = (  0.000000  0.000000  0.202220 )

     PseudoPot. # 1 for O  read from file:
     /home/camp/zhonxu/pseudo/o_pbe_v1.01.uspp.F.UPF
     MD5 check sum: 2bcb18d16ea4b960afae9ec6d52f22d2
     Pseudo is Ultrasoft + core correction, Zval =  6.0
     Generated by new atomic code, or converted to UPF format
     Using radial grid of  737 points,  5 beta functions with:
                l(1) =   0
                l(2) =   0
                l(3) =   1
                l(4) =   1
                l(5) =   2
     Q(r) pseudized with  8 coefficients,  rinner =    0.900   0.900   0.900
                                                       0.900   0.900

     PseudoPot. # 2 for Mo read from file:
     /home/camp/zhonxu/pseudo/mo_pbe_v1.uspp.F.UPF
     MD5 check sum: 30c4dcd161f5d35cd49bb5239c51a633
     Pseudo is Ultrasoft + core correction, Zval = 14.0
     Generated by new atomic code, or converted to UPF format
     Using radial grid of  889 points,  6 beta functions with:
                l(1) =   0
                l(2) =   0
                l(3) =   1
                l(4) =   1
                l(5) =   2
                l(6) =   2
     Q(r) pseudized with  6 coefficients,  rinner =    1.000   1.000   1.000
                                                       1.000   1.000

     PseudoPot. # 3 for H  read from file:
     /home/camp/zhonxu/pseudo/h_pbe_v1.uspp.F.UPF
     MD5 check sum: 3408e3ff4ec8b0a4e358431e7e038a48
     Pseudo is Ultrasoft, Zval =  1.0
     Generated by new atomic code, or converted to UPF format
     Using radial grid of  615 points,  2 beta functions with:
                l(1) =   0
                l(2) =   0
     Q(r) pseudized with  8 coefficients,  rinner =    0.700

     atomic species   valence    mass     pseudopotential
        O0             6.00    15.99940     O ( 1.00)
        Mo1           14.00    95.94000     Mo( 1.00)
        H2             1.00     1.00794     H ( 1.00)

     Simplified LDA+U calculation (l_max = 2) with parameters (eV):
     atomic species    L          U    alpha       J0     beta
        Mo1            2     7.0000   0.0000   0.0000   0.0000

     No symmetry found

   Cartesian axes

     site n.     atom                  positions (alat units)
         1           O0  tau(   1) = (   0.0000000   0.0000000   1.8473981  )
         2           O0  tau(   2) = (   0.0000000   0.6410583   1.8804809  )
         3           Mo1 tau(   3) = (   0.2500000   0.6410583   2.1697210  )
         4           Mo1 tau(   4) = (   0.0000000   0.0000000   2.2027544  )
         5           O0  tau(   5) = (   0.2500000   1.0000510   2.1910345  )
         6           O0  tau(   6) = (   0.2500000   0.2820657   2.1902927  )
         7           O0  tau(   7) = (   0.0000000   0.6410583   2.4490214  )
         8           O0  tau(   8) = (   0.0000000   0.0000000   2.5602866  )
         9           Mo1 tau(   9) = (   0.2500000   0.0000000   2.8412189  )
        10           Mo1 tau(  10) = (   0.0000000   0.6410583   2.8048228  )
        11           O0  tau(  11) = (   0.2500000   0.9231240   2.8433453  )
        12           O0  tau(  12) = (   0.2500000   0.3589927   2.8440376  )
        13           O0  tau(  13) = (   0.0000000   0.0000000   3.1031619  )
        14           O0  tau(  14) = (   0.5000000   0.0000000   1.8266286  )
        15           O0  tau(  15) = (   0.5000000   0.6410583   1.8822612  )
        16           Mo1 tau(  16) = (   0.7500000   0.6410583   2.1702155  )
        17           Mo1 tau(  17) = (   0.5000000   0.0000000   2.1873751  )
        18           O0  tau(  18) = (   0.7500000   1.0000510   2.1886608  )
        19           O0  tau(  19) = (   0.7500000   0.2820657   2.1895015  )
        20           O0  tau(  20) = (   0.5000000   0.6410583   2.4664282  )
        21           O0  tau(  21) = (   0.5000000   0.0000000   2.5730945  )
        22           Mo1 tau(  22) = (   0.7500000   0.0000000   2.8678236  )
        23           Mo1 tau(  23) = (   0.5000000   0.6410583   2.7941908  )
        24           O0  tau(  24) = (   0.7500000   0.9231240   2.8448288  )
        25           O0  tau(  25) = (   0.7500000   0.3589927   2.8455212  )
        26           O0  tau(  26) = (   0.5000000   0.0000000   3.1063763  )
        27           H2  tau(  27) = (  -0.0007800   0.7959509   1.7866720  )
        28           H2  tau(  28) = (   0.5000800   0.7851170   1.7733202  )
        29           H2  tau(  29) = (   0.1657700   0.0293477   1.7741608  )
        30           H2  tau(  30) = (   0.6696100   0.0269245   1.7632321  )

     number of k points=    10  Methfessel-Paxton smearing, width (Ry)=  0.0100
                       cart. coord. in units 2pi/alat
        k(    1) = (   0.0000000   0.0000000   0.0000000), wk =   0.1250000
        k(    2) = (   0.0000000   0.1949901   0.0000000), wk =   0.2500000
        k(    3) = (   0.0000000  -0.3899801   0.0000000), wk =   0.1250000
        k(    4) = (   0.2500000   0.0000000   0.0000000), wk =   0.2500000
        k(    5) = (   0.2500000   0.1949901   0.0000000), wk =   0.2500000
        k(    6) = (   0.2500000  -0.3899801   0.0000000), wk =   0.2500000
        k(    7) = (  -0.5000000   0.0000000   0.0000000), wk =   0.1250000
        k(    8) = (  -0.5000000   0.1949901   0.0000000), wk =   0.2500000
        k(    9) = (  -0.5000000  -0.3899801   0.0000000), wk =   0.1250000
        k(   10) = (  -0.2500000   0.1949901   0.0000000), wk =   0.2500000

     Largest allocated arrays     est. size (Mb)     dimensions
     Largest temporary arrays     est. size (Mb)     dimensions

     Check: negative/imaginary core charge=   -0.000003    0.000000

     Initial potential from superposition of free atoms
     Check: negative starting charge=   -0.002553

     starting charge  223.99143, renormalised to  224.00000

     negative rho (up, down):  0.255E-02 0.000E+00
     Number of +U iterations with fixed ns =  0
     Starting occupations:
 --- enter write_ns ---
 LDA+U parameters:
U( 2)     =  7.00000000
alpha( 2) =  0.00000000
atom    3   Tr[ns(na)] =   5.00000
    eigenvalues:
  0.500  0.500  0.500  0.500  0.500
    eigenvectors:
  1.000  0.000  0.000  0.000  0.000
  0.000  1.000  0.000  0.000  0.000
  0.000  0.000  1.000  0.000  0.000
  0.000  0.000  0.000  1.000  0.000
  0.000  0.000  0.000  0.000  1.000
    occupations:
  0.500  0.000  0.000  0.000  0.000
  0.000  0.500  0.000  0.000  0.000
  0.000  0.000  0.500  0.000  0.000
  0.000  0.000  0.000  0.500  0.000
  0.000  0.000  0.000  0.000  0.500
atom    4   Tr[ns(na)] =   5.00000
    eigenvalues:
  0.500  0.500  0.500  0.500  0.500
    eigenvectors:
  1.000  0.000  0.000  0.000  0.000
  0.000  1.000  0.000  0.000  0.000
  0.000  0.000  1.000  0.000  0.000
  0.000  0.000  0.000  1.000  0.000
  0.000  0.000  0.000  0.000  1.000
    occupations:
  0.500  0.000  0.000  0.000  0.000
  0.000  0.500  0.000  0.000  0.000
  0.000  0.000  0.500  0.000  0.000
  0.000  0.000  0.000  0.500  0.000
  0.000  0.000  0.000  0.000  0.500
atom    9   Tr[ns(na)] =   5.00000
    eigenvalues:
  0.500  0.500  0.500  0.500  0.500
    eigenvectors:
  1.000  0.000  0.000  0.000  0.000
  0.000  1.000  0.000  0.000  0.000
  0.000  0.000  1.000  0.000  0.000
  0.000  0.000  0.000  1.000  0.000
  0.000  0.000  0.000  0.000  1.000
    occupations:
  0.500  0.000  0.000  0.000  0.000
  0.000  0.500  0.000  0.000  0.000
  0.000  0.000  0.500  0.000  0.000
  0.000  0.000  0.000  0.500  0.000
  0.000  0.000  0.000  0.000  0.500
atom   10   Tr[ns(na)] =   5.00000
    eigenvalues:
  0.500  0.500  0.500  0.500  0.500
    eigenvectors:
  1.000  0.000  0.000  0.000  0.000
  0.000  1.000  0.000  0.000  0.000
  0.000  0.000  1.000  0.000  0.000
  0.000  0.000  0.000  1.000  0.000
  0.000  0.000  0.000  0.000  1.000
    occupations:
  0.500  0.000  0.000  0.000  0.000
  0.000  0.500  0.000  0.000  0.000
  0.000  0.000  0.500  0.000  0.000
  0.000  0.000  0.000  0.500  0.000
  0.000  0.000  0.000  0.000  0.500
atom   16   Tr[ns(na)] =   5.00000
    eigenvalues:
  0.500  0.500  0.500  0.500  0.500
    eigenvectors:
  1.000  0.000  0.000  0.000  0.000
  0.000  1.000  0.000  0.000  0.000
  0.000  0.000  1.000  0.000  0.000
  0.000  0.000  0.000  1.000  0.000
  0.000  0.000  0.000  0.000  1.000
    occupations:
  0.500  0.000  0.000  0.000  0.000
  0.000  0.500  0.000  0.000  0.000
  0.000  0.000  0.500  0.000  0.000
  0.000  0.000  0.000  0.500  0.000
  0.000  0.000  0.000  0.000  0.500
atom   17   Tr[ns(na)] =   5.00000
    eigenvalues:
  0.500  0.500  0.500  0.500  0.500
    eigenvectors:
  1.000  0.000  0.000  0.000  0.000
  0.000  1.000  0.000  0.000  0.000
  0.000  0.000  1.000  0.000  0.000
  0.000  0.000  0.000  1.000  0.000
  0.000  0.000  0.000  0.000  1.000
    occupations:
  0.500  0.000  0.000  0.000  0.000
  0.000  0.500  0.000  0.000  0.000
  0.000  0.000  0.500  0.000  0.000
  0.000  0.000  0.000  0.500  0.000
  0.000  0.000  0.000  0.000  0.500
atom   22   Tr[ns(na)] =   5.00000
    eigenvalues:
  0.500  0.500  0.500  0.500  0.500
    eigenvectors:
  1.000  0.000  0.000  0.000  0.000
  0.000  1.000  0.000  0.000  0.000
  0.000  0.000  1.000  0.000  0.000
  0.000  0.000  0.000  1.000  0.000
  0.000  0.000  0.000  0.000  1.000
    occupations:
  0.500  0.000  0.000  0.000  0.000
  0.000  0.500  0.000  0.000  0.000
  0.000  0.000  0.500  0.000  0.000
  0.000  0.000  0.000  0.500  0.000
[...]
  0.000  0.002  0.998  0.000  0.000
    occupations:
  0.612  0.004  0.003 -0.011 -0.000
  0.004  0.516 -0.006 -0.019 -0.001
  0.003 -0.006  0.395 -0.004  0.001
 -0.011 -0.019 -0.004  0.841 -0.000
 -0.000 -0.001  0.001 -0.000  0.532
atom    9   Tr[ns(na)] =   5.79906
    eigenvalues:
  0.417  0.437  0.582  0.606  0.858
    eigenvectors:
  0.000  0.000  0.038  0.231  0.731
  0.000  0.000  0.870  0.129  0.000
  0.002  0.998  0.000  0.000  0.000
  0.000  0.000  0.091  0.640  0.269
  0.998  0.002  0.000  0.000  0.000
    occupations:
  0.789  0.007  0.002 -0.113 -0.001
  0.007  0.585  0.000  0.005 -0.001
  0.002  0.000  0.437 -0.001 -0.001
 -0.113  0.005 -0.001  0.671  0.000
 -0.001 -0.001 -0.001  0.000  0.417
atom   10   Tr[ns(na)] =   5.69307
    eigenvalues:
  0.278  0.443  0.495  0.753  0.877
    eigenvectors:
  0.000  0.993  0.000  0.007  0.000
  0.000  0.000  0.000  0.000  1.000
  0.999  0.000  0.001  0.000  0.000
  0.000  0.007  0.000  0.993  0.000
  0.001  0.000  0.999  0.000  0.000
    occupations:
  0.445 -0.003 -0.001  0.027 -0.000
 -0.003  0.877 -0.003 -0.001 -0.001
 -0.001 -0.003  0.278 -0.002  0.006
  0.027 -0.001 -0.002  0.751  0.000
 -0.000 -0.001  0.006  0.000  0.495
atom   16   Tr[ns(na)] =   5.80408
    eigenvalues:
  0.366  0.492  0.576  0.674  0.794
    eigenvectors:
  0.007  0.018  0.301  0.007  0.667
  0.000  0.965  0.031  0.002  0.002
  0.817  0.000  0.000  0.169  0.013
  0.000  0.015  0.666  0.005  0.313
  0.176  0.001  0.001  0.817  0.004
    occupations:
  0.719 -0.019  0.032 -0.102 -0.003
 -0.019  0.496 -0.006 -0.005 -0.006
  0.032 -0.006  0.423 -0.015  0.118
 -0.102 -0.005 -0.015  0.644 -0.001
 -0.003 -0.006  0.118 -0.001  0.620
atom   17   Tr[ns(na)] =   5.77293
    eigenvalues:
  0.301  0.515  0.550  0.689  0.832
    eigenvectors:
  0.000  0.001  0.953  0.046  0.000
  0.001  0.000  0.002  0.020  0.977
  0.999  0.001  0.000  0.000  0.001
  0.000  0.000  0.045  0.933  0.022
  0.001  0.999  0.001  0.000  0.000
    occupations:
  0.556  0.007  0.002  0.029  0.001
  0.007  0.828  0.013 -0.022 -0.001
  0.002  0.013  0.302 -0.002  0.005
  0.029 -0.022 -0.002  0.686 -0.000
  0.001 -0.001  0.005 -0.000  0.514
atom   22   Tr[ns(na)] =   5.88362
    eigenvalues:
  0.499  0.542  0.609  0.631  0.661
    eigenvectors:
  0.000  0.000  0.127  0.044  0.829
  0.000  0.000  0.014  0.916  0.070
  0.452  0.548  0.000  0.000  0.000
  0.000  0.000  0.860  0.040  0.100
  0.548  0.452  0.000  0.000  0.000
    occupations:
  0.653 -0.008  0.002 -0.016  0.001
 -0.008  0.633  0.000  0.000 -0.000
  0.002  0.000  0.522 -0.001  0.021
 -0.016  0.000 -0.001  0.615 -0.001
  0.001 -0.000  0.021 -0.001  0.518
atom   23   Tr[ns(na)] =   5.78775
    eigenvalues:
  0.431  0.501  0.512  0.631  0.820
    eigenvectors:
  0.003  0.001  0.993  0.000  0.003
  0.000  0.000  0.000  0.998  0.002
  0.988  0.009  0.003  0.000  0.000
  0.000  0.000  0.003  0.002  0.995
  0.009  0.990  0.001  0.000  0.000
    occupations:
  0.512 -0.001 -0.004 -0.017 -0.000
 -0.001  0.631 -0.002  0.008 -0.000
 -0.004 -0.002  0.431 -0.001 -0.007
 -0.017  0.008 -0.001  0.819 -0.000
 -0.000 -0.000 -0.007 -0.000  0.500
N of occupied +U levels =  46.3452277
 --- exit write_ns ---

     Threshold (ethr) on eigenvalues was too large:
     Diagonalizing with lowered threshold

     Davidson diagonalization with overlap
     ethr =  3.78E-09,  avg # of iterations =  3.0

[...]

     total energy              =   -1695.46009533 Ry
     Harris-Foulkes estimate   =   -1695.46009533 Ry
     estimated scf accuracy    <       0.00000001 Ry

     iteration # 19     ecut=    40.00 Ry     beta=0.70
     Davidson diagonalization with overlap
     ethr =  6.38E-12,  avg # of iterations =  1.0

     negative rho (up, down):  0.362E-02 0.000E+00

     End of self-consistent calculation
 --- enter write_ns ---
 LDA+U parameters:
U( 2)     =  7.00000000
alpha( 2) =  0.00000000
atom    3   Tr[ns(na)] =   5.81470
    eigenvalues:
  0.335  0.488  0.570  0.739  0.776
    eigenvectors:
  0.007  0.017  0.269  0.073  0.634
  0.000  0.967  0.029  0.001  0.003
  0.911  0.000  0.001  0.060  0.028
  0.001  0.014  0.702  0.026  0.257
  0.081  0.002  0.000  0.840  0.077
    occupations:
  0.710  0.019  0.035 -0.091  0.002
  0.019  0.491  0.006  0.004 -0.011
  0.035  0.006  0.372 -0.017 -0.111
 -0.091  0.004 -0.017  0.626  0.003
  0.002 -0.011 -0.111  0.003  0.709
atom    4   Tr[ns(na)] =   5.78919
    eigenvalues:
  0.394  0.515  0.532  0.611  0.843
    eigenvectors:
  0.000  0.001  0.000  0.996  0.003
  0.003  0.991  0.002  0.001  0.003
  0.997  0.003  0.000  0.000  0.000
  0.000  0.003  0.000  0.003  0.994
  0.000  0.002  0.998  0.000  0.000
    occupations:
  0.612  0.004  0.003 -0.011 -0.000
  0.004  0.516 -0.006 -0.019 -0.001
  0.003 -0.006  0.395 -0.004  0.001
 -0.011 -0.019 -0.004  0.841 -0.000
 -0.000 -0.001  0.001 -0.000  0.532
atom    9   Tr[ns(na)] =   5.79907
    eigenvalues:
  0.417  0.437  0.582  0.606  0.858
    eigenvectors:
  0.000  0.000  0.038  0.231  0.731
  0.000  0.000  0.871  0.129  0.000
  0.002  0.998  0.000  0.000  0.000
  0.000  0.000  0.091  0.640  0.269
  0.998  0.002  0.000  0.000  0.000
    occupations:
  0.789  0.007  0.002 -0.113 -0.001
  0.007  0.585  0.000  0.005 -0.001
  0.002  0.000  0.437 -0.001 -0.001
 -0.113  0.005 -0.001  0.671  0.000
 -0.001 -0.001 -0.001  0.000  0.417
atom   10   Tr[ns(na)] =   5.69375
    eigenvalues:
  0.278  0.443  0.495  0.753  0.876
    eigenvectors:
  0.000  0.993  0.000  0.007  0.000
  0.000  0.000  0.000  0.000  1.000
  0.999  0.000  0.001  0.000  0.000
  0.000  0.007  0.000  0.993  0.000
  0.001  0.000  0.999  0.000  0.000
    occupations:
  0.446 -0.003 -0.001  0.026 -0.000
 -0.003  0.876 -0.003 -0.001 -0.001
 -0.001 -0.003  0.279 -0.002  0.006
  0.026 -0.001 -0.002  0.751  0.000
 -0.000 -0.001  0.006  0.000  0.495
atom   16   Tr[ns(na)] =   5.80433
    eigenvalues:
  0.365  0.492  0.576  0.674  0.794
    eigenvectors:
  0.007  0.018  0.301  0.007  0.667
  0.000  0.965  0.031  0.002  0.002
  0.819  0.000  0.000  0.167  0.013
  0.000  0.015  0.667  0.005  0.313
  0.174  0.001  0.001  0.819  0.004
    occupations:
  0.719 -0.019  0.032 -0.101 -0.003
 -0.019  0.496 -0.006 -0.005 -0.006
  0.032 -0.006  0.423 -0.015  0.118
 -0.101 -0.005 -0.015  0.643 -0.001
 -0.003 -0.006  0.118 -0.001  0.621
atom   17   Tr[ns(na)] =   5.77290
    eigenvalues:
  0.301  0.515  0.550  0.689  0.832
    eigenvectors:
  0.000  0.001  0.953  0.046  0.000
  0.001  0.000  0.002  0.020  0.977
  0.999  0.001  0.000  0.000  0.001
  0.000  0.000  0.045  0.933  0.022
  0.001  0.999  0.001  0.000  0.000
    occupations:
  0.556  0.007  0.002  0.029  0.001
  0.007  0.828  0.013 -0.022 -0.001
  0.002  0.013  0.302 -0.002  0.005
  0.029 -0.022 -0.002  0.686 -0.000
  0.001 -0.001  0.005 -0.000  0.514
atom   22   Tr[ns(na)] =   5.88393
    eigenvalues:
  0.499  0.541  0.609  0.631  0.661
    eigenvectors:
  0.000  0.000  0.127  0.044  0.829
  0.000  0.000  0.013  0.916  0.070
  0.449  0.551  0.000  0.000  0.000
  0.000  0.000  0.860  0.040  0.100
  0.551  0.449  0.000  0.000  0.000
    occupations:
  0.653 -0.008  0.002 -0.016  0.001
 -0.008  0.633  0.000  0.000 -0.000
  0.002  0.000  0.522 -0.001  0.021
 -0.016  0.000 -0.001  0.615 -0.001
  0.001 -0.000  0.021 -0.001  0.518
atom   23   Tr[ns(na)] =   5.78719
    eigenvalues:
  0.430  0.501  0.512  0.631  0.820
    eigenvectors:
  0.003  0.001  0.993  0.000  0.003
  0.000  0.000  0.000  0.998  0.002
  0.988  0.009  0.003  0.000  0.000
  0.000  0.000  0.003  0.002  0.995
  0.009  0.990  0.001  0.000  0.000
    occupations:
  0.512 -0.001 -0.004 -0.017 -0.000
 -0.001  0.632 -0.002  0.008 -0.000
 -0.004 -0.002  0.431 -0.001 -0.007
 -0.017  0.008 -0.001  0.819 -0.000
 -0.000 -0.000 -0.007 -0.000  0.500
N of occupied +U levels =  46.3450546
 --- exit write_ns ---

[...]

          k = 0.2500-0.3900 0.0000 ( 29726 PWs)   bands (ev):

[...]

          k =-0.2500 0.1950 0.0000 ( 29746 PWs)   bands (ev):

   -62.6273 -62.2934 -62.2464 -62.1535 -61.9185 -61.7964 -61.7412 -61.4967
   -37.1340 -36.9955 -36.9418 -36.8643 -36.6659 -36.5477 -36.3614 -36.3130
   -36.2701 -36.2624 -36.2215 -36.1816 -36.1539 -36.1431 -36.1331 -36.0585
   -36.0008 -35.9836 -35.9326 -35.8993 -35.5815 -35.3305 -35.3053 -35.2156
   -20.5335 -20.2293 -19.8277 -19.6951 -19.6687 -19.5066 -19.4103 -19.1820
   -19.1433 -19.0551 -19.0313 -18.9766 -18.7935 -18.7896 -18.6301 -18.4250
   -18.4078 -18.0955  -8.6756  -8.4954  -8.2702  -8.1081  -7.9947  -7.8169
    -7.7584  -7.6911  -7.5852  -7.4693  -7.2541  -7.0954  -6.9739  -6.7623
    -6.5676  -6.4802  -6.3817  -6.2775  -6.1610  -6.0777  -5.9584  -5.8778
    -5.7588  -5.5329  -5.3837  -5.3088  -5.1746  -5.0708  -4.9367  -4.7941
    -4.6614  -4.6229  -4.5352  -4.5044  -4.3826  -4.3285  -4.2965  -4.2565
    -4.1377  -4.0220  -3.9029  -3.8011  -3.7012  -3.6658  -3.6118  -3.5350
    -3.4391  -3.3001  -3.1787  -3.0446  -2.9844  -2.7818  -2.6405  -2.4996
    -2.3160  -2.2099  -1.9414  -1.2143  -1.0417  -0.8586  -0.5742  -0.0400
     0.2469   0.4281   0.7938   0.8751   0.9257   1.1120   1.2437   1.3031
     1.4673   1.5541   1.5685   1.7492   1.8915   2.0005   2.2154   2.3443
     2.4610   2.8652   3.4230   3.4854   3.7970   3.8268   3.9838   4.2387
     4.3284   4.3863   4.5138   4.5478   4.6206   4.7366   4.9379   5.1157
     5.4896   5.6812   5.7671   5.8294   5.9864   6.1616   6.3528   6.3675
     6.4930   6.6158   6.9013   6.9728   7.0707   7.3322   7.5036   7.6043
     7.9077   7.9522   8.1692   8.2891   8.3057   8.4983   8.6370   8.7178
     8.8790   8.9944   9.0642   9.2997   9.3340   9.4200   9.4952   9.5488
     9.5778   9.6770   9.8056   9.9882  10.0333  10.1819  10.2765  10.3142
    10.4724  10.5459  10.6511  10.7498  10.7850  11.0199  11.0654  11.1080
    11.1422  11.2765  11.6082  11.6210  11.6476  11.7378  11.8473  11.8956
    11.9814  12.0999  12.2891  12.3012  12.3445  12.3502  12.4746  12.6030
    12.6464  12.7908  12.8661  12.8980  12.9588  13.0672  13.1075  13.2174
    13.3357  13.3985  13.4609  13.4955  13.5327  13.6644  13.7075  13.7579
    13.8549  13.8915  13.9978  14.0281  14.1346  14.1594  14.2311  14.3133
    14.4173  14.4412  14.4811  14.5474  14.5925  14.7381  14.8494  14.8625
    14.9558  15.0457  15.0758  15.2445  15.2955  15.3614  15.4665  15.5830
    15.6279  15.6691  15.7659  15.7871  15.9212  15.9702  16.0822  16.0997
    16.1618  16.2671  16.3283  16.3941  16.4144  16.4544  16.6001  16.6592
    16.7216  16.7757  16.8247  16.8984  17.0078  17.0951  17.1396  17.1956
    17.2331  17.3288  17.3529  17.3987  17.4864  17.6691  17.6822  17.8228
    17.8802  17.9213  18.0601  18.0946  18.1606  18.2714  18.3573  18.3923
    18.4416  18.4634  18.5308  18.6065  18.6411  18.8612  18.9142  19.0037
    19.0728  19.1086  19.1978  19.3113  19.3358  19.4890  19.5674  19.6347
    19.7294  19.7844  19.8536  19.9092  19.9777  20.0734  20.1465  20.1885
    20.2111  20.2510  20.3059  20.3640  20.4203  20.4292  20.5028  20.5362
    20.6548  20.7139  20.7520  20.8886  20.9147  20.9674  21.0403  21.1038
    21.1706  21.2175  21.2855  21.3323  21.4245  21.4972  21.5427  21.6094

     the Fermi energy is    -0.0729 ev

!    total energy              =   -1695.46009533 Ry
     Harris-Foulkes estimate   =   -1695.46009533 Ry
     estimated scf accuracy    <          6.8E-09 Ry

     The total energy is the sum of the following terms:

     one-electron contribution =  -21303.41380138 Ry
     hartree contribution      =   10674.56560969 Ry
     xc contribution           =    -286.75085255 Ry
     ewald contribution        =    9215.62827428 Ry
     Hubbard energy            =       4.51044596 Ry
     smearing contrib. (-TS)   =       0.00022867 Ry

     convergence has been achieved in  19 iterations

     Forces acting on atoms (Ry/au):

     negative rho (up, down):  0.362E-02 0.000E+00
     atom    1 type  1   force =     0.01370352   -0.00489394    0.00004814
     atom    2 type  1   force =    -0.00092278    0.01106897    0.00007494
     atom    3 type  2   force =     0.00407133   -0.00438319    0.00075356
     atom    4 type  2   force =    -0.02485402    0.00224808    0.00022770
     atom    5 type  1   force =     0.00749109   -0.00651430   -0.00054994
     atom    6 type  1   force =     0.00668161    0.00082715   -0.00064652
     atom    7 type  1   force =     0.00072876    0.00195420   -0.00033620
     atom    8 type  1   force =     0.00800203    0.00090831    0.00038329
     atom    9 type  2   force =     0.01973923    0.00106258   -0.00022078
     atom   10 type  2   force =    -0.00097509    0.00100779    0.00071795
     atom   11 type  1   force =     0.00585972   -0.01020157    0.00059091
     atom   12 type  1   force =     0.00642843    0.00854291    0.00060676
     atom   13 type  1   force =    -0.01963569   -0.00010159   -0.00045713
     atom   14 type  1   force =    -0.01250975   -0.00607942    0.00008429
     atom   15 type  1   force =     0.00086827    0.00849577    0.00026283
     atom   16 type  2   force =    -0.00426672   -0.01066552    0.00078182
     atom   17 type  2   force =     0.01283429    0.00389103    0.00033881
     atom   18 type  1   force =    -0.00417711   -0.02387113   -0.00033907
     atom   19 type  1   force =    -0.00622427    0.02658715   -0.00020094
     atom   20 type  1   force =     0.00108182    0.00223233   -0.00036575
     atom   21 type  1   force =     0.02393752   -0.00015946   -0.00043838
     atom   22 type  2   force =    -0.03573572   -0.00031885   -0.00012353
     atom   23 type  2   force =    -0.00069663   -0.00077914    0.00053844
     atom   24 type  1   force =    -0.00757870   -0.01576419   -0.00015193
     atom   25 type  1   force =    -0.00746290    0.01538580   -0.00014694
     atom   26 type  1   force =     0.01393179   -0.00003801   -0.00016999
     atom   27 type  3   force =     0.00001689    0.00024112    0.00003766
     atom   28 type  3   force =    -0.00000133   -0.00017178   -0.00022176
     atom   29 type  3   force =    -0.00000297   -0.00038643   -0.00021952
     atom   30 type  3   force =    -0.00033262   -0.00012466   -0.00085871

     Total force =     0.002441     Total SCF correction =     0.000157

     entering subroutine stress ...

     negative rho (up, down):  0.362E-02 0.000E+00
          total   stress  (Ry/bohr**3)                   (kbar)     P=   -6.25
  -0.00004079  -0.00000098  -0.00001168         -6.00     -0.14     -1.72
  -0.00000098  -0.00005544  -0.00000172         -0.14     -8.16     -0.25
  -0.00001168  -0.00000172  -0.00003125         -1.72     -0.25     -4.60

     bfgs converged in  13 scf cycles and  12 bfgs steps
     (criteria: energy < 0.10E-03, force < 0.10E-02)

     End of BFGS Geometry Optimization

     Final energy   =   -1695.4600953271 Ry
Begin final coordinates

ATOMIC_POSITIONS (crystal)
O0       0.000000000   0.000000000   0.373179458    0   0   1
O0       0.000000000   0.500000000   0.380504166    0   0   1
Mo1      0.250000000   0.500000000   0.438683471    0   0   1
Mo1      0.000000000   0.000000000   0.444734845    0   0   1
O0       0.250000000   0.780000000   0.443287847    0   0   1
O0       0.250000000   0.220000000   0.443285702    0   0   1
O0       0.000000000   0.500000000   0.495865068    0   0   1
O0       0.000000000   0.000000000   0.516969280    0   0   1
Mo1      0.250000000   0.000000000   0.572388721    0   0   1
Mo1      0.000000000   0.500000000   0.567060352    0   0   1
O0       0.250000000   0.720000000   0.574685559    0   0   1
O0       0.250000000   0.280000000   0.574762609    0   0   1
O0       0.000000000   0.000000000   0.627997425    0   0   1
O0       0.500000000   0.000000000   0.369112384    0   0   1
O0       0.500000000   0.500000000   0.380960532    0   0   1
Mo1      0.750000000   0.500000000   0.438818095    0   0   1
Mo1      0.500000000   0.000000000   0.441906698    0   0   1
O0       0.750000000   0.780000000   0.442843590    0   0   1
O0       0.750000000   0.220000000   0.442753405    0   0   1
O0       0.500000000   0.500000000   0.499022836    0   0   1
O0       0.500000000   0.000000000   0.520212740    0   0   1
Mo1      0.750000000   0.000000000   0.582448470    0   0   1
Mo1      0.500000000   0.500000000   0.565104350    0   0   1
O0       0.750000000   0.720000000   0.576501387    0   0   1
O0       0.750000000   0.280000000   0.576615574    0   0   1
O0       0.500000000   0.000000000   0.628294394    0   0   1
H2      -0.001350402   0.619598571   0.361279630
H2       0.500858593   0.610179937   0.358371346
H2       0.164927148   0.021228009   0.357869750
H2       0.667259683   0.021050846   0.355570317
End final coordinates

     General routines

     Parallel routines
     Hubbard U routines

   This run was terminated on:   0:27:21  26May2014

   JOB DONE.