     Program PWSCF v.5.0.2 (svn rev. 9656) starts on 24Jan2014 at 14:51:51

     Current dimensions of program PWSCF are:
     Max number of different atomic species (ntypx) = 10
     Max number of k-points (npk) =  40000
     Max angular momentum in pseudopotentials (lmaxx) =  3
     Reading input from CrO2-v-0.95.in

     Subspace diagonalization in iterative solution of the eigenvalue problem:
     a serial algorithm will be used

     bravais-lattice index     =            0
     lattice parameter (alat)  =       8.3163  a.u.
     unit-cell volume          =     370.6600 (a.u.)^3
     number of atoms/cell      =            6
     number of atomic types    =            2
     number of electrons       =        52.00
     number of Kohn-Sham states=           75
     kinetic-energy cutoff     =      40.0000  Ry
     charge density cutoff     =     500.0000  Ry
     convergence threshold     =      1.0E-06
     mixing beta               =       0.3000
     number of iterations used =            8  plain     mixing
     Exchange-correlation      = SLA  PW   PBE  PBE ( 1 4 3 4 0)
     EXX-fraction              =        0.00
     nstep                     =           50

     celldm(1)=   8.316299  celldm(2)=   0.000000  celldm(3)=   0.000000
     celldm(4)=   0.000000  celldm(5)=   0.000000  celldm(6)=   0.000000

     crystal axes: (cart. coord. in units of alat)
               a(1) = (   1.000000   0.000000   0.000000 )
               a(2) = (   0.000000   1.000000   0.000000 )
               a(3) = (   0.000000   0.000000   0.644444 )

     reciprocal axes: (cart. coord. in units 2 pi/alat)
               b(1) = (  1.000000  0.000000  0.000000 )
               b(2) = (  0.000000  1.000000  0.000000 )
               b(3) = (  0.000000  0.000000  1.551724 )

     PseudoPot. # 1 for Cr read from file:
     /home/camp/zhonxu/pseudo/cr_pbe_v1.uspp.F.UPF
     MD5 check sum: 68b6f918d1762dccfb11451fe85b0e0e
     Pseudo is Ultrasoft + core correction, Zval = 14.0
     Generated by new atomic code, or converted to UPF format
     Using radial grid of  857 points,  6 beta functions with:
                l(1) =   0
                l(2) =   0
                l(3) =   1
                l(4) =   1
                l(5) =   2
                l(6) =   2
     Q(r) pseudized with  6 coefficients,  rinner =    1.000   1.000   1.000
                                                       1.000   1.000

     PseudoPot. # 2 for O  read from file:
     /home/camp/zhonxu/pseudo/o_pbe_v1.01.uspp.F.UPF
     MD5 check sum: 2bcb18d16ea4b960afae9ec6d52f22d2
     Pseudo is Ultrasoft + core correction, Zval =  6.0
     Generated by new atomic code, or converted to UPF format
     Using radial grid of  737 points,  5 beta functions with:
                l(1) =   0
                l(2) =   0
                l(3) =   1
                l(4) =   1
                l(5) =   2
     Q(r) pseudized with  8 coefficients,  rinner =    0.900   0.900   0.900
                                                       0.900   0.900

     atomic species   valence    mass     pseudopotential
        Cr0           14.00    51.99600     Cr( 1.00)
        O1             6.00    15.99940     O ( 1.00)

     Starting magnetic structure
     atomic species   magnetization
        Cr0          0.000
        O1           0.000

     16 Sym. Ops., with inversion, found ( 8 have fractional translation)

   Cartesian axes

     site n.     atom                  positions (alat units)
         1           Cr0 tau(   1) = (   0.0000000   0.0000000   0.0000000  )
         2           Cr0 tau(   2) = (   0.5000000   0.5000000   0.3222222  )
         3           O1  tau(   3) = (   0.3050000   0.3050000   0.0000000  )
         4           O1  tau(   4) = (  -0.3050000  -0.3050000   0.0000000  )
         5           O1  tau(   5) = (   0.8050000   0.1950000   0.3222222  )
         6           O1  tau(   6) = (   0.1950000   0.8050000   0.3222222  )

     number of k points=    36  Methfessel-Paxton smearing, width (Ry)=  0.0100
                       cart. coord. in units 2pi/alat
        k(    1) = (   0.0000000   0.0000000   0.0000000), wk =   0.0080000
        k(    2) = (   0.0000000   0.0000000   0.3103448), wk =   0.0160000
        k(    3) = (   0.0000000   0.0000000   0.6206897), wk =   0.0160000
        k(    4) = (   0.0000000   0.2000000   0.0000000), wk =   0.0320000
        k(    5) = (   0.0000000   0.2000000   0.3103448), wk =   0.0640000
        k(    6) = (   0.0000000   0.2000000   0.6206897), wk =   0.0640000
        k(    7) = (   0.0000000   0.4000000   0.0000000), wk =   0.0320000
        k(    8) = (   0.0000000   0.4000000   0.3103448), wk =   0.0640000
        k(    9) = (   0.0000000   0.4000000   0.6206897), wk =   0.0640000
        k(   10) = (   0.2000000   0.2000000   0.0000000), wk =   0.0320000
        k(   11) = (   0.2000000   0.2000000   0.3103448), wk =   0.0640000
        k(   12) = (   0.2000000   0.2000000   0.6206897), wk =   0.0640000
        k(   13) = (   0.2000000   0.4000000   0.0000000), wk =   0.0640000
        k(   14) = (   0.2000000   0.4000000   0.3103448), wk =   0.1280000
        k(   15) = (   0.2000000   0.4000000   0.6206897), wk =   0.1280000
        k(   16) = (   0.4000000   0.4000000   0.0000000), wk =   0.0320000
        k(   17) = (   0.4000000   0.4000000   0.3103448), wk =   0.0640000
        k(   18) = (   0.4000000   0.4000000   0.6206897), wk =   0.0640000
        k(   19) = (   0.0000000   0.0000000   0.0000000), wk =   0.0080000
        k(   20) = (   0.0000000   0.0000000   0.3103448), wk =   0.0160000
        k(   21) = (   0.0000000   0.0000000   0.6206897), wk =   0.0160000
        k(   22) = (   0.0000000   0.2000000   0.0000000), wk =   0.0320000
        k(   23) = (   0.0000000   0.2000000   0.3103448), wk =   0.0640000
        k(   24) = (   0.0000000   0.2000000   0.6206897), wk =   0.0640000
        k(   25) = (   0.0000000   0.4000000   0.0000000), wk =   0.0320000
        k(   26) = (   0.0000000   0.4000000   0.3103448), wk =   0.0640000
        k(   27) = (   0.0000000   0.4000000   0.6206897), wk =   0.0640000
        k(   28) = (   0.2000000   0.2000000   0.0000000), wk =   0.0320000
        k(   29) = (   0.2000000   0.2000000   0.3103448), wk =   0.0640000
        k(   30) = (   0.2000000   0.2000000   0.6206897), wk =   0.0640000
        k(   31) = (   0.2000000   0.4000000   0.0000000), wk =   0.0640000
        k(   32) = (   0.2000000   0.4000000   0.3103448), wk =   0.1280000
        k(   33) = (   0.2000000   0.4000000   0.6206897), wk =   0.1280000
        k(   34) = (   0.4000000   0.4000000   0.0000000), wk =   0.0320000
        k(   35) = (   0.4000000   0.4000000   0.3103448), wk =   0.0640000
        k(   36) = (   0.4000000   0.4000000   0.6206897), wk =   0.0640000

     Largest allocated arrays     est. size (Mb)     dimensions
     Largest temporary arrays     est. size (Mb)     dimensions

     Check: negative/imaginary core charge=   -0.000034    0.000000

     Initial potential from superposition of free atoms

     starting charge   49.99997, renormalised to   52.00000
     Starting wfc are   36 randomized atomic wfcs

     Self-consistent Calculation

     iteration #  1     ecut=    40.00 Ry     beta=0.30
     Davidson diagonalization with overlap
     ethr =  1.00E-02,  avg # of iterations =  5.1

     total energy              =    -480.59700414 Ry
     Harris-Foulkes estimate   =    -481.42734245 Ry
     estimated scf accuracy    <       1.77943061 Ry

     total magnetization       =    -0.00 Bohr mag/cell
     absolute magnetization    =     0.00 Bohr mag/cell

[...]

     End of self-consistent calculation

 ------ SPIN UP ------------

          k = 0.0000 0.0000 0.0000 (  1559 PWs)   bands (ev):

   -61.0543 -61.0478 -32.4518 -32.4330 -32.3551 -32.3551 -32.2695 -32.2695
    -8.7915  -7.0547  -6.5099  -6.5099   3.5797   4.2866   4.7546   5.8889
     5.8889   7.2022   7.2022   7.8760   9.5407   9.9071   9.9071  10.2500
    10.9407  11.2414  11.3822  11.3822  11.5542  13.4774  13.6658  15.8645
    15.8645  16.8280  19.3140  22.8028  22.8028  26.0799  26.1200  27.3403
    29.6949  30.7830  30.7830  31.2534  31.7903  35.2202  36.0827  36.0827
    36.4612  37.6419  37.6419  38.1971  38.1971  38.2176  38.2600  40.2581
    42.6202  42.9868  45.3050  45.3432  45.3432  45.9913  45.9913  46.9375
    48.9919  50.1121  50.1121  50.6255  52.4258  52.7277  52.7277  53.6152
    54.5328  55.0851  56.3590

[...]

 ------ SPIN DOWN ----------

[...]

     the Fermi energy is    11.8010 ev

!    total energy              =    -481.08180811 Ry
     Harris-Foulkes estimate   =    -481.08180316 Ry
     estimated scf accuracy    <       0.00000017 Ry

     The total energy is the sum of the following terms:

     one-electron contribution =    -199.23143576 Ry
     hartree contribution      =     126.97405763 Ry
     xc contribution           =     -74.35180600 Ry
     ewald contribution        =    -334.47302770 Ry
     smearing contrib. (-TS)   =       0.00040372 Ry

[...]

     convergence has been achieved in   9 iterations

     Forces acting on atoms (Ry/au):

     atom    1 type  1   force =     0.00000000    0.00000000    0.00000000
     atom    2 type  1   force =     0.00000000    0.00000000    0.00000000
     atom    3 type  2   force =    -0.02978706   -0.02978706    0.00000000
     atom    4 type  2   force =     0.02978706    0.02978706    0.00000000
     atom    5 type  2   force =    -0.02978706    0.02978706    0.00000000
     atom    6 type  2   force =     0.02978706   -0.02978706    0.00000000

     Total force =     0.084251     Total SCF correction =     0.000833

     entering subroutine stress ...

          total   stress  (Ry/bohr**3)                   (kbar)     P=   61.98
   0.00077091   0.00000000   0.00000000        113.40      0.00      0.00
   0.00000000   0.00077091   0.00000000          0.00    113.40      0.00
   0.00000000   0.00000000  -0.00027789          0.00      0.00    -40.88

     Volume is kept fixed: isostatic pressure set to zero

     BFGS Geometry Optimization

     number of scf cycles    =   1
     number of bfgs steps    =   0

     enthalpy new            =    -481.0818081137 Ry

     new trust radius        =       0.0673069326 bohr
     new conv_thr            =       0.0000010000 Ry

     new unit-cell volume =    370.66004 a.u.^3 (    54.92615 Ang^3 )

CELL_PARAMETERS (alat=  8.31629897)
   1.008817526   0.000000000   0.000000000
   0.000000000   1.008817526   0.000000000
   0.000000000   0.000000000   0.633228199

ATOMIC_POSITIONS (crystal)
Cr0      0.000000000   0.000000000   0.000000000    0   0   0
Cr0      0.500000000   0.500000000   0.500000000    0   0   0
O1       0.301418231   0.301418231   0.000000000    1   1   0
O1      -0.301418231  -0.301418231   0.000000000    1   1   0
O1       0.801418231   0.198581769   0.500000000    1   1   0
O1       0.198581769   0.801418231   0.500000000    1   1   0

     NEW-OLD atomic charge density approx. for the potential
     NEW k-points:
        k(    1) = (   0.0000000   0.0000000   0.0000000), wk =   0.0080000
[...]
        k(   18) = (   0.3965038   0.3965038   0.6316838), wk =   0.0640000
        k(   19) = (   0.0000000   0.0000000   0.0000000), wk =   0.0080000
        k(   20) = (   0.0000000   0.0000000   0.3158419), wk =   0.0160000
        k(   21) = (   0.0000000   0.0000000   0.6316838), wk =   0.0160000
        k(   22) = (   0.0000000   0.1982519   0.0000000), wk =   0.0320000
        k(   23) = (   0.0000000   0.1982519   0.3158419), wk =   0.0640000
        k(   24) = (   0.0000000   0.1982519   0.6316838), wk =   0.0640000
        k(   25) = (   0.0000000   0.3965038   0.0000000), wk =   0.0320000
        k(   26) = (   0.0000000   0.3965038   0.3158419), wk =   0.0640000
        k(   27) = (   0.0000000   0.3965038   0.6316838), wk =   0.0640000
        k(   28) = (   0.1982519   0.1982519   0.0000000), wk =   0.0320000
        k(   29) = (   0.1982519   0.1982519   0.3158419), wk =   0.0640000
        k(   30) = (   0.1982519   0.1982519   0.6316838), wk =   0.0640000
        k(   31) = (   0.1982519   0.3965038   0.0000000), wk =   0.0640000
        k(   32) = (   0.1982519   0.3965038   0.3158419), wk =   0.1280000
        k(   33) = (   0.1982519   0.3965038   0.6316838), wk =   0.1280000
        k(   34) = (   0.3965038   0.3965038   0.0000000), wk =   0.0320000
        k(   35) = (   0.3965038   0.3965038   0.3158419), wk =   0.0640000
        k(   36) = (   0.3965038   0.3965038   0.6316838), wk =   0.0640000

[...]

     enthalpy old            =    -481.0818081137 Ry
     enthalpy new            =    -481.0940418055 Ry

     CASE: enthalpy_new < enthalpy_old

[...]

     Total force =     0.002501     Total SCF correction =     0.000359
     SCF correction compared to forces is large: reduce conv_thr to get better values

[...]

     Threshold (ethr) on eigenvalues was too large:
     Diagonalizing with lowered threshold

     Davidson diagonalization with overlap
     ethr =  1.40E-08,  avg # of iterations =  1.3

[...]

     number of scf cycles    =   6
     number of bfgs steps    =   5

     enthalpy old            =    -481.1056965629 Ry
     enthalpy new            =    -481.1057081982 Ry

     CASE: enthalpy_new < enthalpy_old

     new trust radius        =       0.0012536156 bohr
     new conv_thr            =       0.0000000100 Ry

     new unit-cell volume =    370.66004 a.u.^3 (    54.92615 Ang^3 )

[...]

ATOMIC_POSITIONS (crystal)
Cr0      0.000000000   0.000000000   0.000000000    0   0   0
Cr0      0.500000000   0.500000000   0.500000000    0   0   0
O1       0.291881303   0.291881303   0.000000000    1   1   0
O1      -0.291881303  -0.291881303   0.000000000    1   1   0
O1       0.791881303   0.208118697   0.500000000    1   1   0
O1       0.208118697   0.791881303   0.500000000    1   1   0

     NEW-OLD atomic charge density approx. for the potential
     NEW k-points:
        k(    1) = (   0.0000000   0.0000000   0.0000000), wk =   0.0080000
        k(    2) = (   0.0000000   0.0000000   0.3282695), wk =   0.0160000
        k(    3) = (   0.0000000   0.0000000   0.6565389), wk =   0.0160000
        k(    4) = (   0.0000000   0.1944630   0.0000000), wk =   0.0320000
        k(    5) = (   0.0000000   0.1944630   0.3282695), wk =   0.0640000
        k(    6) = (   0.0000000   0.1944630   0.6565389), wk =   0.0640000
        k(    7) = (   0.0000000   0.3889260   0.0000000), wk =   0.0320000
        k(    8) = (   0.0000000   0.3889260   0.3282695), wk =   0.0640000
        k(    9) = (   0.0000000   0.3889260   0.6565389), wk =   0.0640000
        k(   10) = (   0.1944630   0.1944630   0.0000000), wk =   0.0320000
        k(   11) = (   0.1944630   0.1944630   0.3282695), wk =   0.0640000
        k(   12) = (   0.1944630   0.1944630   0.6565389), wk =   0.0640000
        k(   13) = (   0.1944630   0.3889260   0.0000000), wk =   0.0640000
        k(   14) = (   0.1944630   0.3889260   0.3282695), wk =   0.1280000
        k(   15) = (   0.1944630   0.3889260   0.6565389), wk =   0.1280000
        k(   16) = (   0.3889260   0.3889260   0.0000000), wk =   0.0320000
        k(   17) = (   0.3889260   0.3889260   0.3282695), wk =   0.0640000
        k(   18) = (   0.3889260   0.3889260   0.6565389), wk =   0.0640000
        k(   19) = (   0.0000000   0.0000000   0.0000000), wk =   0.0080000
        k(   20) = (   0.0000000   0.0000000   0.3282695), wk =   0.0160000
        k(   21) = (   0.0000000   0.0000000   0.6565389), wk =   0.0160000
        k(   22) = (   0.0000000   0.1944630   0.0000000), wk =   0.0320000
        k(   23) = (   0.0000000   0.1944630   0.3282695), wk =   0.0640000
        k(   24) = (   0.0000000   0.1944630   0.6565389), wk =   0.0640000
        k(   25) = (   0.0000000   0.3889260   0.0000000), wk =   0.0320000
        k(   26) = (   0.0000000   0.3889260   0.3282695), wk =   0.0640000
        k(   27) = (   0.0000000   0.3889260   0.6565389), wk =   0.0640000
        k(   28) = (   0.1944630   0.1944630   0.0000000), wk =   0.0320000
        k(   29) = (   0.1944630   0.1944630   0.3282695), wk =   0.0640000
        k(   30) = (   0.1944630   0.1944630   0.6565389), wk =   0.0640000
        k(   31) = (   0.1944630   0.3889260   0.0000000), wk =   0.0640000
        k(   32) = (   0.1944630   0.3889260   0.3282695), wk =   0.1280000
        k(   33) = (   0.1944630   0.3889260   0.6565389), wk =   0.1280000
        k(   34) = (   0.3889260   0.3889260   0.0000000), wk =   0.0320000
        k(   35) = (   0.3889260   0.3889260   0.3282695), wk =   0.0640000
        k(   36) = (   0.3889260   0.3889260   0.6565389), wk =   0.0640000

[...]

     Threshold (ethr) on eigenvalues was too large:
     Diagonalizing with lowered threshold

     Davidson diagonalization with overlap
     ethr =  5.64E-10,  avg # of iterations =  2.0

[...]

     Total force =     0.000030     Total SCF correction =     0.000003
     SCF correction compared to forces is large: reduce conv_thr to get better values

[...]

     Volume is kept fixed: isostatic pressure set to zero

     bfgs converged in   7 scf cycles and   6 bfgs steps
     (criteria: energy < 0.10E-03, force < 0.10E-02, cell < 0.50E+00)

     End of BFGS Geometry Optimization

     Final enthalpy =    -481.1057088273 Ry
Begin final coordinates
     new unit-cell volume =    370.66004 a.u.^3 (    54.92615 Ang^3 )

CELL_PARAMETERS (alat=  8.31629897)
   1.028473225   0.000000000   0.000000000
   0.000000000   1.028473225   0.000000000
   0.000000000   0.000000000   0.609255564

ATOMIC_POSITIONS (crystal)
Cr0      0.000000000   0.000000000   0.000000000    0   0   0
Cr0      0.500000000   0.500000000   0.500000000    0   0   0
O1       0.291881303   0.291881303   0.000000000    1   1   0
O1      -0.291881303  -0.291881303   0.000000000    1   1   0
O1       0.791881303   0.208118697   0.500000000    1   1   0
O1       0.208118697   0.791881303   0.500000000    1   1   0
End final coordinates

     A final scf calculation at the relaxed structure.
     The G-vectors are recalculated for the final unit cell
     Results may differ from those at the preceding step.

     bravais-lattice index     =            0
     lattice parameter (alat)  =       8.3163  a.u.
     unit-cell volume          =     370.6600 (a.u.)^3
     number of atoms/cell      =            6
     number of atomic types    =            2
     number of electrons       =        52.00
     number of Kohn-Sham states=           75
     kinetic-energy cutoff     =      40.0000  Ry
     charge density cutoff     =     500.0000  Ry
     convergence threshold     =      1.0E-08
     mixing beta               =       0.3000
     number of iterations used =            8  plain     mixing
     Exchange-correlation      = SLA  PW   PBE  PBE ( 1 4 3 4 0)
     EXX-fraction              =        0.00

     celldm(1)=   8.316299  celldm(2)=   0.000000  celldm(3)=   0.000000
     celldm(4)=   0.000000  celldm(5)=   0.000000  celldm(6)=   0.000000

     crystal axes: (cart. coord. in units of alat)
               a(1) = (   1.028473   0.000000   0.000000 )
               a(2) = (   0.000000   1.028473   0.000000 )
               a(3) = (   0.000000   0.000000   0.609256 )

     reciprocal axes: (cart. coord. in units 2 pi/alat)
               b(1) = (  0.972315  0.000000  0.000000 )
               b(2) = (  0.000000  0.972315  0.000000 )
               b(3) = (  0.000000  0.000000  1.641347 )

     PseudoPot. # 1 for Cr read from file:
     /home/camp/zhonxu/pseudo/cr_pbe_v1.uspp.F.UPF
     MD5 check sum: 68b6f918d1762dccfb11451fe85b0e0e
     Pseudo is Ultrasoft + core correction, Zval = 14.0
     Generated by new atomic code, or converted to UPF format
     Using radial grid of  857 points,  6 beta functions with:
                l(1) =   0
                l(2) =   0
                l(3) =   1
                l(4) =   1
                l(5) =   2
                l(6) =   2
     Q(r) pseudized with  6 coefficients,  rinner =    1.000   1.000   1.000
                                                       1.000   1.000

     PseudoPot. # 2 for O  read from file:
     /home/camp/zhonxu/pseudo/o_pbe_v1.01.uspp.F.UPF
     MD5 check sum: 2bcb18d16ea4b960afae9ec6d52f22d2
     Pseudo is Ultrasoft + core correction, Zval =  6.0
     Generated by new atomic code, or converted to UPF format
     Using radial grid of  737 points,  5 beta functions with:
                l(1) =   0
                l(2) =   0
                l(3) =   1
                l(4) =   1
                l(5) =   2
     Q(r) pseudized with  8 coefficients,  rinner =    0.900   0.900   0.900
                                                       0.900   0.900

     atomic species   valence    mass     pseudopotential
        Cr0           14.00    51.99600     Cr( 1.00)
        O1             6.00    15.99940     O ( 1.00)

     Starting magnetic structure
     atomic species   magnetization
        Cr0          0.000
        O1           0.000

     16 Sym. Ops., with inversion, found ( 8 have fractional translation)

   Cartesian axes

     site n.     atom                  positions (alat units)
         1           Cr0 tau(   1) = (   0.0000000   0.0000000   0.0000000  )
         2           Cr0 tau(   2) = (   0.5142366   0.5142366   0.3046278  )
         3           O1  tau(   3) = (   0.3001921   0.3001921   0.0000000  )
         4           O1  tau(   4) = (  -0.3001921  -0.3001921   0.0000000  )
         5           O1  tau(   5) = (   0.8144287   0.2140445   0.3046278  )
         6           O1  tau(   6) = (   0.2140445   0.8144287   0.3046278  )

     number of k points=    36  Methfessel-Paxton smearing, width (Ry)=  0.0100
                       cart. coord. in units 2pi/alat
        k(    1) = (   0.0000000   0.0000000   0.0000000), wk =   0.0080000
        k(    2) = (   0.0000000   0.0000000   0.3282695), wk =   0.0160000
        k(    3) = (   0.0000000   0.0000000   0.6565389), wk =   0.0160000
        k(    4) = (   0.0000000   0.1944630   0.0000000), wk =   0.0320000
        k(    5) = (   0.0000000   0.1944630   0.3282695), wk =   0.0640000
        k(    6) = (   0.0000000   0.1944630   0.6565389), wk =   0.0640000
        k(    7) = (   0.0000000   0.3889260   0.0000000), wk =   0.0320000
        k(    8) = (   0.0000000   0.3889260   0.3282695), wk =   0.0640000
        k(    9) = (   0.0000000   0.3889260   0.6565389), wk =   0.0640000
        k(   10) = (   0.1944630   0.1944630   0.0000000), wk =   0.0320000
        k(   11) = (   0.1944630   0.1944630   0.3282695), wk =   0.0640000
        k(   12) = (   0.1944630   0.1944630   0.6565389), wk =   0.0640000
        k(   13) = (   0.1944630   0.3889260   0.0000000), wk =   0.0640000
        k(   14) = (   0.1944630   0.3889260   0.3282695), wk =   0.1280000
        k(   15) = (   0.1944630   0.3889260   0.6565389), wk =   0.1280000
        k(   16) = (   0.3889260   0.3889260   0.0000000), wk =   0.0320000
        k(   17) = (   0.3889260   0.3889260   0.3282695), wk =   0.0640000
        k(   18) = (   0.3889260   0.3889260   0.6565389), wk =   0.0640000
        k(   19) = (   0.0000000   0.0000000   0.0000000), wk =   0.0080000
        k(   20) = (   0.0000000   0.0000000   0.3282695), wk =   0.0160000
        k(   21) = (   0.0000000   0.0000000   0.6565389), wk =   0.0160000
        k(   22) = (   0.0000000   0.1944630   0.0000000), wk =   0.0320000
        k(   23) = (   0.0000000   0.1944630   0.3282695), wk =   0.0640000
        k(   24) = (   0.0000000   0.1944630   0.6565389), wk =   0.0640000
        k(   25) = (   0.0000000   0.3889260   0.0000000), wk =   0.0320000
        k(   26) = (   0.0000000   0.3889260   0.3282695), wk =   0.0640000
        k(   27) = (   0.0000000   0.3889260   0.6565389), wk =   0.0640000
        k(   28) = (   0.1944630   0.1944630   0.0000000), wk =   0.0320000
        k(   29) = (   0.1944630   0.1944630   0.3282695), wk =   0.0640000
        k(   30) = (   0.1944630   0.1944630   0.6565389), wk =   0.0640000
        k(   31) = (   0.1944630   0.3889260   0.0000000), wk =   0.0640000
        k(   32) = (   0.1944630   0.3889260   0.3282695), wk =   0.1280000
        k(   33) = (   0.1944630   0.3889260   0.6565389), wk =   0.1280000
        k(   34) = (   0.3889260   0.3889260   0.0000000), wk =   0.0320000
        k(   35) = (   0.3889260   0.3889260   0.3282695), wk =   0.0640000
        k(   36) = (   0.3889260   0.3889260   0.6565389), wk =   0.0640000

     Largest allocated arrays     est. size (Mb)     dimensions
     Largest temporary arrays     est. size (Mb)     dimensions

     Check: negative/imaginary core charge=   -0.000034    0.000000

     Initial potential from superposition of free atoms

     starting charge   49.99997, renormalised to   52.00000
     Starting wfc are   36 randomized atomic wfcs

     Self-consistent Calculation

[...]

     total energy              =    -481.10576441 Ry
     Harris-Foulkes estimate   =    -481.10576386 Ry
     estimated scf accuracy    <       0.00000002 Ry

[...]

     iteration # 12     ecut=    40.00 Ry     beta=0.30
     Davidson diagonalization with overlap
     ethr =  3.29E-11,  avg # of iterations =  1.0

     End of self-consistent calculation

 ------ SPIN UP ------------

[...]

 ------ SPIN DOWN ----------

[...]

          k = 0.3889 0.3889 0.6565 (  1577 PWs)   bands (ev):

   -61.1381 -61.1379 -32.7007 -32.7001 -32.5275 -32.5267 -32.3605 -32.3603
    -7.1128  -6.9610  -6.9104  -6.7604   4.6270   4.7918   4.8257   5.0037
     5.8930   6.3137   6.6710   6.9259   8.2495   8.4173   9.1991   9.4212
    11.3818  11.8537  12.0364  12.3739  12.4513  12.4800  14.4108  15.1719
    15.2079  15.9040  23.0965  23.4773  24.2499  24.5135  27.2978  27.3755
    28.8961  29.0508  29.1757  29.3096  30.0665  30.3598  33.8495  35.0591
    36.2861  36.5072  37.5333  38.1207  40.8706  40.9477  42.7743  43.3662
    45.1023  45.1789  46.3788  46.4408  47.0015  47.3897  49.2525  49.7580
    50.1952  50.5657  51.0196  51.4080  51.6632  51.7023  52.0593  52.6207
    53.4887  54.2247  57.3374

     the Fermi energy is    11.6381 ev

!    total energy              =    -481.10576494 Ry
     Harris-Foulkes estimate   =    -481.10576441 Ry
     estimated scf accuracy    <          1.7E-09 Ry

     The total energy is the sum of the following terms:

     one-electron contribution =    -200.93174197 Ry
     hartree contribution      =     127.65071716 Ry
     xc contribution           =     -74.30700054 Ry
     ewald contribution        =    -333.51766347 Ry
     smearing contrib. (-TS)   =      -0.00007612 Ry

     total magnetization       =     0.00 Bohr mag/cell
     absolute magnetization    =     0.00 Bohr mag/cell

     convergence has been achieved in  12 iterations

     Forces acting on atoms (Ry/au):

     atom    1 type  1   force =     0.00000000    0.00000000    0.00000000
     atom    2 type  1   force =     0.00000000    0.00000000   -0.00000000
     atom    3 type  2   force =    -0.00005726   -0.00005726    0.00000000
     atom    4 type  2   force =     0.00005726    0.00005726    0.00000000
     atom    5 type  2   force =    -0.00005726    0.00005726   -0.00000000
     atom    6 type  2   force =     0.00005726   -0.00005726    0.00000000

     Total force =     0.000162     Total SCF correction =     0.000005

     entering subroutine stress ...

          total   stress  (Ry/bohr**3)                   (kbar)     P=   19.10
   0.00013427   0.00000000   0.00000000         19.75      0.00      0.00
   0.00000000   0.00013427   0.00000000          0.00     19.75      0.00
   0.00000000   0.00000000   0.00012090          0.00      0.00     17.78

     General routines

     Parallel routines

   This run was terminated on:  15:13:57  24Jan2014

   JOB DONE.