     Program PWSCF v.5.0.2 (svn rev. 9656) starts on  1Jun2014 at 11:56:39

     Current dimensions of program PWSCF are:
     Max number of different atomic species (ntypx) = 10
     Max number of k-points (npk) =  40000
     Max angular momentum in pseudopotentials (lmaxx) =  3
     Reading input from pwscf.in
Warning: card &CELL ignored
Warning: card / ignored

     Subspace diagonalization in iterative solution of the eigenvalue problem:
     a serial algorithm will be used

     bravais-lattice index     =            0
     lattice parameter (alat)  =      10.1289  a.u.
     unit-cell volume          =    6836.7721 (a.u.)^3
     number of atoms/cell      =           33
     number of atomic types    =            3
     number of electrons       =       245.00
     number of Kohn-Sham states=          367
     kinetic-energy cutoff     =      40.0000  Ry
     charge density cutoff     =     500.0000  Ry
     convergence threshold     =      1.0E-06
     mixing beta               =       0.7000
     number of iterations used =            8  plain     mixing
     Exchange-correlation      = SLA  PW   PBE  PBE ( 1 4 3 4 0)
     EXX-fraction              =        0.00
     nstep                     =           50

     celldm(1)=  10.128932  celldm(2)=   0.000000  celldm(3)=   0.000000
     celldm(4)=   0.000000  celldm(5)=   0.000000  celldm(6)=   0.000000

     crystal axes: (cart. coord. in units of alat)
               a(1) = (   1.000000   0.000000   0.000000 )
               a(2) = (   0.000000   1.306037   0.000000 )
               a(3) = (   0.000000   0.000000   5.037380 )

     reciprocal axes: (cart. coord. in units 2 pi/alat)
               b(1) = (  1.000000  0.000000  0.000000 )
               b(2) = (  0.000000  0.765675  0.000000 )
               b(3) = (  0.000000  0.000000  0.198516 )

     PseudoPot. # 1 for O  read from file:
     /home/camp/zhonxu/pseudo/o_pbe_v1.01.uspp.F.UPF
     MD5 check sum: 2bcb18d16ea4b960afae9ec6d52f22d2
     Pseudo is Ultrasoft + core correction, Zval =  6.0
     Generated by new atomic code, or converted to UPF format
     Using radial grid of  737 points,  5 beta functions with:
                l(1) =   0
                l(2) =   0
                l(3) =   1
                l(4) =   1
                l(5) =   2
     Q(r) pseudized with  8 coefficients,  rinner =    0.900   0.900   0.900
                                                       0.900   0.900

     PseudoPot. # 2 for Re read from file:
     /home/camp/zhonxu/pseudo/re_pbe_v1.uspp.F.UPF
     MD5 check sum: 6f5a5dcaf9c96c20d0ffdde0de57afc6
     Pseudo is Ultrasoft + core correction, Zval = 15.0
     Generated by new atomic code, or converted to UPF format
     Using radial grid of  981 points,  8 beta functions with:
                l(1) =   0
                l(2) =   0
                l(3) =   1
                l(4) =   1
                l(5) =   2
                l(6) =   2
                l(7) =   3
                l(8) =   3
     Q(r) pseudized with  8 coefficients,  rinner =    1.000   1.000   1.000
                                                       1.000   1.000   1.000
                                                       1.000

     PseudoPot. # 3 for H  read from file:
     /home/camp/zhonxu/pseudo/h_pbe_v1.uspp.F.UPF
     MD5 check sum: 3408e3ff4ec8b0a4e358431e7e038a48
     Pseudo is Ultrasoft, Zval =  1.0
     Generated by new atomic code, or converted to UPF format
     Using radial grid of  615 points,  2 beta functions with:
                l(1) =   0
                l(2) =   0
     Q(r) pseudized with  8 coefficients,  rinner =    0.700

     atomic species   valence    mass     pseudopotential
        O0             6.00    15.99940     O ( 1.00)
        Re1           15.00   186.20700     Re( 1.00)
        H2             1.00     1.00794     H ( 1.00)

     Simplified LDA+U calculation (l_max = 2) with parameters (eV):
     atomic species    L          U    alpha       J0     beta
        Re1            2     2.5000   0.0000   0.0000   0.0000

     No symmetry found

   Cartesian axes

     site n.     atom                  positions (alat units)
         1           O0  tau(   1) = (   0.0000000   0.0000000   1.8623194  )
         2           O0  tau(   2) = (   0.0000000   0.6530184   1.9253370  )
         3           Re1 tau(   3) = (   0.2500000   0.6530184   2.2271768  )
         4           Re1 tau(   4) = (   0.0000000   0.0000000   2.2287384  )
         5           O0  tau(   5) = (   0.2500000   1.0187087   2.2217869  )
         6           O0  tau(   6) = (   0.2500000   0.2873281   2.2210816  )
         7           O0  tau(   7) = (   0.0000000   0.6530184   2.5071544  )
         8           O0  tau(   8) = (   0.0000000   0.0000000   2.5894652  )
         9           Re1 tau(   9) = (   0.2500000   0.0000000   2.8894412  )
        10           Re1 tau(  10) = (   0.0000000   0.6530184   2.8583102  )
        11           O0  tau(  11) = (   0.2500000   0.9403465   2.8756892  )
        12           O0  tau(  12) = (   0.2500000   0.3656903   2.8872751  )
        13           O0  tau(  13) = (   0.0000000   0.0000000   3.1516368  )
        14           O0  tau(  14) = (   0.5000000   0.0000000   1.8624705  )
        15           O0  tau(  15) = (   0.5000000   0.6530184   1.9269994  )
        16           Re1 tau(  16) = (   0.7500000   0.6530184   2.2271768  )
        17           Re1 tau(  17) = (   0.5000000   0.0000000   2.2274287  )
        18           O0  tau(  18) = (   0.7500000   1.0187087   2.2214342  )
        19           O0  tau(  19) = (   0.7500000   0.2873281   2.2214846  )
        20           O0  tau(  20) = (   0.5000000   0.6530184   2.5086153  )
        21           O0  tau(  21) = (   0.5000000   0.0000000   2.5899690  )
        22           Re1 tau(  22) = (   0.7500000   0.0000000   2.8888367  )
        23           Re1 tau(  23) = (   0.5000000   0.6530184   2.9018835  )
        24           O0  tau(  24) = (   0.7500000   0.9403465   2.8756892  )
        25           O0  tau(  25) = (   0.7500000   0.3656903   2.8872248  )
        26           O0  tau(  26) = (   0.5000000   0.0000000   3.1466498  )
        27           H2  tau(  27) = (  -0.0002100   0.8169913   1.8417165  )
        28           H2  tau(  28) = (   0.4996400   0.8147057   1.8388956  )
        29           H2  tau(  29) = (   0.1678400   0.0328729   1.7887233  )
        30           H2  tau(  30) = (   0.6697500   0.0291246   1.7904864  )
        31           O0  tau(  31) = (   0.4996300   0.6876806   3.2307741  )
        32           O0  tau(  32) = (   0.5002900   0.4188329   3.4291461  )
        33           H2  tau(  33) = (   0.4999500   0.5176477   3.5843478  )

     number of k points=    10  Methfessel-Paxton smearing, width (Ry)=  0.0100
                       cart. coord. in units 2pi/alat
        k(    1) = (   0.0000000   0.0000000   0.0000000), wk =   0.1250000
        k(    2) = (   0.0000000   0.1914188   0.0000000), wk =   0.2500000
        k(    3) = (   0.0000000  -0.3828376   0.0000000), wk =   0.1250000
        k(    4) = (   0.2500000   0.0000000   0.0000000), wk =   0.2500000
        k(    5) = (   0.2500000   0.1914188   0.0000000), wk =   0.2500000
        k(    6) = (   0.2500000  -0.3828376   0.0000000), wk =   0.2500000
        k(    7) = (  -0.5000000   0.0000000   0.0000000), wk =   0.1250000
        k(    8) = (  -0.5000000   0.1914188   0.0000000), wk =   0.2500000
        k(    9) = (  -0.5000000  -0.3828376   0.0000000), wk =   0.1250000
        k(   10) = (  -0.2500000   0.1914188   0.0000000), wk =   0.2500000

     Largest allocated arrays     est. size (Mb)     dimensions
     Largest temporary arrays     est. size (Mb)     dimensions

     Check: negative/imaginary core charge=   -0.000003    0.000000

     Initial potential from superposition of free atoms
     Check: negative starting charge=   -0.236968

     starting charge  240.99957, renormalised to  245.00000

     negative rho (up, down):  0.241E+00 0.000E+00
     Number of +U iterations with fixed ns =  0
     Starting occupations:
 --- enter write_ns ---
 LDA+U parameters:
U( 2)     =  2.50000000
alpha( 2) =  0.00000000
atom    3   Tr[ns(na)] =   5.00000
    eigenvalues:
  0.500  0.500  0.500  0.500  0.500
    eigenvectors:
  1.000  0.000  0.000  0.000  0.000
  0.000  1.000  0.000  0.000  0.000
  0.000  0.000  1.000  0.000  0.000
  0.000  0.000  0.000  1.000  0.000
  0.000  0.000  0.000  0.000  1.000
    occupations:
  0.500  0.000  0.000  0.000  0.000
  0.000  0.500  0.000  0.000  0.000
  0.000  0.000  0.500  0.000  0.000
  0.000  0.000  0.000  0.500  0.000
  0.000  0.000  0.000  0.000  0.500
atom    4   Tr[ns(na)] =   5.00000
    eigenvalues:
  0.500  0.500  0.500  0.500  0.500
    eigenvectors:
  1.000  0.000  0.000  0.000  0.000
  0.000  1.000  0.000  0.000  0.000
  0.000  0.000  1.000  0.000  0.000
  0.000  0.000  0.000  1.000  0.000
  0.000  0.000  0.000  0.000  1.000
    occupations:
  0.500  0.000  0.000  0.000  0.000
  0.000  0.500  0.000  0.000  0.000
  0.000  0.000  0.500  0.000  0.000
  0.000  0.000  0.000  0.500  0.000
  0.000  0.000  0.000  0.000  0.500
atom    9   Tr[ns(na)] =   5.00000
    eigenvalues:
  0.500  0.500  0.500  0.500  0.500
    eigenvectors:
  1.000  0.000  0.000  0.000  0.000
  0.000  1.000  0.000  0.000  0.000
  0.000  0.000  1.000  0.000  0.000
  0.000  0.000  0.000  1.000  0.000
  0.000  0.000  0.000  0.000  1.000
    occupations:
  0.500  0.000  0.000  0.000  0.000
  0.000  0.500  0.000  0.000  0.000
  0.000  0.000  0.500  0.000  0.000
  0.000  0.000  0.000  0.500  0.000
  0.000  0.000  0.000  0.000  0.500
atom   10   Tr[ns(na)] =   5.00000
    eigenvalues:
  0.500  0.500  0.500  0.500  0.500
    eigenvectors:
  1.000  0.000  0.000  0.000  0.000
  0.000  1.000  0.000  0.000  0.000
  0.000  0.000  1.000  0.000  0.000
  0.000  0.000  0.000  1.000  0.000
  0.000  0.000  0.000  0.000  1.000
    occupations:
  0.500  0.000  0.000  0.000  0.000
  0.000  0.500  0.000  0.000  0.000
  0.000  0.000  0.500  0.000  0.000
  0.000  0.000  0.000  0.500  0.000
  0.000  0.000  0.000  0.000  0.500
atom   16   Tr[ns(na)] =   5.00000
    eigenvalues:
  0.500  0.500  0.500  0.500  0.500
    eigenvectors:
  1.000  0.000  0.000  0.000  0.000
  0.000  1.000  0.000  0.000  0.000
  0.000  0.000  1.000  0.000  0.000
  0.000  0.000  0.000  1.000  0.000
  0.000  0.000  0.000  0.000  1.000
    occupations:
  0.500  0.000  0.000  0.000  0.000
  0.000  0.500  0.000  0.000  0.000
  0.000  0.000  0.500  0.000  0.000
  0.000  0.000  0.000  0.500  0.000
  0.000  0.000  0.000  0.000  0.500
atom   17   Tr[ns(na)] =   5.00000
    eigenvalues:
  0.500  0.500  0.500  0.500  0.500
    eigenvectors:
  1.000  0.000  0.000  0.000  0.000
  0.000  1.000  0.000  0.000  0.000
  0.000  0.000  1.000  0.000  0.000
  0.000  0.000  0.000  1.000  0.000
  0.000  0.000  0.000  0.000  1.000
    occupations:
  0.500  0.000  0.000  0.000  0.000
  0.000  0.500  0.000  0.000  0.000
  0.000  0.000  0.500  0.000  0.000
  0.000  0.000  0.000  0.500  0.000
  0.000  0.000  0.000  0.000  0.500
atom   22   Tr[ns(na)] =   5.00000
    eigenvalues:
  0.500  0.500  0.500  0.500  0.500
[...]
  0.000  1.000  0.000  0.000  0.000
    occupations:
  0.482  0.000 -0.002 -0.009  0.000
  0.000  0.841  0.002 -0.000 -0.003
 -0.002  0.002  0.655  0.006 -0.000
 -0.009 -0.000  0.006  0.742 -0.000
  0.000 -0.003 -0.000 -0.000  0.541
atom   16   Tr[ns(na)] =   6.55780
    eigenvalues:
  0.545  0.573  0.608  0.767  0.786
    eigenvectors:
  0.007  0.342  0.001  0.645  0.006
  0.988  0.010  0.000  0.001  0.001
  0.000  0.001  0.980  0.004  0.015
  0.004  0.647  0.006  0.340  0.003
  0.001  0.000  0.013  0.010  0.976
    occupations:
  0.699  0.007  0.011 -0.092  0.000
  0.007  0.546 -0.000 -0.002 -0.007
  0.011 -0.000  0.611 -0.006 -0.020
 -0.092 -0.002 -0.006  0.640  0.001
  0.000 -0.007 -0.020  0.001  0.783
atom   17   Tr[ns(na)] =   6.53839
    eigenvalues:
  0.566  0.604  0.612  0.709  0.777
    eigenvectors:
  0.000  0.986  0.001  0.001  0.012
  0.000  0.001  0.005  0.994  0.000
  0.000  0.001  0.994  0.005  0.000
  0.000  0.012  0.000  0.000  0.988
  1.000  0.000  0.000  0.000  0.000
    occupations:
  0.606  0.003  0.000 -0.019  0.001
  0.003  0.709  0.007 -0.000 -0.001
  0.000  0.007  0.613  0.001 -0.000
 -0.019 -0.000  0.001  0.774 -0.000
  0.001 -0.001 -0.000 -0.000  0.566
atom   22   Tr[ns(na)] =   6.54194
    eigenvalues:
  0.596  0.607  0.611  0.713  0.744
    eigenvectors:
  0.255  0.001  0.001  0.006  0.737
  0.000  0.899  0.101  0.000  0.000
  0.007  0.094  0.841  0.057  0.000
  0.737  0.001  0.004  0.002  0.255
  0.000  0.005  0.052  0.935  0.007
    occupations:
  0.706 -0.001  0.000 -0.065  0.002
 -0.001  0.608  0.001  0.001  0.000
  0.000  0.001  0.616 -0.001  0.024
 -0.065  0.001 -0.001  0.634 -0.001
  0.002  0.000  0.024 -0.001  0.707
atom   23   Tr[ns(na)] =   6.59267
    eigenvalues:
  0.554  0.578  0.603  0.773  0.788
    eigenvectors:
  0.000  0.000  0.965  0.005  0.030
  0.031  0.969  0.000  0.000  0.000
  0.000  0.000  0.005  0.514  0.481
  0.000  0.000  0.031  0.481  0.489
  0.969  0.031  0.000  0.000  0.000
    occupations:
  0.610  0.000 -0.014 -0.031 -0.000
  0.000  0.577 -0.003 -0.001 -0.004
 -0.014 -0.003  0.779  0.005  0.000
 -0.031 -0.001  0.005  0.775  0.000
 -0.000 -0.004  0.000  0.000  0.554
N of occupied +U levels =  52.3950418
 --- exit write_ns ---

[...]

     total energy              =   -2206.96883751 Ry
     Harris-Foulkes estimate   =   -2206.96883751 Ry
     estimated scf accuracy    <       0.00000002 Ry

     iteration # 17     ecut=    40.00 Ry     beta=0.70
     Davidson diagonalization with overlap
     ethr =  4.82E-12,  avg # of iterations =  1.0

     negative rho (up, down):  0.244E+00 0.000E+00

     End of self-consistent calculation
 --- enter write_ns ---
 LDA+U parameters:
U( 2)     =  2.50000000
alpha( 2) =  0.00000000
atom    3   Tr[ns(na)] =   6.55625
    eigenvalues:
  0.545  0.573  0.607  0.767  0.786
    eigenvectors:
  0.007  0.341  0.002  0.646  0.005
  0.988  0.010  0.000  0.001  0.001
  0.000  0.001  0.979  0.004  0.016
  0.004  0.648  0.005  0.340  0.003
  0.001  0.000  0.014  0.009  0.976
    occupations:
  0.699 -0.007  0.011 -0.092 -0.000
 -0.007  0.546  0.000  0.002 -0.007
  0.011  0.000  0.610 -0.006  0.021
 -0.092  0.002 -0.006  0.640 -0.000
 -0.000 -0.007  0.021 -0.000  0.783
atom    4   Tr[ns(na)] =   6.54136
    eigenvalues:
  0.566  0.606  0.625  0.697  0.778
    eigenvectors:
  0.000  0.984  0.000  0.001  0.015
  0.000  0.001  0.013  0.986  0.000
  0.000  0.000  0.987  0.013  0.000
  0.000  0.015  0.000  0.000  0.985
  1.000  0.000  0.000  0.000  0.000
    occupations:
  0.608  0.003  0.000 -0.021  0.001
  0.003  0.696  0.008 -0.000 -0.002
  0.000  0.008  0.626  0.000 -0.000
 -0.021 -0.000  0.000  0.775 -0.000
  0.001 -0.002 -0.000 -0.000  0.566
atom    9   Tr[ns(na)] =   6.53855
    eigenvalues:
  0.596  0.609  0.612  0.712  0.740
    eigenvectors:
  0.254  0.000  0.001  0.007  0.738
  0.000  0.949  0.051  0.000  0.000
  0.005  0.049  0.889  0.057  0.000
  0.741  0.000  0.004  0.002  0.253
  0.000  0.002  0.054  0.935  0.008
    occupations:
  0.703  0.002 -0.001 -0.063  0.002
  0.002  0.609 -0.001 -0.001  0.000
 -0.001 -0.001  0.617 -0.001 -0.023
 -0.063 -0.001 -0.001  0.633 -0.002
  0.002  0.000 -0.023 -0.002  0.706
atom   10   Tr[ns(na)] =   6.52180
    eigenvalues:
  0.482  0.541  0.654  0.743  0.841
    eigenvectors:
  0.999  0.000  0.000  0.001  0.000
  0.000  0.000  0.000  0.000  1.000
  0.000  0.000  0.995  0.005  0.000
  0.001  0.000  0.005  0.994  0.000
  0.000  1.000  0.000  0.000  0.000
    occupations:
  0.482  0.000 -0.002 -0.009  0.000
  0.000  0.841  0.002 -0.000 -0.003
 -0.002  0.002  0.654  0.006 -0.000
 -0.009 -0.000  0.006  0.742 -0.000
  0.000 -0.003 -0.000 -0.000  0.541
atom   16   Tr[ns(na)] =   6.55623
    eigenvalues:
  0.545  0.573  0.608  0.767  0.785
    eigenvectors:
  0.007  0.342  0.001  0.645  0.006
  0.988  0.010  0.000  0.001  0.001
  0.000  0.001  0.980  0.004  0.015
  0.004  0.647  0.006  0.340  0.003
  0.001  0.000  0.013  0.010  0.976
    occupations:
  0.699  0.007  0.011 -0.092  0.000
  0.007  0.546 -0.000 -0.002 -0.007
  0.011 -0.000  0.611 -0.006 -0.020
 -0.092 -0.002 -0.006  0.640  0.001
  0.000 -0.007 -0.020  0.001  0.783
atom   17   Tr[ns(na)] =   6.53797
    eigenvalues:
  0.566  0.604  0.613  0.709  0.776
    eigenvectors:
  0.000  0.986  0.001  0.001  0.012
  0.000  0.001  0.005  0.994  0.000
  0.000  0.001  0.994  0.005  0.000
  0.000  0.012  0.000  0.000  0.988
  1.000  0.000  0.000  0.000  0.000
    occupations:
  0.606  0.003  0.000 -0.019  0.001
  0.003  0.709  0.007 -0.000 -0.001
  0.000  0.007  0.613  0.001 -0.000
 -0.019 -0.000  0.001  0.774 -0.000
  0.001 -0.001 -0.000 -0.000  0.566
atom   22   Tr[ns(na)] =   6.54074
    eigenvalues:
  0.596  0.607  0.611  0.713  0.744
    eigenvectors:
  0.255  0.001  0.001  0.006  0.737
  0.000  0.889  0.110  0.000  0.000
  0.007  0.103  0.833  0.057  0.001
  0.737  0.001  0.004  0.002  0.255
  0.000  0.006  0.052  0.935  0.007
    occupations:
  0.706 -0.001  0.000 -0.065  0.002
 -0.001  0.608  0.001  0.001  0.000
  0.000  0.001  0.616 -0.001  0.024
 -0.065  0.001 -0.001  0.634 -0.001
  0.002  0.000  0.024 -0.001  0.707
atom   23   Tr[ns(na)] =   6.58872
    eigenvalues:
  0.553  0.577  0.603  0.773  0.788
    eigenvectors:
  0.000  0.000  0.964  0.005  0.031
  0.032  0.967  0.000  0.000  0.000
  0.000  0.000  0.005  0.509  0.486
  0.000  0.000  0.031  0.486  0.483
  0.968  0.032  0.000  0.000  0.000
    occupations:
  0.610  0.000 -0.014 -0.031 -0.000
  0.000  0.576 -0.003 -0.001 -0.004
 -0.014 -0.003  0.779  0.005  0.000
 -0.031 -0.001  0.005  0.775  0.000
 -0.000 -0.004  0.000  0.000  0.554
N of occupied +U levels =  52.3816216
 --- exit write_ns ---

[...]

          k = 0.2500-0.3828 0.0000 ( 29202 PWs)   bands (ev):

[...]

          k =-0.2500 0.1914 0.0000 ( 29229 PWs)   bands (ev):

   -81.2282 -81.1819 -81.0436 -80.9982 -80.8537 -80.7440 -80.7051 -80.5669
   -43.3375 -43.2275 -43.1574 -43.1321 -43.0918 -43.0910 -43.0252 -43.0221
   -42.9586 -42.8747 -42.8518 -42.8030 -42.7779 -42.7653 -42.7200 -42.6829
   -42.6721 -42.6119 -42.5972 -42.5742 -42.5238 -42.4654 -42.2391 -42.1670
   -20.6793 -20.2863 -20.2359 -20.1620 -19.9806 -19.9556 -19.7987 -19.7464
   -19.6682 -19.5791 -19.4509 -19.3547 -19.2136 -19.1022 -19.0360 -18.9334
   -18.9226 -18.3341 -18.0922 -16.9715  -8.8784  -8.7173  -8.6328  -8.6050
    -8.5220  -8.2615  -8.2149  -8.2041  -7.8510  -7.7751  -7.7093  -7.5593
    -7.3884  -7.2884  -7.1460  -7.0384  -6.7536  -6.7314  -6.5631  -6.4955
    -6.4094  -6.2899  -6.0755  -5.9851  -5.7967  -5.7296  -5.6439  -5.5072
    -5.4269  -5.3347  -5.1676  -5.1373  -4.9517  -4.8740  -4.8266  -4.7469
    -4.6504  -4.6097  -4.5620  -4.4700  -4.3986  -4.2387  -4.1535  -3.9595
    -3.8405  -3.7325  -3.7088  -3.6377  -3.5815  -3.3904  -3.3208  -3.2179
    -3.1997  -3.0138  -2.9340  -2.7449  -2.6760  -2.5550  -2.2007  -1.9612
    -1.8350  -1.2807  -1.0343  -0.9194  -0.8558  -0.5784  -0.1370   0.0281
     0.2196   0.4472   0.5970   0.7959   0.8553   0.9187   1.1361   1.2241
     1.4102   1.5312   1.6246   1.7568   1.8612   2.0129   2.1236   2.4070
     2.7567   3.7294   3.7787   3.9100   3.9578   4.1491   4.2748   4.5109
     4.6298   4.6807   4.8908   5.0211   5.0981   5.3519   5.4011   5.7894
     5.9265   5.9874   6.2011   6.3485   6.5321   6.6458   6.7438   6.9298
     7.1148   7.2004   7.4327   7.5987   7.7848   7.8311   8.0335   8.1688
     8.3216   8.4546   8.6287   8.7003   8.7284   8.8152   9.0577   9.1279
     9.2190   9.4492   9.5341   9.6651   9.7455   9.8709   9.9213   9.9791
    10.0183  10.0809  10.1668  10.2450  10.3755  10.4474  10.5503  10.5655
    10.5918  10.7051  10.9226  11.0170  11.1485  11.1946  11.4019  11.4833
    11.5541  11.6038  11.7466  11.8238  11.9755  12.0656  12.2599  12.3669
    12.4809  12.5715  12.6382  12.6728  12.7384  12.8125  12.8942  12.9392
    13.0066  13.1144  13.2124  13.2594  13.4082  13.5025  13.5877  13.6895
    13.7458  13.8161  13.8966  13.9379  13.9864  14.0801  14.1338  14.1913
    14.2941  14.3491  14.4319  14.4411  14.5416  14.6200  14.6489  14.7225
    14.7592  14.8231  14.8798  14.9533  15.0010  15.0517  15.1054  15.1858
    15.2484  15.3451  15.4107  15.4767  15.6017  15.6757  15.7200  15.8745
    15.9781  16.0999  16.1416  16.2157  16.3092  16.3593  16.4424  16.4922
    16.5783  16.6800  16.7640  16.8174  16.8801  16.9926  17.0407  17.1639
    17.2019  17.2932  17.3494  17.3939  17.4646  17.5431  17.6077  17.7176
    17.7958  17.8332  17.9116  17.9778  18.0543  18.0943  18.1931  18.3059
    18.3552  18.4165  18.4770  18.5326  18.5907  18.6598  18.7123  18.7961
    18.8503  18.9420  19.0613  19.1027  19.1506  19.2220  19.3468  19.4455
    19.5447  19.5755  19.6670  19.7565  19.8411  19.9360  20.0166  20.0955
    20.1784  20.2888  20.3457  20.4264  20.4742  20.5651  20.6000  20.6871
    20.7389  20.8328  20.8749  20.8875  20.9201  21.0034  21.0895  21.1838
    21.2157  21.2749  21.3215  21.4074  21.5044  21.5761  21.5998  21.6965
    21.7312  21.8067  21.8676  21.9238  22.0098  22.0454  22.1158  22.1871
    22.2597  22.3123  22.3743  22.4020  22.4542  22.4989  22.5412  22.6061
    22.6880  22.7214  22.7844  22.8107  22.8449  22.9338  22.9610  23.0022
    23.1042  23.1386  23.1745  23.1988  23.2719  23.3378  23.3766

     the Fermi energy is     0.4727 ev

!    total energy              =   -2206.96883751 Ry
     Harris-Foulkes estimate   =   -2206.96883751 Ry
     estimated scf accuracy    <          2.9E-09 Ry

     The total energy is the sum of the following terms:

     one-electron contribution =  -24669.31398918 Ry
     hartree contribution      =   12355.81704340 Ry
     xc contribution           =    -601.98648036 Ry
     ewald contribution        =   10706.91460190 Ry
     Hubbard energy            =       1.60034360 Ry
     smearing contrib. (-TS)   =      -0.00035688 Ry

     convergence has been achieved in  17 iterations

     Forces acting on atoms (Ry/au):

     negative rho (up, down):  0.244E+00 0.000E+00
     atom    1 type  1   force =    -0.00502202   -0.00662993    0.00011070
     atom    2 type  1   force =     0.00004451    0.00429516   -0.00011103
     atom    3 type  2   force =     0.01840780   -0.00240470   -0.00020634
     atom    4 type  2   force =     0.00086426    0.00713400    0.00058817
     atom    5 type  1   force =     0.00301304    0.00582449    0.00006880
     atom    6 type  1   force =     0.00158176   -0.00680162    0.00001416
     atom    7 type  1   force =    -0.00035628   -0.00255393   -0.00034284
     atom    8 type  1   force =     0.00346399    0.00254609    0.00012439
     atom    9 type  2   force =    -0.03966524   -0.00394607    0.00009992
     atom   10 type  2   force =    -0.00012751    0.00205576   -0.00020886
     atom   11 type  1   force =    -0.02067197   -0.00353184   -0.00000028
     atom   12 type  1   force =    -0.01240357    0.01519081   -0.00048880
     atom   13 type  1   force =    -0.00011954   -0.00446434   -0.00004739
     atom   14 type  1   force =    -0.00300182   -0.00591195    0.00001562
     atom   15 type  1   force =    -0.00002784    0.00376863   -0.00051416
     atom   16 type  2   force =    -0.01818831   -0.00252215   -0.00019344
     atom   17 type  2   force =     0.00178529    0.00724422   -0.00020755
     atom   18 type  1   force =     0.00021483    0.00578520    0.00006435
     atom   19 type  1   force =    -0.00108879   -0.00667366    0.00002429
     atom   20 type  1   force =    -0.00051984    0.00078528    0.00034361
     atom   21 type  1   force =     0.00247703    0.00195601    0.00033081
     atom   22 type  2   force =     0.03600258   -0.00215367    0.00020546
     atom   23 type  2   force =     0.00070134   -0.00875208    0.00072660
     atom   24 type  1   force =     0.02035557   -0.00477223    0.00003972
     atom   25 type  1   force =     0.01229656    0.01453253   -0.00037682
     atom   26 type  1   force =    -0.00074455   -0.01179561   -0.00012026
     atom   27 type  3   force =     0.00000693    0.00020580    0.00012284
     atom   28 type  3   force =     0.00000133    0.00016443   -0.00022335
     atom   29 type  3   force =     0.00027678    0.00004932   -0.00041753
     atom   30 type  3   force =     0.00025457    0.00014982   -0.00031135
     atom   31 type  1   force =    -0.00011089    0.00040557    0.00073646
     atom   32 type  1   force =     0.00028007    0.00057439    0.00005765
     atom   33 type  3   force =     0.00001992    0.00024627    0.00009649

     Total force =     0.001981     Total SCF correction =     0.000219
     SCF correction compared to forces is large: reduce conv_thr to get better values

     entering subroutine stress ...

     negative rho (up, down):  0.244E+00 0.000E+00
          total   stress  (Ry/bohr**3)                   (kbar)     P=   -9.28
  -0.00006256  -0.00000015   0.00000224         -9.20     -0.02      0.33
  -0.00000015  -0.00008309  -0.00000750         -0.02    -12.22     -1.10
   0.00000224  -0.00000750  -0.00004355          0.33     -1.10     -6.41

     bfgs converged in  15 scf cycles and  14 bfgs steps
     (criteria: energy < 0.10E-03, force < 0.10E-02)

     End of BFGS Geometry Optimization

     Final energy   =   -2206.9688375087 Ry
Begin final coordinates

ATOMIC_POSITIONS (crystal)
O0       0.000000000   0.000000000   0.370424830    0   0   1
O0       0.000000000   0.500000000   0.382591490    0   0   1
Re1      0.250000000   0.500000000   0.442221690    0   0   1
Re1      0.000000000   0.000000000   0.442881591    0   0   1
O0       0.250000000   0.780000000   0.441398357    0   0   1
O0       0.250000000   0.220000000   0.441195653    0   0   1
O0       0.000000000   0.500000000   0.497748604    0   0   1
O0       0.000000000   0.000000000   0.513936989    0   0   1
Re1      0.250000000   0.000000000   0.573787352    0   0   1
Re1      0.000000000   0.500000000   0.567474415    0   0   1
O0       0.250000000   0.720000000   0.570970785    0   0   1
O0       0.250000000   0.280000000   0.573136794    0   0   1
O0       0.000000000   0.000000000   0.625806108    0   0   1
O0       0.500000000   0.000000000   0.370341047    0   0   1
O0       0.500000000   0.500000000   0.382646821    0   0   1
Re1      0.750000000   0.500000000   0.442215346    0   0   1
Re1      0.500000000   0.000000000   0.442536088    0   0   1
O0       0.750000000   0.780000000   0.441335248    0   0   1
O0       0.750000000   0.220000000   0.441300825    0   0   1
O0       0.500000000   0.500000000   0.498013941    0   0   1
O0       0.500000000   0.000000000   0.514182711    0   0   1
Re1      0.750000000   0.000000000   0.573587972    0   0   1
Re1      0.500000000   0.500000000   0.575120235    0   0   1
O0       0.750000000   0.720000000   0.570919317    0   0   1
O0       0.750000000   0.280000000   0.573098256    0   0   1
O0       0.500000000   0.000000000   0.624868880    0   0   1
H2      -0.000251913   0.624114115   0.365332210
H2       0.499566975   0.623927949   0.365270240
H2       0.168291279   0.024758019   0.355910456
H2       0.670122528   0.021773411   0.356159665
O0       0.499206493   0.525720908   0.641189818
O0       0.501611796   0.329126582   0.677845454
H2       0.499887057   0.400950707   0.709280812
End final coordinates

     General routines

     Parallel routines
     Hubbard U routines

   This run was terminated on:  14:43:31   2Jun2014

   JOB DONE.
Running PBS batch system epilogue script
Job id: 373380.audhumbla.fysik.dtu.dk
Username: zhonxu
Groupname: campgst
Jobname: ReO2/Eads-2-layers/OOH-U-2.5
Sessionid: 17079
Queuename: verylong
Accounting:
This job has allocated the following 16 nodes:
a038 a038 a038 a038 a038 a038 a038 a038 a030 a030 a030 a030 a030 a030 a030 a030
Finished epilogue job 373380.audhumbla.fysik.dtu.dk for zhonxu