     Program PWSCF v.5.0.2 (svn rev. 9656) starts on  6May2014 at  9:20:13

     Current dimensions of program PWSCF are:
     Max number of different atomic species (ntypx) = 10
     Max number of k-points (npk) =  40000
     Max angular momentum in pseudopotentials (lmaxx) =  3
     Reading input from pwscf.in
Warning: card &CELL ignored
Warning: card / ignored

     Subspace diagonalization in iterative solution of the eigenvalue problem:
     a serial algorithm will be used

     Found symmetry operation: I + ( -0.5000  0.0000  0.0000)
     This is a supercell, fractional translations are disabled

     bravais-lattice index     =            0
     lattice parameter (alat)  =      12.2076  a.u.
     unit-cell volume          =    7496.5096 (a.u.)^3
     number of atoms/cell      =           30
     number of atomic types    =            3
     number of electrons       =       240.00
     number of Kohn-Sham states=          360
     kinetic-energy cutoff     =      40.0000  Ry
     charge density cutoff     =     500.0000  Ry
     convergence threshold     =      1.0E-06
     mixing beta               =       0.7000
     number of iterations used =            8  plain     mixing
     Exchange-correlation      = SLA  PW   PBE  PBE ( 1 4 3 4 0)
     EXX-fraction              =        0.00
     nstep                     =           50

     celldm(1)=  12.207631  celldm(2)=   0.000000  celldm(3)=   0.000000
     celldm(4)=   0.000000  celldm(5)=   0.000000  celldm(6)=   0.000000

     crystal axes: (cart. coord. in units of alat)
               a(1) = (   1.000000   0.000000   0.000000 )
               a(2) = (   0.000000   1.004836   0.000000 )
               a(3) = (   0.000000   0.000000   4.100811 )

     reciprocal axes: (cart. coord. in units 2 pi/alat)
               b(1) = (  1.000000  0.000000  0.000000 )
               b(2) = (  0.000000  0.995187  0.000000 )
               b(3) = (  0.000000  0.000000  0.243854 )

     PseudoPot. # 1 for O  read from file:
     /home/camp/zhonxu/pseudo/o_pbe_v1.01.uspp.F.UPF
     MD5 check sum: 2bcb18d16ea4b960afae9ec6d52f22d2
     Pseudo is Ultrasoft + core correction, Zval =  6.0
     Generated by new atomic code, or converted to UPF format
     Using radial grid of  737 points,  5 beta functions with:
                l(1) =   0
                l(2) =   0
                l(3) =   1
                l(4) =   1
                l(5) =   2
     Q(r) pseudized with  8 coefficients,  rinner =    0.900   0.900   0.900
                                                       0.900   0.900

     PseudoPot. # 2 for Pt read from file:
     /home/camp/zhonxu/pseudo/pt_pbe_v1.uspp.F.UPF
     MD5 check sum: 4c71d6ad5ef119f1eb26a4d0b7884226
     Pseudo is Ultrasoft + core correction, Zval = 16.0
     Generated by new atomic code, or converted to UPF format
     Using radial grid of  985 points,  6 beta functions with:
                l(1) =   0
                l(2) =   0
                l(3) =   1
                l(4) =   1
                l(5) =   2
                l(6) =   2
     Q(r) pseudized with  8 coefficients,  rinner =    1.300   1.300   1.300
                                                       1.300   1.300

     PseudoPot. # 3 for H  read from file:
     /home/camp/zhonxu/pseudo/h_pbe_v1.uspp.F.UPF
     MD5 check sum: 3408e3ff4ec8b0a4e358431e7e038a48
     Pseudo is Ultrasoft, Zval =  1.0
     Generated by new atomic code, or converted to UPF format
     Using radial grid of  615 points,  2 beta functions with:
                l(1) =   0
                l(2) =   0
     Q(r) pseudized with  8 coefficients,  rinner =    0.700

     atomic species   valence    mass     pseudopotential
        O0             6.00    15.99940     O ( 1.00)
        Pt1           16.00   195.08000     Pt( 1.00)
        H2             1.00     1.00794     H ( 1.00)

     Simplified LDA+U calculation (l_max = 2) with parameters (eV):
     atomic species    L          U    alpha       J0     beta
        Pt1            2     4.0000   0.0000   0.0000   0.0000

     No symmetry found

   Cartesian axes

     site n.     atom                  positions (alat units)
         1           O0  tau(   1) = (   0.0000000   0.0000000   1.5457188  )
         2           O0  tau(   2) = (   0.0000000   0.5024180   1.6369208  )
         3           Pt1 tau(   3) = (   0.2500000   0.5024180   1.8413872  )
         4           Pt1 tau(   4) = (   0.0000000   0.0000000   1.8534436  )
         5           O0  tau(   5) = (   0.2500000   0.8139171   1.8157162  )
         6           O0  tau(   6) = (   0.2500000   0.1909188   1.8824364  )
         7           O0  tau(   7) = (   0.0000000   0.5024180   2.0315829  )
         8           O0  tau(   8) = (   0.0000000   0.0000000   2.1708464  )
         9           Pt1 tau(   9) = (   0.2500000   0.0000000   2.3625593  )
        10           Pt1 tau(  10) = (   0.0000000   0.5024180   2.3549318  )
        11           O0  tau(  11) = (   0.2500000   0.6933368   2.3911010  )
        12           O0  tau(  12) = (   0.2500000   0.3114991   2.3934384  )
        13           O0  tau(  13) = (   0.0000000   0.0000000   2.5491052  )
        14           O0  tau(  14) = (   0.5000000   0.0000000   1.5457188  )
        15           O0  tau(  15) = (   0.5000000   0.5024180   1.6369208  )
        16           Pt1 tau(  16) = (   0.7500000   0.5024180   1.8413872  )
        17           Pt1 tau(  17) = (   0.5000000   0.0000000   1.8534436  )
        18           O0  tau(  18) = (   0.7500000   0.8139171   1.8157162  )
        19           O0  tau(  19) = (   0.7500000   0.1909188   1.8824364  )
        20           O0  tau(  20) = (   0.5000000   0.5024180   2.0315829  )
        21           O0  tau(  21) = (   0.5000000   0.0000000   2.1708464  )
        22           Pt1 tau(  22) = (   0.7500000   0.0000000   2.3625593  )
        23           Pt1 tau(  23) = (   0.5000000   0.5024180   2.3549318  )
        24           O0  tau(  24) = (   0.7500000   0.6933368   2.3911010  )
        25           O0  tau(  25) = (   0.7500000   0.3114991   2.3934384  )
        26           O0  tau(  26) = (   0.5000000   0.0000000   2.5491052  )
        27           H2  tau(  27) = (  -0.0000500   0.6431553   1.5728661  )
        28           H2  tau(  28) = (   0.4999500   0.6431553   1.5728661  )
        29           H2  tau(  29) = (   0.1440700   0.0315318   1.5048747  )
        30           H2  tau(  30) = (   0.6440700   0.0315318   1.5048747  )

     number of k points=    10  Methfessel-Paxton smearing, width (Ry)=  0.0100
                       cart. coord. in units 2pi/alat
        k(    1) = (   0.0000000   0.0000000   0.0000000), wk =   0.1250000
        k(    2) = (   0.0000000   0.2487968   0.0000000), wk =   0.2500000
        k(    3) = (   0.0000000  -0.4975937   0.0000000), wk =   0.1250000
        k(    4) = (   0.2500000   0.0000000   0.0000000), wk =   0.2500000
        k(    5) = (   0.2500000   0.2487968   0.0000000), wk =   0.2500000
        k(    6) = (   0.2500000  -0.4975937   0.0000000), wk =   0.2500000
        k(    7) = (  -0.5000000   0.0000000   0.0000000), wk =   0.1250000
        k(    8) = (  -0.5000000   0.2487968   0.0000000), wk =   0.2500000
        k(    9) = (  -0.5000000  -0.4975937   0.0000000), wk =   0.1250000
        k(   10) = (  -0.2500000   0.2487968   0.0000000), wk =   0.2500000

     Largest allocated arrays     est. size (Mb)     dimensions
     Largest temporary arrays     est. size (Mb)     dimensions

     Check: negative/imaginary core charge=   -0.000003    0.000000

     Initial potential from superposition of free atoms
     Check: negative starting charge=   -1.537272

     starting charge  235.99985, renormalised to  240.00000

     negative rho (up, down):  0.156E+01 0.000E+00
     Number of +U iterations with fixed ns =  0
     Starting occupations:
 --- enter write_ns ---
 LDA+U parameters:
U( 2)     =  4.00000000
alpha( 2) =  0.00000000
atom    3   Tr[ns(na)] =   8.00000
    eigenvalues:
  0.800  0.800  0.800  0.800  0.800
    eigenvectors:
  1.000  0.000  0.000  0.000  0.000
  0.000  1.000  0.000  0.000  0.000
  0.000  0.000  1.000  0.000  0.000
  0.000  0.000  0.000  1.000  0.000
  0.000  0.000  0.000  0.000  1.000
    occupations:
  0.800  0.000  0.000  0.000  0.000
  0.000  0.800  0.000  0.000  0.000
  0.000  0.000  0.800  0.000  0.000
  0.000  0.000  0.000  0.800  0.000
  0.000  0.000  0.000  0.000  0.800
atom    4   Tr[ns(na)] =   8.00000
    eigenvalues:
  0.800  0.800  0.800  0.800  0.800
    eigenvectors:
  1.000  0.000  0.000  0.000  0.000
  0.000  1.000  0.000  0.000  0.000
  0.000  0.000  1.000  0.000  0.000
  0.000  0.000  0.000  1.000  0.000
  0.000  0.000  0.000  0.000  1.000
    occupations:
  0.800  0.000  0.000  0.000  0.000
  0.000  0.800  0.000  0.000  0.000
  0.000  0.000  0.800  0.000  0.000
  0.000  0.000  0.000  0.800  0.000
  0.000  0.000  0.000  0.000  0.800
atom    9   Tr[ns(na)] =   8.00000
    eigenvalues:
  0.800  0.800  0.800  0.800  0.800
    eigenvectors:
  1.000  0.000  0.000  0.000  0.000
  0.000  1.000  0.000  0.000  0.000
  0.000  0.000  1.000  0.000  0.000
  0.000  0.000  0.000  1.000  0.000
  0.000  0.000  0.000  0.000  1.000
    occupations:
  0.800  0.000  0.000  0.000  0.000
  0.000  0.800  0.000  0.000  0.000
  0.000  0.000  0.800  0.000  0.000
  0.000  0.000  0.000  0.800  0.000
  0.000  0.000  0.000  0.000  0.800
atom   10   Tr[ns(na)] =   8.00000
    eigenvalues:
  0.800  0.800  0.800  0.800  0.800
    eigenvectors:
  1.000  0.000  0.000  0.000  0.000
  0.000  1.000  0.000  0.000  0.000
  0.000  0.000  1.000  0.000  0.000
  0.000  0.000  0.000  1.000  0.000
  0.000  0.000  0.000  0.000  1.000
    occupations:
  0.800  0.000  0.000  0.000  0.000
  0.000  0.800  0.000  0.000  0.000
  0.000  0.000  0.800  0.000  0.000
  0.000  0.000  0.000  0.800  0.000
  0.000  0.000  0.000  0.000  0.800
atom   16   Tr[ns(na)] =   8.00000
    eigenvalues:
  0.800  0.800  0.800  0.800  0.800
    eigenvectors:
  1.000  0.000  0.000  0.000  0.000
  0.000  1.000  0.000  0.000  0.000
  0.000  0.000  1.000  0.000  0.000
  0.000  0.000  0.000  1.000  0.000
  0.000  0.000  0.000  0.000  1.000
    occupations:
  0.800  0.000  0.000  0.000  0.000
  0.000  0.800  0.000  0.000  0.000
  0.000  0.000  0.800  0.000  0.000
  0.000  0.000  0.000  0.800  0.000
  0.000  0.000  0.000  0.000  0.800
atom   17   Tr[ns(na)] =   8.00000
    eigenvalues:
  0.800  0.800  0.800  0.800  0.800
    eigenvectors:
  1.000  0.000  0.000  0.000  0.000
  0.000  1.000  0.000  0.000  0.000
  0.000  0.000  1.000  0.000  0.000
  0.000  0.000  0.000  1.000  0.000
  0.000  0.000  0.000  0.000  1.000
    occupations:
  0.800  0.000  0.000  0.000  0.000
  0.000  0.800  0.000  0.000  0.000
  0.000  0.000  0.800  0.000  0.000
  0.000  0.000  0.000  0.800  0.000
  0.000  0.000  0.000  0.000  0.800
atom   22   Tr[ns(na)] =   8.00000
    eigenvalues:
  0.800  0.800  0.800  0.800  0.800
    eigenvectors:
  1.000  0.000  0.000  0.000  0.000
  0.000  1.000  0.000  0.000  0.000
  0.000  0.000  1.000  0.000  0.000
  0.000  0.000  0.000  1.000  0.000
  0.000  0.000  0.000  0.000  1.000
    occupations:
[...]
atom    9   Tr[ns(na)] =   8.70227
    eigenvalues:
  0.716  0.723  0.960  0.965  0.987
    eigenvectors:
  0.001  0.142  0.000  0.000  0.857
  0.996  0.004  0.000  0.000  0.000
  0.000  0.000  0.000  1.000  0.000
  0.003  0.854  0.000  0.000  0.143
  0.000  0.000  1.000  0.000  0.000
    occupations:
  0.949  0.000 -0.000 -0.092  0.000
  0.000  0.716  0.000  0.000 -0.000
 -0.000  0.000  0.965 -0.001 -0.000
 -0.092  0.000 -0.001  0.761  0.000
  0.000 -0.000 -0.000  0.000  0.960
atom   10   Tr[ns(na)] =   8.77591
    eigenvalues:
  0.662  0.783  0.970  0.987  0.987
    eigenvectors:
  0.000  0.980  0.000  0.015  0.005
  0.000  0.000  1.000  0.000  0.000
  0.000  0.000  0.000  0.219  0.781
  0.000  0.020  0.000  0.766  0.214
  1.000  0.000  0.000  0.000  0.000
    occupations:
  0.787  0.000  0.001  0.028  0.000
  0.000  0.970 -0.000  0.000 -0.001
  0.001 -0.000  0.987 -0.000 -0.000
  0.028  0.000 -0.000  0.982 -0.000
  0.000 -0.001 -0.000 -0.000  0.662
atom   16   Tr[ns(na)] =   8.74500
    eigenvalues:
  0.700  0.710  0.984  0.987  0.990
    eigenvectors:
  0.177  0.000  0.783  0.000  0.040
  0.000  1.000  0.000  0.000  0.000
  0.004  0.000  0.061  0.000  0.935
  0.820  0.000  0.156  0.000  0.025
  0.000  0.000  0.000  1.000  0.000
    occupations:
  0.934 -0.000  0.006 -0.108  0.000
 -0.000  0.710  0.000  0.000 -0.001
  0.006  0.000  0.989  0.016 -0.000
 -0.108  0.000  0.016  0.752  0.000
  0.000 -0.001 -0.000  0.000  0.987
atom   17   Tr[ns(na)] =   8.72184
    eigenvalues:
  0.691  0.714  0.983  0.986  0.987
    eigenvectors:
  0.000  0.986  0.010  0.002  0.002
  0.010  0.000  0.029  0.934  0.026
  0.000  0.004  0.752  0.005  0.239
  0.000  0.009  0.209  0.049  0.733
  0.989  0.000  0.000  0.010  0.000
    occupations:
  0.718 -0.005 -0.018  0.026 -0.001
 -0.005  0.983  0.000  0.000  0.030
 -0.018  0.000  0.983  0.004  0.000
  0.026  0.000  0.004  0.984  0.000
 -0.001  0.030  0.000  0.000  0.694
atom   22   Tr[ns(na)] =   8.70227
    eigenvalues:
  0.716  0.723  0.960  0.965  0.987
    eigenvectors:
  0.001  0.142  0.000  0.000  0.857
  0.996  0.004  0.000  0.000  0.000
  0.000  0.000  0.000  1.000  0.000
  0.003  0.854  0.000  0.000  0.143
  0.000  0.000  1.000  0.000  0.000
    occupations:
  0.949  0.000 -0.000 -0.092  0.000
  0.000  0.716  0.000  0.000 -0.000
 -0.000  0.000  0.965 -0.001 -0.000
 -0.092  0.000 -0.001  0.761  0.000
  0.000 -0.000 -0.000  0.000  0.960
atom   23   Tr[ns(na)] =   8.77581
    eigenvalues:
  0.662  0.783  0.970  0.987  0.987
    eigenvectors:
  0.000  0.980  0.000  0.015  0.005
  0.000  0.000  1.000  0.000  0.000
  0.000  0.000  0.000  0.222  0.778
  0.000  0.020  0.000  0.764  0.216
  1.000  0.000  0.000  0.000  0.000
    occupations:
  0.787  0.000  0.001  0.028  0.000
  0.000  0.970 -0.000  0.000 -0.001
  0.001 -0.000  0.987 -0.000 -0.000
  0.028  0.000 -0.000  0.982 -0.000
  0.000 -0.001 -0.000 -0.000  0.662
N of occupied +U levels =  69.8899510
 --- exit write_ns ---

     Threshold (ethr) on eigenvalues was too large:
     Diagonalizing with lowered threshold

     Davidson diagonalization with overlap
     ethr =  7.34E-09,  avg # of iterations =  2.0

[...]

     total energy              =   -2247.68450293 Ry
     Harris-Foulkes estimate   =   -2247.68450294 Ry
     estimated scf accuracy    <       0.00000004 Ry

     iteration # 12     ecut=    40.00 Ry     beta=0.70
     Davidson diagonalization with overlap
     ethr =  1.15E-11,  avg # of iterations =  1.0

     negative rho (up, down):  0.158E+01 0.000E+00

     End of self-consistent calculation
 --- enter write_ns ---
 LDA+U parameters:
U( 2)     =  4.00000000
alpha( 2) =  0.00000000
atom    3   Tr[ns(na)] =   8.74442
    eigenvalues:
  0.700  0.710  0.984  0.987  0.990
    eigenvectors:
  0.177  0.000  0.784  0.000  0.040
  0.000  1.000  0.000  0.000  0.000
  0.004  0.000  0.060  0.000  0.936
  0.820  0.000  0.156  0.000  0.024
  0.000  0.000  0.000  1.000  0.000
    occupations:
  0.934 -0.000  0.006 -0.108  0.000
 -0.000  0.710  0.000  0.000 -0.001
  0.006  0.000  0.989  0.016 -0.000
 -0.108  0.000  0.016  0.751  0.000
  0.000 -0.001 -0.000  0.000  0.987
atom    4   Tr[ns(na)] =   8.72133
    eigenvalues:
  0.691  0.714  0.983  0.986  0.987
    eigenvectors:
  0.000  0.986  0.010  0.002  0.002
  0.010  0.000  0.029  0.934  0.026
  0.000  0.004  0.751  0.005  0.240
  0.000  0.009  0.210  0.050  0.731
  0.989  0.000  0.000  0.010  0.000
    occupations:
  0.718 -0.005 -0.018  0.026 -0.001
 -0.005  0.983  0.000  0.000  0.030
 -0.018  0.000  0.983  0.004  0.000
  0.026  0.000  0.004  0.984  0.000
 -0.001  0.030  0.000  0.000  0.694
atom    9   Tr[ns(na)] =   8.70257
    eigenvalues:
  0.716  0.723  0.960  0.965  0.987
    eigenvectors:
  0.001  0.142  0.000  0.000  0.857
  0.996  0.004  0.000  0.000  0.000
  0.000  0.000  0.000  1.000  0.000
  0.003  0.854  0.000  0.000  0.143
  0.000  0.000  1.000  0.000  0.000
    occupations:
  0.949  0.000 -0.000 -0.092  0.000
  0.000  0.717  0.000  0.000 -0.000
 -0.000  0.000  0.965 -0.001 -0.000
 -0.092  0.000 -0.001  0.761  0.000
  0.000 -0.000 -0.000  0.000  0.960
atom   10   Tr[ns(na)] =   8.77612
    eigenvalues:
  0.662  0.783  0.970  0.987  0.987
    eigenvectors:
  0.000  0.980  0.000  0.015  0.005
  0.000  0.000  1.000  0.000  0.000
  0.000  0.000  0.000  0.232  0.768
  0.000  0.020  0.000  0.753  0.227
  1.000  0.000  0.000  0.000  0.000
    occupations:
  0.787  0.000  0.001  0.028  0.000
  0.000  0.970 -0.000  0.000 -0.001
  0.001 -0.000  0.987 -0.000 -0.000
  0.028  0.000 -0.000  0.982 -0.000
  0.000 -0.001 -0.000 -0.000  0.662
atom   16   Tr[ns(na)] =   8.74442
    eigenvalues:
  0.700  0.710  0.984  0.987  0.990
    eigenvectors:
  0.177  0.000  0.784  0.000  0.040
  0.000  1.000  0.000  0.000  0.000
  0.004  0.000  0.060  0.000  0.936
  0.820  0.000  0.156  0.000  0.024
  0.000  0.000  0.000  1.000  0.000
    occupations:
  0.934 -0.000  0.006 -0.108  0.000
 -0.000  0.710  0.000  0.000 -0.001
  0.006  0.000  0.989  0.016 -0.000
 -0.108  0.000  0.016  0.751  0.000
  0.000 -0.001 -0.000  0.000  0.987
atom   17   Tr[ns(na)] =   8.72133
    eigenvalues:
  0.691  0.714  0.983  0.986  0.987
    eigenvectors:
  0.000  0.986  0.010  0.002  0.002
  0.010  0.000  0.029  0.934  0.026
  0.000  0.004  0.751  0.005  0.240
  0.000  0.009  0.210  0.050  0.731
  0.989  0.000  0.000  0.010  0.000
    occupations:
  0.718 -0.005 -0.018  0.026 -0.001
 -0.005  0.983  0.000  0.000  0.030
 -0.018  0.000  0.983  0.004  0.000
  0.026  0.000  0.004  0.984  0.000
 -0.001  0.030  0.000  0.000  0.694
atom   22   Tr[ns(na)] =   8.70257
    eigenvalues:
  0.716  0.723  0.960  0.965  0.987
    eigenvectors:
  0.001  0.142  0.000  0.000  0.857
  0.996  0.004  0.000  0.000  0.000
  0.000  0.000  0.000  1.000  0.000
  0.003  0.854  0.000  0.000  0.143
  0.000  0.000  1.000  0.000  0.000
    occupations:
  0.949  0.000 -0.000 -0.092  0.000
  0.000  0.717  0.000  0.000 -0.000
 -0.000  0.000  0.965 -0.001 -0.000
 -0.092  0.000 -0.001  0.761  0.000
  0.000 -0.000 -0.000  0.000  0.960
atom   23   Tr[ns(na)] =   8.77604
    eigenvalues:
  0.662  0.783  0.970  0.987  0.987
    eigenvectors:
  0.000  0.980  0.000  0.014  0.005
  0.000  0.000  1.000  0.000  0.000
  0.000  0.000  0.000  0.236  0.764
  0.000  0.020  0.000  0.749  0.231
  1.000  0.000  0.000  0.000  0.000
    occupations:
  0.787  0.000  0.001  0.028  0.000
  0.000  0.970 -0.000  0.000 -0.001
  0.001 -0.000  0.987 -0.000 -0.000
  0.028  0.000 -0.000  0.982 -0.000
  0.000 -0.001 -0.000 -0.000  0.662
N of occupied +U levels =  69.8887959
 --- exit write_ns ---

[...]

          k = 0.2500-0.4976 0.0000 ( 32026 PWs)   bands (ev):

[...]

          k =-0.2500 0.2488 0.0000 ( 32025 PWs)   bands (ev):

   -55.3956 -55.3555 -55.3538 -55.3235 -55.3146 -55.2845 -55.2640 -55.2615
   -55.2065 -55.2030 -55.1005 -55.0964 -55.0285 -55.0236 -55.0010 -54.9949
   -54.9941 -54.9919 -54.7770 -54.7372 -54.4310 -54.4259 -54.1883 -54.1857
   -22.1113 -21.9173 -21.2151 -21.0996 -20.7840 -20.6486 -20.6261 -20.5070
   -20.5007 -20.4399 -20.3044 -20.2563 -20.2264 -20.0641 -20.0083 -19.9616
   -19.1723 -18.9765 -10.7352 -10.5400 -10.3735 -10.3557  -9.8441  -9.8259
    -9.6736  -9.4699  -9.4094  -9.3877  -9.3548  -9.1021  -9.0659  -8.9998
    -8.9795  -8.8283  -8.7605  -8.5779  -8.3216  -8.2293  -8.0813  -8.0710
    -7.8216  -7.7100  -7.6508  -7.5428  -7.4972  -7.2904  -7.2716  -7.1981
    -7.1239  -7.0820  -6.8376  -6.7931  -6.7665  -6.6711  -6.5893  -6.5492
    -6.3966  -6.2330  -6.1471  -6.0072  -5.8816  -5.7835  -5.6130  -5.4530
    -5.3642  -5.3167  -5.2472  -4.9917  -4.9909  -4.8815  -4.7528  -4.5727
    -4.4158  -4.4137  -4.2689  -4.2448  -4.0129  -3.9649  -3.8899  -3.7382
    -3.6271  -3.5951  -3.5628  -3.4234  -3.2044  -3.1620  -2.8527  -2.7090
    -2.6933  -2.6230  -2.4777  -2.4358  -2.4002  -2.3024  -1.9261  -1.8313
    -1.7835  -1.4194  -1.1006  -0.6906  -0.3694  -0.3044  -0.1342   0.2816
     0.5207   0.6965   0.8458   0.9561   1.2179   1.2411   1.3824   1.5991
     3.0707   3.6803   4.5535   4.9733   5.0532   5.0910   5.1917   5.4786
     5.6998   5.9423   6.0530   6.2244   6.4012   6.4885   6.5836   6.6377
     6.7609   6.8185   7.0204   7.0781   7.2614   7.3984   7.4282   7.5111
     7.6031   7.7363   7.8129   7.9777   8.1001   8.1656   8.2600   8.3124
     8.3601   8.4770   8.5386   8.6440   8.7677   8.8699   9.0288   9.1200
     9.3060   9.3400   9.4451   9.5620   9.6463   9.7653   9.8927   9.9514
    10.0929  10.1416  10.2083  10.2162  10.4226  10.5128  10.5289  10.6364
    10.6606  10.8259  10.8376  10.9781  11.1455  11.2479  11.3473  11.3906
    11.4192  11.5473  11.6549  11.7323  11.7971  11.8116  11.8881  11.9354
    11.9906  12.1591  12.2106  12.2117  12.3235  12.3521  12.4357  12.5188
    12.5795  12.6182  12.7267  12.7970  12.8900  12.9032  13.0382  13.0949
    13.1580  13.2477  13.4118  13.5065  13.6144  13.6352  13.7066  13.8139
    13.8257  13.8917  14.0280  14.0285  14.1228  14.2853  14.3618  14.4145
    14.4690  14.6138  14.6798  14.7307  14.8332  14.9225  15.0447  15.1559
    15.2206  15.2218  15.3483  15.3541  15.4441  15.5147  15.5610  15.6283
    15.6287  15.6736  15.7580  15.8184  15.8621  15.9396  16.0210  16.0387
    16.1711  16.1765  16.2297  16.3210  16.3948  16.4944  16.6092  16.7204
    16.7817  16.8649  16.8734  16.9274  16.9654  16.9905  17.0348  17.0510
    17.0657  17.1004  17.1042  17.1487  17.1499  17.1855  17.2542  17.2717
    17.3448  17.4015  17.4491  17.4589  17.4974  17.6163  17.6843  17.7594
    17.7633  17.8615  17.8709  17.8939  18.0439  18.0920  18.1207  18.1910
    18.2068  18.3573  18.3901  18.3979  18.5307  18.5905  18.6967  18.7071
    18.7324  18.8946  18.9339  19.0114  19.0255  19.1048  19.1505  19.2801
    19.3297  19.3906  19.4065  19.5622  19.6128  19.7717  19.8194  19.8371
    19.9027  19.9462  19.9806  20.0466  20.0721  20.0897  20.2489  20.2735
    20.3201  20.3364  20.5107  20.5131  20.6481  20.6947  20.7663  20.8010
    20.8092  20.9329  20.9417  21.0030  21.0390  21.2128  21.2473  21.2619
    21.3558  21.4379  21.4404  21.5296  21.5813  21.6245  21.6552  21.7703

     the Fermi energy is    -1.7650 ev

!    total energy              =   -2247.68450293 Ry
     Harris-Foulkes estimate   =   -2247.68450294 Ry
     estimated scf accuracy    <          5.3E-09 Ry

     The total energy is the sum of the following terms:

     one-electron contribution =  -22797.58363702 Ry
     hartree contribution      =   11439.72426617 Ry
     xc contribution           =    -565.15411810 Ry
     ewald contribution        =    9674.24071082 Ry
     Hubbard energy            =       1.08922208 Ry
     smearing contrib. (-TS)   =      -0.00094688 Ry

     convergence has been achieved in  12 iterations

     Forces acting on atoms (Ry/au):

     negative rho (up, down):  0.158E+01 0.000E+00
     atom    1 type  1   force =    -0.00760341   -0.00432304   -0.00021067
     atom    2 type  1   force =     0.00010205    0.00425270   -0.00017180
     atom    3 type  2   force =    -0.00046454    0.00220300   -0.00013764
     atom    4 type  2   force =     0.01007783    0.00214941    0.00004912
     atom    5 type  1   force =     0.00112968   -0.00207095    0.00011853
     atom    6 type  1   force =     0.00009752    0.00059911   -0.00009766
     atom    7 type  1   force =     0.00003203    0.00469824    0.00096137
     atom    8 type  1   force =    -0.00394793   -0.00784759    0.00064291
     atom    9 type  2   force =     0.00177304    0.00098461   -0.00039906
     atom   10 type  2   force =    -0.00003027   -0.00180624   -0.00006814
     atom   11 type  1   force =     0.00000536   -0.00658099   -0.00016266
     atom   12 type  1   force =     0.00008826    0.00755439   -0.00008627
     atom   13 type  1   force =    -0.00107745   -0.00026801   -0.00000460
     atom   14 type  1   force =    -0.00760697   -0.00432345   -0.00021379
     atom   15 type  1   force =     0.00010207    0.00425245   -0.00016834
     atom   16 type  2   force =    -0.00047768    0.00220301   -0.00013765
     atom   17 type  2   force =     0.01007988    0.00214969    0.00005306
     atom   18 type  1   force =     0.00112352   -0.00207099    0.00011872
     atom   19 type  1   force =     0.00008890    0.00059909   -0.00009753
     atom   20 type  1   force =     0.00003201    0.00469782    0.00094201
     atom   21 type  1   force =    -0.00394834   -0.00784755    0.00063816
     atom   22 type  2   force =     0.00176586    0.00098463   -0.00039897
     atom   23 type  2   force =    -0.00003024   -0.00180697   -0.00005278
     atom   24 type  1   force =    -0.00002193   -0.00658099   -0.00016270
     atom   25 type  1   force =     0.00006053    0.00755437   -0.00008627
     atom   26 type  1   force =    -0.00107728   -0.00026780    0.00000695
     atom   27 type  3   force =     0.00001289    0.00022445    0.00007475
     atom   28 type  3   force =     0.00001282    0.00022317    0.00007697
     atom   29 type  3   force =    -0.00015058    0.00023166   -0.00051402
     atom   30 type  3   force =    -0.00014761    0.00023275   -0.00051200

     Total force =     0.002014     Total SCF correction =     0.000166

     bfgs converged in   9 scf cycles and   8 bfgs steps
     (criteria: energy < 0.10E-03, force < 0.10E-02)

     End of BFGS Geometry Optimization

     Final energy   =   -2247.6845029333 Ry
Begin final coordinates

ATOMIC_POSITIONS (crystal)
O0       0.000000000   0.000000000   0.376797733    0   0   1
O0       0.000000000   0.500000000   0.399568209    0   0   1
Pt1      0.250000000   0.500000000   0.449058328    0   0   1
Pt1      0.000000000   0.000000000   0.451855590    0   0   1
O0       0.250000000   0.810000000   0.441879110    0   0   1
O0       0.250000000   0.190000000   0.459625135    0   0   1
O0       0.000000000   0.500000000   0.495458435    0   0   1
O0       0.000000000   0.000000000   0.529298183    0   0   1
Pt1      0.250000000   0.000000000   0.575825826    0   0   1
Pt1      0.000000000   0.500000000   0.573717264    0   0   1
O0       0.250000000   0.690000000   0.583297697    0   0   1
O0       0.250000000   0.310000000   0.583781058    0   0   1
O0       0.000000000   0.000000000   0.621364850    0   0   1
O0       0.500000000   0.000000000   0.376798174    0   0   1
O0       0.500000000   0.500000000   0.399568483    0   0   1
Pt1      0.750000000   0.500000000   0.449058329    0   0   1
Pt1      0.500000000   0.000000000   0.451855791    0   0   1
O0       0.750000000   0.810000000   0.441879092    0   0   1
O0       0.750000000   0.190000000   0.459625140    0   0   1
O0       0.500000000   0.500000000   0.495460413    0   0   1
O0       0.500000000   0.000000000   0.529298303    0   0   1
Pt1      0.750000000   0.000000000   0.575825822    0   0   1
Pt1      0.500000000   0.500000000   0.573716069    0   0   1
O0       0.750000000   0.690000000   0.583297702    0   0   1
O0       0.750000000   0.310000000   0.583781058    0   0   1
O0       0.500000000   0.000000000   0.621363889    0   0   1
H2      -0.000020862   0.640727054   0.384295629
H2       0.499979150   0.640725987   0.384295341
H2       0.144129089   0.032395765   0.367106850
H2       0.644128048   0.032395171   0.367106499
End final coordinates

     General routines

     Parallel routines
     Hubbard U routines

   This run was terminated on:  16:54:26   6May2014

   JOB DONE.
Running PBS batch system epilogue script
Job id: 340799.audhumbla.fysik.dtu.dk
Username: zhonxu
Groupname: campgst
Jobname: PtO2/Eads-2-layers/bare-U-4.0
Sessionid: 10870
Queuename: verylong
Accounting:
This job has allocated the following 16 nodes:
b022 b022 b022 b022 b022 b022 b022 b022 b010 b010 b010 b010 b010 b010 b010 b010
Finished epilogue job 340799.audhumbla.fysik.dtu.dk for zhonxu