     Program PWSCF v.5.0.2 (svn rev. 9656) starts on  1Jun2014 at  4: 1:46

     Current dimensions of program PWSCF are:
     Max number of different atomic species (ntypx) = 10
     Max number of k-points (npk) =  40000
     Max angular momentum in pseudopotentials (lmaxx) =  3
     Reading input from pwscf.in
Warning: card &CELL ignored
Warning: card / ignored

     Subspace diagonalization in iterative solution of the eigenvalue problem:
     a serial algorithm will be used

     bravais-lattice index     =            0
     lattice parameter (alat)  =      11.7541  a.u.
     unit-cell volume          =    7139.8207 (a.u.)^3
     number of atoms/cell      =           33
     number of atomic types    =            3
     number of electrons       =       245.00
     number of Kohn-Sham states=          367
     kinetic-energy cutoff     =      40.0000  Ry
     charge density cutoff     =     500.0000  Ry
     convergence threshold     =      1.0E-06
     mixing beta               =       0.7000
     number of iterations used =            8  plain     mixing
     Exchange-correlation      = SLA  PW   PBE  PBE ( 1 4 3 4 0)
     EXX-fraction              =        0.00
     nstep                     =           50

     celldm(1)=  11.754097  celldm(2)=   0.000000  celldm(3)=   0.000000
     celldm(4)=   0.000000  celldm(5)=   0.000000  celldm(6)=   0.000000

     crystal axes: (cart. coord. in units of alat)
               a(1) = (   1.000000   0.000000   0.000000 )
               a(2) = (   0.000000   1.034513   0.000000 )
               a(3) = (   0.000000   0.000000   4.249947 )

     reciprocal axes: (cart. coord. in units 2 pi/alat)
               b(1) = (  1.000000  0.000000  0.000000 )
               b(2) = (  0.000000  0.966638  0.000000 )
               b(3) = (  0.000000  0.000000  0.235297 )

     PseudoPot. # 1 for O  read from file:
     /home/camp/zhonxu/pseudo/o_pbe_v1.01.uspp.F.UPF
     MD5 check sum: 2bcb18d16ea4b960afae9ec6d52f22d2
     Pseudo is Ultrasoft + core correction, Zval =  6.0
     Generated by new atomic code, or converted to UPF format
     Using radial grid of  737 points,  5 beta functions with:
                l(1) =   0
                l(2) =   0
                l(3) =   1
                l(4) =   1
                l(5) =   2
     Q(r) pseudized with  8 coefficients,  rinner =    0.900   0.900   0.900
                                                       0.900   0.900

     PseudoPot. # 2 for Rh read from file:
     /home/camp/zhonxu/pseudo/rh_pbe_v1.uspp.F.UPF
     MD5 check sum: 37b626987ad0dd8ec6bf4cc9ef289918
     Pseudo is Ultrasoft + core correction, Zval = 15.0
     Generated by new atomic code, or converted to UPF format
     Using radial grid of  969 points,  7 beta functions with:
                l(1) =   0
                l(2) =   0
                l(3) =   1
                l(4) =   1
                l(5) =   2
                l(6) =   2
                l(7) =   2
     Q(r) pseudized with  6 coefficients,  rinner =    1.050   1.050   1.050
                                                       1.050   1.050

     PseudoPot. # 3 for H  read from file:
     /home/camp/zhonxu/pseudo/h_pbe_v1.uspp.F.UPF
     MD5 check sum: 3408e3ff4ec8b0a4e358431e7e038a48
     Pseudo is Ultrasoft, Zval =  1.0
     Generated by new atomic code, or converted to UPF format
     Using radial grid of  615 points,  2 beta functions with:
                l(1) =   0
                l(2) =   0
     Q(r) pseudized with  8 coefficients,  rinner =    0.700

     atomic species   valence    mass     pseudopotential
        O0             6.00    15.99940     O ( 1.00)
        Rh1           15.00   102.90550     Rh( 1.00)
        H2             1.00     1.00794     H ( 1.00)

     Simplified LDA+U calculation (l_max = 2) with parameters (eV):
     atomic species    L          U    alpha       J0     beta
        Rh1            2     5.5000   0.0000   0.0000   0.0000

     No symmetry found

   Cartesian axes

     site n.     atom                  positions (alat units)
         1           O0  tau(   1) = (   0.0000000   0.0000000   1.6055876  )
         2           O0  tau(   2) = (   0.0000000   0.5172566   1.7058013  )
         3           Rh1 tau(   3) = (   0.2500000   0.5172566   1.9245886  )
         4           Rh1 tau(   4) = (   0.0000000   0.0000000   1.9225486  )
         5           O0  tau(   5) = (   0.2500000   0.8379556   1.9216561  )
         6           O0  tau(   6) = (   0.2500000   0.1965575   1.9210611  )
         7           O0  tau(   7) = (   0.0000000   0.5172566   2.1183012  )
         8           O0  tau(   8) = (   0.0000000   0.0000000   2.2433346  )
         9           Rh1 tau(   9) = (   0.2500000   0.0000000   2.4442296  )
        10           Rh1 tau(  10) = (   0.0000000   0.5172566   2.4248924  )
        11           O0  tau(  11) = (   0.2500000   0.7138141   2.4423597  )
        12           O0  tau(  12) = (   0.2500000   0.3206991   2.4526445  )
        13           O0  tau(  13) = (   0.0000000   0.0000000   2.6373472  )
        14           O0  tau(  14) = (   0.5000000   0.0000000   1.6058426  )
        15           O0  tau(  15) = (   0.5000000   0.5172566   1.7065663  )
        16           Rh1 tau(  16) = (   0.7500000   0.5172566   1.9245461  )
        17           Rh1 tau(  17) = (   0.5000000   0.0000000   1.9225486  )
        18           O0  tau(  18) = (   0.7500000   0.8379556   1.9215286  )
        19           O0  tau(  19) = (   0.7500000   0.1965575   1.9212311  )
        20           O0  tau(  20) = (   0.5000000   0.5172566   2.1254411  )
        21           O0  tau(  21) = (   0.5000000   0.0000000   2.2428246  )
        22           Rh1 tau(  22) = (   0.7500000   0.0000000   2.4442296  )
        23           Rh1 tau(  23) = (   0.5000000   0.5172566   2.4566820  )
        24           O0  tau(  24) = (   0.7500000   0.7138141   2.4423172  )
        25           O0  tau(  25) = (   0.7500000   0.3206991   2.4526445  )
        26           O0  tau(  26) = (   0.5000000   0.0000000   2.6350523  )
        27           H2  tau(  27) = (   0.0000500   0.6607849   1.6355072  )
        28           H2  tau(  28) = (   0.4999200   0.6608884   1.6361872  )
        29           H2  tau(  29) = (   0.1477700   0.0372011   1.5603681  )
        30           H2  tau(  30) = (   0.6484400   0.0346148   1.5604531  )
        31           O0  tau(  31) = (   0.4997300   0.5556577   2.7651007  )
        32           O0  tau(  32) = (   0.5003300   0.3573415   2.8834192  )
        33           H2  tau(  33) = (   0.4999300   0.4160398   3.0312324  )

     number of k points=    10  Methfessel-Paxton smearing, width (Ry)=  0.0100
                       cart. coord. in units 2pi/alat
        k(    1) = (   0.0000000   0.0000000   0.0000000), wk =   0.1250000
        k(    2) = (   0.0000000   0.2416596   0.0000000), wk =   0.2500000
        k(    3) = (   0.0000000  -0.4833191   0.0000000), wk =   0.1250000
        k(    4) = (   0.2500000   0.0000000   0.0000000), wk =   0.2500000
        k(    5) = (   0.2500000   0.2416596   0.0000000), wk =   0.2500000
        k(    6) = (   0.2500000  -0.4833191   0.0000000), wk =   0.2500000
        k(    7) = (  -0.5000000   0.0000000   0.0000000), wk =   0.1250000
        k(    8) = (  -0.5000000   0.2416596   0.0000000), wk =   0.2500000
        k(    9) = (  -0.5000000  -0.4833191   0.0000000), wk =   0.1250000
        k(   10) = (  -0.2500000   0.2416596   0.0000000), wk =   0.2500000

     Largest allocated arrays     est. size (Mb)     dimensions
     Largest temporary arrays     est. size (Mb)     dimensions

     Check: negative/imaginary core charge=   -0.000003    0.000000

     Initial potential from superposition of free atoms
     Check: negative starting charge=   -0.646062

     starting charge  240.99914, renormalised to  245.00000

     negative rho (up, down):  0.657E+00 0.000E+00
     Number of +U iterations with fixed ns =  0
     Starting occupations:
 --- enter write_ns ---
 LDA+U parameters:
U( 2)     =  5.50000000
alpha( 2) =  0.00000000
atom    3   Tr[ns(na)] =   7.00000
    eigenvalues:
  0.700  0.700  0.700  0.700  0.700
    eigenvectors:
  1.000  0.000  0.000  0.000  0.000
  0.000  1.000  0.000  0.000  0.000
  0.000  0.000  1.000  0.000  0.000
  0.000  0.000  0.000  1.000  0.000
  0.000  0.000  0.000  0.000  1.000
    occupations:
  0.700  0.000  0.000  0.000  0.000
  0.000  0.700  0.000  0.000  0.000
  0.000  0.000  0.700  0.000  0.000
  0.000  0.000  0.000  0.700  0.000
  0.000  0.000  0.000  0.000  0.700
atom    4   Tr[ns(na)] =   7.00000
    eigenvalues:
  0.700  0.700  0.700  0.700  0.700
    eigenvectors:
  1.000  0.000  0.000  0.000  0.000
  0.000  1.000  0.000  0.000  0.000
  0.000  0.000  1.000  0.000  0.000
  0.000  0.000  0.000  1.000  0.000
  0.000  0.000  0.000  0.000  1.000
    occupations:
  0.700  0.000  0.000  0.000  0.000
  0.000  0.700  0.000  0.000  0.000
  0.000  0.000  0.700  0.000  0.000
  0.000  0.000  0.000  0.700  0.000
  0.000  0.000  0.000  0.000  0.700
atom    9   Tr[ns(na)] =   7.00000
    eigenvalues:
  0.700  0.700  0.700  0.700  0.700
    eigenvectors:
  1.000  0.000  0.000  0.000  0.000
  0.000  1.000  0.000  0.000  0.000
  0.000  0.000  1.000  0.000  0.000
  0.000  0.000  0.000  1.000  0.000
  0.000  0.000  0.000  0.000  1.000
    occupations:
  0.700  0.000  0.000  0.000  0.000
  0.000  0.700  0.000  0.000  0.000
  0.000  0.000  0.700  0.000  0.000
  0.000  0.000  0.000  0.700  0.000
  0.000  0.000  0.000  0.000  0.700
atom   10   Tr[ns(na)] =   7.00000
    eigenvalues:
  0.700  0.700  0.700  0.700  0.700
    eigenvectors:
  1.000  0.000  0.000  0.000  0.000
  0.000  1.000  0.000  0.000  0.000
  0.000  0.000  1.000  0.000  0.000
  0.000  0.000  0.000  1.000  0.000
  0.000  0.000  0.000  0.000  1.000
    occupations:
  0.700  0.000  0.000  0.000  0.000
  0.000  0.700  0.000  0.000  0.000
  0.000  0.000  0.700  0.000  0.000
  0.000  0.000  0.000  0.700  0.000
  0.000  0.000  0.000  0.000  0.700
atom   16   Tr[ns(na)] =   7.00000
    eigenvalues:
  0.700  0.700  0.700  0.700  0.700
    eigenvectors:
  1.000  0.000  0.000  0.000  0.000
  0.000  1.000  0.000  0.000  0.000
  0.000  0.000  1.000  0.000  0.000
  0.000  0.000  0.000  1.000  0.000
  0.000  0.000  0.000  0.000  1.000
    occupations:
  0.700  0.000  0.000  0.000  0.000
  0.000  0.700  0.000  0.000  0.000
  0.000  0.000  0.700  0.000  0.000
  0.000  0.000  0.000  0.700  0.000
  0.000  0.000  0.000  0.000  0.700
atom   17   Tr[ns(na)] =   7.00000
    eigenvalues:
  0.700  0.700  0.700  0.700  0.700
    eigenvectors:
  1.000  0.000  0.000  0.000  0.000
  0.000  1.000  0.000  0.000  0.000
  0.000  0.000  1.000  0.000  0.000
  0.000  0.000  0.000  1.000  0.000
  0.000  0.000  0.000  0.000  1.000
    occupations:
  0.700  0.000  0.000  0.000  0.000
  0.000  0.700  0.000  0.000  0.000
  0.000  0.000  0.700  0.000  0.000
  0.000  0.000  0.000  0.700  0.000
  0.000  0.000  0.000  0.000  0.700
atom   22   Tr[ns(na)] =   7.00000
    eigenvalues:
  0.700  0.700  0.700  0.700  0.700
    eigenvectors:
  1.000  0.000  0.000  0.000  0.000
  0.000  1.000  0.000  0.000  0.000
[...]
    eigenvalues:
  0.589  0.593  0.934  0.939  0.980
    eigenvectors:
  0.991  0.000  0.000  0.000  0.008
  0.000  0.001  0.001  0.998  0.000
  0.000  0.000  0.998  0.001  0.000
  0.008  0.000  0.000  0.000  0.991
  0.000  0.999  0.000  0.001  0.000
    occupations:
  0.592  0.000  0.008  0.036 -0.000
  0.000  0.938 -0.000  0.000 -0.009
  0.008 -0.000  0.934 -0.000 -0.000
  0.036  0.000 -0.000  0.976  0.000
 -0.000 -0.009 -0.000  0.000  0.593
atom   16   Tr[ns(na)] =   8.07556
    eigenvalues:
  0.581  0.602  0.911  0.964  0.978
    eigenvectors:
  0.018  0.183  0.003  0.000  0.796
  0.921  0.079  0.000  0.000  0.000
  0.000  0.000  0.988  0.010  0.003
  0.061  0.737  0.000  0.000  0.201
  0.000  0.000  0.010  0.990  0.000
    occupations:
  0.902  0.006  0.002 -0.151  0.001
  0.006  0.583 -0.000  0.004 -0.006
  0.002 -0.000  0.912 -0.005 -0.005
 -0.151  0.004 -0.005  0.677 -0.000
  0.001 -0.006 -0.005 -0.000  0.964
atom   17   Tr[ns(na)] =   8.08424
    eigenvalues:
  0.598  0.649  0.884  0.931  0.980
    eigenvectors:
  0.001  0.991  0.000  0.000  0.008
  0.000  0.000  0.058  0.941  0.000
  0.000  0.000  0.942  0.058  0.000
  0.000  0.008  0.000  0.000  0.992
  0.999  0.001  0.000  0.000  0.000
    occupations:
  0.652 -0.004 -0.001  0.029  0.001
 -0.004  0.928  0.011  0.001 -0.001
 -0.001  0.011  0.887 -0.001  0.001
  0.029  0.001 -0.001  0.978  0.000
  0.001 -0.001  0.001  0.000  0.598
atom   22   Tr[ns(na)] =   8.08504
    eigenvalues:
  0.636  0.644  0.873  0.909  0.981
    eigenvectors:
  0.000  0.152  0.001  0.000  0.848
  0.998  0.002  0.000  0.000  0.000
  0.000  0.000  0.983  0.016  0.000
  0.002  0.846  0.000  0.000  0.152
  0.000  0.000  0.016  0.984  0.000
    occupations:
  0.930  0.001 -0.000 -0.121  0.000
  0.001  0.636  0.001 -0.001 -0.000
 -0.000  0.001  0.873 -0.005  0.005
 -0.121 -0.001 -0.005  0.695  0.001
  0.000 -0.000  0.005  0.001  0.908
atom   23   Tr[ns(na)] =   8.09167
    eigenvalues:
  0.598  0.632  0.879  0.958  0.979
    eigenvectors:
  0.000  0.994  0.000  0.003  0.003
  0.001  0.000  0.999  0.000  0.000
  0.000  0.003  0.000  0.996  0.001
  0.000  0.003  0.000  0.001  0.996
  0.999  0.000  0.001  0.000  0.000
    occupations:
  0.634 -0.000  0.017  0.020 -0.000
 -0.000  0.878 -0.001 -0.000 -0.010
  0.017 -0.001  0.957 -0.002  0.000
  0.020 -0.000 -0.002  0.977  0.000
 -0.000 -0.010  0.000  0.000  0.598
N of occupied +U levels =  64.6516746
 --- exit write_ns ---

     Threshold (ethr) on eigenvalues was too large:
     Diagonalizing with lowered threshold

     Davidson diagonalization with overlap
     ethr =  5.43E-08,  avg # of iterations =  1.5

[...]

     total energy              =   -2011.47670039 Ry
     Harris-Foulkes estimate   =   -2011.47670039 Ry
     estimated scf accuracy    <       0.00000004 Ry

     iteration # 19     ecut=    40.00 Ry     beta=0.70
     Davidson diagonalization with overlap
     ethr =  8.03E-12,  avg # of iterations =  1.0

     negative rho (up, down):  0.689E+00 0.000E+00

     End of self-consistent calculation
 --- enter write_ns ---
 LDA+U parameters:
U( 2)     =  5.50000000
alpha( 2) =  0.00000000
atom    3   Tr[ns(na)] =   8.07502
    eigenvalues:
  0.581  0.603  0.911  0.964  0.978
    eigenvectors:
  0.019  0.183  0.003  0.000  0.796
  0.916  0.083  0.000  0.000  0.000
  0.000  0.000  0.981  0.016  0.003
  0.065  0.734  0.000  0.000  0.201
  0.000  0.000  0.016  0.984  0.000
    occupations:
  0.902 -0.006  0.001 -0.151 -0.001
 -0.006  0.583 -0.001 -0.004 -0.006
  0.001 -0.001  0.912 -0.005  0.007
 -0.151 -0.004 -0.005  0.677 -0.000
 -0.001 -0.006  0.007 -0.000  0.963
atom    4   Tr[ns(na)] =   8.08512
    eigenvalues:
  0.597  0.648  0.887  0.930  0.980
    eigenvectors:
  0.001  0.991  0.000  0.000  0.008
  0.000  0.000  0.091  0.908  0.000
  0.000  0.000  0.908  0.091  0.000
  0.000  0.008  0.000  0.000  0.992
  0.999  0.001  0.000  0.000  0.000
    occupations:
  0.651 -0.004 -0.002  0.029  0.001
 -0.004  0.926  0.013  0.001 -0.001
 -0.002  0.013  0.891 -0.000  0.001
  0.029  0.001 -0.000  0.977  0.000
  0.001 -0.001  0.001  0.000  0.597
atom    9   Tr[ns(na)] =   8.08502
    eigenvalues:
  0.636  0.644  0.873  0.908  0.981
    eigenvectors:
  0.003  0.149  0.000  0.000  0.848
  0.978  0.022  0.000  0.000  0.000
  0.000  0.000  0.982  0.018  0.000
  0.019  0.829  0.000  0.000  0.152
  0.000  0.000  0.018  0.982  0.000
    occupations:
  0.930 -0.001 -0.000 -0.121 -0.001
 -0.001  0.636  0.000  0.002 -0.000
 -0.000  0.000  0.873 -0.005 -0.005
 -0.121  0.002 -0.005  0.695  0.001
 -0.001 -0.000 -0.005  0.001  0.908
atom   10   Tr[ns(na)] =   8.06862
    eigenvalues:
  0.589  0.593  0.934  0.939  0.980
    eigenvectors:
  0.991  0.000  0.000  0.000  0.008
  0.000  0.001  0.001  0.998  0.000
  0.000  0.000  0.998  0.001  0.000
  0.008  0.000  0.000  0.000  0.991
  0.000  0.999  0.000  0.001  0.000
    occupations:
  0.592  0.000  0.008  0.036 -0.000
  0.000  0.938 -0.000  0.000 -0.009
  0.008 -0.000  0.934 -0.000 -0.000
  0.036  0.000 -0.000  0.976  0.000
 -0.000 -0.009 -0.000  0.000  0.593
atom   16   Tr[ns(na)] =   8.07498
    eigenvalues:
  0.581  0.602  0.911  0.964  0.978
    eigenvectors:
  0.018  0.183  0.003  0.000  0.796
  0.920  0.079  0.000  0.000  0.000
  0.000  0.000  0.987  0.010  0.003
  0.062  0.737  0.000  0.000  0.201
  0.000  0.000  0.010  0.990  0.000
    occupations:
  0.902  0.006  0.002 -0.151  0.001
  0.006  0.583 -0.000  0.004 -0.006
  0.002 -0.000  0.912 -0.005 -0.005
 -0.151  0.004 -0.005  0.677 -0.000
  0.001 -0.006 -0.005 -0.000  0.964
atom   17   Tr[ns(na)] =   8.08412
    eigenvalues:
  0.598  0.649  0.884  0.931  0.980
    eigenvectors:
  0.001  0.991  0.000  0.000  0.008
  0.000  0.000  0.058  0.941  0.000
  0.000  0.000  0.942  0.058  0.000
  0.000  0.008  0.000  0.000  0.992
  0.999  0.001  0.000  0.000  0.000
    occupations:
  0.652 -0.004 -0.001  0.029  0.001
 -0.004  0.928  0.011  0.001 -0.001
 -0.001  0.011  0.887 -0.001  0.001
  0.029  0.001 -0.001  0.978  0.000
  0.001 -0.001  0.001  0.000  0.598
atom   22   Tr[ns(na)] =   8.08508
    eigenvalues:
  0.636  0.644  0.873  0.909  0.981
    eigenvectors:
  0.000  0.152  0.001  0.000  0.848
  0.998  0.002  0.000  0.000  0.000
  0.000  0.000  0.983  0.016  0.000
  0.002  0.846  0.000  0.000  0.152
  0.000  0.000  0.016  0.984  0.000
    occupations:
  0.930  0.002 -0.000 -0.121  0.000
  0.002  0.636  0.001 -0.001 -0.000
 -0.000  0.001  0.873 -0.005  0.005
 -0.121 -0.001 -0.005  0.695  0.001
  0.000 -0.000  0.005  0.001  0.908
atom   23   Tr[ns(na)] =   8.09252
    eigenvalues:
  0.598  0.632  0.879  0.958  0.979
    eigenvectors:
  0.000  0.994  0.000  0.003  0.003
  0.001  0.000  0.999  0.000  0.000
  0.000  0.003  0.000  0.996  0.001
  0.000  0.003  0.000  0.001  0.996
  0.999  0.000  0.001  0.000  0.000
    occupations:
  0.634 -0.000  0.017  0.020 -0.000
 -0.000  0.879 -0.001 -0.000 -0.010
  0.017 -0.001  0.957 -0.002  0.000
  0.020 -0.000 -0.002  0.977  0.000
 -0.000 -0.010  0.000  0.000  0.598
N of occupied +U levels =  64.6504905
 --- exit write_ns ---

[...]

          k = 0.2500-0.4833 0.0000 ( 30510 PWs)   bands (ev):

[...]

          k =-0.2500 0.2417 0.0000 ( 30481 PWs)   bands (ev):

   -48.1728 -48.0401 -48.0240 -48.0214 -48.0183 -48.0148 -47.9863 -47.9712
   -47.9561 -47.9410 -47.9221 -47.8488 -47.8394 -47.8209 -47.7041 -47.6933
   -47.6908 -47.6884 -47.6750 -47.6216 -47.6084 -47.6007 -47.5858 -47.5705
   -24.4456 -20.6844 -20.3954 -20.3112 -20.2432 -19.9437 -19.8196 -19.7955
   -19.7676 -19.6383 -19.5107 -19.4783 -19.4554 -19.2804 -19.2488 -19.2163
   -19.0892 -18.5138 -18.3501 -17.6369  -9.5439  -9.5217  -9.4685  -9.2537
    -9.0910  -8.9009  -8.7726  -8.6850  -8.5824  -8.3510  -8.1746  -8.1240
    -8.0838  -7.9746  -7.9500  -7.8030  -7.7010  -7.5451  -7.4867  -7.3032
    -7.0953  -6.9670  -6.9033  -6.8077  -6.7274  -6.6131  -6.5103  -6.4433
    -6.3573  -6.2205  -6.1057  -6.0361  -6.0027  -5.9288  -5.8586  -5.8017
    -5.7540  -5.6211  -5.5378  -5.4916  -5.4268  -5.3182  -5.2549  -5.1554
    -4.8561  -4.7388  -4.5656  -4.4676  -4.3593  -4.2554  -4.1466  -4.1082
    -3.9712  -3.8801  -3.8009  -3.7370  -3.6617  -3.5333  -3.4609  -3.3132
    -3.2008  -3.0485  -3.0045  -2.9669  -2.8915  -2.8611  -2.7884  -2.7259
    -2.6938  -2.5772  -2.4833  -2.4018  -2.1400  -1.9286  -1.7816  -1.7254
    -1.6272  -1.5891  -1.4362  -1.3225  -1.1809  -1.1092  -1.0321  -0.1696
     0.3955   0.4601   0.6626   1.0233   1.2720   1.5679   1.7435   1.9649
     2.0828   2.2550   2.3074   2.4374   2.4910   2.5923   2.8809   3.2855
     3.8740   4.1789   4.4511   4.9888   5.2184   5.5188   5.8660   5.9826
     6.0164   6.2142   6.3234   6.4912   6.6222   6.8872   6.9235   7.2301
     7.4040   7.5047   7.6858   7.8281   7.8709   8.1700   8.2180   8.3085
     8.4075   8.5027   8.6909   8.8143   8.8821   9.0222   9.1437   9.2024
     9.3318   9.3968   9.4867   9.6296   9.7918   9.8450   9.9375   9.9846
    10.0832  10.1813  10.3120  10.3553  10.4713  10.5298  10.6242  10.7052
    10.7810  10.9054  11.0077  11.1291  11.1776  11.2926  11.3179  11.4059
    11.5024  11.5883  11.6772  11.7229  11.7844  11.8261  11.9124  11.9601
    12.0149  12.1456  12.2592  12.3384  12.4111  12.4959  12.5431  12.5800
    12.6438  12.7413  12.8199  12.9492  12.9937  13.0517  13.0929  13.1792
    13.2929  13.4160  13.4466  13.5984  13.6459  13.7077  13.7977  13.8750
    13.9784  14.0250  14.1153  14.1538  14.2612  14.3536  14.4319  14.4410
    14.5307  14.5489  14.6625  14.7259  14.7982  14.8461  15.0072  15.0254
    15.1034  15.2004  15.2724  15.3247  15.4551  15.5080  15.5723  15.6237
    15.6894  15.7712  15.8117  15.8502  15.9448  15.9832  16.0309  16.0825
    16.1373  16.1882  16.3289  16.3849  16.4473  16.4888  16.5336  16.6228
    16.6324  16.7278  16.7855  16.8801  16.9591  17.0646  17.0915  17.1705
    17.2289  17.2688  17.2964  17.4197  17.4570  17.5178  17.5689  17.6073
    17.7193  17.7310  17.7804  17.8727  17.9586  17.9902  18.0828  18.1238
    18.2001  18.2520  18.3577  18.4039  18.5283  18.6184  18.6499  18.6964
    18.8568  18.9222  18.9803  19.0105  19.0570  19.1791  19.2416  19.3215
    19.3797  19.4568  19.4911  19.5825  19.6371  19.6922  19.7781  19.9099
    19.9525  20.0363  20.1226  20.2080  20.2710  20.3350  20.3667  20.4925
    20.6065  20.6896  20.7204  20.7430  20.7809  20.8678  20.9516  20.9942
    21.0878  21.1249  21.1532  21.2057  21.2783  21.3651  21.4313  21.4568
    21.5256  21.5904  21.6764  21.6987  21.7654  21.8198  21.8434  21.9440
    22.0611  22.0884  22.1285  22.2118  22.2849  22.3519  22.4211  22.4561
    22.5444  22.6144  22.6606  22.7184  22.8091  22.8761  22.9250

     the Fermi energy is    -1.4925 ev

!    total energy              =   -2011.47670039 Ry
     Harris-Foulkes estimate   =   -2011.47670039 Ry
     estimated scf accuracy    <          6.3E-09 Ry

     The total energy is the sum of the following terms:

     one-electron contribution =  -23743.39347133 Ry
     hartree contribution      =   11929.37720713 Ry
     xc contribution           =    -380.07465225 Ry
     ewald contribution        =   10180.53079867 Ry
     Hubbard energy            =       2.08432253 Ry
     smearing contrib. (-TS)   =      -0.00090514 Ry

     convergence has been achieved in  19 iterations

     Forces acting on atoms (Ry/au):

     negative rho (up, down):  0.689E+00 0.000E+00
     atom    1 type  1   force =    -0.00707939   -0.01209521    0.00001407
     atom    2 type  1   force =     0.00015482    0.00373021   -0.00028394
     atom    3 type  2   force =     0.03080557    0.00526984   -0.00029689
     atom    4 type  2   force =     0.00793689    0.00798964    0.00007935
     atom    5 type  1   force =    -0.00392937   -0.03065342    0.00011228
     atom    6 type  1   force =     0.00281322    0.02896518    0.00026700
     atom    7 type  1   force =    -0.00028840   -0.00471860   -0.00001659
     atom    8 type  1   force =    -0.00278036    0.00114683   -0.00036007
     atom    9 type  2   force =     0.00430933    0.00056278   -0.00014567
     atom   10 type  2   force =    -0.00018937    0.00089561   -0.00048907
     atom   11 type  1   force =    -0.01003926    0.02190534    0.00020828
     atom   12 type  1   force =    -0.00347405   -0.01623413    0.00030156
     atom   13 type  1   force =    -0.00064664   -0.00269232   -0.00006140
     atom   14 type  1   force =    -0.00572290   -0.01179012    0.00044264
     atom   15 type  1   force =     0.00008142    0.00353592   -0.00019088
     atom   16 type  2   force =    -0.03080617    0.00538669   -0.00028154
     atom   17 type  2   force =     0.00759660    0.00867657   -0.00017024
     atom   18 type  1   force =    -0.00155430   -0.03143106    0.00010652
     atom   19 type  1   force =     0.00513129    0.02834958    0.00027226
     atom   20 type  1   force =    -0.00015177   -0.00629808    0.00065793
     atom   21 type  1   force =    -0.00293353    0.00131445   -0.00046746
     atom   22 type  2   force =    -0.00179384    0.00049429   -0.00016198
     atom   23 type  2   force =    -0.00050955    0.00250905   -0.00045437
     atom   24 type  1   force =     0.00954198    0.02166964    0.00020823
     atom   25 type  1   force =     0.00463450   -0.01638219    0.00036605
     atom   26 type  1   force =    -0.00089894   -0.01035095    0.00034478
     atom   27 type  3   force =     0.00000074    0.00018046    0.00033247
     atom   28 type  3   force =     0.00000361    0.00014049    0.00043752
     atom   29 type  3   force =    -0.00004245    0.00008471    0.00020302
     atom   30 type  3   force =    -0.00028999    0.00003752    0.00006129
     atom   31 type  1   force =    -0.00020900   -0.00026940    0.00033850
     atom   32 type  1   force =     0.00035033    0.00014383   -0.00052780
     atom   33 type  3   force =    -0.00002103   -0.00007314   -0.00084587

     Total force =     0.002064     Total SCF correction =     0.000218
     SCF correction compared to forces is large: reduce conv_thr to get better values

     entering subroutine stress ...

     negative rho (up, down):  0.689E+00 0.000E+00
          total   stress  (Ry/bohr**3)                   (kbar)     P=  -17.35
  -0.00012085   0.00000591   0.00000409        -17.78      0.87      0.60
   0.00000591  -0.00014445   0.00000421          0.87    -21.25      0.62
   0.00000409   0.00000421  -0.00008845          0.60      0.62    -13.01

     bfgs converged in   9 scf cycles and   8 bfgs steps
     (criteria: energy < 0.10E-03, force < 0.10E-02)

     End of BFGS Geometry Optimization

     Final energy   =   -2011.4767003874 Ry
Begin final coordinates

ATOMIC_POSITIONS (crystal)
O0       0.000000000   0.000000000   0.378070489    0   0   1
O0       0.000000000   0.500000000   0.401896681    0   0   1
Rh1      0.250000000   0.500000000   0.453012247    0   0   1
Rh1      0.000000000   0.000000000   0.452421567    0   0   1
O0       0.250000000   0.810000000   0.452378818    0   0   1
O0       0.250000000   0.190000000   0.452058393    0   0   1
O0       0.000000000   0.500000000   0.499298936    0   0   1
O0       0.000000000   0.000000000   0.527754248    0   0   1
Rh1      0.250000000   0.000000000   0.574793381    0   0   1
Rh1      0.000000000   0.500000000   0.570816122    0   0   1
O0       0.250000000   0.690000000   0.574180703    0   0   1
O0       0.250000000   0.310000000   0.576526255    0   0   1
O0       0.000000000   0.000000000   0.620379395    0   0   1
O0       0.500000000   0.000000000   0.377949844    0   0   1
O0       0.500000000   0.500000000   0.402001558    0   0   1
Rh1      0.750000000   0.500000000   0.453002755    0   0   1
Rh1      0.500000000   0.000000000   0.452217526    0   0   1
O0       0.750000000   0.810000000   0.452343185    0   0   1
O0       0.750000000   0.190000000   0.452093005    0   0   1
O0       0.500000000   0.500000000   0.500435620    0   0   1
O0       0.500000000   0.000000000   0.527610995    0   0   1
Rh1      0.750000000   0.000000000   0.574791118    0   0   1
Rh1      0.500000000   0.500000000   0.577620124    0   0   1
O0       0.750000000   0.690000000   0.574183284    0   0   1
O0       0.750000000   0.310000000   0.576521908    0   0   1
O0       0.500000000   0.000000000   0.619950529    0   0   1
H2      -0.000123994   0.637575768   0.384995156
H2       0.499766754   0.637931803   0.385221945
H2       0.147735995   0.036207579   0.367407251
H2       0.648588552   0.033784657   0.367383713
O0       0.499339898   0.535945173   0.650545221
O0       0.500786163   0.346522855   0.678053864
H2       0.499932852   0.401857590   0.713014160
End final coordinates

     General routines

     Parallel routines
     Hubbard U routines

   This run was terminated on:  20: 5:51   1Jun2014

   JOB DONE.