     Program PWSCF v.5.0.2 (svn rev. 9656) starts on  1May2014 at  6:26:22

     Current dimensions of program PWSCF are:
     Max number of different atomic species (ntypx) = 10
     Max number of k-points (npk) =  40000
     Max angular momentum in pseudopotentials (lmaxx) =  3
     Reading input from pwscf.in
Warning: card &CELL ignored
Warning: card / ignored

     Subspace diagonalization in iterative solution of the eigenvalue problem:
     a serial algorithm will be used

     bravais-lattice index     =            0
     lattice parameter (alat)  =      11.7541  a.u.
     unit-cell volume          =    7139.8207 (a.u.)^3
     number of atoms/cell      =           33
     number of atomic types    =            3
     number of electrons       =       245.00
     number of Kohn-Sham states=          367
     kinetic-energy cutoff     =      40.0000  Ry
     charge density cutoff     =     500.0000  Ry
     convergence threshold     =      1.0E-06
     mixing beta               =       0.3000
     number of iterations used =            8  plain     mixing
     Exchange-correlation      = SLA  PW   PBE  PBE ( 1 4 3 4 0)
     EXX-fraction              =        0.00
     nstep                     =           50

     celldm(1)=  11.754097  celldm(2)=   0.000000  celldm(3)=   0.000000
     celldm(4)=   0.000000  celldm(5)=   0.000000  celldm(6)=   0.000000

     crystal axes: (cart. coord. in units of alat)
               a(1) = (   1.000000   0.000000   0.000000 )
               a(2) = (   0.000000   1.034513   0.000000 )
               a(3) = (   0.000000   0.000000   4.249947 )

     reciprocal axes: (cart. coord. in units 2 pi/alat)
               b(1) = (  1.000000  0.000000  0.000000 )
               b(2) = (  0.000000  0.966638  0.000000 )
               b(3) = (  0.000000  0.000000  0.235297 )

     PseudoPot. # 1 for O  read from file:
     /home/camp/zhonxu/pseudo/o_pbe_v1.01.uspp.F.UPF
     MD5 check sum: 2bcb18d16ea4b960afae9ec6d52f22d2
     Pseudo is Ultrasoft + core correction, Zval =  6.0
     Generated by new atomic code, or converted to UPF format
     Using radial grid of  737 points,  5 beta functions with:
                l(1) =   0
                l(2) =   0
                l(3) =   1
                l(4) =   1
                l(5) =   2
     Q(r) pseudized with  8 coefficients,  rinner =    0.900   0.900   0.900
                                                       0.900   0.900

     PseudoPot. # 2 for Rh read from file:
     /home/camp/zhonxu/pseudo/rh_pbe_v1.uspp.F.UPF
     MD5 check sum: 37b626987ad0dd8ec6bf4cc9ef289918
     Pseudo is Ultrasoft + core correction, Zval = 15.0
     Generated by new atomic code, or converted to UPF format
     Using radial grid of  969 points,  7 beta functions with:
                l(1) =   0
                l(2) =   0
                l(3) =   1
                l(4) =   1
                l(5) =   2
                l(6) =   2
                l(7) =   2
     Q(r) pseudized with  6 coefficients,  rinner =    1.050   1.050   1.050
                                                       1.050   1.050

     PseudoPot. # 3 for H  read from file:
     /home/camp/zhonxu/pseudo/h_pbe_v1.uspp.F.UPF
     MD5 check sum: 3408e3ff4ec8b0a4e358431e7e038a48
     Pseudo is Ultrasoft, Zval =  1.0
     Generated by new atomic code, or converted to UPF format
     Using radial grid of  615 points,  2 beta functions with:
                l(1) =   0
                l(2) =   0
     Q(r) pseudized with  8 coefficients,  rinner =    0.700

     atomic species   valence    mass     pseudopotential
        O0             6.00    15.99940     O ( 1.00)
        Rh1           15.00   102.90550     Rh( 1.00)
        H2             1.00     1.00794     H ( 1.00)

     No symmetry found

   Cartesian axes

     site n.     atom                  positions (alat units)
         1           O0  tau(   1) = (   0.0000000   0.0000000   1.6092425  )
         2           O0  tau(   2) = (   0.0000000   0.5172566   1.7020614  )
         3           Rh1 tau(   3) = (   0.2500000   0.5172566   1.9209336  )
         4           Rh1 tau(   4) = (   0.0000000   0.0000000   1.9260761  )
         5           O0  tau(   5) = (   0.2500000   0.8379556   1.9243336  )
         6           O0  tau(   6) = (   0.2500000   0.1965575   1.9234411  )
         7           O0  tau(   7) = (   0.0000000   0.5172566   2.1185137  )
         8           O0  tau(   8) = (   0.0000000   0.0000000   2.2473721  )
         9           Rh1 tau(   9) = (   0.2500000   0.0000000   2.4498821  )
        10           Rh1 tau(  10) = (   0.0000000   0.5172566   2.4276124  )
        11           O0  tau(  11) = (   0.2500000   0.7138141   2.4560020  )
        12           O0  tau(  12) = (   0.2500000   0.3206991   2.4560870  )
        13           O0  tau(  13) = (   0.0000000   0.0000000   2.6421072  )
        14           O0  tau(  14) = (   0.5000000   0.0000000   1.6092425  )
        15           O0  tau(  15) = (   0.5000000   0.5172566   1.7020614  )
        16           Rh1 tau(  16) = (   0.7500000   0.5172566   1.9209336  )
        17           Rh1 tau(  17) = (   0.5000000   0.0000000   1.9260761  )
        18           O0  tau(  18) = (   0.7500000   0.8379556   1.9243336  )
        19           O0  tau(  19) = (   0.7500000   0.1965575   1.9234411  )
        20           O0  tau(  20) = (   0.5000000   0.5172566   2.1185137  )
        21           O0  tau(  21) = (   0.5000000   0.0000000   2.2473721  )
        22           Rh1 tau(  22) = (   0.7500000   0.0000000   2.4498821  )
        23           Rh1 tau(  23) = (   0.5000000   0.5172566   2.4276124  )
        24           O0  tau(  24) = (   0.7500000   0.7138141   2.4560020  )
        25           O0  tau(  25) = (   0.7500000   0.3206991   2.4560870  )
        26           O0  tau(  26) = (   0.5000000   0.0000000   2.6421072  )
        27           H2  tau(  27) = (  -0.0000700   0.6610229   1.6318947  )
        28           H2  tau(  28) = (   0.4999300   0.6610125   1.6318947  )
        29           H2  tau(  29) = (   0.1484400   0.0336527   1.5632581  )
        30           H2  tau(  30) = (   0.6484400   0.0336527   1.5632581  )
        31           O0  tau(  31) = (   0.5000000   0.5172566   2.7491209  )
        32           O0  tau(  32) = (   0.5000000   0.3299580   2.8594070  )
        33           H2  tau(  33) = (   0.5000000   0.3775663   3.0116826  )

     number of k points=    10  Methfessel-Paxton smearing, width (Ry)=  0.0100
                       cart. coord. in units 2pi/alat
        k(    1) = (   0.0000000   0.0000000   0.0000000), wk =   0.1250000
        k(    2) = (   0.0000000   0.2416596   0.0000000), wk =   0.2500000
        k(    3) = (   0.0000000  -0.4833191   0.0000000), wk =   0.1250000
        k(    4) = (   0.2500000   0.0000000   0.0000000), wk =   0.2500000
        k(    5) = (   0.2500000   0.2416596   0.0000000), wk =   0.2500000
        k(    6) = (   0.2500000  -0.4833191   0.0000000), wk =   0.2500000
        k(    7) = (  -0.5000000   0.0000000   0.0000000), wk =   0.1250000
        k(    8) = (  -0.5000000   0.2416596   0.0000000), wk =   0.2500000
        k(    9) = (  -0.5000000  -0.4833191   0.0000000), wk =   0.1250000
        k(   10) = (  -0.2500000   0.2416596   0.0000000), wk =   0.2500000

     Largest allocated arrays     est. size (Mb)     dimensions
     Largest temporary arrays     est. size (Mb)     dimensions

     Check: negative/imaginary core charge=   -0.000003    0.000000

     Initial potential from superposition of free atoms
     Check: negative starting charge=   -0.642746

     starting charge  240.99914, renormalised to  245.00000

     negative rho (up, down):  0.653E+00 0.000E+00
     Starting wfc are  181 randomized atomic wfcs

     Self-consistent Calculation

     iteration #  1     ecut=    40.00 Ry     beta=0.30
     Davidson diagonalization with overlap
     ethr =  1.00E-02,  avg # of iterations =  5.9

     negative rho (up, down):  0.662E+00 0.000E+00

     total energy              =   -2009.96811920 Ry
     Harris-Foulkes estimate   =   -2016.71717914 Ry
     estimated scf accuracy    <      14.73819129 Ry

[...]

     End of self-consistent calculation

          k = 0.0000 0.0000 0.0000 ( 30479 PWs)   bands (ev):

   -48.8697 -48.8433 -48.8178 -48.8115 -48.8025 -48.7754 -48.7648 -48.7063
   -48.6842 -48.6377 -48.6229 -48.5857 -48.5725 -48.5401 -48.5371 -48.5130
   -48.5082 -48.4796 -48.4150 -48.3986 -48.3862 -48.3724 -48.3685 -48.3024
   -25.0802 -20.9322 -20.4994 -20.4231 -20.3101 -19.8706 -19.7032 -19.6657
   -19.5750 -19.5462 -19.5299 -19.4305 -19.3717 -19.3237 -19.0940 -19.0485
   -18.9975 -18.3135 -18.1632 -17.1099  -9.5412  -9.2435  -9.1730  -8.9474
    -8.3153  -8.1854  -8.1044  -8.0138  -7.9420  -7.9194  -7.8422  -7.8124
    -7.7076  -7.5537  -7.5246  -7.4839  -7.3704  -7.3213  -7.1973  -7.0969
    -6.9088  -6.7863  -6.6275  -6.5252  -6.4796  -6.3295  -5.9460  -5.9221
    -5.8523  -5.7798  -5.4459  -5.2582  -5.1366  -5.0536  -4.9056  -4.8285
    -4.7678  -4.6976  -4.6854  -4.6197  -4.5579  -4.5362  -4.4567  -4.2647
    -4.1702  -4.0608  -4.0416  -3.9856  -3.8742  -3.8144  -3.8055  -3.6084
    -3.5762  -3.2624  -3.2361  -3.2316  -3.0807  -3.0635  -2.9939  -2.9789
    -2.9238  -2.7809  -2.6728  -2.6486  -2.5284  -2.4751  -2.4623  -2.4265
    -2.2910  -2.1885  -1.9425  -1.8313  -1.8107  -1.6352  -1.5055  -1.3817
    -1.1231  -1.0598  -0.9861  -0.9207  -0.7267  -0.6383  -0.4637  -0.3481
     0.0860   0.7698   0.7913   0.9436   1.0091   1.1290   1.2411   1.4995
     1.8003   1.8792   2.3867   2.4315   2.5174   2.8029   2.8834   3.2165
     3.5687   4.0422   4.5861   4.7874   5.1901   5.7156   6.0071   6.3326
     6.5916   6.7843   7.0213   7.2236   7.2427   7.3698   7.3782   7.5244
     7.6013   7.7208   7.7778   7.9536   7.9619   8.1870   8.2829   8.3355
     8.4900   8.4953   8.5439   8.6883   8.7197   8.7928   8.9016   9.0270
     9.0985   9.1739   9.2478   9.3585   9.5365   9.6735   9.6941   9.8335
     9.8447   9.9704  10.1687  10.2420  10.4683  10.5197  10.5373  10.6708
    10.8195  10.9250  10.9867  11.0043  11.0504  11.0746  11.1579  11.2916
    11.3608  11.4655  11.4797  11.5242  11.5794  11.6451  11.6878  11.8109
    11.8558  11.9310  11.9748  11.9966  12.1227  12.2176  12.2547  12.2778
    12.3555  12.4150  12.4275  12.5105  12.5686  12.6528  12.7027  12.7659
    12.7863  12.8831  12.9171  13.0491  13.0922  13.1119  13.2170  13.2758
    13.5761  13.6720  13.7273  13.8378  13.8696  13.9062  13.9286  13.9748
    14.1346  14.2963  14.3491  14.4239  14.6084  14.6211  14.7279  14.7890
    14.8558  15.0745  15.2432  15.2884  15.3923  15.4594  15.5253  15.6362
    15.6635  15.7848  15.8528  15.9205  16.0612  16.1174  16.3431  16.4019
    16.4292  16.4904  16.6138  16.6869  16.8526  16.9962  17.1095  17.1383
    17.1632  17.2111  17.2512  17.3198  17.4030  17.5266  17.6110  17.6474
    17.7697  17.8172  18.0079  18.0843  18.2088  18.3122  18.3896  18.4179
    18.4718  18.5284  18.5405  18.6046  18.6709  18.7367  18.8276  18.8870
    18.9116  18.9538  18.9896  19.0168  19.0745  19.1484  19.2261  19.3002
[...]
     atom   18 type  1   force =    -0.00000992   -0.03146258   -0.00140858
     atom   19 type  1   force =     0.00180962    0.02806722   -0.00107026
     atom   20 type  1   force =    -0.00020871   -0.00078629   -0.01879287
     atom   21 type  1   force =    -0.00283415   -0.00008778    0.00177846
     atom   22 type  2   force =    -0.00504941    0.00351187   -0.00010939
     atom   23 type  2   force =     0.00001078   -0.02693634    0.10231967
     atom   24 type  1   force =     0.01350537    0.01133085   -0.01949349
     atom   25 type  1   force =     0.01414774   -0.01288756   -0.02324289
     atom   26 type  1   force =    -0.00097919   -0.02231169   -0.01175963
     atom   27 type  3   force =    -0.00001882   -0.00062924    0.00099937
     atom   28 type  3   force =    -0.00002343   -0.00009066    0.00099008
     atom   29 type  3   force =     0.00008522    0.00044909    0.00080503
     atom   30 type  3   force =     0.00009741    0.00037603    0.00082873
     atom   31 type  1   force =    -0.00004894    0.09907636   -0.01217758
     atom   32 type  1   force =     0.00005767   -0.06372989    0.02594260
     atom   33 type  3   force =    -0.00001302    0.00586610   -0.00505862

     Total force =     0.029102     Total SCF correction =     0.000227

     BFGS Geometry Optimization

     number of scf cycles    =   1
     number of bfgs steps    =   0

     energy   new            =   -2013.6244905803 Ry

     new trust radius        =       0.0259426674 bohr
     new conv_thr            =       0.0000010000 Ry

ATOMIC_POSITIONS (crystal)
O0       0.000000000   0.000000000   0.378650000    0   0   0
O0       0.000000000   0.500000000   0.400490000    0   0   0
Rh1      0.250000000   0.500000000   0.451990000    0   0   0
Rh1      0.000000000   0.000000000   0.453200000    0   0   0
O0       0.250000000   0.810000000   0.452790000    0   0   0
O0       0.250000000   0.190000000   0.452580000    0   0   0
O0       0.000000000   0.500000000   0.498480000    0   0   0
O0       0.000000000   0.000000000   0.528800000    0   0   0
Rh1      0.250000000   0.000000000   0.576450000    0   0   0
Rh1      0.000000000   0.500000000   0.571210000    0   0   0
O0       0.250000000   0.690000000   0.577890000    0   0   0
O0       0.250000000   0.310000000   0.577910000    0   0   0
O0       0.000000000   0.000000000   0.621680000    0   0   0
O0       0.500000000   0.000000000   0.378650000    0   0   0
O0       0.500000000   0.500000000   0.400490000    0   0   0
Rh1      0.750000000   0.500000000   0.451990000    0   0   0
Rh1      0.500000000   0.000000000   0.453200000    0   0   0
O0       0.750000000   0.810000000   0.452790000    0   0   0
O0       0.750000000   0.190000000   0.452580000    0   0   0
O0       0.500000000   0.500000000   0.498480000    0   0   0
O0       0.500000000   0.000000000   0.528800000    0   0   0
Rh1      0.750000000   0.000000000   0.576450000    0   0   0
Rh1      0.500000000   0.500000000   0.571210000    0   0   0
O0       0.750000000   0.690000000   0.577890000    0   0   0
O0       0.750000000   0.310000000   0.577910000    0   0   0
O0       0.500000000   0.000000000   0.621680000    0   0   0
H2      -0.000070000   0.638970000   0.383980000    0   0   0
H2       0.499930000   0.638960000   0.383980000    0   0   0
H2       0.148440000   0.032530000   0.367830000    0   0   0
H2       0.648440000   0.032530000   0.367830000    0   0   0
O0       0.499995836   0.500000000   0.646616225    1   0   1
O0       0.500004906   0.318950000   0.673329327    1   0   1
H2       0.499998892   0.364970000   0.708538735    1   0   1

     Check: negative starting charge=   -0.642746
     NEW-OLD atomic charge density approx. for the potential

     Check: negative/imaginary core charge=   -0.000003    0.000000
     Check: negative starting charge=   -0.642745

[...]

     energy   old            =   -2013.6244905803 Ry
     energy   new            =   -2013.6247213627 Ry

     CASE: energy  _new < energy  _old

[...]

     Threshold (ethr) on eigenvalues was too large:
     Diagonalizing with lowered threshold

     Davidson diagonalization with overlap
     ethr =  1.87E-08,  avg # of iterations =  1.0

[...]

     number of scf cycles    =   8
     number of bfgs steps    =   7

     energy   old            =   -2013.6252884479 Ry
     energy   new            =   -2013.6253270448 Ry

     CASE: energy  _new < energy  _old

     new trust radius        =       0.0052673660 bohr
     new conv_thr            =       0.0000000100 Ry

ATOMIC_POSITIONS (crystal)
O0       0.000000000   0.000000000   0.378650000    0   0   0
O0       0.000000000   0.500000000   0.400490000    0   0   0
Rh1      0.250000000   0.500000000   0.451990000    0   0   0
Rh1      0.000000000   0.000000000   0.453200000    0   0   0
O0       0.250000000   0.810000000   0.452790000    0   0   0
O0       0.250000000   0.190000000   0.452580000    0   0   0
O0       0.000000000   0.500000000   0.498480000    0   0   0
O0       0.000000000   0.000000000   0.528800000    0   0   0
Rh1      0.250000000   0.000000000   0.576450000    0   0   0
Rh1      0.000000000   0.500000000   0.571210000    0   0   0
O0       0.250000000   0.690000000   0.577890000    0   0   0
O0       0.250000000   0.310000000   0.577910000    0   0   0
O0       0.000000000   0.000000000   0.621680000    0   0   0
O0       0.500000000   0.000000000   0.378650000    0   0   0
O0       0.500000000   0.500000000   0.400490000    0   0   0
Rh1      0.750000000   0.500000000   0.451990000    0   0   0
Rh1      0.500000000   0.000000000   0.453200000    0   0   0
O0       0.750000000   0.810000000   0.452790000    0   0   0
O0       0.750000000   0.190000000   0.452580000    0   0   0
O0       0.500000000   0.500000000   0.498480000    0   0   0
O0       0.500000000   0.000000000   0.528800000    0   0   0
Rh1      0.750000000   0.000000000   0.576450000    0   0   0
Rh1      0.500000000   0.500000000   0.571210000    0   0   0
O0       0.750000000   0.690000000   0.577890000    0   0   0
O0       0.750000000   0.310000000   0.577910000    0   0   0
O0       0.500000000   0.000000000   0.621680000    0   0   0
H2      -0.000070000   0.638970000   0.383980000    0   0   0
H2       0.499930000   0.638960000   0.383980000    0   0   0
H2       0.148440000   0.032530000   0.367830000    0   0   0
H2       0.648440000   0.032530000   0.367830000    0   0   0
O0       0.499734731   0.500000000   0.647634150    1   0   1
O0       0.500330791   0.318950000   0.674891043    1   0   1
H2       0.499925921   0.364970000   0.710551869    1   0   1

     Check: negative starting charge=   -0.642744
     NEW-OLD atomic charge density approx. for the potential

     Check: negative/imaginary core charge=   -0.000003    0.000000
     Check: negative starting charge=   -0.642745

[...]

     Self-consistent Calculation

[...]

     Threshold (ethr) on eigenvalues was too large:
     Diagonalizing with lowered threshold

     Davidson diagonalization with overlap
     ethr =  3.20E-09,  avg # of iterations =  1.8

[...]

     total energy              =   -2013.62533546 Ry
     Harris-Foulkes estimate   =   -2013.62533546 Ry
     estimated scf accuracy    <       0.00000005 Ry

     iteration # 15     ecut=    40.00 Ry     beta=0.30
     Davidson diagonalization with overlap
     ethr =  1.39E-11,  avg # of iterations =  1.0

     negative rho (up, down):  0.691E+00 0.000E+00

     End of self-consistent calculation

[...]

          k = 0.2500-0.4833 0.0000 ( 30510 PWs)   bands (ev):

[...]

          k =-0.2500 0.2417 0.0000 ( 30481 PWs)   bands (ev):

   -48.8687 -48.8457 -48.8345 -48.8272 -48.8259 -48.7988 -48.7894 -48.7448
   -48.6926 -48.6599 -48.6495 -48.6134 -48.6129 -48.5729 -48.5516 -48.5362
   -48.5319 -48.4873 -48.4364 -48.4247 -48.4112 -48.4092 -48.3969 -48.3295
   -24.7155 -20.8277 -20.5419 -20.3044 -20.1708 -19.9580 -19.8160 -19.7170
   -19.6883 -19.5547 -19.5409 -19.4186 -19.3792 -19.3245 -19.2741 -19.1499
   -19.1010 -18.3596 -18.2305 -17.1202  -9.4151  -8.8932  -8.6886  -8.6051
    -8.4689  -8.0977  -8.0468  -7.9667  -7.9480  -7.9071  -7.8984  -7.7758
    -7.7134  -7.6646  -7.5974  -7.3848  -7.2784  -7.1707  -7.1142  -7.0062
    -6.7891  -6.6502  -6.5912  -6.5338  -6.4322  -6.3861  -5.9288  -5.8807
    -5.7606  -5.6584  -5.5956  -5.5320  -5.4649  -5.4386  -5.3970  -5.2970
    -5.2841  -5.0844  -5.0511  -4.9599  -4.9439  -4.6979  -4.6239  -4.5611
    -4.3426  -4.3003  -4.1486  -4.1195  -4.0582  -3.9148  -3.8300  -3.6961
    -3.5140  -3.4017  -3.3126  -3.0394  -2.9268  -2.8901  -2.7751  -2.7118
    -2.5877  -2.5536  -2.4960  -2.4751  -2.4185  -2.3199  -2.2424  -2.1762
    -2.1198  -2.0944  -1.9814  -1.9084  -1.7630  -1.5803  -1.2653  -1.2233
    -1.1850  -1.1568  -1.0827  -1.0113  -0.8670  -0.7221  -0.6644  -0.3057
     0.1783   0.3339   0.4586   0.9049   1.0318   1.3801   1.4420   1.7293
     1.8518   2.0192   2.0642   2.2586   2.3269   2.4250   2.7180   3.5855
     4.1372   4.5018   4.7491   5.0598   5.4397   5.5793   5.9611   5.9687
     6.0444   6.2973   6.4001   6.5431   6.5819   6.9150   6.9857   7.2371
     7.4368   7.5519   7.7251   7.8404   7.9093   8.1768   8.2520   8.2844
     8.3627   8.4093   8.6812   8.7607   8.8967   8.9905   9.0792   9.1733
     9.2676   9.3737   9.5098   9.6263   9.7773   9.8430   9.9349   9.9887
    10.0618  10.1602  10.2394  10.3450  10.4472  10.5680  10.6132  10.6632
    10.7386  10.9070  10.9592  11.0823  11.1599  11.2060  11.3248  11.3460
    11.4753  11.5672  11.6363  11.6760  11.7680  11.7877  11.8376  11.9734
    12.0415  12.1241  12.1853  12.2957  12.3651  12.4661  12.5382  12.5926
    12.6086  12.6817  12.7247  12.8206  12.9359  12.9928  13.0841  13.1731
    13.2943  13.3403  13.4123  13.5381  13.6241  13.6784  13.7511  13.7811
    13.8342  13.9815  14.0198  14.1088  14.2189  14.3058  14.3406  14.4095
    14.4665  14.4933  14.5582  14.6983  14.7228  14.8181  14.9020  15.0108
    15.0419  15.1216  15.2703  15.3395  15.4651  15.4918  15.5690  15.6277
    15.7020  15.7167  15.7799  15.8445  15.9530  15.9846  16.0212  16.0693
    16.1489  16.1829  16.3171  16.3641  16.4013  16.4342  16.5142  16.5858
    16.6343  16.6800  16.7394  16.8291  16.8718  17.0037  17.0626  17.1686
    17.2313  17.2420  17.3104  17.3865  17.4625  17.4750  17.5586  17.6228
    17.7015  17.7362  17.8051  17.8930  17.9271  17.9734  18.0613  18.1202
    18.2048  18.2607  18.3346  18.4473  18.5478  18.6380  18.6749  18.7241
    18.9103  18.9364  18.9550  19.0372  19.0850  19.1938  19.2283  19.2645
    19.3389  19.3891  19.4917  19.5681  19.6685  19.7008  19.7844  19.9012
    19.9242  20.0354  20.0938  20.1260  20.2404  20.3630  20.3924  20.4415
    20.5608  20.6648  20.7215  20.7619  20.8129  20.8627  20.9152  21.0164
    21.0746  21.1157  21.1961  21.2173  21.2616  21.3766  21.3983  21.4742
    21.5157  21.5922  21.6423  21.6992  21.7469  21.8153  21.8298  21.9391
    22.0282  22.0386  22.0980  22.2160  22.2815  22.3244  22.4254  22.4568
    22.4808  22.5552  22.6540  22.6854  22.7681  22.8410  22.9314

     the Fermi energy is    -1.0920 ev

!    total energy              =   -2013.62533545 Ry
     Harris-Foulkes estimate   =   -2013.62533546 Ry
     estimated scf accuracy    <          7.1E-09 Ry

     The total energy is the sum of the following terms:

     one-electron contribution =  -23736.15098957 Ry
     hartree contribution      =   11922.62638388 Ry
     xc contribution           =    -379.85459243 Ry
     ewald contribution        =   10179.75607667 Ry
     smearing contrib. (-TS)   =      -0.00221401 Ry

     convergence has been achieved in  15 iterations

     Forces acting on atoms (Ry/au):

     negative rho (up, down):  0.691E+00 0.000E+00
     atom    1 type  1   force =    -0.00712795   -0.01416292   -0.00130923
     atom    2 type  1   force =     0.00014164    0.00743180    0.00477508
     atom    3 type  2   force =     0.01210756    0.00490670   -0.00227919
     atom    4 type  2   force =     0.00848748    0.00837074   -0.00037337
     atom    5 type  1   force =    -0.00093622   -0.03137981   -0.00147502
     atom    6 type  1   force =     0.00135243    0.02814975   -0.00107549
     atom    7 type  1   force =    -0.00021897   -0.00146923    0.00001339
     atom    8 type  1   force =    -0.00276087   -0.00230533    0.00096890
     atom    9 type  2   force =     0.00771494    0.00324252    0.00102414
     atom   10 type  2   force =     0.00001608    0.00210295    0.00350668
     atom   11 type  1   force =    -0.01297624    0.01075676   -0.01905748
     atom   12 type  1   force =    -0.01364339   -0.01247967   -0.02297074
     atom   13 type  1   force =    -0.00076833    0.00037818    0.00324463
     atom   14 type  1   force =    -0.00715023   -0.01432189   -0.00129050
     atom   15 type  1   force =     0.00017054    0.00684966   -0.00045866
     atom   16 type  2   force =    -0.01258867    0.00481163   -0.00229311
     atom   17 type  2   force =     0.00852784    0.00897719    0.00001568
     atom   18 type  1   force =    -0.00010831   -0.03140998   -0.00143516
     atom   19 type  1   force =     0.00173167    0.02805017   -0.00108615
     atom   20 type  1   force =    -0.00022216   -0.00071413   -0.01726105
     atom   21 type  1   force =    -0.00286390   -0.00010933    0.00168875
     atom   22 type  2   force =    -0.00504207    0.00338148    0.00105895
     atom   23 type  2   force =     0.00004426   -0.02905657    0.10647354
     atom   24 type  1   force =     0.01284104    0.01083281   -0.01908325
     atom   25 type  1   force =     0.01416143   -0.01245820   -0.02293648
     atom   26 type  1   force =    -0.00107928   -0.02018408   -0.01167716
     atom   27 type  3   force =    -0.00000647   -0.00059607    0.00093382
     atom   28 type  3   force =    -0.00002298   -0.00006852    0.00094611
     atom   29 type  3   force =     0.00011189    0.00045562    0.00075868
     atom   30 type  3   force =     0.00011347    0.00039174    0.00078241
     atom   31 type  1   force =    -0.00051083    0.07944038    0.00047626
     atom   32 type  1   force =     0.00067859   -0.05304705    0.00021216
     atom   33 type  3   force =    -0.00017400    0.01523272   -0.00081715

     Total force =     0.001300     Total SCF correction =     0.000025

     bfgs converged in   9 scf cycles and   8 bfgs steps
     (criteria: energy < 0.10E-03, force < 0.10E-02)

     End of BFGS Geometry Optimization

     Final energy   =   -2013.6253354543 Ry
Begin final coordinates

ATOMIC_POSITIONS (crystal)
O0       0.000000000   0.000000000   0.378650000    0   0   0
O0       0.000000000   0.500000000   0.400490000    0   0   0
Rh1      0.250000000   0.500000000   0.451990000    0   0   0
Rh1      0.000000000   0.000000000   0.453200000    0   0   0
O0       0.250000000   0.810000000   0.452790000    0   0   0
O0       0.250000000   0.190000000   0.452580000    0   0   0
O0       0.000000000   0.500000000   0.498480000    0   0   0
O0       0.000000000   0.000000000   0.528800000    0   0   0
Rh1      0.250000000   0.000000000   0.576450000    0   0   0
Rh1      0.000000000   0.500000000   0.571210000    0   0   0
O0       0.250000000   0.690000000   0.577890000    0   0   0
O0       0.250000000   0.310000000   0.577910000    0   0   0
O0       0.000000000   0.000000000   0.621680000    0   0   0
O0       0.500000000   0.000000000   0.378650000    0   0   0
O0       0.500000000   0.500000000   0.400490000    0   0   0
Rh1      0.750000000   0.500000000   0.451990000    0   0   0
Rh1      0.500000000   0.000000000   0.453200000    0   0   0
O0       0.750000000   0.810000000   0.452790000    0   0   0
O0       0.750000000   0.190000000   0.452580000    0   0   0
O0       0.500000000   0.500000000   0.498480000    0   0   0
O0       0.500000000   0.000000000   0.528800000    0   0   0
Rh1      0.750000000   0.000000000   0.576450000    0   0   0
Rh1      0.500000000   0.500000000   0.571210000    0   0   0
O0       0.750000000   0.690000000   0.577890000    0   0   0
O0       0.750000000   0.310000000   0.577910000    0   0   0
O0       0.500000000   0.000000000   0.621680000    0   0   0
H2      -0.000070000   0.638970000   0.383980000    0   0   0
H2       0.499930000   0.638960000   0.383980000    0   0   0
H2       0.148440000   0.032530000   0.367830000    0   0   0
H2       0.648440000   0.032530000   0.367830000    0   0   0
O0       0.499734731   0.500000000   0.647634150    1   0   1
O0       0.500330791   0.318950000   0.674891043    1   0   1
H2       0.499925921   0.364970000   0.710551869    1   0   1
End final coordinates

     General routines

     Parallel routines

   This run was terminated on:  16:11:35   1May2014

   JOB DONE.