     Program PWSCF v.5.0.2 (svn rev. 9656) starts on 30Apr2014 at 21:46:44

     Current dimensions of program PWSCF are:
     Max number of different atomic species (ntypx) = 10
     Max number of k-points (npk) =  40000
     Max angular momentum in pseudopotentials (lmaxx) =  3
     Reading input from pwscf.in
Warning: card &CELL ignored
Warning: card / ignored

     Subspace diagonalization in iterative solution of the eigenvalue problem:
     a serial algorithm will be used

     bravais-lattice index     =            0
     lattice parameter (alat)  =      11.1872  a.u.
     unit-cell volume          =    7531.8600 (a.u.)^3
     number of atoms/cell      =           31
     number of atomic types    =            3
     number of electrons       =       222.00
     number of Kohn-Sham states=          333
     kinetic-energy cutoff     =      40.0000  Ry
     charge density cutoff     =     500.0000  Ry
     convergence threshold     =      1.0E-06
     mixing beta               =       0.7000
     number of iterations used =            8  plain     mixing
     Exchange-correlation      = SLA  PW   PBE  PBE ( 1 4 3 4 0)
     EXX-fraction              =        0.00
     nstep                     =           50

     celldm(1)=  11.187179  celldm(2)=   0.000000  celldm(3)=   0.000000
     celldm(4)=   0.000000  celldm(5)=   0.000000  celldm(6)=   0.000000

     crystal axes: (cart. coord. in units of alat)
               a(1) = (   1.000000   0.000000   0.000000 )
               a(2) = (   0.000000   1.180104   0.000000 )
               a(3) = (   0.000000   0.000000   4.558482 )

     reciprocal axes: (cart. coord. in units 2 pi/alat)
               b(1) = (  1.000000  0.000000  0.000000 )
               b(2) = (  0.000000  0.847383  0.000000 )
               b(3) = (  0.000000  0.000000  0.219371 )

     PseudoPot. # 1 for O  read from file:
     /home/camp/zhonxu/pseudo/o_pbe_v1.01.uspp.F.UPF
     MD5 check sum: 2bcb18d16ea4b960afae9ec6d52f22d2
     Pseudo is Ultrasoft + core correction, Zval =  6.0
     Generated by new atomic code, or converted to UPF format
     Using radial grid of  737 points,  5 beta functions with:
                l(1) =   0
                l(2) =   0
                l(3) =   1
                l(4) =   1
                l(5) =   2
     Q(r) pseudized with  8 coefficients,  rinner =    0.900   0.900   0.900
                                                       0.900   0.900

     PseudoPot. # 2 for Nb read from file:
     /home/camp/zhonxu/pseudo/nb_pbe_v1.uspp.F.UPF
     MD5 check sum: 573aab8a2fa660278ed4a62cd769473f
     Pseudo is Ultrasoft + core correction, Zval = 13.0
     Generated by new atomic code, or converted to UPF format
     Using radial grid of  887 points,  6 beta functions with:
                l(1) =   0
                l(2) =   0
                l(3) =   1
                l(4) =   1
                l(5) =   2
                l(6) =   2
     Q(r) pseudized with  6 coefficients,  rinner =    1.000   1.000   1.000
                                                       1.000   1.000

     PseudoPot. # 3 for H  read from file:
     /home/camp/zhonxu/pseudo/h_pbe_v1.uspp.F.UPF
     MD5 check sum: 3408e3ff4ec8b0a4e358431e7e038a48
     Pseudo is Ultrasoft, Zval =  1.0
     Generated by new atomic code, or converted to UPF format
     Using radial grid of  615 points,  2 beta functions with:
                l(1) =   0
                l(2) =   0
     Q(r) pseudized with  8 coefficients,  rinner =    0.700

     atomic species   valence    mass     pseudopotential
        O0             6.00    15.99940     O ( 1.00)
        Nb1           13.00    92.90640     Nb( 1.00)
        H2             1.00     1.00794     H ( 1.00)

     Simplified LDA+U calculation (l_max = 2) with parameters (eV):
     atomic species    L          U    alpha       J0     beta
        Nb1            2     6.5000   0.0000   0.0000   0.0000

     No symmetry found

   Cartesian axes

     site n.     atom                  positions (alat units)
         1           O0  tau(   1) = (   0.0000000   0.0000000   1.6934306  )
         2           O0  tau(   2) = (   0.0000000   0.5900519   1.7719732  )
         3           Nb1 tau(   3) = (   0.2500000   0.5900519   2.0266100  )
         4           Nb1 tau(   4) = (   0.0000000   0.0000000   2.0234647  )
         5           O0  tau(   5) = (   0.2500000   0.9322821   2.0339492  )
         6           O0  tau(   6) = (   0.2500000   0.2478218   2.0339492  )
         7           O0  tau(   7) = (   0.0000000   0.5900519   2.2822497  )
         8           O0  tau(   8) = (   0.0000000   0.0000000   2.3837671  )
         9           Nb1 tau(   9) = (   0.2500000   0.0000000   2.6303810  )
        10           Nb1 tau(  10) = (   0.0000000   0.5900519   2.5986084  )
        11           O0  tau(  11) = (   0.2500000   0.8378738   2.6271901  )
        12           O0  tau(  12) = (   0.2500000   0.3422301   2.6272357  )
        13           O0  tau(  13) = (   0.0000000   0.0000000   2.8322306  )
        14           O0  tau(  14) = (   0.5000000   0.0000000   1.6959377  )
        15           O0  tau(  15) = (   0.5000000   0.5900519   1.7815005  )
        16           Nb1 tau(  16) = (   0.7500000   0.5900519   2.0269291  )
        17           Nb1 tau(  17) = (   0.5000000   0.0000000   2.0281143  )
        18           O0  tau(  18) = (   0.7500000   0.9322821   2.0339492  )
        19           O0  tau(  19) = (   0.7500000   0.2478218   2.0339492  )
        20           O0  tau(  20) = (   0.5000000   0.5900519   2.2572692  )
        21           O0  tau(  21) = (   0.5000000   0.0000000   2.3822628  )
        22           Nb1 tau(  22) = (   0.7500000   0.0000000   2.6309736  )
        23           Nb1 tau(  23) = (   0.5000000   0.5900519   2.6831227  )
        24           O0  tau(  24) = (   0.7500000   0.8378738   2.6265975  )
        25           O0  tau(  25) = (   0.7500000   0.3422301   2.6265975  )
        26           O0  tau(  26) = (   0.5000000   0.0000000   2.8320027  )
        27           H2  tau(  27) = (  -0.0004900   0.5918693   1.6065459  )
        28           H2  tau(  28) = (   0.4994900   0.5917631   1.6163466  )
        29           H2  tau(  29) = (   0.1504600   0.0004366   1.6207228  )
        30           H2  tau(  30) = (   0.6496400   0.0004366   1.6219536  )
        31           O0  tau(  31) = (   0.5000300   0.5900519   2.9731333  )

     number of k points=    10  Methfessel-Paxton smearing, width (Ry)=  0.0100
                       cart. coord. in units 2pi/alat
        k(    1) = (   0.0000000   0.0000000   0.0000000), wk =   0.1250000
        k(    2) = (   0.0000000   0.2118458   0.0000000), wk =   0.2500000
        k(    3) = (   0.0000000  -0.4236915   0.0000000), wk =   0.1250000
        k(    4) = (   0.2500000   0.0000000   0.0000000), wk =   0.2500000
        k(    5) = (   0.2500000   0.2118458   0.0000000), wk =   0.2500000
        k(    6) = (   0.2500000  -0.4236915   0.0000000), wk =   0.2500000
        k(    7) = (  -0.5000000   0.0000000   0.0000000), wk =   0.1250000
        k(    8) = (  -0.5000000   0.2118458   0.0000000), wk =   0.2500000
        k(    9) = (  -0.5000000  -0.4236915   0.0000000), wk =   0.1250000
        k(   10) = (  -0.2500000   0.2118458   0.0000000), wk =   0.2500000

     Largest allocated arrays     est. size (Mb)     dimensions
     Largest temporary arrays     est. size (Mb)     dimensions

     Check: negative/imaginary core charge=   -0.000003    0.000000

     Initial potential from superposition of free atoms
     Check: negative starting charge=   -0.003810

     starting charge  221.97807, renormalised to  222.00000

     negative rho (up, down):  0.381E-02 0.000E+00
     Number of +U iterations with fixed ns =  0
     Starting occupations:
 --- enter write_ns ---
 LDA+U parameters:
U( 2)     =  6.50000000
alpha( 2) =  0.00000000
atom    3   Tr[ns(na)] =   3.00000
    eigenvalues:
  0.300  0.300  0.300  0.300  0.300
    eigenvectors:
  1.000  0.000  0.000  0.000  0.000
  0.000  1.000  0.000  0.000  0.000
  0.000  0.000  1.000  0.000  0.000
  0.000  0.000  0.000  1.000  0.000
  0.000  0.000  0.000  0.000  1.000
    occupations:
  0.300  0.000  0.000  0.000  0.000
  0.000  0.300  0.000  0.000  0.000
  0.000  0.000  0.300  0.000  0.000
  0.000  0.000  0.000  0.300  0.000
  0.000  0.000  0.000  0.000  0.300
atom    4   Tr[ns(na)] =   3.00000
    eigenvalues:
  0.300  0.300  0.300  0.300  0.300
    eigenvectors:
  1.000  0.000  0.000  0.000  0.000
  0.000  1.000  0.000  0.000  0.000
  0.000  0.000  1.000  0.000  0.000
  0.000  0.000  0.000  1.000  0.000
  0.000  0.000  0.000  0.000  1.000
    occupations:
  0.300  0.000  0.000  0.000  0.000
  0.000  0.300  0.000  0.000  0.000
  0.000  0.000  0.300  0.000  0.000
  0.000  0.000  0.000  0.300  0.000
  0.000  0.000  0.000  0.000  0.300
atom    9   Tr[ns(na)] =   3.00000
    eigenvalues:
  0.300  0.300  0.300  0.300  0.300
    eigenvectors:
  1.000  0.000  0.000  0.000  0.000
  0.000  1.000  0.000  0.000  0.000
  0.000  0.000  1.000  0.000  0.000
  0.000  0.000  0.000  1.000  0.000
  0.000  0.000  0.000  0.000  1.000
    occupations:
  0.300  0.000  0.000  0.000  0.000
  0.000  0.300  0.000  0.000  0.000
  0.000  0.000  0.300  0.000  0.000
  0.000  0.000  0.000  0.300  0.000
  0.000  0.000  0.000  0.000  0.300
atom   10   Tr[ns(na)] =   3.00000
    eigenvalues:
  0.300  0.300  0.300  0.300  0.300
    eigenvectors:
  1.000  0.000  0.000  0.000  0.000
  0.000  1.000  0.000  0.000  0.000
  0.000  0.000  1.000  0.000  0.000
  0.000  0.000  0.000  1.000  0.000
  0.000  0.000  0.000  0.000  1.000
    occupations:
  0.300  0.000  0.000  0.000  0.000
  0.000  0.300  0.000  0.000  0.000
  0.000  0.000  0.300  0.000  0.000
  0.000  0.000  0.000  0.300  0.000
  0.000  0.000  0.000  0.000  0.300
atom   16   Tr[ns(na)] =   3.00000
    eigenvalues:
  0.300  0.300  0.300  0.300  0.300
    eigenvectors:
  1.000  0.000  0.000  0.000  0.000
  0.000  1.000  0.000  0.000  0.000
  0.000  0.000  1.000  0.000  0.000
  0.000  0.000  0.000  1.000  0.000
  0.000  0.000  0.000  0.000  1.000
    occupations:
  0.300  0.000  0.000  0.000  0.000
  0.000  0.300  0.000  0.000  0.000
  0.000  0.000  0.300  0.000  0.000
  0.000  0.000  0.000  0.300  0.000
  0.000  0.000  0.000  0.000  0.300
atom   17   Tr[ns(na)] =   3.00000
    eigenvalues:
  0.300  0.300  0.300  0.300  0.300
    eigenvectors:
  1.000  0.000  0.000  0.000  0.000
  0.000  1.000  0.000  0.000  0.000
  0.000  0.000  1.000  0.000  0.000
  0.000  0.000  0.000  1.000  0.000
  0.000  0.000  0.000  0.000  1.000
    occupations:
  0.300  0.000  0.000  0.000  0.000
  0.000  0.300  0.000  0.000  0.000
  0.000  0.000  0.300  0.000  0.000
  0.000  0.000  0.000  0.300  0.000
  0.000  0.000  0.000  0.000  0.300
atom   22   Tr[ns(na)] =   3.00000
    eigenvalues:
  0.300  0.300  0.300  0.300  0.300
    eigenvectors:
  1.000  0.000  0.000  0.000  0.000
  0.000  1.000  0.000  0.000  0.000
  0.000  0.000  1.000  0.000  0.000
  0.000  0.000  0.000  1.000  0.000
  0.000  0.000  0.000  0.000  1.000
    occupations:
  0.300  0.000  0.000  0.000  0.000
  0.000  0.300  0.000  0.000  0.000
[...]
    eigenvalues:
  0.335  0.366  0.562  0.598  0.716
    eigenvectors:
  0.003  0.000  0.000  0.997  0.000
  0.996  0.000  0.000  0.003  0.001
  0.000  1.000  0.000  0.000  0.000
  0.001  0.000  0.000  0.000  0.999
  0.000  0.000  1.000  0.000  0.000
    occupations:
  0.597  0.014  0.000  0.001 -0.000
  0.014  0.336 -0.000 -0.010  0.000
  0.000 -0.000  0.366  0.000  0.001
  0.001 -0.010  0.000  0.716  0.000
 -0.000  0.000  0.001  0.000  0.562
atom    9   Tr[ns(na)] =   5.23698
    eigenvalues:
  0.431  0.447  0.481  0.626  0.633
    eigenvectors:
  0.000  0.875  0.000  0.125  0.000
  0.000  0.000  0.000  0.002  0.998
  0.856  0.000  0.144  0.000  0.000
  0.000  0.125  0.000  0.874  0.001
  0.144  0.000  0.856  0.000  0.000
    occupations:
  0.469 -0.000  0.000  0.059  0.000
 -0.000  0.633 -0.000 -0.000 -0.000
  0.000 -0.000  0.438 -0.000  0.018
  0.059 -0.000 -0.000  0.604 -0.000
  0.000 -0.000  0.018 -0.000  0.474
atom   10   Tr[ns(na)] =   4.97030
    eigenvalues:
  0.282  0.312  0.492  0.546  0.853
    eigenvectors:
  0.000  0.000  1.000  0.000  0.000
  0.000  0.866  0.000  0.000  0.133
  0.983  0.000  0.000  0.017  0.000
  0.000  0.134  0.000  0.000  0.866
  0.017  0.000  0.000  0.983  0.000
    occupations:
  0.492  0.000 -0.000 -0.003 -0.000
  0.000  0.384 -0.000  0.184  0.000
 -0.000 -0.000  0.287 -0.000 -0.034
 -0.003  0.184 -0.000  0.781  0.000
 -0.000  0.000 -0.034  0.000  0.541
atom   16   Tr[ns(na)] =   5.14462
    eigenvalues:
  0.325  0.372  0.548  0.608  0.720
    eigenvectors:
  0.000  0.000  0.007  0.341  0.652
  0.000  0.000  0.980  0.020  0.000
  0.755  0.245  0.000  0.000  0.000
  0.000  0.000  0.013  0.639  0.348
  0.245  0.755  0.000  0.000  0.000
    occupations:
  0.680  0.005  0.000 -0.054 -0.000
  0.005  0.549 -0.000  0.007  0.000
  0.000 -0.000  0.336 -0.000  0.020
 -0.054  0.007 -0.000  0.646 -0.000
 -0.000  0.000  0.020 -0.000  0.360
atom   17   Tr[ns(na)] =   5.15228
    eigenvalues:
  0.333  0.363  0.559  0.597  0.724
    eigenvectors:
  0.003  0.000  0.000  0.997  0.000
  0.997  0.000  0.000  0.003  0.001
  0.000  1.000  0.000  0.000  0.000
  0.001  0.000  0.000  0.000  0.999
  0.000  0.000  1.000  0.000  0.000
    occupations:
  0.596  0.014  0.000 -0.000 -0.000
  0.014  0.334 -0.000 -0.009  0.000
  0.000 -0.000  0.363  0.000  0.001
 -0.000 -0.009  0.000  0.724  0.000
 -0.000  0.000  0.001  0.000  0.559
atom   22   Tr[ns(na)] =   5.25186
    eigenvalues:
  0.441  0.452  0.471  0.631  0.631
    eigenvectors:
  0.000  0.891  0.000  0.092  0.017
  0.000  0.000  0.000  0.162  0.838
  0.997  0.000  0.003  0.000  0.000
  0.000  0.109  0.000  0.747  0.144
  0.003  0.000  0.997  0.000  0.000
    occupations:
  0.471 -0.000  0.000  0.056 -0.000
 -0.000  0.631  0.000  0.000  0.000
  0.000  0.000  0.441 -0.000  0.002
  0.056  0.000 -0.000  0.611  0.000
 -0.000  0.000  0.002  0.000  0.471
atom   23   Tr[ns(na)] =   5.32511
    eigenvalues:
  0.456  0.494  0.540  0.543  0.629
    eigenvectors:
  0.001  0.000  0.000  0.012  0.986
  0.169  0.000  0.000  0.818  0.013
  0.000  0.983  0.017  0.000  0.000
  0.830  0.000  0.000  0.170  0.000
  0.000  0.017  0.983  0.000  0.000
    occupations:
  0.628 -0.011  0.000 -0.001  0.000
 -0.011  0.529 -0.000 -0.033 -0.000
  0.000 -0.000  0.495  0.000  0.006
 -0.001 -0.033  0.000  0.471 -0.000
  0.000 -0.000  0.006 -0.000  0.539
N of occupied +U levels =  41.3839237
 --- exit write_ns ---

     Threshold (ethr) on eigenvalues was too large:
     Diagonalizing with lowered threshold

     Davidson diagonalization with overlap
     ethr =  5.09E-09,  avg # of iterations =  2.3

[...]

     total energy              =   -1557.97276922 Ry
     Harris-Foulkes estimate   =   -1557.97276922 Ry
     estimated scf accuracy    <       0.00000002 Ry

     iteration # 12     ecut=    40.00 Ry     beta=0.70
     Davidson diagonalization with overlap
     ethr =  7.32E-12,  avg # of iterations =  1.3

     negative rho (up, down):  0.363E-02 0.000E+00

     End of self-consistent calculation
 --- enter write_ns ---
 LDA+U parameters:
U( 2)     =  6.50000000
alpha( 2) =  0.00000000
atom    3   Tr[ns(na)] =   5.14895
    eigenvalues:
  0.325  0.369  0.547  0.606  0.727
    eigenvectors:
  0.000  0.000  0.012  0.338  0.650
  0.000  0.000  0.974  0.025  0.000
  0.767  0.233  0.000  0.000  0.000
  0.000  0.000  0.014  0.637  0.349
  0.233  0.767  0.000  0.000  0.000
    occupations:
  0.684 -0.008  0.000 -0.058  0.000
 -0.008  0.549  0.000 -0.006  0.000
  0.000  0.000  0.335 -0.000 -0.019
 -0.058 -0.006 -0.000  0.648  0.000
  0.000  0.000 -0.019  0.000  0.359
atom    4   Tr[ns(na)] =   5.15507
    eigenvalues:
  0.335  0.366  0.562  0.598  0.717
    eigenvectors:
  0.003  0.000  0.000  0.997  0.000
  0.996  0.000  0.000  0.003  0.001
  0.000  1.000  0.000  0.000  0.000
  0.001  0.000  0.000  0.000  0.999
  0.000  0.000  1.000  0.000  0.000
    occupations:
  0.597  0.014  0.000  0.001 -0.000
  0.014  0.336 -0.000 -0.010  0.000
  0.000 -0.000  0.366  0.000  0.001
  0.001 -0.010  0.000  0.716  0.000
 -0.000  0.000  0.001  0.000  0.562
atom    9   Tr[ns(na)] =   5.23677
    eigenvalues:
  0.431  0.447  0.481  0.626  0.633
    eigenvectors:
  0.000  0.875  0.000  0.125  0.000
  0.000  0.000  0.000  0.002  0.998
  0.857  0.000  0.143  0.000  0.000
  0.000  0.125  0.000  0.874  0.002
  0.143  0.000  0.857  0.000  0.000
    occupations:
  0.469 -0.000  0.000  0.059  0.000
 -0.000  0.633 -0.000 -0.000 -0.000
  0.000 -0.000  0.438 -0.000  0.017
  0.059 -0.000 -0.000  0.604 -0.000
  0.000 -0.000  0.017 -0.000  0.474
atom   10   Tr[ns(na)] =   4.96982
    eigenvalues:
  0.283  0.312  0.492  0.546  0.853
    eigenvectors:
  0.000  0.000  1.000  0.000  0.000
  0.000  0.867  0.000  0.000  0.133
  0.983  0.000  0.000  0.017  0.000
  0.000  0.133  0.000  0.000  0.867
  0.017  0.000  0.000  0.983  0.000
    occupations:
  0.492  0.000 -0.000 -0.003 -0.000
  0.000  0.384 -0.000  0.184  0.000
 -0.000 -0.000  0.287 -0.000 -0.034
 -0.003  0.184 -0.000  0.781  0.000
 -0.000  0.000 -0.034  0.000  0.541
atom   16   Tr[ns(na)] =   5.14452
    eigenvalues:
  0.325  0.372  0.548  0.608  0.720
    eigenvectors:
  0.000  0.000  0.007  0.341  0.652
  0.000  0.000  0.980  0.020  0.000
  0.755  0.245  0.000  0.000  0.000
  0.000  0.000  0.013  0.639  0.348
  0.245  0.755  0.000  0.000  0.000
    occupations:
  0.680  0.005  0.000 -0.054 -0.000
  0.005  0.549 -0.000  0.007  0.000
  0.000 -0.000  0.336 -0.000  0.020
 -0.054  0.007 -0.000  0.646 -0.000
 -0.000  0.000  0.020 -0.000  0.360
atom   17   Tr[ns(na)] =   5.15209
    eigenvalues:
  0.333  0.363  0.559  0.597  0.724
    eigenvectors:
  0.003  0.000  0.000  0.997  0.000
  0.997  0.000  0.000  0.003  0.001
  0.000  1.000  0.000  0.000  0.000
  0.001  0.000  0.000  0.000  0.999
  0.000  0.000  1.000  0.000  0.000
    occupations:
  0.596  0.014  0.000 -0.000 -0.000
  0.014  0.334 -0.000 -0.009  0.000
  0.000 -0.000  0.363  0.000  0.001
 -0.000 -0.009  0.000  0.724  0.000
 -0.000  0.000  0.001  0.000  0.559
atom   22   Tr[ns(na)] =   5.25142
    eigenvalues:
  0.441  0.452  0.471  0.631  0.631
    eigenvectors:
  0.000  0.891  0.000  0.091  0.018
  0.000  0.000  0.000  0.164  0.836
  0.997  0.000  0.003  0.000  0.000
  0.000  0.109  0.000  0.744  0.147
  0.003  0.000  0.997  0.000  0.000
    occupations:
  0.471 -0.000  0.000  0.056 -0.000
 -0.000  0.631  0.000  0.000  0.000
  0.000  0.000  0.441 -0.000  0.002
  0.056  0.000 -0.000  0.611  0.000
 -0.000  0.000  0.002  0.000  0.471
atom   23   Tr[ns(na)] =   5.32542
    eigenvalues:
  0.456  0.494  0.540  0.543  0.629
    eigenvectors:
  0.001  0.000  0.000  0.013  0.986
  0.170  0.000  0.000  0.817  0.014
  0.000  0.983  0.017  0.000  0.000
  0.829  0.000  0.000  0.171  0.000
  0.000  0.017  0.983  0.000  0.000
    occupations:
  0.628 -0.011  0.000 -0.001  0.000
 -0.011  0.529 -0.000 -0.033 -0.000
  0.000 -0.000  0.495  0.000  0.006
 -0.001 -0.033  0.000  0.471 -0.000
  0.000 -0.000  0.006 -0.000  0.539
N of occupied +U levels =  41.3840588
 --- exit write_ns ---

[...]

          k = 0.2500-0.4237 0.0000 ( 32188 PWs)   bands (ev):

[...]

          k =-0.2500 0.2118 0.0000 ( 32165 PWs)   bands (ev):

   -56.9639 -56.7985 -56.4922 -56.4253 -56.4182 -56.3506 -55.9098 -55.7887
   -33.6584 -33.1680 -33.0351 -32.9347 -32.9248 -32.9077 -32.8871 -32.8659
   -32.8569 -32.8360 -32.7816 -32.7603 -32.7301 -32.4074 -32.3111 -32.3003
   -32.2943 -32.2035 -32.1859 -32.1639 -32.1486 -31.8923 -31.7457 -31.5850
   -20.9461 -20.6096 -19.8764 -19.7748 -19.4641 -19.4075 -19.3995 -19.3751
   -19.2349 -19.1258 -19.0474 -18.5701 -18.4775 -18.4692 -18.3607 -18.2966
   -18.2530 -18.2021 -17.0238  -9.5601  -8.9626  -7.9452  -7.8183  -7.5867
    -7.3697  -7.0696  -6.9568  -6.7974  -6.7422  -6.7098  -6.6312  -6.4001
    -6.3789  -6.3306  -6.1050  -6.0064  -5.9485  -5.8597  -5.6860  -5.4613
    -5.4024  -5.2246  -5.1476  -5.0365  -4.8747  -4.7545  -4.6605  -4.6316
    -4.5957  -4.5058  -4.4579  -4.4068  -4.3693  -4.2858  -4.2498  -4.2059
    -4.0614  -3.9623  -3.9250  -3.8480  -3.8012  -3.7201  -3.6325  -3.6179
    -3.4653  -3.3781  -3.3354  -3.2320  -3.1995  -3.0873  -2.9999  -2.9464
    -2.8942  -2.7020  -2.6261  -2.3569  -0.9832  -0.7058  -0.2981   1.0524
     1.1232   1.2634   1.3500   1.3906   1.4406   1.6993   1.7338   1.8960
     1.9461   2.0378   2.1855   2.2223   2.3277   2.5075   2.5722   2.6036
     2.7210   2.7401   2.8894   3.1019   3.1963   3.6089   4.0435   4.1371
     4.2521   4.4126   4.5472   4.6025   4.8041   4.8348   4.9422   5.0373
     5.1668   5.2473   5.4128   5.5177   5.5897   5.7207   5.9370   5.9877
     6.0479   6.1909   6.4526   6.5269   6.5580   6.5660   6.7836   6.8102
     6.8686   7.0460   7.2044   7.2795   7.4415   7.5002   7.8249   7.9146
     8.0298   8.0482   8.1486   8.1935   8.2469   8.5393   8.6154   8.7061
     8.8217   8.9077   9.0145   9.1044   9.1789   9.2819   9.3214   9.5043
     9.5384   9.6033   9.7654   9.8570   9.9139  10.0118  10.0750  10.1720
    10.2671  10.3898  10.5859  10.7393  10.7727  10.9136  10.9728  11.0160
    11.1265  11.1640  11.2424  11.2922  11.3938  11.4457  11.5256  11.5494
    11.6676  11.7587  11.8942  11.9300  11.9967  12.1169  12.1461  12.2289
    12.3056  12.3621  12.4285  12.4799  12.6197  12.6718  12.7127  12.7401
    12.7833  12.8698  12.9586  13.0083  13.0601  13.0989  13.2400  13.2985
    13.3537  13.4209  13.5272  13.6379  13.7093  13.7506  13.8301  13.8718
    13.9547  13.9754  14.0152  14.1422  14.1788  14.2937  14.3483  14.4218
    14.4702  14.5983  14.6621  14.7872  14.9131  14.9318  15.0459  15.1123
    15.2270  15.2599  15.2784  15.3443  15.4092  15.4646  15.5255  15.5900
    15.6743  15.6982  15.8000  15.8662  15.9109  15.9698  16.0583  16.1030
    16.1987  16.2913  16.3858  16.3966  16.4528  16.5123  16.5756  16.6728
    16.7395  16.7683  16.8693  16.9451  17.0564  17.0948  17.1674  17.2403
    17.2779  17.3460  17.3629  17.4510  17.4828  17.5814  17.6346  17.7260
    17.7482  17.8819  17.9724  18.0007  18.0946  18.1468  18.2004  18.3518
    18.3804  18.4456  18.4778  18.5427  18.6223  18.6648  18.7058  18.7978
    18.8621  18.9237  18.9837  19.0897  19.1456  19.1833  19.2331  19.3470
    19.3712  19.4096  19.4796  19.5416  19.5895  19.6427  19.6608  19.6930
    19.7618  19.8739  19.9254  19.9973  20.0687

     the Fermi energy is     0.2896 ev

!    total energy              =   -1557.97276923 Ry
     Harris-Foulkes estimate   =   -1557.97276923 Ry
     estimated scf accuracy    <          6.6E-09 Ry

     The total energy is the sum of the following terms:

     one-electron contribution =  -18846.84776123 Ry
     hartree contribution      =    9449.42113514 Ry
     xc contribution           =    -286.96204278 Ry
     ewald contribution        =    8121.99727602 Ry
     Hubbard energy            =       4.41855608 Ry
     smearing contrib. (-TS)   =       0.00006755 Ry

     convergence has been achieved in  12 iterations

     Forces acting on atoms (Ry/au):

     negative rho (up, down):  0.363E-02 0.000E+00
     atom    1 type  1   force =     0.00109886   -0.00002582   -0.00006565
     atom    2 type  1   force =    -0.00169789    0.00015016   -0.00009568
     atom    3 type  2   force =    -0.05429853   -0.00009960   -0.00016457
     atom    4 type  2   force =    -0.00386548    0.00001826   -0.00016885
     atom    5 type  1   force =    -0.00492927   -0.00668547    0.00019951
     atom    6 type  1   force =    -0.00498329    0.00670277    0.00020065
     atom    7 type  1   force =    -0.00000964   -0.00002235    0.00096130
     atom    8 type  1   force =     0.01263576    0.00000384   -0.00032870
     atom    9 type  2   force =     0.00575395    0.00000258   -0.00051037
     atom   10 type  2   force =    -0.00950175   -0.00000866    0.00042933
     atom   11 type  1   force =    -0.00102071    0.00300213   -0.00018005
     atom   12 type  1   force =    -0.00102016   -0.00299927   -0.00017821
     atom   13 type  1   force =    -0.00599047   -0.00000081   -0.00017987
     atom   14 type  1   force =     0.00054644   -0.00008917   -0.00021939
     atom   15 type  1   force =     0.00057119   -0.00003561    0.00016279
     atom   16 type  2   force =     0.05674590   -0.00008083    0.00010055
     atom   17 type  2   force =    -0.00153832    0.00003909    0.00043102
     atom   18 type  1   force =     0.00584566   -0.00714818    0.00014002
     atom   19 type  1   force =     0.00583769    0.00716403    0.00013937
     atom   20 type  1   force =    -0.00472569    0.00004536   -0.00046196
     atom   21 type  1   force =    -0.01113842   -0.00000154    0.00047953
     atom   22 type  2   force =     0.00284180   -0.00000114    0.00035665
     atom   23 type  2   force =     0.03735161   -0.00000356   -0.00010354
     atom   24 type  1   force =    -0.01321556    0.02064040    0.00011881
     atom   25 type  1   force =    -0.01321404   -0.02063832    0.00011824
     atom   26 type  1   force =     0.00146267    0.00000072    0.00006649
     atom   27 type  3   force =    -0.00000049   -0.00003858   -0.00012845
     atom   28 type  3   force =    -0.00001227    0.00011223   -0.00018929
     atom   29 type  3   force =    -0.00015085   -0.00000683   -0.00039360
     atom   30 type  3   force =    -0.00003351    0.00000408   -0.00050397
     atom   31 type  1   force =     0.00065480    0.00000009   -0.00003211

     Total force =     0.001891     Total SCF correction =     0.000219
     SCF correction compared to forces is large: reduce conv_thr to get better values

     bfgs converged in  29 scf cycles and  28 bfgs steps
     (criteria: energy < 0.10E-03, force < 0.10E-02)

     End of BFGS Geometry Optimization

     Final energy   =   -1557.9727692270 Ry
Begin final coordinates

ATOMIC_POSITIONS (crystal)
O0       0.000000000   0.000000000   0.371420767    0   0   1
O0       0.000000000   0.500000000   0.387997228    0   0   1
Nb1      0.250000000   0.500000000   0.444446946    0   0   1
Nb1      0.000000000   0.000000000   0.444231123    0   0   1
O0       0.250000000   0.790000000   0.446273284    0   0   1
O0       0.250000000   0.210000000   0.446275057    0   0   1
O0       0.000000000   0.500000000   0.499968711    0   0   1
O0       0.000000000   0.000000000   0.523554720    0   0   1
Nb1      0.250000000   0.000000000   0.576357266    0   0   1
Nb1      0.000000000   0.500000000   0.570830813    0   0   1
O0       0.250000000   0.710000000   0.582017626    0   0   1
O0       0.250000000   0.290000000   0.582017373    0   0   1
O0       0.000000000   0.000000000   0.621496231    0   0   1
O0       0.500000000   0.000000000   0.371542694    0   0   1
O0       0.500000000   0.500000000   0.390271459    0   0   1
Nb1      0.750000000   0.500000000   0.444670933    0   0   1
Nb1      0.500000000   0.000000000   0.444514817    0   0   1
O0       0.750000000   0.790000000   0.446204436    0   0   1
O0       0.750000000   0.210000000   0.446206392    0   0   1
O0       0.500000000   0.500000000   0.495747856    0   0   1
O0       0.500000000   0.000000000   0.523507168    0   0   1
Nb1      0.750000000   0.000000000   0.578234948    0   0   1
Nb1      0.500000000   0.500000000   0.586005687    0   0   1
O0       0.750000000   0.710000000   0.572655101    0   0   1
O0       0.750000000   0.290000000   0.572655285    0   0   1
O0       0.500000000   0.000000000   0.621310450    0   0   1
H2      -0.000261637   0.501135266   0.351809438
H2       0.499737011   0.502116679   0.354149962
H2       0.151626863   0.000548517   0.356229468
H2       0.651568403   0.000579519   0.356346325
O0       0.519552103   0.500000422   0.649340438
End final coordinates

     General routines

     Parallel routines
     Hubbard U routines

   This run was terminated on:   1:40:17   2May2014

   JOB DONE.