     Program PWSCF v.5.0.2 (svn rev. 9656) starts on 20Apr2014 at 11:39:51

     Current dimensions of program PWSCF are:
     Max number of different atomic species (ntypx) = 10
     Max number of k-points (npk) =  40000
     Max angular momentum in pseudopotentials (lmaxx) =  3
     Reading input from pwscf.in
Warning: card &CELL ignored
Warning: card / ignored

     Subspace diagonalization in iterative solution of the eigenvalue problem:
     a serial algorithm will be used

     bravais-lattice index     =            0
     lattice parameter (alat)  =      10.1289  a.u.
     unit-cell volume          =    9515.8234 (a.u.)^3
     number of atoms/cell      =           49
     number of atomic types    =            2
     number of electrons       =       438.00
     number of Kohn-Sham states=          657
     kinetic-energy cutoff     =      40.0000  Ry
     charge density cutoff     =     500.0000  Ry
     convergence threshold     =      1.0E-06
     mixing beta               =       0.3000
     number of iterations used =            8  plain     mixing
     Exchange-correlation      = SLA  PW   PBE  PBE ( 1 4 3 4 0)
     EXX-fraction              =        0.00
     nstep                     =           50

     celldm(1)=  10.128932  celldm(2)=   0.000000  celldm(3)=   0.000000
     celldm(4)=   0.000000  celldm(5)=   0.000000  celldm(6)=   0.000000

     crystal axes: (cart. coord. in units of alat)
               a(1) = (   1.000000   0.000000   0.000000 )
               a(2) = (   0.000000   1.306037   0.000000 )
               a(3) = (   0.000000   0.000000   7.011323 )

     reciprocal axes: (cart. coord. in units 2 pi/alat)
               b(1) = (  1.000000  0.000000  0.000000 )
               b(2) = (  0.000000  0.765675  0.000000 )
               b(3) = (  0.000000  0.000000  0.142626 )

     PseudoPot. # 1 for O  read from file:
     /home/camp/zhonxu/pseudo/o_pbe_v1.01.uspp.F.UPF
     MD5 check sum: 2bcb18d16ea4b960afae9ec6d52f22d2
     Pseudo is Ultrasoft + core correction, Zval =  6.0
     Generated by new atomic code, or converted to UPF format
     Using radial grid of  737 points,  5 beta functions with:
                l(1) =   0
                l(2) =   0
                l(3) =   1
                l(4) =   1
                l(5) =   2
     Q(r) pseudized with  8 coefficients,  rinner =    0.900   0.900   0.900
                                                       0.900   0.900

     PseudoPot. # 2 for Re read from file:
     /home/camp/zhonxu/pseudo/re_pbe_v1.uspp.F.UPF
     MD5 check sum: 6f5a5dcaf9c96c20d0ffdde0de57afc6
     Pseudo is Ultrasoft + core correction, Zval = 15.0
     Generated by new atomic code, or converted to UPF format
     Using radial grid of  981 points,  8 beta functions with:
                l(1) =   0
                l(2) =   0
                l(3) =   1
                l(4) =   1
                l(5) =   2
                l(6) =   2
                l(7) =   3
                l(8) =   3
     Q(r) pseudized with  8 coefficients,  rinner =    1.000   1.000   1.000
                                                       1.000   1.000   1.000
                                                       1.000

     atomic species   valence    mass     pseudopotential
        O0             6.00    15.99940     O ( 1.00)
        Re1           15.00   186.20700     Re( 1.00)

      4 Sym. Ops. (no inversion) found

   Cartesian axes

     site n.     atom                  positions (alat units)
         1           O0  tau(   1) = (   0.0000000   0.6530184   2.2387856  )
         2           Re1 tau(   2) = (   0.2500000   0.6530184   2.5261097  )
         3           Re1 tau(   3) = (   0.0000000   0.0000000   2.5261097  )
         4           O0  tau(   4) = (   0.2500000   1.0187087   2.5261097  )
         5           O0  tau(   5) = (   0.2500000   0.2873281   2.5261097  )
         6           O0  tau(   6) = (   0.0000000   0.6530184   2.8134337  )
         7           O0  tau(   7) = (   0.0000000   0.0000000   2.8918203  )
         8           Re1 tau(   8) = (   0.2500000   0.0000000   3.1791443  )
         9           Re1 tau(   9) = (   0.0000000   0.6530184   3.1791443  )
        10           O0  tau(  10) = (   0.2500000   0.9403465   3.1791443  )
        11           O0  tau(  11) = (   0.2500000   0.3656903   3.1791443  )
        12           O0  tau(  12) = (   0.0000000   0.0000000   3.4664683  )
        13           O0  tau(  13) = (   0.0000000   0.6530184   3.5433125  )
        14           Re1 tau(  14) = (   0.2453800   0.6530184   3.8274814  )
        15           Re1 tau(  15) = (   0.0000000   0.0000000   3.8418546  )
        16           O0  tau(  16) = (   0.2488800   1.0202106   3.8338617  )
        17           O0  tau(  17) = (   0.2488800   0.2858261   3.8338617  )
        18           O0  tau(  18) = (   0.0000000   0.6530184   4.1169088  )
        19           O0  tau(  19) = (   0.0000000   0.0000000   4.2175213  )
        20           Re1 tau(  20) = (   0.2749000   0.0000000   4.4985351  )
        21           Re1 tau(  21) = (   0.0000000   0.6530184   4.4714714  )
        22           O0  tau(  22) = (   0.2537500   0.9362978   4.4940479  )
        23           O0  tau(  23) = (   0.2537500   0.3697390   4.4940479  )
        24           O0  tau(  24) = (   0.0000000   0.0000000   4.7327133  )
        25           O0  tau(  25) = (   0.5000000   0.6530184   2.2387856  )
        26           Re1 tau(  26) = (   0.7500000   0.6530184   2.5261097  )
        27           Re1 tau(  27) = (   0.5000000   0.0000000   2.5261097  )
        28           O0  tau(  28) = (   0.7500000   1.0187087   2.5261097  )
        29           O0  tau(  29) = (   0.7500000   0.2873281   2.5261097  )
        30           O0  tau(  30) = (   0.5000000   0.6530184   2.8134337  )
        31           O0  tau(  31) = (   0.5000000   0.0000000   2.8918203  )
        32           Re1 tau(  32) = (   0.7500000   0.0000000   3.1791443  )
        33           Re1 tau(  33) = (   0.5000000   0.6530184   3.1791443  )
        34           O0  tau(  34) = (   0.7500000   0.9403465   3.1791443  )
        35           O0  tau(  35) = (   0.7500000   0.3656903   3.1791443  )
        36           O0  tau(  36) = (   0.5000000   0.0000000   3.4664683  )
        37           O0  tau(  37) = (   0.5000000   0.6530184   3.5484307  )
        38           Re1 tau(  38) = (   0.7546200   0.6530184   3.8274814  )
        39           Re1 tau(  39) = (   0.5000000   0.0000000   3.8339318  )
        40           O0  tau(  40) = (   0.7511200   1.0202106   3.8338617  )
        41           O0  tau(  41) = (   0.7511200   0.2858261   3.8338617  )
        42           O0  tau(  42) = (   0.5000000   0.6530184   4.1084251  )
        43           O0  tau(  43) = (   0.5000000   0.0000000   4.1966276  )
        44           Re1 tau(  44) = (   0.7251000   0.0000000   4.4985351  )
        45           Re1 tau(  45) = (   0.5000000   0.6530184   4.4603234  )
        46           O0  tau(  46) = (   0.7462500   0.9362978   4.4940479  )
        47           O0  tau(  47) = (   0.7462500   0.3697390   4.4940479  )
        48           O0  tau(  48) = (   0.5000000   0.0000000   4.7844569  )
        49           O0  tau(  49) = (   0.5000000   0.6530184   4.7874718  )

     number of k points=     9  Methfessel-Paxton smearing, width (Ry)=  0.0100
                       cart. coord. in units 2pi/alat
        k(    1) = (   0.0000000   0.0000000   0.0000000), wk =   0.1250000
        k(    2) = (   0.0000000   0.1914188   0.0000000), wk =   0.2500000
        k(    3) = (   0.0000000  -0.3828376   0.0000000), wk =   0.1250000
        k(    4) = (   0.2500000   0.0000000   0.0000000), wk =   0.2500000
        k(    5) = (   0.2500000   0.1914188   0.0000000), wk =   0.5000000
        k(    6) = (   0.2500000  -0.3828376   0.0000000), wk =   0.2500000
        k(    7) = (  -0.5000000   0.0000000   0.0000000), wk =   0.1250000
        k(    8) = (  -0.5000000   0.1914188   0.0000000), wk =   0.2500000
        k(    9) = (  -0.5000000  -0.3828376   0.0000000), wk =   0.1250000

     Largest allocated arrays     est. size (Mb)     dimensions
     Largest temporary arrays     est. size (Mb)     dimensions
[g098.dcsc.fysik.dtu.dk:19007] Set MCA parameter "orte_base_help_aggregate" to 0 to see all help / error messages

     Check: negative/imaginary core charge=   -0.000003    0.000000

     Initial potential from superposition of free atoms
     Check: negative starting charge=   -0.474069

     starting charge  429.99923, renormalised to  438.00000

     negative rho (up, down):  0.483E+00 0.000E+00
     Starting wfc are  340 randomized atomic wfcs

     Self-consistent Calculation

     iteration #  1     ecut=    40.00 Ry     beta=0.30
     Davidson diagonalization with overlap
     ethr =  1.00E-02,  avg # of iterations =  6.0

     negative rho (up, down):  0.521E+00 0.000E+00

     total energy              =   -4161.08578952 Ry
     Harris-Foulkes estimate   =   -4183.19634175 Ry
     estimated scf accuracy    <      44.98762390 Ry

[...]

     End of self-consistent calculation

          k = 0.0000 0.0000 0.0000 ( 40685 PWs)   bands (ev):

   -80.7127 -80.2737 -80.1925 -80.1684 -80.1605 -80.1440 -80.1371 -80.1350
   -80.0987 -80.0802 -80.0778 -80.0684 -80.0411 -79.9524 -79.7642 -79.7061
   -42.8204 -42.7402 -42.7255 -42.5034 -42.4192 -42.3877 -42.3790 -42.3419
   -42.3212 -42.2316 -42.1691 -42.1370 -42.1100 -42.1093 -42.1041 -42.0988
   -42.0984 -42.0669 -42.0512 -42.0512 -42.0484 -42.0312 -42.0227 -41.9794
   -41.9672 -41.9629 -41.9417 -41.9288 -41.9228 -41.9225 -41.8965 -41.8910
   -41.8884 -41.8817 -41.8816 -41.7612 -41.6724 -41.6706 -41.5847 -41.5544
   -41.5455 -41.5274 -41.5044 -41.4868 -41.4685 -41.4652 -41.4596 -41.1704
   -19.8684 -19.5869 -19.3249 -19.2935 -19.2676 -19.0424 -18.9618 -18.7588
   -18.6679 -18.5956 -18.4595 -18.4017 -18.3979 -18.3543 -18.3251 -18.2779
   -18.2679 -18.1422 -18.1122 -18.0740 -18.0457 -18.0369 -18.0318 -18.0233
   -17.9904 -17.9623 -17.9499 -17.7739 -16.9624 -16.6533 -16.3293 -16.2338
   -15.8268  -8.3868  -8.2709  -8.2649  -8.1747  -8.0599  -7.7919  -7.4380
    -7.3734  -7.1259  -7.1105  -6.9233  -6.7998  -6.7722  -6.7251  -6.7100
    -6.6567  -6.5284  -6.4709  -6.4643  -6.4526  -6.3184  -6.2773  -6.1891
    -6.1361  -6.0863  -6.0622  -6.0005  -5.9279  -5.9272  -5.8410  -5.8331
    -5.8129  -5.7975  -5.6851  -5.5351  -5.4277  -5.4259  -5.3077  -5.1730
    -4.7849  -4.7836  -4.7173  -4.6576  -4.5454  -4.4693  -4.4352  -4.4048
    -4.3873  -4.3794  -4.3603  -4.2861  -4.2363  -4.0582  -3.9683  -3.8708
    -3.8025  -3.7538  -3.7426  -3.7024  -3.6105  -3.4812  -3.4571  -3.4391
    -3.3861  -3.3581  -3.3294  -3.3248  -3.2840  -3.2106  -3.0906  -3.0502
    -2.9900  -2.9198  -2.8470  -2.8384  -2.7690  -2.7418  -2.7221  -2.6527
    -2.4319  -2.4220  -2.3902  -2.2795  -2.2091  -2.1883  -2.1734  -2.1214
    -2.0857  -2.0259  -2.0030  -1.9447  -1.9396  -1.8886  -1.8872  -1.8770
    -1.7432  -1.6316  -1.5368  -1.4793  -1.3759  -1.1915  -1.0067  -0.9970
    -0.9672  -0.7291  -0.1914   0.1119   0.3362   0.4535   0.5397   0.5825
[...]
O0       0.250000000   0.280000000   0.453430000    0   0   0
O0       0.000000000   0.000000000   0.494410000    0   0   0
O0       0.000000000   0.500000000   0.507356790
Re1      0.266328808   0.500000000   0.546639840
Re1      0.000000000   0.000000000   0.547618236
O0       0.251408039   0.781173421   0.546847073
O0       0.251408039   0.218826579   0.546847073
O0       0.000000000   0.500000000   0.584727721
O0       0.000000000   0.000000000   0.601409064
Re1      0.274668826  -0.000000000   0.640386734
Re1      0.000000000   0.500000000   0.635693055
O0       0.250807675   0.715935546   0.638962308
O0       0.250807675   0.284064454   0.638962308
O0       0.000000000   0.000000000   0.673827212
O0       0.500000000   0.500000000   0.319310000    0   0   0
Re1      0.750000000   0.500000000   0.360290000    0   0   0
Re1      0.500000000   0.000000000   0.360290000    0   0   0
O0       0.750000000   0.780000000   0.360290000    0   0   0
O0       0.750000000   0.220000000   0.360290000    0   0   0
O0       0.500000000   0.500000000   0.401270000    0   0   0
O0       0.500000000   0.000000000   0.412450000    0   0   0
Re1      0.750000000   0.000000000   0.453430000    0   0   0
Re1      0.500000000   0.500000000   0.453430000    0   0   0
O0       0.750000000   0.720000000   0.453430000    0   0   0
O0       0.750000000   0.280000000   0.453430000    0   0   0
O0       0.500000000   0.000000000   0.494410000    0   0   0
O0       0.500000000   0.500000000   0.504974149
Re1      0.733671192   0.500000000   0.546639840
Re1      0.500000000   0.000000000   0.546219365
O0       0.748591961   0.781173421   0.546847073
O0       0.748591961   0.218826579   0.546847073
O0       0.500000000   0.500000000   0.588875946
O0       0.500000000   0.000000000   0.597646581
Re1      0.725331174   0.000000000   0.640386734
Re1      0.500000000   0.500000000   0.643732370
O0       0.749192325   0.715935546   0.638962308
O0       0.749192325   0.284064454   0.638962308
O0       0.500000000   0.000000000   0.680810976
O0       0.500000000   0.500000000   0.689467836

     Check: negative starting charge=   -0.473561
     NEW-OLD atomic charge density approx. for the potential

     Check: negative/imaginary core charge=   -0.000003    0.000000
     Check: negative starting charge=   -0.473669

[...]

     Self-consistent Calculation

[...]

     Threshold (ethr) on eigenvalues was too large:
     Diagonalizing with lowered threshold

     Davidson diagonalization with overlap
     ethr =  1.79E-08,  avg # of iterations =  1.1

[...]

     total energy              =   -4180.08131843 Ry
     Harris-Foulkes estimate   =   -4180.08131843 Ry
     estimated scf accuracy    <       0.00000001 Ry

     iteration # 17     ecut=    40.00 Ry     beta=0.30
     Davidson diagonalization with overlap
     ethr =  2.59E-12,  avg # of iterations =  1.0

     negative rho (up, down):  0.492E+00 0.000E+00

     End of self-consistent calculation

[...]

          k = 0.2500-0.3828 0.0000 ( 40642 PWs)   bands (ev):

[...]

          k =-0.5000-0.3828 0.0000 ( 40640 PWs)   bands (ev):

   -80.8823 -80.1429 -80.1279 -80.0926 -80.0902 -80.0632 -80.0602 -80.0601
   -80.0403 -80.0260 -80.0185 -80.0184 -79.9566 -79.7993 -79.6403 -79.6366
   -43.0330 -42.6781 -42.5975 -42.4141 -42.2765 -42.0900 -42.0680 -42.0142
   -42.0073 -42.0020 -41.9966 -41.9966 -41.9942 -41.9883 -41.9865 -41.9736
   -41.9543 -41.9466 -41.9456 -41.9388 -41.9359 -41.9336 -41.9297 -41.9270
   -41.9068 -41.8948 -41.8900 -41.8895 -41.8622 -41.8249 -41.8189 -41.8188
   -41.8055 -41.7922 -41.7766 -41.7529 -41.7513 -41.7450 -41.7449 -41.6845
   -41.6725 -41.5623 -41.5324 -41.5291 -41.5253 -41.5233 -41.5118 -41.5020
   -19.0773 -18.9656 -18.9187 -18.7524 -18.7132 -18.6849 -18.6314 -18.6232
   -18.5713 -18.5383 -18.5206 -18.4668 -18.4365 -18.4331 -18.4071 -18.3781
   -18.2497 -18.2240 -18.2190 -18.1612 -18.1114 -18.1036 -18.0849 -18.0572
   -18.0546 -18.0449 -17.9686 -17.7598 -17.0676 -16.9315 -16.8803 -16.0372
   -16.0298  -7.4620  -7.4456  -7.1626  -7.1365  -7.1172  -7.1117  -7.0930
    -7.0435  -6.9938  -6.9755  -6.8107  -6.7355  -6.7207  -6.6502  -6.5931
    -6.5313  -6.0993  -6.0336  -5.9892  -5.9830  -5.8840  -5.7833  -5.7795
    -5.7223  -5.6950  -5.6525  -5.6336  -5.5453  -5.4648  -5.4590  -5.4030
    -5.3716  -5.3711  -5.3266  -5.3189  -5.2915  -5.2549  -5.2299  -5.1497
    -5.1247  -5.1051  -5.0861  -4.9376  -4.8991  -4.7807  -4.6415  -4.6154
    -4.5833  -4.5372  -4.5053  -4.4775  -4.4506  -4.2380  -4.1403  -4.0596
    -4.0312  -3.9827  -3.9545  -3.8637  -3.8348  -3.8175  -3.7779  -3.7581
    -3.7371  -3.6843  -3.6562  -3.6125  -3.5763  -3.5573  -3.4939  -3.4544
    -3.3894  -3.3835  -3.1770  -3.0468  -3.0117  -2.8875  -2.7551  -2.6741
    -2.6567  -2.5894  -2.5207  -2.3930  -2.3435  -2.3423  -2.2562  -2.1913
    -2.0938  -2.0128  -1.9986  -1.9718  -1.9452  -1.6254  -1.4755  -1.3162
    -1.3114  -1.2260  -1.2120  -1.2050  -0.3688  -0.1748   0.0274   0.2809
     0.3478   0.4062   0.4194   0.4436   0.4504   0.4726   0.5165   0.5410
     0.6342   0.7889   0.9507   0.9822   1.1414   1.1994   1.2053   1.2762
     1.3285   1.4908   1.5381   1.5931   1.6627   1.7259   1.7947   1.8552
     1.8899   1.9087   2.0537   2.0723   2.2284   2.2747   2.3623   2.3658
     2.5875   2.6363   2.6521   2.6923   2.7047   2.7209   2.7636   2.8558
     2.9123   3.0198   3.0515   3.1250   3.1385   3.4870   3.5796   3.9027
     3.9455   4.1206   4.1366   4.2596   4.3617   4.3635   4.4136   4.9104
     5.0004   5.1389   5.2039   5.8332   5.8411   5.9866   6.3031   6.4535
     6.4569   6.5032   6.8104   7.0291   7.0654   7.1897   7.2335   7.3390
     7.3918   7.5067   7.5131   7.5228   7.5637   7.7713   7.9297   8.9444
     9.0239   9.0331   9.0612   9.1002   9.1127   9.2077   9.2147   9.2829
     9.3880   9.3882   9.4238   9.4315   9.4325   9.4849   9.5138   9.6319
     9.8186   9.8266   9.9037   9.9843   9.9987  10.0109  10.0665  10.1454
    10.4153  10.4776  10.4977  10.6290  10.6911  10.7172  10.7512  10.7905
    11.1898  11.1907  11.2829  11.3957  11.4347  11.4873  11.5121  11.5625
    12.0313  12.0337  12.0400  12.2237  12.2415  12.2942  12.3114  12.3270
    12.3358  12.3506  12.4300  12.4337  12.5775  12.5902  12.7431  12.8454
    12.9809  12.9853  13.0056  13.2355  13.6392  13.6538  13.7091  13.7171
    14.0276  14.0373  14.0548  14.1890  14.3880  14.4370  14.4634  14.4713
    14.6895  14.7009  14.8348  14.8387  14.8605  14.9157  15.0350  15.0683
    15.0907  15.1085  15.1686  15.2716  15.3032  15.3240  15.3581  15.3926
    15.4595  15.4703  15.5094  15.5337  15.5627  15.5847  15.6443  15.6808
    15.6874  15.7585  15.7870  15.8034  15.8177  15.8450  15.8770  15.8791
    15.8830  15.9081  15.9124  15.9479  15.9736  15.9979  16.0070  16.0130
    16.0695  16.0804  16.1042  16.3659  16.4285  16.4521  16.4843  16.5285
    16.5443  16.6694  16.6774  16.6802  16.7213  16.7393  16.7558  16.8103
    16.8226  16.8333  17.0482  17.1653  17.2197  17.2373  17.3351  17.4220
    17.4446  17.4509  17.4661  17.4987  17.5719  17.6234  17.6651  17.7460
    17.8132  17.8276  17.8851  18.0496  18.0962  18.0977  18.1794  18.2885
    18.3253  18.3725  18.4031  18.5734  18.6030  18.6415  18.6755  18.9205
    18.9710  18.9849  19.0561  19.1028  19.1079  19.1173  19.1313  19.1717
    19.3167  19.3568  19.3806  19.4098  19.4577  19.5389  19.6028  19.6363
    19.6427  19.6641  19.6863  19.7603  19.7672  19.7727  19.8161  19.8276
    19.9075  19.9524  19.9763  19.9970  20.0099  20.0270  20.0287  20.0961
    20.1465  20.1830  20.1965  20.3082  20.3406  20.3819  20.4311  20.5296
[...]
    23.9557  24.0036  24.0503  24.1039  24.1859  24.2005  24.2268  24.2301
    24.2722  24.2812  24.3117  24.3246  24.3950  24.4021  24.4084  24.5810
    24.7437  24.7822  24.8478  24.9123  24.9651  24.9729  24.9995  25.0044
    25.2518  25.2847  25.3247  25.3466  25.4060  25.4316  25.4407  25.4886
    25.5209  25.5486  25.6034  25.6747  25.6868  25.6961  25.8020  25.8063
    25.8975  25.9110  25.9334  25.9361  26.0005  26.0035  26.0232  26.0237
    26.0737  26.0817  26.1016  26.1260  26.1822  26.2343  26.3110  26.3666
    26.4365  26.4631  26.4712  26.5059  26.5158  26.5653  26.5916  26.5946
    26.6204  26.6660  26.6873  26.7203  26.7461  26.7590  26.7641  26.8422
    26.8923  26.9420  26.9615  26.9805  27.0466  27.1419  27.1447  27.1526
    27.2069  27.2580  27.2851  27.3118  27.3315  27.3704  27.3825  27.4427
    27.4763  27.4783  27.5873  27.5962  27.6712  27.7042  27.7197  27.7511
    27.7645  27.8120  27.8672  27.9152  27.9160  27.9599  27.9604  27.9626
    27.9884  28.0059  28.0312  28.0677  28.1200  28.1449  28.1516  28.1668
    28.2503

     the Fermi energy is     1.7870 ev

!    total energy              =   -4180.08131843 Ry
     Harris-Foulkes estimate   =   -4180.08131843 Ry
     estimated scf accuracy    <          6.0E-09 Ry

     The total energy is the sum of the following terms:

     one-electron contribution =  -84659.96991993 Ry
     hartree contribution      =   42369.12280696 Ry
     xc contribution           =   -1146.80247015 Ry
     ewald contribution        =   39257.56870933 Ry
     smearing contrib. (-TS)   =      -0.00044464 Ry

     convergence has been achieved in  17 iterations

     Forces acting on atoms (Ry/au):

     negative rho (up, down):  0.492E+00 0.000E+00
     atom    1 type  1   force =     0.00000000    0.00000000    0.10966216
     atom    2 type  2   force =     0.00428317    0.00000000   -0.14757003
     atom    3 type  2   force =     0.00000000    0.00000000    0.06050710
     atom    4 type  1   force =     0.00073396    0.00563659   -0.01392073
     atom    5 type  1   force =     0.00073396   -0.00563659   -0.01392073
     atom    6 type  1   force =     0.00000000    0.00000000    0.04687358
     atom    7 type  1   force =     0.00000000    0.00000000   -0.01166445
     atom    8 type  2   force =     0.00191082    0.00000000    0.00483518
     atom    9 type  2   force =     0.00000000    0.00000000   -0.01170555
     atom   10 type  1   force =    -0.00210419   -0.00813177    0.00370841
     atom   11 type  1   force =    -0.00210419    0.00813177    0.00370841
     atom   12 type  1   force =     0.00000000    0.00000000   -0.00468341
     atom   13 type  1   force =     0.00000000    0.00000000    0.00037320
     atom   14 type  2   force =     0.00034504    0.00000000   -0.00035726
     atom   15 type  2   force =     0.00000000    0.00000000    0.00004560
     atom   16 type  1   force =    -0.00003234    0.00004339    0.00004633
     atom   17 type  1   force =    -0.00003234   -0.00004339    0.00004633
     atom   18 type  1   force =     0.00000000    0.00000000   -0.00053292
     atom   19 type  1   force =     0.00000000    0.00000000    0.00037874
     atom   20 type  2   force =     0.00023662    0.00000000    0.00033424
     atom   21 type  2   force =     0.00000000    0.00000000    0.00039601
     atom   22 type  1   force =     0.00030594    0.00025196   -0.00022752
     atom   23 type  1   force =     0.00030594   -0.00025196   -0.00022752
     atom   24 type  1   force =     0.00000000    0.00000000    0.00027660
     atom   25 type  1   force =     0.00000000    0.00000000    0.10738187
     atom   26 type  2   force =    -0.00428317    0.00000000   -0.14757003
     atom   27 type  2   force =     0.00000000    0.00000000    0.05832814
     atom   28 type  1   force =    -0.00073396    0.00563659   -0.01392073
     atom   29 type  1   force =    -0.00073396   -0.00563659   -0.01392073
     atom   30 type  1   force =     0.00000000    0.00000000    0.04234885
     atom   31 type  1   force =     0.00000000    0.00000000   -0.01069168
     atom   32 type  2   force =    -0.00191082    0.00000000    0.00483518
     atom   33 type  2   force =     0.00000000    0.00000000   -0.04114027
     atom   34 type  1   force =     0.00210419   -0.00813177    0.00370841
     atom   35 type  1   force =     0.00210419    0.00813177    0.00370841
     atom   36 type  1   force =     0.00000000    0.00000000   -0.01780496
     atom   37 type  1   force =     0.00000000    0.00000000   -0.00085044
     atom   38 type  2   force =    -0.00034504    0.00000000   -0.00035726
     atom   39 type  2   force =     0.00000000    0.00000000    0.00006290
     atom   40 type  1   force =     0.00003234    0.00004339    0.00004633
     atom   41 type  1   force =     0.00003234   -0.00004339    0.00004633
     atom   42 type  1   force =     0.00000000    0.00000000   -0.00090890
     atom   43 type  1   force =     0.00000000    0.00000000    0.00025581
     atom   44 type  2   force =    -0.00023662    0.00000000    0.00033424
     atom   45 type  2   force =     0.00000000    0.00000000   -0.00066020
     atom   46 type  1   force =    -0.00030594    0.00025196   -0.00022752
     atom   47 type  1   force =    -0.00030594   -0.00025196   -0.00022752
     atom   48 type  1   force =     0.00000000    0.00000000    0.00055251
     atom   49 type  1   force =     0.00000000    0.00000000    0.00028952

     Total force =     0.002220     Total SCF correction =     0.000349
     SCF correction compared to forces is large: reduce conv_thr to get better values

     bfgs converged in  15 scf cycles and  14 bfgs steps
     (criteria: energy < 0.10E-03, force < 0.10E-02)

     End of BFGS Geometry Optimization

     Final energy   =   -4180.0813184270 Ry
Begin final coordinates

ATOMIC_POSITIONS (crystal)
O0       0.000000000   0.500000000   0.319310000    0   0   0
Re1      0.250000000   0.500000000   0.360290000    0   0   0
Re1      0.000000000   0.000000000   0.360290000    0   0   0
O0       0.250000000   0.780000000   0.360290000    0   0   0
O0       0.250000000   0.220000000   0.360290000    0   0   0
O0       0.000000000   0.500000000   0.401270000    0   0   0
O0       0.000000000   0.000000000   0.412450000    0   0   0
Re1      0.250000000   0.000000000   0.453430000    0   0   0
Re1      0.000000000   0.500000000   0.453430000    0   0   0
O0       0.250000000   0.720000000   0.453430000    0   0   0
O0       0.250000000   0.280000000   0.453430000    0   0   0
O0       0.000000000   0.000000000   0.494410000    0   0   0
O0       0.000000000   0.500000000   0.507356790
Re1      0.266328808   0.500000000   0.546639840
Re1      0.000000000   0.000000000   0.547618236
O0       0.251408039   0.781173421   0.546847073
O0       0.251408039   0.218826579   0.546847073
O0       0.000000000   0.500000000   0.584727721
O0       0.000000000   0.000000000   0.601409064
Re1      0.274668826  -0.000000000   0.640386734
Re1      0.000000000   0.500000000   0.635693055
O0       0.250807675   0.715935546   0.638962308
O0       0.250807675   0.284064454   0.638962308
O0       0.000000000   0.000000000   0.673827212
O0       0.500000000   0.500000000   0.319310000    0   0   0
Re1      0.750000000   0.500000000   0.360290000    0   0   0
Re1      0.500000000   0.000000000   0.360290000    0   0   0
O0       0.750000000   0.780000000   0.360290000    0   0   0
O0       0.750000000   0.220000000   0.360290000    0   0   0
O0       0.500000000   0.500000000   0.401270000    0   0   0
O0       0.500000000   0.000000000   0.412450000    0   0   0
Re1      0.750000000   0.000000000   0.453430000    0   0   0
Re1      0.500000000   0.500000000   0.453430000    0   0   0
O0       0.750000000   0.720000000   0.453430000    0   0   0
O0       0.750000000   0.280000000   0.453430000    0   0   0
O0       0.500000000   0.000000000   0.494410000    0   0   0
O0       0.500000000   0.500000000   0.504974149
Re1      0.733671192   0.500000000   0.546639840
Re1      0.500000000   0.000000000   0.546219365
O0       0.748591961   0.781173421   0.546847073
O0       0.748591961   0.218826579   0.546847073
O0       0.500000000   0.500000000   0.588875946
O0       0.500000000   0.000000000   0.597646581
Re1      0.725331174   0.000000000   0.640386734
Re1      0.500000000   0.500000000   0.643732370
O0       0.749192325   0.715935546   0.638962308
O0       0.749192325   0.284064454   0.638962308
O0       0.500000000   0.000000000   0.680810976
O0       0.500000000   0.500000000   0.689467836
End final coordinates

     General routines

     Parallel routines

   This run was terminated on:  21: 4:29  21Apr2014

   JOB DONE.
Running PBS batch system epilogue script
Job id: 329719.audhumbla.fysik.dtu.dk
Username: zhonxu
Groupname: campgst
Jobname: ReO2/Eads-4-layers/O-relax
Sessionid: 18935
Queuename: verylong
Accounting:
This job has allocated the following 32 nodes:
g098 g098 g098 g098 g098 g098 g098 g098 g098 g098 g098 g098 g098 g098 g098 g098 g092 g092 g092 g092 g092 g092 g092 g092 g092 g092 g092 g092 g092 g092 g092 g092
Finished epilogue job 329719.audhumbla.fysik.dtu.dk for zhonxu