     Program PWSCF v.5.0.2 (svn rev. 9656) starts on 27Apr2014 at  6:53:14

     Current dimensions of program PWSCF are:
     Max number of different atomic species (ntypx) = 10
     Max number of k-points (npk) =  40000
     Max angular momentum in pseudopotentials (lmaxx) =  3
     Reading input from pwscf.in
Warning: card &CELL ignored
Warning: card / ignored

     Subspace diagonalization in iterative solution of the eigenvalue problem:
     a serial algorithm will be used

     bravais-lattice index     =            0
     lattice parameter (alat)  =      11.7919  a.u.
     unit-cell volume          =    7123.6633 (a.u.)^3
     number of atoms/cell      =           32
     number of atomic types    =            3
     number of electrons       =       247.00
     number of Kohn-Sham states=          358
     kinetic-energy cutoff     =      40.0000  Ry
     charge density cutoff     =     500.0000  Ry
     convergence threshold     =      1.0E-06
     mixing beta               =       0.7000
     number of iterations used =            8  plain     mixing
     Exchange-correlation      = SLA  PW   PBE  PBE ( 1 4 3 4 0)
     EXX-fraction              =        0.00
     nstep                     =           50

     celldm(1)=  11.791891  celldm(2)=   0.000000  celldm(3)=   0.000000
     celldm(4)=   0.000000  celldm(5)=   0.000000  celldm(6)=   0.000000

     crystal axes: (cart. coord. in units of alat)
               a(1) = (   1.000000   0.000000   0.000000 )
               a(2) = (   0.000000   1.026665   0.000000 )
               a(3) = (   0.000000   0.000000   4.231793 )

     reciprocal axes: (cart. coord. in units 2 pi/alat)
               b(1) = (  1.000000  0.000000  0.000000 )
               b(2) = (  0.000000  0.974028  0.000000 )
               b(3) = (  0.000000  0.000000  0.236306 )

     PseudoPot. # 1 for O  read from file:
     /home/camp/zhonxu/pseudo/o_pbe_v1.01.uspp.F.UPF
     MD5 check sum: 2bcb18d16ea4b960afae9ec6d52f22d2
     Pseudo is Ultrasoft + core correction, Zval =  6.0
     Generated by new atomic code, or converted to UPF format
     Using radial grid of  737 points,  5 beta functions with:
                l(1) =   0
                l(2) =   0
                l(3) =   1
                l(4) =   1
                l(5) =   2
     Q(r) pseudized with  8 coefficients,  rinner =    0.900   0.900   0.900
                                                       0.900   0.900

     PseudoPot. # 2 for Ru read from file:
     /home/camp/zhonxu/pseudo/ru_pbe_v1.uspp.F.UPF
     MD5 check sum: df00be1c11b23341d9806d8f1dfa10cf
     Pseudo is Ultrasoft + core correction, Zval = 16.0
     Generated by new atomic code, or converted to UPF format
     Using radial grid of  967 points,  6 beta functions with:
                l(1) =   0
                l(2) =   0
                l(3) =   1
                l(4) =   1
                l(5) =   2
                l(6) =   2
     Q(r) pseudized with  8 coefficients,  rinner =    1.300   1.300   1.300
                                                       1.300   1.300

     PseudoPot. # 3 for H  read from file:
     /home/camp/zhonxu/pseudo/h_pbe_v1.uspp.F.UPF
     MD5 check sum: 3408e3ff4ec8b0a4e358431e7e038a48
     Pseudo is Ultrasoft, Zval =  1.0
     Generated by new atomic code, or converted to UPF format
     Using radial grid of  615 points,  2 beta functions with:
                l(1) =   0
                l(2) =   0
     Q(r) pseudized with  8 coefficients,  rinner =    0.700

     atomic species   valence    mass     pseudopotential
        O0             6.00    15.99940     O ( 1.00)
        Ru1           16.00   101.07000     Ru( 1.00)
        H2             1.00     1.00794     H ( 1.00)

     Simplified LDA+U calculation (l_max = 2) with parameters (eV):
     atomic species    L          U    alpha       J0     beta
        Ru1            2     3.0000   0.0000   0.0000   0.0000

     No symmetry found

   Cartesian axes

     site n.     atom                  positions (alat units)
         1           O0  tau(   1) = (   0.0000000   0.0000000   1.6035109  )
         2           O0  tau(   2) = (   0.0000000   0.5133323   1.7058780  )
         3           Ru1 tau(   3) = (   0.2500000   0.5133323   1.9200491  )
         4           Ru1 tau(   4) = (   0.0000000   0.0000000   1.9171714  )
         5           O0  tau(   5) = (   0.2500000   0.8315984   1.9169175  )
         6           O0  tau(   6) = (   0.2500000   0.1950663   1.9164520  )
         7           O0  tau(   7) = (   0.0000000   0.5133323   2.1053593  )
         8           O0  tau(   8) = (   0.0000000   0.0000000   2.2310435  )
         9           Ru1 tau(   9) = (   0.2500000   0.0000000   2.4441566  )
        10           Ru1 tau(  10) = (   0.0000000   0.5133323   2.4052664  )
        11           O0  tau(  11) = (   0.2500000   0.7083986   2.4364547  )
        12           O0  tau(  12) = (   0.2500000   0.3182660   2.4361585  )
        13           O0  tau(  13) = (   0.0000000   0.0000000   2.6233307  )
        14           O0  tau(  14) = (   0.5000000   0.0000000   1.6045689  )
        15           O0  tau(  15) = (   0.5000000   0.5133323   1.7057934  )
        16           Ru1 tau(  16) = (   0.7500000   0.5133323   1.9200914  )
        17           Ru1 tau(  17) = (   0.5000000   0.0000000   1.9176369  )
        18           O0  tau(  18) = (   0.7500000   0.8315984   1.9167059  )
        19           O0  tau(  19) = (   0.7500000   0.1950663   1.9164520  )
        20           O0  tau(  20) = (   0.5000000   0.5133323   2.1229635  )
        21           O0  tau(  21) = (   0.5000000   0.0000000   2.2303664  )
        22           Ru1 tau(  22) = (   0.7500000   0.0000000   2.4441143  )
        23           Ru1 tau(  23) = (   0.5000000   0.5133323   2.4370472  )
        24           O0  tau(  24) = (   0.7500000   0.7083986   2.4343812  )
        25           O0  tau(  25) = (   0.7500000   0.3182660   2.4338310  )
        26           O0  tau(  26) = (   0.5000000   0.0000000   2.6134283  )
        27           H2  tau(  27) = (  -0.0002400   0.6455975   1.6183222  )
        28           H2  tau(  28) = (   0.4995500   0.6408954   1.6119322  )
        29           H2  tau(  29) = (   0.1457200   0.0328533   1.5514599  )
        30           H2  tau(  30) = (   0.6465200   0.0301223   1.5527294  )
        31           O0  tau(  31) = (   0.5138700   0.5107965   2.7447408  )
        32           H2  tau(  32) = (   0.3716000   0.5093694   2.8125765  )

     number of k points=    10  Methfessel-Paxton smearing, width (Ry)=  0.0100
                       cart. coord. in units 2pi/alat
        k(    1) = (   0.0000000   0.0000000   0.0000000), wk =   0.1250000
        k(    2) = (   0.0000000   0.2435070   0.0000000), wk =   0.2500000
        k(    3) = (   0.0000000  -0.4870139   0.0000000), wk =   0.1250000
        k(    4) = (   0.2500000   0.0000000   0.0000000), wk =   0.2500000
        k(    5) = (   0.2500000   0.2435070   0.0000000), wk =   0.2500000
        k(    6) = (   0.2500000  -0.4870139   0.0000000), wk =   0.2500000
        k(    7) = (  -0.5000000   0.0000000   0.0000000), wk =   0.1250000
        k(    8) = (  -0.5000000   0.2435070   0.0000000), wk =   0.2500000
        k(    9) = (  -0.5000000  -0.4870139   0.0000000), wk =   0.1250000
        k(   10) = (  -0.2500000   0.2435070   0.0000000), wk =   0.2500000

     Largest allocated arrays     est. size (Mb)     dimensions
     Largest temporary arrays     est. size (Mb)     dimensions

     Check: negative/imaginary core charge=   -0.000003    0.000000

     Initial potential from superposition of free atoms
     Check: negative starting charge=   -0.522051

     starting charge  238.99980, renormalised to  247.00000

     negative rho (up, down):  0.540E+00 0.000E+00
     Number of +U iterations with fixed ns =  0
     Starting occupations:
 --- enter write_ns ---
 LDA+U parameters:
U( 2)     =  3.00000000
alpha( 2) =  0.00000000
atom    3   Tr[ns(na)] =   6.00000
    eigenvalues:
  0.600  0.600  0.600  0.600  0.600
    eigenvectors:
  1.000  0.000  0.000  0.000  0.000
  0.000  1.000  0.000  0.000  0.000
  0.000  0.000  1.000  0.000  0.000
  0.000  0.000  0.000  1.000  0.000
  0.000  0.000  0.000  0.000  1.000
    occupations:
  0.600  0.000  0.000  0.000  0.000
  0.000  0.600  0.000  0.000  0.000
  0.000  0.000  0.600  0.000  0.000
  0.000  0.000  0.000  0.600  0.000
  0.000  0.000  0.000  0.000  0.600
atom    4   Tr[ns(na)] =   6.00000
    eigenvalues:
  0.600  0.600  0.600  0.600  0.600
    eigenvectors:
  1.000  0.000  0.000  0.000  0.000
  0.000  1.000  0.000  0.000  0.000
  0.000  0.000  1.000  0.000  0.000
  0.000  0.000  0.000  1.000  0.000
  0.000  0.000  0.000  0.000  1.000
    occupations:
  0.600  0.000  0.000  0.000  0.000
  0.000  0.600  0.000  0.000  0.000
  0.000  0.000  0.600  0.000  0.000
  0.000  0.000  0.000  0.600  0.000
  0.000  0.000  0.000  0.000  0.600
atom    9   Tr[ns(na)] =   6.00000
    eigenvalues:
  0.600  0.600  0.600  0.600  0.600
    eigenvectors:
  1.000  0.000  0.000  0.000  0.000
  0.000  1.000  0.000  0.000  0.000
  0.000  0.000  1.000  0.000  0.000
  0.000  0.000  0.000  1.000  0.000
  0.000  0.000  0.000  0.000  1.000
    occupations:
  0.600  0.000  0.000  0.000  0.000
  0.000  0.600  0.000  0.000  0.000
  0.000  0.000  0.600  0.000  0.000
  0.000  0.000  0.000  0.600  0.000
  0.000  0.000  0.000  0.000  0.600
atom   10   Tr[ns(na)] =   6.00000
    eigenvalues:
  0.600  0.600  0.600  0.600  0.600
    eigenvectors:
  1.000  0.000  0.000  0.000  0.000
  0.000  1.000  0.000  0.000  0.000
  0.000  0.000  1.000  0.000  0.000
  0.000  0.000  0.000  1.000  0.000
  0.000  0.000  0.000  0.000  1.000
    occupations:
  0.600  0.000  0.000  0.000  0.000
  0.000  0.600  0.000  0.000  0.000
  0.000  0.000  0.600  0.000  0.000
  0.000  0.000  0.000  0.600  0.000
  0.000  0.000  0.000  0.000  0.600
atom   16   Tr[ns(na)] =   6.00000
    eigenvalues:
  0.600  0.600  0.600  0.600  0.600
    eigenvectors:
  1.000  0.000  0.000  0.000  0.000
  0.000  1.000  0.000  0.000  0.000
  0.000  0.000  1.000  0.000  0.000
  0.000  0.000  0.000  1.000  0.000
  0.000  0.000  0.000  0.000  1.000
    occupations:
  0.600  0.000  0.000  0.000  0.000
  0.000  0.600  0.000  0.000  0.000
  0.000  0.000  0.600  0.000  0.000
  0.000  0.000  0.000  0.600  0.000
  0.000  0.000  0.000  0.000  0.600
atom   17   Tr[ns(na)] =   6.00000
    eigenvalues:
  0.600  0.600  0.600  0.600  0.600
    eigenvectors:
  1.000  0.000  0.000  0.000  0.000
  0.000  1.000  0.000  0.000  0.000
  0.000  0.000  1.000  0.000  0.000
  0.000  0.000  0.000  1.000  0.000
  0.000  0.000  0.000  0.000  1.000
    occupations:
  0.600  0.000  0.000  0.000  0.000
  0.000  0.600  0.000  0.000  0.000
  0.000  0.000  0.600  0.000  0.000
  0.000  0.000  0.000  0.600  0.000
  0.000  0.000  0.000  0.000  0.600
atom   22   Tr[ns(na)] =   6.00000
    eigenvalues:
  0.600  0.600  0.600  0.600  0.600
    eigenvectors:
  1.000  0.000  0.000  0.000  0.000
  0.000  1.000  0.000  0.000  0.000
  0.000  0.000  1.000  0.000  0.000
  0.000  0.000  0.000  1.000  0.000
  0.000  0.000  0.000  0.000  1.000
[...]
  0.006  0.846  0.000  0.030  0.118
  0.000  0.000  0.000  0.795  0.205
    occupations:
  0.799 -0.004 -0.003 -0.084  0.003
 -0.004  0.577  0.001  0.003  0.000
 -0.003  0.001  0.763  0.001  0.001
 -0.084  0.003  0.001  0.632 -0.001
  0.003  0.000  0.001 -0.001  0.830
atom   10   Tr[ns(na)] =   7.23455
    eigenvalues:
  0.535  0.541  0.748  0.818  0.975
    eigenvectors:
  0.000  0.988  0.000  0.000  0.012
  0.000  0.000  0.000  1.000  0.000
  0.000  0.000  1.000  0.000  0.000
  0.000  0.012  0.000  0.000  0.988
  1.000  0.000  0.000  0.000  0.000
    occupations:
  0.546 -0.003 -0.001  0.047  0.000
 -0.003  0.818  0.000  0.000  0.000
 -0.001  0.000  0.748 -0.000  0.001
  0.047  0.000 -0.000  0.970  0.000
  0.000  0.000  0.001  0.000  0.535
atom   16   Tr[ns(na)] =   7.21634
    eigenvalues:
  0.517  0.560  0.701  0.863  0.967
    eigenvectors:
  0.000  0.184  0.008  0.002  0.806
  0.999  0.000  0.000  0.000  0.000
  0.000  0.001  0.966  0.017  0.016
  0.000  0.815  0.007  0.000  0.177
  0.000  0.000  0.018  0.980  0.001
    occupations:
  0.890 -0.004  0.031 -0.155  0.000
 -0.004  0.517 -0.002  0.003 -0.005
  0.031 -0.002  0.708 -0.009  0.022
 -0.155  0.003 -0.009  0.633 -0.002
  0.000 -0.005  0.022 -0.002  0.860
atom   17   Tr[ns(na)] =   7.19971
    eigenvalues:
  0.555  0.606  0.663  0.795  0.981
    eigenvectors:
  0.001  0.988  0.000  0.000  0.012
  0.000  0.000  0.015  0.985  0.000
  0.000  0.000  0.985  0.015  0.000
  0.000  0.012  0.000  0.000  0.988
  0.999  0.001  0.000  0.000  0.000
    occupations:
  0.610 -0.001  0.000  0.040  0.001
 -0.001  0.793  0.016 -0.001 -0.002
  0.000  0.016  0.665  0.001  0.000
  0.040 -0.001  0.001  0.976  0.000
  0.001 -0.002  0.000  0.000  0.555
atom   22   Tr[ns(na)] =   7.20111
    eigenvalues:
  0.575  0.596  0.755  0.831  0.844
    eigenvectors:
  0.000  0.148  0.000  0.018  0.833
  0.998  0.001  0.000  0.000  0.000
  0.000  0.000  1.000  0.000  0.000
  0.002  0.851  0.000  0.003  0.145
  0.000  0.000  0.000  0.978  0.021
    occupations:
  0.807  0.005 -0.001 -0.088  0.001
  0.005  0.575  0.001 -0.003  0.000
 -0.001  0.001  0.755  0.000 -0.001
 -0.088 -0.003  0.000  0.633 -0.001
  0.001  0.000 -0.001 -0.001  0.831
atom   23   Tr[ns(na)] =   7.20124
    eigenvalues:
  0.553  0.609  0.650  0.824  0.965
    eigenvectors:
  0.000  0.985  0.001  0.000  0.013
  0.000  0.001  0.000  0.999  0.000
  0.000  0.001  0.999  0.000  0.000
  0.000  0.013  0.000  0.000  0.987
  1.000  0.000  0.000  0.000  0.000
    occupations:
  0.614  0.005 -0.001  0.040  0.000
  0.005  0.824  0.002  0.000  0.001
 -0.001  0.002  0.650  0.001 -0.001
  0.040  0.000  0.001  0.960 -0.000
  0.000  0.001 -0.001 -0.000  0.553
N of occupied +U levels =  57.6793917
 --- exit write_ns ---

     Threshold (ethr) on eigenvalues was too large:
     Diagonalizing with lowered threshold

     Davidson diagonalization with overlap
     ethr =  2.54E-08,  avg # of iterations =  2.0

[...]

     total energy              =   -2163.11993326 Ry
     Harris-Foulkes estimate   =   -2163.11993326 Ry
     estimated scf accuracy    <       0.00000002 Ry

     iteration # 17     ecut=    40.00 Ry     beta=0.70
     Davidson diagonalization with overlap
     ethr =  7.12E-12,  avg # of iterations =  1.0

     negative rho (up, down):  0.576E+00 0.000E+00

     End of self-consistent calculation
 --- enter write_ns ---
 LDA+U parameters:
U( 2)     =  3.00000000
alpha( 2) =  0.00000000
atom    3   Tr[ns(na)] =   7.21739
    eigenvalues:
  0.517  0.560  0.702  0.863  0.967
    eigenvectors:
  0.000  0.184  0.008  0.002  0.805
  0.999  0.000  0.000  0.000  0.000
  0.000  0.001  0.969  0.014  0.016
  0.000  0.815  0.007  0.000  0.177
  0.000  0.000  0.016  0.982  0.001
    occupations:
  0.890  0.004  0.031 -0.155 -0.001
  0.004  0.517  0.003 -0.003 -0.005
  0.031  0.003  0.708 -0.009 -0.020
 -0.155 -0.003 -0.009  0.633  0.002
 -0.001 -0.005 -0.020  0.002  0.860
atom    4   Tr[ns(na)] =   7.20862
    eigenvalues:
  0.553  0.603  0.677  0.792  0.979
    eigenvectors:
  0.001  0.988  0.000  0.000  0.011
  0.000  0.000  0.030  0.970  0.000
  0.000  0.000  0.970  0.030  0.000
  0.000  0.011  0.000  0.000  0.989
  0.999  0.001  0.000  0.000  0.000
    occupations:
  0.607 -0.000 -0.000  0.040  0.002
 -0.000  0.789  0.020 -0.001 -0.001
 -0.000  0.020  0.680  0.001  0.000
  0.040 -0.001  0.001  0.975  0.000
  0.002 -0.001  0.000  0.000  0.553
atom    9   Tr[ns(na)] =   7.20096
    eigenvalues:
  0.576  0.597  0.763  0.828  0.836
    eigenvectors:
  0.000  0.149  0.001  0.185  0.665
  0.994  0.006  0.000  0.000  0.000
  0.000  0.000  0.998  0.001  0.001
  0.006  0.846  0.000  0.032  0.116
  0.000  0.000  0.000  0.781  0.218
    occupations:
  0.799 -0.004 -0.003 -0.084  0.003
 -0.004  0.577  0.001  0.003  0.000
 -0.003  0.001  0.763  0.001  0.001
 -0.084  0.003  0.001  0.632 -0.001
  0.003  0.000  0.001 -0.001  0.830
atom   10   Tr[ns(na)] =   7.23418
    eigenvalues:
  0.535  0.540  0.748  0.818  0.975
    eigenvectors:
  0.000  0.988  0.000  0.000  0.012
  0.000  0.000  0.000  1.000  0.000
  0.000  0.000  1.000  0.000  0.000
  0.000  0.012  0.000  0.000  0.988
  1.000  0.000  0.000  0.000  0.000
    occupations:
  0.546 -0.003 -0.001  0.047  0.000
 -0.003  0.818  0.000  0.000  0.000
 -0.001  0.000  0.748 -0.000  0.001
  0.047  0.000 -0.000  0.970  0.000
  0.000  0.000  0.001  0.000  0.535
atom   16   Tr[ns(na)] =   7.21774
    eigenvalues:
  0.517  0.560  0.702  0.863  0.967
    eigenvectors:
  0.000  0.184  0.008  0.002  0.806
  0.999  0.000  0.000  0.000  0.000
  0.000  0.001  0.966  0.017  0.015
  0.000  0.815  0.007  0.000  0.177
  0.000  0.000  0.018  0.980  0.001
    occupations:
  0.890 -0.004  0.031 -0.156  0.000
 -0.004  0.517 -0.002  0.003 -0.005
  0.031 -0.002  0.708 -0.009  0.022
 -0.156  0.003 -0.009  0.633 -0.002
  0.000 -0.005  0.022 -0.002  0.860
atom   17   Tr[ns(na)] =   7.20113
    eigenvalues:
  0.555  0.606  0.664  0.795  0.981
    eigenvectors:
  0.001  0.988  0.000  0.000  0.012
  0.000  0.000  0.015  0.985  0.000
  0.000  0.000  0.985  0.015  0.000
  0.000  0.012  0.000  0.000  0.988
  0.999  0.001  0.000  0.000  0.000
    occupations:
  0.610 -0.001  0.000  0.040  0.001
 -0.001  0.793  0.016 -0.001 -0.002
  0.000  0.016  0.666  0.001  0.000
  0.040 -0.001  0.001  0.976  0.000
  0.001 -0.002  0.000  0.000  0.555
atom   22   Tr[ns(na)] =   7.19883
    eigenvalues:
  0.575  0.596  0.755  0.830  0.843
    eigenvectors:
  0.000  0.148  0.000  0.019  0.833
  0.998  0.001  0.000  0.000  0.000
  0.000  0.000  1.000  0.000  0.000
  0.002  0.850  0.000  0.003  0.145
  0.000  0.000  0.000  0.978  0.022
    occupations:
  0.806  0.005 -0.001 -0.088  0.001
  0.005  0.575  0.001 -0.003  0.000
 -0.001  0.001  0.755  0.000 -0.001
 -0.088 -0.003  0.000  0.633 -0.001
  0.001  0.000 -0.001 -0.001  0.831
atom   23   Tr[ns(na)] =   7.20065
    eigenvalues:
  0.553  0.609  0.650  0.824  0.965
    eigenvectors:
  0.000  0.985  0.001  0.000  0.013
  0.000  0.001  0.000  0.999  0.000
  0.000  0.001  0.999  0.000  0.000
  0.000  0.013  0.000  0.000  0.987
  1.000  0.000  0.000  0.000  0.000
    occupations:
  0.614  0.005 -0.001  0.040  0.000
  0.005  0.824  0.002  0.000  0.001
 -0.001  0.002  0.650  0.001 -0.001
  0.040  0.000  0.001  0.960 -0.000
  0.000  0.001 -0.001 -0.000  0.553
N of occupied +U levels =  57.6794886
 --- exit write_ns ---

[...]

          k = 0.2500-0.4870 0.0000 ( 30468 PWs)   bands (ev):

[...]

          k =-0.2500 0.2435 0.0000 ( 30434 PWs)   bands (ev):

   -74.3040 -74.2810 -74.1555 -74.1026 -74.0409 -73.8595 -73.6692 -73.6600
   -44.4333 -44.4263 -44.4150 -44.3468 -44.3007 -44.2907 -44.2883 -44.2651
   -44.2085 -44.1758 -44.0536 -44.0163 -43.9880 -43.9353 -43.8879 -43.8762
   -43.8660 -43.8128 -43.7920 -43.6767 -43.6235 -43.6101 -43.5195 -43.4292
   -20.9249 -20.4364 -20.3915 -20.3359 -20.1742 -19.9592 -19.8511 -19.8021
   -19.7265 -19.6662 -19.6291 -19.4448 -19.4110 -19.3623 -19.3068 -19.2472
   -19.1972 -19.1387 -18.8540  -9.2345  -8.7829  -8.7210  -8.6162  -8.3978
    -8.3753  -8.2761  -8.1080  -7.9667  -7.8394  -7.7421  -7.7079  -7.6016
    -7.5486  -7.5027  -7.4457  -7.3528  -7.2808  -6.9580  -6.8701  -6.7667
    -6.5422  -6.4985  -6.3591  -6.1220  -6.0340  -5.9742  -5.8228  -5.6604
    -5.5777  -5.5320  -5.4752  -5.4182  -5.2977  -5.1643  -5.0841  -5.0548
    -5.0063  -4.9325  -4.8420  -4.7987  -4.6000  -4.4882  -4.3663  -4.2262
    -4.1554  -4.1244  -4.0363  -3.9242  -3.8433  -3.6634  -3.5740  -3.4868
    -3.1938  -3.1683  -3.0677  -2.8277  -2.4161  -2.3020  -2.2286  -2.1060
    -2.0868  -2.0007  -1.9730  -1.9048  -1.8762  -1.7761  -1.6833  -1.6563
    -1.5448  -1.4838  -1.2432  -1.1045  -0.9008  -0.6230  -0.5057  -0.4379
    -0.3508  -0.2694  -0.1247   0.1240   0.8578   1.5583   1.7414   1.7661
     1.9479   2.3851   2.6667   2.8566   3.1417   3.2231   3.3262   3.3991
     3.4668   3.5272   3.7831   3.9438   4.0513   4.3734   4.7334   5.1626
     5.6056   5.7383   5.8152   6.0905   6.3822   6.5193   6.6277   6.6827
     6.8292   6.9951   7.0499   7.2827   7.5383   7.7135   7.8697   7.9528
     8.0868   8.2943   8.3775   8.4892   8.5503   8.6063   8.7314   8.8039
     8.9411   9.1199   9.2054   9.3428   9.4252   9.5348   9.6693   9.8603
     9.9381  10.0280  10.1288  10.1510  10.2139  10.3600  10.3707  10.4509
    10.5570  10.6485  10.7478  10.8780  10.9071  10.9797  11.1092  11.2996
    11.3743  11.4116  11.5586  11.5887  11.6512  11.7858  11.8425  11.8607
    11.9586  12.0412  12.1191  12.1719  12.2599  12.3669  12.4204  12.5171
    12.5379  12.6219  12.7206  12.7481  12.7651  12.8707  12.9344  13.0087
    13.0828  13.1550  13.2094  13.3293  13.3971  13.4918  13.6079  13.6483
    13.7304  13.8229  13.9315  14.0265  14.0962  14.2042  14.2273  14.3157
    14.3847  14.5334  14.5824  14.6096  14.6737  14.7566  14.8713  14.9150
    14.9534  15.1122  15.1306  15.2149  15.3027  15.3802  15.5423  15.5609
    15.6274  15.7006  15.7817  15.8309  15.8627  15.8874  15.9503  16.0430
    16.0759  16.1487  16.2104  16.2953  16.3168  16.3545  16.4682  16.5348
    16.6242  16.7083  16.7600  16.8127  16.8736  16.8981  16.9688  17.0532
    17.1591  17.2042  17.2871  17.3495  17.4547  17.4807  17.5066  17.5479
    17.6153  17.6749  17.7383  17.8024  17.8568  17.9244  17.9963  18.0617
    18.1301  18.1937  18.2273  18.3039  18.3373  18.4351  18.5589  18.6051
    18.6801  18.7871  18.8357  18.8921  18.9599  19.0355  19.1124  19.1890
    19.2072  19.3073  19.4069  19.4556  19.4976  19.6196  19.7016  19.7469
    19.7835  19.8540  19.9539  19.9831  20.1040  20.2317  20.2817  20.3686
    20.4149  20.5288  20.6436  20.7057  20.7497  20.8062  20.8775  20.9544
    20.9669  21.0392  21.1146  21.1920  21.2481  21.3212  21.3332  21.4017
    21.4548  21.4836  21.5462  21.5942  21.6446  21.7399  21.8283  21.8760
    21.9572  21.9768  22.0028  22.0537  22.1383  22.2443

     the Fermi energy is    -1.0576 ev

!    total energy              =   -2163.11993326 Ry
     Harris-Foulkes estimate   =   -2163.11993326 Ry
     estimated scf accuracy    <          2.2E-09 Ry

     The total energy is the sum of the following terms:

     one-electron contribution =  -25264.05365473 Ry
     hartree contribution      =   12655.96326266 Ry
     xc contribution           =    -338.59224724 Ry
     ewald contribution        =   10781.98923497 Ry
     Hubbard energy            =       1.57218629 Ry
     smearing contrib. (-TS)   =       0.00128478 Ry

     convergence has been achieved in  17 iterations

     Forces acting on atoms (Ry/au):

     negative rho (up, down):  0.576E+00 0.000E+00
     atom    1 type  1   force =    -0.00495605   -0.00983677    0.00070323
     atom    2 type  1   force =     0.00040586    0.00631373   -0.00084939
     atom    3 type  2   force =     0.02498771    0.00008785    0.00022936
     atom    4 type  2   force =     0.00265795    0.00561793   -0.00009715
     atom    5 type  1   force =     0.00181238   -0.03526053   -0.00041249
     atom    6 type  1   force =     0.00184112    0.03652185   -0.00044227
     atom    7 type  1   force =     0.00227040   -0.00314513   -0.00002354
     atom    8 type  1   force =     0.00122236   -0.00220242    0.00073003
     atom    9 type  2   force =    -0.02021674    0.00283647    0.00029129
     atom   10 type  2   force =    -0.00757144   -0.00071716    0.00053924
     atom   11 type  1   force =    -0.00947211    0.01120820    0.00016996
     atom   12 type  1   force =    -0.01114589   -0.01184271    0.00016607
     atom   13 type  1   force =    -0.00037965   -0.00096370   -0.00005833
     atom   14 type  1   force =    -0.00349279   -0.00837726    0.00051795
     atom   15 type  1   force =    -0.00005621    0.00514345   -0.00039290
     atom   16 type  2   force =    -0.02648352    0.00171193    0.00035853
     atom   17 type  2   force =     0.00209863    0.00515086    0.00002982
     atom   18 type  1   force =     0.00046715   -0.03594146   -0.00044120
     atom   19 type  1   force =     0.00247206    0.03554349   -0.00047281
     atom   20 type  1   force =    -0.00173339   -0.00190139   -0.00081476
     atom   21 type  1   force =    -0.00111378   -0.00099934    0.00088520
     atom   22 type  2   force =     0.01992726    0.00228807    0.00006910
     atom   23 type  2   force =     0.00391808    0.00107456   -0.00018861
     atom   24 type  1   force =     0.01181491    0.01343377    0.00018913
     atom   25 type  1   force =     0.01298023   -0.01381961    0.00013769
     atom   26 type  1   force =    -0.00150246   -0.00129664   -0.00000684
     atom   27 type  3   force =     0.00001816    0.00040971   -0.00047889
     atom   28 type  3   force =    -0.00000497   -0.00032111   -0.00066759
     atom   29 type  3   force =    -0.00045914   -0.00020122    0.00003632
     atom   30 type  3   force =    -0.00034302   -0.00029850    0.00004961
     atom   31 type  1   force =     0.00022571   -0.00001494   -0.00014090
     atom   32 type  3   force =    -0.00018883   -0.00020196    0.00038515

     Total force =     0.002613     Total SCF correction =     0.000143

     bfgs converged in  13 scf cycles and  12 bfgs steps
     (criteria: energy < 0.10E-03, force < 0.10E-02)

     End of BFGS Geometry Optimization

     Final energy   =   -2163.1199332566 Ry
Begin final coordinates

ATOMIC_POSITIONS (crystal)
O0       0.000000000   0.000000000   0.379741463    0   0   1
O0       0.000000000   0.500000000   0.403090011    0   0   1
Ru1      0.250000000   0.500000000   0.453686755    0   0   1
Ru1      0.000000000   0.000000000   0.453554639    0   0   1
O0       0.250000000   0.810000000   0.453409362    0   0   1
O0       0.250000000   0.190000000   0.453195560    0   0   1
O0       0.000000000   0.500000000   0.498292057    0   0   1
O0       0.000000000   0.000000000   0.526676657    0   0   1
Ru1      0.250000000   0.000000000   0.577411436    0   0   1
Ru1      0.000000000   0.500000000   0.568253409    0   0   1
O0       0.250000000   0.690000000   0.575258946    0   0   1
O0       0.250000000   0.310000000   0.575265886    0   0   1
O0       0.000000000   0.000000000   0.619733222    0   0   1
O0       0.500000000   0.000000000   0.379890773    0   0   1
O0       0.500000000   0.500000000   0.403975934    0   0   1
Ru1      0.750000000   0.500000000   0.453669048    0   0   1
Ru1      0.500000000   0.000000000   0.453559390    0   0   1
O0       0.750000000   0.810000000   0.453372175    0   0   1
O0       0.750000000   0.190000000   0.453223624    0   0   1
O0       0.500000000   0.500000000   0.502003216    0   0   1
O0       0.500000000   0.000000000   0.526614133    0   0   1
Ru1      0.750000000   0.000000000   0.577129338    0   0   1
Ru1      0.500000000   0.500000000   0.575571475    0   0   1
O0       0.750000000   0.690000000   0.574581657    0   0   1
O0       0.750000000   0.310000000   0.574446899    0   0   1
O0       0.500000000   0.000000000   0.617205313    0   0   1
H2      -0.000419790   0.626924992   0.381902601
H2       0.499418987   0.619116165   0.380322902
H2       0.145602759   0.031446334   0.367216857
H2       0.646549515   0.027918598   0.367399081
O0       0.514731093   0.497856230   0.647893953
H2       0.373284465   0.495319501   0.664272227
End final coordinates

     General routines

     Parallel routines
     Hubbard U routines

   This run was terminated on:  21: 1:12  27Apr2014

   JOB DONE.
Running PBS batch system epilogue script
Job id: 340456.audhumbla.fysik.dtu.dk
Username: zhonxu
Groupname: campgst
Jobname: RuO2/Eads-2-layers/OH-U-3.0
Sessionid: 30701
Queuename: verylong
Accounting:
This job has allocated the following 16 nodes:
a037 a037 a037 a037 a037 a037 a037 a037 a027 a027 a027 a027 a027 a027 a027 a027
Finished epilogue job 340456.audhumbla.fysik.dtu.dk for zhonxu