     Program PWSCF v.5.0.2 (svn rev. 9656) starts on 11Aug2014 at  8:48:53

     Current dimensions of program PWSCF are:
     Max number of different atomic species (ntypx) = 10
     Max number of k-points (npk) =  40000
     Max angular momentum in pseudopotentials (lmaxx) =  3
     Reading input from pwscf.in
Warning: card &CELL ignored
Warning: card / ignored

     Subspace diagonalization in iterative solution of the eigenvalue problem:
     a serial algorithm will be used

     bravais-lattice index     =            0
     lattice parameter (alat)  =      10.3179  a.u.
     unit-cell volume          =    6964.3238 (a.u.)^3
     number of atoms/cell      =           32
     number of atomic types    =            3
     number of electrons       =       231.00
     number of Kohn-Sham states=          346
     kinetic-energy cutoff     =      40.0000  Ry
     charge density cutoff     =     500.0000  Ry
     convergence threshold     =      1.0E-06
     mixing beta               =       0.7000
     number of iterations used =            8  plain     mixing
     Exchange-correlation      = SLA  PW   PBE  PBE ( 1 4 3 4 0)
     EXX-fraction              =        0.00
     nstep                     =           50

     celldm(1)=  10.317905  celldm(2)=   0.000000  celldm(3)=   0.000000
     celldm(4)=   0.000000  celldm(5)=   0.000000  celldm(6)=   0.000000

     crystal axes: (cart. coord. in units of alat)
               a(1) = (   1.000000   0.000000   0.000000 )
               a(2) = (   0.000000   1.282117   0.000000 )
               a(3) = (   0.000000   0.000000   4.945120 )

     reciprocal axes: (cart. coord. in units 2 pi/alat)
               b(1) = (  1.000000  0.000000  0.000000 )
               b(2) = (  0.000000  0.779960  0.000000 )
               b(3) = (  0.000000  0.000000  0.202220 )

     PseudoPot. # 1 for O  read from file:
     /home-research/zhongnanxu/gbrv_espresso_pseudo_v1.01/o_pbe_v1.01.uspp.F.UPF
     MD5 check sum: 2bcb18d16ea4b960afae9ec6d52f22d2
     Pseudo is Ultrasoft + core correction, Zval =  6.0
     Generated by new atomic code, or converted to UPF format
     Using radial grid of  737 points,  5 beta functions with:
                l(1) =   0
                l(2) =   0
                l(3) =   1
                l(4) =   1
                l(5) =   2
     Q(r) pseudized with  8 coefficients,  rinner =    0.900   0.900   0.900
                                                       0.900   0.900

     PseudoPot. # 2 for Mo read from file:
     /home-research/zhongnanxu/gbrv_espresso_pseudo_v1.01/mo_pbe_v1.uspp.F.UPF
     MD5 check sum: 30c4dcd161f5d35cd49bb5239c51a633
     Pseudo is Ultrasoft + core correction, Zval = 14.0
     Generated by new atomic code, or converted to UPF format
     Using radial grid of  889 points,  6 beta functions with:
                l(1) =   0
                l(2) =   0
                l(3) =   1
                l(4) =   1
                l(5) =   2
                l(6) =   2
     Q(r) pseudized with  6 coefficients,  rinner =    1.000   1.000   1.000
                                                       1.000   1.000

     PseudoPot. # 3 for H  read from file:
     /home-research/zhongnanxu/gbrv_espresso_pseudo_v1.01/h_pbe_v1.uspp.F.UPF
     MD5 check sum: 3408e3ff4ec8b0a4e358431e7e038a48
     Pseudo is Ultrasoft, Zval =  1.0
     Generated by new atomic code, or converted to UPF format
     Using radial grid of  615 points,  2 beta functions with:
                l(1) =   0
                l(2) =   0
     Q(r) pseudized with  8 coefficients,  rinner =    0.700

     atomic species   valence    mass     pseudopotential
        O0             6.00    15.99940     O ( 1.00)
        Mo1           14.00    95.94000     Mo( 1.00)
        H2             1.00     1.00794     H ( 1.00)

     Simplified LDA+U calculation (l_max = 2) with parameters (eV):
     atomic species    L          U    alpha       J0     beta
        Mo1            2     7.0000   0.0000   0.0000   0.0000

     No symmetry found

   Cartesian axes

     site n.     atom                  positions (alat units)
         1           O0  tau(   1) = (   0.0000000   0.0000000   1.8306836  )
         2           O0  tau(   2) = (   0.0000000   0.6410583   1.8975910  )
         3           Mo1 tau(   3) = (   0.2500000   0.6410583   2.1855454  )
         4           Mo1 tau(   4) = (   0.0000000   0.0000000   2.1874245  )
         5           O0  tau(   5) = (   0.2500000   1.0000510   2.1910345  )
         6           O0  tau(   6) = (   0.2500000   0.2820657   2.1897487  )
         7           O0  tau(   7) = (   0.0000000   0.6410583   2.4563402  )
         8           O0  tau(   8) = (   0.0000000   0.0000000   2.5513854  )
         9           Mo1 tau(   9) = (   0.2500000   0.0000000   2.8544224  )
        10           Mo1 tau(  10) = (   0.0000000   0.6410583   2.8125867  )
        11           O0  tau(  11) = (   0.2500000   0.9231240   2.8264824  )
        12           O0  tau(  12) = (   0.2500000   0.3589927   2.8271253  )
        13           O0  tau(  13) = (   0.0000000   0.0000000   3.0878321  )
        14           O0  tau(  14) = (   0.5000000   0.0000000   1.8305352  )
        15           O0  tau(  15) = (   0.5000000   0.6410583   1.8969976  )
        16           Mo1 tau(  16) = (   0.7500000   0.6410583   2.1842597  )
        17           Mo1 tau(  17) = (   0.5000000   0.0000000   2.1838146  )
        18           O0  tau(  18) = (   0.7500000   1.0000510   2.1896993  )
        19           O0  tau(  19) = (   0.7500000   0.2820657   2.1910345  )
        20           O0  tau(  20) = (   0.5000000   0.6410583   2.4814614  )
        21           O0  tau(  21) = (   0.5000000   0.0000000   2.5488139  )
        22           Mo1 tau(  22) = (   0.7500000   0.0000000   2.8203010  )
        23           Mo1 tau(  23) = (   0.5000000   0.6410583   2.8256912  )
        24           O0  tau(  24) = (   0.7500000   0.9231240   2.8255429  )
        25           O0  tau(  25) = (   0.7500000   0.3589927   2.8253451  )
        26           O0  tau(  26) = (   0.5000000   0.0000000   3.0875848  )
        27           H2  tau(  27) = (   0.0018100   0.7974766   1.8081833  )
        28           H2  tau(  28) = (   0.4982000   0.7798731   1.7831115  )
        29           H2  tau(  29) = (   0.1638900   0.0295143   1.7557155  )
        30           H2  tau(  30) = (   0.6642400   0.0260526   1.7546276  )
        31           O0  tau(  31) = (   0.4989500   0.6413532   3.1723442  )
        32           H2  tau(  32) = (   0.4060100   0.6353401   3.3246044  )

     number of k points=    10  Methfessel-Paxton smearing, width (Ry)=  0.0100
                       cart. coord. in units 2pi/alat
        k(    1) = (   0.0000000   0.0000000   0.0000000), wk =   0.1250000
        k(    2) = (   0.0000000   0.1949901   0.0000000), wk =   0.2500000
        k(    3) = (   0.0000000  -0.3899801   0.0000000), wk =   0.1250000
        k(    4) = (   0.2500000   0.0000000   0.0000000), wk =   0.2500000
        k(    5) = (   0.2500000   0.1949901   0.0000000), wk =   0.2500000
        k(    6) = (   0.2500000  -0.3899801   0.0000000), wk =   0.2500000
        k(    7) = (  -0.5000000   0.0000000   0.0000000), wk =   0.1250000
        k(    8) = (  -0.5000000   0.1949901   0.0000000), wk =   0.2500000
        k(    9) = (  -0.5000000  -0.3899801   0.0000000), wk =   0.1250000
        k(   10) = (  -0.2500000   0.1949901   0.0000000), wk =   0.2500000

     Largest allocated arrays     est. size (Mb)     dimensions
     Largest temporary arrays     est. size (Mb)     dimensions

     Check: negative/imaginary core charge=   -0.000003    0.000000

     Initial potential from superposition of free atoms
     Check: negative starting charge=   -0.002383

     starting charge  230.99142, renormalised to  231.00000

     negative rho (up, down):  0.238E-02 0.000E+00
     Number of +U iterations with fixed ns =  0
     Starting occupations:
 --- enter write_ns ---
 LDA+U parameters:
U( 2)     =  7.00000000
alpha( 2) =  0.00000000
atom    3   Tr[ns(na)] =   5.00000
    eigenvalues:
  0.500  0.500  0.500  0.500  0.500
    eigenvectors:
  1.000  0.000  0.000  0.000  0.000
  0.000  1.000  0.000  0.000  0.000
  0.000  0.000  1.000  0.000  0.000
  0.000  0.000  0.000  1.000  0.000
  0.000  0.000  0.000  0.000  1.000
    occupations:
  0.500  0.000  0.000  0.000  0.000
  0.000  0.500  0.000  0.000  0.000
  0.000  0.000  0.500  0.000  0.000
  0.000  0.000  0.000  0.500  0.000
  0.000  0.000  0.000  0.000  0.500
atom    4   Tr[ns(na)] =   5.00000
    eigenvalues:
  0.500  0.500  0.500  0.500  0.500
    eigenvectors:
  1.000  0.000  0.000  0.000  0.000
  0.000  1.000  0.000  0.000  0.000
  0.000  0.000  1.000  0.000  0.000
  0.000  0.000  0.000  1.000  0.000
  0.000  0.000  0.000  0.000  1.000
    occupations:
  0.500  0.000  0.000  0.000  0.000
  0.000  0.500  0.000  0.000  0.000
  0.000  0.000  0.500  0.000  0.000
  0.000  0.000  0.000  0.500  0.000
  0.000  0.000  0.000  0.000  0.500
atom    9   Tr[ns(na)] =   5.00000
    eigenvalues:
  0.500  0.500  0.500  0.500  0.500
    eigenvectors:
  1.000  0.000  0.000  0.000  0.000
  0.000  1.000  0.000  0.000  0.000
  0.000  0.000  1.000  0.000  0.000
  0.000  0.000  0.000  1.000  0.000
  0.000  0.000  0.000  0.000  1.000
    occupations:
  0.500  0.000  0.000  0.000  0.000
  0.000  0.500  0.000  0.000  0.000
  0.000  0.000  0.500  0.000  0.000
  0.000  0.000  0.000  0.500  0.000
  0.000  0.000  0.000  0.000  0.500
atom   10   Tr[ns(na)] =   5.00000
    eigenvalues:
  0.500  0.500  0.500  0.500  0.500
    eigenvectors:
  1.000  0.000  0.000  0.000  0.000
  0.000  1.000  0.000  0.000  0.000
  0.000  0.000  1.000  0.000  0.000
  0.000  0.000  0.000  1.000  0.000
  0.000  0.000  0.000  0.000  1.000
    occupations:
  0.500  0.000  0.000  0.000  0.000
  0.000  0.500  0.000  0.000  0.000
  0.000  0.000  0.500  0.000  0.000
  0.000  0.000  0.000  0.500  0.000
  0.000  0.000  0.000  0.000  0.500
atom   16   Tr[ns(na)] =   5.00000
    eigenvalues:
  0.500  0.500  0.500  0.500  0.500
    eigenvectors:
  1.000  0.000  0.000  0.000  0.000
  0.000  1.000  0.000  0.000  0.000
  0.000  0.000  1.000  0.000  0.000
  0.000  0.000  0.000  1.000  0.000
  0.000  0.000  0.000  0.000  1.000
    occupations:
  0.500  0.000  0.000  0.000  0.000
  0.000  0.500  0.000  0.000  0.000
  0.000  0.000  0.500  0.000  0.000
  0.000  0.000  0.000  0.500  0.000
  0.000  0.000  0.000  0.000  0.500
atom   17   Tr[ns(na)] =   5.00000
    eigenvalues:
  0.500  0.500  0.500  0.500  0.500
    eigenvectors:
  1.000  0.000  0.000  0.000  0.000
  0.000  1.000  0.000  0.000  0.000
  0.000  0.000  1.000  0.000  0.000
  0.000  0.000  0.000  1.000  0.000
  0.000  0.000  0.000  0.000  1.000
    occupations:
  0.500  0.000  0.000  0.000  0.000
  0.000  0.500  0.000  0.000  0.000
  0.000  0.000  0.500  0.000  0.000
  0.000  0.000  0.000  0.500  0.000
  0.000  0.000  0.000  0.000  0.500
atom   22   Tr[ns(na)] =   5.00000
    eigenvalues:
  0.500  0.500  0.500  0.500  0.500
    eigenvectors:
  1.000  0.000  0.000  0.000  0.000
  0.000  1.000  0.000  0.000  0.000
[...]
  0.000  0.000  0.000  0.004  0.995
  0.000  1.000  0.000  0.000  0.000
    occupations:
  0.587  0.010  0.003  0.005  0.000
  0.010  0.675  0.001  0.007 -0.002
  0.003  0.001  0.333  0.001  0.002
  0.005  0.007  0.001  0.786  0.000
  0.000 -0.002  0.002  0.000  0.521
atom    9   Tr[ns(na)] =   5.86439
    eigenvalues:
  0.490  0.508  0.617  0.632  0.686
    eigenvectors:
  0.000  0.000  0.122  0.000  0.878
  0.000  0.000  0.005  0.995  0.000
  0.373  0.627  0.000  0.000  0.000
  0.000  0.000  0.873  0.005  0.122
  0.627  0.373  0.000  0.000  0.000
    occupations:
  0.678 -0.001  0.000 -0.023 -0.001
 -0.001  0.632  0.000 -0.001  0.000
  0.000  0.000  0.501  0.000  0.009
 -0.023 -0.001  0.000  0.625  0.000
 -0.001  0.000  0.009  0.000  0.496
atom   10   Tr[ns(na)] =   5.66276
    eigenvalues:
  0.254  0.427  0.510  0.718  0.923
    eigenvectors:
  0.000  0.975  0.000  0.024  0.000
  0.000  0.000  0.000  0.000  0.999
  0.999  0.000  0.001  0.000  0.000
  0.000  0.024  0.000  0.975  0.001
  0.001  0.000  0.999  0.000  0.000
    occupations:
  0.434 -0.007 -0.003  0.045  0.000
 -0.007  0.923  0.000  0.006  0.000
 -0.003  0.000  0.254 -0.002 -0.006
  0.045  0.006 -0.002  0.711  0.000
  0.000  0.000 -0.006  0.000  0.509
atom   16   Tr[ns(na)] =   5.82879
    eigenvalues:
  0.334  0.498  0.571  0.751  0.760
    eigenvectors:
  0.009  0.021  0.238  0.504  0.227
  0.000  0.955  0.040  0.005  0.000
  0.950  0.000  0.000  0.038  0.012
  0.001  0.021  0.721  0.168  0.088
  0.040  0.002  0.001  0.285  0.673
    occupations:
  0.701 -0.018  0.037 -0.080 -0.010
 -0.018  0.502 -0.005 -0.006 -0.011
  0.037 -0.005  0.355 -0.017  0.082
 -0.080 -0.006 -0.017  0.616  0.008
 -0.010 -0.011  0.082  0.008  0.740
atom   17   Tr[ns(na)] =   5.80698
    eigenvalues:
  0.356  0.521  0.592  0.642  0.792
    eigenvectors:
  0.000  0.000  0.996  0.003  0.000
  0.000  0.000  0.003  0.990  0.006
  0.999  0.001  0.000  0.000  0.000
  0.000  0.000  0.001  0.006  0.993
  0.001  0.999  0.000  0.000  0.000
    occupations:
  0.592 -0.002  0.003  0.004  0.000
 -0.002  0.642 -0.002  0.012 -0.002
  0.003 -0.002  0.357  0.000 -0.005
  0.004  0.012  0.000  0.791 -0.001
  0.000 -0.002 -0.005 -0.001  0.521
atom   22   Tr[ns(na)] =   5.79047
    eigenvalues:
  0.405  0.444  0.592  0.610  0.845
    eigenvectors:
  0.000  0.000  0.003  0.252  0.745
  0.000  0.000  0.990  0.010  0.000
  0.125  0.875  0.000  0.000  0.000
  0.000  0.000  0.007  0.738  0.255
  0.875  0.125  0.000  0.000  0.000
    occupations:
  0.785  0.002 -0.001 -0.102 -0.003
  0.002  0.592  0.000  0.001  0.000
 -0.001  0.000  0.439  0.001 -0.013
 -0.102  0.001  0.001  0.670  0.002
 -0.003  0.000 -0.013  0.002  0.409
atom   23   Tr[ns(na)] =   5.84241
    eigenvalues:
  0.422  0.503  0.533  0.616  0.846
    eigenvectors:
  0.007  0.000  0.000  0.982  0.012
  0.993  0.000  0.000  0.007  0.000
  0.000  0.986  0.014  0.000  0.000
  0.000  0.000  0.000  0.012  0.988
  0.000  0.014  0.986  0.000  0.000
    occupations:
  0.618  0.016  0.000 -0.024  0.000
  0.016  0.424  0.002 -0.005  0.000
  0.000  0.002  0.504  0.000  0.003
 -0.024 -0.005  0.000  0.844  0.000
  0.000  0.000  0.003  0.000  0.533
N of occupied +U levels =  46.3751271
 --- exit write_ns ---

     Threshold (ethr) on eigenvalues was too large:
     Diagonalizing with lowered threshold

     Davidson diagonalization with overlap
     ethr =  3.00E-09,  avg # of iterations =  3.0

[...]

     total energy              =   -1728.93739929 Ry
     Harris-Foulkes estimate   =   -1728.93739930 Ry
     estimated scf accuracy    <       0.00000003 Ry

     iteration # 17     ecut=    40.00 Ry     beta=0.70
     Davidson diagonalization with overlap
     ethr =  7.02E-12,  avg # of iterations =  2.0

     negative rho (up, down):  0.353E-02 0.000E+00

     End of self-consistent calculation
 --- enter write_ns ---
 LDA+U parameters:
U( 2)     =  7.00000000
alpha( 2) =  0.00000000
atom    3   Tr[ns(na)] =   5.77402
    eigenvalues:
  0.410  0.515  0.554  0.588  0.820
    eigenvectors:
  0.006  0.023  0.016  0.298  0.656
  0.000  0.956  0.002  0.040  0.002
  0.730  0.000  0.251  0.008  0.011
  0.000  0.020  0.002  0.647  0.331
  0.264  0.000  0.728  0.007  0.001
    occupations:
  0.736  0.019  0.034 -0.110 -0.002
  0.019  0.519  0.002  0.004  0.000
  0.034  0.002  0.452 -0.015 -0.064
 -0.110  0.004 -0.015  0.663  0.001
 -0.002  0.000 -0.064  0.001  0.517
atom    4   Tr[ns(na)] =   5.80469
    eigenvalues:
  0.333  0.521  0.586  0.676  0.786
    eigenvectors:
  0.000  0.000  0.987  0.012  0.001
  0.000  0.000  0.012  0.984  0.004
  1.000  0.000  0.000  0.000  0.000
  0.000  0.000  0.000  0.004  0.995
  0.000  1.000  0.000  0.000  0.000
    occupations:
  0.587  0.010  0.003  0.005  0.000
  0.010  0.675  0.001  0.007 -0.002
  0.003  0.001  0.333  0.001  0.002
  0.005  0.007  0.001  0.786  0.000
  0.000 -0.002  0.002  0.000  0.521
atom    9   Tr[ns(na)] =   5.86514
    eigenvalues:
  0.490  0.508  0.617  0.632  0.686
    eigenvectors:
  0.000  0.000  0.122  0.000  0.878
  0.000  0.000  0.005  0.995  0.000
  0.372  0.628  0.000  0.000  0.000
  0.000  0.000  0.873  0.005  0.121
  0.628  0.372  0.000  0.000  0.000
    occupations:
  0.677 -0.001  0.000 -0.023 -0.001
 -0.001  0.632  0.000 -0.001  0.000
  0.000  0.000  0.501  0.000  0.009
 -0.023 -0.001  0.000  0.625  0.000
 -0.001  0.000  0.009  0.000  0.497
atom   10   Tr[ns(na)] =   5.66265
    eigenvalues:
  0.254  0.427  0.510  0.718  0.923
    eigenvectors:
  0.000  0.975  0.000  0.024  0.000
  0.000  0.000  0.000  0.000  0.999
  0.999  0.000  0.001  0.000  0.000
  0.000  0.024  0.000  0.975  0.001
  0.001  0.000  0.999  0.000  0.000
    occupations:
  0.434 -0.007 -0.003  0.045  0.000
 -0.007  0.923  0.000  0.006  0.000
 -0.003  0.000  0.254 -0.002 -0.006
  0.045  0.006 -0.002  0.711  0.000
  0.000  0.000 -0.006  0.000  0.509
atom   16   Tr[ns(na)] =   5.82945
    eigenvalues:
  0.334  0.498  0.571  0.752  0.760
    eigenvectors:
  0.009  0.021  0.238  0.526  0.205
  0.000  0.955  0.039  0.005  0.000
  0.950  0.000  0.000  0.037  0.013
  0.001  0.021  0.722  0.176  0.080
  0.039  0.002  0.001  0.256  0.702
    occupations:
  0.701 -0.018  0.037 -0.080 -0.010
 -0.018  0.502 -0.005 -0.006 -0.011
  0.037 -0.005  0.355 -0.017  0.081
 -0.080 -0.006 -0.017  0.616  0.008
 -0.010 -0.011  0.081  0.008  0.740
atom   17   Tr[ns(na)] =   5.80689
    eigenvalues:
  0.356  0.521  0.592  0.641  0.792
    eigenvectors:
  0.000  0.000  0.996  0.003  0.000
  0.000  0.000  0.003  0.990  0.006
  0.999  0.001  0.000  0.000  0.000
  0.000  0.000  0.001  0.006  0.993
  0.001  0.999  0.000  0.000  0.000
    occupations:
  0.592 -0.002  0.003  0.004  0.000
 -0.002  0.642 -0.002  0.012 -0.002
  0.003 -0.002  0.357  0.000 -0.005
  0.004  0.012  0.000  0.791 -0.001
  0.000 -0.002 -0.005 -0.001  0.521
atom   22   Tr[ns(na)] =   5.79017
    eigenvalues:
  0.404  0.444  0.592  0.610  0.845
    eigenvectors:
  0.000  0.000  0.003  0.252  0.744
  0.000  0.000  0.990  0.010  0.000
  0.124  0.876  0.000  0.000  0.000
  0.000  0.000  0.007  0.738  0.255
  0.876  0.124  0.000  0.000  0.000
    occupations:
  0.785  0.002 -0.001 -0.102 -0.003
  0.002  0.592  0.000  0.001  0.000
 -0.001  0.000  0.439  0.001 -0.013
 -0.102  0.001  0.001  0.670  0.002
 -0.003  0.000 -0.013  0.002  0.409
atom   23   Tr[ns(na)] =   5.84151
    eigenvalues:
  0.422  0.503  0.533  0.616  0.846
    eigenvectors:
  0.007  0.000  0.000  0.982  0.012
  0.993  0.000  0.000  0.007  0.000
  0.000  0.986  0.014  0.000  0.000
  0.000  0.000  0.000  0.012  0.988
  0.000  0.014  0.986  0.000  0.000
    occupations:
  0.618  0.016  0.000 -0.024  0.000
  0.016  0.424  0.002 -0.004  0.000
  0.000  0.002  0.504  0.000  0.003
 -0.024 -0.004  0.000  0.844  0.000
  0.000  0.000  0.003  0.000  0.532
N of occupied +U levels =  46.3745194
 --- exit write_ns ---

[...]

          k = 0.2500-0.3900 0.0000 ( 29726 PWs)   bands (ev):

[...]

          k =-0.2500 0.1950 0.0000 ( 29746 PWs)   bands (ev):

   -62.5222 -62.3657 -62.1989 -61.9734 -61.7911 -61.6498 -61.4685 -61.4347
   -37.0213 -36.9745 -36.8607 -36.7852 -36.4680 -36.4327 -36.4113 -36.1920
   -36.1577 -36.1499 -36.1123 -36.0050 -35.9739 -35.9647 -35.9282 -35.9274
   -35.8963 -35.8146 -35.7673 -35.7293 -35.6933 -35.2289 -35.1058 -35.0906
   -20.2158 -19.9469 -19.8492 -19.5857 -19.5091 -19.3347 -19.2571 -19.2030
   -19.0469 -18.9480 -18.9276 -18.7931 -18.7122 -18.6654 -18.5170 -18.4626
   -18.2738 -18.2548 -18.0322  -8.6604  -8.3427  -8.1684  -8.1330  -7.9456
    -7.7612  -7.6777  -7.5978  -7.5015  -7.2978  -7.2087  -7.0244  -6.8292
    -6.6896  -6.5528  -6.3638  -6.2391  -6.1669  -6.1068  -5.9978  -5.8534
    -5.7435  -5.6332  -5.3864  -5.2970  -5.1978  -4.9835  -4.9387  -4.7181
    -4.6227  -4.5282  -4.4509  -4.4270  -4.3382  -4.2552  -4.2341  -4.1812
    -4.1216  -4.0872  -4.0101  -3.7420  -3.6808  -3.5472  -3.5174  -3.4833
    -3.4223  -3.3570  -3.2865  -3.2067  -3.1194  -2.9839  -2.9074  -2.7858
    -2.6962  -2.5659  -2.4851  -2.2483  -2.0197  -1.9255  -1.8005  -0.9836
    -0.8889  -0.5170  -0.3294   0.4963   0.7571   0.7906   0.9111   1.0073
     1.2464   1.3360   1.4369   1.5104   1.5865   1.6659   1.8098   1.8927
     2.1660   2.3458   2.4953   2.6132   3.0595   3.5426   3.7252   3.7419
     3.9928   4.1306   4.2345   4.4315   4.5329   4.6077   4.6454   4.7795
     4.8747   4.9653   5.1051   5.3369   5.7055   5.8833   5.9788   6.1144
     6.1884   6.3823   6.4099   6.5448   6.5561   6.8290   7.0688   7.1170
     7.2497   7.3944   7.6187   7.7034   8.0124   8.1420   8.2946   8.3900
     8.5184   8.6462   8.7684   8.9034   8.9653   9.0474   9.1111   9.2881
     9.4322   9.4794   9.5820   9.6572   9.7195   9.8698   9.9216   9.9791
    10.1558  10.3675  10.4220  10.4900  10.5588  10.7328  10.7882  10.8776
    10.9659  11.0575  11.2035  11.2477  11.3816  11.5558  11.6822  11.7076
    11.8252  11.8882  11.9385  12.0569  12.1027  12.1951  12.2870  12.3547
    12.4098  12.4962  12.5169  12.6478  12.7709  12.9244  12.9730  13.0661
    13.1130  13.2033  13.2813  13.3523  13.3920  13.4553  13.4989  13.5622
    13.6948  13.8209  13.8514  13.9261  13.9843  14.0204  14.0745  14.1388
    14.2224  14.2473  14.2721  14.3487  14.4282  14.5012  14.5683  14.6491
    14.7084  14.7727  14.8496  14.9578  15.0261  15.1164  15.1825  15.3063
    15.3788  15.4635  15.5497  15.5893  15.6255  15.7409  15.8071  15.9487
    15.9864  16.0335  16.1228  16.1759  16.2452  16.3185  16.4175  16.4753
    16.5125  16.5364  16.6029  16.6800  16.8195  16.8696  16.8901  16.9550
    17.0658  17.1051  17.1902  17.2402  17.2993  17.3470  17.4320  17.4916
    17.5480  17.6238  17.7323  17.8252  17.9070  17.9890  18.0563  18.1006
    18.2181  18.2846  18.3385  18.4070  18.4462  18.5775  18.6299  18.7514
    18.7917  18.8856  18.9486  19.0150  19.0599  19.1419  19.2974  19.3213
    19.4076  19.4777  19.5628  19.6228  19.7888  19.8046  19.9604  19.9851
    20.0310  20.1082  20.1450  20.1738  20.2375  20.2676  20.3301  20.3669
    20.3940  20.5074  20.5241  20.5684  20.6500  20.7706  20.7911  20.8706
    20.9027  21.0546  21.0794  21.1435  21.2456  21.2839  21.3680  21.3851
    21.4311  21.5047  21.5408  21.6241  21.6481  21.6999  21.7292  21.8086
    21.8305  21.8980

     the Fermi energy is     0.0341 ev

!    total energy              =   -1728.93739930 Ry
     Harris-Foulkes estimate   =   -1728.93739931 Ry
     estimated scf accuracy    <          9.2E-09 Ry

     The total energy is the sum of the following terms:

     one-electron contribution =  -22180.95340821 Ry
     hartree contribution      =   11117.41438150 Ry
     xc contribution           =    -294.68219433 Ry
     ewald contribution        =    9624.76633724 Ry
     Hubbard energy            =       4.51765497 Ry
     smearing contrib. (-TS)   =      -0.00017048 Ry

     convergence has been achieved in  17 iterations

     Forces acting on atoms (Ry/au):

     negative rho (up, down):  0.353E-02 0.000E+00
     atom    1 type  1   force =    -0.00761434   -0.00660420   -0.00030996
     atom    2 type  1   force =     0.00276188    0.00940870    0.00005211
     atom    3 type  2   force =     0.01767766   -0.00981404   -0.00025257
     atom    4 type  2   force =     0.00017220    0.00481248    0.00009924
     atom    5 type  1   force =     0.00522564   -0.03954250    0.00017450
     atom    6 type  1   force =     0.00340894    0.03992540    0.00023203
     atom    7 type  1   force =    -0.00040282    0.00278172   -0.00066569
     atom    8 type  1   force =     0.01317550   -0.00054411    0.00056421
     atom    9 type  2   force =     0.00105404   -0.00019147   -0.00030100
     atom   10 type  2   force =    -0.00133210   -0.00003206    0.00053767
     atom   11 type  1   force =    -0.00765945    0.01558263   -0.00022023
     atom   12 type  1   force =    -0.00757444   -0.01564198   -0.00021938
     atom   13 type  1   force =     0.01568473    0.00013744   -0.00016772
     atom   14 type  1   force =     0.00513807   -0.00430741    0.00003133
     atom   15 type  1   force =    -0.00131927    0.00600498    0.00040033
     atom   16 type  2   force =    -0.01966188   -0.00338777   -0.00031539
     atom   17 type  2   force =    -0.00391687    0.00495593   -0.00021135
     atom   18 type  1   force =     0.00033126    0.00548197    0.00025497
     atom   19 type  1   force =    -0.00293494   -0.00904348    0.00012931
     atom   20 type  1   force =    -0.00882770   -0.00069663   -0.00009442
     atom   21 type  1   force =    -0.00032199    0.00069125    0.00089528
     atom   22 type  2   force =    -0.00571977    0.00009297    0.00032910
     atom   23 type  2   force =     0.00827581    0.00144911   -0.00008358
     atom   24 type  1   force =     0.00641794    0.01594358   -0.00031233
     atom   25 type  1   force =     0.00653316   -0.01654607   -0.00030818
     atom   26 type  1   force =    -0.01953628    0.00001906   -0.00010466
     atom   27 type  3   force =     0.00002192   -0.00037399   -0.00016521
     atom   28 type  3   force =     0.00001633   -0.00004265    0.00050153
     atom   29 type  3   force =     0.00008142   -0.00002482   -0.00033295
     atom   30 type  3   force =    -0.00007452   -0.00001746   -0.00008230
     atom   31 type  1   force =     0.00077188    0.00021911   -0.00001574
     atom   32 type  3   force =     0.00014799   -0.00069570   -0.00003894

     Total force =     0.002052     Total SCF correction =     0.000192

     bfgs converged in  12 scf cycles and  11 bfgs steps
     (criteria: energy < 0.10E-03, force < 0.10E-02)

     End of BFGS Geometry Optimization

     Final energy   =   -1728.9373993046 Ry
Begin final coordinates

ATOMIC_POSITIONS (crystal)
O0       0.000000000   0.000000000   0.369851776    0   0   1
O0       0.000000000   0.500000000   0.383449720    0   0   1
Mo1      0.250000000   0.500000000   0.441859923    0   0   1
Mo1      0.000000000   0.000000000   0.441964922    0   0   1
O0       0.250000000   0.780000000   0.442521759    0   0   1
O0       0.250000000   0.220000000   0.442024569    0   0   1
O0       0.000000000   0.500000000   0.496790037    0   0   1
O0       0.000000000   0.000000000   0.516232878    0   0   1
Mo1      0.250000000   0.000000000   0.578471482    0   0   1
Mo1      0.000000000   0.500000000   0.568693316    0   0   1
O0       0.250000000   0.720000000   0.572648920    0   0   1
O0       0.250000000   0.280000000   0.572780574    0   0   1
O0       0.000000000   0.000000000   0.624797347    0   0   1
O0       0.500000000   0.000000000   0.369907638    0   0   1
O0       0.500000000   0.500000000   0.383380985    0   0   1
Mo1      0.750000000   0.500000000   0.441644714    0   0   1
Mo1      0.500000000   0.000000000   0.441394399    0   0   1
O0       0.750000000   0.780000000   0.442235119    0   0   1
O0       0.750000000   0.220000000   0.442749890    0   0   1
O0       0.500000000   0.500000000   0.502207854    0   0   1
O0       0.500000000   0.000000000   0.515569439    0   0   1
Mo1      0.750000000   0.000000000   0.569675613    0   0   1
Mo1      0.500000000   0.500000000   0.571817685    0   0   1
O0       0.750000000   0.720000000   0.571522389    0   0   1
O0       0.750000000   0.280000000   0.571444201    0   0   1
O0       0.500000000   0.000000000   0.624630218    0   0   1
H2       0.002881981   0.620194877   0.364451002
H2       0.496814694   0.609138182   0.360550859
H2       0.165363510   0.022274278   0.355230308
H2       0.664693488   0.020190877   0.354636409
O0       0.505027654   0.500230000   0.642041857    1   0   1
H2       0.406892835   0.495540000   0.672162198    1   0   1
End final coordinates

     General routines

     Parallel routines
     Hubbard U routines

   This run was terminated on:   2:45:12  12Aug2014

   JOB DONE.