     Program PWSCF v.5.0.2 (svn rev. 9656) starts on  9May2014 at 11:55:22

     Current dimensions of program PWSCF are:
     Max number of different atomic species (ntypx) = 10
     Max number of k-points (npk) =  40000
     Max angular momentum in pseudopotentials (lmaxx) =  3
     Reading input from pwscf.in
Warning: card &CELL ignored
Warning: card / ignored

     Subspace diagonalization in iterative solution of the eigenvalue problem:
     a serial algorithm will be used

     Found symmetry operation: I + ( -0.5000  0.0000  0.0000)
     This is a supercell, fractional translations are disabled

     bravais-lattice index     =            0
     lattice parameter (alat)  =      10.7336  a.u.
     unit-cell volume          =    6184.1966 (a.u.)^3
     number of atoms/cell      =           30
     number of atomic types    =            3
     number of electrons       =       232.00 (up: 128.00, down: 104.00)
     number of Kohn-Sham states=          336
     kinetic-energy cutoff     =      40.0000  Ry
     charge density cutoff     =     500.0000  Ry
     convergence threshold     =      1.0E-06
     mixing beta               =       0.7000
     number of iterations used =            8  plain     mixing
     Exchange-correlation      = SLA  PW   PBE  PBE ( 1 4 3 4 0)
     EXX-fraction              =        0.00
     nstep                     =           50

     celldm(1)=  10.733644  celldm(2)=   0.000000  celldm(3)=   0.000000
     celldm(4)=   0.000000  celldm(5)=   0.000000  celldm(6)=   0.000000

     crystal axes: (cart. coord. in units of alat)
               a(1) = (   1.000000   0.000000   0.000000 )
               a(2) = (   0.000000   1.085558   0.000000 )
               a(3) = (   0.000000   0.000000   4.606685 )

     reciprocal axes: (cart. coord. in units 2 pi/alat)
               b(1) = (  1.000000  0.000000  0.000000 )
               b(2) = (  0.000000  0.921185  0.000000 )
               b(3) = (  0.000000  0.000000  0.217076 )

     PseudoPot. # 1 for O  read from file:
     /home/camp/zhonxu/pseudo/o_pbe_v1.01.uspp.F.UPF
     MD5 check sum: 2bcb18d16ea4b960afae9ec6d52f22d2
     Pseudo is Ultrasoft + core correction, Zval =  6.0
     Generated by new atomic code, or converted to UPF format
     Using radial grid of  737 points,  5 beta functions with:
                l(1) =   0
                l(2) =   0
                l(3) =   1
                l(4) =   1
                l(5) =   2
     Q(r) pseudized with  8 coefficients,  rinner =    0.900   0.900   0.900
                                                       0.900   0.900

     PseudoPot. # 2 for Mn read from file:
     /home/camp/zhonxu/pseudo/mn_pbe_v1.uspp.F.UPF
     MD5 check sum: 5fd7c7b5c956fd19902447332617373a
     Pseudo is Ultrasoft + core correction, Zval = 15.0
     Generated by new atomic code, or converted to UPF format
     Using radial grid of  859 points,  6 beta functions with:
                l(1) =   0
                l(2) =   0
                l(3) =   1
                l(4) =   1
                l(5) =   2
                l(6) =   2
     Q(r) pseudized with  6 coefficients,  rinner =    1.150   1.150   1.150
                                                       1.150   1.150

     PseudoPot. # 3 for H  read from file:
     /home/camp/zhonxu/pseudo/h_pbe_v1.uspp.F.UPF
     MD5 check sum: 3408e3ff4ec8b0a4e358431e7e038a48
     Pseudo is Ultrasoft, Zval =  1.0
     Generated by new atomic code, or converted to UPF format
     Using radial grid of  615 points,  2 beta functions with:
                l(1) =   0
                l(2) =   0
     Q(r) pseudized with  8 coefficients,  rinner =    0.700

     atomic species   valence    mass     pseudopotential
        O0             6.00    15.99940     O ( 1.00)
        Mn1           15.00    54.93800     Mn( 1.00)
        H2             1.00     1.00794     H ( 1.00)

     Starting magnetic structure
     atomic species   magnetization
        O0           0.000
        Mn1          0.600
        H2           0.000

     Simplified LDA+U calculation (l_max = 2) with parameters (eV):
     atomic species    L          U    alpha       J0     beta
        Mn1            2     6.0000   0.0000   0.0000   0.0000

     No symmetry found

   Cartesian axes

     site n.     atom                  positions (alat units)
         1           O0  tau(   1) = (   0.0000000   0.0000000   1.7440910  )
         2           O0  tau(   2) = (   0.0000000   0.5427791   1.8348887  )
         3           Mn1 tau(   3) = (   0.2500000   0.5427791   2.0695072  )
         4           Mn1 tau(   4) = (   0.0000000   0.0000000   2.0719487  )
         5           O0  tau(   5) = (   0.2500000   0.8684466   2.0695533  )
         6           O0  tau(   6) = (   0.2500000   0.2171117   2.0770161  )
         7           O0  tau(   7) = (   0.0000000   0.5427791   2.2881405  )
         8           O0  tau(   8) = (   0.0000000   0.0000000   2.4167130  )
         9           Mn1 tau(   9) = (   0.2500000   0.0000000   2.6452046  )
        10           Mn1 tau(  10) = (   0.0000000   0.5427791   2.6189465  )
        11           O0  tau(  11) = (   0.2500000   0.7598908   2.6694358  )
        12           O0  tau(  12) = (   0.2500000   0.3256675   2.6696661  )
        13           O0  tau(  13) = (   0.0000000   0.0000000   2.8462864  )
        14           O0  tau(  14) = (   0.5000000   0.0000000   1.7440910  )
        15           O0  tau(  15) = (   0.5000000   0.5427791   1.8348887  )
        16           Mn1 tau(  16) = (   0.7500000   0.5427791   2.0695072  )
        17           Mn1 tau(  17) = (   0.5000000   0.0000000   2.0719487  )
        18           O0  tau(  18) = (   0.7500000   0.8684466   2.0695533  )
        19           O0  tau(  19) = (   0.7500000   0.2171117   2.0770161  )
        20           O0  tau(  20) = (   0.5000000   0.5427791   2.2881405  )
        21           O0  tau(  21) = (   0.5000000   0.0000000   2.4167130  )
        22           Mn1 tau(  22) = (   0.7500000   0.0000000   2.6452046  )
        23           Mn1 tau(  23) = (   0.5000000   0.5427791   2.6189465  )
        24           O0  tau(  24) = (   0.7500000   0.7598908   2.6694358  )
        25           O0  tau(  25) = (   0.7500000   0.3256675   2.6696661  )
        26           O0  tau(  26) = (   0.5000000   0.0000000   2.8462864  )
        27           H2  tau(  27) = (  -0.0000900   0.7018026   1.7591088  )
        28           H2  tau(  28) = (   0.4999100   0.7018026   1.7591088  )
        29           H2  tau(  29) = (   0.1616900   0.0388738   1.6898703  )
        30           H2  tau(  30) = (   0.6616900   0.0388738   1.6898703  )

     number of k points=    20  Methfessel-Paxton smearing, width (Ry)=  0.0100
                       cart. coord. in units 2pi/alat
        k(    1) = (   0.0000000   0.0000000   0.0000000), wk =   0.0625000
        k(    2) = (   0.0000000   0.2302962   0.0000000), wk =   0.1250000
        k(    3) = (   0.0000000  -0.4605925   0.0000000), wk =   0.0625000
        k(    4) = (   0.2500000   0.0000000   0.0000000), wk =   0.1250000
        k(    5) = (   0.2500000   0.2302962   0.0000000), wk =   0.1250000
        k(    6) = (   0.2500000  -0.4605925   0.0000000), wk =   0.1250000
        k(    7) = (  -0.5000000   0.0000000   0.0000000), wk =   0.0625000
        k(    8) = (  -0.5000000   0.2302962   0.0000000), wk =   0.1250000
        k(    9) = (  -0.5000000  -0.4605925   0.0000000), wk =   0.0625000
        k(   10) = (  -0.2500000   0.2302962   0.0000000), wk =   0.1250000
        k(   11) = (   0.0000000   0.0000000   0.0000000), wk =   0.0625000
        k(   12) = (   0.0000000   0.2302962   0.0000000), wk =   0.1250000
        k(   13) = (   0.0000000  -0.4605925   0.0000000), wk =   0.0625000
        k(   14) = (   0.2500000   0.0000000   0.0000000), wk =   0.1250000
        k(   15) = (   0.2500000   0.2302962   0.0000000), wk =   0.1250000
        k(   16) = (   0.2500000  -0.4605925   0.0000000), wk =   0.1250000
        k(   17) = (  -0.5000000   0.0000000   0.0000000), wk =   0.0625000
        k(   18) = (  -0.5000000   0.2302962   0.0000000), wk =   0.1250000
        k(   19) = (  -0.5000000  -0.4605925   0.0000000), wk =   0.0625000
        k(   20) = (  -0.2500000   0.2302962   0.0000000), wk =   0.1250000

     Largest allocated arrays     est. size (Mb)     dimensions
     Largest temporary arrays     est. size (Mb)     dimensions

     Check: negative/imaginary core charge=   -0.000022    0.000000

     Initial potential from superposition of free atoms
     Check: negative starting charge=(component1):   -0.000776
     Check: negative starting charge=(component2):   -0.000381

     starting charge  223.99987, renormalised to  232.00000

     negative rho (up, down):  0.804E-03 0.395E-03
     Number of +U iterations with fixed ns =  0
     Starting occupations:
 --- enter write_ns ---
 LDA+U parameters:
U( 2)     =  6.00000000
alpha( 2) =  0.00000000
atom    3   Tr[ns(na)] (up, down, total) =   5.00000  0.00000  5.00000
   spin  1
    eigenvalues:
  1.000  1.000  1.000  1.000  1.000
    eigenvectors:
  1.000  0.000  0.000  0.000  0.000
  0.000  1.000  0.000  0.000  0.000
  0.000  0.000  1.000  0.000  0.000
  0.000  0.000  0.000  1.000  0.000
  0.000  0.000  0.000  0.000  1.000
    occupations:
  1.000  0.000  0.000  0.000  0.000
  0.000  1.000  0.000  0.000  0.000
  0.000  0.000  1.000  0.000  0.000
  0.000  0.000  0.000  1.000  0.000
  0.000  0.000  0.000  0.000  1.000
   spin  2
    eigenvalues:
  0.000  0.000  0.000  0.000  0.000
    eigenvectors:
  1.000  0.000  0.000  0.000  0.000
  0.000  1.000  0.000  0.000  0.000
  0.000  0.000  1.000  0.000  0.000
  0.000  0.000  0.000  1.000  0.000
  0.000  0.000  0.000  0.000  1.000
    occupations:
  0.000  0.000  0.000  0.000  0.000
  0.000  0.000  0.000  0.000  0.000
  0.000  0.000  0.000  0.000  0.000
  0.000  0.000  0.000  0.000  0.000
  0.000  0.000  0.000  0.000  0.000
atomic mag. moment =     5.000000
atom    4   Tr[ns(na)] (up, down, total) =   5.00000  0.00000  5.00000
   spin  1
    eigenvalues:
  1.000  1.000  1.000  1.000  1.000
    eigenvectors:
  1.000  0.000  0.000  0.000  0.000
  0.000  1.000  0.000  0.000  0.000
  0.000  0.000  1.000  0.000  0.000
  0.000  0.000  0.000  1.000  0.000
  0.000  0.000  0.000  0.000  1.000
    occupations:
  1.000  0.000  0.000  0.000  0.000
  0.000  1.000  0.000  0.000  0.000
  0.000  0.000  1.000  0.000  0.000
  0.000  0.000  0.000  1.000  0.000
  0.000  0.000  0.000  0.000  1.000
   spin  2
    eigenvalues:
  0.000  0.000  0.000  0.000  0.000
    eigenvectors:
  1.000  0.000  0.000  0.000  0.000
  0.000  1.000  0.000  0.000  0.000
  0.000  0.000  1.000  0.000  0.000
  0.000  0.000  0.000  1.000  0.000
  0.000  0.000  0.000  0.000  1.000
    occupations:
  0.000  0.000  0.000  0.000  0.000
  0.000  0.000  0.000  0.000  0.000
  0.000  0.000  0.000  0.000  0.000
  0.000  0.000  0.000  0.000  0.000
  0.000  0.000  0.000  0.000  0.000
atomic mag. moment =     5.000000
atom    9   Tr[ns(na)] (up, down, total) =   5.00000  0.00000  5.00000
   spin  1
    eigenvalues:
  1.000  1.000  1.000  1.000  1.000
    eigenvectors:
[...]
  0.000  0.002  0.000  0.998  0.000
  0.005  0.000  0.995  0.000  0.000
  0.220  0.000  0.001  0.000  0.778
  0.000  0.998  0.000  0.002  0.000
    occupations:
  0.130 -0.000 -0.002  0.109 -0.000
 -0.000  0.307  0.000 -0.000  0.008
 -0.002  0.000  0.101  0.000 -0.000
  0.109 -0.000  0.000  0.276 -0.000
 -0.000  0.008 -0.000 -0.000  0.090
atomic mag. moment =     3.550925
atom    4   Tr[ns(na)] (up, down, total) =   4.45267  0.89673  5.34940
   spin  1
    eigenvalues:
  0.694  0.753  0.997  1.004  1.005
    eigenvectors:
  0.000  0.998  0.001  0.001  0.000
  0.000  0.001  0.000  0.311  0.688
  0.000  0.000  0.000  0.688  0.312
  0.000  0.001  0.999  0.000  0.000
  1.000  0.000  0.000  0.000  0.000
    occupations:
  0.754 -0.008 -0.005  0.007 -0.001
 -0.008  1.004 -0.000  0.000  0.002
 -0.005 -0.000  1.004  0.000 -0.000
  0.007  0.000  0.000  0.997 -0.000
 -0.001  0.002 -0.000 -0.000  0.694
   spin  2
    eigenvalues:
  0.075  0.089  0.096  0.297  0.340
    eigenvectors:
  0.006  0.002  0.000  0.993  0.000
  0.003  0.523  0.472  0.002  0.001
  0.005  0.467  0.528  0.001  0.000
  0.986  0.009  0.000  0.005  0.000
  0.000  0.000  0.000  0.000  0.999
    occupations:
  0.295  0.008  0.005 -0.016  0.000
  0.008  0.092 -0.003  0.000 -0.006
  0.005 -0.003  0.093  0.001  0.000
 -0.016  0.000  0.001  0.076 -0.000
  0.000 -0.006  0.000 -0.000  0.340
atomic mag. moment =     3.555944
atom    9   Tr[ns(na)] (up, down, total) =   4.43015  0.94834  5.37849
   spin  1
    eigenvalues:
  0.722  0.731  0.985  0.992  1.000
    eigenvectors:
  0.227  0.000  0.000  0.000  0.772
  0.002  0.998  0.000  0.000  0.000
  0.000  0.000  0.000  1.000  0.000
  0.771  0.002  0.000  0.000  0.228
  0.000  0.000  1.000  0.000  0.000
    occupations:
  0.937  0.000  0.000 -0.117  0.000
  0.000  0.731  0.000  0.000  0.000
  0.000  0.000  0.992  0.000 -0.000
 -0.117  0.000  0.000  0.785  0.000
  0.000  0.000 -0.000  0.000  0.985
   spin  2
    eigenvalues:
  0.083  0.095  0.100  0.333  0.339
    eigenvectors:
  0.809  0.000  0.000  0.191  0.000
  0.000  0.000  0.000  0.000  1.000
  0.000  0.000  1.000  0.000  0.000
  0.191  0.000  0.000  0.809  0.000
  0.000  1.000  0.000  0.000  0.000
    occupations:
  0.130 -0.000  0.000  0.098  0.000
 -0.000  0.339 -0.000  0.000 -0.000
  0.000 -0.000  0.100  0.000 -0.000
  0.098  0.000  0.000  0.285  0.000
  0.000 -0.000 -0.000  0.000  0.095
atomic mag. moment =     3.481818
atom   10   Tr[ns(na)] (up, down, total) =   4.65999  0.62254  5.28253
   spin  1
    eigenvalues:
  0.704  0.960  0.999  0.999  0.999
    eigenvectors:
  0.000  0.954  0.001  0.002  0.043
  0.000  0.000  0.532  0.468  0.000
  0.000  0.000  0.448  0.500  0.053
  0.000  0.046  0.019  0.031  0.904
  1.000  0.000  0.000  0.000  0.000
    occupations:
  0.962 -0.000  0.000  0.008 -0.000
 -0.000  0.999  0.000  0.000 -0.000
  0.000  0.000  0.999 -0.000  0.000
  0.008  0.000 -0.000  0.997  0.000
 -0.000 -0.000  0.000  0.000  0.704
   spin  2
    eigenvalues:
  0.063  0.068  0.075  0.128  0.289
    eigenvectors:
  0.044  0.000  0.000  0.956  0.000
  0.000  0.000  1.000  0.000  0.000
  0.000  1.000  0.000  0.000  0.000
  0.956  0.000  0.000  0.044  0.000
  0.000  0.000  0.000  0.000  1.000
    occupations:
  0.125  0.000 -0.000 -0.013  0.000
  0.000  0.075 -0.000 -0.000  0.000
 -0.000 -0.000  0.068 -0.000 -0.000
 -0.013 -0.000 -0.000  0.065 -0.000
  0.000  0.000 -0.000 -0.000  0.289
atomic mag. moment =     4.037449
atom   16   Tr[ns(na)] (up, down, total) =   4.45460  0.90367  5.35827
   spin  1
    eigenvalues:
  0.711  0.742  0.999  1.000  1.003
    eigenvectors:
  0.245  0.000  0.000  0.643  0.112
  0.000  0.999  0.001  0.000  0.000
  0.000  0.000  0.001  0.143  0.856
  0.755  0.000  0.000  0.213  0.032
  0.000  0.001  0.998  0.001  0.000
    occupations:
  0.930  0.000 -0.002 -0.125  0.000
  0.000  0.742 -0.000  0.000 -0.007
 -0.002 -0.000  1.003 -0.002  0.000
 -0.125  0.000 -0.002  0.782  0.000
  0.000 -0.007  0.000  0.000  0.999
   spin  2
    eigenvalues:
  0.072  0.090  0.101  0.307  0.334
    eigenvectors:
  0.774  0.000  0.004  0.000  0.222
  0.000  0.002  0.000  0.998  0.000
  0.005  0.000  0.995  0.000  0.000
  0.220  0.000  0.001  0.000  0.778
  0.000  0.998  0.000  0.002  0.000
    occupations:
  0.130 -0.000 -0.002  0.109 -0.000
 -0.000  0.307  0.000 -0.000  0.008
 -0.002  0.000  0.101  0.000 -0.000
  0.109 -0.000  0.000  0.276 -0.000
 -0.000  0.008 -0.000 -0.000  0.090
atomic mag. moment =     3.550925
atom   17   Tr[ns(na)] (up, down, total) =   4.45267  0.89673  5.34940
   spin  1
    eigenvalues:
  0.694  0.753  0.997  1.004  1.005
    eigenvectors:
  0.000  0.998  0.001  0.001  0.000
  0.000  0.001  0.000  0.311  0.688
  0.000  0.000  0.000  0.688  0.312
  0.000  0.001  0.999  0.000  0.000
  1.000  0.000  0.000  0.000  0.000
    occupations:
  0.754 -0.008 -0.005  0.007 -0.001
 -0.008  1.004 -0.000  0.000  0.002
 -0.005 -0.000  1.004  0.000 -0.000
  0.007  0.000  0.000  0.997 -0.000
 -0.001  0.002 -0.000 -0.000  0.694
   spin  2
    eigenvalues:
  0.075  0.089  0.096  0.297  0.340
    eigenvectors:
  0.006  0.002  0.000  0.993  0.000
  0.003  0.523  0.472  0.002  0.001
  0.005  0.467  0.528  0.001  0.000
  0.986  0.009  0.000  0.005  0.000
  0.000  0.000  0.000  0.000  0.999
    occupations:
  0.295  0.008  0.005 -0.016  0.000
  0.008  0.092 -0.003  0.000 -0.006
  0.005 -0.003  0.093  0.001  0.000
 -0.016  0.000  0.001  0.076 -0.000
  0.000 -0.006  0.000 -0.000  0.340
atomic mag. moment =     3.555938
atom   22   Tr[ns(na)] (up, down, total) =   4.43015  0.94834  5.37849
   spin  1
    eigenvalues:
  0.722  0.731  0.985  0.992  1.000
    eigenvectors:
  0.227  0.000  0.000  0.000  0.772
  0.002  0.998  0.000  0.000  0.000
  0.000  0.000  0.000  1.000  0.000
  0.771  0.002  0.000  0.000  0.228
  0.000  0.000  1.000  0.000  0.000
    occupations:
  0.937  0.000  0.000 -0.117  0.000
  0.000  0.731  0.000  0.000  0.000
  0.000  0.000  0.992  0.000 -0.000
 -0.117  0.000  0.000  0.785  0.000
  0.000  0.000 -0.000  0.000  0.985
   spin  2
    eigenvalues:
  0.083  0.095  0.100  0.333  0.339
    eigenvectors:
  0.809  0.000  0.000  0.191  0.000
  0.000  0.000  0.000  0.000  1.000
  0.000  0.000  1.000  0.000  0.000
  0.191  0.000  0.000  0.809  0.000
  0.000  1.000  0.000  0.000  0.000
    occupations:
  0.130 -0.000  0.000  0.098  0.000
 -0.000  0.339 -0.000  0.000 -0.000
  0.000 -0.000  0.100  0.000 -0.000
  0.098  0.000  0.000  0.285  0.000
  0.000 -0.000 -0.000  0.000  0.095
atomic mag. moment =     3.481818
atom   23   Tr[ns(na)] (up, down, total) =   4.65999  0.62254  5.28253
   spin  1
    eigenvalues:
  0.704  0.960  0.999  0.999  0.999
    eigenvectors:
  0.000  0.954  0.001  0.002  0.043
  0.000  0.000  0.532  0.467  0.000
  0.000  0.000  0.447  0.500  0.053
  0.000  0.046  0.019  0.031  0.904
  1.000  0.000  0.000  0.000  0.000
    occupations:
  0.962 -0.000  0.000  0.008 -0.000
 -0.000  0.999  0.000  0.000 -0.000
  0.000  0.000  0.999 -0.000  0.000
  0.008  0.000 -0.000  0.997  0.000
 -0.000 -0.000  0.000  0.000  0.704
   spin  2
    eigenvalues:
  0.063  0.068  0.075  0.128  0.289
    eigenvectors:
  0.044  0.000  0.000  0.956  0.000
  0.000  0.000  1.000  0.000  0.000
  0.000  1.000  0.000  0.000  0.000
  0.956  0.000  0.000  0.044  0.000
  0.000  0.000  0.000  0.000  1.000
    occupations:
  0.125  0.000 -0.000 -0.013  0.000
  0.000  0.075 -0.000 -0.000  0.000
 -0.000 -0.000  0.068 -0.000 -0.000
 -0.013 -0.000 -0.000  0.065 -0.000
  0.000  0.000 -0.000 -0.000  0.289
atomic mag. moment =     4.037450
N of occupied +U levels =  42.7373637
 --- exit write_ns ---

 ------ SPIN UP ------------

[...]

 ------ SPIN DOWN ----------

[...]

          k = 0.2500-0.4606 0.0000 ( 26462 PWs)   bands (ev):

[...]

          k =-0.2500 0.2303 0.0000 ( 26396 PWs)   bands (ev):

   -80.1831 -80.1754 -80.1342 -80.1263 -80.1008 -80.0923 -79.2237 -79.2154
   -49.0901 -49.0666 -49.0488 -49.0372 -49.0321 -48.9821 -48.9723 -48.9709
   -48.9644 -48.9398 -48.9328 -48.9225 -48.8996 -48.8835 -48.8445 -48.8267
   -48.7331 -48.7256 -48.3599 -48.2547 -48.1966 -48.1785 -47.6779 -47.6691
   -21.6823 -21.2139 -21.1700 -20.9625 -20.5011 -20.4382 -20.4177 -20.3413
   -20.1354 -20.1282 -20.0564 -19.9605 -19.8555 -19.7814 -19.7230 -19.7010
   -19.6442 -19.5644  -8.9905  -8.7695  -8.3846  -8.3432  -8.1636  -7.9728
    -7.7597  -7.5981  -7.4459  -7.3264  -7.1362  -7.1320  -6.9989  -6.9688
    -6.8881  -6.7681  -6.6925  -6.5724  -6.5325  -6.3687  -6.3056  -6.1993
    -6.1753  -6.0593  -5.9059  -5.8080  -5.7449  -5.6944  -5.6303  -5.5015
    -5.4155  -5.3291  -5.2191  -5.1416  -5.1157  -5.0280  -4.9811  -4.8197
    -4.7539  -4.6226  -4.5359  -4.4976  -4.4267  -4.3160  -4.2753  -4.1742
    -4.0052  -3.9176  -3.7470  -3.6652  -3.6608  -3.3343  -3.3235  -3.0212
     1.2350   1.2927   1.2964   1.3683   1.3783   1.5080   1.5313   1.5502
     1.5961   1.5996   1.6807   1.7280   1.7958   1.8376   1.8529   1.9400
     1.9840   2.0471   2.0825   2.1552   2.1845   2.2503   2.3455   2.4000
     2.4417   2.4981   2.4992   2.5218   2.6609   2.7822   2.7898   2.8166
     2.8978   2.9037   3.0071   3.1502   3.2326   3.2335   3.2636   3.4355
     3.7222   4.1864   4.3914   4.8696   5.3508   5.6229   5.7802   6.0797
     6.2272   6.4146   6.4188   6.4555   6.5994   6.8607   6.9541   7.2832
     7.3203   7.5665   7.7341   7.8965   8.1555   8.1899   8.2581   8.3626
     8.4315   8.5765   8.7949   8.8748   9.1301   9.1974   9.2639   9.4513
     9.5416   9.5521   9.8702   9.9353  10.0566  10.0601  10.1536  10.3345
    10.4194  10.5631  10.5957  10.6879  10.8126  10.9431  11.0210  11.0775
    11.1990  11.2819  11.3073  11.5138  11.5262  11.6386  11.6781  11.7165
    11.8920  11.9364  12.1022  12.1824  12.1999  12.3193  12.4395  12.4656
    12.5343  12.7154  12.8143  12.8155  12.9281  12.9973  13.0571  13.1304
    13.1420  13.2203  13.3330  13.4224  13.4538  13.4767  13.5424  13.5599
    13.6120  13.7264  13.8393  13.8866  14.0435  14.0894  14.1755  14.2381
    14.2771  14.3051  14.3420  14.5675  14.5875  14.6347  14.6799  14.7812
    14.9369  15.0267  15.1024  15.1658  15.2494  15.4488  15.4547  15.6042
    15.6597  15.7799  15.8374  15.9154  16.0065  16.1204  16.1908  16.2746
    16.3332  16.4696  16.5002  16.5291  16.6206  16.7624  16.7839  16.8877
    16.9768  17.0508  17.1115  17.1268  17.2173  17.2988  17.3037  17.4894
    17.5072  17.5711  17.6727  17.7292  17.8944  17.9316  17.9874  18.1012
    18.1659  18.2222  18.2671  18.3070  18.3309  18.4586  18.5300  18.6051
    18.6634  18.7862  18.7931  18.8269  18.9595  19.0828  19.1329  19.1941
    19.2878  19.3035  19.3774  19.4841  19.6075  19.6978  19.7627  19.8625
    19.9019  19.9926  20.0477  20.0550  20.1255  20.1579  20.2797  20.3066
    20.3763  20.4225  20.4332  20.5412  20.6218  20.7617  20.8749  20.9466
    21.0544  21.1247  21.1412  21.2471  21.2560  21.3644  21.4239  21.5120
    21.5457  21.6911  21.7151  21.8142  21.8294  21.9278  22.0100  22.1095

     the spin up/dw Fermi energies are    -2.4686   -0.6222 ev

!    total energy              =   -2286.73964904 Ry
     Harris-Foulkes estimate   =   -2286.73964904 Ry
     estimated scf accuracy    <          2.5E-09 Ry

     The total energy is the sum of the following terms:

     one-electron contribution =  -25150.81236540 Ry
     hartree contribution      =   12592.00548070 Ry
     xc contribution           =    -341.95266424 Ry
     ewald contribution        =   10612.25248692 Ry
     Hubbard energy            =       1.76763421 Ry
     smearing contrib. (-TS)   =      -0.00022124 Ry

     total magnetization       =    24.00 Bohr mag/cell
     absolute magnetization    =    35.59 Bohr mag/cell

     convergence has been achieved in  15 iterations

     Forces acting on atoms (Ry/au):

     negative rho (up, down):  0.173E-02 0.141E-02
     atom    1 type  1   force =    -0.00519132   -0.01416541   -0.00099565
     atom    2 type  1   force =     0.00040675    0.00837113    0.00026888
     atom    3 type  2   force =    -0.00081369    0.00087520    0.00040124
     atom    4 type  2   force =     0.00685370    0.00999279    0.00035755
     atom    5 type  1   force =     0.00135981    0.01328928   -0.00039558
     atom    6 type  1   force =    -0.00176514   -0.01813507    0.00018055
     atom    7 type  1   force =     0.00004275    0.00168704    0.00040287
     atom    8 type  1   force =    -0.00146772   -0.00238502    0.00032352
     atom    9 type  2   force =     0.00078221    0.00018394   -0.00098966
     atom   10 type  2   force =    -0.00005803   -0.00068929   -0.00053857
     atom   11 type  1   force =     0.00007018   -0.02136094    0.00021899
     atom   12 type  1   force =     0.00002134    0.02164170    0.00023774
     atom   13 type  1   force =    -0.00046981   -0.00008930    0.00002876
     atom   14 type  1   force =    -0.00519117   -0.01416524   -0.00099667
     atom   15 type  1   force =     0.00040670    0.00837253    0.00027066
     atom   16 type  2   force =    -0.00081836    0.00087505    0.00040118
     atom   17 type  2   force =     0.00685314    0.00999240    0.00035873
     atom   18 type  1   force =     0.00135856    0.01328925   -0.00039554
     atom   19 type  1   force =    -0.00176592   -0.01813506    0.00018035
     atom   20 type  1   force =     0.00004267    0.00168690    0.00040298
     atom   21 type  1   force =    -0.00146775   -0.00238512    0.00032451
     atom   22 type  2   force =     0.00078255    0.00018405   -0.00098978
     atom   23 type  2   force =    -0.00005803   -0.00068945   -0.00053971
     atom   24 type  1   force =     0.00006951   -0.02136099    0.00021900
     atom   25 type  1   force =     0.00002064    0.02164169    0.00023774
     atom   26 type  1   force =    -0.00046984   -0.00008928    0.00002982
     atom   27 type  3   force =     0.00000261   -0.00005736    0.00025997
     atom   28 type  3   force =     0.00000273   -0.00005772    0.00025956
     atom   29 type  3   force =     0.00023061    0.00084126    0.00023871
     atom   30 type  3   force =     0.00023034    0.00084102    0.00023782

     Total force =     0.002855     Total SCF correction =     0.000229

     bfgs converged in  16 scf cycles and  15 bfgs steps
     (criteria: energy < 0.10E-03, force < 0.10E-02)

     End of BFGS Geometry Optimization

     Final energy   =   -2286.7396490414 Ry
Begin final coordinates

ATOMIC_POSITIONS (crystal)
O0       0.000000000   0.000000000   0.373777254    0   0   1
O0       0.000000000   0.500000000   0.392923939    0   0   1
Mn1      0.250000000   0.500000000   0.446146300    0   0   1
Mn1      0.000000000   0.000000000   0.447480097    0   0   1
O0       0.250000000   0.800000000   0.446380853    0   0   1
O0       0.250000000   0.200000000   0.449414600    0   0   1
O0       0.000000000   0.500000000   0.494851614    0   0   1
O0       0.000000000   0.000000000   0.526427899    0   0   1
Mn1      0.250000000   0.000000000   0.575733641    0   0   1
Mn1      0.000000000   0.500000000   0.573484974    0   0   1
O0       0.250000000   0.700000000   0.586667797    0   0   1
O0       0.250000000   0.300000000   0.586765554    0   0   1
O0       0.000000000   0.000000000   0.624955471    0   0   1
O0       0.500000000   0.000000000   0.373777601    0   0   1
O0       0.500000000   0.500000000   0.392923804    0   0   1
Mn1      0.750000000   0.500000000   0.446146303    0   0   1
Mn1      0.500000000   0.000000000   0.447480360    0   0   1
O0       0.750000000   0.800000000   0.446380811    0   0   1
O0       0.750000000   0.200000000   0.449414696    0   0   1
O0       0.500000000   0.500000000   0.494851500    0   0   1
O0       0.500000000   0.000000000   0.526427833    0   0   1
Mn1      0.750000000   0.000000000   0.575733648    0   0   1
Mn1      0.500000000   0.500000000   0.573484739    0   0   1
O0       0.750000000   0.700000000   0.586667797    0   0   1
O0       0.750000000   0.300000000   0.586765560    0   0   1
O0       0.500000000   0.000000000   0.624955480    0   0   1
H2       0.000435149   0.647942036   0.377438301
H2       0.500435058   0.647942709   0.377438488
H2       0.161524293   0.042331277   0.363161300
H2       0.661524335   0.042331791   0.363161784
End final coordinates

     General routines

     Parallel routines
     Hubbard U routines

   This run was terminated on:   9:11:28  10May2014

   JOB DONE.
Running PBS batch system epilogue script
Job id: 340905.audhumbla.fysik.dtu.dk
Username: zhonxu
Groupname: campgst
Jobname: MnO2/Eads-2-layers/bare-U-6.0
Sessionid: 8331
Queuename: verylong
Accounting:
This job has allocated the following 16 nodes:
c047 c047 c047 c047 c047 c047 c047 c047 c046 c046 c046 c046 c046 c046 c046 c046
Finished epilogue job 340905.audhumbla.fysik.dtu.dk for zhonxu