     Program PWSCF v.5.0.2 (svn rev. 9656) starts on 24Jan2014 at 15:59:49

     Current dimensions of program PWSCF are:
     Max number of different atomic species (ntypx) = 10
     Max number of k-points (npk) =  40000
     Max angular momentum in pseudopotentials (lmaxx) =  3
     Reading input from MoO2-v-1.05.in

     Subspace diagonalization in iterative solution of the eigenvalue problem:
     a serial algorithm will be used

     bravais-lattice index     =            0
     lattice parameter (alat)  =       8.9885  a.u.
     unit-cell volume          =     467.9997 (a.u.)^3
     number of atoms/cell      =            6
     number of atomic types    =            2
     number of electrons       =        52.00
     number of Kohn-Sham states=           78
     kinetic-energy cutoff     =      40.0000  Ry
     charge density cutoff     =     500.0000  Ry
     convergence threshold     =      1.0E-06
     mixing beta               =       0.3000
     number of iterations used =            8  plain     mixing
     Exchange-correlation      = SLA  PW   PBE  PBE ( 1 4 3 4 0)
     EXX-fraction              =        0.00
     nstep                     =           50

     celldm(1)=   8.988489  celldm(2)=   0.000000  celldm(3)=   0.000000
     celldm(4)=   0.000000  celldm(5)=   0.000000  celldm(6)=   0.000000

     crystal axes: (cart. coord. in units of alat)
               a(1) = (   1.000000   0.000000   0.000000 )
               a(2) = (   0.000000   1.000000   0.000000 )
               a(3) = (   0.000000   0.000000   0.644444 )

     reciprocal axes: (cart. coord. in units 2 pi/alat)
               b(1) = (  1.000000  0.000000  0.000000 )
               b(2) = (  0.000000  1.000000  0.000000 )
               b(3) = (  0.000000  0.000000  1.551724 )

     PseudoPot. # 1 for Mo read from file:
     /home/camp/zhonxu/pseudo/mo_pbe_v1.uspp.F.UPF
     MD5 check sum: 30c4dcd161f5d35cd49bb5239c51a633
     Pseudo is Ultrasoft + core correction, Zval = 14.0
     Generated by new atomic code, or converted to UPF format
     Using radial grid of  889 points,  6 beta functions with:
                l(1) =   0
                l(2) =   0
                l(3) =   1
                l(4) =   1
                l(5) =   2
                l(6) =   2
     Q(r) pseudized with  6 coefficients,  rinner =    1.000   1.000   1.000
                                                       1.000   1.000

     PseudoPot. # 2 for O  read from file:
     /home/camp/zhonxu/pseudo/o_pbe_v1.01.uspp.F.UPF
     MD5 check sum: 2bcb18d16ea4b960afae9ec6d52f22d2
     Pseudo is Ultrasoft + core correction, Zval =  6.0
     Generated by new atomic code, or converted to UPF format
     Using radial grid of  737 points,  5 beta functions with:
                l(1) =   0
                l(2) =   0
                l(3) =   1
                l(4) =   1
                l(5) =   2
     Q(r) pseudized with  8 coefficients,  rinner =    0.900   0.900   0.900
                                                       0.900   0.900

     atomic species   valence    mass     pseudopotential
        Mo0           14.00    95.94000     Mo( 1.00)
        O1             6.00    15.99940     O ( 1.00)

     Starting magnetic structure
     atomic species   magnetization
        Mo0          0.000
        O1           0.000

      8 Sym. Ops., with inversion, found
          (note:  8 additional sym.ops. were found but ignored
           their fractional translations are incommensurate with FFT grid)

   Cartesian axes

     site n.     atom                  positions (alat units)
         1           Mo0 tau(   1) = (   0.0000000   0.0000000   0.0000000  )
         2           Mo0 tau(   2) = (   0.5000000   0.5000000   0.3222222  )
         3           O1  tau(   3) = (   0.3050000   0.3050000   0.0000000  )
         4           O1  tau(   4) = (  -0.3050000  -0.3050000   0.0000000  )
         5           O1  tau(   5) = (   0.8050000   0.1950000   0.3222222  )
         6           O1  tau(   6) = (   0.1950000   0.8050000   0.3222222  )

     number of k points=    54  Methfessel-Paxton smearing, width (Ry)=  0.0100
                       cart. coord. in units 2pi/alat
        k(    1) = (   0.0000000   0.0000000   0.0000000), wk =   0.0080000
        k(    2) = (   0.0000000   0.0000000   0.3103448), wk =   0.0160000
        k(    3) = (   0.0000000   0.0000000   0.6206897), wk =   0.0160000
        k(    4) = (   0.0000000   0.2000000   0.0000000), wk =   0.0320000
        k(    5) = (   0.0000000   0.2000000   0.3103448), wk =   0.0640000
        k(    6) = (   0.0000000   0.2000000   0.6206897), wk =   0.0640000
        k(    7) = (   0.0000000   0.4000000   0.0000000), wk =   0.0320000
        k(    8) = (   0.0000000   0.4000000   0.3103448), wk =   0.0640000
        k(    9) = (   0.0000000   0.4000000   0.6206897), wk =   0.0640000
        k(   10) = (   0.2000000   0.2000000   0.0000000), wk =   0.0160000
        k(   11) = (   0.2000000   0.2000000   0.3103448), wk =   0.0320000
        k(   12) = (   0.2000000   0.2000000   0.6206897), wk =   0.0320000
        k(   13) = (   0.2000000   0.4000000   0.0000000), wk =   0.0320000
        k(   14) = (   0.2000000   0.4000000   0.3103448), wk =   0.0640000
        k(   15) = (   0.2000000   0.4000000   0.6206897), wk =   0.0640000
        k(   16) = (   0.4000000   0.4000000   0.0000000), wk =   0.0160000
        k(   17) = (   0.4000000   0.4000000   0.3103448), wk =   0.0320000
        k(   18) = (   0.4000000   0.4000000   0.6206897), wk =   0.0320000
        k(   19) = (  -0.2000000   0.2000000   0.0000000), wk =   0.0160000
        k(   20) = (  -0.2000000   0.2000000  -0.3103448), wk =   0.0320000
        k(   21) = (  -0.2000000   0.2000000  -0.6206897), wk =   0.0320000
        k(   22) = (  -0.2000000   0.4000000   0.0000000), wk =   0.0320000
        k(   23) = (  -0.2000000   0.4000000  -0.3103448), wk =   0.0640000
        k(   24) = (  -0.2000000   0.4000000  -0.6206897), wk =   0.0640000
        k(   25) = (  -0.4000000   0.4000000   0.0000000), wk =   0.0160000
        k(   26) = (  -0.4000000   0.4000000  -0.3103448), wk =   0.0320000
        k(   27) = (  -0.4000000   0.4000000  -0.6206897), wk =   0.0320000
        k(   28) = (   0.0000000   0.0000000   0.0000000), wk =   0.0080000
        k(   29) = (   0.0000000   0.0000000   0.3103448), wk =   0.0160000
        k(   30) = (   0.0000000   0.0000000   0.6206897), wk =   0.0160000
        k(   31) = (   0.0000000   0.2000000   0.0000000), wk =   0.0320000
        k(   32) = (   0.0000000   0.2000000   0.3103448), wk =   0.0640000
        k(   33) = (   0.0000000   0.2000000   0.6206897), wk =   0.0640000
        k(   34) = (   0.0000000   0.4000000   0.0000000), wk =   0.0320000
        k(   35) = (   0.0000000   0.4000000   0.3103448), wk =   0.0640000
        k(   36) = (   0.0000000   0.4000000   0.6206897), wk =   0.0640000
        k(   37) = (   0.2000000   0.2000000   0.0000000), wk =   0.0160000
        k(   38) = (   0.2000000   0.2000000   0.3103448), wk =   0.0320000
        k(   39) = (   0.2000000   0.2000000   0.6206897), wk =   0.0320000
        k(   40) = (   0.2000000   0.4000000   0.0000000), wk =   0.0320000
        k(   41) = (   0.2000000   0.4000000   0.3103448), wk =   0.0640000
        k(   42) = (   0.2000000   0.4000000   0.6206897), wk =   0.0640000
        k(   43) = (   0.4000000   0.4000000   0.0000000), wk =   0.0160000
        k(   44) = (   0.4000000   0.4000000   0.3103448), wk =   0.0320000
        k(   45) = (   0.4000000   0.4000000   0.6206897), wk =   0.0320000
        k(   46) = (  -0.2000000   0.2000000   0.0000000), wk =   0.0160000
        k(   47) = (  -0.2000000   0.2000000  -0.3103448), wk =   0.0320000
        k(   48) = (  -0.2000000   0.2000000  -0.6206897), wk =   0.0320000
        k(   49) = (  -0.2000000   0.4000000   0.0000000), wk =   0.0320000
        k(   50) = (  -0.2000000   0.4000000  -0.3103448), wk =   0.0640000
        k(   51) = (  -0.2000000   0.4000000  -0.6206897), wk =   0.0640000
        k(   52) = (  -0.4000000   0.4000000   0.0000000), wk =   0.0160000
        k(   53) = (  -0.4000000   0.4000000  -0.3103448), wk =   0.0320000
        k(   54) = (  -0.4000000   0.4000000  -0.6206897), wk =   0.0320000

     Largest allocated arrays     est. size (Mb)     dimensions
     Largest temporary arrays     est. size (Mb)     dimensions

     Check: negative/imaginary core charge=   -0.000007    0.000000

     Initial potential from superposition of free atoms

     starting charge   51.99787, renormalised to   52.00000
     Starting wfc are   42 randomized atomic wfcs

     Self-consistent Calculation

     iteration #  1     ecut=    40.00 Ry     beta=0.30
     Davidson diagonalization with overlap
     ethr =  1.00E-02,  avg # of iterations =  5.3

     total energy              =    -407.40462805 Ry
     Harris-Foulkes estimate   =    -408.14381579 Ry
     estimated scf accuracy    <       1.69332591 Ry

     total magnetization       =     0.00 Bohr mag/cell
     absolute magnetization    =     0.00 Bohr mag/cell

[...]

     End of self-consistent calculation

 ------ SPIN UP ------------

          k = 0.0000 0.0000 0.0000 (  1967 PWs)   bands (ev):

   -49.6248 -49.6127 -23.7501 -23.7501 -23.6961 -23.6604 -23.5977 -23.5976
    -7.7231  -6.9859  -5.9897  -5.9895   4.2326   4.2859   5.3615   5.8813
     5.8815   7.8550   7.8551   8.3197   9.2568   9.4424   9.4424  10.0135
    11.8217  12.0918  12.5362  12.6039  12.6039  15.1780  15.3868  17.1432
    18.0348  18.0349  19.2783  21.1854  21.1854  24.4605  26.2850  26.4839
    27.2604  28.2283  28.5460  28.5460  30.9816  31.4009  32.2946  32.2946
    33.1807  33.1807  34.4617  37.5133  37.5133  37.6065  38.3404  38.8917
    40.2010  41.1179  41.1749  41.1749  41.4205  41.6595  41.7413  41.7413
    42.5637  43.3638  43.3639  44.5415  45.6993  47.6234  47.6234  48.1661
    48.2677  48.9729  48.9729  49.3891  49.6855  50.2972

[...]

          k =-0.2000 0.2000 0.0000 (  1997 PWs)   bands (ev):

[...]

 ------ SPIN DOWN ----------

[...]

     the Fermi energy is    12.8628 ev

!    total energy              =    -407.76321360 Ry
     Harris-Foulkes estimate   =    -407.76321053 Ry
     estimated scf accuracy    <       0.00000016 Ry

     The total energy is the sum of the following terms:

     one-electron contribution =    -117.83218707 Ry
     hartree contribution      =      86.83751187 Ry
     xc contribution           =     -67.30825250 Ry
     ewald contribution        =    -309.45998317 Ry
     smearing contrib. (-TS)   =      -0.00030273 Ry

[...]

     convergence has been achieved in   9 iterations

     Forces acting on atoms (Ry/au):

     atom    1 type  1   force =     0.00000000    0.00000000    0.00000000
     atom    2 type  1   force =     0.00000000    0.00000000    0.00000000
     atom    3 type  2   force =    -0.03506630   -0.03506630   -0.00000000
     atom    4 type  2   force =     0.03506630    0.03506630    0.00000000
     atom    5 type  2   force =    -0.03507211    0.03507211    0.00000000
     atom    6 type  2   force =     0.03507211   -0.03507211    0.00000000

[...]
        k(    5) = (   0.0000000   0.1900821   0.3435752), wk =   0.0640000
        k(    6) = (   0.0000000   0.1900821   0.6871505), wk =   0.0640000
        k(    7) = (   0.0000001   0.3801643   0.0000000), wk =   0.0320000
        k(    8) = (   0.0000001   0.3801643   0.3435752), wk =   0.0640000
        k(    9) = (   0.0000001   0.3801643   0.6871505), wk =   0.0640000
        k(   10) = (   0.1900822   0.1900822   0.0000000), wk =   0.0160000
        k(   11) = (   0.1900822   0.1900822   0.3435752), wk =   0.0320000
        k(   12) = (   0.1900822   0.1900822   0.6871505), wk =   0.0320000
        k(   13) = (   0.1900822   0.3801643   0.0000000), wk =   0.0320000
        k(   14) = (   0.1900822   0.3801643   0.3435752), wk =   0.0640000
        k(   15) = (   0.1900822   0.3801643   0.6871505), wk =   0.0640000
        k(   16) = (   0.3801644   0.3801644   0.0000000), wk =   0.0160000
        k(   17) = (   0.3801644   0.3801644   0.3435752), wk =   0.0320000
        k(   18) = (   0.3801644   0.3801644   0.6871505), wk =   0.0320000
        k(   19) = (  -0.1900821   0.1900821   0.0000000), wk =   0.0160000
        k(   20) = (  -0.1900821   0.1900821  -0.3435752), wk =   0.0320000
        k(   21) = (  -0.1900821   0.1900821  -0.6871505), wk =   0.0320000
        k(   22) = (  -0.1900820   0.3801642   0.0000000), wk =   0.0320000
        k(   23) = (  -0.1900820   0.3801642  -0.3435752), wk =   0.0640000
        k(   24) = (  -0.1900820   0.3801642  -0.6871505), wk =   0.0640000
        k(   25) = (  -0.3801642   0.3801642   0.0000000), wk =   0.0160000
        k(   26) = (  -0.3801642   0.3801642  -0.3435752), wk =   0.0320000
        k(   27) = (  -0.3801642   0.3801642  -0.6871505), wk =   0.0320000
        k(   28) = (   0.0000000   0.0000000   0.0000000), wk =   0.0080000
        k(   29) = (   0.0000000   0.0000000   0.3435752), wk =   0.0160000
        k(   30) = (   0.0000000   0.0000000   0.6871505), wk =   0.0160000
        k(   31) = (   0.0000000   0.1900821   0.0000000), wk =   0.0320000
        k(   32) = (   0.0000000   0.1900821   0.3435752), wk =   0.0640000
        k(   33) = (   0.0000000   0.1900821   0.6871505), wk =   0.0640000
        k(   34) = (   0.0000001   0.3801643   0.0000000), wk =   0.0320000
        k(   35) = (   0.0000001   0.3801643   0.3435752), wk =   0.0640000
        k(   36) = (   0.0000001   0.3801643   0.6871505), wk =   0.0640000
        k(   37) = (   0.1900822   0.1900822   0.0000000), wk =   0.0160000
        k(   38) = (   0.1900822   0.1900822   0.3435752), wk =   0.0320000
        k(   39) = (   0.1900822   0.1900822   0.6871505), wk =   0.0320000
        k(   40) = (   0.1900822   0.3801643   0.0000000), wk =   0.0320000
        k(   41) = (   0.1900822   0.3801643   0.3435752), wk =   0.0640000
        k(   42) = (   0.1900822   0.3801643   0.6871505), wk =   0.0640000
        k(   43) = (   0.3801644   0.3801644   0.0000000), wk =   0.0160000
        k(   44) = (   0.3801644   0.3801644   0.3435752), wk =   0.0320000
        k(   45) = (   0.3801644   0.3801644   0.6871505), wk =   0.0320000
        k(   46) = (  -0.1900821   0.1900821   0.0000000), wk =   0.0160000
        k(   47) = (  -0.1900821   0.1900821  -0.3435752), wk =   0.0320000
        k(   48) = (  -0.1900821   0.1900821  -0.6871505), wk =   0.0320000
        k(   49) = (  -0.1900820   0.3801642   0.0000000), wk =   0.0320000
        k(   50) = (  -0.1900820   0.3801642  -0.3435752), wk =   0.0640000
        k(   51) = (  -0.1900820   0.3801642  -0.6871505), wk =   0.0640000
        k(   52) = (  -0.3801642   0.3801642   0.0000000), wk =   0.0160000
        k(   53) = (  -0.3801642   0.3801642  -0.3435752), wk =   0.0320000
        k(   54) = (  -0.3801642   0.3801642  -0.6871505), wk =   0.0320000

[...]

     Threshold (ethr) on eigenvalues was too large:
     Diagonalizing with lowered threshold

     Davidson diagonalization with overlap
     ethr =  6.28E-10,  avg # of iterations =  2.0

[...]

     Volume is kept fixed: isostatic pressure set to zero

     bfgs converged in   9 scf cycles and   8 bfgs steps
     (criteria: energy < 0.10E-03, force < 0.10E-02, cell < 0.50E+00)

     End of BFGS Geometry Optimization

     Final enthalpy =    -407.8268536941 Ry
Begin final coordinates
     new unit-cell volume =    467.99970 a.u.^3 (    69.35040 Ang^3 )

CELL_PARAMETERS (alat=  8.98848913)
   1.052176686  -0.000000265   0.000000000
  -0.000000265   1.052176686   0.000000000
   0.000000000   0.000000000   0.582114122

ATOMIC_POSITIONS (crystal)
Mo0      0.000000000   0.000000000   0.000000000    0   0   0
Mo0      0.500000000   0.500000000   0.500000000    0   0   0
O1       0.281940752   0.281940752   0.000000000    1   1   0
O1      -0.281940752  -0.281940752   0.000000000    1   1   0
O1       0.781940264   0.218059736   0.500000000    1   1   0
O1       0.218059736   0.781940264   0.500000000    1   1   0
End final coordinates

     A final scf calculation at the relaxed structure.
     The G-vectors are recalculated for the final unit cell
     Results may differ from those at the preceding step.

     bravais-lattice index     =            0
     lattice parameter (alat)  =       8.9885  a.u.
     unit-cell volume          =     467.9997 (a.u.)^3
     number of atoms/cell      =            6
     number of atomic types    =            2
     number of electrons       =        52.00
     number of Kohn-Sham states=           78
     kinetic-energy cutoff     =      40.0000  Ry
     charge density cutoff     =     500.0000  Ry
     convergence threshold     =      1.0E-08
     mixing beta               =       0.3000
     number of iterations used =            8  plain     mixing
     Exchange-correlation      = SLA  PW   PBE  PBE ( 1 4 3 4 0)
     EXX-fraction              =        0.00

     celldm(1)=   8.988489  celldm(2)=   0.000000  celldm(3)=   0.000000
     celldm(4)=   0.000000  celldm(5)=   0.000000  celldm(6)=   0.000000

     crystal axes: (cart. coord. in units of alat)
               a(1) = (   1.052177  -0.000000   0.000000 )
               a(2) = (  -0.000000   1.052177   0.000000 )
               a(3) = (   0.000000   0.000000   0.582114 )

     reciprocal axes: (cart. coord. in units 2 pi/alat)
               b(1) = (  0.950411  0.000000 -0.000000 )
               b(2) = (  0.000000  0.950411 -0.000000 )
               b(3) = ( -0.000000 -0.000000  1.717876 )

     PseudoPot. # 1 for Mo read from file:
     /home/camp/zhonxu/pseudo/mo_pbe_v1.uspp.F.UPF
     MD5 check sum: 30c4dcd161f5d35cd49bb5239c51a633
     Pseudo is Ultrasoft + core correction, Zval = 14.0
     Generated by new atomic code, or converted to UPF format
     Using radial grid of  889 points,  6 beta functions with:
                l(1) =   0
                l(2) =   0
                l(3) =   1
                l(4) =   1
                l(5) =   2
                l(6) =   2
     Q(r) pseudized with  6 coefficients,  rinner =    1.000   1.000   1.000
                                                       1.000   1.000

     PseudoPot. # 2 for O  read from file:
     /home/camp/zhonxu/pseudo/o_pbe_v1.01.uspp.F.UPF
     MD5 check sum: 2bcb18d16ea4b960afae9ec6d52f22d2
     Pseudo is Ultrasoft + core correction, Zval =  6.0
     Generated by new atomic code, or converted to UPF format
     Using radial grid of  737 points,  5 beta functions with:
                l(1) =   0
                l(2) =   0
                l(3) =   1
                l(4) =   1
                l(5) =   2
     Q(r) pseudized with  8 coefficients,  rinner =    0.900   0.900   0.900
                                                       0.900   0.900

     atomic species   valence    mass     pseudopotential
        Mo0           14.00    95.94000     Mo( 1.00)
        O1             6.00    15.99940     O ( 1.00)

     Starting magnetic structure
     atomic species   magnetization
        Mo0          0.000
        O1           0.000

      8 Sym. Ops., with inversion, found
          (note:  8 additional sym.ops. were found but ignored
           their fractional translations are incommensurate with FFT grid)

   Cartesian axes

     site n.     atom                  positions (alat units)
         1           Mo0 tau(   1) = (   0.0000000   0.0000000   0.0000000  )
         2           Mo0 tau(   2) = (   0.5260882   0.5260882   0.2910571  )
         3           O1  tau(   3) = (   0.2966514   0.2966514   0.0000000  )
         4           O1  tau(   4) = (  -0.2966514  -0.2966514   0.0000000  )
         5           O1  tau(   5) = (   0.8227393   0.2294372   0.2910571  )
         6           O1  tau(   6) = (   0.2294372   0.8227393   0.2910571  )

     number of k points=    54  Methfessel-Paxton smearing, width (Ry)=  0.0100
                       cart. coord. in units 2pi/alat
        k(    1) = (   0.0000000   0.0000000   0.0000000), wk =   0.0080000
        k(    2) = (   0.0000000   0.0000000   0.3435752), wk =   0.0160000
        k(    3) = (   0.0000000   0.0000000   0.6871505), wk =   0.0160000
        k(    4) = (   0.0000000   0.1900821   0.0000000), wk =   0.0320000
        k(    5) = (   0.0000000   0.1900821   0.3435752), wk =   0.0640000
        k(    6) = (   0.0000000   0.1900821   0.6871505), wk =   0.0640000
        k(    7) = (   0.0000001   0.3801643   0.0000000), wk =   0.0320000
        k(    8) = (   0.0000001   0.3801643   0.3435752), wk =   0.0640000
        k(    9) = (   0.0000001   0.3801643   0.6871505), wk =   0.0640000
        k(   10) = (   0.1900822   0.1900822   0.0000000), wk =   0.0160000
        k(   11) = (   0.1900822   0.1900822   0.3435752), wk =   0.0320000
        k(   12) = (   0.1900822   0.1900822   0.6871505), wk =   0.0320000
        k(   13) = (   0.1900822   0.3801643   0.0000000), wk =   0.0320000
        k(   14) = (   0.1900822   0.3801643   0.3435752), wk =   0.0640000
        k(   15) = (   0.1900822   0.3801643   0.6871505), wk =   0.0640000
        k(   16) = (   0.3801644   0.3801644   0.0000000), wk =   0.0160000
        k(   17) = (   0.3801644   0.3801644   0.3435752), wk =   0.0320000
        k(   18) = (   0.3801644   0.3801644   0.6871505), wk =   0.0320000
        k(   19) = (  -0.1900821   0.1900821   0.0000000), wk =   0.0160000
        k(   20) = (  -0.1900821   0.1900821  -0.3435752), wk =   0.0320000
        k(   21) = (  -0.1900821   0.1900821  -0.6871505), wk =   0.0320000
        k(   22) = (  -0.1900820   0.3801642   0.0000000), wk =   0.0320000
        k(   23) = (  -0.1900820   0.3801642  -0.3435752), wk =   0.0640000
        k(   24) = (  -0.1900820   0.3801642  -0.6871505), wk =   0.0640000
        k(   25) = (  -0.3801642   0.3801642   0.0000000), wk =   0.0160000
        k(   26) = (  -0.3801642   0.3801642  -0.3435752), wk =   0.0320000
        k(   27) = (  -0.3801642   0.3801642  -0.6871505), wk =   0.0320000
        k(   28) = (   0.0000000   0.0000000   0.0000000), wk =   0.0080000
        k(   29) = (   0.0000000   0.0000000   0.3435752), wk =   0.0160000
        k(   30) = (   0.0000000   0.0000000   0.6871505), wk =   0.0160000
        k(   31) = (   0.0000000   0.1900821   0.0000000), wk =   0.0320000
        k(   32) = (   0.0000000   0.1900821   0.3435752), wk =   0.0640000
        k(   33) = (   0.0000000   0.1900821   0.6871505), wk =   0.0640000
        k(   34) = (   0.0000001   0.3801643   0.0000000), wk =   0.0320000
        k(   35) = (   0.0000001   0.3801643   0.3435752), wk =   0.0640000
        k(   36) = (   0.0000001   0.3801643   0.6871505), wk =   0.0640000
        k(   37) = (   0.1900822   0.1900822   0.0000000), wk =   0.0160000
        k(   38) = (   0.1900822   0.1900822   0.3435752), wk =   0.0320000
        k(   39) = (   0.1900822   0.1900822   0.6871505), wk =   0.0320000
        k(   40) = (   0.1900822   0.3801643   0.0000000), wk =   0.0320000
        k(   41) = (   0.1900822   0.3801643   0.3435752), wk =   0.0640000
        k(   42) = (   0.1900822   0.3801643   0.6871505), wk =   0.0640000
        k(   43) = (   0.3801644   0.3801644   0.0000000), wk =   0.0160000
        k(   44) = (   0.3801644   0.3801644   0.3435752), wk =   0.0320000
        k(   45) = (   0.3801644   0.3801644   0.6871505), wk =   0.0320000
        k(   46) = (  -0.1900821   0.1900821   0.0000000), wk =   0.0160000
        k(   47) = (  -0.1900821   0.1900821  -0.3435752), wk =   0.0320000
        k(   48) = (  -0.1900821   0.1900821  -0.6871505), wk =   0.0320000
        k(   49) = (  -0.1900820   0.3801642   0.0000000), wk =   0.0320000
        k(   50) = (  -0.1900820   0.3801642  -0.3435752), wk =   0.0640000
        k(   51) = (  -0.1900820   0.3801642  -0.6871505), wk =   0.0640000
        k(   52) = (  -0.3801642   0.3801642   0.0000000), wk =   0.0160000
        k(   53) = (  -0.3801642   0.3801642  -0.3435752), wk =   0.0320000
        k(   54) = (  -0.3801642   0.3801642  -0.6871505), wk =   0.0320000

     Largest allocated arrays     est. size (Mb)     dimensions
     Largest temporary arrays     est. size (Mb)     dimensions

     Check: negative/imaginary core charge=   -0.000007    0.000000

     Initial potential from superposition of free atoms

     starting charge   51.99787, renormalised to   52.00000
     Starting wfc are   42 randomized atomic wfcs

     Self-consistent Calculation

[...]

     total energy              =    -407.82709203 Ry
     Harris-Foulkes estimate   =    -407.82709126 Ry
     estimated scf accuracy    <       0.00000004 Ry

[...]

     iteration # 11     ecut=    40.00 Ry     beta=0.30
     Davidson diagonalization with overlap
     ethr =  7.83E-11,  avg # of iterations =  1.0

     End of self-consistent calculation

 ------ SPIN UP ------------

[...]

 ------ SPIN DOWN ----------

[...]

          k = 0.3802 0.3802 0.6872 (  1990 PWs)   bands (ev):

[...]

          k =-0.3802 0.3802-0.6872 (  1990 PWs)   bands (ev):

   -49.9476 -49.9474 -24.4246 -24.4222 -24.2199 -24.2167 -23.8849 -23.8845
    -6.7379  -6.5410  -6.4007  -6.1847   5.1325   5.4993   5.5831   5.8519
     6.0348   6.5263   6.6367   7.3024   8.2851   8.4585   9.2473   9.3902
    12.0134  12.2643  12.9581  13.3107  14.4232  14.5052  16.0733  16.9522
    17.2393  17.9713  21.6180  22.0597  22.3442  22.5776  25.6391  25.6793
    27.5457  27.6223  28.3128  28.5216  29.4593  29.9350  30.9396  31.4776
    34.1654  34.4720  35.0128  35.2868  37.0302  37.5204  38.8912  39.2164
    40.0030  40.3263  41.0676  41.9231  41.9382  42.4426  42.5526  43.4404
    43.7610  43.8652  43.9945  44.7001  45.0259  45.2186  45.8185  45.9786
    47.3569  48.4589  51.0686  51.1395  51.6148  51.8321

     the Fermi energy is    12.2969 ev

!    total energy              =    -407.82709278 Ry
     Harris-Foulkes estimate   =    -407.82709203 Ry
     estimated scf accuracy    <          5.3E-09 Ry

     The total energy is the sum of the following terms:

     one-electron contribution =    -120.68712777 Ry
     hartree contribution      =      87.88621371 Ry
     xc contribution           =     -67.22515919 Ry
     ewald contribution        =    -307.80101986 Ry
     smearing contrib. (-TS)   =       0.00000034 Ry

     total magnetization       =    -0.00 Bohr mag/cell
     absolute magnetization    =     0.00 Bohr mag/cell

     convergence has been achieved in  11 iterations

     Forces acting on atoms (Ry/au):

     atom    1 type  1   force =     0.00000000    0.00000000    0.00000000
     atom    2 type  1   force =     0.00000000    0.00000000    0.00000000
     atom    3 type  2   force =     0.00003305    0.00003305    0.00000000
     atom    4 type  2   force =    -0.00003305   -0.00003305    0.00000000
     atom    5 type  2   force =     0.00003450   -0.00003450    0.00000000
     atom    6 type  2   force =    -0.00003450    0.00003450    0.00000000

     Total force =     0.000096     Total SCF correction =     0.000012
     SCF correction compared to forces is large: reduce conv_thr to get better values

     entering subroutine stress ...

          total   stress  (Ry/bohr**3)                   (kbar)     P= -108.50
  -0.00073362  -0.00000002   0.00000000       -107.92     -0.00      0.00
  -0.00000002  -0.00073362   0.00000000         -0.00   -107.92      0.00
   0.00000000   0.00000000  -0.00074552          0.00      0.00   -109.67

     General routines

     Parallel routines

   This run was terminated on:  16:50:40  24Jan2014

   JOB DONE.
Running PBS batch system epilogue script
Job id: 251952.audhumbla.fysik.dtu.dk
Username: zhonxu
Groupname: campgst
Jobname: MoO2/fine-EOS/non-mag/MoO2-v-1.05
Sessionid: 21655
Queuename: verylong
Accounting:
This job has allocated the following 4 nodes:
q019 q019 q019 q019
Finished epilogue job 251952.audhumbla.fysik.dtu.dk for zhonxu