     Program PWSCF v.5.0.2 (svn rev. 9656) starts on 29Apr2014 at  7: 8:44

     Current dimensions of program PWSCF are:
     Max number of different atomic species (ntypx) = 10
     Max number of k-points (npk) =  40000
     Max angular momentum in pseudopotentials (lmaxx) =  3
     Reading input from pwscf.in
Warning: card &CELL ignored
Warning: card / ignored

     Subspace diagonalization in iterative solution of the eigenvalue problem:
     a serial algorithm will be used

     bravais-lattice index     =            0
     lattice parameter (alat)  =      12.0187  a.u.
     unit-cell volume          =    7280.5819 (a.u.)^3
     number of atoms/cell      =           32
     number of atomic types    =            3
     number of electrons       =       239.00
     number of Kohn-Sham states=          358
     kinetic-energy cutoff     =      40.0000  Ry
     charge density cutoff     =     500.0000  Ry
     convergence threshold     =      1.0E-06
     mixing beta               =       0.7000
     number of iterations used =            8  plain     mixing
     Exchange-correlation      = SLA  PW   PBE  PBE ( 1 4 3 4 0)
     EXX-fraction              =        0.00
     nstep                     =           50

     celldm(1)=  12.018658  celldm(2)=   0.000000  celldm(3)=   0.000000
     celldm(4)=   0.000000  celldm(5)=   0.000000  celldm(6)=   0.000000

     crystal axes: (cart. coord. in units of alat)
               a(1) = (   1.000000   0.000000   0.000000 )
               a(2) = (   0.000000   1.009517   0.000000 )
               a(3) = (   0.000000   0.000000   4.154171 )

     reciprocal axes: (cart. coord. in units 2 pi/alat)
               b(1) = (  1.000000  0.000000  0.000000 )
               b(2) = (  0.000000  0.990572  0.000000 )
               b(3) = (  0.000000  0.000000  0.240722 )

     PseudoPot. # 1 for O  read from file:
     /home/camp/zhonxu/pseudo/o_pbe_v1.01.uspp.F.UPF
     MD5 check sum: 2bcb18d16ea4b960afae9ec6d52f22d2
     Pseudo is Ultrasoft + core correction, Zval =  6.0
     Generated by new atomic code, or converted to UPF format
     Using radial grid of  737 points,  5 beta functions with:
                l(1) =   0
                l(2) =   0
                l(3) =   1
                l(4) =   1
                l(5) =   2
     Q(r) pseudized with  8 coefficients,  rinner =    0.900   0.900   0.900
                                                       0.900   0.900

     PseudoPot. # 2 for Ir read from file:
     /home/camp/zhonxu/pseudo/ir_pbe_v1.uspp.F.UPF
     MD5 check sum: abf987a9674477536ede83817f8f8b70
     Pseudo is Ultrasoft + core correction, Zval = 15.0
     Generated by new atomic code, or converted to UPF format
     Using radial grid of  983 points,  7 beta functions with:
                l(1) =   0
                l(2) =   0
                l(3) =   1
                l(4) =   1
                l(5) =   1
                l(6) =   2
                l(7) =   2
     Q(r) pseudized with  8 coefficients,  rinner =    1.350   1.350   1.350
                                                       1.350   1.350

     PseudoPot. # 3 for H  read from file:
     /home/camp/zhonxu/pseudo/h_pbe_v1.uspp.F.UPF
     MD5 check sum: 3408e3ff4ec8b0a4e358431e7e038a48
     Pseudo is Ultrasoft, Zval =  1.0
     Generated by new atomic code, or converted to UPF format
     Using radial grid of  615 points,  2 beta functions with:
                l(1) =   0
                l(2) =   0
     Q(r) pseudized with  8 coefficients,  rinner =    0.700

     atomic species   valence    mass     pseudopotential
        O0             6.00    15.99940     O ( 1.00)
        Ir1           15.00   192.22000     Ir( 1.00)
        H2             1.00     1.00794     H ( 1.00)

     Simplified LDA+U calculation (l_max = 2) with parameters (eV):
     atomic species    L          U    alpha       J0     beta
        Ir1            2     6.5000   0.0000   0.0000   0.0000

     No symmetry found

   Cartesian axes

     site n.     atom                  positions (alat units)
         1           O0  tau(   1) = (   0.0000000   0.0000000   1.5715230  )
         2           O0  tau(   2) = (   0.0000000   0.5047586   1.6723863  )
         3           Ir1 tau(   3) = (   0.2500000   0.5047586   1.8804272  )
         4           Ir1 tau(   4) = (   0.0000000   0.0000000   1.8823796  )
         5           O0  tau(   5) = (   0.2500000   0.8177090   1.8809672  )
         6           O0  tau(   6) = (   0.2500000   0.1918083   1.8797625  )
         7           O0  tau(   7) = (   0.0000000   0.5047586   2.0697743  )
         8           O0  tau(   8) = (   0.0000000   0.0000000   2.1967673  )
         9           Ir1 tau(   9) = (   0.2500000   0.0000000   2.3926365  )
        10           Ir1 tau(  10) = (   0.0000000   0.5047586   2.3747736  )
        11           O0  tau(  11) = (   0.2500000   0.6965669   2.3923873  )
        12           O0  tau(  12) = (   0.2500000   0.3129503   2.3927196  )
        13           O0  tau(  13) = (   0.0000000   0.0000000   2.5779541  )
        14           O0  tau(  14) = (   0.5000000   0.0000000   1.5704845  )
        15           O0  tau(  15) = (   0.5000000   0.5047586   1.6698107  )
        16           Ir1 tau(  16) = (   0.7500000   0.5047586   1.8805103  )
        17           Ir1 tau(  17) = (   0.5000000   0.0000000   1.8817565  )
        18           O0  tau(  18) = (   0.7500000   0.8177090   1.8810503  )
        19           O0  tau(  19) = (   0.7500000   0.1918083   1.8797625  )
        20           O0  tau(  20) = (   0.5000000   0.5047586   2.0748424  )
        21           O0  tau(  21) = (   0.5000000   0.0000000   2.1964350  )
        22           Ir1 tau(  22) = (   0.7500000   0.0000000   2.3925119  )
        23           Ir1 tau(  23) = (   0.5000000   0.5047586   2.3910995  )
        24           O0  tau(  24) = (   0.7500000   0.6965669   2.3896040  )
        25           O0  tau(  25) = (   0.7500000   0.3129503   2.3900194  )
        26           O0  tau(  26) = (   0.5000000   0.0000000   2.5760847  )
        27           H2  tau(  27) = (  -0.0000400   0.6399431   1.5942048  )
        28           H2  tau(  28) = (   0.5000100   0.6429817   1.5968219  )
        29           H2  tau(  29) = (   0.1437000   0.0339904   1.5235839  )
        30           H2  tau(  30) = (   0.6431700   0.0357369   1.5224622  )
        31           O0  tau(  31) = (   0.5156900   0.5047586   2.6944786  )
        32           H2  tau(  32) = (   0.3744100   0.5050918   2.7575805  )

     number of k points=    10  Methfessel-Paxton smearing, width (Ry)=  0.0100
                       cart. coord. in units 2pi/alat
        k(    1) = (   0.0000000   0.0000000   0.0000000), wk =   0.1250000
        k(    2) = (   0.0000000   0.2476431   0.0000000), wk =   0.2500000
        k(    3) = (   0.0000000  -0.4952862   0.0000000), wk =   0.1250000
        k(    4) = (   0.2500000   0.0000000   0.0000000), wk =   0.2500000
        k(    5) = (   0.2500000   0.2476431   0.0000000), wk =   0.2500000
        k(    6) = (   0.2500000  -0.4952862   0.0000000), wk =   0.2500000
        k(    7) = (  -0.5000000   0.0000000   0.0000000), wk =   0.1250000
        k(    8) = (  -0.5000000   0.2476431   0.0000000), wk =   0.2500000
        k(    9) = (  -0.5000000  -0.4952862   0.0000000), wk =   0.1250000
        k(   10) = (  -0.2500000   0.2476431   0.0000000), wk =   0.2500000

     Largest allocated arrays     est. size (Mb)     dimensions
     Largest temporary arrays     est. size (Mb)     dimensions

     Check: negative/imaginary core charge=   -0.000003    0.000000

     Initial potential from superposition of free atoms
     Check: negative starting charge=   -3.334647

     starting charge  234.99967, renormalised to  239.00000

     negative rho (up, down):  0.339E+01 0.000E+00
     Number of +U iterations with fixed ns =  0
     Starting occupations:
 --- enter write_ns ---
 LDA+U parameters:
U( 2)     =  6.50000000
alpha( 2) =  0.00000000
atom    3   Tr[ns(na)] =   7.00000
    eigenvalues:
  0.700  0.700  0.700  0.700  0.700
    eigenvectors:
  1.000  0.000  0.000  0.000  0.000
  0.000  1.000  0.000  0.000  0.000
  0.000  0.000  1.000  0.000  0.000
  0.000  0.000  0.000  1.000  0.000
  0.000  0.000  0.000  0.000  1.000
    occupations:
  0.700  0.000  0.000  0.000  0.000
  0.000  0.700  0.000  0.000  0.000
  0.000  0.000  0.700  0.000  0.000
  0.000  0.000  0.000  0.700  0.000
  0.000  0.000  0.000  0.000  0.700
atom    4   Tr[ns(na)] =   7.00000
    eigenvalues:
  0.700  0.700  0.700  0.700  0.700
    eigenvectors:
  1.000  0.000  0.000  0.000  0.000
  0.000  1.000  0.000  0.000  0.000
  0.000  0.000  1.000  0.000  0.000
  0.000  0.000  0.000  1.000  0.000
  0.000  0.000  0.000  0.000  1.000
    occupations:
  0.700  0.000  0.000  0.000  0.000
  0.000  0.700  0.000  0.000  0.000
  0.000  0.000  0.700  0.000  0.000
  0.000  0.000  0.000  0.700  0.000
  0.000  0.000  0.000  0.000  0.700
atom    9   Tr[ns(na)] =   7.00000
    eigenvalues:
  0.700  0.700  0.700  0.700  0.700
    eigenvectors:
  1.000  0.000  0.000  0.000  0.000
  0.000  1.000  0.000  0.000  0.000
  0.000  0.000  1.000  0.000  0.000
  0.000  0.000  0.000  1.000  0.000
  0.000  0.000  0.000  0.000  1.000
    occupations:
  0.700  0.000  0.000  0.000  0.000
  0.000  0.700  0.000  0.000  0.000
  0.000  0.000  0.700  0.000  0.000
  0.000  0.000  0.000  0.700  0.000
  0.000  0.000  0.000  0.000  0.700
atom   10   Tr[ns(na)] =   7.00000
    eigenvalues:
  0.700  0.700  0.700  0.700  0.700
    eigenvectors:
  1.000  0.000  0.000  0.000  0.000
  0.000  1.000  0.000  0.000  0.000
  0.000  0.000  1.000  0.000  0.000
  0.000  0.000  0.000  1.000  0.000
  0.000  0.000  0.000  0.000  1.000
    occupations:
  0.700  0.000  0.000  0.000  0.000
  0.000  0.700  0.000  0.000  0.000
  0.000  0.000  0.700  0.000  0.000
  0.000  0.000  0.000  0.700  0.000
  0.000  0.000  0.000  0.000  0.700
atom   16   Tr[ns(na)] =   7.00000
    eigenvalues:
  0.700  0.700  0.700  0.700  0.700
    eigenvectors:
  1.000  0.000  0.000  0.000  0.000
  0.000  1.000  0.000  0.000  0.000
  0.000  0.000  1.000  0.000  0.000
  0.000  0.000  0.000  1.000  0.000
  0.000  0.000  0.000  0.000  1.000
    occupations:
  0.700  0.000  0.000  0.000  0.000
  0.000  0.700  0.000  0.000  0.000
  0.000  0.000  0.700  0.000  0.000
  0.000  0.000  0.000  0.700  0.000
  0.000  0.000  0.000  0.000  0.700
atom   17   Tr[ns(na)] =   7.00000
    eigenvalues:
  0.700  0.700  0.700  0.700  0.700
    eigenvectors:
  1.000  0.000  0.000  0.000  0.000
  0.000  1.000  0.000  0.000  0.000
  0.000  0.000  1.000  0.000  0.000
  0.000  0.000  0.000  1.000  0.000
  0.000  0.000  0.000  0.000  1.000
    occupations:
  0.700  0.000  0.000  0.000  0.000
  0.000  0.700  0.000  0.000  0.000
  0.000  0.000  0.700  0.000  0.000
  0.000  0.000  0.000  0.700  0.000
  0.000  0.000  0.000  0.000  0.700
atom   22   Tr[ns(na)] =   7.00000
    eigenvalues:
  0.700  0.700  0.700  0.700  0.700
    eigenvectors:
  1.000  0.000  0.000  0.000  0.000
  0.000  1.000  0.000  0.000  0.000
  0.000  0.000  1.000  0.000  0.000
  0.000  0.000  0.000  1.000  0.000
[...]
  0.675 -0.003 -0.000  0.033  0.001
 -0.003  0.938  0.011  0.000 -0.002
 -0.000  0.011  0.891 -0.000  0.001
  0.033  0.000 -0.000  0.983  0.000
  0.001 -0.002  0.001  0.000  0.621
atom    9   Tr[ns(na)] =   8.21074
    eigenvalues:
  0.655  0.669  0.880  0.916  0.986
    eigenvectors:
  0.000  0.140  0.000  0.000  0.860
  0.999  0.001  0.000  0.000  0.000
  0.000  0.000  0.999  0.001  0.000
  0.001  0.859  0.000  0.000  0.140
  0.000  0.000  0.001  0.999  0.000
    occupations:
  0.941 -0.000  0.000 -0.110 -0.000
 -0.000  0.655  0.001  0.000 -0.000
  0.000  0.001  0.880 -0.000 -0.001
 -0.110  0.000 -0.000  0.713  0.001
 -0.000 -0.000 -0.001  0.001  0.916
atom   10   Tr[ns(na)] =   8.16859
    eigenvalues:
  0.582  0.613  0.945  0.959  0.987
    eigenvectors:
  0.991  0.000  0.000  0.000  0.009
  0.000  0.000  1.000  0.000  0.000
  0.000  0.000  0.000  1.000  0.000
  0.009  0.000  0.000  0.000  0.991
  0.000  1.000  0.000  0.000  0.000
    occupations:
  0.585 -0.004  0.001  0.038 -0.000
 -0.004  0.945 -0.000  0.000 -0.000
  0.001 -0.000  0.959 -0.000  0.002
  0.038  0.000 -0.000  0.983 -0.000
 -0.000 -0.000  0.002 -0.000  0.613
atom   16   Tr[ns(na)] =   8.22040
    eigenvalues:
  0.605  0.633  0.915  0.972  0.985
    eigenvectors:
  0.002  0.181  0.003  0.001  0.813
  0.995  0.005  0.000  0.000  0.000
  0.000  0.000  0.977  0.020  0.003
  0.003  0.814  0.000  0.000  0.182
  0.000  0.000  0.019  0.979  0.002
    occupations:
  0.920  0.005  0.003 -0.136  0.001
  0.005  0.605  0.001 -0.000 -0.004
  0.003  0.001  0.916 -0.004 -0.008
 -0.136 -0.000 -0.004  0.698  0.000
  0.001 -0.004 -0.008  0.000  0.971
atom   17   Tr[ns(na)] =   8.21770
    eigenvalues:
  0.619  0.671  0.896  0.936  0.986
    eigenvectors:
  0.001  0.989  0.000  0.000  0.011
  0.000  0.000  0.108  0.891  0.000
  0.000  0.000  0.891  0.108  0.000
  0.000  0.011  0.000  0.000  0.989
  0.999  0.001  0.000  0.000  0.000
    occupations:
  0.674 -0.003 -0.001  0.032  0.001
 -0.003  0.932  0.013  0.000 -0.002
 -0.001  0.013  0.900 -0.000  0.000
  0.032  0.000 -0.000  0.983  0.000
  0.001 -0.002  0.000  0.000  0.619
atom   22   Tr[ns(na)] =   8.20570
    eigenvalues:
  0.655  0.670  0.874  0.919  0.986
    eigenvectors:
  0.000  0.139  0.000  0.000  0.861
  1.000  0.000  0.000  0.000  0.000
  0.000  0.000  0.999  0.001  0.000
  0.000  0.861  0.000  0.000  0.139
  0.000  0.000  0.001  0.999  0.000
    occupations:
  0.942  0.001 -0.000 -0.109 -0.000
  0.001  0.655  0.001 -0.000 -0.000
 -0.000  0.001  0.874 -0.000  0.001
 -0.109 -0.000 -0.000  0.714  0.001
 -0.000 -0.000  0.001  0.001  0.918
atom   23   Tr[ns(na)] =   8.20019
    eigenvalues:
  0.626  0.678  0.867  0.943  0.987
    eigenvectors:
  0.000  0.988  0.000  0.000  0.011
  0.000  0.000  0.000  0.999  0.000
  0.000  0.000  1.000  0.000  0.000
  0.000  0.011  0.000  0.000  0.989
  1.000  0.000  0.000  0.000  0.000
    occupations:
  0.682  0.006 -0.000  0.033 -0.000
  0.006  0.943 -0.001 -0.000 -0.000
 -0.000 -0.001  0.867  0.000 -0.001
  0.033 -0.000  0.000  0.983 -0.000
 -0.000 -0.000 -0.001 -0.000  0.626
N of occupied +U levels =  65.6605402
 --- exit write_ns ---

     Threshold (ethr) on eigenvalues was too large:
     Diagonalizing with lowered threshold

     Davidson diagonalization with overlap
     ethr =  8.50E-09,  avg # of iterations =  2.0

[...]

     total energy              =   -2104.95453383 Ry
     Harris-Foulkes estimate   =   -2104.95453383 Ry
     estimated scf accuracy    <       0.00000005 Ry

     iteration # 15     ecut=    40.00 Ry     beta=0.70
     Davidson diagonalization with overlap
     ethr =  4.37E-12,  avg # of iterations =  1.0

     negative rho (up, down):  0.314E+01 0.000E+00

     End of self-consistent calculation
 --- enter write_ns ---
 LDA+U parameters:
U( 2)     =  6.50000000
alpha( 2) =  0.00000000
atom    3   Tr[ns(na)] =   8.22012
    eigenvalues:
  0.604  0.633  0.915  0.973  0.985
    eigenvectors:
  0.001  0.182  0.003  0.000  0.814
  0.996  0.004  0.000  0.000  0.000
  0.000  0.000  0.974  0.023  0.003
  0.002  0.815  0.000  0.000  0.182
  0.000  0.000  0.023  0.976  0.001
    occupations:
  0.920 -0.005  0.003 -0.136 -0.001
 -0.005  0.604 -0.001  0.000 -0.004
  0.003 -0.001  0.917 -0.004  0.009
 -0.136  0.000 -0.004  0.697 -0.001
 -0.001 -0.004  0.009 -0.001  0.971
atom    4   Tr[ns(na)] =   8.21624
    eigenvalues:
  0.621  0.672  0.889  0.940  0.986
    eigenvectors:
  0.000  0.988  0.000  0.000  0.011
  0.000  0.000  0.049  0.951  0.000
  0.000  0.000  0.951  0.049  0.000
  0.000  0.011  0.000  0.000  0.989
  1.000  0.000  0.000  0.000  0.000
    occupations:
  0.675 -0.003 -0.000  0.033  0.001
 -0.003  0.937  0.011  0.000 -0.002
 -0.000  0.011  0.891 -0.000  0.001
  0.033  0.000 -0.000  0.983  0.000
  0.001 -0.002  0.001  0.000  0.621
atom    9   Tr[ns(na)] =   8.21043
    eigenvalues:
  0.655  0.669  0.880  0.916  0.986
    eigenvectors:
  0.000  0.140  0.000  0.000  0.860
  0.999  0.001  0.000  0.000  0.000
  0.000  0.000  0.999  0.001  0.000
  0.001  0.859  0.000  0.000  0.140
  0.000  0.000  0.001  0.999  0.000
    occupations:
  0.941 -0.000  0.000 -0.110 -0.000
 -0.000  0.655  0.001  0.000 -0.000
  0.000  0.001  0.880 -0.000 -0.001
 -0.110  0.000 -0.000  0.713  0.001
 -0.000 -0.000 -0.001  0.001  0.916
atom   10   Tr[ns(na)] =   8.16894
    eigenvalues:
  0.582  0.613  0.945  0.959  0.987
    eigenvectors:
  0.991  0.000  0.000  0.000  0.009
  0.000  0.000  1.000  0.000  0.000
  0.000  0.000  0.000  1.000  0.000
  0.009  0.000  0.000  0.000  0.991
  0.000  1.000  0.000  0.000  0.000
    occupations:
  0.585 -0.004  0.001  0.038 -0.000
 -0.004  0.945 -0.000  0.000 -0.000
  0.001 -0.000  0.959 -0.000  0.002
  0.038  0.000 -0.000  0.983 -0.000
 -0.000 -0.000  0.002 -0.000  0.613
atom   16   Tr[ns(na)] =   8.22008
    eigenvalues:
  0.605  0.633  0.915  0.972  0.985
    eigenvectors:
  0.002  0.181  0.003  0.001  0.813
  0.995  0.005  0.000  0.000  0.000
  0.000  0.000  0.978  0.019  0.003
  0.003  0.814  0.000  0.000  0.182
  0.000  0.000  0.019  0.979  0.002
    occupations:
  0.920  0.005  0.003 -0.136  0.001
  0.005  0.605  0.001 -0.000 -0.004
  0.003  0.001  0.916 -0.004 -0.008
 -0.136 -0.000 -0.004  0.698  0.000
  0.001 -0.004 -0.008  0.000  0.971
atom   17   Tr[ns(na)] =   8.21739
    eigenvalues:
  0.619  0.671  0.896  0.936  0.986
    eigenvectors:
  0.001  0.989  0.000  0.000  0.011
  0.000  0.000  0.108  0.892  0.000
  0.000  0.000  0.892  0.108  0.000
  0.000  0.011  0.000  0.000  0.989
  0.999  0.001  0.000  0.000  0.000
    occupations:
  0.674 -0.003 -0.001  0.032  0.001
 -0.003  0.932  0.013  0.000 -0.002
 -0.001  0.013  0.900 -0.000  0.000
  0.032  0.000 -0.000  0.983  0.000
  0.001 -0.002  0.000  0.000  0.619
atom   22   Tr[ns(na)] =   8.20557
    eigenvalues:
  0.655  0.670  0.874  0.919  0.986
    eigenvectors:
  0.000  0.139  0.000  0.000  0.861
  1.000  0.000  0.000  0.000  0.000
  0.000  0.000  0.999  0.001  0.000
  0.000  0.861  0.000  0.000  0.139
  0.000  0.000  0.001  0.999  0.000
    occupations:
  0.942  0.001 -0.000 -0.109 -0.000
  0.001  0.655  0.001 -0.000 -0.000
 -0.000  0.001  0.874 -0.000  0.001
 -0.109 -0.000 -0.000  0.714  0.001
 -0.000 -0.000  0.001  0.001  0.918
atom   23   Tr[ns(na)] =   8.20147
    eigenvalues:
  0.626  0.678  0.867  0.943  0.987
    eigenvectors:
  0.000  0.988  0.000  0.000  0.011
  0.000  0.000  0.000  0.999  0.000
  0.000  0.000  1.000  0.000  0.000
  0.000  0.011  0.000  0.000  0.989
  1.000  0.000  0.000  0.000  0.000
    occupations:
  0.682  0.006 -0.000  0.033 -0.000
  0.006  0.943 -0.001 -0.000 -0.000
 -0.000 -0.001  0.867  0.000 -0.001
  0.033 -0.000  0.000  0.983 -0.000
 -0.000 -0.000 -0.001 -0.000  0.626
N of occupied +U levels =  65.6602456
 --- exit write_ns ---

[...]

          k = 0.2500-0.4953 0.0000 ( 31088 PWs)   bands (ev):

[...]

          k =-0.2500 0.2476 0.0000 ( 31099 PWs)   bands (ev):

   -50.4280 -50.3818 -50.3097 -50.2892 -50.2732 -50.2617 -50.2133 -50.2014
   -50.1996 -50.1897 -50.1814 -50.1324 -50.1222 -50.0457 -49.9834 -49.9565
   -49.9332 -49.9279 -49.8863 -49.8608 -49.8279 -49.8191 -49.8080 -49.7948
   -21.4123 -21.1972 -21.1092 -21.0158 -20.7281 -20.6610 -20.6361 -20.5263
   -20.3959 -20.3516 -20.1887 -20.1372 -19.9882 -19.9704 -19.9077 -19.8581
   -19.6652 -18.9489 -18.7980 -10.7905 -10.6231 -10.3793 -10.3036 -10.0216
    -9.9133  -9.8070  -9.7220  -9.4019  -9.0294  -8.9961  -8.8630  -8.8470
    -8.7757  -8.5912  -8.4124  -8.2896  -8.2282  -7.9772  -7.7973  -7.7362
    -7.5732  -7.5057  -7.3782  -7.3138  -7.2313  -7.1512  -6.9473  -6.7884
    -6.7015  -6.5975  -6.5267  -6.4513  -6.3645  -6.2434  -6.1939  -6.1067
    -6.0406  -5.9964  -5.8095  -5.7490  -5.6035  -5.3909  -5.1723  -5.0440
    -4.9218  -4.7769  -4.7024  -4.5087  -4.4887  -4.3828  -4.0861  -4.0317
    -3.8464  -3.8042  -3.7353  -3.7005  -3.5302  -3.4470  -3.3901  -3.3256
    -3.2162  -3.1138  -3.0532  -3.0277  -2.9795  -2.8796  -2.7627  -2.6648
    -2.5889  -2.4649  -2.0704  -1.8516  -1.7004  -1.4797  -1.2606  -1.2412
    -1.1859  -0.9498  -0.8114  -0.5789   0.0540   1.0379   1.1027   1.4143
     1.6806   1.8614   2.2619   2.4630   2.7855   2.8217   2.9518   3.0484
     3.2349   3.3684   3.4473   3.7590   3.8809   4.3086   4.8055   5.2240
     5.4794   5.6439   5.7142   5.9849   6.2734   6.5268   6.6179   6.6428
     6.7137   6.9069   7.0982   7.1859   7.3804   7.4841   7.6135   7.7202
     7.9268   8.0311   8.1221   8.1721   8.2695   8.4570   8.5251   8.5964
     8.8239   8.8966   8.9246   8.9865   9.1186   9.2155   9.3495   9.4325
     9.5363   9.5910   9.6244   9.7307   9.7378   9.7654   9.7699   9.7794
     9.7929   9.7985   9.8515   9.9473   9.9520  10.0891  10.1242  10.1544
    10.2273  10.3442  10.3623  10.4605  10.5387  10.6097  10.6504  10.8048
    10.8335  10.9721  11.0014  11.1642  11.1984  11.2635  11.4117  11.5203
    11.5566  11.6596  11.7308  11.7949  11.8352  11.9573  12.1460  12.2030
    12.2584  12.3542  12.3888  12.4712  12.5548  12.6268  12.6692  12.7374
    12.7889  12.8723  12.9418  13.0166  13.0479  13.1972  13.2494  13.2867
    13.3402  13.4186  13.5695  13.6844  13.7749  13.8323  13.9317  13.9444
    14.0224  14.0879  14.1791  14.2488  14.3360  14.4125  14.4983  14.5326
    14.7133  14.7755  14.7986  14.9618  15.0921  15.1958  15.2678  15.3438
    15.4410  15.4946  15.5189  15.6076  15.6757  15.7530  15.7860  15.8704
    15.9137  15.9255  16.0039  16.0511  16.1558  16.1996  16.2496  16.3142
    16.3822  16.4018  16.4600  16.5400  16.5873  16.6894  16.7232  16.7665
    16.8143  16.8833  17.0789  17.1346  17.1659  17.2950  17.3488  17.4341
    17.4558  17.5299  17.5618  17.6067  17.6738  17.7126  17.7434  17.8361
    17.9127  17.9351  17.9845  18.1098  18.2142  18.2413  18.3085  18.3843
    18.4654  18.6157  18.6559  18.7128  18.7927  18.8598  18.8825  18.9835
    19.0320  19.0926  19.1665  19.2293  19.3087  19.3350  19.4072  19.5704
    19.6188  19.6530  19.7325  19.7871  19.8518  19.9872  20.0629  20.1080
    20.1454  20.2454  20.3991  20.4214  20.5175  20.6267  20.6646  20.7090
    20.7799  20.7971  20.9310  20.9517  20.9670  21.0347  21.0870  21.1806
    21.2077  21.3044  21.3247  21.3688  21.4317  21.4690  21.5261  21.6269
    21.7104  21.7447  21.8282  21.8573  21.8754  21.9801

     the Fermi energy is    -1.2559 ev

!    total energy              =   -2104.95453383 Ry
     Harris-Foulkes estimate   =   -2104.95453383 Ry
     estimated scf accuracy    <          2.4E-09 Ry

     The total energy is the sum of the following terms:

     one-electron contribution =  -22808.23337446 Ry
     hartree contribution      =   11450.40190478 Ry
     xc contribution           =    -577.26541999 Ry
     ewald contribution        =    9827.78341669 Ry
     Hubbard energy            =       2.35971820 Ry
     smearing contrib. (-TS)   =      -0.00077904 Ry

     convergence has been achieved in  15 iterations

     Forces acting on atoms (Ry/au):

     negative rho (up, down):  0.314E+01 0.000E+00
     atom    1 type  1   force =    -0.00655861   -0.01193097    0.00024447
     atom    2 type  1   force =     0.00023021    0.00221393   -0.00048204
     atom    3 type  2   force =     0.03026551    0.00842283    0.00020662
     atom    4 type  2   force =     0.00863993    0.00764994    0.00000831
     atom    5 type  1   force =    -0.00516069   -0.01403808   -0.00033178
     atom    6 type  1   force =     0.00685471    0.01152248   -0.00022358
     atom    7 type  1   force =     0.00172574   -0.00239162    0.00005820
     atom    8 type  1   force =    -0.00247366   -0.00065144   -0.00015446
     atom    9 type  2   force =     0.00688779    0.00021268    0.00013329
     atom   10 type  2   force =    -0.00783729   -0.00116135    0.00024678
     atom   11 type  1   force =    -0.00043529    0.01689113    0.00002489
     atom   12 type  1   force =    -0.00008348   -0.01684900   -0.00001030
     atom   13 type  1   force =    -0.00132887   -0.00015539   -0.00004352
     atom   14 type  1   force =    -0.00774404   -0.01323936    0.00010421
     atom   15 type  1   force =     0.00029107    0.00323627   -0.00024460
     atom   16 type  2   force =    -0.03096023    0.00719410    0.00023751
     atom   17 type  2   force =     0.00896586    0.00810430    0.00009200
     atom   18 type  1   force =    -0.00469252   -0.01340212   -0.00031799
     atom   19 type  1   force =     0.00608397    0.01278219   -0.00023668
     atom   20 type  1   force =    -0.00168030   -0.00567900    0.00020378
     atom   21 type  1   force =    -0.00388563   -0.00060525    0.00001119
     atom   22 type  2   force =    -0.00432932    0.00061452    0.00011977
     atom   23 type  2   force =     0.00331135   -0.00003388    0.00016804
     atom   24 type  1   force =     0.00170170    0.02084238   -0.00021979
     atom   25 type  1   force =     0.00274418   -0.02098745   -0.00022666
     atom   26 type  1   force =    -0.00067644   -0.00023748    0.00029523
     atom   27 type  3   force =     0.00000037    0.00051309    0.00011227
     atom   28 type  3   force =     0.00002963    0.00056060    0.00050883
     atom   29 type  3   force =    -0.00012995    0.00004722    0.00018392
     atom   30 type  3   force =    -0.00021593    0.00058652    0.00007230
     atom   31 type  1   force =     0.00058508   -0.00007663   -0.00039963
     atom   32 type  3   force =    -0.00012483    0.00004486   -0.00014060

     Total force =     0.001735     Total SCF correction =     0.000151

     bfgs converged in  10 scf cycles and   9 bfgs steps
     (criteria: energy < 0.10E-03, force < 0.10E-02)

     End of BFGS Geometry Optimization

     Final energy   =   -2104.9545338292 Ry
Begin final coordinates

ATOMIC_POSITIONS (crystal)
O0       0.000000000   0.000000000   0.378780540    0   0   1
O0       0.000000000   0.500000000   0.403468257    0   0   1
Ir1      0.250000000   0.500000000   0.453029423    0   0   1
Ir1      0.000000000   0.000000000   0.453226225    0   0   1
O0       0.250000000   0.810000000   0.453151921    0   0   1
O0       0.250000000   0.190000000   0.452707004    0   0   1
O0       0.000000000   0.500000000   0.499206426    0   0   1
O0       0.000000000   0.000000000   0.528511590    0   0   1
Ir1      0.250000000   0.000000000   0.575283769    0   0   1
Ir1      0.000000000   0.500000000   0.571890553    0   0   1
O0       0.250000000   0.690000000   0.575215535    0   0   1
O0       0.250000000   0.310000000   0.575267214    0   0   1
O0       0.000000000   0.000000000   0.619908483    0   0   1
O0       0.500000000   0.000000000   0.378423979    0   0   1
O0       0.500000000   0.500000000   0.402643307    0   0   1
Ir1      0.750000000   0.500000000   0.453032378    0   0   1
Ir1      0.500000000   0.000000000   0.452983471    0   0   1
O0       0.750000000   0.810000000   0.453172399    0   0   1
O0       0.750000000   0.190000000   0.452683877    0   0   1
O0       0.500000000   0.500000000   0.500001345    0   0   1
O0       0.500000000   0.000000000   0.528506567    0   0   1
Ir1      0.750000000   0.000000000   0.575228152    0   0   1
Ir1      0.500000000   0.500000000   0.574836266    0   0   1
O0       0.750000000   0.690000000   0.574537873    0   0   1
O0       0.750000000   0.310000000   0.574630457    0   0   1
O0       0.500000000   0.000000000   0.619599836    0   0   1
H2      -0.000230674   0.632294474   0.384201115
H2       0.499872752   0.636215740   0.385016158
H2       0.143668966   0.034030305   0.367223797
H2       0.642760441   0.037014838   0.366866286
O0       0.516405738   0.499703909   0.647700714
H2       0.375965236   0.500406384   0.663345083
End final coordinates

     General routines

     Parallel routines
     Hubbard U routines

   This run was terminated on:  17:34:44  29Apr2014

   JOB DONE.