     Program PWSCF v.5.0.2 (svn rev. 9656) starts on 30Apr2014 at 20:40: 4

     Current dimensions of program PWSCF are:
     Max number of different atomic species (ntypx) = 10
     Max number of k-points (npk) =  40000
     Max angular momentum in pseudopotentials (lmaxx) =  3
     Reading input from pwscf.in
Warning: card &CELL ignored
Warning: card / ignored

     Subspace diagonalization in iterative solution of the eigenvalue problem:
     a serial algorithm will be used

     bravais-lattice index     =            0
     lattice parameter (alat)  =      11.7541  a.u.
     unit-cell volume          =    7139.8207 (a.u.)^3
     number of atoms/cell      =           32
     number of atomic types    =            3
     number of electrons       =       239.00
     number of Kohn-Sham states=          358
     kinetic-energy cutoff     =      40.0000  Ry
     charge density cutoff     =     500.0000  Ry
     convergence threshold     =      1.0E-06
     mixing beta               =       0.7000
     number of iterations used =            8  plain     mixing
     Exchange-correlation      = SLA  PW   PBE  PBE ( 1 4 3 4 0)
     EXX-fraction              =        0.00
     nstep                     =           50

     celldm(1)=  11.754097  celldm(2)=   0.000000  celldm(3)=   0.000000
     celldm(4)=   0.000000  celldm(5)=   0.000000  celldm(6)=   0.000000

     crystal axes: (cart. coord. in units of alat)
               a(1) = (   1.000000   0.000000   0.000000 )
               a(2) = (   0.000000   1.034513   0.000000 )
               a(3) = (   0.000000   0.000000   4.249947 )

     reciprocal axes: (cart. coord. in units 2 pi/alat)
               b(1) = (  1.000000  0.000000  0.000000 )
               b(2) = (  0.000000  0.966638  0.000000 )
               b(3) = (  0.000000  0.000000  0.235297 )

     PseudoPot. # 1 for O  read from file:
     /home/camp/zhonxu/pseudo/o_pbe_v1.01.uspp.F.UPF
     MD5 check sum: 2bcb18d16ea4b960afae9ec6d52f22d2
     Pseudo is Ultrasoft + core correction, Zval =  6.0
     Generated by new atomic code, or converted to UPF format
     Using radial grid of  737 points,  5 beta functions with:
                l(1) =   0
                l(2) =   0
                l(3) =   1
                l(4) =   1
                l(5) =   2
     Q(r) pseudized with  8 coefficients,  rinner =    0.900   0.900   0.900
                                                       0.900   0.900

     PseudoPot. # 2 for Rh read from file:
     /home/camp/zhonxu/pseudo/rh_pbe_v1.uspp.F.UPF
     MD5 check sum: 37b626987ad0dd8ec6bf4cc9ef289918
     Pseudo is Ultrasoft + core correction, Zval = 15.0
     Generated by new atomic code, or converted to UPF format
     Using radial grid of  969 points,  7 beta functions with:
                l(1) =   0
                l(2) =   0
                l(3) =   1
                l(4) =   1
                l(5) =   2
                l(6) =   2
                l(7) =   2
     Q(r) pseudized with  6 coefficients,  rinner =    1.050   1.050   1.050
                                                       1.050   1.050

     PseudoPot. # 3 for H  read from file:
     /home/camp/zhonxu/pseudo/h_pbe_v1.uspp.F.UPF
     MD5 check sum: 3408e3ff4ec8b0a4e358431e7e038a48
     Pseudo is Ultrasoft, Zval =  1.0
     Generated by new atomic code, or converted to UPF format
     Using radial grid of  615 points,  2 beta functions with:
                l(1) =   0
                l(2) =   0
     Q(r) pseudized with  8 coefficients,  rinner =    0.700

     atomic species   valence    mass     pseudopotential
        O0             6.00    15.99940     O ( 1.00)
        Rh1           15.00   102.90550     Rh( 1.00)
        H2             1.00     1.00794     H ( 1.00)

     Simplified LDA+U calculation (l_max = 2) with parameters (eV):
     atomic species    L          U    alpha       J0     beta
        Rh1            2     6.0000   0.0000   0.0000   0.0000

     No symmetry found

   Cartesian axes

     site n.     atom                  positions (alat units)
         1           O0  tau(   1) = (   0.0000000   0.0000000   1.6077125  )
         2           O0  tau(   2) = (   0.0000000   0.5172566   1.7060138  )
         3           Rh1 tau(   3) = (   0.2500000   0.5172566   1.9233561  )
         4           Rh1 tau(   4) = (   0.0000000   0.0000000   1.9242061  )
         5           O0  tau(   5) = (   0.2500000   0.8379556   1.9221236  )
         6           O0  tau(   6) = (   0.2500000   0.1965575   1.9218261  )
         7           O0  tau(   7) = (   0.0000000   0.5172566   2.1180887  )
         8           O0  tau(   8) = (   0.0000000   0.0000000   2.2452046  )
         9           Rh1 tau(   9) = (   0.2500000   0.0000000   2.4467796  )
        10           Rh1 tau(  10) = (   0.0000000   0.5172566   2.4248074  )
        11           O0  tau(  11) = (   0.2500000   0.7138141   2.4490746  )
        12           O0  tau(  12) = (   0.2500000   0.3206991   2.4494996  )
        13           O0  tau(  13) = (   0.0000000   0.0000000   2.6392597  )
        14           O0  tau(  14) = (   0.5000000   0.0000000   1.6071175  )
        15           O0  tau(  15) = (   0.5000000   0.5172566   1.7046963  )
        16           Rh1 tau(  16) = (   0.7500000   0.5172566   1.9233561  )
        17           Rh1 tau(  17) = (   0.5000000   0.0000000   1.9236961  )
        18           O0  tau(  18) = (   0.7500000   0.8379556   1.9222086  )
        19           O0  tau(  19) = (   0.7500000   0.1965575   1.9219111  )
        20           O0  tau(  20) = (   0.5000000   0.5172566   2.1234861  )
        21           O0  tau(  21) = (   0.5000000   0.0000000   2.2446521  )
        22           Rh1 tau(  22) = (   0.7500000   0.0000000   2.4466946  )
        23           Rh1 tau(  23) = (   0.5000000   0.5172566   2.4467371  )
        24           O0  tau(  24) = (   0.7500000   0.7138141   2.4449521  )
        25           O0  tau(  25) = (   0.7500000   0.3206991   2.4452921  )
        26           O0  tau(  26) = (   0.5000000   0.0000000   2.6379847  )
        27           H2  tau(  27) = (  -0.0000100   0.6596573   1.6332972  )
        28           H2  tau(  28) = (   0.4999400   0.6612505   1.6349547  )
        29           H2  tau(  29) = (   0.1484100   0.0351631   1.5627056  )
        30           H2  tau(  30) = (   0.6482100   0.0356700   1.5619406  )
        31           O0  tau(  31) = (   0.5154200   0.5168841   2.7565583  )
        32           H2  tau(  32) = (   0.3686900   0.5167083   2.8162275  )

     number of k points=    10  Methfessel-Paxton smearing, width (Ry)=  0.0100
                       cart. coord. in units 2pi/alat
        k(    1) = (   0.0000000   0.0000000   0.0000000), wk =   0.1250000
        k(    2) = (   0.0000000   0.2416596   0.0000000), wk =   0.2500000
        k(    3) = (   0.0000000  -0.4833191   0.0000000), wk =   0.1250000
        k(    4) = (   0.2500000   0.0000000   0.0000000), wk =   0.2500000
        k(    5) = (   0.2500000   0.2416596   0.0000000), wk =   0.2500000
        k(    6) = (   0.2500000  -0.4833191   0.0000000), wk =   0.2500000
        k(    7) = (  -0.5000000   0.0000000   0.0000000), wk =   0.1250000
        k(    8) = (  -0.5000000   0.2416596   0.0000000), wk =   0.2500000
        k(    9) = (  -0.5000000  -0.4833191   0.0000000), wk =   0.1250000
        k(   10) = (  -0.2500000   0.2416596   0.0000000), wk =   0.2500000

     Largest allocated arrays     est. size (Mb)     dimensions
     Largest temporary arrays     est. size (Mb)     dimensions

     Check: negative/imaginary core charge=   -0.000003    0.000000

     Initial potential from superposition of free atoms
     Check: negative starting charge=   -0.644969

     starting charge  234.99914, renormalised to  239.00000

     negative rho (up, down):  0.656E+00 0.000E+00
     Number of +U iterations with fixed ns =  0
     Starting occupations:
 --- enter write_ns ---
 LDA+U parameters:
U( 2)     =  6.00000000
alpha( 2) =  0.00000000
atom    3   Tr[ns(na)] =   7.00000
    eigenvalues:
  0.700  0.700  0.700  0.700  0.700
    eigenvectors:
  1.000  0.000  0.000  0.000  0.000
  0.000  1.000  0.000  0.000  0.000
  0.000  0.000  1.000  0.000  0.000
  0.000  0.000  0.000  1.000  0.000
  0.000  0.000  0.000  0.000  1.000
    occupations:
  0.700  0.000  0.000  0.000  0.000
  0.000  0.700  0.000  0.000  0.000
  0.000  0.000  0.700  0.000  0.000
  0.000  0.000  0.000  0.700  0.000
  0.000  0.000  0.000  0.000  0.700
atom    4   Tr[ns(na)] =   7.00000
    eigenvalues:
  0.700  0.700  0.700  0.700  0.700
    eigenvectors:
  1.000  0.000  0.000  0.000  0.000
  0.000  1.000  0.000  0.000  0.000
  0.000  0.000  1.000  0.000  0.000
  0.000  0.000  0.000  1.000  0.000
  0.000  0.000  0.000  0.000  1.000
    occupations:
  0.700  0.000  0.000  0.000  0.000
  0.000  0.700  0.000  0.000  0.000
  0.000  0.000  0.700  0.000  0.000
  0.000  0.000  0.000  0.700  0.000
  0.000  0.000  0.000  0.000  0.700
atom    9   Tr[ns(na)] =   7.00000
    eigenvalues:
  0.700  0.700  0.700  0.700  0.700
    eigenvectors:
  1.000  0.000  0.000  0.000  0.000
  0.000  1.000  0.000  0.000  0.000
  0.000  0.000  1.000  0.000  0.000
  0.000  0.000  0.000  1.000  0.000
  0.000  0.000  0.000  0.000  1.000
    occupations:
  0.700  0.000  0.000  0.000  0.000
  0.000  0.700  0.000  0.000  0.000
  0.000  0.000  0.700  0.000  0.000
  0.000  0.000  0.000  0.700  0.000
  0.000  0.000  0.000  0.000  0.700
atom   10   Tr[ns(na)] =   7.00000
    eigenvalues:
  0.700  0.700  0.700  0.700  0.700
    eigenvectors:
  1.000  0.000  0.000  0.000  0.000
  0.000  1.000  0.000  0.000  0.000
  0.000  0.000  1.000  0.000  0.000
  0.000  0.000  0.000  1.000  0.000
  0.000  0.000  0.000  0.000  1.000
    occupations:
  0.700  0.000  0.000  0.000  0.000
  0.000  0.700  0.000  0.000  0.000
  0.000  0.000  0.700  0.000  0.000
  0.000  0.000  0.000  0.700  0.000
  0.000  0.000  0.000  0.000  0.700
atom   16   Tr[ns(na)] =   7.00000
    eigenvalues:
  0.700  0.700  0.700  0.700  0.700
    eigenvectors:
  1.000  0.000  0.000  0.000  0.000
  0.000  1.000  0.000  0.000  0.000
  0.000  0.000  1.000  0.000  0.000
  0.000  0.000  0.000  1.000  0.000
  0.000  0.000  0.000  0.000  1.000
    occupations:
  0.700  0.000  0.000  0.000  0.000
  0.000  0.700  0.000  0.000  0.000
  0.000  0.000  0.700  0.000  0.000
  0.000  0.000  0.000  0.700  0.000
  0.000  0.000  0.000  0.000  0.700
atom   17   Tr[ns(na)] =   7.00000
    eigenvalues:
  0.700  0.700  0.700  0.700  0.700
    eigenvectors:
  1.000  0.000  0.000  0.000  0.000
  0.000  1.000  0.000  0.000  0.000
  0.000  0.000  1.000  0.000  0.000
  0.000  0.000  0.000  1.000  0.000
  0.000  0.000  0.000  0.000  1.000
    occupations:
  0.700  0.000  0.000  0.000  0.000
  0.000  0.700  0.000  0.000  0.000
  0.000  0.000  0.700  0.000  0.000
  0.000  0.000  0.000  0.700  0.000
  0.000  0.000  0.000  0.000  0.700
atom   22   Tr[ns(na)] =   7.00000
    eigenvalues:
  0.700  0.700  0.700  0.700  0.700
    eigenvectors:
  1.000  0.000  0.000  0.000  0.000
  0.000  1.000  0.000  0.000  0.000
  0.000  0.000  1.000  0.000  0.000
  0.000  0.000  0.000  1.000  0.000
[...]
  0.023  0.825  0.000  0.000  0.153
  0.000  0.000  0.007  0.993  0.000
    occupations:
  0.929  0.001 -0.000 -0.122 -0.000
  0.001  0.635  0.001  0.001 -0.000
 -0.000  0.001  0.879 -0.000 -0.003
 -0.122  0.001 -0.000  0.693  0.001
 -0.000 -0.000 -0.003  0.001  0.912
atom   10   Tr[ns(na)] =   8.07809
    eigenvalues:
  0.592  0.593  0.934  0.939  0.981
    eigenvectors:
  0.991  0.001  0.000  0.000  0.008
  0.000  0.000  1.000  0.000  0.000
  0.000  0.000  0.000  1.000  0.000
  0.008  0.000  0.000  0.000  0.992
  0.001  0.999  0.000  0.000  0.000
    occupations:
  0.595 -0.003  0.001  0.035 -0.000
 -0.003  0.934  0.000  0.000 -0.000
  0.001  0.000  0.939  0.000  0.003
  0.035  0.000  0.000  0.978  0.000
 -0.000 -0.000  0.003  0.000  0.593
atom   16   Tr[ns(na)] =   8.08762
    eigenvalues:
  0.579  0.601  0.916  0.968  0.980
    eigenvectors:
  0.007  0.193  0.003  0.001  0.796
  0.972  0.028  0.000  0.000  0.000
  0.000  0.000  0.971  0.027  0.002
  0.020  0.779  0.000  0.000  0.200
  0.000  0.000  0.026  0.972  0.001
    occupations:
  0.904  0.006  0.002 -0.152  0.001
  0.006  0.580  0.001  0.001 -0.006
  0.002  0.001  0.917 -0.004 -0.008
 -0.152  0.001 -0.004  0.677  0.000
  0.001 -0.006 -0.008  0.000  0.966
atom   17   Tr[ns(na)] =   8.09623
    eigenvalues:
  0.596  0.648  0.890  0.933  0.981
    eigenvectors:
  0.001  0.991  0.000  0.000  0.008
  0.000  0.000  0.090  0.910  0.000
  0.000  0.000  0.910  0.090  0.000
  0.000  0.008  0.000  0.000  0.992
  0.999  0.001  0.000  0.000  0.000
    occupations:
  0.651 -0.004 -0.001  0.029  0.002
 -0.004  0.929  0.012  0.001 -0.001
 -0.001  0.012  0.894 -0.000  0.001
  0.029  0.001 -0.000  0.978  0.000
  0.002 -0.001  0.001  0.000  0.596
atom   22   Tr[ns(na)] =   8.09373
    eigenvalues:
  0.636  0.643  0.872  0.915  0.981
    eigenvectors:
  0.000  0.151  0.000  0.000  0.849
  0.998  0.002  0.000  0.000  0.000
  0.000  0.000  0.995  0.005  0.000
  0.002  0.847  0.000  0.000  0.151
  0.000  0.000  0.005  0.995  0.000
    occupations:
  0.930  0.000 -0.000 -0.121 -0.000
  0.000  0.636  0.001 -0.001 -0.000
 -0.000  0.001  0.872 -0.000  0.003
 -0.121 -0.001 -0.000  0.694  0.001
 -0.000 -0.000  0.003  0.001  0.914
atom   23   Tr[ns(na)] =   8.08663
    eigenvalues:
  0.603  0.653  0.868  0.940  0.980
    eigenvectors:
  0.000  0.991  0.000  0.000  0.009
  0.000  0.000  0.000  0.999  0.000
  0.000  0.000  1.000  0.000  0.000
  0.000  0.009  0.000  0.000  0.991
  1.000  0.000  0.000  0.000  0.000
    occupations:
  0.655  0.006 -0.000  0.030 -0.000
  0.006  0.940 -0.000 -0.000 -0.000
 -0.000 -0.000  0.868  0.000 -0.002
  0.030 -0.000  0.000  0.977  0.000
 -0.000 -0.000 -0.002  0.000  0.603
N of occupied +U levels =  64.7230818
 --- exit write_ns ---

     Threshold (ethr) on eigenvalues was too large:
     Diagonalizing with lowered threshold

     Davidson diagonalization with overlap
     ethr =  2.02E-08,  avg # of iterations =  3.0

[...]

     total energy              =   -1979.25484638 Ry
     Harris-Foulkes estimate   =   -1979.25484638 Ry
     estimated scf accuracy    <       0.00000004 Ry

     iteration # 16     ecut=    40.00 Ry     beta=0.70
     Davidson diagonalization with overlap
     ethr =  1.70E-11,  avg # of iterations =  1.0

     negative rho (up, down):  0.690E+00 0.000E+00

     End of self-consistent calculation
 --- enter write_ns ---
 LDA+U parameters:
U( 2)     =  6.00000000
alpha( 2) =  0.00000000
atom    3   Tr[ns(na)] =   8.08692
    eigenvalues:
  0.579  0.601  0.916  0.968  0.980
    eigenvectors:
  0.006  0.194  0.003  0.000  0.796
  0.975  0.024  0.000  0.000  0.000
  0.000  0.000  0.965  0.033  0.002
  0.018  0.781  0.000  0.000  0.200
  0.000  0.000  0.032  0.966  0.001
    occupations:
  0.904 -0.006  0.002 -0.152 -0.001
 -0.006  0.579 -0.002 -0.001 -0.006
  0.002 -0.002  0.918 -0.004  0.009
 -0.152 -0.001 -0.004  0.677 -0.001
 -0.001 -0.006  0.009 -0.001  0.966
atom    4   Tr[ns(na)] =   8.09567
    eigenvalues:
  0.597  0.649  0.887  0.934  0.980
    eigenvectors:
  0.001  0.991  0.000  0.000  0.008
  0.000  0.000  0.060  0.940  0.000
  0.000  0.000  0.940  0.060  0.000
  0.000  0.008  0.000  0.000  0.992
  0.999  0.001  0.000  0.000  0.000
    occupations:
  0.652 -0.004 -0.001  0.029  0.001
 -0.004  0.931  0.011  0.001 -0.001
 -0.001  0.011  0.890 -0.000  0.001
  0.029  0.001 -0.000  0.978  0.000
  0.001 -0.001  0.001  0.000  0.597
atom    9   Tr[ns(na)] =   8.09726
    eigenvalues:
  0.635  0.642  0.879  0.912  0.981
    eigenvectors:
  0.004  0.149  0.000  0.000  0.847
  0.974  0.026  0.000  0.000  0.000
  0.000  0.000  0.993  0.007  0.000
  0.022  0.825  0.000  0.000  0.153
  0.000  0.000  0.007  0.993  0.000
    occupations:
  0.929  0.001 -0.000 -0.122 -0.000
  0.001  0.635  0.001  0.001 -0.000
 -0.000  0.001  0.879 -0.000 -0.003
 -0.122  0.001 -0.000  0.693  0.001
 -0.000 -0.000 -0.003  0.001  0.912
atom   10   Tr[ns(na)] =   8.07856
    eigenvalues:
  0.592  0.593  0.934  0.939  0.981
    eigenvectors:
  0.991  0.001  0.000  0.000  0.008
  0.000  0.000  1.000  0.000  0.000
  0.000  0.000  0.000  1.000  0.000
  0.008  0.000  0.000  0.000  0.992
  0.001  0.999  0.000  0.000  0.000
    occupations:
  0.595 -0.003  0.001  0.035 -0.000
 -0.003  0.934  0.000  0.000 -0.000
  0.001  0.000  0.939  0.000  0.003
  0.035  0.000  0.000  0.978  0.000
 -0.000 -0.000  0.003  0.000  0.593
atom   16   Tr[ns(na)] =   8.08691
    eigenvalues:
  0.579  0.601  0.916  0.967  0.980
    eigenvectors:
  0.007  0.193  0.003  0.001  0.796
  0.972  0.027  0.000  0.000  0.000
  0.000  0.000  0.971  0.026  0.002
  0.020  0.779  0.000  0.000  0.200
  0.000  0.000  0.026  0.972  0.001
    occupations:
  0.904  0.006  0.002 -0.152  0.001
  0.006  0.580  0.001  0.001 -0.006
  0.002  0.001  0.917 -0.004 -0.008
 -0.152  0.001 -0.004  0.677  0.000
  0.001 -0.006 -0.008  0.000  0.966
atom   17   Tr[ns(na)] =   8.09582
    eigenvalues:
  0.596  0.648  0.890  0.933  0.981
    eigenvectors:
  0.001  0.991  0.000  0.000  0.008
  0.000  0.000  0.090  0.910  0.000
  0.000  0.000  0.910  0.090  0.000
  0.000  0.008  0.000  0.000  0.992
  0.999  0.001  0.000  0.000  0.000
    occupations:
  0.651 -0.004 -0.001  0.029  0.002
 -0.004  0.929  0.012  0.001 -0.001
 -0.001  0.012  0.894 -0.000  0.001
  0.029  0.001 -0.000  0.978  0.000
  0.002 -0.001  0.001  0.000  0.596
atom   22   Tr[ns(na)] =   8.09405
    eigenvalues:
  0.636  0.643  0.872  0.915  0.981
    eigenvectors:
  0.000  0.151  0.000  0.000  0.849
  0.998  0.002  0.000  0.000  0.000
  0.000  0.000  0.995  0.005  0.000
  0.001  0.847  0.000  0.000  0.151
  0.000  0.000  0.005  0.995  0.000
    occupations:
  0.930  0.000 -0.000 -0.121 -0.000
  0.000  0.636  0.001 -0.001 -0.000
 -0.000  0.001  0.872 -0.000  0.003
 -0.121 -0.001 -0.000  0.694  0.001
 -0.000 -0.000  0.003  0.001  0.914
atom   23   Tr[ns(na)] =   8.08790
    eigenvalues:
  0.603  0.653  0.868  0.940  0.980
    eigenvectors:
  0.000  0.991  0.000  0.000  0.009
  0.000  0.000  0.000  0.999  0.000
  0.000  0.000  1.000  0.000  0.000
  0.000  0.009  0.000  0.000  0.991
  1.000  0.000  0.000  0.000  0.000
    occupations:
  0.656  0.006 -0.000  0.030 -0.000
  0.006  0.940 -0.000 -0.000 -0.000
 -0.000 -0.000  0.868  0.000 -0.002
  0.030 -0.000  0.000  0.977  0.000
 -0.000 -0.000 -0.002  0.000  0.603
N of occupied +U levels =  64.7230788
 --- exit write_ns ---

[...]

          k = 0.2500-0.4833 0.0000 ( 30510 PWs)   bands (ev):

[...]

          k =-0.2500 0.2417 0.0000 ( 30481 PWs)   bands (ev):

   -48.6510 -48.6218 -48.5589 -48.5510 -48.5425 -48.5347 -48.5252 -48.5123
   -48.4693 -48.4555 -48.4414 -48.4323 -48.3518 -48.3510 -48.3233 -48.2272
   -48.2244 -48.2179 -48.2168 -48.1546 -48.1449 -48.1231 -48.1143 -48.1069
   -21.2844 -21.0042 -20.9506 -20.8385 -20.5402 -20.4503 -20.4217 -20.3717
   -20.3290 -20.2141 -20.1049 -20.0906 -20.0413 -20.0299 -19.8521 -19.8213
   -19.8068 -19.1114 -18.9684 -10.2366 -10.1681  -9.9862  -9.8061  -9.6357
    -9.5025  -9.4259  -9.4138  -9.0781  -8.8078  -8.7663  -8.6736  -8.6236
    -8.5590  -8.4355  -8.2629  -8.1483  -8.1417  -7.9220  -7.7553  -7.6092
    -7.5622  -7.4452  -7.3780  -7.2229  -7.1472  -7.0527  -6.9817  -6.8221
    -6.7390  -6.6874  -6.6515  -6.5508  -6.5163  -6.4537  -6.2944  -6.2379
    -6.2152  -6.0947  -6.0802  -6.0027  -5.8311  -5.5629  -5.4117  -5.2030
    -5.1075  -5.0395  -4.8875  -4.7986  -4.7521  -4.5886  -4.4897  -4.4103
    -4.3699  -4.3052  -4.1498  -4.0695  -3.9309  -3.8518  -3.6896  -3.6773
    -3.6031  -3.5123  -3.4510  -3.4289  -3.3661  -3.3371  -3.2320  -3.1461
    -3.1138  -3.0044  -2.6836  -2.4853  -2.4059  -2.2229  -2.0922  -2.0527
    -2.0313  -1.8451  -1.7438  -1.6506  -0.7564  -0.1969  -0.1091   0.1760
     0.4430   0.7148   0.9768   1.2017   1.4644   1.5340   1.6946   1.7453
     1.8526   1.9361   2.0246   2.3696   3.6947   3.8715   4.5602   4.9505
     5.3503   5.5145   5.5594   5.8564   6.1205   6.3285   6.4474   6.4700
     6.5250   6.7619   6.8572   7.0633   7.2578   7.4389   7.5521   7.7051
     7.8745   7.9944   8.0781   8.1769   8.2783   8.3174   8.4520   8.5572
     8.7223   8.8594   8.9469   9.0095   9.1080   9.2422   9.4525   9.5907
     9.6520   9.7396   9.8274   9.9078   9.9613  10.0149  10.1889  10.2234
    10.3405  10.3657  10.4518  10.6001  10.6963  10.7375  10.8472  10.9617
    11.0598  11.1116  11.2227  11.2624  11.3679  11.4436  11.5075  11.5462
    11.6020  11.6991  11.7998  11.8614  11.9150  12.0302  12.1738  12.2027
    12.2522  12.3012  12.4053  12.4764  12.5067  12.5435  12.6480  12.7038
    12.7851  12.8371  12.9291  13.0078  13.1485  13.1956  13.2678  13.2981
    13.4193  13.4947  13.5545  13.6006  13.7614  13.8018  13.8799  13.9540
    14.0620  14.0929  14.1885  14.2699  14.3031  14.3475  14.4248  14.4836
    14.6091  14.7031  14.7328  14.8323  14.9984  15.0761  15.2217  15.3428
    15.3744  15.4125  15.4983  15.5435  15.5940  15.6158  15.7011  15.7838
    15.8186  15.8647  15.9102  16.0334  16.0925  16.1501  16.1845  16.3209
    16.3847  16.4319  16.4858  16.5126  16.5544  16.5927  16.6491  16.7395
    16.8107  16.8997  16.9573  17.0425  17.0924  17.1975  17.2315  17.2545
    17.3569  17.3999  17.4590  17.5235  17.5902  17.6576  17.7409  17.8267
    17.8881  17.9551  18.0229  18.0732  18.0976  18.2239  18.2950  18.3300
    18.4481  18.5262  18.5976  18.6627  18.7397  18.8236  18.8736  18.9300
    18.9774  19.0416  19.1431  19.1683  19.2656  19.2902  19.3674  19.4736
    19.5348  19.6363  19.6720  19.7761  19.8060  19.9213  19.9636  20.0556
    20.1795  20.2275  20.3328  20.3995  20.4972  20.5401  20.6234  20.6659
    20.7480  20.7934  20.8608  20.9265  20.9671  21.0853  21.1632  21.1910
    21.2403  21.2808  21.3444  21.4021  21.4691  21.5000  21.5656  21.6640
    21.7162  21.7815  21.8169  21.8606  21.9619  21.9925  22.0799  22.1310
    22.2382  22.2807  22.3799  22.4097  22.5073  22.5881

     the Fermi energy is    -2.0884 ev

!    total energy              =   -1979.25484638 Ry
     Harris-Foulkes estimate   =   -1979.25484638 Ry
     estimated scf accuracy    <          3.0E-09 Ry

     The total energy is the sum of the following terms:

     one-electron contribution =  -23372.32039348 Ry
     hartree contribution      =   11737.06197133 Ry
     xc contribution           =    -373.07620351 Ry
     ewald contribution        =   10026.81807240 Ry
     Hubbard energy            =       2.26349219 Ry
     smearing contrib. (-TS)   =      -0.00178530 Ry

     convergence has been achieved in  16 iterations

     Forces acting on atoms (Ry/au):

     negative rho (up, down):  0.690E+00 0.000E+00
     atom    1 type  1   force =    -0.00673918   -0.01197299    0.00015011
     atom    2 type  1   force =     0.00028505    0.00271603   -0.00049889
     atom    3 type  2   force =     0.02937513    0.00844567    0.00030158
     atom    4 type  2   force =     0.00809579    0.00866011   -0.00000790
     atom    5 type  1   force =    -0.00399784   -0.02747980   -0.00008738
     atom    6 type  1   force =     0.00325362    0.02390498    0.00002729
     atom    7 type  1   force =     0.00197815   -0.00198654   -0.00016316
     atom    8 type  1   force =    -0.00165700   -0.00093665   -0.00029990
     atom    9 type  2   force =     0.00335336   -0.00010683   -0.00005295
     atom   10 type  2   force =    -0.00617469   -0.00139369    0.00000671
     atom   11 type  1   force =    -0.00793176    0.01567675    0.00016892
     atom   12 type  1   force =    -0.00816412   -0.01559827    0.00013011
     atom   13 type  1   force =    -0.00122085   -0.00004321   -0.00016678
     atom   14 type  1   force =    -0.00666990   -0.01222834    0.00013897
     atom   15 type  1   force =     0.00025780    0.00290310   -0.00038493
     atom   16 type  2   force =    -0.03033545    0.00687234    0.00030157
     atom   17 type  2   force =     0.00813199    0.00877380    0.00013846
     atom   18 type  1   force =    -0.00181226   -0.02720699   -0.00006772
     atom   19 type  1   force =     0.00501051    0.02482875    0.00002767
     atom   20 type  1   force =    -0.00169349   -0.00529421    0.00040670
     atom   21 type  1   force =    -0.00387583   -0.00057470   -0.00029696
     atom   22 type  2   force =    -0.00029134    0.00066963   -0.00010907
     atom   23 type  2   force =     0.00255667    0.00059136    0.00028707
     atom   24 type  1   force =     0.00855843    0.02074730   -0.00008748
     atom   25 type  1   force =     0.00969598   -0.02107604   -0.00011654
     atom   26 type  1   force =    -0.00063545   -0.00017580    0.00012187
     atom   27 type  3   force =    -0.00000098    0.00051899    0.00010148
     atom   28 type  3   force =     0.00001323    0.00054220    0.00028267
     atom   29 type  3   force =    -0.00007313    0.00014709    0.00006165
     atom   30 type  3   force =    -0.00014500    0.00030143   -0.00006321
     atom   31 type  1   force =     0.00073766   -0.00013339   -0.00025353
     atom   32 type  3   force =     0.00011488   -0.00009210    0.00000357

     Total force =     0.001637     Total SCF correction =     0.000094

     bfgs converged in  10 scf cycles and   9 bfgs steps
     (criteria: energy < 0.10E-03, force < 0.10E-02)

     End of BFGS Geometry Optimization

     Final energy   =   -1979.2548463780 Ry
Begin final coordinates

ATOMIC_POSITIONS (crystal)
O0       0.000000000   0.000000000   0.378515610    0   0   1
O0       0.000000000   0.500000000   0.402175974    0   0   1
Rh1      0.250000000   0.500000000   0.452778428    0   0   1
Rh1      0.000000000   0.000000000   0.452756749    0   0   1
O0       0.250000000   0.810000000   0.452473493    0   0   1
O0       0.250000000   0.190000000   0.452240552    0   0   1
O0       0.000000000   0.500000000   0.499339113    0   0   1
O0       0.000000000   0.000000000   0.528110832    0   0   1
Rh1      0.250000000   0.000000000   0.575389240    0   0   1
Rh1      0.000000000   0.500000000   0.570858009    0   0   1
O0       0.250000000   0.690000000   0.575748742    0   0   1
O0       0.250000000   0.310000000   0.575813610    0   0   1
O0       0.000000000   0.000000000   0.620806636    0   0   1
O0       0.500000000   0.000000000   0.378223249    0   0   1
O0       0.500000000   0.500000000   0.401710571    0   0   1
Rh1      0.750000000   0.500000000   0.452773320    0   0   1
Rh1      0.500000000   0.000000000   0.452442034    0   0   1
O0       0.750000000   0.810000000   0.452475643    0   0   1
O0       0.750000000   0.190000000   0.452249772    0   0   1
O0       0.500000000   0.500000000   0.500211794    0   0   1
O0       0.500000000   0.000000000   0.528004634    0   0   1
Rh1      0.750000000   0.000000000   0.575324668    0   0   1
Rh1      0.500000000   0.500000000   0.575162098    0   0   1
O0       0.750000000   0.690000000   0.574745878    0   0   1
O0       0.750000000   0.310000000   0.574808403    0   0   1
O0       0.500000000   0.000000000   0.620656256    0   0   1
H2      -0.000203306   0.635974377   0.384539370
H2       0.499784903   0.638067297   0.385016241
H2       0.148187669   0.034497229   0.367811221
H2       0.648013342   0.035412857   0.367572634
O0       0.516618405   0.499221646   0.647979141
H2       0.370554329   0.499304410   0.662406086
End final coordinates

     General routines

     Parallel routines
     Hubbard U routines

   This run was terminated on:   9:21:50   1May2014

   JOB DONE.
Running PBS batch system epilogue script
Job id: 340564.audhumbla.fysik.dtu.dk
Username: zhonxu
Groupname: campgst
Jobname: RhO2/Eads-2-layers/OH-U-6.0
Sessionid: 29117
Queuename: verylong
Accounting:
This job has allocated the following 16 nodes:
c137 c137 c137 c137 c137 c137 c137 c137 c009 c009 c009 c009 c009 c009 c009 c009
Finished epilogue job 340564.audhumbla.fysik.dtu.dk for zhonxu