     Program PWSCF v.5.0.2 (svn rev. 9656) starts on  6May2014 at  6:13: 1

     Current dimensions of program PWSCF are:
     Max number of different atomic species (ntypx) = 10
     Max number of k-points (npk) =  40000
     Max angular momentum in pseudopotentials (lmaxx) =  3
     Reading input from pwscf.in
Warning: card &CELL ignored
Warning: card / ignored

     Subspace diagonalization in iterative solution of the eigenvalue problem:
     a serial algorithm will be used

     Found symmetry operation: I + ( -0.5000  0.0000  0.0000)
     This is a supercell, fractional translations are disabled

     bravais-lattice index     =            0
     lattice parameter (alat)  =      12.2076  a.u.
     unit-cell volume          =    7496.5096 (a.u.)^3
     number of atoms/cell      =           30
     number of atomic types    =            3
     number of electrons       =       240.00
     number of Kohn-Sham states=          360
     kinetic-energy cutoff     =      40.0000  Ry
     charge density cutoff     =     500.0000  Ry
     convergence threshold     =      1.0E-06
     mixing beta               =       0.7000
     number of iterations used =            8  plain     mixing
     Exchange-correlation      = SLA  PW   PBE  PBE ( 1 4 3 4 0)
     EXX-fraction              =        0.00
     nstep                     =           50

     celldm(1)=  12.207631  celldm(2)=   0.000000  celldm(3)=   0.000000
     celldm(4)=   0.000000  celldm(5)=   0.000000  celldm(6)=   0.000000

     crystal axes: (cart. coord. in units of alat)
               a(1) = (   1.000000   0.000000   0.000000 )
               a(2) = (   0.000000   1.004836   0.000000 )
               a(3) = (   0.000000   0.000000   4.100811 )

     reciprocal axes: (cart. coord. in units 2 pi/alat)
               b(1) = (  1.000000  0.000000  0.000000 )
               b(2) = (  0.000000  0.995187  0.000000 )
               b(3) = (  0.000000  0.000000  0.243854 )

     PseudoPot. # 1 for O  read from file:
     /home/camp/zhonxu/pseudo/o_pbe_v1.01.uspp.F.UPF
     MD5 check sum: 2bcb18d16ea4b960afae9ec6d52f22d2
     Pseudo is Ultrasoft + core correction, Zval =  6.0
     Generated by new atomic code, or converted to UPF format
     Using radial grid of  737 points,  5 beta functions with:
                l(1) =   0
                l(2) =   0
                l(3) =   1
                l(4) =   1
                l(5) =   2
     Q(r) pseudized with  8 coefficients,  rinner =    0.900   0.900   0.900
                                                       0.900   0.900

     PseudoPot. # 2 for Pt read from file:
     /home/camp/zhonxu/pseudo/pt_pbe_v1.uspp.F.UPF
     MD5 check sum: 4c71d6ad5ef119f1eb26a4d0b7884226
     Pseudo is Ultrasoft + core correction, Zval = 16.0
     Generated by new atomic code, or converted to UPF format
     Using radial grid of  985 points,  6 beta functions with:
                l(1) =   0
                l(2) =   0
                l(3) =   1
                l(4) =   1
                l(5) =   2
                l(6) =   2
     Q(r) pseudized with  8 coefficients,  rinner =    1.300   1.300   1.300
                                                       1.300   1.300

     PseudoPot. # 3 for H  read from file:
     /home/camp/zhonxu/pseudo/h_pbe_v1.uspp.F.UPF
     MD5 check sum: 3408e3ff4ec8b0a4e358431e7e038a48
     Pseudo is Ultrasoft, Zval =  1.0
     Generated by new atomic code, or converted to UPF format
     Using radial grid of  615 points,  2 beta functions with:
                l(1) =   0
                l(2) =   0
     Q(r) pseudized with  8 coefficients,  rinner =    0.700

     atomic species   valence    mass     pseudopotential
        O0             6.00    15.99940     O ( 1.00)
        Pt1           16.00   195.08000     Pt( 1.00)
        H2             1.00     1.00794     H ( 1.00)

     Simplified LDA+U calculation (l_max = 2) with parameters (eV):
     atomic species    L          U    alpha       J0     beta
        Pt1            2     1.5000   0.0000   0.0000   0.0000

     No symmetry found

   Cartesian axes

     site n.     atom                  positions (alat units)
         1           O0  tau(   1) = (   0.0000000   0.0000000   1.5457188  )
         2           O0  tau(   2) = (   0.0000000   0.5024180   1.6369208  )
         3           Pt1 tau(   3) = (   0.2500000   0.5024180   1.8413872  )
         4           Pt1 tau(   4) = (   0.0000000   0.0000000   1.8534436  )
         5           O0  tau(   5) = (   0.2500000   0.8139171   1.8157162  )
         6           O0  tau(   6) = (   0.2500000   0.1909188   1.8824364  )
         7           O0  tau(   7) = (   0.0000000   0.5024180   2.0315829  )
         8           O0  tau(   8) = (   0.0000000   0.0000000   2.1708464  )
         9           Pt1 tau(   9) = (   0.2500000   0.0000000   2.3625593  )
        10           Pt1 tau(  10) = (   0.0000000   0.5024180   2.3549318  )
        11           O0  tau(  11) = (   0.2500000   0.6933368   2.3911010  )
        12           O0  tau(  12) = (   0.2500000   0.3114991   2.3934384  )
        13           O0  tau(  13) = (   0.0000000   0.0000000   2.5491052  )
        14           O0  tau(  14) = (   0.5000000   0.0000000   1.5457188  )
        15           O0  tau(  15) = (   0.5000000   0.5024180   1.6369208  )
        16           Pt1 tau(  16) = (   0.7500000   0.5024180   1.8413872  )
        17           Pt1 tau(  17) = (   0.5000000   0.0000000   1.8534436  )
        18           O0  tau(  18) = (   0.7500000   0.8139171   1.8157162  )
        19           O0  tau(  19) = (   0.7500000   0.1909188   1.8824364  )
        20           O0  tau(  20) = (   0.5000000   0.5024180   2.0315829  )
        21           O0  tau(  21) = (   0.5000000   0.0000000   2.1708464  )
        22           Pt1 tau(  22) = (   0.7500000   0.0000000   2.3625593  )
        23           Pt1 tau(  23) = (   0.5000000   0.5024180   2.3549318  )
        24           O0  tau(  24) = (   0.7500000   0.6933368   2.3911010  )
        25           O0  tau(  25) = (   0.7500000   0.3114991   2.3934384  )
        26           O0  tau(  26) = (   0.5000000   0.0000000   2.5491052  )
        27           H2  tau(  27) = (  -0.0000500   0.6431553   1.5728661  )
        28           H2  tau(  28) = (   0.4999500   0.6431553   1.5728661  )
        29           H2  tau(  29) = (   0.1440700   0.0315318   1.5048747  )
        30           H2  tau(  30) = (   0.6440700   0.0315318   1.5048747  )

     number of k points=    10  Methfessel-Paxton smearing, width (Ry)=  0.0100
                       cart. coord. in units 2pi/alat
        k(    1) = (   0.0000000   0.0000000   0.0000000), wk =   0.1250000
        k(    2) = (   0.0000000   0.2487968   0.0000000), wk =   0.2500000
        k(    3) = (   0.0000000  -0.4975937   0.0000000), wk =   0.1250000
        k(    4) = (   0.2500000   0.0000000   0.0000000), wk =   0.2500000
        k(    5) = (   0.2500000   0.2487968   0.0000000), wk =   0.2500000
        k(    6) = (   0.2500000  -0.4975937   0.0000000), wk =   0.2500000
        k(    7) = (  -0.5000000   0.0000000   0.0000000), wk =   0.1250000
        k(    8) = (  -0.5000000   0.2487968   0.0000000), wk =   0.2500000
        k(    9) = (  -0.5000000  -0.4975937   0.0000000), wk =   0.1250000
        k(   10) = (  -0.2500000   0.2487968   0.0000000), wk =   0.2500000

     Largest allocated arrays     est. size (Mb)     dimensions
     Largest temporary arrays     est. size (Mb)     dimensions

     Check: negative/imaginary core charge=   -0.000003    0.000000

     Initial potential from superposition of free atoms
     Check: negative starting charge=   -1.537272

     starting charge  235.99985, renormalised to  240.00000

     negative rho (up, down):  0.156E+01 0.000E+00
     Number of +U iterations with fixed ns =  0
     Starting occupations:
 --- enter write_ns ---
 LDA+U parameters:
U( 2)     =  1.50000000
alpha( 2) =  0.00000000
atom    3   Tr[ns(na)] =   8.00000
    eigenvalues:
  0.800  0.800  0.800  0.800  0.800
    eigenvectors:
  1.000  0.000  0.000  0.000  0.000
  0.000  1.000  0.000  0.000  0.000
  0.000  0.000  1.000  0.000  0.000
  0.000  0.000  0.000  1.000  0.000
  0.000  0.000  0.000  0.000  1.000
    occupations:
  0.800  0.000  0.000  0.000  0.000
  0.000  0.800  0.000  0.000  0.000
  0.000  0.000  0.800  0.000  0.000
  0.000  0.000  0.000  0.800  0.000
  0.000  0.000  0.000  0.000  0.800
atom    4   Tr[ns(na)] =   8.00000
    eigenvalues:
  0.800  0.800  0.800  0.800  0.800
    eigenvectors:
  1.000  0.000  0.000  0.000  0.000
  0.000  1.000  0.000  0.000  0.000
  0.000  0.000  1.000  0.000  0.000
  0.000  0.000  0.000  1.000  0.000
  0.000  0.000  0.000  0.000  1.000
    occupations:
  0.800  0.000  0.000  0.000  0.000
  0.000  0.800  0.000  0.000  0.000
  0.000  0.000  0.800  0.000  0.000
  0.000  0.000  0.000  0.800  0.000
  0.000  0.000  0.000  0.000  0.800
atom    9   Tr[ns(na)] =   8.00000
    eigenvalues:
  0.800  0.800  0.800  0.800  0.800
    eigenvectors:
  1.000  0.000  0.000  0.000  0.000
  0.000  1.000  0.000  0.000  0.000
  0.000  0.000  1.000  0.000  0.000
  0.000  0.000  0.000  1.000  0.000
  0.000  0.000  0.000  0.000  1.000
    occupations:
  0.800  0.000  0.000  0.000  0.000
  0.000  0.800  0.000  0.000  0.000
  0.000  0.000  0.800  0.000  0.000
  0.000  0.000  0.000  0.800  0.000
  0.000  0.000  0.000  0.000  0.800
atom   10   Tr[ns(na)] =   8.00000
    eigenvalues:
  0.800  0.800  0.800  0.800  0.800
    eigenvectors:
  1.000  0.000  0.000  0.000  0.000
  0.000  1.000  0.000  0.000  0.000
  0.000  0.000  1.000  0.000  0.000
  0.000  0.000  0.000  1.000  0.000
  0.000  0.000  0.000  0.000  1.000
    occupations:
  0.800  0.000  0.000  0.000  0.000
  0.000  0.800  0.000  0.000  0.000
  0.000  0.000  0.800  0.000  0.000
  0.000  0.000  0.000  0.800  0.000
  0.000  0.000  0.000  0.000  0.800
atom   16   Tr[ns(na)] =   8.00000
    eigenvalues:
  0.800  0.800  0.800  0.800  0.800
    eigenvectors:
  1.000  0.000  0.000  0.000  0.000
  0.000  1.000  0.000  0.000  0.000
  0.000  0.000  1.000  0.000  0.000
  0.000  0.000  0.000  1.000  0.000
  0.000  0.000  0.000  0.000  1.000
    occupations:
  0.800  0.000  0.000  0.000  0.000
  0.000  0.800  0.000  0.000  0.000
  0.000  0.000  0.800  0.000  0.000
  0.000  0.000  0.000  0.800  0.000
  0.000  0.000  0.000  0.000  0.800
atom   17   Tr[ns(na)] =   8.00000
    eigenvalues:
  0.800  0.800  0.800  0.800  0.800
    eigenvectors:
  1.000  0.000  0.000  0.000  0.000
  0.000  1.000  0.000  0.000  0.000
  0.000  0.000  1.000  0.000  0.000
  0.000  0.000  0.000  1.000  0.000
  0.000  0.000  0.000  0.000  1.000
    occupations:
  0.800  0.000  0.000  0.000  0.000
  0.000  0.800  0.000  0.000  0.000
  0.000  0.000  0.800  0.000  0.000
  0.000  0.000  0.000  0.800  0.000
  0.000  0.000  0.000  0.000  0.800
atom   22   Tr[ns(na)] =   8.00000
    eigenvalues:
  0.800  0.800  0.800  0.800  0.800
    eigenvectors:
  1.000  0.000  0.000  0.000  0.000
  0.000  1.000  0.000  0.000  0.000
  0.000  0.000  1.000  0.000  0.000
  0.000  0.000  0.000  1.000  0.000
  0.000  0.000  0.000  0.000  1.000
    occupations:
[...]
atom    9   Tr[ns(na)] =   8.63265
    eigenvalues:
  0.708  0.716  0.953  0.954  0.984
    eigenvectors:
  0.000  0.144  0.000  0.000  0.856
  0.997  0.003  0.000  0.000  0.000
  0.000  0.000  0.000  1.000  0.000
  0.002  0.853  0.000  0.000  0.144
  0.000  0.000  1.000  0.000  0.000
    occupations:
  0.945  0.000 -0.000 -0.094  0.000
  0.000  0.708  0.000  0.000 -0.000
 -0.000  0.000  0.954 -0.001 -0.000
 -0.094  0.000 -0.001  0.755  0.000
  0.000 -0.000 -0.000  0.000  0.953
atom   10   Tr[ns(na)] =   8.71022
    eigenvalues:
  0.656  0.773  0.961  0.981  0.983
    eigenvectors:
  0.000  0.984  0.000  0.000  0.016
  0.000  0.000  1.000  0.000  0.000
  0.000  0.000  0.000  0.999  0.001
  0.000  0.016  0.000  0.001  0.983
  1.000  0.000  0.000  0.000  0.000
    occupations:
  0.776  0.000  0.002  0.027  0.000
  0.000  0.961 -0.000  0.000 -0.001
  0.002 -0.000  0.981 -0.000 -0.000
  0.027  0.000 -0.000  0.980 -0.000
  0.000 -0.001 -0.000 -0.000  0.656
atom   16   Tr[ns(na)] =   8.68711
    eigenvalues:
  0.692  0.700  0.980  0.984  0.988
    eigenvectors:
  0.180  0.000  0.756  0.000  0.064
  0.000  1.000  0.000  0.000  0.000
  0.002  0.000  0.090  0.000  0.907
  0.817  0.000  0.154  0.000  0.029
  0.000  0.000  0.000  1.000  0.000
    occupations:
  0.928 -0.000  0.004 -0.111  0.000
 -0.000  0.700  0.000  0.000 -0.001
  0.004  0.000  0.986  0.014 -0.000
 -0.111  0.000  0.014  0.745  0.000
  0.000 -0.001 -0.000  0.000  0.984
atom   17   Tr[ns(na)] =   8.66266
    eigenvalues:
  0.683  0.704  0.978  0.982  0.984
    eigenvectors:
  0.000  0.987  0.007  0.002  0.004
  0.008  0.000  0.035  0.946  0.011
  0.000  0.004  0.828  0.017  0.151
  0.000  0.009  0.129  0.028  0.834
  0.992  0.000  0.000  0.007  0.000
    occupations:
  0.707 -0.005 -0.016  0.026 -0.001
 -0.005  0.980  0.001  0.000  0.026
 -0.016  0.001  0.978  0.004  0.000
  0.026  0.000  0.004  0.981  0.000
 -0.001  0.026  0.000  0.000  0.686
atom   22   Tr[ns(na)] =   8.63266
    eigenvalues:
  0.708  0.716  0.953  0.954  0.984
    eigenvectors:
  0.000  0.144  0.000  0.000  0.856
  0.997  0.003  0.000  0.000  0.000
  0.000  0.000  0.001  0.999  0.000
  0.002  0.853  0.000  0.000  0.144
  0.000  0.000  0.999  0.001  0.000
    occupations:
  0.945  0.000 -0.000 -0.094  0.000
  0.000  0.708  0.000  0.000 -0.000
 -0.000  0.000  0.954 -0.001 -0.000
 -0.094  0.000 -0.001  0.755  0.000
  0.000 -0.000 -0.000  0.000  0.953
atom   23   Tr[ns(na)] =   8.70988
    eigenvalues:
  0.656  0.773  0.961  0.981  0.983
    eigenvectors:
  0.000  0.984  0.000  0.000  0.016
  0.000  0.000  1.000  0.000  0.000
  0.000  0.000  0.000  0.999  0.001
  0.000  0.016  0.000  0.001  0.983
  1.000  0.000  0.000  0.000  0.000
    occupations:
  0.776  0.000  0.002  0.027  0.000
  0.000  0.961 -0.000  0.000 -0.001
  0.002 -0.000  0.981 -0.000 -0.000
  0.027  0.000 -0.000  0.980 -0.000
  0.000 -0.001 -0.000 -0.000  0.656
N of occupied +U levels =  69.3849347
 --- exit write_ns ---

     Threshold (ethr) on eigenvalues was too large:
     Diagonalizing with lowered threshold

     Davidson diagonalization with overlap
     ethr =  2.57E-09,  avg # of iterations =  2.5

[...]

     total energy              =   -2248.38037976 Ry
     Harris-Foulkes estimate   =   -2248.38037977 Ry
     estimated scf accuracy    <       0.00000002 Ry

     iteration # 12     ecut=    40.00 Ry     beta=0.70
     Davidson diagonalization with overlap
     ethr =  6.40E-12,  avg # of iterations =  1.0

     negative rho (up, down):  0.158E+01 0.000E+00

     End of self-consistent calculation
 --- enter write_ns ---
 LDA+U parameters:
U( 2)     =  1.50000000
alpha( 2) =  0.00000000
atom    3   Tr[ns(na)] =   8.68723
    eigenvalues:
  0.692  0.700  0.980  0.984  0.988
    eigenvectors:
  0.180  0.000  0.756  0.000  0.063
  0.000  1.000  0.000  0.000  0.000
  0.002  0.000  0.090  0.000  0.908
  0.817  0.000  0.154  0.000  0.029
  0.000  0.000  0.000  1.000  0.000
    occupations:
  0.929 -0.000  0.004 -0.111  0.000
 -0.000  0.700  0.000  0.000 -0.001
  0.004  0.000  0.986  0.014 -0.000
 -0.111  0.000  0.014  0.745  0.000
  0.000 -0.001 -0.000  0.000  0.984
atom    4   Tr[ns(na)] =   8.66245
    eigenvalues:
  0.683  0.704  0.978  0.982  0.984
    eigenvectors:
  0.000  0.987  0.007  0.002  0.004
  0.008  0.000  0.035  0.946  0.011
  0.000  0.004  0.829  0.017  0.150
  0.000  0.009  0.129  0.028  0.835
  0.992  0.000  0.000  0.007  0.000
    occupations:
  0.707 -0.005 -0.017  0.026 -0.001
 -0.005  0.980  0.001  0.000  0.026
 -0.017  0.001  0.978  0.004  0.000
  0.026  0.000  0.004  0.981  0.000
 -0.001  0.026  0.000  0.000  0.686
atom    9   Tr[ns(na)] =   8.63239
    eigenvalues:
  0.708  0.716  0.953  0.954  0.984
    eigenvectors:
  0.000  0.144  0.000  0.000  0.855
  0.997  0.003  0.000  0.000  0.000
  0.000  0.000  0.001  0.999  0.000
  0.002  0.853  0.000  0.000  0.145
  0.000  0.000  0.999  0.001  0.000
    occupations:
  0.945  0.000 -0.000 -0.094  0.000
  0.000  0.708  0.000  0.000 -0.000
 -0.000  0.000  0.954 -0.001 -0.000
 -0.094  0.000 -0.001  0.755  0.000
  0.000 -0.000 -0.000  0.000  0.953
atom   10   Tr[ns(na)] =   8.71013
    eigenvalues:
  0.656  0.773  0.961  0.981  0.983
    eigenvectors:
  0.000  0.984  0.000  0.000  0.016
  0.000  0.000  1.000  0.000  0.000
  0.000  0.000  0.000  0.999  0.001
  0.000  0.016  0.000  0.001  0.983
  1.000  0.000  0.000  0.000  0.000
    occupations:
  0.776  0.000  0.002  0.027  0.000
  0.000  0.961 -0.000  0.000 -0.001
  0.002 -0.000  0.981 -0.000 -0.000
  0.027  0.000 -0.000  0.980 -0.000
  0.000 -0.001 -0.000 -0.000  0.656
atom   16   Tr[ns(na)] =   8.68723
    eigenvalues:
  0.692  0.700  0.980  0.984  0.988
    eigenvectors:
  0.180  0.000  0.756  0.000  0.063
  0.000  1.000  0.000  0.000  0.000
  0.002  0.000  0.090  0.000  0.908
  0.817  0.000  0.154  0.000  0.029
  0.000  0.000  0.000  1.000  0.000
    occupations:
  0.929 -0.000  0.004 -0.111  0.000
 -0.000  0.700  0.000  0.000 -0.001
  0.004  0.000  0.986  0.014 -0.000
 -0.111  0.000  0.014  0.745  0.000
  0.000 -0.001 -0.000  0.000  0.984
atom   17   Tr[ns(na)] =   8.66245
    eigenvalues:
  0.683  0.704  0.978  0.982  0.984
    eigenvectors:
  0.000  0.987  0.007  0.002  0.004
  0.008  0.000  0.035  0.946  0.011
  0.000  0.004  0.829  0.017  0.150
  0.000  0.009  0.129  0.028  0.835
  0.992  0.000  0.000  0.007  0.000
    occupations:
  0.707 -0.005 -0.017  0.026 -0.001
 -0.005  0.980  0.001  0.000  0.026
 -0.017  0.001  0.978  0.004  0.000
  0.026  0.000  0.004  0.981  0.000
 -0.001  0.026  0.000  0.000  0.686
atom   22   Tr[ns(na)] =   8.63239
    eigenvalues:
  0.708  0.716  0.953  0.954  0.984
    eigenvectors:
  0.000  0.144  0.000  0.000  0.855
  0.997  0.003  0.000  0.000  0.000
  0.000  0.000  0.001  0.999  0.000
  0.002  0.853  0.000  0.000  0.145
  0.000  0.000  0.999  0.001  0.000
    occupations:
  0.945  0.000 -0.000 -0.094  0.000
  0.000  0.708  0.000  0.000 -0.000
 -0.000  0.000  0.954 -0.001 -0.000
 -0.094  0.000 -0.001  0.755  0.000
  0.000 -0.000 -0.000  0.000  0.953
atom   23   Tr[ns(na)] =   8.71012
    eigenvalues:
  0.656  0.773  0.961  0.981  0.983
    eigenvectors:
  0.000  0.984  0.000  0.000  0.016
  0.000  0.000  1.000  0.000  0.000
  0.000  0.000  0.000  0.999  0.001
  0.000  0.016  0.000  0.001  0.983
  1.000  0.000  0.000  0.000  0.000
    occupations:
  0.776  0.000  0.002  0.027  0.000
  0.000  0.961 -0.000  0.000 -0.001
  0.002 -0.000  0.981 -0.000 -0.000
  0.027  0.000 -0.000  0.980 -0.000
  0.000 -0.001 -0.000 -0.000  0.656
N of occupied +U levels =  69.3843899
 --- exit write_ns ---

[...]

          k = 0.2500-0.4976 0.0000 ( 32026 PWs)   bands (ev):

[...]

          k =-0.2500 0.2488 0.0000 ( 32025 PWs)   bands (ev):

   -55.6951 -55.6559 -55.5851 -55.5827 -55.5677 -55.5636 -55.5296 -55.5249
   -55.4166 -55.4132 -55.3360 -55.3318 -55.3139 -55.3090 -55.2527 -55.2484
   -55.2478 -55.2442 -55.0681 -55.0290 -54.7204 -54.7152 -54.4954 -54.4928
   -21.9917 -21.7694 -21.1238 -20.9860 -20.6418 -20.5392 -20.4697 -20.3545
   -20.3385 -20.2944 -20.1832 -20.1586 -20.1167 -19.9855 -19.9242 -19.8779
   -19.0060 -18.8574 -10.2568 -10.0296  -9.9219  -9.8260  -9.3584  -9.3293
    -9.1742  -9.1026  -9.0138  -9.0088  -8.8995  -8.7906  -8.7309  -8.5923
    -8.5352  -8.4646  -8.3443  -8.2798  -7.9154  -7.8274  -7.8119  -7.6398
    -7.5782  -7.2414  -7.1748  -7.0898  -6.9112  -6.8398  -6.8216  -6.7350
    -6.6425  -6.6129  -6.4657  -6.4249  -6.3327  -6.2348  -6.1133  -6.0902
    -5.8681  -5.7176  -5.6849  -5.5522  -5.5386  -5.3093  -5.2879  -5.1559
    -5.0069  -4.9492  -4.8026  -4.7186  -4.4829  -4.4770  -4.4065  -4.3037
    -4.1122  -4.1072  -3.9679  -3.8548  -3.7545  -3.7343  -3.7043  -3.5254
    -3.4555  -3.4359  -3.3998  -3.1478  -3.0804  -3.0144  -2.6864  -2.5309
    -2.4777  -2.4276  -2.2556  -2.2296  -2.1772  -2.0686  -1.7384  -1.6497
    -1.6221  -1.2833  -0.9967  -0.6465  -0.2705  -0.2176  -0.0335   0.3420
     0.5861   0.7640   0.9266   0.9875   1.2649   1.2914   1.4440   1.6469
     3.0712   3.6647   4.5694   4.9810   5.0607   5.1076   5.2171   5.4271
     5.6920   5.9532   6.0504   6.2365   6.4176   6.4979   6.5981   6.6406
     6.7660   6.8299   7.0261   7.0794   7.2698   7.3956   7.4226   7.5244
     7.5813   7.7381   7.8215   7.9676   8.0745   8.1627   8.2543   8.2991
     8.3395   8.4538   8.5501   8.6447   8.7625   8.8612   9.0296   9.1295
     9.3010   9.3458   9.4480   9.5524   9.6624   9.7519   9.8833   9.9569
    10.1016  10.1562  10.2114  10.2164  10.4255  10.5064  10.5346  10.6414
    10.6688  10.8218  10.8277  10.9738  11.1450  11.2493  11.3493  11.3829
    11.4154  11.5309  11.6387  11.7464  11.7850  11.8226  11.8718  11.9342
    11.9788  12.1499  12.1838  12.2087  12.3295  12.3306  12.4301  12.5160
    12.5658  12.6129  12.7212  12.7841  12.8764  12.8833  13.0205  13.0762
    13.1440  13.2365  13.4108  13.4940  13.5893  13.6275  13.6997  13.7988
    13.8259  13.8830  14.0048  14.0224  14.1232  14.2605  14.3573  14.3945
    14.4656  14.5963  14.6701  14.7128  14.8194  14.9255  14.9976  15.1512
    15.2042  15.2184  15.3406  15.3590  15.4481  15.5161  15.5521  15.6292
    15.6299  15.6731  15.7541  15.8158  15.8493  15.9307  16.0155  16.0398
    16.1628  16.1711  16.2220  16.2964  16.3850  16.4883  16.5416  16.5532
    16.6088  16.7282  16.7633  16.7715  16.7947  16.8052  16.8151  16.8868
    16.9262  17.0390  17.0695  17.1249  17.1386  17.1683  17.2281  17.2433
    17.3275  17.3677  17.4258  17.4595  17.4767  17.5351  17.5635  17.6159
    17.6905  17.7576  17.7820  17.8983  18.0225  18.0757  18.1076  18.1902
    18.2003  18.3411  18.3789  18.3832  18.5217  18.5635  18.6821  18.6953
    18.7210  18.8891  18.9289  19.0174  19.0248  19.1020  19.1410  19.2634
    19.3185  19.3783  19.4062  19.5497  19.6001  19.7504  19.8041  19.8355
    19.9005  19.9444  19.9762  20.0294  20.0487  20.0726  20.2424  20.2664
    20.3234  20.3289  20.4979  20.5052  20.6211  20.6968  20.7590  20.8011
    20.8021  20.9384  20.9475  21.0059  21.0314  21.2116  21.2510  21.2589
    21.3502  21.4342  21.4418  21.5294  21.5781  21.6205  21.6468  21.7607

     the Fermi energy is    -1.5937 ev

!    total energy              =   -2248.38037976 Ry
     Harris-Foulkes estimate   =   -2248.38037977 Ry
     estimated scf accuracy    <          3.6E-09 Ry

     The total energy is the sum of the following terms:

     one-electron contribution =  -22786.95661435 Ry
     hartree contribution      =   11433.54927572 Ry
     xc contribution           =    -565.09645876 Ry
     ewald contribution        =    9669.69716059 Ry
     Hubbard energy            =       0.42708970 Ry
     smearing contrib. (-TS)   =      -0.00083266 Ry

     convergence has been achieved in  12 iterations

     Forces acting on atoms (Ry/au):

     negative rho (up, down):  0.158E+01 0.000E+00
     atom    1 type  1   force =    -0.00807495   -0.00521251   -0.00016746
     atom    2 type  1   force =     0.00010490    0.00462048    0.00028148
     atom    3 type  2   force =    -0.00047989    0.00224126    0.00024154
     atom    4 type  2   force =     0.01064314    0.00198332   -0.00022454
     atom    5 type  1   force =     0.00103121   -0.00242630   -0.00064619
     atom    6 type  1   force =     0.00001820    0.00115736    0.00053482
     atom    7 type  1   force =     0.00004202    0.00456790   -0.00032849
     atom    8 type  1   force =    -0.00398850   -0.00740154   -0.00050647
     atom    9 type  2   force =     0.00179983    0.00095573   -0.00007933
     atom   10 type  2   force =    -0.00003628   -0.00190787    0.00081150
     atom   11 type  1   force =    -0.00000339   -0.00692318   -0.00032031
     atom   12 type  1   force =     0.00007801    0.00808536   -0.00028133
     atom   13 type  1   force =    -0.00112072   -0.00031792   -0.00006585
     atom   14 type  1   force =    -0.00806662   -0.00521133   -0.00016356
     atom   15 type  1   force =     0.00010471    0.00462329    0.00028492
     atom   16 type  2   force =    -0.00048240    0.00224130    0.00024153
     atom   17 type  2   force =     0.01064199    0.00198282   -0.00023491
     atom   18 type  1   force =     0.00103311   -0.00242628   -0.00064625
     atom   19 type  1   force =     0.00002017    0.00115740    0.00053479
     atom   20 type  1   force =     0.00004178    0.00456789   -0.00030505
     atom   21 type  1   force =    -0.00398934   -0.00740254   -0.00049495
     atom   22 type  2   force =     0.00181208    0.00095573   -0.00007921
     atom   23 type  2   force =    -0.00003763   -0.00190714    0.00079741
     atom   24 type  1   force =    -0.00000691   -0.00692333   -0.00031995
     atom   25 type  1   force =     0.00007469    0.00808550   -0.00028104
     atom   26 type  1   force =    -0.00112178   -0.00031791   -0.00004137
     atom   27 type  3   force =     0.00001498    0.00015433    0.00070870
     atom   28 type  3   force =     0.00001501    0.00015112    0.00070978
     atom   29 type  3   force =    -0.00002957    0.00042450    0.00001949
     atom   30 type  3   force =    -0.00003784    0.00042255    0.00002029

     Total force =     0.002375     Total SCF correction =     0.000101

     bfgs converged in   5 scf cycles and   4 bfgs steps
     (criteria: energy < 0.10E-03, force < 0.10E-02)

     End of BFGS Geometry Optimization

     Final energy   =   -2248.3803797633 Ry
Begin final coordinates

ATOMIC_POSITIONS (crystal)
O0       0.000000000   0.000000000   0.376931648    0   0   1
O0       0.000000000   0.500000000   0.399341816    0   0   1
Pt1      0.250000000   0.500000000   0.449036784    0   0   1
Pt1      0.000000000   0.000000000   0.451967234    0   0   1
O0       0.250000000   0.810000000   0.442552089    0   0   1
O0       0.250000000   0.190000000   0.459085801    0   0   1
O0       0.000000000   0.500000000   0.495497728    0   0   1
O0       0.000000000   0.000000000   0.529415549    0   0   1
Pt1      0.250000000   0.000000000   0.576038006    0   0   1
Pt1      0.000000000   0.500000000   0.573853805    0   0   1
O0       0.250000000   0.690000000   0.583214220    0   0   1
O0       0.250000000   0.310000000   0.583766741    0   0   1
O0       0.000000000   0.000000000   0.621529756    0   0   1
O0       0.500000000   0.000000000   0.376930929    0   0   1
O0       0.500000000   0.500000000   0.399341198    0   0   1
Pt1      0.750000000   0.500000000   0.449036776    0   0   1
Pt1      0.500000000   0.000000000   0.451966945    0   0   1
O0       0.750000000   0.810000000   0.442552050    0   0   1
O0       0.750000000   0.190000000   0.459085782    0   0   1
O0       0.500000000   0.500000000   0.495496873    0   0   1
O0       0.500000000   0.000000000   0.529414495    0   0   1
Pt1      0.750000000   0.000000000   0.576038006    0   0   1
Pt1      0.500000000   0.500000000   0.573854200    0   0   1
O0       0.750000000   0.690000000   0.583214219    0   0   1
O0       0.750000000   0.310000000   0.583766761    0   0   1
O0       0.500000000   0.000000000   0.621528342    0   0   1
H2      -0.000042044   0.640065305   0.383711138
H2       0.499957979   0.640066447   0.383710903
H2       0.143984461   0.031704553   0.366990226
H2       0.643985682   0.031704806   0.366989978
End final coordinates

     General routines

     Parallel routines
     Hubbard U routines

   This run was terminated on:  10:29:23   6May2014

   JOB DONE.
Running PBS batch system epilogue script
Job id: 340794.audhumbla.fysik.dtu.dk
Username: zhonxu
Groupname: campgst
Jobname: PtO2/Eads-2-layers/bare-U-1.5
Sessionid: 5210
Queuename: verylong
Accounting:
This job has allocated the following 16 nodes:
a092 a092 a092 a092 a092 a092 a092 a092 a090 a090 a090 a090 a090 a090 a090 a090
Finished epilogue job 340794.audhumbla.fysik.dtu.dk for zhonxu