     Program PWSCF v.5.0.2 (svn rev. 9656) starts on 25May2014 at  6:40:39

     Current dimensions of program PWSCF are:
     Max number of different atomic species (ntypx) = 10
     Max number of k-points (npk) =  40000
     Max angular momentum in pseudopotentials (lmaxx) =  3
     Reading input from pwscf.in
Warning: card &CELL ignored
Warning: card / ignored

     Subspace diagonalization in iterative solution of the eigenvalue problem:
     a serial algorithm will be used

     bravais-lattice index     =            0
     lattice parameter (alat)  =      10.9604  a.u.
     unit-cell volume          =    6350.6732 (a.u.)^3
     number of atoms/cell      =           32
     number of atomic types    =            3
     number of electrons       =       231.00 (up: 123.00, down: 108.00)
     number of Kohn-Sham states=          334
     kinetic-energy cutoff     =      40.0000  Ry
     charge density cutoff     =     500.0000  Ry
     convergence threshold     =      1.0E-06
     mixing beta               =       0.7000
     number of iterations used =            8  plain     mixing
     Exchange-correlation      = SLA  PW   PBE  PBE ( 1 4 3 4 0)
     EXX-fraction              =        0.00
     nstep                     =           50

     celldm(1)=  10.960412  celldm(2)=   0.000000  celldm(3)=   0.000000
     celldm(4)=   0.000000  celldm(5)=   0.000000  celldm(6)=   0.000000

     crystal axes: (cart. coord. in units of alat)
               a(1) = (   1.000000   0.000000   0.000000 )
               a(2) = (   0.000000   1.067975   0.000000 )
               a(3) = (   0.000000   0.000000   4.516251 )

     reciprocal axes: (cart. coord. in units 2 pi/alat)
               b(1) = (  1.000000  0.000000  0.000000 )
               b(2) = (  0.000000  0.936351  0.000000 )
               b(3) = (  0.000000  0.000000  0.221423 )

     PseudoPot. # 1 for O  read from file:
     /home/camp/zhonxu/pseudo/o_pbe_v1.01.uspp.F.UPF
     MD5 check sum: 2bcb18d16ea4b960afae9ec6d52f22d2
     Pseudo is Ultrasoft + core correction, Zval =  6.0
     Generated by new atomic code, or converted to UPF format
     Using radial grid of  737 points,  5 beta functions with:
                l(1) =   0
                l(2) =   0
                l(3) =   1
                l(4) =   1
                l(5) =   2
     Q(r) pseudized with  8 coefficients,  rinner =    0.900   0.900   0.900
                                                       0.900   0.900

     PseudoPot. # 2 for Cr read from file:
     /home/camp/zhonxu/pseudo/cr_pbe_v1.uspp.F.UPF
     MD5 check sum: 68b6f918d1762dccfb11451fe85b0e0e
     Pseudo is Ultrasoft + core correction, Zval = 14.0
     Generated by new atomic code, or converted to UPF format
     Using radial grid of  857 points,  6 beta functions with:
                l(1) =   0
                l(2) =   0
                l(3) =   1
                l(4) =   1
                l(5) =   2
                l(6) =   2
     Q(r) pseudized with  6 coefficients,  rinner =    1.000   1.000   1.000
                                                       1.000   1.000

     PseudoPot. # 3 for H  read from file:
     /home/camp/zhonxu/pseudo/h_pbe_v1.uspp.F.UPF
     MD5 check sum: 3408e3ff4ec8b0a4e358431e7e038a48
     Pseudo is Ultrasoft, Zval =  1.0
     Generated by new atomic code, or converted to UPF format
     Using radial grid of  615 points,  2 beta functions with:
                l(1) =   0
                l(2) =   0
     Q(r) pseudized with  8 coefficients,  rinner =    0.700

     atomic species   valence    mass     pseudopotential
        O0             6.00    15.99940     O ( 1.00)
        Cr1           14.00    51.99600     Cr( 1.00)
        H2             1.00     1.00794     H ( 1.00)

     Starting magnetic structure
     atomic species   magnetization
        O0           0.000
        Cr1          0.600
        H2           0.000

     Simplified LDA+U calculation (l_max = 2) with parameters (eV):
     atomic species    L          U    alpha       J0     beta
        Cr1            2     7.0000   0.0000   0.0000   0.0000

     No symmetry found

   Cartesian axes

     site n.     atom                  positions (alat units)
         1           O0  tau(   1) = (   0.0000000   0.0000000   1.6860068  )
         2           O0  tau(   2) = (   0.0000000   0.5339875   1.7815707  )
         3           Cr1 tau(   3) = (   0.2500000   0.5339875   2.0203900  )
         4           Cr1 tau(   4) = (   0.0000000   0.0000000   2.0268483  )
         5           O0  tau(   5) = (   0.2500000   0.8543801   2.0236869  )
         6           O0  tau(   6) = (   0.2500000   0.2135950   2.0236417  )
         7           O0  tau(   7) = (   0.0000000   0.5339875   2.2422283  )
         8           O0  tau(   8) = (   0.0000000   0.0000000   2.3717995  )
         9           Cr1 tau(   9) = (   0.2500000   0.0000000   2.6061929  )
        10           Cr1 tau(  10) = (   0.0000000   0.5339875   2.5608046  )
        11           O0  tau(  11) = (   0.2500000   0.7475825   2.6081801  )
        12           O0  tau(  12) = (   0.2500000   0.3203925   2.6085414  )
        13           O0  tau(  13) = (   0.0000000   0.0000000   2.8253214  )
        14           O0  tau(  14) = (   0.5000000   0.0000000   1.6856455  )
        15           O0  tau(  15) = (   0.5000000   0.5339875   1.7826094  )
        16           Cr1 tau(  16) = (   0.7500000   0.5339875   2.0203900  )
        17           Cr1 tau(  17) = (   0.5000000   0.0000000   2.0268483  )
        18           O0  tau(  18) = (   0.7500000   0.8543801   2.0234611  )
        19           O0  tau(  19) = (   0.7500000   0.2135950   2.0235966  )
        20           O0  tau(  20) = (   0.5000000   0.5339875   2.2574029  )
        21           O0  tau(  21) = (   0.5000000   0.0000000   2.3726576  )
        22           Cr1 tau(  22) = (   0.7500000   0.0000000   2.6066446  )
        23           Cr1 tau(  23) = (   0.5000000   0.5339875   2.6206901  )
        24           O0  tau(  24) = (   0.7500000   0.7475825   2.6029864  )
        25           O0  tau(  25) = (   0.7500000   0.3203925   2.6029412  )
        26           O0  tau(  26) = (   0.5000000   0.0000000   2.8260892  )
        27           H2  tau(  27) = (  -0.0007100   0.6796487   1.6930973  )
        28           H2  tau(  28) = (   0.4993900   0.6801720   1.6949941  )
        29           H2  tau(  29) = (   0.1588200   0.0294868   1.6291020  )
        30           H2  tau(  30) = (   0.6589000   0.0294014   1.6290117  )
        31           O0  tau(  31) = (   0.5193500   0.5334749   2.9500603  )
        32           H2  tau(  32) = (   0.3676800   0.5313603   3.0259784  )

     number of k points=    20  Methfessel-Paxton smearing, width (Ry)=  0.0100
                       cart. coord. in units 2pi/alat
        k(    1) = (   0.0000000   0.0000000   0.0000000), wk =   0.0625000
        k(    2) = (   0.0000000   0.2340879   0.0000000), wk =   0.1250000
        k(    3) = (   0.0000000  -0.4681757   0.0000000), wk =   0.0625000
        k(    4) = (   0.2500000   0.0000000   0.0000000), wk =   0.1250000
        k(    5) = (   0.2500000   0.2340879   0.0000000), wk =   0.1250000
        k(    6) = (   0.2500000  -0.4681757   0.0000000), wk =   0.1250000
        k(    7) = (  -0.5000000   0.0000000   0.0000000), wk =   0.0625000
        k(    8) = (  -0.5000000   0.2340879   0.0000000), wk =   0.1250000
        k(    9) = (  -0.5000000  -0.4681757   0.0000000), wk =   0.0625000
        k(   10) = (  -0.2500000   0.2340879   0.0000000), wk =   0.1250000
        k(   11) = (   0.0000000   0.0000000   0.0000000), wk =   0.0625000
        k(   12) = (   0.0000000   0.2340879   0.0000000), wk =   0.1250000
        k(   13) = (   0.0000000  -0.4681757   0.0000000), wk =   0.0625000
        k(   14) = (   0.2500000   0.0000000   0.0000000), wk =   0.1250000
        k(   15) = (   0.2500000   0.2340879   0.0000000), wk =   0.1250000
        k(   16) = (   0.2500000  -0.4681757   0.0000000), wk =   0.1250000
        k(   17) = (  -0.5000000   0.0000000   0.0000000), wk =   0.0625000
        k(   18) = (  -0.5000000   0.2340879   0.0000000), wk =   0.1250000
        k(   19) = (  -0.5000000  -0.4681757   0.0000000), wk =   0.0625000
        k(   20) = (  -0.2500000   0.2340879   0.0000000), wk =   0.1250000

     Largest allocated arrays     est. size (Mb)     dimensions
     Largest temporary arrays     est. size (Mb)     dimensions

     Check: negative/imaginary core charge=   -0.000012    0.000000

     Initial potential from superposition of free atoms
     Check: negative starting charge=(component1):   -0.001413
     Check: negative starting charge=(component2):   -0.000486

     starting charge  222.99983, renormalised to  231.00000

     negative rho (up, down):  0.146E-02 0.504E-03
     Number of +U iterations with fixed ns =  0
     Starting occupations:
 --- enter write_ns ---
 LDA+U parameters:
U( 2)     =  7.00000000
alpha( 2) =  0.00000000
atom    3   Tr[ns(na)] (up, down, total) =   5.00000  0.00000  5.00000
   spin  1
    eigenvalues:
  1.000  1.000  1.000  1.000  1.000
    eigenvectors:
  1.000  0.000  0.000  0.000  0.000
  0.000  1.000  0.000  0.000  0.000
  0.000  0.000  1.000  0.000  0.000
  0.000  0.000  0.000  1.000  0.000
  0.000  0.000  0.000  0.000  1.000
    occupations:
  1.000  0.000  0.000  0.000  0.000
  0.000  1.000  0.000  0.000  0.000
  0.000  0.000  1.000  0.000  0.000
  0.000  0.000  0.000  1.000  0.000
  0.000  0.000  0.000  0.000  1.000
   spin  2
    eigenvalues:
  0.000  0.000  0.000  0.000  0.000
    eigenvectors:
  1.000  0.000  0.000  0.000  0.000
  0.000  1.000  0.000  0.000  0.000
  0.000  0.000  1.000  0.000  0.000
  0.000  0.000  0.000  1.000  0.000
  0.000  0.000  0.000  0.000  1.000
    occupations:
  0.000  0.000  0.000  0.000  0.000
  0.000  0.000  0.000  0.000  0.000
  0.000  0.000  0.000  0.000  0.000
  0.000  0.000  0.000  0.000  0.000
  0.000  0.000  0.000  0.000  0.000
atomic mag. moment =     5.000000
atom    4   Tr[ns(na)] (up, down, total) =   5.00000  0.00000  5.00000
   spin  1
    eigenvalues:
  1.000  1.000  1.000  1.000  1.000
    eigenvectors:
  1.000  0.000  0.000  0.000  0.000
  0.000  1.000  0.000  0.000  0.000
  0.000  0.000  1.000  0.000  0.000
  0.000  0.000  0.000  1.000  0.000
  0.000  0.000  0.000  0.000  1.000
    occupations:
  1.000  0.000  0.000  0.000  0.000
  0.000  1.000  0.000  0.000  0.000
  0.000  0.000  1.000  0.000  0.000
  0.000  0.000  0.000  1.000  0.000
  0.000  0.000  0.000  0.000  1.000
   spin  2
    eigenvalues:
  0.000  0.000  0.000  0.000  0.000
    eigenvectors:
  1.000  0.000  0.000  0.000  0.000
  0.000  1.000  0.000  0.000  0.000
  0.000  0.000  1.000  0.000  0.000
  0.000  0.000  0.000  1.000  0.000
  0.000  0.000  0.000  0.000  1.000
    occupations:
  0.000  0.000  0.000  0.000  0.000
  0.000  0.000  0.000  0.000  0.000
  0.000  0.000  0.000  0.000  0.000
  0.000  0.000  0.000  0.000  0.000
  0.000  0.000  0.000  0.000  0.000
atomic mag. moment =     5.000000
atom    9   Tr[ns(na)] (up, down, total) =   5.00000  0.00000  5.00000
   spin  1
    eigenvalues:
  1.000  1.000  1.000  1.000  1.000
[...]
  0.000  0.000  0.990  0.010  0.000
  0.000  0.002  0.000  0.000  0.998
  1.000  0.000  0.000  0.000  0.000
    occupations:
  0.510 -0.015 -0.001  0.023  0.001
 -0.015  0.931  0.006  0.002  0.000
 -0.001  0.006  0.868 -0.000  0.001
  0.023  0.002 -0.000  0.991  0.000
  0.001  0.000  0.001  0.000  0.472
   spin  2
    eigenvalues:
  0.067  0.068  0.071  0.279  0.301
    eigenvectors:
  0.007  0.002  0.000  0.991  0.000
  0.088  0.060  0.851  0.001  0.000
  0.247  0.617  0.136  0.000  0.000
  0.657  0.322  0.013  0.008  0.000
  0.000  0.000  0.000  0.000  1.000
    occupations:
  0.277  0.007  0.001 -0.019  0.000
  0.007  0.071 -0.001  0.000 -0.000
  0.001 -0.001  0.068  0.000  0.000
 -0.019  0.000  0.000  0.069 -0.000
  0.000 -0.000  0.000 -0.000  0.301
atomic mag. moment =     2.985045
atom    9   Tr[ns(na)] (up, down, total) =   3.76440  0.83110  4.59549
   spin  1
    eigenvalues:
  0.518  0.529  0.798  0.926  0.993
    eigenvectors:
  0.000  0.213  0.000  0.000  0.787
  0.998  0.002  0.000  0.000  0.000
  0.000  0.000  0.960  0.040  0.000
  0.002  0.786  0.000  0.000  0.213
  0.000  0.000  0.040  0.960  0.000
    occupations:
  0.895  0.002 -0.000 -0.190 -0.000
  0.002  0.518  0.001 -0.001 -0.000
 -0.000  0.001  0.803 -0.000 -0.025
 -0.190 -0.001 -0.000  0.628  0.001
 -0.000 -0.000 -0.025  0.001  0.921
   spin  2
    eigenvalues:
  0.069  0.078  0.079  0.284  0.321
    eigenvectors:
  0.801  0.000  0.000  0.000  0.199
  0.000  0.000  0.000  1.000  0.000
  0.000  0.200  0.800  0.000  0.000
  0.199  0.000  0.000  0.000  0.801
  0.000  0.800  0.200  0.000  0.000
    occupations:
  0.119  0.000  0.000  0.101 -0.000
  0.000  0.284 -0.000  0.000  0.000
  0.000 -0.000  0.079  0.000  0.000
  0.101  0.000  0.000  0.271 -0.000
 -0.000  0.000  0.000 -0.000  0.078
atomic mag. moment =     2.933300
atom   10   Tr[ns(na)] (up, down, total) =   3.81190  0.71351  4.52541
   spin  1
    eigenvalues:
  0.485  0.500  0.894  0.941  0.992
    eigenvectors:
  0.000  0.996  0.000  0.000  0.004
  0.000  0.000  0.000  1.000  0.000
  0.000  0.000  0.999  0.000  0.000
  0.000  0.004  0.000  0.000  0.996
  1.000  0.000  0.000  0.000  0.000
    occupations:
  0.502 -0.003 -0.005  0.029 -0.000
 -0.003  0.941 -0.000 -0.000  0.000
 -0.005 -0.000  0.894  0.000  0.008
  0.029 -0.000  0.000  0.990  0.000
 -0.000  0.000  0.008  0.000  0.485
   spin  2
    eigenvalues:
  0.063  0.076  0.082  0.204  0.290
    eigenvectors:
  0.013  0.000  0.000  0.987  0.000
  0.000  0.000  1.000  0.000  0.000
  0.000  1.000  0.000  0.000  0.000
  0.986  0.000  0.000  0.013  0.000
  0.000  0.000  0.000  0.000  1.000
    occupations:
  0.202  0.000 -0.000 -0.016 -0.000
  0.000  0.082 -0.000 -0.000  0.000
 -0.000 -0.000  0.076 -0.000 -0.004
 -0.016 -0.000 -0.000  0.065  0.000
 -0.000  0.000 -0.004  0.000  0.290
atomic mag. moment =     3.098395
atom   16   Tr[ns(na)] (up, down, total) =   3.75954  0.78379  4.54332
   spin  1
    eigenvalues:
  0.448  0.499  0.857  0.963  0.993
    eigenvectors:
  0.000  0.251  0.001  0.000  0.748
  0.999  0.001  0.000  0.000  0.000
  0.000  0.000  0.999  0.000  0.001
  0.001  0.748  0.000  0.000  0.251
  0.000  0.000  0.000  1.000  0.000
    occupations:
  0.869 -0.001  0.001 -0.214  0.000
 -0.001  0.448 -0.000  0.003 -0.007
  0.001 -0.000  0.857 -0.005 -0.000
 -0.214  0.003 -0.005  0.623 -0.000
  0.000 -0.007 -0.000 -0.000  0.963
   spin  2
    eigenvalues:
  0.058  0.071  0.076  0.265  0.314
    eigenvectors:
  0.735  0.005  0.030  0.003  0.226
  0.000  0.001  0.000  0.990  0.008
  0.042  0.084  0.874  0.000  0.000
  0.222  0.001  0.006  0.005  0.765
  0.000  0.908  0.090  0.002  0.000
    occupations:
  0.117  0.001 -0.001  0.107  0.000
  0.001  0.265  0.000 -0.005  0.008
 -0.001  0.000  0.075  0.005 -0.002
  0.107 -0.005  0.005  0.255 -0.000
  0.000  0.008 -0.002 -0.000  0.072
atomic mag. moment =     2.975750
atom   17   Tr[ns(na)] (up, down, total) =   3.77372  0.78108  4.55480
   spin  1
    eigenvalues:
  0.469  0.505  0.875  0.933  0.992
    eigenvectors:
  0.000  0.996  0.000  0.001  0.002
  0.000  0.001  0.008  0.990  0.000
  0.000  0.000  0.992  0.008  0.000
  0.000  0.002  0.000  0.000  0.998
  1.000  0.000  0.000  0.000  0.000
    occupations:
  0.507 -0.014 -0.001  0.023  0.001
 -0.014  0.932  0.005  0.001  0.000
 -0.001  0.005  0.875 -0.000  0.001
  0.023  0.001 -0.000  0.991 -0.000
  0.001  0.000  0.001 -0.000  0.469
   spin  2
    eigenvalues:
  0.066  0.067  0.071  0.276  0.301
    eigenvectors:
  0.005  0.003  0.000  0.991  0.000
  0.118  0.023  0.858  0.001  0.000
  0.437  0.438  0.125  0.000  0.000
  0.440  0.536  0.016  0.008  0.000
  0.000  0.000  0.000  0.000  1.000
    occupations:
  0.274  0.007  0.001 -0.019  0.000
  0.007  0.070 -0.001  0.000 -0.000
  0.001 -0.001  0.067  0.000  0.000
 -0.019  0.000  0.000  0.069 -0.000
  0.000 -0.000  0.000 -0.000  0.301
atomic mag. moment =     2.992636
atom   22   Tr[ns(na)] (up, down, total) =   3.76381  0.83142  4.59523
   spin  1
    eigenvalues:
  0.518  0.530  0.797  0.926  0.994
    eigenvectors:
  0.003  0.209  0.000  0.000  0.788
  0.982  0.018  0.000  0.000  0.000
  0.000  0.000  0.963  0.037  0.000
  0.014  0.774  0.000  0.000  0.212
  0.000  0.000  0.037  0.963  0.000
    occupations:
  0.895 -0.001 -0.000 -0.190 -0.000
 -0.001  0.518  0.001  0.002 -0.000
 -0.000  0.001  0.802  0.000  0.024
 -0.190  0.002  0.000  0.628  0.000
 -0.000 -0.000  0.024  0.000  0.921
   spin  2
    eigenvalues:
  0.069  0.078  0.079  0.285  0.321
    eigenvectors:
  0.802  0.000  0.000  0.000  0.198
  0.000  0.000  0.000  1.000  0.000
  0.000  0.198  0.802  0.000  0.000
  0.198  0.000  0.000  0.000  0.802
  0.000  0.802  0.198  0.000  0.000
    occupations:
  0.119 -0.000 -0.000  0.100 -0.000
 -0.000  0.285 -0.000 -0.000  0.000
 -0.000 -0.000  0.079 -0.000 -0.000
  0.100 -0.000 -0.000  0.271 -0.000
 -0.000  0.000 -0.000 -0.000  0.078
atomic mag. moment =     2.932383
atom   23   Tr[ns(na)] (up, down, total) =   3.76766  0.77493  4.54260
   spin  1
    eigenvalues:
  0.470  0.501  0.850  0.956  0.990
    eigenvectors:
  0.000  0.996  0.000  0.000  0.003
  0.000  0.001  0.000  0.998  0.001
  0.001  0.000  0.999  0.000  0.000
  0.000  0.003  0.000  0.001  0.996
  0.999  0.000  0.001  0.000  0.000
    occupations:
  0.503  0.011 -0.002  0.028  0.000
  0.011  0.956  0.001  0.000  0.000
 -0.002  0.001  0.850  0.000 -0.009
  0.028  0.000  0.000  0.988 -0.000
  0.000  0.000 -0.009 -0.000  0.471
   spin  2
    eigenvalues:
  0.066  0.069  0.070  0.269  0.301
    eigenvectors:
  0.008  0.000  0.000  0.992  0.000
  0.000  0.380  0.619  0.000  0.000
  0.000  0.619  0.380  0.000  0.000
  0.991  0.000  0.000  0.008  0.000
  0.000  0.000  0.000  0.000  1.000
    occupations:
  0.267 -0.003  0.000 -0.018 -0.000
 -0.003  0.070 -0.000  0.000  0.000
  0.000 -0.000  0.070 -0.000  0.003
 -0.018  0.000 -0.000  0.067  0.000
 -0.000  0.000  0.003  0.000  0.301
atomic mag. moment =     2.992728
N of occupied +U levels =  36.4570626
 --- exit write_ns ---

 ------ SPIN UP ------------

[...]

 ------ SPIN DOWN ----------

[...]

          k = 0.2500-0.4682 0.0000 ( 27150 PWs)   bands (ev):

[...]

          k =-0.2500 0.2341 0.0000 ( 27132 PWs)   bands (ev):

   -72.1333 -71.9905 -71.9451 -71.9331 -71.9260 -71.9221 -71.9094 -71.8719
   -43.6661 -43.5931 -43.5740 -43.5060 -43.4541 -43.4441 -43.4170 -43.4105
   -43.3808 -43.3433 -43.3362 -43.3241 -43.3118 -43.2939 -43.2853 -43.2801
   -43.2650 -43.2382 -43.2250 -43.2096 -43.1856 -43.1611 -43.0908 -43.0503
   -21.2333 -20.9415 -20.6161 -20.5638 -20.5014 -20.3282 -20.2567 -20.2303
   -20.2134 -20.0368 -19.9811 -19.9542 -19.8829 -19.8289 -19.7131 -19.6646
   -19.6208 -19.5440 -19.4498  -8.4298  -8.3138  -8.0228  -7.9382  -7.7441
    -7.6977  -7.4431  -7.3352  -7.2175  -7.0651  -7.0053  -6.8180  -6.7965
    -6.7392  -6.6933  -6.6492  -6.5051  -6.4581  -6.1778  -6.1401  -6.0385
    -5.9267  -5.8347  -5.7585  -5.7085  -5.6536  -5.5343  -5.4217  -5.3955
    -5.3520  -5.3178  -5.2849  -5.1779  -5.1354  -5.0452  -4.9827  -4.9154
    -4.8306  -4.5818  -4.5642  -4.5090  -4.3684  -4.3474  -4.2893  -4.2227
    -4.1784  -4.1545  -4.1066  -4.0355  -3.9947  -3.9432  -3.8783  -3.8425
    -3.6846  -3.5964  -3.5819  -3.4299   2.1891   2.7552   2.7642   2.7958
     2.8411   2.8769   2.9562   2.9625   3.0025   3.0204   3.0361   3.1424
     3.1692   3.2612   3.2771   3.2875   3.3881   3.4322   3.4728   3.5538
     3.5830   3.6335   3.6553   3.7221   3.7965   3.8409   3.8466   3.9105
     3.9417   3.9791   4.0603   4.0838   4.0870   4.1114   4.1631   4.2679
     4.3174   4.3679   4.4100   4.4716   4.5490   4.6159   4.6874   4.9162
     5.4174   5.7491   5.8572   5.9984   6.2467   6.3448   6.5079   6.6391
     6.7892   6.9139   7.0537   7.3461   7.4785   7.7318   7.8087   7.9647
     8.1060   8.3368   8.4529   8.5855   8.6631   8.8248   8.8738   9.0170
     9.1411   9.2310   9.3418   9.4479   9.5266   9.6782   9.7933  10.0336
    10.1291  10.1923  10.2115  10.3406  10.3868  10.6628  10.6868  10.7678
    10.8537  11.0042  11.0536  11.1087  11.2990  11.3228  11.4447  11.5618
    11.6022  11.7366  11.7609  11.8773  11.9387  12.0318  12.1191  12.2322
    12.3040  12.3978  12.4601  12.5623  12.6913  12.7273  12.7851  12.8666
    12.9103  12.9832  13.0415  13.1151  13.1533  13.2462  13.2978  13.3551
    13.4453  13.5420  13.5740  13.6491  13.7564  13.8305  13.8835  13.9665
    14.1099  14.1522  14.2203  14.2892  14.3808  14.5202  14.5697  14.6195
    14.6636  14.7580  14.7901  14.8919  14.9629  15.0611  15.1406  15.2479
    15.2779  15.3297  15.4883  15.5667  15.6413  15.7314  15.8358  15.9645
    16.0095  16.1036  16.1521  16.2095  16.2914  16.3133  16.3852  16.4426
    16.4989  16.6538  16.7175  16.7843  16.8587  16.9352  17.0004  17.0522
    17.1337  17.1953  17.2439  17.3349  17.4085  17.4975  17.5521  17.6048
    17.7258  17.7918  17.8190  17.8629  17.9351  17.9903  18.0925  18.1729
    18.2251  18.2912  18.3456  18.4048  18.4476  18.6005  18.7135  18.7353
    18.8458  18.8783  18.9517  19.0072  19.0587  19.1846  19.2548  19.3294
    19.4332  19.4688  19.5766  19.6628  19.6963  19.7289  19.8050  19.9154
    19.9407  19.9851  20.0986  20.1579  20.2756  20.3111  20.4013  20.4822
    20.5640  20.5983  20.6640  20.8635  20.8895  20.9427  21.0326  21.0817
    21.1698  21.2346  21.3297  21.3855  21.4381  21.5129

     the spin up/dw Fermi energies are    -2.3561   -2.2969 ev

!    total energy              =   -2023.79297290 Ry
     Harris-Foulkes estimate   =   -2023.79297290 Ry
     estimated scf accuracy    <          2.8E-09 Ry

     The total energy is the sum of the following terms:

     one-electron contribution =  -23569.84864214 Ry
     hartree contribution      =   11806.17961054 Ry
     xc contribution           =    -323.50679256 Ry
     ewald contribution        =   10060.72340998 Ry
     Hubbard energy            =       2.65864068 Ry
     smearing contrib. (-TS)   =       0.00080060 Ry

     total magnetization       =    15.00 Bohr mag/cell
     absolute magnetization    =    32.48 Bohr mag/cell

     convergence has been achieved in  21 iterations

     Forces acting on atoms (Ry/au):

     negative rho (up, down):  0.574E-02 0.168E-02
     atom    1 type  1   force =    -0.00288493   -0.00974639   -0.00010261
     atom    2 type  1   force =    -0.00002572    0.00268893   -0.00000260
     atom    3 type  2   force =     0.02207498    0.00270450   -0.00018054
     atom    4 type  2   force =     0.00332176    0.00495350    0.00051006
     atom    5 type  1   force =     0.00133752    0.00677851   -0.00017308
     atom    6 type  1   force =     0.00055476   -0.00523507   -0.00015952
     atom    7 type  1   force =     0.00198457   -0.00263853   -0.00017723
     atom    8 type  1   force =     0.00047184   -0.00012912   -0.00003593
     atom    9 type  2   force =     0.00700382    0.00055462   -0.00019723
     atom   10 type  2   force =     0.00045045    0.00008559   -0.00010585
     atom   11 type  1   force =    -0.02495285   -0.03419074   -0.00016079
     atom   12 type  1   force =    -0.02465584    0.03395416   -0.00011384
     atom   13 type  1   force =    -0.00122426   -0.00005158    0.00058507
     atom   14 type  1   force =    -0.00359038   -0.01021857   -0.00008877
     atom   15 type  1   force =     0.00005051    0.00330391   -0.00015528
     atom   16 type  2   force =    -0.02149732    0.00332580   -0.00027534
     atom   17 type  2   force =     0.00367884    0.00534168    0.00055366
     atom   18 type  1   force =     0.00035327    0.00682377   -0.00024813
     atom   19 type  1   force =    -0.00050673   -0.00547686   -0.00017931
     atom   20 type  1   force =    -0.00153836   -0.00340183    0.00082833
     atom   21 type  1   force =    -0.00337919   -0.00018043    0.00018360
     atom   22 type  2   force =    -0.00173521    0.00012726    0.00024143
     atom   23 type  2   force =    -0.00056599    0.00076953   -0.00014104
     atom   24 type  1   force =     0.02197254   -0.02679711    0.00037696
     atom   25 type  1   force =     0.02246458    0.02667744    0.00037905
     atom   26 type  1   force =     0.00012774    0.00010196    0.00031481
     atom   27 type  3   force =     0.00001657   -0.00003718    0.00005742
     atom   28 type  3   force =     0.00003309    0.00002198   -0.00007231
     atom   29 type  3   force =    -0.00028702   -0.00001248   -0.00093329
     atom   30 type  3   force =    -0.00022678    0.00001047   -0.00079162
     atom   31 type  1   force =     0.00093325   -0.00000862    0.00007835
     atom   32 type  3   force =     0.00024051   -0.00009910    0.00018556

     Total force =     0.002266     Total SCF correction =     0.000106

     entering subroutine stress ...

     negative rho (up, down):  0.574E-02 0.168E-02
          total   stress  (Ry/bohr**3)                   (kbar)     P=   34.24
   0.00033865   0.00000126   0.00000206         49.82      0.18      0.30
   0.00000126   0.00038701   0.00000764          0.18     56.93      1.12
   0.00000206   0.00000764  -0.00002729          0.30      1.12     -4.01

     bfgs converged in  11 scf cycles and  10 bfgs steps
     (criteria: energy < 0.10E-03, force < 0.10E-02)

     End of BFGS Geometry Optimization

     Final energy   =   -2023.7929728969 Ry
Begin final coordinates

ATOMIC_POSITIONS (crystal)
O0       0.000000000   0.000000000   0.373247582    0   0   1
O0       0.000000000   0.500000000   0.394774441    0   0   1
Cr1      0.250000000   0.500000000   0.447616914    0   0   1
Cr1      0.000000000   0.000000000   0.448549930    0   0   1
O0       0.250000000   0.800000000   0.447939146    0   0   1
O0       0.250000000   0.200000000   0.447920178    0   0   1
O0       0.000000000   0.500000000   0.496668843    0   0   1
O0       0.000000000   0.000000000   0.524782344    0   0   1
Cr1      0.250000000   0.000000000   0.576411080    0   0   1
Cr1      0.000000000   0.500000000   0.567280514    0   0   1
O0       0.250000000   0.700000000   0.577834621    0   0   1
O0       0.250000000   0.300000000   0.577887148    0   0   1
O0       0.000000000   0.000000000   0.625144527    0   0   1
O0       0.500000000   0.000000000   0.373178871    0   0   1
O0       0.500000000   0.500000000   0.394994556    0   0   1
Cr1      0.750000000   0.500000000   0.447631060    0   0   1
Cr1      0.500000000   0.000000000   0.448588259    0   0   1
O0       0.750000000   0.800000000   0.447928815    0   0   1
O0       0.750000000   0.200000000   0.447931858    0   0   1
O0       0.500000000   0.500000000   0.500093366    0   0   1
O0       0.500000000   0.000000000   0.524976496    0   0   1
Cr1      0.750000000   0.000000000   0.576653833    0   0   1
Cr1      0.500000000   0.500000000   0.580344676    0   0   1
O0       0.750000000   0.700000000   0.576020455    0   0   1
O0       0.750000000   0.300000000   0.575972933    0   0   1
O0       0.500000000   0.000000000   0.625270087    0   0   1
H2      -0.000785536   0.636155618   0.375134954
H2       0.499262814   0.636976539   0.375651488
H2       0.159446960   0.027128873   0.361008075
H2       0.659392728   0.026863339   0.360908793
O0       0.523820344   0.499344691   0.653269884
H2       0.374625311   0.497043301   0.671114272
End final coordinates

     General routines

     Parallel routines
     Hubbard U routines

   This run was terminated on:   4:13:59  26May2014

   JOB DONE.
Running PBS batch system epilogue script
Job id: 366688.audhumbla.fysik.dtu.dk
Username: zhonxu
Groupname: campgst
Jobname: CrO2/Eads-2-layers/OH-U-7.0
Sessionid: 11465
Queuename: verylong
Accounting:
This job has allocated the following 16 nodes:
d116 d116 d116 d116 d116 d116 d116 d116 d081 d081 d081 d081 d081 d081 d081 d081
Finished epilogue job 366688.audhumbla.fysik.dtu.dk for zhonxu