     Program PWSCF v.5.0.2 (svn rev. 9656) starts on 29Apr2014 at  4:45:27

     Current dimensions of program PWSCF are:
     Max number of different atomic species (ntypx) = 10
     Max number of k-points (npk) =  40000
     Max angular momentum in pseudopotentials (lmaxx) =  3
     Reading input from pwscf.in
Warning: card &CELL ignored
Warning: card / ignored

     Subspace diagonalization in iterative solution of the eigenvalue problem:
     a serial algorithm will be used

     bravais-lattice index     =            0
     lattice parameter (alat)  =      12.0187  a.u.
     unit-cell volume          =    7280.5819 (a.u.)^3
     number of atoms/cell      =           31
     number of atomic types    =            3
     number of electrons       =       238.00
     number of Kohn-Sham states=          357
     kinetic-energy cutoff     =      40.0000  Ry
     charge density cutoff     =     500.0000  Ry
     convergence threshold     =      1.0E-06
     mixing beta               =       0.7000
     number of iterations used =            8  plain     mixing
     Exchange-correlation      = SLA  PW   PBE  PBE ( 1 4 3 4 0)
     EXX-fraction              =        0.00
     nstep                     =           50

     celldm(1)=  12.018658  celldm(2)=   0.000000  celldm(3)=   0.000000
     celldm(4)=   0.000000  celldm(5)=   0.000000  celldm(6)=   0.000000

     crystal axes: (cart. coord. in units of alat)
               a(1) = (   1.000000   0.000000   0.000000 )
               a(2) = (   0.000000   1.009517   0.000000 )
               a(3) = (   0.000000   0.000000   4.154171 )

     reciprocal axes: (cart. coord. in units 2 pi/alat)
               b(1) = (  1.000000  0.000000  0.000000 )
               b(2) = (  0.000000  0.990572  0.000000 )
               b(3) = (  0.000000  0.000000  0.240722 )

     PseudoPot. # 1 for O  read from file:
     /home/camp/zhonxu/pseudo/o_pbe_v1.01.uspp.F.UPF
     MD5 check sum: 2bcb18d16ea4b960afae9ec6d52f22d2
     Pseudo is Ultrasoft + core correction, Zval =  6.0
     Generated by new atomic code, or converted to UPF format
     Using radial grid of  737 points,  5 beta functions with:
                l(1) =   0
                l(2) =   0
                l(3) =   1
                l(4) =   1
                l(5) =   2
     Q(r) pseudized with  8 coefficients,  rinner =    0.900   0.900   0.900
                                                       0.900   0.900

     PseudoPot. # 2 for Ir read from file:
     /home/camp/zhonxu/pseudo/ir_pbe_v1.uspp.F.UPF
     MD5 check sum: abf987a9674477536ede83817f8f8b70
     Pseudo is Ultrasoft + core correction, Zval = 15.0
     Generated by new atomic code, or converted to UPF format
     Using radial grid of  983 points,  7 beta functions with:
                l(1) =   0
                l(2) =   0
                l(3) =   1
                l(4) =   1
                l(5) =   1
                l(6) =   2
                l(7) =   2
     Q(r) pseudized with  8 coefficients,  rinner =    1.350   1.350   1.350
                                                       1.350   1.350

     PseudoPot. # 3 for H  read from file:
     /home/camp/zhonxu/pseudo/h_pbe_v1.uspp.F.UPF
     MD5 check sum: 3408e3ff4ec8b0a4e358431e7e038a48
     Pseudo is Ultrasoft, Zval =  1.0
     Generated by new atomic code, or converted to UPF format
     Using radial grid of  615 points,  2 beta functions with:
                l(1) =   0
                l(2) =   0
     Q(r) pseudized with  8 coefficients,  rinner =    0.700

     atomic species   valence    mass     pseudopotential
        O0             6.00    15.99940     O ( 1.00)
        Ir1           15.00   192.22000     Ir( 1.00)
        H2             1.00     1.00794     H ( 1.00)

     Simplified LDA+U calculation (l_max = 2) with parameters (eV):
     atomic species    L          U    alpha       J0     beta
        Ir1            2     6.5000   0.0000   0.0000   0.0000

     No symmetry found

   Cartesian axes

     site n.     atom                  positions (alat units)
         1           O0  tau(   1) = (   0.0000000   0.0000000   1.5706091  )
         2           O0  tau(   2) = (   0.0000000   0.5047586   1.6747957  )
         3           Ir1 tau(   3) = (   0.2500000   0.5047586   1.8830443  )
         4           Ir1 tau(   4) = (   0.0000000   0.0000000   1.8812580  )
         5           O0  tau(   5) = (   0.2500000   0.8177090   1.8812996  )
         6           O0  tau(   6) = (   0.2500000   0.1918083   1.8799287  )
         7           O0  tau(   7) = (   0.0000000   0.5047586   2.0722253  )
         8           O0  tau(   8) = (   0.0000000   0.0000000   2.1948149  )
         9           Ir1 tau(   9) = (   0.2500000   0.0000000   2.3898532  )
        10           Ir1 tau(  10) = (   0.0000000   0.5047586   2.3761029  )
        11           O0  tau(  11) = (   0.2500000   0.6965669   2.3876930  )
        12           O0  tau(  12) = (   0.2500000   0.3129503   2.3878177  )
        13           O0  tau(  13) = (   0.0000000   0.0000000   2.5742569  )
        14           O0  tau(  14) = (   0.5000000   0.0000000   1.5702768  )
        15           O0  tau(  15) = (   0.5000000   0.5047586   1.6724694  )
        16           Ir1 tau(  16) = (   0.7500000   0.5047586   1.8830859  )
        17           Ir1 tau(  17) = (   0.5000000   0.0000000   1.8811334  )
        18           O0  tau(  18) = (   0.7500000   0.8177090   1.8813411  )
        19           O0  tau(  19) = (   0.7500000   0.1918083   1.8799702  )
        20           O0  tau(  20) = (   0.5000000   0.5047586   2.0802013  )
        21           O0  tau(  21) = (   0.5000000   0.0000000   2.1944825  )
        22           Ir1 tau(  22) = (   0.7500000   0.0000000   2.3898532  )
        23           Ir1 tau(  23) = (   0.5000000   0.5047586   2.4038943  )
        24           O0  tau(  24) = (   0.7500000   0.6965669   2.3876515  )
        25           O0  tau(  25) = (   0.7500000   0.3129503   2.3878177  )
        26           O0  tau(  26) = (   0.5000000   0.0000000   2.5734260  )
        27           H2  tau(  27) = (  -0.0000700   0.6394282   1.5957418  )
        28           H2  tau(  28) = (   0.4999700   0.6419823   1.5977358  )
        29           H2  tau(  29) = (   0.1436200   0.0342933   1.5227115  )
        30           H2  tau(  30) = (   0.6432900   0.0353230   1.5222545  )
        31           O0  tau(  31) = (   0.5000100   0.5042640   2.6822238  )

     number of k points=    10  Methfessel-Paxton smearing, width (Ry)=  0.0100
                       cart. coord. in units 2pi/alat
        k(    1) = (   0.0000000   0.0000000   0.0000000), wk =   0.1250000
        k(    2) = (   0.0000000   0.2476431   0.0000000), wk =   0.2500000
        k(    3) = (   0.0000000  -0.4952862   0.0000000), wk =   0.1250000
        k(    4) = (   0.2500000   0.0000000   0.0000000), wk =   0.2500000
        k(    5) = (   0.2500000   0.2476431   0.0000000), wk =   0.2500000
        k(    6) = (   0.2500000  -0.4952862   0.0000000), wk =   0.2500000
        k(    7) = (  -0.5000000   0.0000000   0.0000000), wk =   0.1250000
        k(    8) = (  -0.5000000   0.2476431   0.0000000), wk =   0.2500000
        k(    9) = (  -0.5000000  -0.4952862   0.0000000), wk =   0.1250000
        k(   10) = (  -0.2500000   0.2476431   0.0000000), wk =   0.2500000

     Largest allocated arrays     est. size (Mb)     dimensions
     Largest temporary arrays     est. size (Mb)     dimensions

     Check: negative/imaginary core charge=   -0.000003    0.000000

     Initial potential from superposition of free atoms
     Check: negative starting charge=   -3.336659

     starting charge  233.99968, renormalised to  238.00000

     negative rho (up, down):  0.339E+01 0.000E+00
     Number of +U iterations with fixed ns =  0
     Starting occupations:
 --- enter write_ns ---
 LDA+U parameters:
U( 2)     =  6.50000000
alpha( 2) =  0.00000000
atom    3   Tr[ns(na)] =   7.00000
    eigenvalues:
  0.700  0.700  0.700  0.700  0.700
    eigenvectors:
  1.000  0.000  0.000  0.000  0.000
  0.000  1.000  0.000  0.000  0.000
  0.000  0.000  1.000  0.000  0.000
  0.000  0.000  0.000  1.000  0.000
  0.000  0.000  0.000  0.000  1.000
    occupations:
  0.700  0.000  0.000  0.000  0.000
  0.000  0.700  0.000  0.000  0.000
  0.000  0.000  0.700  0.000  0.000
  0.000  0.000  0.000  0.700  0.000
  0.000  0.000  0.000  0.000  0.700
atom    4   Tr[ns(na)] =   7.00000
    eigenvalues:
  0.700  0.700  0.700  0.700  0.700
    eigenvectors:
  1.000  0.000  0.000  0.000  0.000
  0.000  1.000  0.000  0.000  0.000
  0.000  0.000  1.000  0.000  0.000
  0.000  0.000  0.000  1.000  0.000
  0.000  0.000  0.000  0.000  1.000
    occupations:
  0.700  0.000  0.000  0.000  0.000
  0.000  0.700  0.000  0.000  0.000
  0.000  0.000  0.700  0.000  0.000
  0.000  0.000  0.000  0.700  0.000
  0.000  0.000  0.000  0.000  0.700
atom    9   Tr[ns(na)] =   7.00000
    eigenvalues:
  0.700  0.700  0.700  0.700  0.700
    eigenvectors:
  1.000  0.000  0.000  0.000  0.000
  0.000  1.000  0.000  0.000  0.000
  0.000  0.000  1.000  0.000  0.000
  0.000  0.000  0.000  1.000  0.000
  0.000  0.000  0.000  0.000  1.000
    occupations:
  0.700  0.000  0.000  0.000  0.000
  0.000  0.700  0.000  0.000  0.000
  0.000  0.000  0.700  0.000  0.000
  0.000  0.000  0.000  0.700  0.000
  0.000  0.000  0.000  0.000  0.700
atom   10   Tr[ns(na)] =   7.00000
    eigenvalues:
  0.700  0.700  0.700  0.700  0.700
    eigenvectors:
  1.000  0.000  0.000  0.000  0.000
  0.000  1.000  0.000  0.000  0.000
  0.000  0.000  1.000  0.000  0.000
  0.000  0.000  0.000  1.000  0.000
  0.000  0.000  0.000  0.000  1.000
    occupations:
  0.700  0.000  0.000  0.000  0.000
  0.000  0.700  0.000  0.000  0.000
  0.000  0.000  0.700  0.000  0.000
  0.000  0.000  0.000  0.700  0.000
  0.000  0.000  0.000  0.000  0.700
atom   16   Tr[ns(na)] =   7.00000
    eigenvalues:
  0.700  0.700  0.700  0.700  0.700
    eigenvectors:
  1.000  0.000  0.000  0.000  0.000
  0.000  1.000  0.000  0.000  0.000
  0.000  0.000  1.000  0.000  0.000
  0.000  0.000  0.000  1.000  0.000
  0.000  0.000  0.000  0.000  1.000
    occupations:
  0.700  0.000  0.000  0.000  0.000
  0.000  0.700  0.000  0.000  0.000
  0.000  0.000  0.700  0.000  0.000
  0.000  0.000  0.000  0.700  0.000
  0.000  0.000  0.000  0.000  0.700
atom   17   Tr[ns(na)] =   7.00000
    eigenvalues:
  0.700  0.700  0.700  0.700  0.700
    eigenvectors:
  1.000  0.000  0.000  0.000  0.000
  0.000  1.000  0.000  0.000  0.000
  0.000  0.000  1.000  0.000  0.000
  0.000  0.000  0.000  1.000  0.000
  0.000  0.000  0.000  0.000  1.000
    occupations:
  0.700  0.000  0.000  0.000  0.000
  0.000  0.700  0.000  0.000  0.000
  0.000  0.000  0.700  0.000  0.000
  0.000  0.000  0.000  0.700  0.000
  0.000  0.000  0.000  0.000  0.700
atom   22   Tr[ns(na)] =   7.00000
    eigenvalues:
  0.700  0.700  0.700  0.700  0.700
    eigenvectors:
  1.000  0.000  0.000  0.000  0.000
  0.000  1.000  0.000  0.000  0.000
  0.000  0.000  1.000  0.000  0.000
  0.000  0.000  0.000  1.000  0.000
  0.000  0.000  0.000  0.000  1.000
    occupations:
  0.700  0.000  0.000  0.000  0.000
[...]
  0.999  0.000  0.000  0.000  0.000
    occupations:
  0.676 -0.003 -0.000  0.033  0.001
 -0.003  0.938  0.012  0.000 -0.002
 -0.000  0.012  0.891 -0.000  0.000
  0.033  0.000 -0.000  0.983  0.000
  0.001 -0.002  0.000  0.000  0.621
atom    9   Tr[ns(na)] =   8.21366
    eigenvalues:
  0.654  0.668  0.883  0.917  0.985
    eigenvectors:
  0.000  0.139  0.000  0.000  0.861
  0.999  0.001  0.000  0.000  0.000
  0.000  0.000  0.960  0.040  0.000
  0.001  0.860  0.000  0.000  0.139
  0.000  0.000  0.040  0.960  0.000
    occupations:
  0.941  0.001 -0.000 -0.110 -0.000
  0.001  0.654  0.001  0.000 -0.000
 -0.000  0.001  0.884 -0.000 -0.007
 -0.110  0.000 -0.000  0.712  0.001
 -0.000 -0.000 -0.007  0.001  0.915
atom   10   Tr[ns(na)] =   8.16280
    eigenvalues:
  0.571  0.609  0.954  0.961  0.986
    eigenvectors:
  0.991  0.000  0.000  0.000  0.009
  0.000  0.000  1.000  0.000  0.000
  0.000  0.000  0.000  1.000  0.000
  0.009  0.000  0.000  0.000  0.991
  0.000  1.000  0.000  0.000  0.000
    occupations:
  0.575  0.000  0.001  0.040 -0.000
  0.000  0.954 -0.000  0.000 -0.000
  0.001 -0.000  0.961  0.000  0.000
  0.040  0.000  0.000  0.982 -0.000
 -0.000 -0.000  0.000 -0.000  0.609
atom   16   Tr[ns(na)] =   8.21904
    eigenvalues:
  0.603  0.632  0.916  0.973  0.985
    eigenvectors:
  0.000  0.184  0.003  0.001  0.812
  0.999  0.001  0.000  0.000  0.000
  0.000  0.000  0.991  0.006  0.003
  0.000  0.815  0.000  0.000  0.184
  0.000  0.000  0.005  0.993  0.001
    occupations:
  0.920  0.003  0.003 -0.137  0.001
  0.003  0.603  0.000 -0.001 -0.005
  0.003  0.000  0.917 -0.004 -0.004
 -0.137 -0.001 -0.004  0.697 -0.000
  0.001 -0.005 -0.004 -0.000  0.973
atom   17   Tr[ns(na)] =   8.21679
    eigenvalues:
  0.620  0.672  0.894  0.936  0.987
    eigenvectors:
  0.001  0.989  0.000  0.000  0.011
  0.000  0.000  0.100  0.899  0.000
  0.000  0.000  0.900  0.100  0.000
  0.000  0.011  0.000  0.000  0.989
  0.999  0.001  0.000  0.000  0.000
    occupations:
  0.675 -0.003 -0.001  0.032  0.001
 -0.003  0.932  0.013  0.000 -0.002
 -0.001  0.013  0.898 -0.000  0.000
  0.032  0.000 -0.000  0.983  0.000
  0.001 -0.002  0.000  0.000  0.620
atom   22   Tr[ns(na)] =   8.21364
    eigenvalues:
  0.654  0.668  0.883  0.917  0.985
    eigenvectors:
  0.000  0.139  0.000  0.000  0.861
  1.000  0.000  0.000  0.000  0.000
  0.000  0.000  0.963  0.037  0.000
  0.000  0.861  0.000  0.000  0.139
  0.000  0.000  0.037  0.963  0.000
    occupations:
  0.941 -0.000 -0.000 -0.110 -0.000
 -0.000  0.654  0.001  0.000 -0.000
 -0.000  0.001  0.884 -0.000  0.006
 -0.110  0.000 -0.000  0.712  0.000
 -0.000 -0.000  0.006  0.000  0.915
atom   23   Tr[ns(na)] =   8.18632
    eigenvalues:
  0.659  0.725  0.835  0.886  0.988
    eigenvectors:
  0.000  0.990  0.000  0.000  0.010
  0.000  0.000  0.000  1.000  0.000
  0.000  0.000  1.000  0.000  0.000
  0.000  0.010  0.000  0.000  0.990
  1.000  0.000  0.000  0.000  0.000
    occupations:
  0.728  0.000 -0.000  0.026 -0.000
  0.000  0.886  0.000  0.000 -0.000
 -0.000  0.000  0.835  0.000  0.000
  0.026  0.000  0.000  0.986  0.000
 -0.000 -0.000  0.000  0.000  0.659
N of occupied +U levels =  65.6488495
 --- exit write_ns ---

     Threshold (ethr) on eigenvalues was too large:
     Diagonalizing with lowered threshold

     Davidson diagonalization with overlap
     ethr =  1.30E-08,  avg # of iterations =  2.0

[...]

     total energy              =   -2103.65352522 Ry
     Harris-Foulkes estimate   =   -2103.65352522 Ry
     estimated scf accuracy    <       0.00000011 Ry

     iteration # 14     ecut=    40.00 Ry     beta=0.70
     Davidson diagonalization with overlap
     ethr =  1.08E-11,  avg # of iterations =  1.0

     negative rho (up, down):  0.314E+01 0.000E+00

     End of self-consistent calculation
 --- enter write_ns ---
 LDA+U parameters:
U( 2)     =  6.50000000
alpha( 2) =  0.00000000
atom    3   Tr[ns(na)] =   8.21875
    eigenvalues:
  0.603  0.631  0.916  0.973  0.985
    eigenvectors:
  0.000  0.184  0.003  0.000  0.812
  0.999  0.001  0.000  0.000  0.000
  0.000  0.000  0.988  0.009  0.003
  0.000  0.815  0.000  0.000  0.184
  0.000  0.000  0.008  0.991  0.001
    occupations:
  0.920 -0.003  0.002 -0.137 -0.001
 -0.003  0.603 -0.001  0.000 -0.005
  0.002 -0.001  0.917 -0.004  0.005
 -0.137  0.000 -0.004  0.697 -0.000
 -0.001 -0.005  0.005 -0.000  0.973
atom    4   Tr[ns(na)] =   8.21691
    eigenvalues:
  0.621  0.672  0.888  0.941  0.986
    eigenvectors:
  0.000  0.988  0.000  0.000  0.011
  0.000  0.000  0.053  0.946  0.000
  0.000  0.000  0.947  0.053  0.000
  0.000  0.011  0.000  0.000  0.989
  0.999  0.000  0.000  0.000  0.000
    occupations:
  0.676 -0.003 -0.000  0.033  0.001
 -0.003  0.938  0.012  0.000 -0.002
 -0.000  0.012  0.891 -0.000  0.000
  0.033  0.000 -0.000  0.983  0.000
  0.001 -0.002  0.000  0.000  0.621
atom    9   Tr[ns(na)] =   8.21366
    eigenvalues:
  0.654  0.668  0.883  0.917  0.985
    eigenvectors:
  0.000  0.139  0.000  0.000  0.861
  0.999  0.001  0.000  0.000  0.000
  0.000  0.000  0.960  0.040  0.000
  0.001  0.860  0.000  0.000  0.139
  0.000  0.000  0.040  0.960  0.000
    occupations:
  0.941  0.001 -0.000 -0.110 -0.000
  0.001  0.654  0.001  0.000 -0.000
 -0.000  0.001  0.884 -0.000 -0.007
 -0.110  0.000 -0.000  0.712  0.001
 -0.000 -0.000 -0.007  0.001  0.915
atom   10   Tr[ns(na)] =   8.16318
    eigenvalues:
  0.571  0.609  0.954  0.961  0.986
    eigenvectors:
  0.991  0.000  0.000  0.000  0.009
  0.000  0.000  1.000  0.000  0.000
  0.000  0.000  0.000  1.000  0.000
  0.009  0.000  0.000  0.000  0.991
  0.000  1.000  0.000  0.000  0.000
    occupations:
  0.575  0.000  0.001  0.040 -0.000
  0.000  0.954 -0.000  0.000 -0.000
  0.001 -0.000  0.961  0.000  0.000
  0.040  0.000  0.000  0.982 -0.000
 -0.000 -0.000  0.000 -0.000  0.609
atom   16   Tr[ns(na)] =   8.21873
    eigenvalues:
  0.603  0.632  0.916  0.973  0.985
    eigenvectors:
  0.000  0.184  0.003  0.001  0.812
  0.999  0.001  0.000  0.000  0.000
  0.000  0.000  0.991  0.006  0.003
  0.000  0.815  0.000  0.000  0.184
  0.000  0.000  0.006  0.993  0.001
    occupations:
  0.920  0.003  0.003 -0.137  0.001
  0.003  0.603  0.000 -0.001 -0.005
  0.003  0.000  0.917 -0.004 -0.004
 -0.137 -0.001 -0.004  0.697 -0.000
  0.001 -0.005 -0.004 -0.000  0.973
atom   17   Tr[ns(na)] =   8.21644
    eigenvalues:
  0.620  0.672  0.893  0.936  0.987
    eigenvectors:
  0.001  0.989  0.000  0.000  0.011
  0.000  0.000  0.100  0.900  0.000
  0.000  0.000  0.900  0.100  0.000
  0.000  0.011  0.000  0.000  0.989
  0.999  0.001  0.000  0.000  0.000
    occupations:
  0.675 -0.003 -0.001  0.032  0.001
 -0.003  0.932  0.013  0.000 -0.002
 -0.001  0.013  0.898 -0.000  0.000
  0.032  0.000 -0.000  0.983  0.000
  0.001 -0.002  0.000  0.000  0.620
atom   22   Tr[ns(na)] =   8.21361
    eigenvalues:
  0.654  0.668  0.883  0.917  0.985
    eigenvectors:
  0.000  0.139  0.000  0.000  0.861
  1.000  0.000  0.000  0.000  0.000
  0.000  0.000  0.963  0.037  0.000
  0.000  0.861  0.000  0.000  0.139
  0.000  0.000  0.037  0.963  0.000
    occupations:
  0.941 -0.000 -0.000 -0.110 -0.000
 -0.000  0.654  0.001  0.000 -0.000
 -0.000  0.001  0.884 -0.000  0.006
 -0.110  0.000 -0.000  0.712  0.000
 -0.000 -0.000  0.006  0.000  0.915
atom   23   Tr[ns(na)] =   8.18709
    eigenvalues:
  0.659  0.725  0.836  0.886  0.988
    eigenvectors:
  0.000  0.990  0.000  0.000  0.010
  0.000  0.000  0.000  1.000  0.000
  0.000  0.000  1.000  0.000  0.000
  0.000  0.010  0.000  0.000  0.990
  1.000  0.000  0.000  0.000  0.000
    occupations:
  0.727  0.000 -0.000  0.026 -0.000
  0.000  0.886  0.000  0.000 -0.000
 -0.000  0.000  0.836  0.000  0.000
  0.026  0.000  0.000  0.986  0.000
 -0.000 -0.000  0.000  0.000  0.659
N of occupied +U levels =  65.6483707
 --- exit write_ns ---

[...]

          k = 0.2500-0.4953 0.0000 ( 31088 PWs)   bands (ev):

[...]

          k =-0.2500 0.2476 0.0000 ( 31099 PWs)   bands (ev):

   -51.7957 -51.4993 -51.3746 -50.5401 -50.5353 -50.5319 -50.4644 -50.4589
   -50.4582 -50.4403 -50.4306 -50.4303 -50.3850 -50.3018 -50.2715 -50.1818
   -50.1670 -50.1626 -50.1108 -50.0723 -50.0684 -50.0610 -50.0423 -50.0313
   -21.6578 -21.5159 -21.3634 -21.2633 -21.0544 -20.9426 -20.9218 -20.7179
   -20.6634 -20.6340 -20.5070 -20.4083 -20.2792 -20.1857 -20.1227 -19.9344
   -19.3946 -19.2130 -19.0643 -11.1221 -10.9384 -10.6074 -10.5486 -10.3181
   -10.2109 -10.0629 -10.0149  -9.7267  -9.3984  -9.2816  -9.1951  -9.1262
    -8.9159  -8.8280  -8.6620  -8.5299  -8.4963  -8.3278  -8.1477  -7.9105
    -7.8179  -7.7506  -7.6397  -7.5859  -7.4964  -7.3509  -7.2206  -7.1572
    -7.0505  -6.8654  -6.7738  -6.6937  -6.5877  -6.5294  -6.4828  -6.3779
    -6.2960  -6.1523  -6.0665  -5.9089  -5.8216  -5.6227  -5.4079  -5.3058
    -5.2176  -5.0222  -4.9379  -4.7737  -4.7382  -4.5829  -4.4016  -4.3430
    -4.1244  -4.0535  -3.9987  -3.9407  -3.7459  -3.6908  -3.6556  -3.5263
    -3.4297  -3.3913  -3.3215  -3.3036  -3.1723  -3.0584  -2.9743  -2.8989
    -2.7417  -2.3212  -2.2040  -2.0419  -1.9378  -1.7125  -1.5110  -1.3814
    -1.3377  -1.1545  -1.0658  -0.8235  -0.1107   0.4884   0.8385   1.1989
     1.4451   1.6355   1.9485   2.1849   2.4327   2.6004   2.6484   2.8283
     2.9547   3.1580   3.2025   3.6106   3.7457   4.5789   4.8196   5.2988
     5.4290   5.5278   5.5727   6.1827   6.4372   6.5246   6.6548   6.7537
     6.8281   6.9347   7.1402   7.2859   7.3614   7.4179   7.5701   7.8193
     7.9135   8.0116   8.0812   8.1546   8.3178   8.4008   8.4382   8.4896
     8.5485   8.7935   8.8535   8.9298   9.0283   9.1118   9.2058   9.3381
     9.4579   9.4786   9.4837   9.4990   9.5432   9.5444   9.5525   9.6370
     9.7025   9.7121   9.7238   9.7874   9.9149   9.9974  10.0425  10.1668
    10.2432  10.3495  10.4080  10.4558  10.5063  10.5343  10.6813  10.8385
    10.8992  11.0415  11.0764  11.1271  11.1664  11.3249  11.4416  11.5514
    11.6135  11.6739  11.7819  11.8005  11.8486  12.0345  12.1534  12.2015
    12.2582  12.3229  12.4025  12.4961  12.6179  12.6442  12.7044  12.7244
    12.8197  12.8814  12.9497  13.0080  13.0981  13.1447  13.1955  13.2590
    13.3425  13.4292  13.4954  13.6157  13.7022  13.8707  13.9115  13.9341
    14.0420  14.0928  14.1961  14.2785  14.3205  14.4308  14.4551  14.5948
    14.7106  14.7976  14.8499  14.9480  15.0864  15.1657  15.2325  15.3716
    15.4054  15.5036  15.5684  15.6055  15.6744  15.7744  15.7916  15.8779
    15.9456  16.0040  16.0488  16.1206  16.1872  16.2237  16.3372  16.3685
    16.4101  16.4316  16.5038  16.5613  16.6331  16.7140  16.7440  16.7870
    16.8224  16.9711  17.1555  17.1794  17.2273  17.3261  17.3495  17.4581
    17.5007  17.5430  17.5726  17.6712  17.7444  17.7714  17.8583  17.9247
    17.9652  18.0029  18.0307  18.1780  18.2206  18.2653  18.3500  18.4950
    18.5656  18.6077  18.6456  18.7144  18.8035  18.8895  18.9748  19.0127
    19.0658  19.1342  19.1799  19.2728  19.2885  19.3490  19.4016  19.5812
    19.6214  19.6646  19.6934  19.7854  19.8903  19.9668  20.0284  20.0712
    20.2104  20.2738  20.3588  20.4120  20.4881  20.5628  20.6253  20.6994
    20.7441  20.7940  20.8717  20.8923  20.9233  20.9803  21.0751  21.1823
    21.2823  21.3231  21.3661  21.4157  21.4758  21.5264  21.5695  21.6789
    21.7673  21.8301  21.8612  21.8905  21.9280

     the Fermi energy is    -1.5297 ev

!    total energy              =   -2103.65352521 Ry
     Harris-Foulkes estimate   =   -2103.65352522 Ry
     estimated scf accuracy    <          7.8E-09 Ry

     The total energy is the sum of the following terms:

     one-electron contribution =  -22756.14037938 Ry
     hartree contribution      =   11421.47843465 Ry
     xc contribution           =    -576.40578048 Ry
     ewald contribution        =    9805.04244630 Ry
     Hubbard energy            =       2.37189945 Ry
     smearing contrib. (-TS)   =      -0.00014574 Ry

     convergence has been achieved in  14 iterations

     Forces acting on atoms (Ry/au):

     negative rho (up, down):  0.314E+01 0.000E+00
     atom    1 type  1   force =    -0.00709797   -0.01222498   -0.00000637
     atom    2 type  1   force =    -0.00003606    0.00174898   -0.00003607
     atom    3 type  2   force =     0.03216066    0.00846763    0.00037830
     atom    4 type  2   force =     0.00912090    0.00798809   -0.00006650
     atom    5 type  1   force =    -0.00457550   -0.01388191   -0.00021177
     atom    6 type  1   force =     0.00811828    0.01158517   -0.00003835
     atom    7 type  1   force =    -0.00039897   -0.00244007   -0.00085848
     atom    8 type  1   force =    -0.00347897   -0.00073198   -0.00004883
     atom    9 type  2   force =     0.00632840    0.00060559    0.00009710
     atom   10 type  2   force =    -0.00000412   -0.00089046   -0.00078867
     atom   11 type  1   force =     0.01281898    0.00908003   -0.00001312
     atom   12 type  1   force =     0.01214523   -0.00969484   -0.00005350
     atom   13 type  1   force =    -0.00084707   -0.00004185    0.00007727
     atom   14 type  1   force =    -0.00785644   -0.01298629   -0.00023705
     atom   15 type  1   force =     0.00006967    0.00213082   -0.00047384
     atom   16 type  2   force =    -0.03213303    0.00700024    0.00038047
     atom   17 type  2   force =     0.00909701    0.00821136   -0.00007368
     atom   18 type  1   force =    -0.00609806   -0.01305172   -0.00019246
     atom   19 type  1   force =     0.00567475    0.01247431   -0.00006514
     atom   20 type  1   force =    -0.00023141   -0.00538830    0.00081623
     atom   21 type  1   force =    -0.00325785   -0.00049034   -0.00024446
     atom   22 type  2   force =    -0.00392836    0.00053334    0.00009783
     atom   23 type  2   force =    -0.00006811    0.00052024    0.00049482
     atom   24 type  1   force =    -0.01273513    0.00912901   -0.00001761
     atom   25 type  1   force =    -0.01200001   -0.00965126   -0.00004981
     atom   26 type  1   force =    -0.00074138   -0.00012488   -0.00007865
     atom   27 type  3   force =     0.00000222    0.00047596    0.00053366
     atom   28 type  3   force =     0.00002191    0.00086059    0.00050450
     atom   29 type  3   force =    -0.00003119    0.00018087    0.00014339
     atom   30 type  3   force =    -0.00002996    0.00066220    0.00015321
     atom   31 type  1   force =    -0.00000842   -0.00005553   -0.00012241

     Total force =     0.002254     Total SCF correction =     0.000258
     SCF correction compared to forces is large: reduce conv_thr to get better values

     bfgs converged in   9 scf cycles and   8 bfgs steps
     (criteria: energy < 0.10E-03, force < 0.10E-02)

     End of BFGS Geometry Optimization

     Final energy   =   -2103.6535252118 Ry
Begin final coordinates

ATOMIC_POSITIONS (crystal)
O0       0.000000000   0.000000000   0.378482462    0   0   1
O0       0.000000000   0.500000000   0.403819568    0   0   1
Ir1      0.250000000   0.500000000   0.453542234    0   0   1
Ir1      0.000000000   0.000000000   0.452881860    0   0   1
O0       0.250000000   0.810000000   0.453176289    0   0   1
O0       0.250000000   0.190000000   0.452675144    0   0   1
O0       0.000000000   0.500000000   0.499568744    0   0   1
O0       0.000000000   0.000000000   0.528025609    0   0   1
Ir1      0.250000000   0.000000000   0.574642347    0   0   1
Ir1      0.000000000   0.500000000   0.572157915    0   0   1
O0       0.250000000   0.690000000   0.574226733    0   0   1
O0       0.250000000   0.310000000   0.574243999    0   0   1
O0       0.000000000   0.000000000   0.619049788    0   0   1
O0       0.500000000   0.000000000   0.378398034    0   0   1
O0       0.500000000   0.500000000   0.403276933    0   0   1
Ir1      0.750000000   0.500000000   0.453547820    0   0   1
Ir1      0.500000000   0.000000000   0.452879358    0   0   1
O0       0.750000000   0.810000000   0.453196649    0   0   1
O0       0.750000000   0.190000000   0.452679065    0   0   1
O0       0.500000000   0.500000000   0.501690828    0   0   1
O0       0.500000000   0.000000000   0.528089153    0   0   1
Ir1      0.750000000   0.000000000   0.574647955    0   0   1
Ir1      0.500000000   0.500000000   0.577602523    0   0   1
O0       0.750000000   0.690000000   0.574225697    0   0   1
O0       0.750000000   0.310000000   0.574248362    0   0   1
O0       0.500000000   0.000000000   0.619110380    0   0   1
H2      -0.000212058   0.632638428   0.384680467
H2       0.499841960   0.635321385   0.385290850
H2       0.143360414   0.034454484   0.366810318
H2       0.642712395   0.036375490   0.366678528
O0       0.500008120   0.499329896   0.644514387
End final coordinates

     General routines

     Parallel routines
     Hubbard U routines

   This run was terminated on:  14:50: 3  29Apr2014

   JOB DONE.