     Program PWSCF v.5.0.2 (svn rev. 9656) starts on 18Mar2014 at  2:35:27

     Current dimensions of program PWSCF are:
     Max number of different atomic species (ntypx) = 10
     Max number of k-points (npk) =  40000
     Max angular momentum in pseudopotentials (lmaxx) =  3
     Reading input from pwscf.in
Warning: card &CELL ignored
Warning: card / ignored

     Subspace diagonalization in iterative solution of the eigenvalue problem:
     a serial algorithm will be used

     bravais-lattice index     =            0
     lattice parameter (alat)  =      10.3179  a.u.
     unit-cell volume          =    6964.3238 (a.u.)^3
     number of atoms/cell      =           32
     number of atomic types    =            3
     number of electrons       =       231.00
     number of Kohn-Sham states=          346
     kinetic-energy cutoff     =      40.0000  Ry
     charge density cutoff     =     500.0000  Ry
     convergence threshold     =      1.0E-06
     mixing beta               =       0.7000
     number of iterations used =            8  plain     mixing
     Exchange-correlation      = SLA  PW   PBE  PBE ( 1 4 3 4 0)
     EXX-fraction              =        0.00
     nstep                     =           50

     celldm(1)=  10.317905  celldm(2)=   0.000000  celldm(3)=   0.000000
     celldm(4)=   0.000000  celldm(5)=   0.000000  celldm(6)=   0.000000

     crystal axes: (cart. coord. in units of alat)
               a(1) = (   1.000000   0.000000   0.000000 )
               a(2) = (   0.000000   1.282117   0.000000 )
               a(3) = (   0.000000   0.000000   4.945120 )

     reciprocal axes: (cart. coord. in units 2 pi/alat)
               b(1) = (  1.000000  0.000000  0.000000 )
               b(2) = (  0.000000  0.779960  0.000000 )
               b(3) = (  0.000000  0.000000  0.202220 )

     PseudoPot. # 1 for O  read from file:
     /home/camp/zhonxu/pseudo/o_pbe_v1.01.uspp.F.UPF
     MD5 check sum: 2bcb18d16ea4b960afae9ec6d52f22d2
     Pseudo is Ultrasoft + core correction, Zval =  6.0
     Generated by new atomic code, or converted to UPF format
     Using radial grid of  737 points,  5 beta functions with:
                l(1) =   0
                l(2) =   0
                l(3) =   1
                l(4) =   1
                l(5) =   2
     Q(r) pseudized with  8 coefficients,  rinner =    0.900   0.900   0.900
                                                       0.900   0.900

     PseudoPot. # 2 for Mo read from file:
     /home/camp/zhonxu/pseudo/mo_pbe_v1.uspp.F.UPF
     MD5 check sum: 30c4dcd161f5d35cd49bb5239c51a633
     Pseudo is Ultrasoft + core correction, Zval = 14.0
     Generated by new atomic code, or converted to UPF format
     Using radial grid of  889 points,  6 beta functions with:
                l(1) =   0
                l(2) =   0
                l(3) =   1
                l(4) =   1
                l(5) =   2
                l(6) =   2
     Q(r) pseudized with  6 coefficients,  rinner =    1.000   1.000   1.000
                                                       1.000   1.000

     PseudoPot. # 3 for H  read from file:
     /home/camp/zhonxu/pseudo/h_pbe_v1.uspp.F.UPF
     MD5 check sum: 3408e3ff4ec8b0a4e358431e7e038a48
     Pseudo is Ultrasoft, Zval =  1.0
     Generated by new atomic code, or converted to UPF format
     Using radial grid of  615 points,  2 beta functions with:
                l(1) =   0
                l(2) =   0
     Q(r) pseudized with  8 coefficients,  rinner =    0.700

     atomic species   valence    mass     pseudopotential
        O0             6.00    15.99940     O ( 1.00)
        Mo1           14.00    95.94000     Mo( 1.00)
        H2             1.00     1.00794     H ( 1.00)

     Starting magnetic structure
     atomic species   magnetization
        O0           0.000
        Mo1          0.000
        H2           0.000

     No symmetry found

   Cartesian axes

     site n.     atom                  positions (alat units)
         1           O0  tau(   1) = (   0.0000000   0.0000000   1.8465574  )
         2           O0  tau(   2) = (   0.0000000   0.6410583   1.8808271  )
         3           Mo1 tau(   3) = (   0.2500000   0.6410583   2.1650231  )
         4           Mo1 tau(   4) = (   0.0000000   0.0000000   2.2064633  )
         5           O0  tau(   5) = (   0.2500000   1.0000510   2.1927158  )
         6           O0  tau(   6) = (   0.2500000   0.2820657   2.1921224  )
         7           O0  tau(   7) = (   0.0000000   0.6410583   2.4520379  )
         8           O0  tau(   8) = (   0.0000000   0.0000000   2.5658746  )
         9           Mo1 tau(   9) = (   0.2500000   0.0000000   2.8596642  )
        10           Mo1 tau(  10) = (   0.0000000   0.6410583   2.7884050  )
        11           O0  tau(  11) = (   0.2500000   0.9231240   2.8369661  )
        12           O0  tau(  12) = (   0.2500000   0.3589927   2.8372628  )
        13           O0  tau(  13) = (   0.0000000   0.0000000   3.1104807  )
        14           O0  tau(  14) = (   0.5000000   0.0000000   1.8465574  )
        15           O0  tau(  15) = (   0.5000000   0.6410583   1.8808271  )
        16           Mo1 tau(  16) = (   0.7500000   0.6410583   2.1650231  )
        17           Mo1 tau(  17) = (   0.5000000   0.0000000   2.2064633  )
        18           O0  tau(  18) = (   0.7500000   1.0000510   2.1927158  )
        19           O0  tau(  19) = (   0.7500000   0.2820657   2.1921224  )
        20           O0  tau(  20) = (   0.5000000   0.6410583   2.4520379  )
        21           O0  tau(  21) = (   0.5000000   0.0000000   2.5658746  )
        22           Mo1 tau(  22) = (   0.7500000   0.0000000   2.8596642  )
        23           Mo1 tau(  23) = (   0.5000000   0.6410583   2.7884050  )
        24           O0  tau(  24) = (   0.7500000   0.9231240   2.8369661  )
        25           O0  tau(  25) = (   0.7500000   0.3589927   2.8372628  )
        26           O0  tau(  26) = (   0.5000000   0.0000000   3.1104807  )
        27           H2  tau(  27) = (  -0.0004900   0.7868222   1.7746059  )
        28           H2  tau(  28) = (   0.4995100   0.7868222   1.7746059  )
        29           H2  tau(  29) = (   0.1657500   0.0265270   1.7749026  )
        30           H2  tau(  30) = (   0.6657500   0.0265270   1.7749026  )
        31           O0  tau(  31) = (   0.5000000   0.6410583   3.1177995  )
        32           H2  tau(  32) = (   0.3443200   0.6410583   3.1818882  )

     number of k points=    20  Methfessel-Paxton smearing, width (Ry)=  0.0100
                       cart. coord. in units 2pi/alat
        k(    1) = (   0.0000000   0.0000000   0.0000000), wk =   0.0625000
        k(    2) = (   0.0000000   0.1949901   0.0000000), wk =   0.1250000
        k(    3) = (   0.0000000  -0.3899801   0.0000000), wk =   0.0625000
        k(    4) = (   0.2500000   0.0000000   0.0000000), wk =   0.1250000
        k(    5) = (   0.2500000   0.1949901   0.0000000), wk =   0.1250000
        k(    6) = (   0.2500000  -0.3899801   0.0000000), wk =   0.1250000
        k(    7) = (  -0.5000000   0.0000000   0.0000000), wk =   0.0625000
        k(    8) = (  -0.5000000   0.1949901   0.0000000), wk =   0.1250000
        k(    9) = (  -0.5000000  -0.3899801   0.0000000), wk =   0.0625000
        k(   10) = (  -0.2500000   0.1949901   0.0000000), wk =   0.1250000
        k(   11) = (   0.0000000   0.0000000   0.0000000), wk =   0.0625000
        k(   12) = (   0.0000000   0.1949901   0.0000000), wk =   0.1250000
        k(   13) = (   0.0000000  -0.3899801   0.0000000), wk =   0.0625000
        k(   14) = (   0.2500000   0.0000000   0.0000000), wk =   0.1250000
        k(   15) = (   0.2500000   0.1949901   0.0000000), wk =   0.1250000
        k(   16) = (   0.2500000  -0.3899801   0.0000000), wk =   0.1250000
        k(   17) = (  -0.5000000   0.0000000   0.0000000), wk =   0.0625000
        k(   18) = (  -0.5000000   0.1949901   0.0000000), wk =   0.1250000
        k(   19) = (  -0.5000000  -0.3899801   0.0000000), wk =   0.0625000
        k(   20) = (  -0.2500000   0.1949901   0.0000000), wk =   0.1250000

     Largest allocated arrays     est. size (Mb)     dimensions
     Largest temporary arrays     est. size (Mb)     dimensions

     Check: negative/imaginary core charge=   -0.000003    0.000000

     Initial potential from superposition of free atoms
     Check: negative starting charge=(component1):   -0.001208
     Check: negative starting charge=(component2):   -0.001208

     starting charge  230.99142, renormalised to  231.00000

     negative rho (up, down):  0.121E-02 0.121E-02
     Starting wfc are  185 randomized atomic wfcs

     Self-consistent Calculation

     iteration #  1     ecut=    40.00 Ry     beta=0.70
     Davidson diagonalization with overlap
     ethr =  1.00E-02,  avg # of iterations =  6.2

     negative rho (up, down):  0.166E-02 0.166E-02

     total energy              =   -1728.93167422 Ry
     Harris-Foulkes estimate   =   -1735.61902030 Ry
     estimated scf accuracy    <       8.68985337 Ry

     total magnetization       =     0.00 Bohr mag/cell
     absolute magnetization    =     0.01 Bohr mag/cell

[...]

     End of self-consistent calculation

 ------ SPIN UP ------------

          k = 0.0000 0.0000 0.0000 ( 29769 PWs)   bands (ev):

   -62.5355 -62.4946 -62.4142 -62.3807 -62.3174 -62.2880 -62.2530 -62.1715
   -37.2275 -37.1154 -36.9271 -36.8743 -36.8692 -36.8308 -36.7690 -36.7445
   -36.6184 -36.6111 -36.5158 -36.4947 -36.4788 -36.4758 -36.4418 -36.4271
   -36.3259 -36.3101 -36.2673 -36.2643 -36.1381 -35.8853 -35.8403 -35.7717
   -20.9558 -20.6308 -20.5159 -20.0079 -19.8080 -19.7352 -19.5426 -19.2164
   -19.0862 -19.0774 -19.0654 -19.0210 -18.8822 -18.8443 -18.7201 -18.6932
   -18.6746 -18.0686 -17.8385  -9.0552  -8.8086  -8.4869  -8.3923  -8.2284
    -8.2001  -7.6444  -7.4210  -7.3090  -7.2306  -7.0388  -7.0008  -6.9060
    -6.8376  -6.7991  -6.5769  -6.3859  -6.2941  -6.2436  -6.2060  -6.1383
    -6.0850  -5.9315  -5.8138  -5.3311  -5.2918  -5.1677  -5.0523  -5.0500
    -4.9854  -4.9018  -4.8043  -4.7211  -4.6044  -4.5044  -4.4874  -4.2792
    -4.1773  -4.1417  -4.1007  -3.9797  -3.8520  -3.7082  -3.6844  -3.6541
    -3.5133  -3.2678  -3.2162  -3.1404  -3.1165  -3.0714  -2.9641  -2.8741
    -2.8193  -2.6721  -2.5471  -2.4917  -2.4260  -2.2816  -2.1139  -0.5848
    -0.3334  -0.1559   0.0740   0.2314   0.2879   0.5026   0.5878   0.7023
     0.7562   1.1057   1.1083   1.3031   1.4495   1.6401   1.7651   1.9970
     2.6335   2.8373   2.9659   3.0299   3.0344   3.1173   3.4817   3.8429
     3.9162   4.0343   4.1963   4.1986   4.3886   4.4577   4.4993   4.6430
     4.7023   4.7936   4.8696   5.0323   5.1777   5.2350   5.3126   5.8016
     6.0274   6.1589   6.3280   6.7660   6.9836   7.1774   7.4648   7.6036
     7.6718   7.7241   7.8212   7.8688   7.9936   8.1813   8.3426   8.5864
     8.7168   8.7248   8.8480   9.0561   9.0768   9.2039   9.2483   9.3224
     9.4845   9.5649   9.6547   9.7014   9.7521   9.8225   9.8690   9.9358
     9.9953  10.0834  10.1757  10.3285  10.3542  10.4573  10.5946  10.6633
[...]
     atom   13 type  1   force =     0.00139342   -0.00035463   -0.00470667
     atom   14 type  1   force =    -0.00321614   -0.00524649   -0.00082603
     atom   15 type  1   force =     0.00000801    0.00929558    0.00300304
     atom   16 type  2   force =     0.01953961   -0.00526140   -0.01546053
     atom   17 type  2   force =    -0.00020437    0.00416831   -0.00378977
     atom   18 type  1   force =     0.00060652    0.00145325    0.00282475
     atom   19 type  1   force =    -0.00143519   -0.00685884    0.00317699
     atom   20 type  1   force =    -0.01134946    0.00078163   -0.07327062
     atom   21 type  1   force =     0.00249182    0.00033824    0.00151292
     atom   22 type  2   force =    -0.00950587    0.00041158    0.00810084
     atom   23 type  2   force =     0.02974040    0.00164473    0.01444897
     atom   24 type  1   force =     0.02615874   -0.03356426   -0.03158499
     atom   25 type  1   force =     0.02631859    0.03275487   -0.03156053
     atom   26 type  1   force =    -0.00008010   -0.00013559   -0.00622589
     atom   27 type  3   force =    -0.00021226    0.00020976    0.00014984
     atom   28 type  3   force =     0.00009804    0.00077685    0.00039153
     atom   29 type  3   force =     0.00188866   -0.00064940    0.00025791
     atom   30 type  3   force =     0.00059370   -0.00039156    0.00024238
     atom   31 type  1   force =     0.12282579   -0.00008887    0.10140342
     atom   32 type  3   force =    -0.12834666   -0.00013638    0.09053421

     Total force =     0.223692     Total SCF correction =     0.000084

     BFGS Geometry Optimization

     number of scf cycles    =   1
     number of bfgs steps    =   0

     energy   new            =   -1733.6257431590 Ry

     new trust radius        =       0.1592759684 bohr
     new conv_thr            =       0.0000010000 Ry

ATOMIC_POSITIONS (crystal)
O0       0.000000000   0.000000000   0.373410000    0   0   0
O0       0.000000000   0.500000000   0.380340000    0   0   0
Mo1      0.250000000   0.500000000   0.437810000    0   0   0
Mo1      0.000000000   0.000000000   0.446190000    0   0   0
O0       0.250000000   0.780000000   0.443410000    0   0   0
O0       0.250000000   0.220000000   0.443290000    0   0   0
O0       0.000000000   0.500000000   0.495850000    0   0   0
O0       0.000000000   0.000000000   0.518870000    0   0   0
Mo1      0.250000000   0.000000000   0.578280000    0   0   0
Mo1      0.000000000   0.500000000   0.563870000    0   0   0
O0       0.250000000   0.720000000   0.573690000    0   0   0
O0       0.250000000   0.280000000   0.573750000    0   0   0
O0       0.000000000   0.000000000   0.629000000    0   0   0
O0       0.500000000   0.000000000   0.373410000    0   0   0
O0       0.500000000   0.500000000   0.380340000    0   0   0
Mo1      0.750000000   0.500000000   0.437810000    0   0   0
Mo1      0.500000000   0.000000000   0.446190000    0   0   0
O0       0.750000000   0.780000000   0.443410000    0   0   0
O0       0.750000000   0.220000000   0.443290000    0   0   0
O0       0.500000000   0.500000000   0.495850000    0   0   0
O0       0.500000000   0.000000000   0.518870000    0   0   0
Mo1      0.750000000   0.000000000   0.578280000    0   0   0
Mo1      0.500000000   0.500000000   0.563870000    0   0   0
O0       0.750000000   0.720000000   0.573690000    0   0   0
O0       0.750000000   0.280000000   0.573750000    0   0   0
O0       0.500000000   0.000000000   0.629000000    0   0   0
H2      -0.000490000   0.613690000   0.358860000    0   0   0
H2       0.499510000   0.613690000   0.358860000    0   0   0
H2       0.165750000   0.020690000   0.358920000    0   0   0
H2       0.665750000   0.020690000   0.358920000    0   0   0
O0       0.511904140   0.499993282   0.632467395
H2       0.331880782   0.499989690   0.645214371

     Check: negative starting charge=(component1):   -0.002416
     NEW-OLD atomic charge density approx. for the potential

     Check: negative/imaginary core charge=   -0.000003    0.000000
     Check: negative starting charge=(component1):   -0.002426

[...]

     energy   old            =   -1733.6257431590 Ry
     energy   new            =   -1733.6401754162 Ry

     CASE: energy  _new < energy  _old

[...]

     Threshold (ethr) on eigenvalues was too large:
     Diagonalizing with lowered threshold

     Davidson diagonalization with overlap
     ethr =  6.20E-08,  avg # of iterations =  1.0

[...]

     number of scf cycles    =  20
     number of bfgs steps    =  19

     energy   old            =   -1733.6692303971 Ry
     energy   new            =   -1733.6692740896 Ry

     CASE: energy  _new < energy  _old

     new trust radius        =       0.0154273743 bohr
     new conv_thr            =       0.0000000100 Ry

ATOMIC_POSITIONS (crystal)
O0       0.000000000   0.000000000   0.373410000    0   0   0
O0       0.000000000   0.500000000   0.380340000    0   0   0
Mo1      0.250000000   0.500000000   0.437810000    0   0   0
Mo1      0.000000000   0.000000000   0.446190000    0   0   0
O0       0.250000000   0.780000000   0.443410000    0   0   0
O0       0.250000000   0.220000000   0.443290000    0   0   0
O0       0.000000000   0.500000000   0.495850000    0   0   0
O0       0.000000000   0.000000000   0.518870000    0   0   0
Mo1      0.250000000   0.000000000   0.578280000    0   0   0
Mo1      0.000000000   0.500000000   0.563870000    0   0   0
O0       0.250000000   0.720000000   0.573690000    0   0   0
O0       0.250000000   0.280000000   0.573750000    0   0   0
O0       0.000000000   0.000000000   0.629000000    0   0   0
O0       0.500000000   0.000000000   0.373410000    0   0   0
O0       0.500000000   0.500000000   0.380340000    0   0   0
Mo1      0.750000000   0.500000000   0.437810000    0   0   0
Mo1      0.500000000   0.000000000   0.446190000    0   0   0
O0       0.750000000   0.780000000   0.443410000    0   0   0
O0       0.750000000   0.220000000   0.443290000    0   0   0
O0       0.500000000   0.500000000   0.495850000    0   0   0
O0       0.500000000   0.000000000   0.518870000    0   0   0
Mo1      0.750000000   0.000000000   0.578280000    0   0   0
Mo1      0.500000000   0.500000000   0.563870000    0   0   0
O0       0.750000000   0.720000000   0.573690000    0   0   0
O0       0.750000000   0.280000000   0.573750000    0   0   0
O0       0.500000000   0.000000000   0.629000000    0   0   0
H2      -0.000490000   0.613690000   0.358860000    0   0   0
H2       0.499510000   0.613690000   0.358860000    0   0   0
H2       0.165750000   0.020690000   0.358920000    0   0   0
H2       0.665750000   0.020690000   0.358920000    0   0   0
O0       0.514016442   0.500319590   0.636379858
H2       0.387126655   0.498677978   0.661895831

     Check: negative starting charge=(component1):   -0.002359
     NEW-OLD atomic charge density approx. for the potential

     Check: negative/imaginary core charge=   -0.000003    0.000000
     Check: negative starting charge=(component1):   -0.002360

[...]

     Self-consistent Calculation

[...]

     Threshold (ethr) on eigenvalues was too large:
     Diagonalizing with lowered threshold

     Davidson diagonalization with overlap
     ethr =  3.88E-09,  avg # of iterations =  1.9

[...]

     total energy              =   -1733.66928167 Ry
     Harris-Foulkes estimate   =   -1733.66928168 Ry
     estimated scf accuracy    <       0.00000002 Ry

[...]

     iteration # 12     ecut=    40.00 Ry     beta=0.70
     Davidson diagonalization with overlap
     ethr =  8.75E-12,  avg # of iterations =  1.0

     negative rho (up, down):  0.173E-02 0.173E-02

     End of self-consistent calculation

 ------ SPIN UP ------------

[...]

 ------ SPIN DOWN ----------

[...]

          k = 0.2500-0.3900 0.0000 ( 29726 PWs)   bands (ev):

[...]

          k =-0.2500 0.1950 0.0000 ( 29746 PWs)   bands (ev):

   -62.5121 -62.4828 -62.4262 -62.3653 -62.3502 -62.2718 -62.2650 -62.1825
   -37.0760 -36.9068 -36.8351 -36.8143 -36.7970 -36.7353 -36.7348 -36.6508
   -36.6017 -36.5626 -36.5104 -36.5069 -36.4627 -36.4486 -36.4422 -36.4255
   -36.3655 -36.3391 -36.3058 -36.2892 -36.2817 -36.0490 -35.9999 -35.9241
   -20.8481 -20.6078 -19.9208 -19.7226 -19.6275 -19.5391 -19.3966 -19.3142
   -19.2687 -19.1432 -18.9743 -18.8781 -18.8349 -18.7184 -18.6942 -18.6481
   -18.6061 -18.1108 -17.9650  -8.8314  -8.7176  -8.0657  -7.8662  -7.6455
    -7.6249  -7.5620  -7.5340  -7.3479  -7.2637  -7.1979  -6.9983  -6.9320
    -6.9052  -6.6714  -6.4198  -6.2969  -6.1705  -6.1256  -6.0320  -5.9003
    -5.8433  -5.8184  -5.6364  -5.5223  -5.4019  -5.3504  -5.2390  -5.1731
    -5.0450  -4.8195  -4.7539  -4.6027  -4.5353  -4.4927  -4.3679  -4.3102
    -4.2751  -4.1987  -4.1659  -4.1156  -4.0674  -3.9084  -3.7823  -3.6630
    -3.5120  -3.3937  -3.3603  -3.2717  -3.1999  -3.1156  -2.9820  -2.7975
    -2.7167  -2.5401  -2.4396  -1.9654  -1.6003  -1.4628  -1.3720  -0.5689
    -0.4793  -0.3281  -0.3090   0.1410   0.2144   0.5938   0.7624   0.9083
     0.9843   1.0285   1.2065   1.3529   1.4486   1.5661   1.6640   1.7586
     1.9427   1.9814   2.0766   2.1927   2.4459   3.2804   3.4272   3.5318
     3.6434   3.6937   3.9054   4.0086   4.3004   4.4705   4.6530   4.7418
     4.7982   4.9984   5.0404   5.3624   5.5977   5.6690   5.7996   5.9372
     6.0100   6.1283   6.3051   6.5187   6.7249   6.8911   7.1367   7.2511
     7.2914   7.4446   7.6595   7.7437   8.0637   8.1411   8.2484   8.3318
     8.5113   8.5555   8.7140   8.8510   8.9403   9.0653   9.1829   9.3780
     9.4327   9.4877   9.5727   9.6325   9.7347   9.7591   9.8494  10.0222
    10.1108  10.2487  10.3676  10.4158  10.5384  10.5634  10.6789  10.7583
    10.8671  10.9601  11.0742  11.2252  11.3303  11.4475  11.5477  11.6284
    11.7067  11.8168  11.9510  12.0384  12.0958  12.2166  12.3434  12.4192
    12.4552  12.4871  12.5195  12.5787  12.7506  12.8323  12.9082  12.9762
    13.1002  13.1526  13.2454  13.3113  13.3753  13.4466  13.4913  13.5854
    13.6355  13.6768  13.7545  13.8134  13.9012  13.9789  14.0675  14.1102
    14.2295  14.2942  14.3463  14.3898  14.4961  14.5520  14.5840  14.6570
    14.7428  14.7986  14.9185  14.9574  14.9940  15.0441  15.1247  15.2257
    15.3044  15.4448  15.5096  15.5851  15.6390  15.7013  15.7713  15.8479
    15.9449  16.0081  16.0940  16.1905  16.2342  16.2717  16.3218  16.3829
    16.4217  16.4712  16.5391  16.6323  16.7479  16.8182  16.8662  16.9339
    17.0525  17.1409  17.1938  17.2465  17.2637  17.3641  17.4297  17.5300
    17.5886  17.6289  17.7431  17.8494  17.8620  18.0232  18.1329  18.1794
    18.2199  18.2811  18.3252  18.4336  18.4555  18.4896  18.5707  18.6797
    18.7405  18.8397  18.8943  19.0037  19.0870  19.1585  19.2623  19.2891
    19.4083  19.4429  19.5666  19.6454  19.7522  19.7948  19.9248  19.9639
    20.0385  20.1099  20.1319  20.1967  20.2543  20.3411  20.3471  20.3583
    20.4419  20.4983  20.5502  20.6266  20.6868  20.7333  20.7845  20.8604
    20.9206  21.0149  21.0579  21.1000  21.1510  21.2250  21.2853  21.3371
    21.4727  21.4861  21.5797  21.6331  21.6705  21.7592  21.7784  21.8107
    21.8729  21.8941

     the Fermi energy is     0.0660 ev

!    total energy              =   -1733.66928167 Ry
     Harris-Foulkes estimate   =   -1733.66928168 Ry
     estimated scf accuracy    <          7.7E-09 Ry

     The total energy is the sum of the following terms:

     one-electron contribution =  -22196.52101453 Ry
     hartree contribution      =   11122.08496221 Ry
     xc contribution           =    -294.45544677 Ry
     ewald contribution        =    9635.22282727 Ry
     smearing contrib. (-TS)   =      -0.00060986 Ry

     total magnetization       =     0.00 Bohr mag/cell
     absolute magnetization    =     0.00 Bohr mag/cell

     convergence has been achieved in  12 iterations

     Forces acting on atoms (Ry/au):

     negative rho (up, down):  0.173E-02 0.173E-02
     atom    1 type  1   force =    -0.00405045   -0.00482040    0.00187123
     atom    2 type  1   force =    -0.00029225    0.00917138    0.00195841
     atom    3 type  2   force =    -0.01000366   -0.00438366   -0.01127503
     atom    4 type  2   force =     0.00076541    0.00461008   -0.00693007
     atom    5 type  1   force =     0.00243274    0.00183655    0.00221089
     atom    6 type  1   force =     0.00034438   -0.00713322    0.00303142
     atom    7 type  1   force =     0.00084601    0.00103859    0.00416904
     atom    8 type  1   force =     0.00302512    0.00049305    0.00304864
     atom    9 type  2   force =     0.00500057    0.00082498    0.00922983
     atom   10 type  2   force =    -0.00821058    0.00065092    0.01061953
     atom   11 type  1   force =    -0.02170892   -0.03833122   -0.02965558
     atom   12 type  1   force =    -0.02147582    0.03711314   -0.02934070
     atom   13 type  1   force =     0.00104594   -0.00029642   -0.00702058
     atom   14 type  1   force =    -0.00337767   -0.00521411   -0.00068734
     atom   15 type  1   force =    -0.00019977    0.00964686    0.00260793
     atom   16 type  2   force =     0.01473497   -0.00530999   -0.01455008
     atom   17 type  2   force =    -0.00038026    0.00420990   -0.00369433
     atom   18 type  1   force =     0.00086938    0.00131060    0.00257259
     atom   19 type  1   force =    -0.00118461   -0.00659392    0.00290988
     atom   20 type  1   force =    -0.00886628    0.00056998   -0.04262914
     atom   21 type  1   force =     0.00278782    0.00036470    0.00198086
     atom   22 type  2   force =    -0.00965396    0.00044984    0.01056266
     atom   23 type  2   force =     0.00928585    0.00181975    0.16275259
     atom   24 type  1   force =     0.02287632   -0.03506342   -0.03254781
     atom   25 type  1   force =     0.02311051    0.03400169   -0.03265748
     atom   26 type  1   force =    -0.00003167   -0.00010993   -0.00831192
     atom   27 type  3   force =    -0.00019546    0.00009577    0.00015604
     atom   28 type  3   force =     0.00010787    0.00048088    0.00016935
     atom   29 type  3   force =     0.00180396   -0.00064288    0.00027841
     atom   30 type  3   force =     0.00069137   -0.00042276    0.00025432
     atom   31 type  1   force =    -0.00023101   -0.00005311   -0.00085240
     atom   32 type  3   force =     0.00013417   -0.00031363   -0.00023115

     Total force =     0.000976     Total SCF correction =     0.000049

     bfgs converged in  21 scf cycles and  20 bfgs steps
     (criteria: energy < 0.10E-03, force < 0.10E-02)

     End of BFGS Geometry Optimization

     Final energy   =   -1733.6692816681 Ry
Begin final coordinates

ATOMIC_POSITIONS (crystal)
O0       0.000000000   0.000000000   0.373410000    0   0   0
O0       0.000000000   0.500000000   0.380340000    0   0   0
Mo1      0.250000000   0.500000000   0.437810000    0   0   0
Mo1      0.000000000   0.000000000   0.446190000    0   0   0
O0       0.250000000   0.780000000   0.443410000    0   0   0
O0       0.250000000   0.220000000   0.443290000    0   0   0
O0       0.000000000   0.500000000   0.495850000    0   0   0
O0       0.000000000   0.000000000   0.518870000    0   0   0
Mo1      0.250000000   0.000000000   0.578280000    0   0   0
Mo1      0.000000000   0.500000000   0.563870000    0   0   0
O0       0.250000000   0.720000000   0.573690000    0   0   0
O0       0.250000000   0.280000000   0.573750000    0   0   0
O0       0.000000000   0.000000000   0.629000000    0   0   0
O0       0.500000000   0.000000000   0.373410000    0   0   0
O0       0.500000000   0.500000000   0.380340000    0   0   0
Mo1      0.750000000   0.500000000   0.437810000    0   0   0
Mo1      0.500000000   0.000000000   0.446190000    0   0   0
O0       0.750000000   0.780000000   0.443410000    0   0   0
O0       0.750000000   0.220000000   0.443290000    0   0   0
O0       0.500000000   0.500000000   0.495850000    0   0   0
O0       0.500000000   0.000000000   0.518870000    0   0   0
Mo1      0.750000000   0.000000000   0.578280000    0   0   0
Mo1      0.500000000   0.500000000   0.563870000    0   0   0
O0       0.750000000   0.720000000   0.573690000    0   0   0
O0       0.750000000   0.280000000   0.573750000    0   0   0
O0       0.500000000   0.000000000   0.629000000    0   0   0
H2      -0.000490000   0.613690000   0.358860000    0   0   0
H2       0.499510000   0.613690000   0.358860000    0   0   0
H2       0.165750000   0.020690000   0.358920000    0   0   0
H2       0.665750000   0.020690000   0.358920000    0   0   0
O0       0.514016442   0.500319590   0.636379858
H2       0.387126655   0.498677978   0.661895831
End final coordinates

     General routines

     Parallel routines

   This run was terminated on:  13: 9:10  19Mar2014

   JOB DONE.