     Program PWSCF v.5.0.2 (svn rev. 9656) starts on  1May2014 at  6: 1:31

     Current dimensions of program PWSCF are:
     Max number of different atomic species (ntypx) = 10
     Max number of k-points (npk) =  40000
     Max angular momentum in pseudopotentials (lmaxx) =  3
     Reading input from pwscf.in
Warning: card &CELL ignored
Warning: card / ignored

     Subspace diagonalization in iterative solution of the eigenvalue problem:
     a serial algorithm will be used

     bravais-lattice index     =            0
     lattice parameter (alat)  =      10.1289  a.u.
     unit-cell volume          =    6836.7721 (a.u.)^3
     number of atoms/cell      =           31
     number of atomic types    =            3
     number of electrons       =       238.00
     number of Kohn-Sham states=          357
     kinetic-energy cutoff     =      40.0000  Ry
     charge density cutoff     =     500.0000  Ry
     convergence threshold     =      1.0E-06
     mixing beta               =       0.7000
     number of iterations used =            8  plain     mixing
     Exchange-correlation      = SLA  PW   PBE  PBE ( 1 4 3 4 0)
     EXX-fraction              =        0.00
     nstep                     =           50

     celldm(1)=  10.128932  celldm(2)=   0.000000  celldm(3)=   0.000000
     celldm(4)=   0.000000  celldm(5)=   0.000000  celldm(6)=   0.000000

     crystal axes: (cart. coord. in units of alat)
               a(1) = (   1.000000   0.000000   0.000000 )
               a(2) = (   0.000000   1.306037   0.000000 )
               a(3) = (   0.000000   0.000000   5.037380 )

     reciprocal axes: (cart. coord. in units 2 pi/alat)
               b(1) = (  1.000000  0.000000  0.000000 )
               b(2) = (  0.000000  0.765675  0.000000 )
               b(3) = (  0.000000  0.000000  0.198516 )

     PseudoPot. # 1 for O  read from file:
     /home/camp/zhonxu/pseudo/o_pbe_v1.01.uspp.F.UPF
     MD5 check sum: 2bcb18d16ea4b960afae9ec6d52f22d2
     Pseudo is Ultrasoft + core correction, Zval =  6.0
     Generated by new atomic code, or converted to UPF format
     Using radial grid of  737 points,  5 beta functions with:
                l(1) =   0
                l(2) =   0
                l(3) =   1
                l(4) =   1
                l(5) =   2
     Q(r) pseudized with  8 coefficients,  rinner =    0.900   0.900   0.900
                                                       0.900   0.900

     PseudoPot. # 2 for Re read from file:
     /home/camp/zhonxu/pseudo/re_pbe_v1.uspp.F.UPF
     MD5 check sum: 6f5a5dcaf9c96c20d0ffdde0de57afc6
     Pseudo is Ultrasoft + core correction, Zval = 15.0
     Generated by new atomic code, or converted to UPF format
     Using radial grid of  981 points,  8 beta functions with:
                l(1) =   0
                l(2) =   0
                l(3) =   1
                l(4) =   1
                l(5) =   2
                l(6) =   2
                l(7) =   3
                l(8) =   3
     Q(r) pseudized with  8 coefficients,  rinner =    1.000   1.000   1.000
                                                       1.000   1.000   1.000
                                                       1.000

     PseudoPot. # 3 for H  read from file:
     /home/camp/zhonxu/pseudo/h_pbe_v1.uspp.F.UPF
     MD5 check sum: 3408e3ff4ec8b0a4e358431e7e038a48
     Pseudo is Ultrasoft, Zval =  1.0
     Generated by new atomic code, or converted to UPF format
     Using radial grid of  615 points,  2 beta functions with:
                l(1) =   0
                l(2) =   0
     Q(r) pseudized with  8 coefficients,  rinner =    0.700

     atomic species   valence    mass     pseudopotential
        O0             6.00    15.99940     O ( 1.00)
        Re1           15.00   186.20700     Re( 1.00)
        H2             1.00     1.00794     H ( 1.00)

     Simplified LDA+U calculation (l_max = 2) with parameters (eV):
     atomic species    L          U    alpha       J0     beta
        Re1            2     1.0000   0.0000   0.0000   0.0000

     No symmetry found

   Cartesian axes

     site n.     atom                  positions (alat units)
         1           O0  tau(   1) = (   0.0000000   0.0000000   1.8646870  )
         2           O0  tau(   2) = (   0.0000000   0.6530184   1.9287121  )
         3           Re1 tau(   3) = (   0.2500000   0.6530184   2.2295948  )
         4           Re1 tau(   4) = (   0.0000000   0.0000000   2.2312068  )
         5           O0  tau(   5) = (   0.2500000   1.0187087   2.2244063  )
         6           O0  tau(   6) = (   0.2500000   0.2873281   2.2234996  )
         7           O0  tau(   7) = (   0.0000000   0.6530184   2.5067011  )
         8           O0  tau(   8) = (   0.0000000   0.0000000   2.5914802  )
         9           Re1 tau(   9) = (   0.2500000   0.0000000   2.8910532  )
        10           Re1 tau(  10) = (   0.0000000   0.6530184   2.8571012  )
        11           O0  tau(  11) = (   0.2500000   0.9403465   2.8803235  )
        12           O0  tau(  12) = (   0.2500000   0.3656903   2.8804747  )
        13           O0  tau(  13) = (   0.0000000   0.0000000   3.1540044  )
        14           O0  tau(  14) = (   0.5000000   0.0000000   1.8645359  )
        15           O0  tau(  15) = (   0.5000000   0.6530184   1.9300722  )
        16           Re1 tau(  16) = (   0.7500000   0.6530184   2.2295444  )
        17           Re1 tau(  17) = (   0.5000000   0.0000000   2.2295948  )
        18           O0  tau(  18) = (   0.7500000   1.0187087   2.2239529  )
        19           O0  tau(  19) = (   0.7500000   0.2873281   2.2238522  )
        20           O0  tau(  20) = (   0.5000000   0.6530184   2.5186397  )
        21           O0  tau(  21) = (   0.5000000   0.0000000   2.5912283  )
        22           Re1 tau(  22) = (   0.7500000   0.0000000   2.8912547  )
        23           Re1 tau(  23) = (   0.5000000   0.6530184   2.9058631  )
        24           O0  tau(  24) = (   0.7500000   0.9403465   2.8806762  )
        25           O0  tau(  25) = (   0.7500000   0.3656903   2.8804243  )
        26           O0  tau(  26) = (   0.5000000   0.0000000   3.1508309  )
        27           H2  tau(  27) = (  -0.0003300   0.8166387   1.8441345  )
        28           H2  tau(  28) = (   0.4996000   0.8128642   1.8387445  )
        29           H2  tau(  29) = (   0.1687200   0.0311098   1.7921991  )
        30           H2  tau(  30) = (   0.6701100   0.0285761   1.7932066  )
        31           O0  tau(  31) = (   0.4998900   0.6523393   3.2273487  )

     number of k points=    10  Methfessel-Paxton smearing, width (Ry)=  0.0100
                       cart. coord. in units 2pi/alat
        k(    1) = (   0.0000000   0.0000000   0.0000000), wk =   0.1250000
        k(    2) = (   0.0000000   0.1914188   0.0000000), wk =   0.2500000
        k(    3) = (   0.0000000  -0.3828376   0.0000000), wk =   0.1250000
        k(    4) = (   0.2500000   0.0000000   0.0000000), wk =   0.2500000
        k(    5) = (   0.2500000   0.1914188   0.0000000), wk =   0.2500000
        k(    6) = (   0.2500000  -0.3828376   0.0000000), wk =   0.2500000
        k(    7) = (  -0.5000000   0.0000000   0.0000000), wk =   0.1250000
        k(    8) = (  -0.5000000   0.1914188   0.0000000), wk =   0.2500000
        k(    9) = (  -0.5000000  -0.3828376   0.0000000), wk =   0.1250000
        k(   10) = (  -0.2500000   0.1914188   0.0000000), wk =   0.2500000

     Largest allocated arrays     est. size (Mb)     dimensions
     Largest temporary arrays     est. size (Mb)     dimensions

     Check: negative/imaginary core charge=   -0.000003    0.000000

     Initial potential from superposition of free atoms
     Check: negative starting charge=   -0.237495

     starting charge  233.99958, renormalised to  238.00000

     negative rho (up, down):  0.242E+00 0.000E+00
     Number of +U iterations with fixed ns =  0
     Starting occupations:
 --- enter write_ns ---
 LDA+U parameters:
U( 2)     =  1.00000000
alpha( 2) =  0.00000000
atom    3   Tr[ns(na)] =   5.00000
    eigenvalues:
  0.500  0.500  0.500  0.500  0.500
    eigenvectors:
  1.000  0.000  0.000  0.000  0.000
  0.000  1.000  0.000  0.000  0.000
  0.000  0.000  1.000  0.000  0.000
  0.000  0.000  0.000  1.000  0.000
  0.000  0.000  0.000  0.000  1.000
    occupations:
  0.500  0.000  0.000  0.000  0.000
  0.000  0.500  0.000  0.000  0.000
  0.000  0.000  0.500  0.000  0.000
  0.000  0.000  0.000  0.500  0.000
  0.000  0.000  0.000  0.000  0.500
atom    4   Tr[ns(na)] =   5.00000
    eigenvalues:
  0.500  0.500  0.500  0.500  0.500
    eigenvectors:
  1.000  0.000  0.000  0.000  0.000
  0.000  1.000  0.000  0.000  0.000
  0.000  0.000  1.000  0.000  0.000
  0.000  0.000  0.000  1.000  0.000
  0.000  0.000  0.000  0.000  1.000
    occupations:
  0.500  0.000  0.000  0.000  0.000
  0.000  0.500  0.000  0.000  0.000
  0.000  0.000  0.500  0.000  0.000
  0.000  0.000  0.000  0.500  0.000
  0.000  0.000  0.000  0.000  0.500
atom    9   Tr[ns(na)] =   5.00000
    eigenvalues:
  0.500  0.500  0.500  0.500  0.500
    eigenvectors:
  1.000  0.000  0.000  0.000  0.000
  0.000  1.000  0.000  0.000  0.000
  0.000  0.000  1.000  0.000  0.000
  0.000  0.000  0.000  1.000  0.000
  0.000  0.000  0.000  0.000  1.000
    occupations:
  0.500  0.000  0.000  0.000  0.000
  0.000  0.500  0.000  0.000  0.000
  0.000  0.000  0.500  0.000  0.000
  0.000  0.000  0.000  0.500  0.000
  0.000  0.000  0.000  0.000  0.500
atom   10   Tr[ns(na)] =   5.00000
    eigenvalues:
  0.500  0.500  0.500  0.500  0.500
    eigenvectors:
  1.000  0.000  0.000  0.000  0.000
  0.000  1.000  0.000  0.000  0.000
  0.000  0.000  1.000  0.000  0.000
  0.000  0.000  0.000  1.000  0.000
  0.000  0.000  0.000  0.000  1.000
    occupations:
  0.500  0.000  0.000  0.000  0.000
  0.000  0.500  0.000  0.000  0.000
  0.000  0.000  0.500  0.000  0.000
  0.000  0.000  0.000  0.500  0.000
  0.000  0.000  0.000  0.000  0.500
atom   16   Tr[ns(na)] =   5.00000
    eigenvalues:
  0.500  0.500  0.500  0.500  0.500
    eigenvectors:
  1.000  0.000  0.000  0.000  0.000
  0.000  1.000  0.000  0.000  0.000
  0.000  0.000  1.000  0.000  0.000
  0.000  0.000  0.000  1.000  0.000
  0.000  0.000  0.000  0.000  1.000
    occupations:
  0.500  0.000  0.000  0.000  0.000
  0.000  0.500  0.000  0.000  0.000
  0.000  0.000  0.500  0.000  0.000
  0.000  0.000  0.000  0.500  0.000
  0.000  0.000  0.000  0.000  0.500
atom   17   Tr[ns(na)] =   5.00000
    eigenvalues:
  0.500  0.500  0.500  0.500  0.500
    eigenvectors:
  1.000  0.000  0.000  0.000  0.000
  0.000  1.000  0.000  0.000  0.000
  0.000  0.000  1.000  0.000  0.000
  0.000  0.000  0.000  1.000  0.000
  0.000  0.000  0.000  0.000  1.000
    occupations:
  0.500  0.000  0.000  0.000  0.000
  0.000  0.500  0.000  0.000  0.000
  0.000  0.000  0.500  0.000  0.000
  0.000  0.000  0.000  0.500  0.000
  0.000  0.000  0.000  0.000  0.500
atom   22   Tr[ns(na)] =   5.00000
    eigenvalues:
  0.500  0.500  0.500  0.500  0.500
    eigenvectors:
  1.000  0.000  0.000  0.000  0.000
  0.000  1.000  0.000  0.000  0.000
  0.000  0.000  1.000  0.000  0.000
  0.000  0.000  0.000  1.000  0.000
[...]
    eigenvectors:
  0.264  0.000  0.000  0.000  0.736
  0.000  1.000  0.000  0.000  0.000
  0.000  0.000  0.985  0.015  0.000
  0.736  0.000  0.000  0.000  0.264
  0.000  0.000  0.015  0.985  0.000
    occupations:
  0.700 -0.000 -0.000 -0.065  0.000
 -0.000  0.606  0.000  0.000  0.000
 -0.000  0.000  0.616  0.000 -0.011
 -0.065  0.000  0.000  0.630 -0.000
  0.000  0.000 -0.011 -0.000  0.705
atom   10   Tr[ns(na)] =   6.48316
    eigenvalues:
  0.491  0.544  0.667  0.721  0.818
    eigenvectors:
  0.999  0.000  0.000  0.001  0.000
  0.000  0.000  0.000  0.000  1.000
  0.000  0.000  1.000  0.000  0.000
  0.001  0.000  0.000  0.999  0.000
  0.000  1.000  0.000  0.000  0.000
    occupations:
  0.492  0.000  0.000 -0.009 -0.000
  0.000  0.818  0.001 -0.000  0.000
  0.000  0.001  0.667 -0.000  0.000
 -0.009 -0.000 -0.000  0.720 -0.000
 -0.000  0.000  0.000 -0.000  0.544
atom   16   Tr[ns(na)] =   6.53288
    eigenvalues:
  0.543  0.571  0.637  0.756  0.759
    eigenvectors:
  0.000  0.370  0.004  0.094  0.532
  0.998  0.000  0.000  0.000  0.001
  0.000  0.000  0.991  0.002  0.007
  0.000  0.630  0.005  0.055  0.311
  0.001  0.000  0.000  0.850  0.149
    occupations:
  0.689  0.004  0.010 -0.090 -0.001
  0.004  0.543 -0.001 -0.003 -0.007
  0.010 -0.001  0.638 -0.006  0.000
 -0.090 -0.003 -0.006  0.640  0.001
 -0.001 -0.007  0.000  0.001  0.756
atom   17   Tr[ns(na)] =   6.50347
    eigenvalues:
  0.565  0.604  0.616  0.695  0.771
    eigenvectors:
  0.000  0.983  0.000  0.001  0.016
  0.000  0.001  0.005  0.994  0.000
  0.000  0.000  0.994  0.005  0.000
  0.000  0.016  0.000  0.000  0.984
  1.000  0.000  0.000  0.000  0.000
    occupations:
  0.607  0.003  0.000 -0.021  0.000
  0.003  0.694  0.006 -0.000 -0.001
  0.000  0.006  0.617  0.002 -0.000
 -0.021 -0.000  0.002  0.768 -0.000
  0.000 -0.001 -0.000 -0.000  0.565
atom   22   Tr[ns(na)] =   6.51295
    eigenvalues:
  0.592  0.606  0.615  0.707  0.738
    eigenvectors:
  0.264  0.000  0.000  0.004  0.732
  0.000  0.999  0.000  0.000  0.000
  0.000  0.000  0.985  0.015  0.000
  0.736  0.000  0.000  0.001  0.263
  0.000  0.000  0.015  0.980  0.005
    occupations:
  0.699  0.000 -0.000 -0.064  0.002
  0.000  0.606  0.000 -0.000  0.000
 -0.000  0.000  0.616  0.000  0.011
 -0.064 -0.000  0.000  0.630 -0.001
  0.002  0.000  0.011 -0.001  0.705
atom   23   Tr[ns(na)] =   6.52814
    eigenvalues:
  0.578  0.605  0.624  0.650  0.808
    eigenvectors:
  0.000  0.000  0.000  0.980  0.020
  0.000  0.000  1.000  0.000  0.000
  0.000  1.000  0.000  0.000  0.000
  0.000  0.000  0.000  0.020  0.980
  1.000  0.000  0.000  0.000  0.000
    occupations:
  0.653  0.000 -0.000 -0.022 -0.000
  0.000  0.624 -0.000 -0.000  0.000
 -0.000 -0.000  0.605  0.001  0.000
 -0.022 -0.000  0.001  0.805 -0.000
 -0.000  0.000  0.000 -0.000  0.578
N of occupied +U levels =  52.1191325
 --- exit write_ns ---

     Threshold (ethr) on eigenvalues was too large:
     Diagonalizing with lowered threshold

     Davidson diagonalization with overlap
     ethr =  2.26E-08,  avg # of iterations =  1.9

[...]

     total energy              =   -2174.72459781 Ry
     Harris-Foulkes estimate   =   -2174.72459781 Ry
     estimated scf accuracy    <       0.00000001 Ry

     iteration # 15     ecut=    40.00 Ry     beta=0.70
     Davidson diagonalization with overlap
     ethr =  5.40E-12,  avg # of iterations =  1.0

     negative rho (up, down):  0.248E+00 0.000E+00

     End of self-consistent calculation
 --- enter write_ns ---
 LDA+U parameters:
U( 2)     =  1.00000000
alpha( 2) =  0.00000000
atom    3   Tr[ns(na)] =   6.53158
    eigenvalues:
  0.543  0.571  0.636  0.756  0.759
    eigenvectors:
  0.000  0.370  0.004  0.081  0.545
  0.998  0.000  0.000  0.001  0.001
  0.000  0.000  0.991  0.001  0.007
  0.000  0.630  0.004  0.047  0.318
  0.001  0.000  0.000  0.871  0.128
    occupations:
  0.689 -0.004  0.009 -0.090  0.001
 -0.004  0.544  0.001  0.003 -0.007
  0.009  0.001  0.637 -0.006 -0.000
 -0.090  0.003 -0.006  0.640 -0.001
  0.001 -0.007 -0.000 -0.001  0.756
atom    4   Tr[ns(na)] =   6.51052
    eigenvalues:
  0.564  0.602  0.623  0.698  0.768
    eigenvectors:
  0.000  0.981  0.000  0.001  0.018
  0.000  0.001  0.007  0.992  0.000
  0.000  0.000  0.993  0.007  0.000
  0.000  0.018  0.000  0.000  0.982
  1.000  0.000  0.000  0.000  0.000
    occupations:
  0.605  0.003  0.000 -0.022  0.000
  0.003  0.697  0.006 -0.000 -0.001
  0.000  0.006  0.623  0.000 -0.000
 -0.022 -0.000  0.000  0.765 -0.000
  0.000 -0.001 -0.000 -0.000  0.564
atom    9   Tr[ns(na)] =   6.51412
    eigenvalues:
  0.591  0.605  0.615  0.707  0.739
    eigenvectors:
  0.264  0.000  0.000  0.000  0.736
  0.000  1.000  0.000  0.000  0.000
  0.000  0.000  0.986  0.014  0.000
  0.736  0.000  0.000  0.000  0.264
  0.000  0.000  0.014  0.985  0.000
    occupations:
  0.700 -0.000 -0.000 -0.065  0.000
 -0.000  0.605  0.000  0.000  0.000
 -0.000  0.000  0.616  0.000 -0.011
 -0.065  0.000  0.000  0.630 -0.000
  0.000  0.000 -0.011 -0.000  0.705
atom   10   Tr[ns(na)] =   6.48377
    eigenvalues:
  0.492  0.544  0.667  0.721  0.818
    eigenvectors:
  0.999  0.000  0.000  0.001  0.000
  0.000  0.000  0.000  0.000  1.000
  0.000  0.000  1.000  0.000  0.000
  0.001  0.000  0.000  0.998  0.000
  0.000  1.000  0.000  0.000  0.000
    occupations:
  0.492  0.000  0.000 -0.009 -0.000
  0.000  0.818  0.001 -0.000  0.000
  0.000  0.001  0.667 -0.000  0.000
 -0.009 -0.000 -0.000  0.720 -0.000
 -0.000  0.000  0.000 -0.000  0.544
atom   16   Tr[ns(na)] =   6.53150
    eigenvalues:
  0.543  0.571  0.637  0.756  0.759
    eigenvectors:
  0.000  0.370  0.004  0.072  0.554
  0.998  0.000  0.000  0.001  0.001
  0.000  0.000  0.991  0.001  0.007
  0.000  0.630  0.005  0.042  0.323
  0.001  0.000  0.000  0.884  0.115
    occupations:
  0.689  0.004  0.010 -0.090 -0.001
  0.004  0.543 -0.001 -0.003 -0.007
  0.010 -0.001  0.638 -0.006  0.000
 -0.090 -0.003 -0.006  0.640  0.001
 -0.001 -0.007  0.000  0.001  0.756
atom   17   Tr[ns(na)] =   6.50232
    eigenvalues:
  0.565  0.604  0.616  0.695  0.771
    eigenvectors:
  0.000  0.983  0.000  0.001  0.016
  0.000  0.001  0.005  0.994  0.000
  0.000  0.000  0.994  0.005  0.000
  0.000  0.016  0.000  0.000  0.984
  1.000  0.000  0.000  0.000  0.000
    occupations:
  0.607  0.003  0.000 -0.021  0.000
  0.003  0.694  0.006 -0.000 -0.001
  0.000  0.006  0.617  0.002 -0.000
 -0.021 -0.000  0.002  0.768 -0.000
  0.000 -0.001 -0.000 -0.000  0.565
atom   22   Tr[ns(na)] =   6.51365
    eigenvalues:
  0.592  0.606  0.615  0.707  0.738
    eigenvectors:
  0.264  0.000  0.000  0.004  0.732
  0.000  0.999  0.000  0.000  0.000
  0.000  0.000  0.985  0.014  0.000
  0.736  0.000  0.000  0.001  0.263
  0.000  0.000  0.014  0.980  0.005
    occupations:
  0.699  0.000 -0.000 -0.064  0.002
  0.000  0.606  0.000 -0.000  0.000
 -0.000  0.000  0.616  0.000  0.011
 -0.064 -0.000  0.000  0.630 -0.001
  0.002  0.000  0.011 -0.001  0.706
atom   23   Tr[ns(na)] =   6.52873
    eigenvalues:
  0.578  0.605  0.624  0.650  0.808
    eigenvectors:
  0.000  0.000  0.000  0.980  0.020
  0.000  0.000  1.000  0.000  0.000
  0.000  1.000  0.000  0.000  0.000
  0.000  0.000  0.000  0.020  0.980
  1.000  0.000  0.000  0.000  0.000
    occupations:
  0.653  0.000 -0.000 -0.022 -0.000
  0.000  0.624 -0.000 -0.000  0.000
 -0.000 -0.000  0.605  0.001  0.000
 -0.022 -0.000  0.001  0.805 -0.000
 -0.000  0.000  0.000 -0.000  0.578
N of occupied +U levels =  52.1161854
 --- exit write_ns ---

[...]

          k = 0.2500-0.3828 0.0000 ( 29202 PWs)   bands (ev):

[...]

          k =-0.2500 0.1914 0.0000 ( 29229 PWs)   bands (ev):

   -82.2651 -81.6837 -81.5992 -81.4547 -81.4146 -81.2140 -81.1749 -81.1241
   -44.4140 -44.1092 -43.9845 -43.7690 -43.6199 -43.5865 -43.5705 -43.4863
   -43.4514 -43.4441 -43.3820 -43.3138 -43.2846 -43.2007 -43.1793 -43.1509
   -43.1178 -43.1114 -43.0943 -43.0589 -43.0581 -42.9812 -42.8920 -42.6852
   -21.0974 -20.6721 -20.6068 -20.4810 -20.4004 -20.0880 -20.0675 -20.0414
   -19.8127 -19.7564 -19.6668 -19.6172 -19.5166 -19.3980 -19.3615 -19.1628
   -18.6222 -18.5314 -18.3518  -9.2516  -9.0567  -8.9805  -8.8473  -8.7173
    -8.6802  -8.5345  -8.4216  -8.2434  -8.0890  -8.0166  -7.7773  -7.6993
    -7.5896  -7.4169  -7.2796  -7.1525  -6.9984  -6.9016  -6.7577  -6.6734
    -6.4598  -6.3624  -6.2410  -6.0617  -5.9799  -5.8685  -5.7695  -5.6984
    -5.4711  -5.4170  -5.3414  -5.2651  -5.1990  -5.0416  -4.9957  -4.9104
    -4.8677  -4.7600  -4.6399  -4.4380  -4.3928  -4.2139  -4.1532  -4.0644
    -4.0211  -3.9147  -3.8561  -3.7033  -3.6527  -3.5839  -3.5153  -3.3442
    -3.1851  -3.0374  -2.9412  -2.8304  -2.4035  -2.3678  -2.0991  -1.2216
    -1.1611  -1.0803  -0.8790  -0.3043  -0.2531   0.2337   0.3101   0.3567
     0.5317   0.5633   0.6917   0.8887   1.0700   1.2010   1.2782   1.3540
     1.3903   1.6596   1.6673   1.8938   2.1240   3.2200   3.3915   3.4296
     3.5841   3.6611   3.8274   4.1101   4.2134   4.3519   4.4429   4.6476
     4.7971   5.2115   5.4353   5.5034   5.7421   5.8542   6.0498   6.1541
     6.2349   6.4050   6.6442   6.8744   7.0940   7.2435   7.3953   7.6007
     7.6222   7.8111   8.0400   8.1171   8.2046   8.3478   8.5196   8.5840
     8.6315   8.6991   8.9101   9.0128   9.1462   9.3558   9.4506   9.5678
     9.6496   9.7509   9.8234   9.8754   9.9163  10.0059  10.0393  10.1659
    10.2432  10.3080  10.3859  10.4240  10.5231  10.6667  10.7778  10.9109
    11.0008  11.0863  11.1653  11.3601  11.3805  11.5298  11.5886  11.7835
    11.8304  11.9380  12.0827  12.2291  12.3427  12.5185  12.5433  12.5871
    12.6755  12.7148  12.8099  12.8541  12.9660  13.0525  13.0965  13.2447
    13.3283  13.4698  13.5418  13.5769  13.6761  13.7339  13.7560  13.8277
    13.8570  13.9150  14.0327  14.1182  14.1524  14.2082  14.2461  14.4032
    14.4408  14.4677  14.5117  14.6471  14.6621  14.7915  14.8359  14.9014
    14.9883  15.0201  15.0700  15.1443  15.1872  15.2279  15.2937  15.4689
    15.5225  15.5789  15.6615  15.7785  15.8905  16.0380  16.0869  16.1439
    16.2152  16.2947  16.3384  16.4312  16.5120  16.5515  16.6171  16.6579
    16.7663  16.8664  16.9174  17.0358  17.1209  17.1765  17.2429  17.3587
    17.4519  17.4921  17.5973  17.7026  17.7360  17.8117  17.8917  17.9308
    17.9973  18.0866  18.1308  18.1635  18.2872  18.3020  18.3432  18.4227
    18.5068  18.6000  18.6555  18.7266  18.7937  18.8862  18.9454  19.0120
    19.0996  19.1775  19.2718  19.4159  19.4752  19.5640  19.6350  19.6864
    19.7751  19.8933  19.9820  20.0495  20.0880  20.1880  20.2127  20.3303
    20.4430  20.4814  20.5685  20.5937  20.6514  20.6964  20.8023  20.8736
    20.9399  21.0284  21.0911  21.1646  21.1947  21.2580  21.2959  21.3616
    21.4275  21.4798  21.5524  21.6118  21.6331  21.7340  21.8202  21.9049
    21.9631  22.0435  22.0842  22.1722  22.1999  22.2327  22.3168  22.4075
    22.4279  22.4747  22.5207  22.5597  22.6287  22.6809  22.7159  22.7809
    22.8081  22.8661  22.9253  22.9858  23.0386

     the Fermi energy is     0.2735 ev

!    total energy              =   -2174.72459780 Ry
     Harris-Foulkes estimate   =   -2174.72459780 Ry
     estimated scf accuracy    <          6.3E-10 Ry

     The total energy is the sum of the following terms:

     one-electron contribution =  -24207.55777612 Ry
     hartree contribution      =   12118.10782968 Ry
     xc contribution           =    -594.21523782 Ry
     ewald contribution        =   10508.29455605 Ry
     Hubbard energy            =       0.64745718 Ry
     smearing contrib. (-TS)   =      -0.00142678 Ry

     convergence has been achieved in  15 iterations

     Forces acting on atoms (Ry/au):

     negative rho (up, down):  0.248E+00 0.000E+00
     atom    1 type  1   force =    -0.00663140   -0.00706413   -0.00049845
     atom    2 type  1   force =     0.00006271    0.00479313   -0.00000314
     atom    3 type  2   force =     0.03330087   -0.00306450   -0.00004652
     atom    4 type  2   force =     0.00184157    0.00777878    0.00016161
     atom    5 type  1   force =     0.00366551    0.00998411    0.00015555
     atom    6 type  1   force =     0.00217085   -0.01071492    0.00018465
     atom    7 type  1   force =    -0.00004352   -0.00021633    0.00039347
     atom    8 type  1   force =     0.00260350   -0.00126871    0.00044893
     atom    9 type  2   force =    -0.01936479    0.00187086    0.00007858
     atom   10 type  2   force =    -0.00012232   -0.00084568    0.00029760
     atom   11 type  1   force =    -0.01266111   -0.01814454   -0.00041134
     atom   12 type  1   force =    -0.01345420    0.01797881   -0.00042507
     atom   13 type  1   force =    -0.00041420   -0.00040384   -0.00023075
     atom   14 type  1   force =    -0.00299784   -0.00644049   -0.00032392
     atom   15 type  1   force =    -0.00005777    0.00281812   -0.00006254
     atom   16 type  2   force =    -0.03363231   -0.00291251   -0.00008446
     atom   17 type  2   force =     0.00137509    0.00850863    0.00001541
     atom   18 type  1   force =    -0.00012066    0.00982344    0.00015921
     atom   19 type  1   force =    -0.00173883   -0.01047775    0.00018584
     atom   20 type  1   force =    -0.00003570   -0.00148197   -0.00041781
     atom   21 type  1   force =     0.00311644   -0.00198015    0.00055227
     atom   22 type  2   force =     0.01599523    0.00209947    0.00007801
     atom   23 type  2   force =     0.00009187   -0.00001510    0.00046054
     atom   24 type  1   force =     0.01305732   -0.01827458   -0.00041241
     atom   25 type  1   force =     0.01304849    0.01778421   -0.00042276
     atom   26 type  1   force =    -0.00049939   -0.00075671    0.00006302
     atom   27 type  3   force =    -0.00000283    0.00019539    0.00032263
     atom   28 type  3   force =    -0.00000209    0.00030355    0.00031837
     atom   29 type  3   force =     0.00074035    0.00009721   -0.00007247
     atom   30 type  3   force =     0.00070512    0.00002769   -0.00005735
     atom   31 type  1   force =     0.00000403   -0.00000148   -0.00040674

     Total force =     0.001995     Total SCF correction =     0.000145

     bfgs converged in   6 scf cycles and   5 bfgs steps
     (criteria: energy < 0.10E-03, force < 0.10E-02)

     End of BFGS Geometry Optimization

     Final energy   =   -2174.7245978048 Ry
Begin final coordinates

ATOMIC_POSITIONS (crystal)
O0       0.000000000   0.000000000   0.370381379    0   0   1
O0       0.000000000   0.500000000   0.383011692    0   0   1
Re1      0.250000000   0.500000000   0.442651162    0   0   1
Re1      0.000000000   0.000000000   0.443001611    0   0   1
O0       0.250000000   0.780000000   0.441673112    0   0   1
O0       0.250000000   0.220000000   0.441464964    0   0   1
O0       0.000000000   0.500000000   0.497583926    0   0   1
O0       0.000000000   0.000000000   0.514326161    0   0   1
Re1      0.250000000   0.000000000   0.573821085    0   0   1
Re1      0.000000000   0.500000000   0.567118749    0   0   1
O0       0.250000000   0.720000000   0.571664198    0   0   1
O0       0.250000000   0.280000000   0.571703414    0   0   1
O0       0.000000000   0.000000000   0.626016737    0   0   1
O0       0.500000000   0.000000000   0.370319749    0   0   1
O0       0.500000000   0.500000000   0.383269392    0   0   1
Re1      0.750000000   0.500000000   0.442647861    0   0   1
Re1      0.500000000   0.000000000   0.442659203    0   0   1
O0       0.750000000   0.780000000   0.441568657    0   0   1
O0       0.750000000   0.220000000   0.441536647    0   0   1
O0       0.500000000   0.500000000   0.500097531    0   0   1
O0       0.500000000   0.000000000   0.514284713    0   0   1
Re1      0.750000000   0.000000000   0.573863290    0   0   1
Re1      0.500000000   0.500000000   0.576676316    0   0   1
O0       0.750000000   0.720000000   0.571732335    0   0   1
O0       0.750000000   0.280000000   0.571693756    0   0   1
O0       0.500000000   0.000000000   0.625336825    0   0   1
H2      -0.000328946   0.625234066   0.366223340
H2       0.499591356   0.622443077   0.365180603
H2       0.168379633   0.023720936   0.355860421
H2       0.669891127   0.021731648   0.356062736
O0       0.499892458   0.499451358   0.640418433
End final coordinates

     General routines

     Parallel routines
     Hubbard U routines

   This run was terminated on:  13:10: 1   1May2014

   JOB DONE.
Running PBS batch system epilogue script
Job id: 340605.audhumbla.fysik.dtu.dk
Username: zhonxu
Groupname: campgst
Jobname: ReO2/Eads-2-layers/O-U-1.0
Sessionid: 5843
Queuename: verylong
Accounting:
This job has allocated the following 16 nodes:
a085 a085 a085 a085 a085 a085 a085 a085 a023 a023 a023 a023 a023 a023 a023 a023
Finished epilogue job 340605.audhumbla.fysik.dtu.dk for zhonxu