     Program PWSCF v.5.0.2 (svn rev. 9656) starts on 16May2014 at  3:37:56

     Current dimensions of program PWSCF are:
     Max number of different atomic species (ntypx) = 10
     Max number of k-points (npk) =  40000
     Max angular momentum in pseudopotentials (lmaxx) =  3
     Reading input from pwscf.in
Warning: card &CELL ignored
Warning: card / ignored

     Subspace diagonalization in iterative solution of the eigenvalue problem:
     a serial algorithm will be used

     bravais-lattice index     =            0
     lattice parameter (alat)  =      11.7919  a.u.
     unit-cell volume          =    7123.6633 (a.u.)^3
     number of atoms/cell      =           32
     number of atomic types    =            3
     number of electrons       =       247.00
     number of Kohn-Sham states=          358
     kinetic-energy cutoff     =      40.0000  Ry
     charge density cutoff     =     500.0000  Ry
     convergence threshold     =      1.0E-06
     mixing beta               =       0.1000
     number of iterations used =            8  plain     mixing
     Exchange-correlation      = SLA  PW   PBE  PBE ( 1 4 3 4 0)
     EXX-fraction              =        0.00
     nstep                     =           50

     celldm(1)=  11.791891  celldm(2)=   0.000000  celldm(3)=   0.000000
     celldm(4)=   0.000000  celldm(5)=   0.000000  celldm(6)=   0.000000

     crystal axes: (cart. coord. in units of alat)
               a(1) = (   1.000000   0.000000   0.000000 )
               a(2) = (   0.000000   1.026665   0.000000 )
               a(3) = (   0.000000   0.000000   4.231793 )

     reciprocal axes: (cart. coord. in units 2 pi/alat)
               b(1) = (  1.000000  0.000000  0.000000 )
               b(2) = (  0.000000  0.974028  0.000000 )
               b(3) = (  0.000000  0.000000  0.236306 )

     PseudoPot. # 1 for O  read from file:
     /home/camp/zhonxu/pseudo/o_pbe_v1.01.uspp.F.UPF
     MD5 check sum: 2bcb18d16ea4b960afae9ec6d52f22d2
     Pseudo is Ultrasoft + core correction, Zval =  6.0
     Generated by new atomic code, or converted to UPF format
     Using radial grid of  737 points,  5 beta functions with:
                l(1) =   0
                l(2) =   0
                l(3) =   1
                l(4) =   1
                l(5) =   2
     Q(r) pseudized with  8 coefficients,  rinner =    0.900   0.900   0.900
                                                       0.900   0.900

     PseudoPot. # 2 for Ru read from file:
     /home/camp/zhonxu/pseudo/ru_pbe_v1.uspp.F.UPF
     MD5 check sum: df00be1c11b23341d9806d8f1dfa10cf
     Pseudo is Ultrasoft + core correction, Zval = 16.0
     Generated by new atomic code, or converted to UPF format
     Using radial grid of  967 points,  6 beta functions with:
                l(1) =   0
                l(2) =   0
                l(3) =   1
                l(4) =   1
                l(5) =   2
                l(6) =   2
     Q(r) pseudized with  8 coefficients,  rinner =    1.300   1.300   1.300
                                                       1.300   1.300

     PseudoPot. # 3 for H  read from file:
     /home/camp/zhonxu/pseudo/h_pbe_v1.uspp.F.UPF
     MD5 check sum: 3408e3ff4ec8b0a4e358431e7e038a48
     Pseudo is Ultrasoft, Zval =  1.0
     Generated by new atomic code, or converted to UPF format
     Using radial grid of  615 points,  2 beta functions with:
                l(1) =   0
                l(2) =   0
     Q(r) pseudized with  8 coefficients,  rinner =    0.700

     atomic species   valence    mass     pseudopotential
        O0             6.00    15.99940     O ( 1.00)
        Ru1           16.00   101.07000     Ru( 1.00)
        H2             1.00     1.00794     H ( 1.00)

     Simplified LDA+U calculation (l_max = 2) with parameters (eV):
     atomic species    L          U    alpha       J0     beta
        Ru1            2     0.0000   0.0000   0.0000   0.0000

     No symmetry found

   Cartesian axes

     site n.     atom                  positions (alat units)
         1           O0  tau(   1) = (   0.0000000   0.0000000   1.6035109  )
         2           O0  tau(   2) = (   0.0000000   0.5133323   1.7058780  )
         3           Ru1 tau(   3) = (   0.2500000   0.5133323   1.9200491  )
         4           Ru1 tau(   4) = (   0.0000000   0.0000000   1.9171714  )
         5           O0  tau(   5) = (   0.2500000   0.8315984   1.9169175  )
         6           O0  tau(   6) = (   0.2500000   0.1950663   1.9164520  )
         7           O0  tau(   7) = (   0.0000000   0.5133323   2.1053593  )
         8           O0  tau(   8) = (   0.0000000   0.0000000   2.2310435  )
         9           Ru1 tau(   9) = (   0.2500000   0.0000000   2.4441566  )
        10           Ru1 tau(  10) = (   0.0000000   0.5133323   2.4052664  )
        11           O0  tau(  11) = (   0.2500000   0.7083986   2.4364547  )
        12           O0  tau(  12) = (   0.2500000   0.3182660   2.4361585  )
        13           O0  tau(  13) = (   0.0000000   0.0000000   2.6233307  )
        14           O0  tau(  14) = (   0.5000000   0.0000000   1.6045689  )
        15           O0  tau(  15) = (   0.5000000   0.5133323   1.7057934  )
        16           Ru1 tau(  16) = (   0.7500000   0.5133323   1.9200914  )
        17           Ru1 tau(  17) = (   0.5000000   0.0000000   1.9176369  )
        18           O0  tau(  18) = (   0.7500000   0.8315984   1.9167059  )
        19           O0  tau(  19) = (   0.7500000   0.1950663   1.9164520  )
        20           O0  tau(  20) = (   0.5000000   0.5133323   2.1229635  )
        21           O0  tau(  21) = (   0.5000000   0.0000000   2.2303664  )
        22           Ru1 tau(  22) = (   0.7500000   0.0000000   2.4441143  )
        23           Ru1 tau(  23) = (   0.5000000   0.5133323   2.4370472  )
        24           O0  tau(  24) = (   0.7500000   0.7083986   2.4343812  )
        25           O0  tau(  25) = (   0.7500000   0.3182660   2.4338310  )
        26           O0  tau(  26) = (   0.5000000   0.0000000   2.6134283  )
        27           H2  tau(  27) = (  -0.0002400   0.6455975   1.6183222  )
        28           H2  tau(  28) = (   0.4995500   0.6408954   1.6119322  )
        29           H2  tau(  29) = (   0.1457200   0.0328533   1.5514599  )
        30           H2  tau(  30) = (   0.6465200   0.0301223   1.5527294  )
        31           O0  tau(  31) = (   0.5138700   0.5107965   2.7447408  )
        32           H2  tau(  32) = (   0.3716000   0.5093694   2.8125765  )

     number of k points=    10  Methfessel-Paxton smearing, width (Ry)=  0.0100
                       cart. coord. in units 2pi/alat
        k(    1) = (   0.0000000   0.0000000   0.0000000), wk =   0.1250000
        k(    2) = (   0.0000000   0.2435070   0.0000000), wk =   0.2500000
        k(    3) = (   0.0000000  -0.4870139   0.0000000), wk =   0.1250000
        k(    4) = (   0.2500000   0.0000000   0.0000000), wk =   0.2500000
        k(    5) = (   0.2500000   0.2435070   0.0000000), wk =   0.2500000
        k(    6) = (   0.2500000  -0.4870139   0.0000000), wk =   0.2500000
        k(    7) = (  -0.5000000   0.0000000   0.0000000), wk =   0.1250000
        k(    8) = (  -0.5000000   0.2435070   0.0000000), wk =   0.2500000
        k(    9) = (  -0.5000000  -0.4870139   0.0000000), wk =   0.1250000
        k(   10) = (  -0.2500000   0.2435070   0.0000000), wk =   0.2500000

     Largest allocated arrays     est. size (Mb)     dimensions
     Largest temporary arrays     est. size (Mb)     dimensions

     Check: negative/imaginary core charge=   -0.000003    0.000000

     Initial potential from superposition of free atoms
     Check: negative starting charge=   -0.522051

     starting charge  238.99980, renormalised to  247.00000

     negative rho (up, down):  0.540E+00 0.000E+00
     Number of +U iterations with fixed ns =  0
     Starting occupations:
 --- enter write_ns ---
 LDA+U parameters:
U( 2)     =  0.00000000
alpha( 2) =  0.00000000
atom    3   Tr[ns(na)] =   6.00000
    eigenvalues:
  0.600  0.600  0.600  0.600  0.600
    eigenvectors:
  1.000  0.000  0.000  0.000  0.000
  0.000  1.000  0.000  0.000  0.000
  0.000  0.000  1.000  0.000  0.000
  0.000  0.000  0.000  1.000  0.000
  0.000  0.000  0.000  0.000  1.000
    occupations:
  0.600  0.000  0.000  0.000  0.000
  0.000  0.600  0.000  0.000  0.000
  0.000  0.000  0.600  0.000  0.000
  0.000  0.000  0.000  0.600  0.000
  0.000  0.000  0.000  0.000  0.600
atom    4   Tr[ns(na)] =   6.00000
    eigenvalues:
  0.600  0.600  0.600  0.600  0.600
    eigenvectors:
  1.000  0.000  0.000  0.000  0.000
  0.000  1.000  0.000  0.000  0.000
  0.000  0.000  1.000  0.000  0.000
  0.000  0.000  0.000  1.000  0.000
  0.000  0.000  0.000  0.000  1.000
    occupations:
  0.600  0.000  0.000  0.000  0.000
  0.000  0.600  0.000  0.000  0.000
  0.000  0.000  0.600  0.000  0.000
  0.000  0.000  0.000  0.600  0.000
  0.000  0.000  0.000  0.000  0.600
atom    9   Tr[ns(na)] =   6.00000
    eigenvalues:
  0.600  0.600  0.600  0.600  0.600
    eigenvectors:
  1.000  0.000  0.000  0.000  0.000
  0.000  1.000  0.000  0.000  0.000
  0.000  0.000  1.000  0.000  0.000
  0.000  0.000  0.000  1.000  0.000
  0.000  0.000  0.000  0.000  1.000
    occupations:
  0.600  0.000  0.000  0.000  0.000
  0.000  0.600  0.000  0.000  0.000
  0.000  0.000  0.600  0.000  0.000
  0.000  0.000  0.000  0.600  0.000
  0.000  0.000  0.000  0.000  0.600
atom   10   Tr[ns(na)] =   6.00000
    eigenvalues:
  0.600  0.600  0.600  0.600  0.600
    eigenvectors:
  1.000  0.000  0.000  0.000  0.000
  0.000  1.000  0.000  0.000  0.000
  0.000  0.000  1.000  0.000  0.000
  0.000  0.000  0.000  1.000  0.000
  0.000  0.000  0.000  0.000  1.000
    occupations:
  0.600  0.000  0.000  0.000  0.000
  0.000  0.600  0.000  0.000  0.000
  0.000  0.000  0.600  0.000  0.000
  0.000  0.000  0.000  0.600  0.000
  0.000  0.000  0.000  0.000  0.600
atom   16   Tr[ns(na)] =   6.00000
    eigenvalues:
  0.600  0.600  0.600  0.600  0.600
    eigenvectors:
  1.000  0.000  0.000  0.000  0.000
  0.000  1.000  0.000  0.000  0.000
  0.000  0.000  1.000  0.000  0.000
  0.000  0.000  0.000  1.000  0.000
  0.000  0.000  0.000  0.000  1.000
    occupations:
  0.600  0.000  0.000  0.000  0.000
  0.000  0.600  0.000  0.000  0.000
  0.000  0.000  0.600  0.000  0.000
  0.000  0.000  0.000  0.600  0.000
  0.000  0.000  0.000  0.000  0.600
atom   17   Tr[ns(na)] =   6.00000
    eigenvalues:
  0.600  0.600  0.600  0.600  0.600
    eigenvectors:
  1.000  0.000  0.000  0.000  0.000
  0.000  1.000  0.000  0.000  0.000
  0.000  0.000  1.000  0.000  0.000
  0.000  0.000  0.000  1.000  0.000
  0.000  0.000  0.000  0.000  1.000
    occupations:
  0.600  0.000  0.000  0.000  0.000
  0.000  0.600  0.000  0.000  0.000
  0.000  0.000  0.600  0.000  0.000
  0.000  0.000  0.000  0.600  0.000
  0.000  0.000  0.000  0.000  0.600
atom   22   Tr[ns(na)] =   6.00000
    eigenvalues:
  0.600  0.600  0.600  0.600  0.600
    eigenvectors:
  1.000  0.000  0.000  0.000  0.000
  0.000  1.000  0.000  0.000  0.000
  0.000  0.000  1.000  0.000  0.000
  0.000  0.000  0.000  1.000  0.000
  0.000  0.000  0.000  0.000  1.000
[...]
  0.031 -0.001  0.001  0.940  0.000
  0.001 -0.001  0.000  0.000  0.559
atom    9   Tr[ns(na)] =   7.11405
    eigenvalues:
  0.587  0.605  0.757  0.801  0.807
    eigenvectors:
  0.000  0.151  0.000  0.042  0.807
  0.996  0.004  0.000  0.000  0.000
  0.000  0.000  0.999  0.001  0.000
  0.004  0.845  0.000  0.008  0.143
  0.000  0.000  0.001  0.950  0.049
    occupations:
  0.777 -0.003 -0.001 -0.072  0.001
 -0.003  0.587  0.001  0.002  0.000
 -0.001  0.001  0.757  0.000  0.001
 -0.072  0.002  0.000  0.636 -0.000
  0.001  0.000  0.001 -0.000  0.801
atom   10   Tr[ns(na)] =   7.16127
    eigenvalues:
  0.545  0.570  0.741  0.789  0.936
    eigenvectors:
  0.000  0.990  0.000  0.000  0.010
  0.000  0.000  0.000  1.000  0.000
  0.000  0.000  1.000  0.000  0.000
  0.000  0.010  0.000  0.000  0.990
  1.000  0.000  0.000  0.000  0.000
    occupations:
  0.573 -0.003 -0.002  0.036 -0.000
 -0.003  0.789  0.000 -0.000  0.000
 -0.002  0.000  0.741  0.000  0.001
  0.036 -0.000  0.000  0.933  0.000
 -0.000  0.000  0.001  0.000  0.545
atom   16   Tr[ns(na)] =   7.15290
    eigenvalues:
  0.532  0.572  0.727  0.813  0.934
    eigenvectors:
  0.000  0.195  0.007  0.003  0.794
  0.999  0.001  0.000  0.000  0.000
  0.000  0.000  0.970  0.017  0.012
  0.001  0.804  0.004  0.000  0.191
  0.000  0.000  0.019  0.979  0.002
    occupations:
  0.861  0.000  0.021 -0.142  0.003
  0.000  0.532 -0.001  0.001 -0.003
  0.021 -0.001  0.731 -0.007  0.012
 -0.142  0.001 -0.007  0.642 -0.003
  0.003 -0.003  0.012 -0.003  0.811
atom   17   Tr[ns(na)] =   7.13133
    eigenvalues:
  0.560  0.605  0.686  0.769  0.946
    eigenvectors:
  0.000  0.991  0.000  0.000  0.009
  0.000  0.000  0.016  0.984  0.000
  0.000  0.000  0.984  0.016  0.000
  0.000  0.009  0.000  0.000  0.991
  1.000  0.000  0.000  0.000  0.000
    occupations:
  0.608 -0.001  0.000  0.032  0.001
 -0.001  0.768  0.011 -0.001 -0.001
  0.000  0.011  0.687  0.001  0.000
  0.032 -0.001  0.001  0.943  0.000
  0.001 -0.001  0.000  0.000  0.560
atom   22   Tr[ns(na)] =   7.10139
    eigenvalues:
  0.586  0.606  0.753  0.800  0.806
    eigenvectors:
  0.000  0.151  0.000  0.002  0.847
  0.999  0.000  0.000  0.000  0.000
  0.000  0.000  0.999  0.001  0.000
  0.001  0.849  0.000  0.000  0.150
  0.000  0.000  0.001  0.997  0.002
    occupations:
  0.776  0.003 -0.000 -0.072  0.000
  0.003  0.586  0.000 -0.002  0.000
 -0.000  0.000  0.753  0.000 -0.001
 -0.072 -0.002  0.000  0.636 -0.000
  0.000  0.000 -0.001 -0.000  0.800
atom   23   Tr[ns(na)] =   7.12654
    eigenvalues:
  0.559  0.609  0.674  0.791  0.931
    eigenvectors:
  0.000  0.989  0.001  0.000  0.010
  0.000  0.000  0.000  1.000  0.000
  0.000  0.001  0.999  0.000  0.000
  0.000  0.010  0.000  0.000  0.990
  1.000  0.000  0.000  0.000  0.000
    occupations:
  0.612  0.004 -0.002  0.032  0.000
  0.004  0.791  0.001  0.000  0.001
 -0.002  0.001  0.674  0.000 -0.001
  0.032  0.000  0.000  0.928 -0.000
  0.000  0.001 -0.001 -0.000  0.559
N of occupied +U levels =  57.0703157
 --- exit write_ns ---

     Threshold (ethr) on eigenvalues was too large:
     Diagonalizing with lowered threshold

     Davidson diagonalization with overlap
     ethr =  3.05E-08,  avg # of iterations =  1.5

[...]

     total energy              =   -2164.72985483 Ry
     Harris-Foulkes estimate   =   -2164.72985483 Ry
     estimated scf accuracy    <       0.00000001 Ry

     iteration # 11     ecut=    40.00 Ry     beta=0.10
     Davidson diagonalization with overlap
     ethr =  5.06E-12,  avg # of iterations =  1.0

     negative rho (up, down):  0.581E+00 0.000E+00

     End of self-consistent calculation
 --- enter write_ns ---
 LDA+U parameters:
U( 2)     =  0.00000000
alpha( 2) =  0.00000000
atom    3   Tr[ns(na)] =   7.15090
    eigenvalues:
  0.531  0.572  0.727  0.812  0.933
    eigenvectors:
  0.000  0.195  0.007  0.004  0.794
  0.999  0.001  0.000  0.000  0.000
  0.000  0.000  0.973  0.014  0.012
  0.000  0.804  0.004  0.001  0.191
  0.000  0.000  0.016  0.981  0.003
    occupations:
  0.860  0.000  0.021 -0.142 -0.004
  0.000  0.532  0.001 -0.001 -0.003
  0.021  0.001  0.731 -0.008 -0.011
 -0.142 -0.001 -0.008  0.641  0.003
 -0.004 -0.003 -0.011  0.003  0.811
atom    4   Tr[ns(na)] =   7.13709
    eigenvalues:
  0.559  0.602  0.699  0.766  0.943
    eigenvectors:
  0.000  0.991  0.000  0.000  0.009
  0.000  0.000  0.032  0.968  0.000
  0.000  0.000  0.968  0.032  0.000
  0.000  0.009  0.000  0.000  0.991
  1.000  0.000  0.000  0.000  0.000
    occupations:
  0.605 -0.001 -0.001  0.031  0.001
 -0.001  0.764  0.012 -0.001 -0.001
 -0.001  0.012  0.701  0.001  0.000
  0.031 -0.001  0.001  0.940  0.000
  0.001 -0.001  0.000  0.000  0.559
atom    9   Tr[ns(na)] =   7.10837
    eigenvalues:
  0.587  0.605  0.756  0.800  0.806
    eigenvectors:
  0.000  0.151  0.000  0.047  0.801
  0.996  0.004  0.000  0.000  0.000
  0.000  0.000  0.999  0.001  0.000
  0.004  0.845  0.000  0.009  0.142
  0.000  0.000  0.001  0.943  0.056
    occupations:
  0.776 -0.003 -0.001 -0.072  0.001
 -0.003  0.587  0.001  0.002  0.000
 -0.001  0.001  0.756  0.000  0.001
 -0.072  0.002  0.000  0.635 -0.000
  0.001  0.000  0.001 -0.000  0.800
atom   10   Tr[ns(na)] =   7.15634
    eigenvalues:
  0.545  0.570  0.741  0.788  0.935
    eigenvectors:
  0.000  0.990  0.000  0.000  0.009
  0.000  0.000  0.000  1.000  0.000
  0.000  0.000  1.000  0.000  0.000
  0.000  0.009  0.000  0.000  0.990
  1.000  0.000  0.000  0.000  0.000
    occupations:
  0.573 -0.003 -0.002  0.035 -0.000
 -0.003  0.788  0.000 -0.000  0.000
 -0.002  0.000  0.741  0.000  0.001
  0.035 -0.000  0.000  0.932  0.000
 -0.000  0.000  0.001  0.000  0.545
atom   16   Tr[ns(na)] =   7.15139
    eigenvalues:
  0.532  0.572  0.726  0.812  0.934
    eigenvectors:
  0.000  0.195  0.007  0.003  0.794
  0.999  0.001  0.000  0.000  0.000
  0.000  0.000  0.971  0.017  0.012
  0.001  0.804  0.004  0.000  0.191
  0.000  0.000  0.018  0.979  0.002
    occupations:
  0.861  0.000  0.021 -0.142  0.003
  0.000  0.532 -0.001  0.001 -0.003
  0.021 -0.001  0.730 -0.007  0.012
 -0.142  0.001 -0.007  0.642 -0.003
  0.003 -0.003  0.012 -0.003  0.811
atom   17   Tr[ns(na)] =   7.13140
    eigenvalues:
  0.559  0.605  0.686  0.769  0.946
    eigenvectors:
  0.000  0.991  0.000  0.000  0.009
  0.000  0.000  0.016  0.984  0.000
  0.000  0.000  0.984  0.016  0.000
  0.000  0.009  0.000  0.000  0.991
  1.000  0.000  0.000  0.000  0.000
    occupations:
  0.608 -0.001  0.000  0.032  0.001
 -0.001  0.768  0.011 -0.001 -0.001
  0.000  0.011  0.688  0.001  0.000
  0.032 -0.001  0.001  0.943  0.000
  0.001 -0.001  0.000  0.000  0.559
atom   22   Tr[ns(na)] =   7.10417
    eigenvalues:
  0.586  0.606  0.753  0.801  0.806
    eigenvectors:
  0.000  0.151  0.000  0.002  0.847
  0.999  0.000  0.000  0.000  0.000
  0.000  0.000  0.999  0.001  0.000
  0.001  0.849  0.000  0.000  0.150
  0.000  0.000  0.001  0.997  0.002
    occupations:
  0.776  0.003 -0.000 -0.072  0.000
  0.003  0.587  0.000 -0.002  0.000
 -0.000  0.000  0.753  0.000 -0.001
 -0.072 -0.002  0.000  0.636 -0.000
  0.000  0.000 -0.001 -0.000  0.801
atom   23   Tr[ns(na)] =   7.12857
    eigenvalues:
  0.559  0.609  0.674  0.791  0.931
    eigenvectors:
  0.000  0.989  0.001  0.000  0.010
  0.000  0.000  0.000  1.000  0.000
  0.000  0.001  0.999  0.000  0.000
  0.000  0.010  0.000  0.000  0.990
  1.000  0.000  0.000  0.000  0.000
    occupations:
  0.612  0.004 -0.002  0.032  0.000
  0.004  0.791  0.001  0.000  0.001
 -0.002  0.001  0.674  0.000 -0.001
  0.032  0.000  0.000  0.928 -0.000
  0.000  0.001 -0.001 -0.000  0.559
N of occupied +U levels =  57.0682164
 --- exit write_ns ---

[...]

          k = 0.2500-0.4870 0.0000 ( 30468 PWs)   bands (ev):

[...]

          k =-0.2500 0.2435 0.0000 ( 30434 PWs)   bands (ev):

   -74.8406 -74.8327 -74.6120 -74.5374 -74.4817 -74.3132 -74.2103 -74.2014
   -44.9652 -44.8347 -44.8062 -44.8047 -44.7959 -44.7635 -44.7175 -44.6961
   -44.6886 -44.6034 -44.4884 -44.4862 -44.4725 -44.3847 -44.3648 -44.3628
   -44.3185 -44.2686 -44.2617 -44.2109 -44.1226 -44.0903 -44.0664 -44.0139
   -21.0428 -20.5343 -20.5057 -20.4289 -20.2382 -19.9532 -19.8869 -19.7984
   -19.7587 -19.6453 -19.5579 -19.5170 -19.4964 -19.4436 -19.3105 -19.2608
   -19.2553 -19.2013 -18.8503  -9.1128  -8.6011  -8.5779  -8.5289  -8.2081
    -8.1659  -8.1076  -8.0316  -7.8887  -7.8035  -7.7245  -7.6967  -7.6027
    -7.5452  -7.4574  -7.3922  -7.2862  -7.1919  -6.9209  -6.7902  -6.7266
    -6.6062  -6.5403  -6.4578  -6.0444  -5.9582  -5.8875  -5.7819  -5.5661
    -5.5091  -5.4786  -5.4500  -5.3615  -5.2656  -5.2101  -5.0769  -5.0257
    -5.0017  -4.8991  -4.8204  -4.7318  -4.5524  -4.4657  -4.3252  -4.1898
    -4.1490  -4.1146  -3.9872  -3.9345  -3.8075  -3.6420  -3.5508  -3.4643
    -3.1462  -3.1314  -3.0251  -2.7739  -2.0761  -1.9990  -1.8768  -1.7816
    -1.6936  -1.6195  -1.5660  -1.4429  -1.4104  -1.3867  -1.3376  -1.2901
    -1.2438  -1.1588  -1.0758  -0.9972  -0.7146  -0.5379  -0.4021  -0.3646
    -0.2764  -0.1580  -0.0487   0.1381   0.6435   1.3358   1.4844   1.5534
     1.6850   2.1245   2.4599   2.5684   2.9350   2.9930   3.1063   3.1665
     3.2315   3.3063   3.5483   3.8239   4.0274   4.3020   4.7903   5.2095
     5.6355   5.7670   5.8539   6.1014   6.4039   6.5628   6.6771   6.7222
     6.7887   7.0298   7.1009   7.3291   7.5535   7.7359   7.8427   7.9651
     8.1120   8.2746   8.3716   8.4370   8.5343   8.5720   8.7213   8.7786
     8.9540   9.1036   9.1886   9.3108   9.3772   9.4954   9.6848   9.8371
     9.8985   9.9995  10.0883  10.1827  10.2121  10.3124  10.4006  10.4579
    10.5815  10.6468  10.6966  10.8409  10.9093  11.0030  11.0902  11.2836
    11.3543  11.4037  11.5049  11.5562  11.6575  11.7549  11.7765  11.8403
    11.9146  11.9905  12.1163  12.1638  12.2135  12.3167  12.4314  12.4780
    12.5059  12.5864  12.6361  12.7038  12.7546  12.8142  12.8989  13.0028
    13.0637  13.1231  13.1992  13.2941  13.3873  13.4665  13.5310  13.5900
    13.7085  13.8003  13.8861  13.9989  14.0603  14.1312  14.1792  14.2487
    14.3460  14.4649  14.5300  14.5775  14.5973  14.6640  14.7845  14.8184
    14.8893  14.9994  15.0600  15.1487  15.2573  15.3487  15.5317  15.5619
    15.6246  15.6632  15.7742  15.8122  15.8483  15.8565  15.9667  16.0404
    16.0796  16.1363  16.1847  16.3082  16.3325  16.3597  16.4486  16.5323
    16.6156  16.7082  16.7617  16.7836  16.8305  16.8744  16.9732  17.0182
    17.1083  17.1907  17.2223  17.3281  17.4085  17.4681  17.4909  17.5622
    17.6004  17.6795  17.7241  17.8004  17.8395  17.9044  17.9936  18.0817
    18.1256  18.2101  18.2384  18.3028  18.3503  18.4277  18.5332  18.5888
    18.6851  18.7868  18.8396  18.9254  18.9798  19.0500  19.1266  19.1875
    19.2103  19.3029  19.3711  19.4510  19.4900  19.5429  19.6450  19.7484
    19.7783  19.8301  19.8941  19.9921  20.0542  20.1778  20.2647  20.3230
    20.3644  20.4743  20.5887  20.6542  20.7227  20.7950  20.8525  20.9288
    20.9498  21.0228  21.1164  21.1394  21.2063  21.2892  21.3557  21.3989
    21.4282  21.4792  21.5470  21.5733  21.6069  21.7024  21.7877  21.8160
    21.9480  21.9826  22.0235  22.0459  22.1284  22.2198

     the Fermi energy is    -0.8740 ev

!    total energy              =   -2164.72985485 Ry
     Harris-Foulkes estimate   =   -2164.72985483 Ry
     estimated scf accuracy    <          6.0E-09 Ry

     The total energy is the sum of the following terms:

     one-electron contribution =  -25188.34440844 Ry
     hartree contribution      =   12615.79261743 Ry
     xc contribution           =    -338.41096504 Ry
     ewald contribution        =   10746.23269343 Ry
     Hubbard energy            =       0.00000000 Ry
     smearing contrib. (-TS)   =       0.00020778 Ry

     convergence has been achieved in  11 iterations

     Forces acting on atoms (Ry/au):

     negative rho (up, down):  0.581E+00 0.000E+00
     atom    1 type  1   force =    -0.00543661   -0.01186733   -0.00001454
     atom    2 type  1   force =     0.00058701    0.00997379    0.00004340
     atom    3 type  2   force =     0.03794151   -0.00188608    0.00045142
     atom    4 type  2   force =     0.00395251    0.00606249   -0.00012912
     atom    5 type  1   force =     0.00144212   -0.02746604    0.00003345
     atom    6 type  1   force =    -0.00010317    0.02907509    0.00002292
     atom    7 type  1   force =     0.00193974   -0.00382278    0.00016834
     atom    8 type  1   force =     0.00005517   -0.00189082   -0.00011484
     atom    9 type  2   force =    -0.01608508    0.00203702   -0.00011119
     atom   10 type  2   force =    -0.00726876   -0.00009886   -0.00014998
     atom   11 type  1   force =    -0.01069340    0.00208281    0.00034407
     atom   12 type  1   force =    -0.01235599   -0.00285900    0.00032774
     atom   13 type  1   force =    -0.00129026   -0.00073643   -0.00000662
     atom   14 type  1   force =    -0.00391955   -0.01060502   -0.00010686
     atom   15 type  1   force =    -0.00007313    0.00680800    0.00002966
     atom   16 type  2   force =    -0.03923458   -0.00144176    0.00046350
     atom   17 type  2   force =     0.00296771    0.00620956   -0.00015139
     atom   18 type  1   force =     0.00165186   -0.02786797    0.00004410
     atom   19 type  1   force =     0.00174816    0.02864589    0.00002604
     atom   20 type  1   force =    -0.00118862   -0.00116021    0.00011008
     atom   21 type  1   force =    -0.00061248   -0.00155976   -0.00007003
     atom   22 type  2   force =     0.01700660    0.00202147   -0.00040363
     atom   23 type  2   force =     0.00319510    0.00217978   -0.00077466
     atom   24 type  1   force =     0.01278977    0.00376564   -0.00024484
     atom   25 type  1   force =     0.01412886   -0.00456943   -0.00032276
     atom   26 type  1   force =    -0.00131963   -0.00089423   -0.00029456
     atom   27 type  3   force =    -0.00000731    0.00000434    0.00053713
     atom   28 type  3   force =     0.00001073    0.00006850    0.00066906
     atom   29 type  3   force =    -0.00008822   -0.00001817   -0.00023841
     atom   30 type  3   force =    -0.00020536   -0.00007457   -0.00031378
     atom   31 type  1   force =     0.00036359    0.00010312    0.00017253
     atom   32 type  3   force =     0.00010171   -0.00021904    0.00000379

     Total force =     0.001730     Total SCF correction =     0.000213
     SCF correction compared to forces is large: reduce conv_thr to get better values

     bfgs converged in   3 scf cycles and   2 bfgs steps
     (criteria: energy < 0.10E-03, force < 0.10E-02)

     End of BFGS Geometry Optimization

     Final energy   =   -2164.7298548477 Ry
Begin final coordinates

ATOMIC_POSITIONS (crystal)
O0       0.000000000   0.000000000   0.378911138    0   0   1
O0       0.000000000   0.500000000   0.403133505    0   0   1
Ru1      0.250000000   0.500000000   0.453717145    0   0   1
Ru1      0.000000000   0.000000000   0.453042583    0   0   1
O0       0.250000000   0.810000000   0.452985768    0   0   1
O0       0.250000000   0.190000000   0.452875192    0   0   1
O0       0.000000000   0.500000000   0.497510525    0   0   1
O0       0.000000000   0.000000000   0.527194184    0   0   1
Ru1      0.250000000   0.000000000   0.577569258    0   0   1
Ru1      0.000000000   0.500000000   0.568402210    0   0   1
O0       0.250000000   0.690000000   0.575770807    0   0   1
O0       0.250000000   0.310000000   0.575698618    0   0   1
O0       0.000000000   0.000000000   0.619911874    0   0   1
O0       0.500000000   0.000000000   0.379155925    0   0   1
O0       0.500000000   0.500000000   0.403116457    0   0   1
Ru1      0.750000000   0.500000000   0.453723100    0   0   1
Ru1      0.500000000   0.000000000   0.453152768    0   0   1
O0       0.750000000   0.810000000   0.452937560    0   0   1
O0       0.750000000   0.190000000   0.452875940    0   0   1
O0       0.500000000   0.500000000   0.501679532    0   0   1
O0       0.500000000   0.000000000   0.527044573    0   0   1
Ru1      0.750000000   0.000000000   0.577536914    0   0   1
Ru1      0.500000000   0.500000000   0.575919847    0   0   1
O0       0.750000000   0.690000000   0.575231953    0   0   1
O0       0.750000000   0.310000000   0.575095916    0   0   1
O0       0.500000000   0.000000000   0.617547857    0   0   1
H2      -0.000244180   0.628883883   0.382451542
H2       0.499553401   0.624328991   0.380949263
H2       0.145709061   0.032001829   0.366600093
H2       0.646522720   0.029334365   0.366889658
O0       0.513890012   0.497561021   0.648572071
H2       0.371739086   0.496080933   0.664616226
End final coordinates

     General routines

     Parallel routines
     Hubbard U routines

   This run was terminated on:   5:54:22  16May2014

   JOB DONE.