     Program PWSCF v.5.0.2 (svn rev. 9656) starts on  1Jun2014 at  2:44:23

     Current dimensions of program PWSCF are:
     Max number of different atomic species (ntypx) = 10
     Max number of k-points (npk) =  40000
     Max angular momentum in pseudopotentials (lmaxx) =  3
     Reading input from pwscf.in
Warning: card &CELL ignored
Warning: card / ignored

     Subspace diagonalization in iterative solution of the eigenvalue problem:
     a serial algorithm will be used

     bravais-lattice index     =            0
     lattice parameter (alat)  =      11.7541  a.u.
     unit-cell volume          =    7139.8207 (a.u.)^3
     number of atoms/cell      =           33
     number of atomic types    =            3
     number of electrons       =       245.00
     number of Kohn-Sham states=          367
     kinetic-energy cutoff     =      40.0000  Ry
     charge density cutoff     =     500.0000  Ry
     convergence threshold     =      1.0E-06
     mixing beta               =       0.7000
     number of iterations used =            8  plain     mixing
     Exchange-correlation      = SLA  PW   PBE  PBE ( 1 4 3 4 0)
     EXX-fraction              =        0.00
     nstep                     =           50

     celldm(1)=  11.754097  celldm(2)=   0.000000  celldm(3)=   0.000000
     celldm(4)=   0.000000  celldm(5)=   0.000000  celldm(6)=   0.000000

     crystal axes: (cart. coord. in units of alat)
               a(1) = (   1.000000   0.000000   0.000000 )
               a(2) = (   0.000000   1.034513   0.000000 )
               a(3) = (   0.000000   0.000000   4.249947 )

     reciprocal axes: (cart. coord. in units 2 pi/alat)
               b(1) = (  1.000000  0.000000  0.000000 )
               b(2) = (  0.000000  0.966638  0.000000 )
               b(3) = (  0.000000  0.000000  0.235297 )

     PseudoPot. # 1 for O  read from file:
     /home/camp/zhonxu/pseudo/o_pbe_v1.01.uspp.F.UPF
     MD5 check sum: 2bcb18d16ea4b960afae9ec6d52f22d2
     Pseudo is Ultrasoft + core correction, Zval =  6.0
     Generated by new atomic code, or converted to UPF format
     Using radial grid of  737 points,  5 beta functions with:
                l(1) =   0
                l(2) =   0
                l(3) =   1
                l(4) =   1
                l(5) =   2
     Q(r) pseudized with  8 coefficients,  rinner =    0.900   0.900   0.900
                                                       0.900   0.900

     PseudoPot. # 2 for Rh read from file:
     /home/camp/zhonxu/pseudo/rh_pbe_v1.uspp.F.UPF
     MD5 check sum: 37b626987ad0dd8ec6bf4cc9ef289918
     Pseudo is Ultrasoft + core correction, Zval = 15.0
     Generated by new atomic code, or converted to UPF format
     Using radial grid of  969 points,  7 beta functions with:
                l(1) =   0
                l(2) =   0
                l(3) =   1
                l(4) =   1
                l(5) =   2
                l(6) =   2
                l(7) =   2
     Q(r) pseudized with  6 coefficients,  rinner =    1.050   1.050   1.050
                                                       1.050   1.050

     PseudoPot. # 3 for H  read from file:
     /home/camp/zhonxu/pseudo/h_pbe_v1.uspp.F.UPF
     MD5 check sum: 3408e3ff4ec8b0a4e358431e7e038a48
     Pseudo is Ultrasoft, Zval =  1.0
     Generated by new atomic code, or converted to UPF format
     Using radial grid of  615 points,  2 beta functions with:
                l(1) =   0
                l(2) =   0
     Q(r) pseudized with  8 coefficients,  rinner =    0.700

     atomic species   valence    mass     pseudopotential
        O0             6.00    15.99940     O ( 1.00)
        Rh1           15.00   102.90550     Rh( 1.00)
        H2             1.00     1.00794     H ( 1.00)

     Simplified LDA+U calculation (l_max = 2) with parameters (eV):
     atomic species    L          U    alpha       J0     beta
        Rh1            2     3.5000   0.0000   0.0000   0.0000

     No symmetry found

   Cartesian axes

     site n.     atom                  positions (alat units)
         1           O0  tau(   1) = (   0.0000000   0.0000000   1.6055876  )
         2           O0  tau(   2) = (   0.0000000   0.5172566   1.7058013  )
         3           Rh1 tau(   3) = (   0.2500000   0.5172566   1.9245886  )
         4           Rh1 tau(   4) = (   0.0000000   0.0000000   1.9225486  )
         5           O0  tau(   5) = (   0.2500000   0.8379556   1.9216561  )
         6           O0  tau(   6) = (   0.2500000   0.1965575   1.9210611  )
         7           O0  tau(   7) = (   0.0000000   0.5172566   2.1183012  )
         8           O0  tau(   8) = (   0.0000000   0.0000000   2.2433346  )
         9           Rh1 tau(   9) = (   0.2500000   0.0000000   2.4442296  )
        10           Rh1 tau(  10) = (   0.0000000   0.5172566   2.4248924  )
        11           O0  tau(  11) = (   0.2500000   0.7138141   2.4423597  )
        12           O0  tau(  12) = (   0.2500000   0.3206991   2.4526445  )
        13           O0  tau(  13) = (   0.0000000   0.0000000   2.6373472  )
        14           O0  tau(  14) = (   0.5000000   0.0000000   1.6058426  )
        15           O0  tau(  15) = (   0.5000000   0.5172566   1.7065663  )
        16           Rh1 tau(  16) = (   0.7500000   0.5172566   1.9245461  )
        17           Rh1 tau(  17) = (   0.5000000   0.0000000   1.9225486  )
        18           O0  tau(  18) = (   0.7500000   0.8379556   1.9215286  )
        19           O0  tau(  19) = (   0.7500000   0.1965575   1.9212311  )
        20           O0  tau(  20) = (   0.5000000   0.5172566   2.1254411  )
        21           O0  tau(  21) = (   0.5000000   0.0000000   2.2428246  )
        22           Rh1 tau(  22) = (   0.7500000   0.0000000   2.4442296  )
        23           Rh1 tau(  23) = (   0.5000000   0.5172566   2.4566820  )
        24           O0  tau(  24) = (   0.7500000   0.7138141   2.4423172  )
        25           O0  tau(  25) = (   0.7500000   0.3206991   2.4526445  )
        26           O0  tau(  26) = (   0.5000000   0.0000000   2.6350523  )
        27           H2  tau(  27) = (   0.0000500   0.6607849   1.6355072  )
        28           H2  tau(  28) = (   0.4999200   0.6608884   1.6361872  )
        29           H2  tau(  29) = (   0.1477700   0.0372011   1.5603681  )
        30           H2  tau(  30) = (   0.6484400   0.0346148   1.5604531  )
        31           O0  tau(  31) = (   0.4997300   0.5556577   2.7651007  )
        32           O0  tau(  32) = (   0.5003300   0.3573415   2.8834192  )
        33           H2  tau(  33) = (   0.4999300   0.4160398   3.0312324  )

     number of k points=    10  Methfessel-Paxton smearing, width (Ry)=  0.0100
                       cart. coord. in units 2pi/alat
        k(    1) = (   0.0000000   0.0000000   0.0000000), wk =   0.1250000
        k(    2) = (   0.0000000   0.2416596   0.0000000), wk =   0.2500000
        k(    3) = (   0.0000000  -0.4833191   0.0000000), wk =   0.1250000
        k(    4) = (   0.2500000   0.0000000   0.0000000), wk =   0.2500000
        k(    5) = (   0.2500000   0.2416596   0.0000000), wk =   0.2500000
        k(    6) = (   0.2500000  -0.4833191   0.0000000), wk =   0.2500000
        k(    7) = (  -0.5000000   0.0000000   0.0000000), wk =   0.1250000
        k(    8) = (  -0.5000000   0.2416596   0.0000000), wk =   0.2500000
        k(    9) = (  -0.5000000  -0.4833191   0.0000000), wk =   0.1250000
        k(   10) = (  -0.2500000   0.2416596   0.0000000), wk =   0.2500000

     Largest allocated arrays     est. size (Mb)     dimensions
     Largest temporary arrays     est. size (Mb)     dimensions

     Check: negative/imaginary core charge=   -0.000003    0.000000

     Initial potential from superposition of free atoms
     Check: negative starting charge=   -0.646062

     starting charge  240.99914, renormalised to  245.00000

     negative rho (up, down):  0.657E+00 0.000E+00
     Number of +U iterations with fixed ns =  0
     Starting occupations:
 --- enter write_ns ---
 LDA+U parameters:
U( 2)     =  3.50000000
alpha( 2) =  0.00000000
atom    3   Tr[ns(na)] =   7.00000
    eigenvalues:
  0.700  0.700  0.700  0.700  0.700
    eigenvectors:
  1.000  0.000  0.000  0.000  0.000
  0.000  1.000  0.000  0.000  0.000
  0.000  0.000  1.000  0.000  0.000
  0.000  0.000  0.000  1.000  0.000
  0.000  0.000  0.000  0.000  1.000
    occupations:
  0.700  0.000  0.000  0.000  0.000
  0.000  0.700  0.000  0.000  0.000
  0.000  0.000  0.700  0.000  0.000
  0.000  0.000  0.000  0.700  0.000
  0.000  0.000  0.000  0.000  0.700
atom    4   Tr[ns(na)] =   7.00000
    eigenvalues:
  0.700  0.700  0.700  0.700  0.700
    eigenvectors:
  1.000  0.000  0.000  0.000  0.000
  0.000  1.000  0.000  0.000  0.000
  0.000  0.000  1.000  0.000  0.000
  0.000  0.000  0.000  1.000  0.000
  0.000  0.000  0.000  0.000  1.000
    occupations:
  0.700  0.000  0.000  0.000  0.000
  0.000  0.700  0.000  0.000  0.000
  0.000  0.000  0.700  0.000  0.000
  0.000  0.000  0.000  0.700  0.000
  0.000  0.000  0.000  0.000  0.700
atom    9   Tr[ns(na)] =   7.00000
    eigenvalues:
  0.700  0.700  0.700  0.700  0.700
    eigenvectors:
  1.000  0.000  0.000  0.000  0.000
  0.000  1.000  0.000  0.000  0.000
  0.000  0.000  1.000  0.000  0.000
  0.000  0.000  0.000  1.000  0.000
  0.000  0.000  0.000  0.000  1.000
    occupations:
  0.700  0.000  0.000  0.000  0.000
  0.000  0.700  0.000  0.000  0.000
  0.000  0.000  0.700  0.000  0.000
  0.000  0.000  0.000  0.700  0.000
  0.000  0.000  0.000  0.000  0.700
atom   10   Tr[ns(na)] =   7.00000
    eigenvalues:
  0.700  0.700  0.700  0.700  0.700
    eigenvectors:
  1.000  0.000  0.000  0.000  0.000
  0.000  1.000  0.000  0.000  0.000
  0.000  0.000  1.000  0.000  0.000
  0.000  0.000  0.000  1.000  0.000
  0.000  0.000  0.000  0.000  1.000
    occupations:
  0.700  0.000  0.000  0.000  0.000
  0.000  0.700  0.000  0.000  0.000
  0.000  0.000  0.700  0.000  0.000
  0.000  0.000  0.000  0.700  0.000
  0.000  0.000  0.000  0.000  0.700
atom   16   Tr[ns(na)] =   7.00000
    eigenvalues:
  0.700  0.700  0.700  0.700  0.700
    eigenvectors:
  1.000  0.000  0.000  0.000  0.000
  0.000  1.000  0.000  0.000  0.000
  0.000  0.000  1.000  0.000  0.000
  0.000  0.000  0.000  1.000  0.000
  0.000  0.000  0.000  0.000  1.000
    occupations:
  0.700  0.000  0.000  0.000  0.000
  0.000  0.700  0.000  0.000  0.000
  0.000  0.000  0.700  0.000  0.000
  0.000  0.000  0.000  0.700  0.000
  0.000  0.000  0.000  0.000  0.700
atom   17   Tr[ns(na)] =   7.00000
    eigenvalues:
  0.700  0.700  0.700  0.700  0.700
    eigenvectors:
  1.000  0.000  0.000  0.000  0.000
  0.000  1.000  0.000  0.000  0.000
  0.000  0.000  1.000  0.000  0.000
  0.000  0.000  0.000  1.000  0.000
  0.000  0.000  0.000  0.000  1.000
    occupations:
  0.700  0.000  0.000  0.000  0.000
  0.000  0.700  0.000  0.000  0.000
  0.000  0.000  0.700  0.000  0.000
  0.000  0.000  0.000  0.700  0.000
  0.000  0.000  0.000  0.000  0.700
atom   22   Tr[ns(na)] =   7.00000
    eigenvalues:
  0.700  0.700  0.700  0.700  0.700
    eigenvectors:
  1.000  0.000  0.000  0.000  0.000
  0.000  1.000  0.000  0.000  0.000
[...]
    eigenvalues:
  0.594  0.597  0.920  0.928  0.977
    eigenvectors:
  0.001  0.990  0.000  0.000  0.008
  0.001  0.000  0.001  0.999  0.000
  0.000  0.001  0.999  0.001  0.000
  0.000  0.008  0.000  0.000  0.991
  0.999  0.001  0.000  0.001  0.000
    occupations:
  0.600  0.000  0.007  0.035 -0.000
  0.000  0.928 -0.000  0.000 -0.009
  0.007 -0.000  0.919  0.000 -0.000
  0.035  0.000  0.000  0.974  0.000
 -0.000 -0.009 -0.000  0.000  0.595
atom   16   Tr[ns(na)] =   8.03832
    eigenvalues:
  0.585  0.606  0.895  0.958  0.974
    eigenvectors:
  0.016  0.185  0.003  0.000  0.796
  0.929  0.070  0.000  0.000  0.000
  0.000  0.000  0.990  0.007  0.003
  0.054  0.744  0.000  0.000  0.201
  0.000  0.000  0.007  0.992  0.001
    occupations:
  0.900  0.006  0.002 -0.148  0.001
  0.006  0.587 -0.000  0.003 -0.006
  0.002 -0.000  0.896 -0.005 -0.005
 -0.148  0.003 -0.005  0.679 -0.000
  0.001 -0.006 -0.005 -0.000  0.958
atom   17   Tr[ns(na)] =   8.03676
    eigenvalues:
  0.600  0.649  0.871  0.921  0.978
    eigenvectors:
  0.001  0.991  0.000  0.000  0.008
  0.000  0.000  0.051  0.949  0.000
  0.000  0.000  0.949  0.051  0.000
  0.000  0.008  0.000  0.000  0.992
  0.999  0.001  0.000  0.000  0.000
    occupations:
  0.652 -0.004 -0.001  0.029  0.001
 -0.004  0.918  0.011  0.001 -0.001
 -0.001  0.011  0.873 -0.001  0.001
  0.029  0.001 -0.001  0.975  0.000
  0.001 -0.001  0.001  0.000  0.600
atom   22   Tr[ns(na)] =   8.03265
    eigenvalues:
  0.638  0.647  0.857  0.896  0.979
    eigenvectors:
  0.000  0.151  0.001  0.000  0.848
  0.999  0.001  0.000  0.000  0.000
  0.000  0.000  0.984  0.015  0.000
  0.001  0.847  0.000  0.000  0.151
  0.000  0.000  0.015  0.985  0.000
    occupations:
  0.928  0.002  0.000 -0.119  0.000
  0.002  0.638  0.001 -0.001 -0.000
  0.000  0.001  0.858 -0.005  0.005
 -0.119 -0.001 -0.005  0.697  0.001
  0.000 -0.000  0.005  0.001  0.895
atom   23   Tr[ns(na)] =   8.04773
    eigenvalues:
  0.600  0.634  0.863  0.951  0.975
    eigenvectors:
  0.000  0.994  0.000  0.003  0.003
  0.001  0.000  0.999  0.000  0.000
  0.000  0.003  0.000  0.996  0.001
  0.000  0.003  0.000  0.001  0.996
  0.999  0.000  0.001  0.000  0.000
    occupations:
  0.636 -0.000  0.017  0.018 -0.000
 -0.000  0.863 -0.001 -0.000 -0.009
  0.017 -0.001  0.950 -0.002  0.000
  0.018 -0.000 -0.002  0.974  0.000
 -0.000 -0.009  0.000  0.000  0.600
N of occupied +U levels =  64.2964244
 --- exit write_ns ---

     Threshold (ethr) on eigenvalues was too large:
     Diagonalizing with lowered threshold

     Davidson diagonalization with overlap
     ethr =  2.82E-08,  avg # of iterations =  1.0

[...]

     total energy              =   -2012.24710294 Ry
     Harris-Foulkes estimate   =   -2012.24710294 Ry
     estimated scf accuracy    <       0.00000001 Ry

     iteration # 17     ecut=    40.00 Ry     beta=0.70
     Davidson diagonalization with overlap
     ethr =  5.85E-12,  avg # of iterations =  1.0

     negative rho (up, down):  0.692E+00 0.000E+00

     End of self-consistent calculation
 --- enter write_ns ---
 LDA+U parameters:
U( 2)     =  3.50000000
alpha( 2) =  0.00000000
atom    3   Tr[ns(na)] =   8.03763
    eigenvalues:
  0.585  0.606  0.895  0.958  0.974
    eigenvectors:
  0.017  0.184  0.003  0.000  0.796
  0.925  0.074  0.000  0.000  0.000
  0.000  0.000  0.985  0.012  0.003
  0.058  0.741  0.000  0.000  0.201
  0.000  0.000  0.012  0.987  0.000
    occupations:
  0.900 -0.006  0.002 -0.148 -0.001
 -0.006  0.587 -0.001 -0.003 -0.006
  0.002 -0.001  0.896 -0.005  0.007
 -0.148 -0.003 -0.005  0.679 -0.000
 -0.001 -0.006  0.007 -0.000  0.958
atom    4   Tr[ns(na)] =   8.03787
    eigenvalues:
  0.600  0.649  0.874  0.920  0.977
    eigenvectors:
  0.001  0.992  0.000  0.000  0.007
  0.000  0.000  0.081  0.918  0.000
  0.000  0.000  0.919  0.081  0.000
  0.000  0.007  0.000  0.000  0.993
  0.999  0.001  0.000  0.000  0.000
    occupations:
  0.651 -0.004 -0.002  0.028  0.001
 -0.004  0.916  0.012  0.001 -0.001
 -0.002  0.012  0.878 -0.001  0.001
  0.028  0.001 -0.001  0.975  0.000
  0.001 -0.001  0.001  0.000  0.600
atom    9   Tr[ns(na)] =   8.03274
    eigenvalues:
  0.637  0.647  0.858  0.896  0.979
    eigenvectors:
  0.002  0.149  0.000  0.000  0.848
  0.985  0.015  0.000  0.000  0.000
  0.000  0.000  0.982  0.017  0.000
  0.013  0.835  0.000  0.000  0.151
  0.000  0.000  0.017  0.983  0.000
    occupations:
  0.928 -0.001  0.000 -0.119 -0.001
 -0.001  0.638  0.000  0.002 -0.000
  0.000  0.000  0.858 -0.005 -0.005
 -0.119  0.002 -0.005  0.697  0.001
 -0.001 -0.000 -0.005  0.001  0.895
atom   10   Tr[ns(na)] =   8.03154
    eigenvalues:
  0.594  0.597  0.920  0.928  0.977
    eigenvectors:
  0.001  0.990  0.000  0.000  0.008
  0.001  0.000  0.001  0.999  0.000
  0.000  0.001  0.999  0.001  0.000
  0.000  0.008  0.000  0.000  0.991
  0.999  0.001  0.000  0.001  0.000
    occupations:
  0.600  0.000  0.007  0.035 -0.000
  0.000  0.928 -0.000  0.000 -0.009
  0.007 -0.000  0.919  0.000 -0.000
  0.035  0.000  0.000  0.974  0.000
 -0.000 -0.009 -0.000  0.000  0.595
atom   16   Tr[ns(na)] =   8.03757
    eigenvalues:
  0.585  0.606  0.895  0.958  0.974
    eigenvectors:
  0.016  0.185  0.003  0.000  0.796
  0.929  0.071  0.000  0.000  0.000
  0.000  0.000  0.990  0.008  0.003
  0.055  0.744  0.000  0.000  0.201
  0.000  0.000  0.007  0.992  0.001
    occupations:
  0.900  0.006  0.002 -0.148  0.001
  0.006  0.587 -0.000  0.003 -0.006
  0.002 -0.000  0.896 -0.005 -0.005
 -0.148  0.003 -0.005  0.679 -0.000
  0.001 -0.006 -0.005 -0.000  0.958
atom   17   Tr[ns(na)] =   8.03650
    eigenvalues:
  0.600  0.649  0.871  0.920  0.978
    eigenvectors:
  0.001  0.991  0.000  0.000  0.008
  0.000  0.000  0.051  0.949  0.000
  0.000  0.000  0.949  0.051  0.000
  0.000  0.008  0.000  0.000  0.992
  0.999  0.001  0.000  0.000  0.000
    occupations:
  0.652 -0.004 -0.001  0.029  0.001
 -0.004  0.918  0.011  0.001 -0.001
 -0.001  0.011  0.873 -0.001  0.001
  0.029  0.001 -0.001  0.975  0.000
  0.001 -0.001  0.001  0.000  0.600
atom   22   Tr[ns(na)] =   8.03283
    eigenvalues:
  0.638  0.647  0.857  0.896  0.979
    eigenvectors:
  0.000  0.151  0.001  0.000  0.848
  0.999  0.001  0.000  0.000  0.000
  0.000  0.000  0.984  0.015  0.000
  0.001  0.847  0.000  0.000  0.151
  0.000  0.000  0.015  0.985  0.000
    occupations:
  0.928  0.002  0.000 -0.119  0.000
  0.002  0.638  0.001 -0.001 -0.000
  0.000  0.001  0.858 -0.005  0.005
 -0.119 -0.001 -0.005  0.697  0.001
  0.000 -0.000  0.005  0.001  0.895
atom   23   Tr[ns(na)] =   8.04838
    eigenvalues:
  0.600  0.634  0.864  0.951  0.975
    eigenvectors:
  0.000  0.994  0.000  0.003  0.003
  0.001  0.000  0.999  0.000  0.000
  0.000  0.003  0.000  0.996  0.001
  0.000  0.003  0.000  0.001  0.996
  0.999  0.000  0.001  0.000  0.000
    occupations:
  0.636 -0.000  0.017  0.018 -0.000
 -0.000  0.864 -0.001 -0.000 -0.009
  0.017 -0.001  0.950 -0.002  0.000
  0.018 -0.000 -0.002  0.974  0.000
 -0.000 -0.009  0.000  0.000  0.600
N of occupied +U levels =  64.2950627
 --- exit write_ns ---

[...]

          k = 0.2500-0.4833 0.0000 ( 30510 PWs)   bands (ev):

[...]

          k =-0.2500 0.2417 0.0000 ( 30481 PWs)   bands (ev):

   -48.4612 -48.3566 -48.3503 -48.3376 -48.3222 -48.2897 -48.2858 -48.2663
   -48.2521 -48.2429 -48.2328 -48.1580 -48.1511 -48.1301 -48.0104 -48.0057
   -47.9858 -47.9711 -47.9629 -47.9386 -47.9256 -47.9079 -47.9052 -47.8815
   -24.2695 -20.7557 -20.4615 -20.3306 -20.2453 -20.0082 -19.8289 -19.7924
   -19.7248 -19.6148 -19.4897 -19.4817 -19.4534 -19.3050 -19.2285 -19.2191
   -19.0950 -18.4754 -18.3168 -17.5675  -9.3399  -9.2240  -9.1540  -9.0248
    -8.7888  -8.5170  -8.4562  -8.3182  -8.2182  -8.1122  -8.0533  -8.0227
    -7.9798  -7.8987  -7.8703  -7.6827  -7.5532  -7.4315  -7.3746  -7.1716
    -6.8904  -6.8589  -6.7795  -6.6607  -6.5290  -6.4933  -6.3745  -6.2678
    -6.1204  -5.9951  -5.8736  -5.8237  -5.7737  -5.6661  -5.6232  -5.5818
    -5.5165  -5.4487  -5.3610  -5.2499  -5.1742  -5.1436  -5.0003  -4.8130
    -4.7560  -4.5485  -4.4271  -4.3498  -4.2413  -4.1629  -4.0290  -3.9836
    -3.8836  -3.7825  -3.6020  -3.5450  -3.4309  -3.3442  -3.3245  -3.1630
    -3.0657  -2.9586  -2.8858  -2.8181  -2.7677  -2.7352  -2.6523  -2.6257
    -2.5301  -2.4717  -2.4126  -2.2970  -2.0400  -1.8281  -1.6481  -1.6234
    -1.5115  -1.4689  -1.3156  -1.2020  -1.0708  -0.9930  -0.9138  -0.2520
     0.3004   0.3679   0.5827   0.9675   1.1789   1.4851   1.6364   1.8716
     1.9900   2.1634   2.2123   2.3489   2.4292   2.5153   2.8056   3.3183
     3.8913   4.1653   4.4853   5.0157   5.2442   5.5404   5.9034   5.9880
     5.9999   6.2354   6.3565   6.5183   6.6170   6.9052   6.9413   7.2314
     7.4130   7.5249   7.7065   7.8347   7.8801   8.1993   8.2329   8.3093
     8.3991   8.4869   8.6845   8.7950   8.8951   9.0085   9.1309   9.2040
     9.3139   9.3886   9.4889   9.6288   9.7912   9.8545   9.9299   9.9816
    10.0770  10.1881  10.3045  10.3462  10.4611  10.5366  10.6162  10.6990
    10.7752  10.9042  11.0121  11.1232  11.1730  11.2672  11.3039  11.3791
    11.4948  11.5610  11.6804  11.7329  11.7701  11.8060  11.8830  11.9575
    11.9976  12.1591  12.2377  12.3264  12.3867  12.4828  12.5459  12.5694
    12.6378  12.7236  12.8022  12.9167  12.9501  13.0146  13.0811  13.1746
    13.2789  13.3916  13.4380  13.5725  13.6388  13.6815  13.7956  13.8608
    13.9311  13.9982  14.0632  14.1386  14.2384  14.3365  14.3957  14.4209
    14.5136  14.5367  14.6092  14.7145  14.7740  14.8178  14.9857  15.0151
    15.0919  15.1747  15.2632  15.3202  15.4483  15.5110  15.5549  15.6191
    15.6996  15.7586  15.8045  15.8445  15.9403  15.9861  16.0432  16.0639
    16.1394  16.1825  16.3381  16.3836  16.4356  16.4768  16.5352  16.6119
    16.6238  16.7151  16.7754  16.8626  16.9251  17.0442  17.0819  17.1725
    17.2301  17.2473  17.2920  17.3978  17.4509  17.5035  17.5643  17.6105
    17.7140  17.7282  17.7791  17.8876  17.9489  17.9849  18.0873  18.1172
    18.2085  18.2381  18.3495  18.4044  18.5195  18.6196  18.6545  18.6999
    18.8627  18.9204  18.9806  19.0141  19.0561  19.1755  19.2461  19.2996
    19.3570  19.4340  19.4848  19.5744  19.6257  19.6870  19.7654  19.9019
    19.9455  20.0019  20.1119  20.1845  20.2267  20.3312  20.3727  20.4837
    20.5922  20.6692  20.7216  20.7333  20.7759  20.8590  20.9315  20.9976
    21.0878  21.1214  21.1584  21.2120  21.2658  21.3592  21.4193  21.4650
    21.5282  21.5829  21.6706  21.6907  21.7569  21.8187  21.8356  21.9431
    22.0497  22.0824  22.1194  22.1973  22.2905  22.3468  22.4211  22.4483
    22.5293  22.6035  22.6596  22.7116  22.8048  22.8614  22.9206

     the Fermi energy is    -1.3726 ev

!    total energy              =   -2012.24710293 Ry
     Harris-Foulkes estimate   =   -2012.24710294 Ry
     estimated scf accuracy    <          4.7E-09 Ry

     The total energy is the sum of the following terms:

     one-electron contribution =  -23733.37528654 Ry
     hartree contribution      =   11923.09165182 Ry
     xc contribution           =    -379.98146158 Ry
     ewald contribution        =   10176.64823800 Ry
     Hubbard energy            =       1.37066847 Ry
     smearing contrib. (-TS)   =      -0.00091311 Ry

     convergence has been achieved in  17 iterations

     Forces acting on atoms (Ry/au):

     negative rho (up, down):  0.692E+00 0.000E+00
     atom    1 type  1   force =    -0.00712776   -0.01260425    0.00000928
     atom    2 type  1   force =     0.00017413    0.00446878   -0.00031078
     atom    3 type  2   force =     0.03098781    0.00463373   -0.00015807
     atom    4 type  2   force =     0.00805968    0.00821346    0.00002883
     atom    5 type  1   force =    -0.00324201   -0.03206697    0.00006041
     atom    6 type  1   force =     0.00216647    0.03021075    0.00017398
     atom    7 type  1   force =    -0.00027908   -0.00424666    0.00018206
     atom    8 type  1   force =    -0.00278617    0.00111273   -0.00020908
     atom    9 type  2   force =     0.00472743    0.00086376   -0.00007618
     atom   10 type  2   force =    -0.00017163    0.00031195   -0.00038317
     atom   11 type  1   force =    -0.01080166    0.01937545    0.00011846
     atom   12 type  1   force =    -0.00442354   -0.01362537    0.00018944
     atom   13 type  1   force =    -0.00068727   -0.00285334   -0.00008127
     atom   14 type  1   force =    -0.00582785   -0.01237284    0.00038687
     atom   15 type  1   force =     0.00009108    0.00440732   -0.00023347
     atom   16 type  2   force =    -0.03108575    0.00474387   -0.00013552
     atom   17 type  2   force =     0.00776475    0.00896200   -0.00016393
     atom   18 type  1   force =    -0.00096009   -0.03278212    0.00005594
     atom   19 type  1   force =     0.00435766    0.02966618    0.00017902
     atom   20 type  1   force =    -0.00015697   -0.00580693    0.00033762
     atom   21 type  1   force =    -0.00295327    0.00122916   -0.00030968
     atom   22 type  2   force =    -0.00214533    0.00086697   -0.00010604
     atom   23 type  2   force =    -0.00046292    0.00196376   -0.00013921
     atom   24 type  1   force =     0.01038844    0.01916995    0.00011784
     atom   25 type  1   force =     0.00550282   -0.01376770    0.00024761
     atom   26 type  1   force =    -0.00093775   -0.01046690    0.00034584
     atom   27 type  3   force =     0.00000491    0.00021730    0.00023522
     atom   28 type  3   force =     0.00000656    0.00017080    0.00030612
     atom   29 type  3   force =    -0.00004066    0.00003512    0.00014642
     atom   30 type  3   force =    -0.00025993   -0.00000124    0.00003911
     atom   31 type  1   force =    -0.00017507   -0.00017053    0.00008550
     atom   32 type  1   force =     0.00031271    0.00020680   -0.00041252
     atom   33 type  3   force =    -0.00001972   -0.00006499   -0.00052665

     Total force =     0.001463     Total SCF correction =     0.000157
     SCF correction compared to forces is large: reduce conv_thr to get better values

     entering subroutine stress ...

     negative rho (up, down):  0.692E+00 0.000E+00
          total   stress  (Ry/bohr**3)                   (kbar)     P=  -16.91
  -0.00011611   0.00000497   0.00000413        -17.08      0.73      0.61
   0.00000497  -0.00014340   0.00000429          0.73    -21.10      0.63
   0.00000413   0.00000429  -0.00008536          0.61      0.63    -12.56

     bfgs converged in   9 scf cycles and   8 bfgs steps
     (criteria: energy < 0.10E-03, force < 0.10E-02)

     End of BFGS Geometry Optimization

     Final energy   =   -2012.2471029335 Ry
Begin final coordinates

ATOMIC_POSITIONS (crystal)
O0       0.000000000   0.000000000   0.378021089    0   0   1
O0       0.000000000   0.500000000   0.401782961    0   0   1
Rh1      0.250000000   0.500000000   0.452996605    0   0   1
Rh1      0.000000000   0.000000000   0.452420069    0   0   1
O0       0.250000000   0.810000000   0.452327442    0   0   1
O0       0.250000000   0.190000000   0.452062941    0   0   1
O0       0.000000000   0.500000000   0.499081738    0   0   1
O0       0.000000000   0.000000000   0.527801522    0   0   1
Rh1      0.250000000   0.000000000   0.574878734    0   0   1
Rh1      0.000000000   0.500000000   0.570704251    0   0   1
O0       0.250000000   0.690000000   0.574295150    0   0   1
O0       0.250000000   0.310000000   0.576658862    0   0   1
O0       0.000000000   0.000000000   0.620408264    0   0   1
O0       0.500000000   0.000000000   0.377926390    0   0   1
O0       0.500000000   0.500000000   0.401925315    0   0   1
Rh1      0.750000000   0.500000000   0.452987614    0   0   1
Rh1      0.500000000   0.000000000   0.452249899    0   0   1
O0       0.750000000   0.810000000   0.452292523    0   0   1
O0       0.750000000   0.190000000   0.452096324    0   0   1
O0       0.500000000   0.500000000   0.500328015    0   0   1
O0       0.500000000   0.000000000   0.527650531    0   0   1
Rh1      0.750000000   0.000000000   0.574875575    0   0   1
Rh1      0.500000000   0.500000000   0.577754666    0   0   1
O0       0.750000000   0.690000000   0.574294243    0   0   1
O0       0.750000000   0.310000000   0.576657825    0   0   1
O0       0.500000000   0.000000000   0.619941764    0   0   1
H2      -0.000071928   0.637891342   0.384973474
H2       0.499814699   0.638166766   0.385189668
H2       0.147738212   0.036093875   0.367352003
H2       0.648563371   0.033677985   0.367337256
O0       0.499381914   0.536291454   0.650493535
O0       0.500770687   0.346156115   0.678143308
H2       0.499923951   0.402168757   0.713020445
End final coordinates

     General routines

     Parallel routines
     Hubbard U routines

   This run was terminated on:  15:49:47   1Jun2014

   JOB DONE.