     Program PWSCF v.5.0.2 (svn rev. 9656) starts on  8May2014 at 23:19:14

     Current dimensions of program PWSCF are:
     Max number of different atomic species (ntypx) = 10
     Max number of k-points (npk) =  40000
     Max angular momentum in pseudopotentials (lmaxx) =  3
     Reading input from pwscf.in
Warning: card &CELL ignored
Warning: card / ignored

     Subspace diagonalization in iterative solution of the eigenvalue problem:
     a serial algorithm will be used

     bravais-lattice index     =            0
     lattice parameter (alat)  =      11.7541  a.u.
     unit-cell volume          =    7139.8207 (a.u.)^3
     number of atoms/cell      =           30
     number of atomic types    =            3
     number of electrons       =       232.00
     number of Kohn-Sham states=          348
     kinetic-energy cutoff     =      40.0000  Ry
     charge density cutoff     =     500.0000  Ry
     convergence threshold     =      1.0E-06
     mixing beta               =       0.7000
     number of iterations used =            8  plain     mixing
     Exchange-correlation      = SLA  PW   PBE  PBE ( 1 4 3 4 0)
     EXX-fraction              =        0.00
     nstep                     =           50

     celldm(1)=  11.754097  celldm(2)=   0.000000  celldm(3)=   0.000000
     celldm(4)=   0.000000  celldm(5)=   0.000000  celldm(6)=   0.000000

     crystal axes: (cart. coord. in units of alat)
               a(1) = (   1.000000   0.000000   0.000000 )
               a(2) = (   0.000000   1.034513   0.000000 )
               a(3) = (   0.000000   0.000000   4.249947 )

     reciprocal axes: (cart. coord. in units 2 pi/alat)
               b(1) = (  1.000000  0.000000  0.000000 )
               b(2) = (  0.000000  0.966638  0.000000 )
               b(3) = (  0.000000  0.000000  0.235297 )

     PseudoPot. # 1 for O  read from file:
     /home/camp/zhonxu/pseudo/o_pbe_v1.01.uspp.F.UPF
     MD5 check sum: 2bcb18d16ea4b960afae9ec6d52f22d2
     Pseudo is Ultrasoft + core correction, Zval =  6.0
     Generated by new atomic code, or converted to UPF format
     Using radial grid of  737 points,  5 beta functions with:
                l(1) =   0
                l(2) =   0
                l(3) =   1
                l(4) =   1
                l(5) =   2
     Q(r) pseudized with  8 coefficients,  rinner =    0.900   0.900   0.900
                                                       0.900   0.900

     PseudoPot. # 2 for Rh read from file:
     /home/camp/zhonxu/pseudo/rh_pbe_v1.uspp.F.UPF
     MD5 check sum: 37b626987ad0dd8ec6bf4cc9ef289918
     Pseudo is Ultrasoft + core correction, Zval = 15.0
     Generated by new atomic code, or converted to UPF format
     Using radial grid of  969 points,  7 beta functions with:
                l(1) =   0
                l(2) =   0
                l(3) =   1
                l(4) =   1
                l(5) =   2
                l(6) =   2
                l(7) =   2
     Q(r) pseudized with  6 coefficients,  rinner =    1.050   1.050   1.050
                                                       1.050   1.050

     PseudoPot. # 3 for H  read from file:
     /home/camp/zhonxu/pseudo/h_pbe_v1.uspp.F.UPF
     MD5 check sum: 3408e3ff4ec8b0a4e358431e7e038a48
     Pseudo is Ultrasoft, Zval =  1.0
     Generated by new atomic code, or converted to UPF format
     Using radial grid of  615 points,  2 beta functions with:
                l(1) =   0
                l(2) =   0
     Q(r) pseudized with  8 coefficients,  rinner =    0.700

     atomic species   valence    mass     pseudopotential
        O0             6.00    15.99940     O ( 1.00)
        Rh1           15.00   102.90550     Rh( 1.00)
        H2             1.00     1.00794     H ( 1.00)

     Simplified LDA+U calculation (l_max = 2) with parameters (eV):
     atomic species    L          U    alpha       J0     beta
        Rh1            2     3.5000   0.0000   0.0000   0.0000

     No symmetry found

   Cartesian axes

     site n.     atom                  positions (alat units)
         1           O0  tau(   1) = (   0.0000000   0.0000000   1.6092425  )
         2           O0  tau(   2) = (   0.0000000   0.5172566   1.7020614  )
         3           Rh1 tau(   3) = (   0.2500000   0.5172566   1.9209336  )
         4           Rh1 tau(   4) = (   0.0000000   0.0000000   1.9260761  )
         5           O0  tau(   5) = (   0.2500000   0.8379556   1.9243336  )
         6           O0  tau(   6) = (   0.2500000   0.1965575   1.9234411  )
         7           O0  tau(   7) = (   0.0000000   0.5172566   2.1185137  )
         8           O0  tau(   8) = (   0.0000000   0.0000000   2.2473721  )
         9           Rh1 tau(   9) = (   0.2500000   0.0000000   2.4498821  )
        10           Rh1 tau(  10) = (   0.0000000   0.5172566   2.4276124  )
        11           O0  tau(  11) = (   0.2500000   0.7138141   2.4560020  )
        12           O0  tau(  12) = (   0.2500000   0.3206991   2.4560870  )
        13           O0  tau(  13) = (   0.0000000   0.0000000   2.6421072  )
        14           O0  tau(  14) = (   0.5000000   0.0000000   1.6092425  )
        15           O0  tau(  15) = (   0.5000000   0.5172566   1.7020614  )
        16           Rh1 tau(  16) = (   0.7500000   0.5172566   1.9209336  )
        17           Rh1 tau(  17) = (   0.5000000   0.0000000   1.9260761  )
        18           O0  tau(  18) = (   0.7500000   0.8379556   1.9243336  )
        19           O0  tau(  19) = (   0.7500000   0.1965575   1.9234411  )
        20           O0  tau(  20) = (   0.5000000   0.5172566   2.1185137  )
        21           O0  tau(  21) = (   0.5000000   0.0000000   2.2473721  )
        22           Rh1 tau(  22) = (   0.7500000   0.0000000   2.4498821  )
        23           Rh1 tau(  23) = (   0.5000000   0.5172566   2.4276124  )
        24           O0  tau(  24) = (   0.7500000   0.7138141   2.4560020  )
        25           O0  tau(  25) = (   0.7500000   0.3206991   2.4560870  )
        26           O0  tau(  26) = (   0.5000000   0.0000000   2.6421072  )
        27           H2  tau(  27) = (  -0.0000700   0.6610229   1.6318947  )
        28           H2  tau(  28) = (   0.4999300   0.6610125   1.6318947  )
        29           H2  tau(  29) = (   0.1484400   0.0336527   1.5632581  )
        30           H2  tau(  30) = (   0.6484400   0.0336527   1.5632581  )

     number of k points=    10  Methfessel-Paxton smearing, width (Ry)=  0.0100
                       cart. coord. in units 2pi/alat
        k(    1) = (   0.0000000   0.0000000   0.0000000), wk =   0.1250000
        k(    2) = (   0.0000000   0.2416596   0.0000000), wk =   0.2500000
        k(    3) = (   0.0000000  -0.4833191   0.0000000), wk =   0.1250000
        k(    4) = (   0.2500000   0.0000000   0.0000000), wk =   0.2500000
        k(    5) = (   0.2500000   0.2416596   0.0000000), wk =   0.2500000
        k(    6) = (   0.2500000  -0.4833191   0.0000000), wk =   0.2500000
        k(    7) = (  -0.5000000   0.0000000   0.0000000), wk =   0.1250000
        k(    8) = (  -0.5000000   0.2416596   0.0000000), wk =   0.2500000
        k(    9) = (  -0.5000000  -0.4833191   0.0000000), wk =   0.1250000
        k(   10) = (  -0.2500000   0.2416596   0.0000000), wk =   0.2500000

     Largest allocated arrays     est. size (Mb)     dimensions
     Largest temporary arrays     est. size (Mb)     dimensions

     Check: negative/imaginary core charge=   -0.000002    0.000000

     Initial potential from superposition of free atoms
     Check: negative starting charge=   -0.642992

     starting charge  227.99915, renormalised to  232.00000

     negative rho (up, down):  0.654E+00 0.000E+00
     Number of +U iterations with fixed ns =  0
     Starting occupations:
 --- enter write_ns ---
 LDA+U parameters:
U( 2)     =  3.50000000
alpha( 2) =  0.00000000
atom    3   Tr[ns(na)] =   7.00000
    eigenvalues:
  0.700  0.700  0.700  0.700  0.700
    eigenvectors:
  1.000  0.000  0.000  0.000  0.000
  0.000  1.000  0.000  0.000  0.000
  0.000  0.000  1.000  0.000  0.000
  0.000  0.000  0.000  1.000  0.000
  0.000  0.000  0.000  0.000  1.000
    occupations:
  0.700  0.000  0.000  0.000  0.000
  0.000  0.700  0.000  0.000  0.000
  0.000  0.000  0.700  0.000  0.000
  0.000  0.000  0.000  0.700  0.000
  0.000  0.000  0.000  0.000  0.700
atom    4   Tr[ns(na)] =   7.00000
    eigenvalues:
  0.700  0.700  0.700  0.700  0.700
    eigenvectors:
  1.000  0.000  0.000  0.000  0.000
  0.000  1.000  0.000  0.000  0.000
  0.000  0.000  1.000  0.000  0.000
  0.000  0.000  0.000  1.000  0.000
  0.000  0.000  0.000  0.000  1.000
    occupations:
  0.700  0.000  0.000  0.000  0.000
  0.000  0.700  0.000  0.000  0.000
  0.000  0.000  0.700  0.000  0.000
  0.000  0.000  0.000  0.700  0.000
  0.000  0.000  0.000  0.000  0.700
atom    9   Tr[ns(na)] =   7.00000
    eigenvalues:
  0.700  0.700  0.700  0.700  0.700
    eigenvectors:
  1.000  0.000  0.000  0.000  0.000
  0.000  1.000  0.000  0.000  0.000
  0.000  0.000  1.000  0.000  0.000
  0.000  0.000  0.000  1.000  0.000
  0.000  0.000  0.000  0.000  1.000
    occupations:
  0.700  0.000  0.000  0.000  0.000
  0.000  0.700  0.000  0.000  0.000
  0.000  0.000  0.700  0.000  0.000
  0.000  0.000  0.000  0.700  0.000
  0.000  0.000  0.000  0.000  0.700
atom   10   Tr[ns(na)] =   7.00000
    eigenvalues:
  0.700  0.700  0.700  0.700  0.700
    eigenvectors:
  1.000  0.000  0.000  0.000  0.000
  0.000  1.000  0.000  0.000  0.000
  0.000  0.000  1.000  0.000  0.000
  0.000  0.000  0.000  1.000  0.000
  0.000  0.000  0.000  0.000  1.000
    occupations:
  0.700  0.000  0.000  0.000  0.000
  0.000  0.700  0.000  0.000  0.000
  0.000  0.000  0.700  0.000  0.000
  0.000  0.000  0.000  0.700  0.000
  0.000  0.000  0.000  0.000  0.700
atom   16   Tr[ns(na)] =   7.00000
    eigenvalues:
  0.700  0.700  0.700  0.700  0.700
    eigenvectors:
  1.000  0.000  0.000  0.000  0.000
  0.000  1.000  0.000  0.000  0.000
  0.000  0.000  1.000  0.000  0.000
  0.000  0.000  0.000  1.000  0.000
  0.000  0.000  0.000  0.000  1.000
    occupations:
  0.700  0.000  0.000  0.000  0.000
  0.000  0.700  0.000  0.000  0.000
  0.000  0.000  0.700  0.000  0.000
  0.000  0.000  0.000  0.700  0.000
  0.000  0.000  0.000  0.000  0.700
atom   17   Tr[ns(na)] =   7.00000
    eigenvalues:
  0.700  0.700  0.700  0.700  0.700
    eigenvectors:
  1.000  0.000  0.000  0.000  0.000
  0.000  1.000  0.000  0.000  0.000
  0.000  0.000  1.000  0.000  0.000
  0.000  0.000  0.000  1.000  0.000
  0.000  0.000  0.000  0.000  1.000
    occupations:
  0.700  0.000  0.000  0.000  0.000
  0.000  0.700  0.000  0.000  0.000
  0.000  0.000  0.700  0.000  0.000
  0.000  0.000  0.000  0.700  0.000
  0.000  0.000  0.000  0.000  0.700
atom   22   Tr[ns(na)] =   7.00000
    eigenvalues:
  0.700  0.700  0.700  0.700  0.700
    eigenvectors:
  1.000  0.000  0.000  0.000  0.000
  0.000  1.000  0.000  0.000  0.000
  0.000  0.000  1.000  0.000  0.000
  0.000  0.000  0.000  1.000  0.000
  0.000  0.000  0.000  0.000  1.000
    occupations:
  0.700  0.000  0.000  0.000  0.000
  0.000  0.700  0.000  0.000  0.000
  0.000  0.000  0.700  0.000  0.000
[...]
 -0.001  0.012  0.872 -0.001  0.001
  0.028  0.001 -0.001  0.975  0.000
  0.001 -0.001  0.001  0.000  0.601
atom    9   Tr[ns(na)] =   8.03246
    eigenvalues:
  0.635  0.646  0.863  0.893  0.979
    eigenvectors:
  0.000  0.154  0.000  0.000  0.845
  0.998  0.002  0.000  0.000  0.000
  0.000  0.000  1.000  0.000  0.000
  0.001  0.844  0.000  0.000  0.155
  0.000  0.000  0.000  1.000  0.000
    occupations:
  0.927  0.000 -0.000 -0.120 -0.001
  0.000  0.635  0.000  0.000 -0.000
 -0.000  0.000  0.863 -0.000 -0.000
 -0.120  0.000 -0.000  0.698  0.001
 -0.001 -0.000 -0.000  0.001  0.893
atom   10   Tr[ns(na)] =   8.02857
    eigenvalues:
  0.593  0.594  0.926  0.927  0.975
    eigenvectors:
  0.993  0.002  0.000  0.000  0.005
  0.000  0.000  0.983  0.017  0.000
  0.000  0.000  0.017  0.983  0.000
  0.005  0.000  0.000  0.000  0.995
  0.002  0.998  0.000  0.000  0.000
    occupations:
  0.594  0.000  0.002  0.027 -0.000
  0.000  0.926 -0.000  0.000 -0.001
  0.002 -0.000  0.927  0.000  0.000
  0.027  0.000  0.000  0.973  0.000
 -0.000 -0.001  0.000  0.000  0.594
atom   16   Tr[ns(na)] =   8.04614
    eigenvalues:
  0.581  0.600  0.908  0.963  0.971
    eigenvectors:
  0.000  0.208  0.003  0.000  0.789
  1.000  0.000  0.000  0.000  0.000
  0.000  0.000  0.997  0.000  0.003
  0.000  0.791  0.000  0.000  0.208
  0.000  0.000  0.000  0.999  0.000
    occupations:
  0.893 -0.000  0.001 -0.151 -0.000
 -0.000  0.582 -0.000 -0.000 -0.007
  0.001 -0.000  0.908 -0.005  0.001
 -0.151 -0.000 -0.005  0.677 -0.000
 -0.000 -0.007  0.001 -0.000  0.962
atom   17   Tr[ns(na)] =   8.03674
    eigenvalues:
  0.601  0.650  0.869  0.921  0.977
    eigenvectors:
  0.001  0.991  0.000  0.000  0.008
  0.000  0.000  0.055  0.944  0.000
  0.000  0.000  0.945  0.055  0.000
  0.000  0.008  0.000  0.000  0.992
  0.999  0.001  0.000  0.000  0.000
    occupations:
  0.653 -0.004 -0.001  0.028  0.001
 -0.004  0.918  0.012  0.001 -0.001
 -0.001  0.012  0.872 -0.001  0.001
  0.028  0.001 -0.001  0.975  0.000
  0.001 -0.001  0.001  0.000  0.601
atom   22   Tr[ns(na)] =   8.03258
    eigenvalues:
  0.635  0.646  0.863  0.893  0.979
    eigenvectors:
  0.000  0.154  0.000  0.000  0.845
  0.998  0.002  0.000  0.000  0.000
  0.000  0.000  1.000  0.000  0.000
  0.001  0.844  0.000  0.000  0.155
  0.000  0.000  0.000  1.000  0.000
    occupations:
  0.927  0.000 -0.000 -0.120 -0.001
  0.000  0.635  0.000  0.000 -0.000
 -0.000  0.000  0.863 -0.000 -0.000
 -0.120  0.000 -0.000  0.698  0.001
 -0.001 -0.000 -0.000  0.001  0.893
atom   23   Tr[ns(na)] =   8.02841
    eigenvalues:
  0.593  0.594  0.926  0.927  0.975
    eigenvectors:
  0.993  0.002  0.000  0.000  0.005
  0.000  0.000  0.982  0.018  0.000
  0.000  0.000  0.018  0.982  0.000
  0.005  0.000  0.000  0.000  0.995
  0.002  0.998  0.000  0.000  0.000
    occupations:
  0.594  0.000  0.002  0.027 -0.000
  0.000  0.926 -0.000  0.000 -0.001
  0.002 -0.000  0.927  0.000  0.000
  0.027  0.000  0.000  0.973  0.000
 -0.000 -0.001  0.000  0.000  0.594
N of occupied +U levels =  64.2882697
 --- exit write_ns ---

     Threshold (ethr) on eigenvalues was too large:
     Diagonalizing with lowered threshold

     Davidson diagonalization with overlap
     ethr =  5.41E-08,  avg # of iterations =  1.7

[...]

     total energy              =   -1946.84597870 Ry
     Harris-Foulkes estimate   =   -1946.84597871 Ry
     estimated scf accuracy    <       0.00000006 Ry

     iteration # 15     ecut=    40.00 Ry     beta=0.70
     Davidson diagonalization with overlap
     ethr =  2.59E-11,  avg # of iterations =  1.0

     negative rho (up, down):  0.688E+00 0.000E+00

     End of self-consistent calculation
 --- enter write_ns ---
 LDA+U parameters:
U( 2)     =  3.50000000
alpha( 2) =  0.00000000
atom    3   Tr[ns(na)] =   8.04488
    eigenvalues:
  0.581  0.600  0.908  0.962  0.971
    eigenvectors:
  0.000  0.209  0.003  0.000  0.789
  1.000  0.000  0.000  0.000  0.000
  0.000  0.000  0.997  0.000  0.003
  0.000  0.791  0.000  0.000  0.209
  0.000  0.000  0.000  0.999  0.000
    occupations:
  0.893 -0.000  0.001 -0.151 -0.000
 -0.000  0.581 -0.000 -0.000 -0.007
  0.001 -0.000  0.908 -0.005  0.001
 -0.151 -0.000 -0.005  0.677 -0.000
 -0.000 -0.007  0.001 -0.000  0.962
atom    4   Tr[ns(na)] =   8.03564
    eigenvalues:
  0.601  0.650  0.869  0.921  0.977
    eigenvectors:
  0.001  0.991  0.000  0.000  0.008
  0.000  0.000  0.055  0.945  0.000
  0.000  0.000  0.945  0.055  0.000
  0.000  0.008  0.000  0.000  0.992
  0.999  0.001  0.000  0.000  0.000
    occupations:
  0.653 -0.004 -0.001  0.028  0.001
 -0.004  0.918  0.012  0.001 -0.001
 -0.001  0.012  0.872 -0.001  0.001
  0.028  0.001 -0.001  0.975  0.000
  0.001 -0.001  0.001  0.000  0.601
atom    9   Tr[ns(na)] =   8.03355
    eigenvalues:
  0.635  0.646  0.864  0.893  0.979
    eigenvectors:
  0.000  0.154  0.000  0.000  0.845
  0.998  0.002  0.000  0.000  0.000
  0.000  0.000  1.000  0.000  0.000
  0.001  0.844  0.000  0.000  0.155
  0.000  0.000  0.000  1.000  0.000
    occupations:
  0.927  0.000 -0.000 -0.120 -0.001
  0.000  0.635  0.000  0.000 -0.000
 -0.000  0.000  0.864 -0.000 -0.000
 -0.120  0.000 -0.000  0.698  0.001
 -0.001 -0.000 -0.000  0.001  0.893
atom   10   Tr[ns(na)] =   8.03039
    eigenvalues:
  0.593  0.594  0.926  0.927  0.975
    eigenvectors:
  0.992  0.003  0.000  0.000  0.005
  0.000  0.000  0.978  0.022  0.000
  0.000  0.000  0.022  0.978  0.000
  0.005  0.000  0.000  0.000  0.995
  0.003  0.997  0.000  0.000  0.000
    occupations:
  0.595  0.000  0.002  0.027 -0.000
  0.000  0.926 -0.000  0.000 -0.001
  0.002 -0.000  0.927  0.000  0.000
  0.027  0.000  0.000  0.973  0.000
 -0.000 -0.001  0.000  0.000  0.594
atom   16   Tr[ns(na)] =   8.04487
    eigenvalues:
  0.581  0.600  0.908  0.962  0.971
    eigenvectors:
  0.000  0.209  0.003  0.000  0.789
  1.000  0.000  0.000  0.000  0.000
  0.000  0.000  0.997  0.000  0.003
  0.000  0.791  0.000  0.000  0.209
  0.000  0.000  0.000  0.999  0.000
    occupations:
  0.893 -0.000  0.001 -0.151 -0.000
 -0.000  0.581 -0.000 -0.000 -0.007
  0.001 -0.000  0.908 -0.005  0.001
 -0.151 -0.000 -0.005  0.677 -0.000
 -0.000 -0.007  0.001 -0.000  0.962
atom   17   Tr[ns(na)] =   8.03563
    eigenvalues:
  0.601  0.650  0.869  0.921  0.977
    eigenvectors:
  0.001  0.991  0.000  0.000  0.008
  0.000  0.000  0.055  0.945  0.000
  0.000  0.000  0.945  0.055  0.000
  0.000  0.008  0.000  0.000  0.992
  0.999  0.001  0.000  0.000  0.000
    occupations:
  0.653 -0.004 -0.001  0.028  0.001
 -0.004  0.918  0.012  0.001 -0.001
 -0.001  0.012  0.872 -0.001  0.001
  0.028  0.001 -0.001  0.975  0.000
  0.001 -0.001  0.001  0.000  0.601
atom   22   Tr[ns(na)] =   8.03357
    eigenvalues:
  0.635  0.646  0.864  0.893  0.979
    eigenvectors:
  0.000  0.154  0.000  0.000  0.845
  0.998  0.002  0.000  0.000  0.000
  0.000  0.000  1.000  0.000  0.000
  0.001  0.844  0.000  0.000  0.155
  0.000  0.000  0.000  1.000  0.000
    occupations:
  0.927  0.000 -0.000 -0.120 -0.001
  0.000  0.635  0.000  0.000 -0.000
 -0.000  0.000  0.864 -0.000 -0.000
 -0.120  0.000 -0.000  0.698  0.001
 -0.001 -0.000 -0.000  0.001  0.893
atom   23   Tr[ns(na)] =   8.03039
    eigenvalues:
  0.593  0.594  0.926  0.927  0.975
    eigenvectors:
  0.992  0.003  0.000  0.000  0.005
  0.000  0.000  0.978  0.022  0.000
  0.000  0.000  0.022  0.978  0.000
  0.005  0.000  0.000  0.000  0.995
  0.003  0.997  0.000  0.000  0.000
    occupations:
  0.595  0.000  0.002  0.027 -0.000
  0.000  0.926 -0.000  0.000 -0.001
  0.002 -0.000  0.927  0.000  0.000
  0.027  0.000  0.000  0.973  0.000
 -0.000 -0.001  0.000  0.000  0.594
N of occupied +U levels =  64.2889144
 --- exit write_ns ---

[...]

          k = 0.2500-0.4833 0.0000 ( 30510 PWs)   bands (ev):

[...]

          k =-0.2500 0.2417 0.0000 ( 30481 PWs)   bands (ev):

   -48.9390 -48.8911 -48.8827 -48.8811 -48.8779 -48.8569 -48.7917 -48.7840
   -48.7783 -48.7695 -48.7624 -48.7550 -48.7089 -48.6872 -48.5745 -48.5722
   -48.5666 -48.5055 -48.4964 -48.4960 -48.4936 -48.4834 -48.4615 -48.4487
   -21.3830 -21.1030 -20.9262 -20.8316 -20.5416 -20.4412 -20.3859 -20.3577
   -20.2706 -20.1966 -20.0847 -20.0699 -20.0341 -19.8729 -19.8251 -19.7988
   -19.0147 -18.8975  -9.8490  -9.6955  -9.6695  -9.4078  -9.1110  -8.9999
    -8.8741  -8.8119  -8.7065  -8.6175  -8.6151  -8.4700  -8.4678  -8.3307
    -8.2349  -8.1316  -7.9871  -7.9273  -7.6265  -7.4335  -7.4309  -7.2790
    -7.1212  -7.0218  -6.9571  -6.8543  -6.7885  -6.5555  -6.4805  -6.3813
    -6.3677  -6.2695  -6.2074  -6.0774  -6.0456  -6.0128  -5.9120  -5.8168
    -5.7255  -5.5952  -5.4695  -5.4029  -5.1633  -5.0022  -4.9852  -4.8776
    -4.7330  -4.6392  -4.5554  -4.5028  -4.1499  -4.1338  -4.1002  -3.9378
    -3.8888  -3.8171  -3.6981  -3.6340  -3.5584  -3.5117  -3.3473  -3.3381
    -3.2883  -3.1823  -3.0888  -3.0860  -2.9620  -2.8993  -2.6435  -2.4404
    -2.2136  -2.1031  -2.0645  -1.9665  -1.9509  -1.7428  -1.5779  -1.5203
    -0.9807  -0.7096  -0.2776  -0.1403   0.3909   0.5369   0.6416   0.9106
     1.1294   1.3838   1.5455   1.6202   1.7801   1.8115   1.9267   2.1423
     3.6293   3.9605   4.4904   4.8867   5.2736   5.4473   5.5035   5.7446
     5.9475   6.2152   6.3462   6.3902   6.4005   6.6541   6.7893   6.9450
     7.1980   7.3411   7.4473   7.6189   7.7018   7.8785   8.0310   8.0385
     8.1219   8.2274   8.3910   8.3978   8.6248   8.7561   8.8366   8.9007
     8.9081   9.1816   9.3266   9.4463   9.5432   9.6335   9.6841   9.7349
     9.8608   9.9195  10.1253  10.1554  10.2563  10.2932  10.3617  10.5121
    10.5805  10.6484  10.7837  10.8456  10.8756  11.0149  11.0328  11.2078
    11.3224  11.3336  11.4422  11.4640  11.5018  11.5850  11.6935  11.7512
    11.8153  12.0012  12.1192  12.1577  12.1744  12.2128  12.2826  12.3812
    12.4324  12.5100  12.5848  12.6101  12.7061  12.7850  12.8980  13.0029
    13.0652  13.1209  13.2234  13.2647  13.3712  13.3738  13.4482  13.5459
    13.6748  13.6982  13.8014  13.8626  13.8772  14.0702  14.1166  14.1578
    14.1781  14.2748  14.3770  14.4804  14.5695  14.5822  14.6685  14.7335
    14.8062  15.0515  15.2316  15.3065  15.3752  15.4201  15.4832  15.4918
    15.5390  15.6213  15.6850  15.6955  15.7867  15.7871  15.9529  15.9988
    16.0628  16.0743  16.1840  16.3139  16.3400  16.3654  16.4146  16.4984
    16.5455  16.5602  16.6182  16.6441  16.7406  16.8295  16.9782  16.9943
    17.1329  17.2042  17.2193  17.3222  17.3339  17.4080  17.4955  17.5247
    17.5742  17.6270  17.7408  17.7614  17.8712  17.8910  18.0420  18.0640
    18.1026  18.1504  18.2461  18.3478  18.4164  18.4925  18.4993  18.6529
    18.7411  18.8549  18.8770  18.9161  18.9764  19.0276  19.0778  19.1511
    19.2080  19.2311  19.3054  19.4794  19.4839  19.5534  19.6817  19.7231
    19.7549  19.9186  19.9209  20.0337  20.1366  20.2373  20.3170  20.3456
    20.4564  20.5506  20.6183  20.6656  20.6703  20.7641  20.8444  20.9073
    20.9384  21.0320  21.1166  21.1169  21.1737  21.2359  21.3255  21.3846
    21.4119  21.4430  21.5652  21.6304  21.6680  21.7169  21.7900  21.8556
    21.8561  21.9201  22.0028  22.1142

     the Fermi energy is    -1.9600 ev

!    total energy              =   -1946.84597870 Ry
     Harris-Foulkes estimate   =   -1946.84597870 Ry
     estimated scf accuracy    <          2.5E-09 Ry

     The total energy is the sum of the following terms:

     one-electron contribution =  -22630.24497529 Ry
     hartree contribution      =   11362.11207461 Ry
     xc contribution           =    -365.19423870 Ry
     ewald contribution        =    9685.12176369 Ry
     Hubbard energy            =       1.36087283 Ry
     smearing contrib. (-TS)   =      -0.00147584 Ry

     convergence has been achieved in  15 iterations

     Forces acting on atoms (Ry/au):

     negative rho (up, down):  0.688E+00 0.000E+00
     atom    1 type  1   force =    -0.00675735   -0.01281641    0.00018399
     atom    2 type  1   force =     0.00008986    0.00404995   -0.00051494
     atom    3 type  2   force =    -0.00008422    0.00527654   -0.00048107
     atom    4 type  2   force =     0.00825704    0.00867075   -0.00010273
     atom    5 type  1   force =    -0.00221364   -0.02892493    0.00003208
     atom    6 type  1   force =     0.00338366    0.02593337    0.00004747
     atom    7 type  1   force =    -0.00031383   -0.00111296    0.00052787
     atom    8 type  1   force =    -0.00292628   -0.00061912   -0.00023009
     atom    9 type  2   force =     0.00121172   -0.00016185   -0.00043521
     atom   10 type  2   force =     0.00001956   -0.00169733    0.00035168
     atom   11 type  1   force =    -0.00016479    0.01123654    0.00014457
     atom   12 type  1   force =     0.00032093   -0.01067547    0.00016748
     atom   13 type  1   force =    -0.00069988   -0.00002072   -0.00032912
     atom   14 type  1   force =    -0.00675070   -0.01281519    0.00018884
     atom   15 type  1   force =     0.00009223    0.00405137   -0.00050711
     atom   16 type  2   force =    -0.00009109    0.00527653   -0.00048308
     atom   17 type  2   force =     0.00825747    0.00867042   -0.00010759
     atom   18 type  1   force =    -0.00221926   -0.02892558    0.00003112
     atom   19 type  1   force =     0.00337809    0.02593417    0.00004696
     atom   20 type  1   force =    -0.00031266   -0.00111284    0.00052140
     atom   21 type  1   force =    -0.00293335   -0.00061914   -0.00023575
     atom   22 type  2   force =     0.00121030   -0.00016174   -0.00043521
     atom   23 type  2   force =     0.00001685   -0.00169738    0.00034522
     atom   24 type  1   force =    -0.00016581    0.01123247    0.00014379
     atom   25 type  1   force =     0.00031990   -0.01067138    0.00016650
     atom   26 type  1   force =    -0.00070928   -0.00002072   -0.00033155
     atom   27 type  3   force =     0.00001042    0.00053324    0.00066631
     atom   28 type  3   force =     0.00001077    0.00053267    0.00066713
     atom   29 type  3   force =    -0.00011779    0.00032751   -0.00001887
     atom   30 type  3   force =    -0.00011887    0.00032722   -0.00002008

     Total force =     0.002093     Total SCF correction =     0.000082

     bfgs converged in   9 scf cycles and   8 bfgs steps
     (criteria: energy < 0.10E-03, force < 0.10E-02)

     End of BFGS Geometry Optimization

     Final energy   =   -1946.8459787012 Ry
Begin final coordinates

ATOMIC_POSITIONS (crystal)
O0       0.000000000   0.000000000   0.378816724    0   0   1
O0       0.000000000   0.500000000   0.401299446    0   0   1
Rh1      0.250000000   0.500000000   0.452470489    0   0   1
Rh1      0.000000000   0.000000000   0.453148344    0   0   1
O0       0.250000000   0.810000000   0.452880728    0   0   1
O0       0.250000000   0.190000000   0.452648390    0   0   1
O0       0.000000000   0.500000000   0.499213697    0   0   1
O0       0.000000000   0.000000000   0.528595437    0   0   1
Rh1      0.250000000   0.000000000   0.575989333    0   0   1
Rh1      0.000000000   0.500000000   0.571342713    0   0   1
O0       0.250000000   0.690000000   0.576755042    0   0   1
O0       0.250000000   0.310000000   0.576765853    0   0   1
O0       0.000000000   0.000000000   0.621382639    0   0   1
O0       0.500000000   0.000000000   0.378817061    0   0   1
O0       0.500000000   0.500000000   0.401298939    0   0   1
Rh1      0.750000000   0.500000000   0.452470583    0   0   1
Rh1      0.500000000   0.000000000   0.453148757    0   0   1
O0       0.750000000   0.810000000   0.452880791    0   0   1
O0       0.750000000   0.190000000   0.452648347    0   0   1
O0       0.500000000   0.500000000   0.499214202    0   0   1
O0       0.500000000   0.000000000   0.528595763    0   0   1
Rh1      0.750000000   0.000000000   0.575989292    0   0   1
Rh1      0.500000000   0.500000000   0.571343277    0   0   1
O0       0.750000000   0.690000000   0.576755369    0   0   1
O0       0.750000000   0.310000000   0.576766210    0   0   1
O0       0.500000000   0.000000000   0.621382629    0   0   1
H2      -0.000206116   0.638040779   0.384513872
H2       0.499793636   0.638041335   0.384513593
H2       0.148412383   0.033474359   0.368105889
H2       0.648412986   0.033474542   0.368106591
End final coordinates

     General routines

     Parallel routines
     Hubbard U routines

   This run was terminated on:   9:19:48   9May2014

   JOB DONE.
Running PBS batch system epilogue script
Job id: 340832.audhumbla.fysik.dtu.dk
Username: zhonxu
Groupname: campgst
Jobname: RhO2/Eads-2-layers/bare-U-3.5
Sessionid: 8887
Queuename: verylong
Accounting:
This job has allocated the following 16 nodes:
a054 a054 a054 a054 a054 a054 a054 a054 a047 a047 a047 a047 a047 a047 a047 a047
Finished epilogue job 340832.audhumbla.fysik.dtu.dk for zhonxu