     Program PWSCF v.5.0.2 (svn rev. 9656) starts on 11May2014 at  7:34:16

     Current dimensions of program PWSCF are:
     Max number of different atomic species (ntypx) = 10
     Max number of k-points (npk) =  40000
     Max angular momentum in pseudopotentials (lmaxx) =  3
     Reading input from pwscf.in
Warning: card &CELL ignored
Warning: card / ignored

     Subspace diagonalization in iterative solution of the eigenvalue problem:
     a serial algorithm will be used

     bravais-lattice index     =            0
     lattice parameter (alat)  =      11.7919  a.u.
     unit-cell volume          =    9723.6088 (a.u.)^3
     number of atoms/cell      =           51
     number of atomic types    =            3
     number of electrons       =       461.00
     number of Kohn-Sham states=          667
     kinetic-energy cutoff     =      40.0000  Ry
     charge density cutoff     =     500.0000  Ry
     convergence threshold     =      1.0E-06
     mixing beta               =       0.3000
     number of iterations used =            8  plain     mixing
     Exchange-correlation      = SLA  PW   PBE  PBE ( 1 4 3 4 0)
     EXX-fraction              =        0.00
     nstep                     =           50

     celldm(1)=  11.791891  celldm(2)=   0.000000  celldm(3)=   0.000000
     celldm(4)=   0.000000  celldm(5)=   0.000000  celldm(6)=   0.000000

     crystal axes: (cart. coord. in units of alat)
               a(1) = (   1.000000   0.000000   0.000000 )
               a(2) = (   0.000000   1.026665   0.000000 )
               a(3) = (   0.000000   0.000000   5.776283 )

     reciprocal axes: (cart. coord. in units 2 pi/alat)
               b(1) = (  1.000000  0.000000  0.000000 )
               b(2) = (  0.000000  0.974028  0.000000 )
               b(3) = (  0.000000  0.000000  0.173122 )

     PseudoPot. # 1 for O  read from file:
     /home/camp/zhonxu/pseudo/o_pbe_v1.01.uspp.F.UPF
     MD5 check sum: 2bcb18d16ea4b960afae9ec6d52f22d2
     Pseudo is Ultrasoft + core correction, Zval =  6.0
     Generated by new atomic code, or converted to UPF format
     Using radial grid of  737 points,  5 beta functions with:
                l(1) =   0
                l(2) =   0
                l(3) =   1
                l(4) =   1
                l(5) =   2
     Q(r) pseudized with  8 coefficients,  rinner =    0.900   0.900   0.900
                                                       0.900   0.900

     PseudoPot. # 2 for Ru read from file:
     /home/camp/zhonxu/pseudo/ru_pbe_v1.uspp.F.UPF
     MD5 check sum: df00be1c11b23341d9806d8f1dfa10cf
     Pseudo is Ultrasoft + core correction, Zval = 16.0
     Generated by new atomic code, or converted to UPF format
     Using radial grid of  967 points,  6 beta functions with:
                l(1) =   0
                l(2) =   0
                l(3) =   1
                l(4) =   1
                l(5) =   2
                l(6) =   2
     Q(r) pseudized with  8 coefficients,  rinner =    1.300   1.300   1.300
                                                       1.300   1.300

     PseudoPot. # 3 for H  read from file:
     /home/camp/zhonxu/pseudo/h_pbe_v1.uspp.F.UPF
     MD5 check sum: 3408e3ff4ec8b0a4e358431e7e038a48
     Pseudo is Ultrasoft, Zval =  1.0
     Generated by new atomic code, or converted to UPF format
     Using radial grid of  615 points,  2 beta functions with:
                l(1) =   0
                l(2) =   0
     Q(r) pseudized with  8 coefficients,  rinner =    0.700

     atomic species   valence    mass     pseudopotential
        O0             6.00    15.99940     O ( 1.00)
        Ru1           16.00   101.07000     Ru( 1.00)
        H2             1.00     1.00794     H ( 1.00)

      2 Sym. Ops. (no inversion) found

   Cartesian axes

     site n.     atom                  positions (alat units)
         1           O0  tau(   1) = (   0.0000000   0.5133323   1.9230980  )
         2           Ru1 tau(   2) = (   0.2500000   0.5133323   2.1181631  )
         3           Ru1 tau(   3) = (   0.0000000   0.0000000   2.1181631  )
         4           O0  tau(   4) = (   0.2500000   0.8315984   2.1181631  )
         5           O0  tau(   5) = (   0.2500000   0.1950663   2.1181631  )
         6           O0  tau(   6) = (   0.0000000   0.5133323   2.3132282  )
         7           O0  tau(   7) = (   0.0000000   0.0000000   2.4364363  )
         8           Ru1 tau(   8) = (   0.2500000   0.0000000   2.6315014  )
         9           Ru1 tau(   9) = (   0.0000000   0.5133323   2.6315014  )
        10           O0  tau(  10) = (   0.2500000   0.7083986   2.6315014  )
        11           O0  tau(  11) = (   0.2500000   0.3182660   2.6315014  )
        12           O0  tau(  12) = (   0.0000000   0.0000000   2.8265665  )
        13           O0  tau(  13) = (   0.0000000   0.5133323   2.9427276  )
        14           Ru1 tau(  14) = (   0.2500000   0.5133323   3.1406808  )
        15           Ru1 tau(  15) = (   0.0000000   0.0000000   3.1457639  )
        16           O0  tau(  16) = (   0.2500000   0.8279742   3.1435689  )
        17           O0  tau(  17) = (   0.2500000   0.1986904   3.1435689  )
        18           O0  tau(  18) = (   0.0000000   0.5133323   3.3386918  )
        19           O0  tau(  19) = (   0.0000000   0.0000000   3.4580876  )
        20           Ru1 tau(  20) = (   0.2500000   0.0000000   3.6718101  )
        21           Ru1 tau(  21) = (   0.0000000   0.5133323   3.6403293  )
        22           O0  tau(  22) = (   0.2500000   0.7080495   3.6659760  )
        23           O0  tau(  23) = (   0.2500000   0.3186151   3.6659760  )
        24           O0  tau(  24) = (   0.0000000   0.0000000   3.8466582  )
        25           O0  tau(  25) = (   0.5000000   0.5133323   1.9230980  )
        26           Ru1 tau(  26) = (   0.7500000   0.5133323   2.1181631  )
        27           Ru1 tau(  27) = (   0.5000000   0.0000000   2.1181631  )
        28           O0  tau(  28) = (   0.7500000   0.8315984   2.1181631  )
        29           O0  tau(  29) = (   0.7500000   0.1950663   2.1181631  )
        30           O0  tau(  30) = (   0.5000000   0.5133323   2.3132282  )
        31           O0  tau(  31) = (   0.5000000   0.0000000   2.4364363  )
        32           Ru1 tau(  32) = (   0.7500000   0.0000000   2.6315014  )
        33           Ru1 tau(  33) = (   0.5000000   0.5133323   2.6315014  )
        34           O0  tau(  34) = (   0.7500000   0.7083986   2.6315014  )
        35           O0  tau(  35) = (   0.7500000   0.3182660   2.6315014  )
        36           O0  tau(  36) = (   0.5000000   0.0000000   2.8265665  )
        37           O0  tau(  37) = (   0.5000000   0.5133323   2.9427276  )
        38           Ru1 tau(  38) = (   0.7500000   0.5133323   3.1406808  )
        39           Ru1 tau(  39) = (   0.5000000   0.0000000   3.1457639  )
        40           O0  tau(  40) = (   0.7500000   0.8279742   3.1435689  )
        41           O0  tau(  41) = (   0.7500000   0.1986904   3.1435689  )
        42           O0  tau(  42) = (   0.5000000   0.5133323   3.3386918  )
        43           O0  tau(  43) = (   0.5000000   0.0000000   3.4580876  )
        44           Ru1 tau(  44) = (   0.7500000   0.0000000   3.6718101  )
        45           Ru1 tau(  45) = (   0.5000000   0.5133323   3.6403293  )
        46           O0  tau(  46) = (   0.7500000   0.7080495   3.6659760  )
        47           O0  tau(  47) = (   0.7500000   0.3186151   3.6659760  )
        48           O0  tau(  48) = (   0.5000000   0.0000000   3.8466582  )
        49           O0  tau(  49) = (   0.5000000   0.5133323   3.9608553  )
        50           O0  tau(  50) = (   0.5000000   0.3266334   4.0707780  )
        51           H2  tau(  51) = (   0.5000000   0.3740858   4.2225209  )

     number of k points=     9  Methfessel-Paxton smearing, width (Ry)=  0.0100
                       cart. coord. in units 2pi/alat
        k(    1) = (   0.0000000   0.0000000   0.0000000), wk =   0.1250000
        k(    2) = (   0.0000000   0.2435070   0.0000000), wk =   0.2500000
        k(    3) = (   0.0000000  -0.4870139   0.0000000), wk =   0.1250000
        k(    4) = (   0.2500000   0.0000000   0.0000000), wk =   0.2500000
        k(    5) = (   0.2500000   0.2435070   0.0000000), wk =   0.5000000
        k(    6) = (   0.2500000  -0.4870139   0.0000000), wk =   0.2500000
        k(    7) = (  -0.5000000   0.0000000   0.0000000), wk =   0.1250000
        k(    8) = (  -0.5000000   0.2435070   0.0000000), wk =   0.2500000
        k(    9) = (  -0.5000000  -0.4870139   0.0000000), wk =   0.1250000

     Largest allocated arrays     est. size (Mb)     dimensions
     Largest temporary arrays     est. size (Mb)     dimensions

     Check: negative/imaginary core charge=   -0.000004    0.000000

     Initial potential from superposition of free atoms
     Check: negative starting charge=   -1.046905

     starting charge  444.99969, renormalised to  461.00000

     negative rho (up, down):  0.108E+01 0.000E+00
     Starting wfc are  345 randomized atomic wfcs

     Self-consistent Calculation

     iteration #  1     ecut=    40.00 Ry     beta=0.30
     Davidson diagonalization with overlap
     ethr =  1.00E-02,  avg # of iterations =  6.0

     negative rho (up, down):  0.114E+01 0.000E+00

     total energy              =   -4008.20243313 Ry
     Harris-Foulkes estimate   =   -4203.56973937 Ry
     estimated scf accuracy    <     387.25748805 Ry

[...]

     End of self-consistent calculation

          k = 0.0000 0.0000 0.0000 ( 41487 PWs)   bands (ev):

   -72.5852 -72.5745 -72.4163 -72.4061 -72.3924 -72.2556 -72.2451 -72.2071
   -72.2022 -72.1981 -72.1923 -72.1914 -72.1887 -72.1208 -71.9390 -71.9281
   -42.7554 -42.6387 -42.5708 -42.5527 -42.5384 -42.4835 -42.4747 -42.4701
   -42.4570 -42.4452 -42.4315 -42.4278 -42.4265 -42.4243 -42.4230 -42.4154
   -42.4082 -42.4032 -42.3882 -42.3707 -42.2960 -42.2950 -42.2633 -42.2391
   -42.2242 -42.2200 -42.1829 -42.1155 -42.1131 -42.0910 -42.0890 -42.0802
   -42.0750 -42.0677 -42.0500 -42.0493 -42.0448 -42.0429 -42.0155 -42.0077
   -41.9987 -41.9922 -41.9701 -41.9649 -41.9009 -41.8687 -41.7834 -41.7529
   -22.8205 -18.7768 -18.5643 -18.3324 -18.2791 -18.1643 -18.0160 -17.9503
   -17.7636 -17.7230 -17.6962 -17.6819 -17.5236 -17.4846 -17.4825 -17.4727
   -17.4464 -17.4035 -17.3977 -17.3819 -17.3435 -17.3285 -17.3163 -17.1862
   -17.1550 -16.9526 -16.9146 -16.9086 -16.8644 -16.8172 -16.6610 -16.1119
   -16.0449 -14.8653  -7.3432  -6.9781  -6.9558  -6.9324  -6.8971  -6.7934
    -6.6662  -6.0647  -6.0045  -5.9241  -5.7460  -5.7421  -5.7219  -5.6445
    -5.6253  -5.5852  -5.5699  -5.5590  -5.5428  -5.5368  -5.5089  -5.5042
    -5.4973  -5.4735  -5.4021  -5.3873  -5.3674  -5.3282  -5.2620  -5.2417
    -5.2174  -5.1128  -5.0582  -5.0367  -5.0295  -4.9605  -4.8677  -4.8138
    -4.5149  -4.4079  -4.3897  -4.3510  -4.3229  -4.0125  -3.7221  -3.6321
    -3.5245  -3.4795  -3.4735  -3.4696  -3.4571  -3.4310  -3.4217  -3.3925
    -3.2063  -3.1930  -3.1752  -3.1233  -3.0854  -2.9662  -2.9348  -2.9142
    -2.8612  -2.8454  -2.8111  -2.6963  -2.6721  -2.6032  -2.5780  -2.5514
[...]
Ru1      0.500000000   0.000000000   0.366700000    0   0   0
O0       0.750000000   0.810000000   0.366700000    0   0   0
O0       0.750000000   0.190000000   0.366700000    0   0   0
O0       0.500000000   0.500000000   0.400470000    0   0   0
O0       0.500000000   0.000000000   0.421800000    0   0   0
Ru1      0.750000000   0.000000000   0.455570000    0   0   0
Ru1      0.500000000   0.500000000   0.455570000    0   0   0
O0       0.750000000   0.690000000   0.455570000    0   0   0
O0       0.750000000   0.310000000   0.455570000    0   0   0
O0       0.500000000   0.000000000   0.489340000    0   0   0
O0       0.500000000   0.500000000   0.509450000    0   0   0
Ru1      0.750000000   0.500000000   0.543720000    0   0   0
Ru1      0.500000000   0.000000000   0.544600000    0   0   0
O0       0.750000000   0.806470000   0.544220000    0   0   0
O0       0.750000000   0.193530000   0.544220000    0   0   0
O0       0.500000000   0.500000000   0.578000000    0   0   0
O0       0.500000000   0.000000000   0.598670000    0   0   0
Ru1      0.750000000   0.000000000   0.635670000    0   0   0
Ru1      0.500000000   0.500000000   0.630220000    0   0   0
O0       0.750000000   0.689660000   0.634660000    0   0   0
O0       0.750000000   0.310340000   0.634660000    0   0   0
O0       0.500000000   0.000000000   0.665940000    0   0   0
O0       0.500000000   0.500000000   0.685494577    1   0   1
O0       0.500000000   0.318150000   0.706459076    1   0   1
H2       0.500000000   0.364370000   0.732527657    1   0   1

     Check: negative starting charge=   -1.046901
     NEW-OLD atomic charge density approx. for the potential

     Check: negative/imaginary core charge=   -0.000004    0.000000
     Check: negative starting charge=   -1.046902

[...]

     Self-consistent Calculation

[...]

     Threshold (ethr) on eigenvalues was too large:
     Diagonalizing with lowered threshold

     Davidson diagonalization with overlap
     ethr =  1.82E-08,  avg # of iterations =  1.0

[...]

     total energy              =   -4189.70001555 Ry
     Harris-Foulkes estimate   =   -4189.70001556 Ry
     estimated scf accuracy    <       0.00000003 Ry

     iteration # 20     ecut=    40.00 Ry     beta=0.30
     Davidson diagonalization with overlap
     ethr =  7.44E-12,  avg # of iterations =  1.0

     negative rho (up, down):  0.116E+01 0.000E+00

     End of self-consistent calculation

[...]

          k = 0.2500-0.4870 0.0000 ( 41596 PWs)   bands (ev):

[...]

          k =-0.5000-0.4870 0.0000 ( 41560 PWs)   bands (ev):

   -72.6170 -72.6170 -72.4452 -72.4452 -72.4377 -72.2843 -72.2843 -72.2389
   -72.2299 -72.2297 -72.2279 -72.2274 -72.2273 -72.1563 -71.9684 -71.9658
   -42.7005 -42.7002 -42.6867 -42.5831 -42.5814 -42.5105 -42.5105 -42.4782
   -42.4780 -42.4771 -42.4660 -42.4570 -42.4556 -42.4495 -42.4494 -42.4453
   -42.4284 -42.4283 -42.4160 -42.4156 -42.4054 -42.2835 -42.2834 -42.2411
   -42.2411 -42.1767 -42.1689 -42.1677 -42.1633 -42.1498 -42.1333 -42.1329
   -42.1325 -42.1269 -42.1267 -42.1037 -42.1024 -42.0634 -42.0634 -42.0224
   -42.0168 -42.0156 -42.0117 -41.9946 -41.9936 -41.9379 -41.8043 -41.8010
   -22.1504 -18.2712 -18.1769 -18.0622 -18.0594 -17.9326 -17.9144 -17.7948
   -17.7924 -17.6408 -17.6395 -17.6393 -17.6382 -17.5856 -17.5748 -17.5384
   -17.5372 -17.4946 -17.4864 -17.4507 -17.4494 -17.4314 -17.4305 -17.3663
   -17.3663 -17.3657 -17.3605 -17.2584 -17.2553 -16.9509 -16.9399 -16.1989
   -16.1975 -14.9827  -7.1860  -6.2887  -6.2708  -6.1437  -6.1416  -5.8493
    -5.8068  -5.6528  -5.6498  -5.5823  -5.5355  -5.5299  -5.5272  -5.5183
    -5.5110  -5.5087  -5.4989  -5.4792  -5.4752  -5.4584  -5.4479  -5.3403
    -5.2330  -5.2062  -5.2028  -5.1932  -5.1563  -5.1191  -5.1178  -5.1161
    -5.0808  -4.9687  -4.8455  -4.8432  -4.8158  -4.8113  -4.7893  -4.7860
    -4.7575  -4.7563  -4.7326  -4.6710  -4.4054  -4.3140  -4.2409  -4.2203
    -4.2158  -4.1855  -4.1182  -3.9427  -3.8589  -3.7317  -3.7251  -3.6385
    -3.6355  -3.5618  -3.5601  -3.4267  -3.4193  -3.3982  -3.3645  -3.3550
    -3.3544  -3.3345  -3.3320  -3.3308  -3.3220  -3.1331  -3.0866  -3.0657
    -3.0617  -3.0171  -3.0062  -2.9995  -2.9628  -2.6592  -2.6371  -2.6107
    -2.5987  -2.1098  -2.1065  -1.9455  -1.9437  -1.8697  -1.8669  -1.8116
    -1.8009  -1.6436  -1.6307  -1.5921  -1.5705  -1.4081  -1.4026  -1.3881
    -1.3841  -1.3262  -1.3257  -1.1584  -1.1565  -0.8478  -0.2107  -0.0508
     0.0208   0.0269   0.2069   0.2566   0.2941   0.2944   0.4739   0.5744
     0.5801   0.6104   0.6472   0.6907   0.6979   0.8091   0.9262   0.9737
     1.1458   1.1463   1.1977   1.2072   1.2388   1.2633   1.2639   1.3347
     1.3393   1.3511   1.3542   1.3899   1.4067   1.4475   1.4511   1.4595
     1.4833   1.5282   1.5627   1.6775   1.7172   1.7205   1.7214   1.8019
     1.8430   1.8439   1.8975   1.9239   1.9484   1.9867   1.9890   2.6733
     2.6754   3.0680   3.6997   3.7928   3.7992   3.8156   3.8589   3.8618
     3.9214   3.9218   4.0522   4.0730   4.0792   4.1704   4.4870   4.7097
     4.7143   4.7987   4.8888   5.1074   5.1200   5.1942   5.2921   5.5950
     5.6060   5.6739   5.6926   5.8798   5.8868   5.9446   5.9511   6.0947
     6.8881   7.1551   7.2583   7.2590   7.5075   7.5986   7.7676   7.7750
     7.8994   7.9706   8.0553   8.0800   8.2546   8.3133   8.3372   8.3918
     8.7014   8.7097   8.8106   8.9045   9.1977   9.2542   9.3892   9.5453
     9.7408   9.8236   9.8794   9.9461  10.1498  10.1627  10.1771  10.3145
    10.3189  10.4010  10.4134  10.4758  10.9075  10.9309  10.9357  11.0640
    11.1490  11.1950  11.1990  11.2467  11.6710  11.7455  11.7607  11.8091
    12.1627  12.1917  12.1964  12.2460  12.7315  12.8707  12.9484  12.9951
    13.2260  13.2412  13.2795  13.3398  13.4975  13.5501  13.6776  13.6874
    13.8998  14.0064  14.0424  14.0973  14.1171  14.1400  14.1455  14.1878
    14.2020  14.2598  14.3278  14.4338  14.4685  14.4807  14.5087  14.5176
    14.5537  14.5859  14.6374  14.6395  14.7076  14.7589  14.8576  14.9280
    14.9285  14.9727  14.9778  15.0078  15.0164  15.0226  15.0462  15.1045
    15.1224  15.1441  15.1689  15.1919  15.2287  15.2477  15.3513  15.3554
    15.3668  15.4147  15.4463  15.4530  15.4855  15.4968  15.5273  15.5539
    15.6164  15.6291  15.7366  15.7380  15.7458  15.7683  15.7703  15.8944
    15.9411  15.9529  15.9821  15.9889  16.0840  16.1217  16.1291  16.1764
    16.2156  16.2345  16.2571  16.2770  16.2777  16.3023  16.3147  16.3748
    16.4163  16.4245  16.4370  16.4388  16.4775  16.4865  16.6307  16.6764
    16.7480  16.8294  16.8677  16.8704  16.9160  16.9413  16.9583  16.9966
    17.0246  17.0646  17.0677  17.1032  17.2964  17.3015  17.3028  17.3188
    17.5338  17.5408  17.5817  17.6657  17.7116  17.7371  17.7992  17.8153
    17.9266  17.9345  17.9572  18.0520  18.1287  18.1365  18.1784  18.1978
    18.2859  18.2864  18.4096  18.4128  18.5051  18.5177  18.5632  18.6483
    18.6657  18.6675  18.7098  18.7577  18.8194  18.8466  18.9053  19.0324
    19.1324  19.1974  19.2430  19.2805  19.3221  19.3709  19.3994  19.4253
[...]
    23.3177  23.3472  23.3636  23.4360  23.4364  23.4794  23.5028  23.6055
    23.7423  23.8082  23.8379  23.8468  23.8556  23.9208  23.9324  23.9342
    23.9871  24.0504  24.0690  24.1000  24.1129  24.1628  24.1746  24.2597
    24.2669  24.2711  24.3345  24.4798  24.5192  24.5819  24.5914  24.6065
    24.6246  24.6383  24.6507  24.6960  24.7076  24.7459  24.7489  24.8950
    24.9359  24.9847  25.0099  25.0983  25.1145  25.2025  25.2311  25.2796
    25.2988  25.3549  25.4352  25.4601  25.4687  25.5493  25.5664  25.5757
    25.6188  25.6222  25.6356  25.6454  25.6934  25.7007  25.7396  25.7844
    25.8935  25.9319  25.9840  26.0472  26.0563  26.1811  26.2010  26.2092
    26.2629  26.3144  26.3853  26.3977  26.5271  26.5867  26.6245  26.6482
    26.6968  26.7841  26.7979  26.8566  26.9654  26.9957  27.0251  27.0657
    27.1127  27.1690  27.1943  27.2200  27.2454  27.2736  27.3105  27.3340
    27.4446  27.4538  27.5276  27.5386  27.5430  27.6357  27.6426  27.6591
    27.7458  27.7531  27.7819  27.8295  27.9030  27.9145  27.9242  27.9471
    28.0129  28.0675  28.0870

     the Fermi energy is     1.3264 ev

!    total energy              =   -4189.70001555 Ry
     Harris-Foulkes estimate   =   -4189.70001556 Ry
     estimated scf accuracy    <          8.9E-09 Ry

     The total energy is the sum of the following terms:

     one-electron contribution =  -87641.77824171 Ry
     hartree contribution      =   43889.44624062 Ry
     xc contribution           =    -641.74642170 Ry
     ewald contribution        =   40204.38039395 Ry
     smearing contrib. (-TS)   =      -0.00198672 Ry

     convergence has been achieved in  20 iterations

     Forces acting on atoms (Ry/au):

     negative rho (up, down):  0.116E+01 0.000E+00
     atom    1 type  1   force =     0.00000000   -0.00011757    0.05332254
     atom    2 type  2   force =    -0.00079994    0.00020412   -0.08739793
     atom    3 type  2   force =     0.00000000    0.00007126    0.08271748
     atom    4 type  1   force =    -0.00016465   -0.00448431   -0.02530466
     atom    5 type  1   force =    -0.00015207    0.00437172   -0.02535455
     atom    6 type  1   force =     0.00000000   -0.00021964    0.04008573
     atom    7 type  1   force =     0.00000000   -0.00004081   -0.03021993
     atom    8 type  2   force =     0.00015299   -0.00008352   -0.02092876
     atom    9 type  2   force =     0.00000000    0.00034829   -0.01329765
     atom   10 type  1   force =    -0.00009862    0.02314032   -0.00277718
     atom   11 type  1   force =    -0.00007682   -0.02310790   -0.00270927
     atom   12 type  1   force =     0.00000000    0.00014899    0.03351080
     atom   13 type  1   force =     0.00000000    0.00122893    0.00697100
     atom   14 type  2   force =     0.01066318   -0.00270656   -0.00735840
     atom   15 type  2   force =     0.00000000   -0.00049369    0.00113161
     atom   16 type  1   force =     0.00014490    0.00032809   -0.00052889
     atom   17 type  1   force =    -0.00046365    0.00015941   -0.00084993
     atom   18 type  1   force =     0.00000000    0.00023440   -0.00214192
     atom   19 type  1   force =     0.00000000   -0.00139610   -0.00317909
     atom   20 type  2   force =     0.00670679    0.00089067    0.00635775
     atom   21 type  2   force =     0.00000000    0.00338418   -0.00518190
     atom   22 type  1   force =    -0.01331037    0.01016081   -0.01728448
     atom   23 type  1   force =    -0.01374408   -0.01200143   -0.01777350
     atom   24 type  1   force =     0.00000000    0.00011991   -0.00126140
     atom   25 type  1   force =     0.00000000   -0.00002518    0.05541981
     atom   26 type  2   force =     0.00079994    0.00020412   -0.08739793
     atom   27 type  2   force =     0.00000000    0.00002341    0.08354511
     atom   28 type  1   force =     0.00016465   -0.00448431   -0.02530466
     atom   29 type  1   force =     0.00015207    0.00437172   -0.02535455
     atom   30 type  1   force =     0.00000000    0.00001823    0.03611881
     atom   31 type  1   force =     0.00000000    0.00001923   -0.03054420
     atom   32 type  2   force =    -0.00015299   -0.00008352   -0.02092876
     atom   33 type  2   force =     0.00000000    0.00007052   -0.01241524
     atom   34 type  1   force =     0.00009862    0.02314032   -0.00277718
     atom   35 type  1   force =     0.00007682   -0.02310790   -0.00270927
     atom   36 type  1   force =     0.00000000   -0.00001228    0.03348992
     atom   37 type  1   force =     0.00000000   -0.00036640    0.00036264
     atom   38 type  2   force =    -0.01066318   -0.00270656   -0.00735840
     atom   39 type  2   force =     0.00000000    0.00018881    0.00129223
     atom   40 type  1   force =    -0.00014490    0.00032809   -0.00052889
     atom   41 type  1   force =     0.00046365    0.00015941   -0.00084993
     atom   42 type  1   force =     0.00000000    0.00670180   -0.01426561
     atom   43 type  1   force =     0.00000000   -0.00031605   -0.00109873
     atom   44 type  2   force =    -0.00670679    0.00089067    0.00635775
     atom   45 type  2   force =     0.00000000   -0.02224434    0.11001876
     atom   46 type  1   force =     0.01331037    0.01016081   -0.01728448
     atom   47 type  1   force =     0.01374408   -0.01200143   -0.01777350
     atom   48 type  1   force =     0.00000000   -0.01472452   -0.02071162
     atom   49 type  1   force =     0.00000000    0.06526479    0.00078250
     atom   50 type  1   force =     0.00000000   -0.05241208    0.00028329
     atom   51 type  3   force =     0.00000000    0.02080306   -0.00091533

     Total force =     0.001237     Total SCF correction =     0.000010

     bfgs converged in   9 scf cycles and   8 bfgs steps
     (criteria: energy < 0.10E-03, force < 0.10E-02)

     End of BFGS Geometry Optimization

     Final energy   =   -4189.7000155496 Ry
Begin final coordinates

ATOMIC_POSITIONS (crystal)
O0       0.000000000   0.500000000   0.332930000    0   0   0
Ru1      0.250000000   0.500000000   0.366700000    0   0   0
Ru1      0.000000000   0.000000000   0.366700000    0   0   0
O0       0.250000000   0.810000000   0.366700000    0   0   0
O0       0.250000000   0.190000000   0.366700000    0   0   0
O0       0.000000000   0.500000000   0.400470000    0   0   0
O0       0.000000000   0.000000000   0.421800000    0   0   0
Ru1      0.250000000   0.000000000   0.455570000    0   0   0
Ru1      0.000000000   0.500000000   0.455570000    0   0   0
O0       0.250000000   0.690000000   0.455570000    0   0   0
O0       0.250000000   0.310000000   0.455570000    0   0   0
O0       0.000000000   0.000000000   0.489340000    0   0   0
O0       0.000000000   0.500000000   0.509450000    0   0   0
Ru1      0.250000000   0.500000000   0.543720000    0   0   0
Ru1      0.000000000   0.000000000   0.544600000    0   0   0
O0       0.250000000   0.806470000   0.544220000    0   0   0
O0       0.250000000   0.193530000   0.544220000    0   0   0
O0       0.000000000   0.500000000   0.578000000    0   0   0
O0       0.000000000   0.000000000   0.598670000    0   0   0
Ru1      0.250000000   0.000000000   0.635670000    0   0   0
Ru1      0.000000000   0.500000000   0.630220000    0   0   0
O0       0.250000000   0.689660000   0.634660000    0   0   0
O0       0.250000000   0.310340000   0.634660000    0   0   0
O0       0.000000000   0.000000000   0.665940000    0   0   0
O0       0.500000000   0.500000000   0.332930000    0   0   0
Ru1      0.750000000   0.500000000   0.366700000    0   0   0
Ru1      0.500000000   0.000000000   0.366700000    0   0   0
O0       0.750000000   0.810000000   0.366700000    0   0   0
O0       0.750000000   0.190000000   0.366700000    0   0   0
O0       0.500000000   0.500000000   0.400470000    0   0   0
O0       0.500000000   0.000000000   0.421800000    0   0   0
Ru1      0.750000000   0.000000000   0.455570000    0   0   0
Ru1      0.500000000   0.500000000   0.455570000    0   0   0
O0       0.750000000   0.690000000   0.455570000    0   0   0
O0       0.750000000   0.310000000   0.455570000    0   0   0
O0       0.500000000   0.000000000   0.489340000    0   0   0
O0       0.500000000   0.500000000   0.509450000    0   0   0
Ru1      0.750000000   0.500000000   0.543720000    0   0   0
Ru1      0.500000000   0.000000000   0.544600000    0   0   0
O0       0.750000000   0.806470000   0.544220000    0   0   0
O0       0.750000000   0.193530000   0.544220000    0   0   0
O0       0.500000000   0.500000000   0.578000000    0   0   0
O0       0.500000000   0.000000000   0.598670000    0   0   0
Ru1      0.750000000   0.000000000   0.635670000    0   0   0
Ru1      0.500000000   0.500000000   0.630220000    0   0   0
O0       0.750000000   0.689660000   0.634660000    0   0   0
O0       0.750000000   0.310340000   0.634660000    0   0   0
O0       0.500000000   0.000000000   0.665940000    0   0   0
O0       0.500000000   0.500000000   0.685494577    1   0   1
O0       0.500000000   0.318150000   0.706459076    1   0   1
H2       0.500000000   0.364370000   0.732527657    1   0   1
End final coordinates

     General routines

     Parallel routines

   This run was terminated on:   9: 0:24  12May2014

   JOB DONE.
Running PBS batch system epilogue script
Job id: 349457.audhumbla.fysik.dtu.dk
Username: zhonxu
Groupname: campgst
Jobname: RuO2/Eads-4-layers/OOH
Sessionid: 8491
Queuename: verylong
Accounting:
This job has allocated the following 32 nodes:
g047 g047 g047 g047 g047 g047 g047 g047 g047 g047 g047 g047 g047 g047 g047 g047 g022 g022 g022 g022 g022 g022 g022 g022 g022 g022 g022 g022 g022 g022 g022 g022
Finished epilogue job 349457.audhumbla.fysik.dtu.dk for zhonxu