     Program PWSCF v.5.0.2 (svn rev. 9656) starts on  6May2014 at 12:59: 2

     Current dimensions of program PWSCF are:
     Max number of different atomic species (ntypx) = 10
     Max number of k-points (npk) =  40000
     Max angular momentum in pseudopotentials (lmaxx) =  3
     Reading input from pwscf.in
Warning: card &CELL ignored
Warning: card / ignored

     Subspace diagonalization in iterative solution of the eigenvalue problem:
     a serial algorithm will be used

     Found symmetry operation: I + ( -0.5000  0.0000  0.0000)
     This is a supercell, fractional translations are disabled

     bravais-lattice index     =            0
     lattice parameter (alat)  =      11.2250  a.u.
     unit-cell volume          =    7005.5484 (a.u.)^3
     number of atoms/cell      =           30
     number of atomic types    =            3
     number of electrons       =       208.00
     number of Kohn-Sham states=          300
     kinetic-energy cutoff     =      40.0000  Ry
     charge density cutoff     =     500.0000  Ry
     convergence threshold     =      1.0E-06
     mixing beta               =       0.7000
     number of iterations used =            8  plain     mixing
     Exchange-correlation      = SLA  PW   PBE  PBE ( 1 4 3 4 0)
     EXX-fraction              =        0.00
     nstep                     =           50

     celldm(1)=  11.224973  celldm(2)=   0.000000  celldm(3)=   0.000000
     celldm(4)=   0.000000  celldm(5)=   0.000000  celldm(6)=   0.000000

     crystal axes: (cart. coord. in units of alat)
               a(1) = (   1.000000   0.000000   0.000000 )
               a(2) = (   0.000000   1.107086   0.000000 )
               a(3) = (   0.000000   0.000000   4.474090 )

     reciprocal axes: (cart. coord. in units 2 pi/alat)
               b(1) = (  1.000000  0.000000  0.000000 )
               b(2) = (  0.000000  0.903272  0.000000 )
               b(3) = (  0.000000  0.000000  0.223509 )

     PseudoPot. # 1 for O  read from file:
     /home/camp/zhonxu/pseudo/o_pbe_v1.01.uspp.F.UPF
     MD5 check sum: 2bcb18d16ea4b960afae9ec6d52f22d2
     Pseudo is Ultrasoft + core correction, Zval =  6.0
     Generated by new atomic code, or converted to UPF format
     Using radial grid of  737 points,  5 beta functions with:
                l(1) =   0
                l(2) =   0
                l(3) =   1
                l(4) =   1
                l(5) =   2
     Q(r) pseudized with  8 coefficients,  rinner =    0.900   0.900   0.900
                                                       0.900   0.900

     PseudoPot. # 2 for Ti read from file:
     /home/camp/zhonxu/pseudo/ti_pbe_v1.uspp.F.UPF
     MD5 check sum: bcc8f6961b3b91f0cac3ca967d22d0fb
     Pseudo is Ultrasoft + core correction, Zval = 12.0
     Generated by new atomic code, or converted to UPF format
     Using radial grid of  851 points,  6 beta functions with:
                l(1) =   0
                l(2) =   0
                l(3) =   1
                l(4) =   1
                l(5) =   2
                l(6) =   2
     Q(r) pseudized with  6 coefficients,  rinner =    1.000   1.000   1.000
                                                       1.000   1.000

     PseudoPot. # 3 for H  read from file:
     /home/camp/zhonxu/pseudo/h_pbe_v1.uspp.F.UPF
     MD5 check sum: 3408e3ff4ec8b0a4e358431e7e038a48
     Pseudo is Ultrasoft, Zval =  1.0
     Generated by new atomic code, or converted to UPF format
     Using radial grid of  615 points,  2 beta functions with:
                l(1) =   0
                l(2) =   0
     Q(r) pseudized with  8 coefficients,  rinner =    0.700

     atomic species   valence    mass     pseudopotential
        O0             6.00    15.99940     O ( 1.00)
        Ti1           12.00    47.88000     Ti( 1.00)
        H2             1.00     1.00794     H ( 1.00)

     Simplified LDA+U calculation (l_max = 2) with parameters (eV):
     atomic species    L          U    alpha       J0     beta
        Ti1            2     3.0000   0.0000   0.0000   0.0000

     No symmetry found

   Cartesian axes

     site n.     atom                  positions (alat units)
         1           O0  tau(   1) = (   0.0000000   0.0000000   1.6989461  )
         2           O0  tau(   2) = (   0.0000000   0.5535432   1.7901728  )
         3           Ti1 tau(   3) = (   0.2500000   0.5535432   2.0162933  )
         4           Ti1 tau(   4) = (   0.0000000   0.0000000   2.0248388  )
         5           O0  tau(   5) = (   0.2500000   0.8967400   2.0178145  )
         6           O0  tau(   6) = (   0.2500000   0.2103464   2.0226912  )
         7           O0  tau(   7) = (   0.0000000   0.5535432   2.2326603  )
         8           O0  tau(   8) = (   0.0000000   0.0000000   2.3559662  )
         9           Ti1 tau(   9) = (   0.2500000   0.0000000   2.5995804  )
        10           Ti1 tau(  10) = (   0.0000000   0.5535432   2.5483968  )
        11           O0  tau(  11) = (   0.2500000   0.7638896   2.5964932  )
        12           O0  tau(  12) = (   0.2500000   0.3431968   2.5965380  )
        13           O0  tau(  13) = (   0.0000000   0.0000000   2.7842708  )
        14           O0  tau(  14) = (   0.5000000   0.0000000   1.6989461  )
        15           O0  tau(  15) = (   0.5000000   0.5535432   1.7901728  )
        16           Ti1 tau(  16) = (   0.7500000   0.5535432   2.0162933  )
        17           Ti1 tau(  17) = (   0.5000000   0.0000000   2.0248388  )
        18           O0  tau(  18) = (   0.7500000   0.8967400   2.0178145  )
        19           O0  tau(  19) = (   0.7500000   0.2103464   2.0226912  )
        20           O0  tau(  20) = (   0.5000000   0.5535432   2.2326603  )
        21           O0  tau(  21) = (   0.5000000   0.0000000   2.3559662  )
        22           Ti1 tau(  22) = (   0.7500000   0.0000000   2.5995804  )
        23           Ti1 tau(  23) = (   0.5000000   0.5535432   2.5483968  )
        24           O0  tau(  24) = (   0.7500000   0.7638896   2.5964932  )
        25           O0  tau(  25) = (   0.7500000   0.3431968   2.5965380  )
        26           O0  tau(  26) = (   0.5000000   0.0000000   2.7842708  )
        27           H2  tau(  27) = (  -0.0005400   0.6991915   1.7063283  )
        28           H2  tau(  28) = (   0.4994600   0.6991915   1.7063283  )
        29           H2  tau(  29) = (   0.1501800   0.0252084   1.6321479  )
        30           H2  tau(  30) = (   0.6501800   0.0252084   1.6321479  )

     number of k points=    10  Methfessel-Paxton smearing, width (Ry)=  0.0100
                       cart. coord. in units 2pi/alat
        k(    1) = (   0.0000000   0.0000000   0.0000000), wk =   0.1250000
        k(    2) = (   0.0000000   0.2258180   0.0000000), wk =   0.2500000
        k(    3) = (   0.0000000  -0.4516359   0.0000000), wk =   0.1250000
        k(    4) = (   0.2500000   0.0000000   0.0000000), wk =   0.2500000
        k(    5) = (   0.2500000   0.2258180   0.0000000), wk =   0.2500000
        k(    6) = (   0.2500000  -0.4516359   0.0000000), wk =   0.2500000
        k(    7) = (  -0.5000000   0.0000000   0.0000000), wk =   0.1250000
        k(    8) = (  -0.5000000   0.2258180   0.0000000), wk =   0.2500000
        k(    9) = (  -0.5000000  -0.4516359   0.0000000), wk =   0.1250000
        k(   10) = (  -0.2500000   0.2258180   0.0000000), wk =   0.2500000

     Largest allocated arrays     est. size (Mb)     dimensions
     Largest temporary arrays     est. size (Mb)     dimensions

     Check: negative/imaginary core charge=   -0.000005    0.000000

     Initial potential from superposition of free atoms
     Check: negative starting charge=   -0.102816

     starting charge  199.99958, renormalised to  208.00000

     negative rho (up, down):  0.107E+00 0.000E+00
     Number of +U iterations with fixed ns =  0
     Starting occupations:
 --- enter write_ns ---
 LDA+U parameters:
U( 2)     =  3.00000000
alpha( 2) =  0.00000000
atom    3   Tr[ns(na)] =   2.00000
    eigenvalues:
  0.200  0.200  0.200  0.200  0.200
    eigenvectors:
  1.000  0.000  0.000  0.000  0.000
  0.000  1.000  0.000  0.000  0.000
  0.000  0.000  1.000  0.000  0.000
  0.000  0.000  0.000  1.000  0.000
  0.000  0.000  0.000  0.000  1.000
    occupations:
  0.200  0.000  0.000  0.000  0.000
  0.000  0.200  0.000  0.000  0.000
  0.000  0.000  0.200  0.000  0.000
  0.000  0.000  0.000  0.200  0.000
  0.000  0.000  0.000  0.000  0.200
atom    4   Tr[ns(na)] =   2.00000
    eigenvalues:
  0.200  0.200  0.200  0.200  0.200
    eigenvectors:
  1.000  0.000  0.000  0.000  0.000
  0.000  1.000  0.000  0.000  0.000
  0.000  0.000  1.000  0.000  0.000
  0.000  0.000  0.000  1.000  0.000
  0.000  0.000  0.000  0.000  1.000
    occupations:
  0.200  0.000  0.000  0.000  0.000
  0.000  0.200  0.000  0.000  0.000
  0.000  0.000  0.200  0.000  0.000
  0.000  0.000  0.000  0.200  0.000
  0.000  0.000  0.000  0.000  0.200
atom    9   Tr[ns(na)] =   2.00000
    eigenvalues:
  0.200  0.200  0.200  0.200  0.200
    eigenvectors:
  1.000  0.000  0.000  0.000  0.000
  0.000  1.000  0.000  0.000  0.000
  0.000  0.000  1.000  0.000  0.000
  0.000  0.000  0.000  1.000  0.000
  0.000  0.000  0.000  0.000  1.000
    occupations:
  0.200  0.000  0.000  0.000  0.000
  0.000  0.200  0.000  0.000  0.000
  0.000  0.000  0.200  0.000  0.000
  0.000  0.000  0.000  0.200  0.000
  0.000  0.000  0.000  0.000  0.200
atom   10   Tr[ns(na)] =   2.00000
    eigenvalues:
  0.200  0.200  0.200  0.200  0.200
    eigenvectors:
  1.000  0.000  0.000  0.000  0.000
  0.000  1.000  0.000  0.000  0.000
  0.000  0.000  1.000  0.000  0.000
  0.000  0.000  0.000  1.000  0.000
  0.000  0.000  0.000  0.000  1.000
    occupations:
  0.200  0.000  0.000  0.000  0.000
  0.000  0.200  0.000  0.000  0.000
  0.000  0.000  0.200  0.000  0.000
  0.000  0.000  0.000  0.200  0.000
  0.000  0.000  0.000  0.000  0.200
atom   16   Tr[ns(na)] =   2.00000
    eigenvalues:
  0.200  0.200  0.200  0.200  0.200
    eigenvectors:
  1.000  0.000  0.000  0.000  0.000
  0.000  1.000  0.000  0.000  0.000
  0.000  0.000  1.000  0.000  0.000
  0.000  0.000  0.000  1.000  0.000
  0.000  0.000  0.000  0.000  1.000
    occupations:
  0.200  0.000  0.000  0.000  0.000
  0.000  0.200  0.000  0.000  0.000
  0.000  0.000  0.200  0.000  0.000
  0.000  0.000  0.000  0.200  0.000
  0.000  0.000  0.000  0.000  0.200
atom   17   Tr[ns(na)] =   2.00000
    eigenvalues:
  0.200  0.200  0.200  0.200  0.200
    eigenvectors:
  1.000  0.000  0.000  0.000  0.000
  0.000  1.000  0.000  0.000  0.000
  0.000  0.000  1.000  0.000  0.000
  0.000  0.000  0.000  1.000  0.000
  0.000  0.000  0.000  0.000  1.000
    occupations:
  0.200  0.000  0.000  0.000  0.000
  0.000  0.200  0.000  0.000  0.000
  0.000  0.000  0.200  0.000  0.000
  0.000  0.000  0.000  0.200  0.000
  0.000  0.000  0.000  0.000  0.200
atom   22   Tr[ns(na)] =   2.00000
    eigenvalues:
  0.200  0.200  0.200  0.200  0.200
    eigenvectors:
  1.000  0.000  0.000  0.000  0.000
  0.000  1.000  0.000  0.000  0.000
  0.000  0.000  1.000  0.000  0.000
  0.000  0.000  0.000  1.000  0.000
  0.000  0.000  0.000  0.000  1.000
    occupations:
[...]
atom    4   Tr[ns(na)] =   2.85147
    eigenvalues:
  0.158  0.193  0.221  0.415  0.438
    eigenvectors:
  0.006  0.004  0.000  0.000  0.990
  0.002  0.950  0.044  0.000  0.004
  0.001  0.044  0.956  0.000  0.000
  0.992  0.002  0.000  0.000  0.006
  0.000  0.000  0.000  1.000  0.000
    occupations:
  0.436  0.015  0.004 -0.021 -0.000
  0.015  0.195 -0.006  0.000 -0.002
  0.004 -0.006  0.220  0.001 -0.000
 -0.021  0.000  0.001  0.160 -0.000
 -0.000 -0.002 -0.000 -0.000  0.415
atom    9   Tr[ns(na)] =   2.84480
    eigenvalues:
  0.168  0.211  0.227  0.373  0.443
    eigenvectors:
  0.000  0.000  0.918  0.082  0.000
  0.000  0.000  0.000  0.000  1.000
  1.000  0.000  0.000  0.000  0.000
  0.000  0.000  0.082  0.918  0.000
  0.000  1.000  0.000  0.000  0.000
    occupations:
  0.239 -0.000 -0.000  0.040  0.000
 -0.000  0.443  0.000 -0.000 -0.000
 -0.000  0.000  0.168  0.000  0.000
  0.040 -0.000  0.000  0.361 -0.000
  0.000 -0.000  0.000 -0.000  0.211
atom   10   Tr[ns(na)] =   2.76195
    eigenvalues:
  0.169  0.215  0.224  0.329  0.444
    eigenvectors:
  0.025  0.000  0.000  0.975  0.000
  0.000  0.000  1.000  0.000  0.000
  0.000  1.000  0.000  0.000  0.000
  0.975  0.000  0.000  0.025  0.000
  0.000  0.000  0.000  0.000  1.000
    occupations:
  0.325 -0.000 -0.000 -0.025 -0.000
 -0.000  0.224 -0.000 -0.000  0.000
 -0.000 -0.000  0.215 -0.000  0.000
 -0.025 -0.000 -0.000  0.173 -0.000
 -0.000  0.000  0.000 -0.000  0.444
atom   16   Tr[ns(na)] =   2.72339
    eigenvalues:
  0.155  0.179  0.211  0.408  0.409
    eigenvectors:
  0.787  0.000  0.015  0.198  0.000
  0.000  0.003  0.000  0.000  0.997
  0.016  0.000  0.983  0.000  0.000
  0.197  0.000  0.001  0.802  0.000
  0.000  0.997  0.000  0.000  0.003
    occupations:
  0.206 -0.000 -0.005  0.101 -0.000
 -0.000  0.408  0.000  0.000  0.012
 -0.005  0.000  0.210  0.007 -0.000
  0.101  0.000  0.007  0.358 -0.000
 -0.000  0.012 -0.000 -0.000  0.180
atom   17   Tr[ns(na)] =   2.85147
    eigenvalues:
  0.158  0.193  0.221  0.415  0.438
    eigenvectors:
  0.006  0.004  0.000  0.000  0.990
  0.002  0.950  0.044  0.000  0.004
  0.001  0.044  0.956  0.000  0.000
  0.992  0.002  0.000  0.000  0.006
  0.000  0.000  0.000  1.000  0.000
    occupations:
  0.436  0.015  0.004 -0.021 -0.000
  0.015  0.195 -0.006  0.000 -0.002
  0.004 -0.006  0.220  0.001 -0.000
 -0.021  0.000  0.001  0.160 -0.000
 -0.000 -0.002 -0.000 -0.000  0.415
atom   22   Tr[ns(na)] =   2.84480
    eigenvalues:
  0.168  0.211  0.227  0.373  0.443
    eigenvectors:
  0.000  0.000  0.918  0.082  0.000
  0.000  0.000  0.000  0.000  1.000
  1.000  0.000  0.000  0.000  0.000
  0.000  0.000  0.082  0.918  0.000
  0.000  1.000  0.000  0.000  0.000
    occupations:
  0.239 -0.000 -0.000  0.040  0.000
 -0.000  0.443  0.000 -0.000 -0.000
 -0.000  0.000  0.168  0.000  0.000
  0.040 -0.000  0.000  0.361 -0.000
  0.000 -0.000  0.000 -0.000  0.211
atom   23   Tr[ns(na)] =   2.76195
    eigenvalues:
  0.169  0.215  0.224  0.329  0.444
    eigenvectors:
  0.025  0.000  0.000  0.975  0.000
  0.000  0.000  1.000  0.000  0.000
  0.000  1.000  0.000  0.000  0.000
  0.975  0.000  0.000  0.025  0.000
  0.000  0.000  0.000  0.000  1.000
    occupations:
  0.325 -0.000 -0.000 -0.025 -0.000
 -0.000  0.224 -0.000 -0.000  0.000
 -0.000 -0.000  0.215 -0.000  0.000
 -0.025 -0.000 -0.000  0.173 -0.000
 -0.000  0.000  0.000 -0.000  0.444
N of occupied +U levels =  22.3632206
 --- exit write_ns ---

     Threshold (ethr) on eigenvalues was too large:
     Diagonalizing with lowered threshold

     Davidson diagonalization with overlap
     ethr =  3.92E-09,  avg # of iterations =  2.0

[...]

     total energy              =   -1533.26953952 Ry
     Harris-Foulkes estimate   =   -1533.26953953 Ry
     estimated scf accuracy    <       0.00000004 Ry

     iteration #  7     ecut=    40.00 Ry     beta=0.70
     Davidson diagonalization with overlap
     ethr =  1.99E-11,  avg # of iterations =  1.0

     negative rho (up, down):  0.104E+00 0.000E+00

     End of self-consistent calculation
 --- enter write_ns ---
 LDA+U parameters:
U( 2)     =  3.00000000
alpha( 2) =  0.00000000
atom    3   Tr[ns(na)] =   2.72308
    eigenvalues:
  0.155  0.179  0.211  0.408  0.409
    eigenvectors:
  0.787  0.000  0.015  0.198  0.000
  0.000  0.003  0.000  0.000  0.997
  0.016  0.000  0.983  0.000  0.000
  0.197  0.000  0.001  0.802  0.000
  0.000  0.997  0.000  0.000  0.003
    occupations:
  0.206 -0.000 -0.005  0.101 -0.000
 -0.000  0.408  0.000  0.000  0.012
 -0.005  0.000  0.210  0.007 -0.000
  0.101  0.000  0.007  0.358 -0.000
 -0.000  0.012 -0.000 -0.000  0.179
atom    4   Tr[ns(na)] =   2.85164
    eigenvalues:
  0.158  0.193  0.221  0.415  0.438
    eigenvectors:
  0.006  0.004  0.000  0.000  0.990
  0.002  0.950  0.044  0.000  0.004
  0.001  0.044  0.956  0.000  0.000
  0.992  0.002  0.000  0.000  0.006
  0.000  0.000  0.000  1.000  0.000
    occupations:
  0.436  0.015  0.004 -0.021 -0.000
  0.015  0.195 -0.006  0.000 -0.002
  0.004 -0.006  0.220  0.001 -0.000
 -0.021  0.000  0.001  0.160 -0.000
 -0.000 -0.002 -0.000 -0.000  0.415
atom    9   Tr[ns(na)] =   2.84460
    eigenvalues:
  0.168  0.211  0.227  0.373  0.443
    eigenvectors:
  0.000  0.000  0.918  0.082  0.000
  0.000  0.000  0.000  0.000  1.000
  1.000  0.000  0.000  0.000  0.000
  0.000  0.000  0.082  0.918  0.000
  0.000  1.000  0.000  0.000  0.000
    occupations:
  0.239 -0.000 -0.000  0.040  0.000
 -0.000  0.443  0.000 -0.000 -0.000
 -0.000  0.000  0.168  0.000  0.000
  0.040 -0.000  0.000  0.361 -0.000
  0.000 -0.000  0.000 -0.000  0.211
atom   10   Tr[ns(na)] =   2.76268
    eigenvalues:
  0.169  0.216  0.224  0.329  0.444
    eigenvectors:
  0.026  0.000  0.000  0.974  0.000
  0.000  0.000  1.000  0.000  0.000
  0.000  1.000  0.000  0.000  0.000
  0.974  0.000  0.000  0.026  0.000
  0.000  0.000  0.000  0.000  1.000
    occupations:
  0.325 -0.000 -0.000 -0.025 -0.000
 -0.000  0.224 -0.000 -0.000  0.000
 -0.000 -0.000  0.216 -0.000  0.000
 -0.025 -0.000 -0.000  0.173 -0.000
 -0.000  0.000  0.000 -0.000  0.444
atom   16   Tr[ns(na)] =   2.72308
    eigenvalues:
  0.155  0.179  0.211  0.408  0.409
    eigenvectors:
  0.787  0.000  0.015  0.198  0.000
  0.000  0.003  0.000  0.000  0.997
  0.016  0.000  0.983  0.000  0.000
  0.197  0.000  0.001  0.802  0.000
  0.000  0.997  0.000  0.000  0.003
    occupations:
  0.206 -0.000 -0.005  0.101 -0.000
 -0.000  0.408  0.000  0.000  0.012
 -0.005  0.000  0.210  0.007 -0.000
  0.101  0.000  0.007  0.358 -0.000
 -0.000  0.012 -0.000 -0.000  0.179
atom   17   Tr[ns(na)] =   2.85164
    eigenvalues:
  0.158  0.193  0.221  0.415  0.438
    eigenvectors:
  0.006  0.004  0.000  0.000  0.990
  0.002  0.950  0.044  0.000  0.004
  0.001  0.044  0.956  0.000  0.000
  0.992  0.002  0.000  0.000  0.006
  0.000  0.000  0.000  1.000  0.000
    occupations:
  0.436  0.015  0.004 -0.021 -0.000
  0.015  0.195 -0.006  0.000 -0.002
  0.004 -0.006  0.220  0.001 -0.000
 -0.021  0.000  0.001  0.160 -0.000
 -0.000 -0.002 -0.000 -0.000  0.415
atom   22   Tr[ns(na)] =   2.84460
    eigenvalues:
  0.168  0.211  0.227  0.373  0.443
    eigenvectors:
  0.000  0.000  0.918  0.082  0.000
  0.000  0.000  0.000  0.000  1.000
  1.000  0.000  0.000  0.000  0.000
  0.000  0.000  0.082  0.918  0.000
  0.000  1.000  0.000  0.000  0.000
    occupations:
  0.239 -0.000 -0.000  0.040  0.000
 -0.000  0.443  0.000 -0.000 -0.000
 -0.000  0.000  0.168  0.000  0.000
  0.040 -0.000  0.000  0.361 -0.000
  0.000 -0.000  0.000 -0.000  0.211
atom   23   Tr[ns(na)] =   2.76268
    eigenvalues:
  0.169  0.216  0.224  0.329  0.444
    eigenvectors:
  0.026  0.000  0.000  0.974  0.000
  0.000  0.000  1.000  0.000  0.000
  0.000  1.000  0.000  0.000  0.000
  0.974  0.000  0.000  0.026  0.000
  0.000  0.000  0.000  0.000  1.000
    occupations:
  0.325 -0.000 -0.000 -0.025 -0.000
 -0.000  0.224 -0.000 -0.000  0.000
 -0.000 -0.000  0.216 -0.000  0.000
 -0.025 -0.000 -0.000  0.173 -0.000
 -0.000  0.000  0.000 -0.000  0.444
N of occupied +U levels =  22.3640144
 --- exit write_ns ---

[...]

          k = 0.2500-0.4516 0.0000 ( 29882 PWs)   bands (ev):

[...]

          k =-0.2500 0.2258 0.0000 ( 29912 PWs)   bands (ev):

   -61.4011 -61.3755 -60.9785 -60.9523 -59.7715 -59.7433 -59.3273 -59.2997
   -37.8781 -37.6293 -37.6017 -37.5595 -37.4485 -37.4267 -37.3236 -37.3019
   -37.2800 -37.1416 -37.0773 -37.0338 -36.3258 -36.0930 -36.0193 -36.0124
   -35.8308 -35.8083 -35.6864 -35.6681 -35.6456 -35.5365 -35.4670 -35.3696
   -22.2333 -22.0200 -20.9671 -20.7932 -20.3513 -20.2534 -19.9355 -19.7502
   -19.7187 -19.6203 -19.5222 -19.5158 -19.3535 -19.2571 -18.6963 -18.3311
   -18.0766 -18.0144  -9.8973  -9.6231  -8.1554  -7.9726  -7.8616  -7.8353
    -7.8120  -7.7845  -7.4109  -7.3923  -7.1851  -7.1203  -7.0348  -7.0281
    -6.9880  -6.8081  -6.7840  -6.6247  -6.5177  -6.3947  -6.1542  -6.1127
    -6.0398  -5.8056  -5.7664  -5.6588  -5.6302  -5.4548  -5.3902  -5.3706
    -5.2627  -5.1612  -5.1399  -5.0883  -4.9966  -4.9685  -4.8597  -4.7603
    -4.6679  -4.5477  -4.4577  -4.4488  -3.9451  -3.7718  -3.6062  -3.4778
    -3.3990  -3.3415  -3.2082  -3.1683  -3.1592  -2.9034  -2.8345  -2.6883
    -1.2347  -0.9601  -0.8436  -0.7571  -0.7199  -0.5274  -0.5015  -0.3925
    -0.1081  -0.0430   0.1019   0.1514   0.2137   0.3930   0.7097   0.7744
     0.8758   0.9194   1.0158   1.2158   1.2988   1.3581   1.5262   1.5534
     1.5606   1.5943   1.6029   1.7205   1.7585   1.9810   1.9948   2.4822
     3.0010   3.0370   3.1949   3.3204   3.4797   3.5411   3.6756   3.8540
     4.1355   4.1641   4.2946   4.5806   4.9609   4.9630   5.2414   5.6911
     5.8120   5.8772   5.9892   6.0944   6.1514   6.4598   6.4801   6.8138
     6.8396   7.1376   7.2479   7.3837   7.5144   7.6852   7.7362   7.8490
     7.8664   8.0074   8.0314   8.2153   8.4633   8.5037   8.6063   8.7223
     8.8177   8.9620   9.2586   9.3089   9.3182   9.3708   9.4415   9.5014
     9.5380   9.6470   9.8644   9.9821  10.0193  10.1620  10.2045  10.3997
    10.4207  10.6065  10.6100  10.7053  10.8355  10.9065  10.9611  10.9813
    11.1253  11.2521  11.2860  11.3646  11.4007  11.4592  11.5381  11.6436
    11.7109  11.7633  11.8657  11.9531  11.9634  12.0187  12.1069  12.2742
    12.2953  12.3552  12.5192  12.6087  12.6621  12.6688  12.7447  12.8662
    12.8944  12.9778  13.0583  13.2221  13.2604  13.3699  13.4058  13.4797
    13.5745  13.6581  13.7226  13.7386  13.7978  13.8567  13.9508  14.0495
    14.0856  14.1937  14.2361  14.3046  14.4607  14.5089  14.5705  14.5931
    14.6984  14.7042  14.8139  14.9437  15.0075  15.0250  15.1220  15.2606
    15.3398  15.3504  15.4778  15.5202  15.6419  15.7250  15.7538  15.7779
    15.8035  15.8956  15.9292  16.0661  16.1355  16.1619  16.2410  16.3317
    16.3916  16.5680  16.6535  16.6818  16.8001  16.8055  16.8306  16.8693
    16.9364  16.9772  17.0671  17.0774  17.2337  17.2640  17.2905  17.3963
    17.4573  17.4773  17.5054  17.5825  17.7196  17.7946  17.8420  17.9917
    18.0321  18.1943  18.1958  18.2737

     the Fermi energy is    -2.5889 ev

!    total energy              =   -1533.26953953 Ry
     Harris-Foulkes estimate   =   -1533.26953953 Ry
     estimated scf accuracy    <          6.1E-09 Ry

     The total energy is the sum of the following terms:

     one-electron contribution =  -18313.49130104 Ry
     hartree contribution      =    9169.78235027 Ry
     xc contribution           =    -269.75923135 Ry
     ewald contribution        =    7878.52555987 Ry
     Hubbard energy            =       1.67187823 Ry
     smearing contrib. (-TS)   =       0.00120449 Ry

     convergence has been achieved in   7 iterations

     Forces acting on atoms (Ry/au):

     negative rho (up, down):  0.104E+00 0.000E+00
     atom    1 type  1   force =    -0.00132441   -0.01653452    0.00030851
     atom    2 type  1   force =     0.00003412    0.02353926   -0.00035305
     atom    3 type  2   force =     0.00017229   -0.01410471    0.00021071
     atom    4 type  2   force =    -0.00268378    0.00913699    0.00013113
     atom    5 type  1   force =     0.00336461   -0.10916696    0.00008306
     atom    6 type  1   force =    -0.00123974    0.10805710    0.00013127
     atom    7 type  1   force =    -0.00004305    0.00091371    0.00034945
     atom    8 type  1   force =     0.00206336   -0.00159498    0.00039239
     atom    9 type  2   force =    -0.00051785    0.00012306   -0.00003023
     atom   10 type  2   force =    -0.00003874   -0.00032604    0.00051831
     atom   11 type  1   force =     0.00006864   -0.04392733   -0.00028174
     atom   12 type  1   force =    -0.00000865    0.04399312   -0.00028625
     atom   13 type  1   force =     0.00036734   -0.00004923   -0.00027780
     atom   14 type  1   force =    -0.00132441   -0.01653452    0.00030851
     atom   15 type  1   force =     0.00003412    0.02353926   -0.00035305
     atom   16 type  2   force =     0.00017230   -0.01410471    0.00021071
     atom   17 type  2   force =    -0.00268378    0.00913699    0.00013113
     atom   18 type  1   force =     0.00336461   -0.10916696    0.00008305
     atom   19 type  1   force =    -0.00123975    0.10805710    0.00013126
     atom   20 type  1   force =    -0.00004305    0.00091371    0.00034946
     atom   21 type  1   force =     0.00206336   -0.00159498    0.00039239
     atom   22 type  2   force =    -0.00051787    0.00012306   -0.00003022
     atom   23 type  2   force =    -0.00003874   -0.00032604    0.00051832
     atom   24 type  1   force =     0.00006864   -0.04392732   -0.00028173
     atom   25 type  1   force =    -0.00000865    0.04399312   -0.00028625
     atom   26 type  1   force =     0.00036735   -0.00004923   -0.00027783
     atom   27 type  3   force =     0.00001849   -0.00018461   -0.00079065
     atom   28 type  3   force =     0.00001849   -0.00018461   -0.00079065
     atom   29 type  3   force =    -0.00023261    0.00012512   -0.00010510
     atom   30 type  3   force =    -0.00023261    0.00012512   -0.00010510

     Total force =     0.001913     Total SCF correction =     0.000199
     SCF correction compared to forces is large: reduce conv_thr to get better values

     bfgs converged in  10 scf cycles and   9 bfgs steps
     (criteria: energy < 0.10E-03, force < 0.10E-02)

     End of BFGS Geometry Optimization

     Final energy   =   -1533.2695395254 Ry
Begin final coordinates

ATOMIC_POSITIONS (crystal)
O0       0.000000000   0.000000000   0.378825451    0   0   1
O0       0.000000000   0.500000000   0.399155592    0   0   1
Ti1      0.250000000   0.500000000   0.450185780    0   0   1
Ti1      0.000000000   0.000000000   0.452198249    0   0   1
O0       0.250000000   0.810000000   0.450686640    0   0   1
O0       0.250000000   0.190000000   0.451721481    0   0   1
O0       0.000000000   0.500000000   0.498790377    0   0   1
O0       0.000000000   0.000000000   0.527165585    0   0   1
Ti1      0.250000000   0.000000000   0.581594782    0   0   1
Ti1      0.000000000   0.500000000   0.570346334    0   0   1
O0       0.250000000   0.690000000   0.581056541    0   0   1
O0       0.250000000   0.310000000   0.581077091    0   0   1
O0       0.000000000   0.000000000   0.623611888    0   0   1
O0       0.500000000   0.000000000   0.378825451    0   0   1
O0       0.500000000   0.500000000   0.399155592    0   0   1
Ti1      0.750000000   0.500000000   0.450185780    0   0   1
Ti1      0.500000000   0.000000000   0.452198249    0   0   1
O0       0.750000000   0.810000000   0.450686640    0   0   1
O0       0.750000000   0.190000000   0.451721481    0   0   1
O0       0.500000000   0.500000000   0.498790377    0   0   1
O0       0.500000000   0.000000000   0.527165585    0   0   1
Ti1      0.750000000   0.000000000   0.581594782    0   0   1
Ti1      0.500000000   0.500000000   0.570346332    0   0   1
O0       0.750000000   0.690000000   0.581056540    0   0   1
O0       0.750000000   0.310000000   0.581077092    0   0   1
O0       0.500000000   0.000000000   0.623611890    0   0   1
H2      -0.000385719   0.632081947   0.380634838
H2       0.499614280   0.632081948   0.380634838
H2       0.151293506   0.023497233   0.364519370
H2       0.651293507   0.023497233   0.364519370
End final coordinates

     General routines

     Parallel routines
     Hubbard U routines

   This run was terminated on:  18:39: 7   6May2014

   JOB DONE.
Running PBS batch system epilogue script
Job id: 340814.audhumbla.fysik.dtu.dk
Username: zhonxu
Groupname: campgst
Jobname: TiO2/Eads-2-layers/bare-U-3.0
Sessionid: 23765
Queuename: verylong
Accounting:
This job has allocated the following 16 nodes:
b013 b013 b013 b013 b013 b013 b013 b013 b011 b011 b011 b011 b011 b011 b011 b011
Finished epilogue job 340814.audhumbla.fysik.dtu.dk for zhonxu