     Program PWSCF v.5.0.2 (svn rev. 9656) starts on 28May2014 at  1:51:57

     Current dimensions of program PWSCF are:
     Max number of different atomic species (ntypx) = 10
     Max number of k-points (npk) =  40000
     Max angular momentum in pseudopotentials (lmaxx) =  3
     Reading input from pwscf.in
Warning: card &CELL ignored
Warning: card / ignored

     Subspace diagonalization in iterative solution of the eigenvalue problem:
     a serial algorithm will be used

     bravais-lattice index     =            0
     lattice parameter (alat)  =      10.3179  a.u.
     unit-cell volume          =    6964.3238 (a.u.)^3
     number of atoms/cell      =           33
     number of atomic types    =            3
     number of electrons       =       237.00
     number of Kohn-Sham states=          355
     kinetic-energy cutoff     =      40.0000  Ry
     charge density cutoff     =     500.0000  Ry
     convergence threshold     =      1.0E-06
     mixing beta               =       0.7000
     number of iterations used =            8  plain     mixing
     Exchange-correlation      = SLA  PW   PBE  PBE ( 1 4 3 4 0)
     EXX-fraction              =        0.00
     nstep                     =           50

     celldm(1)=  10.317905  celldm(2)=   0.000000  celldm(3)=   0.000000
     celldm(4)=   0.000000  celldm(5)=   0.000000  celldm(6)=   0.000000

     crystal axes: (cart. coord. in units of alat)
               a(1) = (   1.000000   0.000000   0.000000 )
               a(2) = (   0.000000   1.282117   0.000000 )
               a(3) = (   0.000000   0.000000   4.945120 )

     reciprocal axes: (cart. coord. in units 2 pi/alat)
               b(1) = (  1.000000  0.000000  0.000000 )
               b(2) = (  0.000000  0.779960  0.000000 )
               b(3) = (  0.000000  0.000000  0.202220 )

     PseudoPot. # 1 for O  read from file:
     /home/camp/zhonxu/pseudo/o_pbe_v1.01.uspp.F.UPF
     MD5 check sum: 2bcb18d16ea4b960afae9ec6d52f22d2
     Pseudo is Ultrasoft + core correction, Zval =  6.0
     Generated by new atomic code, or converted to UPF format
     Using radial grid of  737 points,  5 beta functions with:
                l(1) =   0
                l(2) =   0
                l(3) =   1
                l(4) =   1
                l(5) =   2
     Q(r) pseudized with  8 coefficients,  rinner =    0.900   0.900   0.900
                                                       0.900   0.900

     PseudoPot. # 2 for Mo read from file:
     /home/camp/zhonxu/pseudo/mo_pbe_v1.uspp.F.UPF
     MD5 check sum: 30c4dcd161f5d35cd49bb5239c51a633
     Pseudo is Ultrasoft + core correction, Zval = 14.0
     Generated by new atomic code, or converted to UPF format
     Using radial grid of  889 points,  6 beta functions with:
                l(1) =   0
                l(2) =   0
                l(3) =   1
                l(4) =   1
                l(5) =   2
                l(6) =   2
     Q(r) pseudized with  6 coefficients,  rinner =    1.000   1.000   1.000
                                                       1.000   1.000

     PseudoPot. # 3 for H  read from file:
     /home/camp/zhonxu/pseudo/h_pbe_v1.uspp.F.UPF
     MD5 check sum: 3408e3ff4ec8b0a4e358431e7e038a48
     Pseudo is Ultrasoft, Zval =  1.0
     Generated by new atomic code, or converted to UPF format
     Using radial grid of  615 points,  2 beta functions with:
                l(1) =   0
                l(2) =   0
     Q(r) pseudized with  8 coefficients,  rinner =    0.700

     atomic species   valence    mass     pseudopotential
        O0             6.00    15.99940     O ( 1.00)
        Mo1           14.00    95.94000     Mo( 1.00)
        H2             1.00     1.00794     H ( 1.00)

     Simplified LDA+U calculation (l_max = 2) with parameters (eV):
     atomic species    L          U    alpha       J0     beta
        Mo1            2     3.0000   0.0000   0.0000   0.0000

     No symmetry found

   Cartesian axes

     site n.     atom                  positions (alat units)
         1           O0  tau(   1) = (   0.0000000   0.0000000   1.8345407  )
         2           O0  tau(   2) = (   0.0000000   0.6410583   1.8924976  )
         3           Mo1 tau(   3) = (   0.2500000   0.6410583   2.1781772  )
         4           Mo1 tau(   4) = (   0.0000000   0.0000000   2.1929631  )
         5           O0  tau(   5) = (   0.2500000   1.0000510   2.1897982  )
         6           O0  tau(   6) = (   0.2500000   0.2820657   2.1891553  )
         7           O0  tau(   7) = (   0.0000000   0.6410583   2.4607413  )
         8           O0  tau(   8) = (   0.0000000   0.0000000   2.5556382  )
         9           Mo1 tau(   9) = (   0.2500000   0.0000000   2.8453728  )
        10           Mo1 tau(  10) = (   0.0000000   0.6410583   2.7952787  )
        11           O0  tau(  11) = (   0.2500000   0.9231240   2.8196582  )
        12           O0  tau(  12) = (   0.2500000   0.3589927   2.8248011  )
        13           O0  tau(  13) = (   0.0000000   0.0000000   3.0952003  )
        14           O0  tau(  14) = (   0.5000000   0.0000000   1.8353814  )
        15           O0  tau(  15) = (   0.5000000   0.6410583   1.8936349  )
        16           Mo1 tau(  16) = (   0.7500000   0.6410583   2.1781277  )
        17           Mo1 tau(  17) = (   0.5000000   0.0000000   2.1954851  )
        18           O0  tau(  18) = (   0.7500000   1.0000510   2.1899960  )
        19           O0  tau(  19) = (   0.7500000   0.2820657   2.1890564  )
        20           O0  tau(  20) = (   0.5000000   0.6410583   2.4612853  )
        21           O0  tau(  21) = (   0.5000000   0.0000000   2.5539074  )
        22           Mo1 tau(  22) = (   0.7500000   0.0000000   2.8439387  )
        23           Mo1 tau(  23) = (   0.5000000   0.6410583   2.8209934  )
        24           O0  tau(  24) = (   0.7500000   0.9231240   2.8195098  )
        25           O0  tau(  25) = (   0.7500000   0.3589927   2.8246033  )
        26           O0  tau(  26) = (   0.5000000   0.0000000   3.0932717  )
        27           H2  tau(  27) = (  -0.0005800   0.7846554   1.7836060  )
        28           H2  tau(  28) = (   0.4995100   0.7915788   1.7940402  )
        29           H2  tau(  29) = (   0.1672700   0.0232576   1.7642706  )
        30           H2  tau(  30) = (   0.6659000   0.0248346   1.7633310  )
        31           O0  tau(  31) = (   0.5002100   0.6666879   3.1760530  )
        32           O0  tau(  32) = (   0.4999400   0.4570233   3.3393409  )
        33           H2  tau(  33) = (   0.5000100   0.5446560   3.4973869  )

     number of k points=    10  Methfessel-Paxton smearing, width (Ry)=  0.0100
                       cart. coord. in units 2pi/alat
        k(    1) = (   0.0000000   0.0000000   0.0000000), wk =   0.1250000
        k(    2) = (   0.0000000   0.1949901   0.0000000), wk =   0.2500000
        k(    3) = (   0.0000000  -0.3899801   0.0000000), wk =   0.1250000
        k(    4) = (   0.2500000   0.0000000   0.0000000), wk =   0.2500000
        k(    5) = (   0.2500000   0.1949901   0.0000000), wk =   0.2500000
        k(    6) = (   0.2500000  -0.3899801   0.0000000), wk =   0.2500000
        k(    7) = (  -0.5000000   0.0000000   0.0000000), wk =   0.1250000
        k(    8) = (  -0.5000000   0.1949901   0.0000000), wk =   0.2500000
        k(    9) = (  -0.5000000  -0.3899801   0.0000000), wk =   0.1250000
        k(   10) = (  -0.2500000   0.1949901   0.0000000), wk =   0.2500000

     Largest allocated arrays     est. size (Mb)     dimensions
     Largest temporary arrays     est. size (Mb)     dimensions

     Check: negative/imaginary core charge=   -0.000003    0.000000

     Initial potential from superposition of free atoms
     Check: negative starting charge=   -0.002157

     starting charge  236.99142, renormalised to  237.00000

     negative rho (up, down):  0.216E-02 0.000E+00
     Number of +U iterations with fixed ns =  0
     Starting occupations:
 --- enter write_ns ---
 LDA+U parameters:
U( 2)     =  3.00000000
alpha( 2) =  0.00000000
atom    3   Tr[ns(na)] =   5.00000
    eigenvalues:
  0.500  0.500  0.500  0.500  0.500
    eigenvectors:
  1.000  0.000  0.000  0.000  0.000
  0.000  1.000  0.000  0.000  0.000
  0.000  0.000  1.000  0.000  0.000
  0.000  0.000  0.000  1.000  0.000
  0.000  0.000  0.000  0.000  1.000
    occupations:
  0.500  0.000  0.000  0.000  0.000
  0.000  0.500  0.000  0.000  0.000
  0.000  0.000  0.500  0.000  0.000
  0.000  0.000  0.000  0.500  0.000
  0.000  0.000  0.000  0.000  0.500
atom    4   Tr[ns(na)] =   5.00000
    eigenvalues:
  0.500  0.500  0.500  0.500  0.500
    eigenvectors:
  1.000  0.000  0.000  0.000  0.000
  0.000  1.000  0.000  0.000  0.000
  0.000  0.000  1.000  0.000  0.000
  0.000  0.000  0.000  1.000  0.000
  0.000  0.000  0.000  0.000  1.000
    occupations:
  0.500  0.000  0.000  0.000  0.000
  0.000  0.500  0.000  0.000  0.000
  0.000  0.000  0.500  0.000  0.000
  0.000  0.000  0.000  0.500  0.000
  0.000  0.000  0.000  0.000  0.500
atom    9   Tr[ns(na)] =   5.00000
    eigenvalues:
  0.500  0.500  0.500  0.500  0.500
    eigenvectors:
  1.000  0.000  0.000  0.000  0.000
  0.000  1.000  0.000  0.000  0.000
  0.000  0.000  1.000  0.000  0.000
  0.000  0.000  0.000  1.000  0.000
  0.000  0.000  0.000  0.000  1.000
    occupations:
  0.500  0.000  0.000  0.000  0.000
  0.000  0.500  0.000  0.000  0.000
  0.000  0.000  0.500  0.000  0.000
  0.000  0.000  0.000  0.500  0.000
  0.000  0.000  0.000  0.000  0.500
atom   10   Tr[ns(na)] =   5.00000
    eigenvalues:
  0.500  0.500  0.500  0.500  0.500
    eigenvectors:
  1.000  0.000  0.000  0.000  0.000
  0.000  1.000  0.000  0.000  0.000
  0.000  0.000  1.000  0.000  0.000
  0.000  0.000  0.000  1.000  0.000
  0.000  0.000  0.000  0.000  1.000
    occupations:
  0.500  0.000  0.000  0.000  0.000
  0.000  0.500  0.000  0.000  0.000
  0.000  0.000  0.500  0.000  0.000
  0.000  0.000  0.000  0.500  0.000
  0.000  0.000  0.000  0.000  0.500
atom   16   Tr[ns(na)] =   5.00000
    eigenvalues:
  0.500  0.500  0.500  0.500  0.500
    eigenvectors:
  1.000  0.000  0.000  0.000  0.000
  0.000  1.000  0.000  0.000  0.000
  0.000  0.000  1.000  0.000  0.000
  0.000  0.000  0.000  1.000  0.000
  0.000  0.000  0.000  0.000  1.000
    occupations:
  0.500  0.000  0.000  0.000  0.000
  0.000  0.500  0.000  0.000  0.000
  0.000  0.000  0.500  0.000  0.000
  0.000  0.000  0.000  0.500  0.000
  0.000  0.000  0.000  0.000  0.500
atom   17   Tr[ns(na)] =   5.00000
    eigenvalues:
  0.500  0.500  0.500  0.500  0.500
    eigenvectors:
  1.000  0.000  0.000  0.000  0.000
  0.000  1.000  0.000  0.000  0.000
  0.000  0.000  1.000  0.000  0.000
  0.000  0.000  0.000  1.000  0.000
  0.000  0.000  0.000  0.000  1.000
    occupations:
  0.500  0.000  0.000  0.000  0.000
  0.000  0.500  0.000  0.000  0.000
  0.000  0.000  0.500  0.000  0.000
  0.000  0.000  0.000  0.500  0.000
  0.000  0.000  0.000  0.000  0.500
atom   22   Tr[ns(na)] =   5.00000
    eigenvalues:
  0.500  0.500  0.500  0.500  0.500
    eigenvectors:
  1.000  0.000  0.000  0.000  0.000
  0.000  1.000  0.000  0.000  0.000
  0.000  0.000  1.000  0.000  0.000
[...]
  0.683 -0.001  0.001 -0.050 -0.001
 -0.001  0.597 -0.001 -0.001 -0.000
  0.001 -0.001  0.529 -0.000  0.021
 -0.050 -0.001 -0.000  0.617  0.000
 -0.001 -0.000  0.021  0.000  0.492
atom   10   Tr[ns(na)] =   5.78209
    eigenvalues:
  0.480  0.490  0.515  0.670  0.735
    eigenvectors:
  0.091  0.909  0.000  0.000  0.000
  0.000  0.000  0.000  1.000  0.000
  0.909  0.091  0.000  0.000  0.000
  0.000  0.000  0.000  0.000  1.000
  0.000  0.000  1.000  0.000  0.000
    occupations:
  0.489  0.000 -0.003 -0.003  0.000
  0.000  0.670 -0.001  0.000 -0.001
 -0.003 -0.001  0.481 -0.001 -0.000
 -0.003  0.000 -0.001  0.735 -0.000
  0.000 -0.001 -0.000 -0.000  0.515
atom   16   Tr[ns(na)] =   5.83395
    eigenvalues:
  0.480  0.509  0.566  0.609  0.753
    eigenvectors:
  0.013  0.001  0.328  0.000  0.659
  0.001  0.997  0.001  0.002  0.000
  0.973  0.000  0.003  0.014  0.010
  0.000  0.000  0.669  0.001  0.330
  0.014  0.002  0.000  0.984  0.000
    occupations:
  0.688  0.002  0.025 -0.087  0.000
  0.002  0.510  0.001  0.000 -0.004
  0.025  0.001  0.485 -0.012 -0.015
 -0.087  0.000 -0.012  0.628 -0.000
  0.000 -0.004 -0.015 -0.000  0.607
atom   17   Tr[ns(na)] =   5.83621
    eigenvalues:
  0.445  0.521  0.585  0.623  0.745
    eigenvectors:
  0.000  0.000  0.988  0.011  0.001
  0.000  0.000  0.011  0.988  0.000
  0.999  0.000  0.000  0.000  0.000
  0.000  0.000  0.001  0.000  0.999
  0.000  1.000  0.000  0.000  0.000
    occupations:
  0.585  0.004  0.001 -0.005  0.000
  0.004  0.622  0.004 -0.001 -0.001
  0.001  0.004  0.445 -0.002  0.000
 -0.005 -0.001 -0.002  0.744  0.000
  0.000 -0.001  0.000  0.000  0.521
atom   22   Tr[ns(na)] =   5.83497
    eigenvalues:
  0.480  0.537  0.589  0.596  0.716
    eigenvectors:
  0.000  0.000  0.193  0.034  0.772
  0.000  0.000  0.157  0.843  0.000
  0.178  0.822  0.000  0.000  0.000
  0.000  0.000  0.650  0.123  0.227
  0.822  0.178  0.000  0.000  0.000
    occupations:
  0.687  0.002 -0.000 -0.053 -0.002
  0.002  0.595  0.000  0.002 -0.000
 -0.000  0.000  0.527 -0.000 -0.022
 -0.053  0.002 -0.000  0.619  0.001
 -0.002 -0.000 -0.022  0.001  0.490
atom   23   Tr[ns(na)] =   5.85384
    eigenvalues:
  0.509  0.523  0.543  0.583  0.768
    eigenvectors:
  0.003  0.000  0.000  0.986  0.011
  0.000  0.036  0.964  0.000  0.000
  0.997  0.000  0.000  0.003  0.000
  0.001  0.000  0.000  0.011  0.989
  0.000  0.963  0.036  0.000  0.000
    occupations:
  0.585 -0.000  0.003 -0.019  0.000
 -0.000  0.543  0.000 -0.000 -0.004
  0.003  0.000  0.509  0.005  0.000
 -0.019 -0.000  0.005  0.766 -0.000
  0.000 -0.004  0.000 -0.000  0.524
N of occupied +U levels =  46.6336114
 --- exit write_ns ---

     Threshold (ethr) on eigenvalues was too large:
     Diagonalizing with lowered threshold

     Davidson diagonalization with overlap
     ethr =  4.65E-09,  avg # of iterations =  3.0

[...]

     total energy              =   -1763.62669526 Ry
     Harris-Foulkes estimate   =   -1763.62669526 Ry
     estimated scf accuracy    <       0.00000004 Ry

     iteration # 13     ecut=    40.00 Ry     beta=0.70
     Davidson diagonalization with overlap
     ethr =  8.08E-12,  avg # of iterations =  1.0

     negative rho (up, down):  0.333E-02 0.000E+00

     End of self-consistent calculation
 --- enter write_ns ---
 LDA+U parameters:
U( 2)     =  3.00000000
alpha( 2) =  0.00000000
atom    3   Tr[ns(na)] =   5.83423
    eigenvalues:
  0.481  0.509  0.566  0.608  0.753
    eigenvectors:
  0.013  0.001  0.327  0.000  0.659
  0.001  0.997  0.001  0.002  0.000
  0.973  0.000  0.003  0.013  0.010
  0.000  0.000  0.668  0.001  0.331
  0.013  0.002  0.001  0.985  0.000
    occupations:
  0.688 -0.002  0.025 -0.087  0.000
 -0.002  0.509 -0.001 -0.000 -0.004
  0.025 -0.001  0.486 -0.012  0.015
 -0.087 -0.000 -0.012  0.628  0.000
  0.000 -0.004  0.015  0.000  0.606
atom    4   Tr[ns(na)] =   5.82363
    eigenvalues:
  0.425  0.521  0.581  0.642  0.742
    eigenvectors:
  0.000  0.000  0.996  0.004  0.000
  0.001  0.000  0.004  0.995  0.000
  0.999  0.000  0.000  0.001  0.000
  0.000  0.000  0.000  0.000  1.000
  0.000  1.000  0.000  0.000  0.000
    occupations:
  0.581  0.004  0.001 -0.002  0.000
  0.004  0.642  0.005 -0.001  0.000
  0.001  0.005  0.425  0.000  0.000
 -0.002 -0.001  0.000  0.742  0.000
  0.000  0.000  0.000  0.000  0.521
atom    9   Tr[ns(na)] =   5.83545
    eigenvalues:
  0.482  0.538  0.590  0.597  0.710
    eigenvectors:
  0.000  0.000  0.207  0.017  0.776
  0.000  0.000  0.082  0.918  0.000
  0.175  0.825  0.000  0.000  0.000
  0.000  0.000  0.711  0.065  0.224
  0.825  0.175  0.000  0.000  0.000
    occupations:
  0.683 -0.001  0.001 -0.050 -0.001
 -0.001  0.597 -0.001 -0.001 -0.000
  0.001 -0.001  0.529 -0.000  0.021
 -0.050 -0.001 -0.000  0.617  0.000
 -0.001 -0.000  0.021  0.000  0.492
atom   10   Tr[ns(na)] =   5.78112
    eigenvalues:
  0.480  0.490  0.515  0.670  0.735
    eigenvectors:
  0.089  0.910  0.000  0.000  0.000
  0.000  0.000  0.000  1.000  0.000
  0.910  0.089  0.000  0.000  0.000
  0.000  0.000  0.000  0.000  1.000
  0.000  0.000  1.000  0.000  0.000
    occupations:
  0.489  0.000 -0.003 -0.003  0.000
  0.000  0.670 -0.001  0.000 -0.001
 -0.003 -0.001  0.481 -0.001 -0.000
 -0.003  0.000 -0.001  0.735 -0.000
  0.000 -0.001 -0.000 -0.000  0.515
atom   16   Tr[ns(na)] =   5.83355
    eigenvalues:
  0.480  0.509  0.566  0.608  0.753
    eigenvectors:
  0.013  0.001  0.328  0.000  0.659
  0.001  0.997  0.001  0.002  0.000
  0.973  0.000  0.003  0.014  0.010
  0.000  0.000  0.669  0.001  0.330
  0.014  0.002  0.000  0.984  0.000
    occupations:
  0.688  0.002  0.025 -0.087  0.000
  0.002  0.510  0.001  0.000 -0.004
  0.025  0.001  0.485 -0.012 -0.015
 -0.087  0.000 -0.012  0.628 -0.000
  0.000 -0.004 -0.015 -0.000  0.607
atom   17   Tr[ns(na)] =   5.83671
    eigenvalues:
  0.445  0.521  0.585  0.623  0.745
    eigenvectors:
  0.000  0.000  0.988  0.011  0.001
  0.000  0.000  0.011  0.988  0.000
  0.999  0.000  0.000  0.000  0.000
  0.000  0.000  0.001  0.000  0.999
  0.000  1.000  0.000  0.000  0.000
    occupations:
  0.585  0.004  0.001 -0.005  0.000
  0.004  0.623  0.004 -0.001 -0.001
  0.001  0.004  0.445 -0.002  0.000
 -0.005 -0.001 -0.002  0.744  0.000
  0.000 -0.001  0.000  0.000  0.521
atom   22   Tr[ns(na)] =   5.83509
    eigenvalues:
  0.480  0.537  0.590  0.596  0.716
    eigenvectors:
  0.000  0.000  0.193  0.034  0.773
  0.000  0.000  0.157  0.843  0.000
  0.177  0.823  0.000  0.000  0.000
  0.000  0.000  0.650  0.123  0.227
  0.822  0.177  0.000  0.000  0.000
    occupations:
  0.687  0.002 -0.000 -0.052 -0.002
  0.002  0.595  0.000  0.002 -0.000
 -0.000  0.000  0.527 -0.000 -0.022
 -0.052  0.002 -0.000  0.619  0.001
 -0.002 -0.000 -0.022  0.001  0.490
atom   23   Tr[ns(na)] =   5.85400
    eigenvalues:
  0.509  0.523  0.543  0.583  0.768
    eigenvectors:
  0.003  0.000  0.000  0.986  0.011
  0.000  0.036  0.964  0.000  0.000
  0.997  0.000  0.000  0.003  0.000
  0.001  0.000  0.000  0.011  0.989
  0.000  0.964  0.036  0.000  0.000
    occupations:
  0.585 -0.000  0.004 -0.019  0.000
 -0.000  0.543  0.000 -0.000 -0.004
  0.004  0.000  0.509  0.005  0.000
 -0.019 -0.000  0.005  0.766 -0.000
  0.000 -0.004  0.000 -0.000  0.524
N of occupied +U levels =  46.6337832
 --- exit write_ns ---

[...]

          k = 0.2500-0.3900 0.0000 ( 29726 PWs)   bands (ev):

[...]

          k =-0.2500 0.1950 0.0000 ( 29746 PWs)   bands (ev):

   -62.0221 -61.9324 -61.9212 -61.7389 -61.7344 -61.6780 -61.6569 -61.6505
   -36.6139 -36.4156 -36.3402 -36.3277 -36.2021 -36.1708 -36.0858 -36.0698
   -36.0539 -36.0331 -35.9729 -35.9493 -35.9329 -35.9106 -35.9003 -35.8666
   -35.8325 -35.7583 -35.7579 -35.7301 -35.7245 -35.4036 -35.3469 -35.3029
   -22.8679 -20.2874 -20.0371 -19.4589 -19.3567 -19.2582 -19.0968 -19.0410
   -18.9360 -18.8720 -18.7480 -18.6437 -18.5278 -18.4266 -18.4244 -18.3359
   -18.2067 -17.8228 -17.6661 -16.5670  -8.3776  -8.2082  -8.1350  -7.8187
    -7.4950  -7.3375  -7.3009  -7.1823  -7.0156  -6.9884  -6.9491  -6.8821
    -6.7844  -6.5985  -6.4340  -6.3589  -6.0528  -6.0097  -5.9121  -5.8556
    -5.6976  -5.6352  -5.5533  -5.3856  -5.3226  -5.2377  -4.9888  -4.9580
    -4.8890  -4.7172  -4.6465  -4.5803  -4.4048  -4.2819  -4.1602  -4.1147
    -4.0583  -4.0014  -3.9657  -3.9074  -3.8093  -3.7634  -3.7059  -3.5821
    -3.4540  -3.3791  -3.2532  -3.1320  -3.0242  -3.0170  -2.9312  -2.8288
    -2.7160  -2.6805  -2.5237  -2.4210  -2.3372  -2.1313  -1.4672  -1.3363
    -1.3070  -1.2048  -0.3040  -0.1054  -0.0889   0.0815   0.6161   0.6479
     0.9919   1.0966   1.1833   1.2989   1.4940   1.5217   1.7425   1.8396
     1.9477   1.9742   2.1633   2.1980   2.2421   2.2816   2.6508   2.8713
     3.6845   3.7678   4.0588   4.1369   4.2362   4.3305   4.4086   4.5161
     4.7320   4.8114   4.9237   4.9616   5.1754   5.2319   5.3449   5.5611
     5.9074   6.0737   6.1763   6.2498   6.3588   6.4589   6.5152   6.6134
     6.7304   6.9570   7.0079   7.2729   7.3325   7.4287   7.7317   7.7797
     8.0825   8.2323   8.4537   8.4915   8.6483   8.7279   8.8647   8.9645
     9.0027   9.1992   9.2440   9.3757   9.5010   9.6169   9.6927   9.7744
     9.8276   9.9354   9.9740  10.0883  10.2302  10.4251  10.5363  10.6095
    10.6993  10.8024  10.9130  10.9479  11.0270  11.1389  11.2894  11.3837
    11.4979  11.6722  11.7465  11.8454  11.9123  11.9398  12.0157  12.1766
    12.1971  12.2567  12.3563  12.3666  12.4557  12.5548  12.6226  12.8157
    12.9027  12.9860  13.0383  13.1612  13.2022  13.2620  13.3985  13.4406
    13.5343  13.5629  13.6430  13.7026  13.7603  13.8433  13.8954  13.9509
    14.0453  14.0847  14.1294  14.2056  14.2516  14.2973  14.3658  14.3859
    14.4724  14.5213  14.6171  14.7514  14.7813  14.8819  14.9160  15.0694
    15.1376  15.2402  15.2999  15.4320  15.4776  15.5047  15.6375  15.6920
    15.7998  15.8830  15.9233  16.0165  16.0832  16.1667  16.2644  16.2961
    16.3413  16.4349  16.5133  16.5653  16.5944  16.6318  16.7347  16.7650
    16.8485  16.9178  16.9640  17.0910  17.1064  17.2043  17.2810  17.3089
    17.3406  17.3974  17.5076  17.5912  17.6833  17.7549  17.7989  17.9021
    18.0548  18.1014  18.1378  18.1997  18.2305  18.3611  18.4050  18.4938
    18.5792  18.6138  18.6899  18.7797  18.9178  18.9454  19.0267  19.0660
    19.2006  19.2524  19.3832  19.4111  19.4311  19.5417  19.6062  19.6972
    19.8176  19.8978  19.9870  20.0444  20.1159  20.1612  20.2074  20.2497
    20.2729  20.3363  20.4401  20.4735  20.4930  20.5485  20.6032  20.6802
    20.7632  20.8311  20.8844  20.9507  21.0021  21.1012  21.1399  21.2350
    21.2895  21.3646  21.4075  21.4662  21.5316  21.5526  21.6108  21.6240
    21.6593  21.7412  21.8124  21.8705  21.8987  21.9492  21.9913  22.0783
    22.1386  22.2077  22.2927

     the Fermi energy is     0.4745 ev

!    total energy              =   -1763.62669525 Ry
     Harris-Foulkes estimate   =   -1763.62669526 Ry
     estimated scf accuracy    <          5.0E-09 Ry

     The total energy is the sum of the following terms:

     one-electron contribution =  -22656.63224997 Ry
     hartree contribution      =   11358.22216338 Ry
     xc contribution           =    -301.57396919 Ry
     ewald contribution        =    9834.29130846 Ry
     Hubbard energy            =       2.06530728 Ry
     smearing contrib. (-TS)   =       0.00074479 Ry

     convergence has been achieved in  13 iterations

     Forces acting on atoms (Ry/au):

     negative rho (up, down):  0.333E-02 0.000E+00
     atom    1 type  1   force =    -0.00085991   -0.00489808   -0.00019907
     atom    2 type  1   force =    -0.00014880    0.00845952    0.00017547
     atom    3 type  2   force =     0.00193693   -0.00872642    0.00012795
     atom    4 type  2   force =     0.00128784    0.00455806   -0.00035477
     atom    5 type  1   force =    -0.00004488   -0.01147231   -0.00005088
     atom    6 type  1   force =    -0.00189631    0.00975028   -0.00003830
     atom    7 type  1   force =     0.00026848   -0.00054574    0.00003912
     atom    8 type  1   force =     0.00297932    0.00221100    0.00035758
     atom    9 type  2   force =    -0.00193934   -0.00363953    0.00024341
     atom   10 type  2   force =    -0.00010203    0.00291859    0.00010423
     atom   11 type  1   force =    -0.01472776   -0.01736799   -0.00022311
     atom   12 type  1   force =    -0.01146786    0.02313944   -0.00035170
     atom   13 type  1   force =     0.00009618   -0.00165895    0.00018974
     atom   14 type  1   force =    -0.00285626   -0.00597390   -0.00024405
     atom   15 type  1   force =     0.00003047    0.01130897    0.00080115
     atom   16 type  2   force =    -0.00250856   -0.00844739    0.00013112
     atom   17 type  2   force =    -0.00214367    0.00387479   -0.00008637
     atom   18 type  1   force =     0.00288039   -0.01192003   -0.00002873
     atom   19 type  1   force =     0.00188560    0.00947992   -0.00005212
     atom   20 type  1   force =     0.00013052    0.00022818    0.00088868
     atom   21 type  1   force =     0.00364849    0.00260915   -0.00014583
     atom   22 type  2   force =    -0.00203038   -0.00397827    0.00009378
     atom   23 type  2   force =     0.00031190    0.00203592   -0.00035687
     atom   24 type  1   force =     0.01465784   -0.01678578   -0.00025693
     atom   25 type  1   force =     0.01136986    0.02309297   -0.00038798
     atom   26 type  1   force =    -0.00064281   -0.00668923    0.00046004
     atom   27 type  3   force =    -0.00000803   -0.00031561   -0.00074583
     atom   28 type  3   force =     0.00000022   -0.00080923   -0.00051360
     atom   29 type  3   force =    -0.00004931   -0.00026902   -0.00006586
     atom   30 type  3   force =    -0.00006842   -0.00011125   -0.00015713
     atom   31 type  1   force =     0.00003256   -0.00011899    0.00002244
     atom   32 type  1   force =    -0.00003556    0.00005004    0.00040876
     atom   33 type  3   force =     0.00001330    0.00001086    0.00021566

     Total force =     0.002159     Total SCF correction =     0.000109

     entering subroutine stress ...

     negative rho (up, down):  0.333E-02 0.000E+00
          total   stress  (Ry/bohr**3)                   (kbar)     P=   -5.70
  -0.00001868  -0.00000081   0.00000119         -2.75     -0.12      0.18
  -0.00000081  -0.00006348  -0.00000187         -0.12     -9.34     -0.27
   0.00000119  -0.00000187  -0.00003411          0.18     -0.27     -5.02

     bfgs converged in   8 scf cycles and   7 bfgs steps
     (criteria: energy < 0.10E-03, force < 0.10E-02)

     End of BFGS Geometry Optimization

     Final energy   =   -1763.6266952542 Ry
Begin final coordinates

ATOMIC_POSITIONS (crystal)
O0       0.000000000   0.000000000   0.371110837    0   0   1
O0       0.000000000   0.500000000   0.382955311    0   0   1
Mo1      0.250000000   0.500000000   0.440508534    0   0   1
Mo1      0.000000000   0.000000000   0.443207893    0   0   1
O0       0.250000000   0.780000000   0.443061857    0   0   1
O0       0.250000000   0.220000000   0.442865216    0   0   1
O0       0.000000000   0.500000000   0.497714451    0   0   1
O0       0.000000000   0.000000000   0.516647828    0   0   1
Mo1      0.250000000   0.000000000   0.575204812    0   0   1
Mo1      0.000000000   0.500000000   0.565489166    0   0   1
O0       0.250000000   0.720000000   0.570592542    0   0   1
O0       0.250000000   0.280000000   0.571619758    0   0   1
O0       0.000000000   0.000000000   0.625498679    0   0   1
O0       0.500000000   0.000000000   0.371377591    0   0   1
O0       0.500000000   0.500000000   0.382634175    0   0   1
Mo1      0.750000000   0.500000000   0.440499833    0   0   1
Mo1      0.500000000   0.000000000   0.443849467    0   0   1
O0       0.750000000   0.780000000   0.443118946    0   0   1
O0       0.750000000   0.220000000   0.442847632    0   0   1
O0       0.500000000   0.500000000   0.498244648    0   0   1
O0       0.500000000   0.000000000   0.515954953    0   0   1
Mo1      0.750000000   0.000000000   0.574847243    0   0   1
Mo1      0.500000000   0.500000000   0.570160273    0   0   1
O0       0.750000000   0.720000000   0.570542994    0   0   1
O0       0.750000000   0.280000000   0.571568442    0   0   1
O0       0.500000000   0.000000000   0.625191630    0   0   1
H2      -0.000592485   0.610729714   0.360546191
H2       0.499510141   0.616849877   0.362317490
H2       0.167200033   0.017719359   0.356770772
H2       0.665423187   0.019175762   0.356548246
O0       0.500239371   0.518403860   0.641949117
O0       0.499885870   0.356437040   0.675249174
H2       0.500033957   0.425777133   0.707054300
End final coordinates

     General routines

     Parallel routines
     Hubbard U routines

   This run was terminated on:  10:16: 4  28May2014

   JOB DONE.