     Program PWSCF v.5.0.2 (svn rev. 9656) starts on  4May2014 at 20:52:17

     Current dimensions of program PWSCF are:
     Max number of different atomic species (ntypx) = 10
     Max number of k-points (npk) =  40000
     Max angular momentum in pseudopotentials (lmaxx) =  3
     Reading input from pwscf.in
Warning: card &CELL ignored
Warning: card / ignored

     Subspace diagonalization in iterative solution of the eigenvalue problem:
     a serial algorithm will be used

     bravais-lattice index     =            0
     lattice parameter (alat)  =      10.9604  a.u.
     unit-cell volume          =    6350.6732 (a.u.)^3
     number of atoms/cell      =           31
     number of atomic types    =            3
     number of electrons       =       230.00 (up: 122.00, down: 108.00)
     number of Kohn-Sham states=          333
     kinetic-energy cutoff     =      40.0000  Ry
     charge density cutoff     =     500.0000  Ry
     convergence threshold     =      1.0E-06
     mixing beta               =       0.7000
     number of iterations used =            8  plain     mixing
     Exchange-correlation      = SLA  PW   PBE  PBE ( 1 4 3 4 0)
     EXX-fraction              =        0.00
     nstep                     =           50

     celldm(1)=  10.960412  celldm(2)=   0.000000  celldm(3)=   0.000000
     celldm(4)=   0.000000  celldm(5)=   0.000000  celldm(6)=   0.000000

     crystal axes: (cart. coord. in units of alat)
               a(1) = (   1.000000   0.000000   0.000000 )
               a(2) = (   0.000000   1.067975   0.000000 )
               a(3) = (   0.000000   0.000000   4.516251 )

     reciprocal axes: (cart. coord. in units 2 pi/alat)
               b(1) = (  1.000000  0.000000  0.000000 )
               b(2) = (  0.000000  0.936351  0.000000 )
               b(3) = (  0.000000  0.000000  0.221423 )

     PseudoPot. # 1 for O  read from file:
     /home/camp/zhonxu/pseudo/o_pbe_v1.01.uspp.F.UPF
     MD5 check sum: 2bcb18d16ea4b960afae9ec6d52f22d2
     Pseudo is Ultrasoft + core correction, Zval =  6.0
     Generated by new atomic code, or converted to UPF format
     Using radial grid of  737 points,  5 beta functions with:
                l(1) =   0
                l(2) =   0
                l(3) =   1
                l(4) =   1
                l(5) =   2
     Q(r) pseudized with  8 coefficients,  rinner =    0.900   0.900   0.900
                                                       0.900   0.900

     PseudoPot. # 2 for Cr read from file:
     /home/camp/zhonxu/pseudo/cr_pbe_v1.uspp.F.UPF
     MD5 check sum: 68b6f918d1762dccfb11451fe85b0e0e
     Pseudo is Ultrasoft + core correction, Zval = 14.0
     Generated by new atomic code, or converted to UPF format
     Using radial grid of  857 points,  6 beta functions with:
                l(1) =   0
                l(2) =   0
                l(3) =   1
                l(4) =   1
                l(5) =   2
                l(6) =   2
     Q(r) pseudized with  6 coefficients,  rinner =    1.000   1.000   1.000
                                                       1.000   1.000

     PseudoPot. # 3 for H  read from file:
     /home/camp/zhonxu/pseudo/h_pbe_v1.uspp.F.UPF
     MD5 check sum: 3408e3ff4ec8b0a4e358431e7e038a48
     Pseudo is Ultrasoft, Zval =  1.0
     Generated by new atomic code, or converted to UPF format
     Using radial grid of  615 points,  2 beta functions with:
                l(1) =   0
                l(2) =   0
     Q(r) pseudized with  8 coefficients,  rinner =    0.700

     atomic species   valence    mass     pseudopotential
        O0             6.00    15.99940     O ( 1.00)
        Cr1           14.00    51.99600     Cr( 1.00)
        H2             1.00     1.00794     H ( 1.00)

     Starting magnetic structure
     atomic species   magnetization
        O0           0.000
        Cr1          0.600
        H2           0.000

     Simplified LDA+U calculation (l_max = 2) with parameters (eV):
     atomic species    L          U    alpha       J0     beta
        Cr1            2     0.5000   0.0000   0.0000   0.0000

     No symmetry found

   Cartesian axes

     site n.     atom                  positions (alat units)
         1           O0  tau(   1) = (   0.0000000   0.0000000   1.7030331  )
         2           O0  tau(   2) = (   0.0000000   0.5339875   1.8028422  )
         3           Cr1 tau(   3) = (   0.2500000   0.5339875   2.0350227  )
         4           Cr1 tau(   4) = (   0.0000000   0.0000000   2.0223320  )
         5           O0  tau(   5) = (   0.2500000   0.8543801   2.0287902  )
         6           O0  tau(   6) = (   0.2500000   0.2135950   2.0292419  )
         7           O0  tau(   7) = (   0.0000000   0.5339875   2.2445767  )
         8           O0  tau(   8) = (   0.0000000   0.0000000   2.3628573  )
         9           Cr1 tau(   9) = (   0.2500000   0.0000000   2.5580045  )
        10           Cr1 tau(  10) = (   0.0000000   0.5339875   2.5485656  )
        11           O0  tau(  11) = (   0.2500000   0.7475825   2.5953991  )
        12           O0  tau(  12) = (   0.2500000   0.3203925   2.5951281  )
        13           O0  tau(  13) = (   0.0000000   0.0000000   2.7889204  )
        14           O0  tau(  14) = (   0.5000000   0.0000000   1.7055170  )
        15           O0  tau(  15) = (   0.5000000   0.5339875   1.8012615  )
        16           Cr1 tau(  16) = (   0.7500000   0.5339875   2.0359259  )
        17           Cr1 tau(  17) = (   0.5000000   0.0000000   2.0265773  )
        18           O0  tau(  18) = (   0.7500000   0.8543801   2.0288354  )
        19           O0  tau(  19) = (   0.7500000   0.2135950   2.0296032  )
        20           O0  tau(  20) = (   0.5000000   0.5339875   2.2364023  )
        21           O0  tau(  21) = (   0.5000000   0.0000000   2.3615024  )
        22           Cr1 tau(  22) = (   0.7500000   0.0000000   2.6337872  )
        23           Cr1 tau(  23) = (   0.5000000   0.5339875   2.6580395  )
        24           O0  tau(  24) = (   0.7500000   0.7475825   2.5992379  )
        25           O0  tau(  25) = (   0.7500000   0.3203925   2.5991024  )
        26           O0  tau(  26) = (   0.5000000   0.0000000   2.7868881  )
        27           H2  tau(  27) = (  -0.0008000   0.6785059   1.7121107  )
        28           H2  tau(  28) = (   0.4997900   0.6815710   1.7150915  )
        29           H2  tau(  29) = (   0.1566700   0.0342393   1.6437347  )
        30           H2  tau(  30) = (   0.6553000   0.0356063   1.6443670  )
        31           O0  tau(  31) = (   0.4989300   0.5335603   2.9283823  )

     number of k points=    20  Methfessel-Paxton smearing, width (Ry)=  0.0100
                       cart. coord. in units 2pi/alat
        k(    1) = (   0.0000000   0.0000000   0.0000000), wk =   0.0625000
        k(    2) = (   0.0000000   0.2340879   0.0000000), wk =   0.1250000
        k(    3) = (   0.0000000  -0.4681757   0.0000000), wk =   0.0625000
        k(    4) = (   0.2500000   0.0000000   0.0000000), wk =   0.1250000
        k(    5) = (   0.2500000   0.2340879   0.0000000), wk =   0.1250000
        k(    6) = (   0.2500000  -0.4681757   0.0000000), wk =   0.1250000
        k(    7) = (  -0.5000000   0.0000000   0.0000000), wk =   0.0625000
        k(    8) = (  -0.5000000   0.2340879   0.0000000), wk =   0.1250000
        k(    9) = (  -0.5000000  -0.4681757   0.0000000), wk =   0.0625000
        k(   10) = (  -0.2500000   0.2340879   0.0000000), wk =   0.1250000
        k(   11) = (   0.0000000   0.0000000   0.0000000), wk =   0.0625000
        k(   12) = (   0.0000000   0.2340879   0.0000000), wk =   0.1250000
        k(   13) = (   0.0000000  -0.4681757   0.0000000), wk =   0.0625000
        k(   14) = (   0.2500000   0.0000000   0.0000000), wk =   0.1250000
        k(   15) = (   0.2500000   0.2340879   0.0000000), wk =   0.1250000
        k(   16) = (   0.2500000  -0.4681757   0.0000000), wk =   0.1250000
        k(   17) = (  -0.5000000   0.0000000   0.0000000), wk =   0.0625000
        k(   18) = (  -0.5000000   0.2340879   0.0000000), wk =   0.1250000
        k(   19) = (  -0.5000000  -0.4681757   0.0000000), wk =   0.0625000
        k(   20) = (  -0.2500000   0.2340879   0.0000000), wk =   0.1250000

     Largest allocated arrays     est. size (Mb)     dimensions
     Largest temporary arrays     est. size (Mb)     dimensions

     Check: negative/imaginary core charge=   -0.000012    0.000000

     Initial potential from superposition of free atoms
     Check: negative starting charge=(component1):   -0.001547
     Check: negative starting charge=(component2):   -0.000494

     starting charge  221.99984, renormalised to  230.00000

     negative rho (up, down):  0.160E-02 0.512E-03
     Number of +U iterations with fixed ns =  0
     Starting occupations:
 --- enter write_ns ---
 LDA+U parameters:
U( 2)     =  0.50000000
alpha( 2) =  0.00000000
atom    3   Tr[ns(na)] (up, down, total) =   5.00000  0.00000  5.00000
   spin  1
    eigenvalues:
  1.000  1.000  1.000  1.000  1.000
    eigenvectors:
  1.000  0.000  0.000  0.000  0.000
  0.000  1.000  0.000  0.000  0.000
  0.000  0.000  1.000  0.000  0.000
  0.000  0.000  0.000  1.000  0.000
  0.000  0.000  0.000  0.000  1.000
    occupations:
  1.000  0.000  0.000  0.000  0.000
  0.000  1.000  0.000  0.000  0.000
  0.000  0.000  1.000  0.000  0.000
  0.000  0.000  0.000  1.000  0.000
  0.000  0.000  0.000  0.000  1.000
   spin  2
    eigenvalues:
  0.000  0.000  0.000  0.000  0.000
    eigenvectors:
  1.000  0.000  0.000  0.000  0.000
  0.000  1.000  0.000  0.000  0.000
  0.000  0.000  1.000  0.000  0.000
  0.000  0.000  0.000  1.000  0.000
  0.000  0.000  0.000  0.000  1.000
    occupations:
  0.000  0.000  0.000  0.000  0.000
  0.000  0.000  0.000  0.000  0.000
  0.000  0.000  0.000  0.000  0.000
  0.000  0.000  0.000  0.000  0.000
  0.000  0.000  0.000  0.000  0.000
atomic mag. moment =     5.000000
atom    4   Tr[ns(na)] (up, down, total) =   5.00000  0.00000  5.00000
   spin  1
    eigenvalues:
  1.000  1.000  1.000  1.000  1.000
    eigenvectors:
  1.000  0.000  0.000  0.000  0.000
  0.000  1.000  0.000  0.000  0.000
  0.000  0.000  1.000  0.000  0.000
  0.000  0.000  0.000  1.000  0.000
  0.000  0.000  0.000  0.000  1.000
    occupations:
  1.000  0.000  0.000  0.000  0.000
  0.000  1.000  0.000  0.000  0.000
  0.000  0.000  1.000  0.000  0.000
  0.000  0.000  0.000  1.000  0.000
  0.000  0.000  0.000  0.000  1.000
   spin  2
    eigenvalues:
  0.000  0.000  0.000  0.000  0.000
    eigenvectors:
  1.000  0.000  0.000  0.000  0.000
  0.000  1.000  0.000  0.000  0.000
  0.000  0.000  1.000  0.000  0.000
  0.000  0.000  0.000  1.000  0.000
  0.000  0.000  0.000  0.000  1.000
    occupations:
  0.000  0.000  0.000  0.000  0.000
  0.000  0.000  0.000  0.000  0.000
  0.000  0.000  0.000  0.000  0.000
  0.000  0.000  0.000  0.000  0.000
  0.000  0.000  0.000  0.000  0.000
atomic mag. moment =     5.000000
atom    9   Tr[ns(na)] (up, down, total) =   5.00000  0.00000  5.00000
   spin  1
    eigenvalues:
  1.000  1.000  1.000  1.000  1.000
    eigenvectors:
  1.000  0.000  0.000  0.000  0.000
[...]
  0.016 -0.002  0.656 -0.006  0.032
 -0.188  0.001 -0.006  0.610 -0.002
 -0.002 -0.005  0.032 -0.002  0.825
   spin  2
    eigenvalues:
  0.138  0.163  0.200  0.374  0.401
    eigenvectors:
  0.770  0.002  0.013  0.079  0.136
  0.002  0.003  0.000  0.716  0.279
  0.016  0.096  0.888  0.000  0.000
  0.212  0.000  0.001  0.203  0.584
  0.000  0.900  0.097  0.002  0.001
    occupations:
  0.194  0.005 -0.004  0.104  0.002
  0.005  0.381  0.002 -0.016  0.011
 -0.004  0.002  0.195  0.008 -0.011
  0.104 -0.016  0.008  0.340 -0.001
  0.002  0.011 -0.011 -0.001  0.167
atomic mag. moment =     2.154239
atom    4   Tr[ns(na)] (up, down, total) =   3.38532  1.31335  4.69866
   spin  1
    eigenvalues:
  0.479  0.520  0.594  0.816  0.977
    eigenvectors:
  0.002  0.994  0.000  0.001  0.003
  0.000  0.001  0.025  0.974  0.000
  0.000  0.000  0.975  0.025  0.000
  0.000  0.003  0.000  0.000  0.997
  0.998  0.002  0.000  0.000  0.000
    occupations:
  0.522 -0.010 -0.001  0.026  0.002
 -0.010  0.810  0.034  0.002 -0.000
 -0.001  0.034  0.599  0.002 -0.000
  0.026  0.002  0.002  0.975 -0.000
  0.002 -0.000 -0.000 -0.000  0.479
   spin  2
    eigenvalues:
  0.128  0.170  0.222  0.386  0.407
    eigenvectors:
  0.002  0.004  0.000  0.002  0.991
  0.002  0.946  0.048  0.000  0.004
  0.000  0.048  0.952  0.000  0.000
  0.996  0.002  0.000  0.000  0.002
  0.000  0.000  0.000  0.998  0.002
    occupations:
  0.405  0.016  0.004 -0.013  0.001
  0.016  0.173 -0.011  0.001 -0.000
  0.004 -0.011  0.219  0.000 -0.000
 -0.013  0.001  0.000  0.129  0.000
  0.001 -0.000 -0.000  0.000  0.386
atomic mag. moment =     2.071970
atom    9   Tr[ns(na)] (up, down, total) =   3.38494  1.35571  4.74065
   spin  1
    eigenvalues:
  0.495  0.500  0.629  0.789  0.972
    eigenvectors:
  0.016  0.154  0.000  0.000  0.830
  0.909  0.091  0.000  0.000  0.000
  0.000  0.000  0.996  0.004  0.000
  0.075  0.755  0.000  0.000  0.170
  0.000  0.000  0.004  0.996  0.000
    occupations:
  0.892  0.001 -0.001 -0.177 -0.001
  0.001  0.495  0.001  0.001 -0.000
 -0.001  0.001  0.629 -0.001 -0.010
 -0.177  0.001 -0.001  0.580  0.002
 -0.001 -0.000 -0.010  0.002  0.788
   spin  2
    eigenvalues:
  0.153  0.192  0.214  0.395  0.402
    eigenvectors:
  0.823  0.000  0.000  0.174  0.004
  0.000  0.000  0.000  0.023  0.977
  0.000  0.044  0.956  0.000  0.000
  0.177  0.000  0.000  0.803  0.019
  0.000  0.956  0.044  0.000  0.000
    occupations:
  0.196  0.001  0.000  0.093 -0.000
  0.001  0.401 -0.000 -0.001  0.000
  0.000 -0.000  0.213  0.000  0.005
  0.093 -0.001  0.000  0.352 -0.000
 -0.000  0.000  0.005 -0.000  0.193
atomic mag. moment =     2.029229
atom   10   Tr[ns(na)] (up, down, total) =   3.50796  1.16880  4.67676
   spin  1
    eigenvalues:
  0.461  0.500  0.721  0.855  0.970
    eigenvectors:
  0.000  0.995  0.000  0.000  0.005
  0.000  0.000  0.000  0.968  0.031
  0.000  0.000  1.000  0.000  0.000
  0.000  0.005  0.000  0.031  0.963
  1.000  0.000  0.000  0.000  0.000
    occupations:
  0.503 -0.003  0.000  0.034 -0.000
 -0.003  0.859 -0.002 -0.020  0.000
  0.000 -0.002  0.721  0.000  0.004
  0.034 -0.020  0.000  0.964 -0.000
 -0.000  0.000  0.004 -0.000  0.462
   spin  2
    eigenvalues:
  0.113  0.180  0.196  0.315  0.365
    eigenvectors:
  0.007  0.000  0.000  0.993  0.000
  0.001  0.999  0.000  0.000  0.000
  0.000  0.000  1.000  0.000  0.000
  0.993  0.001  0.000  0.007  0.000
  0.000  0.000  0.000  0.000  1.000
    occupations:
  0.314  0.000 -0.000 -0.016  0.000
  0.000  0.180  0.000  0.002 -0.000
 -0.000  0.000  0.196 -0.000  0.003
 -0.016  0.002 -0.000  0.114  0.000
  0.000 -0.000  0.003  0.000  0.365
atomic mag. moment =     2.339154
atom   16   Tr[ns(na)] (up, down, total) =   3.42821  1.27980  4.70801
   spin  1
    eigenvalues:
  0.468  0.515  0.648  0.829  0.967
    eigenvectors:
  0.031  0.191  0.001  0.000  0.776
  0.919  0.078  0.000  0.000  0.003
  0.000  0.000  0.945  0.052  0.003
  0.050  0.730  0.001  0.000  0.218
  0.000  0.000  0.052  0.948  0.000
    occupations:
  0.865  0.029  0.015 -0.188  0.002
  0.029  0.473  0.003 -0.001 -0.004
  0.015  0.003  0.659 -0.006 -0.040
 -0.188 -0.001 -0.006  0.612  0.000
  0.002 -0.004 -0.040  0.000  0.820
   spin  2
    eigenvalues:
  0.139  0.163  0.201  0.375  0.403
    eigenvectors:
  0.771  0.002  0.012  0.081  0.134
  0.003  0.002  0.000  0.711  0.284
  0.015  0.116  0.868  0.000  0.000
  0.211  0.000  0.001  0.206  0.581
  0.000  0.879  0.118  0.002  0.001
    occupations:
  0.194 -0.005 -0.004  0.104 -0.002
 -0.005  0.381 -0.002  0.017  0.011
 -0.004 -0.002  0.196  0.007  0.012
  0.104  0.017  0.007  0.341  0.001
 -0.002  0.011  0.012  0.001  0.168
atomic mag. moment =     2.148403
atom   17   Tr[ns(na)] (up, down, total) =   3.38572  1.31291  4.69862
   spin  1
    eigenvalues:
  0.479  0.523  0.605  0.808  0.971
    eigenvectors:
  0.001  0.994  0.000  0.001  0.003
  0.000  0.001  0.023  0.976  0.000
  0.000  0.000  0.976  0.023  0.000
  0.000  0.003  0.000  0.000  0.997
  0.998  0.001  0.000  0.000  0.000
    occupations:
  0.524 -0.010 -0.003  0.026  0.002
 -0.010  0.803  0.030  0.000 -0.000
 -0.003  0.030  0.609  0.001  0.003
  0.026  0.000  0.001  0.970 -0.000
  0.002 -0.000  0.003 -0.000  0.479
   spin  2
    eigenvalues:
  0.128  0.170  0.223  0.383  0.409
    eigenvectors:
  0.003  0.005  0.000  0.001  0.991
  0.001  0.945  0.048  0.000  0.005
  0.000  0.048  0.952  0.000  0.000
  0.996  0.002  0.000  0.000  0.002
  0.000  0.000  0.000  0.999  0.001
    occupations:
  0.407  0.018  0.004 -0.013  0.001
  0.018  0.173 -0.011  0.001 -0.000
  0.004 -0.011  0.220  0.000 -0.000
 -0.013  0.001  0.000  0.129  0.000
  0.001 -0.000 -0.000  0.000  0.383
atomic mag. moment =     2.072807
atom   22   Tr[ns(na)] (up, down, total) =   2.94562  1.90871  4.85433
   spin  1
    eigenvalues:
  0.500  0.531  0.542  0.619  0.754
    eigenvectors:
  0.993  0.001  0.006  0.000  0.000
  0.001  0.989  0.010  0.000  0.000
  0.000  0.000  0.000  0.148  0.852
  0.006  0.010  0.984  0.000  0.000
  0.000  0.000  0.000  0.852  0.148
    occupations:
  0.500 -0.001 -0.000  0.003  0.002
 -0.001  0.531  0.000 -0.001 -0.000
 -0.000  0.000  0.734 -0.000  0.048
  0.003 -0.001 -0.000  0.542 -0.001
  0.002 -0.000  0.048 -0.001  0.639
   spin  2
    eigenvalues:
  0.272  0.337  0.355  0.469  0.475
    eigenvectors:
  0.000  0.001  0.998  0.002  0.000
  0.000  0.000  0.000  0.024  0.976
  0.975  0.025  0.000  0.000  0.000
  0.000  0.000  0.002  0.974  0.024
  0.025  0.975  0.000  0.000  0.000
    occupations:
  0.355 -0.001  0.000  0.005 -0.000
 -0.001  0.475 -0.000 -0.001 -0.000
  0.000 -0.000  0.274 -0.000 -0.010
  0.005 -0.001 -0.000  0.469  0.000
 -0.000 -0.000 -0.010  0.000  0.336
atomic mag. moment =     1.036918
atom   23   Tr[ns(na)] (up, down, total) =   3.06363  1.77690  4.84053
   spin  1
    eigenvalues:
  0.478  0.521  0.522  0.568  0.974
    eigenvectors:
  0.000  0.001  0.000  0.998  0.001
  0.000  0.998  0.001  0.001  0.000
  0.000  0.001  0.999  0.000  0.000
  0.000  0.000  0.000  0.001  0.999
  1.000  0.000  0.000  0.000  0.000
    occupations:
  0.568  0.002 -0.000  0.013 -0.000
  0.002  0.521  0.000 -0.001 -0.000
 -0.000  0.000  0.522  0.000 -0.001
  0.013 -0.001  0.000  0.974 -0.000
 -0.000 -0.000 -0.001 -0.000  0.478
   spin  2
    eigenvalues:
  0.130  0.374  0.375  0.404  0.493
    eigenvectors:
  0.001  0.000  0.000  0.000  0.999
  0.000  0.001  0.999  0.000  0.000
  0.000  0.996  0.001  0.003  0.000
  0.999  0.000  0.000  0.000  0.001
  0.000  0.003  0.000  0.997  0.000
    occupations:
  0.493  0.000  0.000 -0.014 -0.000
  0.000  0.375  0.000 -0.001  0.000
  0.000  0.000  0.374 -0.000 -0.002
 -0.014 -0.001 -0.000  0.130 -0.000
 -0.000  0.000 -0.002 -0.000  0.404
atomic mag. moment =     1.286732
N of occupied +U levels =  37.9249291
 --- exit write_ns ---

 ------ SPIN UP ------------

[...]

 ------ SPIN DOWN ----------

[...]

          k = 0.2500-0.4682 0.0000 ( 27150 PWs)   bands (ev):

[...]

          k =-0.2500 0.2341 0.0000 ( 27132 PWs)   bands (ev):

   -74.4181 -74.2655 -72.8777 -72.8276 -72.8124 -72.7564 -72.7409 -72.7258
   -46.3795 -46.1051 -45.7020 -45.4863 -45.3064 -45.1997 -44.5925 -44.4386
   -44.4125 -44.4122 -44.3906 -44.3765 -44.1811 -44.1536 -44.0873 -44.0650
   -44.0535 -44.0438 -44.0359 -43.9885 -43.9622 -43.9302 -43.8590 -43.7966
   -21.3118 -20.8796 -20.7345 -20.6832 -20.5438 -20.2588 -20.1683 -20.0944
   -20.0036 -19.9013 -19.8590 -19.8018 -19.6873 -19.6766 -19.6608 -19.5935
   -19.4156 -19.3293 -19.2649  -8.8833  -8.6161  -8.3094  -8.2893  -8.1282
    -7.9015  -7.7676  -7.7074  -7.6074  -7.5379  -7.4768  -7.3543  -7.2705
    -7.1497  -7.0989  -7.0036  -6.8707  -6.8217  -6.6324  -6.6091  -6.5283
    -6.4623  -6.3799  -6.2087  -6.1032  -6.0415  -5.8873  -5.7947  -5.7024
    -5.6538  -5.5704  -5.5105  -5.4418  -5.4225  -5.2632  -5.1778  -5.1198
    -5.0801  -4.8897  -4.8020  -4.6602  -4.5493  -4.4424  -4.4042  -4.2980
    -4.2158  -4.1065  -4.0571  -3.9784  -3.9333  -3.8114  -3.6568  -3.6156
    -3.4772  -3.3693  -3.2189  -2.9839  -0.9229  -0.7139  -0.6619  -0.5056
    -0.3454  -0.3133  -0.2695  -0.1340  -0.0526  -0.0194   0.0756   0.1603
     0.2001   0.3274   0.3540   0.3632   0.4967   0.5062   0.6350   0.6736
     0.7594   0.8359   0.9439   0.9926   1.1044   1.2066   1.3434   1.7379
     1.9000   2.0654   2.2086   2.4125   2.5329   2.5892   2.6610   2.7929
     2.8832   3.0588   3.3839   3.4719   3.7817   4.2519   4.4448   4.9344
     5.4205   5.6600   5.7428   6.0699   6.2727   6.4355   6.5080   6.6711
     6.7951   6.9532   7.0378   7.3307   7.4834   7.7824   7.8875   8.0232
     8.3124   8.3448   8.4274   8.5596   8.7255   8.8390   9.0388   9.0804
     9.2627   9.2862   9.4459   9.5890   9.7399   9.8142   9.9311  10.1235
    10.1688  10.2535  10.3421  10.4395  10.5164  10.6492  10.7383  10.8458
    10.9300  11.0233  11.2064  11.2452  11.3096  11.3539  11.5367  11.6234
    11.6687  11.7762  11.8464  11.9240  12.0361  12.1013  12.1785  12.2773
    12.3693  12.4329  12.5330  12.6604  12.7344  12.8011  12.8678  12.9110
    12.9854  13.0043  13.0979  13.1436  13.2114  13.2830  13.3347  13.4292
    13.4908  13.5745  13.6932  13.7991  13.8681  13.9358  13.9966  14.0501
    14.1234  14.2607  14.3758  14.4515  14.4678  14.5168  14.6177  14.7231
    14.7770  14.8533  14.9517  14.9933  15.0509  15.1755  15.2551  15.3790
    15.4230  15.4903  15.5968  15.6616  15.7622  15.8568  15.9455  16.0119
    16.0895  16.1451  16.2078  16.2731  16.3760  16.4525  16.5091  16.5424
    16.6124  16.7657  16.8095  16.8442  16.9232  17.0535  17.0794  17.1140
    17.1983  17.2291  17.3843  17.4558  17.4818  17.5333  17.5954  17.6804
    17.7121  17.7580  17.7935  17.8990  17.9733  18.0450  18.1257  18.2357
    18.2651  18.3322  18.3872  18.4003  18.5811  18.6789  18.7650  18.8141
    18.8606  18.9291  18.9827  19.0251  19.0705  19.2364  19.3250  19.3820
    19.4235  19.4939  19.5803  19.6559  19.6742  19.7566  19.7962  19.8699
    19.9593  20.0407  20.1226  20.1926  20.3138  20.3583  20.4554  20.5238
    20.6289  20.7145  20.7759  20.8347  20.9152  21.0197  21.0813  21.1510
    21.2196  21.2501  21.3343  21.4227  21.4995

     the spin up/dw Fermi energies are    -1.6529   -2.7928 ev

!    total energy              =   -2025.58761125 Ry
     Harris-Foulkes estimate   =   -2025.58761125 Ry
     estimated scf accuracy    <          5.2E-09 Ry

     The total energy is the sum of the following terms:

     one-electron contribution =  -23887.10005596 Ry
     hartree contribution      =   11960.83250588 Ry
     xc contribution           =    -321.61827495 Ry
     ewald contribution        =   10222.01867352 Ry
     Hubbard energy            =       0.27920180 Ry
     smearing contrib. (-TS)   =       0.00033846 Ry

     total magnetization       =    14.00 Bohr mag/cell
     absolute magnetization    =    17.27 Bohr mag/cell

     convergence has been achieved in  19 iterations

     Forces acting on atoms (Ry/au):

     negative rho (up, down):  0.462E-02 0.172E-02
     atom    1 type  1   force =    -0.00193524   -0.01153904    0.00010417
     atom    2 type  1   force =    -0.00058215    0.00769929    0.00012812
     atom    3 type  2   force =     0.06201599   -0.00362211    0.00011427
     atom    4 type  2   force =    -0.00377622    0.00762444   -0.00016335
     atom    5 type  1   force =    -0.00270090    0.01154564   -0.00022638
     atom    6 type  1   force =    -0.00464966   -0.00863223   -0.00019892
     atom    7 type  1   force =     0.00162889   -0.00139540   -0.00012943
     atom    8 type  1   force =    -0.00704661   -0.00102279    0.00029639
     atom    9 type  2   force =     0.01613430    0.00084147    0.00004753
     atom   10 type  2   force =     0.00619443   -0.00012131    0.00009837
     atom   11 type  1   force =    -0.00647068   -0.05413183    0.00017428
     atom   12 type  1   force =    -0.00606614    0.05346711    0.00021640
     atom   13 type  1   force =    -0.04945934    0.00017974   -0.00034936
     atom   14 type  1   force =    -0.00612736   -0.01240561   -0.00014349
     atom   15 type  1   force =     0.00020305    0.00728998    0.00028086
     atom   16 type  2   force =    -0.06483996   -0.00269138    0.00009945
     atom   17 type  2   force =     0.00700442    0.00705588   -0.00032714
     atom   18 type  1   force =     0.00730096    0.01162160   -0.00019733
     atom   19 type  1   force =     0.00569424   -0.00967534   -0.00023470
     atom   20 type  1   force =     0.00091079   -0.00171985   -0.00059513
     atom   21 type  1   force =     0.00380889    0.00008775    0.00021518
     atom   22 type  2   force =     0.02045542    0.00003272   -0.00011605
     atom   23 type  2   force =    -0.00660161    0.00019617   -0.00009970
     atom   24 type  1   force =    -0.00242050   -0.04874039    0.00026335
     atom   25 type  1   force =    -0.00163674    0.04878190    0.00027507
     atom   26 type  1   force =     0.03330970   -0.00013762   -0.00040239
     atom   27 type  3   force =     0.00000116   -0.00003725   -0.00012009
     atom   28 type  3   force =    -0.00002485   -0.00010848    0.00019619
     atom   29 type  3   force =    -0.00014217   -0.00026991    0.00028755
     atom   30 type  3   force =    -0.00011457   -0.00018243    0.00026263
     atom   31 type  1   force =    -0.00006755    0.00000928    0.00024367

     Total force =     0.001392     Total SCF correction =     0.000242
     SCF correction compared to forces is large: reduce conv_thr to get better values

     bfgs converged in   5 scf cycles and   4 bfgs steps
     (criteria: energy < 0.10E-03, force < 0.10E-02)

     End of BFGS Geometry Optimization

     Final energy   =   -2025.5876112463 Ry
Begin final coordinates

ATOMIC_POSITIONS (crystal)
O0       0.000000000   0.000000000   0.377020541    0   0   1
O0       0.000000000   0.500000000   0.399070565    0   0   1
Cr1      0.250000000   0.500000000   0.450523349    0   0   1
Cr1      0.000000000   0.000000000   0.447831202    0   0   1
O0       0.250000000   0.800000000   0.449145865    0   0   1
O0       0.250000000   0.200000000   0.449254414    0   0   1
O0       0.000000000   0.500000000   0.497114678    0   0   1
O0       0.000000000   0.000000000   0.523116993    0   0   1
Cr1      0.250000000   0.000000000   0.566714413    0   0   1
Cr1      0.000000000   0.500000000   0.564415890    0   0   1
O0       0.250000000   0.700000000   0.574674310    0   0   1
O0       0.250000000   0.300000000   0.574625211    0   0   1
O0       0.000000000   0.000000000   0.617475161    0   0   1
O0       0.500000000   0.000000000   0.377497751    0   0   1
O0       0.500000000   0.500000000   0.398747579    0   0   1
Cr1      0.750000000   0.500000000   0.450711100    0   0   1
Cr1      0.500000000   0.000000000   0.448693735    0   0   1
O0       0.750000000   0.800000000   0.449167291    0   0   1
O0       0.750000000   0.200000000   0.449328132    0   0   1
O0       0.500000000   0.500000000   0.495528870    0   0   1
O0       0.500000000   0.000000000   0.522879904    0   0   1
Cr1      0.750000000   0.000000000   0.583044837    0   0   1
Cr1      0.500000000   0.500000000   0.588575073    0   0   1
O0       0.750000000   0.700000000   0.575607491    0   0   1
O0       0.750000000   0.300000000   0.575582389    0   0   1
O0       0.500000000   0.000000000   0.617101854    0   0   1
H2      -0.000801906   0.635454756   0.379044287
H2       0.499769502   0.638393700   0.379751017
H2       0.156997368   0.031935467   0.364005890
H2       0.655721432   0.033317167   0.364146668
O0       0.499003912   0.499605049   0.648433542
End final coordinates

     General routines

     Parallel routines
     Hubbard U routines

   This run was terminated on:   7: 0:27   5May2014

   JOB DONE.