     Program PWSCF v.5.0.2 (svn rev. 9656) starts on 23Jan2014 at 19:21: 3

     Current dimensions of program PWSCF are:
     Max number of different atomic species (ntypx) = 10
     Max number of k-points (npk) =  40000
     Max angular momentum in pseudopotentials (lmaxx) =  3
     Reading input from ReO2-v-0.8.in

     Subspace diagonalization in iterative solution of the eigenvalue problem:
     a serial algorithm will be used

     bravais-lattice index     =            0
     lattice parameter (alat)  =       8.0383  a.u.
     unit-cell volume          =     334.7174 (a.u.)^3
     number of atoms/cell      =            6
     number of atomic types    =            2
     number of electrons       =        54.00
     number of Kohn-Sham states=           81
     kinetic-energy cutoff     =      40.0000  Ry
     charge density cutoff     =     500.0000  Ry
     convergence threshold     =      1.0E-06
     mixing beta               =       0.7000
     number of iterations used =            8  plain     mixing
     Exchange-correlation      = SLA  PW   PBE  PBE ( 1 4 3 4 0)
     EXX-fraction              =        0.00
     nstep                     =           50

     celldm(1)=   8.038301  celldm(2)=   0.000000  celldm(3)=   0.000000
     celldm(4)=   0.000000  celldm(5)=   0.000000  celldm(6)=   0.000000

     crystal axes: (cart. coord. in units of alat)
               a(1) = (   1.000000   0.000000   0.000000 )
               a(2) = (   0.000000   1.000000   0.000000 )
               a(3) = (   0.000000   0.000000   0.644444 )

     reciprocal axes: (cart. coord. in units 2 pi/alat)
               b(1) = (  1.000000  0.000000  0.000000 )
               b(2) = (  0.000000  1.000000  0.000000 )
               b(3) = (  0.000000  0.000000  1.551724 )

     PseudoPot. # 1 for Re read from file:
     /home/camp/zhonxu/pseudo/re_pbe_v1.uspp.F.UPF
     MD5 check sum: 6f5a5dcaf9c96c20d0ffdde0de57afc6
     Pseudo is Ultrasoft + core correction, Zval = 15.0
     Generated by new atomic code, or converted to UPF format
     Using radial grid of  981 points,  8 beta functions with:
                l(1) =   0
                l(2) =   0
                l(3) =   1
                l(4) =   1
                l(5) =   2
                l(6) =   2
                l(7) =   3
                l(8) =   3
     Q(r) pseudized with  8 coefficients,  rinner =    1.000   1.000   1.000
                                                       1.000   1.000   1.000
                                                       1.000

     PseudoPot. # 2 for O  read from file:
     /home/camp/zhonxu/pseudo/o_pbe_v1.01.uspp.F.UPF
     MD5 check sum: 2bcb18d16ea4b960afae9ec6d52f22d2
     Pseudo is Ultrasoft + core correction, Zval =  6.0
     Generated by new atomic code, or converted to UPF format
     Using radial grid of  737 points,  5 beta functions with:
                l(1) =   0
                l(2) =   0
                l(3) =   1
                l(4) =   1
                l(5) =   2
     Q(r) pseudized with  8 coefficients,  rinner =    0.900   0.900   0.900
                                                       0.900   0.900

     atomic species   valence    mass     pseudopotential
        Re0           15.00   186.20700     Re( 1.00)
        O1             6.00    15.99940     O ( 1.00)

     Starting magnetic structure
     atomic species   magnetization
        Re0          0.600
        O1           0.000

     16 Sym. Ops., with inversion, found ( 8 have fractional translation)

   Cartesian axes

     site n.     atom                  positions (alat units)
         1           Re0 tau(   1) = (   0.0000000   0.0000000   0.0000000  )
         2           Re0 tau(   2) = (   0.5000000   0.5000000   0.3222222  )
         3           O1  tau(   3) = (   0.3050000   0.3050000   0.0000000  )
         4           O1  tau(   4) = (  -0.3050000  -0.3050000   0.0000000  )
         5           O1  tau(   5) = (   0.8050000   0.1950000   0.3222222  )
         6           O1  tau(   6) = (   0.1950000   0.8050000   0.3222222  )

     number of k points=    36  Methfessel-Paxton smearing, width (Ry)=  0.0100
                       cart. coord. in units 2pi/alat
        k(    1) = (   0.0000000   0.0000000   0.0000000), wk =   0.0080000
        k(    2) = (   0.0000000   0.0000000   0.3103448), wk =   0.0160000
        k(    3) = (   0.0000000   0.0000000   0.6206897), wk =   0.0160000
        k(    4) = (   0.0000000   0.2000000   0.0000000), wk =   0.0320000
        k(    5) = (   0.0000000   0.2000000   0.3103448), wk =   0.0640000
        k(    6) = (   0.0000000   0.2000000   0.6206897), wk =   0.0640000
        k(    7) = (   0.0000000   0.4000000   0.0000000), wk =   0.0320000
        k(    8) = (   0.0000000   0.4000000   0.3103448), wk =   0.0640000
        k(    9) = (   0.0000000   0.4000000   0.6206897), wk =   0.0640000
        k(   10) = (   0.2000000   0.2000000   0.0000000), wk =   0.0320000
        k(   11) = (   0.2000000   0.2000000   0.3103448), wk =   0.0640000
        k(   12) = (   0.2000000   0.2000000   0.6206897), wk =   0.0640000
        k(   13) = (   0.2000000   0.4000000   0.0000000), wk =   0.0640000
        k(   14) = (   0.2000000   0.4000000   0.3103448), wk =   0.1280000
        k(   15) = (   0.2000000   0.4000000   0.6206897), wk =   0.1280000
        k(   16) = (   0.4000000   0.4000000   0.0000000), wk =   0.0320000
        k(   17) = (   0.4000000   0.4000000   0.3103448), wk =   0.0640000
        k(   18) = (   0.4000000   0.4000000   0.6206897), wk =   0.0640000
        k(   19) = (   0.0000000   0.0000000   0.0000000), wk =   0.0080000
        k(   20) = (   0.0000000   0.0000000   0.3103448), wk =   0.0160000
        k(   21) = (   0.0000000   0.0000000   0.6206897), wk =   0.0160000
        k(   22) = (   0.0000000   0.2000000   0.0000000), wk =   0.0320000
        k(   23) = (   0.0000000   0.2000000   0.3103448), wk =   0.0640000
        k(   24) = (   0.0000000   0.2000000   0.6206897), wk =   0.0640000
        k(   25) = (   0.0000000   0.4000000   0.0000000), wk =   0.0320000
        k(   26) = (   0.0000000   0.4000000   0.3103448), wk =   0.0640000
        k(   27) = (   0.0000000   0.4000000   0.6206897), wk =   0.0640000
        k(   28) = (   0.2000000   0.2000000   0.0000000), wk =   0.0320000
        k(   29) = (   0.2000000   0.2000000   0.3103448), wk =   0.0640000
        k(   30) = (   0.2000000   0.2000000   0.6206897), wk =   0.0640000
        k(   31) = (   0.2000000   0.4000000   0.0000000), wk =   0.0640000
        k(   32) = (   0.2000000   0.4000000   0.3103448), wk =   0.1280000
        k(   33) = (   0.2000000   0.4000000   0.6206897), wk =   0.1280000
        k(   34) = (   0.4000000   0.4000000   0.0000000), wk =   0.0320000
        k(   35) = (   0.4000000   0.4000000   0.3103448), wk =   0.0640000
        k(   36) = (   0.4000000   0.4000000   0.6206897), wk =   0.0640000

     Largest allocated arrays     est. size (Mb)     dimensions
     Largest temporary arrays     est. size (Mb)     dimensions

     Check: negative/imaginary core charge=   -0.000003    0.000000

     Initial potential from superposition of free atoms
     Check: negative starting charge=(component1):   -0.047389
     Check: negative starting charge=(component2):   -0.011194

     starting charge   52.99990, renormalised to   54.00000

     negative rho (up, down):  0.483E-01 0.114E-01
     Starting wfc are   42 randomized atomic wfcs

     Self-consistent Calculation

     iteration #  1     ecut=    40.00 Ry     beta=0.70
     Davidson diagonalization with overlap
     ethr =  1.00E-02,  avg # of iterations =  5.0

     negative rho (up, down):  0.174E-01 0.475E-01

     total energy              =    -516.98440519 Ry
     Harris-Foulkes estimate   =    -517.14281467 Ry
     estimated scf accuracy    <       2.21369554 Ry

     total magnetization       =     5.62 Bohr mag/cell
     absolute magnetization    =     5.75 Bohr mag/cell

[...]

     End of self-consistent calculation

 ------ SPIN UP ------------

          k = 0.0000 0.0000 0.0000 (  1447 PWs)   bands (ev):

   -59.7422 -59.7254 -22.2033 -22.2033 -21.9261 -21.8406 -21.8406 -21.8278
    -3.1050  -1.7666   0.8217   0.8217   8.5447   8.5452   9.7522  10.9998
    10.9998  14.2422  14.2422  15.0728  16.2725  16.3652  16.3652  17.0334
    19.3101  19.5519  20.5686  20.7835  20.7835  25.7701  26.2322  26.5949
    30.0150  30.0150  30.1363  30.1363  32.2433  34.5963  35.8682  37.0712
    38.0359  38.5800  39.9552  39.9552  42.6078  42.9723  43.2809  43.2809
    44.1654  44.1654  44.9690  50.8720  50.8720  51.2414  51.4884  52.3352
    54.0588  55.0720  55.0720  55.4775  55.9454  55.9454  57.6573  57.8154
    58.2951  59.3144  59.3748  59.3748  62.1240  63.4905  64.8415  64.8415
    65.4810  66.4980  66.5160  66.5160  66.5411  66.5411  66.8243  67.0447
    68.5706

[...]

 ------ SPIN DOWN ----------

[...]

     the Fermi energy is    21.9566 ev

!    total energy              =    -517.91316956 Ry
     Harris-Foulkes estimate   =    -517.91316822 Ry
     estimated scf accuracy    <       0.00000069 Ry

     The total energy is the sum of the following terms:

     one-electron contribution =     -73.04237684 Ry
     hartree contribution      =      79.15725758 Ry
     xc contribution           =    -144.55514947 Ry
     ewald contribution        =    -379.47274301 Ry
     smearing contrib. (-TS)   =      -0.00015782 Ry

[...]

     convergence has been achieved in  11 iterations

     Forces acting on atoms (Ry/au):

     negative rho (up, down):  0.278E-01 0.290E-01
     atom    1 type  1   force =     0.00000000    0.00000000   -0.00000000
     atom    2 type  1   force =     0.00000000    0.00000000   -0.00000000
     atom    3 type  2   force =    -0.15654514   -0.15654514    0.00000000
     atom    4 type  2   force =     0.15654514    0.15654514    0.00000000
     atom    5 type  2   force =    -0.15654514    0.15654514   -0.00000000
     atom    6 type  2   force =     0.15654514   -0.15654514    0.00000000

     Total force =     0.442777     Total SCF correction =     0.000462

     entering subroutine stress ...

     negative rho (up, down):  0.278E-01 0.290E-01
          total   stress  (Ry/bohr**3)                   (kbar)     P= 1738.60
   0.01108070   0.00000000   0.00000000       1630.03      0.00      0.00
   0.00000000   0.01108070   0.00000000          0.00   1630.03      0.00
   0.00000000   0.00000000   0.01329485          0.00      0.00   1955.74

     Volume is kept fixed: isostatic pressure set to zero

     BFGS Geometry Optimization

     number of scf cycles    =   1
     number of bfgs steps    =   0

     enthalpy new            =    -517.9131695588 Ry

     new trust radius        =       0.2213882662 bohr
     new conv_thr            =       0.0000010000 Ry

     new unit-cell volume =    334.71740 a.u.^3 (    49.60000 Ang^3 )

CELL_PARAMETERS (alat=  8.03830103)
   0.981879048   0.000000000   0.000000000
   0.000000000   0.981879048   0.000000000
   0.000000000   0.000000000   0.668450878

ATOMIC_POSITIONS (crystal)
Re0      0.000000000   0.000000000   0.000000000    0   0   0
[...]
        k(   29) = (   0.1871481   0.1871481   0.3544326), wk =   0.0640000
        k(   30) = (   0.1871481   0.1871481   0.7088651), wk =   0.0640000
        k(   31) = (   0.1871481   0.3742962   0.0000000), wk =   0.0640000
        k(   32) = (   0.1871481   0.3742962   0.3544326), wk =   0.1280000
        k(   33) = (   0.1871481   0.3742962   0.7088651), wk =   0.1280000
        k(   34) = (   0.3742962   0.3742962   0.0000000), wk =   0.0320000
        k(   35) = (   0.3742962   0.3742962   0.3544326), wk =   0.0640000
        k(   36) = (   0.3742962   0.3742962   0.7088651), wk =   0.0640000

[...]

     Threshold (ethr) on eigenvalues was too large:
     Diagonalizing with lowered threshold

     Davidson diagonalization with overlap
     ethr =  4.18E-09,  avg # of iterations =  1.8

[...]

     Total force =     0.000026     Total SCF correction =     0.000001

[...]

     Volume is kept fixed: isostatic pressure set to zero
Begin final coordinates
     new unit-cell volume =    334.71740 a.u.^3 (    49.60000 Ang^3 )

[...]

ATOMIC_POSITIONS (crystal)
Re0      0.000000000   0.000000000   0.000000000    0   0   0
Re0      0.500000000   0.500000000   0.500000000    0   0   0
O1       0.277716079   0.277716079   0.000000000    1   1   0
O1      -0.277716079  -0.277716079   0.000000000    1   1   0
O1       0.777716079   0.222283921   0.500000000    1   1   0
O1       0.222283921   0.777716079   0.500000000    1   1   0
End final coordinates

     lsda relaxation :  a final configuration with zero
                        absolute magnetization has been found

     the program is checking if it is really the minimum energy structure
     by performing a new scf iteration without any "electronic" history

[...]

     negative rho (up, down):  0.466E-01 0.112E-01
     Starting wfc are   42 randomized atomic wfcs
     Check: negative starting charge=(component1):   -0.056722
     NEW-OLD atomic charge density approx. for the potential
     NEW k-points:
        k(    1) = (   0.0000000   0.0000000   0.0000000), wk =   0.0080000
        k(    2) = (   0.0000000   0.0000000   0.3544326), wk =   0.0160000
        k(    3) = (   0.0000000   0.0000000   0.7088651), wk =   0.0160000
        k(    4) = (   0.0000000   0.1871481   0.0000000), wk =   0.0320000
        k(    5) = (   0.0000000   0.1871481   0.3544326), wk =   0.0640000
        k(    6) = (   0.0000000   0.1871481   0.7088651), wk =   0.0640000
        k(    7) = (   0.0000000   0.3742962   0.0000000), wk =   0.0320000
        k(    8) = (   0.0000000   0.3742962   0.3544326), wk =   0.0640000
        k(    9) = (   0.0000000   0.3742962   0.7088651), wk =   0.0640000
        k(   10) = (   0.1871481   0.1871481   0.0000000), wk =   0.0320000
        k(   11) = (   0.1871481   0.1871481   0.3544326), wk =   0.0640000
        k(   12) = (   0.1871481   0.1871481   0.7088651), wk =   0.0640000
        k(   13) = (   0.1871481   0.3742962   0.0000000), wk =   0.0640000
        k(   14) = (   0.1871481   0.3742962   0.3544326), wk =   0.1280000
        k(   15) = (   0.1871481   0.3742962   0.7088651), wk =   0.1280000
        k(   16) = (   0.3742962   0.3742962   0.0000000), wk =   0.0320000
        k(   17) = (   0.3742962   0.3742962   0.3544326), wk =   0.0640000
        k(   18) = (   0.3742962   0.3742962   0.7088651), wk =   0.0640000
        k(   19) = (   0.0000000   0.0000000   0.0000000), wk =   0.0080000
        k(   20) = (   0.0000000   0.0000000   0.3544326), wk =   0.0160000
        k(   21) = (   0.0000000   0.0000000   0.7088651), wk =   0.0160000
        k(   22) = (   0.0000000   0.1871481   0.0000000), wk =   0.0320000
        k(   23) = (   0.0000000   0.1871481   0.3544326), wk =   0.0640000
        k(   24) = (   0.0000000   0.1871481   0.7088651), wk =   0.0640000
        k(   25) = (   0.0000000   0.3742962   0.0000000), wk =   0.0320000
        k(   26) = (   0.0000000   0.3742962   0.3544326), wk =   0.0640000
        k(   27) = (   0.0000000   0.3742962   0.7088651), wk =   0.0640000
        k(   28) = (   0.1871481   0.1871481   0.0000000), wk =   0.0320000
        k(   29) = (   0.1871481   0.1871481   0.3544326), wk =   0.0640000
        k(   30) = (   0.1871481   0.1871481   0.7088651), wk =   0.0640000
        k(   31) = (   0.1871481   0.3742962   0.0000000), wk =   0.0640000
        k(   32) = (   0.1871481   0.3742962   0.3544326), wk =   0.1280000
        k(   33) = (   0.1871481   0.3742962   0.7088651), wk =   0.1280000
        k(   34) = (   0.3742962   0.3742962   0.0000000), wk =   0.0320000
        k(   35) = (   0.3742962   0.3742962   0.3544326), wk =   0.0640000
        k(   36) = (   0.3742962   0.3742962   0.7088651), wk =   0.0640000

     Check: negative/imaginary core charge=   -0.000002    0.000000
     Check: negative starting charge=(component1):   -0.056722

[...]

     Total force =     0.000012     Total SCF correction =     0.000022
     SCF correction compared to forces is large: reduce conv_thr to get better values

[...]

     Volume is kept fixed: isostatic pressure set to zero

     bfgs converged in  11 scf cycles and   8 bfgs steps
     (criteria: energy < 0.10E-03, force < 0.10E-02, cell < 0.50E+00)

     End of BFGS Geometry Optimization

     Final enthalpy =    -518.0917383120 Ry
Begin final coordinates
     new unit-cell volume =    334.71740 a.u.^3 (    49.60000 Ang^3 )

CELL_PARAMETERS (alat=  8.03830103)
   1.068672299   0.000000000   0.000000000
   0.000000000   1.068672299   0.000000000
   0.000000000   0.000000000   0.564282237

ATOMIC_POSITIONS (crystal)
Re0      0.000000000   0.000000000   0.000000000    0   0   0
Re0      0.500000000   0.500000000   0.500000000    0   0   0
O1       0.277716079   0.277716079   0.000000000    1   1   0
O1      -0.277716079  -0.277716079   0.000000000    1   1   0
O1       0.777716079   0.222283921   0.500000000    1   1   0
O1       0.222283921   0.777716079   0.500000000    1   1   0
End final coordinates

     A final scf calculation at the relaxed structure.
     The G-vectors are recalculated for the final unit cell
     Results may differ from those at the preceding step.

     bravais-lattice index     =            0
     lattice parameter (alat)  =       8.0383  a.u.
     unit-cell volume          =     334.7174 (a.u.)^3
     number of atoms/cell      =            6
     number of atomic types    =            2
     number of electrons       =        54.00
     number of Kohn-Sham states=           81
     kinetic-energy cutoff     =      40.0000  Ry
     charge density cutoff     =     500.0000  Ry
     convergence threshold     =      1.1E-08
     mixing beta               =       0.7000
     number of iterations used =            8  plain     mixing
     Exchange-correlation      = SLA  PW   PBE  PBE ( 1 4 3 4 0)
     EXX-fraction              =        0.00

     celldm(1)=   8.038301  celldm(2)=   0.000000  celldm(3)=   0.000000
     celldm(4)=   0.000000  celldm(5)=   0.000000  celldm(6)=   0.000000

     crystal axes: (cart. coord. in units of alat)
               a(1) = (   1.068672   0.000000   0.000000 )
               a(2) = (   0.000000   1.068672   0.000000 )
               a(3) = (   0.000000   0.000000   0.564282 )

     reciprocal axes: (cart. coord. in units 2 pi/alat)
               b(1) = (  0.935741  0.000000  0.000000 )
               b(2) = (  0.000000  0.935741  0.000000 )
               b(3) = (  0.000000  0.000000  1.772163 )

     PseudoPot. # 1 for Re read from file:
     /home/camp/zhonxu/pseudo/re_pbe_v1.uspp.F.UPF
     MD5 check sum: 6f5a5dcaf9c96c20d0ffdde0de57afc6
     Pseudo is Ultrasoft + core correction, Zval = 15.0
     Generated by new atomic code, or converted to UPF format
     Using radial grid of  981 points,  8 beta functions with:
                l(1) =   0
                l(2) =   0
                l(3) =   1
                l(4) =   1
                l(5) =   2
                l(6) =   2
                l(7) =   3
                l(8) =   3
     Q(r) pseudized with  8 coefficients,  rinner =    1.000   1.000   1.000
                                                       1.000   1.000   1.000
                                                       1.000

     PseudoPot. # 2 for O  read from file:
     /home/camp/zhonxu/pseudo/o_pbe_v1.01.uspp.F.UPF
     MD5 check sum: 2bcb18d16ea4b960afae9ec6d52f22d2
     Pseudo is Ultrasoft + core correction, Zval =  6.0
     Generated by new atomic code, or converted to UPF format
     Using radial grid of  737 points,  5 beta functions with:
                l(1) =   0
                l(2) =   0
                l(3) =   1
                l(4) =   1
                l(5) =   2
     Q(r) pseudized with  8 coefficients,  rinner =    0.900   0.900   0.900
                                                       0.900   0.900

     atomic species   valence    mass     pseudopotential
        Re0           15.00   186.20700     Re( 1.00)
        O1             6.00    15.99940     O ( 1.00)

     Starting magnetic structure
     atomic species   magnetization
        Re0          0.600
        O1           0.000

     16 Sym. Ops., with inversion, found ( 8 have fractional translation)

   Cartesian axes

     site n.     atom                  positions (alat units)
         1           Re0 tau(   1) = (   0.0000000   0.0000000   0.0000000  )
         2           Re0 tau(   2) = (   0.5343361   0.5343361   0.2821411  )
         3           O1  tau(   3) = (   0.2967875   0.2967875   0.0000000  )
         4           O1  tau(   4) = (  -0.2967875  -0.2967875   0.0000000  )
         5           O1  tau(   5) = (   0.8311236   0.2375487   0.2821411  )
         6           O1  tau(   6) = (   0.2375487   0.8311236   0.2821411  )

     number of k points=    36  Methfessel-Paxton smearing, width (Ry)=  0.0100
                       cart. coord. in units 2pi/alat
        k(    1) = (   0.0000000   0.0000000   0.0000000), wk =   0.0080000
        k(    2) = (   0.0000000   0.0000000   0.3544326), wk =   0.0160000
        k(    3) = (   0.0000000   0.0000000   0.7088651), wk =   0.0160000
        k(    4) = (   0.0000000   0.1871481   0.0000000), wk =   0.0320000
        k(    5) = (   0.0000000   0.1871481   0.3544326), wk =   0.0640000
        k(    6) = (   0.0000000   0.1871481   0.7088651), wk =   0.0640000
        k(    7) = (   0.0000000   0.3742962   0.0000000), wk =   0.0320000
        k(    8) = (   0.0000000   0.3742962   0.3544326), wk =   0.0640000
        k(    9) = (   0.0000000   0.3742962   0.7088651), wk =   0.0640000
        k(   10) = (   0.1871481   0.1871481   0.0000000), wk =   0.0320000
        k(   11) = (   0.1871481   0.1871481   0.3544326), wk =   0.0640000
        k(   12) = (   0.1871481   0.1871481   0.7088651), wk =   0.0640000
        k(   13) = (   0.1871481   0.3742962   0.0000000), wk =   0.0640000
        k(   14) = (   0.1871481   0.3742962   0.3544326), wk =   0.1280000
        k(   15) = (   0.1871481   0.3742962   0.7088651), wk =   0.1280000
        k(   16) = (   0.3742962   0.3742962   0.0000000), wk =   0.0320000
        k(   17) = (   0.3742962   0.3742962   0.3544326), wk =   0.0640000
        k(   18) = (   0.3742962   0.3742962   0.7088651), wk =   0.0640000
        k(   19) = (   0.0000000   0.0000000   0.0000000), wk =   0.0080000
        k(   20) = (   0.0000000   0.0000000   0.3544326), wk =   0.0160000
        k(   21) = (   0.0000000   0.0000000   0.7088651), wk =   0.0160000
        k(   22) = (   0.0000000   0.1871481   0.0000000), wk =   0.0320000
        k(   23) = (   0.0000000   0.1871481   0.3544326), wk =   0.0640000
        k(   24) = (   0.0000000   0.1871481   0.7088651), wk =   0.0640000
        k(   25) = (   0.0000000   0.3742962   0.0000000), wk =   0.0320000
        k(   26) = (   0.0000000   0.3742962   0.3544326), wk =   0.0640000
        k(   27) = (   0.0000000   0.3742962   0.7088651), wk =   0.0640000
        k(   28) = (   0.1871481   0.1871481   0.0000000), wk =   0.0320000
        k(   29) = (   0.1871481   0.1871481   0.3544326), wk =   0.0640000
        k(   30) = (   0.1871481   0.1871481   0.7088651), wk =   0.0640000
        k(   31) = (   0.1871481   0.3742962   0.0000000), wk =   0.0640000
        k(   32) = (   0.1871481   0.3742962   0.3544326), wk =   0.1280000
        k(   33) = (   0.1871481   0.3742962   0.7088651), wk =   0.1280000
        k(   34) = (   0.3742962   0.3742962   0.0000000), wk =   0.0320000
        k(   35) = (   0.3742962   0.3742962   0.3544326), wk =   0.0640000
        k(   36) = (   0.3742962   0.3742962   0.7088651), wk =   0.0640000

     Largest allocated arrays     est. size (Mb)     dimensions
     Largest temporary arrays     est. size (Mb)     dimensions

     Check: negative/imaginary core charge=   -0.000004    0.000000

     Initial potential from superposition of free atoms
     Check: negative starting charge=(component1):   -0.047276
     Check: negative starting charge=(component2):   -0.011236

     starting charge   52.99990, renormalised to   54.00000

     negative rho (up, down):  0.482E-01 0.114E-01
     Starting wfc are   42 randomized atomic wfcs

     Self-consistent Calculation

[...]

     total energy              =    -518.09473729 Ry
     Harris-Foulkes estimate   =    -518.09473723 Ry
     estimated scf accuracy    <       0.00000015 Ry

[...]

     iteration # 10     ecut=    40.00 Ry     beta=0.70
     Davidson diagonalization with overlap
     ethr =  2.79E-10,  avg # of iterations =  2.0

     negative rho (up, down):  0.297E-01 0.297E-01

     End of self-consistent calculation

 ------ SPIN UP ------------

[...]

 ------ SPIN DOWN ----------

[...]

          k = 0.3743 0.3743 0.7089 (  1422 PWs)   bands (ev):

   -60.2436 -60.2433 -23.6315 -23.6303 -22.5880 -22.5817 -22.4342 -22.4299
    -1.0076  -0.6086  -0.1620   0.3420   9.8479  10.3868  10.7674  11.0199
    11.6667  12.2601  12.6548  13.9836  14.3719  14.6930  16.0657  16.2781
    19.6113  19.8331  21.3694  21.8882  24.5096  24.6930  27.2307  28.4801
    28.9570  29.6563  30.4548  30.5863  33.0196  33.2933  36.0831  36.1611
    38.1432  38.6384  39.6312  39.7800  42.0374  42.7305  43.4976  44.1761
    47.1800  47.2071  47.7041  48.0227  50.4214  51.2048  51.8039  52.6323
    52.9518  53.2087  54.5039  55.1207  56.1847  56.5503  56.8542  57.4547
    57.7981  59.1570  59.3607  59.8766  60.9473  61.6013  62.4041  62.4921
    64.1493  65.0570  66.8337  67.8581  68.1654  69.0389  69.8848  70.2642
    71.4481

     the Fermi energy is    21.6862 ev

!    total energy              =    -518.09473756 Ry
     Harris-Foulkes estimate   =    -518.09473755 Ry
     estimated scf accuracy    <          4.6E-09 Ry

     The total energy is the sum of the following terms:

     one-electron contribution =     -79.55380318 Ry
     hartree contribution      =      81.91067115 Ry
     xc contribution           =    -144.47618050 Ry
     ewald contribution        =    -375.97515772 Ry
     smearing contrib. (-TS)   =      -0.00026732 Ry

     total magnetization       =     0.00 Bohr mag/cell
     absolute magnetization    =     0.00 Bohr mag/cell

     convergence has been achieved in  10 iterations

     Forces acting on atoms (Ry/au):

     negative rho (up, down):  0.297E-01 0.297E-01
     atom    1 type  1   force =     0.00000000    0.00000000    0.00000000
     atom    2 type  1   force =     0.00000000    0.00000000   -0.00000000
     atom    3 type  2   force =    -0.00006904   -0.00006904    0.00000000
     atom    4 type  2   force =     0.00006904    0.00006904    0.00000000
     atom    5 type  2   force =    -0.00006904    0.00006904    0.00000000
     atom    6 type  2   force =     0.00006904   -0.00006904    0.00000000

     Total force =     0.000195     Total SCF correction =     0.000023
     SCF correction compared to forces is large: reduce conv_thr to get better values

     entering subroutine stress ...

     negative rho (up, down):  0.297E-01 0.297E-01
          total   stress  (Ry/bohr**3)                   (kbar)     P= 1572.67
   0.01072495   0.00000000   0.00000000       1577.69      0.00      0.00
   0.00000000   0.01072495   0.00000000          0.00   1577.69      0.00
   0.00000000   0.00000000   0.01062255          0.00      0.00   1562.63

     General routines

     Parallel routines

   This run was terminated on:  20: 0:30  23Jan2014

   JOB DONE.
Running PBS batch system epilogue script
Job id: 251216.audhumbla.fysik.dtu.dk
Username: zhonxu
Groupname: campgst
Jobname: ReO2/coarse-EOS/ReO2-v-0.8
Sessionid: 14102
Queuename: verylong
Accounting:
This job has allocated the following 4 nodes:
q090 q090 q090 q090
Finished epilogue job 251216.audhumbla.fysik.dtu.dk for zhonxu