     Program PWSCF v.5.0.2 (svn rev. 9656) starts on  1Apr2014 at 13:36:49

     Current dimensions of program PWSCF are:
     Max number of different atomic species (ntypx) = 10
     Max number of k-points (npk) =  40000
     Max angular momentum in pseudopotentials (lmaxx) =  3
     Reading input from pwscf.in
Warning: card &CELL ignored
Warning: card / ignored

     Subspace diagonalization in iterative solution of the eigenvalue problem:
     a serial algorithm will be used

     bravais-lattice index     =            0
     lattice parameter (alat)  =      11.1872  a.u.
     unit-cell volume          =    7531.8600 (a.u.)^3
     number of atoms/cell      =           32
     number of atomic types    =            3
     number of electrons       =       223.00
     number of Kohn-Sham states=          334
     kinetic-energy cutoff     =      40.0000  Ry
     charge density cutoff     =     500.0000  Ry
     convergence threshold     =      1.0E-06
     mixing beta               =       0.7000
     number of iterations used =            8  plain     mixing
     Exchange-correlation      = SLA  PW   PBE  PBE ( 1 4 3 4 0)
     EXX-fraction              =        0.00
     nstep                     =           50

     celldm(1)=  11.187179  celldm(2)=   0.000000  celldm(3)=   0.000000
     celldm(4)=   0.000000  celldm(5)=   0.000000  celldm(6)=   0.000000

     crystal axes: (cart. coord. in units of alat)
               a(1) = (   1.000000   0.000000   0.000000 )
               a(2) = (   0.000000   1.180104   0.000000 )
               a(3) = (   0.000000   0.000000   4.558482 )

     reciprocal axes: (cart. coord. in units 2 pi/alat)
               b(1) = (  1.000000  0.000000  0.000000 )
               b(2) = (  0.000000  0.847383  0.000000 )
               b(3) = (  0.000000  0.000000  0.219371 )

     PseudoPot. # 1 for O  read from file:
     /home/camp/zhonxu/pseudo/o_pbe_v1.01.uspp.F.UPF
     MD5 check sum: 2bcb18d16ea4b960afae9ec6d52f22d2
     Pseudo is Ultrasoft + core correction, Zval =  6.0
     Generated by new atomic code, or converted to UPF format
     Using radial grid of  737 points,  5 beta functions with:
                l(1) =   0
                l(2) =   0
                l(3) =   1
                l(4) =   1
                l(5) =   2
     Q(r) pseudized with  8 coefficients,  rinner =    0.900   0.900   0.900
                                                       0.900   0.900

     PseudoPot. # 2 for Nb read from file:
     /home/camp/zhonxu/pseudo/nb_pbe_v1.uspp.F.UPF
     MD5 check sum: 573aab8a2fa660278ed4a62cd769473f
     Pseudo is Ultrasoft + core correction, Zval = 13.0
     Generated by new atomic code, or converted to UPF format
     Using radial grid of  887 points,  6 beta functions with:
                l(1) =   0
                l(2) =   0
                l(3) =   1
                l(4) =   1
                l(5) =   2
                l(6) =   2
     Q(r) pseudized with  6 coefficients,  rinner =    1.000   1.000   1.000
                                                       1.000   1.000

     PseudoPot. # 3 for H  read from file:
     /home/camp/zhonxu/pseudo/h_pbe_v1.uspp.F.UPF
     MD5 check sum: 3408e3ff4ec8b0a4e358431e7e038a48
     Pseudo is Ultrasoft, Zval =  1.0
     Generated by new atomic code, or converted to UPF format
     Using radial grid of  615 points,  2 beta functions with:
                l(1) =   0
                l(2) =   0
     Q(r) pseudized with  8 coefficients,  rinner =    0.700

     atomic species   valence    mass     pseudopotential
        O0             6.00    15.99940     O ( 1.00)
        Nb1           13.00    92.90640     Nb( 1.00)
        H2             1.00     1.00794     H ( 1.00)

     Starting magnetic structure
     atomic species   magnetization
        O0           0.000
        Nb1          0.000
        H2           0.000

     No symmetry found

   Cartesian axes

     site n.     atom                  positions (alat units)
         1           O0  tau(   1) = (   0.0000000   0.0000000   1.7080633  )
         2           O0  tau(   2) = (   0.0000000   0.5900519   1.7583889  )
         3           Nb1 tau(   3) = (   0.2500000   0.5900519   2.0066439  )
         4           Nb1 tau(   4) = (   0.0000000   0.0000000   2.0401487  )
         5           O0  tau(   5) = (   0.2500000   0.9322821   2.0429294  )
         6           O0  tau(   6) = (   0.2500000   0.2478218   2.0431118  )
         7           O0  tau(   7) = (   0.0000000   0.5900519   2.2709903  )
         8           O0  tau(   8) = (   0.0000000   0.0000000   2.3999042  )
         9           Nb1 tau(   9) = (   0.2500000   0.0000000   2.6489340  )
        10           Nb1 tau(  10) = (   0.0000000   0.5900519   2.5868019  )
        11           O0  tau(  11) = (   0.2500000   0.8378738   2.6444667  )
        12           O0  tau(  12) = (   0.2500000   0.3422301   2.6445123  )
        13           O0  tau(  13) = (   0.0000000   0.0000000   2.8518777  )
        14           O0  tau(  14) = (   0.5000000   0.0000000   1.7080633  )
        15           O0  tau(  15) = (   0.5000000   0.5900519   1.7583889  )
        16           Nb1 tau(  16) = (   0.7500000   0.5900519   2.0066439  )
        17           Nb1 tau(  17) = (   0.5000000   0.0000000   2.0401487  )
        18           O0  tau(  18) = (   0.7500000   0.9322821   2.0429294  )
        19           O0  tau(  19) = (   0.7500000   0.2478218   2.0431118  )
        20           O0  tau(  20) = (   0.5000000   0.5900519   2.2709903  )
        21           O0  tau(  21) = (   0.5000000   0.0000000   2.3999497  )
        22           Nb1 tau(  22) = (   0.7500000   0.0000000   2.6489340  )
        23           Nb1 tau(  23) = (   0.5000000   0.5900519   2.5867563  )
        24           O0  tau(  24) = (   0.7500000   0.8378738   2.6444667  )
        25           O0  tau(  25) = (   0.7500000   0.3422301   2.6445123  )
        26           O0  tau(  26) = (   0.5000000   0.0000000   2.8518777  )
        27           H2  tau(  27) = (  -0.0004200   0.5934860   1.5928705  )
        28           H2  tau(  28) = (   0.4995800   0.5932146   1.5928249  )
        29           H2  tau(  29) = (   0.1513000  -0.0014397   1.6372701  )
        30           H2  tau(  30) = (   0.6512900  -0.0014397   1.6372701  )
        31           O0  tau(  31) = (   0.5037600   0.5900637   2.9231268  )
        32           H2  tau(  32) = (   0.3972800   0.5900991   3.0484850  )

     number of k points=    20  Methfessel-Paxton smearing, width (Ry)=  0.0100
                       cart. coord. in units 2pi/alat
        k(    1) = (   0.0000000   0.0000000   0.0000000), wk =   0.0625000
        k(    2) = (   0.0000000   0.2118458   0.0000000), wk =   0.1250000
        k(    3) = (   0.0000000  -0.4236915   0.0000000), wk =   0.0625000
        k(    4) = (   0.2500000   0.0000000   0.0000000), wk =   0.1250000
        k(    5) = (   0.2500000   0.2118458   0.0000000), wk =   0.1250000
        k(    6) = (   0.2500000  -0.4236915   0.0000000), wk =   0.1250000
        k(    7) = (  -0.5000000   0.0000000   0.0000000), wk =   0.0625000
        k(    8) = (  -0.5000000   0.2118458   0.0000000), wk =   0.1250000
        k(    9) = (  -0.5000000  -0.4236915   0.0000000), wk =   0.0625000
        k(   10) = (  -0.2500000   0.2118458   0.0000000), wk =   0.1250000
        k(   11) = (   0.0000000   0.0000000   0.0000000), wk =   0.0625000
        k(   12) = (   0.0000000   0.2118458   0.0000000), wk =   0.1250000
        k(   13) = (   0.0000000  -0.4236915   0.0000000), wk =   0.0625000
        k(   14) = (   0.2500000   0.0000000   0.0000000), wk =   0.1250000
        k(   15) = (   0.2500000   0.2118458   0.0000000), wk =   0.1250000
        k(   16) = (   0.2500000  -0.4236915   0.0000000), wk =   0.1250000
        k(   17) = (  -0.5000000   0.0000000   0.0000000), wk =   0.0625000
        k(   18) = (  -0.5000000   0.2118458   0.0000000), wk =   0.1250000
        k(   19) = (  -0.5000000  -0.4236915   0.0000000), wk =   0.0625000
        k(   20) = (  -0.2500000   0.2118458   0.0000000), wk =   0.1250000

     Largest allocated arrays     est. size (Mb)     dimensions
     Largest temporary arrays     est. size (Mb)     dimensions

     Check: negative/imaginary core charge=   -0.000003    0.000000

     Initial potential from superposition of free atoms
     Check: negative starting charge=(component1):   -0.001819
     Check: negative starting charge=(component2):   -0.001819

     starting charge  222.97806, renormalised to  223.00000

     negative rho (up, down):  0.182E-02 0.182E-02
     Starting wfc are  185 randomized atomic wfcs

     Self-consistent Calculation

     iteration #  1     ecut=    40.00 Ry     beta=0.70
     Davidson diagonalization with overlap
     ethr =  1.00E-02,  avg # of iterations =  6.0

     negative rho (up, down):  0.169E-02 0.169E-02

     total energy              =   -1556.46961618 Ry
     Harris-Foulkes estimate   =   -1567.41613984 Ry
     estimated scf accuracy    <      13.90809904 Ry

     total magnetization       =    -0.00 Bohr mag/cell
     absolute magnetization    =     0.01 Bohr mag/cell

[...]

     End of self-consistent calculation

 ------ SPIN UP ------------

          k = 0.0000 0.0000 0.0000 ( 32167 PWs)   bands (ev):

   -56.4581 -56.3693 -55.9417 -55.9370 -55.8822 -55.8584 -55.8041 -55.6940
   -33.3410 -32.6562 -32.5535 -32.4748 -32.4746 -32.4520 -32.3994 -32.3936
   -32.3372 -32.3179 -32.2744 -32.2156 -32.1416 -32.1322 -32.1314 -31.9607
   -31.9174 -31.9162 -31.8168 -31.7312 -31.6461 -31.6220 -31.5815 -31.5083
   -20.7412 -20.5687 -19.5137 -19.2246 -19.1228 -19.0692 -18.9186 -18.8054
   -18.7635 -18.7013 -18.6601 -18.3127 -18.3062 -18.1578 -17.9932 -17.9099
   -17.8014 -17.7893 -17.6084  -9.1914  -8.8579  -7.8767  -7.4201  -7.2446
    -6.9519  -6.9057  -6.6781  -6.3629  -6.3238  -6.3165  -6.2544  -6.1845
    -6.0588  -6.0275  -5.8354  -5.7821  -5.7536  -5.5649  -5.3839  -5.3580
    -5.2927  -5.2625  -5.2415  -5.2099  -4.9517  -4.9476  -4.8156  -4.6866
    -4.4343  -4.2748  -4.2558  -4.2111  -3.9601  -3.9008  -3.8633  -3.8082
    -3.7838  -3.6146  -3.4844  -3.4685  -3.4606  -3.4034  -3.2728  -3.2233
    -3.1444  -3.0272  -2.9802  -2.9449  -2.9433  -2.8505  -2.7812  -2.6757
    -2.6725  -2.2610  -1.5691  -1.2628  -0.8053  -0.3818  -0.2600   1.0950
     1.3248   1.3553   1.4049   1.4275   1.4482   1.6222   1.6857   1.6893
     1.7294   2.2207   2.3342   2.3487   2.4743   2.6607   2.7423   2.9415
     3.0601   3.1233   3.5048   3.5465   3.5612   3.7654   3.8540   4.1686
     4.2829   4.5066   4.6499   4.7310   4.9793   5.1292   5.1838   5.3098
     5.5533   5.6271   5.6901   5.7298   5.9082   6.0307   6.0494   6.1554
     6.1913   6.2077   6.4969   6.6503   6.8463   7.0087   7.0181   7.0251
     7.1106   7.3874   7.3926   7.5089   7.7514   7.8164   7.8595   8.0549
     8.1661   8.2121   8.2419   8.4665   8.5075   8.5856   8.6495   8.6748
     8.7955   8.8363   8.8705   8.9402   9.0664   9.2761   9.3768   9.4110
     9.4563   9.5443   9.5948   9.6796   9.7179   9.7970   9.9600  10.0199
[...]
     atom   15 type  1   force =    -0.00092815    0.00048676    0.00473758
     atom   16 type  2   force =     0.03610320   -0.00049368    0.00606475
     atom   17 type  2   force =    -0.00304266    0.00046332    0.00435969
     atom   18 type  1   force =     0.00043132   -0.02728206   -0.00274057
     atom   19 type  1   force =     0.00058070    0.02696205   -0.00296696
     atom   20 type  1   force =    -0.00971571    0.00022028   -0.07319059
     atom   21 type  1   force =     0.00178289   -0.00007330   -0.00305177
     atom   22 type  2   force =    -0.00546259    0.00002291    0.00976206
     atom   23 type  2   force =     0.01212216   -0.00005365    0.18100131
     atom   24 type  1   force =     0.03087849   -0.02119534   -0.03438693
     atom   25 type  1   force =     0.03087582    0.02122377   -0.03444655
     atom   26 type  1   force =     0.00011708   -0.00002062   -0.00865256
     atom   27 type  3   force =    -0.00008818   -0.00020889   -0.00165541
     atom   28 type  3   force =    -0.00001713   -0.00020517    0.00225402
     atom   29 type  3   force =     0.00005318    0.00042333   -0.00026566
     atom   30 type  3   force =     0.00012737    0.00042171   -0.00022481
     atom   31 type  1   force =     0.00066469    0.00000963    0.00082912
     atom   32 type  3   force =    -0.00005971    0.00000727   -0.00057973

     Total force =     0.208309     Total SCF correction =     0.004864

     BFGS Geometry Optimization

     number of scf cycles    =   1
     number of bfgs steps    =   0

     energy   new            =   -1563.6644891430 Ry

     new trust radius        =       0.1810013052 bohr
     new conv_thr            =       0.0000010000 Ry

ATOMIC_POSITIONS (crystal)
O0       0.000000000   0.000000000   0.374708816    0   0   1
O0       0.000000000   0.500000000   0.385665762    0   0   1
Nb1      0.250000000   0.500000000   0.440325208    0   0   1
Nb1      0.000000000   0.000000000   0.447591160    0   0   1
O0       0.250000000   0.790000000   0.448105688    0   0   1
O0       0.250000000   0.210000000   0.448141136    0   0   1
O0       0.000000000   0.500000000   0.498399504    0   0   1
O0       0.000000000   0.000000000   0.526393916    0   0   1
Nb1      0.250000000   0.000000000   0.581262382    0   0   1
Nb1      0.000000000   0.500000000   0.567689171    0   0   1
O0       0.250000000   0.710000000   0.579471992    0   0   1
O0       0.250000000   0.290000000   0.579480654    0   0   1
O0       0.000000000   0.000000000   0.625506950    0   0   1
O0       0.500000000   0.000000000   0.374689031    0   0   1
O0       0.500000000   0.500000000   0.385832900    0   0   1
Nb1      0.750000000   0.500000000   0.440318925    0   0   1
Nb1      0.500000000   0.000000000   0.447635490    0   0   1
O0       0.750000000   0.790000000   0.448106260    0   0   1
O0       0.750000000   0.210000000   0.448141820    0   0   1
O0       0.500000000   0.500000000   0.496754794    0   0   1
O0       0.500000000   0.000000000   0.526420157    0   0   1
Nb1      0.750000000   0.000000000   0.581291426    0   0   1
Nb1      0.500000000   0.500000000   0.571009285    0   0   1
O0       0.750000000   0.710000000   0.579445701    0   0   1
O0       0.750000000   0.290000000   0.579454532    0   0   1
O0       0.500000000   0.000000000   0.625450330    0   0   1
H2      -0.000427882   0.502894177   0.349397539
H2       0.499578469   0.502664459   0.349464199
H2       0.151304754  -0.001187935   0.359164791
H2       0.651301385  -0.001188057   0.359165592
O0       0.503819416   0.500010730   0.641266258
H2       0.397274662   0.500040551   0.668738632

     Check: negative starting charge=(component1):   -0.003639
     NEW-OLD atomic charge density approx. for the potential

     Check: negative/imaginary core charge=   -0.000003    0.000000
     Check: negative starting charge=(component1):   -0.003637

[...]

     energy   old            =   -1563.6644891430 Ry
     energy   new            =   -1563.6909978429 Ry

     CASE: energy  _new < energy  _old

[...]

     Threshold (ethr) on eigenvalues was too large:
     Diagonalizing with lowered threshold

     Davidson diagonalization with overlap
     ethr =  3.47E-08,  avg # of iterations =  2.0

[...]

     number of scf cycles    =  22
     number of bfgs steps    =  21

     energy   old            =   -1563.7199090271 Ry
     energy   new            =   -1563.7199300856 Ry

     CASE: energy  _new < energy  _old

     new trust radius        =       0.0029524534 bohr
     new conv_thr            =       0.0000000100 Ry

ATOMIC_POSITIONS (crystal)
O0       0.000000000   0.000000000   0.372105589    0   0   1
O0       0.000000000   0.500000000   0.389135605    0   0   1
Nb1      0.250000000   0.500000000   0.444673483    0   0   1
Nb1      0.000000000   0.000000000   0.444780992    0   0   1
O0       0.250000000   0.790000000   0.447145169    0   0   1
O0       0.250000000   0.210000000   0.447148081    0   0   1
O0       0.000000000   0.500000000   0.500210886    0   0   1
O0       0.000000000   0.000000000   0.523447962    0   0   1
Nb1      0.250000000   0.000000000   0.577424733    0   0   1
Nb1      0.000000000   0.500000000   0.569438770    0   0   1
O0       0.250000000   0.710000000   0.575897926    0   0   1
O0       0.250000000   0.290000000   0.575897188    0   0   1
O0       0.000000000   0.000000000   0.622115416    0   0   1
O0       0.500000000   0.000000000   0.372434146    0   0   1
O0       0.500000000   0.500000000   0.390755649    0   0   1
Nb1      0.750000000   0.500000000   0.444704119    0   0   1
Nb1      0.500000000   0.000000000   0.445338819    0   0   1
O0       0.750000000   0.790000000   0.447154522    0   0   1
O0       0.750000000   0.210000000   0.447156006    0   0   1
O0       0.500000000   0.500000000   0.498963103    0   0   1
O0       0.500000000   0.000000000   0.523474263    0   0   1
Nb1      0.750000000   0.000000000   0.577548042    0   0   1
Nb1      0.500000000   0.500000000   0.577561850    0   0   1
O0       0.750000000   0.710000000   0.575954484    0   0   1
O0       0.750000000   0.290000000   0.575955155    0   0   1
O0       0.500000000   0.000000000   0.622005700    0   0   1
H2      -0.000475036   0.501829333   0.352846033
H2       0.499534252   0.501835943   0.354541642
H2       0.150581684   0.000509876   0.356245705
H2       0.650540789   0.000505069   0.356572031
O0       0.502415410   0.499997051   0.648997608
H2       0.397683364   0.500052382   0.676859322

     Check: negative starting charge=(component1):   -0.003642
     NEW-OLD atomic charge density approx. for the potential

     Check: negative/imaginary core charge=   -0.000003    0.000000
     Check: negative starting charge=(component1):   -0.003641

[...]

     Self-consistent Calculation

[...]

     Threshold (ethr) on eigenvalues was too large:
     Diagonalizing with lowered threshold

     Davidson diagonalization with overlap
     ethr =  3.77E-09,  avg # of iterations =  3.0

[...]

     total energy              =   -1563.71993906 Ry
     Harris-Foulkes estimate   =   -1563.71993907 Ry
     estimated scf accuracy    <       0.00000007 Ry

[...]

     iteration # 10     ecut=    40.00 Ry     beta=0.70
     Davidson diagonalization with overlap
     ethr =  3.06E-11,  avg # of iterations =  1.0

     negative rho (up, down):  0.172E-02 0.172E-02

     End of self-consistent calculation

 ------ SPIN UP ------------

[...]

 ------ SPIN DOWN ----------

[...]

          k = 0.2500-0.4237 0.0000 ( 32188 PWs)   bands (ev):

[...]

          k =-0.2500 0.2118 0.0000 ( 32165 PWs)   bands (ev):

   -56.1134 -56.0498 -55.7300 -55.7250 -55.7066 -55.6702 -55.6681 -55.6478
   -32.9224 -32.3086 -32.2712 -32.2187 -32.2027 -32.1766 -32.1687 -32.1582
   -32.0979 -32.0831 -32.0598 -32.0222 -31.9890 -31.9603 -31.9394 -31.7508
   -31.7474 -31.7383 -31.6279 -31.6140 -31.5991 -31.5802 -31.5441 -31.5317
   -20.4620 -20.1344 -19.2295 -19.1120 -18.9334 -18.8986 -18.7633 -18.6863
   -18.5975 -18.5875 -18.5261 -18.4724 -18.0239 -17.9724 -17.9552 -17.8922
   -17.8864 -17.7435 -17.6117  -8.8872  -8.4846  -7.4725  -7.4261  -6.8622
    -6.6708  -6.5940  -6.5015  -6.4149  -6.2764  -6.1748  -6.0546  -6.0359
    -5.9303  -5.8427  -5.7275  -5.7018  -5.5248  -5.4921  -5.4664  -5.4052
    -5.0760  -5.0340  -4.9424  -4.8235  -4.6342  -4.5248  -4.4641  -4.2961
    -4.2261  -4.1786  -4.0960  -4.0035  -3.9009  -3.8486  -3.8400  -3.8114
    -3.7760  -3.6505  -3.6243  -3.4836  -3.4549  -3.3890  -3.2315  -3.1666
    -3.1008  -3.0318  -2.9457  -2.9104  -2.7613  -2.7196  -2.6740  -2.5507
    -2.4622  -2.4484  -2.3373  -2.0248   0.0767   0.6765   0.6971   0.9438
     1.0473   1.3131   1.6745   1.7662   1.8178   1.9966   2.0792   2.1474
     2.2947   2.3735   2.4488   2.6086   2.7070   2.7440   2.7812   2.8689
     2.9541   3.0426   3.0748   3.1002   3.2823   3.6916   4.2468   4.3452
     4.6085   4.7387   4.9964   5.1571   5.2447   5.2895   5.4048   5.4659
     5.5038   5.7187   5.7900   5.8432   5.8745   5.9767   6.0748   6.1716
     6.4630   6.4786   6.5139   6.6863   6.7210   6.8578   6.8828   7.0390
     7.1667   7.2723   7.3465   7.3840   7.5226   7.6594   7.8722   7.9734
     8.0232   8.0812   8.2251   8.3095   8.4203   8.5322   8.6314   8.7344
     8.8400   8.9330   9.0102   9.1735   9.2062   9.3102   9.3587   9.5100
     9.5836   9.6646   9.8141   9.8363  10.0122  10.0698  10.0995  10.2390
    10.3397  10.4051  10.5306  10.7321  10.8034  10.9076  10.9713  11.0542
    11.0986  11.1557  11.2444  11.3185  11.3759  11.5295  11.5544  11.5794
    11.6161  11.7257  11.8688  11.8902  12.0172  12.0857  12.2080  12.2827
    12.4216  12.4693  12.5284  12.5743  12.6524  12.6858  12.7885  12.8518
    12.9067  12.9543  13.0042  13.0508  13.1210  13.2154  13.2932  13.3978
    13.4611  13.5192  13.5840  13.6242  13.7018  13.7908  13.8475  13.9358
    13.9751  14.0426  14.0670  14.1588  14.2649  14.2937  14.3562  14.4478
    14.5699  14.7254  14.7562  14.7957  14.8744  14.9131  15.0247  15.0969
    15.2008  15.2607  15.3075  15.3993  15.4231  15.4510  15.5393  15.6316
    15.6708  15.7799  15.8363  15.8983  15.9219  15.9615  16.0709  16.1411
    16.2019  16.2516  16.2923  16.3676  16.4873  16.6003  16.6384  16.6805
    16.7592  16.8093  16.8726  16.9786  17.0409  17.0739  17.1519  17.1928
    17.2664  17.3071  17.3318  17.4243  17.4803  17.5466  17.6379  17.7269
    17.7951  17.8694  17.9540  18.0107  18.0666  18.1387  18.1618  18.2275
    18.3391  18.4162  18.5052  18.5562  18.5993  18.6555  18.7602  18.8339
    18.8746  18.9895  19.0131  19.1064  19.1201  19.1987  19.2475  19.2969
    19.3424  19.4021  19.4589  19.5663  19.6114  19.6758  19.7082  19.7661
    19.8120  19.8795  19.9255  20.0009  20.0450  20.0804

     the Fermi energy is     1.0363 ev

!    total energy              =   -1563.71993909 Ry
     Harris-Foulkes estimate   =   -1563.71993907 Ry
     estimated scf accuracy    <          9.5E-09 Ry

     The total energy is the sum of the following terms:

     one-electron contribution =  -19071.46967126 Ry
     hartree contribution      =    9565.53358724 Ry
     xc contribution           =    -287.63762667 Ry
     ewald contribution        =    8229.85524159 Ry
     smearing contrib. (-TS)   =      -0.00146999 Ry

     total magnetization       =     0.00 Bohr mag/cell
     absolute magnetization    =     0.02 Bohr mag/cell

     convergence has been achieved in  10 iterations

     Forces acting on atoms (Ry/au):

     negative rho (up, down):  0.172E-02 0.172E-02
     atom    1 type  1   force =     0.00121593   -0.00003984   -0.00007916
     atom    2 type  1   force =    -0.00118483    0.00024410   -0.00050334
     atom    3 type  2   force =    -0.03486465   -0.00025190    0.00002539
     atom    4 type  2   force =    -0.00455935    0.00006362   -0.00004964
     atom    5 type  1   force =    -0.00354935   -0.01590898    0.00017721
     atom    6 type  1   force =    -0.00356232    0.01586101    0.00016770
     atom    7 type  1   force =    -0.00107801    0.00007456    0.00049291
     atom    8 type  1   force =     0.00162924    0.00000137   -0.00043208
     atom    9 type  2   force =     0.00109400    0.00002314    0.00008026
     atom   10 type  2   force =    -0.00121767   -0.00000458    0.00045848
     atom   11 type  1   force =    -0.01578405   -0.01772885    0.00026868
     atom   12 type  1   force =    -0.01578169    0.01771229    0.00026803
     atom   13 type  1   force =     0.00171663   -0.00000293    0.00009062
     atom   14 type  1   force =     0.00049647   -0.00004446    0.00015652
     atom   15 type  1   force =    -0.00105566    0.00013260   -0.00035118
     atom   16 type  2   force =     0.03853051   -0.00024278    0.00014608
     atom   17 type  2   force =    -0.00373621    0.00007489    0.00015370
     atom   18 type  1   force =     0.00483621   -0.01559435    0.00014879
     atom   19 type  1   force =     0.00465766    0.01555442    0.00014192
     atom   20 type  1   force =    -0.00399894    0.00009587    0.00057042
     atom   21 type  1   force =     0.00163110   -0.00000028   -0.00003418
     atom   22 type  2   force =    -0.00221364    0.00001844   -0.00018353
     atom   23 type  2   force =     0.00461031   -0.00000191    0.00000695
     atom   24 type  1   force =     0.01563048   -0.01829841   -0.00055341
     atom   25 type  1   force =     0.01561761    0.01827861   -0.00055340
     atom   26 type  1   force =    -0.00038981   -0.00000234   -0.00001669
     atom   27 type  3   force =     0.00000376   -0.00000977   -0.00058850
     atom   28 type  3   force =    -0.00000393    0.00001815   -0.00039303
     atom   29 type  3   force =     0.00007456   -0.00001135    0.00007256
     atom   30 type  3   force =    -0.00005705   -0.00001285    0.00005839
     atom   31 type  1   force =     0.00043095    0.00000086   -0.00022965
     atom   32 type  3   force =     0.00086175    0.00000164    0.00048322

     Total force =     0.002016     Total SCF correction =     0.000122

     bfgs converged in  23 scf cycles and  22 bfgs steps
     (criteria: energy < 0.10E-03, force < 0.10E-02)

     End of BFGS Geometry Optimization

     Final energy   =   -1563.7199390863 Ry
Begin final coordinates

ATOMIC_POSITIONS (crystal)
O0       0.000000000   0.000000000   0.372105589    0   0   1
O0       0.000000000   0.500000000   0.389135605    0   0   1
Nb1      0.250000000   0.500000000   0.444673483    0   0   1
Nb1      0.000000000   0.000000000   0.444780992    0   0   1
O0       0.250000000   0.790000000   0.447145169    0   0   1
O0       0.250000000   0.210000000   0.447148081    0   0   1
O0       0.000000000   0.500000000   0.500210886    0   0   1
O0       0.000000000   0.000000000   0.523447962    0   0   1
Nb1      0.250000000   0.000000000   0.577424733    0   0   1
Nb1      0.000000000   0.500000000   0.569438770    0   0   1
O0       0.250000000   0.710000000   0.575897926    0   0   1
O0       0.250000000   0.290000000   0.575897188    0   0   1
O0       0.000000000   0.000000000   0.622115416    0   0   1
O0       0.500000000   0.000000000   0.372434146    0   0   1
O0       0.500000000   0.500000000   0.390755649    0   0   1
Nb1      0.750000000   0.500000000   0.444704119    0   0   1
Nb1      0.500000000   0.000000000   0.445338819    0   0   1
O0       0.750000000   0.790000000   0.447154522    0   0   1
O0       0.750000000   0.210000000   0.447156006    0   0   1
O0       0.500000000   0.500000000   0.498963103    0   0   1
O0       0.500000000   0.000000000   0.523474263    0   0   1
Nb1      0.750000000   0.000000000   0.577548042    0   0   1
Nb1      0.500000000   0.500000000   0.577561850    0   0   1
O0       0.750000000   0.710000000   0.575954484    0   0   1
O0       0.750000000   0.290000000   0.575955155    0   0   1
O0       0.500000000   0.000000000   0.622005700    0   0   1
H2      -0.000475036   0.501829333   0.352846033
H2       0.499534252   0.501835943   0.354541642
H2       0.150581684   0.000509876   0.356245705
H2       0.650540789   0.000505069   0.356572031
O0       0.502415410   0.499997051   0.648997608
H2       0.397683364   0.500052382   0.676859322
End final coordinates

     General routines

     Parallel routines

   This run was terminated on:   4:49:22   3Apr2014

   JOB DONE.
Running PBS batch system epilogue script
Job id: 320670.audhumbla.fysik.dtu.dk
Username: zhonxu
Groupname: campgst
Jobname: NbO2/Eads-2-layers/OH-relax-surf
Sessionid: 25730
Queuename: verylong
Accounting:
This job has allocated the following 16 nodes:
d083 d083 d083 d083 d083 d083 d083 d083 d082 d082 d082 d082 d082 d082 d082 d082
Finished epilogue job 320670.audhumbla.fysik.dtu.dk for zhonxu