     Program PWSCF v.5.0.2 (svn rev. 9656) starts on 28Apr2014 at  2:14:29

     Current dimensions of program PWSCF are:
     Max number of different atomic species (ntypx) = 10
     Max number of k-points (npk) =  40000
     Max angular momentum in pseudopotentials (lmaxx) =  3
     Reading input from pwscf.in
Warning: card &CELL ignored
Warning: card / ignored

     Subspace diagonalization in iterative solution of the eigenvalue problem:
     a serial algorithm will be used

     bravais-lattice index     =            0
     lattice parameter (alat)  =      12.2076  a.u.
     unit-cell volume          =    7496.5096 (a.u.)^3
     number of atoms/cell      =           31
     number of atomic types    =            3
     number of electrons       =       246.00
     number of Kohn-Sham states=          369
     kinetic-energy cutoff     =      40.0000  Ry
     charge density cutoff     =     500.0000  Ry
     convergence threshold     =      1.0E-06
     mixing beta               =       0.7000
     number of iterations used =            8  plain     mixing
     Exchange-correlation      = SLA  PW   PBE  PBE ( 1 4 3 4 0)
     EXX-fraction              =        0.00
     nstep                     =           50

     celldm(1)=  12.207631  celldm(2)=   0.000000  celldm(3)=   0.000000
     celldm(4)=   0.000000  celldm(5)=   0.000000  celldm(6)=   0.000000

     crystal axes: (cart. coord. in units of alat)
               a(1) = (   1.000000   0.000000   0.000000 )
               a(2) = (   0.000000   1.004836   0.000000 )
               a(3) = (   0.000000   0.000000   4.100811 )

     reciprocal axes: (cart. coord. in units 2 pi/alat)
               b(1) = (  1.000000  0.000000  0.000000 )
               b(2) = (  0.000000  0.995187  0.000000 )
               b(3) = (  0.000000  0.000000  0.243854 )

     PseudoPot. # 1 for O  read from file:
     /home/camp/zhonxu/pseudo/o_pbe_v1.01.uspp.F.UPF
     MD5 check sum: 2bcb18d16ea4b960afae9ec6d52f22d2
     Pseudo is Ultrasoft + core correction, Zval =  6.0
     Generated by new atomic code, or converted to UPF format
     Using radial grid of  737 points,  5 beta functions with:
                l(1) =   0
                l(2) =   0
                l(3) =   1
                l(4) =   1
                l(5) =   2
     Q(r) pseudized with  8 coefficients,  rinner =    0.900   0.900   0.900
                                                       0.900   0.900

     PseudoPot. # 2 for Pt read from file:
     /home/camp/zhonxu/pseudo/pt_pbe_v1.uspp.F.UPF
     MD5 check sum: 4c71d6ad5ef119f1eb26a4d0b7884226
     Pseudo is Ultrasoft + core correction, Zval = 16.0
     Generated by new atomic code, or converted to UPF format
     Using radial grid of  985 points,  6 beta functions with:
                l(1) =   0
                l(2) =   0
                l(3) =   1
                l(4) =   1
                l(5) =   2
                l(6) =   2
     Q(r) pseudized with  8 coefficients,  rinner =    1.300   1.300   1.300
                                                       1.300   1.300

     PseudoPot. # 3 for H  read from file:
     /home/camp/zhonxu/pseudo/h_pbe_v1.uspp.F.UPF
     MD5 check sum: 3408e3ff4ec8b0a4e358431e7e038a48
     Pseudo is Ultrasoft, Zval =  1.0
     Generated by new atomic code, or converted to UPF format
     Using radial grid of  615 points,  2 beta functions with:
                l(1) =   0
                l(2) =   0
     Q(r) pseudized with  8 coefficients,  rinner =    0.700

     atomic species   valence    mass     pseudopotential
        O0             6.00    15.99940     O ( 1.00)
        Pt1           16.00   195.08000     Pt( 1.00)
        H2             1.00     1.00794     H ( 1.00)

     Simplified LDA+U calculation (l_max = 2) with parameters (eV):
     atomic species    L          U    alpha       J0     beta
        Pt1            2     2.0000   0.0000   0.0000   0.0000

     No symmetry found

   Cartesian axes

     site n.     atom                  positions (alat units)
         1           O0  tau(   1) = (   0.0000000   0.0000000   1.5489174  )
         2           O0  tau(   2) = (   0.0000000   0.5024180   1.6470088  )
         3           Pt1 tau(   3) = (   0.2500000   0.5024180   1.8504500  )
         4           Pt1 tau(   4) = (   0.0000000   0.0000000   1.8564782  )
         5           O0  tau(   5) = (   0.2500000   0.8139171   1.8182587  )
         6           O0  tau(   6) = (   0.2500000   0.1909188   1.8867012  )
         7           O0  tau(   7) = (   0.0000000   0.5024180   2.0373240  )
         8           O0  tau(   8) = (   0.0000000   0.0000000   2.1721997  )
         9           Pt1 tau(   9) = (   0.2500000   0.0000000   2.3623543  )
        10           Pt1 tau(  10) = (   0.0000000   0.5024180   2.3594017  )
        11           O0  tau(  11) = (   0.2500000   0.6933368   2.3215512  )
        12           O0  tau(  12) = (   0.2500000   0.3114991   2.4021322  )
        13           O0  tau(  13) = (   0.0000000   0.0000000   2.5481621  )
        14           O0  tau(  14) = (   0.5000000   0.0000000   1.5492455  )
        15           O0  tau(  15) = (   0.5000000   0.5024180   1.6439332  )
        16           Pt1 tau(  16) = (   0.7500000   0.5024180   1.8504910  )
        17           Pt1 tau(  17) = (   0.5000000   0.0000000   1.8565192  )
        18           O0  tau(  18) = (   0.7500000   0.8139171   1.8184227  )
        19           O0  tau(  19) = (   0.7500000   0.1909188   1.8866602  )
        20           O0  tau(  20) = (   0.5000000   0.5024180   2.0431061  )
        21           O0  tau(  21) = (   0.5000000   0.0000000   2.1716256  )
        22           Pt1 tau(  22) = (   0.7500000   0.0000000   2.3623953  )
        23           Pt1 tau(  23) = (   0.5000000   0.5024180   2.3697358  )
        24           O0  tau(  24) = (   0.7500000   0.6933368   2.3215102  )
        25           O0  tau(  25) = (   0.7500000   0.3114991   2.4021732  )
        26           O0  tau(  26) = (   0.5000000   0.0000000   2.5480390  )
        27           H2  tau(  27) = (   0.0001100   0.6425926   1.5814778  )
        28           H2  tau(  28) = (   0.5001800   0.6431151   1.5801656  )
        29           H2  tau(  29) = (   0.1426600   0.0364956   1.5073762  )
        30           H2  tau(  30) = (   0.6419200   0.0388771   1.5073762  )
        31           O0  tau(  31) = (   0.5000900   0.5753691   2.6428088  )

     number of k points=    10  Methfessel-Paxton smearing, width (Ry)=  0.0100
                       cart. coord. in units 2pi/alat
        k(    1) = (   0.0000000   0.0000000   0.0000000), wk =   0.1250000
        k(    2) = (   0.0000000   0.2487968   0.0000000), wk =   0.2500000
        k(    3) = (   0.0000000  -0.4975937   0.0000000), wk =   0.1250000
        k(    4) = (   0.2500000   0.0000000   0.0000000), wk =   0.2500000
        k(    5) = (   0.2500000   0.2487968   0.0000000), wk =   0.2500000
        k(    6) = (   0.2500000  -0.4975937   0.0000000), wk =   0.2500000
        k(    7) = (  -0.5000000   0.0000000   0.0000000), wk =   0.1250000
        k(    8) = (  -0.5000000   0.2487968   0.0000000), wk =   0.2500000
        k(    9) = (  -0.5000000  -0.4975937   0.0000000), wk =   0.1250000
        k(   10) = (  -0.2500000   0.2487968   0.0000000), wk =   0.2500000

     Largest allocated arrays     est. size (Mb)     dimensions
     Largest temporary arrays     est. size (Mb)     dimensions

     Check: negative/imaginary core charge=   -0.000003    0.000000

     Initial potential from superposition of free atoms
     Check: negative starting charge=   -1.533958

     starting charge  241.99985, renormalised to  246.00000

     negative rho (up, down):  0.156E+01 0.000E+00
     Number of +U iterations with fixed ns =  0
     Starting occupations:
 --- enter write_ns ---
 LDA+U parameters:
U( 2)     =  2.00000000
alpha( 2) =  0.00000000
atom    3   Tr[ns(na)] =   8.00000
    eigenvalues:
  0.800  0.800  0.800  0.800  0.800
    eigenvectors:
  1.000  0.000  0.000  0.000  0.000
  0.000  1.000  0.000  0.000  0.000
  0.000  0.000  1.000  0.000  0.000
  0.000  0.000  0.000  1.000  0.000
  0.000  0.000  0.000  0.000  1.000
    occupations:
  0.800  0.000  0.000  0.000  0.000
  0.000  0.800  0.000  0.000  0.000
  0.000  0.000  0.800  0.000  0.000
  0.000  0.000  0.000  0.800  0.000
  0.000  0.000  0.000  0.000  0.800
atom    4   Tr[ns(na)] =   8.00000
    eigenvalues:
  0.800  0.800  0.800  0.800  0.800
    eigenvectors:
  1.000  0.000  0.000  0.000  0.000
  0.000  1.000  0.000  0.000  0.000
  0.000  0.000  1.000  0.000  0.000
  0.000  0.000  0.000  1.000  0.000
  0.000  0.000  0.000  0.000  1.000
    occupations:
  0.800  0.000  0.000  0.000  0.000
  0.000  0.800  0.000  0.000  0.000
  0.000  0.000  0.800  0.000  0.000
  0.000  0.000  0.000  0.800  0.000
  0.000  0.000  0.000  0.000  0.800
atom    9   Tr[ns(na)] =   8.00000
    eigenvalues:
  0.800  0.800  0.800  0.800  0.800
    eigenvectors:
  1.000  0.000  0.000  0.000  0.000
  0.000  1.000  0.000  0.000  0.000
  0.000  0.000  1.000  0.000  0.000
  0.000  0.000  0.000  1.000  0.000
  0.000  0.000  0.000  0.000  1.000
    occupations:
  0.800  0.000  0.000  0.000  0.000
  0.000  0.800  0.000  0.000  0.000
  0.000  0.000  0.800  0.000  0.000
  0.000  0.000  0.000  0.800  0.000
  0.000  0.000  0.000  0.000  0.800
atom   10   Tr[ns(na)] =   8.00000
    eigenvalues:
  0.800  0.800  0.800  0.800  0.800
    eigenvectors:
  1.000  0.000  0.000  0.000  0.000
  0.000  1.000  0.000  0.000  0.000
  0.000  0.000  1.000  0.000  0.000
  0.000  0.000  0.000  1.000  0.000
  0.000  0.000  0.000  0.000  1.000
    occupations:
  0.800  0.000  0.000  0.000  0.000
  0.000  0.800  0.000  0.000  0.000
  0.000  0.000  0.800  0.000  0.000
  0.000  0.000  0.000  0.800  0.000
  0.000  0.000  0.000  0.000  0.800
atom   16   Tr[ns(na)] =   8.00000
    eigenvalues:
  0.800  0.800  0.800  0.800  0.800
    eigenvectors:
  1.000  0.000  0.000  0.000  0.000
  0.000  1.000  0.000  0.000  0.000
  0.000  0.000  1.000  0.000  0.000
  0.000  0.000  0.000  1.000  0.000
  0.000  0.000  0.000  0.000  1.000
    occupations:
  0.800  0.000  0.000  0.000  0.000
  0.000  0.800  0.000  0.000  0.000
  0.000  0.000  0.800  0.000  0.000
  0.000  0.000  0.000  0.800  0.000
  0.000  0.000  0.000  0.000  0.800
atom   17   Tr[ns(na)] =   8.00000
    eigenvalues:
  0.800  0.800  0.800  0.800  0.800
    eigenvectors:
  1.000  0.000  0.000  0.000  0.000
  0.000  1.000  0.000  0.000  0.000
  0.000  0.000  1.000  0.000  0.000
  0.000  0.000  0.000  1.000  0.000
  0.000  0.000  0.000  0.000  1.000
    occupations:
  0.800  0.000  0.000  0.000  0.000
  0.000  0.800  0.000  0.000  0.000
  0.000  0.000  0.800  0.000  0.000
  0.000  0.000  0.000  0.800  0.000
  0.000  0.000  0.000  0.000  0.800
atom   22   Tr[ns(na)] =   8.00000
    eigenvalues:
  0.800  0.800  0.800  0.800  0.800
    eigenvectors:
  1.000  0.000  0.000  0.000  0.000
  0.000  1.000  0.000  0.000  0.000
  0.000  0.000  1.000  0.000  0.000
  0.000  0.000  0.000  1.000  0.000
  0.000  0.000  0.000  0.000  1.000
    occupations:
  0.800  0.000  0.000  0.000  0.000
  0.000  0.800  0.000  0.000  0.000
[...]
 -0.019  0.000  0.980  0.003  0.000
  0.026  0.000  0.003  0.982  0.000
 -0.001  0.029  0.000  0.000  0.687
atom    9   Tr[ns(na)] =   8.64809
    eigenvalues:
  0.707  0.718  0.953  0.962  0.985
    eigenvectors:
  0.003  0.133  0.001  0.010  0.853
  0.981  0.018  0.000  0.000  0.000
  0.000  0.011  0.007  0.977  0.004
  0.016  0.837  0.000  0.006  0.141
  0.000  0.000  0.991  0.007  0.002
    occupations:
  0.948  0.001 -0.008 -0.091  0.001
  0.001  0.707  0.001  0.001 -0.004
 -0.008  0.001  0.959 -0.025  0.001
 -0.091  0.001 -0.025  0.757 -0.000
  0.001 -0.004  0.001 -0.000  0.953
atom   10   Tr[ns(na)] =   8.72210
    eigenvalues:
  0.664  0.751  0.977  0.982  0.987
    eigenvectors:
  0.000  0.981  0.000  0.010  0.009
  0.013  0.000  0.987  0.000  0.000
  0.000  0.001  0.000  0.284  0.716
  0.000  0.018  0.000  0.707  0.275
  0.987  0.000  0.013  0.000  0.000
    occupations:
  0.756  0.000 -0.007  0.031  0.000
  0.000  0.973  0.000 -0.000 -0.035
 -0.007  0.000  0.985 -0.001 -0.000
  0.031 -0.000 -0.001  0.979 -0.000
  0.000 -0.035 -0.000 -0.000  0.668
atom   16   Tr[ns(na)] =   8.68605
    eigenvalues:
  0.688  0.700  0.983  0.984  0.988
    eigenvectors:
  0.040  0.134  0.561  0.255  0.009
  0.778  0.222  0.000  0.000  0.000
  0.001  0.004  0.003  0.095  0.898
  0.181  0.640  0.122  0.045  0.012
  0.000  0.000  0.314  0.605  0.081
    occupations:
  0.934 -0.003  0.008 -0.108  0.001
 -0.003  0.691 -0.002 -0.004 -0.004
  0.008 -0.002  0.986  0.017 -0.001
 -0.108 -0.004  0.017  0.748 -0.000
  0.001 -0.004 -0.001 -0.000  0.984
atom   17   Tr[ns(na)] =   8.67369
    eigenvalues:
  0.686  0.706  0.977  0.983  0.985
    eigenvectors:
  0.000  0.986  0.006  0.002  0.006
  0.010  0.000  0.037  0.943  0.010
  0.000  0.005  0.932  0.029  0.033
  0.000  0.009  0.024  0.017  0.951
  0.990  0.000  0.000  0.009  0.000
    occupations:
  0.710 -0.005 -0.019  0.026 -0.001
 -0.005  0.980  0.001  0.000  0.029
 -0.019  0.001  0.976  0.003  0.000
  0.026  0.000  0.003  0.982  0.000
 -0.001  0.029  0.000  0.000  0.689
atom   22   Tr[ns(na)] =   8.64807
    eigenvalues:
  0.707  0.718  0.953  0.962  0.985
    eigenvectors:
  0.001  0.135  0.001  0.011  0.853
  0.995  0.004  0.000  0.000  0.000
  0.000  0.012  0.010  0.974  0.004
  0.004  0.849  0.001  0.006  0.142
  0.000  0.000  0.988  0.010  0.002
    occupations:
  0.948 -0.000 -0.008 -0.091 -0.001
 -0.000  0.707 -0.001 -0.001 -0.004
 -0.008 -0.001  0.959 -0.025 -0.001
 -0.091 -0.001 -0.025  0.757  0.000
 -0.001 -0.004 -0.001  0.000  0.953
atom   23   Tr[ns(na)] =   8.62827
    eigenvalues:
  0.714  0.738  0.919  0.957  0.987
    eigenvectors:
  0.000  0.891  0.102  0.000  0.006
  0.017  0.000  0.000  0.983  0.000
  0.000  0.094  0.885  0.000  0.022
  0.000  0.015  0.013  0.000  0.972
  0.983  0.000  0.000  0.017  0.000
    occupations:
  0.758  0.000  0.052  0.026 -0.000
  0.000  0.953 -0.000  0.000 -0.031
  0.052 -0.000  0.904 -0.017 -0.000
  0.026  0.000 -0.017  0.982 -0.000
 -0.000 -0.031 -0.000 -0.000  0.718
N of occupied +U levels =  69.3672172
 --- exit write_ns ---

     Threshold (ethr) on eigenvalues was too large:
     Diagonalizing with lowered threshold

     Davidson diagonalization with overlap
     ethr =  6.28E-09,  avg # of iterations =  2.0

[...]

     total energy              =   -2280.26687498 Ry
     Harris-Foulkes estimate   =   -2280.26687499 Ry
     estimated scf accuracy    <       0.00000010 Ry

     iteration # 14     ecut=    40.00 Ry     beta=0.70
     Davidson diagonalization with overlap
     ethr =  5.80E-12,  avg # of iterations =  1.0

     negative rho (up, down):  0.158E+01 0.000E+00

     End of self-consistent calculation
 --- enter write_ns ---
 LDA+U parameters:
U( 2)     =  2.00000000
alpha( 2) =  0.00000000
atom    3   Tr[ns(na)] =   8.68566
    eigenvalues:
  0.688  0.700  0.983  0.984  0.988
    eigenvectors:
  0.040  0.135  0.559  0.258  0.008
  0.779  0.221  0.000  0.000  0.000
  0.001  0.004  0.004  0.097  0.895
  0.180  0.641  0.122  0.045  0.012
  0.000  0.000  0.316  0.600  0.085
    occupations:
  0.934  0.003  0.008 -0.108 -0.000
  0.003  0.691  0.002  0.004 -0.004
  0.008  0.002  0.986  0.017  0.001
 -0.108  0.004  0.017  0.748  0.001
 -0.000 -0.004  0.001  0.001  0.984
atom    4   Tr[ns(na)] =   8.67518
    eigenvalues:
  0.684  0.706  0.980  0.983  0.984
    eigenvectors:
  0.000  0.986  0.007  0.003  0.004
  0.010  0.000  0.114  0.855  0.021
  0.000  0.005  0.799  0.073  0.124
  0.000  0.009  0.079  0.061  0.851
  0.990  0.000  0.001  0.008  0.000
    occupations:
  0.709 -0.005 -0.019  0.026 -0.001
 -0.005  0.980  0.000  0.000  0.029
 -0.019  0.000  0.980  0.003  0.000
  0.026  0.000  0.003  0.982  0.000
 -0.001  0.029  0.000  0.000  0.687
atom    9   Tr[ns(na)] =   8.64864
    eigenvalues:
  0.707  0.718  0.953  0.962  0.985
    eigenvectors:
  0.003  0.133  0.001  0.010  0.853
  0.981  0.018  0.000  0.000  0.000
  0.000  0.011  0.007  0.978  0.004
  0.016  0.837  0.000  0.006  0.141
  0.000  0.000  0.992  0.006  0.002
    occupations:
  0.948  0.001 -0.008 -0.091  0.001
  0.001  0.707  0.001  0.001 -0.004
 -0.008  0.001  0.959 -0.025  0.001
 -0.091  0.001 -0.025  0.757 -0.000
  0.001 -0.004  0.001 -0.000  0.953
atom   10   Tr[ns(na)] =   8.72011
    eigenvalues:
  0.664  0.750  0.976  0.982  0.987
    eigenvectors:
  0.000  0.981  0.000  0.010  0.009
  0.013  0.000  0.987  0.000  0.000
  0.000  0.001  0.000  0.284  0.716
  0.000  0.018  0.000  0.707  0.275
  0.987  0.000  0.013  0.000  0.000
    occupations:
  0.755  0.000 -0.007  0.031  0.000
  0.000  0.973  0.000 -0.000 -0.035
 -0.007  0.000  0.985 -0.001 -0.000
  0.031 -0.000 -0.001  0.979 -0.000
  0.000 -0.035 -0.000 -0.000  0.668
atom   16   Tr[ns(na)] =   8.68570
    eigenvalues:
  0.688  0.700  0.983  0.984  0.988
    eigenvectors:
  0.040  0.135  0.563  0.253  0.009
  0.780  0.220  0.000  0.000  0.000
  0.001  0.004  0.003  0.095  0.898
  0.180  0.642  0.122  0.044  0.013
  0.000  0.000  0.312  0.607  0.080
    occupations:
  0.934 -0.003  0.008 -0.108  0.001
 -0.003  0.691 -0.002 -0.004 -0.004
  0.008 -0.002  0.986  0.017 -0.001
 -0.108 -0.004  0.017  0.748 -0.000
  0.001 -0.004 -0.001 -0.000  0.984
atom   17   Tr[ns(na)] =   8.67380
    eigenvalues:
  0.686  0.706  0.977  0.983  0.985
    eigenvectors:
  0.000  0.986  0.006  0.002  0.006
  0.010  0.000  0.037  0.943  0.010
  0.000  0.005  0.932  0.030  0.034
  0.000  0.009  0.024  0.017  0.950
  0.990  0.000  0.000  0.009  0.000
    occupations:
  0.710 -0.005 -0.019  0.026 -0.001
 -0.005  0.980  0.001  0.000  0.029
 -0.019  0.001  0.976  0.003  0.000
  0.026  0.000  0.003  0.982  0.000
 -0.001  0.029  0.000  0.000  0.689
atom   22   Tr[ns(na)] =   8.64863
    eigenvalues:
  0.707  0.718  0.953  0.962  0.985
    eigenvectors:
  0.001  0.135  0.001  0.011  0.853
  0.995  0.004  0.000  0.000  0.000
  0.000  0.012  0.010  0.974  0.004
  0.004  0.849  0.000  0.006  0.142
  0.000  0.000  0.989  0.010  0.002
    occupations:
  0.948 -0.000 -0.008 -0.091 -0.001
 -0.000  0.707 -0.001 -0.001 -0.004
 -0.008 -0.001  0.959 -0.025 -0.001
 -0.091 -0.001 -0.025  0.757  0.000
 -0.001 -0.004 -0.001  0.000  0.953
atom   23   Tr[ns(na)] =   8.62811
    eigenvalues:
  0.714  0.738  0.919  0.957  0.987
    eigenvectors:
  0.000  0.891  0.102  0.000  0.006
  0.017  0.000  0.000  0.983  0.000
  0.000  0.094  0.885  0.000  0.022
  0.000  0.015  0.013  0.000  0.972
  0.983  0.000  0.000  0.017  0.000
    occupations:
  0.758  0.000  0.052  0.026 -0.000
  0.000  0.953 -0.000  0.000 -0.031
  0.052 -0.000  0.904 -0.017 -0.000
  0.026  0.000 -0.017  0.982 -0.000
 -0.000 -0.031 -0.000 -0.000  0.718
N of occupied +U levels =  69.3658212
 --- exit write_ns ---

[...]

          k = 0.2500-0.4976 0.0000 ( 32026 PWs)   bands (ev):

[...]

          k =-0.2500 0.2488 0.0000 ( 32025 PWs)   bands (ev):

   -56.1532 -56.0746 -55.9570 -55.7993 -55.7611 -55.7596 -55.7233 -55.6682
   -55.6468 -55.6442 -55.6215 -55.5872 -55.5829 -55.4691 -55.4266 -55.4055
   -55.4009 -55.3665 -55.3595 -55.3551 -55.3239 -55.0677 -54.8224 -54.5143
   -22.1782 -21.9028 -21.3000 -21.1399 -20.8130 -20.6992 -20.6972 -20.5434
   -20.4937 -20.4340 -20.3468 -20.2918 -20.2740 -20.1162 -20.0487 -20.0422
   -19.3589 -19.1173 -18.9357 -10.5088 -10.2625 -10.1821 -10.0681  -9.6622
    -9.5859  -9.5044  -9.3314  -9.3008  -9.2729  -9.1865  -9.1440  -8.9824
    -8.8425  -8.8053  -8.7427  -8.6347  -8.5683  -8.1978  -8.0701  -7.9632
    -7.9009  -7.8876  -7.7212  -7.4601  -7.3436  -7.2559  -7.1460  -7.0628
    -7.0133  -6.9388  -6.8668  -6.7208  -6.6992  -6.6682  -6.5983  -6.4494
    -6.3766  -6.3267  -6.2061  -6.0303  -5.9662  -5.8247  -5.6951  -5.6078
    -5.4633  -5.3301  -5.2438  -5.1476  -5.0950  -5.0166  -4.8604  -4.6897
    -4.6214  -4.5663  -4.4631  -4.3455  -4.1930  -4.0699  -3.9740  -3.9389
    -3.8363  -3.8189  -3.7321  -3.6518  -3.5688  -3.5271  -3.2631  -3.2294
    -3.1030  -2.8505  -2.7297  -2.5792  -2.5346  -2.4463  -2.3831  -2.2684
    -2.0936  -1.9665  -1.8525  -1.7543  -1.6122  -1.1805  -1.0671  -0.7251
    -0.3861  -0.2204   0.0633   0.3499   0.5764   0.7236   0.7522   0.8975
     1.0900   1.2841   1.3368   1.7147   3.0586   3.8152   4.5988   5.0141
     5.0432   5.1175   5.3229   5.6466   6.0663   6.1567   6.1801   6.3155
     6.4390   6.5299   6.6760   6.8473   6.9477   6.9981   7.1008   7.2109
     7.3591   7.4743   7.5466   7.5823   7.6762   7.8635   7.9230   8.0178
     8.1428   8.2392   8.2914   8.4370   8.5457   8.6427   8.6661   8.7578
     8.8479   8.9862   9.1307   9.2865   9.3478   9.4624   9.5282   9.5884
     9.6974   9.8697  10.0087  10.1131  10.1939  10.2558  10.3182  10.3834
    10.5253  10.5818  10.6547  10.7712  10.8031  10.9508  11.0454  11.0778
    11.1688  11.2020  11.3625  11.4522  11.4811  11.7057  11.7310  11.7768
    11.8552  11.9443  11.9862  12.0652  12.1326  12.2210  12.2588  12.3257
    12.4061  12.4501  12.5138  12.5675  12.6357  12.7342  12.8158  12.8919
    12.9356  13.0251  13.1625  13.1795  13.2214  13.4230  13.5023  13.5443
    13.6214  13.6904  13.7607  13.8521  13.9053  13.9562  14.0275  14.1172
    14.1769  14.2845  14.4103  14.4924  14.5432  14.6280  14.7433  14.8209
    14.8684  14.9363  15.0864  15.2070  15.2428  15.3268  15.4062  15.4480
    15.5247  15.5774  15.6315  15.6682  15.7569  15.7667  15.8188  15.8798
    15.9932  16.0294  16.0549  16.0927  16.1556  16.1892  16.2501  16.3535
    16.4268  16.4899  16.5051  16.5147  16.5822  16.6063  16.6282  16.6628
    16.7047  16.7518  16.8014  16.8573  16.9080  16.9212  17.0211  17.1034
    17.1374  17.1944  17.2054  17.2475  17.2752  17.3508  17.4568  17.4891
    17.5108  17.5465  17.5877  17.6165  17.7297  17.7764  17.8919  17.9476
    18.0402  18.0817  18.1300  18.2215  18.2630  18.3728  18.4724  18.5101
    18.5873  18.6166  18.6891  18.7143  18.8126  18.8430  18.8954  19.0156
    19.0366  19.1514  19.1725  19.2029  19.3136  19.3579  19.4323  19.4487
    19.6354  19.7592  19.8160  19.8777  19.9400  19.9533  19.9804  20.0619
    20.1113  20.2110  20.2360  20.2989  20.3662  20.3736  20.4897  20.5724
    20.6410  20.6905  20.7527  20.8353  20.9166  20.9697  21.0166  21.0666
    21.0768  21.2267  21.2669  21.3738  21.4123  21.4675  21.5128  21.5557
    21.6054  21.6551  21.7254  21.7820  21.8242  21.8872  21.9894  22.0912
    22.1271

     the Fermi energy is    -1.8043 ev

!    total energy              =   -2280.26687498 Ry
     Harris-Foulkes estimate   =   -2280.26687499 Ry
     estimated scf accuracy    <          6.9E-09 Ry

     The total energy is the sum of the following terms:

     one-electron contribution =  -23655.47023748 Ry
     hartree contribution      =   11868.50284438 Ry
     xc contribution           =    -572.03970535 Ry
     ewald contribution        =   10078.16809498 Ry
     Hubbard energy            =       0.57238234 Ry
     smearing contrib. (-TS)   =      -0.00025385 Ry

     convergence has been achieved in  14 iterations

     Forces acting on atoms (Ry/au):

     negative rho (up, down):  0.158E+01 0.000E+00
     atom    1 type  1   force =    -0.00834935   -0.00423742   -0.00007290
     atom    2 type  1   force =     0.00014392    0.00390295   -0.00003901
     atom    3 type  2   force =     0.01546166    0.00628831   -0.00000706
     atom    4 type  2   force =     0.01056780    0.00460789    0.00009726
     atom    5 type  1   force =     0.00119858   -0.00415362    0.00039022
     atom    6 type  1   force =    -0.00020831   -0.00268112    0.00000186
     atom    7 type  1   force =     0.00009105    0.00015496    0.00047863
     atom    8 type  1   force =    -0.00413292    0.00262923    0.00020309
     atom    9 type  2   force =     0.00493345   -0.00471011    0.00000258
     atom   10 type  2   force =    -0.00001884   -0.01908095   -0.00077223
     atom   11 type  1   force =    -0.00383343    0.00204228    0.00048915
     atom   12 type  1   force =    -0.00959818    0.01406249    0.00023290
     atom   13 type  1   force =    -0.00110648   -0.00839749   -0.00048106
     atom   14 type  1   force =    -0.00845371   -0.00306442   -0.00017545
     atom   15 type  1   force =     0.00018793    0.00155505   -0.00022257
     atom   16 type  2   force =    -0.01620634    0.00618968   -0.00005052
     atom   17 type  2   force =     0.01047757    0.00483434    0.00001382
     atom   18 type  1   force =     0.00124297   -0.00409184    0.00037381
     atom   19 type  1   force =     0.00016798   -0.00259782    0.00002233
     atom   20 type  1   force =     0.00007096   -0.00383870   -0.00044114
     atom   21 type  1   force =    -0.00400457    0.00258424    0.00008803
     atom   22 type  2   force =    -0.00120525   -0.00459869   -0.00004131
     atom   23 type  2   force =    -0.00019380    0.01274247    0.00011376
     atom   24 type  1   force =     0.00394283    0.00209280    0.00050170
     atom   25 type  1   force =     0.00973231    0.01402446    0.00023961
     atom   26 type  1   force =    -0.00108295   -0.01650588   -0.00026786
     atom   27 type  3   force =    -0.00001026   -0.00002483   -0.00008553
     atom   28 type  3   force =    -0.00001792    0.00008417   -0.00008691
     atom   29 type  3   force =     0.00005542   -0.00027496   -0.00012663
     atom   30 type  3   force =     0.00015048   -0.00048666   -0.00008375
     atom   31 type  1   force =    -0.00000259    0.00094918   -0.00029483

     Total force =     0.001937     Total SCF correction =     0.000351
     SCF correction compared to forces is large: reduce conv_thr to get better values

     bfgs converged in  10 scf cycles and   9 bfgs steps
     (criteria: energy < 0.10E-03, force < 0.10E-02)

     End of BFGS Geometry Optimization

     Final energy   =   -2280.2668749816 Ry
Begin final coordinates

ATOMIC_POSITIONS (crystal)
O0       0.000000000   0.000000000   0.377703246    0   0   1
O0       0.000000000   0.500000000   0.401781490    0   0   1
Pt1      0.250000000   0.500000000   0.451275724    0   0   1
Pt1      0.000000000   0.000000000   0.452723057    0   0   1
O0       0.250000000   0.810000000   0.442936064    0   0   1
O0       0.250000000   0.190000000   0.460598510    0   0   1
O0       0.000000000   0.500000000   0.496766802    0   0   1
O0       0.000000000   0.000000000   0.529812529    0   0   1
Pt1      0.250000000   0.000000000   0.576068367    0   0   1
Pt1      0.000000000   0.500000000   0.574974274    0   0   1
O0       0.250000000   0.690000000   0.565315799    0   0   1
O0       0.250000000   0.310000000   0.586015755    0   0   1
O0       0.000000000   0.000000000   0.621456863    0   0   1
O0       0.500000000   0.000000000   0.377798298    0   0   1
O0       0.500000000   0.500000000   0.401139800    0   0   1
Pt1      0.750000000   0.500000000   0.451280302    0   0   1
Pt1      0.500000000   0.000000000   0.452742327    0   0   1
O0       0.750000000   0.810000000   0.442970735    0   0   1
O0       0.750000000   0.190000000   0.460592611    0   0   1
O0       0.500000000   0.500000000   0.498193109    0   0   1
O0       0.500000000   0.000000000   0.529679946    0   0   1
Pt1      0.750000000   0.000000000   0.576071855    0   0   1
Pt1      0.500000000   0.500000000   0.577467579    0   0   1
O0       0.750000000   0.690000000   0.565296151    0   0   1
O0       0.750000000   0.310000000   0.586019410    0   0   1
O0       0.500000000   0.000000000   0.621470940    0   0   1
H2       0.000103714   0.639997578   0.386069160
H2       0.500110161   0.640448209   0.385787310
H2       0.143112336   0.035272610   0.367733460
H2       0.642673768   0.036723890   0.367759901
O0       0.500125317   0.574766646   0.644168626
End final coordinates

     General routines

     Parallel routines
     Hubbard U routines

   This run was terminated on:  12:28: 8  28Apr2014

   JOB DONE.