     Program PWSCF v.5.0.2 (svn rev. 9656) starts on 29Apr2014 at  5: 7:24

     Current dimensions of program PWSCF are:
     Max number of different atomic species (ntypx) = 10
     Max number of k-points (npk) =  40000
     Max angular momentum in pseudopotentials (lmaxx) =  3
     Reading input from pwscf.in
Warning: card &CELL ignored
Warning: card / ignored

     Subspace diagonalization in iterative solution of the eigenvalue problem:
     a serial algorithm will be used

     bravais-lattice index     =            0
     lattice parameter (alat)  =      12.0187  a.u.
     unit-cell volume          =    7280.5819 (a.u.)^3
     number of atoms/cell      =           32
     number of atomic types    =            3
     number of electrons       =       239.00
     number of Kohn-Sham states=          358
     kinetic-energy cutoff     =      40.0000  Ry
     charge density cutoff     =     500.0000  Ry
     convergence threshold     =      1.0E-06
     mixing beta               =       0.7000
     number of iterations used =            8  plain     mixing
     Exchange-correlation      = SLA  PW   PBE  PBE ( 1 4 3 4 0)
     EXX-fraction              =        0.00
     nstep                     =           50

     celldm(1)=  12.018658  celldm(2)=   0.000000  celldm(3)=   0.000000
     celldm(4)=   0.000000  celldm(5)=   0.000000  celldm(6)=   0.000000

     crystal axes: (cart. coord. in units of alat)
               a(1) = (   1.000000   0.000000   0.000000 )
               a(2) = (   0.000000   1.009517   0.000000 )
               a(3) = (   0.000000   0.000000   4.154171 )

     reciprocal axes: (cart. coord. in units 2 pi/alat)
               b(1) = (  1.000000  0.000000  0.000000 )
               b(2) = (  0.000000  0.990572  0.000000 )
               b(3) = (  0.000000  0.000000  0.240722 )

     PseudoPot. # 1 for O  read from file:
     /home/camp/zhonxu/pseudo/o_pbe_v1.01.uspp.F.UPF
     MD5 check sum: 2bcb18d16ea4b960afae9ec6d52f22d2
     Pseudo is Ultrasoft + core correction, Zval =  6.0
     Generated by new atomic code, or converted to UPF format
     Using radial grid of  737 points,  5 beta functions with:
                l(1) =   0
                l(2) =   0
                l(3) =   1
                l(4) =   1
                l(5) =   2
     Q(r) pseudized with  8 coefficients,  rinner =    0.900   0.900   0.900
                                                       0.900   0.900

     PseudoPot. # 2 for Ir read from file:
     /home/camp/zhonxu/pseudo/ir_pbe_v1.uspp.F.UPF
     MD5 check sum: abf987a9674477536ede83817f8f8b70
     Pseudo is Ultrasoft + core correction, Zval = 15.0
     Generated by new atomic code, or converted to UPF format
     Using radial grid of  983 points,  7 beta functions with:
                l(1) =   0
                l(2) =   0
                l(3) =   1
                l(4) =   1
                l(5) =   1
                l(6) =   2
                l(7) =   2
     Q(r) pseudized with  8 coefficients,  rinner =    1.350   1.350   1.350
                                                       1.350   1.350

     PseudoPot. # 3 for H  read from file:
     /home/camp/zhonxu/pseudo/h_pbe_v1.uspp.F.UPF
     MD5 check sum: 3408e3ff4ec8b0a4e358431e7e038a48
     Pseudo is Ultrasoft, Zval =  1.0
     Generated by new atomic code, or converted to UPF format
     Using radial grid of  615 points,  2 beta functions with:
                l(1) =   0
                l(2) =   0
     Q(r) pseudized with  8 coefficients,  rinner =    0.700

     atomic species   valence    mass     pseudopotential
        O0             6.00    15.99940     O ( 1.00)
        Ir1           15.00   192.22000     Ir( 1.00)
        H2             1.00     1.00794     H ( 1.00)

     Simplified LDA+U calculation (l_max = 2) with parameters (eV):
     atomic species    L          U    alpha       J0     beta
        Ir1            2     0.5000   0.0000   0.0000   0.0000

     No symmetry found

   Cartesian axes

     site n.     atom                  positions (alat units)
         1           O0  tau(   1) = (   0.0000000   0.0000000   1.5715230  )
         2           O0  tau(   2) = (   0.0000000   0.5047586   1.6723863  )
         3           Ir1 tau(   3) = (   0.2500000   0.5047586   1.8804272  )
         4           Ir1 tau(   4) = (   0.0000000   0.0000000   1.8823796  )
         5           O0  tau(   5) = (   0.2500000   0.8177090   1.8809672  )
         6           O0  tau(   6) = (   0.2500000   0.1918083   1.8797625  )
         7           O0  tau(   7) = (   0.0000000   0.5047586   2.0697743  )
         8           O0  tau(   8) = (   0.0000000   0.0000000   2.1967673  )
         9           Ir1 tau(   9) = (   0.2500000   0.0000000   2.3926365  )
        10           Ir1 tau(  10) = (   0.0000000   0.5047586   2.3747736  )
        11           O0  tau(  11) = (   0.2500000   0.6965669   2.3923873  )
        12           O0  tau(  12) = (   0.2500000   0.3129503   2.3927196  )
        13           O0  tau(  13) = (   0.0000000   0.0000000   2.5779541  )
        14           O0  tau(  14) = (   0.5000000   0.0000000   1.5704845  )
        15           O0  tau(  15) = (   0.5000000   0.5047586   1.6698107  )
        16           Ir1 tau(  16) = (   0.7500000   0.5047586   1.8805103  )
        17           Ir1 tau(  17) = (   0.5000000   0.0000000   1.8817565  )
        18           O0  tau(  18) = (   0.7500000   0.8177090   1.8810503  )
        19           O0  tau(  19) = (   0.7500000   0.1918083   1.8797625  )
        20           O0  tau(  20) = (   0.5000000   0.5047586   2.0748424  )
        21           O0  tau(  21) = (   0.5000000   0.0000000   2.1964350  )
        22           Ir1 tau(  22) = (   0.7500000   0.0000000   2.3925119  )
        23           Ir1 tau(  23) = (   0.5000000   0.5047586   2.3910995  )
        24           O0  tau(  24) = (   0.7500000   0.6965669   2.3896040  )
        25           O0  tau(  25) = (   0.7500000   0.3129503   2.3900194  )
        26           O0  tau(  26) = (   0.5000000   0.0000000   2.5760847  )
        27           H2  tau(  27) = (  -0.0000400   0.6399431   1.5942048  )
        28           H2  tau(  28) = (   0.5000100   0.6429817   1.5968219  )
        29           H2  tau(  29) = (   0.1437000   0.0339904   1.5235839  )
        30           H2  tau(  30) = (   0.6431700   0.0357369   1.5224622  )
        31           O0  tau(  31) = (   0.5156900   0.5047586   2.6944786  )
        32           H2  tau(  32) = (   0.3744100   0.5050918   2.7575805  )

     number of k points=    10  Methfessel-Paxton smearing, width (Ry)=  0.0100
                       cart. coord. in units 2pi/alat
        k(    1) = (   0.0000000   0.0000000   0.0000000), wk =   0.1250000
        k(    2) = (   0.0000000   0.2476431   0.0000000), wk =   0.2500000
        k(    3) = (   0.0000000  -0.4952862   0.0000000), wk =   0.1250000
        k(    4) = (   0.2500000   0.0000000   0.0000000), wk =   0.2500000
        k(    5) = (   0.2500000   0.2476431   0.0000000), wk =   0.2500000
        k(    6) = (   0.2500000  -0.4952862   0.0000000), wk =   0.2500000
        k(    7) = (  -0.5000000   0.0000000   0.0000000), wk =   0.1250000
        k(    8) = (  -0.5000000   0.2476431   0.0000000), wk =   0.2500000
        k(    9) = (  -0.5000000  -0.4952862   0.0000000), wk =   0.1250000
        k(   10) = (  -0.2500000   0.2476431   0.0000000), wk =   0.2500000

     Largest allocated arrays     est. size (Mb)     dimensions
     Largest temporary arrays     est. size (Mb)     dimensions

     Check: negative/imaginary core charge=   -0.000003    0.000000

     Initial potential from superposition of free atoms
     Check: negative starting charge=   -3.334647

     starting charge  234.99967, renormalised to  239.00000

     negative rho (up, down):  0.339E+01 0.000E+00
     Number of +U iterations with fixed ns =  0
     Starting occupations:
 --- enter write_ns ---
 LDA+U parameters:
U( 2)     =  0.50000000
alpha( 2) =  0.00000000
atom    3   Tr[ns(na)] =   7.00000
    eigenvalues:
  0.700  0.700  0.700  0.700  0.700
    eigenvectors:
  1.000  0.000  0.000  0.000  0.000
  0.000  1.000  0.000  0.000  0.000
  0.000  0.000  1.000  0.000  0.000
  0.000  0.000  0.000  1.000  0.000
  0.000  0.000  0.000  0.000  1.000
    occupations:
  0.700  0.000  0.000  0.000  0.000
  0.000  0.700  0.000  0.000  0.000
  0.000  0.000  0.700  0.000  0.000
  0.000  0.000  0.000  0.700  0.000
  0.000  0.000  0.000  0.000  0.700
atom    4   Tr[ns(na)] =   7.00000
    eigenvalues:
  0.700  0.700  0.700  0.700  0.700
    eigenvectors:
  1.000  0.000  0.000  0.000  0.000
  0.000  1.000  0.000  0.000  0.000
  0.000  0.000  1.000  0.000  0.000
  0.000  0.000  0.000  1.000  0.000
  0.000  0.000  0.000  0.000  1.000
    occupations:
  0.700  0.000  0.000  0.000  0.000
  0.000  0.700  0.000  0.000  0.000
  0.000  0.000  0.700  0.000  0.000
  0.000  0.000  0.000  0.700  0.000
  0.000  0.000  0.000  0.000  0.700
atom    9   Tr[ns(na)] =   7.00000
    eigenvalues:
  0.700  0.700  0.700  0.700  0.700
    eigenvectors:
  1.000  0.000  0.000  0.000  0.000
  0.000  1.000  0.000  0.000  0.000
  0.000  0.000  1.000  0.000  0.000
  0.000  0.000  0.000  1.000  0.000
  0.000  0.000  0.000  0.000  1.000
    occupations:
  0.700  0.000  0.000  0.000  0.000
  0.000  0.700  0.000  0.000  0.000
  0.000  0.000  0.700  0.000  0.000
  0.000  0.000  0.000  0.700  0.000
  0.000  0.000  0.000  0.000  0.700
atom   10   Tr[ns(na)] =   7.00000
    eigenvalues:
  0.700  0.700  0.700  0.700  0.700
    eigenvectors:
  1.000  0.000  0.000  0.000  0.000
  0.000  1.000  0.000  0.000  0.000
  0.000  0.000  1.000  0.000  0.000
  0.000  0.000  0.000  1.000  0.000
  0.000  0.000  0.000  0.000  1.000
    occupations:
  0.700  0.000  0.000  0.000  0.000
  0.000  0.700  0.000  0.000  0.000
  0.000  0.000  0.700  0.000  0.000
  0.000  0.000  0.000  0.700  0.000
  0.000  0.000  0.000  0.000  0.700
atom   16   Tr[ns(na)] =   7.00000
    eigenvalues:
  0.700  0.700  0.700  0.700  0.700
    eigenvectors:
  1.000  0.000  0.000  0.000  0.000
  0.000  1.000  0.000  0.000  0.000
  0.000  0.000  1.000  0.000  0.000
  0.000  0.000  0.000  1.000  0.000
  0.000  0.000  0.000  0.000  1.000
    occupations:
  0.700  0.000  0.000  0.000  0.000
  0.000  0.700  0.000  0.000  0.000
  0.000  0.000  0.700  0.000  0.000
  0.000  0.000  0.000  0.700  0.000
  0.000  0.000  0.000  0.000  0.700
atom   17   Tr[ns(na)] =   7.00000
    eigenvalues:
  0.700  0.700  0.700  0.700  0.700
    eigenvectors:
  1.000  0.000  0.000  0.000  0.000
  0.000  1.000  0.000  0.000  0.000
  0.000  0.000  1.000  0.000  0.000
  0.000  0.000  0.000  1.000  0.000
  0.000  0.000  0.000  0.000  1.000
    occupations:
  0.700  0.000  0.000  0.000  0.000
  0.000  0.700  0.000  0.000  0.000
  0.000  0.000  0.700  0.000  0.000
  0.000  0.000  0.000  0.700  0.000
  0.000  0.000  0.000  0.000  0.700
atom   22   Tr[ns(na)] =   7.00000
    eigenvalues:
  0.700  0.700  0.700  0.700  0.700
    eigenvectors:
  1.000  0.000  0.000  0.000  0.000
  0.000  1.000  0.000  0.000  0.000
  0.000  0.000  1.000  0.000  0.000
  0.000  0.000  0.000  1.000  0.000
[...]
  0.031  0.000 -0.000  0.975  0.000
  0.001 -0.001  0.000  0.000  0.619
atom    9   Tr[ns(na)] =   8.01443
    eigenvalues:
  0.650  0.665  0.837  0.880  0.975
    eigenvectors:
  0.000  0.143  0.000  0.000  0.857
  1.000  0.000  0.000  0.000  0.000
  0.000  0.000  0.999  0.001  0.000
  0.000  0.856  0.000  0.000  0.143
  0.000  0.000  0.001  0.999  0.000
    occupations:
  0.931 -0.000  0.000 -0.109 -0.001
 -0.000  0.650  0.000  0.000 -0.000
  0.000  0.000  0.837 -0.000 -0.001
 -0.109  0.000 -0.000  0.709  0.001
 -0.001 -0.000 -0.001  0.001  0.880
atom   10   Tr[ns(na)] =   8.01446
    eigenvalues:
  0.605  0.608  0.904  0.912  0.978
    eigenvectors:
  0.992  0.001  0.000  0.000  0.007
  0.000  0.000  1.000  0.000  0.000
  0.000  0.000  0.000  1.000  0.000
  0.007  0.000  0.000  0.000  0.993
  0.001  0.999  0.000  0.000  0.000
    occupations:
  0.608 -0.003  0.001  0.032 -0.000
 -0.003  0.904 -0.000 -0.000 -0.000
  0.001 -0.000  0.912  0.000  0.001
  0.032 -0.000  0.000  0.976  0.000
 -0.000 -0.000  0.001  0.000  0.608
atom   16   Tr[ns(na)] =   8.05728
    eigenvalues:
  0.605  0.631  0.870  0.950  0.971
    eigenvectors:
  0.003  0.185  0.003  0.001  0.809
  0.991  0.008  0.000  0.000  0.000
  0.000  0.000  0.981  0.017  0.003
  0.006  0.807  0.000  0.000  0.187
  0.000  0.000  0.016  0.982  0.002
    occupations:
  0.907  0.005  0.004 -0.132  0.002
  0.005  0.606  0.001  0.000 -0.005
  0.004  0.001  0.872 -0.004 -0.010
 -0.132  0.000 -0.004  0.695 -0.000
  0.002 -0.005 -0.010 -0.000  0.949
atom   17   Tr[ns(na)] =   8.03640
    eigenvalues:
  0.617  0.663  0.858  0.902  0.978
    eigenvectors:
  0.000  0.990  0.000  0.000  0.009
  0.000  0.000  0.059  0.941  0.000
  0.000  0.000  0.941  0.059  0.000
  0.000  0.009  0.000  0.000  0.991
  1.000  0.000  0.000  0.000  0.000
    occupations:
  0.666 -0.003 -0.001  0.031  0.001
 -0.003  0.899  0.010  0.000 -0.001
 -0.001  0.010  0.861 -0.000  0.000
  0.031  0.000 -0.000  0.975  0.000
  0.001 -0.001  0.000  0.000  0.617
atom   22   Tr[ns(na)] =   8.00646
    eigenvalues:
  0.650  0.666  0.830  0.882  0.975
    eigenvectors:
  0.000  0.142  0.000  0.000  0.858
  1.000  0.000  0.000  0.000  0.000
  0.000  0.000  1.000  0.000  0.000
  0.000  0.858  0.000  0.000  0.142
  0.000  0.000  0.000  1.000  0.000
    occupations:
  0.931  0.001 -0.000 -0.108 -0.000
  0.001  0.650  0.000 -0.000 -0.000
 -0.000  0.000  0.830 -0.000  0.001
 -0.108 -0.000 -0.000  0.710  0.000
 -0.000 -0.000  0.001  0.000  0.882
atom   23   Tr[ns(na)] =   8.01377
    eigenvalues:
  0.620  0.667  0.833  0.910  0.978
    eigenvectors:
  0.000  0.990  0.000  0.000  0.010
  0.000  0.000  0.000  1.000  0.000
  0.000  0.000  1.000  0.000  0.000
  0.000  0.010  0.000  0.000  0.990
  1.000  0.000  0.000  0.000  0.000
    occupations:
  0.670  0.005  0.000  0.031 -0.000
  0.005  0.910 -0.000 -0.000 -0.000
  0.000 -0.000  0.833  0.000 -0.001
  0.031 -0.000  0.000  0.975  0.000
 -0.000 -0.000 -0.001  0.000  0.620
N of occupied +U levels =  64.2408701
 --- exit write_ns ---

     Threshold (ethr) on eigenvalues was too large:
     Diagonalizing with lowered threshold

     Davidson diagonalization with overlap
     ethr =  7.25E-08,  avg # of iterations =  1.0

[...]

     total energy              =   -2107.25159366 Ry
     Harris-Foulkes estimate   =   -2107.25159391 Ry
     estimated scf accuracy    <       0.00000104 Ry

     iteration #  9     ecut=    40.00 Ry     beta=0.70
     Davidson diagonalization with overlap
     ethr =  4.33E-10,  avg # of iterations =  1.0

     negative rho (up, down):  0.312E+01 0.000E+00

     End of self-consistent calculation
 --- enter write_ns ---
 LDA+U parameters:
U( 2)     =  0.50000000
alpha( 2) =  0.00000000
atom    3   Tr[ns(na)] =   8.06052
    eigenvalues:
  0.605  0.631  0.872  0.951  0.971
    eigenvectors:
  0.002  0.185  0.003  0.001  0.809
  0.993  0.007  0.000  0.000  0.000
  0.000  0.000  0.977  0.020  0.002
  0.005  0.808  0.000  0.000  0.187
  0.000  0.000  0.020  0.979  0.001
    occupations:
  0.907 -0.005  0.004 -0.133 -0.002
 -0.005  0.605 -0.001 -0.000 -0.005
  0.004 -0.001  0.873 -0.004  0.011
 -0.133 -0.000 -0.004  0.695 -0.000
 -0.002 -0.005  0.011 -0.000  0.950
atom    4   Tr[ns(na)] =   8.03372
    eigenvalues:
  0.618  0.663  0.851  0.906  0.978
    eigenvectors:
  0.000  0.990  0.000  0.000  0.010
  0.000  0.000  0.033  0.967  0.000
  0.000  0.000  0.967  0.033  0.000
  0.000  0.010  0.000  0.000  0.990
  1.000  0.000  0.000  0.000  0.000
    occupations:
  0.666 -0.003 -0.001  0.031  0.001
 -0.003  0.904  0.010  0.000 -0.001
 -0.001  0.010  0.853 -0.000  0.000
  0.031  0.000 -0.000  0.975  0.000
  0.001 -0.001  0.000  0.000  0.618
atom    9   Tr[ns(na)] =   8.01069
    eigenvalues:
  0.650  0.664  0.836  0.880  0.975
    eigenvectors:
  0.000  0.143  0.000  0.000  0.857
  1.000  0.000  0.000  0.000  0.000
  0.000  0.000  0.999  0.001  0.000
  0.000  0.856  0.000  0.000  0.143
  0.000  0.000  0.001  0.999  0.000
    occupations:
  0.931 -0.000  0.000 -0.109 -0.001
 -0.000  0.650  0.000  0.000 -0.000
  0.000  0.000  0.836 -0.000 -0.001
 -0.109  0.000 -0.000  0.709  0.001
 -0.001 -0.000 -0.001  0.001  0.880
atom   10   Tr[ns(na)] =   8.02129
    eigenvalues:
  0.606  0.608  0.905  0.914  0.978
    eigenvectors:
  0.992  0.001  0.000  0.000  0.007
  0.000  0.000  1.000  0.000  0.000
  0.000  0.000  0.000  1.000  0.000
  0.007  0.000  0.000  0.000  0.993
  0.001  0.999  0.000  0.000  0.000
    occupations:
  0.609 -0.003  0.001  0.032 -0.000
 -0.003  0.905 -0.000 -0.000 -0.000
  0.001 -0.000  0.914 -0.000  0.001
  0.032 -0.000 -0.000  0.976  0.000
 -0.000 -0.000  0.001  0.000  0.608
atom   16   Tr[ns(na)] =   8.05964
    eigenvalues:
  0.605  0.632  0.871  0.951  0.971
    eigenvectors:
  0.003  0.185  0.003  0.001  0.809
  0.991  0.008  0.000  0.000  0.000
  0.000  0.000  0.981  0.017  0.003
  0.006  0.807  0.000  0.000  0.187
  0.000  0.000  0.016  0.982  0.002
    occupations:
  0.907  0.005  0.004 -0.132  0.002
  0.005  0.606  0.001  0.000 -0.005
  0.004  0.001  0.872 -0.004 -0.010
 -0.132  0.000 -0.004  0.695 -0.000
  0.002 -0.005 -0.010 -0.000  0.950
atom   17   Tr[ns(na)] =   8.03354
    eigenvalues:
  0.617  0.663  0.857  0.901  0.978
    eigenvectors:
  0.000  0.990  0.000  0.000  0.009
  0.000  0.000  0.058  0.941  0.000
  0.000  0.000  0.941  0.058  0.000
  0.000  0.009  0.000  0.000  0.991
  1.000  0.000  0.000  0.000  0.000
    occupations:
  0.666 -0.003 -0.001  0.031  0.001
 -0.003  0.899  0.010  0.000 -0.001
 -0.001  0.010  0.860 -0.000  0.000
  0.031  0.000 -0.000  0.975  0.000
  0.001 -0.001  0.000  0.000  0.617
atom   22   Tr[ns(na)] =   8.00611
    eigenvalues:
  0.650  0.665  0.830  0.882  0.975
    eigenvectors:
  0.000  0.142  0.000  0.000  0.858
  1.000  0.000  0.000  0.000  0.000
  0.000  0.000  1.000  0.000  0.000
  0.000  0.858  0.000  0.000  0.142
  0.000  0.000  0.000  1.000  0.000
    occupations:
  0.931  0.001 -0.000 -0.108 -0.000
  0.001  0.650  0.000 -0.000 -0.000
 -0.000  0.000  0.830 -0.000  0.001
 -0.108 -0.000 -0.000  0.709  0.000
 -0.000 -0.000  0.001  0.000  0.882
atom   23   Tr[ns(na)] =   8.01646
    eigenvalues:
  0.620  0.667  0.834  0.910  0.978
    eigenvectors:
  0.000  0.990  0.000  0.000  0.010
  0.000  0.000  0.000  1.000  0.000
  0.000  0.000  1.000  0.000  0.000
  0.000  0.010  0.000  0.000  0.990
  1.000  0.000  0.000  0.000  0.000
    occupations:
  0.670  0.005  0.000  0.031 -0.000
  0.005  0.910 -0.000 -0.000 -0.000
  0.000 -0.000  0.834  0.000 -0.001
  0.031 -0.000  0.000  0.975  0.000
 -0.000 -0.000 -0.001  0.000  0.620
N of occupied +U levels =  64.2419784
 --- exit write_ns ---

[...]

          k = 0.2500-0.4953 0.0000 ( 31088 PWs)   bands (ev):

[...]

          k =-0.2500 0.2476 0.0000 ( 31099 PWs)   bands (ev):

   -51.1641 -51.1614 -51.1480 -51.0928 -51.0416 -51.0072 -50.9897 -50.9822
   -50.9754 -50.9658 -50.9140 -50.8539 -50.8430 -50.8405 -50.8067 -50.7968
   -50.7869 -50.7702 -50.7057 -50.6732 -50.6687 -50.6591 -50.6414 -50.4962
   -21.4912 -21.1070 -21.0648 -20.9444 -20.6232 -20.4754 -20.4472 -20.2899
   -20.1886 -20.1543 -20.0873 -19.9348 -19.8928 -19.8538 -19.7513 -19.6835
   -19.5047 -18.6576 -18.5602  -9.7655  -9.6399  -9.5723  -9.2264  -8.8914
    -8.7591  -8.7206  -8.6329  -8.5793  -8.5245  -8.4719  -8.4355  -8.3829
    -8.3299  -7.9993  -7.9321  -7.8444  -7.6860  -7.5324  -7.4483  -7.3066
    -7.1375  -7.0714  -7.0221  -6.6271  -6.4569  -6.3867  -6.2769  -6.1835
    -6.1354  -6.0980  -6.0180  -5.9429  -5.8895  -5.8033  -5.6993  -5.5883
    -5.4917  -5.3963  -5.2324  -5.0290  -4.9426  -4.8397  -4.6942  -4.6597
    -4.4967  -4.4503  -4.2598  -4.1461  -4.1088  -3.9342  -3.7674  -3.6392
    -3.3917  -3.3027  -3.2586  -3.0586  -2.7148  -2.6099  -2.5454  -2.4914
    -2.4468  -2.3810  -2.3387  -2.2613  -2.2218  -2.1778  -2.1315  -1.9806
    -1.9509  -1.7920  -1.5726  -1.4200  -1.1370  -1.0048  -0.8256  -0.8064
    -0.7281  -0.5375  -0.4210  -0.2419  -0.0284   0.9278   0.9642   1.2196
     1.6188   1.7025   2.1268   2.2235   2.6176   2.6690   2.7999   2.8668
     3.0998   3.2613   3.3055   3.6584   3.7949   4.2999   4.8613   5.2852
     5.4500   5.5992   5.7023   6.0306   6.2890   6.5651   6.6545   6.6953
     6.7623   6.9470   7.1584   7.2333   7.3509   7.4175   7.5410   7.6785
     7.9144   8.0329   8.0705   8.1395   8.2548   8.4529   8.5000   8.5388
     8.7533   8.7794   8.8292   8.8995   8.9039   8.9217   8.9277   8.9401
     8.9575   9.0494   9.0647   9.0743   9.0795   9.1538   9.1964   9.4060
     9.5291   9.5824   9.6818   9.7396   9.8115   9.9045  10.0582  10.1344
    10.2174  10.3160  10.3756  10.4594  10.4874  10.5207  10.6021  10.8115
    10.8551  10.9812  10.9954  11.0675  11.1324  11.2311  11.3930  11.5232
    11.5638  11.6733  11.6983  11.7746  11.8187  11.9725  12.1588  12.1902
    12.2424  12.2956  12.3551  12.4261  12.5463  12.6260  12.6452  12.7218
    12.7694  12.8037  12.9129  12.9838  13.0540  13.1109  13.1796  13.2016
    13.2955  13.4060  13.4356  13.5979  13.6349  13.7697  13.8610  13.9141
    13.9785  14.0441  14.1265  14.2046  14.2970  14.3846  14.4476  14.5302
    14.6819  14.7291  14.7713  14.9032  14.9954  15.1479  15.2130  15.2940
    15.4031  15.4266  15.5089  15.5513  15.6097  15.7646  15.8062  15.8563
    15.9065  15.9588  15.9833  16.0835  16.1247  16.1601  16.2149  16.2919
    16.3651  16.4032  16.4198  16.4905  16.5337  16.6326  16.7008  16.7539
    16.8000  16.8929  17.0948  17.1332  17.1671  17.2978  17.3205  17.4081
    17.4717  17.5379  17.5517  17.6182  17.6773  17.7214  17.7541  17.8537
    17.9180  17.9672  18.0138  18.1292  18.2064  18.2547  18.3047  18.3689
    18.4753  18.5581  18.6262  18.6702  18.7588  18.8565  18.9251  18.9650
    19.0337  19.1024  19.1308  19.2175  19.2659  19.3250  19.3747  19.5197
    19.5608  19.6143  19.6955  19.7332  19.8529  19.9139  19.9855  20.0555
    20.1161  20.2166  20.3381  20.3773  20.4335  20.5507  20.6117  20.7074
    20.7427  20.7709  20.8543  20.8811  20.9237  20.9886  21.0622  21.1255
    21.1840  21.2801  21.3036  21.3714  21.4295  21.4637  21.5227  21.5669
    21.6922  21.7407  21.8068  21.8360  21.8981  21.9609

     the Fermi energy is    -0.8174 ev

!    total energy              =   -2107.25159353 Ry
     Harris-Foulkes estimate   =   -2107.25159384 Ry
     estimated scf accuracy    <       0.00000034 Ry

     The total energy is the sum of the following terms:

     one-electron contribution =  -22718.31347687 Ry
     hartree contribution      =   11402.46033590 Ry
     xc contribution           =    -577.10612240 Ry
     ewald contribution        =    9785.50568800 Ry
     Hubbard energy            =       0.20219980 Ry
     smearing contrib. (-TS)   =      -0.00021796 Ry

     convergence has been achieved in   9 iterations

     Forces acting on atoms (Ry/au):

     negative rho (up, down):  0.312E+01 0.000E+00
     atom    1 type  1   force =    -0.00686674   -0.01376864    0.00018146
     atom    2 type  1   force =     0.00045136    0.00522015   -0.00006626
     atom    3 type  2   force =     0.03251237    0.00645939    0.00046462
     atom    4 type  2   force =     0.00926889    0.00845956    0.00034919
     atom    5 type  1   force =    -0.00243152   -0.01666641    0.00007556
     atom    6 type  1   force =     0.00343462    0.01426532    0.00001755
     atom    7 type  1   force =     0.00133872   -0.00170241    0.00090271
     atom    8 type  1   force =    -0.00258587   -0.00070864   -0.00009329
     atom    9 type  2   force =     0.00811255    0.00020308   -0.00000822
     atom   10 type  2   force =    -0.00739824   -0.00136233    0.00036947
     atom   11 type  1   force =    -0.00727198    0.00767076   -0.00021340
     atom   12 type  1   force =    -0.00715627   -0.00739018   -0.00022505
     atom   13 type  1   force =    -0.00091607   -0.00010513   -0.00025045
     atom   14 type  1   force =    -0.00772436   -0.01450593    0.00005527
     atom   15 type  1   force =     0.00039526    0.00669314    0.00022344
     atom   16 type  2   force =    -0.03353691    0.00579736    0.00034470
     atom   17 type  2   force =     0.00983186    0.00865379    0.00021648
     atom   18 type  1   force =    -0.00187898   -0.01647538    0.00005568
     atom   19 type  1   force =     0.00304523    0.01494082   -0.00000464
     atom   20 type  1   force =    -0.00083000   -0.00481216   -0.00018469
     atom   21 type  1   force =    -0.00404087   -0.00059183    0.00010392
     atom   22 type  2   force =    -0.00530587    0.00045229   -0.00011961
     atom   23 type  2   force =     0.00254326   -0.00042393   -0.00042665
     atom   24 type  1   force =     0.00876216    0.01112005   -0.00077749
     atom   25 type  1   force =     0.00933736   -0.01116802   -0.00077357
     atom   26 type  1   force =    -0.00125158   -0.00020205    0.00000645
     atom   27 type  3   force =    -0.00002582    0.00008328    0.00006618
     atom   28 type  3   force =     0.00000601   -0.00019630    0.00015658
     atom   29 type  3   force =    -0.00027980   -0.00007289    0.00006410
     atom   30 type  3   force =    -0.00028693    0.00010899    0.00007165
     atom   31 type  1   force =     0.00003315   -0.00001155   -0.00074313
     atom   32 type  3   force =     0.00071503    0.00003580    0.00016143

     Total force =     0.002126     Total SCF correction =     0.001243
     SCF correction compared to forces is large: reduce conv_thr to get better values

     bfgs converged in   2 scf cycles and   1 bfgs steps
     (criteria: energy < 0.10E-03, force < 0.10E-02)

     End of BFGS Geometry Optimization

     Final energy   =   -2107.2515935296 Ry
Begin final coordinates

ATOMIC_POSITIONS (crystal)
O0       0.000000000   0.000000000   0.378317685    0   0   1
O0       0.000000000   0.500000000   0.402576692    0   0   1
Ir1      0.250000000   0.500000000   0.452642625    0   0   1
Ir1      0.000000000   0.000000000   0.453121369    0   0   1
O0       0.250000000   0.810000000   0.452794700    0   0   1
O0       0.250000000   0.190000000   0.452503379    0   0   1
O0       0.000000000   0.500000000   0.498310153    0   0   1
O0       0.000000000   0.000000000   0.528817265    0   0   1
Ir1      0.250000000   0.000000000   0.575948442    0   0   1
Ir1      0.000000000   0.500000000   0.571642429    0   0   1
O0       0.250000000   0.690000000   0.575897662    0   0   1
O0       0.250000000   0.310000000   0.575977416    0   0   1
O0       0.000000000   0.000000000   0.620567251    0   0   1
O0       0.500000000   0.000000000   0.378065650    0   0   1
O0       0.500000000   0.500000000   0.401968219    0   0   1
Ir1      0.750000000   0.500000000   0.452656880    0   0   1
Ir1      0.500000000   0.000000000   0.452963503    0   0   1
O0       0.750000000   0.810000000   0.452814946    0   0   1
O0       0.750000000   0.190000000   0.452503612    0   0   1
O0       0.500000000   0.500000000   0.499478704    0   0   1
O0       0.500000000   0.000000000   0.528746266    0   0   1
Ir1      0.750000000   0.000000000   0.575916319    0   0   1
Ir1      0.500000000   0.500000000   0.575557973    0   0   1
O0       0.750000000   0.690000000   0.575215733    0   0   1
O0       0.750000000   0.310000000   0.575315823    0   0   1
O0       0.500000000   0.000000000   0.620122524    0   0   1
H2      -0.000042929   0.633901123   0.383764221
H2       0.500010436   0.636881299   0.384396826
H2       0.143707193   0.033671020   0.366757985
H2       0.643159627   0.035412479   0.366489747
O0       0.515721685   0.499998903   0.648610237
H2       0.374437879   0.500333211   0.663817762
End final coordinates

     General routines

     Parallel routines
     Hubbard U routines

   This run was terminated on:   8: 7: 2  29Apr2014

   JOB DONE.