     Program PWSCF v.5.0.2 (svn rev. 9656) starts on 17Apr2014 at  2:51:33

     Current dimensions of program PWSCF are:
     Max number of different atomic species (ntypx) = 10
     Max number of k-points (npk) =  40000
     Max angular momentum in pseudopotentials (lmaxx) =  3
     Reading input from pwscf.in
Warning: card &CELL ignored
Warning: card / ignored

     Subspace diagonalization in iterative solution of the eigenvalue problem:
     a serial algorithm will be used

     bravais-lattice index     =            0
     lattice parameter (alat)  =      10.9604  a.u.
     unit-cell volume          =    6350.6732 (a.u.)^3
     number of atoms/cell      =           32
     number of atomic types    =            3
     number of electrons       =       231.00 (up: 123.00, down: 108.00)
     number of Kohn-Sham states=          334
     kinetic-energy cutoff     =      40.0000  Ry
     charge density cutoff     =     500.0000  Ry
     convergence threshold     =      1.0E-06
     mixing beta               =       0.7000
     number of iterations used =            8  plain     mixing
     Exchange-correlation      = SLA  PW   PBE  PBE ( 1 4 3 4 0)
     EXX-fraction              =        0.00
     nstep                     =           50

     celldm(1)=  10.960412  celldm(2)=   0.000000  celldm(3)=   0.000000
     celldm(4)=   0.000000  celldm(5)=   0.000000  celldm(6)=   0.000000

     crystal axes: (cart. coord. in units of alat)
               a(1) = (   1.000000   0.000000   0.000000 )
               a(2) = (   0.000000   1.067975   0.000000 )
               a(3) = (   0.000000   0.000000   4.516251 )

     reciprocal axes: (cart. coord. in units 2 pi/alat)
               b(1) = (  1.000000  0.000000  0.000000 )
               b(2) = (  0.000000  0.936351  0.000000 )
               b(3) = (  0.000000  0.000000  0.221423 )

     PseudoPot. # 1 for O  read from file:
     /home/camp/zhonxu/pseudo/o_pbe_v1.01.uspp.F.UPF
     MD5 check sum: 2bcb18d16ea4b960afae9ec6d52f22d2
     Pseudo is Ultrasoft + core correction, Zval =  6.0
     Generated by new atomic code, or converted to UPF format
     Using radial grid of  737 points,  5 beta functions with:
                l(1) =   0
                l(2) =   0
                l(3) =   1
                l(4) =   1
                l(5) =   2
     Q(r) pseudized with  8 coefficients,  rinner =    0.900   0.900   0.900
                                                       0.900   0.900

     PseudoPot. # 2 for Cr read from file:
     /home/camp/zhonxu/pseudo/cr_pbe_v1.uspp.F.UPF
     MD5 check sum: 68b6f918d1762dccfb11451fe85b0e0e
     Pseudo is Ultrasoft + core correction, Zval = 14.0
     Generated by new atomic code, or converted to UPF format
     Using radial grid of  857 points,  6 beta functions with:
                l(1) =   0
                l(2) =   0
                l(3) =   1
                l(4) =   1
                l(5) =   2
                l(6) =   2
     Q(r) pseudized with  6 coefficients,  rinner =    1.000   1.000   1.000
                                                       1.000   1.000

     PseudoPot. # 3 for H  read from file:
     /home/camp/zhonxu/pseudo/h_pbe_v1.uspp.F.UPF
     MD5 check sum: 3408e3ff4ec8b0a4e358431e7e038a48
     Pseudo is Ultrasoft, Zval =  1.0
     Generated by new atomic code, or converted to UPF format
     Using radial grid of  615 points,  2 beta functions with:
                l(1) =   0
                l(2) =   0
     Q(r) pseudized with  8 coefficients,  rinner =    0.700

     atomic species   valence    mass     pseudopotential
        O0             6.00    15.99940     O ( 1.00)
        Cr1           14.00    51.99600     Cr( 1.00)
        H2             1.00     1.00794     H ( 1.00)

     Starting magnetic structure
     atomic species   magnetization
        O0           0.000
        Cr1          0.600
        H2           0.000

     No symmetry found

   Cartesian axes

     site n.     atom                  positions (alat units)
         1           O0  tau(   1) = (   0.0000000   0.0000000   1.7072783  )
         2           O0  tau(   2) = (   0.0000000   0.5339875   1.8068617  )
         3           Cr1 tau(   3) = (   0.2500000   0.5339875   2.0386808  )
         4           Cr1 tau(   4) = (   0.0000000   0.0000000   2.0275709  )
         5           O0  tau(   5) = (   0.2500000   0.8543801   2.0319968  )
         6           O0  tau(   6) = (   0.2500000   0.2135950   2.0327194  )
         7           O0  tau(   7) = (   0.0000000   0.5339875   2.2463381  )
         8           O0  tau(   8) = (   0.0000000   0.0000000   2.3629476  )
         9           Cr1 tau(   9) = (   0.2500000   0.0000000   2.5576884  )
        10           Cr1 tau(  10) = (   0.0000000   0.5339875   2.5508237  )
        11           O0  tau(  11) = (   0.2500000   0.7475825   2.5906119  )
        12           O0  tau(  12) = (   0.2500000   0.3203925   2.5906119  )
        13           O0  tau(  13) = (   0.0000000   0.0000000   2.7912689  )
        14           O0  tau(  14) = (   0.5000000   0.0000000   1.7073687  )
        15           O0  tau(  15) = (   0.5000000   0.5339875   1.8079456  )
        16           Cr1 tau(  16) = (   0.7500000   0.5339875   2.0392228  )
        17           Cr1 tau(  17) = (   0.5000000   0.0000000   2.0278418  )
        18           O0  tau(  18) = (   0.7500000   0.8543801   2.0322226  )
        19           O0  tau(  19) = (   0.7500000   0.2135950   2.0329904  )
        20           O0  tau(  20) = (   0.5000000   0.5339875   2.2545125  )
        21           O0  tau(  21) = (   0.5000000   0.0000000   2.3629928  )
        22           Cr1 tau(  22) = (   0.7500000   0.0000000   2.6359099  )
        23           Cr1 tau(  23) = (   0.5000000   0.5339875   2.6017218  )
        24           O0  tau(  24) = (   0.7500000   0.7475825   2.5939990  )
        25           O0  tau(  25) = (   0.7500000   0.3203925   2.5937281  )
        26           O0  tau(  26) = (   0.5000000   0.0000000   2.7881075  )
        27           H2  tau(  27) = (  -0.0006000   0.6813574   1.7205110  )
        28           H2  tau(  28) = (   0.4996600   0.6814429   1.7215045  )
        29           H2  tau(  29) = (   0.1566200   0.0338121   1.6479348  )
        30           H2  tau(  30) = (   0.6567100   0.0335237   1.6482058  )
        31           O0  tau(  31) = (   0.5144500   0.5336458   2.9143367  )
        32           H2  tau(  32) = (   0.3645600   0.5319477   2.9931001  )

     number of k points=    20  Methfessel-Paxton smearing, width (Ry)=  0.0100
                       cart. coord. in units 2pi/alat
        k(    1) = (   0.0000000   0.0000000   0.0000000), wk =   0.0625000
        k(    2) = (   0.0000000   0.2340879   0.0000000), wk =   0.1250000
        k(    3) = (   0.0000000  -0.4681757   0.0000000), wk =   0.0625000
        k(    4) = (   0.2500000   0.0000000   0.0000000), wk =   0.1250000
        k(    5) = (   0.2500000   0.2340879   0.0000000), wk =   0.1250000
        k(    6) = (   0.2500000  -0.4681757   0.0000000), wk =   0.1250000
        k(    7) = (  -0.5000000   0.0000000   0.0000000), wk =   0.0625000
        k(    8) = (  -0.5000000   0.2340879   0.0000000), wk =   0.1250000
        k(    9) = (  -0.5000000  -0.4681757   0.0000000), wk =   0.0625000
        k(   10) = (  -0.2500000   0.2340879   0.0000000), wk =   0.1250000
        k(   11) = (   0.0000000   0.0000000   0.0000000), wk =   0.0625000
        k(   12) = (   0.0000000   0.2340879   0.0000000), wk =   0.1250000
        k(   13) = (   0.0000000  -0.4681757   0.0000000), wk =   0.0625000
        k(   14) = (   0.2500000   0.0000000   0.0000000), wk =   0.1250000
        k(   15) = (   0.2500000   0.2340879   0.0000000), wk =   0.1250000
        k(   16) = (   0.2500000  -0.4681757   0.0000000), wk =   0.1250000
        k(   17) = (  -0.5000000   0.0000000   0.0000000), wk =   0.0625000
        k(   18) = (  -0.5000000   0.2340879   0.0000000), wk =   0.1250000
        k(   19) = (  -0.5000000  -0.4681757   0.0000000), wk =   0.0625000
        k(   20) = (  -0.2500000   0.2340879   0.0000000), wk =   0.1250000

     Largest allocated arrays     est. size (Mb)     dimensions
     Largest temporary arrays     est. size (Mb)     dimensions

     Check: negative/imaginary core charge=   -0.000012    0.000000

     Initial potential from superposition of free atoms
     Check: negative starting charge=(component1):   -0.001476
     Check: negative starting charge=(component2):   -0.000504

     starting charge  222.99983, renormalised to  231.00000

     negative rho (up, down):  0.153E-02 0.522E-03
     Starting wfc are  161 randomized atomic wfcs

     Self-consistent Calculation

     iteration #  1     ecut=    40.00 Ry     beta=0.70
     Davidson diagonalization with overlap
     ethr =  1.00E-02,  avg # of iterations =  5.3

     negative rho (up, down):  0.303E-02 0.117E-02

     total energy              =   -2006.21410033 Ry
     Harris-Foulkes estimate   =   -2023.81087454 Ry
     estimated scf accuracy    <      30.99393270 Ry

     total magnetization       =    15.00 Bohr mag/cell
     absolute magnetization    =    27.44 Bohr mag/cell

[...]

     End of self-consistent calculation

 ------ SPIN UP ------------

          k = 0.0000 0.0000 0.0000 ( 27003 PWs)   bands (ev):

   -75.4150 -75.1032 -74.9940 -74.9629 -74.9275 -74.9211 -74.9107 -74.9069
   -46.8158 -46.6937 -46.6839 -46.5928 -46.4149 -46.3897 -46.3395 -46.3163
   -46.3059 -46.3044 -46.3022 -46.2946 -46.2925 -46.2394 -46.2376 -46.2329
   -46.2165 -46.2113 -46.2016 -46.1979 -46.1915 -46.1903 -46.1318 -46.1048
   -21.3909 -20.9342 -20.6199 -20.4966 -20.4280 -20.0765 -19.9214 -19.8756
   -19.7855 -19.7588 -19.6321 -19.6148 -19.4958 -19.4585 -19.3357 -19.2982
   -19.2577 -19.1194 -19.0457  -9.2272  -8.9766  -8.8614  -8.7072  -8.5878
    -8.2164  -7.9656  -7.8950  -7.8326  -7.7789  -7.7331  -7.7263  -7.5990
    -7.4981  -7.2193  -7.0412  -7.0074  -6.9528  -6.9482  -6.8921  -6.8465
    -6.6025  -6.5168  -6.5067  -6.2247  -6.1745  -5.9125  -5.7709  -5.6921
    -5.4783  -5.3834  -5.3030  -5.2716  -5.1806  -4.9696  -4.9527  -4.8650
    -4.7749  -4.7587  -4.6305  -4.5420  -4.3925  -4.2987  -4.2513  -4.1217
    -4.0176  -3.9998  -3.9239  -3.9017  -3.7546  -3.6699  -3.6468  -3.6044
    -3.3871  -3.3212  -2.9629  -2.9395  -2.9007  -2.5780  -2.5449  -2.4831
    -2.3369  -2.1945  -2.1608  -2.1034  -2.0396  -2.0339  -1.9744  -1.8418
    -1.6993  -1.4907  -1.4539  -1.3855  -1.3381  -1.1041  -0.9967  -0.9569
    -0.9093  -0.6800  -0.5471  -0.3724  -0.2944   0.5366   0.6264   0.9790
     1.2805   1.2961   1.4871   1.5133   1.6095   1.7496   1.9534   2.0583
     2.1036   2.2283   2.3090   2.7379   3.2220   3.2927   3.7731   4.2544
     4.7860   5.5468   6.1196   6.3598   6.7473   6.8545   7.1310   7.2384
     7.2652   7.2896   7.5106   7.6158   7.6964   7.8629   8.0448   8.1252
     8.1776   8.2203   8.3183   8.4783   8.5580   8.6181   8.7473   8.8589
     8.9395   9.2231   9.2776   9.3433   9.4420   9.4866   9.5841   9.7079
     9.8759   9.9405  10.0480  10.0850  10.1692  10.3208  10.4986  10.5555
[...]
    13.0957  13.1154  13.1962  13.2298  13.3052  13.3237  13.4539  13.5535
    13.6750  13.7541  13.7824  13.8855  13.9558  13.9728  14.1603  14.2530
    14.2938  14.3324  14.4695  14.5413  14.5642  14.6822  14.7567  14.8743
    14.9339  15.0264  15.0549  15.1551  15.2306  15.2955  15.3449  15.5189
    15.5576  15.6060  15.7860  15.8654  16.1282  16.2022  16.2712  16.4016
    16.4078  16.4442  16.6150  16.8201  16.8851  16.9436  17.0034  17.0674
    17.1042  17.1807  17.3732  17.4667  17.5892  17.6996  17.7963  17.8443
    17.9113  17.9962  18.0483  18.1717  18.2878  18.3233  18.5118  18.5698
    18.6949  18.7451  18.8006  18.8345  18.9740  19.0580  19.1453  19.2254
    19.2688  19.3143  19.4335  19.4541  19.4743  19.6399  19.7080  19.7473
    19.8295  19.8987  19.9829  20.0346  20.0739  20.2073  20.2813  20.3304
    20.3972  20.4387  20.4896  20.6270  20.6979  20.7470  20.8970  20.9874
    21.0346  21.0596  21.1671  21.1833  21.2444  21.3292  21.3825  21.4780
    21.4994  21.5280  21.5659  21.6008  21.7261  21.7785

[...]

          k =-0.5000 0.0000 0.0000 ( 27158 PWs)   bands (ev):

[...]

 ------ SPIN DOWN ----------

[...]

     the spin up/dw Fermi energies are    -1.3907   -2.6054 ev

!    total energy              =   -2027.10185007 Ry
     Harris-Foulkes estimate   =   -2027.10185029 Ry
     estimated scf accuracy    <       0.00000026 Ry

     The total energy is the sum of the following terms:

     one-electron contribution =  -24254.54136558 Ry
     hartree contribution      =   12146.73192435 Ry
     xc contribution           =    -322.59152092 Ry
     ewald contribution        =   10403.29871254 Ry
     smearing contrib. (-TS)   =       0.00039953 Ry

[...]

     convergence has been achieved in  68 iterations

     Forces acting on atoms (Ry/au):

     negative rho (up, down):  0.465E-02 0.169E-02
     atom    1 type  1   force =    -0.00304897   -0.01243811   -0.00028968
     atom    2 type  1   force =    -0.00031292    0.00771804   -0.00041103
     atom    3 type  2   force =     0.04202932   -0.00444855    0.00008716
     atom    4 type  2   force =    -0.00487029    0.00797655    0.00021097
     atom    5 type  1   force =     0.00133840    0.00914077    0.00000538
     atom    6 type  1   force =    -0.00181014   -0.00657331   -0.00002677
     atom    7 type  1   force =     0.00215958   -0.00142253    0.00110942
     atom    8 type  1   force =    -0.00308296   -0.00111505    0.00014573
     atom    9 type  2   force =     0.00312297    0.00076099    0.00018105
     atom   10 type  2   force =    -0.00333125    0.00001572    0.00095955
     atom   11 type  1   force =    -0.02392598   -0.03221946    0.00012565
     atom   12 type  1   force =    -0.02397176    0.03171079    0.00015681
     atom   13 type  1   force =    -0.04633639    0.00005965   -0.00145953
     atom   14 type  1   force =    -0.00437266   -0.01252647   -0.00051790
     atom   15 type  1   force =     0.00058658    0.00785798    0.00001230
     atom   16 type  2   force =    -0.04414494   -0.00367305    0.00009039
     atom   17 type  2   force =     0.00540157    0.00795642    0.00043765
     atom   18 type  1   force =     0.00463465    0.00914549   -0.00001800
     atom   19 type  1   force =     0.00148548   -0.00715706   -0.00001622
     atom   20 type  1   force =     0.00050674   -0.00158036   -0.00025826
     atom   21 type  1   force =     0.00149522   -0.00006672    0.00043752
     atom   22 type  2   force =     0.00228978    0.00013711    0.00117226
     atom   23 type  2   force =    -0.00540900    0.00053731    0.00131934
     atom   24 type  1   force =     0.02628147   -0.01905753   -0.00087830
     atom   25 type  1   force =     0.02659329    0.01896472   -0.00090872
     atom   26 type  1   force =     0.04699214   -0.00008738   -0.00147011
     atom   27 type  3   force =     0.00001326    0.00042102   -0.00006482
     atom   28 type  3   force =    -0.00000857    0.00009474    0.00005494
     atom   29 type  3   force =     0.00033025   -0.00002883   -0.00059962
     atom   30 type  3   force =     0.00015305   -0.00001744   -0.00054165
     atom   31 type  1   force =    -0.00062292   -0.00001121    0.00082919
     atom   32 type  3   force =    -0.00016500   -0.00007423    0.00012532

     Total force =     0.003793     Total SCF correction =     0.001934
     SCF correction compared to forces is large: reduce conv_thr to get better values

     BFGS Geometry Optimization

     number of scf cycles    =   1
     number of bfgs steps    =   0

     energy   new            =   -2027.1018500709 Ry

     new trust radius        =       0.0014701110 bohr
     new conv_thr            =       0.0000010000 Ry

ATOMIC_POSITIONS (crystal)
O0       0.000000000   0.000000000   0.378024148    0   0   1
O0       0.000000000   0.500000000   0.400071696    0   0   1
Cr1      0.250000000   0.500000000   0.451411761    0   0   1
Cr1      0.000000000   0.000000000   0.448954262    0   0   1
O0       0.250000000   0.800000000   0.449930109    0   0   1
O0       0.250000000   0.200000000   0.450089459    0   0   1
O0       0.000000000   0.500000000   0.497412412    0   0   1
O0       0.000000000   0.000000000   0.523212944    0   0   1
Cr1      0.250000000   0.000000000   0.566333658    0   0   1
Cr1      0.000000000   0.500000000   0.564829385    0   0   1
O0       0.250000000   0.700000000   0.573622538    0   0   1
O0       0.250000000   0.300000000   0.573623168    0   0   1
O0       0.000000000   0.000000000   0.618020514    0   0   1
O0       0.500000000   0.000000000   0.378039537    0   0   1
O0       0.500000000   0.500000000   0.400320248    0   0   1
Cr1      0.750000000   0.500000000   0.451531826    0   0   1
Cr1      0.500000000   0.000000000   0.449018841    0   0   1
O0       0.750000000   0.800000000   0.449979636    0   0   1
O0       0.750000000   0.200000000   0.450149672    0   0   1
O0       0.500000000   0.500000000   0.499194783    0   0   1
O0       0.500000000   0.000000000   0.523228839    0   0   1
Cr1      0.750000000   0.000000000   0.583673682    0   0   1
Cr1      0.500000000   0.500000000   0.576106653    0   0   1
O0       0.750000000   0.700000000   0.574352257    0   0   1
O0       0.750000000   0.300000000   0.574291642    0   0   1
O0       0.500000000   0.000000000   0.617320301    0   0   1
H2      -0.000598790   0.638025968   0.380958691
H2       0.499659218   0.638078093   0.381181110
H2       0.156650131   0.031657537   0.364877886
H2       0.656723964   0.031388510   0.364939058
O0       0.514393166   0.499679042   0.645316751
H2       0.364544946   0.498083659   0.662742532

     Check: negative starting charge=(component1):   -0.001898
     NEW-OLD atomic charge density approx. for the potential

     Check: negative/imaginary core charge=   -0.000012    0.000000
     Check: negative starting charge=(component1):   -0.001898

[...]

     Self-consistent Calculation

[...]

     total energy              =   -2027.10186043 Ry
     Harris-Foulkes estimate   =   -2027.10186020 Ry
     estimated scf accuracy    <       0.00000104 Ry

[...]

     iteration # 10     ecut=    40.00 Ry     beta=0.70
     Davidson diagonalization with overlap
     ethr =  4.52E-10,  avg # of iterations =  1.0

     negative rho (up, down):  0.465E-02 0.169E-02

     End of self-consistent calculation

 ------ SPIN UP ------------

[...]

 ------ SPIN DOWN ----------

[...]

          k = 0.2500-0.4682 0.0000 ( 27150 PWs)   bands (ev):

[...]

          k =-0.2500 0.2341 0.0000 ( 27132 PWs)   bands (ev):

   -74.3976 -72.7697 -72.7292 -72.6683 -72.6552 -72.5686 -72.4979 -72.4810
   -46.0446 -45.6825 -45.4857 -44.4731 -44.2907 -44.2794 -44.2657 -44.2444
   -44.1651 -44.1171 -44.0981 -44.0032 -43.9980 -43.9872 -43.9360 -43.8560
   -43.8538 -43.8460 -43.8423 -43.8162 -43.7156 -43.7106 -43.7061 -43.5739
   -21.2066 -20.7527 -20.6466 -20.5508 -20.4141 -20.1689 -20.0296 -19.9439
   -19.8868 -19.8425 -19.7256 -19.6705 -19.5263 -19.5089 -19.4942 -19.3938
   -19.3337 -19.2650 -19.1533  -8.8052  -8.5341  -8.1824  -8.1507  -7.9974
    -7.9555  -7.7072  -7.6096  -7.5892  -7.4864  -7.3777  -7.3322  -7.2037
    -7.1131  -6.9740  -6.8992  -6.8175  -6.7262  -6.6503  -6.4502  -6.4059
    -6.2990  -6.2426  -6.0647  -5.9305  -5.7928  -5.7123  -5.5917  -5.4514
    -5.3817  -5.3328  -5.2973  -5.2538  -5.1771  -5.0313  -4.9896  -4.9480
    -4.8285  -4.7600  -4.5441  -4.4229  -4.3726  -4.2241  -4.1597  -4.0895
    -4.0009  -3.9622  -3.8990  -3.7937  -3.6721  -3.5459  -3.5087  -3.4652
    -3.1976  -3.1658  -3.0388  -2.7921  -0.8508  -0.6114  -0.5710  -0.2830
    -0.2509  -0.1305  -0.0578   0.0041   0.0320   0.1128   0.2085   0.2443
     0.3322   0.3979   0.4959   0.5432   0.5806   0.6312   0.6709   0.7556
     0.8096   0.8872   1.0413   1.0865   1.3327   1.3984   1.7455   1.9695
     2.0631   2.3791   2.5403   2.5920   2.6940   2.8141   2.9088   2.9833
     3.0688   3.2719   3.5308   3.6273   3.8827   3.9255   4.3398   4.7991
     5.3265   5.7023   5.8562   5.8960   6.1724   6.2792   6.4298   6.5798
     6.7609   6.9035   7.0300   7.3195   7.4555   7.6742   7.8844   8.0139
     8.1338   8.3265   8.3963   8.5227   8.6727   8.8088   8.9984   9.1484
     9.2714   9.3305   9.4806   9.5716   9.6662   9.8224   9.8682  10.0296
    10.1385  10.2463  10.3389  10.4587  10.5358  10.6163  10.7211  10.8364
    10.9374  11.0212  11.1364  11.2409  11.2783  11.4316  11.4905  11.6020
    11.6736  11.7563  11.9013  11.9941  12.0905  12.1508  12.1799  12.2762
    12.3538  12.4245  12.5880  12.6784  12.7267  12.8378  12.9173  12.9788
    13.0172  13.0906  13.1688  13.1975  13.2270  13.3261  13.3620  13.4571
    13.5388  13.6421  13.7304  13.8029  13.8881  13.9062  14.0267  14.0796
    14.1310  14.2335  14.3745  14.4936  14.5569  14.6093  14.6706  14.7821
    14.8530  14.8844  15.0013  15.0818  15.1060  15.2734  15.3741  15.4291
    15.5342  15.5977  15.6386  15.7265  15.7532  15.8027  15.8933  15.9992
    16.0102  16.1265  16.2280  16.2721  16.3157  16.4254  16.4921  16.5197
    16.6229  16.7218  16.7638  16.8425  16.8850  16.9645  17.0198  17.1313
    17.2215  17.2444  17.3134  17.4261  17.4571  17.5252  17.5690  17.6193
    17.7214  17.7499  17.7699  17.8561  17.9474  18.0543  18.1108  18.1707
    18.2401  18.3041  18.3584  18.4004  18.4442  18.6209  18.7293  18.7847
    18.8299  18.9026  18.9391  19.0134  19.0955  19.1355  19.2487  19.2980
    19.4018  19.4432  19.5156  19.5882  19.6361  19.6648  19.7426  19.8425
    19.8747  20.0021  20.1060  20.1836  20.2427  20.3377  20.3848  20.5130
    20.5901  20.7084  20.7807  20.8280  20.9039  20.9538  21.0426  21.1302
    21.1970  21.2337  21.3362  21.3949  21.4164  21.5224

     the spin up/dw Fermi energies are    -1.3898   -2.6044 ev

!    total energy              =   -2027.10186022 Ry
     Harris-Foulkes estimate   =   -2027.10186054 Ry
     estimated scf accuracy    <       0.00000040 Ry

     The total energy is the sum of the following terms:

     one-electron contribution =  -24254.12260734 Ry
     hartree contribution      =   12146.53305191 Ry
     xc contribution           =    -322.59242366 Ry
     ewald contribution        =   10403.07971992 Ry
     smearing contrib. (-TS)   =       0.00039895 Ry

     total magnetization       =    15.00 Bohr mag/cell
     absolute magnetization    =    17.45 Bohr mag/cell

     convergence has been achieved in  10 iterations

     Forces acting on atoms (Ry/au):

     negative rho (up, down):  0.465E-02 0.169E-02
     atom    1 type  1   force =    -0.00267882   -0.01236854   -0.00022657
     atom    2 type  1   force =    -0.00031216    0.00792372   -0.00029378
     atom    3 type  2   force =     0.04204882   -0.00446115    0.00009081
     atom    4 type  2   force =    -0.00485923    0.00798556    0.00002249
     atom    5 type  1   force =     0.00137402    0.00914469    0.00002571
     atom    6 type  1   force =    -0.00177607   -0.00658426   -0.00000169
     atom    7 type  1   force =     0.00220046   -0.00142587    0.00069354
     atom    8 type  1   force =    -0.00301309   -0.00111514    0.00004645
     atom    9 type  2   force =     0.00296891    0.00076024   -0.00028142
     atom   10 type  2   force =    -0.00323396    0.00000703    0.00057153
     atom   11 type  1   force =    -0.02392935   -0.03220596    0.00024177
     atom   12 type  1   force =    -0.02397662    0.03168803    0.00026914
     atom   13 type  1   force =    -0.04597206    0.00005608   -0.00059751
     atom   14 type  1   force =    -0.00419487   -0.01250254   -0.00019444
     atom   15 type  1   force =     0.00058152    0.00796533    0.00007470
     atom   16 type  2   force =    -0.04417780   -0.00369743    0.00008253
     atom   17 type  2   force =     0.00540667    0.00796721    0.00007786
     atom   18 type  1   force =     0.00460055    0.00914718   -0.00000517
     atom   19 type  1   force =     0.00144775   -0.00716110   -0.00000477
     atom   20 type  1   force =     0.00047542   -0.00158816   -0.00033059
     atom   21 type  1   force =     0.00145299   -0.00006763    0.00013801
     atom   22 type  2   force =     0.00252088    0.00013717   -0.00019990
     atom   23 type  2   force =    -0.00550483    0.00052792    0.00081903
     atom   24 type  1   force =     0.02622638   -0.01901967   -0.00056967
     atom   25 type  1   force =     0.02653571    0.01891729   -0.00059989
     atom   26 type  1   force =     0.04648290   -0.00009045   -0.00043785
     atom   27 type  3   force =     0.00001025    0.00026580    0.00005533
     atom   28 type  3   force =    -0.00000963    0.00005598    0.00011299
     atom   29 type  3   force =    -0.00001300   -0.00011452   -0.00039361
     atom   30 type  3   force =     0.00001284   -0.00005139   -0.00042725
     atom   31 type  1   force =     0.00015648   -0.00000902    0.00069855
     atom   32 type  3   force =    -0.00085107   -0.00008638    0.00054364

     Total force =     0.002298     Total SCF correction =     0.000866
     SCF correction compared to forces is large: reduce conv_thr to get better values

     bfgs converged in   2 scf cycles and   1 bfgs steps
     (criteria: energy < 0.10E-03, force < 0.10E-02)

     End of BFGS Geometry Optimization

     Final energy   =   -2027.1018602236 Ry
Begin final coordinates

ATOMIC_POSITIONS (crystal)
O0       0.000000000   0.000000000   0.378024148    0   0   1
O0       0.000000000   0.500000000   0.400071696    0   0   1
Cr1      0.250000000   0.500000000   0.451411761    0   0   1
Cr1      0.000000000   0.000000000   0.448954262    0   0   1
O0       0.250000000   0.800000000   0.449930109    0   0   1
O0       0.250000000   0.200000000   0.450089459    0   0   1
O0       0.000000000   0.500000000   0.497412412    0   0   1
O0       0.000000000   0.000000000   0.523212944    0   0   1
Cr1      0.250000000   0.000000000   0.566333658    0   0   1
Cr1      0.000000000   0.500000000   0.564829385    0   0   1
O0       0.250000000   0.700000000   0.573622538    0   0   1
O0       0.250000000   0.300000000   0.573623168    0   0   1
O0       0.000000000   0.000000000   0.618020514    0   0   1
O0       0.500000000   0.000000000   0.378039537    0   0   1
O0       0.500000000   0.500000000   0.400320248    0   0   1
Cr1      0.750000000   0.500000000   0.451531826    0   0   1
Cr1      0.500000000   0.000000000   0.449018841    0   0   1
O0       0.750000000   0.800000000   0.449979636    0   0   1
O0       0.750000000   0.200000000   0.450149672    0   0   1
O0       0.500000000   0.500000000   0.499194783    0   0   1
O0       0.500000000   0.000000000   0.523228839    0   0   1
Cr1      0.750000000   0.000000000   0.583673682    0   0   1
Cr1      0.500000000   0.500000000   0.576106653    0   0   1
O0       0.750000000   0.700000000   0.574352257    0   0   1
O0       0.750000000   0.300000000   0.574291642    0   0   1
O0       0.500000000   0.000000000   0.617320301    0   0   1
H2      -0.000598790   0.638025968   0.380958691
H2       0.499659218   0.638078093   0.381181110
H2       0.156650131   0.031657537   0.364877886
H2       0.656723964   0.031388510   0.364939058
O0       0.514393166   0.499679042   0.645316751
H2       0.364544946   0.498083659   0.662742532
End final coordinates

     General routines

     Parallel routines

   This run was terminated on:  10:35:19  17Apr2014

   JOB DONE.
Running PBS batch system epilogue script
Job id: 335007.audhumbla.fysik.dtu.dk
Username: zhonxu
Groupname: campgst
Jobname: CrO2/Eads-2-layers/OH-relax-surf
Sessionid: 14852
Queuename: verylong
Accounting:
This job has allocated the following 16 nodes:
d044 d044 d044 d044 d044 d044 d044 d044 d040 d040 d040 d040 d040 d040 d040 d040
Finished epilogue job 335007.audhumbla.fysik.dtu.dk for zhonxu