     Program PWSCF v.5.0.2 (svn rev. 9656) starts on 28Apr2014 at 20:34: 5

     Current dimensions of program PWSCF are:
     Max number of different atomic species (ntypx) = 10
     Max number of k-points (npk) =  40000
     Max angular momentum in pseudopotentials (lmaxx) =  3
     Reading input from pwscf.in
Warning: card &CELL ignored
Warning: card / ignored

     Subspace diagonalization in iterative solution of the eigenvalue problem:
     a serial algorithm will be used

     bravais-lattice index     =            0
     lattice parameter (alat)  =      10.3179  a.u.
     unit-cell volume          =    6964.3238 (a.u.)^3
     number of atoms/cell      =           31
     number of atomic types    =            3
     number of electrons       =       230.00
     number of Kohn-Sham states=          345
     kinetic-energy cutoff     =      40.0000  Ry
     charge density cutoff     =     500.0000  Ry
     convergence threshold     =      1.0E-06
     mixing beta               =       0.7000
     number of iterations used =            8  plain     mixing
     Exchange-correlation      = SLA  PW   PBE  PBE ( 1 4 3 4 0)
     EXX-fraction              =        0.00
     nstep                     =           50

     celldm(1)=  10.317905  celldm(2)=   0.000000  celldm(3)=   0.000000
     celldm(4)=   0.000000  celldm(5)=   0.000000  celldm(6)=   0.000000

     crystal axes: (cart. coord. in units of alat)
               a(1) = (   1.000000   0.000000   0.000000 )
               a(2) = (   0.000000   1.282117   0.000000 )
               a(3) = (   0.000000   0.000000   4.945120 )

     reciprocal axes: (cart. coord. in units 2 pi/alat)
               b(1) = (  1.000000  0.000000  0.000000 )
               b(2) = (  0.000000  0.779960  0.000000 )
               b(3) = (  0.000000  0.000000  0.202220 )

     PseudoPot. # 1 for O  read from file:
     /home/camp/zhonxu/pseudo/o_pbe_v1.01.uspp.F.UPF
     MD5 check sum: 2bcb18d16ea4b960afae9ec6d52f22d2
     Pseudo is Ultrasoft + core correction, Zval =  6.0
     Generated by new atomic code, or converted to UPF format
     Using radial grid of  737 points,  5 beta functions with:
                l(1) =   0
                l(2) =   0
                l(3) =   1
                l(4) =   1
                l(5) =   2
     Q(r) pseudized with  8 coefficients,  rinner =    0.900   0.900   0.900
                                                       0.900   0.900

     PseudoPot. # 2 for Mo read from file:
     /home/camp/zhonxu/pseudo/mo_pbe_v1.uspp.F.UPF
     MD5 check sum: 30c4dcd161f5d35cd49bb5239c51a633
     Pseudo is Ultrasoft + core correction, Zval = 14.0
     Generated by new atomic code, or converted to UPF format
     Using radial grid of  889 points,  6 beta functions with:
                l(1) =   0
                l(2) =   0
                l(3) =   1
                l(4) =   1
                l(5) =   2
                l(6) =   2
     Q(r) pseudized with  6 coefficients,  rinner =    1.000   1.000   1.000
                                                       1.000   1.000

     PseudoPot. # 3 for H  read from file:
     /home/camp/zhonxu/pseudo/h_pbe_v1.uspp.F.UPF
     MD5 check sum: 3408e3ff4ec8b0a4e358431e7e038a48
     Pseudo is Ultrasoft, Zval =  1.0
     Generated by new atomic code, or converted to UPF format
     Using radial grid of  615 points,  2 beta functions with:
                l(1) =   0
                l(2) =   0
     Q(r) pseudized with  8 coefficients,  rinner =    0.700

     atomic species   valence    mass     pseudopotential
        O0             6.00    15.99940     O ( 1.00)
        Mo1           14.00    95.94000     Mo( 1.00)
        H2             1.00     1.00794     H ( 1.00)

     Simplified LDA+U calculation (l_max = 2) with parameters (eV):
     atomic species    L          U    alpha       J0     beta
        Mo1            2     4.5000   0.0000   0.0000   0.0000

     No symmetry found

   Cartesian axes

     site n.     atom                  positions (alat units)
         1           O0  tau(   1) = (   0.0000000   0.0000000   1.8298429  )
         2           O0  tau(   2) = (   0.0000000   0.6410583   1.8994207  )
         3           Mo1 tau(   3) = (   0.2500000   0.6410583   2.1871278  )
         4           Mo1 tau(   4) = (   0.0000000   0.0000000   2.1851992  )
         5           O0  tau(   5) = (   0.2500000   1.0000510   2.1890070  )
         6           O0  tau(   6) = (   0.2500000   0.2820657   2.1893531  )
         7           O0  tau(   7) = (   0.0000000   0.6410583   2.4671700  )
         8           O0  tau(   8) = (   0.0000000   0.0000000   2.5523250  )
         9           Mo1 tau(   9) = (   0.2500000   0.0000000   2.8391419  )
        10           Mo1 tau(  10) = (   0.0000000   0.6410583   2.8013612  )
        11           O0  tau(  11) = (   0.2500000   0.9231240   2.8197571  )
        12           O0  tau(  12) = (   0.2500000   0.3589927   2.8195593  )
        13           O0  tau(  13) = (   0.0000000   0.0000000   3.0891672  )
        14           O0  tau(  14) = (   0.5000000   0.0000000   1.8327111  )
        15           O0  tau(  15) = (   0.5000000   0.6410583   1.8997669  )
        16           Mo1 tau(  16) = (   0.7500000   0.6410583   2.1871773  )
        17           Mo1 tau(  17) = (   0.5000000   0.0000000   2.1922708  )
        18           O0  tau(  18) = (   0.7500000   1.0000510   2.1898476  )
        19           O0  tau(  19) = (   0.7500000   0.2820657   2.1889575  )
        20           O0  tau(  20) = (   0.5000000   0.6410583   2.4516918  )
        21           O0  tau(  21) = (   0.5000000   0.0000000   2.5499019  )
        22           Mo1 tau(  22) = (   0.7500000   0.0000000   2.8391419  )
        23           Mo1 tau(  23) = (   0.5000000   0.6410583   2.8716808  )
        24           O0  tau(  24) = (   0.7500000   0.9231240   2.8197571  )
        25           O0  tau(  25) = (   0.7500000   0.3589927   2.8196582  )
        26           O0  tau(  26) = (   0.5000000   0.0000000   3.0881782  )
        27           H2  tau(  27) = (  -0.0006600   0.7686802   1.7727267  )
        28           H2  tau(  28) = (   0.4996400   0.7964252   1.8076887  )
        29           H2  tau(  29) = (   0.1674000   0.0210652   1.7585342  )
        30           H2  tau(  30) = (   0.6637700   0.0258988   1.7570507  )
        31           O0  tau(  31) = (   0.5000200   0.6407506   3.1806520  )

     number of k points=    10  Methfessel-Paxton smearing, width (Ry)=  0.0100
                       cart. coord. in units 2pi/alat
        k(    1) = (   0.0000000   0.0000000   0.0000000), wk =   0.1250000
        k(    2) = (   0.0000000   0.1949901   0.0000000), wk =   0.2500000
        k(    3) = (   0.0000000  -0.3899801   0.0000000), wk =   0.1250000
        k(    4) = (   0.2500000   0.0000000   0.0000000), wk =   0.2500000
        k(    5) = (   0.2500000   0.1949901   0.0000000), wk =   0.2500000
        k(    6) = (   0.2500000  -0.3899801   0.0000000), wk =   0.2500000
        k(    7) = (  -0.5000000   0.0000000   0.0000000), wk =   0.1250000
        k(    8) = (  -0.5000000   0.1949901   0.0000000), wk =   0.2500000
        k(    9) = (  -0.5000000  -0.3899801   0.0000000), wk =   0.1250000
        k(   10) = (  -0.2500000   0.1949901   0.0000000), wk =   0.2500000

     Largest allocated arrays     est. size (Mb)     dimensions
     Largest temporary arrays     est. size (Mb)     dimensions

     Check: negative/imaginary core charge=   -0.000003    0.000000

     Initial potential from superposition of free atoms
     Check: negative starting charge=   -0.002499

     starting charge  229.99143, renormalised to  230.00000

     negative rho (up, down):  0.250E-02 0.000E+00
     Number of +U iterations with fixed ns =  0
     Starting occupations:
 --- enter write_ns ---
 LDA+U parameters:
U( 2)     =  4.50000000
alpha( 2) =  0.00000000
atom    3   Tr[ns(na)] =   5.00000
    eigenvalues:
  0.500  0.500  0.500  0.500  0.500
    eigenvectors:
  1.000  0.000  0.000  0.000  0.000
  0.000  1.000  0.000  0.000  0.000
  0.000  0.000  1.000  0.000  0.000
  0.000  0.000  0.000  1.000  0.000
  0.000  0.000  0.000  0.000  1.000
    occupations:
  0.500  0.000  0.000  0.000  0.000
  0.000  0.500  0.000  0.000  0.000
  0.000  0.000  0.500  0.000  0.000
  0.000  0.000  0.000  0.500  0.000
  0.000  0.000  0.000  0.000  0.500
atom    4   Tr[ns(na)] =   5.00000
    eigenvalues:
  0.500  0.500  0.500  0.500  0.500
    eigenvectors:
  1.000  0.000  0.000  0.000  0.000
  0.000  1.000  0.000  0.000  0.000
  0.000  0.000  1.000  0.000  0.000
  0.000  0.000  0.000  1.000  0.000
  0.000  0.000  0.000  0.000  1.000
    occupations:
  0.500  0.000  0.000  0.000  0.000
  0.000  0.500  0.000  0.000  0.000
  0.000  0.000  0.500  0.000  0.000
  0.000  0.000  0.000  0.500  0.000
  0.000  0.000  0.000  0.000  0.500
atom    9   Tr[ns(na)] =   5.00000
    eigenvalues:
  0.500  0.500  0.500  0.500  0.500
    eigenvectors:
  1.000  0.000  0.000  0.000  0.000
  0.000  1.000  0.000  0.000  0.000
  0.000  0.000  1.000  0.000  0.000
  0.000  0.000  0.000  1.000  0.000
  0.000  0.000  0.000  0.000  1.000
    occupations:
  0.500  0.000  0.000  0.000  0.000
  0.000  0.500  0.000  0.000  0.000
  0.000  0.000  0.500  0.000  0.000
  0.000  0.000  0.000  0.500  0.000
  0.000  0.000  0.000  0.000  0.500
atom   10   Tr[ns(na)] =   5.00000
    eigenvalues:
  0.500  0.500  0.500  0.500  0.500
    eigenvectors:
  1.000  0.000  0.000  0.000  0.000
  0.000  1.000  0.000  0.000  0.000
  0.000  0.000  1.000  0.000  0.000
  0.000  0.000  0.000  1.000  0.000
  0.000  0.000  0.000  0.000  1.000
    occupations:
  0.500  0.000  0.000  0.000  0.000
  0.000  0.500  0.000  0.000  0.000
  0.000  0.000  0.500  0.000  0.000
  0.000  0.000  0.000  0.500  0.000
  0.000  0.000  0.000  0.000  0.500
atom   16   Tr[ns(na)] =   5.00000
    eigenvalues:
  0.500  0.500  0.500  0.500  0.500
    eigenvectors:
  1.000  0.000  0.000  0.000  0.000
  0.000  1.000  0.000  0.000  0.000
  0.000  0.000  1.000  0.000  0.000
  0.000  0.000  0.000  1.000  0.000
  0.000  0.000  0.000  0.000  1.000
    occupations:
  0.500  0.000  0.000  0.000  0.000
  0.000  0.500  0.000  0.000  0.000
  0.000  0.000  0.500  0.000  0.000
  0.000  0.000  0.000  0.500  0.000
  0.000  0.000  0.000  0.000  0.500
atom   17   Tr[ns(na)] =   5.00000
    eigenvalues:
  0.500  0.500  0.500  0.500  0.500
    eigenvectors:
  1.000  0.000  0.000  0.000  0.000
  0.000  1.000  0.000  0.000  0.000
  0.000  0.000  1.000  0.000  0.000
  0.000  0.000  0.000  1.000  0.000
  0.000  0.000  0.000  0.000  1.000
    occupations:
  0.500  0.000  0.000  0.000  0.000
  0.000  0.500  0.000  0.000  0.000
  0.000  0.000  0.500  0.000  0.000
  0.000  0.000  0.000  0.500  0.000
  0.000  0.000  0.000  0.000  0.500
atom   22   Tr[ns(na)] =   5.00000
    eigenvalues:
  0.500  0.500  0.500  0.500  0.500
    eigenvectors:
  1.000  0.000  0.000  0.000  0.000
  0.000  1.000  0.000  0.000  0.000
  0.000  0.000  1.000  0.000  0.000
  0.000  0.000  0.000  1.000  0.000
  0.000  0.000  0.000  0.000  1.000
    occupations:
  0.500  0.000  0.000  0.000  0.000
  0.000  0.500  0.000  0.000  0.000
[...]
  0.000  0.000  0.105  0.888  0.007
  0.999  0.000  0.000  0.000  0.000
  0.000  0.000  0.000  0.006  0.993
  0.000  1.000  0.000  0.000  0.000
    occupations:
  0.583  0.015  0.002 -0.000  0.000
  0.015  0.623  0.004 -0.011 -0.001
  0.002  0.004  0.415 -0.000  0.001
 -0.000 -0.011 -0.000  0.762  0.000
  0.000 -0.001  0.001  0.000  0.522
atom    9   Tr[ns(na)] =   5.84956
    eigenvalues:
  0.501  0.538  0.604  0.623  0.659
    eigenvectors:
  0.000  0.000  0.159  0.001  0.841
  0.000  0.000  0.004  0.996  0.000
  0.070  0.930  0.000  0.000  0.000
  0.000  0.000  0.837  0.004  0.159
  0.930  0.070  0.000  0.000  0.000
    occupations:
  0.650 -0.000 -0.000 -0.020 -0.001
 -0.000  0.622 -0.000 -0.001 -0.000
 -0.000 -0.000  0.536  0.000  0.010
 -0.020 -0.001  0.000  0.613  0.001
 -0.001 -0.000  0.010  0.001  0.504
atom   10   Tr[ns(na)] =   5.80005
    eigenvalues:
  0.457  0.491  0.514  0.701  0.737
    eigenvectors:
  0.006  0.991  0.001  0.000  0.002
  0.000  0.000  0.000  0.893  0.107
  0.976  0.005  0.019  0.000  0.000
  0.000  0.002  0.000  0.107  0.891
  0.018  0.002  0.980  0.000  0.000
    occupations:
  0.492  0.002 -0.003  0.011  0.000
  0.002  0.705  0.003  0.011  0.001
 -0.003  0.003  0.458  0.000 -0.008
  0.011  0.011  0.000  0.733 -0.000
  0.000  0.001 -0.008 -0.000  0.513
atom   16   Tr[ns(na)] =   5.83463
    eigenvalues:
  0.429  0.523  0.577  0.629  0.759
    eigenvectors:
  0.009  0.027  0.290  0.001  0.674
  0.000  0.937  0.059  0.002  0.001
  0.850  0.000  0.000  0.138  0.012
  0.001  0.035  0.647  0.005  0.313
  0.140  0.001  0.004  0.854  0.001
    occupations:
  0.697  0.013  0.028 -0.085  0.003
  0.013  0.527  0.004  0.007 -0.004
  0.028  0.004  0.460 -0.013 -0.069
 -0.085  0.007 -0.013  0.632 -0.002
  0.003 -0.004 -0.069 -0.002  0.601
atom   17   Tr[ns(na)] =   5.82501
    eigenvalues:
  0.407  0.523  0.591  0.612  0.780
    eigenvectors:
  0.000  0.000  0.990  0.009  0.001
  0.000  0.000  0.009  0.990  0.001
  1.000  0.000  0.000  0.000  0.000
  0.000  0.000  0.001  0.001  0.998
  0.000  1.000  0.000  0.000  0.000
    occupations:
  0.591 -0.002  0.001 -0.006  0.000
 -0.002  0.612  0.002 -0.006 -0.001
  0.001  0.002  0.407  0.001 -0.000
 -0.006 -0.006  0.001  0.779  0.000
  0.000 -0.001 -0.000  0.000  0.523
atom   22   Tr[ns(na)] =   5.82460
    eigenvalues:
  0.452  0.486  0.582  0.596  0.797
    eigenvectors:
  0.000  0.000  0.005  0.250  0.745
  0.000  0.000  0.978  0.022  0.000
  0.019  0.981  0.000  0.000  0.000
  0.000  0.000  0.016  0.728  0.255
  0.981  0.019  0.000  0.000  0.000
    occupations:
  0.745  0.000 -0.001 -0.088 -0.002
  0.000  0.582 -0.001  0.002 -0.000
 -0.001 -0.001  0.486  0.000 -0.005
 -0.088  0.002  0.000  0.647  0.001
 -0.002 -0.000 -0.005  0.001  0.453
atom   23   Tr[ns(na)] =   5.92026
    eigenvalues:
  0.510  0.514  0.531  0.631  0.775
    eigenvectors:
  0.000  0.000  0.000  0.989  0.011
  0.000  0.000  0.999  0.000  0.000
  0.343  0.657  0.000  0.000  0.000
  0.000  0.000  0.000  0.011  0.989
  0.656  0.343  0.000  0.000  0.000
    occupations:
  0.632 -0.002 -0.000 -0.015 -0.000
 -0.002  0.531 -0.000 -0.000  0.000
 -0.000 -0.000  0.512 -0.000  0.002
 -0.015 -0.000 -0.000  0.773  0.000
 -0.000  0.000  0.002  0.000  0.511
N of occupied +U levels =  46.7057437
 --- exit write_ns ---

     Threshold (ethr) on eigenvalues was too large:
     Diagonalizing with lowered threshold

     Davidson diagonalization with overlap
     ethr =  8.23E-09,  avg # of iterations =  2.9

[...]

     total energy              =   -1729.40824594 Ry
     Harris-Foulkes estimate   =   -1729.40824594 Ry
     estimated scf accuracy    <       0.00000002 Ry

     iteration # 14     ecut=    40.00 Ry     beta=0.70
     Davidson diagonalization with overlap
     ethr =  7.12E-12,  avg # of iterations =  1.0

     negative rho (up, down):  0.359E-02 0.000E+00

     End of self-consistent calculation
 --- enter write_ns ---
 LDA+U parameters:
U( 2)     =  4.50000000
alpha( 2) =  0.00000000
atom    3   Tr[ns(na)] =   5.84020
    eigenvalues:
  0.441  0.523  0.576  0.628  0.753
    eigenvectors:
  0.010  0.028  0.292  0.000  0.670
  0.000  0.932  0.064  0.003  0.001
  0.788  0.000  0.000  0.199  0.013
  0.001  0.038  0.639  0.006  0.316
  0.200  0.002  0.006  0.792  0.000
    occupations:
  0.692 -0.013  0.029 -0.083 -0.007
 -0.013  0.527 -0.005 -0.007 -0.004
  0.029 -0.005  0.482 -0.014  0.074
 -0.083 -0.007 -0.014  0.630  0.005
 -0.007 -0.004  0.074  0.005  0.590
atom    4   Tr[ns(na)] =   5.81106
    eigenvalues:
  0.415  0.522  0.578  0.627  0.763
    eigenvectors:
  0.000  0.000  0.892  0.107  0.000
  0.000  0.000  0.107  0.886  0.007
  1.000  0.000  0.000  0.000  0.000
  0.000  0.000  0.000  0.007  0.993
  0.000  1.000  0.000  0.000  0.000
    occupations:
  0.583  0.015  0.002 -0.000  0.000
  0.015  0.623  0.004 -0.012 -0.001
  0.002  0.004  0.415 -0.000  0.001
 -0.000 -0.012 -0.000  0.762  0.000
  0.000 -0.001  0.001  0.000  0.522
atom    9   Tr[ns(na)] =   5.85013
    eigenvalues:
  0.501  0.539  0.604  0.623  0.659
    eigenvectors:
  0.000  0.000  0.159  0.001  0.840
  0.000  0.000  0.004  0.996  0.000
  0.071  0.929  0.000  0.000  0.000
  0.000  0.000  0.837  0.004  0.160
  0.929  0.071  0.000  0.000  0.000
    occupations:
  0.650 -0.000 -0.000 -0.020 -0.001
 -0.000  0.622 -0.000 -0.001 -0.000
 -0.000 -0.000  0.536  0.000  0.010
 -0.020 -0.001  0.000  0.613  0.001
 -0.001 -0.000  0.010  0.001  0.504
atom   10   Tr[ns(na)] =   5.80127
    eigenvalues:
  0.457  0.491  0.514  0.701  0.738
    eigenvectors:
  0.006  0.991  0.001  0.000  0.002
  0.000  0.000  0.000  0.892  0.108
  0.975  0.005  0.019  0.000  0.000
  0.000  0.002  0.000  0.108  0.890
  0.018  0.002  0.980  0.000  0.000
    occupations:
  0.492  0.002 -0.003  0.011  0.000
  0.002  0.705  0.003  0.011  0.001
 -0.003  0.003  0.458  0.000 -0.008
  0.011  0.011  0.000  0.733 -0.000
  0.000  0.001 -0.008 -0.000  0.513
atom   16   Tr[ns(na)] =   5.83519
    eigenvalues:
  0.429  0.523  0.577  0.629  0.760
    eigenvectors:
  0.009  0.027  0.290  0.001  0.674
  0.000  0.937  0.059  0.002  0.001
  0.851  0.000  0.000  0.137  0.012
  0.001  0.035  0.647  0.005  0.312
  0.139  0.001  0.004  0.855  0.001
    occupations:
  0.697  0.013  0.028 -0.085  0.003
  0.013  0.527  0.004  0.007 -0.003
  0.028  0.004  0.460 -0.013 -0.069
 -0.085  0.007 -0.013  0.632 -0.002
  0.003 -0.003 -0.069 -0.002  0.601
atom   17   Tr[ns(na)] =   5.82583
    eigenvalues:
  0.407  0.523  0.591  0.612  0.780
    eigenvectors:
  0.000  0.000  0.990  0.009  0.001
  0.000  0.000  0.008  0.990  0.001
  1.000  0.000  0.000  0.000  0.000
  0.000  0.000  0.001  0.001  0.998
  0.000  1.000  0.000  0.000  0.000
    occupations:
  0.591 -0.002  0.001 -0.006  0.000
 -0.002  0.612  0.002 -0.006 -0.001
  0.001  0.002  0.407  0.001 -0.000
 -0.006 -0.006  0.001  0.779  0.000
  0.000 -0.001 -0.000  0.000  0.523
atom   22   Tr[ns(na)] =   5.82445
    eigenvalues:
  0.452  0.486  0.581  0.596  0.797
    eigenvectors:
  0.000  0.000  0.005  0.250  0.745
  0.000  0.000  0.979  0.021  0.000
  0.019  0.981  0.000  0.000  0.000
  0.000  0.000  0.016  0.728  0.255
  0.981  0.019  0.000  0.000  0.000
    occupations:
  0.745  0.000 -0.001 -0.088 -0.002
  0.000  0.582 -0.001  0.002 -0.000
 -0.001 -0.001  0.486  0.000 -0.005
 -0.088  0.002  0.000  0.647  0.001
 -0.002 -0.000 -0.005  0.001  0.452
atom   23   Tr[ns(na)] =   5.91862
    eigenvalues:
  0.510  0.513  0.531  0.631  0.774
    eigenvectors:
  0.000  0.000  0.000  0.989  0.011
  0.000  0.000  0.999  0.000  0.000
  0.355  0.645  0.000  0.000  0.000
  0.000  0.000  0.000  0.011  0.989
  0.645  0.354  0.000  0.000  0.000
    occupations:
  0.632 -0.002 -0.000 -0.015 -0.000
 -0.002  0.531 -0.000 -0.000  0.000
 -0.000 -0.000  0.512 -0.000  0.002
 -0.015 -0.000 -0.000  0.773  0.000
 -0.000  0.000  0.002  0.000  0.511
N of occupied +U levels =  46.7067473
 --- exit write_ns ---

[...]

          k = 0.2500-0.3900 0.0000 ( 29726 PWs)   bands (ev):

[...]

          k =-0.2500 0.1950 0.0000 ( 29746 PWs)   bands (ev):

   -62.8844 -62.5797 -62.5313 -62.3661 -62.2848 -62.2344 -62.1624 -62.1502
   -37.4146 -37.2886 -37.1711 -37.0565 -36.7926 -36.7790 -36.7109 -36.6538
   -36.6481 -36.6292 -36.6231 -36.5996 -36.5140 -36.5118 -36.4909 -36.4812
   -36.3593 -36.3153 -36.2973 -36.2857 -36.2120 -35.9337 -35.9052 -35.8075
   -20.6939 -20.4460 -20.0958 -19.9374 -19.7793 -19.6973 -19.6290 -19.6004
   -19.4997 -19.3108 -19.1673 -19.1291 -18.9940 -18.9242 -18.8286 -18.7740
   -18.5726 -18.3807 -18.2014  -8.9360  -8.6105  -8.5480  -8.1924  -8.0457
    -7.9083  -7.8002  -7.7654  -7.5876  -7.4697  -7.3958  -7.1587  -7.0891
    -6.9469  -6.8024  -6.6756  -6.6091  -6.4835  -6.3699  -6.2690  -6.1327
    -6.0282  -5.9277  -5.8186  -5.5799  -5.5552  -5.3859  -5.3009  -5.1722
    -5.1011  -5.0077  -4.9002  -4.7644  -4.7390  -4.6765  -4.5996  -4.5320
    -4.5023  -4.4049  -4.3080  -4.2515  -4.1098  -3.9678  -3.9148  -3.8693
    -3.8088  -3.7505  -3.6510  -3.5980  -3.5316  -3.4660  -3.3498  -3.2505
    -3.1336  -3.0415  -2.9991  -2.6696  -2.0763  -2.0170  -1.8506  -0.9486
    -0.7748  -0.6883  -0.5433   0.0794   0.3406   0.5051   0.5891   0.6440
     0.8590   0.9987   1.0747   1.3142   1.3448   1.3914   1.4609   1.5411
     1.6098   1.7446   1.8447   2.2159   2.3777   3.2245   3.3640   3.5534
     3.6516   3.7726   3.9826   4.1405   4.2129   4.2290   4.4957   4.5673
     4.6780   4.9521   5.2585   5.3151   5.5672   5.6491   5.7586   5.8352
     5.9755   6.0530   6.3408   6.4807   6.7841   6.9307   7.1371   7.2250
     7.2409   7.5813   7.6017   7.8198   8.0268   8.0826   8.2774   8.3469
     8.5417   8.6046   8.6924   8.8202   9.0070   9.1422   9.1983   9.3617
     9.4928   9.5326   9.6252   9.6559   9.6787   9.7548   9.9327  10.0863
    10.1459  10.2626  10.3169  10.3897  10.5388  10.5916  10.7051  10.7816
    10.8955  10.9973  11.0760  11.2364  11.3928  11.5078  11.6062  11.6858
    11.7808  11.8520  11.9301  11.9726  12.0249  12.2581  12.3301  12.4110
    12.4430  12.4976  12.5482  12.6535  12.7468  12.8493  12.9050  12.9683
    13.0472  13.1862  13.2339  13.2930  13.3442  13.4227  13.4789  13.5503
    13.5944  13.6756  13.7215  13.7965  13.8900  13.9588  14.0516  14.1159
    14.1701  14.2211  14.3133  14.4157  14.4542  14.5525  14.6021  14.6403
    14.7063  14.7903  14.8679  14.9294  14.9712  15.0351  15.2119  15.2355
    15.3538  15.4358  15.4888  15.5582  15.6251  15.7018  15.7990  15.8981
    15.9706  16.0131  16.1078  16.1382  16.1869  16.2453  16.3343  16.4087
    16.4372  16.4729  16.5763  16.6512  16.7678  16.8492  16.8951  16.9646
    17.0536  17.1438  17.2348  17.2819  17.3056  17.3883  17.4823  17.5587
    17.6315  17.6752  17.7356  17.7906  17.9375  17.9623  18.0572  18.1179
    18.1670  18.2405  18.2926  18.3867  18.4359  18.4953  18.6014  18.6497
    18.7761  18.8741  18.9614  18.9769  19.0687  19.1382  19.1588  19.2675
    19.4287  19.4962  19.5785  19.7048  19.7224  19.8255  19.8856  19.9428
    19.9884  20.0577  20.1423  20.1963  20.2751  20.3005  20.3605  20.4367
    20.4721  20.5111  20.5986  20.6484  20.6728  20.6949  20.8080  20.9042
    20.9362  21.0136  21.0714  21.1471  21.1985  21.2530  21.3352  21.3828
    21.4783  21.5244  21.5900  21.6989  21.7510  21.7752  21.8280  21.8561
    21.8849

     the Fermi energy is    -0.3610 ev

!    total energy              =   -1729.40824594 Ry
     Harris-Foulkes estimate   =   -1729.40824594 Ry
     estimated scf accuracy    <          7.0E-09 Ry

     The total energy is the sum of the following terms:

     one-electron contribution =  -22080.20234715 Ry
     hartree contribution      =   11062.77545028 Ry
     xc contribution           =    -293.76980086 Ry
     ewald contribution        =    9578.72630023 Ry
     Hubbard energy            =       3.06124481 Ry
     smearing contrib. (-TS)   =       0.00090675 Ry

     convergence has been achieved in  14 iterations

     Forces acting on atoms (Ry/au):

     negative rho (up, down):  0.359E-02 0.000E+00
     atom    1 type  1   force =    -0.00291418   -0.00298106    0.00061425
     atom    2 type  1   force =     0.00035051    0.00318304    0.00015656
     atom    3 type  2   force =    -0.01217676   -0.00747768    0.00001975
     atom    4 type  2   force =     0.01295359    0.00557525    0.00034309
     atom    5 type  1   force =    -0.00511487   -0.00322790   -0.00030129
     atom    6 type  1   force =    -0.00788106    0.00165265   -0.00025342
     atom    7 type  1   force =     0.00086496    0.00044475   -0.00009748
     atom    8 type  1   force =     0.00243576   -0.00005341    0.00009024
     atom    9 type  2   force =    -0.01174995   -0.00057878    0.00023388
     atom   10 type  2   force =    -0.00326268   -0.00035030    0.00013557
     atom   11 type  1   force =    -0.01323199   -0.01858915   -0.00015160
     atom   12 type  1   force =    -0.01436475    0.01928438   -0.00016821
     atom   13 type  1   force =     0.00767384    0.00003038   -0.00028368
     atom   14 type  1   force =     0.00162271   -0.00552032    0.00055152
     atom   15 type  1   force =     0.00015861    0.01000300    0.00019177
     atom   16 type  2   force =     0.01078266   -0.00646099    0.00030944
     atom   17 type  2   force =    -0.01783395    0.00353159    0.00025152
     atom   18 type  1   force =     0.00854951   -0.00656495   -0.00019916
     atom   19 type  1   force =     0.00769144    0.00410849   -0.00031549
     atom   20 type  1   force =    -0.00037377    0.00268867    0.00007479
     atom   21 type  1   force =     0.00682804    0.00067274    0.00003647
     atom   22 type  2   force =     0.00921210    0.00066472   -0.00035507
     atom   23 type  2   force =     0.00662807    0.00058078   -0.00023198
     atom   24 type  1   force =     0.01261940   -0.01220515   -0.00053894
     atom   25 type  1   force =     0.01275777    0.01126799   -0.00052210
     atom   26 type  1   force =    -0.01164935    0.00040342   -0.00004817
     atom   27 type  3   force =    -0.00001221    0.00005385    0.00033493
     atom   28 type  3   force =     0.00000028   -0.00002757    0.00025511
     atom   29 type  3   force =    -0.00028333   -0.00034849    0.00012321
     atom   30 type  3   force =    -0.00042854    0.00022494    0.00009424
     atom   31 type  1   force =     0.00014813    0.00001513   -0.00034977

     Total force =     0.001753     Total SCF correction =     0.000327
     SCF correction compared to forces is large: reduce conv_thr to get better values

     bfgs converged in  31 scf cycles and  30 bfgs steps
     (criteria: energy < 0.10E-03, force < 0.10E-02)

     End of BFGS Geometry Optimization

     Final energy   =   -1729.4082459363 Ry
Begin final coordinates

ATOMIC_POSITIONS (crystal)
O0       0.000000000   0.000000000   0.369528913    0   0   1
O0       0.000000000   0.500000000   0.384706382    0   0   1
Mo1      0.250000000   0.500000000   0.442316046    0   0   1
Mo1      0.000000000   0.000000000   0.441030162    0   0   1
O0       0.250000000   0.780000000   0.442663984    0   0   1
O0       0.250000000   0.220000000   0.442662816    0   0   1
O0       0.000000000   0.500000000   0.499845803    0   0   1
O0       0.000000000   0.000000000   0.515702456    0   0   1
Mo1      0.250000000   0.000000000   0.577890724    0   0   1
Mo1      0.000000000   0.500000000   0.567079946    0   0   1
O0       0.250000000   0.720000000   0.571777241    0   0   1
O0       0.250000000   0.280000000   0.571723772    0   0   1
O0       0.000000000   0.000000000   0.624517144    0   0   1
O0       0.500000000   0.000000000   0.370693158    0   0   1
O0       0.500000000   0.500000000   0.383836957    0   0   1
Mo1      0.750000000   0.500000000   0.442277941    0   0   1
Mo1      0.500000000   0.000000000   0.442836913    0   0   1
O0       0.750000000   0.780000000   0.442802295    0   0   1
O0       0.750000000   0.220000000   0.442656944    0   0   1
O0       0.500000000   0.500000000   0.496892343    0   0   1
O0       0.500000000   0.000000000   0.515295312    0   0   1
Mo1      0.750000000   0.000000000   0.570098194    0   0   1
Mo1      0.500000000   0.500000000   0.580285801    0   0   1
O0       0.750000000   0.720000000   0.570527125    0   0   1
O0       0.750000000   0.280000000   0.570538623    0   0   1
O0       0.500000000   0.000000000   0.624288785    0   0   1
H2      -0.000332074   0.590198851   0.356959409
H2       0.499951699   0.621289299   0.365329225
H2       0.167717670   0.017386039   0.355312742
H2       0.663223139   0.018543489   0.354894217
O0       0.502931879   0.499530468   0.642608626
End final coordinates

     General routines

     Parallel routines
     Hubbard U routines

   This run was terminated on:  23: 3:59  29Apr2014

   JOB DONE.