     Program PWSCF v.5.0.2 (svn rev. 9656) starts on  4May2014 at 20:48: 2

     Current dimensions of program PWSCF are:
     Max number of different atomic species (ntypx) = 10
     Max number of k-points (npk) =  40000
     Max angular momentum in pseudopotentials (lmaxx) =  3
     Reading input from pwscf.in
Warning: card &CELL ignored
Warning: card / ignored

     Subspace diagonalization in iterative solution of the eigenvalue problem:
     a serial algorithm will be used

     bravais-lattice index     =            0
     lattice parameter (alat)  =      10.7336  a.u.
     unit-cell volume          =    6184.1966 (a.u.)^3
     number of atoms/cell      =           32
     number of atomic types    =            3
     number of electrons       =       239.00 (up: 131.00, down: 108.00)
     number of Kohn-Sham states=          346
     kinetic-energy cutoff     =      40.0000  Ry
     charge density cutoff     =     500.0000  Ry
     convergence threshold     =      1.0E-06
     mixing beta               =       0.7000
     number of iterations used =            8  plain     mixing
     Exchange-correlation      = SLA  PW   PBE  PBE ( 1 4 3 4 0)
     EXX-fraction              =        0.00
     nstep                     =           50

     celldm(1)=  10.733644  celldm(2)=   0.000000  celldm(3)=   0.000000
     celldm(4)=   0.000000  celldm(5)=   0.000000  celldm(6)=   0.000000

     crystal axes: (cart. coord. in units of alat)
               a(1) = (   1.000000   0.000000   0.000000 )
               a(2) = (   0.000000   1.085558   0.000000 )
               a(3) = (   0.000000   0.000000   4.606685 )

     reciprocal axes: (cart. coord. in units 2 pi/alat)
               b(1) = (  1.000000  0.000000  0.000000 )
               b(2) = (  0.000000  0.921185  0.000000 )
               b(3) = (  0.000000  0.000000  0.217076 )

     PseudoPot. # 1 for O  read from file:
     /home/camp/zhonxu/pseudo/o_pbe_v1.01.uspp.F.UPF
     MD5 check sum: 2bcb18d16ea4b960afae9ec6d52f22d2
     Pseudo is Ultrasoft + core correction, Zval =  6.0
     Generated by new atomic code, or converted to UPF format
     Using radial grid of  737 points,  5 beta functions with:
                l(1) =   0
                l(2) =   0
                l(3) =   1
                l(4) =   1
                l(5) =   2
     Q(r) pseudized with  8 coefficients,  rinner =    0.900   0.900   0.900
                                                       0.900   0.900

     PseudoPot. # 2 for Mn read from file:
     /home/camp/zhonxu/pseudo/mn_pbe_v1.uspp.F.UPF
     MD5 check sum: 5fd7c7b5c956fd19902447332617373a
     Pseudo is Ultrasoft + core correction, Zval = 15.0
     Generated by new atomic code, or converted to UPF format
     Using radial grid of  859 points,  6 beta functions with:
                l(1) =   0
                l(2) =   0
                l(3) =   1
                l(4) =   1
                l(5) =   2
                l(6) =   2
     Q(r) pseudized with  6 coefficients,  rinner =    1.150   1.150   1.150
                                                       1.150   1.150

     PseudoPot. # 3 for H  read from file:
     /home/camp/zhonxu/pseudo/h_pbe_v1.uspp.F.UPF
     MD5 check sum: 3408e3ff4ec8b0a4e358431e7e038a48
     Pseudo is Ultrasoft, Zval =  1.0
     Generated by new atomic code, or converted to UPF format
     Using radial grid of  615 points,  2 beta functions with:
                l(1) =   0
                l(2) =   0
     Q(r) pseudized with  8 coefficients,  rinner =    0.700

     atomic species   valence    mass     pseudopotential
        O0             6.00    15.99940     O ( 1.00)
        Mn1           15.00    54.93800     Mn( 1.00)
        H2             1.00     1.00794     H ( 1.00)

     Starting magnetic structure
     atomic species   magnetization
        O0           0.000
        Mn1          0.600
        H2           0.000

     Simplified LDA+U calculation (l_max = 2) with parameters (eV):
     atomic species    L          U    alpha       J0     beta
        Mn1            2     7.0000   0.0000   0.0000   0.0000

     No symmetry found

   Cartesian axes

     site n.     atom                  positions (alat units)
         1           O0  tau(   1) = (   0.0000000   0.0000000   1.7414191  )
         2           O0  tau(   2) = (   0.0000000   0.5427791   1.8381134  )
         3           Mn1 tau(   3) = (   0.2500000   0.5427791   2.0740217  )
         4           Mn1 tau(   4) = (   0.0000000   0.0000000   2.0686319  )
         5           O0  tau(   5) = (   0.2500000   0.8684466   2.0678488  )
         6           O0  tau(   6) = (   0.2500000   0.2171117   2.0737453  )
         7           O0  tau(   7) = (   0.0000000   0.5427791   2.2873573  )
         8           O0  tau(   8) = (   0.0000000   0.0000000   2.4132120  )
         9           Mn1 tau(   9) = (   0.2500000   0.0000000   2.6399991  )
        10           Mn1 tau(  10) = (   0.0000000   0.5427791   2.6085815  )
        11           O0  tau(  11) = (   0.2500000   0.7598908   2.6551551  )
        12           O0  tau(  12) = (   0.2500000   0.3256675   2.6556157  )
        13           O0  tau(  13) = (   0.0000000   0.0000000   2.8417258  )
        14           O0  tau(  14) = (   0.5000000   0.0000000   1.7428932  )
        15           O0  tau(  15) = (   0.5000000   0.5427791   1.8386662  )
        16           Mn1 tau(  16) = (   0.7500000   0.5427791   2.0740678  )
        17           Mn1 tau(  17) = (   0.5000000   0.0000000   2.0707510  )
        18           O0  tau(  18) = (   0.7500000   0.8684466   2.0677106  )
        19           O0  tau(  19) = (   0.7500000   0.2171117   2.0738835  )
        20           O0  tau(  20) = (   0.5000000   0.5427791   2.2871270  )
        21           O0  tau(  21) = (   0.5000000   0.0000000   2.4132120  )
        22           Mn1 tau(  22) = (   0.7500000   0.0000000   2.6413811  )
        23           Mn1 tau(  23) = (   0.5000000   0.5427791   2.6662572  )
        24           O0  tau(  24) = (   0.7500000   0.7598908   2.6473698  )
        25           O0  tau(  25) = (   0.7500000   0.3256675   2.6477844  )
        26           O0  tau(  26) = (   0.5000000   0.0000000   2.8412191  )
        27           H2  tau(  27) = (   0.0000400   0.7014118   1.7620570  )
        28           H2  tau(  28) = (   0.5000900   0.7016832   1.7629323  )
        29           H2  tau(  29) = (   0.1613600   0.0398291   1.6869220  )
        30           H2  tau(  30) = (   0.6610200   0.0399703   1.6876591  )
        31           O0  tau(  31) = (   0.5153900   0.5432351   2.9826904  )
        32           H2  tau(  32) = (   0.3575300   0.5430397   3.0540479  )

     number of k points=    20  Methfessel-Paxton smearing, width (Ry)=  0.0100
                       cart. coord. in units 2pi/alat
        k(    1) = (   0.0000000   0.0000000   0.0000000), wk =   0.0625000
        k(    2) = (   0.0000000   0.2302962   0.0000000), wk =   0.1250000
        k(    3) = (   0.0000000  -0.4605925   0.0000000), wk =   0.0625000
        k(    4) = (   0.2500000   0.0000000   0.0000000), wk =   0.1250000
        k(    5) = (   0.2500000   0.2302962   0.0000000), wk =   0.1250000
        k(    6) = (   0.2500000  -0.4605925   0.0000000), wk =   0.1250000
        k(    7) = (  -0.5000000   0.0000000   0.0000000), wk =   0.0625000
        k(    8) = (  -0.5000000   0.2302962   0.0000000), wk =   0.1250000
        k(    9) = (  -0.5000000  -0.4605925   0.0000000), wk =   0.0625000
        k(   10) = (  -0.2500000   0.2302962   0.0000000), wk =   0.1250000
        k(   11) = (   0.0000000   0.0000000   0.0000000), wk =   0.0625000
        k(   12) = (   0.0000000   0.2302962   0.0000000), wk =   0.1250000
        k(   13) = (   0.0000000  -0.4605925   0.0000000), wk =   0.0625000
        k(   14) = (   0.2500000   0.0000000   0.0000000), wk =   0.1250000
        k(   15) = (   0.2500000   0.2302962   0.0000000), wk =   0.1250000
        k(   16) = (   0.2500000  -0.4605925   0.0000000), wk =   0.1250000
        k(   17) = (  -0.5000000   0.0000000   0.0000000), wk =   0.0625000
        k(   18) = (  -0.5000000   0.2302962   0.0000000), wk =   0.1250000
        k(   19) = (  -0.5000000  -0.4605925   0.0000000), wk =   0.0625000
        k(   20) = (  -0.2500000   0.2302962   0.0000000), wk =   0.1250000

     Largest allocated arrays     est. size (Mb)     dimensions
     Largest temporary arrays     est. size (Mb)     dimensions

     Check: negative/imaginary core charge=   -0.000022    0.000000

     Initial potential from superposition of free atoms
     Check: negative starting charge=(component1):   -0.000716
     Check: negative starting charge=(component2):   -0.000389

     starting charge  230.99986, renormalised to  239.00000

     negative rho (up, down):  0.741E-03 0.403E-03
     Number of +U iterations with fixed ns =  0
     Starting occupations:
 --- enter write_ns ---
 LDA+U parameters:
U( 2)     =  7.00000000
alpha( 2) =  0.00000000
atom    3   Tr[ns(na)] (up, down, total) =   5.00000  0.00000  5.00000
   spin  1
    eigenvalues:
  1.000  1.000  1.000  1.000  1.000
    eigenvectors:
  1.000  0.000  0.000  0.000  0.000
  0.000  1.000  0.000  0.000  0.000
  0.000  0.000  1.000  0.000  0.000
  0.000  0.000  0.000  1.000  0.000
  0.000  0.000  0.000  0.000  1.000
    occupations:
  1.000  0.000  0.000  0.000  0.000
  0.000  1.000  0.000  0.000  0.000
  0.000  0.000  1.000  0.000  0.000
  0.000  0.000  0.000  1.000  0.000
  0.000  0.000  0.000  0.000  1.000
   spin  2
    eigenvalues:
  0.000  0.000  0.000  0.000  0.000
    eigenvectors:
  1.000  0.000  0.000  0.000  0.000
  0.000  1.000  0.000  0.000  0.000
  0.000  0.000  1.000  0.000  0.000
  0.000  0.000  0.000  1.000  0.000
  0.000  0.000  0.000  0.000  1.000
    occupations:
  0.000  0.000  0.000  0.000  0.000
  0.000  0.000  0.000  0.000  0.000
  0.000  0.000  0.000  0.000  0.000
  0.000  0.000  0.000  0.000  0.000
  0.000  0.000  0.000  0.000  0.000
atomic mag. moment =     5.000000
atom    4   Tr[ns(na)] (up, down, total) =   5.00000  0.00000  5.00000
   spin  1
    eigenvalues:
  1.000  1.000  1.000  1.000  1.000
    eigenvectors:
  1.000  0.000  0.000  0.000  0.000
  0.000  1.000  0.000  0.000  0.000
  0.000  0.000  1.000  0.000  0.000
  0.000  0.000  0.000  1.000  0.000
  0.000  0.000  0.000  0.000  1.000
    occupations:
  1.000  0.000  0.000  0.000  0.000
  0.000  1.000  0.000  0.000  0.000
  0.000  0.000  1.000  0.000  0.000
  0.000  0.000  0.000  1.000  0.000
  0.000  0.000  0.000  0.000  1.000
   spin  2
    eigenvalues:
  0.000  0.000  0.000  0.000  0.000
    eigenvectors:
  1.000  0.000  0.000  0.000  0.000
  0.000  1.000  0.000  0.000  0.000
  0.000  0.000  1.000  0.000  0.000
  0.000  0.000  0.000  1.000  0.000
  0.000  0.000  0.000  0.000  1.000
    occupations:
  0.000  0.000  0.000  0.000  0.000
  0.000  0.000  0.000  0.000  0.000
  0.000  0.000  0.000  0.000  0.000
  0.000  0.000  0.000  0.000  0.000
  0.000  0.000  0.000  0.000  0.000
atomic mag. moment =     5.000000
atom    9   Tr[ns(na)] (up, down, total) =   5.00000  0.00000  5.00000
   spin  1
    eigenvalues:
  1.000  1.000  1.000  1.000  1.000
[...]
  0.002  0.042  0.956  0.000  0.000
  0.225  0.000  0.002  0.024  0.749
  0.000  0.957  0.042  0.001  0.000
    occupations:
  0.118 -0.001 -0.003  0.105 -0.000
 -0.001  0.274  0.000  0.009  0.007
 -0.003  0.000  0.087 -0.003  0.002
  0.105  0.009 -0.003  0.256  0.000
 -0.000  0.007  0.002  0.000  0.077
atomic mag. moment =     3.705363
atom    4   Tr[ns(na)] (up, down, total) =   4.52377  0.79893  5.32270
   spin  1
    eigenvalues:
  0.727  0.792  0.997  1.003  1.005
    eigenvectors:
  0.000  0.997  0.001  0.002  0.000
  0.000  0.001  0.000  0.913  0.086
  0.000  0.001  0.000  0.085  0.914
  0.000  0.001  0.999  0.000  0.000
  1.000  0.000  0.000  0.000  0.000
    occupations:
  0.792 -0.007 -0.006  0.006 -0.001
 -0.007  1.003 -0.001  0.000  0.004
 -0.006 -0.001  1.004  0.000 -0.000
  0.006  0.000  0.000  0.997 -0.000
 -0.001  0.004 -0.000 -0.000  0.727
   spin  2
    eigenvalues:
  0.067  0.075  0.080  0.260  0.317
    eigenvectors:
  0.008  0.001  0.000  0.991  0.000
  0.009  0.312  0.676  0.001  0.002
  0.031  0.646  0.322  0.001  0.000
  0.953  0.040  0.000  0.006  0.000
  0.000  0.001  0.001  0.000  0.998
    occupations:
  0.259  0.006  0.006 -0.015  0.000
  0.006  0.079 -0.003  0.000 -0.010
  0.006 -0.003  0.076  0.001 -0.000
 -0.015  0.000  0.001  0.069 -0.000
  0.000 -0.010 -0.000 -0.000  0.316
atomic mag. moment =     3.724849
atom    9   Tr[ns(na)] (up, down, total) =   4.50008  0.84827  5.34836
   spin  1
    eigenvalues:
  0.748  0.765  0.989  0.997  1.001
    eigenvectors:
  0.234  0.000  0.000  0.000  0.766
  0.000  1.000  0.000  0.000  0.000
  0.000  0.000  0.000  1.000  0.000
  0.766  0.000  0.000  0.000  0.234
  0.000  0.000  1.000  0.000  0.000
    occupations:
  0.942  0.001 -0.000 -0.107  0.000
  0.001  0.765 -0.000 -0.000  0.000
 -0.000 -0.000  0.997 -0.000 -0.000
 -0.107 -0.000 -0.000  0.807  0.000
  0.000  0.000 -0.000  0.000  0.989
   spin  2
    eigenvalues:
  0.070  0.081  0.088  0.302  0.307
    eigenvectors:
  0.803  0.000  0.000  0.078  0.118
  0.000  0.000  0.000  0.612  0.388
  0.000  0.001  0.999  0.000  0.000
  0.197  0.000  0.000  0.310  0.494
  0.000  0.999  0.001  0.000  0.000
    occupations:
  0.116  0.000  0.000  0.093 -0.000
  0.000  0.304 -0.000  0.003 -0.000
  0.000 -0.000  0.088  0.001  0.000
  0.093  0.003  0.001  0.259 -0.000
 -0.000 -0.000  0.000 -0.000  0.081
atomic mag. moment =     3.651812
atom   10   Tr[ns(na)] (up, down, total) =   4.70165  0.56747  5.26913
   spin  1
    eigenvalues:
  0.741  0.966  0.998  0.998  0.999
    eigenvectors:
  0.000  0.963  0.032  0.005  0.000
  0.000  0.001  0.232  0.767  0.000
  0.000  0.000  0.001  0.000  0.999
  0.000  0.036  0.735  0.228  0.000
  1.000  0.000  0.000  0.000  0.000
    occupations:
  0.967 -0.001  0.000  0.006  0.000
 -0.001  0.998  0.000  0.000 -0.002
  0.000  0.000  0.999  0.000  0.005
  0.006  0.000  0.000  0.997 -0.000
  0.000 -0.002  0.005 -0.000  0.741
   spin  2
    eigenvalues:
  0.054  0.063  0.069  0.124  0.258
    eigenvectors:
  0.034  0.000  0.000  0.966  0.000
  0.000  0.000  1.000  0.000  0.000
  0.000  1.000  0.000  0.000  0.000
  0.965  0.000  0.000  0.034  0.000
  0.000  0.000  0.000  0.000  1.000
    occupations:
  0.122  0.000 -0.000 -0.013  0.000
  0.000  0.069  0.000 -0.000  0.001
 -0.000  0.000  0.063 -0.000 -0.003
 -0.013 -0.000 -0.000  0.056 -0.000
  0.000  0.001 -0.003 -0.000  0.258
atomic mag. moment =     4.134178
atom   16   Tr[ns(na)] (up, down, total) =   4.51756  0.81064  5.32820
   spin  1
    eigenvalues:
  0.740  0.773  0.999  1.001  1.003
    eigenvectors:
  0.256  0.001  0.000  0.575  0.168
  0.000  0.996  0.001  0.002  0.000
  0.000  0.000  0.000  0.222  0.777
  0.744  0.001  0.000  0.200  0.055
  0.000  0.001  0.999  0.000  0.000
    occupations:
  0.935 -0.010 -0.002 -0.114 -0.000
 -0.010  0.774 -0.001  0.006 -0.007
 -0.002 -0.001  1.003 -0.001 -0.000
 -0.114  0.006 -0.001  0.807 -0.000
 -0.000 -0.007 -0.000 -0.000  0.999
   spin  2
    eigenvalues:
  0.062  0.076  0.087  0.272  0.314
    eigenvectors:
  0.772  0.000  0.001  0.013  0.214
  0.001  0.001  0.000  0.960  0.038
  0.002  0.046  0.952  0.000  0.000
  0.225  0.000  0.001  0.025  0.748
  0.000  0.953  0.046  0.001  0.000
    occupations:
  0.118  0.001 -0.003  0.105  0.000
  0.001  0.273  0.000 -0.009  0.007
 -0.003  0.000  0.087 -0.004 -0.002
  0.105 -0.009 -0.004  0.256 -0.001
  0.000  0.007 -0.002 -0.001  0.077
atomic mag. moment =     3.706913
atom   17   Tr[ns(na)] (up, down, total) =   4.52431  0.79787  5.32218
   spin  1
    eigenvalues:
  0.728  0.791  0.997  1.004  1.004
    eigenvectors:
  0.000  0.997  0.001  0.002  0.000
  0.000  0.001  0.000  0.813  0.186
  0.000  0.001  0.000  0.185  0.814
  0.000  0.001  0.999  0.000  0.000
  1.000  0.000  0.000  0.000  0.000
    occupations:
  0.792 -0.006 -0.006  0.006 -0.001
 -0.006  1.004 -0.000  0.000  0.004
 -0.006 -0.000  1.004  0.000 -0.001
  0.006  0.000  0.000  0.997 -0.000
 -0.001  0.004 -0.001 -0.000  0.728
   spin  2
    eigenvalues:
  0.067  0.075  0.080  0.259  0.317
    eigenvectors:
  0.008  0.001  0.000  0.991  0.000
  0.010  0.290  0.698  0.001  0.002
  0.032  0.667  0.300  0.001  0.000
  0.951  0.042  0.000  0.006  0.000
  0.000  0.000  0.001  0.000  0.998
    occupations:
  0.257  0.006  0.006 -0.015  0.000
  0.006  0.079 -0.003  0.000 -0.010
  0.006 -0.003  0.076  0.001  0.001
 -0.015  0.000  0.001  0.069 -0.000
  0.000 -0.010  0.001 -0.000  0.317
atomic mag. moment =     3.726443
atom   22   Tr[ns(na)] (up, down, total) =   4.49443  0.85594  5.35036
   spin  1
    eigenvalues:
  0.745  0.764  0.988  0.997  1.001
    eigenvectors:
  0.239  0.000  0.000  0.000  0.761
  0.001  0.999  0.000  0.000  0.000
  0.000  0.000  0.004  0.996  0.000
  0.761  0.001  0.000  0.000  0.239
  0.000  0.000  0.996  0.004  0.000
    occupations:
  0.939 -0.000 -0.000 -0.109 -0.000
 -0.000  0.764  0.000  0.001  0.000
 -0.000  0.000  0.997 -0.001 -0.001
 -0.109  0.001 -0.001  0.806 -0.000
 -0.000  0.000 -0.001 -0.000  0.988
   spin  2
    eigenvalues:
  0.070  0.082  0.089  0.303  0.312
    eigenvectors:
  0.800  0.000  0.000  0.018  0.182
  0.000  0.000  0.000  0.914  0.086
  0.000  0.003  0.997  0.000  0.000
  0.200  0.000  0.000  0.068  0.732
  0.000  0.997  0.003  0.000  0.000
    occupations:
  0.118 -0.000  0.000  0.097 -0.000
 -0.000  0.304 -0.000 -0.003 -0.000
  0.000 -0.000  0.089  0.001 -0.000
  0.097 -0.003  0.001  0.263  0.000
 -0.000 -0.000 -0.000  0.000  0.082
atomic mag. moment =     3.638489
atom   23   Tr[ns(na)] (up, down, total) =   4.56303  0.74092  5.30396
   spin  1
    eigenvalues:
  0.734  0.825  0.999  1.002  1.002
    eigenvectors:
  0.000  0.998  0.001  0.000  0.000
  0.000  0.000  0.006  0.000  0.993
  0.000  0.000  0.000  0.999  0.000
  0.000  0.001  0.992  0.000  0.006
  1.000  0.000  0.000  0.000  0.000
    occupations:
  0.826  0.002  0.002  0.006  0.000
  0.002  1.002 -0.000 -0.000 -0.002
  0.002 -0.000  1.002 -0.000 -0.004
  0.006 -0.000 -0.000  0.999  0.000
  0.000 -0.002 -0.004  0.000  0.734
   spin  2
    eigenvalues:
  0.066  0.068  0.072  0.221  0.314
    eigenvectors:
  0.000  0.008  0.000  0.991  0.000
  0.000  0.002  0.998  0.000  0.000
  0.983  0.016  0.001  0.000  0.000
  0.016  0.974  0.001  0.009  0.000
  0.000  0.000  0.000  0.000  1.000
    occupations:
  0.220 -0.001 -0.002 -0.014  0.000
 -0.001  0.072 -0.000  0.000  0.002
 -0.002 -0.000  0.066 -0.000  0.004
 -0.014  0.000 -0.000  0.069 -0.000
  0.000  0.002  0.004 -0.000  0.314
atomic mag. moment =     3.822109
N of occupied +U levels =  42.5733761
 --- exit write_ns ---

 ------ SPIN UP ------------

[...]

 ------ SPIN DOWN ----------

[...]

          k = 0.2500-0.4606 0.0000 ( 26462 PWs)   bands (ev):

[...]

          k =-0.2500 0.2303 0.0000 ( 26396 PWs)   bands (ev):

   -79.8541 -79.8448 -79.8375 -79.8291 -79.7208 -79.7111 -79.6777 -78.9154
   -48.7375 -48.7349 -48.7316 -48.7289 -48.7104 -48.6954 -48.6862 -48.6415
   -48.6402 -48.6382 -48.6101 -48.5794 -48.5717 -48.5618 -48.5543 -48.5538
   -48.5366 -48.5335 -48.3615 -48.3508 -48.3056 -47.9831 -47.8858 -47.4141
   -21.5355 -21.2036 -21.0264 -20.8235 -20.6616 -20.4518 -20.3132 -20.2982
   -20.1910 -20.0545 -20.0036 -19.9537 -19.8485 -19.8123 -19.7454 -19.6717
   -19.5538 -19.4347 -19.3845  -8.7997  -8.5435  -8.2094  -8.1320  -8.1074
    -7.9017  -7.7651  -7.6394  -7.3539  -7.2886  -7.1188  -7.0085  -6.9275
    -6.8325  -6.7599  -6.7397  -6.6195  -6.5262  -6.3884  -6.3031  -6.2088
    -6.0981  -6.0378  -5.9477  -5.8657  -5.7587  -5.6542  -5.5971  -5.5735
    -5.4815  -5.4064  -5.3356  -5.2325  -5.1445  -5.1198  -5.0018  -4.9363
    -4.8488  -4.7186  -4.6547  -4.5924  -4.5160  -4.3950  -4.3767  -4.3227
    -4.2060  -4.1285  -4.0226  -3.8944  -3.8416  -3.6508  -3.5850  -3.5063
    -3.3665  -3.1869  -3.1499  -2.8842   1.8668   1.9392   1.9683   1.9999
     2.0618   2.0924   2.1088   2.1545   2.1812   2.2306   2.3416   2.3566
     2.3831   2.4135   2.4383   2.5341   2.5539   2.6648   2.7075   2.7421
     2.7881   2.8542   2.8714   2.9102   2.9809   2.9984   3.0950   3.1230
     3.1471   3.2186   3.2943   3.3282   3.4138   3.4535   3.5179   3.6044
     3.6490   3.7292   3.7654   3.8663   3.9246   4.1353   4.4320   4.9095
     5.4391   5.7692   5.9727   6.0275   6.3018   6.4623   6.5672   6.6298
     6.7627   6.9385   7.1318   7.3668   7.5130   7.7113   7.9054   8.0170
     8.2820   8.4034   8.4973   8.5313   8.5825   8.6925   8.8956   9.0103
     9.2099   9.3085   9.4171   9.5287   9.6401   9.6894   9.9215   9.9952
    10.0617  10.2124  10.2888  10.3939  10.4894  10.7013  10.7344  10.8724
    10.9474  11.0547  11.0974  11.2091  11.2957  11.3663  11.4849  11.6138
    11.6897  11.7422  11.7962  11.8472  11.9548  12.0683  12.0966  12.2358
    12.3396  12.4547  12.5628  12.6433  12.6793  12.7973  12.8918  12.9458
    13.0112  13.1205  13.1440  13.1912  13.2398  13.3027  13.3784  13.4786
    13.5389  13.5862  13.6328  13.6684  13.7088  13.8292  13.8890  13.9547
    14.0490  14.1667  14.2094  14.2401  14.3248  14.3690  14.4282  14.5580
    14.6251  14.7042  14.8025  14.8957  14.9940  15.0083  15.1110  15.1838
    15.2773  15.3611  15.4642  15.5986  15.6751  15.8309  15.9191  15.9732
    16.0647  16.1813  16.2180  16.2748  16.3318  16.4060  16.4712  16.5669
    16.6356  16.6678  16.8135  16.8687  16.9559  17.0034  17.1000  17.1822
    17.2083  17.3015  17.4278  17.4578  17.5672  17.6102  17.6661  17.7913
    17.8530  17.9013  17.9911  18.0942  18.1450  18.2431  18.2742  18.3304
    18.4140  18.5023  18.5715  18.6241  18.6668  18.8215  18.8519  18.9145
    19.0506  19.0810  19.1312  19.2279  19.2838  19.3078  19.4126  19.4771
    19.6185  19.7190  19.7944  19.8940  19.9234  19.9862  20.0380  20.0987
    20.1452  20.2046  20.2248  20.3116  20.3899  20.4592  20.6015  20.6219
    20.7110  20.8522  20.9160  21.0364  21.0971  21.1304  21.1986  21.2346
    21.2886  21.3786  21.5394  21.5740  21.6240  21.7271  21.7762  21.7991
    21.8729  21.9681  22.0693  22.1274  22.2199  22.3058  22.3511  22.4098
    22.5153  22.6176

     the spin up/dw Fermi energies are    -2.3214   -0.3654 ev

!    total energy              =   -2319.70470094 Ry
     Harris-Foulkes estimate   =   -2319.70470094 Ry
     estimated scf accuracy    <          7.3E-09 Ry

     The total energy is the sum of the following terms:

     one-electron contribution =  -25775.88446135 Ry
     hartree contribution      =   12908.42787924 Ry
     xc contribution           =    -349.87738454 Ry
     ewald contribution        =   10895.67629837 Ry
     Hubbard energy            =       1.95246192 Ry
     smearing contrib. (-TS)   =       0.00050543 Ry

     total magnetization       =    23.00 Bohr mag/cell
     absolute magnetization    =    38.05 Bohr mag/cell

     convergence has been achieved in  18 iterations

     Forces acting on atoms (Ry/au):

     negative rho (up, down):  0.152E-02 0.140E-02
     atom    1 type  1   force =    -0.00342273   -0.01117029    0.00033979
     atom    2 type  1   force =     0.00087950    0.00502672   -0.00037662
     atom    3 type  2   force =     0.01284411    0.00292243    0.00032247
     atom    4 type  2   force =     0.00555140    0.01012109   -0.00023170
     atom    5 type  1   force =     0.00192208    0.00890033   -0.00049970
     atom    6 type  1   force =    -0.00006744   -0.01538516   -0.00030131
     atom    7 type  1   force =     0.00141628    0.00317445    0.00053493
     atom    8 type  1   force =     0.00021967   -0.00283384    0.00052400
     atom    9 type  2   force =     0.00995180    0.00008362   -0.00070242
     atom   10 type  2   force =     0.00083254   -0.00259806   -0.00021575
     atom   11 type  1   force =    -0.01800866   -0.01438566    0.00007844
     atom   12 type  1   force =    -0.01782523    0.01533042    0.00039163
     atom   13 type  1   force =    -0.00208502   -0.00074398    0.00009487
     atom   14 type  1   force =    -0.00407510   -0.01087940    0.00046504
     atom   15 type  1   force =     0.00038603    0.00407557    0.00010061
     atom   16 type  2   force =    -0.01515895    0.00335576    0.00027465
     atom   17 type  2   force =     0.00581120    0.01004691   -0.00029217
     atom   18 type  1   force =     0.00055026    0.00876601   -0.00040928
     atom   19 type  1   force =    -0.00314200   -0.01549949   -0.00025023
     atom   20 type  1   force =    -0.00070278    0.00417919    0.00006625
     atom   21 type  1   force =    -0.00283420   -0.00287908    0.00030588
     atom   22 type  2   force =    -0.00848893    0.00071269   -0.00062719
     atom   23 type  2   force =     0.00035430   -0.00104598    0.00057987
     atom   24 type  1   force =     0.01707553   -0.00921628   -0.00006419
     atom   25 type  1   force =     0.01785577    0.00985220    0.00011569
     atom   26 type  1   force =     0.00090793   -0.00071691    0.00018458
     atom   27 type  3   force =     0.00002108    0.00046247    0.00041769
     atom   28 type  3   force =     0.00001604    0.00017171    0.00052343
     atom   29 type  3   force =    -0.00026498   -0.00008270   -0.00036175
     atom   30 type  3   force =    -0.00031096   -0.00005755   -0.00036197
     atom   31 type  1   force =    -0.00039906    0.00030504   -0.00068428
     atom   32 type  3   force =     0.00019053    0.00000777    0.00005875

     Total force =     0.002327     Total SCF correction =     0.000477
     SCF correction compared to forces is large: reduce conv_thr to get better values

     bfgs converged in  23 scf cycles and  22 bfgs steps
     (criteria: energy < 0.10E-03, force < 0.10E-02)

     End of BFGS Geometry Optimization

     Final energy   =   -2319.7047009355 Ry
Begin final coordinates

ATOMIC_POSITIONS (crystal)
O0       0.000000000   0.000000000   0.371299135    0   0   1
O0       0.000000000   0.500000000   0.391980282    0   0   1
Mn1      0.250000000   0.500000000   0.445895160    0   0   1
Mn1      0.000000000   0.000000000   0.446122215    0   0   1
O0       0.250000000   0.800000000   0.444149372    0   0   1
O0       0.250000000   0.200000000   0.449181932    0   0   1
O0       0.000000000   0.500000000   0.493729947    0   0   1
O0       0.000000000   0.000000000   0.525337452    0   0   1
Mn1      0.250000000   0.000000000   0.574820442    0   0   1
Mn1      0.000000000   0.500000000   0.570452451    0   0   1
O0       0.250000000   0.700000000   0.585323751    0   0   1
O0       0.250000000   0.300000000   0.586015559    0   0   1
O0       0.000000000   0.000000000   0.624870111    0   0   1
O0       0.500000000   0.000000000   0.371162959    0   0   1
O0       0.500000000   0.500000000   0.392203850    0   0   1
Mn1      0.750000000   0.500000000   0.445944728    0   0   1
Mn1      0.500000000   0.000000000   0.445909736    0   0   1
O0       0.750000000   0.800000000   0.443857119    0   0   1
O0       0.750000000   0.200000000   0.448958027    0   0   1
O0       0.500000000   0.500000000   0.497641496    0   0   1
O0       0.500000000   0.000000000   0.525343795    0   0   1
Mn1      0.750000000   0.000000000   0.574601066    0   0   1
Mn1      0.500000000   0.500000000   0.579742681    0   0   1
O0       0.750000000   0.700000000   0.583172993    0   0   1
O0       0.750000000   0.300000000   0.584079266    0   0   1
O0       0.500000000   0.000000000   0.625613604    0   0   1
H2       0.000562544   0.648154302   0.376552663
H2       0.500741666   0.647230100   0.376476642
H2       0.161083322   0.045737277   0.361072441
H2       0.660768162   0.046870171   0.361001801
O0       0.516100258   0.503217436   0.656168819
H2       0.353030317   0.500220592   0.669198505
End final coordinates

     General routines

     Parallel routines
     Hubbard U routines

   This run was terminated on:  17:11:33   6May2014

   JOB DONE.