     Program PWSCF v.5.0.2 (svn rev. 9656) starts on 31May2014 at  3:42:24

     Current dimensions of program PWSCF are:
     Max number of different atomic species (ntypx) = 10
     Max number of k-points (npk) =  40000
     Max angular momentum in pseudopotentials (lmaxx) =  3
     Reading input from pwscf.in
Warning: card &CELL ignored
Warning: card / ignored

     Subspace diagonalization in iterative solution of the eigenvalue problem:
     a serial algorithm will be used

     bravais-lattice index     =            0
     lattice parameter (alat)  =      12.2076  a.u.
     unit-cell volume          =    7496.5096 (a.u.)^3
     number of atoms/cell      =           33
     number of atomic types    =            3
     number of electrons       =       253.00
     number of Kohn-Sham states=          379
     kinetic-energy cutoff     =      40.0000  Ry
     charge density cutoff     =     500.0000  Ry
     convergence threshold     =      1.0E-06
     mixing beta               =       0.7000
     number of iterations used =            8  plain     mixing
     Exchange-correlation      = SLA  PW   PBE  PBE ( 1 4 3 4 0)
     EXX-fraction              =        0.00
     nstep                     =           50

     celldm(1)=  12.207631  celldm(2)=   0.000000  celldm(3)=   0.000000
     celldm(4)=   0.000000  celldm(5)=   0.000000  celldm(6)=   0.000000

     crystal axes: (cart. coord. in units of alat)
               a(1) = (   1.000000   0.000000   0.000000 )
               a(2) = (   0.000000   1.004836   0.000000 )
               a(3) = (   0.000000   0.000000   4.100811 )

     reciprocal axes: (cart. coord. in units 2 pi/alat)
               b(1) = (  1.000000  0.000000  0.000000 )
               b(2) = (  0.000000  0.995187  0.000000 )
               b(3) = (  0.000000  0.000000  0.243854 )

     PseudoPot. # 1 for O  read from file:
     /home/camp/zhonxu/pseudo/o_pbe_v1.01.uspp.F.UPF
     MD5 check sum: 2bcb18d16ea4b960afae9ec6d52f22d2
     Pseudo is Ultrasoft + core correction, Zval =  6.0
     Generated by new atomic code, or converted to UPF format
     Using radial grid of  737 points,  5 beta functions with:
                l(1) =   0
                l(2) =   0
                l(3) =   1
                l(4) =   1
                l(5) =   2
     Q(r) pseudized with  8 coefficients,  rinner =    0.900   0.900   0.900
                                                       0.900   0.900

     PseudoPot. # 2 for Pt read from file:
     /home/camp/zhonxu/pseudo/pt_pbe_v1.uspp.F.UPF
     MD5 check sum: 4c71d6ad5ef119f1eb26a4d0b7884226
     Pseudo is Ultrasoft + core correction, Zval = 16.0
     Generated by new atomic code, or converted to UPF format
     Using radial grid of  985 points,  6 beta functions with:
                l(1) =   0
                l(2) =   0
                l(3) =   1
                l(4) =   1
                l(5) =   2
                l(6) =   2
     Q(r) pseudized with  8 coefficients,  rinner =    1.300   1.300   1.300
                                                       1.300   1.300

     PseudoPot. # 3 for H  read from file:
     /home/camp/zhonxu/pseudo/h_pbe_v1.uspp.F.UPF
     MD5 check sum: 3408e3ff4ec8b0a4e358431e7e038a48
     Pseudo is Ultrasoft, Zval =  1.0
     Generated by new atomic code, or converted to UPF format
     Using radial grid of  615 points,  2 beta functions with:
                l(1) =   0
                l(2) =   0
     Q(r) pseudized with  8 coefficients,  rinner =    0.700

     atomic species   valence    mass     pseudopotential
        O0             6.00    15.99940     O ( 1.00)
        Pt1           16.00   195.08000     Pt( 1.00)
        H2             1.00     1.00794     H ( 1.00)

     Simplified LDA+U calculation (l_max = 2) with parameters (eV):
     atomic species    L          U    alpha       J0     beta
        Pt1            2     1.0000   0.0000   0.0000   0.0000

     No symmetry found

   Cartesian axes

     site n.     atom                  positions (alat units)
         1           O0  tau(   1) = (   0.0000000   0.0000000   1.5494095  )
         2           O0  tau(   2) = (   0.0000000   0.5024180   1.6475009  )
         3           Pt1 tau(   3) = (   0.2500000   0.5024180   1.8504910  )
         4           Pt1 tau(   4) = (   0.0000000   0.0000000   1.8570523  )
         5           O0  tau(   5) = (   0.2500000   0.8139171   1.8187098  )
         6           O0  tau(   6) = (   0.2500000   0.1909188   1.8864142  )
         7           O0  tau(   7) = (   0.0000000   0.5024180   2.0369959  )
         8           O0  tau(   8) = (   0.0000000   0.0000000   2.1720357  )
         9           Pt1 tau(   9) = (   0.2500000   0.0000000   2.3614521  )
        10           Pt1 tau(  10) = (   0.0000000   0.5024180   2.3598528  )
        11           O0  tau(  11) = (   0.2500000   0.6933368   2.3268823  )
        12           O0  tau(  12) = (   0.2500000   0.3114991   2.4033624  )
        13           O0  tau(  13) = (   0.0000000   0.0000000   2.5482851  )
        14           O0  tau(  14) = (   0.5000000   0.0000000   1.5485073  )
        15           O0  tau(  15) = (   0.5000000   0.5024180   1.6434821  )
        16           Pt1 tau(  16) = (   0.7500000   0.5024180   1.8504910  )
        17           Pt1 tau(  17) = (   0.5000000   0.0000000   1.8561092  )
        18           O0  tau(  18) = (   0.7500000   0.8139171   1.8187918  )
        19           O0  tau(  19) = (   0.7500000   0.1909188   1.8863321  )
        20           O0  tau(  20) = (   0.5000000   0.5024180   2.0428191  )
        21           O0  tau(  21) = (   0.5000000   0.0000000   2.1708874  )
        22           Pt1 tau(  22) = (   0.7500000   0.0000000   2.3614521  )
        23           Pt1 tau(  23) = (   0.5000000   0.5024180   2.3628874  )
        24           O0  tau(  24) = (   0.7500000   0.6933368   2.3268003  )
        25           O0  tau(  25) = (   0.7500000   0.3114991   2.4034034  )
        26           O0  tau(  26) = (   0.5000000   0.0000000   2.5460296  )
        27           H2  tau(  27) = (   0.0000200   0.6429744   1.5830361  )
        28           H2  tau(  28) = (   0.5000600   0.6435874   1.5806577  )
        29           H2  tau(  29) = (   0.1433700   0.0339333   1.5082373  )
        30           H2  tau(  30) = (   0.6430800   0.0354607   1.5076632  )
        31           O0  tau(  31) = (   0.5001100   0.5589199   2.6603192  )
        32           O0  tau(  32) = (   0.4999400   0.3687346   2.7792838  )
        33           H2  tau(  33) = (   0.4999900   0.4305019   2.9192445  )

     number of k points=    10  Methfessel-Paxton smearing, width (Ry)=  0.0100
                       cart. coord. in units 2pi/alat
        k(    1) = (   0.0000000   0.0000000   0.0000000), wk =   0.1250000
        k(    2) = (   0.0000000   0.2487968   0.0000000), wk =   0.2500000
        k(    3) = (   0.0000000  -0.4975937   0.0000000), wk =   0.1250000
        k(    4) = (   0.2500000   0.0000000   0.0000000), wk =   0.2500000
        k(    5) = (   0.2500000   0.2487968   0.0000000), wk =   0.2500000
        k(    6) = (   0.2500000  -0.4975937   0.0000000), wk =   0.2500000
        k(    7) = (  -0.5000000   0.0000000   0.0000000), wk =   0.1250000
        k(    8) = (  -0.5000000   0.2487968   0.0000000), wk =   0.2500000
        k(    9) = (  -0.5000000  -0.4975937   0.0000000), wk =   0.1250000
        k(   10) = (  -0.2500000   0.2487968   0.0000000), wk =   0.2500000

     Largest allocated arrays     est. size (Mb)     dimensions
     Largest temporary arrays     est. size (Mb)     dimensions

     Check: negative/imaginary core charge=   -0.000003    0.000000

     Initial potential from superposition of free atoms
     Check: negative starting charge=   -1.535323

     starting charge  248.99983, renormalised to  253.00000

     negative rho (up, down):  0.156E+01 0.000E+00
     Number of +U iterations with fixed ns =  0
     Starting occupations:
 --- enter write_ns ---
 LDA+U parameters:
U( 2)     =  1.00000000
alpha( 2) =  0.00000000
atom    3   Tr[ns(na)] =   8.00000
    eigenvalues:
  0.800  0.800  0.800  0.800  0.800
    eigenvectors:
  1.000  0.000  0.000  0.000  0.000
  0.000  1.000  0.000  0.000  0.000
  0.000  0.000  1.000  0.000  0.000
  0.000  0.000  0.000  1.000  0.000
  0.000  0.000  0.000  0.000  1.000
    occupations:
  0.800  0.000  0.000  0.000  0.000
  0.000  0.800  0.000  0.000  0.000
  0.000  0.000  0.800  0.000  0.000
  0.000  0.000  0.000  0.800  0.000
  0.000  0.000  0.000  0.000  0.800
atom    4   Tr[ns(na)] =   8.00000
    eigenvalues:
  0.800  0.800  0.800  0.800  0.800
    eigenvectors:
  1.000  0.000  0.000  0.000  0.000
  0.000  1.000  0.000  0.000  0.000
  0.000  0.000  1.000  0.000  0.000
  0.000  0.000  0.000  1.000  0.000
  0.000  0.000  0.000  0.000  1.000
    occupations:
  0.800  0.000  0.000  0.000  0.000
  0.000  0.800  0.000  0.000  0.000
  0.000  0.000  0.800  0.000  0.000
  0.000  0.000  0.000  0.800  0.000
  0.000  0.000  0.000  0.000  0.800
atom    9   Tr[ns(na)] =   8.00000
    eigenvalues:
  0.800  0.800  0.800  0.800  0.800
    eigenvectors:
  1.000  0.000  0.000  0.000  0.000
  0.000  1.000  0.000  0.000  0.000
  0.000  0.000  1.000  0.000  0.000
  0.000  0.000  0.000  1.000  0.000
  0.000  0.000  0.000  0.000  1.000
    occupations:
  0.800  0.000  0.000  0.000  0.000
  0.000  0.800  0.000  0.000  0.000
  0.000  0.000  0.800  0.000  0.000
  0.000  0.000  0.000  0.800  0.000
  0.000  0.000  0.000  0.000  0.800
atom   10   Tr[ns(na)] =   8.00000
    eigenvalues:
  0.800  0.800  0.800  0.800  0.800
    eigenvectors:
  1.000  0.000  0.000  0.000  0.000
  0.000  1.000  0.000  0.000  0.000
  0.000  0.000  1.000  0.000  0.000
  0.000  0.000  0.000  1.000  0.000
  0.000  0.000  0.000  0.000  1.000
    occupations:
  0.800  0.000  0.000  0.000  0.000
  0.000  0.800  0.000  0.000  0.000
  0.000  0.000  0.800  0.000  0.000
  0.000  0.000  0.000  0.800  0.000
  0.000  0.000  0.000  0.000  0.800
atom   16   Tr[ns(na)] =   8.00000
    eigenvalues:
  0.800  0.800  0.800  0.800  0.800
    eigenvectors:
  1.000  0.000  0.000  0.000  0.000
  0.000  1.000  0.000  0.000  0.000
  0.000  0.000  1.000  0.000  0.000
  0.000  0.000  0.000  1.000  0.000
  0.000  0.000  0.000  0.000  1.000
    occupations:
  0.800  0.000  0.000  0.000  0.000
  0.000  0.800  0.000  0.000  0.000
  0.000  0.000  0.800  0.000  0.000
  0.000  0.000  0.000  0.800  0.000
  0.000  0.000  0.000  0.000  0.800
atom   17   Tr[ns(na)] =   8.00000
    eigenvalues:
  0.800  0.800  0.800  0.800  0.800
    eigenvectors:
  1.000  0.000  0.000  0.000  0.000
  0.000  1.000  0.000  0.000  0.000
  0.000  0.000  1.000  0.000  0.000
  0.000  0.000  0.000  1.000  0.000
  0.000  0.000  0.000  0.000  1.000
    occupations:
  0.800  0.000  0.000  0.000  0.000
  0.000  0.800  0.000  0.000  0.000
  0.000  0.000  0.800  0.000  0.000
  0.000  0.000  0.000  0.800  0.000
  0.000  0.000  0.000  0.000  0.800
atom   22   Tr[ns(na)] =   8.00000
    eigenvalues:
  0.800  0.800  0.800  0.800  0.800
    eigenvectors:
  1.000  0.000  0.000  0.000  0.000
  0.000  1.000  0.000  0.000  0.000
  0.000  0.000  1.000  0.000  0.000
[...]
  0.681  0.698  0.982  0.984  0.987
    eigenvectors:
  0.051  0.126  0.784  0.001  0.038
  0.737  0.263  0.000  0.000  0.000
  0.001  0.003  0.057  0.002  0.937
  0.212  0.609  0.157  0.000  0.023
  0.000  0.000  0.002  0.996  0.001
    occupations:
  0.931 -0.007  0.006 -0.110 -0.001
 -0.007  0.685 -0.002 -0.006 -0.002
  0.006 -0.002  0.986  0.016  0.000
 -0.110 -0.006  0.016  0.746 -0.001
 -0.001 -0.002  0.000 -0.001  0.984
atom   17   Tr[ns(na)] =   8.65000
    eigenvalues:
  0.683  0.702  0.976  0.981  0.983
    eigenvectors:
  0.000  0.987  0.006  0.002  0.006
  0.008  0.000  0.055  0.931  0.006
  0.000  0.004  0.905  0.046  0.045
  0.000  0.009  0.034  0.014  0.943
  0.992  0.000  0.000  0.007  0.000
    occupations:
  0.706 -0.005 -0.018  0.026 -0.001
 -0.005  0.978  0.001  0.000  0.026
 -0.018  0.001  0.975  0.003  0.000
  0.026  0.000  0.003  0.980  0.000
 -0.001  0.026  0.000  0.000  0.685
atom   22   Tr[ns(na)] =   8.62100
    eigenvalues:
  0.705  0.716  0.950  0.956  0.984
    eigenvectors:
  0.001  0.136  0.002  0.012  0.848
  0.997  0.003  0.000  0.000  0.000
  0.000  0.010  0.176  0.806  0.008
  0.002  0.851  0.001  0.003  0.144
  0.000  0.000  0.821  0.179  0.000
    occupations:
  0.946  0.002 -0.006 -0.092  0.000
  0.002  0.705  0.000 -0.000 -0.003
 -0.006  0.000  0.953 -0.023 -0.002
 -0.092 -0.000 -0.023  0.755  0.000
  0.000 -0.003 -0.002  0.000  0.951
atom   23   Tr[ns(na)] =   8.64288
    eigenvalues:
  0.696  0.701  0.959  0.981  0.984
    eigenvectors:
  0.000  0.962  0.000  0.030  0.008
  0.015  0.000  0.985  0.000  0.000
  0.000  0.030  0.000  0.970  0.000
  0.000  0.008  0.000  0.000  0.992
  0.985  0.000  0.015  0.000  0.000
    occupations:
  0.712  0.000  0.048  0.024 -0.000
  0.000  0.955  0.000 -0.000 -0.032
  0.048  0.000  0.972 -0.004 -0.000
  0.024 -0.000 -0.004  0.982 -0.000
 -0.000 -0.032 -0.000 -0.000  0.700
N of occupied +U levels =  69.2165376
 --- exit write_ns ---

     Threshold (ethr) on eigenvalues was too large:
     Diagonalizing with lowered threshold

     Davidson diagonalization with overlap
     ethr =  1.96E-08,  avg # of iterations =  1.8

[...]

     total energy              =   -2313.92706020 Ry
     Harris-Foulkes estimate   =   -2313.92706021 Ry
     estimated scf accuracy    <       0.00000024 Ry

     iteration # 14     ecut=    40.00 Ry     beta=0.70
     Davidson diagonalization with overlap
     ethr =  6.90E-12,  avg # of iterations =  1.0

     negative rho (up, down):  0.158E+01 0.000E+00

     End of self-consistent calculation
 --- enter write_ns ---
 LDA+U parameters:
U( 2)     =  1.00000000
alpha( 2) =  0.00000000
atom    3   Tr[ns(na)] =   8.66276
    eigenvalues:
  0.681  0.698  0.982  0.984  0.987
    eigenvectors:
  0.051  0.125  0.781  0.004  0.038
  0.734  0.266  0.000  0.000  0.000
  0.001  0.003  0.057  0.003  0.937
  0.214  0.606  0.156  0.000  0.023
  0.000  0.000  0.006  0.992  0.002
    occupations:
  0.931  0.007  0.006 -0.110  0.001
  0.007  0.685  0.002  0.006 -0.002
  0.006  0.002  0.986  0.016 -0.000
 -0.110  0.006  0.016  0.746  0.001
  0.001 -0.002 -0.000  0.001  0.984
atom    4   Tr[ns(na)] =   8.65106
    eigenvalues:
  0.683  0.702  0.976  0.981  0.983
    eigenvectors:
  0.000  0.986  0.006  0.001  0.006
  0.008  0.000  0.037  0.949  0.005
  0.000  0.004  0.929  0.031  0.036
  0.000  0.009  0.028  0.011  0.953
  0.992  0.000  0.000  0.007  0.000
    occupations:
  0.706 -0.005 -0.018  0.026 -0.001
 -0.005  0.978  0.001  0.000  0.026
 -0.018  0.001  0.975  0.003  0.000
  0.026  0.000  0.003  0.980  0.000
 -0.001  0.026  0.000  0.000  0.686
atom    9   Tr[ns(na)] =   8.62083
    eigenvalues:
  0.705  0.716  0.950  0.956  0.984
    eigenvectors:
  0.000  0.137  0.002  0.012  0.848
  0.999  0.000  0.000  0.000  0.000
  0.000  0.010  0.163  0.819  0.008
  0.000  0.853  0.001  0.003  0.144
  0.000  0.000  0.834  0.166  0.000
    occupations:
  0.946 -0.001 -0.006 -0.092 -0.000
 -0.001  0.705 -0.000  0.001 -0.003
 -0.006 -0.000  0.953 -0.023  0.002
 -0.092  0.001 -0.023  0.755  0.000
 -0.000 -0.003  0.002  0.000  0.951
atom   10   Tr[ns(na)] =   8.70793
    eigenvalues:
  0.658  0.760  0.974  0.979  0.983
    eigenvectors:
  0.000  0.983  0.000  0.004  0.013
  0.010  0.000  0.990  0.000  0.000
  0.000  0.001  0.000  0.531  0.468
  0.000  0.016  0.000  0.465  0.519
  0.990  0.000  0.010  0.000  0.000
    occupations:
  0.764  0.000 -0.007  0.028  0.000
  0.000  0.971 -0.000  0.000 -0.031
 -0.007 -0.000  0.980 -0.001 -0.000
  0.028  0.000 -0.001  0.977 -0.000
  0.000 -0.031 -0.000 -0.000  0.661
atom   16   Tr[ns(na)] =   8.66276
    eigenvalues:
  0.681  0.698  0.982  0.984  0.987
    eigenvectors:
  0.052  0.124  0.784  0.001  0.038
  0.731  0.269  0.000  0.000  0.000
  0.001  0.003  0.057  0.002  0.937
  0.217  0.604  0.157  0.000  0.023
  0.000  0.000  0.002  0.996  0.001
    occupations:
  0.931 -0.007  0.006 -0.110 -0.001
 -0.007  0.685 -0.002 -0.006 -0.002
  0.006 -0.002  0.986  0.016  0.000
 -0.110 -0.006  0.016  0.746 -0.001
 -0.001 -0.002  0.000 -0.001  0.984
atom   17   Tr[ns(na)] =   8.64959
    eigenvalues:
  0.683  0.702  0.976  0.981  0.983
    eigenvectors:
  0.000  0.987  0.006  0.002  0.006
  0.008  0.000  0.055  0.931  0.006
  0.000  0.004  0.905  0.046  0.045
  0.000  0.009  0.034  0.014  0.943
  0.992  0.000  0.000  0.007  0.000
    occupations:
  0.706 -0.005 -0.018  0.026 -0.001
 -0.005  0.978  0.001  0.000  0.026
 -0.018  0.001  0.975  0.003  0.000
  0.026  0.000  0.003  0.980  0.000
 -0.001  0.026  0.000  0.000  0.685
atom   22   Tr[ns(na)] =   8.62080
    eigenvalues:
  0.705  0.716  0.950  0.956  0.984
    eigenvectors:
  0.001  0.137  0.002  0.012  0.848
  0.997  0.003  0.000  0.000  0.000
  0.000  0.010  0.180  0.803  0.008
  0.002  0.851  0.001  0.003  0.144
  0.000  0.000  0.817  0.183  0.000
    occupations:
  0.946  0.002 -0.006 -0.092  0.000
  0.002  0.705  0.000 -0.000 -0.003
 -0.006  0.000  0.953 -0.023 -0.002
 -0.092 -0.000 -0.023  0.755  0.000
  0.000 -0.003 -0.002  0.000  0.951
atom   23   Tr[ns(na)] =   8.64187
    eigenvalues:
  0.695  0.701  0.959  0.981  0.984
    eigenvectors:
  0.000  0.962  0.000  0.030  0.008
  0.015  0.000  0.985  0.000  0.000
  0.000  0.030  0.000  0.970  0.000
  0.000  0.008  0.000  0.000  0.992
  0.985  0.000  0.015  0.000  0.000
    occupations:
  0.712  0.000  0.048  0.024 -0.000
  0.000  0.955  0.000 -0.000 -0.032
  0.048  0.000  0.973 -0.004 -0.000
  0.024 -0.000 -0.004  0.982 -0.000
 -0.000 -0.032 -0.000 -0.000  0.699
N of occupied +U levels =  69.2175832
 --- exit write_ns ---

[...]

          k = 0.2500-0.4976 0.0000 ( 32026 PWs)   bands (ev):

[...]

          k =-0.2500 0.2488 0.0000 ( 32025 PWs)   bands (ev):

   -55.1730 -55.1547 -55.1152 -55.0756 -55.0571 -55.0380 -55.0187 -55.0159
   -55.0115 -54.9731 -54.8909 -54.8902 -54.8870 -54.7956 -54.7903 -54.7389
   -54.7336 -54.7265 -54.7217 -54.7066 -54.7009 -54.3141 -54.0758 -53.7472
   -23.5766 -21.4082 -21.0840 -20.5033 -20.2993 -20.0024 -19.8838 -19.8419
   -19.6989 -19.6722 -19.5911 -19.5432 -19.4813 -19.4443 -19.3169 -19.2751
   -19.2278 -18.4546 -18.3057 -17.3069  -9.5925  -9.3378  -9.2229  -9.1325
    -8.8198  -8.7526  -8.6793  -8.5626  -8.4538  -8.4099  -8.3622  -8.2125
    -8.1733  -8.1054  -8.0189  -7.9335  -7.9167  -7.8076  -7.6237  -7.3528
    -7.2751  -7.0828  -7.0687  -6.9661  -6.8834  -6.7046  -6.4001  -6.3400
    -6.2206  -6.1431  -6.0924  -6.0443  -5.9707  -5.8625  -5.7664  -5.7396
    -5.6953  -5.5261  -5.4886  -5.4128  -5.2951  -5.2096  -5.1142  -4.9455
    -4.8406  -4.7546  -4.6322  -4.4591  -4.4069  -4.3023  -4.2669  -4.1333
    -4.0753  -3.9946  -3.8341  -3.7289  -3.6570  -3.5633  -3.5037  -3.4029
    -3.3113  -3.1874  -3.0734  -3.0267  -2.9678  -2.8953  -2.7978  -2.7727
    -2.7154  -2.6613  -2.3971  -2.3300  -2.0665  -1.8970  -1.8223  -1.6443
    -1.6018  -1.5266  -1.4733  -1.3572  -1.1457  -1.0181  -0.9882  -0.8448
    -0.3829  -0.1915  -0.0487   0.4000   0.5792   0.8810   1.0752   1.3614
     1.4293   1.5865   1.6207   1.9077   2.0542   2.0955   2.3856   3.4477
     3.7558   4.1090   4.5800   4.8951   5.1297   5.5857   5.7139   5.7734
     6.0083   6.1911   6.3305   6.4969   6.5426   6.7569   6.8690   6.9414
     7.0188   7.1130   7.2967   7.4716   7.6215   7.6521   7.7879   7.9010
     7.9572   8.0487   8.2173   8.2595   8.4307   8.4826   8.5644   8.6851
     8.8028   8.8247   8.9151   8.9439   9.1512   9.1938   9.3150   9.4167
     9.5369   9.5914   9.6701   9.7712   9.8621   9.9978  10.0431  10.1143
    10.2041  10.2970  10.4007  10.4923  10.5882  10.6520  10.7269  10.7774
    10.9465  11.0003  11.1162  11.2130  11.3098  11.3711  11.4375  11.5635
    11.6421  11.7265  11.8281  11.8868  11.9530  12.0295  12.0836  12.1533
    12.2416  12.2798  12.3708  12.4358  12.5744  12.6500  12.7181  12.7508
    12.8400  12.8860  12.9696  13.0118  13.1823  13.2519  13.3171  13.4178
    13.5224  13.5829  13.6400  13.6969  13.7821  13.8099  13.9216  14.0107
    14.1006  14.1544  14.2364  14.3579  14.4195  14.4553  14.5773  14.7161
    14.7545  14.8044  14.8963  14.9656  15.0614  15.1335  15.1810  15.2628
    15.3254  15.3366  15.4044  15.4428  15.5106  15.5740  15.6272  15.6644
    15.7529  15.8344  15.8592  15.9008  15.9791  16.0437  16.1158  16.1467
    16.2205  16.2775  16.3423  16.4336  16.5164  16.5865  16.7418  16.7742
    16.8172  16.9172  16.9891  17.0268  17.0598  17.0850  17.1087  17.1263
    17.1565  17.2037  17.2475  17.2643  17.2896  17.2994  17.3300  17.3345
    17.3855  17.4140  17.4673  17.4983  17.6092  17.6146  17.6826  17.7784
    17.8749  17.9668  17.9895  18.0791  18.1063  18.1966  18.2739  18.3566
    18.3802  18.4015  18.4776  18.5586  18.6089  18.6592  18.7258  18.8409
    18.9268  18.9578  19.0224  19.1018  19.1195  19.1901  19.3069  19.3737
    19.4401  19.5209  19.5684  19.6352  19.6717  19.8245  19.9664  20.0058
    20.0873  20.1474  20.1890  20.2343  20.2769  20.3169  20.3444  20.4036
    20.5129  20.5692  20.6488  20.7036  20.7433  20.8004  20.8254  20.8538
    20.9317  20.9860  21.0536  21.0721  21.1544  21.2231  21.3018  21.3329
    21.3813  21.4964  21.5045  21.5865  21.6128  21.6800  21.7766  21.8679
    21.9286  21.9817  22.0669  22.1479  22.2000  22.2729  22.3161  22.3460
    22.4216  22.4771  22.5506

     the Fermi energy is    -0.9571 ev

!    total energy              =   -2313.92706020 Ry
     Harris-Foulkes estimate   =   -2313.92706021 Ry
     estimated scf accuracy    <          5.5E-09 Ry

     The total energy is the sum of the following terms:

     one-electron contribution =  -24124.23276209 Ry
     hartree contribution      =   12111.77374493 Ry
     xc contribution           =    -579.98435610 Ry
     ewald contribution        =   10278.22839706 Ry
     Hubbard energy            =       0.28794355 Ry
     smearing contrib. (-TS)   =      -0.00002755 Ry

     convergence has been achieved in  14 iterations

     Forces acting on atoms (Ry/au):

     negative rho (up, down):  0.158E+01 0.000E+00
     atom    1 type  1   force =    -0.00742379   -0.00429913    0.00031758
     atom    2 type  1   force =     0.00012024    0.00496861    0.00047276
     atom    3 type  2   force =     0.00535189    0.00637007    0.00018031
     atom    4 type  2   force =     0.01019280    0.00363322    0.00005820
     atom    5 type  1   force =     0.00101060   -0.00459468   -0.00043424
     atom    6 type  1   force =     0.00009559   -0.00186447    0.00022357
     atom    7 type  1   force =     0.00013683   -0.00199248   -0.00080196
     atom    8 type  1   force =    -0.00403229    0.00045321   -0.00047481
     atom    9 type  2   force =     0.00618912    0.00445704   -0.00006620
     atom   10 type  2   force =    -0.00007111   -0.02220223    0.00064417
     atom   11 type  1   force =    -0.00271099    0.00217996   -0.00055769
     atom   12 type  1   force =    -0.01317142    0.01071381    0.00012807
     atom   13 type  1   force =    -0.00113441   -0.00760123    0.00016750
     atom   14 type  1   force =    -0.00782627   -0.00414660    0.00025105
     atom   15 type  1   force =     0.00016560    0.00144206   -0.00038080
     atom   16 type  2   force =    -0.00622752    0.00647434    0.00009064
     atom   17 type  2   force =     0.01015281    0.00506796   -0.00004565
     atom   18 type  1   force =     0.00121877   -0.00463252   -0.00042083
     atom   19 type  1   force =    -0.00020837   -0.00180148    0.00024200
     atom   20 type  1   force =     0.00000793   -0.00348863    0.00087640
     atom   21 type  1   force =    -0.00391782    0.00226875   -0.00066802
     atom   22 type  2   force =    -0.00254156    0.00440169   -0.00006781
     atom   23 type  2   force =     0.00007895    0.00619391    0.00043021
     atom   24 type  1   force =     0.00274787    0.00221815   -0.00057082
     atom   25 type  1   force =     0.01324008    0.01077645    0.00010688
     atom   26 type  1   force =    -0.00109008   -0.01520825   -0.00009143
     atom   27 type  3   force =     0.00000589   -0.00018597    0.00035474
     atom   28 type  3   force =     0.00000559    0.00036751    0.00024951
     atom   29 type  3   force =    -0.00021185   -0.00008645   -0.00023066
     atom   30 type  3   force =    -0.00014846   -0.00012393   -0.00012330
     atom   31 type  1   force =     0.00003538    0.00022644   -0.00073352
     atom   32 type  1   force =    -0.00004517    0.00006243    0.00054295
     atom   33 type  3   force =     0.00000515   -0.00004755    0.00033122

     Total force =     0.002442     Total SCF correction =     0.000280
     SCF correction compared to forces is large: reduce conv_thr to get better values

     entering subroutine stress ...

     negative rho (up, down):  0.158E+01 0.000E+00
          total   stress  (Ry/bohr**3)                   (kbar)     P=  -18.64
  -0.00020067   0.00000002   0.00000408        -29.52      0.00      0.60
   0.00000002  -0.00012995  -0.00000660          0.00    -19.12     -0.97
   0.00000408  -0.00000660  -0.00004957          0.60     -0.97     -7.29

     bfgs converged in   5 scf cycles and   4 bfgs steps
     (criteria: energy < 0.10E-03, force < 0.10E-02)

     End of BFGS Geometry Optimization

     Final energy   =   -2313.9270602020 Ry
Begin final coordinates

ATOMIC_POSITIONS (crystal)
O0       0.000000000   0.000000000   0.377688695    0   0   1
O0       0.000000000   0.500000000   0.401679393    0   0   1
Pt1      0.250000000   0.500000000   0.451267876    0   0   1
Pt1      0.000000000   0.000000000   0.452750916    0   0   1
O0       0.250000000   0.810000000   0.443356719    0   0   1
O0       0.250000000   0.190000000   0.460106532    0   0   1
O0       0.000000000   0.500000000   0.496777807    0   0   1
O0       0.000000000   0.000000000   0.529649880    0   0   1
Pt1      0.250000000   0.000000000   0.575804806    0   0   1
Pt1      0.000000000   0.500000000   0.575324654    0   0   1
O0       0.250000000   0.690000000   0.567257696    0   0   1
O0       0.250000000   0.310000000   0.586190938    0   0   1
O0       0.000000000   0.000000000   0.621338220    0   0   1
O0       0.500000000   0.000000000   0.377543111    0   0   1
O0       0.500000000   0.500000000   0.401005625    0   0   1
Pt1      0.750000000   0.500000000   0.451275518    0   0   1
Pt1      0.500000000   0.000000000   0.452586884    0   0   1
O0       0.750000000   0.810000000   0.443372639    0   0   1
O0       0.750000000   0.190000000   0.460084155    0   0   1
O0       0.500000000   0.500000000   0.498130717    0   0   1
O0       0.500000000   0.000000000   0.529437424    0   0   1
Pt1      0.750000000   0.000000000   0.575803016    0   0   1
Pt1      0.500000000   0.500000000   0.576204516    0   0   1
O0       0.750000000   0.690000000   0.567236405    0   0   1
O0       0.750000000   0.310000000   0.586186961    0   0   1
O0       0.500000000   0.000000000   0.620864603    0   0   1
H2       0.000025100   0.640261041   0.386108552
H2       0.500071590   0.640258485   0.385586083
H2       0.143633005   0.033821887   0.367848292
H2       0.643204157   0.035238983   0.367655908
O0       0.500146515   0.556127735   0.648877627
O0       0.499900248   0.367091221   0.677794942
H2       0.499993953   0.428591662   0.711932890
End final coordinates

     General routines

     Parallel routines
     Hubbard U routines

   This run was terminated on:  10: 1:30  31May2014

   JOB DONE.
Running PBS batch system epilogue script
Job id: 373309.audhumbla.fysik.dtu.dk
Username: zhonxu
Groupname: campgst
Jobname: PtO2/Eads-2-layers/OOH-U-1.0
Sessionid: 18307
Queuename: verylong
Accounting:
This job has allocated the following 16 nodes:
a073 a073 a073 a073 a073 a073 a073 a073 a042 a042 a042 a042 a042 a042 a042 a042
Finished epilogue job 373309.audhumbla.fysik.dtu.dk for zhonxu