     Program PWSCF v.5.0.2 (svn rev. 9656) starts on 24Jan2014 at 12:42: 0

     Current dimensions of program PWSCF are:
     Max number of different atomic species (ntypx) = 10
     Max number of k-points (npk) =  40000
     Max angular momentum in pseudopotentials (lmaxx) =  3
     Reading input from IrO2-v-0.95.in

     Subspace diagonalization in iterative solution of the eigenvalue problem:
     a serial algorithm will be used

     bravais-lattice index     =            0
     lattice parameter (alat)  =       8.6764  a.u.
     unit-cell volume          =     420.9216 (a.u.)^3
     number of atoms/cell      =            6
     number of atomic types    =            2
     number of electrons       =        54.00
     number of Kohn-Sham states=           78
     kinetic-energy cutoff     =      40.0000  Ry
     charge density cutoff     =     500.0000  Ry
     convergence threshold     =      1.0E-06
     mixing beta               =       0.3000
     number of iterations used =            8  plain     mixing
     Exchange-correlation      = SLA  PW   PBE  PBE ( 1 4 3 4 0)
     EXX-fraction              =        0.00
     nstep                     =           50

     celldm(1)=   8.676380  celldm(2)=   0.000000  celldm(3)=   0.000000
     celldm(4)=   0.000000  celldm(5)=   0.000000  celldm(6)=   0.000000

     crystal axes: (cart. coord. in units of alat)
               a(1) = (   1.000000   0.000000   0.000000 )
               a(2) = (   0.000000   1.000000   0.000000 )
               a(3) = (   0.000000   0.000000   0.644444 )

     reciprocal axes: (cart. coord. in units 2 pi/alat)
               b(1) = (  1.000000  0.000000  0.000000 )
               b(2) = (  0.000000  1.000000  0.000000 )
               b(3) = (  0.000000  0.000000  1.551724 )

     PseudoPot. # 1 for Ir read from file:
     /home/camp/zhonxu/pseudo/ir_pbe_v1.uspp.F.UPF
     MD5 check sum: abf987a9674477536ede83817f8f8b70
     Pseudo is Ultrasoft + core correction, Zval = 15.0
     Generated by new atomic code, or converted to UPF format
     Using radial grid of  983 points,  7 beta functions with:
                l(1) =   0
                l(2) =   0
                l(3) =   1
                l(4) =   1
                l(5) =   1
                l(6) =   2
                l(7) =   2
     Q(r) pseudized with  8 coefficients,  rinner =    1.350   1.350   1.350
                                                       1.350   1.350

     PseudoPot. # 2 for O  read from file:
     /home/camp/zhonxu/pseudo/o_pbe_v1.01.uspp.F.UPF
     MD5 check sum: 2bcb18d16ea4b960afae9ec6d52f22d2
     Pseudo is Ultrasoft + core correction, Zval =  6.0
     Generated by new atomic code, or converted to UPF format
     Using radial grid of  737 points,  5 beta functions with:
                l(1) =   0
                l(2) =   0
                l(3) =   1
                l(4) =   1
                l(5) =   2
     Q(r) pseudized with  8 coefficients,  rinner =    0.900   0.900   0.900
                                                       0.900   0.900

     atomic species   valence    mass     pseudopotential
        Ir0           15.00   192.22000     Ir( 1.00)
        O1             6.00    15.99940     O ( 1.00)

     Starting magnetic structure
     atomic species   magnetization
        Ir0          0.600
        O1           0.000

     16 Sym. Ops., with inversion, found ( 8 have fractional translation)

   Cartesian axes

     site n.     atom                  positions (alat units)
         1           Ir0 tau(   1) = (   0.0000000   0.0000000   0.0000000  )
         2           Ir0 tau(   2) = (   0.5000000   0.5000000   0.3222222  )
         3           O1  tau(   3) = (   0.3050000   0.3050000   0.0000000  )
         4           O1  tau(   4) = (  -0.3050000  -0.3050000   0.0000000  )
         5           O1  tau(   5) = (   0.8050000   0.1950000   0.3222222  )
         6           O1  tau(   6) = (   0.1950000   0.8050000   0.3222222  )

     number of k points=    36  Methfessel-Paxton smearing, width (Ry)=  0.0100
                       cart. coord. in units 2pi/alat
        k(    1) = (   0.0000000   0.0000000   0.0000000), wk =   0.0080000
        k(    2) = (   0.0000000   0.0000000   0.3103448), wk =   0.0160000
        k(    3) = (   0.0000000   0.0000000   0.6206897), wk =   0.0160000
        k(    4) = (   0.0000000   0.2000000   0.0000000), wk =   0.0320000
        k(    5) = (   0.0000000   0.2000000   0.3103448), wk =   0.0640000
        k(    6) = (   0.0000000   0.2000000   0.6206897), wk =   0.0640000
        k(    7) = (   0.0000000   0.4000000   0.0000000), wk =   0.0320000
        k(    8) = (   0.0000000   0.4000000   0.3103448), wk =   0.0640000
        k(    9) = (   0.0000000   0.4000000   0.6206897), wk =   0.0640000
        k(   10) = (   0.2000000   0.2000000   0.0000000), wk =   0.0320000
        k(   11) = (   0.2000000   0.2000000   0.3103448), wk =   0.0640000
        k(   12) = (   0.2000000   0.2000000   0.6206897), wk =   0.0640000
        k(   13) = (   0.2000000   0.4000000   0.0000000), wk =   0.0640000
        k(   14) = (   0.2000000   0.4000000   0.3103448), wk =   0.1280000
        k(   15) = (   0.2000000   0.4000000   0.6206897), wk =   0.1280000
        k(   16) = (   0.4000000   0.4000000   0.0000000), wk =   0.0320000
        k(   17) = (   0.4000000   0.4000000   0.3103448), wk =   0.0640000
        k(   18) = (   0.4000000   0.4000000   0.6206897), wk =   0.0640000
        k(   19) = (   0.0000000   0.0000000   0.0000000), wk =   0.0080000
        k(   20) = (   0.0000000   0.0000000   0.3103448), wk =   0.0160000
        k(   21) = (   0.0000000   0.0000000   0.6206897), wk =   0.0160000
        k(   22) = (   0.0000000   0.2000000   0.0000000), wk =   0.0320000
        k(   23) = (   0.0000000   0.2000000   0.3103448), wk =   0.0640000
        k(   24) = (   0.0000000   0.2000000   0.6206897), wk =   0.0640000
        k(   25) = (   0.0000000   0.4000000   0.0000000), wk =   0.0320000
        k(   26) = (   0.0000000   0.4000000   0.3103448), wk =   0.0640000
        k(   27) = (   0.0000000   0.4000000   0.6206897), wk =   0.0640000
        k(   28) = (   0.2000000   0.2000000   0.0000000), wk =   0.0320000
        k(   29) = (   0.2000000   0.2000000   0.3103448), wk =   0.0640000
        k(   30) = (   0.2000000   0.2000000   0.6206897), wk =   0.0640000
        k(   31) = (   0.2000000   0.4000000   0.0000000), wk =   0.0640000
        k(   32) = (   0.2000000   0.4000000   0.3103448), wk =   0.1280000
        k(   33) = (   0.2000000   0.4000000   0.6206897), wk =   0.1280000
        k(   34) = (   0.4000000   0.4000000   0.0000000), wk =   0.0320000
        k(   35) = (   0.4000000   0.4000000   0.3103448), wk =   0.0640000
        k(   36) = (   0.4000000   0.4000000   0.6206897), wk =   0.0640000

     Largest allocated arrays     est. size (Mb)     dimensions
     Largest temporary arrays     est. size (Mb)     dimensions

     Check: negative/imaginary core charge=   -0.000004    0.000000

     Initial potential from superposition of free atoms
     Check: negative starting charge=(component1):   -0.668580
     Check: negative starting charge=(component2):   -0.166238

     starting charge   52.99993, renormalised to   54.00000

     negative rho (up, down):  0.681E+00 0.169E+00
     Starting wfc are   40 randomized atomic wfcs

     Self-consistent Calculation

     iteration #  1     ecut=    40.00 Ry     beta=0.30
     Davidson diagonalization with overlap
     ethr =  1.00E-02,  avg # of iterations =  5.1

     negative rho (up, down):  0.606E+00 0.200E+00

     total energy              =    -499.59511258 Ry
     Harris-Foulkes estimate   =    -501.21628159 Ry
     estimated scf accuracy    <       5.32213626 Ry

     total magnetization       =     5.91 Bohr mag/cell
     absolute magnetization    =     6.40 Bohr mag/cell

[...]

     End of self-consistent calculation

 ------ SPIN UP ------------

          k = 0.0000 0.0000 0.0000 (  1827 PWs)   bands (ev):

   -35.7857 -35.7857 -35.6380 -35.6380 -35.5699 -35.5547  -6.8432  -5.6144
    -4.5422  -4.5422   4.4579   4.7311   6.3660   6.5447   6.5447   9.2689
     9.2689   9.7958  11.0672  11.4600  11.4600  11.6410  11.7020  12.0418
    12.4367  12.4367  12.8227  15.4547  16.0477  18.9711  19.1687  19.1687
    20.6265  23.5071  23.5071  24.2763  24.2765  27.0739  27.4054  27.4626
    30.1727  31.0993  31.0993  31.3630  32.7196  34.7910  35.4304  35.4304
    36.6843  36.6843  38.1302  41.0191  41.2609  41.2609  41.2951  43.1177
    43.9075  44.1329  44.1841  45.4016  45.4016  45.9155  46.0141  46.0141
    46.8688  46.9828  46.9828  48.8954  50.8946  52.7639  52.7639  53.0655
    53.4020  53.7611  53.7611  54.8064  55.1233  55.1233

[...]

 ------ SPIN DOWN ----------

[...]

     the Fermi energy is    14.7109 ev

!    total energy              =    -501.23433225 Ry
     Harris-Foulkes estimate   =    -501.23433157 Ry
     estimated scf accuracy    <       0.00000015 Ry

     The total energy is the sum of the following terms:

     one-electron contribution =     -99.82940569 Ry
     hartree contribution      =      88.68088516 Ry
     xc contribution           =    -138.52011802 Ry
     ewald contribution        =    -351.56551232 Ry
     smearing contrib. (-TS)   =      -0.00018139 Ry

[...]

     convergence has been achieved in  13 iterations

     Forces acting on atoms (Ry/au):

     negative rho (up, down):  0.391E+00 0.391E+00
     atom    1 type  1   force =     0.00000000    0.00000000    0.00000000
     atom    2 type  1   force =     0.00000000    0.00000000   -0.00000000
     atom    3 type  2   force =    -0.02670270   -0.02670270    0.00000000
     atom    4 type  2   force =     0.02670270    0.02670270   -0.00000000
     atom    5 type  2   force =    -0.02670270    0.02670270    0.00000000
     atom    6 type  2   force =     0.02670270   -0.02670270   -0.00000000

     Total force =     0.075527     Total SCF correction =     0.000044

     entering subroutine stress ...

     negative rho (up, down):  0.391E+00 0.391E+00
          total   stress  (Ry/bohr**3)                   (kbar)     P=  193.09
   0.00047688   0.00000000   0.00000000         70.15      0.00      0.00
   0.00000000   0.00047688   0.00000000          0.00     70.15      0.00
   0.00000000   0.00000000   0.00298413          0.00      0.00    438.98

     Volume is kept fixed: isostatic pressure set to zero

     BFGS Geometry Optimization

     number of scf cycles    =   1
     number of bfgs steps    =   0

     enthalpy new            =    -501.2343322506 Ry

     new trust radius        =       0.1714653548 bohr
     new conv_thr            =       0.0000010000 Ry

     new unit-cell volume =    420.92163 a.u.^3 (    62.37415 Ang^3 )

CELL_PARAMETERS (alat=  8.67638046)
   0.979528116   0.000000000   0.000000000
   0.000000000   0.979528116   0.000000000
   0.000000000   0.000000000   0.671663381

ATOMIC_POSITIONS (crystal)
Ir0      0.000000000   0.000000000   0.000000000    0   0   0
Ir0      0.500000000   0.500000000   0.500000000    0   0   0
O1       0.301922369   0.301922369   0.000000000    1   1   0
[...]
        k(   25) = (   0.0000000   0.4083599   0.0000000), wk =   0.0320000
        k(   26) = (   0.0000000   0.4083599   0.2977682), wk =   0.0640000
        k(   27) = (   0.0000000   0.4083599   0.5955364), wk =   0.0640000
        k(   28) = (   0.2041799   0.2041799   0.0000000), wk =   0.0320000
        k(   29) = (   0.2041799   0.2041799   0.2977682), wk =   0.0640000
        k(   30) = (   0.2041799   0.2041799   0.5955364), wk =   0.0640000
        k(   31) = (   0.2041799   0.4083599   0.0000000), wk =   0.0640000
        k(   32) = (   0.2041799   0.4083599   0.2977682), wk =   0.1280000
        k(   33) = (   0.2041799   0.4083599   0.5955364), wk =   0.1280000
        k(   34) = (   0.4083599   0.4083599   0.0000000), wk =   0.0320000
        k(   35) = (   0.4083599   0.4083599   0.2977682), wk =   0.0640000
        k(   36) = (   0.4083599   0.4083599   0.5955364), wk =   0.0640000

     Check: negative/imaginary core charge=   -0.000004    0.000000
     Check: negative starting charge=(component1):   -0.833130

[...]

     enthalpy old            =    -501.2343322506 Ry
     enthalpy new            =    -501.2581773358 Ry

     CASE: enthalpy_new < enthalpy_old

[...]

     Total force =     0.015214     Total SCF correction =     0.000525

[...]

     Total force =     0.000219     Total SCF correction =     0.000167
     SCF correction compared to forces is large: reduce conv_thr to get better values

[...]

     number of scf cycles    =   5
     number of bfgs steps    =   4

     enthalpy old            =    -501.2655218541 Ry
     enthalpy new            =    -501.2657677840 Ry

     CASE: enthalpy_new < enthalpy_old

     new trust radius        =       0.0015688535 bohr
     new conv_thr            =       0.0000000100 Ry

     new unit-cell volume =    420.92163 a.u.^3 (    62.37415 Ang^3 )

[...]

ATOMIC_POSITIONS (crystal)
Ir0      0.000000000   0.000000000   0.000000000    0   0   0
Ir0      0.500000000   0.500000000   0.500000000    0   0   0
O1       0.309031514   0.309031514   0.000000000    1   1   0
O1      -0.309031514  -0.309031514   0.000000000    1   1   0
O1       0.809031514   0.190968486   0.500000000    1   1   0
O1       0.190968486   0.809031514   0.500000000    1   1   0

     Check: negative starting charge=(component1):   -0.832011
     NEW-OLD atomic charge density approx. for the potential
     NEW k-points:
        k(    1) = (   0.0000000   0.0000000   0.0000000), wk =   0.0080000
        k(    2) = (   0.0000000   0.0000000   0.2912604), wk =   0.0160000
        k(    3) = (   0.0000000   0.0000000   0.5825209), wk =   0.0160000
        k(    4) = (   0.0000000   0.2064484   0.0000000), wk =   0.0320000
        k(    5) = (   0.0000000   0.2064484   0.2912604), wk =   0.0640000
        k(    6) = (   0.0000000   0.2064484   0.5825209), wk =   0.0640000
        k(    7) = (   0.0000000   0.4128968   0.0000000), wk =   0.0320000
        k(    8) = (   0.0000000   0.4128968   0.2912604), wk =   0.0640000
        k(    9) = (   0.0000000   0.4128968   0.5825209), wk =   0.0640000
        k(   10) = (   0.2064484   0.2064484   0.0000000), wk =   0.0320000
        k(   11) = (   0.2064484   0.2064484   0.2912604), wk =   0.0640000
        k(   12) = (   0.2064484   0.2064484   0.5825209), wk =   0.0640000
        k(   13) = (   0.2064484   0.4128968   0.0000000), wk =   0.0640000
        k(   14) = (   0.2064484   0.4128968   0.2912604), wk =   0.1280000
        k(   15) = (   0.2064484   0.4128968   0.5825209), wk =   0.1280000
        k(   16) = (   0.4128968   0.4128968   0.0000000), wk =   0.0320000
        k(   17) = (   0.4128968   0.4128968   0.2912604), wk =   0.0640000
        k(   18) = (   0.4128968   0.4128968   0.5825209), wk =   0.0640000
        k(   19) = (   0.0000000   0.0000000   0.0000000), wk =   0.0080000
        k(   20) = (   0.0000000   0.0000000   0.2912604), wk =   0.0160000
        k(   21) = (   0.0000000   0.0000000   0.5825209), wk =   0.0160000
        k(   22) = (   0.0000000   0.2064484   0.0000000), wk =   0.0320000
        k(   23) = (   0.0000000   0.2064484   0.2912604), wk =   0.0640000
        k(   24) = (   0.0000000   0.2064484   0.5825209), wk =   0.0640000
        k(   25) = (   0.0000000   0.4128968   0.0000000), wk =   0.0320000
        k(   26) = (   0.0000000   0.4128968   0.2912604), wk =   0.0640000
        k(   27) = (   0.0000000   0.4128968   0.5825209), wk =   0.0640000
        k(   28) = (   0.2064484   0.2064484   0.0000000), wk =   0.0320000
        k(   29) = (   0.2064484   0.2064484   0.2912604), wk =   0.0640000
        k(   30) = (   0.2064484   0.2064484   0.5825209), wk =   0.0640000
        k(   31) = (   0.2064484   0.4128968   0.0000000), wk =   0.0640000
        k(   32) = (   0.2064484   0.4128968   0.2912604), wk =   0.1280000
        k(   33) = (   0.2064484   0.4128968   0.5825209), wk =   0.1280000
        k(   34) = (   0.4128968   0.4128968   0.0000000), wk =   0.0320000
        k(   35) = (   0.4128968   0.4128968   0.2912604), wk =   0.0640000
        k(   36) = (   0.4128968   0.4128968   0.5825209), wk =   0.0640000

     Check: negative/imaginary core charge=   -0.000004    0.000000
     Check: negative starting charge=(component1):   -0.832002

[...]

     Threshold (ethr) on eigenvalues was too large:
     Diagonalizing with lowered threshold

     Davidson diagonalization with overlap
     ethr =  5.27E-10,  avg # of iterations =  2.0

[...]

     Volume is kept fixed: isostatic pressure set to zero

     bfgs converged in   6 scf cycles and   5 bfgs steps
     (criteria: energy < 0.10E-03, force < 0.10E-02, cell < 0.50E+00)

     End of BFGS Geometry Optimization

     Final enthalpy =    -501.2657691944 Ry
Begin final coordinates
     new unit-cell volume =    420.92163 a.u.^3 (    62.37415 Ang^3 )

CELL_PARAMETERS (alat=  8.67638046)
   0.968765112   0.000000000   0.000000000
   0.000000000   0.968765112   0.000000000
   0.000000000   0.000000000   0.686670680

ATOMIC_POSITIONS (crystal)
Ir0      0.000000000   0.000000000   0.000000000    0   0   0
Ir0      0.500000000   0.500000000   0.500000000    0   0   0
O1       0.309031514   0.309031514   0.000000000    1   1   0
O1      -0.309031514  -0.309031514   0.000000000    1   1   0
O1       0.809031514   0.190968486   0.500000000    1   1   0
O1       0.190968486   0.809031514   0.500000000    1   1   0
End final coordinates

     A final scf calculation at the relaxed structure.
     The G-vectors are recalculated for the final unit cell
     Results may differ from those at the preceding step.

     bravais-lattice index     =            0
     lattice parameter (alat)  =       8.6764  a.u.
     unit-cell volume          =     420.9216 (a.u.)^3
     number of atoms/cell      =            6
     number of atomic types    =            2
     number of electrons       =        54.00
     number of Kohn-Sham states=           78
     kinetic-energy cutoff     =      40.0000  Ry
     charge density cutoff     =     500.0000  Ry
     convergence threshold     =      1.0E-08
     mixing beta               =       0.3000
     number of iterations used =            8  plain     mixing
     Exchange-correlation      = SLA  PW   PBE  PBE ( 1 4 3 4 0)
     EXX-fraction              =        0.00

     celldm(1)=   8.676380  celldm(2)=   0.000000  celldm(3)=   0.000000
     celldm(4)=   0.000000  celldm(5)=   0.000000  celldm(6)=   0.000000

     crystal axes: (cart. coord. in units of alat)
               a(1) = (   0.968765   0.000000   0.000000 )
               a(2) = (   0.000000   0.968765   0.000000 )
               a(3) = (   0.000000   0.000000   0.686671 )

     reciprocal axes: (cart. coord. in units 2 pi/alat)
               b(1) = (  1.032242  0.000000  0.000000 )
               b(2) = (  0.000000  1.032242  0.000000 )
               b(3) = (  0.000000  0.000000  1.456302 )

     PseudoPot. # 1 for Ir read from file:
     /home/camp/zhonxu/pseudo/ir_pbe_v1.uspp.F.UPF
     MD5 check sum: abf987a9674477536ede83817f8f8b70
     Pseudo is Ultrasoft + core correction, Zval = 15.0
     Generated by new atomic code, or converted to UPF format
     Using radial grid of  983 points,  7 beta functions with:
                l(1) =   0
                l(2) =   0
                l(3) =   1
                l(4) =   1
                l(5) =   1
                l(6) =   2
                l(7) =   2
     Q(r) pseudized with  8 coefficients,  rinner =    1.350   1.350   1.350
                                                       1.350   1.350

     PseudoPot. # 2 for O  read from file:
     /home/camp/zhonxu/pseudo/o_pbe_v1.01.uspp.F.UPF
     MD5 check sum: 2bcb18d16ea4b960afae9ec6d52f22d2
     Pseudo is Ultrasoft + core correction, Zval =  6.0
     Generated by new atomic code, or converted to UPF format
     Using radial grid of  737 points,  5 beta functions with:
                l(1) =   0
                l(2) =   0
                l(3) =   1
                l(4) =   1
                l(5) =   2
     Q(r) pseudized with  8 coefficients,  rinner =    0.900   0.900   0.900
                                                       0.900   0.900

     atomic species   valence    mass     pseudopotential
        Ir0           15.00   192.22000     Ir( 1.00)
        O1             6.00    15.99940     O ( 1.00)

     Starting magnetic structure
     atomic species   magnetization
        Ir0          0.600
        O1           0.000

     16 Sym. Ops., with inversion, found ( 8 have fractional translation)

   Cartesian axes

     site n.     atom                  positions (alat units)
         1           Ir0 tau(   1) = (   0.0000000   0.0000000   0.0000000  )
         2           Ir0 tau(   2) = (   0.4843826   0.4843826   0.3433353  )
         3           O1  tau(   3) = (   0.2993789   0.2993789   0.0000000  )
         4           O1  tau(   4) = (  -0.2993789  -0.2993789   0.0000000  )
         5           O1  tau(   5) = (   0.7837615   0.1850036   0.3433353  )
         6           O1  tau(   6) = (   0.1850036   0.7837615   0.3433353  )

     number of k points=    36  Methfessel-Paxton smearing, width (Ry)=  0.0100
                       cart. coord. in units 2pi/alat
        k(    1) = (   0.0000000   0.0000000   0.0000000), wk =   0.0080000
        k(    2) = (   0.0000000   0.0000000   0.2912604), wk =   0.0160000
        k(    3) = (   0.0000000   0.0000000   0.5825209), wk =   0.0160000
        k(    4) = (   0.0000000   0.2064484   0.0000000), wk =   0.0320000
        k(    5) = (   0.0000000   0.2064484   0.2912604), wk =   0.0640000
        k(    6) = (   0.0000000   0.2064484   0.5825209), wk =   0.0640000
        k(    7) = (   0.0000000   0.4128968   0.0000000), wk =   0.0320000
        k(    8) = (   0.0000000   0.4128968   0.2912604), wk =   0.0640000
        k(    9) = (   0.0000000   0.4128968   0.5825209), wk =   0.0640000
        k(   10) = (   0.2064484   0.2064484   0.0000000), wk =   0.0320000
        k(   11) = (   0.2064484   0.2064484   0.2912604), wk =   0.0640000
        k(   12) = (   0.2064484   0.2064484   0.5825209), wk =   0.0640000
        k(   13) = (   0.2064484   0.4128968   0.0000000), wk =   0.0640000
        k(   14) = (   0.2064484   0.4128968   0.2912604), wk =   0.1280000
        k(   15) = (   0.2064484   0.4128968   0.5825209), wk =   0.1280000
        k(   16) = (   0.4128968   0.4128968   0.0000000), wk =   0.0320000
        k(   17) = (   0.4128968   0.4128968   0.2912604), wk =   0.0640000
        k(   18) = (   0.4128968   0.4128968   0.5825209), wk =   0.0640000
        k(   19) = (   0.0000000   0.0000000   0.0000000), wk =   0.0080000
        k(   20) = (   0.0000000   0.0000000   0.2912604), wk =   0.0160000
        k(   21) = (   0.0000000   0.0000000   0.5825209), wk =   0.0160000
        k(   22) = (   0.0000000   0.2064484   0.0000000), wk =   0.0320000
        k(   23) = (   0.0000000   0.2064484   0.2912604), wk =   0.0640000
        k(   24) = (   0.0000000   0.2064484   0.5825209), wk =   0.0640000
        k(   25) = (   0.0000000   0.4128968   0.0000000), wk =   0.0320000
        k(   26) = (   0.0000000   0.4128968   0.2912604), wk =   0.0640000
        k(   27) = (   0.0000000   0.4128968   0.5825209), wk =   0.0640000
        k(   28) = (   0.2064484   0.2064484   0.0000000), wk =   0.0320000
        k(   29) = (   0.2064484   0.2064484   0.2912604), wk =   0.0640000
        k(   30) = (   0.2064484   0.2064484   0.5825209), wk =   0.0640000
        k(   31) = (   0.2064484   0.4128968   0.0000000), wk =   0.0640000
        k(   32) = (   0.2064484   0.4128968   0.2912604), wk =   0.1280000
        k(   33) = (   0.2064484   0.4128968   0.5825209), wk =   0.1280000
        k(   34) = (   0.4128968   0.4128968   0.0000000), wk =   0.0320000
        k(   35) = (   0.4128968   0.4128968   0.2912604), wk =   0.0640000
        k(   36) = (   0.4128968   0.4128968   0.5825209), wk =   0.0640000

     Largest allocated arrays     est. size (Mb)     dimensions
     Largest temporary arrays     est. size (Mb)     dimensions

     Check: negative/imaginary core charge=   -0.000005    0.000000

     Initial potential from superposition of free atoms
     Check: negative starting charge=(component1):   -0.667058
     Check: negative starting charge=(component2):   -0.165895

     starting charge   52.99993, renormalised to   54.00000

     negative rho (up, down):  0.680E+00 0.169E+00
     Starting wfc are   40 randomized atomic wfcs

     Self-consistent Calculation

[...]

     total energy              =    -501.26638527 Ry
     Harris-Foulkes estimate   =    -501.26638898 Ry
     estimated scf accuracy    <       0.00000001 Ry

[...]

     iteration # 17     ecut=    40.00 Ry     beta=0.30
     Davidson diagonalization with overlap
     ethr =  2.75E-11,  avg # of iterations =  3.0

     negative rho (up, down):  0.390E+00 0.390E+00

     End of self-consistent calculation

 ------ SPIN UP ------------

[...]

 ------ SPIN DOWN ----------

[...]

          k = 0.4129 0.4129 0.5825 (  1805 PWs)   bands (ev):

   -35.8260 -35.8178 -35.8126 -35.8042 -35.5320 -35.5320  -5.3384  -5.2731
    -5.0167  -4.9726   5.9668   6.0580   6.4820   6.5414   7.1991   7.5919
     9.0036   9.0105   9.8904  10.1270  10.9054  11.2612  12.8053  12.9038
    12.9046  13.6454  14.0272  14.6503  16.6345  17.1541  18.1368  18.6467
    23.8752  24.2208  24.2215  24.3132  24.8697  25.0144  26.2834  26.5843
    27.9828  28.6164  31.5621  31.6003  33.7199  34.2827  35.4469  36.0877
    36.9134  37.2777  37.3014  38.8651  41.4479  41.7346  41.7728  41.9028
    42.9765  43.8020  45.3418  46.3529  46.7738  46.9462  47.5278  47.8273
    48.2273  48.3644  49.4098  49.7457  50.3700  51.0711  51.5485  51.9310
    52.1907  53.1134  53.2239  54.0868  54.6226  55.1686

     the Fermi energy is    14.6888 ev

!    total energy              =    -501.26638929 Ry
     Harris-Foulkes estimate   =    -501.26638923 Ry
     estimated scf accuracy    <          1.2E-09 Ry

     The total energy is the sum of the following terms:

     one-electron contribution =     -93.95819812 Ry
     hartree contribution      =      85.73141374 Ry
     xc contribution           =    -138.40852438 Ry
     ewald contribution        =    -354.63028697 Ry
     smearing contrib. (-TS)   =      -0.00079357 Ry

     total magnetization       =     0.01 Bohr mag/cell
     absolute magnetization    =     0.01 Bohr mag/cell

     convergence has been achieved in  17 iterations

     Forces acting on atoms (Ry/au):

     negative rho (up, down):  0.390E+00 0.390E+00
     atom    1 type  1   force =     0.00000000    0.00000000   -0.00000000
     atom    2 type  1   force =     0.00000000    0.00000000    0.00000000
     atom    3 type  2   force =    -0.00007159   -0.00007159    0.00000000
     atom    4 type  2   force =     0.00007159    0.00007159    0.00000000
     atom    5 type  2   force =    -0.00007159    0.00007159    0.00000000
     atom    6 type  2   force =     0.00007159   -0.00007159    0.00000000

     Total force =     0.000202     Total SCF correction =     0.000027
     SCF correction compared to forces is large: reduce conv_thr to get better values

     entering subroutine stress ...

     negative rho (up, down):  0.390E+00 0.390E+00
          total   stress  (Ry/bohr**3)                   (kbar)     P=  124.21
   0.00083124   0.00000000   0.00000000        122.28      0.00      0.00
   0.00000000   0.00083124   0.00000000          0.00    122.28      0.00
   0.00000000   0.00000000   0.00087053          0.00      0.00    128.06

     General routines

     Parallel routines

   This run was terminated on:  13: 5:17  24Jan2014

   JOB DONE.