     Program PWSCF v.5.0.2 (svn rev. 9656) starts on 14Feb2014 at 19:24:42

     Current dimensions of program PWSCF are:
     Max number of different atomic species (ntypx) = 10
     Max number of k-points (npk) =  40000
     Max angular momentum in pseudopotentials (lmaxx) =  3
     Reading input from alpha_0.07/alpha_0.07.in
Warning: card &IONS ignored
Warning: card / ignored
Warning: card &CELL ignored
Warning: card / ignored

     Subspace diagonalization in iterative solution of the eigenvalue problem:
     a serial algorithm will be used

     bravais-lattice index     =            0
     lattice parameter (alat)  =      16.4784  a.u.
     unit-cell volume          =    2914.5930 (a.u.)^3
     number of atoms/cell      =           48
     number of atomic types    =            3
     number of electrons       =       432.00
     number of Kohn-Sham states=          624
     kinetic-energy cutoff     =      40.0000  Ry
     charge density cutoff     =     500.0000  Ry
     convergence threshold     =      1.0E-06
     mixing beta               =       0.7000
     number of iterations used =            8  plain     mixing
     Exchange-correlation      = SLA  PW   PBE  PBE ( 1 4 3 4 0)
     EXX-fraction              =        0.00

     celldm(1)=  16.478412  celldm(2)=   0.000000  celldm(3)=   0.000000
     celldm(4)=   0.000000  celldm(5)=   0.000000  celldm(6)=   0.000000

     crystal axes: (cart. coord. in units of alat)
               a(1) = (   1.000000   0.000000   0.000000 )
               a(2) = (   0.000000   1.000000   0.000000 )
               a(3) = (   0.000000   0.000000   0.651376 )

     reciprocal axes: (cart. coord. in units 2 pi/alat)
               b(1) = (  1.000000  0.000000  0.000000 )
               b(2) = (  0.000000  1.000000  0.000000 )
               b(3) = (  0.000000  0.000000  1.535211 )

     PseudoPot. # 1 for Mn read from file:
     /home/camp/zhonxu/pseudo/mn_pbe_v1.uspp.F.UPF
     MD5 check sum: 5fd7c7b5c956fd19902447332617373a
     Pseudo is Ultrasoft + core correction, Zval = 15.0
     Generated by new atomic code, or converted to UPF format
     Using radial grid of  859 points,  6 beta functions with:
                l(1) =   0
                l(2) =   0
                l(3) =   1
                l(4) =   1
                l(5) =   2
                l(6) =   2
     Q(r) pseudized with  6 coefficients,  rinner =    1.150   1.150   1.150
                                                       1.150   1.150

     PseudoPot. # 2 for Mn read from file:
     /home/camp/zhonxu/pseudo/mn_pbe_v1.uspp.F.UPF
     MD5 check sum: 5fd7c7b5c956fd19902447332617373a
     Pseudo is Ultrasoft + core correction, Zval = 15.0
     Generated by new atomic code, or converted to UPF format
     Using radial grid of  859 points,  6 beta functions with:
                l(1) =   0
                l(2) =   0
                l(3) =   1
                l(4) =   1
                l(5) =   2
                l(6) =   2
     Q(r) pseudized with  6 coefficients,  rinner =    1.150   1.150   1.150
                                                       1.150   1.150

     PseudoPot. # 3 for O  read from file:
     /home/camp/zhonxu/pseudo/o_pbe_v1.01.uspp.F.UPF
     MD5 check sum: 2bcb18d16ea4b960afae9ec6d52f22d2
     Pseudo is Ultrasoft + core correction, Zval =  6.0
     Generated by new atomic code, or converted to UPF format
     Using radial grid of  737 points,  5 beta functions with:
                l(1) =   0
                l(2) =   0
                l(3) =   1
                l(4) =   1
                l(5) =   2
     Q(r) pseudized with  8 coefficients,  rinner =    0.900   0.900   0.900
                                                       0.900   0.900

     atomic species   valence    mass     pseudopotential
        Mn0           15.00    54.93800     Mn( 1.00)
        Mn1           15.00    54.93800     Mn( 1.00)
        O2             6.00    15.99940     O ( 1.00)

     Starting magnetic structure
     atomic species   magnetization
        Mn0          0.600
        Mn1          0.600
        O2           0.000

     Simplified LDA+U calculation (l_max = 2) with parameters (eV):
     atomic species    L          U    alpha       J0     beta
        Mn0            2     0.0000   0.0700   0.0000   0.0000
        Mn1            2     0.0000   0.0000   0.0000   0.0000
        O2             1     0.0000   0.0000   0.0000   0.0000

      8 Sym. Ops., with inversion, found

   Cartesian axes

     site n.     atom                  positions (alat units)
         1           Mn0 tau(   1) = (   0.0000000   0.0000000   0.0000000  )
         2           Mn1 tau(   2) = (   0.2500000   0.2500000   0.1628440  )
         3           Mn1 tau(   3) = (   0.0000000   0.0000000   0.3256881  )
         4           Mn1 tau(   4) = (   0.2500000   0.2500000   0.4885321  )
         5           Mn1 tau(   5) = (   0.0000000   0.5000000   0.0000000  )
         6           Mn1 tau(   6) = (   0.2500000   0.7500000   0.1628440  )
         7           Mn1 tau(   7) = (   0.0000000   0.5000000   0.3256881  )
         8           Mn1 tau(   8) = (   0.2500000   0.7500000   0.4885321  )
         9           Mn1 tau(   9) = (   0.5000000   0.0000000   0.0000000  )
        10           Mn1 tau(  10) = (   0.7500000   0.2500000   0.1628440  )
        11           Mn1 tau(  11) = (   0.5000000   0.0000000   0.3256881  )
        12           Mn1 tau(  12) = (   0.7500000   0.2500000   0.4885321  )
        13           Mn1 tau(  13) = (   0.5000000   0.5000000   0.0000000  )
        14           Mn1 tau(  14) = (   0.7500000   0.7500000   0.1628440  )
        15           Mn1 tau(  15) = (   0.5000000   0.5000000   0.3256881  )
        16           Mn1 tau(  16) = (   0.7500000   0.7500000   0.4885321  )
        17           O2  tau(  17) = (   0.1500000   0.1500000   0.0000000  )
        18           O2  tau(  18) = (  -0.1500000  -0.1500000   0.0000000  )
        19           O2  tau(  19) = (   0.4000000   0.1000000   0.1628440  )
        20           O2  tau(  20) = (   0.1000000   0.4000000   0.1628440  )
        21           O2  tau(  21) = (   0.1500000   0.1500000   0.3256881  )
        22           O2  tau(  22) = (  -0.1500000  -0.1500000   0.3256881  )
        23           O2  tau(  23) = (   0.4000000   0.1000000   0.4885321  )
        24           O2  tau(  24) = (   0.1000000   0.4000000   0.4885321  )
        25           O2  tau(  25) = (   0.1500000   0.6500000   0.0000000  )
        26           O2  tau(  26) = (  -0.1500000   0.3500000   0.0000000  )
        27           O2  tau(  27) = (   0.4000000   0.6000000   0.1628440  )
        28           O2  tau(  28) = (   0.1000000   0.9000000   0.1628440  )
        29           O2  tau(  29) = (   0.1500000   0.6500000   0.3256881  )
        30           O2  tau(  30) = (  -0.1500000   0.3500000   0.3256881  )
        31           O2  tau(  31) = (   0.4000000   0.6000000   0.4885321  )
        32           O2  tau(  32) = (   0.1000000   0.9000000   0.4885321  )
        33           O2  tau(  33) = (   0.6500000   0.1500000   0.0000000  )
        34           O2  tau(  34) = (   0.3500000  -0.1500000   0.0000000  )
        35           O2  tau(  35) = (   0.9000000   0.1000000   0.1628440  )
        36           O2  tau(  36) = (   0.6000000   0.4000000   0.1628440  )
        37           O2  tau(  37) = (   0.6500000   0.1500000   0.3256881  )
        38           O2  tau(  38) = (   0.3500000  -0.1500000   0.3256881  )
        39           O2  tau(  39) = (   0.9000000   0.1000000   0.4885321  )
        40           O2  tau(  40) = (   0.6000000   0.4000000   0.4885321  )
        41           O2  tau(  41) = (   0.6500000   0.6500000   0.0000000  )
        42           O2  tau(  42) = (   0.3500000   0.3500000   0.0000000  )
        43           O2  tau(  43) = (   0.9000000   0.6000000   0.1628440  )
        44           O2  tau(  44) = (   0.6000000   0.9000000   0.1628440  )
        45           O2  tau(  45) = (   0.6500000   0.6500000   0.3256881  )
        46           O2  tau(  46) = (   0.3500000   0.3500000   0.3256881  )
        47           O2  tau(  47) = (   0.9000000   0.6000000   0.4885321  )
        48           O2  tau(  48) = (   0.6000000   0.9000000   0.4885321  )

     number of k points=    42  Methfessel-Paxton smearing, width (Ry)=  0.0100
                       cart. coord. in units 2pi/alat
        k(    1) = (   0.0000000   0.0000000   0.0000000), wk =   0.0156250
        k(    2) = (   0.0000000   0.0000000   0.3838028), wk =   0.0312500
        k(    3) = (   0.0000000   0.0000000  -0.7676056), wk =   0.0156250
        k(    4) = (   0.0000000   0.2500000   0.0000000), wk =   0.0625000
        k(    5) = (   0.0000000   0.2500000   0.3838028), wk =   0.1250000
        k(    6) = (   0.0000000   0.2500000  -0.7676056), wk =   0.0625000
        k(    7) = (   0.0000000  -0.5000000   0.0000000), wk =   0.0312500
        k(    8) = (   0.0000000  -0.5000000   0.3838028), wk =   0.0625000
        k(    9) = (   0.0000000  -0.5000000  -0.7676056), wk =   0.0312500
        k(   10) = (   0.2500000   0.2500000   0.0000000), wk =   0.0312500
        k(   11) = (   0.2500000   0.2500000   0.3838028), wk =   0.0625000
        k(   12) = (   0.2500000   0.2500000  -0.7676056), wk =   0.0312500
        k(   13) = (   0.2500000  -0.5000000   0.0000000), wk =   0.0625000
        k(   14) = (   0.2500000  -0.5000000   0.3838028), wk =   0.1250000
        k(   15) = (   0.2500000  -0.5000000  -0.7676056), wk =   0.0625000
        k(   16) = (  -0.5000000  -0.5000000   0.0000000), wk =   0.0156250
        k(   17) = (  -0.5000000  -0.5000000   0.3838028), wk =   0.0312500
        k(   18) = (  -0.5000000  -0.5000000  -0.7676056), wk =   0.0156250
        k(   19) = (  -0.2500000   0.2500000   0.0000000), wk =   0.0312500
        k(   20) = (  -0.2500000   0.2500000  -0.3838028), wk =   0.0625000
        k(   21) = (  -0.2500000   0.2500000   0.7676056), wk =   0.0312500
        k(   22) = (   0.0000000   0.0000000   0.0000000), wk =   0.0156250
        k(   23) = (   0.0000000   0.0000000   0.3838028), wk =   0.0312500
        k(   24) = (   0.0000000   0.0000000  -0.7676056), wk =   0.0156250
        k(   25) = (   0.0000000   0.2500000   0.0000000), wk =   0.0625000
        k(   26) = (   0.0000000   0.2500000   0.3838028), wk =   0.1250000
        k(   27) = (   0.0000000   0.2500000  -0.7676056), wk =   0.0625000
        k(   28) = (   0.0000000  -0.5000000   0.0000000), wk =   0.0312500
        k(   29) = (   0.0000000  -0.5000000   0.3838028), wk =   0.0625000
        k(   30) = (   0.0000000  -0.5000000  -0.7676056), wk =   0.0312500
        k(   31) = (   0.2500000   0.2500000   0.0000000), wk =   0.0312500
        k(   32) = (   0.2500000   0.2500000   0.3838028), wk =   0.0625000
        k(   33) = (   0.2500000   0.2500000  -0.7676056), wk =   0.0312500
        k(   34) = (   0.2500000  -0.5000000   0.0000000), wk =   0.0625000
        k(   35) = (   0.2500000  -0.5000000   0.3838028), wk =   0.1250000
        k(   36) = (   0.2500000  -0.5000000  -0.7676056), wk =   0.0625000
[...]
    eigenvectors:
  0.000  1.000  0.000
  0.500  0.000  0.500
  0.500  0.000  0.500
    occupations:
  0.858 -0.000  0.000
 -0.000  0.921 -0.073
  0.000 -0.073  0.921
   spin  2
    eigenvalues:
  0.869  0.873  0.883
    eigenvectors:
  0.000  0.000  1.000
  0.500  0.500  0.000
  0.500  0.500  0.000
    occupations:
  0.883 -0.000 -0.000
 -0.000  0.871  0.002
 -0.000  0.002  0.871
atomic mag. moment =     0.075170
atom   42   Tr[ns(na)] (up, down, total) =   2.69935  2.62418  5.32354
   spin  1
    eigenvalues:
  0.848  0.858  0.994
    eigenvectors:
  0.000  1.000  0.000
  0.500  0.000  0.500
  0.500  0.000  0.500
    occupations:
  0.858 -0.000  0.000
 -0.000  0.921 -0.073
  0.000 -0.073  0.921
   spin  2
    eigenvalues:
  0.869  0.873  0.883
    eigenvectors:
  0.000  0.000  1.000
  0.500  0.500  0.000
  0.500  0.500  0.000
    occupations:
  0.883 -0.000 -0.000
 -0.000  0.871  0.002
 -0.000  0.002  0.871
atomic mag. moment =     0.075170
atom   43   Tr[ns(na)] (up, down, total) =   2.69936  2.62418  5.32354
   spin  1
    eigenvalues:
  0.848  0.858  0.994
    eigenvectors:
  0.000  1.000  0.000
  0.500  0.000  0.500
  0.500  0.000  0.500
    occupations:
  0.858  0.000 -0.000
  0.000  0.921  0.073
 -0.000  0.073  0.921
   spin  2
    eigenvalues:
  0.869  0.873  0.883
    eigenvectors:
  0.000  0.000  1.000
  0.500  0.500  0.000
  0.500  0.500  0.000
    occupations:
  0.883  0.000  0.000
  0.000  0.871 -0.002
  0.000 -0.002  0.871
atomic mag. moment =     0.075180
atom   44   Tr[ns(na)] (up, down, total) =   2.69936  2.62418  5.32354
   spin  1
    eigenvalues:
  0.848  0.858  0.994
    eigenvectors:
  0.000  1.000  0.000
  0.500  0.000  0.500
  0.500  0.000  0.500
    occupations:
  0.858 -0.000  0.000
 -0.000  0.921  0.073
  0.000  0.073  0.921
   spin  2
    eigenvalues:
  0.869  0.873  0.883
    eigenvectors:
  0.000  0.000  1.000
  0.500  0.500  0.000
  0.500  0.500  0.000
    occupations:
  0.883  0.000  0.000
  0.000  0.871 -0.002
  0.000 -0.002  0.871
atomic mag. moment =     0.075180
atom   45   Tr[ns(na)] (up, down, total) =   2.69937  2.62424  5.32362
   spin  1
    eigenvalues:
  0.848  0.857  0.994
    eigenvectors:
  0.000  1.000  0.000
  0.500  0.000  0.500
  0.500  0.000  0.500
    occupations:
  0.857 -0.000  0.000
 -0.000  0.921 -0.073
  0.000 -0.073  0.921
   spin  2
    eigenvalues:
  0.869  0.873  0.883
    eigenvectors:
  0.000  0.000  1.000
  0.500  0.500  0.000
  0.500  0.500  0.000
    occupations:
  0.883 -0.000 -0.000
 -0.000  0.871  0.002
 -0.000  0.002  0.871
atomic mag. moment =     0.075129
atom   46   Tr[ns(na)] (up, down, total) =   2.69937  2.62424  5.32362
   spin  1
    eigenvalues:
  0.848  0.857  0.994
    eigenvectors:
  0.000  1.000  0.000
  0.500  0.000  0.500
  0.500  0.000  0.500
    occupations:
  0.857 -0.000  0.000
 -0.000  0.921 -0.073
  0.000 -0.073  0.921
   spin  2
    eigenvalues:
  0.869  0.873  0.883
    eigenvectors:
  0.000  0.000  1.000
  0.500  0.500  0.000
  0.500  0.500  0.000
    occupations:
  0.883 -0.000 -0.000
 -0.000  0.871  0.002
 -0.000  0.002  0.871
atomic mag. moment =     0.075129
atom   47   Tr[ns(na)] (up, down, total) =   2.69936  2.62418  5.32354
   spin  1
    eigenvalues:
  0.848  0.858  0.994
    eigenvectors:
  0.000  1.000  0.000
  0.500  0.000  0.500
  0.500  0.000  0.500
    occupations:
  0.858 -0.000  0.000
 -0.000  0.921  0.073
  0.000  0.073  0.921
   spin  2
    eigenvalues:
  0.869  0.873  0.883
    eigenvectors:
  0.000  0.000  1.000
  0.500  0.500  0.000
  0.500  0.500  0.000
    occupations:
  0.883 -0.000 -0.000
 -0.000  0.871 -0.002
 -0.000 -0.002  0.871
atomic mag. moment =     0.075180
atom   48   Tr[ns(na)] (up, down, total) =   2.69936  2.62418  5.32354
   spin  1
    eigenvalues:
  0.848  0.858  0.994
    eigenvectors:
  0.000  1.000  0.000
  0.500  0.000  0.500
  0.500  0.000  0.500
    occupations:
  0.858  0.000 -0.000
  0.000  0.921  0.073
 -0.000  0.073  0.921
   spin  2
    eigenvalues:
  0.869  0.873  0.883
    eigenvectors:
  0.000  0.000  1.000
  0.500  0.500  0.000
  0.500  0.500  0.000
    occupations:
  0.883 -0.000 -0.000
 -0.000  0.871 -0.002
 -0.000 -0.002  0.871
atomic mag. moment =     0.075180
N of occupied +U levels = 259.2780348
 --- exit write_ns ---

 ------ SPIN UP ------------

          k = 0.0000 0.0000 0.0000 ( 12425 PWs)   bands (ev):

   -70.8473 -70.7838 -70.7828 -70.7827 -70.7826 -70.7824 -70.7819 -70.7809
   -70.7776 -70.7725 -70.7725 -70.7724 -70.7723 -70.7721 -70.7721 -70.7713
   -39.6663 -39.6250 -39.6248 -39.6247 -39.6246 -39.6243 -39.6243 -39.6236
   -39.5287 -39.5073 -39.5034 -39.5034 -39.5033 -39.5030 -39.5026 -39.4986
   -39.4953 -39.4497 -39.4399 -39.4398 -39.4369 -39.4359 -39.4357 -39.4355
   -39.4324 -39.4258 -39.4164 -39.4162 -39.4160 -39.4159 -39.4158 -39.4156
   -39.4151 -39.3800 -39.3799 -39.3797 -39.3773 -39.3764 -39.3754 -39.3754
   -39.3736 -39.3708 -39.3707 -39.3704 -39.3702 -39.3701 -39.3698 -39.3693
    -8.9477  -8.0211  -8.0205  -8.0205  -8.0203  -7.8707  -7.8698  -7.2319
    -7.2315  -7.1362  -7.1360  -7.1357  -7.1342  -7.0374  -7.0370  -6.9593
    -6.9412  -6.9399  -6.8735  -6.8731  -6.8729  -6.8728  -6.8473  -6.8473
    -6.7919  -6.7906  -6.6841  -6.6839  -6.6838  -6.6825  -6.6182  -6.6182
     3.0050   3.3839   3.3853   3.6790   4.0019   4.0019   4.0021   4.0039
     4.0787   4.0795   4.0799   4.0818   4.2382   4.2529   4.2529   4.3093
     4.3112   4.4951   4.4969   4.9296   4.9297   4.9311   4.9312   5.2742
     5.2756   5.3438   5.3457   5.3479   5.3492   5.4577   5.4578   5.4580
     5.4612   5.5603   5.5605   5.5923   5.5938   5.8880   5.8882   5.8894
     5.8897   5.9439   5.9441   5.9442   5.9448   6.2005   6.2008   6.2014
     6.2021   6.4003   6.4019   6.4391   6.4406   6.8176   6.8185   6.8204
     6.8228   7.0460   7.0464   7.0507   7.0509   7.0762   7.0764   7.0770
     7.0777   7.2069   7.2073   7.2073   7.2077   7.4828   7.4833   7.4834
     7.4854   7.6879   7.7354   7.7368   8.2277   8.2284   8.4197   8.5059
     8.5071   8.5349   8.5351   8.5359   8.5365   8.6599   8.6778   8.6782
     8.7676   8.7687   8.7863   8.7874   8.7959   8.9509   8.9511   9.1867
     9.1873   9.1906   9.1911   9.1913   9.1918   9.2382   9.2390   9.2560
     9.2568   9.2596   9.2597   9.2600   9.2609   9.2686   9.2686   9.2687
     9.2688   9.6366   9.6488   9.6489   9.6491   9.6491  10.0078  10.0078
    10.0640  10.0646  10.0647  10.0648  10.3269  10.3269  10.3716  10.3716
    10.4544  10.4546  10.5887  10.6116  10.6119  10.6119  10.6121  11.1485
    11.1487  11.2744  11.2861  11.3152  11.3152  11.3155  11.3156  11.3604
    11.3607  11.5766  11.5768  11.5771  11.5771  12.7927  12.7931  12.9957
    12.9959  13.0356  13.0361  13.0661  13.0665  13.5275  13.5282  13.6614
    13.6628  13.6630  13.6632  13.7454  13.7471  13.7471  13.7473  13.9386
    13.9392  13.9717  13.9722  14.7468  14.7476  14.7483  14.7484  15.1110
    19.2455  21.6197  21.6201  21.6209  21.6211  22.3930  22.3936  22.9097
    22.9103  23.1088  23.1094  23.8953  23.8955  23.8962  23.8965  23.9048
    23.9062  23.9788  23.9797  23.9800  23.9809  24.0317  24.0317  24.3308
    24.3310  25.0485  25.5821  25.5824  25.5830  25.5833  26.2679  26.2682
    26.2999  26.4727  26.6090  26.6092  26.6697  26.6700  26.8531  26.8540
    26.9822  26.9826  26.9830  26.9833  27.6371  27.6391  27.6875  27.6879
    27.6887  27.6887  27.8053  27.8089  27.8090  27.8092  27.8900  27.8909
    27.9998  28.0018  28.0019  28.0026  28.4884  28.4894  28.4898  28.4905
    28.6287  28.6304  28.6882  28.6886  28.8239  28.8240  28.8252  28.8253
    29.0816  29.3110  29.3118  29.4833  29.4842  30.2564  30.3460  30.3474
    30.3542  30.3554  30.5061  30.5069  30.6962  30.6966  30.6980  30.6984
    31.3281  32.7305  32.7348  32.7353  32.7357  32.8291  32.8297  32.8546
    32.8569  33.1107  33.1122  33.3893  33.3894  33.3900  33.3901  33.9372
    33.9376  33.9380  33.9392  33.9591  33.9600  35.1171  35.1457  35.1470
    35.1478  35.1480  35.1483  35.1485  35.3971  35.3979  35.8341  36.4350
    36.4354  37.0180  37.0195  37.1360  37.1378  37.3817  37.4403  37.4413
    37.4418  37.4423  37.5024  37.5025  38.3436  38.3441  38.3447  38.3450
    38.3650  38.3657  38.4336  39.0687  39.0691  39.0695  39.0701  39.1740
    39.1746  39.2952  39.2966  39.2970  39.2975  39.3307  39.3320  39.5153
    39.5173  39.5174  39.5177  39.5818  39.5822  39.8750  39.9802  39.9805
    40.1756  40.1769  40.1769  40.1775  40.1962  40.1965  40.9449  40.9450
    40.9451  40.9455  41.1432  42.0927  42.0930  42.1943  42.6737  42.6741
    42.7092  42.7098  42.9714  42.9726  43.0152  43.0159  44.0087  44.0109
    44.0114  44.0114  44.2601  44.2623  44.2628  44.2630  44.4989  44.4991
    45.3794  45.3801  45.4051  45.4051  45.4211  45.4217  45.4784  45.4801
    45.5936  45.6545  45.6546  45.6548  45.6554  45.7318  45.7321  45.7337
[...]
    48.4690  48.4701  48.5008  48.5012  48.5032  48.5036  48.8752  49.2140
    49.2156  49.4038  49.4044  49.6990  49.6997  49.8059  49.8076  50.1300
    50.1307  50.1308  50.1308  50.3592  50.3600  50.3605  50.3615  50.3967
    50.3972  50.3974  50.3977  50.6049  50.6056  50.6182  50.6185  50.7088
    50.9470  50.9479  51.8759  51.8772  51.8773  51.8779  52.0327  52.0329
    52.1600  52.1611  52.1703  52.2040  52.2046  52.2051  52.2052  52.5558
    52.5561  52.8476  52.8486  52.8929  52.8940  52.9145  52.9178  52.9181
    52.9183  53.5812  53.5825  53.5833  53.5836  53.6587  53.6588  53.6595
    53.6600  53.6729  54.1580  54.1580  54.1584  54.1587  54.2501  54.2523
    54.3759  54.4256  54.4261  54.6468  54.6470  54.7930  54.7942  54.9456
    54.9469  55.0681  55.0687  55.1762  55.1776  55.1776  55.1779  55.2826
    55.2835  55.7541  55.7559  55.7570  55.7571  55.8316  56.1324  56.1340
    56.1609  56.1613  56.1617  56.1620  56.2015  56.2023  56.4749  56.4755
    56.8116  56.8129  56.9519  56.9525  56.9526  56.9527  57.0097  57.0102
    57.7874  57.9689  57.9693  58.0123  58.0125  58.1272  58.1278  58.1628

[...]

          k =-0.5000-0.5000 0.0000 ( 12432 PWs)   bands (ev):

[...]

 ------ SPIN DOWN ----------

[...]

          k = 0.2500-0.5000-0.7676 ( 12432 PWs)   bands (ev):

[...]

          k =-0.2500 0.2500 0.7676 ( 12434 PWs)   bands (ev):

   -67.5347 -67.4744 -67.4738 -67.4737 -67.4737 -67.4735 -67.4733 -67.4733
   -67.4732 -67.4730 -67.4729 -67.4725 -67.4724 -67.4722 -67.4717 -67.4716
   -36.4241 -36.3689 -36.3681 -36.3672 -36.3670 -36.3668 -36.3660 -36.3658
   -36.3653 -36.3647 -36.3640 -36.3637 -36.3636 -36.3636 -36.3611 -36.3610
   -36.2939 -36.2527 -36.2387 -36.2378 -36.2373 -36.2364 -36.2357 -36.2354
   -36.2354 -36.2350 -36.2344 -36.2342 -36.2333 -36.2333 -36.2331 -36.2331
   -36.2293 -36.1868 -36.1865 -36.1861 -36.1859 -36.1849 -36.1848 -36.1847
   -36.1847 -36.1846 -36.1844 -36.1844 -36.1835 -36.1831 -36.1824 -36.1823
    -8.0215  -8.0208  -7.6470  -7.6462  -7.6461  -7.6457  -7.4166  -7.4160
    -7.1482  -7.1479  -7.0734  -7.0731  -7.0725  -7.0724  -6.6687  -6.6683
    -6.6434  -6.6424  -6.6199  -6.6190  -6.5639  -6.5635  -6.5635  -6.5632
    -6.5430  -6.5424  -6.5416  -6.5413  -6.5413  -6.5406  -6.5118  -6.5108
     4.4135   4.4137   4.4974   4.4975   4.7876   4.7884   4.7885   4.7888
     4.8067   4.8077   5.1147   5.1164   5.1961   5.1972   5.2851   5.2868
     5.3260   5.3267   5.3278   5.3281   5.4183   5.4185   5.4189   5.4200
     5.4986   5.4993   5.6601   5.6602   5.6602   5.6623   5.7609   5.7620
     6.2351   6.2357   6.2358   6.2371   6.3087   6.3091   6.3794   6.3803
     6.7124   6.7128   6.7128   6.7131   6.8195   6.8200   7.0435   7.0440
     7.0441   7.0447   7.1306   7.1311   7.2522   7.2525   7.5188   7.5189
     7.5190   7.5190   7.7553   7.7561   7.8016   7.8025   7.8025   7.8035
     7.8111   7.8111   7.8715   7.8715   8.1159   8.1169   8.2384   8.2392
     8.7386   8.7394   8.7407   8.7409   8.7413   8.7419   8.8966   8.8980
     9.0980   9.0990   9.2282   9.2283   9.5167   9.5170   9.5174   9.5177
     9.5857   9.5862  10.0743  10.0745  10.0749  10.0750  10.3515  10.3517
    11.8412  11.8420  11.9910  11.9913  11.9915  11.9935  12.1030  12.1037
    12.1372  12.1375  12.2455  12.2478  12.3509  12.3512  12.3522  12.3530
    12.3931  12.3961  12.4743  12.4745  12.4750  12.4783  12.5066  12.5100
    12.5395  12.5397  12.7429  12.7433  12.8054  12.8057  12.8060  12.8066
    13.0078  13.0089  13.1798  13.1817  13.2124  13.2125  13.2129  13.2135
    13.2906  13.2910  13.4472  13.4473  13.4475  13.4493  13.7106  13.7113
    13.9970  13.9973  13.9974  13.9975  14.2526  14.2526  14.4302  14.4303
    14.4304  14.4305  14.4425  14.4427  14.6569  14.6570  14.9015  14.9015
    14.9222  14.9222  15.1626  15.1627  15.3816  15.3818  15.3821  15.3821
    15.6372  15.6373  16.0417  16.0426  16.0426  16.0428  16.0801  16.0803
    21.6477  21.6485  22.6281  22.6290  22.6293  22.6296  23.2188  23.2194
    24.0315  24.0326  24.0411  24.0423  24.0424  24.0427  24.9702  24.9706
    24.9892  24.9910  25.2972  25.2983  25.6872  25.6875  25.6880  25.6884
    25.9865  25.9875  26.2943  26.2955  26.6420  26.6437  26.6438  26.6438
    26.8773  26.8784  26.9033  26.9042  26.9051  26.9054  26.9235  26.9245
    27.0498  27.0499  27.3474  27.3486  27.3486  27.3491  27.7450  27.7462
    28.3542  28.3547  28.4644  28.4644  28.4661  28.4661  28.8189  28.8191
    28.8649  28.8671  28.8671  28.8677  28.9585  28.9590  29.0592  29.0602
    29.1477  29.1488  29.3381  29.3387  29.3390  29.3392  29.5932  29.5944
    29.6011  29.6018  29.9950  29.9963  29.9963  29.9969  30.5229  30.5232
    30.7147  30.7170  30.8549  30.8565  30.8567  30.8578  31.5521  31.5522
    31.8059  31.8082  31.8084  31.8085  32.1496  32.1521  32.7558  32.7569
    33.1603  33.1604  33.1611  33.1620  33.6924  33.6942  33.7912  33.7922
    35.4332  35.4340  35.6410  35.6411  35.6415  35.6425  35.9682  35.9682
    36.0956  36.0964  36.1950  36.1957  37.0127  37.0131  37.3916  37.3917
    37.3919  37.3921  37.6424  37.6434  37.6514  37.6524  38.0252  38.0270
    38.0270  38.0272  38.4591  38.4597  38.4598  38.4598  38.5687  38.5702
    38.6563  38.6570  38.6577  38.6582  38.8965  38.8967  38.9200  38.9211
    39.6878  39.6889  40.0053  40.0056  40.0060  40.0066  40.4199  40.4201
    40.4215  40.4215  40.4898  40.4901  41.0397  41.0403  41.1674  41.1679
    41.1683  41.1691  41.3719  41.3720  41.5716  41.5717  41.8632  41.8632
    41.8771  41.8772  42.7086  42.7088  42.7091  42.7093  43.1236  43.1240
    43.2015  43.2019  43.2021  43.2022  43.4116  43.4121  44.1314  44.1314
    44.6253  44.6254  44.6256  44.6262  44.7848  44.7850  45.0783  45.0789
    45.3285  45.3290  45.3690  45.3691  45.4524  45.4532  45.4532  45.4533
    45.7236  45.7238  46.4058  46.4059  46.4061  46.4064  46.8022  46.8033
[...]
    49.2588  49.2596  49.5092  49.5093  49.5107  49.5107  49.6230  49.6234
    50.0669  50.0676  50.2380  50.2380  50.7249  50.7257  50.7258  50.7259
    51.1676  51.1681  51.1689  51.1693  51.2543  51.2552  51.3724  51.3726
    51.5972  51.5972  51.6338  51.6341  51.9652  51.9660  51.9666  51.9670
    52.1870  52.1873  52.1875  52.1883  52.1900  52.1906  52.2854  52.2854
    52.3891  52.3909  52.3909  52.3909  52.5209  52.5212  52.7157  52.7169
    52.7171  52.7172  52.8217  52.8226  52.8963  52.8964  53.0186  53.0199
    53.3207  53.3208  53.3585  53.3599  53.3602  53.3603  53.5960  53.5970
    53.6869  53.6871  53.7403  53.7408  53.8562  53.8579  53.8586  53.8589
    53.8685  53.8686  54.3702  54.3704  54.3705  54.3708  54.5532  54.5546
    55.0026  55.0032  55.1728  55.1737  55.1742  55.1743  55.4125  55.4135
    55.4136  55.4140  55.5758  55.5771  55.7925  55.7935  56.0205  56.0211
    56.7306  56.7307  57.0659  57.0666  57.1126  57.1136  57.1141  57.1146
    57.2634  57.2640  57.3117  57.3121  57.3125  57.3129  57.4185  57.4195
    57.5131  57.5132  57.6054  57.6061  58.2282  58.2292  58.2292  58.2299

     the Fermi energy is    11.3894 ev

!    total energy              =   -4439.62694037 Ry
     Harris-Foulkes estimate   =   -4439.62694103 Ry
     estimated scf accuracy    <       0.00000076 Ry

     The total energy is the sum of the following terms:

     one-electron contribution =   -2118.25917580 Ry
     hartree contribution      =    1287.99162456 Ry
     xc contribution           =    -649.32986576 Ry
     ewald contribution        =   -2960.06000834 Ry
     Hubbard energy            =       0.02854920 Ry
     smearing contrib. (-TS)   =       0.00193578 Ry

     total magnetization       =    47.98 Bohr mag/cell
     absolute magnetization    =    49.33 Bohr mag/cell

     convergence has been achieved in   6 iterations

     Writing output data file pwscf.save

     General routines

     Parallel routines
     Hubbard U routines

   This run was terminated on:  22:40: 9  14Feb2014

   JOB DONE.