     Program PWSCF v.5.0.2 (svn rev. 9656) starts on 14Feb2014 at 22:43: 0

     Current dimensions of program PWSCF are:
     Max number of different atomic species (ntypx) = 10
     Max number of k-points (npk) =  40000
     Max angular momentum in pseudopotentials (lmaxx) =  3
     Reading input from alpha_0.15/alpha_0.15.in
Warning: card &IONS ignored
Warning: card / ignored
Warning: card &CELL ignored
Warning: card / ignored

     Subspace diagonalization in iterative solution of the eigenvalue problem:
     a serial algorithm will be used

     bravais-lattice index     =            0
     lattice parameter (alat)  =      16.4784  a.u.
     unit-cell volume          =    2914.5930 (a.u.)^3
     number of atoms/cell      =           48
     number of atomic types    =            3
     number of electrons       =       432.00
     number of Kohn-Sham states=          624
     kinetic-energy cutoff     =      40.0000  Ry
     charge density cutoff     =     500.0000  Ry
     convergence threshold     =      1.0E-06
     mixing beta               =       0.7000
     number of iterations used =            8  plain     mixing
     Exchange-correlation      = SLA  PW   PBE  PBE ( 1 4 3 4 0)
     EXX-fraction              =        0.00

     celldm(1)=  16.478412  celldm(2)=   0.000000  celldm(3)=   0.000000
     celldm(4)=   0.000000  celldm(5)=   0.000000  celldm(6)=   0.000000

     crystal axes: (cart. coord. in units of alat)
               a(1) = (   1.000000   0.000000   0.000000 )
               a(2) = (   0.000000   1.000000   0.000000 )
               a(3) = (   0.000000   0.000000   0.651376 )

     reciprocal axes: (cart. coord. in units 2 pi/alat)
               b(1) = (  1.000000  0.000000  0.000000 )
               b(2) = (  0.000000  1.000000  0.000000 )
               b(3) = (  0.000000  0.000000  1.535211 )

     PseudoPot. # 1 for Mn read from file:
     /home/camp/zhonxu/pseudo/mn_pbe_v1.uspp.F.UPF
     MD5 check sum: 5fd7c7b5c956fd19902447332617373a
     Pseudo is Ultrasoft + core correction, Zval = 15.0
     Generated by new atomic code, or converted to UPF format
     Using radial grid of  859 points,  6 beta functions with:
                l(1) =   0
                l(2) =   0
                l(3) =   1
                l(4) =   1
                l(5) =   2
                l(6) =   2
     Q(r) pseudized with  6 coefficients,  rinner =    1.150   1.150   1.150
                                                       1.150   1.150

     PseudoPot. # 2 for Mn read from file:
     /home/camp/zhonxu/pseudo/mn_pbe_v1.uspp.F.UPF
     MD5 check sum: 5fd7c7b5c956fd19902447332617373a
     Pseudo is Ultrasoft + core correction, Zval = 15.0
     Generated by new atomic code, or converted to UPF format
     Using radial grid of  859 points,  6 beta functions with:
                l(1) =   0
                l(2) =   0
                l(3) =   1
                l(4) =   1
                l(5) =   2
                l(6) =   2
     Q(r) pseudized with  6 coefficients,  rinner =    1.150   1.150   1.150
                                                       1.150   1.150

     PseudoPot. # 3 for O  read from file:
     /home/camp/zhonxu/pseudo/o_pbe_v1.01.uspp.F.UPF
     MD5 check sum: 2bcb18d16ea4b960afae9ec6d52f22d2
     Pseudo is Ultrasoft + core correction, Zval =  6.0
     Generated by new atomic code, or converted to UPF format
     Using radial grid of  737 points,  5 beta functions with:
                l(1) =   0
                l(2) =   0
                l(3) =   1
                l(4) =   1
                l(5) =   2
     Q(r) pseudized with  8 coefficients,  rinner =    0.900   0.900   0.900
                                                       0.900   0.900

     atomic species   valence    mass     pseudopotential
        Mn0           15.00    54.93800     Mn( 1.00)
        Mn1           15.00    54.93800     Mn( 1.00)
        O2             6.00    15.99940     O ( 1.00)

     Starting magnetic structure
     atomic species   magnetization
        Mn0          0.600
        Mn1          0.600
        O2           0.000

     Simplified LDA+U calculation (l_max = 2) with parameters (eV):
     atomic species    L          U    alpha       J0     beta
        Mn0            2     0.0000   0.1500   0.0000   0.0000
        Mn1            2     0.0000   0.0000   0.0000   0.0000
        O2             1     0.0000   0.0000   0.0000   0.0000

      8 Sym. Ops., with inversion, found

   Cartesian axes

     site n.     atom                  positions (alat units)
         1           Mn0 tau(   1) = (   0.0000000   0.0000000   0.0000000  )
         2           Mn1 tau(   2) = (   0.2500000   0.2500000   0.1628440  )
         3           Mn1 tau(   3) = (   0.0000000   0.0000000   0.3256881  )
         4           Mn1 tau(   4) = (   0.2500000   0.2500000   0.4885321  )
         5           Mn1 tau(   5) = (   0.0000000   0.5000000   0.0000000  )
         6           Mn1 tau(   6) = (   0.2500000   0.7500000   0.1628440  )
         7           Mn1 tau(   7) = (   0.0000000   0.5000000   0.3256881  )
         8           Mn1 tau(   8) = (   0.2500000   0.7500000   0.4885321  )
         9           Mn1 tau(   9) = (   0.5000000   0.0000000   0.0000000  )
        10           Mn1 tau(  10) = (   0.7500000   0.2500000   0.1628440  )
        11           Mn1 tau(  11) = (   0.5000000   0.0000000   0.3256881  )
        12           Mn1 tau(  12) = (   0.7500000   0.2500000   0.4885321  )
        13           Mn1 tau(  13) = (   0.5000000   0.5000000   0.0000000  )
        14           Mn1 tau(  14) = (   0.7500000   0.7500000   0.1628440  )
        15           Mn1 tau(  15) = (   0.5000000   0.5000000   0.3256881  )
        16           Mn1 tau(  16) = (   0.7500000   0.7500000   0.4885321  )
        17           O2  tau(  17) = (   0.1500000   0.1500000   0.0000000  )
        18           O2  tau(  18) = (  -0.1500000  -0.1500000   0.0000000  )
        19           O2  tau(  19) = (   0.4000000   0.1000000   0.1628440  )
        20           O2  tau(  20) = (   0.1000000   0.4000000   0.1628440  )
        21           O2  tau(  21) = (   0.1500000   0.1500000   0.3256881  )
        22           O2  tau(  22) = (  -0.1500000  -0.1500000   0.3256881  )
        23           O2  tau(  23) = (   0.4000000   0.1000000   0.4885321  )
        24           O2  tau(  24) = (   0.1000000   0.4000000   0.4885321  )
        25           O2  tau(  25) = (   0.1500000   0.6500000   0.0000000  )
        26           O2  tau(  26) = (  -0.1500000   0.3500000   0.0000000  )
        27           O2  tau(  27) = (   0.4000000   0.6000000   0.1628440  )
        28           O2  tau(  28) = (   0.1000000   0.9000000   0.1628440  )
        29           O2  tau(  29) = (   0.1500000   0.6500000   0.3256881  )
        30           O2  tau(  30) = (  -0.1500000   0.3500000   0.3256881  )
        31           O2  tau(  31) = (   0.4000000   0.6000000   0.4885321  )
        32           O2  tau(  32) = (   0.1000000   0.9000000   0.4885321  )
        33           O2  tau(  33) = (   0.6500000   0.1500000   0.0000000  )
        34           O2  tau(  34) = (   0.3500000  -0.1500000   0.0000000  )
        35           O2  tau(  35) = (   0.9000000   0.1000000   0.1628440  )
        36           O2  tau(  36) = (   0.6000000   0.4000000   0.1628440  )
        37           O2  tau(  37) = (   0.6500000   0.1500000   0.3256881  )
        38           O2  tau(  38) = (   0.3500000  -0.1500000   0.3256881  )
        39           O2  tau(  39) = (   0.9000000   0.1000000   0.4885321  )
        40           O2  tau(  40) = (   0.6000000   0.4000000   0.4885321  )
        41           O2  tau(  41) = (   0.6500000   0.6500000   0.0000000  )
        42           O2  tau(  42) = (   0.3500000   0.3500000   0.0000000  )
        43           O2  tau(  43) = (   0.9000000   0.6000000   0.1628440  )
        44           O2  tau(  44) = (   0.6000000   0.9000000   0.1628440  )
        45           O2  tau(  45) = (   0.6500000   0.6500000   0.3256881  )
        46           O2  tau(  46) = (   0.3500000   0.3500000   0.3256881  )
        47           O2  tau(  47) = (   0.9000000   0.6000000   0.4885321  )
        48           O2  tau(  48) = (   0.6000000   0.9000000   0.4885321  )

     number of k points=    42  Methfessel-Paxton smearing, width (Ry)=  0.0100
                       cart. coord. in units 2pi/alat
        k(    1) = (   0.0000000   0.0000000   0.0000000), wk =   0.0156250
        k(    2) = (   0.0000000   0.0000000   0.3838028), wk =   0.0312500
        k(    3) = (   0.0000000   0.0000000  -0.7676056), wk =   0.0156250
        k(    4) = (   0.0000000   0.2500000   0.0000000), wk =   0.0625000
        k(    5) = (   0.0000000   0.2500000   0.3838028), wk =   0.1250000
        k(    6) = (   0.0000000   0.2500000  -0.7676056), wk =   0.0625000
        k(    7) = (   0.0000000  -0.5000000   0.0000000), wk =   0.0312500
        k(    8) = (   0.0000000  -0.5000000   0.3838028), wk =   0.0625000
        k(    9) = (   0.0000000  -0.5000000  -0.7676056), wk =   0.0312500
        k(   10) = (   0.2500000   0.2500000   0.0000000), wk =   0.0312500
        k(   11) = (   0.2500000   0.2500000   0.3838028), wk =   0.0625000
        k(   12) = (   0.2500000   0.2500000  -0.7676056), wk =   0.0312500
        k(   13) = (   0.2500000  -0.5000000   0.0000000), wk =   0.0625000
        k(   14) = (   0.2500000  -0.5000000   0.3838028), wk =   0.1250000
        k(   15) = (   0.2500000  -0.5000000  -0.7676056), wk =   0.0625000
        k(   16) = (  -0.5000000  -0.5000000   0.0000000), wk =   0.0156250
        k(   17) = (  -0.5000000  -0.5000000   0.3838028), wk =   0.0312500
        k(   18) = (  -0.5000000  -0.5000000  -0.7676056), wk =   0.0156250
        k(   19) = (  -0.2500000   0.2500000   0.0000000), wk =   0.0312500
        k(   20) = (  -0.2500000   0.2500000  -0.3838028), wk =   0.0625000
        k(   21) = (  -0.2500000   0.2500000   0.7676056), wk =   0.0312500
        k(   22) = (   0.0000000   0.0000000   0.0000000), wk =   0.0156250
        k(   23) = (   0.0000000   0.0000000   0.3838028), wk =   0.0312500
        k(   24) = (   0.0000000   0.0000000  -0.7676056), wk =   0.0156250
        k(   25) = (   0.0000000   0.2500000   0.0000000), wk =   0.0625000
        k(   26) = (   0.0000000   0.2500000   0.3838028), wk =   0.1250000
        k(   27) = (   0.0000000   0.2500000  -0.7676056), wk =   0.0625000
        k(   28) = (   0.0000000  -0.5000000   0.0000000), wk =   0.0312500
        k(   29) = (   0.0000000  -0.5000000   0.3838028), wk =   0.0625000
        k(   30) = (   0.0000000  -0.5000000  -0.7676056), wk =   0.0312500
        k(   31) = (   0.2500000   0.2500000   0.0000000), wk =   0.0312500
        k(   32) = (   0.2500000   0.2500000   0.3838028), wk =   0.0625000
        k(   33) = (   0.2500000   0.2500000  -0.7676056), wk =   0.0312500
        k(   34) = (   0.2500000  -0.5000000   0.0000000), wk =   0.0625000
        k(   35) = (   0.2500000  -0.5000000   0.3838028), wk =   0.1250000
        k(   36) = (   0.2500000  -0.5000000  -0.7676056), wk =   0.0625000
[...]
    eigenvectors:
  0.000  1.000  0.000
  0.500  0.000  0.500
  0.500  0.000  0.500
    occupations:
  0.858 -0.000  0.000
 -0.000  0.921 -0.073
  0.000 -0.073  0.921
   spin  2
    eigenvalues:
  0.869  0.873  0.883
    eigenvectors:
  0.000  0.000  1.000
  0.500  0.500  0.000
  0.500  0.500  0.000
    occupations:
  0.883 -0.000 -0.000
 -0.000  0.871  0.002
 -0.000  0.002  0.871
atomic mag. moment =     0.075142
atom   42   Tr[ns(na)] (up, down, total) =   2.69938  2.62424  5.32362
   spin  1
    eigenvalues:
  0.848  0.858  0.994
    eigenvectors:
  0.000  1.000  0.000
  0.500  0.000  0.500
  0.500  0.000  0.500
    occupations:
  0.858 -0.000  0.000
 -0.000  0.921 -0.073
  0.000 -0.073  0.921
   spin  2
    eigenvalues:
  0.869  0.873  0.883
    eigenvectors:
  0.000  0.000  1.000
  0.500  0.500  0.000
  0.500  0.500  0.000
    occupations:
  0.883 -0.000 -0.000
 -0.000  0.871  0.002
 -0.000  0.002  0.871
atomic mag. moment =     0.075142
atom   43   Tr[ns(na)] (up, down, total) =   2.69937  2.62422  5.32359
   spin  1
    eigenvalues:
  0.848  0.858  0.994
    eigenvectors:
  0.000  1.000  0.000
  0.500  0.000  0.500
  0.500  0.000  0.500
    occupations:
  0.858  0.000 -0.000
  0.000  0.921  0.073
 -0.000  0.073  0.921
   spin  2
    eigenvalues:
  0.869  0.873  0.883
    eigenvectors:
  0.000  0.000  1.000
  0.501  0.499  0.000
  0.499  0.501  0.000
    occupations:
  0.883  0.000  0.000
  0.000  0.871 -0.002
  0.000 -0.002  0.871
atomic mag. moment =     0.075153
atom   44   Tr[ns(na)] (up, down, total) =   2.69937  2.62422  5.32359
   spin  1
    eigenvalues:
  0.848  0.858  0.994
    eigenvectors:
  0.000  1.000  0.000
  0.500  0.000  0.500
  0.500  0.000  0.500
    occupations:
  0.858 -0.000  0.000
 -0.000  0.921  0.073
  0.000  0.073  0.921
   spin  2
    eigenvalues:
  0.869  0.873  0.883
    eigenvectors:
  0.000  0.000  1.000
  0.499  0.501  0.000
  0.501  0.499  0.000
    occupations:
  0.883  0.000  0.000
  0.000  0.871 -0.002
  0.000 -0.002  0.871
atomic mag. moment =     0.075153
atom   45   Tr[ns(na)] (up, down, total) =   2.69932  2.62422  5.32353
   spin  1
    eigenvalues:
  0.848  0.857  0.994
    eigenvectors:
  0.000  1.000  0.000
  0.500  0.000  0.500
  0.500  0.000  0.500
    occupations:
  0.857 -0.000  0.000
 -0.000  0.921 -0.073
  0.000 -0.073  0.921
   spin  2
    eigenvalues:
  0.869  0.873  0.883
    eigenvectors:
  0.000  0.000  1.000
  0.500  0.500  0.000
  0.500  0.500  0.000
    occupations:
  0.883 -0.000 -0.000
 -0.000  0.871  0.002
 -0.000  0.002  0.871
atomic mag. moment =     0.075103
atom   46   Tr[ns(na)] (up, down, total) =   2.69932  2.62422  5.32353
   spin  1
    eigenvalues:
  0.848  0.857  0.994
    eigenvectors:
  0.000  1.000  0.000
  0.500  0.000  0.500
  0.500  0.000  0.500
    occupations:
  0.857 -0.000  0.000
 -0.000  0.921 -0.073
  0.000 -0.073  0.921
   spin  2
    eigenvalues:
  0.869  0.873  0.883
    eigenvectors:
  0.000  0.000  1.000
  0.500  0.500  0.000
  0.500  0.500  0.000
    occupations:
  0.883 -0.000 -0.000
 -0.000  0.871  0.002
 -0.000  0.002  0.871
atomic mag. moment =     0.075103
atom   47   Tr[ns(na)] (up, down, total) =   2.69937  2.62422  5.32359
   spin  1
    eigenvalues:
  0.848  0.858  0.994
    eigenvectors:
  0.000  1.000  0.000
  0.500  0.000  0.500
  0.500  0.000  0.500
    occupations:
  0.858 -0.000  0.000
 -0.000  0.921  0.073
  0.000  0.073  0.921
   spin  2
    eigenvalues:
  0.869  0.873  0.883
    eigenvectors:
  0.000  0.000  1.000
  0.501  0.499  0.000
  0.499  0.501  0.000
    occupations:
  0.883 -0.000 -0.000
 -0.000  0.871 -0.002
 -0.000 -0.002  0.871
atomic mag. moment =     0.075153
atom   48   Tr[ns(na)] (up, down, total) =   2.69937  2.62422  5.32359
   spin  1
    eigenvalues:
  0.848  0.858  0.994
    eigenvectors:
  0.000  1.000  0.000
  0.500  0.000  0.500
  0.500  0.000  0.500
    occupations:
  0.858  0.000 -0.000
  0.000  0.921  0.073
 -0.000  0.073  0.921
   spin  2
    eigenvalues:
  0.869  0.873  0.883
    eigenvectors:
  0.000  0.000  1.000
  0.499  0.501  0.000
  0.501  0.499  0.000
    occupations:
  0.883 -0.000 -0.000
 -0.000  0.871 -0.002
 -0.000 -0.002  0.871
atomic mag. moment =     0.075153
N of occupied +U levels = 259.2748170
 --- exit write_ns ---

 ------ SPIN UP ------------

          k = 0.0000 0.0000 0.0000 ( 12425 PWs)   bands (ev):

   -70.9272 -70.7830 -70.7817 -70.7817 -70.7816 -70.7816 -70.7808 -70.7799
   -70.7770 -70.7719 -70.7715 -70.7714 -70.7713 -70.7713 -70.7705 -70.7705
   -39.7287 -39.6242 -39.6240 -39.6238 -39.6237 -39.6232 -39.6230 -39.6227
   -39.5718 -39.5419 -39.5214 -39.5064 -39.5024 -39.5024 -39.5023 -39.5022
   -39.5015 -39.4976 -39.4392 -39.4387 -39.4372 -39.4369 -39.4349 -39.4347
   -39.4339 -39.4263 -39.4157 -39.4154 -39.4152 -39.4150 -39.4148 -39.4144
   -39.4140 -39.3789 -39.3788 -39.3781 -39.3775 -39.3754 -39.3743 -39.3739
   -39.3728 -39.3697 -39.3696 -39.3696 -39.3691 -39.3690 -39.3689 -39.3682
    -8.9469  -8.0206  -8.0196  -8.0193  -8.0191  -7.8699  -7.8679  -7.2309
    -7.2302  -7.1350  -7.1349  -7.1341  -7.1306  -7.0365  -7.0355  -6.9574
    -6.9402  -6.9374  -6.8727  -6.8724  -6.8718  -6.8716  -6.8465  -6.8462
    -6.7909  -6.7882  -6.6830  -6.6828  -6.6827  -6.6798  -6.6173  -6.6171
     3.0062   3.3850   3.3877   3.6814   4.0030   4.0032   4.0034   4.0071
     4.0788   4.0806   4.0813   4.0852   4.2405   4.2535   4.2535   4.3101
     4.3139   4.4959   4.4994   4.9309   4.9309   4.9335   4.9339   5.2755
     5.2782   5.3447   5.3477   5.3501   5.3519   5.4587   5.4589   5.4593
     5.4659   5.5609   5.5614   5.5932   5.5962   5.8889   5.8894   5.8916
     5.8924   5.9441   5.9446   5.9447   5.9460   6.2015   6.2019   6.2030
     6.2047   6.4008   6.4040   6.4397   6.4428   6.8189   6.8198   6.8217
     6.8269   7.0465   7.0474   7.0517   7.0519   7.0774   7.0776   7.0789
     7.0803   7.2073   7.2080   7.2080   7.2090   7.4836   7.4844   7.4847
     7.4883   7.6887   7.7366   7.7392   8.2283   8.2298   8.4213   8.5070
     8.5091   8.5361   8.5365   8.5376   8.5387   8.6615   8.6785   8.6793
     8.7688   8.7705   8.7875   8.7893   8.7972   8.9518   8.9521   9.1875
     9.1886   9.1914   9.1922   9.1927   9.1928   9.2393   9.2403   9.2570
     9.2577   9.2607   9.2608   9.2615   9.2623   9.2697   9.2698   9.2698
     9.2705   9.6376   9.6500   9.6500   9.6502   9.6506  10.0090  10.0090
    10.0647  10.0653  10.0657  10.0660  10.3275  10.3282  10.3726  10.3729
    10.4555  10.4556  10.5901  10.6115  10.6129  10.6130  10.6135  11.1491
    11.1498  11.2751  11.2865  11.3156  11.3156  11.3167  11.3168  11.3610
    11.3619  11.5766  11.5769  11.5783  11.5783  12.7926  12.7940  12.9957
    12.9966  13.0354  13.0370  13.0662  13.0674  13.5273  13.5292  13.6600
    13.6637  13.6641  13.6645  13.7436  13.7481  13.7483  13.7487  13.9385
    13.9400  13.9719  13.9731  14.7456  14.7478  14.7494  14.7497  15.1112
    19.2459  21.6192  21.6202  21.6218  21.6223  22.3926  22.3940  22.9100
    22.9112  23.1089  23.1103  23.8950  23.8954  23.8970  23.8976  23.9038
    23.9071  23.9774  23.9793  23.9801  23.9820  24.0322  24.0322  24.3303
    24.3307  25.0478  25.5818  25.5825  25.5838  25.5844  26.2678  26.2686
    26.2997  26.4735  26.6090  26.6094  26.6701  26.6709  26.8530  26.8550
    26.9817  26.9827  26.9835  26.9842  27.6352  27.6398  27.6869  27.6878
    27.6896  27.6896  27.8015  27.8094  27.8097  27.8103  27.8899  27.8917
    27.9974  28.0019  28.0022  28.0037  28.4868  28.4891  28.4898  28.4916
    28.6275  28.6314  28.6877  28.6886  28.8229  28.8231  28.8258  28.8261
    29.0818  29.3099  29.3117  29.4827  29.4846  30.2556  30.3449  30.3480
    30.3526  30.3555  30.5056  30.5073  30.6944  30.6954  30.6984  30.6993
    31.3285  32.7252  32.7350  32.7362  32.7369  32.8282  32.8296  32.8529
    32.8579  33.1098  33.1131  33.3893  33.3893  33.3906  33.3909  33.9357
    33.9366  33.9376  33.9403  33.9588  33.9608  35.1174  35.1434  35.1461
    35.1480  35.1484  35.1490  35.1495  35.3964  35.3981  35.8336  36.4348
    36.4357  37.0170  37.0203  37.1345  37.1384  37.3809  37.4387  37.4410
    37.4422  37.4433  37.5025  37.5028  38.3427  38.3439  38.3453  38.3458
    38.3644  38.3661  38.4340  39.0675  39.0683  39.0692  39.0707  39.1736
    39.1749  39.2932  39.2965  39.2973  39.2985  39.3301  39.3330  39.5131
    39.5175  39.5178  39.5184  39.5815  39.5823  39.8744  39.9799  39.9805
    40.1742  40.1770  40.1771  40.1784  40.1957  40.1964  40.9445  40.9447
    40.9450  40.9459  41.1426  42.0929  42.0935  42.1937  42.6728  42.6738
    42.7083  42.7098  42.9704  42.9732  43.0147  43.0162  44.0063  44.0110
    44.0122  44.0123  44.2576  44.2624  44.2635  44.2641  44.4989  44.4992
    45.3789  45.3803  45.4048  45.4049  45.4209  45.4223  45.4773  45.4811
    45.5940  45.6542  45.6545  45.6548  45.6563  45.7302  45.7309  45.7345
[...]
    48.4682  48.4708  48.4983  48.4994  48.5036  48.5045  48.8750  49.2129
    49.2164  49.4037  49.4050  49.6983  49.6998  49.8044  49.8084  50.1296
    50.1313  50.1314  50.1315  50.3573  50.3592  50.3604  50.3626  50.3960
    50.3971  50.3976  50.3982  50.6038  50.6052  50.6180  50.6187  50.7087
    50.9465  50.9485  51.8745  51.8773  51.8776  51.8789  52.0329  52.0334
    52.1591  52.1615  52.1702  52.2030  52.2044  52.2055  52.2057  52.5560
    52.5565  52.8469  52.8491  52.8923  52.8947  52.9108  52.9181  52.9188
    52.9194  53.5791  53.5820  53.5838  53.5845  53.6575  53.6579  53.6596
    53.6607  53.6726  54.1576  54.1578  54.1587  54.1593  54.2482  54.2532
    54.3760  54.4255  54.4266  54.6469  54.6473  54.7918  54.7946  54.9441
    54.9472  55.0682  55.0695  55.1751  55.1781  55.1781  55.1788  55.2815
    55.2834  55.7514  55.7556  55.7579  55.7582  55.8320  56.1316  56.1351
    56.1599  56.1609  56.1618  56.1625  56.2012  56.2030  56.4749  56.4763
    56.8104  56.8133  56.9516  56.9528  56.9533  56.9534  57.0096  57.0107
    57.7879  57.9681  57.9689  58.0119  58.0126  58.1262  58.1276  58.1638

[...]

          k =-0.5000-0.5000 0.0000 ( 12432 PWs)   bands (ev):

[...]

 ------ SPIN DOWN ----------

[...]

          k = 0.2500-0.5000-0.7676 ( 12432 PWs)   bands (ev):

[...]

          k =-0.2500 0.2500 0.7676 ( 12434 PWs)   bands (ev):

   -67.6027 -67.4733 -67.4730 -67.4727 -67.4724 -67.4723 -67.4723 -67.4722
   -67.4721 -67.4719 -67.4718 -67.4717 -67.4713 -67.4711 -67.4708 -67.4707
   -36.4891 -36.3682 -36.3673 -36.3669 -36.3661 -36.3656 -36.3652 -36.3650
   -36.3642 -36.3641 -36.3632 -36.3632 -36.3627 -36.3623 -36.3603 -36.3602
   -36.3571 -36.3123 -36.2376 -36.2368 -36.2362 -36.2352 -36.2351 -36.2346
   -36.2340 -36.2337 -36.2336 -36.2336 -36.2335 -36.2323 -36.2323 -36.2320
   -36.2319 -36.1859 -36.1852 -36.1850 -36.1848 -36.1838 -36.1838 -36.1837
   -36.1835 -36.1835 -36.1835 -36.1833 -36.1832 -36.1821 -36.1812 -36.1811
    -8.0212  -8.0199  -7.6471  -7.6455  -7.6453  -7.6446  -7.4159  -7.4149
    -7.1475  -7.1468  -7.0731  -7.0726  -7.0714  -7.0712  -6.6678  -6.6669
    -6.6431  -6.6413  -6.6190  -6.6174  -6.5632  -6.5623  -6.5623  -6.5618
    -6.5420  -6.5412  -6.5406  -6.5402  -6.5398  -6.5382  -6.5114  -6.5097
     4.4146   4.4148   4.4986   4.4989   4.7877   4.7895   4.7896   4.7904
     4.8074   4.8093   5.1154   5.1191   5.1968   5.1992   5.2858   5.2891
     5.3257   5.3273   5.3294   5.3302   5.4191   5.4197   5.4203   5.4228
     5.4996   5.5012   5.6608   5.6613   5.6615   5.6656   5.7621   5.7644
     6.2353   6.2368   6.2371   6.2398   6.3094   6.3104   6.3806   6.3823
     6.7130   6.7137   6.7138   6.7144   6.8207   6.8218   7.0446   7.0453
     7.0457   7.0470   7.1313   7.1322   7.2531   7.2536   7.5196   7.5197
     7.5201   7.5201   7.7553   7.7572   7.8017   7.8036   7.8037   7.8055
     7.8120   7.8120   7.8727   7.8728   8.1160   8.1179   8.2388   8.2404
     8.7399   8.7406   8.7416   8.7420   8.7428   8.7451   8.8977   8.9005
     9.0986   9.1006   9.2293   9.2294   9.5173   9.5180   9.5186   9.5194
     9.5865   9.5874  10.0749  10.0756  10.0762  10.0762  10.3524  10.3527
    11.8432  11.8447  11.9923  11.9928  11.9932  11.9975  12.1041  12.1055
    12.1383  12.1390  12.2468  12.2514  12.3520  12.3526  12.3547  12.3568
    12.3941  12.3999  12.4750  12.4755  12.4772  12.4828  12.5076  12.5160
    12.5406  12.5413  12.7438  12.7446  12.8062  12.8068  12.8075  12.8088
    13.0094  13.0118  13.1811  13.1848  13.2135  13.2138  13.2144  13.2156
    13.2917  13.2925  13.4485  13.4486  13.4486  13.4525  13.7118  13.7131
    13.9977  13.9985  13.9986  13.9986  14.2537  14.2538  14.4309  14.4313
    14.4316  14.4318  14.4435  14.4437  14.6579  14.6580  14.9025  14.9025
    14.9232  14.9232  15.1633  15.1637  15.3820  15.3824  15.3832  15.3833
    15.6380  15.6382  16.0414  16.0432  16.0439  16.0440  16.0807  16.0811
    21.6476  21.6494  22.6276  22.6295  22.6301  22.6307  23.2190  23.2202
    24.0313  24.0337  24.0404  24.0431  24.0431  24.0437  24.9703  24.9711
    24.9882  24.9920  25.2964  25.2988  25.6868  25.6874  25.6884  25.6893
    25.9862  25.9883  26.2935  26.2963  26.6404  26.6442  26.6444  26.6444
    26.8768  26.8794  26.9017  26.9036  26.9056  26.9064  26.9234  26.9253
    27.0499  27.0502  27.3464  27.3490  27.3491  27.3501  27.7444  27.7471
    28.3538  28.3548  28.4632  28.4632  28.4670  28.4670  28.8190  28.8195
    28.8628  28.8673  28.8674  28.8686  28.9583  28.9592  29.0583  29.0605
    29.1467  29.1490  29.3374  29.3388  29.3395  29.3399  29.5928  29.5952
    29.6002  29.6017  29.9935  29.9963  29.9965  29.9977  30.5231  30.5239
    30.7129  30.7179  30.8524  30.8558  30.8565  30.8587  31.5524  31.5527
    31.8038  31.8087  31.8092  31.8093  32.1474  32.1528  32.7550  32.7572
    33.1594  33.1595  33.1610  33.1629  33.6908  33.6949  33.7900  33.7922
    35.4325  35.4343  35.6401  35.6403  35.6413  35.6433  35.9679  35.9681
    36.0946  36.0963  36.1944  36.1961  37.0121  37.0131  37.3916  37.3919
    37.3923  37.3927  37.6420  37.6440  37.6507  37.6529  38.0237  38.0274
    38.0276  38.0279  38.4587  38.4600  38.4601  38.4602  38.5673  38.5705
    38.6548  38.6563  38.6579  38.6589  38.8967  38.8971  38.9192  38.9216
    39.6871  39.6893  40.0046  40.0053  40.0063  40.0074  40.4184  40.4188
    40.4220  40.4221  40.4898  40.4903  41.0392  41.0405  41.1659  41.1671
    41.1679  41.1696  41.3722  41.3724  41.5714  41.5715  41.8631  41.8632
    41.8768  41.8771  42.7085  42.7090  42.7096  42.7101  43.1236  43.1246
    43.2011  43.2020  43.2023  43.2026  43.4116  43.4128  44.1312  44.1312
    44.6248  44.6250  44.6255  44.6268  44.7847  44.7851  45.0781  45.0795
    45.3278  45.3289  45.3690  45.3693  45.4514  45.4532  45.4533  45.4534
    45.7240  45.7244  46.4055  46.4057  46.4060  46.4067  46.8018  46.8041
[...]
    49.2582  49.2600  49.5080  49.5084  49.5114  49.5115  49.6225  49.6232
    50.0663  50.0678  50.2377  50.2377  50.7244  50.7261  50.7262  50.7265
    51.1666  51.1675  51.1693  51.1703  51.2534  51.2555  51.3723  51.3728
    51.5962  51.5962  51.6341  51.6348  51.9640  51.9655  51.9668  51.9678
    52.1862  52.1862  52.1873  52.1889  52.1895  52.1903  52.2854  52.2854
    52.3872  52.3913  52.3913  52.3913  52.5213  52.5220  52.7144  52.7171
    52.7176  52.7177  52.8209  52.8229  52.8962  52.8966  53.0177  53.0204
    53.3206  53.3207  53.3569  53.3600  53.3605  53.3608  53.5955  53.5977
    53.6867  53.6871  53.7399  53.7410  53.8538  53.8573  53.8590  53.8597
    53.8690  53.8691  54.3700  54.3706  54.3707  54.3714  54.5522  54.5552
    55.0025  55.0038  55.1718  55.1736  55.1748  55.1749  55.4115  55.4136
    55.4139  55.4146  55.5748  55.5775  55.7918  55.7939  56.0202  56.0214
    56.7310  56.7311  57.0648  57.0663  57.1110  57.1130  57.1142  57.1153
    57.2630  57.2644  57.3109  57.3117  57.3128  57.3135  57.4172  57.4194
    57.5131  57.5132  57.6052  57.6066  58.2269  58.2291  58.2291  58.2307

     the Fermi energy is    11.3906 ev

!    total energy              =   -4439.59434310 Ry
     Harris-Foulkes estimate   =   -4439.59434337 Ry
     estimated scf accuracy    <       0.00000030 Ry

     The total energy is the sum of the following terms:

     one-electron contribution =   -2118.22014205 Ry
     hartree contribution      =    1287.95143554 Ry
     xc contribution           =    -649.32863345 Ry
     ewald contribution        =   -2960.06000834 Ry
     Hubbard energy            =       0.06106672 Ry
     smearing contrib. (-TS)   =       0.00193849 Ry

     total magnetization       =    47.98 Bohr mag/cell
     absolute magnetization    =    49.34 Bohr mag/cell

     convergence has been achieved in   9 iterations

     Writing output data file pwscf.save

     General routines

     Parallel routines
     Hubbard U routines

   This run was terminated on:   3: 8:10  15Feb2014

   JOB DONE.