     Program PWSCF v.5.0.2 (svn rev. 9656) starts on 14Feb2014 at 13: 9:31

     Current dimensions of program PWSCF are:
     Max number of different atomic species (ntypx) = 10
     Max number of k-points (npk) =  40000
     Max angular momentum in pseudopotentials (lmaxx) =  3
     Reading input from alpha_-0.07/alpha_-0.07.in
Warning: card &IONS ignored
Warning: card / ignored
Warning: card &CELL ignored
Warning: card / ignored

     Subspace diagonalization in iterative solution of the eigenvalue problem:
     a serial algorithm will be used

     bravais-lattice index     =            0
     lattice parameter (alat)  =      16.4784  a.u.
     unit-cell volume          =    2914.5930 (a.u.)^3
     number of atoms/cell      =           48
     number of atomic types    =            3
     number of electrons       =       432.00
     number of Kohn-Sham states=          624
     kinetic-energy cutoff     =      40.0000  Ry
     charge density cutoff     =     500.0000  Ry
     convergence threshold     =      1.0E-06
     mixing beta               =       0.7000
     number of iterations used =            8  plain     mixing
     Exchange-correlation      = SLA  PW   PBE  PBE ( 1 4 3 4 0)
     EXX-fraction              =        0.00

     celldm(1)=  16.478412  celldm(2)=   0.000000  celldm(3)=   0.000000
     celldm(4)=   0.000000  celldm(5)=   0.000000  celldm(6)=   0.000000

     crystal axes: (cart. coord. in units of alat)
               a(1) = (   1.000000   0.000000   0.000000 )
               a(2) = (   0.000000   1.000000   0.000000 )
               a(3) = (   0.000000   0.000000   0.651376 )

     reciprocal axes: (cart. coord. in units 2 pi/alat)
               b(1) = (  1.000000  0.000000  0.000000 )
               b(2) = (  0.000000  1.000000  0.000000 )
               b(3) = (  0.000000  0.000000  1.535211 )

     PseudoPot. # 1 for Mn read from file:
     /home/camp/zhonxu/pseudo/mn_pbe_v1.uspp.F.UPF
     MD5 check sum: 5fd7c7b5c956fd19902447332617373a
     Pseudo is Ultrasoft + core correction, Zval = 15.0
     Generated by new atomic code, or converted to UPF format
     Using radial grid of  859 points,  6 beta functions with:
                l(1) =   0
                l(2) =   0
                l(3) =   1
                l(4) =   1
                l(5) =   2
                l(6) =   2
     Q(r) pseudized with  6 coefficients,  rinner =    1.150   1.150   1.150
                                                       1.150   1.150

     PseudoPot. # 2 for Mn read from file:
     /home/camp/zhonxu/pseudo/mn_pbe_v1.uspp.F.UPF
     MD5 check sum: 5fd7c7b5c956fd19902447332617373a
     Pseudo is Ultrasoft + core correction, Zval = 15.0
     Generated by new atomic code, or converted to UPF format
     Using radial grid of  859 points,  6 beta functions with:
                l(1) =   0
                l(2) =   0
                l(3) =   1
                l(4) =   1
                l(5) =   2
                l(6) =   2
     Q(r) pseudized with  6 coefficients,  rinner =    1.150   1.150   1.150
                                                       1.150   1.150

     PseudoPot. # 3 for O  read from file:
     /home/camp/zhonxu/pseudo/o_pbe_v1.01.uspp.F.UPF
     MD5 check sum: 2bcb18d16ea4b960afae9ec6d52f22d2
     Pseudo is Ultrasoft + core correction, Zval =  6.0
     Generated by new atomic code, or converted to UPF format
     Using radial grid of  737 points,  5 beta functions with:
                l(1) =   0
                l(2) =   0
                l(3) =   1
                l(4) =   1
                l(5) =   2
     Q(r) pseudized with  8 coefficients,  rinner =    0.900   0.900   0.900
                                                       0.900   0.900

     atomic species   valence    mass     pseudopotential
        Mn0           15.00    54.93800     Mn( 1.00)
        Mn1           15.00    54.93800     Mn( 1.00)
        O2             6.00    15.99940     O ( 1.00)

     Starting magnetic structure
     atomic species   magnetization
        Mn0          0.600
        Mn1          0.600
        O2           0.000

     Simplified LDA+U calculation (l_max = 2) with parameters (eV):
     atomic species    L          U    alpha       J0     beta
        Mn0            2     0.0000  -0.0700   0.0000   0.0000
        Mn1            2     0.0000   0.0000   0.0000   0.0000
        O2             1     0.0000   0.0000   0.0000   0.0000

      8 Sym. Ops., with inversion, found

   Cartesian axes

     site n.     atom                  positions (alat units)
         1           Mn0 tau(   1) = (   0.0000000   0.0000000   0.0000000  )
         2           Mn1 tau(   2) = (   0.2500000   0.2500000   0.1628440  )
         3           Mn1 tau(   3) = (   0.0000000   0.0000000   0.3256881  )
         4           Mn1 tau(   4) = (   0.2500000   0.2500000   0.4885321  )
         5           Mn1 tau(   5) = (   0.0000000   0.5000000   0.0000000  )
         6           Mn1 tau(   6) = (   0.2500000   0.7500000   0.1628440  )
         7           Mn1 tau(   7) = (   0.0000000   0.5000000   0.3256881  )
         8           Mn1 tau(   8) = (   0.2500000   0.7500000   0.4885321  )
         9           Mn1 tau(   9) = (   0.5000000   0.0000000   0.0000000  )
        10           Mn1 tau(  10) = (   0.7500000   0.2500000   0.1628440  )
        11           Mn1 tau(  11) = (   0.5000000   0.0000000   0.3256881  )
        12           Mn1 tau(  12) = (   0.7500000   0.2500000   0.4885321  )
        13           Mn1 tau(  13) = (   0.5000000   0.5000000   0.0000000  )
        14           Mn1 tau(  14) = (   0.7500000   0.7500000   0.1628440  )
        15           Mn1 tau(  15) = (   0.5000000   0.5000000   0.3256881  )
        16           Mn1 tau(  16) = (   0.7500000   0.7500000   0.4885321  )
        17           O2  tau(  17) = (   0.1500000   0.1500000   0.0000000  )
        18           O2  tau(  18) = (  -0.1500000  -0.1500000   0.0000000  )
        19           O2  tau(  19) = (   0.4000000   0.1000000   0.1628440  )
        20           O2  tau(  20) = (   0.1000000   0.4000000   0.1628440  )
        21           O2  tau(  21) = (   0.1500000   0.1500000   0.3256881  )
        22           O2  tau(  22) = (  -0.1500000  -0.1500000   0.3256881  )
        23           O2  tau(  23) = (   0.4000000   0.1000000   0.4885321  )
        24           O2  tau(  24) = (   0.1000000   0.4000000   0.4885321  )
        25           O2  tau(  25) = (   0.1500000   0.6500000   0.0000000  )
        26           O2  tau(  26) = (  -0.1500000   0.3500000   0.0000000  )
        27           O2  tau(  27) = (   0.4000000   0.6000000   0.1628440  )
        28           O2  tau(  28) = (   0.1000000   0.9000000   0.1628440  )
        29           O2  tau(  29) = (   0.1500000   0.6500000   0.3256881  )
        30           O2  tau(  30) = (  -0.1500000   0.3500000   0.3256881  )
        31           O2  tau(  31) = (   0.4000000   0.6000000   0.4885321  )
        32           O2  tau(  32) = (   0.1000000   0.9000000   0.4885321  )
        33           O2  tau(  33) = (   0.6500000   0.1500000   0.0000000  )
        34           O2  tau(  34) = (   0.3500000  -0.1500000   0.0000000  )
        35           O2  tau(  35) = (   0.9000000   0.1000000   0.1628440  )
        36           O2  tau(  36) = (   0.6000000   0.4000000   0.1628440  )
        37           O2  tau(  37) = (   0.6500000   0.1500000   0.3256881  )
        38           O2  tau(  38) = (   0.3500000  -0.1500000   0.3256881  )
        39           O2  tau(  39) = (   0.9000000   0.1000000   0.4885321  )
        40           O2  tau(  40) = (   0.6000000   0.4000000   0.4885321  )
        41           O2  tau(  41) = (   0.6500000   0.6500000   0.0000000  )
        42           O2  tau(  42) = (   0.3500000   0.3500000   0.0000000  )
        43           O2  tau(  43) = (   0.9000000   0.6000000   0.1628440  )
        44           O2  tau(  44) = (   0.6000000   0.9000000   0.1628440  )
        45           O2  tau(  45) = (   0.6500000   0.6500000   0.3256881  )
        46           O2  tau(  46) = (   0.3500000   0.3500000   0.3256881  )
        47           O2  tau(  47) = (   0.9000000   0.6000000   0.4885321  )
        48           O2  tau(  48) = (   0.6000000   0.9000000   0.4885321  )

     number of k points=    42  Methfessel-Paxton smearing, width (Ry)=  0.0100
                       cart. coord. in units 2pi/alat
        k(    1) = (   0.0000000   0.0000000   0.0000000), wk =   0.0156250
        k(    2) = (   0.0000000   0.0000000   0.3838028), wk =   0.0312500
        k(    3) = (   0.0000000   0.0000000  -0.7676056), wk =   0.0156250
        k(    4) = (   0.0000000   0.2500000   0.0000000), wk =   0.0625000
        k(    5) = (   0.0000000   0.2500000   0.3838028), wk =   0.1250000
        k(    6) = (   0.0000000   0.2500000  -0.7676056), wk =   0.0625000
        k(    7) = (   0.0000000  -0.5000000   0.0000000), wk =   0.0312500
        k(    8) = (   0.0000000  -0.5000000   0.3838028), wk =   0.0625000
        k(    9) = (   0.0000000  -0.5000000  -0.7676056), wk =   0.0312500
        k(   10) = (   0.2500000   0.2500000   0.0000000), wk =   0.0312500
        k(   11) = (   0.2500000   0.2500000   0.3838028), wk =   0.0625000
        k(   12) = (   0.2500000   0.2500000  -0.7676056), wk =   0.0312500
        k(   13) = (   0.2500000  -0.5000000   0.0000000), wk =   0.0625000
        k(   14) = (   0.2500000  -0.5000000   0.3838028), wk =   0.1250000
        k(   15) = (   0.2500000  -0.5000000  -0.7676056), wk =   0.0625000
        k(   16) = (  -0.5000000  -0.5000000   0.0000000), wk =   0.0156250
        k(   17) = (  -0.5000000  -0.5000000   0.3838028), wk =   0.0312500
        k(   18) = (  -0.5000000  -0.5000000  -0.7676056), wk =   0.0156250
        k(   19) = (  -0.2500000   0.2500000   0.0000000), wk =   0.0312500
        k(   20) = (  -0.2500000   0.2500000  -0.3838028), wk =   0.0625000
        k(   21) = (  -0.2500000   0.2500000   0.7676056), wk =   0.0312500
        k(   22) = (   0.0000000   0.0000000   0.0000000), wk =   0.0156250
        k(   23) = (   0.0000000   0.0000000   0.3838028), wk =   0.0312500
        k(   24) = (   0.0000000   0.0000000  -0.7676056), wk =   0.0156250
        k(   25) = (   0.0000000   0.2500000   0.0000000), wk =   0.0625000
        k(   26) = (   0.0000000   0.2500000   0.3838028), wk =   0.1250000
        k(   27) = (   0.0000000   0.2500000  -0.7676056), wk =   0.0625000
        k(   28) = (   0.0000000  -0.5000000   0.0000000), wk =   0.0312500
        k(   29) = (   0.0000000  -0.5000000   0.3838028), wk =   0.0625000
        k(   30) = (   0.0000000  -0.5000000  -0.7676056), wk =   0.0312500
        k(   31) = (   0.2500000   0.2500000   0.0000000), wk =   0.0312500
        k(   32) = (   0.2500000   0.2500000   0.3838028), wk =   0.0625000
        k(   33) = (   0.2500000   0.2500000  -0.7676056), wk =   0.0312500
        k(   34) = (   0.2500000  -0.5000000   0.0000000), wk =   0.0625000
        k(   35) = (   0.2500000  -0.5000000   0.3838028), wk =   0.1250000
        k(   36) = (   0.2500000  -0.5000000  -0.7676056), wk =   0.0625000
[...]
    eigenvectors:
  0.000  1.000  0.000
  0.500  0.000  0.500
  0.500  0.000  0.500
    occupations:
  0.858 -0.000  0.000
 -0.000  0.921 -0.073
  0.000 -0.073  0.921
   spin  2
    eigenvalues:
  0.869  0.873  0.883
    eigenvectors:
  0.000  0.000  1.000
  0.500  0.500  0.000
  0.500  0.500  0.000
    occupations:
  0.883 -0.000 -0.000
 -0.000  0.871  0.002
 -0.000  0.002  0.871
atomic mag. moment =     0.075193
atom   42   Tr[ns(na)] (up, down, total) =   2.69939  2.62420  5.32359
   spin  1
    eigenvalues:
  0.848  0.858  0.994
    eigenvectors:
  0.000  1.000  0.000
  0.500  0.000  0.500
  0.500  0.000  0.500
    occupations:
  0.858 -0.000  0.000
 -0.000  0.921 -0.073
  0.000 -0.073  0.921
   spin  2
    eigenvalues:
  0.869  0.873  0.883
    eigenvectors:
  0.000  0.000  1.000
  0.500  0.500  0.000
  0.500  0.500  0.000
    occupations:
  0.883 -0.000 -0.000
 -0.000  0.871  0.002
 -0.000  0.002  0.871
atomic mag. moment =     0.075193
atom   43   Tr[ns(na)] (up, down, total) =   2.69939  2.62420  5.32360
   spin  1
    eigenvalues:
  0.848  0.858  0.994
    eigenvectors:
  0.000  1.000  0.000
  0.500  0.000  0.500
  0.500  0.000  0.500
    occupations:
  0.858  0.000 -0.000
  0.000  0.921  0.073
 -0.000  0.073  0.921
   spin  2
    eigenvalues:
  0.869  0.873  0.883
    eigenvectors:
  0.000  0.000  1.000
  0.500  0.500  0.000
  0.500  0.500  0.000
    occupations:
  0.883 -0.000 -0.000
 -0.000  0.871 -0.002
 -0.000 -0.002  0.871
atomic mag. moment =     0.075190
atom   44   Tr[ns(na)] (up, down, total) =   2.69939  2.62420  5.32360
   spin  1
    eigenvalues:
  0.848  0.858  0.994
    eigenvectors:
  0.000  1.000  0.000
  0.500  0.000  0.500
  0.500  0.000  0.500
    occupations:
  0.858 -0.000  0.000
 -0.000  0.921  0.073
  0.000  0.073  0.921
   spin  2
    eigenvalues:
  0.869  0.873  0.883
    eigenvectors:
  0.000  0.000  1.000
  0.500  0.500  0.000
  0.500  0.500  0.000
    occupations:
  0.883 -0.000 -0.000
 -0.000  0.871 -0.002
 -0.000 -0.002  0.871
atomic mag. moment =     0.075190
atom   45   Tr[ns(na)] (up, down, total) =   2.69938  2.62417  5.32355
   spin  1
    eigenvalues:
  0.848  0.858  0.994
    eigenvectors:
  0.000  1.000  0.000
  0.500  0.000  0.500
  0.500  0.000  0.500
    occupations:
  0.858 -0.000  0.000
 -0.000  0.921 -0.073
  0.000 -0.073  0.921
   spin  2
    eigenvalues:
  0.869  0.873  0.883
    eigenvectors:
  0.000  0.000  1.000
  0.500  0.500  0.000
  0.500  0.500  0.000
    occupations:
  0.883 -0.000 -0.000
 -0.000  0.871  0.002
 -0.000  0.002  0.871
atomic mag. moment =     0.075215
atom   46   Tr[ns(na)] (up, down, total) =   2.69938  2.62417  5.32355
   spin  1
    eigenvalues:
  0.848  0.858  0.994
    eigenvectors:
  0.000  1.000  0.000
  0.500  0.000  0.500
  0.500  0.000  0.500
    occupations:
  0.858 -0.000  0.000
 -0.000  0.921 -0.073
  0.000 -0.073  0.921
   spin  2
    eigenvalues:
  0.869  0.873  0.883
    eigenvectors:
  0.000  0.000  1.000
  0.500  0.500  0.000
  0.500  0.500  0.000
    occupations:
  0.883 -0.000 -0.000
 -0.000  0.871  0.002
 -0.000  0.002  0.871
atomic mag. moment =     0.075215
atom   47   Tr[ns(na)] (up, down, total) =   2.69939  2.62420  5.32360
   spin  1
    eigenvalues:
  0.848  0.858  0.994
    eigenvectors:
  0.000  1.000  0.000
  0.500  0.000  0.500
  0.500  0.000  0.500
    occupations:
  0.858 -0.000  0.000
 -0.000  0.921  0.073
  0.000  0.073  0.921
   spin  2
    eigenvalues:
  0.869  0.873  0.883
    eigenvectors:
  0.000  0.000  1.000
  0.500  0.500  0.000
  0.500  0.500  0.000
    occupations:
  0.883  0.000  0.000
  0.000  0.871 -0.002
  0.000 -0.002  0.871
atomic mag. moment =     0.075190
atom   48   Tr[ns(na)] (up, down, total) =   2.69939  2.62420  5.32360
   spin  1
    eigenvalues:
  0.848  0.858  0.994
    eigenvectors:
  0.000  1.000  0.000
  0.500  0.000  0.500
  0.500  0.000  0.500
    occupations:
  0.858  0.000 -0.000
  0.000  0.921  0.073
 -0.000  0.073  0.921
   spin  2
    eigenvalues:
  0.869  0.873  0.883
    eigenvectors:
  0.000  0.000  1.000
  0.500  0.500  0.000
  0.500  0.500  0.000
    occupations:
  0.883  0.000  0.000
  0.000  0.871 -0.002
  0.000 -0.002  0.871
atomic mag. moment =     0.075190
N of occupied +U levels = 259.2833139
 --- exit write_ns ---

 ------ SPIN UP ------------

          k = 0.0000 0.0000 0.0000 ( 12425 PWs)   bands (ev):

   -70.7854 -70.7844 -70.7841 -70.7840 -70.7839 -70.7838 -70.7826 -70.7787
   -70.7741 -70.7741 -70.7739 -70.7738 -70.7737 -70.7736 -70.7732 -70.7083
   -39.6265 -39.6263 -39.6262 -39.6261 -39.6261 -39.6257 -39.6255 -39.6009
   -39.5091 -39.5050 -39.5048 -39.5048 -39.5046 -39.5044 -39.5004 -39.4623
   -39.4420 -39.4419 -39.4401 -39.4388 -39.4374 -39.4372 -39.4370 -39.4292
   -39.4179 -39.4177 -39.4176 -39.4175 -39.4173 -39.4171 -39.4168 -39.3817
   -39.3814 -39.3813 -39.3796 -39.3794 -39.3774 -39.3770 -39.3748 -39.3724
   -39.3722 -39.3721 -39.3718 -39.3715 -39.3715 -39.3713 -39.3557 -39.3076
    -8.9492  -8.0225  -8.0224  -8.0222  -8.0217  -7.8731  -7.8722  -7.2339
    -7.2335  -7.1402  -7.1386  -7.1383  -7.1383  -7.0396  -7.0391  -6.9627
    -6.9442  -6.9429  -6.8750  -6.8750  -6.8746  -6.8744  -6.8491  -6.8490
    -6.7948  -6.7936  -6.6872  -6.6860  -6.6859  -6.6857  -6.6200  -6.6199
     3.0027   3.3808   3.3821   3.6750   3.9980   3.9998   3.9998   3.9999
     4.0756   4.0773   4.0776   4.0785   4.2342   4.2518   4.2518   4.3064
     4.3081   4.4923   4.4939   4.9263   4.9266   4.9277   4.9277   5.2706
     5.2719   5.3405   5.3424   5.3442   5.3456   5.4530   5.4558   5.4559
     5.4561   5.5590   5.5593   5.5893   5.5907   5.8849   5.8854   5.8863
     5.8866   5.9427   5.9433   5.9434   5.9437   6.1975   6.1984   6.1988
     6.1991   6.3980   6.3994   6.4368   6.4382   6.8137   6.8157   6.8178
     6.8186   7.0446   7.0449   7.0491   7.0493   7.0731   7.0737   7.0743
     7.0743   7.2056   7.2061   7.2061   7.2064   7.4797   7.4812   7.4814
     7.4818   7.6865   7.7324   7.7335   8.2259   8.2266   8.4169   8.5034
     8.5043   8.5322   8.5326   8.5331   8.5333   8.6572   8.6762   8.6766
     8.7652   8.7659   8.7839   8.7846   8.7937   8.9492   8.9494   9.1850
     9.1855   9.1891   9.1891   9.1893   9.1898   9.2365   9.2368   9.2542
     9.2546   9.2579   9.2580   9.2581   9.2583   9.2663   9.2665   9.2666
     9.2667   9.6348   9.6467   9.6468   9.6469   9.6470  10.0057  10.0057
    10.0626  10.0628  10.0631  10.0633  10.3251  10.3254  10.3695  10.3696
    10.4526  10.4527  10.5862  10.6101  10.6102  10.6104  10.6111  11.1469
    11.1473  11.2730  11.2854  11.3136  11.3136  11.3143  11.3143  11.3587
    11.3592  11.5753  11.5754  11.5761  11.5762  12.7919  12.7926  12.9950
    12.9955  13.0347  13.0354  13.0651  13.0659  13.5267  13.5276  13.6611
    13.6612  13.6615  13.6633  13.7452  13.7454  13.7455  13.7478  13.9379
    13.9385  13.9709  13.9717  14.7465  14.7467  14.7475  14.7485  15.1108
    19.2449  21.6190  21.6192  21.6199  21.6205  22.3930  22.3936  22.9086
    22.9092  23.1080  23.1087  23.8946  23.8949  23.8956  23.8958  23.9047
    23.9062  23.9789  23.9799  23.9802  23.9812  24.0307  24.0308  24.3316
    24.3318  25.0496  25.5813  25.5816  25.5822  25.5826  26.2676  26.2680
    26.3002  26.4712  26.6087  26.6090  26.6684  26.6688  26.8523  26.8532
    26.9818  26.9821  26.9825  26.9830  27.6379  27.6399  27.6871  27.6871
    27.6880  27.6884  27.8075  27.8078  27.8080  27.8118  27.8894  27.8904
    28.0007  28.0015  28.0016  28.0038  28.4887  28.4895  28.4899  28.4909
    28.6287  28.6304  28.6886  28.6891  28.8241  28.8242  28.8255  28.8256
    29.0813  29.3119  29.3128  29.4834  29.4843  30.2577  30.3464  30.3479
    30.3554  30.3568  30.5062  30.5070  30.6969  30.6973  30.6988  30.6992
    31.3274  32.7337  32.7340  32.7346  32.7389  32.8299  32.8305  32.8554
    32.8581  33.1108  33.1123  33.3887  33.3888  33.3894  33.3894  33.9375
    33.9388  33.9393  33.9397  33.9586  33.9596  35.1167  35.1468  35.1471
    35.1474  35.1475  35.1485  35.1497  35.3974  35.3982  35.8351  36.4349
    36.4353  37.0182  37.0198  37.1367  37.1386  37.3830  37.4407  37.4413
    37.4418  37.4429  37.5020  37.5021  38.3435  38.3438  38.3444  38.3449
    38.3651  38.3659  38.4329  39.0692  39.0699  39.0704  39.0707  39.1742
    39.1748  39.2960  39.2965  39.2970  39.2985  39.3303  39.3316  39.5164
    39.5167  39.5169  39.5190  39.5821  39.5825  39.8760  39.9804  39.9807
    40.1758  40.1764  40.1765  40.1778  40.1969  40.1972  40.9449  40.9453
    40.9454  40.9455  41.1443  42.0921  42.0923  42.1952  42.6747  42.6752
    42.7098  42.7105  42.9716  42.9729  43.0154  43.0161  44.0099  44.0100
    44.0106  44.0128  44.2613  44.2615  44.2621  44.2644  44.4988  44.4989
    45.3796  45.3803  45.4053  45.4055  45.4207  45.4213  45.4785  45.4803
    45.5929  45.6539  45.6547  45.6548  45.6549  45.7324  45.7324  45.7342
[...]
    48.4689  48.4702  48.5020  48.5025  48.5044  48.5049  48.8756  49.2141
    49.2158  49.4034  49.4040  49.6994  49.7001  49.8064  49.8083  50.1297
    50.1297  50.1297  50.1305  50.3597  50.3607  50.3613  50.3622  50.3968
    50.3971  50.3973  50.3979  50.6062  50.6069  50.6181  50.6184  50.7090
    50.9470  50.9479  51.8763  51.8769  51.8770  51.8783  52.0320  52.0322
    52.1604  52.1615  52.1704  52.2043  52.2044  52.2049  52.2055  52.5554
    52.5556  52.8477  52.8488  52.8928  52.8940  52.9166  52.9169  52.9172
    52.9206  53.5821  53.5824  53.5833  53.5846  53.6589  53.6595  53.6601
    53.6603  53.6740  54.1577  54.1580  54.1584  54.1585  54.2510  54.2534
    54.3758  54.4253  54.4259  54.6464  54.6466  54.7936  54.7950  54.9466
    54.9480  55.0673  55.0679  55.1763  55.1766  55.1767  55.1781  55.2836
    55.2846  55.7553  55.7554  55.7565  55.7585  55.8308  56.1321  56.1337
    56.1612  56.1616  56.1620  56.1625  56.2013  56.2021  56.4742  56.4749
    56.8122  56.8135  56.9516  56.9516  56.9518  56.9524  57.0094  57.0099
    57.7865  57.9700  57.9703  58.0123  58.0126  58.1282  58.1288  58.1611

[...]

          k =-0.5000-0.5000 0.0000 ( 12432 PWs)   bands (ev):

[...]

 ------ SPIN DOWN ----------

[...]

          k = 0.2500-0.5000-0.7676 ( 12432 PWs)   bands (ev):

[...]

          k =-0.2500 0.2500 0.7676 ( 12434 PWs)   bands (ev):

   -67.4759 -67.4755 -67.4754 -67.4750 -67.4749 -67.4749 -67.4748 -67.4746
   -67.4745 -67.4743 -67.4742 -67.4741 -67.4740 -67.4735 -67.4734 -67.4133
   -36.3704 -36.3698 -36.3687 -36.3684 -36.3683 -36.3678 -36.3673 -36.3667
   -36.3661 -36.3656 -36.3655 -36.3652 -36.3651 -36.3629 -36.3625 -36.3082
   -36.2401 -36.2398 -36.2387 -36.2381 -36.2379 -36.2375 -36.2374 -36.2369
   -36.2368 -36.2364 -36.2363 -36.2347 -36.2347 -36.2345 -36.2344 -36.1945
   -36.1887 -36.1880 -36.1877 -36.1864 -36.1863 -36.1861 -36.1861 -36.1860
   -36.1859 -36.1858 -36.1858 -36.1849 -36.1843 -36.1839 -36.1694 -36.1285
    -8.0226  -8.0221  -7.6479  -7.6476  -7.6474  -7.6467  -7.4182  -7.4178
    -7.1499  -7.1495  -7.0747  -7.0746  -7.0742  -7.0739  -6.6710  -6.6705
    -6.6446  -6.6439  -6.6222  -6.6215  -6.5662  -6.5657  -6.5657  -6.5654
    -6.5456  -6.5446  -6.5437  -6.5436  -6.5435  -6.5434  -6.5130  -6.5123
     4.4116   4.4116   4.4951   4.4953   4.7861   4.7864   4.7865   4.7873
     4.8048   4.8058   5.1117   5.1134   5.1935   5.1947   5.2823   5.2840
     5.3244   5.3248   5.3257   5.3264   5.4152   5.4163   5.4165   5.4168
     5.4962   5.4969   5.6563   5.6581   5.6583   5.6587   5.7577   5.7587
     6.2324   6.2335   6.2337   6.2345   6.3069   6.3074   6.3765   6.3774
     6.7106   6.7109   6.7109   6.7113   6.8168   6.8173   7.0406   7.0413
     7.0415   7.0418   7.1290   7.1293   7.2506   7.2508   7.5171   7.5171
     7.5174   7.5174   7.7542   7.7550   7.7996   7.8006   7.8006   7.8014
     7.8096   7.8098   7.8691   7.8692   8.1148   8.1157   8.2370   8.2377
     8.7350   8.7364   8.7385   8.7386   8.7390   8.7391   8.8936   8.8949
     9.0961   9.0969   9.2263   9.2263   9.5147   9.5150   9.5152   9.5156
     9.5840   9.5844  10.0726  10.0726  10.0728  10.0731  10.3499  10.3499
    11.8372  11.8380  11.9868  11.9887  11.9889  11.9891  12.1008  12.1014
    12.1353  12.1356  12.2412  12.2434  12.3469  12.3471  12.3488  12.3490
    12.3887  12.3915  12.4686  12.4718  12.4729  12.4730  12.5028  12.5051
    12.5377  12.5378  12.7413  12.7416  12.8031  12.8037  12.8040  12.8044
    13.0041  13.0050  13.1760  13.1776  13.2099  13.2105  13.2107  13.2108
    13.2887  13.2890  13.4438  13.4454  13.4456  13.4456  13.7083  13.7088
    13.9955  13.9956  13.9957  13.9960  14.2509  14.2510  14.4284  14.4286
    14.4288  14.4289  14.4408  14.4409  14.6553  14.6554  14.9001  14.9001
    14.9208  14.9208  15.1610  15.1614  15.3803  15.3804  15.3808  15.3810
    15.6360  15.6360  16.0408  16.0410  16.0414  16.0422  16.0790  16.0793
    21.6469  21.6478  22.6276  22.6280  22.6282  22.6291  23.2180  23.2186
    24.0307  24.0317  24.0409  24.0411  24.0412  24.0424  24.9697  24.9700
    24.9893  24.9911  25.2975  25.2986  25.6868  25.6872  25.6877  25.6880
    25.9859  25.9869  26.2942  26.2955  26.6427  26.6427  26.6429  26.6446
    26.8769  26.8781  26.9037  26.9041  26.9049  26.9059  26.9230  26.9240
    27.0495  27.0497  27.3474  27.3478  27.3479  27.3491  27.7447  27.7460
    28.3544  28.3549  28.4646  28.4646  28.4663  28.4664  28.8184  28.8187
    28.8661  28.8666  28.8666  28.8687  28.9586  28.9591  29.0599  29.0609
    29.1485  29.1497  29.3381  29.3383  29.3386  29.3393  29.5928  29.5939
    29.6021  29.6028  29.9956  29.9962  29.9963  29.9976  30.5221  30.5225
    30.7153  30.7177  30.8562  30.8573  30.8577  30.8592  31.5515  31.5516
    31.8072  31.8072  31.8074  31.8097  32.1510  32.1535  32.7563  32.7573
    33.1603  33.1612  33.1620  33.1620  33.6931  33.6951  33.7923  33.7933
    35.4335  35.4343  35.6411  35.6420  35.6425  35.6426  35.9685  35.9686
    36.0965  36.0973  36.1951  36.1959  37.0132  37.0137  37.3911  37.3913
    37.3915  37.3916  37.6423  37.6432  37.6516  37.6526  38.0260  38.0261
    38.0262  38.0279  38.4592  38.4592  38.4593  38.4598  38.5697  38.5712
    38.6570  38.6575  38.6583  38.6589  38.8960  38.8962  38.9202  38.9213
    39.6881  39.6892  40.0051  40.0057  40.0062  40.0065  40.4206  40.4207
    40.4222  40.4224  40.4898  40.4900  41.0401  41.0407  41.1682  41.1690
    41.1694  41.1699  41.3712  41.3713  41.5720  41.5720  41.8633  41.8633
    41.8774  41.8776  42.7079  42.7081  42.7085  42.7087  43.1230  43.1234
    43.2016  43.2018  43.2019  43.2023  43.4110  43.4115  44.1318  44.1318
    44.6252  44.6258  44.6260  44.6261  44.7848  44.7850  45.0778  45.0785
    45.3290  45.3296  45.3689  45.3690  45.4531  45.4532  45.4532  45.4540
    45.7228  45.7230  46.4059  46.4062  46.4063  46.4064  46.8019  46.8029
[...]
    49.2590  49.2599  49.5094  49.5095  49.5109  49.5111  49.6238  49.6241
    50.0673  50.0680  50.2385  50.2385  50.7249  50.7250  50.7251  50.7259
    51.1677  51.1682  51.1690  51.1695  51.2548  51.2558  51.3723  51.3725
    51.5989  51.5989  51.6330  51.6332  51.9656  51.9660  51.9667  51.9674
    52.1871  52.1877  52.1879  52.1884  52.1911  52.1921  52.2855  52.2855
    52.3903  52.3903  52.3903  52.3921  52.5199  52.5202  52.7163  52.7164
    52.7166  52.7178  52.8222  52.8231  52.8961  52.8963  53.0189  53.0202
    53.3209  53.3210  53.3596  53.3597  53.3599  53.3613  53.5959  53.5969
    53.6871  53.6872  53.7404  53.7410  53.8577  53.8580  53.8588  53.8605
    53.8677  53.8678  54.3698  54.3701  54.3702  54.3705  54.5535  54.5549
    55.0021  55.0027  55.1733  55.1733  55.1739  55.1747  55.4129  55.4132
    55.4134  55.4143  55.5763  55.5776  55.7928  55.7939  56.0206  56.0212
    56.7299  56.7299  57.0670  57.0676  57.1134  57.1140  57.1145  57.1156
    57.2633  57.2640  57.3118  57.3122  57.3127  57.3130  57.4197  57.4208
    57.5131  57.5132  57.6051  57.6057  58.2286  58.2294  58.2294  58.2304

     the Fermi energy is    11.3874 ev

!    total energy              =   -4439.68412956 Ry
     Harris-Foulkes estimate   =   -4439.68412969 Ry
     estimated scf accuracy    <       0.00000015 Ry

     The total energy is the sum of the following terms:

     one-electron contribution =   -2118.31593257 Ry
     hartree contribution      =    1288.04993080 Ry
     xc contribution           =    -649.33141042 Ry
     ewald contribution        =   -2960.06000834 Ry
     Hubbard energy            =      -0.02863978 Ry
     smearing contrib. (-TS)   =       0.00193075 Ry

     total magnetization       =    47.98 Bohr mag/cell
     absolute magnetization    =    49.33 Bohr mag/cell

     convergence has been achieved in   7 iterations

     Writing output data file pwscf.save

     General routines

     Parallel routines
     Hubbard U routines

   This run was terminated on:  16:39:19  14Feb2014

   JOB DONE.