     Program PWSCF v.5.0.2 (svn rev. 9656) starts on 14Feb2014 at  9:19:43

     Current dimensions of program PWSCF are:
     Max number of different atomic species (ntypx) = 10
     Max number of k-points (npk) =  40000
     Max angular momentum in pseudopotentials (lmaxx) =  3
     Reading input from alpha_-0.15/alpha_-0.15.in
Warning: card &IONS ignored
Warning: card / ignored
Warning: card &CELL ignored
Warning: card / ignored

     Subspace diagonalization in iterative solution of the eigenvalue problem:
     a serial algorithm will be used

     bravais-lattice index     =            0
     lattice parameter (alat)  =      16.4784  a.u.
     unit-cell volume          =    2914.5930 (a.u.)^3
     number of atoms/cell      =           48
     number of atomic types    =            3
     number of electrons       =       432.00
     number of Kohn-Sham states=          624
     kinetic-energy cutoff     =      40.0000  Ry
     charge density cutoff     =     500.0000  Ry
     convergence threshold     =      1.0E-06
     mixing beta               =       0.7000
     number of iterations used =            8  plain     mixing
     Exchange-correlation      = SLA  PW   PBE  PBE ( 1 4 3 4 0)
     EXX-fraction              =        0.00

     celldm(1)=  16.478412  celldm(2)=   0.000000  celldm(3)=   0.000000
     celldm(4)=   0.000000  celldm(5)=   0.000000  celldm(6)=   0.000000

     crystal axes: (cart. coord. in units of alat)
               a(1) = (   1.000000   0.000000   0.000000 )
               a(2) = (   0.000000   1.000000   0.000000 )
               a(3) = (   0.000000   0.000000   0.651376 )

     reciprocal axes: (cart. coord. in units 2 pi/alat)
               b(1) = (  1.000000  0.000000  0.000000 )
               b(2) = (  0.000000  1.000000  0.000000 )
               b(3) = (  0.000000  0.000000  1.535211 )

     PseudoPot. # 1 for Mn read from file:
     /home/camp/zhonxu/pseudo/mn_pbe_v1.uspp.F.UPF
     MD5 check sum: 5fd7c7b5c956fd19902447332617373a
     Pseudo is Ultrasoft + core correction, Zval = 15.0
     Generated by new atomic code, or converted to UPF format
     Using radial grid of  859 points,  6 beta functions with:
                l(1) =   0
                l(2) =   0
                l(3) =   1
                l(4) =   1
                l(5) =   2
                l(6) =   2
     Q(r) pseudized with  6 coefficients,  rinner =    1.150   1.150   1.150
                                                       1.150   1.150

     PseudoPot. # 2 for Mn read from file:
     /home/camp/zhonxu/pseudo/mn_pbe_v1.uspp.F.UPF
     MD5 check sum: 5fd7c7b5c956fd19902447332617373a
     Pseudo is Ultrasoft + core correction, Zval = 15.0
     Generated by new atomic code, or converted to UPF format
     Using radial grid of  859 points,  6 beta functions with:
                l(1) =   0
                l(2) =   0
                l(3) =   1
                l(4) =   1
                l(5) =   2
                l(6) =   2
     Q(r) pseudized with  6 coefficients,  rinner =    1.150   1.150   1.150
                                                       1.150   1.150

     PseudoPot. # 3 for O  read from file:
     /home/camp/zhonxu/pseudo/o_pbe_v1.01.uspp.F.UPF
     MD5 check sum: 2bcb18d16ea4b960afae9ec6d52f22d2
     Pseudo is Ultrasoft + core correction, Zval =  6.0
     Generated by new atomic code, or converted to UPF format
     Using radial grid of  737 points,  5 beta functions with:
                l(1) =   0
                l(2) =   0
                l(3) =   1
                l(4) =   1
                l(5) =   2
     Q(r) pseudized with  8 coefficients,  rinner =    0.900   0.900   0.900
                                                       0.900   0.900

     atomic species   valence    mass     pseudopotential
        Mn0           15.00    54.93800     Mn( 1.00)
        Mn1           15.00    54.93800     Mn( 1.00)
        O2             6.00    15.99940     O ( 1.00)

     Starting magnetic structure
     atomic species   magnetization
        Mn0          0.600
        Mn1          0.600
        O2           0.000

     Simplified LDA+U calculation (l_max = 2) with parameters (eV):
     atomic species    L          U    alpha       J0     beta
        Mn0            2     0.0000  -0.1500   0.0000   0.0000
        Mn1            2     0.0000   0.0000   0.0000   0.0000
        O2             1     0.0000   0.0000   0.0000   0.0000

      8 Sym. Ops., with inversion, found

   Cartesian axes

     site n.     atom                  positions (alat units)
         1           Mn0 tau(   1) = (   0.0000000   0.0000000   0.0000000  )
         2           Mn1 tau(   2) = (   0.2500000   0.2500000   0.1628440  )
         3           Mn1 tau(   3) = (   0.0000000   0.0000000   0.3256881  )
         4           Mn1 tau(   4) = (   0.2500000   0.2500000   0.4885321  )
         5           Mn1 tau(   5) = (   0.0000000   0.5000000   0.0000000  )
         6           Mn1 tau(   6) = (   0.2500000   0.7500000   0.1628440  )
         7           Mn1 tau(   7) = (   0.0000000   0.5000000   0.3256881  )
         8           Mn1 tau(   8) = (   0.2500000   0.7500000   0.4885321  )
         9           Mn1 tau(   9) = (   0.5000000   0.0000000   0.0000000  )
        10           Mn1 tau(  10) = (   0.7500000   0.2500000   0.1628440  )
        11           Mn1 tau(  11) = (   0.5000000   0.0000000   0.3256881  )
        12           Mn1 tau(  12) = (   0.7500000   0.2500000   0.4885321  )
        13           Mn1 tau(  13) = (   0.5000000   0.5000000   0.0000000  )
        14           Mn1 tau(  14) = (   0.7500000   0.7500000   0.1628440  )
        15           Mn1 tau(  15) = (   0.5000000   0.5000000   0.3256881  )
        16           Mn1 tau(  16) = (   0.7500000   0.7500000   0.4885321  )
        17           O2  tau(  17) = (   0.1500000   0.1500000   0.0000000  )
        18           O2  tau(  18) = (  -0.1500000  -0.1500000   0.0000000  )
        19           O2  tau(  19) = (   0.4000000   0.1000000   0.1628440  )
        20           O2  tau(  20) = (   0.1000000   0.4000000   0.1628440  )
        21           O2  tau(  21) = (   0.1500000   0.1500000   0.3256881  )
        22           O2  tau(  22) = (  -0.1500000  -0.1500000   0.3256881  )
        23           O2  tau(  23) = (   0.4000000   0.1000000   0.4885321  )
        24           O2  tau(  24) = (   0.1000000   0.4000000   0.4885321  )
        25           O2  tau(  25) = (   0.1500000   0.6500000   0.0000000  )
        26           O2  tau(  26) = (  -0.1500000   0.3500000   0.0000000  )
        27           O2  tau(  27) = (   0.4000000   0.6000000   0.1628440  )
        28           O2  tau(  28) = (   0.1000000   0.9000000   0.1628440  )
        29           O2  tau(  29) = (   0.1500000   0.6500000   0.3256881  )
        30           O2  tau(  30) = (  -0.1500000   0.3500000   0.3256881  )
        31           O2  tau(  31) = (   0.4000000   0.6000000   0.4885321  )
        32           O2  tau(  32) = (   0.1000000   0.9000000   0.4885321  )
        33           O2  tau(  33) = (   0.6500000   0.1500000   0.0000000  )
        34           O2  tau(  34) = (   0.3500000  -0.1500000   0.0000000  )
        35           O2  tau(  35) = (   0.9000000   0.1000000   0.1628440  )
        36           O2  tau(  36) = (   0.6000000   0.4000000   0.1628440  )
        37           O2  tau(  37) = (   0.6500000   0.1500000   0.3256881  )
        38           O2  tau(  38) = (   0.3500000  -0.1500000   0.3256881  )
        39           O2  tau(  39) = (   0.9000000   0.1000000   0.4885321  )
        40           O2  tau(  40) = (   0.6000000   0.4000000   0.4885321  )
        41           O2  tau(  41) = (   0.6500000   0.6500000   0.0000000  )
        42           O2  tau(  42) = (   0.3500000   0.3500000   0.0000000  )
        43           O2  tau(  43) = (   0.9000000   0.6000000   0.1628440  )
        44           O2  tau(  44) = (   0.6000000   0.9000000   0.1628440  )
        45           O2  tau(  45) = (   0.6500000   0.6500000   0.3256881  )
        46           O2  tau(  46) = (   0.3500000   0.3500000   0.3256881  )
        47           O2  tau(  47) = (   0.9000000   0.6000000   0.4885321  )
        48           O2  tau(  48) = (   0.6000000   0.9000000   0.4885321  )

     number of k points=    42  Methfessel-Paxton smearing, width (Ry)=  0.0100
                       cart. coord. in units 2pi/alat
        k(    1) = (   0.0000000   0.0000000   0.0000000), wk =   0.0156250
        k(    2) = (   0.0000000   0.0000000   0.3838028), wk =   0.0312500
        k(    3) = (   0.0000000   0.0000000  -0.7676056), wk =   0.0156250
        k(    4) = (   0.0000000   0.2500000   0.0000000), wk =   0.0625000
        k(    5) = (   0.0000000   0.2500000   0.3838028), wk =   0.1250000
        k(    6) = (   0.0000000   0.2500000  -0.7676056), wk =   0.0625000
        k(    7) = (   0.0000000  -0.5000000   0.0000000), wk =   0.0312500
        k(    8) = (   0.0000000  -0.5000000   0.3838028), wk =   0.0625000
        k(    9) = (   0.0000000  -0.5000000  -0.7676056), wk =   0.0312500
        k(   10) = (   0.2500000   0.2500000   0.0000000), wk =   0.0312500
        k(   11) = (   0.2500000   0.2500000   0.3838028), wk =   0.0625000
        k(   12) = (   0.2500000   0.2500000  -0.7676056), wk =   0.0312500
        k(   13) = (   0.2500000  -0.5000000   0.0000000), wk =   0.0625000
        k(   14) = (   0.2500000  -0.5000000   0.3838028), wk =   0.1250000
        k(   15) = (   0.2500000  -0.5000000  -0.7676056), wk =   0.0625000
        k(   16) = (  -0.5000000  -0.5000000   0.0000000), wk =   0.0156250
        k(   17) = (  -0.5000000  -0.5000000   0.3838028), wk =   0.0312500
        k(   18) = (  -0.5000000  -0.5000000  -0.7676056), wk =   0.0156250
        k(   19) = (  -0.2500000   0.2500000   0.0000000), wk =   0.0312500
        k(   20) = (  -0.2500000   0.2500000  -0.3838028), wk =   0.0625000
        k(   21) = (  -0.2500000   0.2500000   0.7676056), wk =   0.0312500
        k(   22) = (   0.0000000   0.0000000   0.0000000), wk =   0.0156250
        k(   23) = (   0.0000000   0.0000000   0.3838028), wk =   0.0312500
        k(   24) = (   0.0000000   0.0000000  -0.7676056), wk =   0.0156250
        k(   25) = (   0.0000000   0.2500000   0.0000000), wk =   0.0625000
        k(   26) = (   0.0000000   0.2500000   0.3838028), wk =   0.1250000
        k(   27) = (   0.0000000   0.2500000  -0.7676056), wk =   0.0625000
        k(   28) = (   0.0000000  -0.5000000   0.0000000), wk =   0.0312500
        k(   29) = (   0.0000000  -0.5000000   0.3838028), wk =   0.0625000
        k(   30) = (   0.0000000  -0.5000000  -0.7676056), wk =   0.0312500
        k(   31) = (   0.2500000   0.2500000   0.0000000), wk =   0.0312500
        k(   32) = (   0.2500000   0.2500000   0.3838028), wk =   0.0625000
        k(   33) = (   0.2500000   0.2500000  -0.7676056), wk =   0.0312500
        k(   34) = (   0.2500000  -0.5000000   0.0000000), wk =   0.0625000
        k(   35) = (   0.2500000  -0.5000000   0.3838028), wk =   0.1250000
        k(   36) = (   0.2500000  -0.5000000  -0.7676056), wk =   0.0625000
[...]
    eigenvectors:
  0.000  1.000  0.000
  0.500  0.000  0.500
  0.500  0.000  0.500
    occupations:
  0.858 -0.000  0.000
 -0.000  0.921 -0.073
  0.000 -0.073  0.921
   spin  2
    eigenvalues:
  0.869  0.873  0.883
    eigenvectors:
  0.000  0.000  1.000
  0.500  0.500  0.000
  0.500  0.500  0.000
    occupations:
  0.883 -0.000 -0.000
 -0.000  0.871  0.002
 -0.000  0.002  0.871
atomic mag. moment =     0.075224
atom   42   Tr[ns(na)] (up, down, total) =   2.69939  2.62416  5.32355
   spin  1
    eigenvalues:
  0.848  0.858  0.994
    eigenvectors:
  0.000  1.000  0.000
  0.500  0.000  0.500
  0.500  0.000  0.500
    occupations:
  0.858 -0.000  0.000
 -0.000  0.921 -0.073
  0.000 -0.073  0.921
   spin  2
    eigenvalues:
  0.869  0.873  0.883
    eigenvectors:
  0.000  0.000  1.000
  0.500  0.500  0.000
  0.500  0.500  0.000
    occupations:
  0.883 -0.000 -0.000
 -0.000  0.871  0.002
 -0.000  0.002  0.871
atomic mag. moment =     0.075224
atom   43   Tr[ns(na)] (up, down, total) =   2.69939  2.62417  5.32356
   spin  1
    eigenvalues:
  0.848  0.858  0.994
    eigenvectors:
  0.000  1.000  0.000
  0.500  0.000  0.500
  0.500  0.000  0.500
    occupations:
  0.858  0.000 -0.000
  0.000  0.921  0.073
 -0.000  0.073  0.921
   spin  2
    eigenvalues:
  0.869  0.873  0.883
    eigenvectors:
  0.000  0.000  1.000
  0.499  0.501  0.000
  0.501  0.499  0.000
    occupations:
  0.883 -0.000 -0.000
 -0.000  0.871 -0.002
 -0.000 -0.002  0.871
atomic mag. moment =     0.075218
atom   44   Tr[ns(na)] (up, down, total) =   2.69939  2.62417  5.32356
   spin  1
    eigenvalues:
  0.848  0.858  0.994
    eigenvectors:
  0.000  1.000  0.000
  0.500  0.000  0.500
  0.500  0.000  0.500
    occupations:
  0.858 -0.000  0.000
 -0.000  0.921  0.073
  0.000  0.073  0.921
   spin  2
    eigenvalues:
  0.869  0.873  0.883
    eigenvectors:
  0.000  0.000  1.000
  0.501  0.499  0.000
  0.499  0.501  0.000
    occupations:
  0.883 -0.000 -0.000
 -0.000  0.871 -0.002
 -0.000 -0.002  0.871
atomic mag. moment =     0.075218
atom   45   Tr[ns(na)] (up, down, total) =   2.69935  2.62410  5.32345
   spin  1
    eigenvalues:
  0.848  0.858  0.994
    eigenvectors:
  0.000  1.000  0.000
  0.500  0.000  0.500
  0.500  0.000  0.500
    occupations:
  0.858 -0.000  0.000
 -0.000  0.921 -0.073
  0.000 -0.073  0.921
   spin  2
    eigenvalues:
  0.869  0.873  0.883
    eigenvectors:
  0.000  0.000  1.000
  0.500  0.500  0.000
  0.500  0.500  0.000
    occupations:
  0.883 -0.000 -0.000
 -0.000  0.871  0.002
 -0.000  0.002  0.871
atomic mag. moment =     0.075256
atom   46   Tr[ns(na)] (up, down, total) =   2.69935  2.62410  5.32345
   spin  1
    eigenvalues:
  0.848  0.858  0.994
    eigenvectors:
  0.000  1.000  0.000
  0.500  0.000  0.500
  0.500  0.000  0.500
    occupations:
  0.858 -0.000  0.000
 -0.000  0.921 -0.073
  0.000 -0.073  0.921
   spin  2
    eigenvalues:
  0.869  0.873  0.883
    eigenvectors:
  0.000  0.000  1.000
  0.500  0.500  0.000
  0.500  0.500  0.000
    occupations:
  0.883 -0.000 -0.000
 -0.000  0.871  0.002
 -0.000  0.002  0.871
atomic mag. moment =     0.075256
atom   47   Tr[ns(na)] (up, down, total) =   2.69939  2.62417  5.32356
   spin  1
    eigenvalues:
  0.848  0.858  0.994
    eigenvectors:
  0.000  1.000  0.000
  0.500  0.000  0.500
  0.500  0.000  0.500
    occupations:
  0.858 -0.000  0.000
 -0.000  0.921  0.073
  0.000  0.073  0.921
   spin  2
    eigenvalues:
  0.869  0.873  0.883
    eigenvectors:
  0.000  0.000  1.000
  0.499  0.501  0.000
  0.501  0.499  0.000
    occupations:
  0.883  0.000  0.000
  0.000  0.871 -0.002
  0.000 -0.002  0.871
atomic mag. moment =     0.075218
atom   48   Tr[ns(na)] (up, down, total) =   2.69939  2.62417  5.32356
   spin  1
    eigenvalues:
  0.848  0.858  0.994
    eigenvectors:
  0.000  1.000  0.000
  0.500  0.000  0.500
  0.500  0.000  0.500
    occupations:
  0.858  0.000 -0.000
  0.000  0.921  0.073
 -0.000  0.073  0.921
   spin  2
    eigenvalues:
  0.869  0.873  0.883
    eigenvectors:
  0.000  0.000  1.000
  0.501  0.499  0.000
  0.499  0.501  0.000
    occupations:
  0.883  0.000  0.000
  0.000  0.871 -0.002
  0.000 -0.002  0.871
atomic mag. moment =     0.075218
N of occupied +U levels = 259.2865778
 --- exit write_ns ---

 ------ SPIN UP ------------

          k = 0.0000 0.0000 0.0000 ( 12425 PWs)   bands (ev):

   -70.7867 -70.7859 -70.7851 -70.7850 -70.7849 -70.7846 -70.7832 -70.7788
   -70.7756 -70.7755 -70.7749 -70.7749 -70.7747 -70.7746 -70.7733 -70.6289
   -39.6281 -39.6277 -39.6274 -39.6272 -39.6271 -39.6267 -39.6256 -39.5876
   -39.5102 -39.5065 -39.5059 -39.5058 -39.5056 -39.5051 -39.5013 -39.4433
   -39.4429 -39.4409 -39.4389 -39.4389 -39.4381 -39.4378 -39.4284 -39.4194
   -39.4190 -39.4186 -39.4183 -39.4183 -39.4182 -39.4168 -39.4002 -39.3833
   -39.3825 -39.3824 -39.3798 -39.3794 -39.3789 -39.3780 -39.3754 -39.3739
   -39.3733 -39.3733 -39.3732 -39.3726 -39.3723 -39.3717 -39.2806 -39.2305
    -8.9500  -8.0237  -8.0234  -8.0231  -8.0220  -7.8750  -7.8729  -7.2353
    -7.2344  -7.1438  -7.1402  -7.1395  -7.1394  -7.0410  -7.0400  -6.9645
    -6.9465  -6.9438  -6.8762  -6.8761  -6.8754  -6.8749  -6.8501  -6.8498
    -6.7971  -6.7946  -6.6897  -6.6872  -6.6870  -6.6866  -6.6210  -6.6208
     3.0015   3.3782   3.3810   3.6726   3.9947   3.9984   3.9986   3.9987
     4.0723   4.0759   4.0765   4.0784   4.2319   4.2511   4.2513   4.3037
     4.3074   4.4897   4.4932   4.9235   4.9241   4.9265   4.9265   5.2676
     5.2705   5.3375   5.3414   5.3416   5.3445   5.4489   5.4544   5.4548
     5.4551   5.5582   5.5588   5.5868   5.5897   5.8822   5.8832   5.8852
     5.8857   5.9415   5.9429   5.9430   5.9436   6.1950   6.1967   6.1977
     6.1982   6.3958   6.3989   6.4348   6.4377   6.8094   6.8145   6.8165
     6.8175   7.0437   7.0442   7.0481   7.0487   7.0707   7.0718   7.0731
     7.0732   7.2044   7.2054   7.2055   7.2062   7.4767   7.4799   7.4803
     7.4811   7.6857   7.7300   7.7324   8.2245   8.2260   8.4153   8.5014
     8.5033   8.5299   8.5307   8.5318   8.5321   8.6556   8.6751   8.6760
     8.7631   8.7647   8.7819   8.7834   8.7925   8.9483   8.9485   9.1837
     9.1848   9.1877   9.1879   9.1883   9.1891   9.2351   9.2359   9.2527
     9.2536   9.2565   9.2571   9.2573   9.2573   9.2649   9.2654   9.2654
     9.2656   9.6338   9.6453   9.6457   9.6458   9.6459  10.0045  10.0046
    10.0613  10.0617  10.0624  10.0628  10.3239  10.3247  10.3683  10.3686
    10.4516  10.4517  10.5848  10.6087  10.6091  10.6094  10.6112  11.1459
    11.1467  11.2722  11.2849  11.3124  11.3124  11.3139  11.3139  11.3575
    11.3587  11.5742  11.5743  11.5758  11.5762  12.7911  12.7926  12.9944
    12.9953  13.0338  13.0353  13.0642  13.0660  13.5258  13.5277  13.6597
    13.6601  13.6606  13.6646  13.7439  13.7443  13.7445  13.7494  13.9370
    13.9384  13.9701  13.9718  14.7452  14.7456  14.7474  14.7496  15.1107
    19.2446  21.6178  21.6183  21.6199  21.6209  22.3927  22.3941  22.9076
    22.9089  23.1072  23.1086  23.8935  23.8941  23.8957  23.8960  23.9039
    23.9069  23.9778  23.9798  23.9806  23.9827  24.0302  24.0304  24.3319
    24.3323  25.0502  25.5802  25.5808  25.5821  25.5829  26.2672  26.2680
    26.3004  26.4704  26.6085  26.6089  26.6676  26.6684  26.8513  26.8533
    26.9810  26.9817  26.9825  26.9835  27.6372  27.6413  27.6862  27.6862
    27.6880  27.6890  27.8065  27.8071  27.8074  27.8156  27.8886  27.8909
    27.9996  28.0012  28.0015  28.0062  28.4876  28.4893  28.4903  28.4924
    28.6277  28.6314  28.6887  28.6898  28.8233  28.8236  28.8266  28.8267
    29.0812  29.3120  29.3138  29.4829  29.4848  30.2584  30.3457  30.3490
    30.3554  30.3582  30.5058  30.5075  30.6960  30.6969  30.7000  30.7011
    31.3270  32.7325  32.7332  32.7344  32.7434  32.8300  32.8314  32.8545
    32.8606  33.1099  33.1133  33.3878  33.3881  33.3895  33.3895  33.9365
    33.9393  33.9402  33.9412  33.9579  33.9599  35.1165  35.1458  35.1464
    35.1470  35.1474  35.1493  35.1520  35.3971  35.3989  35.8356  36.4347
    36.4355  37.0174  37.0208  37.1361  37.1400  37.3838  37.4398  37.4410
    37.4422  37.4445  37.5016  37.5020  38.3426  38.3432  38.3446  38.3458
    38.3648  38.3665  38.4325  39.0687  39.0702  39.0712  39.0718  39.1740
    39.1752  39.2950  39.2961  39.2972  39.3005  39.3294  39.3322  39.5157
    39.5163  39.5166  39.5211  39.5820  39.5829  39.8766  39.9804  39.9810
    40.1748  40.1762  40.1763  40.1790  40.1971  40.1979  40.9445  40.9453
    40.9457  40.9459  41.1449  42.0916  42.0921  42.1958  42.6750  42.6761
    42.7098  42.7114  42.9711  42.9739  43.0151  43.0166  44.0091  44.0092
    44.0104  44.0152  44.2603  44.2609  44.2620  44.2669  44.4986  44.4989
    45.3794  45.3809  45.4054  45.4057  45.4201  45.4215  45.4775  45.4815
    45.5925  45.6531  45.6546  45.6549  45.6552  45.7316  45.7317  45.7354
[...]
    48.4683  48.4709  48.5010  48.5020  48.5063  48.5073  48.8758  49.2133
    49.2170  49.4028  49.4041  49.6992  49.7008  49.8057  49.8097  50.1290
    50.1291  50.1292  50.1309  50.3586  50.3608  50.3620  50.3639  50.3963
    50.3969  50.3974  50.3986  50.6066  50.6081  50.6180  50.6186  50.7092
    50.9464  50.9485  51.8753  51.8766  51.8768  51.8797  52.0315  52.0320
    52.1600  52.1624  52.1704  52.2038  52.2040  52.2051  52.2064  52.5549
    52.5555  52.8472  52.8495  52.8922  52.8946  52.9156  52.9162  52.9169
    52.9242  53.5812  53.5819  53.5837  53.5867  53.6582  53.6594  53.6605
    53.6611  53.6750  54.1571  54.1577  54.1587  54.1588  54.2502  54.2554
    54.3758  54.4248  54.4260  54.6461  54.6464  54.7933  54.7962  54.9464
    54.9494  55.0665  55.0678  55.1754  55.1761  55.1761  55.1792  55.2836
    55.2858  55.7542  55.7545  55.7568  55.7611  55.8304  56.1311  56.1344
    56.1608  56.1615  56.1624  56.1634  56.2007  56.2025  56.4735  56.4749
    56.8118  56.8147  56.9509  56.9510  56.9514  56.9527  57.0089  57.0101
    57.7860  57.9703  57.9711  58.0123  58.0129  58.1284  58.1298  58.1601

[...]

          k =-0.5000-0.5000 0.0000 ( 12432 PWs)   bands (ev):

[...]

 ------ SPIN DOWN ----------

[...]

          k = 0.2500-0.5000-0.7676 ( 12432 PWs)   bands (ev):

[...]

          k =-0.2500 0.2500 0.7676 ( 12434 PWs)   bands (ev):

   -67.4775 -67.4772 -67.4767 -67.4761 -67.4761 -67.4760 -67.4759 -67.4758
   -67.4758 -67.4755 -67.4752 -67.4752 -67.4747 -67.4743 -67.4743 -67.3449
   -36.3717 -36.3709 -36.3703 -36.3695 -36.3692 -36.3688 -36.3684 -36.3679
   -36.3673 -36.3669 -36.3665 -36.3664 -36.3658 -36.3639 -36.3635 -36.2447
   -36.2414 -36.2410 -36.2399 -36.2397 -36.2394 -36.2386 -36.2385 -36.2381
   -36.2377 -36.2371 -36.2370 -36.2360 -36.2360 -36.2355 -36.2338 -36.1911
   -36.1906 -36.1892 -36.1884 -36.1876 -36.1875 -36.1873 -36.1872 -36.1872
   -36.1871 -36.1868 -36.1867 -36.1864 -36.1854 -36.1846 -36.1079 -36.0634
    -8.0235  -8.0225  -7.6490  -7.6485  -7.6480  -7.6466  -7.4193  -7.4187
    -7.1510  -7.1503  -7.0759  -7.0757  -7.0748  -7.0742  -6.6725  -6.6714
    -6.6457  -6.6444  -6.6240  -6.6224  -6.5682  -6.5671  -6.5668  -6.5662
    -6.5478  -6.5454  -6.5447  -6.5447  -6.5447  -6.5444  -6.5141  -6.5128
     4.4105   4.4105   4.4935   4.4942   4.7844   4.7853   4.7854   4.7869
     4.8032   4.8053   5.1090   5.1127   5.1913   5.1940   5.2796   5.2833
     5.3223   5.3232   5.3251   5.3266   5.4125   5.4148   5.4152   5.4159
     5.4943   5.4960   5.6528   5.6569   5.6572   5.6579   5.7554   5.7574
     6.2296   6.2323   6.2326   6.2343   6.3056   6.3067   6.3743   6.3762
     6.7092   6.7099   6.7099   6.7107   6.8150   6.8161   7.0382   7.0397
     7.0400   7.0407   7.1279   7.1285   7.2495   7.2499   7.5160   7.5161
     7.5165   7.5166   7.7531   7.7547   7.7974   7.7994   7.7995   7.8012
     7.8087   7.8093   7.8677   7.8680   8.1137   8.1156   8.2358   8.2373
     8.7315   8.7350   8.7369   8.7375   8.7378   8.7383   8.8910   8.8938
     9.0945   9.0961   9.2251   9.2252   9.5128   9.5137   9.5142   9.5149
     9.5828   9.5835  10.0713  10.0713  10.0717  10.0723  10.3489  10.3489
    11.8341  11.8358  11.9829  11.9870  11.9873  11.9877  12.0988  12.1002
    12.1337  12.1344  12.2372  12.2420  12.3430  12.3433  12.3473  12.3479
    12.3841  12.3903  12.4627  12.4695  12.4718  12.4721  12.4998  12.5039
    12.5365  12.5366  12.7400  12.7406  12.8009  12.8021  12.8028  12.8036
    13.0012  13.0032  13.1725  13.1762  13.2079  13.2091  13.2095  13.2096
    13.2872  13.2878  13.4406  13.4439  13.4445  13.4445  13.7065  13.7075
    13.9942  13.9944  13.9944  13.9953  14.2497  14.2499  14.4270  14.4274
    14.4278  14.4281  14.4397  14.4399  14.6542  14.6543  14.8991  14.8991
    14.9198  14.9198  15.1599  15.1606  15.3790  15.3792  15.3802  15.3805
    15.6350  15.6352  16.0394  16.0399  16.0406  16.0423  16.0781  16.0787
    21.6461  21.6478  22.6265  22.6272  22.6277  22.6296  23.2172  23.2184
    24.0295  24.0317  24.0398  24.0404  24.0406  24.0430  24.9691  24.9699
    24.9883  24.9921  25.2971  25.2993  25.6859  25.6868  25.6878  25.6884
    25.9851  25.9871  26.2934  26.2961  26.6421  26.6421  26.6424  26.6461
    26.8759  26.8785  26.9027  26.9036  26.9052  26.9074  26.9222  26.9243
    27.0493  27.0496  27.3464  27.3473  27.3476  27.3500  27.7438  27.7465
    28.3542  28.3553  28.4637  28.4637  28.4673  28.4675  28.8179  28.8185
    28.8652  28.8663  28.8663  28.8707  28.9583  28.9594  29.0596  29.0618
    29.1483  29.1508  29.3374  29.3378  29.3385  29.3399  29.5919  29.5941
    29.6023  29.6039  29.9948  29.9960  29.9963  29.9991  30.5214  30.5222
    30.7144  30.7194  30.8553  30.8575  30.8583  30.8617  31.5510  31.5514
    31.8063  31.8064  31.8070  31.8119  32.1503  32.1557  32.7559  32.7581
    33.1594  33.1612  33.1628  33.1629  33.6924  33.6966  33.7923  33.7944
    35.4332  35.4350  35.6402  35.6422  35.6432  35.6434  35.9685  35.9689
    36.0965  36.0983  36.1947  36.1964  37.0131  37.0142  37.3906  37.3909
    37.3913  37.3916  37.6417  37.6436  37.6511  37.6533  38.0252  38.0256
    38.0258  38.0295  38.4587  38.4588  38.4590  38.4602  38.5694  38.5725
    38.6563  38.6573  38.6590  38.6604  38.8956  38.8960  38.9197  38.9221
    39.6876  39.6899  40.0043  40.0054  40.0065  40.0072  40.4201  40.4202
    40.4235  40.4238  40.4895  40.4900  41.0400  41.0412  41.1677  41.1693
    41.1702  41.1714  41.3707  41.3709  41.5721  41.5722  41.8633  41.8634
    41.8776  41.8779  42.7071  42.7076  42.7083  42.7088  43.1224  43.1233
    43.2013  43.2016  43.2018  43.2028  43.4103  43.4114  44.1320  44.1320
    44.6246  44.6259  44.6264  44.6266  44.7846  44.7851  45.0772  45.0786
    45.3290  45.3302  45.3687  45.3689  45.4530  45.4531  45.4532  45.4549
    45.7222  45.7226  46.4056  46.4062  46.4065  46.4067  46.8011  46.8033
[...]
    49.2586  49.2605  49.5087  49.5087  49.5117  49.5121  49.6240  49.6248
    50.0671  50.0686  50.2387  50.2388  50.7243  50.7246  50.7248  50.7264
    51.1668  51.1677  51.1695  51.1705  51.2546  51.2567  51.3722  51.3726
    51.5998  51.5999  51.6323  51.6329  51.9648  51.9657  51.9671  51.9685
    52.1864  52.1876  52.1881  52.1890  52.1914  52.1936  52.2855  52.2855
    52.3899  52.3899  52.3900  52.3939  52.5191  52.5198  52.7157  52.7159
    52.7164  52.7190  52.8219  52.8240  52.8960  52.8964  53.0184  53.0211
    53.3210  53.3211  53.3592  53.3593  53.3598  53.3629  53.5953  53.5974
    53.6870  53.6874  53.7402  53.7413  53.8570  53.8576  53.8594  53.8631
    53.8671  53.8673  54.3692  54.3699  54.3701  54.3706  54.5529  54.5559
    55.0015  55.0027  55.1727  55.1727  55.1740  55.1756  55.4122  55.4129
    55.4133  55.4153  55.5758  55.5786  55.7924  55.7946  56.0203  56.0215
    56.7294  56.7295  57.0673  57.0684  57.1127  57.1140  57.1150  57.1175
    57.2630  57.2643  57.3112  57.3119  57.3130  57.3138  57.4197  57.4221
    57.5131  57.5132  57.6045  57.6059  58.2278  58.2294  58.2296  58.2317

     the Fermi energy is    11.3861 ev

!    total energy              =   -4439.71688991 Ry
     Harris-Foulkes estimate   =   -4439.71689069 Ry
     estimated scf accuracy    <       0.00000091 Ry

     The total energy is the sum of the following terms:

     one-electron contribution =   -2118.35941913 Ry
     hartree contribution      =    1288.09495120 Ry
     xc contribution           =    -649.33285770 Ry
     ewald contribution        =   -2960.06000834 Ry
     Hubbard energy            =      -0.06148270 Ry
     smearing contrib. (-TS)   =       0.00192677 Ry

     total magnetization       =    47.97 Bohr mag/cell
     absolute magnetization    =    49.32 Bohr mag/cell

     convergence has been achieved in   7 iterations

     Writing output data file pwscf.save

     General routines

     Parallel routines
     Hubbard U routines

   This run was terminated on:  13: 6:30  14Feb2014

   JOB DONE.