     Program PWSCF v.5.0.2 (svn rev. 9656) starts on 20Jun2014 at  0:26:58

     Current dimensions of program PWSCF are:
     Max number of different atomic species (ntypx) = 10
     Max number of k-points (npk) =  40000
     Max angular momentum in pseudopotentials (lmaxx) =  3
     Reading input from pwscf.in
Warning: card &CELL ignored
Warning: card / ignored

     Subspace diagonalization in iterative solution of the eigenvalue problem:
     a serial algorithm will be used

     bravais-lattice index     =            0
     lattice parameter (alat)  =      10.1289  a.u.
     unit-cell volume          =    6836.7721 (a.u.)^3
     number of atoms/cell      =           33
     number of atomic types    =            3
     number of electrons       =       245.00
     number of Kohn-Sham states=          367
     kinetic-energy cutoff     =      40.0000  Ry
     charge density cutoff     =     500.0000  Ry
     convergence threshold     =      1.0E-06
     mixing beta               =       0.7000
     number of iterations used =            8  plain     mixing
     Exchange-correlation      = SLA  PW   PBE  PBE ( 1 4 3 4 0)
     EXX-fraction              =        0.00
     nstep                     =           50

     celldm(1)=  10.128932  celldm(2)=   0.000000  celldm(3)=   0.000000
     celldm(4)=   0.000000  celldm(5)=   0.000000  celldm(6)=   0.000000

     crystal axes: (cart. coord. in units of alat)
               a(1) = (   1.000000   0.000000   0.000000 )
               a(2) = (   0.000000   1.306037   0.000000 )
               a(3) = (   0.000000   0.000000   5.037380 )

     reciprocal axes: (cart. coord. in units 2 pi/alat)
               b(1) = (  1.000000  0.000000  0.000000 )
               b(2) = (  0.000000  0.765675  0.000000 )
               b(3) = (  0.000000  0.000000  0.198516 )

     PseudoPot. # 1 for O  read from file:
     /home/camp/zhonxu/pseudo/o_pbe_v1.01.uspp.F.UPF
     MD5 check sum: 2bcb18d16ea4b960afae9ec6d52f22d2
     Pseudo is Ultrasoft + core correction, Zval =  6.0
     Generated by new atomic code, or converted to UPF format
     Using radial grid of  737 points,  5 beta functions with:
                l(1) =   0
                l(2) =   0
                l(3) =   1
                l(4) =   1
                l(5) =   2
     Q(r) pseudized with  8 coefficients,  rinner =    0.900   0.900   0.900
                                                       0.900   0.900

     PseudoPot. # 2 for Re read from file:
     /home/camp/zhonxu/pseudo/re_pbe_v1.uspp.F.UPF
     MD5 check sum: 6f5a5dcaf9c96c20d0ffdde0de57afc6
     Pseudo is Ultrasoft + core correction, Zval = 15.0
     Generated by new atomic code, or converted to UPF format
     Using radial grid of  981 points,  8 beta functions with:
                l(1) =   0
                l(2) =   0
                l(3) =   1
                l(4) =   1
                l(5) =   2
                l(6) =   2
                l(7) =   3
                l(8) =   3
     Q(r) pseudized with  8 coefficients,  rinner =    1.000   1.000   1.000
                                                       1.000   1.000   1.000
                                                       1.000

     PseudoPot. # 3 for H  read from file:
     /home/camp/zhonxu/pseudo/h_pbe_v1.uspp.F.UPF
     MD5 check sum: 3408e3ff4ec8b0a4e358431e7e038a48
     Pseudo is Ultrasoft, Zval =  1.0
     Generated by new atomic code, or converted to UPF format
     Using radial grid of  615 points,  2 beta functions with:
                l(1) =   0
                l(2) =   0
     Q(r) pseudized with  8 coefficients,  rinner =    0.700

     atomic species   valence    mass     pseudopotential
        O0             6.00    15.99940     O ( 1.00)
        Re1           15.00   186.20700     Re( 1.00)
        H2             1.00     1.00794     H ( 1.00)

     Simplified LDA+U calculation (l_max = 2) with parameters (eV):
     atomic species    L          U    alpha       J0     beta
        Re1            2     8.0000   0.0000   0.0000   0.0000

     No symmetry found

   Cartesian axes

     site n.     atom                  positions (alat units)
         1           O0  tau(   1) = (   0.0000000   0.0000000   1.8841816  )
         2           O0  tau(   2) = (   0.0000000   0.6530184   1.9454866  )
         3           Re1 tau(   3) = (   0.2500000   0.6530184   2.2435483  )
         4           Re1 tau(   4) = (   0.0000000   0.0000000   2.2455129  )
         5           O0  tau(   5) = (   0.2500000   1.0187087   2.2355893  )
         6           O0  tau(   6) = (   0.2500000   0.2873281   2.2362945  )
         7           O0  tau(   7) = (   0.0000000   0.6530184   2.5217628  )
         8           O0  tau(   8) = (   0.0000000   0.0000000   2.5988851  )
         9           Re1 tau(   9) = (   0.2500000   0.0000000   2.8935215  )
        10           Re1 tau(  10) = (   0.0000000   0.6530184   2.8964935  )
        11           O0  tau(  11) = (   0.2500000   0.9403465   2.8873759  )
        12           O0  tau(  12) = (   0.2500000   0.3656903   2.8720622  )
        13           O0  tau(  13) = (   0.0000000   0.0000000   3.1636762  )
        14           O0  tau(  14) = (   0.5000000   0.0000000   1.8866500  )
        15           O0  tau(  15) = (   0.5000000   0.6530184   1.9481564  )
        16           Re1 tau(  16) = (   0.7500000   0.6530184   2.2443543  )
        17           Re1 tau(  17) = (   0.5000000   0.0000000   2.2466211  )
        18           O0  tau(  18) = (   0.7500000   1.0187087   2.2354885  )
        19           O0  tau(  19) = (   0.7500000   0.2873281   2.2359419  )
        20           O0  tau(  20) = (   0.5000000   0.6530184   2.5310820  )
        21           O0  tau(  21) = (   0.5000000   0.0000000   2.5985829  )
        22           Re1 tau(  22) = (   0.7500000   0.0000000   2.9151318  )
        23           Re1 tau(  23) = (   0.5000000   0.6530184   2.9088855  )
        24           O0  tau(  24) = (   0.7500000   0.9403465   2.8849076  )
        25           O0  tau(  25) = (   0.7500000   0.3656903   2.8763440  )
        26           O0  tau(  26) = (   0.5000000   0.0000000   3.1648348  )
        27           H2  tau(  27) = (  -0.0010300   0.8131516   1.8549145  )
        28           H2  tau(  28) = (   0.4991800   0.8058900   1.8474088  )
        29           H2  tau(  29) = (   0.1676400   0.0273484   1.8063541  )
        30           H2  tau(  30) = (   0.6672600   0.0272570   1.8084698  )
        31           O0  tau(  31) = (   0.5061800   0.6440590   3.2262908  )
        32           O0  tau(  32) = (   1.0156700   0.6153262   3.2466922  )
        33           H2  tau(  33) = (   0.8668900   0.5605118   3.3438129  )

     number of k points=    10  Methfessel-Paxton smearing, width (Ry)=  0.0100
                       cart. coord. in units 2pi/alat
        k(    1) = (   0.0000000   0.0000000   0.0000000), wk =   0.1250000
        k(    2) = (   0.0000000   0.1914188   0.0000000), wk =   0.2500000
        k(    3) = (   0.0000000  -0.3828376   0.0000000), wk =   0.1250000
        k(    4) = (   0.2500000   0.0000000   0.0000000), wk =   0.2500000
        k(    5) = (   0.2500000   0.1914188   0.0000000), wk =   0.2500000
        k(    6) = (   0.2500000  -0.3828376   0.0000000), wk =   0.2500000
        k(    7) = (  -0.5000000   0.0000000   0.0000000), wk =   0.1250000
        k(    8) = (  -0.5000000   0.1914188   0.0000000), wk =   0.2500000
        k(    9) = (  -0.5000000  -0.3828376   0.0000000), wk =   0.1250000
        k(   10) = (  -0.2500000   0.1914188   0.0000000), wk =   0.2500000

     Largest allocated arrays     est. size (Mb)     dimensions
     Largest temporary arrays     est. size (Mb)     dimensions

     Check: negative/imaginary core charge=   -0.000003    0.000000

     Initial potential from superposition of free atoms
     Check: negative starting charge=   -0.237447

     starting charge  240.99957, renormalised to  245.00000

     negative rho (up, down):  0.241E+00 0.000E+00
     Number of +U iterations with fixed ns =  0
     Starting occupations:
 --- enter write_ns ---
 LDA+U parameters:
U( 2)     =  8.00000000
alpha( 2) =  0.00000000
atom    3   Tr[ns(na)] =   5.00000
    eigenvalues:
  0.500  0.500  0.500  0.500  0.500
    eigenvectors:
  1.000  0.000  0.000  0.000  0.000
  0.000  1.000  0.000  0.000  0.000
  0.000  0.000  1.000  0.000  0.000
  0.000  0.000  0.000  1.000  0.000
  0.000  0.000  0.000  0.000  1.000
    occupations:
  0.500  0.000  0.000  0.000  0.000
  0.000  0.500  0.000  0.000  0.000
  0.000  0.000  0.500  0.000  0.000
  0.000  0.000  0.000  0.500  0.000
  0.000  0.000  0.000  0.000  0.500
atom    4   Tr[ns(na)] =   5.00000
    eigenvalues:
  0.500  0.500  0.500  0.500  0.500
    eigenvectors:
  1.000  0.000  0.000  0.000  0.000
  0.000  1.000  0.000  0.000  0.000
  0.000  0.000  1.000  0.000  0.000
  0.000  0.000  0.000  1.000  0.000
  0.000  0.000  0.000  0.000  1.000
    occupations:
  0.500  0.000  0.000  0.000  0.000
  0.000  0.500  0.000  0.000  0.000
  0.000  0.000  0.500  0.000  0.000
  0.000  0.000  0.000  0.500  0.000
  0.000  0.000  0.000  0.000  0.500
atom    9   Tr[ns(na)] =   5.00000
    eigenvalues:
  0.500  0.500  0.500  0.500  0.500
    eigenvectors:
  1.000  0.000  0.000  0.000  0.000
  0.000  1.000  0.000  0.000  0.000
  0.000  0.000  1.000  0.000  0.000
  0.000  0.000  0.000  1.000  0.000
  0.000  0.000  0.000  0.000  1.000
    occupations:
  0.500  0.000  0.000  0.000  0.000
  0.000  0.500  0.000  0.000  0.000
  0.000  0.000  0.500  0.000  0.000
  0.000  0.000  0.000  0.500  0.000
  0.000  0.000  0.000  0.000  0.500
atom   10   Tr[ns(na)] =   5.00000
    eigenvalues:
  0.500  0.500  0.500  0.500  0.500
    eigenvectors:
  1.000  0.000  0.000  0.000  0.000
  0.000  1.000  0.000  0.000  0.000
  0.000  0.000  1.000  0.000  0.000
  0.000  0.000  0.000  1.000  0.000
  0.000  0.000  0.000  0.000  1.000
    occupations:
  0.500  0.000  0.000  0.000  0.000
  0.000  0.500  0.000  0.000  0.000
  0.000  0.000  0.500  0.000  0.000
  0.000  0.000  0.000  0.500  0.000
  0.000  0.000  0.000  0.000  0.500
atom   16   Tr[ns(na)] =   5.00000
    eigenvalues:
  0.500  0.500  0.500  0.500  0.500
    eigenvectors:
  1.000  0.000  0.000  0.000  0.000
  0.000  1.000  0.000  0.000  0.000
  0.000  0.000  1.000  0.000  0.000
  0.000  0.000  0.000  1.000  0.000
  0.000  0.000  0.000  0.000  1.000
    occupations:
  0.500  0.000  0.000  0.000  0.000
  0.000  0.500  0.000  0.000  0.000
  0.000  0.000  0.500  0.000  0.000
  0.000  0.000  0.000  0.500  0.000
  0.000  0.000  0.000  0.000  0.500
atom   17   Tr[ns(na)] =   5.00000
    eigenvalues:
  0.500  0.500  0.500  0.500  0.500
    eigenvectors:
  1.000  0.000  0.000  0.000  0.000
  0.000  1.000  0.000  0.000  0.000
  0.000  0.000  1.000  0.000  0.000
  0.000  0.000  0.000  1.000  0.000
  0.000  0.000  0.000  0.000  1.000
    occupations:
  0.500  0.000  0.000  0.000  0.000
  0.000  0.500  0.000  0.000  0.000
  0.000  0.000  0.500  0.000  0.000
  0.000  0.000  0.000  0.500  0.000
  0.000  0.000  0.000  0.000  0.500
atom   22   Tr[ns(na)] =   5.00000
    eigenvalues:
  0.500  0.500  0.500  0.500  0.500
[...]
  0.004  0.002  0.000  0.758  0.000
  0.000  0.000  0.001  0.000  0.568
atom   16   Tr[ns(na)] =   6.50571
    eigenvalues:
  0.366  0.548  0.581  0.805  0.953
    eigenvectors:
  0.006  0.010  0.222  0.763  0.000
  0.000  0.968  0.031  0.000  0.001
  0.990  0.000  0.000  0.007  0.003
  0.001  0.022  0.747  0.231  0.000
  0.003  0.001  0.000  0.000  0.996
    occupations:
  0.750 -0.006  0.033 -0.094 -0.002
 -0.006  0.549 -0.001 -0.003 -0.010
  0.033 -0.001  0.371 -0.014  0.031
 -0.094 -0.003 -0.014  0.632  0.001
 -0.002 -0.010  0.031  0.001  0.951
atom   17   Tr[ns(na)] =   6.60472
    eigenvalues:
  0.500  0.585  0.627  0.782  0.808
    eigenvectors:
  0.000  0.000  0.998  0.000  0.002
  0.001  0.000  0.000  0.999  0.000
  0.999  0.000  0.000  0.001  0.000
  0.000  0.000  0.002  0.000  0.998
  0.000  1.000  0.000  0.000  0.000
    occupations:
  0.627  0.003  0.001 -0.008  0.001
  0.003  0.782  0.008  0.000 -0.001
  0.001  0.008  0.500  0.001  0.000
 -0.008  0.000  0.001  0.808 -0.000
  0.001 -0.001  0.000 -0.000  0.585
atom   22   Tr[ns(na)] =   6.60557
    eigenvalues:
  0.498  0.589  0.621  0.706  0.889
    eigenvectors:
  0.000  0.093  0.000  0.906  0.001
  0.000  0.001  0.999  0.000  0.000
  0.998  0.000  0.000  0.000  0.002
  0.000  0.906  0.001  0.093  0.000
  0.002  0.000  0.000  0.001  0.997
    occupations:
  0.695  0.000 -0.001 -0.034  0.004
  0.000  0.621  0.001 -0.001 -0.000
 -0.001  0.001  0.499  0.000  0.017
 -0.034 -0.001  0.000  0.600 -0.004
  0.004 -0.000  0.017 -0.004  0.888
atom   23   Tr[ns(na)] =   6.64402
    eigenvalues:
  0.589  0.597  0.614  0.673  0.849
    eigenvectors:
  0.000  0.000  0.002  0.987  0.012
  0.000  0.001  0.997  0.001  0.001
  0.840  0.160  0.000  0.000  0.000
  0.000  0.000  0.001  0.012  0.987
  0.160  0.839  0.001  0.000  0.000
    occupations:
  0.675 -0.003 -0.000 -0.019  0.000
 -0.003  0.614 -0.000  0.007 -0.001
 -0.000 -0.000  0.590  0.000 -0.003
 -0.019  0.007  0.000  0.846  0.000
  0.000 -0.001 -0.003  0.000  0.596
N of occupied +U levels =  52.6804358
 --- exit write_ns ---

     Threshold (ethr) on eigenvalues was too large:
     Diagonalizing with lowered threshold

     Davidson diagonalization with overlap
     ethr =  2.54E-09,  avg # of iterations =  2.0

[...]

     total energy              =   -2203.86311691 Ry
     Harris-Foulkes estimate   =   -2203.86311691 Ry
     estimated scf accuracy    <       0.00000001 Ry

     iteration # 16     ecut=    40.00 Ry     beta=0.70
     Davidson diagonalization with overlap
     ethr =  5.48E-12,  avg # of iterations =  1.0

     negative rho (up, down):  0.241E+00 0.000E+00

     End of self-consistent calculation
 --- enter write_ns ---
 LDA+U parameters:
U( 2)     =  8.00000000
alpha( 2) =  0.00000000
atom    3   Tr[ns(na)] =   6.50587
    eigenvalues:
  0.366  0.547  0.581  0.806  0.953
    eigenvectors:
  0.006  0.011  0.218  0.765  0.000
  0.000  0.966  0.033  0.000  0.001
  0.990  0.000  0.000  0.007  0.003
  0.001  0.023  0.749  0.228  0.000
  0.003  0.001  0.000  0.000  0.997
    occupations:
  0.752  0.007  0.033 -0.094  0.002
  0.007  0.548  0.001  0.003 -0.011
  0.033  0.001  0.371 -0.014 -0.030
 -0.094  0.003 -0.014  0.631 -0.000
  0.002 -0.011 -0.030 -0.000  0.951
atom    4   Tr[ns(na)] =   6.60793
    eigenvalues:
  0.507  0.586  0.629  0.771  0.812
    eigenvectors:
  0.000  0.000  0.997  0.000  0.002
  0.001  0.000  0.000  0.998  0.001
  0.999  0.000  0.000  0.001  0.000
  0.000  0.000  0.002  0.001  0.997
  0.000  1.000  0.000  0.000  0.000
    occupations:
  0.629  0.003  0.001 -0.009  0.000
  0.003  0.770  0.007 -0.001 -0.001
  0.001  0.007  0.507  0.001  0.000
 -0.009 -0.001  0.001  0.812  0.000
  0.000 -0.001  0.000  0.000  0.586
atom    9   Tr[ns(na)] =   6.61920
    eigenvalues:
  0.450  0.586  0.590  0.792  0.892
    eigenvectors:
  0.000  0.162  0.023  0.814  0.001
  0.000  0.123  0.877  0.000  0.000
  0.999  0.000  0.000  0.000  0.001
  0.000  0.715  0.100  0.185  0.000
  0.001  0.000  0.000  0.001  0.997
    occupations:
  0.754  0.001  0.000 -0.080  0.003
  0.001  0.590  0.000  0.001  0.000
  0.000  0.000  0.450 -0.000 -0.016
 -0.080  0.001 -0.000  0.624 -0.003
  0.003  0.000 -0.016 -0.003  0.891
atom   10   Tr[ns(na)] =   6.58726
    eigenvalues:
  0.442  0.568  0.609  0.758  0.916
    eigenvectors:
  0.000  0.000  0.999  0.001  0.000
  0.000  0.000  0.000  0.000  1.000
  1.000  0.000  0.000  0.000  0.000
  0.000  0.000  0.001  0.999  0.000
  0.000  1.000  0.000  0.000  0.000
    occupations:
  0.610 -0.001 -0.000  0.004  0.000
 -0.001  0.916  0.000  0.002  0.000
 -0.000  0.000  0.442  0.000  0.001
  0.004  0.002  0.000  0.758  0.000
  0.000  0.000  0.001  0.000  0.568
atom   16   Tr[ns(na)] =   6.50576
    eigenvalues:
  0.366  0.548  0.581  0.805  0.953
    eigenvectors:
  0.006  0.010  0.222  0.763  0.000
  0.000  0.968  0.031  0.000  0.001
  0.990  0.000  0.000  0.007  0.003
  0.001  0.022  0.747  0.231  0.000
  0.003  0.001  0.000  0.000  0.996
    occupations:
  0.750 -0.006  0.033 -0.094 -0.002
 -0.006  0.549 -0.001 -0.003 -0.010
  0.033 -0.001  0.371 -0.014  0.031
 -0.094 -0.003 -0.014  0.632  0.001
 -0.002 -0.010  0.031  0.001  0.951
atom   17   Tr[ns(na)] =   6.60531
    eigenvalues:
  0.501  0.585  0.627  0.782  0.808
    eigenvectors:
  0.000  0.000  0.998  0.000  0.002
  0.001  0.000  0.000  0.999  0.000
  0.999  0.000  0.000  0.001  0.000
  0.000  0.000  0.002  0.000  0.998
  0.000  1.000  0.000  0.000  0.000
    occupations:
  0.627  0.003  0.001 -0.008  0.001
  0.003  0.781  0.008  0.000 -0.001
  0.001  0.008  0.501  0.001  0.000
 -0.008  0.000  0.001  0.808 -0.000
  0.001 -0.001  0.000 -0.000  0.585
atom   22   Tr[ns(na)] =   6.60490
    eigenvalues:
  0.498  0.589  0.621  0.706  0.889
    eigenvectors:
  0.000  0.093  0.000  0.906  0.001
  0.000  0.001  0.999  0.000  0.000
  0.998  0.000  0.000  0.000  0.002
  0.000  0.906  0.001  0.093  0.000
  0.002  0.000  0.000  0.001  0.997
    occupations:
  0.695  0.000 -0.001 -0.034  0.004
  0.000  0.621  0.001 -0.001 -0.000
 -0.001  0.001  0.499  0.000  0.016
 -0.034 -0.001  0.000  0.600 -0.004
  0.004 -0.000  0.016 -0.004  0.888
atom   23   Tr[ns(na)] =   6.64369
    eigenvalues:
  0.589  0.597  0.614  0.673  0.849
    eigenvectors:
  0.000  0.000  0.002  0.987  0.012
  0.000  0.001  0.997  0.001  0.001
  0.842  0.158  0.000  0.000  0.000
  0.000  0.000  0.001  0.012  0.987
  0.158  0.841  0.001  0.000  0.000
    occupations:
  0.675 -0.003 -0.000 -0.019  0.000
 -0.003  0.614 -0.000  0.007 -0.001
 -0.000 -0.000  0.590  0.000 -0.003
 -0.019  0.007  0.000  0.846  0.000
  0.000 -0.001 -0.003  0.000  0.596
N of occupied +U levels =  52.6799190
 --- exit write_ns ---

[...]

          k = 0.2500-0.3828 0.0000 ( 29202 PWs)   bands (ev):

[...]

          k =-0.2500 0.1914 0.0000 ( 29229 PWs)   bands (ev):

   -81.3893 -81.0820 -81.0260 -80.5601 -80.4824 -80.4716 -80.4439 -80.2957
   -43.7216 -43.2473 -43.1559 -43.1018 -43.0947 -43.0734 -43.0236 -42.9849
   -42.8374 -42.7354 -42.7324 -42.7227 -42.5093 -42.4784 -42.4443 -42.4387
   -42.4157 -42.3972 -42.3431 -42.3069 -42.2054 -42.0024 -41.7569 -41.5870
   -20.9178 -20.6401 -20.5515 -20.2469 -20.2175 -20.1999 -19.9787 -19.9291
   -19.8554 -19.8141 -19.5539 -19.4117 -19.4062 -19.3092 -19.1331 -19.1116
   -19.0438 -18.5848 -18.5338 -18.3867  -9.9258  -9.5300  -9.4168  -9.3987
    -9.2730  -9.1312  -8.9608  -8.6856  -8.4251  -8.2944  -8.2115  -8.1683
    -7.8755  -7.5836  -7.5190  -7.3045  -7.1953  -7.1532  -7.0717  -6.9463
    -6.8613  -6.7095  -6.3676  -6.3061  -6.1924  -6.0501  -5.8835  -5.8149
    -5.6985  -5.5631  -5.4563  -5.3787  -5.2997  -5.2539  -5.1955  -5.0809
    -4.9275  -4.8761  -4.8035  -4.7002  -4.5898  -4.3933  -4.3607  -4.2783
    -4.1752  -4.0795  -4.0299  -3.9246  -3.8023  -3.7565  -3.6172  -3.5028
    -3.4391  -3.3319  -3.2348  -3.1221  -3.0480  -3.0202  -2.8716  -2.6939
    -2.5965  -2.3651  -2.1707  -1.6974  -1.4752  -1.3059  -1.1068  -0.7671
    -0.5844  -0.4003   0.0932   0.7175   0.8016   0.8574   0.9604   1.1423
     1.2199   1.3524   1.4922   1.5718   1.7464   1.9574   2.1278   2.6851
     3.5004   3.5555   3.5912   3.7361   3.9643   4.1399   4.2302   4.4174
     4.5090   4.6207   4.7507   4.9680   5.2724   5.5483   5.6081   5.7899
     5.9919   6.0398   6.1568   6.3030   6.5347   6.6577   6.8514   6.9964
     7.2795   7.3922   7.5394   7.6082   7.7379   8.0186   8.0347   8.4025
     8.4478   8.5695   8.6969   8.7873   8.8340   9.0250   9.1185   9.1993
     9.3829   9.4926   9.6555   9.7319   9.8077   9.9658   9.9796  10.0302
    10.0867  10.1933  10.2497  10.3569  10.4069  10.5039  10.5641  10.7234
    10.7721  10.8851  10.9180  10.9539  11.1541  11.2599  11.3677  11.4930
    11.5891  11.6510  11.7386  11.8678  11.9396  12.0450  12.1794  12.2630
    12.4245  12.5589  12.6364  12.7438  12.7988  12.9114  12.9582  13.0192
    13.0443  13.0723  13.3121  13.3976  13.4678  13.5814  13.6455  13.7200
    13.7690  13.8094  13.8919  13.9983  14.0636  14.1077  14.2171  14.2363
    14.2930  14.3128  14.4281  14.5589  14.5824  14.6277  14.7469  14.7923
    14.8431  14.9219  14.9990  15.0190  15.0749  15.1250  15.1965  15.2403
    15.2758  15.3827  15.4512  15.5472  15.6156  15.6708  15.7752  15.8607
    15.9478  16.0257  16.1734  16.1874  16.3220  16.3607  16.4966  16.5495
    16.6129  16.6362  16.7424  16.7778  16.8359  16.9320  17.0377  17.1275
    17.2541  17.2858  17.3613  17.4751  17.5370  17.5962  17.6408  17.8238
    17.8365  17.9437  18.0121  18.0501  18.0982  18.1330  18.2218  18.2473
    18.3252  18.3862  18.5023  18.5234  18.5833  18.6603  18.6847  18.7833
    18.8468  18.9694  19.0408  19.1122  19.1659  19.2946  19.4401  19.4507
    19.5511  19.6489  19.6986  19.7240  19.8783  19.9053  20.0450  20.1566
    20.1951  20.2609  20.3666  20.4514  20.5368  20.5772  20.6251  20.7056
    20.7970  20.8207  20.9228  20.9550  21.0334  21.1016  21.1540  21.1990
    21.2515  21.2881  21.4269  21.4680  21.4879  21.5826  21.6610  21.7174
    21.7420  21.8093  21.8679  21.9873  22.0471  22.1027  22.1580  22.2120
    22.2951  22.3410  22.4005  22.4454  22.5164  22.5598  22.5969  22.6208
    22.7064  22.7846  22.8103  22.8414  22.8915  22.9232  23.0251  23.0349
    23.1005  23.1803  23.2032  23.2657  23.3930  23.4146  23.4612

     the Fermi energy is    -0.0387 ev

!    total energy              =   -2203.86311691 Ry
     Harris-Foulkes estimate   =   -2203.86311691 Ry
     estimated scf accuracy    <          5.1E-09 Ry

     The total energy is the sum of the following terms:

     one-electron contribution =  -25161.29017534 Ry
     hartree contribution      =   12601.88306794 Ry
     xc contribution           =    -602.46911332 Ry
     ewald contribution        =   10953.28358896 Ry
     Hubbard energy            =       4.72902092 Ry
     smearing contrib. (-TS)   =       0.00049393 Ry

     convergence has been achieved in  16 iterations

     Forces acting on atoms (Ry/au):

     negative rho (up, down):  0.241E+00 0.000E+00
     atom    1 type  1   force =    -0.00173393   -0.00439773    0.00041828
     atom    2 type  1   force =    -0.00045803    0.00232951   -0.00024709
     atom    3 type  2   force =     0.00658243    0.00108147   -0.00012072
     atom    4 type  2   force =    -0.00508408    0.00690981   -0.00002075
     atom    5 type  1   force =     0.00177763    0.02629155    0.00011153
     atom    6 type  1   force =     0.00096461   -0.02918624    0.00016827
     atom    7 type  1   force =     0.00151218   -0.00215772   -0.00005350
     atom    8 type  1   force =    -0.00408924   -0.00113871   -0.00076659
     atom    9 type  2   force =     0.01575146    0.00181792    0.00013977
     atom   10 type  2   force =    -0.00514996   -0.00015178   -0.00012562
     atom   11 type  1   force =    -0.00443045   -0.02024817   -0.00003635
     atom   12 type  1   force =    -0.00408772    0.01929885    0.00031159
     atom   13 type  1   force =    -0.00986227    0.00009357   -0.00012726
     atom   14 type  1   force =    -0.00421772   -0.00429508    0.00009230
     atom   15 type  1   force =     0.00089452    0.00212850   -0.00046730
     atom   16 type  2   force =    -0.00708843    0.00043427   -0.00006765
     atom   17 type  2   force =     0.00657343    0.00648850    0.00006748
     atom   18 type  1   force =     0.00089409    0.02329567    0.00017271
     atom   19 type  1   force =     0.00019053   -0.02514614    0.00018425
     atom   20 type  1   force =     0.00064233   -0.00344953    0.00017443
     atom   21 type  1   force =     0.01097508   -0.00066698    0.00047799
     atom   22 type  2   force =    -0.01851250    0.00181810   -0.00025663
     atom   23 type  2   force =    -0.00250214    0.00044216    0.00020865
     atom   24 type  1   force =     0.00597768   -0.01012916   -0.00054255
     atom   25 type  1   force =     0.00636140    0.00902651   -0.00010674
     atom   26 type  1   force =     0.00801113   -0.00076476   -0.00002957
     atom   27 type  3   force =     0.00001637    0.00033221    0.00021087
     atom   28 type  3   force =     0.00000357    0.00035354   -0.00003050
     atom   29 type  3   force =    -0.00026521   -0.00000003   -0.00003214
     atom   30 type  3   force =    -0.00020956   -0.00007000   -0.00010354
     atom   31 type  1   force =     0.00012566   -0.00033393    0.00012125
     atom   32 type  1   force =     0.00016042   -0.00020614   -0.00049199
     atom   33 type  3   force =     0.00027672    0.00019995    0.00076711

     Total force =     0.001891     Total SCF correction =     0.000370
     SCF correction compared to forces is large: reduce conv_thr to get better values

     entering subroutine stress ...

     negative rho (up, down):  0.241E+00 0.000E+00
          total   stress  (Ry/bohr**3)                   (kbar)     P=   -7.64
  -0.00003058   0.00000030  -0.00000093         -4.50      0.04     -0.14
   0.00000030  -0.00007902  -0.00000064          0.04    -11.62     -0.09
  -0.00000093  -0.00000064  -0.00004621         -0.14     -0.09     -6.80

     bfgs converged in  27 scf cycles and  26 bfgs steps
     (criteria: energy < 0.10E-03, force < 0.10E-02)

     End of BFGS Geometry Optimization

     Final energy   =   -2203.8631169069 Ry
Begin final coordinates

ATOMIC_POSITIONS (crystal)
O0       0.000000000   0.000000000   0.374426353    0   0   1
O0       0.000000000   0.500000000   0.386675429    0   0   1
Re1      0.250000000   0.500000000   0.445466574    0   0   1
Re1      0.000000000   0.000000000   0.445901731    0   0   1
O0       0.250000000   0.780000000   0.443800242    0   0   1
O0       0.250000000   0.220000000   0.443970356    0   0   1
O0       0.000000000   0.500000000   0.500587016    0   0   1
O0       0.000000000   0.000000000   0.515785166    0   0   1
Re1      0.250000000   0.000000000   0.574682561    0   0   1
Re1      0.000000000   0.500000000   0.574953901    0   0   1
O0       0.250000000   0.720000000   0.571678260    0   0   1
O0       0.250000000   0.280000000   0.571565938    0   0   1
O0       0.000000000   0.000000000   0.627473763    0   0   1
O0       0.500000000   0.000000000   0.374414583    0   0   1
O0       0.500000000   0.500000000   0.386313755    0   0   1
Re1      0.750000000   0.500000000   0.445595962    0   0   1
Re1      0.500000000   0.000000000   0.445973010    0   0   1
O0       0.750000000   0.780000000   0.443731498    0   0   1
O0       0.750000000   0.220000000   0.443919788    0   0   1
O0       0.500000000   0.500000000   0.502592514    0   0   1
O0       0.500000000   0.000000000   0.515998252    0   0   1
Re1      0.750000000   0.000000000   0.577800750    0   0   1
Re1      0.500000000   0.500000000   0.577111919    0   0   1
O0       0.750000000   0.720000000   0.571890545    0   0   1
O0       0.750000000   0.280000000   0.571790274    0   0   1
O0       0.500000000   0.000000000   0.627786155    0   0   1
H2      -0.000535882   0.623663301   0.369253897
H2       0.499733449   0.621778633   0.368097292
H2       0.169195948   0.020158011   0.359528272
H2       0.669253581   0.020591254   0.359620222
O0       0.506726172   0.499076268   0.640224124
O0       1.007679469   0.499063187   0.644797087
H2       0.841653831   0.498051444   0.661312814
End final coordinates

     General routines

     Parallel routines
     Hubbard U routines

   This run was terminated on:  19:59: 0  21Jun2014

   JOB DONE.
Running PBS batch system epilogue script
Job id: 399822.audhumbla.fysik.dtu.dk
Username: zhonxu
Groupname: campgst
Jobname: ReO2/Eads-2-layers/OOH-U-8.0
Sessionid: 17475
Queuename: verylong
Accounting:
This job has allocated the following 16 nodes:
c082 c082 c082 c082 c082 c082 c082 c082 c002 c002 c002 c002 c002 c002 c002 c002
Finished epilogue job 399822.audhumbla.fysik.dtu.dk for zhonxu