     Program PWSCF v.5.0.2 (svn rev. 9656) starts on 11Feb2014 at  2:42: 5

     Current dimensions of program PWSCF are:
     Max number of different atomic species (ntypx) = 10
     Max number of k-points (npk) =  40000
     Max angular momentum in pseudopotentials (lmaxx) =  3
     Reading input from alpha_0.07/alpha_0.07.in
Warning: card &IONS ignored
Warning: card / ignored
Warning: card &CELL ignored
Warning: card / ignored

     Subspace diagonalization in iterative solution of the eigenvalue problem:
     a serial algorithm will be used

     bravais-lattice index     =            0
     lattice parameter (alat)  =      18.7083  a.u.
     unit-cell volume          =    3611.2673 (a.u.)^3
     number of atoms/cell      =           48
     number of atomic types    =            3
     number of electrons       =       416.00
     number of Kohn-Sham states=          624
     kinetic-energy cutoff     =      40.0000  Ry
     charge density cutoff     =     500.0000  Ry
     convergence threshold     =      1.0E-06
     mixing beta               =       0.7000
     number of iterations used =            8  plain     mixing
     Exchange-correlation      = SLA  PW   PBE  PBE ( 1 4 3 4 0)
     EXX-fraction              =        0.00

     celldm(1)=  18.708289  celldm(2)=   0.000000  celldm(3)=   0.000000
     celldm(4)=   0.000000  celldm(5)=   0.000000  celldm(6)=   0.000000

     crystal axes: (cart. coord. in units of alat)
               a(1) = (   1.000000   0.000000   0.000000 )
               a(2) = (   0.000000   1.000000   0.000000 )
               a(3) = (   0.000000   0.000000   0.551515 )

     reciprocal axes: (cart. coord. in units 2 pi/alat)
               b(1) = (  1.000000  0.000000  0.000000 )
               b(2) = (  0.000000  1.000000  0.000000 )
               b(3) = (  0.000000  0.000000  1.813187 )

     PseudoPot. # 1 for Mo read from file:
     /home/camp/zhonxu/pseudo/mo_pbe_v1.uspp.F.UPF
     MD5 check sum: 30c4dcd161f5d35cd49bb5239c51a633
     Pseudo is Ultrasoft + core correction, Zval = 14.0
     Generated by new atomic code, or converted to UPF format
     Using radial grid of  889 points,  6 beta functions with:
                l(1) =   0
                l(2) =   0
                l(3) =   1
                l(4) =   1
                l(5) =   2
                l(6) =   2
     Q(r) pseudized with  6 coefficients,  rinner =    1.000   1.000   1.000
                                                       1.000   1.000

     PseudoPot. # 2 for O  read from file:
     /home/camp/zhonxu/pseudo/o_pbe_v1.01.uspp.F.UPF
     MD5 check sum: 2bcb18d16ea4b960afae9ec6d52f22d2
     Pseudo is Ultrasoft + core correction, Zval =  6.0
     Generated by new atomic code, or converted to UPF format
     Using radial grid of  737 points,  5 beta functions with:
                l(1) =   0
                l(2) =   0
                l(3) =   1
                l(4) =   1
                l(5) =   2
     Q(r) pseudized with  8 coefficients,  rinner =    0.900   0.900   0.900
                                                       0.900   0.900

     PseudoPot. # 3 for O  read from file:
     /home/camp/zhonxu/pseudo/o_pbe_v1.01.uspp.F.UPF
     MD5 check sum: 2bcb18d16ea4b960afae9ec6d52f22d2
     Pseudo is Ultrasoft + core correction, Zval =  6.0
     Generated by new atomic code, or converted to UPF format
     Using radial grid of  737 points,  5 beta functions with:
                l(1) =   0
                l(2) =   0
                l(3) =   1
                l(4) =   1
                l(5) =   2
     Q(r) pseudized with  8 coefficients,  rinner =    0.900   0.900   0.900
                                                       0.900   0.900

     atomic species   valence    mass     pseudopotential
        Mo0           14.00    95.94000     Mo( 1.00)
        O1             6.00    15.99940     O ( 1.00)
        O2             6.00    15.99940     O ( 1.00)

     Starting magnetic structure
     atomic species   magnetization
        Mo0          0.000
        O1           0.000
        O2           0.000

     Simplified LDA+U calculation (l_max = 2) with parameters (eV):
     atomic species    L          U    alpha       J0     beta
        Mo0            2     0.0000   0.0000   0.0000   0.0000
        O1             1     0.0000   0.0700   0.0000   0.0000
        O2             1     0.0000   0.0000   0.0000   0.0000

      4 Sym. Ops. (no inversion) found

   Cartesian axes

     site n.     atom                  positions (alat units)
         1           Mo0 tau(   1) = (  -0.1400000  -0.1400000   0.0000000  )
         2           Mo0 tau(   2) = (   0.1100000   0.1100000   0.1378788  )
         3           Mo0 tau(   3) = (  -0.1400000  -0.1400000   0.2757576  )
         4           Mo0 tau(   4) = (   0.1100000   0.1100000   0.4136364  )
         5           Mo0 tau(   5) = (  -0.1400000   0.3600000   0.0000000  )
         6           Mo0 tau(   6) = (   0.1100000   0.6100000   0.1378788  )
         7           Mo0 tau(   7) = (  -0.1400000   0.3600000   0.2757576  )
         8           Mo0 tau(   8) = (   0.1100000   0.6100000   0.4136364  )
         9           Mo0 tau(   9) = (   0.3600000  -0.1400000   0.0000000  )
        10           Mo0 tau(  10) = (   0.6100000   0.1100000   0.1378788  )
        11           Mo0 tau(  11) = (   0.3600000  -0.1400000   0.2757576  )
        12           Mo0 tau(  12) = (   0.6100000   0.1100000   0.4136364  )
        13           Mo0 tau(  13) = (   0.3600000   0.3600000   0.0000000  )
        14           Mo0 tau(  14) = (   0.6100000   0.6100000   0.1378788  )
        15           Mo0 tau(  15) = (   0.3600000   0.3600000   0.2757576  )
        16           Mo0 tau(  16) = (   0.6100000   0.6100000   0.4136364  )
        17           O1  tau(  17) = (   0.0000000   0.0000000   0.0000000  )
        18           O2  tau(  18) = (  -0.2800000  -0.2800000   0.0000000  )
        19           O2  tau(  19) = (   0.2500000  -0.0300000   0.1378788  )
        20           O2  tau(  20) = (  -0.0300000   0.2500000   0.1378788  )
        21           O2  tau(  21) = (   0.0000000   0.0000000   0.2757576  )
        22           O2  tau(  22) = (  -0.2800000  -0.2800000   0.2757576  )
        23           O2  tau(  23) = (   0.2500000  -0.0300000   0.4136364  )
        24           O2  tau(  24) = (  -0.0300000   0.2500000   0.4136364  )
        25           O2  tau(  25) = (   0.0000000   0.5000000   0.0000000  )
        26           O2  tau(  26) = (  -0.2800000   0.2200000   0.0000000  )
        27           O2  tau(  27) = (   0.2500000   0.4700000   0.1378788  )
        28           O2  tau(  28) = (  -0.0300000   0.7500000   0.1378788  )
        29           O2  tau(  29) = (   0.0000000   0.5000000   0.2757576  )
        30           O2  tau(  30) = (  -0.2800000   0.2200000   0.2757576  )
        31           O2  tau(  31) = (   0.2500000   0.4700000   0.4136364  )
        32           O2  tau(  32) = (  -0.0300000   0.7500000   0.4136364  )
        33           O2  tau(  33) = (   0.5000000   0.0000000   0.0000000  )
        34           O2  tau(  34) = (   0.2200000  -0.2800000   0.0000000  )
        35           O2  tau(  35) = (   0.7500000  -0.0300000   0.1378788  )
        36           O2  tau(  36) = (   0.4700000   0.2500000   0.1378788  )
        37           O2  tau(  37) = (   0.5000000   0.0000000   0.2757576  )
        38           O2  tau(  38) = (   0.2200000  -0.2800000   0.2757576  )
        39           O2  tau(  39) = (   0.7500000  -0.0300000   0.4136364  )
        40           O2  tau(  40) = (   0.4700000   0.2500000   0.4136364  )
        41           O2  tau(  41) = (   0.5000000   0.5000000   0.0000000  )
        42           O2  tau(  42) = (   0.2200000   0.2200000   0.0000000  )
        43           O2  tau(  43) = (   0.7500000   0.4700000   0.1378788  )
        44           O2  tau(  44) = (   0.4700000   0.7500000   0.1378788  )
        45           O2  tau(  45) = (   0.5000000   0.5000000   0.2757576  )
        46           O2  tau(  46) = (   0.2200000   0.2200000   0.2757576  )
        47           O2  tau(  47) = (   0.7500000   0.4700000   0.4136364  )
        48           O2  tau(  48) = (   0.4700000   0.7500000   0.4136364  )

     number of k points=    42  Methfessel-Paxton smearing, width (Ry)=  0.0100
                       cart. coord. in units 2pi/alat
        k(    1) = (   0.0000000   0.0000000   0.0000000), wk =   0.0156250
        k(    2) = (   0.0000000   0.0000000   0.4532967), wk =   0.0312500
        k(    3) = (   0.0000000   0.0000000  -0.9065934), wk =   0.0156250
        k(    4) = (   0.0000000   0.2500000   0.0000000), wk =   0.0625000
        k(    5) = (   0.0000000   0.2500000   0.4532967), wk =   0.1250000
        k(    6) = (   0.0000000   0.2500000  -0.9065934), wk =   0.0625000
        k(    7) = (   0.0000000  -0.5000000   0.0000000), wk =   0.0312500
        k(    8) = (   0.0000000  -0.5000000   0.4532967), wk =   0.0625000
        k(    9) = (   0.0000000  -0.5000000  -0.9065934), wk =   0.0312500
        k(   10) = (   0.2500000   0.2500000   0.0000000), wk =   0.0312500
        k(   11) = (   0.2500000   0.2500000   0.4532967), wk =   0.0625000
        k(   12) = (   0.2500000   0.2500000  -0.9065934), wk =   0.0312500
        k(   13) = (   0.2500000  -0.5000000   0.0000000), wk =   0.0625000
        k(   14) = (   0.2500000  -0.5000000   0.4532967), wk =   0.1250000
        k(   15) = (   0.2500000  -0.5000000  -0.9065934), wk =   0.0625000
        k(   16) = (  -0.5000000  -0.5000000   0.0000000), wk =   0.0156250
        k(   17) = (  -0.5000000  -0.5000000   0.4532967), wk =   0.0312500
        k(   18) = (  -0.5000000  -0.5000000  -0.9065934), wk =   0.0156250
        k(   19) = (   0.2500000  -0.2500000   0.0000000), wk =   0.0312500
        k(   20) = (   0.2500000  -0.2500000   0.4532967), wk =   0.0625000
        k(   21) = (   0.2500000  -0.2500000  -0.9065934), wk =   0.0312500
        k(   22) = (   0.0000000   0.0000000   0.0000000), wk =   0.0156250
        k(   23) = (   0.0000000   0.0000000   0.4532967), wk =   0.0312500
        k(   24) = (   0.0000000   0.0000000  -0.9065934), wk =   0.0156250
        k(   25) = (   0.0000000   0.2500000   0.0000000), wk =   0.0625000
        k(   26) = (   0.0000000   0.2500000   0.4532967), wk =   0.1250000
        k(   27) = (   0.0000000   0.2500000  -0.9065934), wk =   0.0625000
        k(   28) = (   0.0000000  -0.5000000   0.0000000), wk =   0.0312500
        k(   29) = (   0.0000000  -0.5000000   0.4532967), wk =   0.0625000
        k(   30) = (   0.0000000  -0.5000000  -0.9065934), wk =   0.0312500
        k(   31) = (   0.2500000   0.2500000   0.0000000), wk =   0.0312500
        k(   32) = (   0.2500000   0.2500000   0.4532967), wk =   0.0625000
        k(   33) = (   0.2500000   0.2500000  -0.9065934), wk =   0.0312500
        k(   34) = (   0.2500000  -0.5000000   0.0000000), wk =   0.0625000
        k(   35) = (   0.2500000  -0.5000000   0.4532967), wk =   0.1250000
        k(   36) = (   0.2500000  -0.5000000  -0.9065934), wk =   0.0625000
[...]
    eigenvectors:
  0.000  0.000  1.000
  0.500  0.500  0.000
  0.500  0.500  0.000
    occupations:
  0.903 -0.000 -0.000
 -0.000  0.901  0.001
 -0.000  0.001  0.901
   spin  2
    eigenvalues:
  0.900  0.902  0.903
    eigenvectors:
  0.000  0.000  1.000
  0.500  0.500  0.000
  0.500  0.500  0.000
    occupations:
  0.903 -0.000 -0.000
 -0.000  0.901  0.001
 -0.000  0.001  0.901
atomic mag. moment =     0.000000
atom   42   Tr[ns(na)] (up, down, total) =   2.70510  2.70510  5.41020
   spin  1
    eigenvalues:
  0.900  0.902  0.903
    eigenvectors:
  0.000  0.000  1.000
  0.500  0.500  0.000
  0.500  0.500  0.000
    occupations:
  0.903 -0.000 -0.000
 -0.000  0.901  0.001
 -0.000  0.001  0.901
   spin  2
    eigenvalues:
  0.900  0.902  0.903
    eigenvectors:
  0.000  0.000  1.000
  0.500  0.500  0.000
  0.500  0.500  0.000
    occupations:
  0.903 -0.000 -0.000
 -0.000  0.901  0.001
 -0.000  0.001  0.901
atomic mag. moment =     0.000000
atom   43   Tr[ns(na)] (up, down, total) =   2.70508  2.70508  5.41017
   spin  1
    eigenvalues:
  0.900  0.902  0.903
    eigenvectors:
  0.000  0.000  1.000
  0.500  0.500  0.000
  0.500  0.500  0.000
    occupations:
  0.903  0.000  0.000
  0.000  0.901 -0.001
  0.000 -0.001  0.901
   spin  2
    eigenvalues:
  0.900  0.902  0.903
    eigenvectors:
  0.000  0.000  1.000
  0.500  0.500  0.000
  0.500  0.500  0.000
    occupations:
  0.903  0.000  0.000
  0.000  0.901 -0.001
  0.000 -0.001  0.901
atomic mag. moment =    -0.000000
atom   44   Tr[ns(na)] (up, down, total) =   2.70508  2.70508  5.41017
   spin  1
    eigenvalues:
  0.900  0.902  0.903
    eigenvectors:
  0.000  0.000  1.000
  0.500  0.500  0.000
  0.500  0.500  0.000
    occupations:
  0.903  0.000  0.000
  0.000  0.901 -0.001
  0.000 -0.001  0.901
   spin  2
    eigenvalues:
  0.900  0.902  0.903
    eigenvectors:
  0.000  0.000  1.000
  0.500  0.500  0.000
  0.500  0.500  0.000
    occupations:
  0.903  0.000  0.000
  0.000  0.901 -0.001
  0.000 -0.001  0.901
atomic mag. moment =    -0.000000
atom   45   Tr[ns(na)] (up, down, total) =   2.70506  2.70506  5.41012
   spin  1
    eigenvalues:
  0.900  0.902  0.903
    eigenvectors:
  0.000  0.000  1.000
  0.500  0.500  0.000
  0.500  0.500  0.000
    occupations:
  0.903 -0.000 -0.000
 -0.000  0.901  0.001
 -0.000  0.001  0.901
   spin  2
    eigenvalues:
  0.900  0.902  0.903
    eigenvectors:
  0.000  0.000  1.000
  0.500  0.500  0.000
  0.500  0.500  0.000
    occupations:
  0.903 -0.000 -0.000
 -0.000  0.901  0.001
 -0.000  0.001  0.901
atomic mag. moment =     0.000000
atom   46   Tr[ns(na)] (up, down, total) =   2.70508  2.70508  5.41016
   spin  1
    eigenvalues:
  0.900  0.902  0.903
    eigenvectors:
  0.000  0.000  1.000
  0.500  0.500  0.000
  0.500  0.500  0.000
    occupations:
  0.903 -0.000 -0.000
 -0.000  0.901  0.001
 -0.000  0.001  0.901
   spin  2
    eigenvalues:
  0.900  0.902  0.903
    eigenvectors:
  0.000  0.000  1.000
  0.500  0.500  0.000
  0.500  0.500  0.000
    occupations:
  0.903 -0.000 -0.000
 -0.000  0.901  0.001
 -0.000  0.001  0.901
atomic mag. moment =     0.000000
atom   47   Tr[ns(na)] (up, down, total) =   2.70508  2.70508  5.41017
   spin  1
    eigenvalues:
  0.900  0.902  0.903
    eigenvectors:
  0.000  0.000  1.000
  0.500  0.500  0.000
  0.500  0.500  0.000
    occupations:
  0.903 -0.000 -0.000
 -0.000  0.901 -0.001
 -0.000 -0.001  0.901
   spin  2
    eigenvalues:
  0.900  0.902  0.903
    eigenvectors:
  0.000  0.000  1.000
  0.500  0.500  0.000
  0.500  0.500  0.000
    occupations:
  0.903 -0.000 -0.000
 -0.000  0.901 -0.001
 -0.000 -0.001  0.901
atomic mag. moment =    -0.000000
atom   48   Tr[ns(na)] (up, down, total) =   2.70508  2.70508  5.41017
   spin  1
    eigenvalues:
  0.900  0.902  0.903
    eigenvectors:
  0.000  0.000  1.000
  0.500  0.500  0.000
  0.500  0.500  0.000
    occupations:
  0.903 -0.000 -0.000
 -0.000  0.901 -0.001
 -0.000 -0.001  0.901
   spin  2
    eigenvalues:
  0.900  0.902  0.903
    eigenvectors:
  0.000  0.000  1.000
  0.500  0.500  0.000
  0.500  0.500  0.000
    occupations:
  0.903 -0.000 -0.000
 -0.000  0.901 -0.001
 -0.000 -0.001  0.901
atomic mag. moment =    -0.000000
N of occupied +U levels = 266.2324534
 --- exit write_ns ---

 ------ SPIN UP ------------

          k = 0.0000 0.0000 0.0000 ( 15465 PWs)   bands (ev):

   -49.3507 -49.3460 -49.3460 -49.3459 -49.3458 -49.3455 -49.3447 -49.3405
   -49.2292 -49.2292 -49.2292 -49.2292 -49.2290 -49.2289 -49.2282 -49.2280
   -23.9089 -23.9089 -23.9086 -23.9085 -23.9028 -23.9027 -23.9023 -23.9021
   -23.6547 -23.6547 -23.6478 -23.6478 -23.6219 -23.6219 -23.6215 -23.6212
   -23.5150 -23.5149 -23.5140 -23.5138 -23.5082 -23.5082 -23.5079 -23.5075
   -23.4254 -23.4254 -23.4249 -23.4249 -23.3962 -23.3961 -23.3915 -23.3913
   -23.2172 -23.2172 -23.2166 -23.2166 -23.2166 -23.2165 -23.2161 -23.2156
   -22.8786 -22.8665 -22.8665 -22.8664 -22.8663 -22.8662 -22.8660 -22.8542
    -7.2176  -6.7912  -6.7892  -6.4851  -6.4786  -6.4785  -6.4782  -6.4774
    -6.4722  -6.4700  -6.4700  -6.4699  -6.0636  -6.0612  -6.0433  -6.0395
    -6.0394  -6.0394  -6.0140  -6.0124  -5.8516  -5.8496  -5.7936  -5.7918
    -5.6631  -5.6611  -5.5878  -5.5860  -5.3081  -5.3044  -5.3043  -5.3042
     4.6101   4.7389   4.7414   4.9365   5.1169   5.1170   5.1176   5.1197
     5.3314   5.3320   5.3325   5.3355   5.4118   5.8107   5.8122   5.9037
     5.9037   5.9042   5.9073   5.9411   5.9421   6.1497   6.1519   6.5097
     6.5113   6.5629   6.5630   6.5641   6.5665   6.6967   6.6982   6.7678
     6.7695   6.8041   6.8059   7.0603   7.0605   7.0614   7.0643   7.0714
     7.0723   7.5910   7.5913   7.5918   7.5957   7.8221   7.8241   7.8324
     7.8339   7.8714   7.8730   8.0583   8.0584   8.0584   8.0614   8.0887
     8.0894   8.2273   8.2281   8.3352   8.3375   8.5076   8.5078   8.5083
     8.5106   8.7867   8.7873   8.7873   8.7900   8.9972   8.9972   9.0508
     9.0527   9.3979   9.3986   9.5252   9.5253   9.5253   9.5284   9.6344
     9.6346   9.6347   9.6381   9.6938   9.8653   9.8662   9.9913   9.9913
     9.9915   9.9947  10.0044  10.0053  10.0525  10.0542  10.3699  10.4200
    10.5457  10.5458  10.7458  10.7712  11.3727  11.3727  11.3728  11.3730
    11.7963  11.7964  11.7964  11.7964  12.4382  13.0153  13.0154  13.5150
    13.5152  13.5777  13.5778  13.6984  13.6985  13.7325  13.7325  13.8801
    13.8803  14.4164  14.4164  14.4164  14.4171  14.4359  14.4359  14.4359
    14.4364  14.5827  14.5827  14.5827  14.5829  14.8991  14.8993  15.8692
    15.8696  15.8696  15.8697  15.8809  16.0445  16.0448  16.0448  16.0932
    16.0932  16.4679  16.4680  16.4680  16.4681  16.8963  16.8963  16.8965
    16.8965  17.2710  17.2716  17.5062  17.5062  17.5525  17.5526  17.5662
    17.5662  17.6127  17.6130  17.6131  17.6134  17.9047  17.9048  17.9168
    17.9716  17.9718  18.2785  18.2785  19.9321  19.9321  19.9322  19.9323
    20.1910  20.6905  20.6915  20.6923  20.6924  21.7584  21.7586  22.1101
    22.1105  22.5533  22.5533  22.7216  22.7216  22.7223  22.7224  22.8058
    22.8059  23.2875  23.2878  23.3175  23.3178  23.9781  23.9785  23.9785
    23.9786  24.5959  24.5960  24.9238  24.9238  24.9240  24.9243  25.0172
    25.3166  25.3167  25.3168  25.3168  25.5597  25.5600  25.5605  25.5609
    25.6002  26.1223  26.1226  26.3723  26.3726  26.3829  26.3829  26.3965
    27.6376  27.6378  27.7734  27.7739  27.7740  27.7742  28.0305  28.0310
    28.0313  28.0313  28.2856  28.2862  28.5733  28.5737  28.6980  28.6982
    28.8999  29.0516  29.0517  29.0655  29.0655  29.0925  29.0927  29.0931
    29.0933  29.2026  29.2026  30.0240  30.0240  30.0248  30.0248  30.5553
    30.5558  30.5561  30.5561  31.5845  31.5845  31.7251  31.7252  31.7389
    31.7393  31.8699  31.8700  31.8703  31.8705  32.0338  32.3758  32.3760
    32.4235  32.4238  32.7582  32.7583  32.9184  32.9185  33.7438  33.7443
    33.7444  33.7446  33.9096  34.1433  34.1437  34.1501  34.1501  34.1505
    34.1506  34.1872  34.1881  34.1890  34.1890  34.6270  34.6273  34.6825
    34.9055  34.9057  34.9061  34.9062  35.1355  35.1358  35.2519  35.2522
    35.9100  35.9956  35.9960  35.9964  35.9965  36.1297  36.1299  36.1364
    36.1366  36.2689  36.2694  36.3686  36.3689  36.8775  36.8779  37.1101
    37.1105  37.2847  37.2855  37.2857  37.2857  37.2990  37.4701  37.4707
    37.4707  37.4709  38.0479  38.0483  38.2071  38.2072  38.2072  38.2074
    38.4475  38.5736  38.5737  38.5909  38.5909  38.5911  38.5915  39.3419
    39.3422  39.8792  39.8800  40.6470  40.6474  40.7083  40.7094  40.7094
    40.7096  40.8795  40.8799  41.0656  41.0657  41.0658  41.0661  41.2052
    41.2053  41.2060  41.2061  41.3130  41.8117  41.8123  41.8129  41.8129
    42.1309  42.1312  42.1398  42.4875  42.4877  42.6065  42.6073  42.6075
    42.6076  42.6742  42.6742  42.7403  42.7408  43.1077  43.1079  43.1287
[...]
    44.6098  44.6561  44.6567  44.6569  44.6572  44.9905  44.9908  45.0056
    45.0061  45.1682  45.1685  45.1689  45.1690  45.2597  45.2600  45.2602
    45.2604  45.3322  45.3325  45.5076  45.5079  45.5586  45.5591  45.7143
    45.7147  45.7595  45.7601  45.7618  45.7620  45.9483  45.9489  46.2440
    46.3765  46.3777  46.3777  46.3777  46.6276  46.6280  46.6957  46.6962
    46.7344  46.7354  46.7354  46.7356  46.8119  46.8128  46.8132  46.8133
    47.3977  47.3980  47.7440  47.7445  48.0492  48.0492  48.1471  48.1476
    48.4699  48.5437  48.5441  48.5444  48.5445  48.8547  48.8551  48.8552
    48.8552  48.9048  48.9048  48.9050  48.9053  49.0993  49.0994  49.3140
    49.3142  49.4163  49.4165  49.4166  49.4167  49.4518  49.4522  49.7077
    49.7084  49.7086  49.7087  49.9792  50.0192  50.1730  50.1735  50.3586
    50.3586  50.3588  50.3588  50.4428  50.6695  50.6704  50.6705  50.6706
    50.8660  50.8664  51.1691  51.1697  51.1704  51.1705  51.3405  51.3406
    51.3796  51.3800  51.6867  51.9757  51.9759  52.4318  52.4320  52.4321
    52.4322  52.6376  52.6377  52.6379  52.6380  52.7778  52.7781  52.8539

[...]

          k =-0.5000-0.5000 0.0000 ( 15388 PWs)   bands (ev):

[...]

 ------ SPIN DOWN ----------

[...]

          k =-0.5000-0.5000-0.9066 ( 15464 PWs)   bands (ev):

[...]

          k = 0.2500-0.2500-0.9066 ( 15408 PWs)   bands (ev):

   -49.2908 -49.2907 -49.2892 -49.2890 -49.2889 -49.2888 -49.2883 -49.2881
   -49.2873 -49.2871 -49.2868 -49.2864 -49.2863 -49.2859 -49.2848 -49.2836
   -23.5830 -23.5826 -23.5803 -23.5801 -23.5800 -23.5798 -23.5789 -23.5789
   -23.5786 -23.5785 -23.5774 -23.5773 -23.5759 -23.5759 -23.5758 -23.5748
   -23.4059 -23.4059 -23.4027 -23.4026 -23.4008 -23.4008 -23.4007 -23.4001
   -23.3970 -23.3968 -23.3941 -23.3940 -23.3940 -23.3938 -23.3937 -23.3931
   -23.3201 -23.3201 -23.3197 -23.3195 -23.3147 -23.3145 -23.3140 -23.3139
   -23.3139 -23.3133 -23.3133 -23.3125 -23.3090 -23.3090 -23.3075 -23.3075
    -6.5857  -6.5834  -6.4366  -6.4329  -6.4329  -6.4329  -6.3552  -6.3524
    -6.2723  -6.2711  -6.2461  -6.2418  -6.2417  -6.2417  -6.1241  -6.1224
    -5.8449  -5.8397  -5.8323  -5.8323  -5.8140  -5.8120  -5.8120  -5.8119
    -5.8105  -5.8048  -5.8047  -5.8046  -5.7978  -5.7962  -5.7888  -5.7887
     5.4456   5.4461   5.4677   5.4677   5.4686   5.4741   5.5349   5.5350
     5.5353   5.5354   5.5383   5.5383   5.6967   5.7010   5.7575   5.7612
     6.1469   6.1476   6.1572   6.1577   6.4385   6.4385   6.4389   6.4419
     6.5169   6.5178   6.5924   6.5943   6.6928   6.6930   6.7059   6.7062
     6.7073   6.7098   7.1561   7.1562   7.1583   7.1589   7.3367   7.3374
     7.3374   7.3399   7.3489   7.3490   7.4623   7.4627   7.5831   7.5838
     7.5841   7.5849   7.6983   7.7010   7.8351   7.8378   7.8492   7.8538
     8.3320   8.3320   8.3346   8.3351   8.4371   8.4379   8.4824   8.4830
     8.5503   8.5511   8.5975   8.5976   8.5983   8.5991   8.6022   8.6027
     8.7064   8.7064   8.8749   8.8753   8.8764   8.8765   9.1343   9.1350
     9.3276   9.3306   9.5563   9.5587   9.6395   9.6396   9.6402   9.6412
     9.8701   9.8702  10.1174  10.1174  10.1174  10.1210  10.3647  10.3663
    12.5147  12.5147  12.5281  12.5282  12.5283  12.5285  12.7035  12.7039
    12.7930  12.7931  12.7931  12.7932  12.7938  12.7939  12.8650  12.8652
    12.9289  12.9290  13.0348  13.0348  13.2304  13.2305  13.2305  13.2307
    13.5334  13.5335  13.5953  13.5954  13.7594  13.7594  13.8065  13.8065
    13.8066  13.8069  14.2527  14.2528  14.3284  14.3284  14.3286  14.3288
    14.5206  14.5209  14.8291  14.8291  14.8292  14.8296  15.2939  15.2941
    16.0380  16.0389  16.0389  16.0391  16.5926  16.5927  16.7038  16.7040
    16.7412  16.7412  16.7412  16.7414  17.3731  17.3732  17.4525  17.4527
    17.4978  17.4980  17.9927  17.9927  18.2199  18.2200  18.2201  18.2203
    18.5466  18.5467  19.1381  19.1383  19.1384  19.1387  19.6142  19.6143
    20.4027  20.4032  21.4496  21.4507  21.4513  21.4516  21.9733  21.9740
    22.6411  22.6420  22.7891  22.7905  22.7912  22.7914  23.7396  23.7405
    24.1159  24.1164  24.1584  24.1592  24.7074  24.7081  24.7789  24.7796
    24.7800  24.7804  25.1763  25.1768  25.1773  25.1774  25.7902  25.7908
    26.0498  26.0503  26.2756  26.2760  26.4827  26.4836  26.4837  26.4838
    27.1314  27.1314  27.2291  27.2294  27.3090  27.3093  27.3101  27.3104
    27.5027  27.5027  27.5033  27.5036  27.6940  27.6942  27.6949  27.6952
    27.8595  27.8596  27.8655  27.8660  27.9057  27.9058  28.3572  28.3576
    28.4260  28.4264  28.4265  28.4270  28.8428  28.8435  29.2881  29.2885
    29.6684  29.6685  30.0978  30.0978  30.0980  30.0980  30.1296  30.1297
    30.2467  30.2470  30.4217  30.4219  30.8245  30.8251  31.2937  31.2939
    31.2942  31.2942  31.5173  31.5178  31.5180  31.5181  32.4002  32.4004
    32.4004  32.4006  32.4276  32.4279  32.7185  32.7189  32.8274  32.8276
    33.4954  33.4963  33.8889  33.8890  34.0476  34.0481  34.0482  34.0483
    34.6873  34.6878  35.0295  35.0297  35.0298  35.0300  35.2189  35.2191
    35.2339  35.2344  35.2347  35.2350  35.4791  35.4795  35.4796  35.4798
    35.4840  35.4842  35.9588  35.9591  36.2092  36.2094  36.3121  36.3126
    36.5618  36.5621  36.5626  36.5628  36.8241  36.8244  36.8769  36.8773
    37.3335  37.3338  37.3958  37.3968  37.6832  37.6836  37.7390  37.7391
    37.7617  37.7621  37.7623  37.7624  37.9146  37.9147  37.9149  37.9150
    37.9966  37.9971  38.5126  38.5128  38.8017  38.8017  38.8017  38.8021
    38.9285  38.9290  39.3540  39.3541  39.3544  39.3545  39.8686  39.8692
    40.2273  40.2280  40.2895  40.2896  40.4461  40.4462  40.4463  40.4466
    40.7390  40.7392  41.4100  41.4100  41.4106  41.4108  41.5570  41.5570
    41.5590  41.5592  41.8633  41.8646  41.8648  41.8649  42.1765  42.1765
    42.2122  42.2125  42.2126  42.2127  42.2393  42.2394  42.3412  42.3414
[...]
    44.7879  44.7879  44.9708  44.9709  44.9714  44.9716  45.2830  45.2831
    45.6120  45.6121  45.6212  45.6218  45.6661  45.6663  45.8514  45.8518
    45.8518  45.8520  46.1627  46.1629  46.2697  46.2699  46.2702  46.2704
    46.4979  46.4979  46.7305  46.7310  46.7709  46.7714  46.8412  46.8415
    46.8417  46.8419  46.9010  46.9010  46.9108  46.9117  46.9120  46.9120
    47.0600  47.0602  47.3951  47.3958  47.4491  47.4493  47.4862  47.4864
    47.5622  47.5630  47.5631  47.5632  47.7204  47.7204  47.8536  47.8546
    47.8548  47.8551  48.0619  48.0620  48.0622  48.0624  48.1230  48.1233
    48.3234  48.3235  48.3239  48.3240  48.4787  48.4796  48.8755  48.8758
    48.9341  48.9343  48.9346  48.9348  49.4592  49.4597  49.7946  49.7948
    49.7949  49.7950  49.9267  49.9268  50.0030  50.0035  50.1198  50.1202
    50.1206  50.1208  50.4442  50.4442  50.5559  50.5561  50.5769  50.5771
    50.7639  50.7639  50.9148  50.9149  50.9153  50.9154  51.2852  51.2855
    51.4068  51.4077  51.4079  51.4079  51.7600  51.7608  51.8335  51.8336
    52.2033  52.2035  52.2039  52.2039  52.3711  52.3715  52.6439  52.6440

     the Fermi energy is    12.9477 ev

!    total energy              =   -3262.57435828 Ry
     Harris-Foulkes estimate   =   -3262.57435920 Ry
     estimated scf accuracy    <       0.00000094 Ry

     The total energy is the sum of the following terms:

     one-electron contribution =    -920.60474454 Ry
     hartree contribution      =     690.17264893 Ry
     xc contribution           =    -539.17427457 Ry
     ewald contribution        =   -2492.99511507 Ry
     Hubbard energy            =       0.02781485 Ry
     smearing contrib. (-TS)   =      -0.00068788 Ry

     total magnetization       =    -0.00 Bohr mag/cell
     absolute magnetization    =     0.00 Bohr mag/cell

     convergence has been achieved in   9 iterations

     Writing output data file pwscf.save

     General routines

     Parallel routines
     Hubbard U routines

   This run was terminated on:   7: 4:17  11Feb2014

   JOB DONE.