     Program PWSCF v.5.0.2 (svn rev. 9656) starts on 10Feb2014 at 13:51: 7

     Current dimensions of program PWSCF are:
     Max number of different atomic species (ntypx) = 10
     Max number of k-points (npk) =  40000
     Max angular momentum in pseudopotentials (lmaxx) =  3
     Reading input from alpha_-0.15/alpha_-0.15.in
Warning: card &IONS ignored
Warning: card / ignored
Warning: card &CELL ignored
Warning: card / ignored

     Subspace diagonalization in iterative solution of the eigenvalue problem:
     a serial algorithm will be used

     bravais-lattice index     =            0
     lattice parameter (alat)  =      18.7083  a.u.
     unit-cell volume          =    3611.2673 (a.u.)^3
     number of atoms/cell      =           48
     number of atomic types    =            3
     number of electrons       =       416.00
     number of Kohn-Sham states=          624
     kinetic-energy cutoff     =      40.0000  Ry
     charge density cutoff     =     500.0000  Ry
     convergence threshold     =      1.0E-06
     mixing beta               =       0.7000
     number of iterations used =            8  plain     mixing
     Exchange-correlation      = SLA  PW   PBE  PBE ( 1 4 3 4 0)
     EXX-fraction              =        0.00

     celldm(1)=  18.708289  celldm(2)=   0.000000  celldm(3)=   0.000000
     celldm(4)=   0.000000  celldm(5)=   0.000000  celldm(6)=   0.000000

     crystal axes: (cart. coord. in units of alat)
               a(1) = (   1.000000   0.000000   0.000000 )
               a(2) = (   0.000000   1.000000   0.000000 )
               a(3) = (   0.000000   0.000000   0.551515 )

     reciprocal axes: (cart. coord. in units 2 pi/alat)
               b(1) = (  1.000000  0.000000  0.000000 )
               b(2) = (  0.000000  1.000000  0.000000 )
               b(3) = (  0.000000  0.000000  1.813187 )

     PseudoPot. # 1 for Mo read from file:
     /home/camp/zhonxu/pseudo/mo_pbe_v1.uspp.F.UPF
     MD5 check sum: 30c4dcd161f5d35cd49bb5239c51a633
     Pseudo is Ultrasoft + core correction, Zval = 14.0
     Generated by new atomic code, or converted to UPF format
     Using radial grid of  889 points,  6 beta functions with:
                l(1) =   0
                l(2) =   0
                l(3) =   1
                l(4) =   1
                l(5) =   2
                l(6) =   2
     Q(r) pseudized with  6 coefficients,  rinner =    1.000   1.000   1.000
                                                       1.000   1.000

     PseudoPot. # 2 for O  read from file:
     /home/camp/zhonxu/pseudo/o_pbe_v1.01.uspp.F.UPF
     MD5 check sum: 2bcb18d16ea4b960afae9ec6d52f22d2
     Pseudo is Ultrasoft + core correction, Zval =  6.0
     Generated by new atomic code, or converted to UPF format
     Using radial grid of  737 points,  5 beta functions with:
                l(1) =   0
                l(2) =   0
                l(3) =   1
                l(4) =   1
                l(5) =   2
     Q(r) pseudized with  8 coefficients,  rinner =    0.900   0.900   0.900
                                                       0.900   0.900

     PseudoPot. # 3 for O  read from file:
     /home/camp/zhonxu/pseudo/o_pbe_v1.01.uspp.F.UPF
     MD5 check sum: 2bcb18d16ea4b960afae9ec6d52f22d2
     Pseudo is Ultrasoft + core correction, Zval =  6.0
     Generated by new atomic code, or converted to UPF format
     Using radial grid of  737 points,  5 beta functions with:
                l(1) =   0
                l(2) =   0
                l(3) =   1
                l(4) =   1
                l(5) =   2
     Q(r) pseudized with  8 coefficients,  rinner =    0.900   0.900   0.900
                                                       0.900   0.900

     atomic species   valence    mass     pseudopotential
        Mo0           14.00    95.94000     Mo( 1.00)
        O1             6.00    15.99940     O ( 1.00)
        O2             6.00    15.99940     O ( 1.00)

     Starting magnetic structure
     atomic species   magnetization
        Mo0          0.000
        O1           0.000
        O2           0.000

     Simplified LDA+U calculation (l_max = 2) with parameters (eV):
     atomic species    L          U    alpha       J0     beta
        Mo0            2     0.0000   0.0000   0.0000   0.0000
        O1             1     0.0000  -0.1500   0.0000   0.0000
        O2             1     0.0000   0.0000   0.0000   0.0000

      4 Sym. Ops. (no inversion) found

   Cartesian axes

     site n.     atom                  positions (alat units)
         1           Mo0 tau(   1) = (  -0.1400000  -0.1400000   0.0000000  )
         2           Mo0 tau(   2) = (   0.1100000   0.1100000   0.1378788  )
         3           Mo0 tau(   3) = (  -0.1400000  -0.1400000   0.2757576  )
         4           Mo0 tau(   4) = (   0.1100000   0.1100000   0.4136364  )
         5           Mo0 tau(   5) = (  -0.1400000   0.3600000   0.0000000  )
         6           Mo0 tau(   6) = (   0.1100000   0.6100000   0.1378788  )
         7           Mo0 tau(   7) = (  -0.1400000   0.3600000   0.2757576  )
         8           Mo0 tau(   8) = (   0.1100000   0.6100000   0.4136364  )
         9           Mo0 tau(   9) = (   0.3600000  -0.1400000   0.0000000  )
        10           Mo0 tau(  10) = (   0.6100000   0.1100000   0.1378788  )
        11           Mo0 tau(  11) = (   0.3600000  -0.1400000   0.2757576  )
        12           Mo0 tau(  12) = (   0.6100000   0.1100000   0.4136364  )
        13           Mo0 tau(  13) = (   0.3600000   0.3600000   0.0000000  )
        14           Mo0 tau(  14) = (   0.6100000   0.6100000   0.1378788  )
        15           Mo0 tau(  15) = (   0.3600000   0.3600000   0.2757576  )
        16           Mo0 tau(  16) = (   0.6100000   0.6100000   0.4136364  )
        17           O1  tau(  17) = (   0.0000000   0.0000000   0.0000000  )
        18           O2  tau(  18) = (  -0.2800000  -0.2800000   0.0000000  )
        19           O2  tau(  19) = (   0.2500000  -0.0300000   0.1378788  )
        20           O2  tau(  20) = (  -0.0300000   0.2500000   0.1378788  )
        21           O2  tau(  21) = (   0.0000000   0.0000000   0.2757576  )
        22           O2  tau(  22) = (  -0.2800000  -0.2800000   0.2757576  )
        23           O2  tau(  23) = (   0.2500000  -0.0300000   0.4136364  )
        24           O2  tau(  24) = (  -0.0300000   0.2500000   0.4136364  )
        25           O2  tau(  25) = (   0.0000000   0.5000000   0.0000000  )
        26           O2  tau(  26) = (  -0.2800000   0.2200000   0.0000000  )
        27           O2  tau(  27) = (   0.2500000   0.4700000   0.1378788  )
        28           O2  tau(  28) = (  -0.0300000   0.7500000   0.1378788  )
        29           O2  tau(  29) = (   0.0000000   0.5000000   0.2757576  )
        30           O2  tau(  30) = (  -0.2800000   0.2200000   0.2757576  )
        31           O2  tau(  31) = (   0.2500000   0.4700000   0.4136364  )
        32           O2  tau(  32) = (  -0.0300000   0.7500000   0.4136364  )
        33           O2  tau(  33) = (   0.5000000   0.0000000   0.0000000  )
        34           O2  tau(  34) = (   0.2200000  -0.2800000   0.0000000  )
        35           O2  tau(  35) = (   0.7500000  -0.0300000   0.1378788  )
        36           O2  tau(  36) = (   0.4700000   0.2500000   0.1378788  )
        37           O2  tau(  37) = (   0.5000000   0.0000000   0.2757576  )
        38           O2  tau(  38) = (   0.2200000  -0.2800000   0.2757576  )
        39           O2  tau(  39) = (   0.7500000  -0.0300000   0.4136364  )
        40           O2  tau(  40) = (   0.4700000   0.2500000   0.4136364  )
        41           O2  tau(  41) = (   0.5000000   0.5000000   0.0000000  )
        42           O2  tau(  42) = (   0.2200000   0.2200000   0.0000000  )
        43           O2  tau(  43) = (   0.7500000   0.4700000   0.1378788  )
        44           O2  tau(  44) = (   0.4700000   0.7500000   0.1378788  )
        45           O2  tau(  45) = (   0.5000000   0.5000000   0.2757576  )
        46           O2  tau(  46) = (   0.2200000   0.2200000   0.2757576  )
        47           O2  tau(  47) = (   0.7500000   0.4700000   0.4136364  )
        48           O2  tau(  48) = (   0.4700000   0.7500000   0.4136364  )

     number of k points=    42  Methfessel-Paxton smearing, width (Ry)=  0.0100
                       cart. coord. in units 2pi/alat
        k(    1) = (   0.0000000   0.0000000   0.0000000), wk =   0.0156250
        k(    2) = (   0.0000000   0.0000000   0.4532967), wk =   0.0312500
        k(    3) = (   0.0000000   0.0000000  -0.9065934), wk =   0.0156250
        k(    4) = (   0.0000000   0.2500000   0.0000000), wk =   0.0625000
        k(    5) = (   0.0000000   0.2500000   0.4532967), wk =   0.1250000
        k(    6) = (   0.0000000   0.2500000  -0.9065934), wk =   0.0625000
        k(    7) = (   0.0000000  -0.5000000   0.0000000), wk =   0.0312500
        k(    8) = (   0.0000000  -0.5000000   0.4532967), wk =   0.0625000
        k(    9) = (   0.0000000  -0.5000000  -0.9065934), wk =   0.0312500
        k(   10) = (   0.2500000   0.2500000   0.0000000), wk =   0.0312500
        k(   11) = (   0.2500000   0.2500000   0.4532967), wk =   0.0625000
        k(   12) = (   0.2500000   0.2500000  -0.9065934), wk =   0.0312500
        k(   13) = (   0.2500000  -0.5000000   0.0000000), wk =   0.0625000
        k(   14) = (   0.2500000  -0.5000000   0.4532967), wk =   0.1250000
        k(   15) = (   0.2500000  -0.5000000  -0.9065934), wk =   0.0625000
        k(   16) = (  -0.5000000  -0.5000000   0.0000000), wk =   0.0156250
        k(   17) = (  -0.5000000  -0.5000000   0.4532967), wk =   0.0312500
        k(   18) = (  -0.5000000  -0.5000000  -0.9065934), wk =   0.0156250
        k(   19) = (   0.2500000  -0.2500000   0.0000000), wk =   0.0312500
        k(   20) = (   0.2500000  -0.2500000   0.4532967), wk =   0.0625000
        k(   21) = (   0.2500000  -0.2500000  -0.9065934), wk =   0.0312500
        k(   22) = (   0.0000000   0.0000000   0.0000000), wk =   0.0156250
        k(   23) = (   0.0000000   0.0000000   0.4532967), wk =   0.0312500
        k(   24) = (   0.0000000   0.0000000  -0.9065934), wk =   0.0156250
        k(   25) = (   0.0000000   0.2500000   0.0000000), wk =   0.0625000
        k(   26) = (   0.0000000   0.2500000   0.4532967), wk =   0.1250000
        k(   27) = (   0.0000000   0.2500000  -0.9065934), wk =   0.0625000
        k(   28) = (   0.0000000  -0.5000000   0.0000000), wk =   0.0312500
        k(   29) = (   0.0000000  -0.5000000   0.4532967), wk =   0.0625000
        k(   30) = (   0.0000000  -0.5000000  -0.9065934), wk =   0.0312500
        k(   31) = (   0.2500000   0.2500000   0.0000000), wk =   0.0312500
        k(   32) = (   0.2500000   0.2500000   0.4532967), wk =   0.0625000
        k(   33) = (   0.2500000   0.2500000  -0.9065934), wk =   0.0312500
        k(   34) = (   0.2500000  -0.5000000   0.0000000), wk =   0.0625000
        k(   35) = (   0.2500000  -0.5000000   0.4532967), wk =   0.1250000
        k(   36) = (   0.2500000  -0.5000000  -0.9065934), wk =   0.0625000
[...]
    eigenvectors:
  0.000  0.000  1.000
  0.500  0.500  0.000
  0.500  0.500  0.000
    occupations:
  0.903 -0.000 -0.000
 -0.000  0.901  0.001
 -0.000  0.001  0.901
   spin  2
    eigenvalues:
  0.900  0.902  0.903
    eigenvectors:
  0.000  0.000  1.000
  0.500  0.500  0.000
  0.500  0.500  0.000
    occupations:
  0.903 -0.000 -0.000
 -0.000  0.901  0.001
 -0.000  0.001  0.901
atomic mag. moment =     0.000000
atom   42   Tr[ns(na)] (up, down, total) =   2.70509  2.70509  5.41019
   spin  1
    eigenvalues:
  0.900  0.902  0.903
    eigenvectors:
  0.000  0.000  1.000
  0.500  0.500  0.000
  0.500  0.500  0.000
    occupations:
  0.903 -0.000 -0.000
 -0.000  0.901  0.001
 -0.000  0.001  0.901
   spin  2
    eigenvalues:
  0.900  0.902  0.903
    eigenvectors:
  0.000  0.000  1.000
  0.500  0.500  0.000
  0.500  0.500  0.000
    occupations:
  0.903 -0.000 -0.000
 -0.000  0.901  0.001
 -0.000  0.001  0.901
atomic mag. moment =     0.000000
atom   43   Tr[ns(na)] (up, down, total) =   2.70509  2.70509  5.41019
   spin  1
    eigenvalues:
  0.900  0.902  0.903
    eigenvectors:
  0.000  0.000  1.000
  0.500  0.500  0.000
  0.500  0.500  0.000
    occupations:
  0.903 -0.000 -0.000
 -0.000  0.901 -0.001
 -0.000 -0.001  0.901
   spin  2
    eigenvalues:
  0.900  0.902  0.903
    eigenvectors:
  0.000  0.000  1.000
  0.500  0.500  0.000
  0.500  0.500  0.000
    occupations:
  0.903 -0.000 -0.000
 -0.000  0.901 -0.001
 -0.000 -0.001  0.901
atomic mag. moment =    -0.000000
atom   44   Tr[ns(na)] (up, down, total) =   2.70509  2.70509  5.41019
   spin  1
    eigenvalues:
  0.900  0.902  0.903
    eigenvectors:
  0.000  0.000  1.000
  0.500  0.500  0.000
  0.500  0.500  0.000
    occupations:
  0.903 -0.000 -0.000
 -0.000  0.901 -0.001
 -0.000 -0.001  0.901
   spin  2
    eigenvalues:
  0.900  0.902  0.903
    eigenvectors:
  0.000  0.000  1.000
  0.500  0.500  0.000
  0.500  0.500  0.000
    occupations:
  0.903 -0.000 -0.000
 -0.000  0.901 -0.001
 -0.000 -0.001  0.901
atomic mag. moment =    -0.000000
atom   45   Tr[ns(na)] (up, down, total) =   2.70511  2.70511  5.41021
   spin  1
    eigenvalues:
  0.900  0.902  0.903
    eigenvectors:
  0.000  0.000  1.000
  0.500  0.500  0.000
  0.500  0.500  0.000
    occupations:
  0.903 -0.000 -0.000
 -0.000  0.901  0.001
 -0.000  0.001  0.901
   spin  2
    eigenvalues:
  0.900  0.902  0.903
    eigenvectors:
  0.000  0.000  1.000
  0.500  0.500  0.000
  0.500  0.500  0.000
    occupations:
  0.903 -0.000 -0.000
 -0.000  0.901  0.001
 -0.000  0.001  0.901
atomic mag. moment =     0.000000
atom   46   Tr[ns(na)] (up, down, total) =   2.70512  2.70512  5.41025
   spin  1
    eigenvalues:
  0.900  0.902  0.903
    eigenvectors:
  0.000  0.000  1.000
  0.500  0.500  0.000
  0.500  0.500  0.000
    occupations:
  0.903 -0.000 -0.000
 -0.000  0.901  0.001
 -0.000  0.001  0.901
   spin  2
    eigenvalues:
  0.900  0.902  0.903
    eigenvectors:
  0.000  0.000  1.000
  0.500  0.500  0.000
  0.500  0.500  0.000
    occupations:
  0.903 -0.000 -0.000
 -0.000  0.901  0.001
 -0.000  0.001  0.901
atomic mag. moment =     0.000000
atom   47   Tr[ns(na)] (up, down, total) =   2.70509  2.70509  5.41019
   spin  1
    eigenvalues:
  0.900  0.902  0.903
    eigenvectors:
  0.000  0.000  1.000
  0.500  0.500  0.000
  0.500  0.500  0.000
    occupations:
  0.903  0.000  0.000
  0.000  0.901 -0.001
  0.000 -0.001  0.901
   spin  2
    eigenvalues:
  0.900  0.902  0.903
    eigenvectors:
  0.000  0.000  1.000
  0.500  0.500  0.000
  0.500  0.500  0.000
    occupations:
  0.903  0.000  0.000
  0.000  0.901 -0.001
  0.000 -0.001  0.901
atomic mag. moment =    -0.000000
atom   48   Tr[ns(na)] (up, down, total) =   2.70509  2.70509  5.41019
   spin  1
    eigenvalues:
  0.900  0.902  0.903
    eigenvectors:
  0.000  0.000  1.000
  0.500  0.500  0.000
  0.500  0.500  0.000
    occupations:
  0.903  0.000  0.000
  0.000  0.901 -0.001
  0.000 -0.001  0.901
   spin  2
    eigenvalues:
  0.900  0.902  0.903
    eigenvectors:
  0.000  0.000  1.000
  0.500  0.500  0.000
  0.500  0.500  0.000
    occupations:
  0.903  0.000  0.000
  0.000  0.901 -0.001
  0.000 -0.001  0.901
atomic mag. moment =    -0.000000
N of occupied +U levels = 266.2310172
 --- exit write_ns ---

 ------ SPIN UP ------------

          k = 0.0000 0.0000 0.0000 ( 15465 PWs)   bands (ev):

   -49.3536 -49.3523 -49.3494 -49.3483 -49.3483 -49.3479 -49.3476 -49.3438
   -49.2344 -49.2341 -49.2316 -49.2315 -49.2314 -49.2311 -49.2310 -49.2307
   -23.9122 -23.9121 -23.9112 -23.9108 -23.9057 -23.9055 -23.9049 -23.9046
   -23.6576 -23.6574 -23.6507 -23.6503 -23.6255 -23.6245 -23.6241 -23.6237
   -23.5186 -23.5176 -23.5168 -23.5163 -23.5117 -23.5106 -23.5104 -23.5101
   -23.4286 -23.4282 -23.4275 -23.4272 -23.3991 -23.3991 -23.3942 -23.3942
   -23.2221 -23.2209 -23.2193 -23.2190 -23.2189 -23.2188 -23.2185 -23.2183
   -22.8813 -22.8698 -22.8697 -22.8688 -22.8687 -22.8684 -22.8681 -22.8567
    -7.2163  -6.7911  -6.7873  -6.4812  -6.4805  -6.4803  -6.4792  -6.4760
    -6.4717  -6.4717  -6.4716  -6.4579  -6.0628  -6.0603  -6.0414  -6.0413
    -6.0411  -6.0333  -6.0140  -6.0084  -5.8514  -5.8472  -5.7934  -5.7888
    -5.6631  -5.6586  -5.5876  -5.5830  -5.3061  -5.3060  -5.3059  -5.2967
     4.6056   4.7316   4.7372   4.9296   5.1091   5.1134   5.1148   5.1151
     5.3205   5.3275   5.3282   5.3297   5.4048   5.8038   5.8073   5.8942
     5.9006   5.9019   5.9019   5.9343   5.9364   6.1418   6.1464   6.5036
     6.5069   6.5531   6.5589   6.5611   6.5613   6.6912   6.6945   6.7624
     6.7661   6.7992   6.8023   7.0504   7.0558   7.0587   7.0591   7.0664
     7.0670   7.5787   7.5878   7.5886   7.5893   7.8163   7.8208   7.8274
     7.8307   7.8668   7.8697   8.0507   8.0564   8.0566   8.0567   8.0827
     8.0839   8.2207   8.2229   8.3291   8.3340   8.5001   8.5050   8.5060
     8.5063   8.7783   8.7840   8.7840   8.7852   8.9921   8.9925   9.0456
     9.0495   9.3927   9.3942   9.5170   9.5235   9.5235   9.5238   9.6253
     9.6324   9.6326   9.6331   9.6893   9.8604   9.8624   9.9817   9.9895
     9.9899   9.9899  10.0007  10.0009  10.0475  10.0509  10.3660  10.4181
    10.5436  10.5442  10.7439  10.7674  11.3702  11.3705  11.3707  11.3708
    11.7945  11.7946  11.7946  11.7947  12.4364  13.0131  13.0131  13.5128
    13.5135  13.5755  13.5755  13.6965  13.6966  13.7305  13.7306  13.8778
    13.8785  14.4133  14.4146  14.4148  14.4149  14.4331  14.4340  14.4342
    14.4342  14.5803  14.5806  14.5809  14.5809  14.8968  14.8973  15.8674
    15.8676  15.8676  15.8683  15.8792  16.0422  16.0424  16.0428  16.0908
    16.0912  16.4657  16.4658  16.4660  16.4660  16.8939  16.8943  16.8944
    16.8945  17.2688  17.2702  17.5041  17.5043  17.5504  17.5505  17.5640
    17.5642  17.6104  17.6112  17.6113  17.6121  17.9026  17.9031  17.9171
    17.9695  17.9701  18.2763  18.2765  19.9299  19.9301  19.9302  19.9303
    20.1893  20.6907  20.6909  20.6926  20.6947  21.7592  21.7597  22.1101
    22.1108  22.5537  22.5538  22.7212  22.7212  22.7227  22.7229  22.8053
    22.8056  23.2874  23.2880  23.3176  23.3181  23.9781  23.9784  23.9784
    23.9791  24.5958  24.5960  24.9235  24.9241  24.9245  24.9247  25.0182
    25.3170  25.3171  25.3174  25.3176  25.5592  25.5600  25.5612  25.5617
    25.6000  26.1228  26.1234  26.3719  26.3728  26.3837  26.3840  26.3966
    27.6377  27.6382  27.7731  27.7735  27.7736  27.7748  28.0306  28.0306
    28.0314  28.0324  28.2856  28.2868  28.5733  28.5741  28.6977  28.6983
    28.8997  29.0517  29.0522  29.0648  29.0648  29.0919  29.0924  29.0933
    29.0938  29.2026  29.2026  30.0237  30.0238  30.0255  30.0256  30.5547
    30.5550  30.5556  30.5566  31.5839  31.5839  31.7246  31.7249  31.7385
    31.7395  31.8689  31.8694  31.8701  31.8702  32.0341  32.3753  32.3758
    32.4236  32.4242  32.7580  32.7583  32.9182  32.9183  33.7436  33.7442
    33.7444  33.7455  33.9091  34.1435  34.1443  34.1495  34.1499  34.1506
    34.1507  34.1872  34.1873  34.1892  34.1911  34.6265  34.6273  34.6826
    34.9050  34.9054  34.9061  34.9066  35.1350  35.1358  35.2514  35.2520
    35.9103  35.9949  35.9953  35.9962  35.9970  36.1301  36.1304  36.1362
    36.1365  36.2688  36.2699  36.3684  36.3690  36.8773  36.8782  37.1100
    37.1109  37.2849  37.2849  37.2852  37.2872  37.2988  37.4697  37.4701
    37.4701  37.4713  38.0479  38.0487  38.2069  38.2073  38.2074  38.2075
    38.4473  38.5733  38.5735  38.5905  38.5913  38.5918  38.5918  39.3415
    39.3422  39.8785  39.8801  40.6469  40.6478  40.7079  40.7081  40.7083
    40.7106  40.8796  40.8803  41.0651  41.0656  41.0659  41.0660  41.2046
    41.2048  41.2063  41.2064  41.3125  41.8117  41.8118  41.8131  41.8142
    42.1305  42.1311  42.1394  42.4875  42.4880  42.6062  42.6063  42.6068
    42.6085  42.6736  42.6737  42.7397  42.7407  43.1074  43.1079  43.1288
[...]
    44.6089  44.6556  44.6562  44.6566  44.6579  44.9899  44.9905  45.0051
    45.0063  45.1677  45.1677  45.1687  45.1693  45.2590  45.2596  45.2599
    45.2606  45.3325  45.3333  45.5076  45.5083  45.5588  45.5597  45.7136
    45.7143  45.7588  45.7602  45.7618  45.7625  45.9476  45.9490  46.2437
    46.3766  46.3768  46.3769  46.3793  46.6270  46.6279  46.6953  46.6962
    46.7342  46.7345  46.7346  46.7367  46.8116  46.8118  46.8126  46.8145
    47.3970  47.3979  47.7439  47.7448  48.0493  48.0494  48.1468  48.1478
    48.4695  48.5437  48.5439  48.5445  48.5454  48.8539  48.8539  48.8542
    48.8550  48.9041  48.9047  48.9051  48.9053  49.0988  49.0990  49.3132
    49.3137  49.4162  49.4165  49.4167  49.4171  49.4518  49.4527  49.7069
    49.7070  49.7075  49.7088  49.9792  50.0187  50.1727  50.1736  50.3583
    50.3584  50.3588  50.3589  50.4437  50.6697  50.6699  50.6700  50.6721
    50.8656  50.8663  51.1689  51.1691  51.1707  51.1721  51.3403  51.3407
    51.3793  51.3802  51.6874  51.9751  51.9755  52.4315  52.4317  52.4321
    52.4325  52.6370  52.6373  52.6377  52.6378  52.7775  52.7782  52.8539

[...]

          k =-0.5000-0.5000 0.0000 ( 15388 PWs)   bands (ev):

[...]

 ------ SPIN DOWN ----------

[...]

          k =-0.5000-0.5000-0.9066 ( 15464 PWs)   bands (ev):

[...]

          k = 0.2500-0.2500-0.9066 ( 15408 PWs)   bands (ev):

   -49.2966 -49.2944 -49.2941 -49.2922 -49.2920 -49.2913 -49.2909 -49.2907
   -49.2904 -49.2900 -49.2892 -49.2890 -49.2889 -49.2888 -49.2875 -49.2872
   -23.5874 -23.5853 -23.5834 -23.5832 -23.5829 -23.5826 -23.5812 -23.5812
   -23.5808 -23.5808 -23.5799 -23.5795 -23.5794 -23.5781 -23.5780 -23.5779
   -23.4089 -23.4089 -23.4056 -23.4054 -23.4045 -23.4032 -23.4030 -23.4030
   -23.3999 -23.3994 -23.3976 -23.3968 -23.3963 -23.3962 -23.3960 -23.3960
   -23.3236 -23.3231 -23.3220 -23.3220 -23.3196 -23.3169 -23.3168 -23.3162
   -23.3161 -23.3160 -23.3157 -23.3155 -23.3120 -23.3119 -23.3102 -23.3102
    -6.5857  -6.5817  -6.4348  -6.4348  -6.4347  -6.4287  -6.3544  -6.3492
    -6.2728  -6.2711  -6.2436  -6.2435  -6.2434  -6.2334  -6.1241  -6.1203
    -5.8415  -5.8370  -5.8339  -5.8337  -5.8137  -5.8136  -5.8135  -5.8135
    -5.8068  -5.8066  -5.8064  -5.8018  -5.7980  -5.7906  -5.7903  -5.7723
     5.4390   5.4434   5.4530   5.4639   5.4658   5.4659   5.5322   5.5324
     5.5329   5.5332   5.5363   5.5364   5.6844   5.6947   5.7498   5.7557
     6.1374   6.1409   6.1497   6.1522   6.4287   6.4358   6.4368   6.4369
     6.5125   6.5144   6.5847   6.5884   6.6889   6.6894   6.6967   6.7012
     6.7037   6.7042   7.1486   7.1496   7.1544   7.1545   7.3277   7.3336
     7.3336   7.3351   7.3462   7.3463   7.4595   7.4605   7.5777   7.5793
     7.5800   7.5814   7.6912   7.6968   7.8223   7.8335   7.8430   7.8474
     8.3235   8.3249   8.3305   8.3305   8.4336   8.4352   8.4789   8.4803
     8.5446   8.5457   8.5883   8.5913   8.5958   8.5960   8.5967   8.5975
     8.7043   8.7044   8.8701   8.8702   8.8725   8.8733   9.1309   9.1324
     9.3193   9.3258   9.5496   9.5547   9.6345   9.6363   9.6376   9.6378
     9.8661   9.8661  10.1084  10.1156  10.1157  10.1158  10.3600  10.3631
    12.5128  12.5129  12.5259  12.5263  12.5265  12.5266  12.7016  12.7024
    12.7911  12.7913  12.7913  12.7913  12.7918  12.7921  12.8628  12.8633
    12.9266  12.9269  13.0328  13.0328  13.2281  13.2284  13.2286  13.2286
    13.5311  13.5315  13.5931  13.5933  13.7574  13.7574  13.8040  13.8044
    13.8047  13.8047  14.2506  14.2508  14.3258  14.3262  14.3265  14.3266
    14.5182  14.5189  14.8263  14.8273  14.8274  14.8274  15.2915  15.2920
    16.0364  16.0370  16.0370  16.0387  16.5904  16.5907  16.7015  16.7019
    16.7386  16.7391  16.7391  16.7392  17.3711  17.3713  17.4504  17.4510
    17.4957  17.4963  17.9909  17.9910  18.2174  18.2180  18.2182  18.2184
    18.5445  18.5447  19.1359  19.1365  19.1368  19.1371  19.6122  19.6124
    20.4029  20.4040  21.4496  21.4502  21.4515  21.4537  21.9735  21.9751
    22.6413  22.6430  22.7895  22.7898  22.7913  22.7943  23.7392  23.7410
    24.1157  24.1169  24.1589  24.1604  24.7067  24.7081  24.7786  24.7795
    24.7804  24.7820  25.1760  25.1762  25.1772  25.1782  25.7898  25.7911
    26.0492  26.0503  26.2760  26.2770  26.4825  26.4828  26.4830  26.4848
    27.1322  27.1323  27.2288  27.2292  27.3085  27.3091  27.3108  27.3115
    27.5022  27.5027  27.5039  27.5041  27.6935  27.6941  27.6955  27.6959
    27.8598  27.8600  27.8649  27.8660  27.9060  27.9063  28.3568  28.3575
    28.4256  28.4266  28.4269  28.4278  28.8424  28.8438  29.2883  29.2890
    29.6685  29.6688  30.0974  30.0974  30.0978  30.0979  30.1293  30.1296
    30.2464  30.2471  30.4211  30.4216  30.8240  30.8253  31.2934  31.2934
    31.2941  31.2945  31.5169  31.5170  31.5174  31.5184  32.3999  32.4003
    32.4003  32.4007  32.4272  32.4278  32.7178  32.7187  32.8268  32.8272
    33.4957  33.4975  33.8881  33.8883  34.0473  34.0474  34.0476  34.0486
    34.6868  34.6880  35.0288  35.0294  35.0295  35.0299  35.2194  35.2195
    35.2338  35.2343  35.2350  35.2362  35.4788  35.4792  35.4794  35.4802
    35.4831  35.4837  35.9583  35.9589  36.2091  36.2094  36.3121  36.3131
    36.5614  36.5617  36.5628  36.5634  36.8233  36.8238  36.8766  36.8774
    37.3327  37.3334  37.3955  37.3975  37.6829  37.6839  37.7387  37.7388
    37.7614  37.7616  37.7621  37.7629  37.9144  37.9146  37.9148  37.9152
    37.9961  37.9970  38.5118  38.5122  38.8007  38.8015  38.8016  38.8016
    38.9286  38.9297  39.3533  39.3537  39.3542  39.3545  39.8685  39.8698
    40.2271  40.2285  40.2899  40.2901  40.4454  40.4460  40.4463  40.4465
    40.7386  40.7389  41.4094  41.4099  41.4111  41.4112  41.5569  41.5569
    41.5585  41.5589  41.8638  41.8641  41.8646  41.8671  42.1758  42.1759
    42.2112  42.2114  42.2115  42.2122  42.2381  42.2384  42.3415  42.3419
[...]
    44.7877  44.7879  44.9703  44.9707  44.9717  44.9718  45.2829  45.2831
    45.6116  45.6118  45.6214  45.6226  45.6663  45.6668  45.8507  45.8511
    45.8511  45.8519  46.1616  46.1618  46.2693  46.2697  46.2704  46.2706
    46.4977  46.4977  46.7305  46.7315  46.7710  46.7720  46.8407  46.8411
    46.8417  46.8423  46.9008  46.9008  46.9105  46.9107  46.9113  46.9132
    47.0595  47.0599  47.3952  47.3967  47.4493  47.4497  47.4856  47.4858
    47.5617  47.5620  47.5621  47.5640  47.7194  47.7195  47.8536  47.8543
    47.8547  47.8568  48.0616  48.0619  48.0624  48.0626  48.1225  48.1230
    48.3233  48.3235  48.3242  48.3246  48.4787  48.4806  48.8750  48.8757
    48.9338  48.9343  48.9349  48.9353  49.4591  49.4601  49.7943  49.7945
    49.7947  49.7951  49.9261  49.9264  50.0024  50.0032  50.1195  50.1198
    50.1207  50.1215  50.4444  50.4445  50.5558  50.5562  50.5772  50.5777
    50.7635  50.7637  50.9143  50.9145  50.9153  50.9155  51.2848  51.2854
    51.4069  51.4069  51.4073  51.4092  51.7599  51.7616  51.8330  51.8331
    52.2034  52.2034  52.2042  52.2046  52.3705  52.3712  52.6441  52.6443

     the Fermi energy is    12.9457 ev

!    total energy              =   -3262.66187532 Ry
     Harris-Foulkes estimate   =   -3262.66187603 Ry
     estimated scf accuracy    <       0.00000074 Ry

     The total energy is the sum of the following terms:

     one-electron contribution =    -920.59437697 Ry
     hartree contribution      =     690.16406233 Ry
     xc contribution           =    -539.17602367 Ry
     ewald contribution        =   -2492.99511507 Ry
     Hubbard energy            =      -0.05973744 Ry
     smearing contrib. (-TS)   =      -0.00068452 Ry

     total magnetization       =    -0.00 Bohr mag/cell
     absolute magnetization    =     0.00 Bohr mag/cell

     convergence has been achieved in  10 iterations

     Writing output data file pwscf.save

     General routines

     Parallel routines
     Hubbard U routines

   This run was terminated on:  18:37:41  10Feb2014

   JOB DONE.