     Program PWSCF v.5.0.2 (svn rev. 9656) starts on 11Feb2014 at  7: 8: 0

     Current dimensions of program PWSCF are:
     Max number of different atomic species (ntypx) = 10
     Max number of k-points (npk) =  40000
     Max angular momentum in pseudopotentials (lmaxx) =  3
     Reading input from alpha_0.15/alpha_0.15.in
Warning: card &IONS ignored
Warning: card / ignored
Warning: card &CELL ignored
Warning: card / ignored

     Subspace diagonalization in iterative solution of the eigenvalue problem:
     a serial algorithm will be used

     bravais-lattice index     =            0
     lattice parameter (alat)  =      18.7083  a.u.
     unit-cell volume          =    3611.2673 (a.u.)^3
     number of atoms/cell      =           48
     number of atomic types    =            3
     number of electrons       =       416.00
     number of Kohn-Sham states=          624
     kinetic-energy cutoff     =      40.0000  Ry
     charge density cutoff     =     500.0000  Ry
     convergence threshold     =      1.0E-06
     mixing beta               =       0.7000
     number of iterations used =            8  plain     mixing
     Exchange-correlation      = SLA  PW   PBE  PBE ( 1 4 3 4 0)
     EXX-fraction              =        0.00

     celldm(1)=  18.708289  celldm(2)=   0.000000  celldm(3)=   0.000000
     celldm(4)=   0.000000  celldm(5)=   0.000000  celldm(6)=   0.000000

     crystal axes: (cart. coord. in units of alat)
               a(1) = (   1.000000   0.000000   0.000000 )
               a(2) = (   0.000000   1.000000   0.000000 )
               a(3) = (   0.000000   0.000000   0.551515 )

     reciprocal axes: (cart. coord. in units 2 pi/alat)
               b(1) = (  1.000000  0.000000  0.000000 )
               b(2) = (  0.000000  1.000000  0.000000 )
               b(3) = (  0.000000  0.000000  1.813187 )

     PseudoPot. # 1 for Mo read from file:
     /home/camp/zhonxu/pseudo/mo_pbe_v1.uspp.F.UPF
     MD5 check sum: 30c4dcd161f5d35cd49bb5239c51a633
     Pseudo is Ultrasoft + core correction, Zval = 14.0
     Generated by new atomic code, or converted to UPF format
     Using radial grid of  889 points,  6 beta functions with:
                l(1) =   0
                l(2) =   0
                l(3) =   1
                l(4) =   1
                l(5) =   2
                l(6) =   2
     Q(r) pseudized with  6 coefficients,  rinner =    1.000   1.000   1.000
                                                       1.000   1.000

     PseudoPot. # 2 for O  read from file:
     /home/camp/zhonxu/pseudo/o_pbe_v1.01.uspp.F.UPF
     MD5 check sum: 2bcb18d16ea4b960afae9ec6d52f22d2
     Pseudo is Ultrasoft + core correction, Zval =  6.0
     Generated by new atomic code, or converted to UPF format
     Using radial grid of  737 points,  5 beta functions with:
                l(1) =   0
                l(2) =   0
                l(3) =   1
                l(4) =   1
                l(5) =   2
     Q(r) pseudized with  8 coefficients,  rinner =    0.900   0.900   0.900
                                                       0.900   0.900

     PseudoPot. # 3 for O  read from file:
     /home/camp/zhonxu/pseudo/o_pbe_v1.01.uspp.F.UPF
     MD5 check sum: 2bcb18d16ea4b960afae9ec6d52f22d2
     Pseudo is Ultrasoft + core correction, Zval =  6.0
     Generated by new atomic code, or converted to UPF format
     Using radial grid of  737 points,  5 beta functions with:
                l(1) =   0
                l(2) =   0
                l(3) =   1
                l(4) =   1
                l(5) =   2
     Q(r) pseudized with  8 coefficients,  rinner =    0.900   0.900   0.900
                                                       0.900   0.900

     atomic species   valence    mass     pseudopotential
        Mo0           14.00    95.94000     Mo( 1.00)
        O1             6.00    15.99940     O ( 1.00)
        O2             6.00    15.99940     O ( 1.00)

     Starting magnetic structure
     atomic species   magnetization
        Mo0          0.000
        O1           0.000
        O2           0.000

     Simplified LDA+U calculation (l_max = 2) with parameters (eV):
     atomic species    L          U    alpha       J0     beta
        Mo0            2     0.0000   0.0000   0.0000   0.0000
        O1             1     0.0000   0.1500   0.0000   0.0000
        O2             1     0.0000   0.0000   0.0000   0.0000

      4 Sym. Ops. (no inversion) found

   Cartesian axes

     site n.     atom                  positions (alat units)
         1           Mo0 tau(   1) = (  -0.1400000  -0.1400000   0.0000000  )
         2           Mo0 tau(   2) = (   0.1100000   0.1100000   0.1378788  )
         3           Mo0 tau(   3) = (  -0.1400000  -0.1400000   0.2757576  )
         4           Mo0 tau(   4) = (   0.1100000   0.1100000   0.4136364  )
         5           Mo0 tau(   5) = (  -0.1400000   0.3600000   0.0000000  )
         6           Mo0 tau(   6) = (   0.1100000   0.6100000   0.1378788  )
         7           Mo0 tau(   7) = (  -0.1400000   0.3600000   0.2757576  )
         8           Mo0 tau(   8) = (   0.1100000   0.6100000   0.4136364  )
         9           Mo0 tau(   9) = (   0.3600000  -0.1400000   0.0000000  )
        10           Mo0 tau(  10) = (   0.6100000   0.1100000   0.1378788  )
        11           Mo0 tau(  11) = (   0.3600000  -0.1400000   0.2757576  )
        12           Mo0 tau(  12) = (   0.6100000   0.1100000   0.4136364  )
        13           Mo0 tau(  13) = (   0.3600000   0.3600000   0.0000000  )
        14           Mo0 tau(  14) = (   0.6100000   0.6100000   0.1378788  )
        15           Mo0 tau(  15) = (   0.3600000   0.3600000   0.2757576  )
        16           Mo0 tau(  16) = (   0.6100000   0.6100000   0.4136364  )
        17           O1  tau(  17) = (   0.0000000   0.0000000   0.0000000  )
        18           O2  tau(  18) = (  -0.2800000  -0.2800000   0.0000000  )
        19           O2  tau(  19) = (   0.2500000  -0.0300000   0.1378788  )
        20           O2  tau(  20) = (  -0.0300000   0.2500000   0.1378788  )
        21           O2  tau(  21) = (   0.0000000   0.0000000   0.2757576  )
        22           O2  tau(  22) = (  -0.2800000  -0.2800000   0.2757576  )
        23           O2  tau(  23) = (   0.2500000  -0.0300000   0.4136364  )
        24           O2  tau(  24) = (  -0.0300000   0.2500000   0.4136364  )
        25           O2  tau(  25) = (   0.0000000   0.5000000   0.0000000  )
        26           O2  tau(  26) = (  -0.2800000   0.2200000   0.0000000  )
        27           O2  tau(  27) = (   0.2500000   0.4700000   0.1378788  )
        28           O2  tau(  28) = (  -0.0300000   0.7500000   0.1378788  )
        29           O2  tau(  29) = (   0.0000000   0.5000000   0.2757576  )
        30           O2  tau(  30) = (  -0.2800000   0.2200000   0.2757576  )
        31           O2  tau(  31) = (   0.2500000   0.4700000   0.4136364  )
        32           O2  tau(  32) = (  -0.0300000   0.7500000   0.4136364  )
        33           O2  tau(  33) = (   0.5000000   0.0000000   0.0000000  )
        34           O2  tau(  34) = (   0.2200000  -0.2800000   0.0000000  )
        35           O2  tau(  35) = (   0.7500000  -0.0300000   0.1378788  )
        36           O2  tau(  36) = (   0.4700000   0.2500000   0.1378788  )
        37           O2  tau(  37) = (   0.5000000   0.0000000   0.2757576  )
        38           O2  tau(  38) = (   0.2200000  -0.2800000   0.2757576  )
        39           O2  tau(  39) = (   0.7500000  -0.0300000   0.4136364  )
        40           O2  tau(  40) = (   0.4700000   0.2500000   0.4136364  )
        41           O2  tau(  41) = (   0.5000000   0.5000000   0.0000000  )
        42           O2  tau(  42) = (   0.2200000   0.2200000   0.0000000  )
        43           O2  tau(  43) = (   0.7500000   0.4700000   0.1378788  )
        44           O2  tau(  44) = (   0.4700000   0.7500000   0.1378788  )
        45           O2  tau(  45) = (   0.5000000   0.5000000   0.2757576  )
        46           O2  tau(  46) = (   0.2200000   0.2200000   0.2757576  )
        47           O2  tau(  47) = (   0.7500000   0.4700000   0.4136364  )
        48           O2  tau(  48) = (   0.4700000   0.7500000   0.4136364  )

     number of k points=    42  Methfessel-Paxton smearing, width (Ry)=  0.0100
                       cart. coord. in units 2pi/alat
        k(    1) = (   0.0000000   0.0000000   0.0000000), wk =   0.0156250
        k(    2) = (   0.0000000   0.0000000   0.4532967), wk =   0.0312500
        k(    3) = (   0.0000000   0.0000000  -0.9065934), wk =   0.0156250
        k(    4) = (   0.0000000   0.2500000   0.0000000), wk =   0.0625000
        k(    5) = (   0.0000000   0.2500000   0.4532967), wk =   0.1250000
        k(    6) = (   0.0000000   0.2500000  -0.9065934), wk =   0.0625000
        k(    7) = (   0.0000000  -0.5000000   0.0000000), wk =   0.0312500
        k(    8) = (   0.0000000  -0.5000000   0.4532967), wk =   0.0625000
        k(    9) = (   0.0000000  -0.5000000  -0.9065934), wk =   0.0312500
        k(   10) = (   0.2500000   0.2500000   0.0000000), wk =   0.0312500
        k(   11) = (   0.2500000   0.2500000   0.4532967), wk =   0.0625000
        k(   12) = (   0.2500000   0.2500000  -0.9065934), wk =   0.0312500
        k(   13) = (   0.2500000  -0.5000000   0.0000000), wk =   0.0625000
        k(   14) = (   0.2500000  -0.5000000   0.4532967), wk =   0.1250000
        k(   15) = (   0.2500000  -0.5000000  -0.9065934), wk =   0.0625000
        k(   16) = (  -0.5000000  -0.5000000   0.0000000), wk =   0.0156250
        k(   17) = (  -0.5000000  -0.5000000   0.4532967), wk =   0.0312500
        k(   18) = (  -0.5000000  -0.5000000  -0.9065934), wk =   0.0156250
        k(   19) = (   0.2500000  -0.2500000   0.0000000), wk =   0.0312500
        k(   20) = (   0.2500000  -0.2500000   0.4532967), wk =   0.0625000
        k(   21) = (   0.2500000  -0.2500000  -0.9065934), wk =   0.0312500
        k(   22) = (   0.0000000   0.0000000   0.0000000), wk =   0.0156250
        k(   23) = (   0.0000000   0.0000000   0.4532967), wk =   0.0312500
        k(   24) = (   0.0000000   0.0000000  -0.9065934), wk =   0.0156250
        k(   25) = (   0.0000000   0.2500000   0.0000000), wk =   0.0625000
        k(   26) = (   0.0000000   0.2500000   0.4532967), wk =   0.1250000
        k(   27) = (   0.0000000   0.2500000  -0.9065934), wk =   0.0625000
        k(   28) = (   0.0000000  -0.5000000   0.0000000), wk =   0.0312500
        k(   29) = (   0.0000000  -0.5000000   0.4532967), wk =   0.0625000
        k(   30) = (   0.0000000  -0.5000000  -0.9065934), wk =   0.0312500
        k(   31) = (   0.2500000   0.2500000   0.0000000), wk =   0.0312500
        k(   32) = (   0.2500000   0.2500000   0.4532967), wk =   0.0625000
        k(   33) = (   0.2500000   0.2500000  -0.9065934), wk =   0.0312500
        k(   34) = (   0.2500000  -0.5000000   0.0000000), wk =   0.0625000
        k(   35) = (   0.2500000  -0.5000000   0.4532967), wk =   0.1250000
        k(   36) = (   0.2500000  -0.5000000  -0.9065934), wk =   0.0625000
[...]
    eigenvectors:
  0.000  0.000  1.000
  0.500  0.500  0.000
  0.500  0.500  0.000
    occupations:
  0.903 -0.000 -0.000
 -0.000  0.901  0.001
 -0.000  0.001  0.901
   spin  2
    eigenvalues:
  0.900  0.902  0.903
    eigenvectors:
  0.000  0.000  1.000
  0.500  0.500  0.000
  0.500  0.500  0.000
    occupations:
  0.903 -0.000 -0.000
 -0.000  0.901  0.001
 -0.000  0.001  0.901
atomic mag. moment =     0.000000
atom   42   Tr[ns(na)] (up, down, total) =   2.70509  2.70509  5.41019
   spin  1
    eigenvalues:
  0.900  0.902  0.903
    eigenvectors:
  0.000  0.000  1.000
  0.500  0.500  0.000
  0.500  0.500  0.000
    occupations:
  0.903 -0.000 -0.000
 -0.000  0.901  0.001
 -0.000  0.001  0.901
   spin  2
    eigenvalues:
  0.900  0.902  0.903
    eigenvectors:
  0.000  0.000  1.000
  0.500  0.500  0.000
  0.500  0.500  0.000
    occupations:
  0.903 -0.000 -0.000
 -0.000  0.901  0.001
 -0.000  0.001  0.901
atomic mag. moment =     0.000000
atom   43   Tr[ns(na)] (up, down, total) =   2.70509  2.70509  5.41018
   spin  1
    eigenvalues:
  0.900  0.902  0.903
    eigenvectors:
  0.000  0.000  1.000
  0.500  0.500  0.000
  0.500  0.500  0.000
    occupations:
  0.903  0.000  0.000
  0.000  0.901 -0.001
  0.000 -0.001  0.901
   spin  2
    eigenvalues:
  0.900  0.902  0.903
    eigenvectors:
  0.000  0.000  1.000
  0.500  0.500  0.000
  0.500  0.500  0.000
    occupations:
  0.903  0.000  0.000
  0.000  0.901 -0.001
  0.000 -0.001  0.901
atomic mag. moment =    -0.000000
atom   44   Tr[ns(na)] (up, down, total) =   2.70509  2.70509  5.41018
   spin  1
    eigenvalues:
  0.900  0.902  0.903
    eigenvectors:
  0.000  0.000  1.000
  0.500  0.500  0.000
  0.500  0.500  0.000
    occupations:
  0.903  0.000  0.000
  0.000  0.901 -0.001
  0.000 -0.001  0.901
   spin  2
    eigenvalues:
  0.900  0.902  0.903
    eigenvectors:
  0.000  0.000  1.000
  0.500  0.500  0.000
  0.500  0.500  0.000
    occupations:
  0.903  0.000  0.000
  0.000  0.901 -0.001
  0.000 -0.001  0.901
atomic mag. moment =    -0.000000
atom   45   Tr[ns(na)] (up, down, total) =   2.70505  2.70505  5.41010
   spin  1
    eigenvalues:
  0.900  0.902  0.903
    eigenvectors:
  0.000  0.000  1.000
  0.500  0.500  0.000
  0.500  0.500  0.000
    occupations:
  0.903 -0.000 -0.000
 -0.000  0.901  0.001
 -0.000  0.001  0.901
   spin  2
    eigenvalues:
  0.900  0.902  0.903
    eigenvectors:
  0.000  0.000  1.000
  0.500  0.500  0.000
  0.500  0.500  0.000
    occupations:
  0.903 -0.000 -0.000
 -0.000  0.901  0.001
 -0.000  0.001  0.901
atomic mag. moment =     0.000000
atom   46   Tr[ns(na)] (up, down, total) =   2.70507  2.70507  5.41013
   spin  1
    eigenvalues:
  0.900  0.902  0.903
    eigenvectors:
  0.000  0.000  1.000
  0.500  0.500  0.000
  0.500  0.500  0.000
    occupations:
  0.903 -0.000 -0.000
 -0.000  0.901  0.001
 -0.000  0.001  0.901
   spin  2
    eigenvalues:
  0.900  0.902  0.903
    eigenvectors:
  0.000  0.000  1.000
  0.500  0.500  0.000
  0.500  0.500  0.000
    occupations:
  0.903 -0.000 -0.000
 -0.000  0.901  0.001
 -0.000  0.001  0.901
atomic mag. moment =     0.000000
atom   47   Tr[ns(na)] (up, down, total) =   2.70509  2.70509  5.41018
   spin  1
    eigenvalues:
  0.900  0.902  0.903
    eigenvectors:
  0.000  0.000  1.000
  0.500  0.500  0.000
  0.500  0.500  0.000
    occupations:
  0.903 -0.000 -0.000
 -0.000  0.901 -0.001
 -0.000 -0.001  0.901
   spin  2
    eigenvalues:
  0.900  0.902  0.903
    eigenvectors:
  0.000  0.000  1.000
  0.500  0.500  0.000
  0.500  0.500  0.000
    occupations:
  0.903 -0.000 -0.000
 -0.000  0.901 -0.001
 -0.000 -0.001  0.901
atomic mag. moment =    -0.000000
atom   48   Tr[ns(na)] (up, down, total) =   2.70509  2.70509  5.41018
   spin  1
    eigenvalues:
  0.900  0.902  0.903
    eigenvectors:
  0.000  0.000  1.000
  0.500  0.500  0.000
  0.500  0.500  0.000
    occupations:
  0.903 -0.000 -0.000
 -0.000  0.901 -0.001
 -0.000 -0.001  0.901
   spin  2
    eigenvalues:
  0.900  0.902  0.903
    eigenvectors:
  0.000  0.000  1.000
  0.500  0.500  0.000
  0.500  0.500  0.000
    occupations:
  0.903 -0.000 -0.000
 -0.000  0.901 -0.001
 -0.000 -0.001  0.901
atomic mag. moment =    -0.000000
N of occupied +U levels = 266.2329501
 --- exit write_ns ---

 ------ SPIN UP ------------

          k = 0.0000 0.0000 0.0000 ( 15465 PWs)   bands (ev):

   -49.3498 -49.3453 -49.3453 -49.3452 -49.3451 -49.3439 -49.3428 -49.3382
   -49.2285 -49.2285 -49.2285 -49.2284 -49.2283 -49.2282 -49.2260 -49.2252
   -23.9082 -23.9081 -23.9075 -23.9073 -23.9020 -23.9018 -23.9012 -23.9003
   -23.6538 -23.6537 -23.6468 -23.6468 -23.6212 -23.6210 -23.6202 -23.6198
   -23.5141 -23.5141 -23.5130 -23.5126 -23.5075 -23.5074 -23.5066 -23.5058
   -23.4247 -23.4245 -23.4237 -23.4237 -23.3953 -23.3950 -23.3905 -23.3900
   -23.2165 -23.2164 -23.2160 -23.2159 -23.2158 -23.2158 -23.2145 -23.2129
   -22.8776 -22.8658 -22.8657 -22.8656 -22.8656 -22.8649 -22.8643 -22.8532
    -7.2182  -6.7931  -6.7886  -6.4945  -6.4780  -6.4777  -6.4772  -6.4768
    -6.4724  -6.4695  -6.4694  -6.4693  -6.0672  -6.0607  -6.0463  -6.0389
    -6.0387  -6.0386  -6.0146  -6.0119  -5.8531  -5.8490  -5.7949  -5.7913
    -5.6644  -5.6604  -5.5890  -5.5855  -5.3114  -5.3038  -5.3036  -5.3035
     4.6116   4.7395   4.7447   4.9389   5.1176   5.1179   5.1190   5.1235
     5.3321   5.3333   5.3343   5.3406   5.4143   5.8118   5.8151   5.9043
     5.9044   5.9054   5.9120   5.9429   5.9448   6.1508   6.1556   6.5107
     6.5140   6.5635   6.5637   6.5660   6.5709   6.6975   6.7007   6.7684
     6.7721   6.8047   6.8090   7.0608   7.0612   7.0628   7.0691   7.0730
     7.0755   7.5917   7.5923   7.5932   7.6015   7.8225   7.8268   7.8330
     7.8362   7.8720   7.8756   8.0588   8.0591   8.0591   8.0657   8.0903
     8.0918   8.2290   8.2306   8.3356   8.3405   8.5081   8.5084   8.5095
     8.5146   8.7873   8.7884   8.7885   8.7944   8.9990   8.9991   9.0513
     9.0555   9.3991   9.4007   9.5257   9.5259   9.5260   9.5325   9.6349
     9.6354   9.6356   9.6427   9.6955   9.8663   9.8682   9.9918   9.9919
     9.9922   9.9979  10.0057  10.0091  10.0530  10.0570  10.3714  10.4208
    10.5463  10.5466  10.7465  10.7727  11.3733  11.3735  11.3736  11.3741
    11.7969  11.7970  11.7970  11.7972  12.4389  13.0161  13.0164  13.5156
    13.5161  13.5784  13.5787  13.6991  13.6993  13.7331  13.7333  13.8808
    13.8812  14.4169  14.4169  14.4171  14.4184  14.4365  14.4366  14.4366
    14.4376  14.5834  14.5835  14.5835  14.5838  14.8997  14.9002  15.8694
    15.8703  15.8704  15.8705  15.8815  16.0453  16.0456  16.0456  16.0940
    16.0941  16.4686  16.4687  16.4688  16.4691  16.8969  16.8971  16.8973
    16.8974  17.2713  17.2726  17.5069  17.5070  17.5533  17.5534  17.5670
    17.5670  17.6130  17.6136  17.6138  17.6144  17.9053  17.9055  17.9167
    17.9723  17.9725  18.2792  18.2793  19.9328  19.9329  19.9330  19.9331
    20.1916  20.6890  20.6911  20.6928  20.6930  21.7579  21.7584  22.1099
    22.1107  22.5531  22.5532  22.7211  22.7211  22.7227  22.7228  22.8060
    22.8061  23.2873  23.2879  23.3173  23.3179  23.9778  23.9785  23.9786
    23.9788  24.5958  24.5961  24.9235  24.9236  24.9240  24.9246  25.0169
    25.3162  25.3164  25.3167  25.3168  25.5590  25.5595  25.5606  25.5615
    25.6003  26.1220  26.1225  26.3721  26.3726  26.3826  26.3826  26.3964
    27.6374  27.6379  27.7729  27.7741  27.7742  27.7745  28.0297  28.0308
    28.0316  28.0316  28.2852  28.2864  28.5731  28.5737  28.6979  28.6984
    28.8999  29.0513  29.0517  29.0657  29.0657  29.0921  29.0925  29.0934
    29.0938  29.2026  29.2026  30.0234  30.0234  30.0251  30.0252  30.5547
    30.5558  30.5565  30.5566  31.5847  31.5848  31.7253  31.7254  31.7387
    31.7395  31.8698  31.8700  31.8707  31.8710  32.0337  32.3758  32.3763
    32.4233  32.4239  32.7583  32.7584  32.9185  32.9186  33.7432  33.7442
    33.7445  33.7450  33.9098  34.1430  34.1438  34.1499  34.1500  34.1507
    34.1510  34.1858  34.1878  34.1897  34.1897  34.6269  34.6275  34.6825
    34.9051  34.9056  34.9063  34.9067  35.1355  35.1361  35.2518  35.2525
    35.9098  35.9950  35.9959  35.9968  35.9971  36.1295  36.1298  36.1363
    36.1367  36.2685  36.2696  36.3684  36.3691  36.8773  36.8781  37.1098
    37.1107  37.2838  37.2856  37.2859  37.2860  37.2990  37.4697  37.4709
    37.4710  37.4714  38.0476  38.0485  38.2070  38.2071  38.2072  38.2076
    38.4475  38.5736  38.5738  38.5905  38.5905  38.5911  38.5919  39.3418
    39.3424  39.8790  39.8805  40.6467  40.6475  40.7075  40.7097  40.7099
    40.7102  40.8792  40.8799  41.0655  41.0656  41.0659  41.0665  41.2048
    41.2049  41.2064  41.2066  41.3132  41.8108  41.8120  41.8132  41.8134
    42.1309  42.1315  42.1399  42.4874  42.4877  42.6057  42.6075  42.6079
    42.6081  42.6744  42.6744  42.7401  42.7413  43.1077  43.1081  43.1286
[...]
    44.6102  44.6555  44.6567  44.6571  44.6578  44.9906  44.9911  45.0054
    45.0064  45.1678  45.1685  45.1693  45.1694  45.2593  45.2601  45.2604
    45.2609  45.3318  45.3326  45.5073  45.5079  45.5582  45.5592  45.7144
    45.7150  45.7592  45.7606  45.7615  45.7621  45.9481  45.9493  46.2442
    46.3755  46.3779  46.3780  46.3781  46.6275  46.6285  46.6955  46.6965
    46.7337  46.7358  46.7358  46.7361  46.8109  46.8130  46.8138  46.8138
    47.3976  47.3984  47.7437  47.7447  48.0491  48.0492  48.1468  48.1479
    48.4700  48.5431  48.5440  48.5446  48.5449  48.8547  48.8554  48.8556
    48.8558  48.9046  48.9047  48.9051  48.9058  49.0994  49.0996  49.3142
    49.3145  49.4160  49.4165  49.4166  49.4169  49.4515  49.4523  49.7073
    49.7088  49.7093  49.7093  49.9792  50.0194  50.1728  50.1737  50.3585
    50.3586  50.3589  50.3590  50.4424  50.6685  50.6706  50.6707  50.6709
    50.8659  50.8667  51.1680  51.1693  51.1709  51.1711  51.3404  51.3407
    51.3794  51.3803  51.6865  51.9759  51.9761  52.4315  52.4319  52.4323
    52.4325  52.6375  52.6377  52.6381  52.6383  52.7777  52.7784  52.8539

[...]

          k =-0.5000-0.5000 0.0000 ( 15388 PWs)   bands (ev):

[...]

 ------ SPIN DOWN ----------

[...]

          k =-0.5000-0.5000-0.9066 ( 15464 PWs)   bands (ev):

[...]

          k = 0.2500-0.2500-0.9066 ( 15408 PWs)   bands (ev):

   -49.2900 -49.2898 -49.2883 -49.2882 -49.2882 -49.2879 -49.2874 -49.2870
   -49.2866 -49.2863 -49.2859 -49.2850 -49.2850 -49.2847 -49.2830 -49.2797
   -23.5823 -23.5816 -23.5796 -23.5792 -23.5792 -23.5786 -23.5780 -23.5780
   -23.5776 -23.5775 -23.5761 -23.5758 -23.5753 -23.5750 -23.5750 -23.5727
   -23.4050 -23.4049 -23.4017 -23.4016 -23.4000 -23.3999 -23.3999 -23.3989
   -23.3963 -23.3957 -23.3933 -23.3932 -23.3931 -23.3927 -23.3924 -23.3909
   -23.3193 -23.3193 -23.3185 -23.3181 -23.3140 -23.3137 -23.3133 -23.3132
   -23.3130 -23.3127 -23.3126 -23.3102 -23.3080 -23.3080 -23.3059 -23.3059
    -6.5881  -6.5826  -6.4410  -6.4323  -6.4322  -6.4322  -6.3578  -6.3517
    -6.2738  -6.2704  -6.2498  -6.2412  -6.2411  -6.2410  -6.1254  -6.1218
    -5.8535  -5.8390  -5.8318  -5.8317  -5.8188  -5.8115  -5.8114  -5.8113
    -5.8106  -5.8041  -5.8040  -5.8038  -5.7975  -5.7955  -5.7882  -5.7882
     5.4463   5.4472   5.4684   5.4684   5.4703   5.4815   5.5355   5.5357
     5.5362   5.5367   5.5390   5.5391   5.6974   5.7062   5.7582   5.7667
     6.1490   6.1497   6.1604   6.1608   6.4391   6.4391   6.4400   6.4460
     6.5177   6.5198   6.5937   6.5980   6.6937   6.6943   6.7065   6.7071
     6.7096   6.7149   7.1567   7.1568   7.1614   7.1626   7.3373   7.3386
     7.3388   7.3437   7.3500   7.3506   7.4629   7.4639   7.5838   7.5851
     7.5857   7.5876   7.6989   7.7048   7.8357   7.8399   7.8499   7.8612
     8.3326   8.3326   8.3380   8.3390   8.4378   8.4395   8.4832   8.4845
     8.5518   8.5536   8.5981   8.5982   8.5993   8.6000   8.6059   8.6083
     8.7071   8.7072   8.8755   8.8763   8.8788   8.8789   9.1349   9.1366
     9.3283   9.3345   9.5569   9.5619   9.6401   9.6403   9.6417   9.6440
     9.8717   9.8717  10.1180  10.1180  10.1181  10.1258  10.3653  10.3688
    12.5153  12.5154  12.5287  12.5288  12.5290  12.5294  12.7040  12.7049
    12.7936  12.7937  12.7939  12.7939  12.7946  12.7947  12.8657  12.8661
    12.9297  12.9299  13.0355  13.0356  13.2311  13.2311  13.2312  13.2315
    13.5341  13.5344  13.5961  13.5963  13.7601  13.7601  13.8072  13.8073
    13.8075  13.8079  14.2533  14.2535  14.3291  14.3291  14.3294  14.3298
    14.5213  14.5219  14.8297  14.8298  14.8299  14.8308  15.2945  15.2951
    16.0378  16.0396  16.0396  16.0402  16.5933  16.5935  16.7045  16.7048
    16.7418  16.7420  16.7420  16.7424  17.3737  17.3739  17.4531  17.4537
    17.4984  17.4989  17.9933  17.9934  18.2204  18.2206  18.2209  18.2214
    18.5473  18.5475  19.1386  19.1387  19.1391  19.1396  19.6149  19.6150
    20.4022  20.4034  21.4481  21.4504  21.4516  21.4523  21.9726  21.9742
    22.6404  22.6422  22.7873  22.7903  22.7917  22.7921  23.7391  23.7409
    24.1155  24.1167  24.1577  24.1593  24.7071  24.7086  24.7778  24.7793
    24.7802  24.7812  25.1756  25.1766  25.1777  25.1779  25.7899  25.7912
    26.0496  26.0507  26.2750  26.2760  26.4819  26.4838  26.4840  26.4842
    27.1310  27.1311  27.2291  27.2296  27.3081  27.3088  27.3105  27.3111
    27.5021  27.5023  27.5035  27.5041  27.6934  27.6937  27.6952  27.6958
    27.8594  27.8595  27.8653  27.8664  27.9055  27.9057  28.3571  28.3578
    28.4253  28.4262  28.4265  28.4276  28.8424  28.8438  29.2878  29.2885
    29.6682  29.6684  30.0977  30.0978  30.0982  30.0983  30.1296  30.1299
    30.2466  30.2472  30.4217  30.4222  30.8241  30.8255  31.2934  31.2938
    31.2945  31.2946  31.5169  31.5180  31.5184  31.5185  32.4001  32.4004
    32.4005  32.4009  32.4276  32.4282  32.7183  32.7193  32.8274  32.8278
    33.4947  33.4965  33.8890  33.8893  34.0473  34.0483  34.0486  34.0486
    34.6870  34.6883  35.0293  35.0297  35.0299  35.0304  35.2186  35.2190
    35.2331  35.2342  35.2349  35.2355  35.4787  35.4795  35.4798  35.4802
    35.4841  35.4846  35.9587  35.9593  36.2091  36.2096  36.3117  36.3128
    36.5612  36.5619  36.5629  36.5633  36.8242  36.8248  36.8768  36.8775
    37.3336  37.3342  37.3952  37.3973  37.6830  37.6839  37.7391  37.7392
    37.7613  37.7621  37.7626  37.7628  37.9143  37.9147  37.9150  37.9152
    37.9965  37.9975  38.5127  38.5131  38.8017  38.8017  38.8018  38.8027
    38.9280  38.9292  39.3538  39.3541  39.3546  39.3550  39.8681  39.8694
    40.2269  40.2283  40.2893  40.2895  40.4460  40.4462  40.4464  40.4470
    40.7390  40.7394  41.4096  41.4096  41.4108  41.4113  41.5570  41.5571
    41.5591  41.5595  41.8620  41.8646  41.8651  41.8654  42.1767  42.1768
    42.2122  42.2128  42.2129  42.2132  42.2396  42.2399  42.3409  42.3413
[...]
    44.7878  44.7880  44.9705  44.9705  44.9716  44.9720  45.2830  45.2832
    45.6121  45.6123  45.6207  45.6220  45.6659  45.6664  45.8512  45.8520
    45.8521  45.8524  46.1630  46.1633  46.2694  46.2697  46.2704  46.2708
    46.4980  46.4980  46.7300  46.7312  46.7704  46.7716  46.8408  46.8414
    46.8420  46.8424  46.9010  46.9011  46.9098  46.9118  46.9124  46.9126
    47.0600  47.0604  47.3945  47.3960  47.4489  47.4493  47.4864  47.4867
    47.5615  47.5634  47.5636  47.5638  47.7208  47.7208  47.8524  47.8545
    47.8550  47.8556  48.0617  48.0619  48.0623  48.0627  48.1231  48.1236
    48.3230  48.3233  48.3240  48.3243  48.4780  48.4799  48.8754  48.8762
    48.9336  48.9341  48.9347  48.9352  49.4588  49.4599  49.7944  49.7949
    49.7950  49.7952  49.9268  49.9270  50.0030  50.0038  50.1193  50.1200
    50.1209  50.1212  50.4441  50.4442  50.5558  50.5562  50.5766  50.5771
    50.7639  50.7641  50.9145  50.9147  50.9156  50.9158  51.2851  51.2857
    51.4060  51.4078  51.4083  51.4083  51.7594  51.7611  51.8337  51.8338
    52.2029  52.2033  52.2040  52.2041  52.3711  52.3718  52.6438  52.6440

     the Fermi energy is    12.9485 ev

!    total energy              =   -3262.54258347 Ry
     Harris-Foulkes estimate   =   -3262.54258421 Ry
     estimated scf accuracy    <       0.00000076 Ry

     The total energy is the sum of the following terms:

     one-electron contribution =    -920.60850476 Ry
     hartree contribution      =     690.17585193 Ry
     xc contribution           =    -539.17367968 Ry
     ewald contribution        =   -2492.99511507 Ry
     Hubbard energy            =       0.05955329 Ry
     smearing contrib. (-TS)   =      -0.00068919 Ry

     total magnetization       =    -0.00 Bohr mag/cell
     absolute magnetization    =     0.00 Bohr mag/cell

     convergence has been achieved in  10 iterations

     Writing output data file pwscf.save

     General routines

     Parallel routines
     Hubbard U routines

   This run was terminated on:  11:54:16  11Feb2014

   JOB DONE.