     Program PWSCF v.5.0.2 (svn rev. 9656) starts on 10Feb2014 at 18:41:52

     Current dimensions of program PWSCF are:
     Max number of different atomic species (ntypx) = 10
     Max number of k-points (npk) =  40000
     Max angular momentum in pseudopotentials (lmaxx) =  3
     Reading input from alpha_-0.07/alpha_-0.07.in
Warning: card &IONS ignored
Warning: card / ignored
Warning: card &CELL ignored
Warning: card / ignored

     Subspace diagonalization in iterative solution of the eigenvalue problem:
     a serial algorithm will be used

     bravais-lattice index     =            0
     lattice parameter (alat)  =      18.7083  a.u.
     unit-cell volume          =    3611.2673 (a.u.)^3
     number of atoms/cell      =           48
     number of atomic types    =            3
     number of electrons       =       416.00
     number of Kohn-Sham states=          624
     kinetic-energy cutoff     =      40.0000  Ry
     charge density cutoff     =     500.0000  Ry
     convergence threshold     =      1.0E-06
     mixing beta               =       0.7000
     number of iterations used =            8  plain     mixing
     Exchange-correlation      = SLA  PW   PBE  PBE ( 1 4 3 4 0)
     EXX-fraction              =        0.00

     celldm(1)=  18.708289  celldm(2)=   0.000000  celldm(3)=   0.000000
     celldm(4)=   0.000000  celldm(5)=   0.000000  celldm(6)=   0.000000

     crystal axes: (cart. coord. in units of alat)
               a(1) = (   1.000000   0.000000   0.000000 )
               a(2) = (   0.000000   1.000000   0.000000 )
               a(3) = (   0.000000   0.000000   0.551515 )

     reciprocal axes: (cart. coord. in units 2 pi/alat)
               b(1) = (  1.000000  0.000000  0.000000 )
               b(2) = (  0.000000  1.000000  0.000000 )
               b(3) = (  0.000000  0.000000  1.813187 )

     PseudoPot. # 1 for Mo read from file:
     /home/camp/zhonxu/pseudo/mo_pbe_v1.uspp.F.UPF
     MD5 check sum: 30c4dcd161f5d35cd49bb5239c51a633
     Pseudo is Ultrasoft + core correction, Zval = 14.0
     Generated by new atomic code, or converted to UPF format
     Using radial grid of  889 points,  6 beta functions with:
                l(1) =   0
                l(2) =   0
                l(3) =   1
                l(4) =   1
                l(5) =   2
                l(6) =   2
     Q(r) pseudized with  6 coefficients,  rinner =    1.000   1.000   1.000
                                                       1.000   1.000

     PseudoPot. # 2 for O  read from file:
     /home/camp/zhonxu/pseudo/o_pbe_v1.01.uspp.F.UPF
     MD5 check sum: 2bcb18d16ea4b960afae9ec6d52f22d2
     Pseudo is Ultrasoft + core correction, Zval =  6.0
     Generated by new atomic code, or converted to UPF format
     Using radial grid of  737 points,  5 beta functions with:
                l(1) =   0
                l(2) =   0
                l(3) =   1
                l(4) =   1
                l(5) =   2
     Q(r) pseudized with  8 coefficients,  rinner =    0.900   0.900   0.900
                                                       0.900   0.900

     PseudoPot. # 3 for O  read from file:
     /home/camp/zhonxu/pseudo/o_pbe_v1.01.uspp.F.UPF
     MD5 check sum: 2bcb18d16ea4b960afae9ec6d52f22d2
     Pseudo is Ultrasoft + core correction, Zval =  6.0
     Generated by new atomic code, or converted to UPF format
     Using radial grid of  737 points,  5 beta functions with:
                l(1) =   0
                l(2) =   0
                l(3) =   1
                l(4) =   1
                l(5) =   2
     Q(r) pseudized with  8 coefficients,  rinner =    0.900   0.900   0.900
                                                       0.900   0.900

     atomic species   valence    mass     pseudopotential
        Mo0           14.00    95.94000     Mo( 1.00)
        O1             6.00    15.99940     O ( 1.00)
        O2             6.00    15.99940     O ( 1.00)

     Starting magnetic structure
     atomic species   magnetization
        Mo0          0.000
        O1           0.000
        O2           0.000

     Simplified LDA+U calculation (l_max = 2) with parameters (eV):
     atomic species    L          U    alpha       J0     beta
        Mo0            2     0.0000   0.0000   0.0000   0.0000
        O1             1     0.0000  -0.0700   0.0000   0.0000
        O2             1     0.0000   0.0000   0.0000   0.0000

      4 Sym. Ops. (no inversion) found

   Cartesian axes

     site n.     atom                  positions (alat units)
         1           Mo0 tau(   1) = (  -0.1400000  -0.1400000   0.0000000  )
         2           Mo0 tau(   2) = (   0.1100000   0.1100000   0.1378788  )
         3           Mo0 tau(   3) = (  -0.1400000  -0.1400000   0.2757576  )
         4           Mo0 tau(   4) = (   0.1100000   0.1100000   0.4136364  )
         5           Mo0 tau(   5) = (  -0.1400000   0.3600000   0.0000000  )
         6           Mo0 tau(   6) = (   0.1100000   0.6100000   0.1378788  )
         7           Mo0 tau(   7) = (  -0.1400000   0.3600000   0.2757576  )
         8           Mo0 tau(   8) = (   0.1100000   0.6100000   0.4136364  )
         9           Mo0 tau(   9) = (   0.3600000  -0.1400000   0.0000000  )
        10           Mo0 tau(  10) = (   0.6100000   0.1100000   0.1378788  )
        11           Mo0 tau(  11) = (   0.3600000  -0.1400000   0.2757576  )
        12           Mo0 tau(  12) = (   0.6100000   0.1100000   0.4136364  )
        13           Mo0 tau(  13) = (   0.3600000   0.3600000   0.0000000  )
        14           Mo0 tau(  14) = (   0.6100000   0.6100000   0.1378788  )
        15           Mo0 tau(  15) = (   0.3600000   0.3600000   0.2757576  )
        16           Mo0 tau(  16) = (   0.6100000   0.6100000   0.4136364  )
        17           O1  tau(  17) = (   0.0000000   0.0000000   0.0000000  )
        18           O2  tau(  18) = (  -0.2800000  -0.2800000   0.0000000  )
        19           O2  tau(  19) = (   0.2500000  -0.0300000   0.1378788  )
        20           O2  tau(  20) = (  -0.0300000   0.2500000   0.1378788  )
        21           O2  tau(  21) = (   0.0000000   0.0000000   0.2757576  )
        22           O2  tau(  22) = (  -0.2800000  -0.2800000   0.2757576  )
        23           O2  tau(  23) = (   0.2500000  -0.0300000   0.4136364  )
        24           O2  tau(  24) = (  -0.0300000   0.2500000   0.4136364  )
        25           O2  tau(  25) = (   0.0000000   0.5000000   0.0000000  )
        26           O2  tau(  26) = (  -0.2800000   0.2200000   0.0000000  )
        27           O2  tau(  27) = (   0.2500000   0.4700000   0.1378788  )
        28           O2  tau(  28) = (  -0.0300000   0.7500000   0.1378788  )
        29           O2  tau(  29) = (   0.0000000   0.5000000   0.2757576  )
        30           O2  tau(  30) = (  -0.2800000   0.2200000   0.2757576  )
        31           O2  tau(  31) = (   0.2500000   0.4700000   0.4136364  )
        32           O2  tau(  32) = (  -0.0300000   0.7500000   0.4136364  )
        33           O2  tau(  33) = (   0.5000000   0.0000000   0.0000000  )
        34           O2  tau(  34) = (   0.2200000  -0.2800000   0.0000000  )
        35           O2  tau(  35) = (   0.7500000  -0.0300000   0.1378788  )
        36           O2  tau(  36) = (   0.4700000   0.2500000   0.1378788  )
        37           O2  tau(  37) = (   0.5000000   0.0000000   0.2757576  )
        38           O2  tau(  38) = (   0.2200000  -0.2800000   0.2757576  )
        39           O2  tau(  39) = (   0.7500000  -0.0300000   0.4136364  )
        40           O2  tau(  40) = (   0.4700000   0.2500000   0.4136364  )
        41           O2  tau(  41) = (   0.5000000   0.5000000   0.0000000  )
        42           O2  tau(  42) = (   0.2200000   0.2200000   0.0000000  )
        43           O2  tau(  43) = (   0.7500000   0.4700000   0.1378788  )
        44           O2  tau(  44) = (   0.4700000   0.7500000   0.1378788  )
        45           O2  tau(  45) = (   0.5000000   0.5000000   0.2757576  )
        46           O2  tau(  46) = (   0.2200000   0.2200000   0.2757576  )
        47           O2  tau(  47) = (   0.7500000   0.4700000   0.4136364  )
        48           O2  tau(  48) = (   0.4700000   0.7500000   0.4136364  )

     number of k points=    42  Methfessel-Paxton smearing, width (Ry)=  0.0100
                       cart. coord. in units 2pi/alat
        k(    1) = (   0.0000000   0.0000000   0.0000000), wk =   0.0156250
        k(    2) = (   0.0000000   0.0000000   0.4532967), wk =   0.0312500
        k(    3) = (   0.0000000   0.0000000  -0.9065934), wk =   0.0156250
        k(    4) = (   0.0000000   0.2500000   0.0000000), wk =   0.0625000
        k(    5) = (   0.0000000   0.2500000   0.4532967), wk =   0.1250000
        k(    6) = (   0.0000000   0.2500000  -0.9065934), wk =   0.0625000
        k(    7) = (   0.0000000  -0.5000000   0.0000000), wk =   0.0312500
        k(    8) = (   0.0000000  -0.5000000   0.4532967), wk =   0.0625000
        k(    9) = (   0.0000000  -0.5000000  -0.9065934), wk =   0.0312500
        k(   10) = (   0.2500000   0.2500000   0.0000000), wk =   0.0312500
        k(   11) = (   0.2500000   0.2500000   0.4532967), wk =   0.0625000
        k(   12) = (   0.2500000   0.2500000  -0.9065934), wk =   0.0312500
        k(   13) = (   0.2500000  -0.5000000   0.0000000), wk =   0.0625000
        k(   14) = (   0.2500000  -0.5000000   0.4532967), wk =   0.1250000
        k(   15) = (   0.2500000  -0.5000000  -0.9065934), wk =   0.0625000
        k(   16) = (  -0.5000000  -0.5000000   0.0000000), wk =   0.0156250
        k(   17) = (  -0.5000000  -0.5000000   0.4532967), wk =   0.0312500
        k(   18) = (  -0.5000000  -0.5000000  -0.9065934), wk =   0.0156250
        k(   19) = (   0.2500000  -0.2500000   0.0000000), wk =   0.0312500
        k(   20) = (   0.2500000  -0.2500000   0.4532967), wk =   0.0625000
        k(   21) = (   0.2500000  -0.2500000  -0.9065934), wk =   0.0312500
        k(   22) = (   0.0000000   0.0000000   0.0000000), wk =   0.0156250
        k(   23) = (   0.0000000   0.0000000   0.4532967), wk =   0.0312500
        k(   24) = (   0.0000000   0.0000000  -0.9065934), wk =   0.0156250
        k(   25) = (   0.0000000   0.2500000   0.0000000), wk =   0.0625000
        k(   26) = (   0.0000000   0.2500000   0.4532967), wk =   0.1250000
        k(   27) = (   0.0000000   0.2500000  -0.9065934), wk =   0.0625000
        k(   28) = (   0.0000000  -0.5000000   0.0000000), wk =   0.0312500
        k(   29) = (   0.0000000  -0.5000000   0.4532967), wk =   0.0625000
        k(   30) = (   0.0000000  -0.5000000  -0.9065934), wk =   0.0312500
        k(   31) = (   0.2500000   0.2500000   0.0000000), wk =   0.0312500
        k(   32) = (   0.2500000   0.2500000   0.4532967), wk =   0.0625000
        k(   33) = (   0.2500000   0.2500000  -0.9065934), wk =   0.0312500
        k(   34) = (   0.2500000  -0.5000000   0.0000000), wk =   0.0625000
        k(   35) = (   0.2500000  -0.5000000   0.4532967), wk =   0.1250000
        k(   36) = (   0.2500000  -0.5000000  -0.9065934), wk =   0.0625000
[...]
    eigenvectors:
  0.000  0.000  1.000
  0.500  0.500  0.000
  0.500  0.500  0.000
    occupations:
  0.903 -0.000 -0.000
 -0.000  0.901  0.001
 -0.000  0.001  0.901
   spin  2
    eigenvalues:
  0.900  0.902  0.903
    eigenvectors:
  0.000  0.000  1.000
  0.500  0.500  0.000
  0.500  0.500  0.000
    occupations:
  0.903 -0.000 -0.000
 -0.000  0.901  0.001
 -0.000  0.001  0.901
atomic mag. moment =     0.000000
atom   42   Tr[ns(na)] (up, down, total) =   2.70509  2.70509  5.41017
   spin  1
    eigenvalues:
  0.900  0.902  0.903
    eigenvectors:
  0.000  0.000  1.000
  0.500  0.500  0.000
  0.500  0.500  0.000
    occupations:
  0.903 -0.000 -0.000
 -0.000  0.901  0.001
 -0.000  0.001  0.901
   spin  2
    eigenvalues:
  0.900  0.902  0.903
    eigenvectors:
  0.000  0.000  1.000
  0.500  0.500  0.000
  0.500  0.500  0.000
    occupations:
  0.903 -0.000 -0.000
 -0.000  0.901  0.001
 -0.000  0.001  0.901
atomic mag. moment =     0.000000
atom   43   Tr[ns(na)] (up, down, total) =   2.70509  2.70509  5.41019
   spin  1
    eigenvalues:
  0.900  0.902  0.903
    eigenvectors:
  0.000  0.000  1.000
  0.500  0.500  0.000
  0.500  0.500  0.000
    occupations:
  0.903 -0.000 -0.000
 -0.000  0.901 -0.001
 -0.000 -0.001  0.901
   spin  2
    eigenvalues:
  0.900  0.902  0.903
    eigenvectors:
  0.000  0.000  1.000
  0.500  0.500  0.000
  0.500  0.500  0.000
    occupations:
  0.903 -0.000 -0.000
 -0.000  0.901 -0.001
 -0.000 -0.001  0.901
atomic mag. moment =    -0.000000
atom   44   Tr[ns(na)] (up, down, total) =   2.70509  2.70509  5.41019
   spin  1
    eigenvalues:
  0.900  0.902  0.903
    eigenvectors:
  0.000  0.000  1.000
  0.500  0.500  0.000
  0.500  0.500  0.000
    occupations:
  0.903 -0.000 -0.000
 -0.000  0.901 -0.001
 -0.000 -0.001  0.901
   spin  2
    eigenvalues:
  0.900  0.902  0.903
    eigenvectors:
  0.000  0.000  1.000
  0.500  0.500  0.000
  0.500  0.500  0.000
    occupations:
  0.903 -0.000 -0.000
 -0.000  0.901 -0.001
 -0.000 -0.001  0.901
atomic mag. moment =    -0.000000
atom   45   Tr[ns(na)] (up, down, total) =   2.70511  2.70511  5.41021
   spin  1
    eigenvalues:
  0.900  0.902  0.903
    eigenvectors:
  0.000  0.000  1.000
  0.500  0.500  0.000
  0.500  0.500  0.000
    occupations:
  0.903 -0.000 -0.000
 -0.000  0.901  0.001
 -0.000  0.001  0.901
   spin  2
    eigenvalues:
  0.900  0.902  0.903
    eigenvectors:
  0.000  0.000  1.000
  0.500  0.500  0.000
  0.500  0.500  0.000
    occupations:
  0.903 -0.000 -0.000
 -0.000  0.901  0.001
 -0.000  0.001  0.901
atomic mag. moment =     0.000000
atom   46   Tr[ns(na)] (up, down, total) =   2.70511  2.70511  5.41022
   spin  1
    eigenvalues:
  0.900  0.902  0.903
    eigenvectors:
  0.000  0.000  1.000
  0.500  0.500  0.000
  0.500  0.500  0.000
    occupations:
  0.903 -0.000 -0.000
 -0.000  0.901  0.001
 -0.000  0.001  0.901
   spin  2
    eigenvalues:
  0.900  0.902  0.903
    eigenvectors:
  0.000  0.000  1.000
  0.500  0.500  0.000
  0.500  0.500  0.000
    occupations:
  0.903 -0.000 -0.000
 -0.000  0.901  0.001
 -0.000  0.001  0.901
atomic mag. moment =     0.000000
atom   47   Tr[ns(na)] (up, down, total) =   2.70509  2.70509  5.41019
   spin  1
    eigenvalues:
  0.900  0.902  0.903
    eigenvectors:
  0.000  0.000  1.000
  0.500  0.500  0.000
  0.500  0.500  0.000
    occupations:
  0.903  0.000  0.000
  0.000  0.901 -0.001
  0.000 -0.001  0.901
   spin  2
    eigenvalues:
  0.900  0.902  0.903
    eigenvectors:
  0.000  0.000  1.000
  0.500  0.500  0.000
  0.500  0.500  0.000
    occupations:
  0.903  0.000  0.000
  0.000  0.901 -0.001
  0.000 -0.001  0.901
atomic mag. moment =    -0.000000
atom   48   Tr[ns(na)] (up, down, total) =   2.70509  2.70509  5.41019
   spin  1
    eigenvalues:
  0.900  0.902  0.903
    eigenvectors:
  0.000  0.000  1.000
  0.500  0.500  0.000
  0.500  0.500  0.000
    occupations:
  0.903  0.000  0.000
  0.000  0.901 -0.001
  0.000 -0.001  0.901
   spin  2
    eigenvalues:
  0.900  0.902  0.903
    eigenvectors:
  0.000  0.000  1.000
  0.500  0.500  0.000
  0.500  0.500  0.000
    occupations:
  0.903  0.000  0.000
  0.000  0.901 -0.001
  0.000 -0.001  0.901
atomic mag. moment =    -0.000000
N of occupied +U levels = 266.2315387
 --- exit write_ns ---

 ------ SPIN UP ------------

          k = 0.0000 0.0000 0.0000 ( 15465 PWs)   bands (ev):

   -49.3525 -49.3492 -49.3480 -49.3474 -49.3473 -49.3473 -49.3473 -49.3429
   -49.2319 -49.2319 -49.2306 -49.2305 -49.2305 -49.2305 -49.2305 -49.2304
   -23.9108 -23.9107 -23.9103 -23.9102 -23.9046 -23.9044 -23.9040 -23.9040
   -23.6565 -23.6565 -23.6495 -23.6494 -23.6239 -23.6235 -23.6232 -23.6231
   -23.5169 -23.5166 -23.5158 -23.5156 -23.5102 -23.5098 -23.5095 -23.5095
   -23.4272 -23.4271 -23.4267 -23.4266 -23.3980 -23.3980 -23.3933 -23.3932
   -23.2196 -23.2192 -23.2184 -23.2184 -23.2180 -23.2180 -23.2179 -23.2179
   -22.8803 -22.8684 -22.8683 -22.8678 -22.8678 -22.8678 -22.8677 -22.8558
    -7.2167  -6.7904  -6.7885  -6.4801  -6.4798  -6.4796  -6.4787  -6.4763
    -6.4711  -6.4710  -6.4710  -6.4655  -6.0622  -6.0608  -6.0407  -6.0406
    -6.0405  -6.0366  -6.0134  -6.0113  -5.8507  -5.8488  -5.7928  -5.7908
    -5.6624  -5.6603  -5.5870  -5.5850  -5.3054  -5.3054  -5.3053  -5.3013
     4.6073   4.7353   4.7378   4.9322   5.1129   5.1150   5.1156   5.1158
     5.3261   5.3293   5.3296   5.3303   5.4073   5.8070   5.8086   5.8989
     5.9020   5.9025   5.9026   5.9371   5.9381   6.1454   6.1476   6.5064
     6.5079   6.5582   6.5608   6.5618   6.5619   6.6938   6.6953   6.7650
     6.7667   6.8014   6.8030   7.0555   7.0582   7.0594   7.0596   7.0681
     7.0686   7.5850   7.5892   7.5896   7.5899   7.8192   7.8213   7.8298
     7.8314   7.8689   7.8704   8.0544   8.0572   8.0572   8.0573   8.0851
     8.0857   8.2235   8.2245   8.3321   8.3344   8.5038   8.5062   8.5066
     8.5068   8.7825   8.7852   8.7852   8.7857   8.9940   8.9942   9.0481
     9.0499   9.3948   9.3956   9.5211   9.5241   9.5242   9.5243   9.6299
     9.6333   9.6334   9.6336   9.6909   9.8625   9.8634   9.9866   9.9902
     9.9904   9.9904  10.0019  10.0021  10.0498  10.0515  10.3674  10.4188
    10.5445  10.5447  10.7446  10.7687  11.3712  11.3714  11.3715  11.3715
    11.7952  11.7953  11.7953  11.7953  12.4371  13.0139  13.0139  13.5137
    13.5140  13.5763  13.5764  13.6972  13.6972  13.7313  13.7313  13.8788
    13.8790  14.4147  14.4153  14.4154  14.4154  14.4343  14.4347  14.4348
    14.4348  14.5813  14.5815  14.5815  14.5815  14.8977  14.8979  15.8682
    15.8683  15.8683  15.8687  15.8798  16.0430  16.0434  16.0435  16.0918
    16.0918  16.4665  16.4666  16.4667  16.4667  16.8949  16.8950  16.8951
    16.8952  17.2698  17.2705  17.5049  17.5049  17.5512  17.5512  17.5648
    17.5649  17.6116  17.6119  17.6120  17.6123  17.9035  17.9036  17.9170
    17.9704  17.9706  18.2772  18.2772  19.9308  19.9308  19.9309  19.9309
    20.1899  20.6913  20.6914  20.6922  20.6932  21.7590  21.7592  22.1102
    22.1106  22.5536  22.5536  22.7216  22.7217  22.7224  22.7224  22.8055
    22.8056  23.2875  23.2878  23.3176  23.3179  23.9783  23.9784  23.9784
    23.9787  24.5958  24.5960  24.9238  24.9241  24.9243  24.9243  25.0178
    25.3170  25.3170  25.3171  25.3172  25.5598  25.5602  25.5608  25.5610
    25.6001  26.1227  26.1230  26.3722  26.3726  26.3834  26.3835  26.3966
    27.6378  27.6380  27.7735  27.7737  27.7737  27.7743  28.0309  28.0309
    28.0312  28.0317  28.2858  28.2864  28.5734  28.5738  28.6979  28.6982
    28.8998  29.0518  29.0520  29.0651  29.0651  29.0925  29.0926  29.0931
    29.0933  29.2026  29.2026  30.0241  30.0242  30.0250  30.0250  30.5553
    30.5553  30.5557  30.5561  31.5841  31.5841  31.7249  31.7250  31.7388
    31.7392  31.8695  31.8697  31.8700  31.8701  32.0340  32.3756  32.3758
    32.4237  32.4240  32.7582  32.7582  32.9183  32.9183  33.7440  33.7442
    33.7444  33.7448  33.9093  34.1436  34.1440  34.1499  34.1501  34.1504
    34.1505  34.1879  34.1879  34.1888  34.1897  34.6268  34.6271  34.6826
    34.9055  34.9056  34.9060  34.9062  35.1354  35.1357  35.2517  35.2520
    35.9102  35.9955  35.9957  35.9961  35.9965  36.1300  36.1302  36.1363
    36.1365  36.2691  36.2696  36.3686  36.3689  36.8775  36.8779  37.1102
    37.1106  37.2852  37.2852  37.2854  37.2862  37.2988  37.4701  37.4703
    37.4703  37.4709  38.0481  38.0484  38.2071  38.2072  38.2073  38.2073
    38.4474  38.5735  38.5736  38.5908  38.5912  38.5915  38.5915  39.3417
    39.3421  39.8790  39.8798  40.6471  40.6475  40.7085  40.7086  40.7087
    40.7097  40.8797  40.8800  41.0654  41.0657  41.0658  41.0659  41.2051
    41.2052  41.2059  41.2060  41.3127  41.8121  41.8122  41.8128  41.8133
    42.1308  42.1310  42.1396  42.4876  42.4878  42.6067  42.6068  42.6070
    42.6078  42.6739  42.6739  42.7401  42.7406  43.1076  43.1078  43.1288
[...]
    44.6092  44.6562  44.6565  44.6567  44.6572  44.9902  44.9905  45.0055
    45.0060  45.1682  45.1682  45.1686  45.1689  45.2596  45.2598  45.2600
    45.2603  45.3325  45.3329  45.5077  45.5080  45.5589  45.5593  45.7140
    45.7143  45.7593  45.7599  45.7619  45.7622  45.9481  45.9487  46.2438
    46.3770  46.3771  46.3771  46.3783  46.6274  46.6278  46.6956  46.6960
    46.7347  46.7348  46.7349  46.7359  46.8122  46.8123  46.8127  46.8136
    47.3974  47.3978  47.7441  47.7445  48.0493  48.0493  48.1471  48.1475
    48.4696  48.5440  48.5441  48.5444  48.5448  48.8544  48.8544  48.8545
    48.8549  48.9045  48.9048  48.9050  48.9051  49.0990  49.0991  49.3136
    49.3138  49.4164  49.4165  49.4166  49.4168  49.4520  49.4524  49.7075
    49.7076  49.7078  49.7085  49.9792  50.0189  50.1730  50.1734  50.3585
    50.3586  50.3587  50.3588  50.4434  50.6700  50.6701  50.6701  50.6711
    50.8658  50.8662  51.1695  51.1696  51.1703  51.1710  51.3404  51.3406
    51.3796  51.3800  51.6872  51.9754  51.9755  52.4318  52.4319  52.4320
    52.4322  52.6374  52.6375  52.6377  52.6377  52.7777  52.7780  52.8539

[...]

          k =-0.5000-0.5000 0.0000 ( 15388 PWs)   bands (ev):

[...]

 ------ SPIN DOWN ----------

[...]

          k =-0.5000-0.5000-0.9066 ( 15464 PWs)   bands (ev):

[...]

          k = 0.2500-0.2500-0.9066 ( 15408 PWs)   bands (ev):

   -49.2930 -49.2926 -49.2921 -49.2910 -49.2909 -49.2905 -49.2900 -49.2899
   -49.2895 -49.2889 -49.2884 -49.2883 -49.2883 -49.2881 -49.2867 -49.2864
   -23.5852 -23.5844 -23.5822 -23.5818 -23.5817 -23.5817 -23.5805 -23.5804
   -23.5802 -23.5802 -23.5789 -23.5789 -23.5781 -23.5772 -23.5772 -23.5771
   -23.4078 -23.4077 -23.4045 -23.4044 -23.4029 -23.4022 -23.4022 -23.4021
   -23.3987 -23.3984 -23.3962 -23.3957 -23.3956 -23.3954 -23.3954 -23.3953
   -23.3221 -23.3218 -23.3214 -23.3214 -23.3171 -23.3160 -23.3157 -23.3152
   -23.3152 -23.3152 -23.3148 -23.3146 -23.3109 -23.3109 -23.3095 -23.3094
    -6.5849  -6.5829  -6.4341  -6.4341  -6.4340  -6.4310  -6.3537  -6.3511
    -6.2721  -6.2712  -6.2429  -6.2429  -6.2428  -6.2382  -6.1235  -6.1217
    -5.8409  -5.8380  -5.8333  -5.8332  -5.8130  -5.8130  -5.8130  -5.8129
    -5.8060  -5.8059  -5.8058  -5.8019  -5.7974  -5.7906  -5.7897  -5.7878
     5.4431   5.4442   5.4600   5.4656   5.4665   5.4665   5.5334   5.5335
     5.5337   5.5338   5.5370   5.5370   5.6907   5.6954   5.7533   5.7564
     6.1418   6.1432   6.1525   6.1535   6.4338   6.4370   6.4374   6.4375
     6.5144   6.5153   6.5881   6.5899   6.6907   6.6908   6.7011   6.7034
     6.7046   6.7048   7.1523   7.1528   7.1550   7.1551   7.3323   7.3350
     7.3350   7.3357   7.3472   7.3472   7.4607   7.4611   7.5803   7.5810
     7.5814   7.5820   7.6947   7.6973   7.8296   7.8340   7.8452   7.8480
     8.3278   8.3284   8.3310   8.3310   8.4351   8.4359   8.4804   8.4811
     8.5469   8.5475   8.5930   8.5947   8.5964   8.5965   8.5977   8.5983
     8.7051   8.7051   8.8724   8.8724   8.8735   8.8739   9.1324   9.1331
     9.3235   9.3264   9.5529   9.5553   9.6368   9.6377   9.6383   9.6384
     9.8675   9.8676  10.1128  10.1163  10.1163  10.1163  10.3622  10.3637
    12.5135  12.5136  12.5268  12.5270  12.5271  12.5272  12.7024  12.7028
    12.7919  12.7919  12.7920  12.7920  12.7925  12.7926  12.8637  12.8639
    12.9275  12.9277  13.0335  13.0336  13.2290  13.2292  13.2293  13.2293
    13.5320  13.5321  13.5939  13.5940  13.7582  13.7582  13.8050  13.8052
    13.8053  13.8053  14.2514  14.2516  14.3269  14.3271  14.3272  14.3272
    14.5192  14.5195  14.8275  14.8280  14.8280  14.8280  15.2924  15.2927
    16.0374  16.0376  16.0376  16.0385  16.5912  16.5914  16.7024  16.7026
    16.7397  16.7399  16.7399  16.7400  17.3719  17.3720  17.4512  17.4515
    17.4965  17.4967  17.9916  17.9916  18.2185  18.2187  18.2188  18.2189
    18.5453  18.5454  19.1369  19.1372  19.1374  19.1374  19.6129  19.6130
    20.4030  20.4035  21.4503  21.4506  21.4512  21.4522  21.9737  21.9745
    22.6415  22.6424  22.7902  22.7903  22.7910  22.7924  23.7397  23.7405
    24.1160  24.1165  24.1590  24.1597  24.7072  24.7078  24.7792  24.7797
    24.7801  24.7808  25.1765  25.1766  25.1771  25.1776  25.7901  25.7907
    26.0496  26.0501  26.2760  26.2765  26.4830  26.4831  26.4832  26.4840
    27.1320  27.1320  27.2290  27.2292  27.3092  27.3094  27.3103  27.3106
    27.5027  27.5029  27.5035  27.5036  27.6941  27.6944  27.6950  27.6952
    27.8597  27.8598  27.8653  27.8658  27.9059  27.9061  28.3571  28.3574
    28.4261  28.4266  28.4267  28.4271  28.8428  28.8434  29.2884  29.2887
    29.6685  29.6686  30.0976  30.0976  30.0978  30.0979  30.1295  30.1296
    30.2466  30.2469  30.4214  30.4217  30.8244  30.8250  31.2937  31.2937
    31.2940  31.2942  31.5174  31.5174  31.5176  31.5180  32.4001  32.4003
    32.4003  32.4005  32.4275  32.4277  32.7182  32.7187  32.8271  32.8273
    33.4959  33.4967  33.8884  33.8885  34.0477  34.0477  34.0478  34.0483
    34.6872  34.6877  35.0293  35.0295  35.0296  35.0298  35.2193  35.2193
    35.2342  35.2345  35.2348  35.2353  35.4792  35.4793  35.4794  35.4798
    35.4835  35.4838  35.9586  35.9589  36.2092  36.2093  36.3123  36.3127
    36.5619  36.5620  36.5625  36.5628  36.8237  36.8240  36.8768  36.8772
    37.3331  37.3334  37.3960  37.3969  37.6832  37.6836  37.7388  37.7389
    37.7617  37.7618  37.7621  37.7624  37.9146  37.9147  37.9148  37.9150
    37.9964  37.9969  38.5121  38.5123  38.8012  38.8016  38.8016  38.8016
    38.9287  38.9293  39.3538  39.3539  39.3542  39.3543  39.8688  39.8694
    40.2274  40.2281  40.2897  40.2898  40.4459  40.4461  40.4463  40.4464
    40.7388  40.7390  41.4099  41.4102  41.4107  41.4107  41.5570  41.5570
    41.5587  41.5589  41.8642  41.8643  41.8645  41.8657  42.1761  42.1761
    42.2118  42.2119  42.2119  42.2122  42.2386  42.2387  42.3415  42.3416
[...]
    44.7878  44.7879  44.9708  44.9709  44.9714  44.9715  45.2830  45.2831
    45.6117  45.6118  45.6216  45.6221  45.6663  45.6665  45.8512  45.8513
    45.8514  45.8517  46.1621  46.1622  46.2697  46.2699  46.2702  46.2703
    46.4978  46.4978  46.7307  46.7312  46.7711  46.7716  46.8411  46.8413
    46.8416  46.8419  46.9009  46.9009  46.9111  46.9111  46.9114  46.9123
    47.0598  47.0599  47.3955  47.3961  47.4493  47.4495  47.4858  47.4859
    47.5623  47.5624  47.5624  47.5633  47.7198  47.7198  47.8541  47.8545
    47.8547  47.8556  48.0619  48.0621  48.0623  48.0624  48.1228  48.1230
    48.3235  48.3236  48.3240  48.3241  48.4791  48.4799  48.8753  48.8756
    48.9342  48.9344  48.9347  48.9349  49.4593  49.4598  49.7946  49.7946
    49.7947  49.7949  49.9264  49.9265  50.0028  50.0031  50.1200  50.1201
    50.1205  50.1209  50.4443  50.4444  50.5559  50.5561  50.5772  50.5774
    50.7637  50.7637  50.9147  50.9148  50.9152  50.9152  51.2850  51.2853
    51.4073  51.4073  51.4075  51.4083  51.7602  51.7610  51.8332  51.8333
    52.2036  52.2036  52.2039  52.2041  52.3709  52.3712  52.6441  52.6442

     the Fermi energy is    12.9464 ev

!    total energy              =   -3262.63002875 Ry
     Harris-Foulkes estimate   =   -3262.63002885 Ry
     estimated scf accuracy    <       0.00000011 Ry

     The total energy is the sum of the following terms:

     one-electron contribution =    -920.59808602 Ry
     hartree contribution      =     690.16710871 Ry
     xc contribution           =    -539.17539587 Ry
     ewald contribution        =   -2492.99511507 Ry
     Hubbard energy            =      -0.02785480 Ry
     smearing contrib. (-TS)   =      -0.00068570 Ry

     total magnetization       =    -0.00 Bohr mag/cell
     absolute magnetization    =     0.00 Bohr mag/cell

     convergence has been achieved in  10 iterations

     Writing output data file pwscf.save

     General routines

     Parallel routines
     Hubbard U routines

   This run was terminated on:  23:18:17  10Feb2014

   JOB DONE.