     Program PWSCF v.5.0.2 (svn rev. 9656) starts on  2May2014 at  9:59:31

     Current dimensions of program PWSCF are:
     Max number of different atomic species (ntypx) = 10
     Max number of k-points (npk) =  40000
     Max angular momentum in pseudopotentials (lmaxx) =  3
     Reading input from pwscf.in
Warning: card &CELL ignored
Warning: card / ignored

     Subspace diagonalization in iterative solution of the eigenvalue problem:
     a serial algorithm will be used

     bravais-lattice index     =            0
     lattice parameter (alat)  =      10.7336  a.u.
     unit-cell volume          =    6184.1966 (a.u.)^3
     number of atoms/cell      =           31
     number of atomic types    =            3
     number of electrons       =       238.00 (up: 130.00, down: 108.00)
     number of Kohn-Sham states=          345
     kinetic-energy cutoff     =      40.0000  Ry
     charge density cutoff     =     500.0000  Ry
     convergence threshold     =      1.0E-06
     mixing beta               =       0.7000
     number of iterations used =            8  plain     mixing
     Exchange-correlation      = SLA  PW   PBE  PBE ( 1 4 3 4 0)
     EXX-fraction              =        0.00
     nstep                     =           50

     celldm(1)=  10.733644  celldm(2)=   0.000000  celldm(3)=   0.000000
     celldm(4)=   0.000000  celldm(5)=   0.000000  celldm(6)=   0.000000

     crystal axes: (cart. coord. in units of alat)
               a(1) = (   1.000000   0.000000   0.000000 )
               a(2) = (   0.000000   1.085558   0.000000 )
               a(3) = (   0.000000   0.000000   4.606685 )

     reciprocal axes: (cart. coord. in units 2 pi/alat)
               b(1) = (  1.000000  0.000000  0.000000 )
               b(2) = (  0.000000  0.921185  0.000000 )
               b(3) = (  0.000000  0.000000  0.217076 )

     PseudoPot. # 1 for O  read from file:
     /home/camp/zhonxu/pseudo/o_pbe_v1.01.uspp.F.UPF
     MD5 check sum: 2bcb18d16ea4b960afae9ec6d52f22d2
     Pseudo is Ultrasoft + core correction, Zval =  6.0
     Generated by new atomic code, or converted to UPF format
     Using radial grid of  737 points,  5 beta functions with:
                l(1) =   0
                l(2) =   0
                l(3) =   1
                l(4) =   1
                l(5) =   2
     Q(r) pseudized with  8 coefficients,  rinner =    0.900   0.900   0.900
                                                       0.900   0.900

     PseudoPot. # 2 for Mn read from file:
     /home/camp/zhonxu/pseudo/mn_pbe_v1.uspp.F.UPF
     MD5 check sum: 5fd7c7b5c956fd19902447332617373a
     Pseudo is Ultrasoft + core correction, Zval = 15.0
     Generated by new atomic code, or converted to UPF format
     Using radial grid of  859 points,  6 beta functions with:
                l(1) =   0
                l(2) =   0
                l(3) =   1
                l(4) =   1
                l(5) =   2
                l(6) =   2
     Q(r) pseudized with  6 coefficients,  rinner =    1.150   1.150   1.150
                                                       1.150   1.150

     PseudoPot. # 3 for H  read from file:
     /home/camp/zhonxu/pseudo/h_pbe_v1.uspp.F.UPF
     MD5 check sum: 3408e3ff4ec8b0a4e358431e7e038a48
     Pseudo is Ultrasoft, Zval =  1.0
     Generated by new atomic code, or converted to UPF format
     Using radial grid of  615 points,  2 beta functions with:
                l(1) =   0
                l(2) =   0
     Q(r) pseudized with  8 coefficients,  rinner =    0.700

     atomic species   valence    mass     pseudopotential
        O0             6.00    15.99940     O ( 1.00)
        Mn1           15.00    54.93800     Mn( 1.00)
        H2             1.00     1.00794     H ( 1.00)

     Starting magnetic structure
     atomic species   magnetization
        O0           0.000
        Mn1          0.600
        H2           0.000

     Simplified LDA+U calculation (l_max = 2) with parameters (eV):
     atomic species    L          U    alpha       J0     beta
        Mn1            2     1.5000   0.0000   0.0000   0.0000

     No symmetry found

   Cartesian axes

     site n.     atom                  positions (alat units)
         1           O0  tau(   1) = (   0.0000000   0.0000000   1.7399910  )
         2           O0  tau(   2) = (   0.0000000   0.5427791   1.8336449  )
         3           Mn1 tau(   3) = (   0.2500000   0.5427791   2.0703364  )
         4           Mn1 tau(   4) = (   0.0000000   0.0000000   2.0664668  )
         5           O0  tau(   5) = (   0.2500000   0.8684466   2.0675263  )
         6           O0  tau(   6) = (   0.2500000   0.2171117   2.0713959  )
         7           O0  tau(   7) = (   0.0000000   0.5427791   2.2853304  )
         8           O0  tau(   8) = (   0.0000000   0.0000000   2.4130738  )
         9           Mn1 tau(   9) = (   0.2500000   0.0000000   2.6404597  )
        10           Mn1 tau(  10) = (   0.0000000   0.5427791   2.6100556  )
        11           O0  tau(  11) = (   0.2500000   0.7598908   2.6550169  )
        12           O0  tau(  12) = (   0.2500000   0.3256675   2.6553393  )
        13           O0  tau(  13) = (   0.0000000   0.0000000   2.8422786  )
        14           O0  tau(  14) = (   0.5000000   0.0000000   1.7417876  )
        15           O0  tau(  15) = (   0.5000000   0.5427791   1.8324472  )
        16           Mn1 tau(  16) = (   0.7500000   0.5427791   2.0703364  )
        17           Mn1 tau(  17) = (   0.5000000   0.0000000   2.0689544  )
        18           O0  tau(  18) = (   0.7500000   0.8684466   2.0673421  )
        19           O0  tau(  19) = (   0.7500000   0.2171117   2.0716263  )
        20           O0  tau(  20) = (   0.5000000   0.5427791   2.2770384  )
        21           O0  tau(  21) = (   0.5000000   0.0000000   2.4133962  )
        22           Mn1 tau(  22) = (   0.7500000   0.0000000   2.6405058  )
        23           Mn1 tau(  23) = (   0.5000000   0.5427791   2.7093297  )
        24           O0  tau(  24) = (   0.7500000   0.7598908   2.6549708  )
        25           O0  tau(  25) = (   0.7500000   0.3256675   2.6552472  )
        26           O0  tau(  26) = (   0.5000000   0.0000000   2.8420483  )
        27           H2  tau(  27) = (   0.0000300   0.7005108   1.7564369  )
        28           H2  tau(  28) = (   0.5000400   0.7015529   1.7568515  )
        29           H2  tau(  29) = (   0.1610500   0.0407627   1.6853097  )
        30           H2  tau(  30) = (   0.6609300   0.0408604   1.6868759  )
        31           O0  tau(  31) = (   0.5000700   0.5432134   2.9889094  )

     number of k points=    20  Methfessel-Paxton smearing, width (Ry)=  0.0100
                       cart. coord. in units 2pi/alat
        k(    1) = (   0.0000000   0.0000000   0.0000000), wk =   0.0625000
        k(    2) = (   0.0000000   0.2302962   0.0000000), wk =   0.1250000
        k(    3) = (   0.0000000  -0.4605925   0.0000000), wk =   0.0625000
        k(    4) = (   0.2500000   0.0000000   0.0000000), wk =   0.1250000
        k(    5) = (   0.2500000   0.2302962   0.0000000), wk =   0.1250000
        k(    6) = (   0.2500000  -0.4605925   0.0000000), wk =   0.1250000
        k(    7) = (  -0.5000000   0.0000000   0.0000000), wk =   0.0625000
        k(    8) = (  -0.5000000   0.2302962   0.0000000), wk =   0.1250000
        k(    9) = (  -0.5000000  -0.4605925   0.0000000), wk =   0.0625000
        k(   10) = (  -0.2500000   0.2302962   0.0000000), wk =   0.1250000
        k(   11) = (   0.0000000   0.0000000   0.0000000), wk =   0.0625000
        k(   12) = (   0.0000000   0.2302962   0.0000000), wk =   0.1250000
        k(   13) = (   0.0000000  -0.4605925   0.0000000), wk =   0.0625000
        k(   14) = (   0.2500000   0.0000000   0.0000000), wk =   0.1250000
        k(   15) = (   0.2500000   0.2302962   0.0000000), wk =   0.1250000
        k(   16) = (   0.2500000  -0.4605925   0.0000000), wk =   0.1250000
        k(   17) = (  -0.5000000   0.0000000   0.0000000), wk =   0.0625000
        k(   18) = (  -0.5000000   0.2302962   0.0000000), wk =   0.1250000
        k(   19) = (  -0.5000000  -0.4605925   0.0000000), wk =   0.0625000
        k(   20) = (  -0.2500000   0.2302962   0.0000000), wk =   0.1250000

     Largest allocated arrays     est. size (Mb)     dimensions
     Largest temporary arrays     est. size (Mb)     dimensions

     Check: negative/imaginary core charge=   -0.000022    0.000000

     Initial potential from superposition of free atoms
     Check: negative starting charge=(component1):   -0.000737
     Check: negative starting charge=(component2):   -0.000364

     starting charge  229.99987, renormalised to  238.00000

     negative rho (up, down):  0.762E-03 0.377E-03
     Number of +U iterations with fixed ns =  0
     Starting occupations:
 --- enter write_ns ---
 LDA+U parameters:
U( 2)     =  1.50000000
alpha( 2) =  0.00000000
atom    3   Tr[ns(na)] (up, down, total) =   5.00000  0.00000  5.00000
   spin  1
    eigenvalues:
  1.000  1.000  1.000  1.000  1.000
    eigenvectors:
  1.000  0.000  0.000  0.000  0.000
  0.000  1.000  0.000  0.000  0.000
  0.000  0.000  1.000  0.000  0.000
  0.000  0.000  0.000  1.000  0.000
  0.000  0.000  0.000  0.000  1.000
    occupations:
  1.000  0.000  0.000  0.000  0.000
  0.000  1.000  0.000  0.000  0.000
  0.000  0.000  1.000  0.000  0.000
  0.000  0.000  0.000  1.000  0.000
  0.000  0.000  0.000  0.000  1.000
   spin  2
    eigenvalues:
  0.000  0.000  0.000  0.000  0.000
    eigenvectors:
  1.000  0.000  0.000  0.000  0.000
  0.000  1.000  0.000  0.000  0.000
  0.000  0.000  1.000  0.000  0.000
  0.000  0.000  0.000  1.000  0.000
  0.000  0.000  0.000  0.000  1.000
    occupations:
  0.000  0.000  0.000  0.000  0.000
  0.000  0.000  0.000  0.000  0.000
  0.000  0.000  0.000  0.000  0.000
  0.000  0.000  0.000  0.000  0.000
  0.000  0.000  0.000  0.000  0.000
atomic mag. moment =     5.000000
atom    4   Tr[ns(na)] (up, down, total) =   5.00000  0.00000  5.00000
   spin  1
    eigenvalues:
  1.000  1.000  1.000  1.000  1.000
    eigenvectors:
  1.000  0.000  0.000  0.000  0.000
  0.000  1.000  0.000  0.000  0.000
  0.000  0.000  1.000  0.000  0.000
  0.000  0.000  0.000  1.000  0.000
  0.000  0.000  0.000  0.000  1.000
    occupations:
  1.000  0.000  0.000  0.000  0.000
  0.000  1.000  0.000  0.000  0.000
  0.000  0.000  1.000  0.000  0.000
  0.000  0.000  0.000  1.000  0.000
  0.000  0.000  0.000  0.000  1.000
   spin  2
    eigenvalues:
  0.000  0.000  0.000  0.000  0.000
    eigenvectors:
  1.000  0.000  0.000  0.000  0.000
  0.000  1.000  0.000  0.000  0.000
  0.000  0.000  1.000  0.000  0.000
  0.000  0.000  0.000  1.000  0.000
  0.000  0.000  0.000  0.000  1.000
    occupations:
  0.000  0.000  0.000  0.000  0.000
  0.000  0.000  0.000  0.000  0.000
  0.000  0.000  0.000  0.000  0.000
  0.000  0.000  0.000  0.000  0.000
  0.000  0.000  0.000  0.000  0.000
atomic mag. moment =     5.000000
atom    9   Tr[ns(na)] (up, down, total) =   5.00000  0.00000  5.00000
   spin  1
    eigenvalues:
  1.000  1.000  1.000  1.000  1.000
    eigenvectors:
  1.000  0.000  0.000  0.000  0.000
[...]
  0.007  0.406  0.002 -0.017  0.012
 -0.001  0.002  0.206  0.005 -0.012
  0.104 -0.017  0.005  0.345 -0.002
  0.002  0.012 -0.012 -0.002  0.185
atomic mag. moment =     2.832186
atom    4   Tr[ns(na)] (up, down, total) =   4.16667  1.32725  5.49392
   spin  1
    eigenvalues:
  0.565  0.612  0.991  0.998  1.000
    eigenvectors:
  0.000  0.999  0.000  0.001  0.000
  0.000  0.001  0.000  0.977  0.021
  0.000  0.000  0.000  0.021  0.978
  0.000  0.000  0.999  0.000  0.000
  1.000  0.000  0.000  0.000  0.000
    occupations:
  0.613 -0.013 -0.005  0.005 -0.000
 -0.013  0.998  0.000  0.000  0.002
 -0.005  0.000  1.000  0.000  0.000
  0.005  0.000  0.000  0.991  0.000
 -0.000  0.002  0.000  0.000  0.565
   spin  2
    eigenvalues:
  0.124  0.176  0.211  0.407  0.408
    eigenvectors:
  0.002  0.005  0.000  0.271  0.721
  0.001  0.920  0.074  0.001  0.004
  0.000  0.074  0.926  0.000  0.000
  0.997  0.001  0.000  0.000  0.001
  0.000  0.000  0.000  0.727  0.273
    occupations:
  0.406  0.016  0.005 -0.012 -0.000
  0.016  0.180 -0.009  0.001 -0.002
  0.005 -0.009  0.209  0.001  0.000
 -0.012  0.001  0.001  0.125 -0.000
 -0.000 -0.002  0.000 -0.000  0.407
atomic mag. moment =     2.839424
atom    9   Tr[ns(na)] (up, down, total) =   4.10037  1.45630  5.55666
   spin  1
    eigenvalues:
  0.616  0.619  0.924  0.949  0.992
    eigenvectors:
  0.198  0.000  0.000  0.000  0.801
  0.001  0.999  0.000  0.000  0.000
  0.000  0.000  0.033  0.967  0.000
  0.800  0.001  0.000  0.000  0.199
  0.000  0.000  0.967  0.033  0.000
    occupations:
  0.918  0.000 -0.000 -0.150  0.000
  0.000  0.619  0.000 -0.000 -0.000
 -0.000  0.000  0.948  0.000 -0.005
 -0.150 -0.000  0.000  0.691 -0.000
  0.000 -0.000 -0.005 -0.000  0.925
   spin  2
    eigenvalues:
  0.181  0.207  0.213  0.408  0.448
    eigenvectors:
  0.833  0.000  0.000  0.167  0.000
  0.000  0.000  0.000  0.001  0.999
  0.000  0.843  0.157  0.000  0.000
  0.167  0.000  0.000  0.832  0.001
  0.000  0.157  0.843  0.000  0.000
    occupations:
  0.219 -0.000  0.000  0.085 -0.000
 -0.000  0.448 -0.000 -0.001 -0.000
  0.000 -0.000  0.208  0.000  0.002
  0.085 -0.001  0.000  0.370 -0.000
 -0.000 -0.000  0.002 -0.000  0.212
atomic mag. moment =     2.644070
atom   10   Tr[ns(na)] (up, down, total) =   4.36056  1.06291  5.42348
   spin  1
    eigenvalues:
  0.596  0.789  0.986  0.993  0.996
    eigenvectors:
  0.000  0.982  0.000  0.018  0.000
  0.000  0.000  1.000  0.000  0.000
  0.000  0.000  0.000  0.000  1.000
  0.000  0.018  0.000  0.981  0.000
  1.000  0.000  0.000  0.000  0.000
    occupations:
  0.793  0.000  0.001  0.028  0.000
  0.000  0.986  0.000 -0.000 -0.000
  0.001  0.000  0.996 -0.000 -0.000
  0.028 -0.000 -0.000  0.989 -0.000
  0.000 -0.000 -0.000 -0.000  0.596
   spin  2
    eigenvalues:
  0.108  0.159  0.165  0.255  0.376
    eigenvectors:
  0.015  0.000  0.000  0.984  0.000
  0.000  1.000  0.000  0.000  0.000
  0.000  0.000  1.000  0.000  0.000
  0.985  0.000  0.000  0.015  0.000
  0.000  0.000  0.000  0.000  1.000
    occupations:
  0.253  0.000 -0.001 -0.018 -0.000
  0.000  0.159 -0.000 -0.000  0.000
 -0.001 -0.000  0.165  0.000 -0.000
 -0.018 -0.000  0.000  0.110 -0.000
 -0.000  0.000 -0.000 -0.000  0.376
atomic mag. moment =     3.297652
atom   16   Tr[ns(na)] (up, down, total) =   4.17077  1.33851  5.50928
   spin  1
    eigenvalues:
  0.591  0.600  0.990  0.991  0.998
    eigenvectors:
  0.181  0.058  0.709  0.033  0.019
  0.299  0.699  0.001  0.001  0.000
  0.000  0.000  0.042  0.071  0.887
  0.519  0.243  0.224  0.010  0.004
  0.000  0.000  0.024  0.885  0.090
    occupations:
  0.896  0.015 -0.004 -0.169  0.001
  0.015  0.598  0.001 -0.003 -0.010
 -0.004  0.001  0.997 -0.004 -0.002
 -0.169 -0.003 -0.004  0.688  0.000
  0.001 -0.010 -0.002  0.000  0.992
   spin  2
    eigenvalues:
  0.143  0.179  0.211  0.390  0.415
    eigenvectors:
  0.783  0.000  0.003  0.167  0.047
  0.003  0.002  0.000  0.311  0.683
  0.002  0.160  0.837  0.000  0.000
  0.211  0.000  0.000  0.521  0.268
  0.000  0.837  0.160  0.001  0.002
    occupations:
  0.197 -0.007 -0.001  0.104 -0.002
 -0.007  0.406 -0.001  0.017  0.012
 -0.001 -0.001  0.206  0.005  0.012
  0.104  0.017  0.005  0.345  0.001
 -0.002  0.012  0.012  0.001  0.185
atomic mag. moment =     2.832259
atom   17   Tr[ns(na)] (up, down, total) =   4.16484  1.32684  5.49169
   spin  1
    eigenvalues:
  0.565  0.613  0.991  0.997  0.998
    eigenvectors:
  0.000  0.999  0.000  0.000  0.001
  0.000  0.001  0.000  0.728  0.271
  0.000  0.000  0.001  0.271  0.728
  0.000  0.000  0.999  0.001  0.000
  1.000  0.000  0.000  0.000  0.000
    occupations:
  0.614 -0.012 -0.005  0.005 -0.000
 -0.012  0.997  0.000  0.000  0.002
 -0.005  0.000  0.998  0.000  0.000
  0.005  0.000  0.000  0.991  0.000
 -0.000  0.002  0.000  0.000  0.565
   spin  2
    eigenvalues:
  0.126  0.176  0.212  0.405  0.409
    eigenvectors:
  0.002  0.005  0.000  0.004  0.989
  0.001  0.929  0.065  0.000  0.005
  0.000  0.065  0.935  0.000  0.001
  0.998  0.001  0.000  0.000  0.001
  0.000  0.000  0.000  0.996  0.004
    occupations:
  0.407  0.016  0.005 -0.011 -0.000
  0.016  0.179 -0.009  0.000 -0.002
  0.005 -0.009  0.210  0.001  0.000
 -0.011  0.000  0.001  0.126 -0.000
 -0.000 -0.002  0.000 -0.000  0.405
atomic mag. moment =     2.837998
atom   22   Tr[ns(na)] (up, down, total) =   4.10011  1.45671  5.55682
   spin  1
    eigenvalues:
  0.616  0.619  0.924  0.949  0.992
    eigenvectors:
  0.183  0.015  0.000  0.000  0.801
  0.077  0.923  0.000  0.000  0.000
  0.000  0.000  0.031  0.969  0.000
  0.739  0.062  0.000  0.000  0.199
  0.000  0.000  0.969  0.031  0.000
    occupations:
  0.918  0.000 -0.000 -0.150 -0.000
  0.000  0.619  0.000  0.001 -0.000
 -0.000  0.000  0.948  0.000  0.004
 -0.150  0.001  0.000  0.691  0.000
 -0.000 -0.000  0.004  0.000  0.924
   spin  2
    eigenvalues:
  0.181  0.207  0.213  0.408  0.448
    eigenvectors:
  0.833  0.000  0.000  0.167  0.000
  0.000  0.000  0.000  0.001  0.999
  0.000  0.839  0.161  0.000  0.000
  0.167  0.000  0.000  0.833  0.001
  0.000  0.161  0.839  0.000  0.000
    occupations:
  0.219  0.000  0.000  0.085 -0.000
  0.000  0.448 -0.000  0.001 -0.000
  0.000 -0.000  0.208  0.000 -0.002
  0.085  0.001  0.000  0.370  0.000
 -0.000 -0.000 -0.002  0.000  0.212
atomic mag. moment =     2.643395
atom   23   Tr[ns(na)] (up, down, total) =   3.84653  1.82058  5.66711
   spin  1
    eigenvalues:
  0.584  0.632  0.794  0.842  0.995
    eigenvectors:
  0.000  0.999  0.000  0.000  0.001
  0.000  0.000  0.000  1.000  0.000
  0.000  0.000  1.000  0.000  0.000
  0.000  0.001  0.000  0.000  0.999
  1.000  0.000  0.000  0.000  0.000
    occupations:
  0.632  0.000  0.001  0.010  0.000
  0.000  0.842  0.000  0.000  0.000
  0.001  0.000  0.794 -0.000  0.000
  0.010  0.000 -0.000  0.995 -0.000
  0.000  0.000  0.000 -0.000  0.584
   spin  2
    eigenvalues:
  0.127  0.385  0.394  0.424  0.491
    eigenvectors:
  0.001  0.000  0.000  0.000  0.999
  0.000  0.000  1.000  0.000  0.000
  0.000  1.000  0.000  0.000  0.000
  0.999  0.000  0.000  0.000  0.001
  0.000  0.000  0.000  1.000  0.000
    occupations:
  0.491 -0.000 -0.000 -0.010 -0.000
 -0.000  0.394 -0.000 -0.000 -0.000
 -0.000 -0.000  0.385  0.001 -0.000
 -0.010 -0.000  0.001  0.127  0.000
 -0.000 -0.000 -0.000  0.000  0.424
atomic mag. moment =     2.025948
N of occupied +U levels =  44.2082069
 --- exit write_ns ---

 ------ SPIN UP ------------

[...]

 ------ SPIN DOWN ----------

[...]

          k = 0.2500-0.4606 0.0000 ( 26462 PWs)   bands (ev):

[...]

          k =-0.2500 0.2303 0.0000 ( 26396 PWs)   bands (ev):

   -81.8919 -80.8186 -80.8102 -80.7848 -80.7767 -80.6658 -80.6337 -80.3260
   -50.9858 -50.5097 -50.4971 -49.7111 -49.7076 -49.6998 -49.6894 -49.6204
   -49.6082 -49.5938 -49.5765 -49.5630 -49.5130 -49.4979 -49.4800 -49.4708
   -49.4387 -49.4120 -49.3938 -49.3842 -49.2814 -49.2482 -49.1541 -48.8569
   -21.8416 -21.3901 -21.3082 -20.9771 -20.6929 -20.5752 -20.4544 -20.3791
   -20.2765 -20.1851 -20.0900 -19.9666 -19.8932 -19.8649 -19.8081 -19.6315
   -19.4388 -19.4066 -19.2707  -9.3459  -9.1175  -8.7989  -8.6700  -8.5819
    -8.3056  -8.1597  -8.0963  -7.8628  -7.7376  -7.6410  -7.5740  -7.5156
    -7.4517  -7.3597  -7.1672  -7.1248  -7.0005  -6.9108  -6.8269  -6.7542
    -6.6729  -6.6022  -6.5013  -6.3776  -6.2687  -6.1903  -6.0821  -5.9943
    -5.9438  -5.8449  -5.7637  -5.6825  -5.5782  -5.5223  -5.4043  -5.2932
    -5.1308  -4.9644  -4.8605  -4.7905  -4.6325  -4.5861  -4.5300  -4.4411
    -4.3329  -4.2576  -4.1496  -4.0055  -3.9171  -3.7923  -3.7230  -3.5768
    -3.4192  -3.3640  -3.1576  -2.8888  -1.2674  -0.9829  -0.8563  -0.7967
    -0.7716  -0.7359  -0.6908  -0.6193  -0.5726  -0.5326  -0.4200  -0.3814
    -0.3326  -0.2667  -0.1636  -0.1495  -0.0842  -0.0502   0.0788   0.1310
     0.2385   0.3518   0.4310   0.5031   0.5461   0.6382   0.8258   0.9104
     1.1770   1.2601   1.3896   1.5371   1.5503   1.7888   2.0185   2.0455
     2.1387   2.3553   2.4480   2.5580   3.6168   4.3268   4.5642   4.9858
     5.3963   5.6201   5.6598   6.1615   6.3251   6.5652   6.5788   6.7818
     6.8650   7.0128   7.0892   7.4223   7.5460   7.7927   7.8966   8.0475
     8.3468   8.4304   8.5794   8.6482   8.8277   8.9220   9.0145   9.1632
     9.2067   9.3262   9.5038   9.5610   9.7707   9.8870  10.0418  10.1282
    10.2193  10.2652  10.3827  10.4523  10.6081  10.7100  10.8130  10.9292
    11.0707  11.1415  11.2359  11.2930  11.4055  11.4776  11.6099  11.6524
    11.7004  11.8232  11.9036  11.9761  11.9940  12.1418  12.3440  12.3867
    12.4357  12.5396  12.5697  12.7187  12.7858  12.8641  12.9663  12.9870
    13.0534  13.0936  13.1744  13.2308  13.3551  13.4034  13.4878  13.5336
    13.6084  13.7277  13.7573  13.8079  13.8894  13.9902  14.0834  14.1073
    14.2288  14.3049  14.3305  14.3908  14.4699  14.5152  14.5794  14.6491
    14.7627  14.8212  14.9353  14.9920  15.0576  15.1036  15.1794  15.2824
    15.3505  15.4416  15.5356  15.6162  15.7133  15.8419  15.9933  16.0603
    16.1369  16.1956  16.2729  16.3361  16.4419  16.5410  16.5538  16.5831
    16.6836  16.7537  16.8557  16.9751  17.0275  17.0865  17.1943  17.2576
    17.3380  17.3434  17.4297  17.5012  17.6023  17.6341  17.7237  17.7803
    17.8765  17.8990  17.9469  18.0714  18.1494  18.2141  18.2996  18.3474
    18.3999  18.5354  18.6038  18.6804  18.7496  18.8013  18.9162  19.0190
    19.0798  19.1055  19.1730  19.2307  19.2787  19.4001  19.4724  19.5026
    19.6271  19.6912  19.8143  19.8715  19.9497  20.0067  20.0573  20.1008
    20.1928  20.2783  20.3044  20.3422  20.4104  20.5072  20.6107  20.7147
    20.8336  20.9176  21.0084  21.0486  21.0890  21.1614  21.2151  21.3560
    21.4173  21.4526  21.5165  21.6088  21.6600  21.7026  21.7463  21.8213
    21.9304  21.9993  22.1094  22.1745  22.2573  22.4085  22.4764  22.5165
    22.5709

     the spin up/dw Fermi energies are    -2.2873   -1.7411 ev

!    total energy              =   -2320.32705240 Ry
     Harris-Foulkes estimate   =   -2320.32705240 Ry
     estimated scf accuracy    <          5.4E-09 Ry

     The total energy is the sum of the following terms:

     one-electron contribution =  -26345.12763177 Ry
     hartree contribution      =   13188.58003112 Ry
     xc contribution           =    -347.96132601 Ry
     ewald contribution        =   11183.52903985 Ry
     Hubbard energy            =       0.65331689 Ry
     smearing contrib. (-TS)   =      -0.00048248 Ry

     total magnetization       =    22.00 Bohr mag/cell
     absolute magnetization    =    25.01 Bohr mag/cell

     convergence has been achieved in  22 iterations

     Forces acting on atoms (Ry/au):

     negative rho (up, down):  0.214E-02 0.133E-02
     atom    1 type  1   force =    -0.00591735   -0.01553299   -0.00064959
     atom    2 type  1   force =     0.00029061    0.01068127   -0.00033153
     atom    3 type  2   force =     0.04358203   -0.00254088   -0.00005530
     atom    4 type  2   force =     0.00611030    0.01122348   -0.00018457
     atom    5 type  1   force =     0.00104318    0.01601579    0.00040787
     atom    6 type  1   force =    -0.00527172   -0.01842622    0.00014873
     atom    7 type  1   force =     0.00003646    0.00043053    0.00087466
     atom    8 type  1   force =    -0.00082706   -0.00122529    0.00026739
     atom    9 type  2   force =     0.01123488    0.00020425   -0.00040892
     atom   10 type  2   force =    -0.00001100   -0.00086787   -0.00004219
     atom   11 type  1   force =     0.00724214   -0.06533053    0.00017357
     atom   12 type  1   force =     0.00696968    0.06545978    0.00016136
     atom   13 type  1   force =    -0.00034835   -0.00023104   -0.00062570
     atom   14 type  1   force =    -0.00627288   -0.01599406   -0.00062611
     atom   15 type  1   force =     0.00029112    0.01127520    0.00035848
     atom   16 type  2   force =    -0.04451928   -0.00246189   -0.00005529
     atom   17 type  2   force =     0.00607754    0.01122909   -0.00013589
     atom   18 type  1   force =     0.00525344    0.01577794    0.00037032
     atom   19 type  1   force =    -0.00040352   -0.01849225    0.00017485
     atom   20 type  1   force =    -0.00009474   -0.00039778   -0.00070745
     atom   21 type  1   force =    -0.00092329   -0.00119451    0.00018428
     atom   22 type  2   force =    -0.01001749    0.00043461   -0.00040973
     atom   23 type  2   force =    -0.00005661   -0.00010649    0.00042155
     atom   24 type  1   force =    -0.00716676   -0.06530151    0.00017089
     atom   25 type  1   force =    -0.00694381    0.06543207    0.00016215
     atom   26 type  1   force =    -0.00027602   -0.00032418   -0.00070983
     atom   27 type  3   force =    -0.00002476    0.00019119   -0.00016056
     atom   28 type  3   force =    -0.00002302   -0.00024130   -0.00006490
     atom   29 type  3   force =     0.00048462    0.00013561    0.00051349
     atom   30 type  3   force =     0.00048222    0.00014378    0.00052989
     atom   31 type  1   force =    -0.00000055    0.00003420    0.00024807

     Total force =     0.002366     Total SCF correction =     0.000171

     bfgs converged in  14 scf cycles and  13 bfgs steps
     (criteria: energy < 0.10E-03, force < 0.10E-02)

     End of BFGS Geometry Optimization

     Final energy   =   -2320.3270524007 Ry
Begin final coordinates

ATOMIC_POSITIONS (crystal)
O0       0.000000000   0.000000000   0.376775984    0   0   1
O0       0.000000000   0.500000000   0.397311346    0   0   1
Mn1      0.250000000   0.500000000   0.448959906    0   0   1
Mn1      0.000000000   0.000000000   0.447807861    0   0   1
O0       0.250000000   0.800000000   0.448320202    0   0   1
O0       0.250000000   0.200000000   0.449424678    0   0   1
O0       0.000000000   0.500000000   0.495473650    0   0   1
O0       0.000000000   0.000000000   0.524241825    0   0   1
Mn1      0.250000000   0.000000000   0.573335838    0   0   1
Mn1      0.000000000   0.500000000   0.567149096    0   0   1
O0       0.250000000   0.700000000   0.577184601    0   0   1
O0       0.250000000   0.300000000   0.577322278    0   0   1
O0       0.000000000   0.000000000   0.618125090    0   0   1
O0       0.500000000   0.000000000   0.377238648    0   0   1
O0       0.500000000   0.500000000   0.397131747    0   0   1
Mn1      0.750000000   0.500000000   0.448963868    0   0   1
Mn1      0.500000000   0.000000000   0.448411933    0   0   1
O0       0.750000000   0.800000000   0.448324228    0   0   1
O0       0.750000000   0.200000000   0.449441372    0   0   1
O0       0.500000000   0.500000000   0.494354913    0   0   1
O0       0.500000000   0.000000000   0.524319841    0   0   1
Mn1      0.750000000   0.000000000   0.573352363    0   0   1
Mn1      0.500000000   0.500000000   0.589347051    0   0   1
O0       0.750000000   0.700000000   0.577167226    0   0   1
O0       0.750000000   0.300000000   0.577289300    0   0   1
O0       0.500000000   0.000000000   0.618116645    0   0   1
H2       0.000200126   0.645523377   0.380676743
H2       0.500167946   0.646646860   0.380886706
H2       0.160955227   0.038724063   0.365091172
H2       0.660762286   0.038595715   0.365417617
O0       0.500102887   0.500633149   0.650196269
End final coordinates

     General routines

     Parallel routines
     Hubbard U routines

   This run was terminated on:  11:36:59   3May2014

   JOB DONE.
Running PBS batch system epilogue script
Job id: 340674.audhumbla.fysik.dtu.dk
Username: zhonxu
Groupname: campgst
Jobname: MnO2/Eads-2-layers/O-U-1.5
Sessionid: 1278
Queuename: verylong
Accounting:
This job has allocated the following 16 nodes:
a122 a122 a122 a122 a122 a122 a122 a122 a106 a106 a106 a106 a106 a106 a106 a106
Finished epilogue job 340674.audhumbla.fysik.dtu.dk for zhonxu