     Program PWSCF v.5.0.2 (svn rev. 9656) starts on  4May2014 at 19:16:48

     Current dimensions of program PWSCF are:
     Max number of different atomic species (ntypx) = 10
     Max number of k-points (npk) =  40000
     Max angular momentum in pseudopotentials (lmaxx) =  3
     Reading input from pwscf.in
Warning: card &CELL ignored
Warning: card / ignored

     Subspace diagonalization in iterative solution of the eigenvalue problem:
     a serial algorithm will be used

     bravais-lattice index     =            0
     lattice parameter (alat)  =      10.7336  a.u.
     unit-cell volume          =    6184.1966 (a.u.)^3
     number of atoms/cell      =           32
     number of atomic types    =            3
     number of electrons       =       239.00 (up: 131.00, down: 108.00)
     number of Kohn-Sham states=          346
     kinetic-energy cutoff     =      40.0000  Ry
     charge density cutoff     =     500.0000  Ry
     convergence threshold     =      1.0E-06
     mixing beta               =       0.7000
     number of iterations used =            8  plain     mixing
     Exchange-correlation      = SLA  PW   PBE  PBE ( 1 4 3 4 0)
     EXX-fraction              =        0.00
     nstep                     =           50

     celldm(1)=  10.733644  celldm(2)=   0.000000  celldm(3)=   0.000000
     celldm(4)=   0.000000  celldm(5)=   0.000000  celldm(6)=   0.000000

     crystal axes: (cart. coord. in units of alat)
               a(1) = (   1.000000   0.000000   0.000000 )
               a(2) = (   0.000000   1.085558   0.000000 )
               a(3) = (   0.000000   0.000000   4.606685 )

     reciprocal axes: (cart. coord. in units 2 pi/alat)
               b(1) = (  1.000000  0.000000  0.000000 )
               b(2) = (  0.000000  0.921185  0.000000 )
               b(3) = (  0.000000  0.000000  0.217076 )

     PseudoPot. # 1 for O  read from file:
     /home/camp/zhonxu/pseudo/o_pbe_v1.01.uspp.F.UPF
     MD5 check sum: 2bcb18d16ea4b960afae9ec6d52f22d2
     Pseudo is Ultrasoft + core correction, Zval =  6.0
     Generated by new atomic code, or converted to UPF format
     Using radial grid of  737 points,  5 beta functions with:
                l(1) =   0
                l(2) =   0
                l(3) =   1
                l(4) =   1
                l(5) =   2
     Q(r) pseudized with  8 coefficients,  rinner =    0.900   0.900   0.900
                                                       0.900   0.900

     PseudoPot. # 2 for Mn read from file:
     /home/camp/zhonxu/pseudo/mn_pbe_v1.uspp.F.UPF
     MD5 check sum: 5fd7c7b5c956fd19902447332617373a
     Pseudo is Ultrasoft + core correction, Zval = 15.0
     Generated by new atomic code, or converted to UPF format
     Using radial grid of  859 points,  6 beta functions with:
                l(1) =   0
                l(2) =   0
                l(3) =   1
                l(4) =   1
                l(5) =   2
                l(6) =   2
     Q(r) pseudized with  6 coefficients,  rinner =    1.150   1.150   1.150
                                                       1.150   1.150

     PseudoPot. # 3 for H  read from file:
     /home/camp/zhonxu/pseudo/h_pbe_v1.uspp.F.UPF
     MD5 check sum: 3408e3ff4ec8b0a4e358431e7e038a48
     Pseudo is Ultrasoft, Zval =  1.0
     Generated by new atomic code, or converted to UPF format
     Using radial grid of  615 points,  2 beta functions with:
                l(1) =   0
                l(2) =   0
     Q(r) pseudized with  8 coefficients,  rinner =    0.700

     atomic species   valence    mass     pseudopotential
        O0             6.00    15.99940     O ( 1.00)
        Mn1           15.00    54.93800     Mn( 1.00)
        H2             1.00     1.00794     H ( 1.00)

     Starting magnetic structure
     atomic species   magnetization
        O0           0.000
        Mn1          0.600
        H2           0.000

     Simplified LDA+U calculation (l_max = 2) with parameters (eV):
     atomic species    L          U    alpha       J0     beta
        Mn1            2     3.5000   0.0000   0.0000   0.0000

     No symmetry found

   Cartesian axes

     site n.     atom                  positions (alat units)
         1           O0  tau(   1) = (   0.0000000   0.0000000   1.7414191  )
         2           O0  tau(   2) = (   0.0000000   0.5427791   1.8381134  )
         3           Mn1 tau(   3) = (   0.2500000   0.5427791   2.0740217  )
         4           Mn1 tau(   4) = (   0.0000000   0.0000000   2.0686319  )
         5           O0  tau(   5) = (   0.2500000   0.8684466   2.0678488  )
         6           O0  tau(   6) = (   0.2500000   0.2171117   2.0737453  )
         7           O0  tau(   7) = (   0.0000000   0.5427791   2.2873573  )
         8           O0  tau(   8) = (   0.0000000   0.0000000   2.4132120  )
         9           Mn1 tau(   9) = (   0.2500000   0.0000000   2.6399991  )
        10           Mn1 tau(  10) = (   0.0000000   0.5427791   2.6085815  )
        11           O0  tau(  11) = (   0.2500000   0.7598908   2.6551551  )
        12           O0  tau(  12) = (   0.2500000   0.3256675   2.6556157  )
        13           O0  tau(  13) = (   0.0000000   0.0000000   2.8417258  )
        14           O0  tau(  14) = (   0.5000000   0.0000000   1.7428932  )
        15           O0  tau(  15) = (   0.5000000   0.5427791   1.8386662  )
        16           Mn1 tau(  16) = (   0.7500000   0.5427791   2.0740678  )
        17           Mn1 tau(  17) = (   0.5000000   0.0000000   2.0707510  )
        18           O0  tau(  18) = (   0.7500000   0.8684466   2.0677106  )
        19           O0  tau(  19) = (   0.7500000   0.2171117   2.0738835  )
        20           O0  tau(  20) = (   0.5000000   0.5427791   2.2871270  )
        21           O0  tau(  21) = (   0.5000000   0.0000000   2.4132120  )
        22           Mn1 tau(  22) = (   0.7500000   0.0000000   2.6413811  )
        23           Mn1 tau(  23) = (   0.5000000   0.5427791   2.6662572  )
        24           O0  tau(  24) = (   0.7500000   0.7598908   2.6473698  )
        25           O0  tau(  25) = (   0.7500000   0.3256675   2.6477844  )
        26           O0  tau(  26) = (   0.5000000   0.0000000   2.8412191  )
        27           H2  tau(  27) = (   0.0000400   0.7014118   1.7620570  )
        28           H2  tau(  28) = (   0.5000900   0.7016832   1.7629323  )
        29           H2  tau(  29) = (   0.1613600   0.0398291   1.6869220  )
        30           H2  tau(  30) = (   0.6610200   0.0399703   1.6876591  )
        31           O0  tau(  31) = (   0.5153900   0.5432351   2.9826904  )
        32           H2  tau(  32) = (   0.3575300   0.5430397   3.0540479  )

     number of k points=    20  Methfessel-Paxton smearing, width (Ry)=  0.0100
                       cart. coord. in units 2pi/alat
        k(    1) = (   0.0000000   0.0000000   0.0000000), wk =   0.0625000
        k(    2) = (   0.0000000   0.2302962   0.0000000), wk =   0.1250000
        k(    3) = (   0.0000000  -0.4605925   0.0000000), wk =   0.0625000
        k(    4) = (   0.2500000   0.0000000   0.0000000), wk =   0.1250000
        k(    5) = (   0.2500000   0.2302962   0.0000000), wk =   0.1250000
        k(    6) = (   0.2500000  -0.4605925   0.0000000), wk =   0.1250000
        k(    7) = (  -0.5000000   0.0000000   0.0000000), wk =   0.0625000
        k(    8) = (  -0.5000000   0.2302962   0.0000000), wk =   0.1250000
        k(    9) = (  -0.5000000  -0.4605925   0.0000000), wk =   0.0625000
        k(   10) = (  -0.2500000   0.2302962   0.0000000), wk =   0.1250000
        k(   11) = (   0.0000000   0.0000000   0.0000000), wk =   0.0625000
        k(   12) = (   0.0000000   0.2302962   0.0000000), wk =   0.1250000
        k(   13) = (   0.0000000  -0.4605925   0.0000000), wk =   0.0625000
        k(   14) = (   0.2500000   0.0000000   0.0000000), wk =   0.1250000
        k(   15) = (   0.2500000   0.2302962   0.0000000), wk =   0.1250000
        k(   16) = (   0.2500000  -0.4605925   0.0000000), wk =   0.1250000
        k(   17) = (  -0.5000000   0.0000000   0.0000000), wk =   0.0625000
        k(   18) = (  -0.5000000   0.2302962   0.0000000), wk =   0.1250000
        k(   19) = (  -0.5000000  -0.4605925   0.0000000), wk =   0.0625000
        k(   20) = (  -0.2500000   0.2302962   0.0000000), wk =   0.1250000

     Largest allocated arrays     est. size (Mb)     dimensions
     Largest temporary arrays     est. size (Mb)     dimensions

     Check: negative/imaginary core charge=   -0.000022    0.000000

     Initial potential from superposition of free atoms
     Check: negative starting charge=(component1):   -0.000716
     Check: negative starting charge=(component2):   -0.000389

     starting charge  230.99986, renormalised to  239.00000

     negative rho (up, down):  0.741E-03 0.403E-03
     Number of +U iterations with fixed ns =  0
     Starting occupations:
 --- enter write_ns ---
 LDA+U parameters:
U( 2)     =  3.50000000
alpha( 2) =  0.00000000
atom    3   Tr[ns(na)] (up, down, total) =   5.00000  0.00000  5.00000
   spin  1
    eigenvalues:
  1.000  1.000  1.000  1.000  1.000
    eigenvectors:
  1.000  0.000  0.000  0.000  0.000
  0.000  1.000  0.000  0.000  0.000
  0.000  0.000  1.000  0.000  0.000
  0.000  0.000  0.000  1.000  0.000
  0.000  0.000  0.000  0.000  1.000
    occupations:
  1.000  0.000  0.000  0.000  0.000
  0.000  1.000  0.000  0.000  0.000
  0.000  0.000  1.000  0.000  0.000
  0.000  0.000  0.000  1.000  0.000
  0.000  0.000  0.000  0.000  1.000
   spin  2
    eigenvalues:
  0.000  0.000  0.000  0.000  0.000
    eigenvectors:
  1.000  0.000  0.000  0.000  0.000
  0.000  1.000  0.000  0.000  0.000
  0.000  0.000  1.000  0.000  0.000
  0.000  0.000  0.000  1.000  0.000
  0.000  0.000  0.000  0.000  1.000
    occupations:
  0.000  0.000  0.000  0.000  0.000
  0.000  0.000  0.000  0.000  0.000
  0.000  0.000  0.000  0.000  0.000
  0.000  0.000  0.000  0.000  0.000
  0.000  0.000  0.000  0.000  0.000
atomic mag. moment =     5.000000
atom    4   Tr[ns(na)] (up, down, total) =   5.00000  0.00000  5.00000
   spin  1
    eigenvalues:
  1.000  1.000  1.000  1.000  1.000
    eigenvectors:
  1.000  0.000  0.000  0.000  0.000
  0.000  1.000  0.000  0.000  0.000
  0.000  0.000  1.000  0.000  0.000
  0.000  0.000  0.000  1.000  0.000
  0.000  0.000  0.000  0.000  1.000
    occupations:
  1.000  0.000  0.000  0.000  0.000
  0.000  1.000  0.000  0.000  0.000
  0.000  0.000  1.000  0.000  0.000
  0.000  0.000  0.000  1.000  0.000
  0.000  0.000  0.000  0.000  1.000
   spin  2
    eigenvalues:
  0.000  0.000  0.000  0.000  0.000
    eigenvectors:
  1.000  0.000  0.000  0.000  0.000
  0.000  1.000  0.000  0.000  0.000
  0.000  0.000  1.000  0.000  0.000
  0.000  0.000  0.000  1.000  0.000
  0.000  0.000  0.000  0.000  1.000
    occupations:
  0.000  0.000  0.000  0.000  0.000
  0.000  0.000  0.000  0.000  0.000
  0.000  0.000  0.000  0.000  0.000
  0.000  0.000  0.000  0.000  0.000
  0.000  0.000  0.000  0.000  0.000
atomic mag. moment =     5.000000
atom    9   Tr[ns(na)] (up, down, total) =   5.00000  0.00000  5.00000
   spin  1
    eigenvalues:
  1.000  1.000  1.000  1.000  1.000
[...]
  0.003  0.009  0.988  0.000  0.000
  0.217  0.000  0.000  0.146  0.637
  0.000  0.989  0.009  0.002  0.000
    occupations:
  0.165 -0.003 -0.002  0.114 -0.000
 -0.003  0.377  0.000 -0.001  0.011
 -0.002  0.000  0.159  0.003 -0.002
  0.114 -0.001  0.003  0.321 -0.000
 -0.000  0.011 -0.002 -0.000  0.138
atomic mag. moment =     3.118614
atom    4   Tr[ns(na)] (up, down, total) =   4.27201  1.15875  5.43075
   spin  1
    eigenvalues:
  0.606  0.664  0.995  1.003  1.004
    eigenvectors:
  0.000  0.998  0.000  0.000  0.001
  0.000  0.001  0.000  0.005  0.994
  0.000  0.000  0.000  0.994  0.005
  0.000  0.000  0.999  0.000  0.000
  1.000  0.000  0.000  0.000  0.000
    occupations:
  0.665 -0.011 -0.006  0.006 -0.001
 -0.011  1.003 -0.000  0.000 -0.001
 -0.006 -0.000  1.003  0.000  0.000
  0.006  0.000  0.000  0.995  0.000
 -0.001 -0.001  0.000  0.000  0.606
   spin  2
    eigenvalues:
  0.100  0.135  0.159  0.378  0.387
    eigenvectors:
  0.003  0.004  0.000  0.993  0.000
  0.001  0.887  0.109  0.003  0.000
  0.001  0.108  0.891  0.001  0.000
  0.995  0.002  0.000  0.002  0.000
  0.000  0.000  0.000  0.000  0.999
    occupations:
  0.376  0.014  0.006 -0.014  0.000
  0.014  0.139 -0.007  0.000 -0.004
  0.006 -0.007  0.156  0.001 -0.000
 -0.014  0.000  0.001  0.101 -0.000
  0.000 -0.004 -0.000 -0.000  0.387
atomic mag. moment =     3.113260
atom    9   Tr[ns(na)] (up, down, total) =   4.25113  1.22026  5.47139
   spin  1
    eigenvalues:
  0.647  0.663  0.959  0.985  0.997
    eigenvectors:
  0.219  0.000  0.000  0.000  0.781
  0.000  1.000  0.000  0.000  0.000
  0.000  0.000  0.023  0.977  0.000
  0.781  0.000  0.000  0.000  0.219
  0.000  0.000  0.977  0.023  0.000
    occupations:
  0.921  0.001 -0.000 -0.145  0.000
  0.001  0.663  0.000 -0.001  0.000
 -0.000  0.000  0.984 -0.000  0.004
 -0.145 -0.001 -0.000  0.724  0.000
  0.000  0.000  0.004  0.000  0.959
   spin  2
    eigenvalues:
  0.126  0.148  0.150  0.386  0.411
    eigenvectors:
  0.816  0.000  0.000  0.184  0.000
  0.000  0.000  0.000  0.003  0.997
  0.000  0.023  0.977  0.000  0.000
  0.184  0.000  0.000  0.814  0.002
  0.000  0.977  0.023  0.000  0.000
    occupations:
  0.174 -0.001  0.000  0.101 -0.000
 -0.001  0.411 -0.000  0.002 -0.000
  0.000 -0.000  0.150  0.000  0.000
  0.101  0.002  0.000  0.338 -0.000
 -0.000 -0.000  0.000 -0.000  0.148
atomic mag. moment =     3.030862
atom   10   Tr[ns(na)] (up, down, total) =   4.49739  0.86348  5.36086
   spin  1
    eigenvalues:
  0.618  0.884  0.996  0.998  1.002
    eigenvectors:
  0.000  0.984  0.016  0.001  0.000
  0.000  0.001  0.015  0.983  0.000
  0.000  0.000  0.000  0.000  1.000
  0.000  0.015  0.969  0.016  0.000
  1.000  0.000  0.000  0.000  0.000
    occupations:
  0.886 -0.004  0.001  0.013 -0.000
 -0.004  0.998  0.000  0.001 -0.001
  0.001  0.000  1.002 -0.000  0.006
  0.013  0.001 -0.000  0.994 -0.000
 -0.000 -0.001  0.006 -0.000  0.618
   spin  2
    eigenvalues:
  0.087  0.112  0.116  0.199  0.349
    eigenvectors:
  0.018  0.000  0.000  0.981  0.000
  0.000  0.000  1.000  0.000  0.000
  0.000  1.000  0.000  0.000  0.000
  0.982  0.000  0.000  0.018  0.000
  0.000  0.000  0.000  0.000  1.000
    occupations:
  0.197  0.001 -0.000 -0.015  0.000
  0.001  0.116 -0.000 -0.000  0.001
 -0.000 -0.000  0.112 -0.000 -0.004
 -0.015 -0.000 -0.000  0.089 -0.000
  0.000  0.001 -0.004 -0.000  0.349
atomic mag. moment =     3.633910
atom   16   Tr[ns(na)] (up, down, total) =   4.27847  1.15911  5.43758
   spin  1
    eigenvalues:
  0.634  0.646  0.997  0.997  1.004
    eigenvectors:
  0.216  0.028  0.728  0.007  0.021
  0.138  0.861  0.000  0.001  0.000
  0.000  0.000  0.024  0.002  0.974
  0.646  0.110  0.238  0.002  0.004
  0.000  0.001  0.010  0.989  0.001
    occupations:
  0.909 -0.008 -0.004 -0.155 -0.000
 -0.008  0.645  0.000 -0.000 -0.009
 -0.004  0.000  1.004 -0.005 -0.000
 -0.155 -0.000 -0.005  0.724  0.000
 -0.000 -0.009 -0.000  0.000  0.997
   spin  2
    eigenvalues:
  0.104  0.137  0.160  0.376  0.382
    eigenvectors:
  0.780  0.000  0.003  0.026  0.191
  0.000  0.002  0.000  0.871  0.127
  0.003  0.008  0.989  0.000  0.000
  0.217  0.000  0.000  0.101  0.682
  0.000  0.990  0.008  0.002  0.000
    occupations:
  0.165  0.002 -0.002  0.114 -0.000
  0.002  0.376 -0.000  0.001  0.011
 -0.002 -0.000  0.159  0.003  0.002
  0.114  0.001  0.003  0.321 -0.000
 -0.000  0.011  0.002 -0.000  0.138
atomic mag. moment =     3.119361
atom   17   Tr[ns(na)] (up, down, total) =   4.27101  1.15839  5.42940
   spin  1
    eigenvalues:
  0.607  0.663  0.995  1.003  1.003
    eigenvectors:
  0.000  0.998  0.000  0.000  0.001
  0.000  0.001  0.000  0.071  0.928
  0.000  0.000  0.000  0.929  0.071
  0.000  0.000  0.999  0.000  0.000
  1.000  0.000  0.000  0.000  0.000
    occupations:
  0.663 -0.011 -0.006  0.006 -0.001
 -0.011  1.003 -0.000  0.000 -0.000
 -0.006 -0.000  1.003  0.000 -0.000
  0.006  0.000  0.000  0.995  0.000
 -0.001 -0.000 -0.000  0.000  0.607
   spin  2
    eigenvalues:
  0.101  0.136  0.158  0.378  0.387
    eigenvectors:
  0.003  0.004  0.000  0.993  0.000
  0.001  0.886  0.110  0.003  0.000
  0.001  0.109  0.890  0.001  0.000
  0.995  0.002  0.000  0.002  0.000
  0.000  0.000  0.000  0.000  0.999
    occupations:
  0.377  0.014  0.006 -0.014  0.000
  0.014  0.139 -0.007  0.000 -0.004
  0.006 -0.007  0.155  0.001  0.000
 -0.014  0.000  0.001  0.101 -0.000
  0.000 -0.004  0.000 -0.000  0.386
atomic mag. moment =     3.112624
atom   22   Tr[ns(na)] (up, down, total) =   4.24490  1.22879  5.47369
   spin  1
    eigenvalues:
  0.646  0.661  0.956  0.984  0.997
    eigenvectors:
  0.220  0.001  0.000  0.000  0.779
  0.005  0.995  0.000  0.000  0.000
  0.000  0.000  0.063  0.937  0.000
  0.776  0.003  0.000  0.000  0.221
  0.000  0.000  0.937  0.063  0.000
    occupations:
  0.920 -0.001 -0.000 -0.146 -0.000
 -0.001  0.661  0.000  0.002 -0.000
 -0.000  0.000  0.983 -0.000 -0.007
 -0.146  0.002 -0.000  0.724  0.000
 -0.000 -0.000 -0.007  0.000  0.957
   spin  2
    eigenvalues:
  0.126  0.149  0.153  0.390  0.411
    eigenvectors:
  0.814  0.000  0.000  0.186  0.000
  0.000  0.000  0.000  0.003  0.997
  0.000  0.017  0.983  0.000  0.000
  0.186  0.000  0.000  0.811  0.003
  0.000  0.983  0.017  0.000  0.000
    occupations:
  0.175  0.001  0.000  0.103 -0.000
  0.001  0.411 -0.000 -0.002 -0.000
  0.000 -0.000  0.153  0.000 -0.001
  0.103 -0.002  0.000  0.341  0.000
 -0.000 -0.000 -0.001  0.000  0.149
atomic mag. moment =     3.016113
atom   23   Tr[ns(na)] (up, down, total) =   4.29073  1.12665  5.41739
   spin  1
    eigenvalues:
  0.621  0.680  0.995  0.996  0.999
    eigenvectors:
  0.000  1.000  0.000  0.000  0.000
  0.000  0.000  0.762  0.238  0.000
  0.000  0.000  0.000  0.000  1.000
  0.000  0.000  0.238  0.761  0.000
  1.000  0.000  0.000  0.000  0.000
    occupations:
  0.680  0.003  0.001  0.004 -0.000
  0.003  0.995  0.000 -0.001 -0.001
  0.001  0.000  0.999 -0.000 -0.005
  0.004 -0.001 -0.000  0.996 -0.000
 -0.000 -0.001 -0.005 -0.000  0.621
   spin  2
    eigenvalues:
  0.102  0.127  0.148  0.359  0.390
    eigenvectors:
  0.003  0.000  0.000  0.997  0.000
  0.001  0.999  0.000  0.000  0.000
  0.000  0.000  0.999  0.000  0.000
  0.997  0.001  0.000  0.003  0.000
  0.000  0.000  0.000  0.000  1.000
    occupations:
  0.358  0.002 -0.001 -0.013  0.000
  0.002  0.127 -0.000 -0.001  0.001
 -0.001 -0.000  0.148  0.000  0.005
 -0.013 -0.001  0.000  0.103  0.000
  0.000  0.001  0.005  0.000  0.390
atomic mag. moment =     3.164081
N of occupied +U levels =  43.4594913
 --- exit write_ns ---

 ------ SPIN UP ------------

[...]

 ------ SPIN DOWN ----------

[...]

          k = 0.2500-0.4606 0.0000 ( 26462 PWs)   bands (ev):

[...]

          k =-0.2500 0.2303 0.0000 ( 26396 PWs)   bands (ev):

   -80.5671 -80.5583 -80.4360 -80.4347 -80.4251 -80.3962 -80.3693 -79.6619
   -49.4620 -49.3702 -49.3673 -49.3644 -49.3506 -49.3484 -49.3324 -49.2993
   -49.2870 -49.2851 -49.2685 -49.2529 -49.2319 -49.2282 -49.2172 -49.1882
   -49.0832 -49.0726 -49.0538 -49.0064 -48.9755 -48.7497 -48.6020 -48.0895
   -21.7131 -21.2764 -21.1173 -20.8202 -20.4867 -20.4148 -20.2539 -20.2327
   -20.1260 -20.0047 -19.9386 -19.8978 -19.8009 -19.7240 -19.6886 -19.6147
   -19.4877 -19.4227 -19.3357  -9.1405  -8.9055  -8.4473  -8.3809  -8.3272
    -8.0523  -7.9366  -7.8283  -7.5958  -7.5370  -7.4558  -7.3118  -7.2168
    -7.1394  -7.0923  -7.0174  -6.9063  -6.8411  -6.7401  -6.6516  -6.4935
    -6.4255  -6.3793  -6.2301  -6.1575  -6.0955  -5.8346  -5.7504  -5.6758
    -5.6047  -5.4931  -5.4295  -5.3748  -5.2704  -5.2091  -5.1169  -4.9715
    -4.8590  -4.7061  -4.6499  -4.5785  -4.5156  -4.4100  -4.3365  -4.2638
    -4.1147  -4.0468  -3.9811  -3.8631  -3.7021  -3.5933  -3.5517  -3.4409
    -3.1451  -3.1355  -3.0338  -2.7065   0.0473   0.0876   0.1281   0.1603
     0.2098   0.2714   0.2844   0.3267   0.4200   0.4348   0.5368   0.5784
     0.6670   0.6901   0.7671   0.8136   0.8700   0.9480   0.9596   1.0951
     1.1748   1.2754   1.2828   1.3057   1.3674   1.4198   1.5612   1.5844
     1.6503   1.7995   1.9505   2.0453   2.1533   2.2776   2.3322   2.4467
     2.5179   2.7497   2.8595   2.9604   3.7891   4.0480   4.3700   4.8412
     5.3623   5.6946   5.8455   6.0250   6.2796   6.4525   6.5601   6.6994
     6.8053   6.9580   7.0792   7.3884   7.5033   7.7733   7.9103   7.9855
     8.2803   8.3967   8.4865   8.6477   8.7502   8.9232   9.0086   9.1444
     9.2266   9.3297   9.4589   9.5563   9.7131   9.8395   9.9437  10.0778
    10.1642  10.2155  10.3480  10.4424  10.5869  10.7148  10.7954  10.9898
    11.0314  11.1267  11.1866  11.2845  11.3997  11.4690  11.5350  11.6942
    11.7366  11.8097  11.8759  12.0030  12.0221  12.1485  12.2075  12.3391
    12.4264  12.4854  12.6269  12.7143  12.8485  12.9014  12.9255  12.9994
    13.0666  13.1205  13.1737  13.2626  13.3609  13.4019  13.4789  13.5833
    13.6471  13.7253  13.7883  13.8345  13.8888  13.9666  14.0532  14.0916
    14.1811  14.2937  14.3141  14.4093  14.4748  14.5361  14.5614  14.7029
    14.7651  14.8252  14.8566  14.9514  15.0661  15.1138  15.1641  15.2624
    15.3597  15.4117  15.5399  15.6582  15.7120  15.8368  15.8514  16.0431
    16.0920  16.1906  16.2655  16.3129  16.3981  16.4783  16.4946  16.5530
    16.6399  16.7194  16.8514  16.9003  16.9683  17.0502  17.1377  17.1926
    17.2699  17.3290  17.3866  17.4632  17.5392  17.6233  17.6893  17.7669
    17.8571  17.8989  17.9909  18.0659  18.0920  18.2165  18.3012  18.3122
    18.3957  18.4749  18.5517  18.5890  18.6495  18.7853  18.8451  18.9346
    19.0409  19.0798  19.1396  19.2059  19.2375  19.3343  19.4080  19.4796
    19.5276  19.6513  19.7903  19.8545  19.8964  19.9796  20.0615  20.0831
    20.1261  20.2456  20.2999  20.3396  20.3710  20.4549  20.5922  20.6396
    20.7269  20.8727  20.9764  21.0203  21.0636  21.1230  21.1941  21.2342
    21.3743  21.4173  21.4922  21.5874  21.6568  21.7271  21.7570  21.8165
    21.8576  21.9883  22.0684  22.1417  22.2229  22.3455  22.4277  22.4693
    22.5474  22.6428

     the spin up/dw Fermi energies are    -2.2392   -2.4783 ev

!    total energy              =   -2320.84550759 Ry
     Harris-Foulkes estimate   =   -2320.84550760 Ry
     estimated scf accuracy    <          5.5E-09 Ry

     The total energy is the sum of the following terms:

     one-electron contribution =  -26482.71355986 Ry
     hartree contribution      =   13259.86556972 Ry
     xc contribution           =    -349.30710962 Ry
     ewald contribution        =   11250.01195865 Ry
     Hubbard energy            =       1.29734097 Ry
     smearing contrib. (-TS)   =       0.00029255 Ry

     total magnetization       =    23.00 Bohr mag/cell
     absolute magnetization    =    29.69 Bohr mag/cell

     convergence has been achieved in  16 iterations

     Forces acting on atoms (Ry/au):

     negative rho (up, down):  0.203E-02 0.139E-02
     atom    1 type  1   force =    -0.00558512   -0.01506613    0.00027694
     atom    2 type  1   force =     0.00028851    0.00955340    0.00048263
     atom    3 type  2   force =     0.02313451   -0.00060785   -0.00017852
     atom    4 type  2   force =     0.00680327    0.01239170   -0.00003366
     atom    5 type  1   force =     0.00180103    0.01402236   -0.00001687
     atom    6 type  1   force =    -0.00270677   -0.01902087   -0.00016403
     atom    7 type  1   force =     0.00289390    0.00153291   -0.00052012
     atom    8 type  1   force =     0.00100035   -0.00219616   -0.00062030
     atom    9 type  2   force =     0.00582923    0.00014035    0.00015237
     atom   10 type  2   force =    -0.00186823   -0.00114433    0.00006829
     atom   11 type  1   force =    -0.01513972   -0.03845259    0.00004694
     atom   12 type  1   force =    -0.01534141    0.03878898    0.00014848
     atom   13 type  1   force =    -0.00185071   -0.00040785    0.00000972
     atom   14 type  1   force =    -0.00546882   -0.01467487    0.00013370
     atom   15 type  1   force =     0.00054892    0.00919927   -0.00005830
     atom   16 type  2   force =    -0.02472688   -0.00061330   -0.00016525
     atom   17 type  2   force =     0.00702207    0.01229541   -0.00022673
     atom   18 type  1   force =     0.00268091    0.01385232    0.00000204
     atom   19 type  1   force =    -0.00185669   -0.01893730   -0.00011940
     atom   20 type  1   force =    -0.00267382    0.00145917   -0.00030364
     atom   21 type  1   force =    -0.00370182   -0.00219260   -0.00069748
     atom   22 type  2   force =    -0.00423896    0.00038778    0.00023165
     atom   23 type  2   force =     0.00456094   -0.00043511   -0.00055132
     atom   24 type  1   force =     0.01338141   -0.03350964    0.00032026
     atom   25 type  1   force =     0.01393389    0.03372697    0.00038834
     atom   26 type  1   force =     0.00149317   -0.00037748   -0.00024129
     atom   27 type  3   force =     0.00001338   -0.00016190    0.00042025
     atom   28 type  3   force =    -0.00000229    0.00019275    0.00041101
     atom   29 type  3   force =    -0.00020131    0.00007374   -0.00004998
     atom   30 type  3   force =    -0.00010873    0.00010972    0.00007692
     atom   31 type  1   force =     0.00013533    0.00007512   -0.00004712
     atom   32 type  3   force =    -0.00004955   -0.00000394    0.00082444

     Total force =     0.001907     Total SCF correction =     0.000391
     SCF correction compared to forces is large: reduce conv_thr to get better values

     bfgs converged in  18 scf cycles and  17 bfgs steps
     (criteria: energy < 0.10E-03, force < 0.10E-02)

     End of BFGS Geometry Optimization

     Final energy   =   -2320.8455075940 Ry
Begin final coordinates

ATOMIC_POSITIONS (crystal)
O0       0.000000000   0.000000000   0.375820792    0   0   1
O0       0.000000000   0.500000000   0.396868996    0   0   1
Mn1      0.250000000   0.500000000   0.448971308    0   0   1
Mn1      0.000000000   0.000000000   0.447667755    0   0   1
O0       0.250000000   0.800000000   0.447391591    0   0   1
O0       0.250000000   0.200000000   0.449831242    0   0   1
O0       0.000000000   0.500000000   0.495004962    0   0   1
O0       0.000000000   0.000000000   0.524678802    0   0   1
Mn1      0.250000000   0.000000000   0.573268805    0   0   1
Mn1      0.000000000   0.500000000   0.568612905    0   0   1
O0       0.250000000   0.700000000   0.579788089    0   0   1
O0       0.250000000   0.300000000   0.580061464    0   0   1
O0       0.000000000   0.000000000   0.619906641    0   0   1
O0       0.500000000   0.000000000   0.376070800    0   0   1
O0       0.500000000   0.500000000   0.397073936    0   0   1
Mn1      0.750000000   0.500000000   0.449006817    0   0   1
Mn1      0.500000000   0.000000000   0.447929559    0   0   1
O0       0.750000000   0.800000000   0.447310518    0   0   1
O0       0.750000000   0.200000000   0.449770337    0   0   1
O0       0.500000000   0.500000000   0.497167254    0   0   1
O0       0.500000000   0.000000000   0.524759303    0   0   1
Mn1      0.750000000   0.000000000   0.573401429    0   0   1
Mn1      0.500000000   0.500000000   0.578418600    0   0   1
O0       0.750000000   0.700000000   0.577012493    0   0   1
O0       0.750000000   0.300000000   0.577371131    0   0   1
O0       0.500000000   0.000000000   0.620344832    0   0   1
H2       0.000280946   0.647034810   0.380788240
H2       0.500351473   0.646692626   0.380865861
H2       0.161718152   0.039578178   0.364788197
H2       0.661798687   0.039242600   0.364986901
O0       0.518745533   0.500901388   0.649430808
H2       0.357998613   0.500231685   0.663509633
End final coordinates

     General routines

     Parallel routines
     Hubbard U routines

   This run was terminated on:  19:11: 2   5May2014

   JOB DONE.