     Program PWSCF v.5.0.2 (svn rev. 9656) starts on 31Jan2014 at 16:41:12

     Current dimensions of program PWSCF are:
     Max number of different atomic species (ntypx) = 10
     Max number of k-points (npk) =  40000
     Max angular momentum in pseudopotentials (lmaxx) =  3
     Waiting for input...
     Reading input from standard input

     Subspace diagonalization in iterative solution of the eigenvalue problem:
     a serial algorithm will be used

     bravais-lattice index     =            0
     lattice parameter (alat)  =       8.9330  a.u.
     unit-cell volume          =     459.3861 (a.u.)^3
     number of atoms/cell      =            6
     number of atomic types    =            2
     number of electrons       =        56.00
     number of Kohn-Sham states=           84
     kinetic-energy cutoff     =      40.0000  Ry
     charge density cutoff     =     500.0000  Ry
     convergence threshold     =      1.0E-06
     mixing beta               =       0.3000
     number of iterations used =            8  plain     mixing
     Exchange-correlation      = SLA  PW   PBE  PBE ( 1 4 3 4 0)
     EXX-fraction              =        0.00
     nstep                     =           50

     celldm(1)=   8.933003  celldm(2)=   0.000000  celldm(3)=   0.000000
     celldm(4)=   0.000000  celldm(5)=   0.000000  celldm(6)=   0.000000

     crystal axes: (cart. coord. in units of alat)
               a(1) = (   1.000000   0.000000   0.000000 )
               a(2) = (   0.000000   1.000000   0.000000 )
               a(3) = (   0.000000   0.000000   0.644444 )

     reciprocal axes: (cart. coord. in units 2 pi/alat)
               b(1) = (  1.000000  0.000000  0.000000 )
               b(2) = (  0.000000  1.000000  0.000000 )
               b(3) = (  0.000000  0.000000  1.551724 )

     PseudoPot. # 1 for Pt read from file:
     /home/camp/zhonxu/pseudo/pt_pbe_v1.uspp.F.UPF
     MD5 check sum: 4c71d6ad5ef119f1eb26a4d0b7884226
     Pseudo is Ultrasoft + core correction, Zval = 16.0
     Generated by new atomic code, or converted to UPF format
     Using radial grid of  985 points,  6 beta functions with:
                l(1) =   0
                l(2) =   0
                l(3) =   1
                l(4) =   1
                l(5) =   2
                l(6) =   2
     Q(r) pseudized with  8 coefficients,  rinner =    1.300   1.300   1.300
                                                       1.300   1.300

     PseudoPot. # 2 for O  read from file:
     /home/camp/zhonxu/pseudo/o_pbe_v1.01.uspp.F.UPF
     MD5 check sum: 2bcb18d16ea4b960afae9ec6d52f22d2
     Pseudo is Ultrasoft + core correction, Zval =  6.0
     Generated by new atomic code, or converted to UPF format
     Using radial grid of  737 points,  5 beta functions with:
                l(1) =   0
                l(2) =   0
                l(3) =   1
                l(4) =   1
                l(5) =   2
     Q(r) pseudized with  8 coefficients,  rinner =    0.900   0.900   0.900
                                                       0.900   0.900

     atomic species   valence    mass     pseudopotential
        Pt0           16.00   195.08000     Pt( 1.00)
        O1             6.00    15.99940     O ( 1.00)

     Starting magnetic structure
     atomic species   magnetization
        Pt0          0.000
        O1           0.000

      8 Sym. Ops., with inversion, found
          (note:  8 additional sym.ops. were found but ignored
           their fractional translations are incommensurate with FFT grid)

   Cartesian axes

     site n.     atom                  positions (alat units)
         1           Pt0 tau(   1) = (   0.0000000   0.0000000   0.0000000  )
         2           Pt0 tau(   2) = (   0.5000000   0.5000000   0.3222222  )
         3           O1  tau(   3) = (   0.3050000   0.3050000   0.0000000  )
         4           O1  tau(   4) = (  -0.3050000  -0.3050000   0.0000000  )
         5           O1  tau(   5) = (   0.8050000   0.1950000   0.3222222  )
         6           O1  tau(   6) = (   0.1950000   0.8050000   0.3222222  )

     number of k points=    54  Methfessel-Paxton smearing, width (Ry)=  0.0100
                       cart. coord. in units 2pi/alat
        k(    1) = (   0.0000000   0.0000000   0.0000000), wk =   0.0080000
        k(    2) = (   0.0000000   0.0000000   0.3103448), wk =   0.0160000
        k(    3) = (   0.0000000   0.0000000   0.6206897), wk =   0.0160000
        k(    4) = (   0.0000000   0.2000000   0.0000000), wk =   0.0320000
        k(    5) = (   0.0000000   0.2000000   0.3103448), wk =   0.0640000
        k(    6) = (   0.0000000   0.2000000   0.6206897), wk =   0.0640000
        k(    7) = (   0.0000000   0.4000000   0.0000000), wk =   0.0320000
        k(    8) = (   0.0000000   0.4000000   0.3103448), wk =   0.0640000
        k(    9) = (   0.0000000   0.4000000   0.6206897), wk =   0.0640000
        k(   10) = (   0.2000000   0.2000000   0.0000000), wk =   0.0160000
        k(   11) = (   0.2000000   0.2000000   0.3103448), wk =   0.0320000
        k(   12) = (   0.2000000   0.2000000   0.6206897), wk =   0.0320000
        k(   13) = (   0.2000000   0.4000000   0.0000000), wk =   0.0320000
        k(   14) = (   0.2000000   0.4000000   0.3103448), wk =   0.0640000
        k(   15) = (   0.2000000   0.4000000   0.6206897), wk =   0.0640000
        k(   16) = (   0.4000000   0.4000000   0.0000000), wk =   0.0160000
        k(   17) = (   0.4000000   0.4000000   0.3103448), wk =   0.0320000
        k(   18) = (   0.4000000   0.4000000   0.6206897), wk =   0.0320000
        k(   19) = (  -0.2000000   0.2000000   0.0000000), wk =   0.0160000
        k(   20) = (  -0.2000000   0.2000000  -0.3103448), wk =   0.0320000
        k(   21) = (  -0.2000000   0.2000000  -0.6206897), wk =   0.0320000
        k(   22) = (  -0.2000000   0.4000000   0.0000000), wk =   0.0320000
        k(   23) = (  -0.2000000   0.4000000  -0.3103448), wk =   0.0640000
        k(   24) = (  -0.2000000   0.4000000  -0.6206897), wk =   0.0640000
        k(   25) = (  -0.4000000   0.4000000   0.0000000), wk =   0.0160000
        k(   26) = (  -0.4000000   0.4000000  -0.3103448), wk =   0.0320000
        k(   27) = (  -0.4000000   0.4000000  -0.6206897), wk =   0.0320000
        k(   28) = (   0.0000000   0.0000000   0.0000000), wk =   0.0080000
        k(   29) = (   0.0000000   0.0000000   0.3103448), wk =   0.0160000
        k(   30) = (   0.0000000   0.0000000   0.6206897), wk =   0.0160000
        k(   31) = (   0.0000000   0.2000000   0.0000000), wk =   0.0320000
        k(   32) = (   0.0000000   0.2000000   0.3103448), wk =   0.0640000
        k(   33) = (   0.0000000   0.2000000   0.6206897), wk =   0.0640000
        k(   34) = (   0.0000000   0.4000000   0.0000000), wk =   0.0320000
        k(   35) = (   0.0000000   0.4000000   0.3103448), wk =   0.0640000
        k(   36) = (   0.0000000   0.4000000   0.6206897), wk =   0.0640000
        k(   37) = (   0.2000000   0.2000000   0.0000000), wk =   0.0160000
        k(   38) = (   0.2000000   0.2000000   0.3103448), wk =   0.0320000
        k(   39) = (   0.2000000   0.2000000   0.6206897), wk =   0.0320000
        k(   40) = (   0.2000000   0.4000000   0.0000000), wk =   0.0320000
        k(   41) = (   0.2000000   0.4000000   0.3103448), wk =   0.0640000
        k(   42) = (   0.2000000   0.4000000   0.6206897), wk =   0.0640000
        k(   43) = (   0.4000000   0.4000000   0.0000000), wk =   0.0160000
        k(   44) = (   0.4000000   0.4000000   0.3103448), wk =   0.0320000
        k(   45) = (   0.4000000   0.4000000   0.6206897), wk =   0.0320000
        k(   46) = (  -0.2000000   0.2000000   0.0000000), wk =   0.0160000
        k(   47) = (  -0.2000000   0.2000000  -0.3103448), wk =   0.0320000
        k(   48) = (  -0.2000000   0.2000000  -0.6206897), wk =   0.0320000
        k(   49) = (  -0.2000000   0.4000000   0.0000000), wk =   0.0320000
        k(   50) = (  -0.2000000   0.4000000  -0.3103448), wk =   0.0640000
        k(   51) = (  -0.2000000   0.4000000  -0.6206897), wk =   0.0640000
        k(   52) = (  -0.4000000   0.4000000   0.0000000), wk =   0.0160000
        k(   53) = (  -0.4000000   0.4000000  -0.3103448), wk =   0.0320000
        k(   54) = (  -0.4000000   0.4000000  -0.6206897), wk =   0.0320000

     Largest allocated arrays     est. size (Mb)     dimensions
     Largest temporary arrays     est. size (Mb)     dimensions

     Check: negative/imaginary core charge=   -0.000005    0.000000

     Initial potential from superposition of free atoms
     Check: negative starting charge=(component1):   -0.191699
     Check: negative starting charge=(component2):   -0.191699

     starting charge   54.99997, renormalised to   56.00000

     negative rho (up, down):  0.195E+00 0.195E+00
     Starting wfc are   40 randomized atomic wfcs

     Self-consistent Calculation

     iteration #  1     ecut=    40.00 Ry     beta=0.30
     Davidson diagonalization with overlap
     ethr =  1.00E-02,  avg # of iterations =  6.6

     negative rho (up, down):  0.192E+00 0.192E+00

     total energy              =    -543.99041848 Ry
     Harris-Foulkes estimate   =    -546.32372031 Ry
     estimated scf accuracy    <       5.06724334 Ry

     total magnetization       =     0.00 Bohr mag/cell
     absolute magnetization    =     0.00 Bohr mag/cell

[...]

     End of self-consistent calculation

 ------ SPIN UP ------------

          k = 0.0000 0.0000 0.0000 (  1955 PWs)   bands (ev):

   -41.8965 -41.8905 -41.8041 -41.8041 -41.7532 -41.7532  -7.8348  -6.7114
    -5.8932  -5.8931   3.1182   3.3350   4.8659   4.8659   5.2876   7.9018
     7.9018   8.2929   8.6973   9.0710   9.1155   9.2729   9.2729   9.5337
    10.1880  10.1880  11.1735  11.6850  12.9292  15.5068  15.5068  16.0795
    16.9039  21.3615  21.3615  23.2642  24.7220  25.3885  27.5064  28.1041
    28.1041  29.2707  29.6941  30.3234  30.3401  32.1118  33.1372  33.1372
    34.3805  34.3805  35.9717  37.7468  37.8377  38.0137  38.0138  39.1643
    39.5666  40.6867  40.7035  42.0608  42.4289  42.4289  42.4992  42.4992
    43.3753  43.3753  44.0624  46.0498  47.0215  48.6940  48.6940  49.0392
    50.1949  50.1949  50.2808  51.0381  51.2499  51.2499  51.5671  51.6037
    52.0889  52.5548  52.6834  57.1884

[...]

          k =-0.2000 0.2000 0.0000 (  1963 PWs)   bands (ev):

[...]

 ------ SPIN DOWN ----------

[...]

     the Fermi energy is    12.4934 ev

!    total energy              =    -544.92039107 Ry
     Harris-Foulkes estimate   =    -544.92038832 Ry
     estimated scf accuracy    <          9.1E-09 Ry

     The total energy is the sum of the following terms:

     one-electron contribution =    -142.18604017 Ry
     hartree contribution      =     107.91606433 Ry
     xc contribution           =    -137.24240256 Ry
     ewald contribution        =    -373.40808251 Ry
     smearing contrib. (-TS)   =       0.00006984 Ry

[...]

     convergence has been achieved in  10 iterations

     Forces acting on atoms (Ry/au):

     negative rho (up, down):  0.197E+00 0.197E+00
     atom    1 type  1   force =     0.00000000    0.00000000    0.00000000
[...]
        k(   12) = (   0.2059274   0.2059274   0.5854717), wk =   0.0320000
        k(   13) = (   0.2059274   0.4118549   0.0000000), wk =   0.0320000
        k(   14) = (   0.2059274   0.4118549   0.2927359), wk =   0.0640000
        k(   15) = (   0.2059274   0.4118549   0.5854717), wk =   0.0640000
        k(   16) = (   0.4118549   0.4118549   0.0000000), wk =   0.0160000
        k(   17) = (   0.4118549   0.4118549   0.2927359), wk =   0.0320000
        k(   18) = (   0.4118549   0.4118549   0.5854717), wk =   0.0320000
        k(   19) = (  -0.2059275   0.2059275   0.0000000), wk =   0.0160000
        k(   20) = (  -0.2059275   0.2059275  -0.2927359), wk =   0.0320000
        k(   21) = (  -0.2059275   0.2059275  -0.5854717), wk =   0.0320000
        k(   22) = (  -0.2059275   0.4118550   0.0000000), wk =   0.0320000
        k(   23) = (  -0.2059275   0.4118550  -0.2927359), wk =   0.0640000
        k(   24) = (  -0.2059275   0.4118550  -0.5854717), wk =   0.0640000
        k(   25) = (  -0.4118550   0.4118550   0.0000000), wk =   0.0160000
        k(   26) = (  -0.4118550   0.4118550  -0.2927359), wk =   0.0320000
        k(   27) = (  -0.4118550   0.4118550  -0.5854717), wk =   0.0320000
        k(   28) = (   0.0000000   0.0000000   0.0000000), wk =   0.0080000
        k(   29) = (   0.0000000   0.0000000   0.2927359), wk =   0.0160000
        k(   30) = (   0.0000000   0.0000000   0.5854717), wk =   0.0160000
        k(   31) = (  -0.0000000   0.2059275   0.0000000), wk =   0.0320000
        k(   32) = (  -0.0000000   0.2059275   0.2927359), wk =   0.0640000
        k(   33) = (  -0.0000000   0.2059275   0.5854717), wk =   0.0640000
        k(   34) = (  -0.0000001   0.4118549   0.0000000), wk =   0.0320000
        k(   35) = (  -0.0000001   0.4118549   0.2927359), wk =   0.0640000
        k(   36) = (  -0.0000001   0.4118549   0.5854717), wk =   0.0640000
        k(   37) = (   0.2059274   0.2059274   0.0000000), wk =   0.0160000
        k(   38) = (   0.2059274   0.2059274   0.2927359), wk =   0.0320000
        k(   39) = (   0.2059274   0.2059274   0.5854717), wk =   0.0320000
        k(   40) = (   0.2059274   0.4118549   0.0000000), wk =   0.0320000
        k(   41) = (   0.2059274   0.4118549   0.2927359), wk =   0.0640000
        k(   42) = (   0.2059274   0.4118549   0.5854717), wk =   0.0640000
        k(   43) = (   0.4118549   0.4118549   0.0000000), wk =   0.0160000
        k(   44) = (   0.4118549   0.4118549   0.2927359), wk =   0.0320000
        k(   45) = (   0.4118549   0.4118549   0.5854717), wk =   0.0320000
        k(   46) = (  -0.2059275   0.2059275   0.0000000), wk =   0.0160000
        k(   47) = (  -0.2059275   0.2059275  -0.2927359), wk =   0.0320000
        k(   48) = (  -0.2059275   0.2059275  -0.5854717), wk =   0.0320000
        k(   49) = (  -0.2059275   0.4118550   0.0000000), wk =   0.0320000
        k(   50) = (  -0.2059275   0.4118550  -0.2927359), wk =   0.0640000
        k(   51) = (  -0.2059275   0.4118550  -0.5854717), wk =   0.0640000
        k(   52) = (  -0.4118550   0.4118550   0.0000000), wk =   0.0160000
        k(   53) = (  -0.4118550   0.4118550  -0.2927359), wk =   0.0320000
        k(   54) = (  -0.4118550   0.4118550  -0.5854717), wk =   0.0320000

     Check: negative/imaginary core charge=   -0.000005    0.000000
     Check: negative starting charge=(component1):   -0.382306

[...]

     Threshold (ethr) on eigenvalues was too large:
     Diagonalizing with lowered threshold

     Davidson diagonalization with overlap
     ethr =  9.78E-10,  avg # of iterations =  2.0

[...]

     Volume is kept fixed: isostatic pressure set to zero

     bfgs converged in   7 scf cycles and   6 bfgs steps
     (criteria: energy < 0.10E-03, force < 0.10E-02, cell < 0.50E+00)

     End of BFGS Geometry Optimization

     Final enthalpy =    -544.9379101827 Ry
Begin final coordinates
     new unit-cell volume =    459.38613 a.u.^3 (    68.07400 Ang^3 )

CELL_PARAMETERS (alat=  8.93300268)
   0.971215717   0.000000139   0.000000000
   0.000000139   0.971215717   0.000000000
   0.000000000   0.000000000   0.683209789

ATOMIC_POSITIONS (crystal)
Pt0      0.000000000   0.000000000   0.000000000    0   0   0
Pt0      0.500000000   0.500000000   0.500000000    0   0   0
O1       0.308748851   0.308748851   0.000000000    1   1   0
O1      -0.308748851  -0.308748851   0.000000000    1   1   0
O1       0.808748623   0.191251377   0.500000000    1   1   0
O1       0.191251377   0.808748623   0.500000000    1   1   0
End final coordinates

     A final scf calculation at the relaxed structure.
     The G-vectors are recalculated for the final unit cell
     Results may differ from those at the preceding step.

     bravais-lattice index     =            0
     lattice parameter (alat)  =       8.9330  a.u.
     unit-cell volume          =     459.3861 (a.u.)^3
     number of atoms/cell      =            6
     number of atomic types    =            2
     number of electrons       =        56.00
     number of Kohn-Sham states=           84
     kinetic-energy cutoff     =      40.0000  Ry
     charge density cutoff     =     500.0000  Ry
     convergence threshold     =      1.0E-08
     mixing beta               =       0.3000
     number of iterations used =            8  plain     mixing
     Exchange-correlation      = SLA  PW   PBE  PBE ( 1 4 3 4 0)
     EXX-fraction              =        0.00

     celldm(1)=   8.933003  celldm(2)=   0.000000  celldm(3)=   0.000000
     celldm(4)=   0.000000  celldm(5)=   0.000000  celldm(6)=   0.000000

     crystal axes: (cart. coord. in units of alat)
               a(1) = (   0.971216   0.000000   0.000000 )
               a(2) = (   0.000000   0.971216   0.000000 )
               a(3) = (   0.000000   0.000000   0.683210 )

     reciprocal axes: (cart. coord. in units 2 pi/alat)
               b(1) = (  1.029637 -0.000000  0.000000 )
               b(2) = ( -0.000000  1.029637  0.000000 )
               b(3) = (  0.000000  0.000000  1.463679 )

     PseudoPot. # 1 for Pt read from file:
     /home/camp/zhonxu/pseudo/pt_pbe_v1.uspp.F.UPF
     MD5 check sum: 4c71d6ad5ef119f1eb26a4d0b7884226
     Pseudo is Ultrasoft + core correction, Zval = 16.0
     Generated by new atomic code, or converted to UPF format
     Using radial grid of  985 points,  6 beta functions with:
                l(1) =   0
                l(2) =   0
                l(3) =   1
                l(4) =   1
                l(5) =   2
                l(6) =   2
     Q(r) pseudized with  8 coefficients,  rinner =    1.300   1.300   1.300
                                                       1.300   1.300

     PseudoPot. # 2 for O  read from file:
     /home/camp/zhonxu/pseudo/o_pbe_v1.01.uspp.F.UPF
     MD5 check sum: 2bcb18d16ea4b960afae9ec6d52f22d2
     Pseudo is Ultrasoft + core correction, Zval =  6.0
     Generated by new atomic code, or converted to UPF format
     Using radial grid of  737 points,  5 beta functions with:
                l(1) =   0
                l(2) =   0
                l(3) =   1
                l(4) =   1
                l(5) =   2
     Q(r) pseudized with  8 coefficients,  rinner =    0.900   0.900   0.900
                                                       0.900   0.900

     atomic species   valence    mass     pseudopotential
        Pt0           16.00   195.08000     Pt( 1.00)
        O1             6.00    15.99940     O ( 1.00)

     Starting magnetic structure
     atomic species   magnetization
        Pt0          0.000
        O1           0.000

      8 Sym. Ops., with inversion, found
          (note:  8 additional sym.ops. were found but ignored
           their fractional translations are incommensurate with FFT grid)

   Cartesian axes

     site n.     atom                  positions (alat units)
         1           Pt0 tau(   1) = (   0.0000000   0.0000000   0.0000000  )
         2           Pt0 tau(   2) = (   0.4856079   0.4856079   0.3416049  )
         3           O1  tau(   3) = (   0.2998618   0.2998618   0.0000000  )
         4           O1  tau(   4) = (  -0.2998618  -0.2998618   0.0000000  )
         5           O1  tau(   5) = (   0.7854694   0.1857465   0.3416049  )
         6           O1  tau(   6) = (   0.1857465   0.7854694   0.3416049  )

     number of k points=    54  Methfessel-Paxton smearing, width (Ry)=  0.0100
                       cart. coord. in units 2pi/alat
        k(    1) = (   0.0000000   0.0000000   0.0000000), wk =   0.0080000
        k(    2) = (   0.0000000   0.0000000   0.2927359), wk =   0.0160000
        k(    3) = (   0.0000000   0.0000000   0.5854717), wk =   0.0160000
        k(    4) = (  -0.0000000   0.2059275   0.0000000), wk =   0.0320000
        k(    5) = (  -0.0000000   0.2059275   0.2927359), wk =   0.0640000
        k(    6) = (  -0.0000000   0.2059275   0.5854717), wk =   0.0640000
        k(    7) = (  -0.0000001   0.4118549   0.0000000), wk =   0.0320000
        k(    8) = (  -0.0000001   0.4118549   0.2927359), wk =   0.0640000
        k(    9) = (  -0.0000001   0.4118549   0.5854717), wk =   0.0640000
        k(   10) = (   0.2059274   0.2059274   0.0000000), wk =   0.0160000
        k(   11) = (   0.2059274   0.2059274   0.2927359), wk =   0.0320000
        k(   12) = (   0.2059274   0.2059274   0.5854717), wk =   0.0320000
        k(   13) = (   0.2059274   0.4118549   0.0000000), wk =   0.0320000
        k(   14) = (   0.2059274   0.4118549   0.2927359), wk =   0.0640000
        k(   15) = (   0.2059274   0.4118549   0.5854717), wk =   0.0640000
        k(   16) = (   0.4118549   0.4118549   0.0000000), wk =   0.0160000
        k(   17) = (   0.4118549   0.4118549   0.2927359), wk =   0.0320000
        k(   18) = (   0.4118549   0.4118549   0.5854717), wk =   0.0320000
        k(   19) = (  -0.2059275   0.2059275   0.0000000), wk =   0.0160000
        k(   20) = (  -0.2059275   0.2059275  -0.2927359), wk =   0.0320000
        k(   21) = (  -0.2059275   0.2059275  -0.5854717), wk =   0.0320000
        k(   22) = (  -0.2059275   0.4118550   0.0000000), wk =   0.0320000
        k(   23) = (  -0.2059275   0.4118550  -0.2927359), wk =   0.0640000
        k(   24) = (  -0.2059275   0.4118550  -0.5854717), wk =   0.0640000
        k(   25) = (  -0.4118550   0.4118550   0.0000000), wk =   0.0160000
        k(   26) = (  -0.4118550   0.4118550  -0.2927359), wk =   0.0320000
        k(   27) = (  -0.4118550   0.4118550  -0.5854717), wk =   0.0320000
        k(   28) = (   0.0000000   0.0000000   0.0000000), wk =   0.0080000
        k(   29) = (   0.0000000   0.0000000   0.2927359), wk =   0.0160000
        k(   30) = (   0.0000000   0.0000000   0.5854717), wk =   0.0160000
        k(   31) = (  -0.0000000   0.2059275   0.0000000), wk =   0.0320000
        k(   32) = (  -0.0000000   0.2059275   0.2927359), wk =   0.0640000
        k(   33) = (  -0.0000000   0.2059275   0.5854717), wk =   0.0640000
        k(   34) = (  -0.0000001   0.4118549   0.0000000), wk =   0.0320000
        k(   35) = (  -0.0000001   0.4118549   0.2927359), wk =   0.0640000
        k(   36) = (  -0.0000001   0.4118549   0.5854717), wk =   0.0640000
        k(   37) = (   0.2059274   0.2059274   0.0000000), wk =   0.0160000
        k(   38) = (   0.2059274   0.2059274   0.2927359), wk =   0.0320000
        k(   39) = (   0.2059274   0.2059274   0.5854717), wk =   0.0320000
        k(   40) = (   0.2059274   0.4118549   0.0000000), wk =   0.0320000
        k(   41) = (   0.2059274   0.4118549   0.2927359), wk =   0.0640000
        k(   42) = (   0.2059274   0.4118549   0.5854717), wk =   0.0640000
        k(   43) = (   0.4118549   0.4118549   0.0000000), wk =   0.0160000
        k(   44) = (   0.4118549   0.4118549   0.2927359), wk =   0.0320000
        k(   45) = (   0.4118549   0.4118549   0.5854717), wk =   0.0320000
        k(   46) = (  -0.2059275   0.2059275   0.0000000), wk =   0.0160000
        k(   47) = (  -0.2059275   0.2059275  -0.2927359), wk =   0.0320000
        k(   48) = (  -0.2059275   0.2059275  -0.5854717), wk =   0.0320000
        k(   49) = (  -0.2059275   0.4118550   0.0000000), wk =   0.0320000
        k(   50) = (  -0.2059275   0.4118550  -0.2927359), wk =   0.0640000
        k(   51) = (  -0.2059275   0.4118550  -0.5854717), wk =   0.0640000
        k(   52) = (  -0.4118550   0.4118550   0.0000000), wk =   0.0160000
        k(   53) = (  -0.4118550   0.4118550  -0.2927359), wk =   0.0320000
        k(   54) = (  -0.4118550   0.4118550  -0.5854717), wk =   0.0320000

     Largest allocated arrays     est. size (Mb)     dimensions
     Largest temporary arrays     est. size (Mb)     dimensions

     Check: negative/imaginary core charge=   -0.000005    0.000000

     Initial potential from superposition of free atoms
     Check: negative starting charge=(component1):   -0.191152
     Check: negative starting charge=(component2):   -0.191152

     starting charge   54.99997, renormalised to   56.00000

     negative rho (up, down):  0.195E+00 0.195E+00
     Starting wfc are   40 randomized atomic wfcs

     Self-consistent Calculation

[...]

     total energy              =    -544.93861382 Ry
     Harris-Foulkes estimate   =    -544.93861246 Ry
     estimated scf accuracy    <       0.00000011 Ry

[...]

     iteration # 11     ecut=    40.00 Ry     beta=0.30
     Davidson diagonalization with overlap
     ethr =  1.96E-10,  avg # of iterations =  1.1

     negative rho (up, down):  0.197E+00 0.197E+00

     End of self-consistent calculation

 ------ SPIN UP ------------

[...]

 ------ SPIN DOWN ----------

[...]

          k = 0.4119 0.4119 0.5855 (  1970 PWs)   bands (ev):

[...]

          k =-0.4119 0.4119-0.5855 (  1970 PWs)   bands (ev):

   -41.8907 -41.8904 -41.7309 -41.7306 -41.5847 -41.5846  -6.5412  -6.4954
    -6.2437  -6.2397   4.5665   4.6127   5.1043   5.2578   5.6209   6.0145
     7.1196   7.2387   8.0972   8.2769   9.1784   9.6234   9.6385   9.7719
    10.6343  11.3506  11.4137  11.9857  13.0507  13.6712  14.5557  15.1387
    21.1164  21.4208  22.3582  22.4840  23.9395  24.4199  25.3996  25.9608
    29.0318  29.1167  30.3971  30.4089  30.9947  31.5197  32.3157  33.4713
    33.7680  34.0123  34.2308  35.4531  37.6288  38.0994  38.7862  38.8744
    40.0384  40.6550  41.9487  43.2045  43.2552  43.5747  44.1205  44.5148
    45.0895  45.2982  46.0726  46.6022  47.0945  47.8870  48.0630  48.5859
    49.1240  49.5433  49.7993  50.4345  51.0364  51.8323  51.8804  52.3702
    53.7761  53.9482  54.4534  55.0567

     the Fermi energy is    12.4360 ev

!    total energy              =    -544.93861517 Ry
     Harris-Foulkes estimate   =    -544.93861383 Ry
     estimated scf accuracy    <          3.1E-09 Ry

     The total energy is the sum of the following terms:

     one-electron contribution =    -136.46500126 Ry
     hartree contribution      =     105.13807111 Ry
     xc contribution           =    -137.15775956 Ry
     ewald contribution        =    -376.45359429 Ry
     smearing contrib. (-TS)   =      -0.00033117 Ry

     total magnetization       =    -0.00 Bohr mag/cell
     absolute magnetization    =     0.00 Bohr mag/cell

     convergence has been achieved in  11 iterations

     Forces acting on atoms (Ry/au):

     negative rho (up, down):  0.197E+00 0.197E+00
     atom    1 type  1   force =     0.00000000    0.00000000    0.00000000
     atom    2 type  1   force =     0.00000000    0.00000000    0.00000000
     atom    3 type  2   force =     0.00002509    0.00002509    0.00000000
     atom    4 type  2   force =    -0.00002509   -0.00002509   -0.00000000
     atom    5 type  2   force =     0.00002309   -0.00002309    0.00000000
     atom    6 type  2   force =    -0.00002309    0.00002309    0.00000000

     Total force =     0.000068     Total SCF correction =     0.000030
     SCF correction compared to forces is large: reduce conv_thr to get better values

     entering subroutine stress ...

     negative rho (up, down):  0.197E+00 0.197E+00
          total   stress  (Ry/bohr**3)                   (kbar)     P=  -25.05
  -0.00018350  -0.00000010   0.00000000        -26.99     -0.02      0.00
  -0.00000010  -0.00018350   0.00000000         -0.02    -26.99      0.00
   0.00000000   0.00000000  -0.00014375          0.00      0.00    -21.15

     General routines

     Parallel routines

   This run was terminated on:  19: 5:13  31Jan2014

   JOB DONE.
Running PBS batch system epilogue script
Job id: 255937.audhumbla.fysik.dtu.dk
Username: zhonxu
Groupname: campgst
Jobname: PtO2/ground
Sessionid: 30878
Queuename: verylong
Accounting:
This job has allocated the following 1 nodes:
q016
Finished epilogue job 255937.audhumbla.fysik.dtu.dk for zhonxu