     Program PWSCF v.5.0.2 (svn rev. 9656) starts on 28May2014 at  1:13:50

     Current dimensions of program PWSCF are:
     Max number of different atomic species (ntypx) = 10
     Max number of k-points (npk) =  40000
     Max angular momentum in pseudopotentials (lmaxx) =  3
     Reading input from pwscf.in
Warning: card &CELL ignored
Warning: card / ignored

     Subspace diagonalization in iterative solution of the eigenvalue problem:
     a serial algorithm will be used

     bravais-lattice index     =            0
     lattice parameter (alat)  =      10.3179  a.u.
     unit-cell volume          =    6964.3238 (a.u.)^3
     number of atoms/cell      =           33
     number of atomic types    =            3
     number of electrons       =       237.00
     number of Kohn-Sham states=          355
     kinetic-energy cutoff     =      40.0000  Ry
     charge density cutoff     =     500.0000  Ry
     convergence threshold     =      1.0E-06
     mixing beta               =       0.7000
     number of iterations used =            8  plain     mixing
     Exchange-correlation      = SLA  PW   PBE  PBE ( 1 4 3 4 0)
     EXX-fraction              =        0.00
     nstep                     =           50

     celldm(1)=  10.317905  celldm(2)=   0.000000  celldm(3)=   0.000000
     celldm(4)=   0.000000  celldm(5)=   0.000000  celldm(6)=   0.000000

     crystal axes: (cart. coord. in units of alat)
               a(1) = (   1.000000   0.000000   0.000000 )
               a(2) = (   0.000000   1.282117   0.000000 )
               a(3) = (   0.000000   0.000000   4.945120 )

     reciprocal axes: (cart. coord. in units 2 pi/alat)
               b(1) = (  1.000000  0.000000  0.000000 )
               b(2) = (  0.000000  0.779960  0.000000 )
               b(3) = (  0.000000  0.000000  0.202220 )

     PseudoPot. # 1 for O  read from file:
     /home/camp/zhonxu/pseudo/o_pbe_v1.01.uspp.F.UPF
     MD5 check sum: 2bcb18d16ea4b960afae9ec6d52f22d2
     Pseudo is Ultrasoft + core correction, Zval =  6.0
     Generated by new atomic code, or converted to UPF format
     Using radial grid of  737 points,  5 beta functions with:
                l(1) =   0
                l(2) =   0
                l(3) =   1
                l(4) =   1
                l(5) =   2
     Q(r) pseudized with  8 coefficients,  rinner =    0.900   0.900   0.900
                                                       0.900   0.900

     PseudoPot. # 2 for Mo read from file:
     /home/camp/zhonxu/pseudo/mo_pbe_v1.uspp.F.UPF
     MD5 check sum: 30c4dcd161f5d35cd49bb5239c51a633
     Pseudo is Ultrasoft + core correction, Zval = 14.0
     Generated by new atomic code, or converted to UPF format
     Using radial grid of  889 points,  6 beta functions with:
                l(1) =   0
                l(2) =   0
                l(3) =   1
                l(4) =   1
                l(5) =   2
                l(6) =   2
     Q(r) pseudized with  6 coefficients,  rinner =    1.000   1.000   1.000
                                                       1.000   1.000

     PseudoPot. # 3 for H  read from file:
     /home/camp/zhonxu/pseudo/h_pbe_v1.uspp.F.UPF
     MD5 check sum: 3408e3ff4ec8b0a4e358431e7e038a48
     Pseudo is Ultrasoft, Zval =  1.0
     Generated by new atomic code, or converted to UPF format
     Using radial grid of  615 points,  2 beta functions with:
                l(1) =   0
                l(2) =   0
     Q(r) pseudized with  8 coefficients,  rinner =    0.700

     atomic species   valence    mass     pseudopotential
        O0             6.00    15.99940     O ( 1.00)
        Mo1           14.00    95.94000     Mo( 1.00)
        H2             1.00     1.00794     H ( 1.00)

     Simplified LDA+U calculation (l_max = 2) with parameters (eV):
     atomic species    L          U    alpha       J0     beta
        Mo1            2     1.0000   0.0000   0.0000   0.0000

     No symmetry found

   Cartesian axes

     site n.     atom                  positions (alat units)
         1           O0  tau(   1) = (   0.0000000   0.0000000   1.8345407  )
         2           O0  tau(   2) = (   0.0000000   0.6410583   1.8924976  )
         3           Mo1 tau(   3) = (   0.2500000   0.6410583   2.1781772  )
         4           Mo1 tau(   4) = (   0.0000000   0.0000000   2.1929631  )
         5           O0  tau(   5) = (   0.2500000   1.0000510   2.1897982  )
         6           O0  tau(   6) = (   0.2500000   0.2820657   2.1891553  )
         7           O0  tau(   7) = (   0.0000000   0.6410583   2.4607413  )
         8           O0  tau(   8) = (   0.0000000   0.0000000   2.5556382  )
         9           Mo1 tau(   9) = (   0.2500000   0.0000000   2.8453728  )
        10           Mo1 tau(  10) = (   0.0000000   0.6410583   2.7952787  )
        11           O0  tau(  11) = (   0.2500000   0.9231240   2.8196582  )
        12           O0  tau(  12) = (   0.2500000   0.3589927   2.8248011  )
        13           O0  tau(  13) = (   0.0000000   0.0000000   3.0952003  )
        14           O0  tau(  14) = (   0.5000000   0.0000000   1.8353814  )
        15           O0  tau(  15) = (   0.5000000   0.6410583   1.8936349  )
        16           Mo1 tau(  16) = (   0.7500000   0.6410583   2.1781277  )
        17           Mo1 tau(  17) = (   0.5000000   0.0000000   2.1954851  )
        18           O0  tau(  18) = (   0.7500000   1.0000510   2.1899960  )
        19           O0  tau(  19) = (   0.7500000   0.2820657   2.1890564  )
        20           O0  tau(  20) = (   0.5000000   0.6410583   2.4612853  )
        21           O0  tau(  21) = (   0.5000000   0.0000000   2.5539074  )
        22           Mo1 tau(  22) = (   0.7500000   0.0000000   2.8439387  )
        23           Mo1 tau(  23) = (   0.5000000   0.6410583   2.8209934  )
        24           O0  tau(  24) = (   0.7500000   0.9231240   2.8195098  )
        25           O0  tau(  25) = (   0.7500000   0.3589927   2.8246033  )
        26           O0  tau(  26) = (   0.5000000   0.0000000   3.0932717  )
        27           H2  tau(  27) = (  -0.0005800   0.7846554   1.7836060  )
        28           H2  tau(  28) = (   0.4995100   0.7915788   1.7940402  )
        29           H2  tau(  29) = (   0.1672700   0.0232576   1.7642706  )
        30           H2  tau(  30) = (   0.6659000   0.0248346   1.7633310  )
        31           O0  tau(  31) = (   0.5002100   0.6666879   3.1760530  )
        32           O0  tau(  32) = (   0.4999400   0.4570233   3.3393409  )
        33           H2  tau(  33) = (   0.5000100   0.5446560   3.4973869  )

     number of k points=    10  Methfessel-Paxton smearing, width (Ry)=  0.0100
                       cart. coord. in units 2pi/alat
        k(    1) = (   0.0000000   0.0000000   0.0000000), wk =   0.1250000
        k(    2) = (   0.0000000   0.1949901   0.0000000), wk =   0.2500000
        k(    3) = (   0.0000000  -0.3899801   0.0000000), wk =   0.1250000
        k(    4) = (   0.2500000   0.0000000   0.0000000), wk =   0.2500000
        k(    5) = (   0.2500000   0.1949901   0.0000000), wk =   0.2500000
        k(    6) = (   0.2500000  -0.3899801   0.0000000), wk =   0.2500000
        k(    7) = (  -0.5000000   0.0000000   0.0000000), wk =   0.1250000
        k(    8) = (  -0.5000000   0.1949901   0.0000000), wk =   0.2500000
        k(    9) = (  -0.5000000  -0.3899801   0.0000000), wk =   0.1250000
        k(   10) = (  -0.2500000   0.1949901   0.0000000), wk =   0.2500000

     Largest allocated arrays     est. size (Mb)     dimensions
     Largest temporary arrays     est. size (Mb)     dimensions

     Check: negative/imaginary core charge=   -0.000003    0.000000

     Initial potential from superposition of free atoms
     Check: negative starting charge=   -0.002157

     starting charge  236.99142, renormalised to  237.00000

     negative rho (up, down):  0.216E-02 0.000E+00
     Number of +U iterations with fixed ns =  0
     Starting occupations:
 --- enter write_ns ---
 LDA+U parameters:
U( 2)     =  1.00000000
alpha( 2) =  0.00000000
atom    3   Tr[ns(na)] =   5.00000
    eigenvalues:
  0.500  0.500  0.500  0.500  0.500
    eigenvectors:
  1.000  0.000  0.000  0.000  0.000
  0.000  1.000  0.000  0.000  0.000
  0.000  0.000  1.000  0.000  0.000
  0.000  0.000  0.000  1.000  0.000
  0.000  0.000  0.000  0.000  1.000
    occupations:
  0.500  0.000  0.000  0.000  0.000
  0.000  0.500  0.000  0.000  0.000
  0.000  0.000  0.500  0.000  0.000
  0.000  0.000  0.000  0.500  0.000
  0.000  0.000  0.000  0.000  0.500
atom    4   Tr[ns(na)] =   5.00000
    eigenvalues:
  0.500  0.500  0.500  0.500  0.500
    eigenvectors:
  1.000  0.000  0.000  0.000  0.000
  0.000  1.000  0.000  0.000  0.000
  0.000  0.000  1.000  0.000  0.000
  0.000  0.000  0.000  1.000  0.000
  0.000  0.000  0.000  0.000  1.000
    occupations:
  0.500  0.000  0.000  0.000  0.000
  0.000  0.500  0.000  0.000  0.000
  0.000  0.000  0.500  0.000  0.000
  0.000  0.000  0.000  0.500  0.000
  0.000  0.000  0.000  0.000  0.500
atom    9   Tr[ns(na)] =   5.00000
    eigenvalues:
  0.500  0.500  0.500  0.500  0.500
    eigenvectors:
  1.000  0.000  0.000  0.000  0.000
  0.000  1.000  0.000  0.000  0.000
  0.000  0.000  1.000  0.000  0.000
  0.000  0.000  0.000  1.000  0.000
  0.000  0.000  0.000  0.000  1.000
    occupations:
  0.500  0.000  0.000  0.000  0.000
  0.000  0.500  0.000  0.000  0.000
  0.000  0.000  0.500  0.000  0.000
  0.000  0.000  0.000  0.500  0.000
  0.000  0.000  0.000  0.000  0.500
atom   10   Tr[ns(na)] =   5.00000
    eigenvalues:
  0.500  0.500  0.500  0.500  0.500
    eigenvectors:
  1.000  0.000  0.000  0.000  0.000
  0.000  1.000  0.000  0.000  0.000
  0.000  0.000  1.000  0.000  0.000
  0.000  0.000  0.000  1.000  0.000
  0.000  0.000  0.000  0.000  1.000
    occupations:
  0.500  0.000  0.000  0.000  0.000
  0.000  0.500  0.000  0.000  0.000
  0.000  0.000  0.500  0.000  0.000
  0.000  0.000  0.000  0.500  0.000
  0.000  0.000  0.000  0.000  0.500
atom   16   Tr[ns(na)] =   5.00000
    eigenvalues:
  0.500  0.500  0.500  0.500  0.500
    eigenvectors:
  1.000  0.000  0.000  0.000  0.000
  0.000  1.000  0.000  0.000  0.000
  0.000  0.000  1.000  0.000  0.000
  0.000  0.000  0.000  1.000  0.000
  0.000  0.000  0.000  0.000  1.000
    occupations:
  0.500  0.000  0.000  0.000  0.000
  0.000  0.500  0.000  0.000  0.000
  0.000  0.000  0.500  0.000  0.000
  0.000  0.000  0.000  0.500  0.000
  0.000  0.000  0.000  0.000  0.500
atom   17   Tr[ns(na)] =   5.00000
    eigenvalues:
  0.500  0.500  0.500  0.500  0.500
    eigenvectors:
  1.000  0.000  0.000  0.000  0.000
  0.000  1.000  0.000  0.000  0.000
  0.000  0.000  1.000  0.000  0.000
  0.000  0.000  0.000  1.000  0.000
  0.000  0.000  0.000  0.000  1.000
    occupations:
  0.500  0.000  0.000  0.000  0.000
  0.000  0.500  0.000  0.000  0.000
  0.000  0.000  0.500  0.000  0.000
  0.000  0.000  0.000  0.500  0.000
  0.000  0.000  0.000  0.000  0.500
atom   22   Tr[ns(na)] =   5.00000
    eigenvalues:
  0.500  0.500  0.500  0.500  0.500
    eigenvectors:
  1.000  0.000  0.000  0.000  0.000
  0.000  1.000  0.000  0.000  0.000
  0.000  0.000  1.000  0.000  0.000
[...]
  0.001  0.000  0.000  0.000  0.999
  0.000  0.001  0.999  0.000  0.000
    occupations:
  0.498  0.000 -0.002 -0.007  0.000
  0.000  0.625 -0.000  0.000  0.000
 -0.002 -0.000  0.513 -0.001 -0.000
 -0.007  0.000 -0.001  0.725  0.000
  0.000  0.000 -0.000  0.000  0.519
atom   16   Tr[ns(na)] =   5.82227
    eigenvalues:
  0.510  0.513  0.563  0.596  0.730
    eigenvectors:
  0.013  0.002  0.343  0.000  0.642
  0.012  0.986  0.002  0.001  0.000
  0.957  0.010  0.004  0.020  0.009
  0.000  0.001  0.650  0.001  0.348
  0.019  0.002  0.001  0.979  0.000
    occupations:
  0.670  0.003  0.019 -0.079  0.000
  0.003  0.513  0.001  0.001 -0.002
  0.019  0.001  0.514 -0.009 -0.012
 -0.079  0.001 -0.009  0.621 -0.000
  0.000 -0.002 -0.012 -0.000  0.594
atom   17   Tr[ns(na)] =   5.82444
    eigenvalues:
  0.475  0.522  0.580  0.617  0.718
    eigenvectors:
  0.000  0.000  0.990  0.008  0.002
  0.001  0.000  0.008  0.990  0.000
  0.999  0.000  0.000  0.001  0.000
  0.000  0.000  0.002  0.000  0.998
  0.000  1.000  0.000  0.000  0.000
    occupations:
  0.580  0.003  0.001 -0.005  0.000
  0.003  0.617  0.004 -0.001 -0.001
  0.001  0.004  0.475 -0.000  0.000
 -0.005 -0.001 -0.000  0.718  0.000
  0.000 -0.001  0.000  0.000  0.522
atom   22   Tr[ns(na)] =   5.81997
    eigenvalues:
  0.510  0.539  0.585  0.590  0.686
    eigenvectors:
  0.000  0.000  0.215  0.016  0.768
  0.000  0.000  0.066  0.934  0.000
  0.204  0.796  0.000  0.000  0.000
  0.000  0.000  0.719  0.049  0.232
  0.796  0.204  0.000  0.000  0.000
    occupations:
  0.663  0.000 -0.001 -0.043 -0.001
  0.000  0.590 -0.000  0.001 -0.000
 -0.001 -0.000  0.533  0.000 -0.012
 -0.043  0.001  0.000  0.608  0.001
 -0.001 -0.000 -0.012  0.001  0.516
atom   23   Tr[ns(na)] =   5.84011
    eigenvalues:
  0.526  0.529  0.552  0.576  0.737
    eigenvectors:
  0.000  0.002  0.000  0.988  0.010
  0.022  0.000  0.978  0.000  0.000
  0.001  0.997  0.000  0.002  0.000
  0.000  0.000  0.000  0.010  0.990
  0.977  0.001  0.022  0.000  0.000
    occupations:
  0.578  0.000  0.002 -0.016  0.000
  0.000  0.551  0.000 -0.000 -0.004
  0.002  0.000  0.529  0.003  0.000
 -0.016 -0.000  0.003  0.735 -0.000
  0.000 -0.004  0.000 -0.000  0.527
N of occupied +U levels =  46.5129186
 --- exit write_ns ---

     Threshold (ethr) on eigenvalues was too large:
     Diagonalizing with lowered threshold

     Davidson diagonalization with overlap
     ethr =  5.53E-08,  avg # of iterations =  1.6

[...]

     total energy              =   -1765.01357824 Ry
     Harris-Foulkes estimate   =   -1765.01357824 Ry
     estimated scf accuracy    <       0.00000003 Ry

     iteration # 15     ecut=    40.00 Ry     beta=0.70
     Davidson diagonalization with overlap
     ethr =  1.39E-11,  avg # of iterations =  1.0

     negative rho (up, down):  0.334E-02 0.000E+00

     End of self-consistent calculation
 --- enter write_ns ---
 LDA+U parameters:
U( 2)     =  1.00000000
alpha( 2) =  0.00000000
atom    3   Tr[ns(na)] =   5.82365
    eigenvalues:
  0.511  0.513  0.563  0.596  0.730
    eigenvectors:
  0.013  0.002  0.343  0.000  0.642
  0.024  0.973  0.002  0.001  0.000
  0.946  0.021  0.005  0.019  0.009
  0.000  0.001  0.650  0.001  0.349
  0.017  0.002  0.001  0.980  0.000
    occupations:
  0.669 -0.003  0.019 -0.079 -0.000
 -0.003  0.513 -0.001 -0.001 -0.002
  0.019 -0.001  0.514 -0.009  0.011
 -0.079 -0.001 -0.009  0.621  0.000
 -0.000 -0.002  0.011  0.000  0.594
atom    4   Tr[ns(na)] =   5.81185
    eigenvalues:
  0.465  0.523  0.578  0.621  0.719
    eigenvectors:
  0.000  0.000  0.991  0.008  0.001
  0.001  0.000  0.008  0.990  0.000
  0.999  0.000  0.000  0.001  0.000
  0.000  0.000  0.001  0.000  0.999
  0.000  1.000  0.000  0.000  0.000
    occupations:
  0.578  0.004  0.000 -0.005  0.000
  0.004  0.620  0.005 -0.001  0.000
  0.000  0.005  0.466  0.000  0.000
 -0.005 -0.001  0.000  0.719  0.000
  0.000  0.000  0.000  0.000  0.523
atom    9   Tr[ns(na)] =   5.81761
    eigenvalues:
  0.510  0.540  0.585  0.591  0.682
    eigenvectors:
  0.000  0.000  0.222  0.007  0.770
  0.000  0.000  0.030  0.970  0.000
  0.193  0.807  0.000  0.000  0.000
  0.000  0.000  0.748  0.023  0.229
  0.807  0.193  0.000  0.000  0.000
    occupations:
  0.660 -0.000 -0.001 -0.041 -0.002
 -0.000  0.591 -0.000 -0.001  0.000
 -0.001 -0.000  0.534  0.000  0.012
 -0.041 -0.001  0.000  0.607  0.000
 -0.002  0.000  0.012  0.000  0.516
atom   10   Tr[ns(na)] =   5.76182
    eigenvalues:
  0.498  0.513  0.519  0.625  0.726
    eigenvectors:
  0.979  0.020  0.000  0.000  0.001
  0.000  0.000  0.000  1.000  0.000
  0.020  0.979  0.001  0.000  0.000
  0.001  0.000  0.000  0.000  0.999
  0.000  0.001  0.999  0.000  0.000
    occupations:
  0.498  0.000 -0.002 -0.007  0.000
  0.000  0.625 -0.000  0.000  0.000
 -0.002 -0.000  0.513 -0.001 -0.000
 -0.007  0.000 -0.001  0.725  0.000
  0.000  0.000 -0.000  0.000  0.519
atom   16   Tr[ns(na)] =   5.82335
    eigenvalues:
  0.510  0.513  0.563  0.596  0.731
    eigenvectors:
  0.013  0.002  0.343  0.000  0.642
  0.013  0.984  0.002  0.001  0.000
  0.956  0.011  0.004  0.020  0.009
  0.000  0.001  0.650  0.001  0.348
  0.019  0.002  0.001  0.979  0.000
    occupations:
  0.670  0.003  0.019 -0.079  0.000
  0.003  0.513  0.001  0.001 -0.002
  0.019  0.001  0.514 -0.009 -0.012
 -0.079  0.001 -0.009  0.621 -0.000
  0.000 -0.002 -0.012 -0.000  0.594
atom   17   Tr[ns(na)] =   5.81973
    eigenvalues:
  0.474  0.522  0.579  0.617  0.717
    eigenvectors:
  0.000  0.000  0.990  0.009  0.002
  0.001  0.000  0.009  0.990  0.000
  0.999  0.000  0.000  0.001  0.000
  0.000  0.000  0.002  0.000  0.998
  0.000  1.000  0.000  0.000  0.000
    occupations:
  0.580  0.003  0.001 -0.005  0.000
  0.003  0.616  0.004 -0.001 -0.001
  0.001  0.004  0.474 -0.000  0.000
 -0.005 -0.001 -0.000  0.717  0.000
  0.000 -0.001  0.000  0.000  0.522
atom   22   Tr[ns(na)] =   5.81789
    eigenvalues:
  0.510  0.539  0.584  0.590  0.686
    eigenvectors:
  0.000  0.000  0.215  0.016  0.768
  0.000  0.000  0.067  0.933  0.000
  0.203  0.797  0.000  0.000  0.000
  0.000  0.000  0.718  0.050  0.232
  0.797  0.203  0.000  0.000  0.000
    occupations:
  0.663  0.000 -0.001 -0.043 -0.001
  0.000  0.590 -0.000  0.001 -0.000
 -0.001 -0.000  0.533  0.000 -0.012
 -0.043  0.001  0.000  0.608  0.001
 -0.001 -0.000 -0.012  0.001  0.515
atom   23   Tr[ns(na)] =   5.83478
    eigenvalues:
  0.526  0.528  0.551  0.576  0.736
    eigenvectors:
  0.000  0.002  0.000  0.988  0.010
  0.023  0.000  0.977  0.000  0.000
  0.002  0.996  0.000  0.002  0.000
  0.000  0.000  0.000  0.010  0.990
  0.975  0.002  0.023  0.000  0.000
    occupations:
  0.578  0.000  0.002 -0.016  0.000
  0.000  0.551  0.000 -0.000 -0.004
  0.002  0.000  0.528  0.003  0.000
 -0.016 -0.000  0.003  0.734 -0.000
  0.000 -0.004  0.000 -0.000  0.527
N of occupied +U levels =  46.5106999
 --- exit write_ns ---

[...]

          k = 0.2500-0.3900 0.0000 ( 29726 PWs)   bands (ev):

[...]

          k =-0.2500 0.1950 0.0000 ( 29746 PWs)   bands (ev):

   -62.0785 -62.0056 -61.9901 -61.8734 -61.8594 -61.8515 -61.7895 -61.7768
   -36.6661 -36.4249 -36.4041 -36.3706 -36.3192 -36.3162 -36.2403 -36.2347
   -36.1749 -36.1252 -36.0729 -36.0402 -36.0209 -36.0124 -36.0043 -35.9767
   -35.8893 -35.8792 -35.8648 -35.8361 -35.8292 -35.6035 -35.5184 -35.4945
   -22.7911 -20.3557 -20.0939 -19.5208 -19.3843 -19.2712 -19.0953 -19.0229
   -18.9611 -18.8205 -18.7396 -18.6320 -18.5123 -18.4760 -18.3712 -18.3412
   -18.2577 -17.7703 -17.6165 -16.5484  -8.3677  -8.2451  -8.1094  -7.7498
    -7.4182  -7.2952  -7.2860  -7.1999  -7.0305  -6.9290  -6.8805  -6.8441
    -6.7357  -6.5597  -6.4728  -6.3040  -6.0188  -5.9763  -5.8762  -5.8168
    -5.6956  -5.6269  -5.5461  -5.3983  -5.2658  -5.2222  -5.0372  -4.9792
    -4.9029  -4.7534  -4.6566  -4.5981  -4.3944  -4.2928  -4.1658  -4.1399
    -4.0747  -4.0067  -3.9607  -3.9122  -3.7902  -3.7615  -3.6795  -3.6154
    -3.4737  -3.3751  -3.2455  -3.1177  -3.0175  -2.9951  -2.9168  -2.8296
    -2.7143  -2.6879  -2.5140  -2.4123  -2.3342  -2.1462  -1.3409  -1.2275
    -1.1133  -1.0252  -0.2877  -0.0613   0.0473   0.1120   0.5383   0.6256
     0.9590   1.0903   1.1454   1.2813   1.4296   1.5323   1.7151   1.7670
     1.8812   2.0387   2.1608   2.2954   2.3164   2.4096   2.6013   2.8212
     3.6853   3.7459   4.0332   4.0820   4.2044   4.2856   4.3580   4.4634
     4.7051   4.7831   4.9248   4.9613   5.1706   5.2246   5.3479   5.5632
     5.9057   6.0581   6.1613   6.2596   6.3358   6.4362   6.5218   6.5948
     6.7337   6.9468   7.0053   7.2730   7.3300   7.4391   7.7370   7.7874
     8.0842   8.2362   8.4522   8.4962   8.6495   8.7306   8.8731   8.9584
     9.0077   9.1973   9.2527   9.3561   9.5095   9.6120   9.6811   9.7750
     9.8211   9.9152   9.9719  10.0888  10.2141  10.4176  10.5354  10.6062
    10.6996  10.7968  10.8846  10.9405  11.0099  11.1216  11.2790  11.3717
    11.4911  11.6502  11.7249  11.8361  11.9024  11.9394  12.0169  12.1662
    12.1992  12.2601  12.3567  12.3673  12.4617  12.5445  12.6187  12.8103
    12.8913  12.9785  13.0189  13.1524  13.1991  13.2296  13.3703  13.4406
    13.5265  13.5579  13.6446  13.6893  13.7467  13.8289  13.8883  13.9560
    14.0357  14.0835  14.1260  14.1991  14.2381  14.2860  14.3659  14.3897
    14.4549  14.5236  14.6188  14.7415  14.7847  14.8769  14.9167  15.0718
    15.1355  15.2310  15.2822  15.4132  15.4776  15.4940  15.6351  15.6820
    15.7883  15.8761  15.9116  16.0092  16.0592  16.1527  16.2407  16.2787
    16.3286  16.4261  16.5008  16.5606  16.5862  16.6197  16.7194  16.7602
    16.8395  16.9207  16.9647  17.0917  17.1065  17.1868  17.2709  17.3047
    17.3363  17.3813  17.4950  17.5844  17.6731  17.7527  17.7955  17.8929
    18.0498  18.0863  18.1307  18.1928  18.2301  18.3438  18.3926  18.4831
    18.5737  18.6121  18.6801  18.7723  18.8985  18.9389  19.0124  19.0584
    19.1822  19.2348  19.3647  19.4034  19.4231  19.5355  19.5985  19.6919
    19.8213  19.8838  19.9866  20.0391  20.1017  20.1438  20.1834  20.2395
    20.2663  20.3337  20.4415  20.4664  20.4867  20.5380  20.6042  20.6772
    20.7554  20.8227  20.8765  20.9327  20.9895  21.0989  21.1376  21.2325
    21.2945  21.3545  21.4023  21.4584  21.5197  21.5449  21.6073  21.6274
    21.6668  21.7405  21.8169  21.8649  21.9014  21.9466  21.9872  22.0777
    22.1432  22.2171  22.2838

     the Fermi energy is     0.4814 ev

!    total energy              =   -1765.01357824 Ry
     Harris-Foulkes estimate   =   -1765.01357824 Ry
     estimated scf accuracy    <          1.8E-09 Ry

     The total energy is the sum of the following terms:

     one-electron contribution =  -22646.61897677 Ry
     hartree contribution      =   11352.68796481 Ry
     xc contribution           =    -301.53419833 Ry
     ewald contribution        =    9829.75401824 Ry
     Hubbard energy            =       0.69776975 Ry
     smearing contrib. (-TS)   =      -0.00015593 Ry

     convergence has been achieved in  15 iterations

     Forces acting on atoms (Ry/au):

     negative rho (up, down):  0.334E-02 0.000E+00
     atom    1 type  1   force =    -0.00057391   -0.00516406   -0.00021821
     atom    2 type  1   force =    -0.00012277    0.00892248    0.00012519
     atom    3 type  2   force =    -0.01207434   -0.00829511    0.00032495
     atom    4 type  2   force =     0.00070376    0.00561221    0.00062924
     atom    5 type  1   force =     0.00009883   -0.00223053    0.00014431
     atom    6 type  1   force =    -0.00176355   -0.00050026    0.00005239
     atom    7 type  1   force =     0.00031028   -0.00123276   -0.00076171
     atom    8 type  1   force =     0.00267532    0.00224213   -0.00053202
     atom    9 type  2   force =    -0.00615378   -0.00372849   -0.00048037
     atom   10 type  2   force =    -0.00043173    0.00291122    0.00099870
     atom   11 type  1   force =    -0.01427024   -0.02426033    0.00024860
     atom   12 type  1   force =    -0.01149382    0.03031582    0.00051832
     atom   13 type  1   force =     0.00011779   -0.00176994   -0.00037286
     atom   14 type  1   force =    -0.00273748   -0.00602830   -0.00001912
     atom   15 type  1   force =    -0.00001090    0.01042587   -0.00006451
     atom   16 type  2   force =     0.01133693   -0.00815997    0.00032707
     atom   17 type  2   force =    -0.00110838    0.00434015    0.00040632
     atom   18 type  1   force =     0.00258968   -0.00268659    0.00015991
     atom   19 type  1   force =     0.00206820   -0.00064807    0.00007066
     atom   20 type  1   force =     0.00023569    0.00084649    0.00011126
     atom   21 type  1   force =     0.00347136    0.00206160   -0.00057557
     atom   22 type  2   force =     0.00218174   -0.00378840   -0.00063610
     atom   23 type  2   force =     0.00057575    0.00168986    0.00018672
     atom   24 type  1   force =     0.01426698   -0.02386498    0.00023662
     atom   25 type  1   force =     0.01142019    0.03032423    0.00047877
     atom   26 type  1   force =    -0.00034413   -0.00660647   -0.00036644
     atom   27 type  3   force =    -0.00000278   -0.00022029   -0.00053505
     atom   28 type  3   force =     0.00000309   -0.00007892   -0.00061199
     atom   29 type  3   force =    -0.00039827   -0.00019431    0.00009931
     atom   30 type  3   force =    -0.00061396   -0.00017466    0.00011707
     atom   31 type  1   force =     0.00011086   -0.00028890   -0.00008374
     atom   32 type  1   force =    -0.00008019    0.00017184    0.00047235
     atom   33 type  3   force =     0.00001379    0.00005745   -0.00045007

     Total force =     0.002563     Total SCF correction =     0.000095

     entering subroutine stress ...

     negative rho (up, down):  0.334E-02 0.000E+00
          total   stress  (Ry/bohr**3)                   (kbar)     P=   -4.19
   0.00000713  -0.00000054   0.00000185          1.05     -0.08      0.27
  -0.00000054  -0.00005639  -0.00000201         -0.08     -8.30     -0.30
   0.00000185  -0.00000201  -0.00003629          0.27     -0.30     -5.34

     bfgs converged in   3 scf cycles and   2 bfgs steps
     (criteria: energy < 0.10E-03, force < 0.10E-02)

     End of BFGS Geometry Optimization

     Final energy   =   -1765.0135782369 Ry
Begin final coordinates

ATOMIC_POSITIONS (crystal)
O0       0.000000000   0.000000000   0.371068114    0   0   1
O0       0.000000000   0.500000000   0.382704872    0   0   1
Mo1      0.250000000   0.500000000   0.440441003    0   0   1
Mo1      0.000000000   0.000000000   0.443411521    0   0   1
O0       0.250000000   0.780000000   0.442836842    0   0   1
O0       0.250000000   0.220000000   0.442700160    0   0   1
O0       0.000000000   0.500000000   0.497670716    0   0   1
O0       0.000000000   0.000000000   0.516729352    0   0   1
Mo1      0.250000000   0.000000000   0.575379236    0   0   1
Mo1      0.000000000   0.500000000   0.565211546    0   0   1
O0       0.250000000   0.720000000   0.570223554    0   0   1
O0       0.250000000   0.280000000   0.571285236    0   0   1
O0       0.000000000   0.000000000   0.625862671    0   0   1
O0       0.500000000   0.000000000   0.371241816    0   0   1
O0       0.500000000   0.500000000   0.382920801    0   0   1
Mo1      0.750000000   0.500000000   0.440435665    0   0   1
Mo1      0.500000000   0.000000000   0.443966253    0   0   1
O0       0.750000000   0.780000000   0.442877638    0   0   1
O0       0.750000000   0.220000000   0.442680322    0   0   1
O0       0.500000000   0.500000000   0.497821010    0   0   1
O0       0.500000000   0.000000000   0.516321425    0   0   1
Mo1      0.750000000   0.000000000   0.575080641    0   0   1
Mo1      0.500000000   0.500000000   0.570442872    0   0   1
O0       0.750000000   0.720000000   0.570193202    0   0   1
O0       0.750000000   0.280000000   0.571243311    0   0   1
O0       0.500000000   0.000000000   0.625478604    0   0   1
H2      -0.000579061   0.611884269   0.360660437
H2       0.499511819   0.617299394   0.362766198
H2       0.167159521   0.018102375   0.356767940
H2       0.665765661   0.019335284   0.356578582
O0       0.500240089   0.519884221   0.642233101
O0       0.499920212   0.356504241   0.675277420
H2       0.500014452   0.424856488   0.707237938
End final coordinates

     General routines

     Parallel routines
     Hubbard U routines

   This run was terminated on:   4:29:39  28May2014

   JOB DONE.
Running PBS batch system epilogue script
Job id: 373258.audhumbla.fysik.dtu.dk
Username: zhonxu
Groupname: campgst
Jobname: MoO2/Eads-2-layers/OOH-U-1.0
Sessionid: 12994
Queuename: verylong
Accounting:
This job has allocated the following 16 nodes:
a049 a049 a049 a049 a049 a049 a049 a049 a017 a017 a017 a017 a017 a017 a017 a017
Finished epilogue job 373258.audhumbla.fysik.dtu.dk for zhonxu