     Program PWSCF v.5.0.2 (svn rev. 9656) starts on 15May2014 at  9:42:50

     Current dimensions of program PWSCF are:
     Max number of different atomic species (ntypx) = 10
     Max number of k-points (npk) =  40000
     Max angular momentum in pseudopotentials (lmaxx) =  3
     Reading input from pwscf.in
Warning: card &CELL ignored
Warning: card / ignored

     Subspace diagonalization in iterative solution of the eigenvalue problem:
     a serial algorithm will be used

     bravais-lattice index     =            0
     lattice parameter (alat)  =      11.1872  a.u.
     unit-cell volume          =    7531.8600 (a.u.)^3
     number of atoms/cell      =           30
     number of atomic types    =            3
     number of electrons       =       216.00
     number of Kohn-Sham states=          324
     kinetic-energy cutoff     =      40.0000  Ry
     charge density cutoff     =     500.0000  Ry
     convergence threshold     =      1.0E-06
     mixing beta               =       0.7000
     number of iterations used =            8  plain     mixing
     Exchange-correlation      = SLA  PW   PBE  PBE ( 1 4 3 4 0)
     EXX-fraction              =        0.00
     nstep                     =           50

     celldm(1)=  11.187179  celldm(2)=   0.000000  celldm(3)=   0.000000
     celldm(4)=   0.000000  celldm(5)=   0.000000  celldm(6)=   0.000000

     crystal axes: (cart. coord. in units of alat)
               a(1) = (   1.000000   0.000000   0.000000 )
               a(2) = (   0.000000   1.180104   0.000000 )
               a(3) = (   0.000000   0.000000   4.558482 )

     reciprocal axes: (cart. coord. in units 2 pi/alat)
               b(1) = (  1.000000  0.000000  0.000000 )
               b(2) = (  0.000000  0.847383  0.000000 )
               b(3) = (  0.000000  0.000000  0.219371 )

     PseudoPot. # 1 for O  read from file:
     /home/camp/zhonxu/pseudo/o_pbe_v1.01.uspp.F.UPF
     MD5 check sum: 2bcb18d16ea4b960afae9ec6d52f22d2
     Pseudo is Ultrasoft + core correction, Zval =  6.0
     Generated by new atomic code, or converted to UPF format
     Using radial grid of  737 points,  5 beta functions with:
                l(1) =   0
                l(2) =   0
                l(3) =   1
                l(4) =   1
                l(5) =   2
     Q(r) pseudized with  8 coefficients,  rinner =    0.900   0.900   0.900
                                                       0.900   0.900

     PseudoPot. # 2 for Nb read from file:
     /home/camp/zhonxu/pseudo/nb_pbe_v1.uspp.F.UPF
     MD5 check sum: 573aab8a2fa660278ed4a62cd769473f
     Pseudo is Ultrasoft + core correction, Zval = 13.0
     Generated by new atomic code, or converted to UPF format
     Using radial grid of  887 points,  6 beta functions with:
                l(1) =   0
                l(2) =   0
                l(3) =   1
                l(4) =   1
                l(5) =   2
                l(6) =   2
     Q(r) pseudized with  6 coefficients,  rinner =    1.000   1.000   1.000
                                                       1.000   1.000

     PseudoPot. # 3 for H  read from file:
     /home/camp/zhonxu/pseudo/h_pbe_v1.uspp.F.UPF
     MD5 check sum: 3408e3ff4ec8b0a4e358431e7e038a48
     Pseudo is Ultrasoft, Zval =  1.0
     Generated by new atomic code, or converted to UPF format
     Using radial grid of  615 points,  2 beta functions with:
                l(1) =   0
                l(2) =   0
     Q(r) pseudized with  8 coefficients,  rinner =    0.700

     atomic species   valence    mass     pseudopotential
        O0             6.00    15.99940     O ( 1.00)
        Nb1           13.00    92.90640     Nb( 1.00)
        H2             1.00     1.00794     H ( 1.00)

     Simplified LDA+U calculation (l_max = 2) with parameters (eV):
     atomic species    L          U    alpha       J0     beta
        Nb1            2     0.0000   0.0000   0.0000   0.0000

     No symmetry found

   Cartesian axes

     site n.     atom                  positions (alat units)
         1           O0  tau(   1) = (   0.0000000   0.0000000   1.7080633  )
         2           O0  tau(   2) = (   0.0000000   0.5900519   1.7583889  )
         3           Nb1 tau(   3) = (   0.2500000   0.5900519   2.0066439  )
         4           Nb1 tau(   4) = (   0.0000000   0.0000000   2.0401487  )
         5           O0  tau(   5) = (   0.2500000   0.9322821   2.0429294  )
         6           O0  tau(   6) = (   0.2500000   0.2478218   2.0431118  )
         7           O0  tau(   7) = (   0.0000000   0.5900519   2.2709903  )
         8           O0  tau(   8) = (   0.0000000   0.0000000   2.3999042  )
         9           Nb1 tau(   9) = (   0.2500000   0.0000000   2.6489340  )
        10           Nb1 tau(  10) = (   0.0000000   0.5900519   2.5868019  )
        11           O0  tau(  11) = (   0.2500000   0.8378738   2.6444667  )
        12           O0  tau(  12) = (   0.2500000   0.3422301   2.6445123  )
        13           O0  tau(  13) = (   0.0000000   0.0000000   2.8518777  )
        14           O0  tau(  14) = (   0.5000000   0.0000000   1.7080633  )
        15           O0  tau(  15) = (   0.5000000   0.5900519   1.7583889  )
        16           Nb1 tau(  16) = (   0.7500000   0.5900519   2.0066439  )
        17           Nb1 tau(  17) = (   0.5000000   0.0000000   2.0401487  )
        18           O0  tau(  18) = (   0.7500000   0.9322821   2.0429294  )
        19           O0  tau(  19) = (   0.7500000   0.2478218   2.0431118  )
        20           O0  tau(  20) = (   0.5000000   0.5900519   2.2709903  )
        21           O0  tau(  21) = (   0.5000000   0.0000000   2.3999497  )
        22           Nb1 tau(  22) = (   0.7500000   0.0000000   2.6489340  )
        23           Nb1 tau(  23) = (   0.5000000   0.5900519   2.5867563  )
        24           O0  tau(  24) = (   0.7500000   0.8378738   2.6444667  )
        25           O0  tau(  25) = (   0.7500000   0.3422301   2.6445123  )
        26           O0  tau(  26) = (   0.5000000   0.0000000   2.8518777  )
        27           H2  tau(  27) = (  -0.0004200   0.5934860   1.5928705  )
        28           H2  tau(  28) = (   0.4995800   0.5932146   1.5928249  )
        29           H2  tau(  29) = (   0.1513000  -0.0014397   1.6372701  )
        30           H2  tau(  30) = (   0.6512900  -0.0014397   1.6372701  )

     number of k points=    10  Methfessel-Paxton smearing, width (Ry)=  0.0100
                       cart. coord. in units 2pi/alat
        k(    1) = (   0.0000000   0.0000000   0.0000000), wk =   0.1250000
        k(    2) = (   0.0000000   0.2118458   0.0000000), wk =   0.2500000
        k(    3) = (   0.0000000  -0.4236915   0.0000000), wk =   0.1250000
        k(    4) = (   0.2500000   0.0000000   0.0000000), wk =   0.2500000
        k(    5) = (   0.2500000   0.2118458   0.0000000), wk =   0.2500000
        k(    6) = (   0.2500000  -0.4236915   0.0000000), wk =   0.2500000
        k(    7) = (  -0.5000000   0.0000000   0.0000000), wk =   0.1250000
        k(    8) = (  -0.5000000   0.2118458   0.0000000), wk =   0.2500000
        k(    9) = (  -0.5000000  -0.4236915   0.0000000), wk =   0.1250000
        k(   10) = (  -0.2500000   0.2118458   0.0000000), wk =   0.2500000

     Largest allocated arrays     est. size (Mb)     dimensions
     Largest temporary arrays     est. size (Mb)     dimensions

     Check: negative/imaginary core charge=   -0.000003    0.000000

     Initial potential from superposition of free atoms
     Check: negative starting charge=   -0.003843

     starting charge  215.97807, renormalised to  216.00000

     negative rho (up, down):  0.384E-02 0.000E+00
     Number of +U iterations with fixed ns =  0
     Starting occupations:
 --- enter write_ns ---
 LDA+U parameters:
U( 2)     =  0.00000000
alpha( 2) =  0.00000000
atom    3   Tr[ns(na)] =   3.00000
    eigenvalues:
  0.300  0.300  0.300  0.300  0.300
    eigenvectors:
  1.000  0.000  0.000  0.000  0.000
  0.000  1.000  0.000  0.000  0.000
  0.000  0.000  1.000  0.000  0.000
  0.000  0.000  0.000  1.000  0.000
  0.000  0.000  0.000  0.000  1.000
    occupations:
  0.300  0.000  0.000  0.000  0.000
  0.000  0.300  0.000  0.000  0.000
  0.000  0.000  0.300  0.000  0.000
  0.000  0.000  0.000  0.300  0.000
  0.000  0.000  0.000  0.000  0.300
atom    4   Tr[ns(na)] =   3.00000
    eigenvalues:
  0.300  0.300  0.300  0.300  0.300
    eigenvectors:
  1.000  0.000  0.000  0.000  0.000
  0.000  1.000  0.000  0.000  0.000
  0.000  0.000  1.000  0.000  0.000
  0.000  0.000  0.000  1.000  0.000
  0.000  0.000  0.000  0.000  1.000
    occupations:
  0.300  0.000  0.000  0.000  0.000
  0.000  0.300  0.000  0.000  0.000
  0.000  0.000  0.300  0.000  0.000
  0.000  0.000  0.000  0.300  0.000
  0.000  0.000  0.000  0.000  0.300
atom    9   Tr[ns(na)] =   3.00000
    eigenvalues:
  0.300  0.300  0.300  0.300  0.300
    eigenvectors:
  1.000  0.000  0.000  0.000  0.000
  0.000  1.000  0.000  0.000  0.000
  0.000  0.000  1.000  0.000  0.000
  0.000  0.000  0.000  1.000  0.000
  0.000  0.000  0.000  0.000  1.000
    occupations:
  0.300  0.000  0.000  0.000  0.000
  0.000  0.300  0.000  0.000  0.000
  0.000  0.000  0.300  0.000  0.000
  0.000  0.000  0.000  0.300  0.000
  0.000  0.000  0.000  0.000  0.300
atom   10   Tr[ns(na)] =   3.00000
    eigenvalues:
  0.300  0.300  0.300  0.300  0.300
    eigenvectors:
  1.000  0.000  0.000  0.000  0.000
  0.000  1.000  0.000  0.000  0.000
  0.000  0.000  1.000  0.000  0.000
  0.000  0.000  0.000  1.000  0.000
  0.000  0.000  0.000  0.000  1.000
    occupations:
  0.300  0.000  0.000  0.000  0.000
  0.000  0.300  0.000  0.000  0.000
  0.000  0.000  0.300  0.000  0.000
  0.000  0.000  0.000  0.300  0.000
  0.000  0.000  0.000  0.000  0.300
atom   16   Tr[ns(na)] =   3.00000
    eigenvalues:
  0.300  0.300  0.300  0.300  0.300
    eigenvectors:
  1.000  0.000  0.000  0.000  0.000
  0.000  1.000  0.000  0.000  0.000
  0.000  0.000  1.000  0.000  0.000
  0.000  0.000  0.000  1.000  0.000
  0.000  0.000  0.000  0.000  1.000
    occupations:
  0.300  0.000  0.000  0.000  0.000
  0.000  0.300  0.000  0.000  0.000
  0.000  0.000  0.300  0.000  0.000
  0.000  0.000  0.000  0.300  0.000
  0.000  0.000  0.000  0.000  0.300
atom   17   Tr[ns(na)] =   3.00000
    eigenvalues:
  0.300  0.300  0.300  0.300  0.300
    eigenvectors:
  1.000  0.000  0.000  0.000  0.000
  0.000  1.000  0.000  0.000  0.000
  0.000  0.000  1.000  0.000  0.000
  0.000  0.000  0.000  1.000  0.000
  0.000  0.000  0.000  0.000  1.000
    occupations:
  0.300  0.000  0.000  0.000  0.000
  0.000  0.300  0.000  0.000  0.000
  0.000  0.000  0.300  0.000  0.000
  0.000  0.000  0.000  0.300  0.000
  0.000  0.000  0.000  0.000  0.300
atom   22   Tr[ns(na)] =   3.00000
    eigenvalues:
  0.300  0.300  0.300  0.300  0.300
    eigenvectors:
  1.000  0.000  0.000  0.000  0.000
  0.000  1.000  0.000  0.000  0.000
  0.000  0.000  1.000  0.000  0.000
  0.000  0.000  0.000  1.000  0.000
  0.000  0.000  0.000  0.000  1.000
    occupations:
  0.300  0.000  0.000  0.000  0.000
  0.000  0.300  0.000  0.000  0.000
  0.000  0.000  0.300  0.000  0.000
  0.000  0.000  0.000  0.300  0.000
[...]
     estimated scf accuracy    <      13.29332912 Ry

     iteration #  2     ecut=    40.00 Ry     beta=0.70
     Davidson diagonalization with overlap
     ethr =  6.15E-03,  avg # of iterations =  3.0

[...]

     total energy              =   -1530.21359140 Ry
     Harris-Foulkes estimate   =   -1530.21359189 Ry
     estimated scf accuracy    <       0.00000276 Ry

     iteration # 23     ecut=    40.00 Ry     beta=0.70
     Davidson diagonalization with overlap
     ethr =  1.22E-09,  avg # of iterations =  1.0

     negative rho (up, down):  0.356E-02 0.000E+00

     End of self-consistent calculation
 --- enter write_ns ---
 LDA+U parameters:
U( 2)     =  0.00000000
alpha( 2) =  0.00000000
atom    3   Tr[ns(na)] =   5.22382
    eigenvalues:
  0.427  0.446  0.501  0.555  0.682
    eigenvectors:
  0.000  0.000  0.000  0.430  0.570
  0.000  0.000  1.000  0.000  0.000
  0.039  0.961  0.000  0.000  0.000
  0.000  0.000  0.000  0.570  0.430
  0.961  0.039  0.000  0.000  0.000
    occupations:
  0.628  0.000  0.001 -0.063 -0.000
  0.000  0.501  0.000  0.000  0.000
  0.001  0.000  0.445 -0.000 -0.004
 -0.063  0.000 -0.000  0.610  0.000
 -0.000  0.000 -0.004  0.000  0.427
atom    4   Tr[ns(na)] =   5.24377
    eigenvalues:
  0.424  0.460  0.546  0.573  0.619
    eigenvectors:
  0.000  0.005  0.000  0.995  0.000
  0.000  0.995  0.000  0.005  0.001
  1.000  0.000  0.000  0.000  0.000
  0.000  0.001  0.000  0.000  0.999
  0.000  0.000  1.000  0.000  0.000
    occupations:
  0.572  0.008 -0.000 -0.000 -0.000
  0.008  0.460  0.000 -0.004 -0.000
 -0.000  0.000  0.424  0.000  0.001
 -0.000 -0.004  0.000  0.619  0.000
 -0.000 -0.000  0.001  0.000  0.546
atom    9   Tr[ns(na)] =   5.28822
    eigenvalues:
  0.460  0.471  0.515  0.596  0.602
    eigenvectors:
  0.883  0.000  0.000  0.117  0.000
  0.000  0.000  0.000  0.000  1.000
  0.000  0.000  1.000  0.000  0.000
  0.117  0.000  0.000  0.883  0.000
  0.000  1.000  0.000  0.000  0.000
    occupations:
  0.476 -0.000 -0.000  0.044  0.000
 -0.000  0.602  0.000 -0.000  0.000
 -0.000  0.000  0.515  0.000  0.000
  0.044 -0.000  0.000  0.580 -0.000
  0.000  0.000  0.000 -0.000  0.471
atom   10   Tr[ns(na)] =   5.14038
    eigenvalues:
  0.420  0.497  0.514  0.521  0.618
    eigenvectors:
  0.000  0.998  0.000  0.000  0.002
  0.000  0.000  1.000  0.000  0.000
  1.000  0.000  0.000  0.000  0.000
  0.000  0.002  0.000  0.000  0.998
  0.000  0.000  0.000  1.000  0.000
    occupations:
  0.498  0.000  0.000 -0.006  0.000
  0.000  0.514 -0.000 -0.000 -0.000
  0.000 -0.000  0.420 -0.000  0.000
 -0.006 -0.000 -0.000  0.618 -0.000
  0.000 -0.000  0.000 -0.000  0.521
atom   16   Tr[ns(na)] =   5.22341
    eigenvalues:
  0.427  0.446  0.501  0.555  0.682
    eigenvectors:
  0.000  0.000  0.000  0.430  0.570
  0.000  0.000  1.000  0.000  0.000
  0.039  0.961  0.000  0.000  0.000
  0.000  0.000  0.000  0.570  0.430
  0.961  0.039  0.000  0.000  0.000
    occupations:
  0.628  0.000  0.001 -0.063  0.000
  0.000  0.501  0.000  0.000  0.000
  0.001  0.000  0.445 -0.000 -0.004
 -0.063  0.000 -0.000  0.610 -0.000
  0.000  0.000 -0.004 -0.000  0.427
atom   17   Tr[ns(na)] =   5.24365
    eigenvalues:
  0.424  0.460  0.546  0.573  0.619
    eigenvectors:
  0.000  0.005  0.000  0.995  0.000
  0.000  0.994  0.000  0.005  0.001
  1.000  0.000  0.000  0.000  0.000
  0.000  0.001  0.000  0.000  0.999
  0.000  0.000  1.000  0.000  0.000
    occupations:
  0.572  0.008 -0.000 -0.000 -0.000
  0.008  0.460  0.000 -0.004 -0.000
 -0.000  0.000  0.424  0.000  0.001
 -0.000 -0.004  0.000  0.619  0.000
 -0.000 -0.000  0.001  0.000  0.546
atom   22   Tr[ns(na)] =   5.28822
    eigenvalues:
  0.460  0.471  0.515  0.596  0.602
    eigenvectors:
  0.883  0.000  0.000  0.117  0.000
  0.000  0.000  0.000  0.000  1.000
  0.000  0.000  1.000  0.000  0.000
  0.117  0.000  0.000  0.883  0.000
  0.000  1.000  0.000  0.000  0.000
    occupations:
  0.476 -0.000 -0.000  0.044  0.000
 -0.000  0.602  0.000 -0.000  0.000
 -0.000  0.000  0.515  0.000 -0.000
  0.044 -0.000  0.000  0.580 -0.000
  0.000  0.000 -0.000 -0.000  0.471
atom   23   Tr[ns(na)] =   5.14043
    eigenvalues:
  0.420  0.497  0.513  0.521  0.619
    eigenvectors:
  0.000  0.998  0.000  0.000  0.002
  0.000  0.000  1.000  0.000  0.000
  1.000  0.000  0.000  0.000  0.000
  0.000  0.002  0.000  0.000  0.998
  0.000  0.000  0.000  1.000  0.000
    occupations:
  0.498  0.000  0.000 -0.006  0.000
  0.000  0.513 -0.000 -0.000 -0.000
  0.000 -0.000  0.420 -0.000  0.000
 -0.006 -0.000 -0.000  0.618 -0.000
  0.000 -0.000  0.000 -0.000  0.521
N of occupied +U levels =  41.7918949
 --- exit write_ns ---

          k = 0.0000 0.0000 0.0000 ( 32167 PWs)   bands (ev):

   -56.1961 -56.1063 -55.7238 -55.6794 -55.6454 -55.6029 -55.5894 -55.5124
   -33.1403 -32.3888 -32.3150 -32.2630 -32.2111 -32.2065 -32.1735 -32.1207
   -32.1066 -32.1049 -32.0523 -32.0102 -32.0096 -31.9372 -31.8526 -31.7324
   -31.7234 -31.6487 -31.5948 -31.5661 -31.4549 -31.4091 -31.2833 -31.2695
   -20.4809 -20.3205 -19.3306 -19.1370 -18.9859 -18.8932 -18.8118 -18.6604
   -18.6365 -18.5757 -18.4453 -18.4172 -18.2655 -18.0834 -17.9141 -17.7693
   -17.6752 -17.5037  -8.9275  -8.6027  -7.6760  -7.2360  -7.1961  -6.8253
    -6.5603  -6.3018  -6.2232  -6.1807  -6.1461  -6.0265  -5.9030  -5.8495
    -5.8373  -5.7884  -5.7147  -5.4581  -5.3404  -5.2614  -5.1538  -5.1377
    -5.0547  -5.0396  -5.0306  -4.9628  -4.8804  -4.5547  -4.2903  -4.1806
    -4.1255  -4.0782  -3.9778  -3.8149  -3.8049  -3.7528  -3.6451  -3.5122
    -3.4877  -3.4459  -3.2536  -3.2461  -3.1845  -3.1183  -3.1130  -2.9242
    -2.8505  -2.7985  -2.7749  -2.7482  -2.6238  -2.5887  -2.5435  -2.0756
    -0.6400  -0.2493  -0.0442   1.2315   1.4534   1.5043   1.5620   1.5755
     1.5982   1.6755   1.7324   1.9337   2.0016   2.3914   2.4385   2.4609
     2.5079   2.6342   2.8730   2.9263   2.9575   3.1465   3.2734   3.6522
     3.7591   3.8076   3.8271   3.8806   4.1294   4.3301   4.6256   4.7907
     4.9948   5.1434   5.3623   5.4086   5.4675   5.6776   5.7375   5.7403
     5.8197   6.0595   6.1888   6.2762   6.2952   6.4086   6.5767   6.6649
     6.8283   6.8956   6.9018   7.0156   7.1843   7.2572   7.2857   7.2924
     7.5417   7.6659   7.8377   8.0182   8.0391   8.1347   8.1378   8.2578
     8.3472   8.5238   8.5430   8.6455   8.7987   8.8208   8.8491   8.9229
     8.9826   9.1867   9.2152   9.3183   9.3735   9.5393   9.5492   9.6590
     9.6916   9.7089   9.8845  10.0212  10.0360  10.1361  10.1991  10.3292
    10.3845  10.4835  10.7809  10.9011  10.9565  10.9875  11.1380  11.1571
    11.2107  11.2212  11.2379  11.2496  11.2712  11.3541  11.4223  11.5450
    11.5601  11.5749  11.5863  11.7519  11.7850  11.9103  11.9400  12.2676
    12.2791  12.2927  12.3102  12.3348  12.3670  12.4104  12.5126  12.5247
    12.5477  12.7471  12.9282  12.9924  13.0448  13.1300  13.2237  13.3778
    13.4840  13.5791  13.5898  13.6060  13.7883  13.8691  13.9283  13.9988
    14.0445  14.0494  14.1538  14.2678  14.3469  14.4799  14.7149  14.7355
    14.7620  14.8181  15.1067  15.1094  15.2051  15.2745  15.2759  15.3066
    15.3126  15.5563  15.5649  15.5904  15.7057  15.7472  15.8846  15.9677
    16.0093  16.0698  16.1025  16.1255  16.1885  16.2543  16.4464  16.4848
    16.5362  16.5433  16.7160  16.7630  16.8121  16.8265  17.0327  17.0774
    17.2722  17.3865  17.3889  17.4290  17.4658  17.5055  17.5525  17.5819
    17.7781  18.0607  18.0845  18.1908  18.2487  18.2899  18.2917  18.2996
    18.4540  18.4774  18.4823  18.7079  18.7553  18.8103  18.8792  19.0309
    19.0733  19.0831  19.1357  19.1449  19.1744  19.2078  19.2828  19.2895
    19.3300  19.3328  19.5378  19.5810  19.7701  19.8224  19.8633  19.8979
    20.0574  20.1344  20.1833  20.1958

[...]

          k = 0.2500-0.4237 0.0000 ( 32188 PWs)   bands (ev):

[...]

          k =-0.5000 0.0000 0.0000 ( 32166 PWs)   bands (ev):

[...]

          k =-0.2500 0.2118 0.0000 ( 32165 PWs)   bands (ev):

   -56.1830 -56.1196 -55.7124 -55.6683 -55.6570 -55.6142 -55.5783 -55.5238
   -33.0026 -32.3717 -32.2913 -32.2509 -32.2341 -32.1959 -32.1671 -32.1503
   -32.1478 -31.9980 -31.9779 -31.9755 -31.9587 -31.9469 -31.8560 -31.7385
   -31.7206 -31.6228 -31.6205 -31.5932 -31.5393 -31.4836 -31.4091 -31.3990
   -20.4309 -20.3191 -19.2146 -18.9292 -18.9134 -18.7844 -18.6781 -18.6571
   -18.6509 -18.5710 -18.5671 -18.5356 -18.1302 -18.0393 -18.0173 -17.9231
   -17.8253 -17.6966  -8.8291  -8.6208  -7.4593  -6.8557  -6.6650  -6.5766
    -6.5396  -6.3686  -6.3159  -6.1379  -6.1323  -6.0954  -6.0752  -5.9059
    -5.8484  -5.7812  -5.7693  -5.5111  -5.5002  -5.4418  -5.1316  -5.1184
    -5.0183  -4.9284  -4.8567  -4.6538  -4.5274  -4.3936  -4.3080  -4.3072
    -4.2508  -4.1496  -3.9703  -3.9581  -3.9576  -3.8679  -3.8452  -3.7873
    -3.5921  -3.5528  -3.4966  -3.4910  -3.3708  -3.2825  -3.1694  -3.1152
    -3.0631  -2.9683  -2.8445  -2.7027  -2.6640  -2.5376  -2.4805  -2.1605
    -0.1445   0.4600   0.6413   0.9306   1.0142   1.2741   1.5480   1.6896
     1.7117   1.8186   2.1268   2.1272   2.2867   2.3474   2.3662   2.5990
     2.6154   2.6575   2.7277   2.7619   2.8298   2.9872   3.0247   3.1019
     3.2239   3.3797   3.6070   4.2406   4.5119   4.5608   4.6972   4.8737
     4.9784   5.1298   5.2090   5.2550   5.3018   5.3909   5.5965   5.7061
     5.7838   5.9103   5.9792   6.0417   6.2350   6.3446   6.3957   6.5157
     6.5434   6.6727   6.7123   6.8383   6.9632   7.0299   7.2240   7.2477
     7.3975   7.5217   7.7277   7.8129   7.9214   7.9417   8.1249   8.1607
     8.2992   8.3217   8.4451   8.6635   8.7168   8.8549   9.0345   9.0586
     9.0806   9.2060   9.3181   9.4372   9.5719   9.5851   9.6551   9.7706
     9.8946   9.9434  10.0022  10.1538  10.2072  10.3420  10.4179  10.6023
    10.7360  10.7511  10.9105  10.9575  11.0199  11.0823  11.1633  11.2336
    11.2449  11.3831  11.4668  11.4822  11.5242  11.5370  11.7353  11.8475
    11.9119  12.0475  12.0992  12.1793  12.2334  12.3429  12.4529  12.4734
    12.6432  12.6892  12.7143  12.7832  12.8652  12.8799  12.9073  12.9617
    13.0682  13.0882  13.1928  13.2484  13.3085  13.4037  13.4734  13.4912
    13.6801  13.6981  13.7603  13.9037  13.9269  13.9544  13.9607  14.0695
    14.1041  14.2715  14.3117  14.4022  14.5144  14.6179  14.6592  14.8582
    14.8895  14.9182  15.0736  15.1225  15.1793  15.2208  15.2487  15.3651
    15.3757  15.4030  15.4744  15.5182  15.5909  15.7219  15.7854  15.7916
    15.8307  15.8813  16.0335  16.0357  16.0764  16.2453  16.2604  16.3913
    16.4441  16.5885  16.5891  16.6622  16.7467  16.7523  16.7822  16.8805
    16.9808  16.9898  17.0312  17.2287  17.2604  17.2760  17.3701  17.4062
    17.4588  17.5414  17.6335  17.6759  17.7114  17.8524  17.8732  17.9833
    18.0268  18.0615  18.0814  18.2250  18.3266  18.4096  18.5015  18.5901
    18.6110  18.6930  18.7372  18.7770  18.8602  18.9092  18.9318  19.0332
    19.1603  19.1759  19.2840  19.2912  19.3234  19.3664  19.4306  19.5403
    19.5456  19.5977  19.6462  19.7050

     the Fermi energy is     1.0303 ev

!    total energy              =   -1530.21359155 Ry
     Harris-Foulkes estimate   =   -1530.21359166 Ry
     estimated scf accuracy    <       0.00000012 Ry

     The total energy is the sum of the following terms:

     one-electron contribution =  -18315.38162455 Ry
     hartree contribution      =    9184.39476247 Ry
     xc contribution           =    -279.65959029 Ry
     ewald contribution        =    7880.43512075 Ry
     Hubbard energy            =       0.00000000 Ry
     smearing contrib. (-TS)   =      -0.00225993 Ry

     convergence has been achieved in  23 iterations

     Forces acting on atoms (Ry/au):

     negative rho (up, down):  0.356E-02 0.000E+00
     atom    1 type  1   force =     0.00059034   -0.00054022   -0.00018164
     atom    2 type  1   force =    -0.00096998    0.00054955    0.00000237
     atom    3 type  2   force =     0.00135492   -0.00047605   -0.00000932
     atom    4 type  2   force =    -0.00371049    0.00049684   -0.00016303
     atom    5 type  1   force =     0.00034259   -0.02494964    0.00006669
     atom    6 type  1   force =     0.00057077    0.02459643   -0.00015376
     atom    7 type  1   force =    -0.00000062    0.00017672    0.00025603
     atom    8 type  1   force =     0.00165799   -0.00006945    0.00016244
     atom    9 type  2   force =    -0.00020666    0.00003551   -0.00008405
     atom   10 type  2   force =     0.00002511   -0.00003913   -0.00030433
     atom   11 type  1   force =     0.00006945   -0.04610590    0.00009177
     atom   12 type  1   force =     0.00008014    0.04613338    0.00002978
     atom   13 type  1   force =     0.00034473   -0.00002114    0.00002574
     atom   14 type  1   force =     0.00050657   -0.00052665   -0.00011902
     atom   15 type  1   force =    -0.00089856    0.00053644   -0.00044726
     atom   16 type  2   force =     0.00137845   -0.00047832   -0.00001478
     atom   17 type  2   force =    -0.00371551    0.00049398   -0.00017094
     atom   18 type  1   force =     0.00031769   -0.02497912    0.00006150
     atom   19 type  1   force =     0.00052208    0.02462664   -0.00015841
     atom   20 type  1   force =     0.00005886    0.00017226    0.00013792
     atom   21 type  1   force =     0.00166321   -0.00006941   -0.00000232
     atom   22 type  2   force =    -0.00022895    0.00003559   -0.00008290
     atom   23 type  2   force =     0.00002045   -0.00003962   -0.00008712
     atom   24 type  1   force =     0.00006784   -0.04610816    0.00008731
     atom   25 type  1   force =     0.00007576    0.04613539    0.00002532
     atom   26 type  1   force =     0.00034561   -0.00002110    0.00003053
     atom   27 type  3   force =    -0.00003890   -0.00019229    0.00021106
     atom   28 type  3   force =    -0.00004157   -0.00020445    0.00066244
     atom   29 type  3   force =    -0.00013479    0.00041857    0.00008301
     atom   30 type  3   force =    -0.00004652    0.00041334    0.00004497

     Total force =     0.001243     Total SCF correction =     0.001029
     SCF correction compared to forces is large: reduce conv_thr to get better values

     BFGS Geometry Optimization

     bfgs converged in   1 scf cycles and   0 bfgs steps
     (criteria: energy < 0.10E-03, force < 0.10E-02)

     End of BFGS Geometry Optimization

     Final energy   =   -1530.2135915491 Ry
Begin final coordinates

ATOMIC_POSITIONS (crystal)
O0       0.000000000   0.000000000   0.374700000    0   0   1
O0       0.000000000   0.500000000   0.385740000    0   0   1
Nb1      0.250000000   0.500000000   0.440200000    0   0   1
Nb1      0.000000000   0.000000000   0.447550000    0   0   1
O0       0.250000000   0.790000000   0.448160000    0   0   1
O0       0.250000000   0.210000000   0.448200000    0   0   1
O0       0.000000000   0.500000000   0.498190000    0   0   1
O0       0.000000000   0.000000000   0.526470000    0   0   1
Nb1      0.250000000   0.000000000   0.581100000    0   0   1
Nb1      0.000000000   0.500000000   0.567470000    0   0   1
O0       0.250000000   0.710000000   0.580120000    0   0   1
O0       0.250000000   0.290000000   0.580130000    0   0   1
O0       0.000000000   0.000000000   0.625620000    0   0   1
O0       0.500000000   0.000000000   0.374700000    0   0   1
O0       0.500000000   0.500000000   0.385740000    0   0   1
Nb1      0.750000000   0.500000000   0.440200000    0   0   1
Nb1      0.500000000   0.000000000   0.447550000    0   0   1
O0       0.750000000   0.790000000   0.448160000    0   0   1
O0       0.750000000   0.210000000   0.448200000    0   0   1
O0       0.500000000   0.500000000   0.498190000    0   0   1
O0       0.500000000   0.000000000   0.526480000    0   0   1
Nb1      0.750000000   0.000000000   0.581100000    0   0   1
Nb1      0.500000000   0.500000000   0.567460000    0   0   1
O0       0.750000000   0.710000000   0.580120000    0   0   1
O0       0.750000000   0.290000000   0.580130000    0   0   1
O0       0.500000000   0.000000000   0.625620000    0   0   1
H2      -0.000420000   0.502910000   0.349430000
H2       0.499580000   0.502680000   0.349420000
H2       0.151300000  -0.001220000   0.359170000
H2       0.651290000  -0.001220000   0.359170000
End final coordinates

     General routines

     Parallel routines
     Hubbard U routines

   This run was terminated on:  11: 2:49  15May2014

   JOB DONE.
Running PBS batch system epilogue script
Job id: 359658.audhumbla.fysik.dtu.dk
Username: zhonxu
Groupname: campgst
Jobname: NbO2/Eads-2-layers/bare-U-0.0
Sessionid: 14154
Queuename: verylong
Accounting:
This job has allocated the following 16 nodes:
d088 d088 d088 d088 d088 d088 d088 d088 d020 d020 d020 d020 d020 d020 d020 d020
Finished epilogue job 359658.audhumbla.fysik.dtu.dk for zhonxu