     Program PWSCF v.5.0.2 (svn rev. 9656) starts on  6Jun2014 at  3:15:33

     Current dimensions of program PWSCF are:
     Max number of different atomic species (ntypx) = 10
     Max number of k-points (npk) =  40000
     Max angular momentum in pseudopotentials (lmaxx) =  3
     Reading input from pwscf.in
Warning: card &CELL ignored
Warning: card / ignored

     Subspace diagonalization in iterative solution of the eigenvalue problem:
     a serial algorithm will be used

     bravais-lattice index     =            0
     lattice parameter (alat)  =      10.7336  a.u.
     unit-cell volume          =    6184.1966 (a.u.)^3
     number of atoms/cell      =           33
     number of atomic types    =            3
     number of electrons       =       245.00 (up: 134.00, down: 111.00)
     number of Kohn-Sham states=          355
     kinetic-energy cutoff     =      40.0000  Ry
     charge density cutoff     =     500.0000  Ry
     convergence threshold     =      1.0E-06
     mixing beta               =       0.7000
     number of iterations used =            8  plain     mixing
     Exchange-correlation      = SLA  PW   PBE  PBE ( 1 4 3 4 0)
     EXX-fraction              =        0.00
     nstep                     =           50

     celldm(1)=  10.733644  celldm(2)=   0.000000  celldm(3)=   0.000000
     celldm(4)=   0.000000  celldm(5)=   0.000000  celldm(6)=   0.000000

     crystal axes: (cart. coord. in units of alat)
               a(1) = (   1.000000   0.000000   0.000000 )
               a(2) = (   0.000000   1.085558   0.000000 )
               a(3) = (   0.000000   0.000000   4.606685 )

     reciprocal axes: (cart. coord. in units 2 pi/alat)
               b(1) = (  1.000000  0.000000  0.000000 )
               b(2) = (  0.000000  0.921185  0.000000 )
               b(3) = (  0.000000  0.000000  0.217076 )

     PseudoPot. # 1 for O  read from file:
     /home/camp/zhonxu/pseudo/o_pbe_v1.01.uspp.F.UPF
     MD5 check sum: 2bcb18d16ea4b960afae9ec6d52f22d2
     Pseudo is Ultrasoft + core correction, Zval =  6.0
     Generated by new atomic code, or converted to UPF format
     Using radial grid of  737 points,  5 beta functions with:
                l(1) =   0
                l(2) =   0
                l(3) =   1
                l(4) =   1
                l(5) =   2
     Q(r) pseudized with  8 coefficients,  rinner =    0.900   0.900   0.900
                                                       0.900   0.900

     PseudoPot. # 2 for Mn read from file:
     /home/camp/zhonxu/pseudo/mn_pbe_v1.uspp.F.UPF
     MD5 check sum: 5fd7c7b5c956fd19902447332617373a
     Pseudo is Ultrasoft + core correction, Zval = 15.0
     Generated by new atomic code, or converted to UPF format
     Using radial grid of  859 points,  6 beta functions with:
                l(1) =   0
                l(2) =   0
                l(3) =   1
                l(4) =   1
                l(5) =   2
                l(6) =   2
     Q(r) pseudized with  6 coefficients,  rinner =    1.150   1.150   1.150
                                                       1.150   1.150

     PseudoPot. # 3 for H  read from file:
     /home/camp/zhonxu/pseudo/h_pbe_v1.uspp.F.UPF
     MD5 check sum: 3408e3ff4ec8b0a4e358431e7e038a48
     Pseudo is Ultrasoft, Zval =  1.0
     Generated by new atomic code, or converted to UPF format
     Using radial grid of  615 points,  2 beta functions with:
                l(1) =   0
                l(2) =   0
     Q(r) pseudized with  8 coefficients,  rinner =    0.700

     atomic species   valence    mass     pseudopotential
        O0             6.00    15.99940     O ( 1.00)
        Mn1           15.00    54.93800     Mn( 1.00)
        H2             1.00     1.00794     H ( 1.00)

     Starting magnetic structure
     atomic species   magnetization
        O0           0.000
        Mn1          0.600
        H2           0.000

     Simplified LDA+U calculation (l_max = 2) with parameters (eV):
     atomic species    L          U    alpha       J0     beta
        Mn1            2     6.5000   0.0000   0.0000   0.0000

     No symmetry found

   Cartesian axes

     site n.     atom                  positions (alat units)
         1           O0  tau(   1) = (   0.0000000   0.0000000   1.7079746  )
         2           O0  tau(   2) = (   0.0000000   0.5427791   1.7984959  )
         3           Mn1 tau(   3) = (   0.2500000   0.5427791   2.0453221  )
         4           Mn1 tau(   4) = (   0.0000000   0.0000000   2.0496524  )
         5           O0  tau(   5) = (   0.2500000   0.8684466   2.0409457  )
         6           O0  tau(   6) = (   0.2500000   0.2171117   2.0613534  )
         7           O0  tau(   7) = (   0.0000000   0.5427791   2.2705429  )
         8           O0  tau(   8) = (   0.0000000   0.0000000   2.4131659  )
         9           Mn1 tau(   9) = (   0.2500000   0.0000000   2.6410125  )
        10           Mn1 tau(  10) = (   0.0000000   0.5427791   2.6294498  )
        11           O0  tau(  11) = (   0.2500000   0.7598908   2.6916400  )
        12           O0  tau(  12) = (   0.2500000   0.3256675   2.6966152  )
        13           O0  tau(  13) = (   0.0000000   0.0000000   2.8708401  )
        14           O0  tau(  14) = (   0.5000000   0.0000000   1.7083431  )
        15           O0  tau(  15) = (   0.5000000   0.5427791   1.7975285  )
        16           Mn1 tau(  16) = (   0.7500000   0.5427791   2.0452760  )
        17           Mn1 tau(  17) = (   0.5000000   0.0000000   2.0497445  )
        18           O0  tau(  18) = (   0.7500000   0.8684466   2.0416368  )
        19           O0  tau(  19) = (   0.7500000   0.2171117   2.0613534  )
        20           O0  tau(  20) = (   0.5000000   0.5427791   2.2731687  )
        21           O0  tau(  21) = (   0.5000000   0.0000000   2.4130277  )
        22           Mn1 tau(  22) = (   0.7500000   0.0000000   2.6410125  )
        23           Mn1 tau(  23) = (   0.5000000   0.5427791   2.6412889  )
        24           O0  tau(  24) = (   0.7500000   0.7598908   2.6916400  )
        25           O0  tau(  25) = (   0.7500000   0.3256675   2.6965692  )
        26           O0  tau(  26) = (   0.5000000   0.0000000   2.8701951  )
        27           H2  tau(  27) = (   0.0006600   0.7021391   1.7251114  )
        28           H2  tau(  28) = (   0.5005900   0.7036263   1.7268159  )
        29           H2  tau(  29) = (   0.1602100   0.0528558   1.6619077  )
        30           H2  tau(  30) = (   0.6601000   0.0535180   1.6627369  )
        31           O0  tau(  31) = (   0.4995500   0.5940501   3.1307032  )
        32           O0  tau(  32) = (   0.5014700   0.3858834   3.2437973  )
        33           H2  tau(  33) = (   0.4990600   0.4283613   3.4137379  )

     number of k points=    20  Methfessel-Paxton smearing, width (Ry)=  0.0100
                       cart. coord. in units 2pi/alat
        k(    1) = (   0.0000000   0.0000000   0.0000000), wk =   0.0625000
        k(    2) = (   0.0000000   0.2302962   0.0000000), wk =   0.1250000
        k(    3) = (   0.0000000  -0.4605925   0.0000000), wk =   0.0625000
        k(    4) = (   0.2500000   0.0000000   0.0000000), wk =   0.1250000
        k(    5) = (   0.2500000   0.2302962   0.0000000), wk =   0.1250000
        k(    6) = (   0.2500000  -0.4605925   0.0000000), wk =   0.1250000
        k(    7) = (  -0.5000000   0.0000000   0.0000000), wk =   0.0625000
        k(    8) = (  -0.5000000   0.2302962   0.0000000), wk =   0.1250000
        k(    9) = (  -0.5000000  -0.4605925   0.0000000), wk =   0.0625000
        k(   10) = (  -0.2500000   0.2302962   0.0000000), wk =   0.1250000
        k(   11) = (   0.0000000   0.0000000   0.0000000), wk =   0.0625000
        k(   12) = (   0.0000000   0.2302962   0.0000000), wk =   0.1250000
        k(   13) = (   0.0000000  -0.4605925   0.0000000), wk =   0.0625000
        k(   14) = (   0.2500000   0.0000000   0.0000000), wk =   0.1250000
        k(   15) = (   0.2500000   0.2302962   0.0000000), wk =   0.1250000
        k(   16) = (   0.2500000  -0.4605925   0.0000000), wk =   0.1250000
        k(   17) = (  -0.5000000   0.0000000   0.0000000), wk =   0.0625000
        k(   18) = (  -0.5000000   0.2302962   0.0000000), wk =   0.1250000
        k(   19) = (  -0.5000000  -0.4605925   0.0000000), wk =   0.0625000
        k(   20) = (  -0.2500000   0.2302962   0.0000000), wk =   0.1250000

     Largest allocated arrays     est. size (Mb)     dimensions
     Largest temporary arrays     est. size (Mb)     dimensions

     Check: negative/imaginary core charge=   -0.000023    0.000000

     Initial potential from superposition of free atoms
     Check: negative starting charge=(component1):   -0.000592
     Check: negative starting charge=(component2):   -0.000331

     starting charge  236.99986, renormalised to  245.00000

     negative rho (up, down):  0.612E-03 0.342E-03
     Number of +U iterations with fixed ns =  0
     Starting occupations:
 --- enter write_ns ---
 LDA+U parameters:
U( 2)     =  6.50000000
alpha( 2) =  0.00000000
atom    3   Tr[ns(na)] (up, down, total) =   5.00000  0.00000  5.00000
   spin  1
    eigenvalues:
  1.000  1.000  1.000  1.000  1.000
    eigenvectors:
  1.000  0.000  0.000  0.000  0.000
  0.000  1.000  0.000  0.000  0.000
  0.000  0.000  1.000  0.000  0.000
  0.000  0.000  0.000  1.000  0.000
  0.000  0.000  0.000  0.000  1.000
    occupations:
  1.000  0.000  0.000  0.000  0.000
  0.000  1.000  0.000  0.000  0.000
  0.000  0.000  1.000  0.000  0.000
  0.000  0.000  0.000  1.000  0.000
  0.000  0.000  0.000  0.000  1.000
   spin  2
    eigenvalues:
  0.000  0.000  0.000  0.000  0.000
    eigenvectors:
  1.000  0.000  0.000  0.000  0.000
  0.000  1.000  0.000  0.000  0.000
  0.000  0.000  1.000  0.000  0.000
  0.000  0.000  0.000  1.000  0.000
  0.000  0.000  0.000  0.000  1.000
    occupations:
  0.000  0.000  0.000  0.000  0.000
  0.000  0.000  0.000  0.000  0.000
  0.000  0.000  0.000  0.000  0.000
  0.000  0.000  0.000  0.000  0.000
  0.000  0.000  0.000  0.000  0.000
atomic mag. moment =     5.000000
atom    4   Tr[ns(na)] (up, down, total) =   5.00000  0.00000  5.00000
   spin  1
    eigenvalues:
  1.000  1.000  1.000  1.000  1.000
    eigenvectors:
  1.000  0.000  0.000  0.000  0.000
  0.000  1.000  0.000  0.000  0.000
  0.000  0.000  1.000  0.000  0.000
  0.000  0.000  0.000  1.000  0.000
  0.000  0.000  0.000  0.000  1.000
    occupations:
  1.000  0.000  0.000  0.000  0.000
  0.000  1.000  0.000  0.000  0.000
  0.000  0.000  1.000  0.000  0.000
  0.000  0.000  0.000  1.000  0.000
  0.000  0.000  0.000  0.000  1.000
   spin  2
    eigenvalues:
  0.000  0.000  0.000  0.000  0.000
    eigenvectors:
  1.000  0.000  0.000  0.000  0.000
  0.000  1.000  0.000  0.000  0.000
  0.000  0.000  1.000  0.000  0.000
  0.000  0.000  0.000  1.000  0.000
  0.000  0.000  0.000  0.000  1.000
    occupations:
  0.000  0.000  0.000  0.000  0.000
  0.000  0.000  0.000  0.000  0.000
  0.000  0.000  0.000  0.000  0.000
  0.000  0.000  0.000  0.000  0.000
  0.000  0.000  0.000  0.000  0.000
atomic mag. moment =     5.000000
[...]
  0.005  0.342  0.651  0.001  0.001
  0.014  0.637  0.348  0.001  0.000
  0.975  0.019  0.000  0.006  0.000
  0.000  0.000  0.001  0.000  0.999
    occupations:
  0.276  0.007  0.006 -0.016  0.000
  0.007  0.085 -0.003  0.000 -0.008
  0.006 -0.003  0.083  0.001  0.000
 -0.016  0.000  0.001  0.073 -0.000
  0.000 -0.008  0.000 -0.000  0.329
atomic mag. moment =     3.642835
atom    9   Tr[ns(na)] (up, down, total) =   4.46483  0.89684  5.36167
   spin  1
    eigenvalues:
  0.736  0.747  0.989  0.993  1.001
    eigenvectors:
  0.232  0.000  0.000  0.000  0.768
  0.000  1.000  0.000  0.000  0.000
  0.000  0.000  0.001  0.999  0.000
  0.768  0.000  0.000  0.000  0.232
  0.000  0.000  0.999  0.001  0.000
    occupations:
  0.939 -0.000 -0.000 -0.112 -0.000
 -0.000  0.747  0.000  0.000  0.000
 -0.000  0.000  0.993 -0.001  0.000
 -0.112  0.000 -0.001  0.797  0.000
 -0.000  0.000  0.000  0.000  0.989
   spin  2
    eigenvalues:
  0.076  0.087  0.094  0.319  0.321
    eigenvectors:
  0.806  0.000  0.000  0.186  0.008
  0.000  0.000  0.000  0.041  0.959
  0.000  0.000  1.000  0.000  0.000
  0.194  0.000  0.000  0.773  0.033
  0.000  1.000  0.000  0.000  0.000
    occupations:
  0.123  0.000  0.000  0.096 -0.000
  0.000  0.321 -0.000 -0.001 -0.000
  0.000 -0.000  0.094  0.001 -0.000
  0.096 -0.001  0.001  0.272 -0.000
 -0.000 -0.000 -0.000 -0.000  0.087
atomic mag. moment =     3.567994
atom   10   Tr[ns(na)] (up, down, total) =   4.68047  0.59359  5.27405
   spin  1
    eigenvalues:
  0.723  0.961  0.999  0.999  0.999
    eigenvectors:
  0.000  0.954  0.000  0.009  0.037
  0.000  0.000  0.997  0.003  0.000
  0.000  0.000  0.003  0.814  0.183
  0.000  0.046  0.000  0.174  0.780
  1.000  0.000  0.000  0.000  0.000
    occupations:
  0.963 -0.000  0.000  0.008  0.000
 -0.000  0.999  0.000  0.000 -0.001
  0.000  0.000  0.999 -0.000  0.000
  0.008  0.000 -0.000  0.997 -0.000
  0.000 -0.001  0.000 -0.000  0.723
   spin  2
    eigenvalues:
  0.058  0.065  0.072  0.124  0.274
    eigenvectors:
  0.042  0.000  0.000  0.958  0.000
  0.000  0.000  1.000  0.000  0.000
  0.000  1.000  0.000  0.000  0.000
  0.958  0.000  0.000  0.042  0.000
  0.000  0.000  0.000  0.000  1.000
    occupations:
  0.121  0.000 -0.000 -0.013 -0.000
  0.000  0.072 -0.000 -0.000  0.001
 -0.000 -0.000  0.065 -0.000 -0.000
 -0.013 -0.000 -0.000  0.061  0.000
 -0.000  0.001 -0.000  0.000  0.274
atomic mag. moment =     4.086881
atom   16   Tr[ns(na)] (up, down, total) =   4.49043  0.85297  5.34340
   spin  1
    eigenvalues:
  0.726  0.762  0.999  1.001  1.003
    eigenvectors:
  0.245  0.002  0.000  0.601  0.151
  0.007  0.992  0.001  0.000  0.000
  0.000  0.000  0.000  0.197  0.802
  0.747  0.005  0.000  0.201  0.046
  0.000  0.001  0.999  0.000  0.000
    occupations:
  0.933  0.000 -0.002 -0.119  0.000
  0.000  0.762 -0.000  0.004 -0.007
 -0.002 -0.000  1.003 -0.001  0.000
 -0.119  0.004 -0.001  0.794  0.000
  0.000 -0.007  0.000  0.000  0.999
   spin  2
    eigenvalues:
  0.066  0.083  0.093  0.289  0.322
    eigenvectors:
  0.774  0.000  0.002  0.001  0.223
  0.000  0.001  0.000  0.995  0.003
  0.003  0.002  0.994  0.000  0.000
  0.223  0.000  0.001  0.002  0.774
  0.000  0.996  0.002  0.001  0.000
    occupations:
  0.124  0.000 -0.003  0.106  0.000
  0.000  0.289  0.000 -0.002  0.008
 -0.003  0.000  0.093 -0.002 -0.001
  0.106 -0.002 -0.002  0.265 -0.000
  0.000  0.008 -0.001 -0.000  0.083
atomic mag. moment =     3.637462
atom   17   Tr[ns(na)] (up, down, total) =   4.48862  0.84628  5.33490
   spin  1
    eigenvalues:
  0.710  0.772  0.997  1.004  1.005
    eigenvectors:
  0.000  0.997  0.001  0.002  0.000
  0.000  0.001  0.000  0.645  0.354
  0.000  0.001  0.000  0.354  0.646
  0.000  0.001  0.999  0.000  0.000
  1.000  0.000  0.000  0.000  0.000
    occupations:
  0.773 -0.007 -0.006  0.007 -0.001
 -0.007  1.004 -0.001  0.000  0.003
 -0.006 -0.001  1.004  0.000 -0.000
  0.007  0.000  0.000  0.997 -0.000
 -0.001  0.003 -0.000 -0.000  0.711
   spin  2
    eigenvalues:
  0.071  0.081  0.087  0.278  0.329
    eigenvectors:
  0.007  0.001  0.000  0.992  0.000
  0.005  0.348  0.644  0.001  0.001
  0.014  0.630  0.355  0.001  0.000
  0.975  0.020  0.000  0.006  0.000
  0.000  0.000  0.001  0.000  0.999
    occupations:
  0.277  0.007  0.006 -0.016  0.000
  0.007  0.085 -0.003  0.000 -0.008
  0.006 -0.003  0.083  0.001  0.000
 -0.016  0.000  0.001  0.073 -0.000
  0.000 -0.008  0.000 -0.000  0.329
atomic mag. moment =     3.642347
atom   22   Tr[ns(na)] (up, down, total) =   4.46482  0.89683  5.36165
   spin  1
    eigenvalues:
  0.736  0.747  0.989  0.993  1.001
    eigenvectors:
  0.231  0.001  0.000  0.000  0.768
  0.007  0.993  0.000  0.000  0.000
  0.000  0.000  0.001  0.999  0.000
  0.763  0.005  0.000  0.000  0.232
  0.000  0.000  0.999  0.001  0.000
    occupations:
  0.939  0.001 -0.000 -0.112  0.000
  0.001  0.746  0.000  0.000  0.000
 -0.000  0.000  0.993 -0.000 -0.000
 -0.112  0.000 -0.000  0.797  0.000
  0.000  0.000 -0.000  0.000  0.989
   spin  2
    eigenvalues:
  0.076  0.087  0.094  0.319  0.321
    eigenvectors:
  0.806  0.000  0.000  0.186  0.008
  0.000  0.000  0.000  0.041  0.959
  0.000  0.000  1.000  0.000  0.000
  0.194  0.000  0.000  0.772  0.034
  0.000  1.000  0.000  0.000  0.000
    occupations:
  0.123 -0.000  0.000  0.096  0.000
 -0.000  0.321 -0.000  0.001 -0.000
  0.000 -0.000  0.094  0.001  0.000
  0.096  0.001  0.001  0.272  0.000
  0.000 -0.000  0.000  0.000  0.087
atomic mag. moment =     3.567986
atom   23   Tr[ns(na)] (up, down, total) =   4.66649  0.60619  5.27268
   spin  1
    eigenvalues:
  0.709  0.960  0.999  0.999  1.000
    eigenvectors:
  0.000  0.957  0.037  0.006  0.000
  0.000  0.000  0.000  0.001  0.999
  0.000  0.000  0.167  0.831  0.001
  0.000  0.043  0.796  0.161  0.000
  1.000  0.000  0.000  0.000  0.000
    occupations:
  0.961 -0.000  0.000  0.008 -0.000
 -0.000  1.000  0.000  0.000 -0.001
  0.000  0.000  0.999 -0.000  0.000
  0.008  0.000 -0.000  0.997  0.000
 -0.000 -0.001  0.000  0.000  0.709
   spin  2
    eigenvalues:
  0.060  0.062  0.069  0.125  0.289
    eigenvectors:
  0.001  0.042  0.000  0.957  0.000
  0.000  0.000  1.000  0.000  0.000
  0.991  0.009  0.000  0.000  0.000
  0.009  0.949  0.000  0.043  0.000
  0.000  0.000  0.000  0.000  1.000
    occupations:
  0.123  0.000 -0.000 -0.013  0.000
  0.000  0.069  0.000 -0.000  0.001
 -0.000  0.000  0.060 -0.000  0.000
 -0.013 -0.000 -0.000  0.065 -0.000
  0.000  0.001  0.000 -0.000  0.289
atomic mag. moment =     4.060299
N of occupied +U levels =  42.6266434
 --- exit write_ns ---

 ------ SPIN UP ------------

[...]

 ------ SPIN DOWN ----------

[...]

          k = 0.2500-0.4606 0.0000 ( 26462 PWs)   bands (ev):

[...]

          k =-0.2500 0.2303 0.0000 ( 26396 PWs)   bands (ev):

   -79.1151 -79.1074 -79.0878 -79.0799 -79.0517 -79.0431 -78.2288 -78.2047
   -48.0467 -47.9980 -47.9941 -47.9830 -47.9822 -47.9378 -47.9276 -47.9198
   -47.9033 -47.8960 -47.8834 -47.8792 -47.8319 -47.8155 -47.8116 -47.7940
   -47.6864 -47.6787 -47.3582 -47.2469 -47.2043 -47.1635 -46.6874 -46.6737
   -25.7783 -20.7168 -20.2331 -20.2221 -20.0168 -19.5619 -19.4956 -19.4804
   -19.4075 -19.2032 -19.1869 -19.1149 -19.0328 -18.9028 -18.8426 -18.7941
   -18.7324 -18.7124 -18.6255 -17.4947  -9.6910  -7.9932  -7.7754  -7.6748
    -7.5465  -7.4019  -7.3544  -7.1900  -7.0037  -6.8036  -6.6206  -6.4644
    -6.3425  -6.1565  -6.1473  -6.0208  -5.9819  -5.9339  -5.7599  -5.7050
    -5.5785  -5.5156  -5.4039  -5.2899  -5.2421  -5.1578  -5.0779  -4.8779
    -4.8322  -4.7856  -4.7293  -4.6728  -4.5567  -4.4585  -4.3586  -4.2768
    -4.1909  -4.1608  -4.0873  -4.0316  -3.8743  -3.7998  -3.6625  -3.5749
    -3.5476  -3.4887  -3.3708  -3.3325  -3.2313  -3.0723  -2.9789  -2.8325
    -2.8088  -2.7205  -2.6342  -2.5932  -2.4027  -2.3989  -2.1071   2.4377
     2.4963   2.5264   2.5907   2.6217   2.7047   2.7359   2.7706   2.8197
     2.8328   2.8931   2.9266   2.9520   2.9859   3.0359   3.0536   3.1143
     3.1561   3.2641   3.2839   3.3630   3.4050   3.4328   3.5661   3.5793
     3.6083   3.6871   3.7050   3.7272   3.8452   3.9305   3.9668   3.9882
     4.0217   4.0648   4.0732   4.1761   4.2690   4.3484   4.3608   4.3895
     4.4394   4.5642   4.6339   4.9521   5.3024   5.6207   5.7763   6.1326
     6.2878   6.4004   6.5363   6.6572   6.8529   6.9964   7.1623   7.5032
     7.6648   7.7767   7.9001   8.0496   8.2570   8.3761   8.4779   8.7336
     8.7974   8.9678   9.0478   9.1383   9.2614   9.5114   9.6175   9.6307
     9.7172   9.9154   9.9964  10.0513  10.1642  10.3172  10.3838  10.4357
    10.6242  10.7816  10.8247  10.8758  11.0897  11.1633  11.2119  11.3103
    11.4894  11.5686  11.6884  11.7459  11.7901  11.8362  11.9671  11.9991
    12.1100  12.1736  12.3088  12.3200  12.4077  12.4799  12.5038  12.6298
    12.7897  12.9572  13.0016  13.0652  13.1407  13.1968  13.3405  13.3610
    13.4465  13.5057  13.5788  13.6153  13.7576  13.9025  13.9471  13.9879
    14.1398  14.1660  14.2574  14.3301  14.3767  14.4001  14.4403  14.5102
    14.5579  14.7317  14.7722  14.8367  14.9210  14.9794  15.0580  15.1645
    15.2321  15.3539  15.4098  15.4808  15.5275  15.6443  15.7128  15.8108
    15.8406  15.9119  15.9923  16.0498  16.1580  16.2629  16.3061  16.4216
    16.4836  16.6125  16.6740  16.7372  16.8282  16.9041  17.0125  17.0487
    17.1108  17.1641  17.2614  17.3135  17.4640  17.4815  17.5436  17.5992
    17.6795  17.7366  17.8351  17.9273  17.9586  18.0071  18.0954  18.1266
    18.2277  18.2970  18.3491  18.4134  18.4733  18.5843  18.6835  18.7166
    18.7586  18.8738  18.9561  19.0281  19.0799  19.1303  19.2924  19.2988
    19.3507  19.4819  19.5479  19.6094  19.6438  19.7937  19.8821  19.9631
    20.0310  20.1212  20.1452  20.1816  20.2833  20.3614  20.4652  20.5225
    20.5781  20.6113  20.6892  20.7365  20.8005  20.9436  20.9952  21.0943
    21.1765  21.2990  21.3424  21.4295  21.4926  21.5503  21.6686  21.7431
    21.8265  21.8950  21.9857  21.9895  22.1188  22.1569  22.2267  22.2633
    22.3266  22.3848  22.4417  22.5546  22.6214  22.7060  22.7818  22.8538
    22.8965  22.9754  23.0456

     the spin up/dw Fermi energies are    -1.5233    0.1232 ev

!    total energy              =   -2351.92471730 Ry
     Harris-Foulkes estimate   =   -2351.92471731 Ry
     estimated scf accuracy    <          9.8E-09 Ry

     The total energy is the sum of the following terms:

     one-electron contribution =  -25749.43428963 Ry
     hartree contribution      =   12903.94290148 Ry
     xc contribution           =    -356.83439889 Ry
     ewald contribution        =   10848.56314924 Ry
     Hubbard energy            =       1.83825677 Ry
     smearing contrib. (-TS)   =      -0.00033626 Ry

     total magnetization       =    23.00 Bohr mag/cell
     absolute magnetization    =    37.70 Bohr mag/cell

     convergence has been achieved in  13 iterations

     Forces acting on atoms (Ry/au):

     negative rho (up, down):  0.144E-02 0.129E-02
     atom    1 type  1   force =    -0.00456452   -0.01178717   -0.00050021
     atom    2 type  1   force =     0.00050711    0.00800153    0.00096954
     atom    3 type  2   force =     0.00231524    0.00119941    0.00023588
     atom    4 type  2   force =     0.00585814    0.00964199    0.00025431
     atom    5 type  1   force =     0.00156320    0.01169689    0.00007137
     atom    6 type  1   force =    -0.00145329   -0.01731449   -0.00000827
     atom    7 type  1   force =     0.00009041    0.00263809    0.00018048
     atom    8 type  1   force =    -0.00139192   -0.00245994    0.00002966
     atom    9 type  2   force =     0.00192680    0.00097579   -0.00014132
     atom   10 type  2   force =    -0.00008312   -0.00164034    0.00039581
     atom   11 type  1   force =    -0.00691980   -0.01525042    0.00001351
     atom   12 type  1   force =    -0.00646199    0.01637067    0.00010474
     atom   13 type  1   force =    -0.00046630   -0.00039376   -0.00037108
     atom   14 type  1   force =    -0.00480972   -0.01194003   -0.00066794
     atom   15 type  1   force =     0.00057875    0.00715859   -0.00021949
     atom   16 type  2   force =    -0.00383158    0.00125558    0.00024532
     atom   17 type  2   force =     0.00594748    0.00960561    0.00018969
     atom   18 type  1   force =     0.00123947    0.01169880    0.00003460
     atom   19 type  1   force =    -0.00194658   -0.01733159    0.00000758
     atom   20 type  1   force =     0.00005274    0.00267995   -0.00002414
     atom   21 type  1   force =    -0.00143759   -0.00253532    0.00003525
     atom   22 type  2   force =    -0.00038924    0.00097166   -0.00014945
     atom   23 type  2   force =    -0.00002801   -0.00146334   -0.00009674
     atom   24 type  1   force =     0.00704429   -0.01514882    0.00001513
     atom   25 type  1   force =     0.00652960    0.01641366    0.00010608
     atom   26 type  1   force =    -0.00044179   -0.00165746   -0.00037708
     atom   27 type  3   force =    -0.00002761   -0.00059151   -0.00026369
     atom   28 type  3   force =    -0.00004498    0.00002551   -0.00025910
     atom   29 type  3   force =     0.00029577   -0.00018918    0.00003859
     atom   30 type  3   force =     0.00038292   -0.00018762    0.00007642
     atom   31 type  1   force =    -0.00004270   -0.00048851   -0.00023284
     atom   32 type  1   force =     0.00001162   -0.00034654    0.00041731
     atom   33 type  3   force =    -0.00000280    0.00039230   -0.00010993

     Total force =     0.002003     Total SCF correction =     0.000581
     SCF correction compared to forces is large: reduce conv_thr to get better values

     entering subroutine stress ...

     negative rho (up, down):  0.144E-02 0.129E-02
          total   stress  (Ry/bohr**3)                   (kbar)     P=   35.54
   0.00039715  -0.00000186   0.00000318         58.42     -0.27      0.47
  -0.00000186   0.00037219   0.00000397         -0.27     54.75      0.58
   0.00000318   0.00000397  -0.00004460          0.47      0.58     -6.56

     bfgs converged in  10 scf cycles and   9 bfgs steps
     (criteria: energy < 0.10E-03, force < 0.10E-02)

     End of BFGS Geometry Optimization

     Final energy   =   -2351.9247172965 Ry
Begin final coordinates

ATOMIC_POSITIONS (crystal)
O0       0.000000000   0.000000000   0.370634830    0   0   1
O0       0.000000000   0.500000000   0.390113699    0   0   1
Mn1      0.250000000   0.500000000   0.443950696    0   0   1
Mn1      0.000000000   0.000000000   0.445008114    0   0   1
O0       0.250000000   0.800000000   0.442960511    0   0   1
O0       0.250000000   0.200000000   0.447048414    0   0   1
O0       0.000000000   0.500000000   0.492687669    0   0   1
O0       0.000000000   0.000000000   0.524003297    0   0   1
Mn1      0.250000000   0.000000000   0.573454181    0   0   1
Mn1      0.000000000   0.500000000   0.570732182    0   0   1
O0       0.250000000   0.700000000   0.584570433    0   0   1
O0       0.250000000   0.300000000   0.585150064    0   0   1
O0       0.000000000   0.000000000   0.623317540    0   0   1
O0       0.500000000   0.000000000   0.370610976    0   0   1
O0       0.500000000   0.500000000   0.390459533    0   0   1
Mn1      0.750000000   0.500000000   0.443948061    0   0   1
Mn1      0.500000000   0.000000000   0.444947891    0   0   1
O0       0.750000000   0.800000000   0.443041609    0   0   1
O0       0.750000000   0.200000000   0.447009129    0   0   1
O0       0.500000000   0.500000000   0.493479501    0   0   1
O0       0.500000000   0.000000000   0.523972056    0   0   1
Mn1      0.750000000   0.000000000   0.573452747    0   0   1
Mn1      0.500000000   0.500000000   0.573609751    0   0   1
O0       0.750000000   0.700000000   0.584575820    0   0   1
O0       0.750000000   0.300000000   0.585139855    0   0   1
O0       0.500000000   0.000000000   0.623141448    0   0   1
H2       0.000752964   0.649034075   0.375215979
H2       0.500765437   0.648510042   0.375319736
H2       0.160541625   0.047313933   0.360482864
H2       0.660371781   0.047602349   0.360432987
O0       0.499387775   0.544991738   0.679322743
O0       0.501494350   0.354479977   0.704391445
H2       0.499039614   0.395918826   0.741144242
End final coordinates

     General routines

     Parallel routines
     Hubbard U routines

   This run was terminated on:  19:30:15   6Jun2014

   JOB DONE.
Running PBS batch system epilogue script
Job id: 381439.audhumbla.fysik.dtu.dk
Username: zhonxu
Groupname: campgst
Jobname: MnO2/Eads-2-layers/OOH-U-6.5
Sessionid: 27670
Queuename: verylong
Accounting:
This job has allocated the following 16 nodes:
a085 a085 a085 a085 a085 a085 a085 a085 a080 a080 a080 a080 a080 a080 a080 a080
Finished epilogue job 381439.audhumbla.fysik.dtu.dk for zhonxu