     Program PWSCF v.5.0.2 (svn rev. 9656) starts on 17Sep2014 at 14:44:24

     Current dimensions of program PWSCF are:
     Max number of different atomic species (ntypx) = 10
     Max number of k-points (npk) =  40000
     Max angular momentum in pseudopotentials (lmaxx) =  3
     Reading input from pwscf.in
Warning: card &CELL ignored
Warning: card / ignored

     Subspace diagonalization in iterative solution of the eigenvalue problem:
     a serial algorithm will be used

     bravais-lattice index     =            0
     lattice parameter (alat)  =      10.7336  a.u.
     unit-cell volume          =    6184.1966 (a.u.)^3
     number of atoms/cell      =           33
     number of atomic types    =            3
     number of electrons       =       245.00 (up: 134.00, down: 111.00)
     number of Kohn-Sham states=          367
     kinetic-energy cutoff     =      40.0000  Ry
     charge density cutoff     =     500.0000  Ry
     convergence threshold     =      1.0E-06
     mixing beta               =       0.7000
     number of iterations used =            8  plain     mixing
     Exchange-correlation      = SLA  PW   PBE  PBE ( 1 4 3 4 0)
     EXX-fraction              =        0.00
     nstep                     =           50

     celldm(1)=  10.733644  celldm(2)=   0.000000  celldm(3)=   0.000000
     celldm(4)=   0.000000  celldm(5)=   0.000000  celldm(6)=   0.000000

     crystal axes: (cart. coord. in units of alat)
               a(1) = (   1.000000   0.000000   0.000000 )
               a(2) = (   0.000000   1.085558   0.000000 )
               a(3) = (   0.000000   0.000000   4.606685 )

     reciprocal axes: (cart. coord. in units 2 pi/alat)
               b(1) = (  1.000000  0.000000  0.000000 )
               b(2) = (  0.000000  0.921185  0.000000 )
               b(3) = (  0.000000  0.000000  0.217076 )

     PseudoPot. # 1 for O  read from file:
     /home-research/zhongnanxu/pseudopotentials/gbrv_espresso_pseudo_v1.01/o_pbe_v1.01.uspp.F.UPF
     MD5 check sum: 2bcb18d16ea4b960afae9ec6d52f22d2
     Pseudo is Ultrasoft + core correction, Zval =  6.0
     Generated by new atomic code, or converted to UPF format
     Using radial grid of  737 points,  5 beta functions with:
                l(1) =   0
                l(2) =   0
                l(3) =   1
                l(4) =   1
                l(5) =   2
     Q(r) pseudized with  8 coefficients,  rinner =    0.900   0.900   0.900
                                                       0.900   0.900

     PseudoPot. # 2 for Mn read from file:
     /home-research/zhongnanxu/pseudopotentials/gbrv_espresso_pseudo_v1.01/mn_pbe_v1.uspp.F.UPF
     MD5 check sum: 5fd7c7b5c956fd19902447332617373a
     Pseudo is Ultrasoft + core correction, Zval = 15.0
     Generated by new atomic code, or converted to UPF format
     Using radial grid of  859 points,  6 beta functions with:
                l(1) =   0
                l(2) =   0
                l(3) =   1
                l(4) =   1
                l(5) =   2
                l(6) =   2
     Q(r) pseudized with  6 coefficients,  rinner =    1.150   1.150   1.150
                                                       1.150   1.150

     PseudoPot. # 3 for H  read from file:
     /home-research/zhongnanxu/pseudopotentials/gbrv_espresso_pseudo_v1.01/h_pbe_v1.uspp.F.UPF
     MD5 check sum: 3408e3ff4ec8b0a4e358431e7e038a48
     Pseudo is Ultrasoft, Zval =  1.0
     Generated by new atomic code, or converted to UPF format
     Using radial grid of  615 points,  2 beta functions with:
                l(1) =   0
                l(2) =   0
     Q(r) pseudized with  8 coefficients,  rinner =    0.700

     atomic species   valence    mass     pseudopotential
        O0             6.00    15.99940     O ( 1.00)
        Mn1           15.00    54.93800     Mn( 1.00)
        H2             1.00     1.00794     H ( 1.00)

     Starting magnetic structure
     atomic species   magnetization
        O0           0.000
        Mn1          0.600
        H2           0.000

     Simplified LDA+U calculation (l_max = 2) with parameters (eV):
     atomic species    L          U    alpha       J0     beta
        Mn1            2     6.5000   0.0000   0.0000   0.0000

     No symmetry found

   Cartesian axes

     site n.     atom                  positions (alat units)
         1           O0  tau(   1) = (   0.0000000   0.0000000   1.7437224  )
         2           O0  tau(   2) = (   0.0000000   0.5427791   1.8429044  )
         3           Mn1 tau(   3) = (   0.2500000   0.5427791   2.0790891  )
         4           Mn1 tau(   4) = (   0.0000000   0.0000000   2.0720409  )
         5           O0  tau(   5) = (   0.2500000   0.8684466   2.0701982  )
         6           O0  tau(   6) = (   0.2500000   0.2171117   2.0775689  )
         7           O0  tau(   7) = (   0.0000000   0.5427791   2.2916415  )
         8           O0  tau(   8) = (   0.0000000   0.0000000   2.4165748  )
         9           Mn1 tau(   9) = (   0.2500000   0.0000000   2.6429013  )
        10           Mn1 tau(  10) = (   0.0000000   0.5427791   2.6202364  )
        11           O0  tau(  11) = (   0.2500000   0.7598908   2.6530821  )
        12           O0  tau(  12) = (   0.2500000   0.3256675   2.6691594  )
        13           O0  tau(  13) = (   0.0000000   0.0000000   2.8472538  )
        14           O0  tau(  14) = (   0.5000000   0.0000000   1.7445516  )
        15           O0  tau(  15) = (   0.5000000   0.5427791   1.8431808  )
        16           Mn1 tau(  16) = (   0.7500000   0.5427791   2.0791352  )
        17           Mn1 tau(  17) = (   0.5000000   0.0000000   2.0732386  )
        18           O0  tau(  18) = (   0.7500000   0.8684466   2.0702443  )
        19           O0  tau(  19) = (   0.7500000   0.2171117   2.0776150  )
        20           O0  tau(  20) = (   0.5000000   0.5427791   2.2991504  )
        21           O0  tau(  21) = (   0.5000000   0.0000000   2.4162063  )
        22           Mn1 tau(  22) = (   0.7500000   0.0000000   2.6429474  )
        23           Mn1 tau(  23) = (   0.5000000   0.5427791   2.6555697  )
        24           O0  tau(  24) = (   0.7500000   0.7598908   2.6530360  )
        25           O0  tau(  25) = (   0.7500000   0.3256675   2.6692055  )
        26           O0  tau(  26) = (   0.5000000   0.0000000   2.8451348  )
        27           H2  tau(  27) = (   0.0001200   0.7023996   1.7685525  )
        28           H2  tau(  28) = (   0.5001300   0.7024539   1.7688749  )
        29           H2  tau(  29) = (   0.1617300   0.0395469   1.6903309  )
        30           H2  tau(  30) = (   0.6616200   0.0396554   1.6909759  )
        31           O0  tau(  31) = (   0.4997000   0.5889697   2.9894622  )
        32           O0  tau(  32) = (   0.5006400   0.3801951   3.1245302  )
        33           H2  tau(  33) = (   0.4997200   0.4495948   3.2842900  )

     number of k points=    20  Methfessel-Paxton smearing, width (Ry)=  0.0100
                       cart. coord. in units 2pi/alat
        k(    1) = (   0.0000000   0.0000000   0.0000000), wk =   0.0625000
        k(    2) = (   0.0000000   0.2302962   0.0000000), wk =   0.1250000
        k(    3) = (   0.0000000  -0.4605925   0.0000000), wk =   0.0625000
        k(    4) = (   0.2500000   0.0000000   0.0000000), wk =   0.1250000
        k(    5) = (   0.2500000   0.2302962   0.0000000), wk =   0.1250000
        k(    6) = (   0.2500000  -0.4605925   0.0000000), wk =   0.1250000
        k(    7) = (  -0.5000000   0.0000000   0.0000000), wk =   0.0625000
        k(    8) = (  -0.5000000   0.2302962   0.0000000), wk =   0.1250000
        k(    9) = (  -0.5000000  -0.4605925   0.0000000), wk =   0.0625000
        k(   10) = (  -0.2500000   0.2302962   0.0000000), wk =   0.1250000
        k(   11) = (   0.0000000   0.0000000   0.0000000), wk =   0.0625000
        k(   12) = (   0.0000000   0.2302962   0.0000000), wk =   0.1250000
        k(   13) = (   0.0000000  -0.4605925   0.0000000), wk =   0.0625000
        k(   14) = (   0.2500000   0.0000000   0.0000000), wk =   0.1250000
        k(   15) = (   0.2500000   0.2302962   0.0000000), wk =   0.1250000
        k(   16) = (   0.2500000  -0.4605925   0.0000000), wk =   0.1250000
        k(   17) = (  -0.5000000   0.0000000   0.0000000), wk =   0.0625000
        k(   18) = (  -0.5000000   0.2302962   0.0000000), wk =   0.1250000
        k(   19) = (  -0.5000000  -0.4605925   0.0000000), wk =   0.0625000
        k(   20) = (  -0.2500000   0.2302962   0.0000000), wk =   0.1250000

     Largest allocated arrays     est. size (Mb)     dimensions
     Largest temporary arrays     est. size (Mb)     dimensions

     Check: negative/imaginary core charge=   -0.000022    0.000000

     Initial potential from superposition of free atoms
     Check: negative starting charge=(component1):   -0.000638
     Check: negative starting charge=(component2):   -0.000356

     starting charge  236.99986, renormalised to  245.00000

     negative rho (up, down):  0.660E-03 0.368E-03
     Number of +U iterations with fixed ns =  0
     Starting occupations:
 --- enter write_ns ---
 LDA+U parameters:
U( 2)     =  6.50000000
alpha( 2) =  0.00000000
atom    3   Tr[ns(na)] (up, down, total) =   5.00000  0.00000  5.00000
   spin  1
    eigenvalues:
  1.000  1.000  1.000  1.000  1.000
    eigenvectors:
  1.000  0.000  0.000  0.000  0.000
  0.000  1.000  0.000  0.000  0.000
  0.000  0.000  1.000  0.000  0.000
  0.000  0.000  0.000  1.000  0.000
  0.000  0.000  0.000  0.000  1.000
    occupations:
  1.000  0.000  0.000  0.000  0.000
  0.000  1.000  0.000  0.000  0.000
  0.000  0.000  1.000  0.000  0.000
  0.000  0.000  0.000  1.000  0.000
  0.000  0.000  0.000  0.000  1.000
   spin  2
    eigenvalues:
  0.000  0.000  0.000  0.000  0.000
    eigenvectors:
  1.000  0.000  0.000  0.000  0.000
  0.000  1.000  0.000  0.000  0.000
  0.000  0.000  1.000  0.000  0.000
  0.000  0.000  0.000  1.000  0.000
  0.000  0.000  0.000  0.000  1.000
    occupations:
  0.000  0.000  0.000  0.000  0.000
  0.000  0.000  0.000  0.000  0.000
  0.000  0.000  0.000  0.000  0.000
  0.000  0.000  0.000  0.000  0.000
  0.000  0.000  0.000  0.000  0.000
atomic mag. moment =     5.000000
atom    4   Tr[ns(na)] (up, down, total) =   5.00000  0.00000  5.00000
   spin  1
    eigenvalues:
  1.000  1.000  1.000  1.000  1.000
    eigenvectors:
  1.000  0.000  0.000  0.000  0.000
  0.000  1.000  0.000  0.000  0.000
  0.000  0.000  1.000  0.000  0.000
  0.000  0.000  0.000  1.000  0.000
  0.000  0.000  0.000  0.000  1.000
    occupations:
  1.000  0.000  0.000  0.000  0.000
  0.000  1.000  0.000  0.000  0.000
  0.000  0.000  1.000  0.000  0.000
  0.000  0.000  0.000  1.000  0.000
  0.000  0.000  0.000  0.000  1.000
   spin  2
    eigenvalues:
  0.000  0.000  0.000  0.000  0.000
    eigenvectors:
  1.000  0.000  0.000  0.000  0.000
  0.000  1.000  0.000  0.000  0.000
  0.000  0.000  1.000  0.000  0.000
  0.000  0.000  0.000  1.000  0.000
  0.000  0.000  0.000  0.000  1.000
    occupations:
  0.000  0.000  0.000  0.000  0.000
  0.000  0.000  0.000  0.000  0.000
  0.000  0.000  0.000  0.000  0.000
[...]
atom    4   Tr[ns(na)] (up, down, total) =   4.48902  0.84575  5.33477
   spin  1
    eigenvalues:
  0.711  0.773  0.997  1.004  1.005
    eigenvectors:
  0.000  0.997  0.001  0.002  0.000
  0.000  0.001  0.000  0.648  0.351
  0.000  0.001  0.000  0.350  0.649
  0.000  0.001  0.999  0.000  0.000
  1.000  0.000  0.000  0.000  0.000
    occupations:
  0.773 -0.007 -0.006  0.007 -0.001
 -0.007  1.004 -0.001  0.000  0.003
 -0.006 -0.001  1.004  0.000  0.000
  0.007  0.000  0.000  0.997  0.000
 -0.001  0.003  0.000  0.000  0.711
   spin  2
    eigenvalues:
  0.071  0.081  0.087  0.278  0.329
    eigenvectors:
  0.006  0.001  0.000  0.992  0.000
  0.005  0.341  0.652  0.001  0.001
  0.014  0.638  0.347  0.001  0.000
  0.975  0.020  0.000  0.006  0.000
  0.000  0.000  0.001  0.000  0.999
    occupations:
  0.276  0.007  0.006 -0.016  0.000
  0.007  0.085 -0.003  0.000 -0.008
  0.006 -0.003  0.083  0.001  0.000
 -0.016  0.000  0.001  0.073  0.000
  0.000 -0.008  0.000  0.000  0.329
atomic mag. moment =     3.643265
atom    9   Tr[ns(na)] (up, down, total) =   4.46511  0.89632  5.36144
   spin  1
    eigenvalues:
  0.736  0.747  0.989  0.993  1.001
    eigenvectors:
  0.232  0.000  0.000  0.000  0.768
  0.000  1.000  0.000  0.000  0.000
  0.000  0.000  0.001  0.999  0.000
  0.768  0.000  0.000  0.000  0.232
  0.000  0.000  0.999  0.001  0.000
    occupations:
  0.939  0.000  0.000 -0.112  0.000
  0.000  0.747  0.000  0.000  0.000
  0.000  0.000  0.993  0.000  0.000
 -0.112  0.000  0.000  0.797  0.000
  0.000  0.000  0.000  0.000  0.989
   spin  2
    eigenvalues:
  0.076  0.087  0.093  0.319  0.321
    eigenvectors:
  0.806  0.000  0.000  0.186  0.008
  0.000  0.000  0.000  0.042  0.958
  0.000  0.000  1.000  0.000  0.000
  0.194  0.000  0.000  0.772  0.034
  0.000  1.000  0.000  0.000  0.000
    occupations:
  0.123  0.000  0.000  0.096  0.000
  0.000  0.321  0.000 -0.001  0.000
  0.000  0.000  0.093  0.001  0.000
  0.096 -0.001  0.001  0.272  0.000
  0.000  0.000  0.000  0.000  0.087
atomic mag. moment =     3.568792
atom   10   Tr[ns(na)] (up, down, total) =   4.68032  0.59370  5.27402
   spin  1
    eigenvalues:
  0.722  0.961  0.999  0.999  0.999
    eigenvectors:
  0.000  0.953  0.000  0.012  0.035
  0.000  0.000  0.996  0.004  0.000
  0.000  0.000  0.004  0.771  0.226
  0.000  0.047  0.000  0.214  0.739
  1.000  0.000  0.000  0.000  0.000
    occupations:
  0.963  0.000  0.000  0.008  0.000
  0.000  0.999  0.000  0.000 -0.001
  0.000  0.000  0.999  0.000  0.000
  0.008  0.000  0.000  0.997  0.000
  0.000 -0.001  0.000  0.000  0.722
   spin  2
    eigenvalues:
  0.059  0.065  0.072  0.124  0.275
    eigenvectors:
  0.042  0.000  0.000  0.958  0.000
  0.000  0.000  1.000  0.000  0.000
  0.000  1.000  0.000  0.000  0.000
  0.958  0.000  0.000  0.042  0.000
  0.000  0.000  0.000  0.000  1.000
    occupations:
  0.121  0.000  0.000 -0.013  0.000
  0.000  0.072  0.000  0.000  0.001
  0.000  0.000  0.065  0.000  0.000
 -0.013  0.000  0.000  0.061  0.000
  0.000  0.001  0.000  0.000  0.275
atomic mag. moment =     4.086627
atom   16   Tr[ns(na)] (up, down, total) =   4.48949  0.85440  5.34389
   spin  1
    eigenvalues:
  0.726  0.761  0.999  1.001  1.003
    eigenvectors:
  0.245  0.002  0.000  0.600  0.153
  0.007  0.993  0.001  0.000  0.000
  0.000  0.000  0.000  0.199  0.801
  0.748  0.004  0.000  0.201  0.047
  0.000  0.001  0.999  0.000  0.000
    occupations:
  0.933  0.000 -0.002 -0.119  0.000
  0.000  0.761  0.000  0.003 -0.007
 -0.002  0.000  1.002 -0.001  0.000
 -0.119  0.003 -0.001  0.794  0.000
  0.000 -0.007  0.000  0.000  0.999
   spin  2
    eigenvalues:
  0.067  0.083  0.093  0.290  0.322
    eigenvectors:
  0.774  0.000  0.002  0.001  0.223
  0.000  0.001  0.000  0.996  0.003
  0.003  0.002  0.994  0.000  0.000
  0.222  0.000  0.001  0.002  0.774
  0.000  0.996  0.002  0.001  0.000
    occupations:
  0.124  0.000 -0.003  0.106  0.000
  0.000  0.290  0.000 -0.002  0.008
 -0.003  0.000  0.093 -0.002  0.000
  0.106 -0.002 -0.002  0.265  0.000
  0.000  0.008  0.000  0.000  0.083
atomic mag. moment =     3.635092
atom   17   Tr[ns(na)] (up, down, total) =   4.48891  0.84584  5.33475
   spin  1
    eigenvalues:
  0.710  0.773  0.997  1.004  1.005
    eigenvectors:
  0.000  0.997  0.001  0.002  0.000
  0.000  0.001  0.000  0.642  0.357
  0.000  0.001  0.000  0.357  0.642
  0.000  0.001  0.999  0.000  0.000
  1.000  0.000  0.000  0.000  0.000
    occupations:
  0.773 -0.007 -0.006  0.007 -0.001
 -0.007  1.004 -0.001  0.000  0.003
 -0.006 -0.001  1.004  0.000  0.000
  0.007  0.000  0.000  0.997  0.000
 -0.001  0.003  0.000  0.000  0.710
   spin  2
    eigenvalues:
  0.071  0.081  0.087  0.278  0.329
    eigenvectors:
  0.007  0.001  0.000  0.992  0.000
  0.005  0.346  0.647  0.001  0.001
  0.014  0.633  0.352  0.001  0.000
  0.974  0.020  0.000  0.006  0.000
  0.000  0.000  0.001  0.000  0.999
    occupations:
  0.276  0.007  0.006 -0.016  0.000
  0.007  0.085 -0.003  0.000 -0.008
  0.006 -0.003  0.083  0.001  0.000
 -0.016  0.000  0.001  0.073  0.000
  0.000 -0.008  0.000  0.000  0.329
atomic mag. moment =     3.643073
atom   22   Tr[ns(na)] (up, down, total) =   4.46510  0.89632  5.36142
   spin  1
    eigenvalues:
  0.736  0.747  0.989  0.993  1.001
    eigenvectors:
  0.231  0.001  0.000  0.000  0.768
  0.006  0.994  0.000  0.000  0.000
  0.000  0.000  0.001  0.999  0.000
  0.763  0.005  0.000  0.000  0.232
  0.000  0.000  0.999  0.001  0.000
    occupations:
  0.939  0.001  0.000 -0.112  0.000
  0.001  0.747  0.000  0.000  0.000
  0.000  0.000  0.993  0.000  0.000
 -0.112  0.000  0.000  0.797  0.000
  0.000  0.000  0.000  0.000  0.989
   spin  2
    eigenvalues:
  0.076  0.087  0.093  0.319  0.321
    eigenvectors:
  0.806  0.000  0.000  0.186  0.008
  0.000  0.000  0.000  0.042  0.958
  0.000  0.000  1.000  0.000  0.000
  0.194  0.000  0.000  0.772  0.034
  0.000  1.000  0.000  0.000  0.000
    occupations:
  0.123  0.000  0.000  0.096  0.000
  0.000  0.321  0.000  0.001  0.000
  0.000  0.000  0.093  0.001  0.000
  0.096  0.001  0.001  0.272  0.000
  0.000  0.000  0.000  0.000  0.087
atomic mag. moment =     3.568783
atom   23   Tr[ns(na)] (up, down, total) =   4.66669  0.60588  5.27257
   spin  1
    eigenvalues:
  0.709  0.960  0.999  0.999  1.000
    eigenvectors:
  0.000  0.956  0.038  0.006  0.000
  0.000  0.000  0.000  0.001  0.999
  0.000  0.000  0.144  0.855  0.001
  0.000  0.044  0.818  0.138  0.000
  1.000  0.000  0.000  0.000  0.000
    occupations:
  0.962  0.000  0.000  0.008  0.000
  0.000  1.000  0.000  0.000 -0.001
  0.000  0.000  0.999  0.000  0.000
  0.008  0.000  0.000  0.997  0.000
  0.000 -0.001  0.000  0.000  0.709
   spin  2
    eigenvalues:
  0.060  0.062  0.069  0.125  0.289
    eigenvectors:
  0.001  0.042  0.000  0.957  0.000
  0.000  0.000  1.000  0.000  0.000
  0.992  0.008  0.000  0.000  0.000
  0.007  0.950  0.000  0.043  0.000
  0.000  0.000  0.000  0.000  1.000
    occupations:
  0.122  0.000  0.000 -0.013  0.000
  0.000  0.069  0.000  0.000  0.001
  0.000  0.000  0.060  0.000  0.000
 -0.013  0.000  0.000  0.065  0.000
  0.000  0.001  0.000  0.000  0.289
atomic mag. moment =     4.060814
N of occupied +U levels =  42.6267342
 --- exit write_ns ---

 ------ SPIN UP ------------

[...]

 ------ SPIN DOWN ----------

[...]

          k = 0.2500-0.4606 0.0000 ( 26462 PWs)   bands (ev):

[...]

          k =-0.2500 0.2303 0.0000 ( 26396 PWs)   bands (ev):

   -79.1217 -79.1140 -79.0917 -79.0837 -79.0551 -79.0466 -78.2322 -78.2096
   -48.0504 -48.0049 -48.0002 -47.9889 -47.9858 -47.9415 -47.9318 -47.9240
   -47.9100 -47.8999 -47.8870 -47.8829 -47.8387 -47.8224 -47.8152 -47.7975
   -47.6892 -47.6816 -47.3624 -47.2515 -47.2080 -47.1688 -46.6914 -46.6768
   -25.7675 -20.7239 -20.2402 -20.2269 -20.0208 -19.5656 -19.4993 -19.4842
   -19.4108 -19.2067 -19.1904 -19.1190 -19.0358 -18.9073 -18.8465 -18.7978
   -18.7362 -18.7163 -18.6286 -17.4851  -9.6808  -8.0011  -7.7835  -7.6647
    -7.5367  -7.4061  -7.3598  -7.1945  -7.0076  -6.8078  -6.6252  -6.4689
    -6.3439  -6.1596  -6.1507  -6.0244  -5.9829  -5.9375  -5.7631  -5.7089
    -5.5824  -5.5224  -5.4073  -5.2934  -5.2455  -5.1613  -5.0815  -4.8850
    -4.8364  -4.7889  -4.7341  -4.6768  -4.5607  -4.4627  -4.3621  -4.2811
    -4.1957  -4.1649  -4.0907  -4.0347  -3.8785  -3.8061  -3.6674  -3.5792
    -3.5513  -3.4923  -3.3749  -3.3363  -3.2354  -3.0761  -2.9830  -2.8351
    -2.8068  -2.7242  -2.6296  -2.5897  -2.4070  -2.4027  -2.1116   2.4337
     2.4916   2.5212   2.5863   2.6171   2.7000   2.7319   2.7664   2.8162
     2.8290   2.8905   2.9235   2.9513   2.9812   3.0318   3.0491   3.1101
     3.1516   3.2597   3.2796   3.3585   3.3992   3.4289   3.5621   3.5744
     3.6045   3.6833   3.7010   3.7229   3.8407   3.9257   3.9625   3.9837
     4.0212   4.0611   4.0696   4.1720   4.2654   4.3445   4.3566   4.3860
     4.4397   4.5602   4.6338   4.9528   5.2992   5.6238   5.7775   6.1339
     6.2872   6.4029   6.5361   6.6576   6.8525   6.9981   7.1631   7.5015
     7.6658   7.7749   7.8991   8.0496   8.2564   8.3755   8.4782   8.7297
     8.7951   8.9665   9.0456   9.1366   9.2612   9.5073   9.6180   9.6316
     9.7107   9.9134   9.9908  10.0509  10.1604  10.3159  10.3829  10.4345
    10.6240  10.7809  10.8224  10.8734  11.0864  11.1615  11.2152  11.3112
    11.4884  11.5705  11.6877  11.7466  11.7867  11.8316  11.9664  11.9972
    12.1078  12.1737  12.3077  12.3154  12.4045  12.4761  12.5008  12.6284
    12.7890  12.9556  13.0042  13.0657  13.1394  13.1939  13.3395  13.3610
    13.4441  13.5063  13.5785  13.6145  13.7584  13.8982  13.9466  13.9863
    14.1386  14.1613  14.2542  14.3264  14.3761  14.3987  14.4376  14.5070
    14.5565  14.7300  14.7703  14.8349  14.9178  14.9764  15.0553  15.1643
    15.2335  15.3513  15.4099  15.4803  15.5255  15.6437  15.7133  15.8115
    15.8390  15.9087  15.9911  16.0480  16.1557  16.2629  16.3029  16.4205
    16.4831  16.6117  16.6736  16.7359  16.8281  16.9004  17.0114  17.0506
    17.1142  17.1622  17.2612  17.3142  17.4639  17.4814  17.5435  17.5994
    17.6777  17.7356  17.8320  17.9281  17.9562  18.0074  18.0974  18.1252
    18.2310  18.2977  18.3500  18.4138  18.4737  18.5815  18.6840  18.7150
    18.7555  18.8733  18.9555  19.0282  19.0785  19.1277  19.2917  19.2978
    19.3512  19.4801  19.5457  19.6080  19.6413  19.7925  19.8830  19.9607
    20.0342  20.1211  20.1446  20.1800  20.2840  20.3608  20.4663  20.5249
    20.5791  20.6073  20.6898  20.7352  20.7993  20.9434  20.9942  21.0950
    21.1726  21.2969  21.3426  21.4253  21.4893  21.5502  21.6705  21.7442
    21.8224  21.8926  21.9826  21.9851  22.1163  22.1558  22.2248  22.2665
    22.3277  22.3848  22.4409  22.5528  22.6206  22.7067  22.7759  22.8519
    22.8959  22.9756  23.0432  23.1078  23.2143  23.2439  23.3111  23.4039
    23.4816  23.5225  23.5640  23.6194  23.6870  23.7534  23.7849

     the spin up/dw Fermi energies are    -1.5277    0.6995 ev

!    total energy              =   -2351.92472948 Ry
     Harris-Foulkes estimate   =   -2351.92472948 Ry
     estimated scf accuracy    <          2.7E-09 Ry

     The total energy is the sum of the following terms:

     one-electron contribution =  -25736.52065608 Ry
     hartree contribution      =   12897.45449248 Ry
     xc contribution           =    -356.83375901 Ry
     ewald contribution        =   10842.13717936 Ry
     Hubbard energy            =       1.83835149 Ry
     smearing contrib. (-TS)   =      -0.00033773 Ry

     total magnetization       =    23.00 Bohr mag/cell
     absolute magnetization    =    37.69 Bohr mag/cell

     convergence has been achieved in  16 iterations

     Forces acting on atoms (Ry/au):

     negative rho (up, down):  0.144E-02 0.129E-02
     atom    1 type  1   force =    -0.00413541   -0.01169570    0.00003325
     atom    2 type  1   force =     0.00050938    0.00752366    0.00006557
     atom    3 type  2   force =     0.00264553    0.00122355    0.00027196
     atom    4 type  2   force =     0.00572940    0.00967178    0.00032210
     atom    5 type  1   force =     0.00159480    0.01172708   -0.00000233
     atom    6 type  1   force =    -0.00143568   -0.01737567   -0.00006444
     atom    7 type  1   force =     0.00008444    0.00262975    0.00088605
     atom    8 type  1   force =    -0.00138152   -0.00252271    0.00035046
     atom    9 type  2   force =     0.00186469    0.00085097   -0.00034454
     atom   10 type  2   force =    -0.00007301   -0.00149731   -0.00004986
     atom   11 type  1   force =    -0.00673547   -0.01523575    0.00013494
     atom   12 type  1   force =    -0.00630120    0.01627933    0.00033026
     atom   13 type  1   force =    -0.00046190   -0.00034632   -0.00047531
     atom   14 type  1   force =    -0.00428211   -0.01183672   -0.00003668
     atom   15 type  1   force =     0.00057115    0.00724553   -0.00020450
     atom   16 type  2   force =    -0.00415939    0.00128468    0.00028603
     atom   17 type  2   force =     0.00578803    0.00963427    0.00023354
     atom   18 type  1   force =     0.00119692    0.01173002   -0.00003600
     atom   19 type  1   force =    -0.00196831   -0.01739268   -0.00005101
     atom   20 type  1   force =     0.00005717    0.00267786   -0.00002237
     atom   21 type  1   force =    -0.00141465   -0.00258750    0.00024799
     atom   22 type  2   force =    -0.00036670    0.00084474   -0.00033335
     atom   23 type  2   force =    -0.00004244   -0.00135604   -0.00008057
     atom   24 type  1   force =     0.00685086   -0.01517781    0.00013317
     atom   25 type  1   force =     0.00637938    0.01632606    0.00032732
     atom   26 type  1   force =    -0.00044612   -0.00149200   -0.00047686
     atom   27 type  3   force =    -0.00002759   -0.00017628   -0.00040428
     atom   28 type  3   force =    -0.00003813   -0.00002624   -0.00031914
     atom   29 type  3   force =    -0.00000680   -0.00027205   -0.00024973
     atom   30 type  3   force =     0.00001571   -0.00028624   -0.00024391
     atom   31 type  1   force =    -0.00001202   -0.00050276   -0.00062261
     atom   32 type  1   force =     0.00000718    0.00007797    0.00004684
     atom   33 type  3   force =    -0.00000619    0.00005251    0.00034800

     Total force =     0.001907     Total SCF correction =     0.000210
     SCF correction compared to forces is large: reduce conv_thr to get better values

     bfgs converged in  33 scf cycles and  32 bfgs steps
     (criteria: energy < 0.10E-03, force < 0.10E-02)

     End of BFGS Geometry Optimization

     Final energy   =   -2351.9247294834 Ry
Begin final coordinates

ATOMIC_POSITIONS (crystal)
O0       0.000000000   0.000000000   0.370497704    0   0   1
O0       0.000000000   0.500000000   0.390185660    0   0   1
Mn1      0.250000000   0.500000000   0.443920415    0   0   1
Mn1      0.000000000   0.000000000   0.444894675    0   0   1
O0       0.250000000   0.800000000   0.442889524    0   0   1
O0       0.250000000   0.200000000   0.446945448    0   0   1
O0       0.000000000   0.500000000   0.492621296    0   0   1
O0       0.000000000   0.000000000   0.523907434    0   0   1
Mn1      0.250000000   0.000000000   0.573383454    0   0   1
Mn1      0.000000000   0.500000000   0.570730828    0   0   1
O0       0.250000000   0.700000000   0.584528609    0   0   1
O0       0.250000000   0.300000000   0.585041276    0   0   1
O0       0.000000000   0.000000000   0.623255095    0   0   1
O0       0.500000000   0.000000000   0.370467307    0   0   1
O0       0.500000000   0.500000000   0.390426258    0   0   1
Mn1      0.750000000   0.500000000   0.443917803    0   0   1
Mn1      0.500000000   0.000000000   0.444836309    0   0   1
O0       0.750000000   0.800000000   0.442963493    0   0   1
O0       0.750000000   0.200000000   0.446908214    0   0   1
O0       0.500000000   0.500000000   0.493415950    0   0   1
O0       0.500000000   0.000000000   0.523884405    0   0   1
Mn1      0.750000000   0.000000000   0.573382963    0   0   1
Mn1      0.500000000   0.500000000   0.573532442    0   0   1
O0       0.750000000   0.700000000   0.584536528    0   0   1
O0       0.750000000   0.300000000   0.585036085    0   0   1
O0       0.500000000   0.000000000   0.623086161    0   0   1
H2       0.000757183   0.648833499   0.375207048
H2       0.500762001   0.648536617   0.375299223
H2       0.160690474   0.047384983   0.360449981
H2       0.660570149   0.047630817   0.360411587
O0       0.499700000   0.544787114   0.679783822    0   1   1
O0       0.500640000   0.354958288   0.705163692    0   1   1
H2       0.499720000   0.397816859   0.741819311    0   1   1
End final coordinates

     General routines

     Parallel routines
     Hubbard U routines

   This run was terminated on:   9: 8: 7  20Sep2014

   JOB DONE.