     Program PWSCF v.5.0.2 (svn rev. 9656) starts on 24May2014 at  8:19: 0

     Current dimensions of program PWSCF are:
     Max number of different atomic species (ntypx) = 10
     Max number of k-points (npk) =  40000
     Max angular momentum in pseudopotentials (lmaxx) =  3
     Reading input from pwscf.in
Warning: card &CELL ignored
Warning: card / ignored

     Subspace diagonalization in iterative solution of the eigenvalue problem:
     a serial algorithm will be used

     bravais-lattice index     =            0
     lattice parameter (alat)  =      10.1289  a.u.
     unit-cell volume          =    6836.7721 (a.u.)^3
     number of atoms/cell      =           31
     number of atomic types    =            3
     number of electrons       =       238.00
     number of Kohn-Sham states=          357
     kinetic-energy cutoff     =      40.0000  Ry
     charge density cutoff     =     500.0000  Ry
     convergence threshold     =      1.0E-06
     mixing beta               =       0.7000
     number of iterations used =            8  plain     mixing
     Exchange-correlation      = SLA  PW   PBE  PBE ( 1 4 3 4 0)
     EXX-fraction              =        0.00
     nstep                     =           50

     celldm(1)=  10.128932  celldm(2)=   0.000000  celldm(3)=   0.000000
     celldm(4)=   0.000000  celldm(5)=   0.000000  celldm(6)=   0.000000

     crystal axes: (cart. coord. in units of alat)
               a(1) = (   1.000000   0.000000   0.000000 )
               a(2) = (   0.000000   1.306037   0.000000 )
               a(3) = (   0.000000   0.000000   5.037380 )

     reciprocal axes: (cart. coord. in units 2 pi/alat)
               b(1) = (  1.000000  0.000000  0.000000 )
               b(2) = (  0.000000  0.765675  0.000000 )
               b(3) = (  0.000000  0.000000  0.198516 )

     PseudoPot. # 1 for O  read from file:
     /home/camp/zhonxu/pseudo/o_pbe_v1.01.uspp.F.UPF
     MD5 check sum: 2bcb18d16ea4b960afae9ec6d52f22d2
     Pseudo is Ultrasoft + core correction, Zval =  6.0
     Generated by new atomic code, or converted to UPF format
     Using radial grid of  737 points,  5 beta functions with:
                l(1) =   0
                l(2) =   0
                l(3) =   1
                l(4) =   1
                l(5) =   2
     Q(r) pseudized with  8 coefficients,  rinner =    0.900   0.900   0.900
                                                       0.900   0.900

     PseudoPot. # 2 for Re read from file:
     /home/camp/zhonxu/pseudo/re_pbe_v1.uspp.F.UPF
     MD5 check sum: 6f5a5dcaf9c96c20d0ffdde0de57afc6
     Pseudo is Ultrasoft + core correction, Zval = 15.0
     Generated by new atomic code, or converted to UPF format
     Using radial grid of  981 points,  8 beta functions with:
                l(1) =   0
                l(2) =   0
                l(3) =   1
                l(4) =   1
                l(5) =   2
                l(6) =   2
                l(7) =   3
                l(8) =   3
     Q(r) pseudized with  8 coefficients,  rinner =    1.000   1.000   1.000
                                                       1.000   1.000   1.000
                                                       1.000

     PseudoPot. # 3 for H  read from file:
     /home/camp/zhonxu/pseudo/h_pbe_v1.uspp.F.UPF
     MD5 check sum: 3408e3ff4ec8b0a4e358431e7e038a48
     Pseudo is Ultrasoft, Zval =  1.0
     Generated by new atomic code, or converted to UPF format
     Using radial grid of  615 points,  2 beta functions with:
                l(1) =   0
                l(2) =   0
     Q(r) pseudized with  8 coefficients,  rinner =    0.700

     atomic species   valence    mass     pseudopotential
        O0             6.00    15.99940     O ( 1.00)
        Re1           15.00   186.20700     Re( 1.00)
        H2             1.00     1.00794     H ( 1.00)

     Simplified LDA+U calculation (l_max = 2) with parameters (eV):
     atomic species    L          U    alpha       J0     beta
        Re1            2     7.5000   0.0000   0.0000   0.0000

     No symmetry found

   Cartesian axes

     site n.     atom                  positions (alat units)
         1           O0  tau(   1) = (   0.0000000   0.0000000   1.8737543  )
         2           O0  tau(   2) = (   0.0000000   0.6530184   1.9330946  )
         3           Re1 tau(   3) = (   0.2500000   0.6530184   2.2261694  )
         4           Re1 tau(   4) = (   0.0000000   0.0000000   2.2356900  )
         5           O0  tau(   5) = (   0.2500000   1.0187087   2.2273280  )
         6           O0  tau(   6) = (   0.2500000   0.2873281   2.2278317  )
         7           O0  tau(   7) = (   0.0000000   0.6530184   2.5048876  )
         8           O0  tau(   8) = (   0.0000000   0.0000000   2.5911779  )
         9           Re1 tau(   9) = (   0.2500000   0.0000000   2.8842023  )
        10           Re1 tau(  10) = (   0.0000000   0.6530184   2.8512579  )
        11           O0  tau(  11) = (   0.2500000   0.9403465   2.8718607  )
        12           O0  tau(  12) = (   0.2500000   0.3656903   2.8717600  )
        13           O0  tau(  13) = (   0.0000000   0.0000000   3.1556667  )
        14           O0  tau(  14) = (   0.5000000   0.0000000   1.8725957  )
        15           O0  tau(  15) = (   0.5000000   0.6530184   1.9286113  )
        16           Re1 tau(  16) = (   0.7500000   0.6530184   2.2260182  )
        17           Re1 tau(  17) = (   0.5000000   0.0000000   2.2343299  )
        18           O0  tau(  18) = (   0.7500000   1.0187087   2.2268242  )
        19           O0  tau(  19) = (   0.7500000   0.2873281   2.2273783  )
        20           O0  tau(  20) = (   0.5000000   0.6530184   2.5145090  )
        21           O0  tau(  21) = (   0.5000000   0.0000000   2.5913794  )
        22           Re1 tau(  22) = (   0.7500000   0.0000000   2.9051578  )
        23           Re1 tau(  23) = (   0.5000000   0.6530184   2.8995160  )
        24           O0  tau(  24) = (   0.7500000   0.9403465   2.8742283  )
        25           O0  tau(  25) = (   0.7500000   0.3656903   2.8741276  )
        26           O0  tau(  26) = (   0.5000000   0.0000000   3.1565231  )
        27           H2  tau(  27) = (  -0.0006400   0.8091290   1.8360747  )
        28           H2  tau(  28) = (   0.4996900   0.8140919   1.8399031  )
        29           H2  tau(  29) = (   0.1706900   0.0231952   1.8014679  )
        30           H2  tau(  30) = (   0.6703100   0.0243184   1.8000574  )
        31           O0  tau(  31) = (   0.4993100   0.6521433   3.2158634  )

     number of k points=    10  Methfessel-Paxton smearing, width (Ry)=  0.0100
                       cart. coord. in units 2pi/alat
        k(    1) = (   0.0000000   0.0000000   0.0000000), wk =   0.1250000
        k(    2) = (   0.0000000   0.1914188   0.0000000), wk =   0.2500000
        k(    3) = (   0.0000000  -0.3828376   0.0000000), wk =   0.1250000
        k(    4) = (   0.2500000   0.0000000   0.0000000), wk =   0.2500000
        k(    5) = (   0.2500000   0.1914188   0.0000000), wk =   0.2500000
        k(    6) = (   0.2500000  -0.3828376   0.0000000), wk =   0.2500000
        k(    7) = (  -0.5000000   0.0000000   0.0000000), wk =   0.1250000
        k(    8) = (  -0.5000000   0.1914188   0.0000000), wk =   0.2500000
        k(    9) = (  -0.5000000  -0.3828376   0.0000000), wk =   0.1250000
        k(   10) = (  -0.2500000   0.1914188   0.0000000), wk =   0.2500000

     Largest allocated arrays     est. size (Mb)     dimensions
     Largest temporary arrays     est. size (Mb)     dimensions

     Check: negative/imaginary core charge=   -0.000003    0.000000

     Initial potential from superposition of free atoms
     Check: negative starting charge=   -0.237337

     starting charge  233.99958, renormalised to  238.00000

     negative rho (up, down):  0.241E+00 0.000E+00
     Number of +U iterations with fixed ns =  0
     Starting occupations:
 --- enter write_ns ---
 LDA+U parameters:
U( 2)     =  7.50000000
alpha( 2) =  0.00000000
atom    3   Tr[ns(na)] =   5.00000
    eigenvalues:
  0.500  0.500  0.500  0.500  0.500
    eigenvectors:
  1.000  0.000  0.000  0.000  0.000
  0.000  1.000  0.000  0.000  0.000
  0.000  0.000  1.000  0.000  0.000
  0.000  0.000  0.000  1.000  0.000
  0.000  0.000  0.000  0.000  1.000
    occupations:
  0.500  0.000  0.000  0.000  0.000
  0.000  0.500  0.000  0.000  0.000
  0.000  0.000  0.500  0.000  0.000
  0.000  0.000  0.000  0.500  0.000
  0.000  0.000  0.000  0.000  0.500
atom    4   Tr[ns(na)] =   5.00000
    eigenvalues:
  0.500  0.500  0.500  0.500  0.500
    eigenvectors:
  1.000  0.000  0.000  0.000  0.000
  0.000  1.000  0.000  0.000  0.000
  0.000  0.000  1.000  0.000  0.000
  0.000  0.000  0.000  1.000  0.000
  0.000  0.000  0.000  0.000  1.000
    occupations:
  0.500  0.000  0.000  0.000  0.000
  0.000  0.500  0.000  0.000  0.000
  0.000  0.000  0.500  0.000  0.000
  0.000  0.000  0.000  0.500  0.000
  0.000  0.000  0.000  0.000  0.500
atom    9   Tr[ns(na)] =   5.00000
    eigenvalues:
  0.500  0.500  0.500  0.500  0.500
    eigenvectors:
  1.000  0.000  0.000  0.000  0.000
  0.000  1.000  0.000  0.000  0.000
  0.000  0.000  1.000  0.000  0.000
  0.000  0.000  0.000  1.000  0.000
  0.000  0.000  0.000  0.000  1.000
    occupations:
  0.500  0.000  0.000  0.000  0.000
  0.000  0.500  0.000  0.000  0.000
  0.000  0.000  0.500  0.000  0.000
  0.000  0.000  0.000  0.500  0.000
  0.000  0.000  0.000  0.000  0.500
atom   10   Tr[ns(na)] =   5.00000
    eigenvalues:
  0.500  0.500  0.500  0.500  0.500
    eigenvectors:
  1.000  0.000  0.000  0.000  0.000
  0.000  1.000  0.000  0.000  0.000
  0.000  0.000  1.000  0.000  0.000
  0.000  0.000  0.000  1.000  0.000
  0.000  0.000  0.000  0.000  1.000
    occupations:
  0.500  0.000  0.000  0.000  0.000
  0.000  0.500  0.000  0.000  0.000
  0.000  0.000  0.500  0.000  0.000
  0.000  0.000  0.000  0.500  0.000
  0.000  0.000  0.000  0.000  0.500
atom   16   Tr[ns(na)] =   5.00000
    eigenvalues:
  0.500  0.500  0.500  0.500  0.500
    eigenvectors:
  1.000  0.000  0.000  0.000  0.000
  0.000  1.000  0.000  0.000  0.000
  0.000  0.000  1.000  0.000  0.000
  0.000  0.000  0.000  1.000  0.000
  0.000  0.000  0.000  0.000  1.000
    occupations:
  0.500  0.000  0.000  0.000  0.000
  0.000  0.500  0.000  0.000  0.000
  0.000  0.000  0.500  0.000  0.000
  0.000  0.000  0.000  0.500  0.000
  0.000  0.000  0.000  0.000  0.500
atom   17   Tr[ns(na)] =   5.00000
    eigenvalues:
  0.500  0.500  0.500  0.500  0.500
    eigenvectors:
  1.000  0.000  0.000  0.000  0.000
  0.000  1.000  0.000  0.000  0.000
  0.000  0.000  1.000  0.000  0.000
  0.000  0.000  0.000  1.000  0.000
  0.000  0.000  0.000  0.000  1.000
    occupations:
  0.500  0.000  0.000  0.000  0.000
  0.000  0.500  0.000  0.000  0.000
  0.000  0.000  0.500  0.000  0.000
  0.000  0.000  0.000  0.500  0.000
  0.000  0.000  0.000  0.000  0.500
atom   22   Tr[ns(na)] =   5.00000
    eigenvalues:
  0.500  0.500  0.500  0.500  0.500
    eigenvectors:
  1.000  0.000  0.000  0.000  0.000
  0.000  1.000  0.000  0.000  0.000
  0.000  0.000  1.000  0.000  0.000
  0.000  0.000  0.000  1.000  0.000
[...]
  0.990  0.000  0.000  0.000  0.010
  0.000  0.556  0.224  0.219  0.000
  0.010  0.000  0.000  0.001  0.989
    occupations:
  0.770  0.001 -0.001 -0.099  0.001
  0.001  0.584 -0.000  0.002 -0.000
 -0.001 -0.000  0.422  0.000 -0.048
 -0.099  0.002  0.000  0.635 -0.001
  0.001 -0.000 -0.048 -0.001  0.891
atom   10   Tr[ns(na)] =   6.44725
    eigenvalues:
  0.410  0.487  0.573  0.800  0.953
    eigenvectors:
  0.005  0.990  0.000  0.005  0.000
  0.000  0.000  0.000  0.000  1.000
  0.995  0.005  0.000  0.000  0.000
  0.000  0.005  0.000  0.995  0.000
  0.000  0.000  1.000  0.000  0.000
    occupations:
  0.488 -0.001 -0.005  0.022  0.000
 -0.001  0.953  0.000 -0.000  0.001
 -0.005  0.000  0.411  0.003  0.003
  0.022 -0.000  0.003  0.799 -0.000
  0.000  0.001  0.003 -0.000  0.573
atom   16   Tr[ns(na)] =   6.53589
    eigenvalues:
  0.403  0.538  0.579  0.797  0.951
    eigenvectors:
  0.007  0.001  0.253  0.738  0.000
  0.000  0.997  0.002  0.000  0.001
  0.984  0.000  0.000  0.007  0.008
  0.001  0.001  0.745  0.254  0.000
  0.008  0.001  0.000  0.000  0.991
    occupations:
  0.739  0.004  0.031 -0.094  0.003
  0.004  0.538  0.002 -0.000 -0.011
  0.031  0.002  0.411 -0.014 -0.049
 -0.094 -0.000 -0.014  0.635 -0.001
  0.003 -0.011 -0.049 -0.001  0.946
atom   17   Tr[ns(na)] =   6.58864
    eigenvalues:
  0.492  0.576  0.618  0.804  0.805
    eigenvectors:
  0.000  0.000  0.998  0.002  0.000
  0.002  0.000  0.000  0.053  0.945
  0.998  0.000  0.000  0.000  0.002
  0.000  0.000  0.002  0.945  0.053
  0.000  1.000  0.000  0.000  0.000
    occupations:
  0.618  0.001  0.000 -0.008  0.001
  0.001  0.804  0.014 -0.000 -0.000
  0.000  0.014  0.493  0.001  0.000
 -0.008 -0.000  0.001  0.803 -0.000
  0.001 -0.000  0.000 -0.000  0.576
atom   22   Tr[ns(na)] =   6.57557
    eigenvalues:
  0.481  0.584  0.624  0.695  0.903
    eigenvectors:
  0.000  0.081  0.000  0.918  0.000
  0.000  0.001  0.999  0.000  0.000
  0.992  0.000  0.000  0.000  0.008
  0.000  0.918  0.001  0.081  0.000
  0.008  0.000  0.000  0.001  0.991
    occupations:
  0.686 -0.000 -0.000 -0.030  0.004
 -0.000  0.624  0.000 -0.001 -0.000
 -0.000  0.000  0.485 -0.000  0.038
 -0.030 -0.001 -0.000  0.593 -0.003
  0.004 -0.000  0.038 -0.003  0.899
atom   23   Tr[ns(na)] =   6.61634
    eigenvalues:
  0.586  0.594  0.599  0.669  0.861
    eigenvectors:
  0.000  0.000  0.000  0.991  0.009
  0.000  0.990  0.010  0.000  0.000
  1.000  0.000  0.000  0.000  0.000
  0.000  0.000  0.000  0.009  0.991
  0.000  0.010  0.990  0.000  0.000
    occupations:
  0.671  0.000 -0.000 -0.018 -0.000
  0.000  0.594 -0.000  0.001 -0.000
 -0.000 -0.000  0.586  0.000 -0.000
 -0.018  0.001  0.000  0.859  0.000
 -0.000 -0.000 -0.000  0.000  0.599
N of occupied +U levels =  52.5036185
 --- exit write_ns ---

     Threshold (ethr) on eigenvalues was too large:
     Diagonalizing with lowered threshold

     Davidson diagonalization with overlap
     ethr =  9.55E-08,  avg # of iterations =  1.0

[...]

     total energy              =   -2170.65295009 Ry
     Harris-Foulkes estimate   =   -2170.65295030 Ry
     estimated scf accuracy    <       0.00000102 Ry

     iteration #  6     ecut=    40.00 Ry     beta=0.70
     Davidson diagonalization with overlap
     ethr =  4.27E-10,  avg # of iterations =  1.0

     negative rho (up, down):  0.238E+00 0.000E+00

     End of self-consistent calculation
 --- enter write_ns ---
 LDA+U parameters:
U( 2)     =  7.50000000
alpha( 2) =  0.00000000
atom    3   Tr[ns(na)] =   6.54856
    eigenvalues:
  0.416  0.537  0.578  0.794  0.950
    eigenvectors:
  0.007  0.001  0.254  0.737  0.000
  0.000  0.997  0.002  0.000  0.001
  0.983  0.000  0.001  0.007  0.009
  0.001  0.001  0.743  0.255  0.000
  0.009  0.001  0.000  0.000  0.991
    occupations:
  0.736 -0.004  0.030 -0.093 -0.002
 -0.004  0.537 -0.002  0.000 -0.011
  0.030 -0.002  0.424 -0.013  0.049
 -0.093  0.000 -0.013  0.633  0.001
 -0.002 -0.011  0.049  0.001  0.945
atom    4   Tr[ns(na)] =   6.59347
    eigenvalues:
  0.485  0.577  0.620  0.806  0.809
    eigenvectors:
  0.000  0.000  0.998  0.002  0.000
  0.002  0.000  0.000  0.023  0.974
  0.998  0.000  0.000  0.000  0.002
  0.000  0.000  0.002  0.975  0.023
  0.000  1.000  0.000  0.000  0.000
    occupations:
  0.620  0.002  0.001 -0.008  0.001
  0.002  0.809  0.015 -0.001 -0.000
  0.001  0.015  0.485  0.001  0.000
 -0.008 -0.001  0.001  0.806 -0.000
  0.001 -0.000  0.000 -0.000  0.577
atom    9   Tr[ns(na)] =   6.60042
    eigenvalues:
  0.417  0.581  0.585  0.822  0.895
    eigenvectors:
  0.000  0.158  0.062  0.780  0.000
  0.000  0.280  0.720  0.000  0.000
  0.990  0.000  0.000  0.000  0.010
  0.000  0.562  0.219  0.219  0.000
  0.010  0.000  0.000  0.001  0.989
    occupations:
  0.769  0.001 -0.001 -0.099  0.001
  0.001  0.584 -0.000  0.002 -0.000
 -0.001 -0.000  0.422  0.000 -0.048
 -0.099  0.002  0.000  0.635 -0.001
  0.001 -0.000 -0.048 -0.001  0.890
atom   10   Tr[ns(na)] =   6.44640
    eigenvalues:
  0.410  0.487  0.573  0.800  0.953
    eigenvectors:
  0.005  0.990  0.000  0.005  0.000
  0.000  0.000  0.000  0.000  1.000
  0.995  0.005  0.000  0.000  0.000
  0.000  0.005  0.000  0.995  0.000
  0.000  0.000  1.000  0.000  0.000
    occupations:
  0.488 -0.001 -0.005  0.022  0.000
 -0.001  0.953  0.000 -0.000  0.001
 -0.005  0.000  0.411  0.003  0.003
  0.022 -0.000  0.003  0.799 -0.000
  0.000  0.001  0.003 -0.000  0.573
atom   16   Tr[ns(na)] =   6.53793
    eigenvalues:
  0.404  0.538  0.579  0.797  0.951
    eigenvectors:
  0.007  0.001  0.253  0.738  0.000
  0.000  0.997  0.002  0.000  0.001
  0.984  0.000  0.000  0.007  0.008
  0.001  0.001  0.745  0.254  0.000
  0.008  0.001  0.000  0.000  0.991
    occupations:
  0.739  0.004  0.031 -0.094  0.003
  0.004  0.538  0.002 -0.000 -0.011
  0.031  0.002  0.411 -0.014 -0.049
 -0.094 -0.000 -0.014  0.635 -0.001
  0.003 -0.011 -0.049 -0.001  0.946
atom   17   Tr[ns(na)] =   6.59303
    eigenvalues:
  0.493  0.576  0.618  0.804  0.806
    eigenvectors:
  0.000  0.000  0.998  0.002  0.000
  0.002  0.000  0.000  0.012  0.986
  0.998  0.000  0.000  0.000  0.002
  0.000  0.000  0.002  0.986  0.012
  0.000  1.000  0.000  0.000  0.000
    occupations:
  0.618  0.001  0.000 -0.008  0.001
  0.001  0.806  0.014 -0.000 -0.000
  0.000  0.014  0.493  0.001  0.000
 -0.008 -0.000  0.001  0.803 -0.000
  0.001 -0.000  0.000 -0.000  0.576
atom   22   Tr[ns(na)] =   6.57230
    eigenvalues:
  0.481  0.584  0.625  0.695  0.901
    eigenvectors:
  0.000  0.081  0.000  0.919  0.000
  0.000  0.001  0.999  0.000  0.000
  0.992  0.000  0.000  0.000  0.008
  0.000  0.918  0.001  0.081  0.000
  0.008  0.000  0.000  0.001  0.991
    occupations:
  0.686 -0.000 -0.000 -0.030  0.004
 -0.000  0.625  0.000 -0.001 -0.000
 -0.000  0.000  0.485 -0.000  0.038
 -0.030 -0.001 -0.000  0.593 -0.003
  0.004 -0.000  0.038 -0.003  0.898
atom   23   Tr[ns(na)] =   6.61625
    eigenvalues:
  0.586  0.594  0.599  0.669  0.860
    eigenvectors:
  0.000  0.000  0.000  0.991  0.009
  0.000  0.991  0.009  0.000  0.000
  1.000  0.000  0.000  0.000  0.000
  0.000  0.000  0.000  0.009  0.991
  0.000  0.009  0.991  0.000  0.000
    occupations:
  0.671  0.000 -0.000 -0.018 -0.000
  0.000  0.594 -0.000  0.001 -0.000
 -0.000 -0.000  0.586  0.000 -0.000
 -0.018  0.001  0.000  0.859  0.000
 -0.000 -0.000 -0.000  0.000  0.599
N of occupied +U levels =  52.5083506
 --- exit write_ns ---

[...]

          k = 0.2500-0.3828 0.0000 ( 29202 PWs)   bands (ev):

[...]

          k =-0.2500 0.1914 0.0000 ( 29229 PWs)   bands (ev):

   -81.6310 -80.9499 -80.8496 -80.8069 -80.5673 -80.5579 -80.5125 -80.1674
   -44.0235 -43.4741 -43.2964 -43.1147 -43.0947 -42.9494 -42.9400 -42.8756
   -42.8506 -42.8296 -42.8055 -42.7540 -42.7417 -42.5049 -42.4563 -42.4273
   -42.4152 -42.3399 -42.3233 -42.3178 -42.2698 -42.1415 -41.7187 -41.5737
   -21.1377 -20.7652 -20.4609 -20.3580 -20.2426 -20.0825 -20.0232 -19.9327
   -19.8468 -19.8314 -19.5950 -19.4519 -19.3507 -19.2165 -19.1789 -19.0673
   -18.8254 -18.4161 -18.2063  -9.8559  -9.4988  -9.4416  -9.3786  -9.3204
    -9.0978  -8.9983  -8.5089  -8.4022  -8.3388  -8.2335  -8.0015  -7.9320
    -7.6477  -7.3447  -7.3027  -7.2529  -7.0168  -6.9507  -6.9283  -6.8278
    -6.6747  -6.3373  -6.2317  -6.0313  -5.9944  -5.9066  -5.7765  -5.6821
    -5.5534  -5.4649  -5.3234  -5.2426  -5.1740  -5.0864  -5.0472  -4.9709
    -4.8852  -4.7293  -4.6007  -4.5523  -4.3943  -4.3150  -4.1985  -4.0998
    -4.0283  -3.9497  -3.7907  -3.7544  -3.5884  -3.5270  -3.4108  -3.2656
    -3.1279  -2.9751  -2.9514  -2.8879  -2.6760  -2.5707  -2.4879  -1.9348
    -1.6432  -1.4081  -1.2201  -0.6938  -0.6334  -0.3213   0.1594   0.2443
     0.6213   0.8347   0.9617   1.0455   1.1150   1.2283   1.4722   1.5652
     1.6803   1.7704   1.8042   2.0519   2.6874   3.4342   3.4567   3.6656
     3.7564   3.8469   4.1088   4.3459   4.4176   4.5854   4.6602   4.8559
     4.9996   5.2350   5.5033   5.6627   5.8271   5.9758   6.0517   6.2358
     6.3402   6.5604   6.7320   6.8457   7.1033   7.2809   7.4233   7.5417
     7.5813   7.8504   8.0162   8.1174   8.2827   8.4067   8.5458   8.6139
     8.7178   8.7548   8.9247   9.1097   9.1881   9.3902   9.4876   9.6231
     9.6943   9.8058   9.9211   9.9411   9.9660  10.0345  10.1004  10.2733
    10.3154  10.3868  10.4945  10.6023  10.6322  10.7239  10.8216  10.8892
    11.0221  11.1363  11.2941  11.3825  11.4930  11.5979  11.6314  11.8301
    11.8874  11.9358  12.1590  12.3138  12.4061  12.4794  12.5934  12.6255
    12.7309  12.7803  12.8666  12.9395  12.9702  13.0458  13.1875  13.3297
    13.3430  13.4994  13.6128  13.6520  13.7128  13.7588  13.8084  13.8936
    13.9673  13.9957  14.0599  14.1561  14.2009  14.2437  14.3213  14.4465
    14.5082  14.5484  14.6451  14.7064  14.8141  14.8605  14.8993  14.9378
    15.0021  15.0217  15.1096  15.1600  15.2125  15.2774  15.3086  15.4565
    15.5484  15.6328  15.6734  15.8619  15.9082  16.0561  16.0982  16.1900
    16.2148  16.3254  16.3529  16.4656  16.5510  16.5946  16.6535  16.7073
    16.7437  16.8835  16.9681  17.0840  17.1514  17.2331  17.2834  17.3793
    17.4827  17.5162  17.5880  17.7659  17.7972  17.8558  17.9273  18.0122
    18.0588  18.1084  18.1342  18.2390  18.2945  18.4048  18.4546  18.4966
    18.5508  18.6325  18.6799  18.7669  18.8293  18.9155  19.0113  19.0523
    19.0981  19.2440  19.3491  19.3944  19.5236  19.5806  19.6276  19.7363
    19.7894  19.9890  20.0218  20.1101  20.1956  20.2257  20.3105  20.4507
    20.5155  20.5399  20.6038  20.6721  20.7603  20.8248  20.8705  20.9171
    20.9412  21.0248  21.0685  21.1593  21.2165  21.2593  21.3467  21.3953
    21.4565  21.4958  21.5498  21.6360  21.6950  21.7611  21.8108  21.9129
    21.9909  22.0746  22.1189  22.1717  22.2599  22.2839  22.3684  22.4230
    22.4547  22.5075  22.5516  22.5852  22.6399  22.7223  22.7552  22.7843
    22.8242  22.8868  22.9595  23.0012  23.0591

     the Fermi energy is     0.1401 ev

!    total energy              =   -2170.65294991 Ry
     Harris-Foulkes estimate   =   -2170.65295026 Ry
     estimated scf accuracy    <       0.00000048 Ry

     The total energy is the sum of the following terms:

     one-electron contribution =  -24292.72611553 Ry
     hartree contribution      =   12164.49782251 Ry
     xc contribution           =    -594.59858708 Ry
     ewald contribution        =   10547.77799040 Ry
     Hubbard energy            =       4.39695764 Ry
     smearing contrib. (-TS)   =      -0.00101786 Ry

     convergence has been achieved in   6 iterations

     Forces acting on atoms (Ry/au):

     negative rho (up, down):  0.238E+00 0.000E+00
     atom    1 type  1   force =    -0.00548226   -0.00570443   -0.00038733
     atom    2 type  1   force =     0.00016634    0.00206644   -0.00042957
     atom    3 type  2   force =     0.04513837    0.00008932   -0.00018062
     atom    4 type  2   force =     0.01029534    0.00660015   -0.00017749
     atom    5 type  1   force =     0.00209189    0.01493522    0.00023454
     atom    6 type  1   force =     0.00234217   -0.01626751   -0.00009486
     atom    7 type  1   force =     0.00043384   -0.00219173    0.00021270
     atom    8 type  1   force =    -0.01649482   -0.00110489   -0.00021276
     atom    9 type  2   force =     0.00990174    0.00094981   -0.00061484
     atom   10 type  2   force =     0.00234730   -0.00129755    0.00057110
     atom   11 type  1   force =    -0.01075331   -0.03637042   -0.00008316
     atom   12 type  1   force =    -0.01107139    0.03609933   -0.00007051
     atom   13 type  1   force =    -0.01330263    0.00027943    0.00037598
     atom   14 type  1   force =    -0.00372931   -0.00546454   -0.00033159
     atom   15 type  1   force =    -0.00001281    0.00342047   -0.00028841
     atom   16 type  2   force =    -0.04578074    0.00014644   -0.00012758
     atom   17 type  2   force =    -0.00397331    0.00604629   -0.00018068
     atom   18 type  1   force =    -0.00088199    0.01370790    0.00021711
     atom   19 type  1   force =    -0.00054553   -0.01530024    0.00002487
     atom   20 type  1   force =     0.00030192   -0.00253333    0.00009354
     atom   21 type  1   force =     0.01827783   -0.00053075   -0.00020280
     atom   22 type  2   force =    -0.00665680    0.00100286    0.00040271
     atom   23 type  2   force =    -0.00254301    0.00078822    0.00016524
     atom   24 type  1   force =     0.00901825   -0.02908631    0.00012189
     atom   25 type  1   force =     0.01000719    0.02888173    0.00006027
     atom   26 type  1   force =     0.01087969   -0.00089360   -0.00021218
     atom   27 type  3   force =     0.00000652    0.00072341    0.00053313
     atom   28 type  3   force =     0.00001521    0.00070305    0.00066261
     atom   29 type  3   force =     0.00016639    0.00018452    0.00002684
     atom   30 type  3   force =     0.00005575    0.00013657   -0.00021290
     atom   31 type  1   force =    -0.00021783   -0.00001585    0.00010473

     Total force =     0.001983     Total SCF correction =     0.002642
     SCF correction compared to forces is large: reduce conv_thr to get better values

     entering subroutine stress ...

     negative rho (up, down):  0.238E+00 0.000E+00
          total   stress  (Ry/bohr**3)                   (kbar)     P=   -4.97
   0.00000069   0.00000157   0.00000215          0.10      0.23      0.32
   0.00000157  -0.00005888  -0.00000037          0.23     -8.66     -0.06
   0.00000215  -0.00000037  -0.00004326          0.32     -0.06     -6.36

     bfgs converged in   2 scf cycles and   1 bfgs steps
     (criteria: energy < 0.10E-03, force < 0.10E-02)

     End of BFGS Geometry Optimization

     Final energy   =   -2170.6529499142 Ry
Begin final coordinates

ATOMIC_POSITIONS (crystal)
O0       0.000000000   0.000000000   0.371962838    0   0   1
O0       0.000000000   0.500000000   0.383738081    0   0   1
Re1      0.250000000   0.500000000   0.441929930    0   0   1
Re1      0.000000000   0.000000000   0.443814749    0   0   1
O0       0.250000000   0.780000000   0.442165978    0   0   1
O0       0.250000000   0.220000000   0.442258703    0   0   1
O0       0.000000000   0.500000000   0.497267187    0   0   1
O0       0.000000000   0.000000000   0.514390139    0   0   1
Re1      0.250000000   0.000000000   0.572542192    0   0   1
Re1      0.000000000   0.500000000   0.566026452    0   0   1
O0       0.250000000   0.720000000   0.570110295    0   0   1
O0       0.250000000   0.280000000   0.570090744    0   0   1
O0       0.000000000   0.000000000   0.626455920    0   0   1
O0       0.500000000   0.000000000   0.371731578    0   0   1
O0       0.500000000   0.500000000   0.382847686    0   0   1
Re1      0.750000000   0.500000000   0.441902437    0   0   1
Re1      0.500000000   0.000000000   0.443542891    0   0   1
O0       0.750000000   0.780000000   0.442065588    0   0   1
O0       0.750000000   0.220000000   0.442171281    0   0   1
O0       0.500000000   0.500000000   0.499175673    0   0   1
O0       0.500000000   0.000000000   0.514434150    0   0   1
Re1      0.750000000   0.000000000   0.576730633    0   0   1
Re1      0.500000000   0.500000000   0.575600992    0   0   1
O0       0.750000000   0.720000000   0.570584348    0   0   1
O0       0.750000000   0.280000000   0.570563194    0   0   1
O0       0.500000000   0.000000000   0.626608032    0   0   1
H2      -0.000639484   0.619607153   0.364497614
H2       0.499691201   0.623385073   0.365263947
H2       0.170721766   0.017776068   0.357620046
H2       0.670318418   0.018630755   0.357336160
O0       0.499287207   0.499329513   0.638400542
End final coordinates

     General routines

     Parallel routines
     Hubbard U routines

   This run was terminated on:  13:13:13  24May2014

   JOB DONE.