     Program PWSCF v.5.0.2 (svn rev. 9656) starts on 16Jun2014 at  9:13:29

     Current dimensions of program PWSCF are:
     Max number of different atomic species (ntypx) = 10
     Max number of k-points (npk) =  40000
     Max angular momentum in pseudopotentials (lmaxx) =  3
     Reading input from pwscf.in
Warning: card &CELL ignored
Warning: card / ignored

     Subspace diagonalization in iterative solution of the eigenvalue problem:
     a serial algorithm will be used

     bravais-lattice index     =            0
     lattice parameter (alat)  =      11.7919  a.u.
     unit-cell volume          =    9723.6088 (a.u.)^3
     number of atoms/cell      =           51
     number of atomic types    =            3
     number of electrons       =       461.00
     number of Kohn-Sham states=          667
     kinetic-energy cutoff     =      40.0000  Ry
     charge density cutoff     =     500.0000  Ry
     convergence threshold     =      1.0E-06
     mixing beta               =       0.3000
     number of iterations used =            8  plain     mixing
     Exchange-correlation      = SLA  PW   PBE  PBE ( 1 4 3 4 0)
     EXX-fraction              =        0.00
     nstep                     =           50

     celldm(1)=  11.791891  celldm(2)=   0.000000  celldm(3)=   0.000000
     celldm(4)=   0.000000  celldm(5)=   0.000000  celldm(6)=   0.000000

     crystal axes: (cart. coord. in units of alat)
               a(1) = (   1.000000   0.000000   0.000000 )
               a(2) = (   0.000000   1.026665   0.000000 )
               a(3) = (   0.000000   0.000000   5.776283 )

     reciprocal axes: (cart. coord. in units 2 pi/alat)
               b(1) = (  1.000000  0.000000  0.000000 )
               b(2) = (  0.000000  0.974028  0.000000 )
               b(3) = (  0.000000  0.000000  0.173122 )

     PseudoPot. # 1 for O  read from file:
     /home/camp/zhonxu/pseudo/o_pbe_v1.01.uspp.F.UPF
     MD5 check sum: 2bcb18d16ea4b960afae9ec6d52f22d2
     Pseudo is Ultrasoft + core correction, Zval =  6.0
     Generated by new atomic code, or converted to UPF format
     Using radial grid of  737 points,  5 beta functions with:
                l(1) =   0
                l(2) =   0
                l(3) =   1
                l(4) =   1
                l(5) =   2
     Q(r) pseudized with  8 coefficients,  rinner =    0.900   0.900   0.900
                                                       0.900   0.900

     PseudoPot. # 2 for Ru read from file:
     /home/camp/zhonxu/pseudo/ru_pbe_v1.uspp.F.UPF
     MD5 check sum: df00be1c11b23341d9806d8f1dfa10cf
     Pseudo is Ultrasoft + core correction, Zval = 16.0
     Generated by new atomic code, or converted to UPF format
     Using radial grid of  967 points,  6 beta functions with:
                l(1) =   0
                l(2) =   0
                l(3) =   1
                l(4) =   1
                l(5) =   2
                l(6) =   2
     Q(r) pseudized with  8 coefficients,  rinner =    1.300   1.300   1.300
                                                       1.300   1.300

     PseudoPot. # 3 for H  read from file:
     /home/camp/zhonxu/pseudo/h_pbe_v1.uspp.F.UPF
     MD5 check sum: 3408e3ff4ec8b0a4e358431e7e038a48
     Pseudo is Ultrasoft, Zval =  1.0
     Generated by new atomic code, or converted to UPF format
     Using radial grid of  615 points,  2 beta functions with:
                l(1) =   0
                l(2) =   0
     Q(r) pseudized with  8 coefficients,  rinner =    0.700

     atomic species   valence    mass     pseudopotential
        O0             6.00    15.99940     O ( 1.00)
        Ru1           16.00   101.07000     Ru( 1.00)
        H2             1.00     1.00794     H ( 1.00)

      2 Sym. Ops. (no inversion) found

   Cartesian axes

     site n.     atom                  positions (alat units)
         1           O0  tau(   1) = (   0.0000000   0.5133323   1.9230980  )
         2           Ru1 tau(   2) = (   0.2500000   0.5133323   2.1181631  )
         3           Ru1 tau(   3) = (   0.0000000   0.0000000   2.1181631  )
         4           O0  tau(   4) = (   0.2500000   0.8315984   2.1181631  )
         5           O0  tau(   5) = (   0.2500000   0.1950663   2.1181631  )
         6           O0  tau(   6) = (   0.0000000   0.5133323   2.3132282  )
         7           O0  tau(   7) = (   0.0000000   0.0000000   2.4364363  )
         8           Ru1 tau(   8) = (   0.2500000   0.0000000   2.6315014  )
         9           Ru1 tau(   9) = (   0.0000000   0.5133323   2.6315014  )
        10           O0  tau(  10) = (   0.2500000   0.7083986   2.6315014  )
        11           O0  tau(  11) = (   0.2500000   0.3182660   2.6315014  )
        12           O0  tau(  12) = (   0.0000000   0.0000000   2.8265665  )
        13           O0  tau(  13) = (   0.0000000   0.5133118   2.9453847  )
        14           Ru1 tau(  14) = (   0.2536400   0.5120695   3.1427025  )
        15           Ru1 tau(  15) = (   0.0000000  -0.0006468   3.1408541  )
        16           O0  tau(  16) = (   0.2506400   0.8269578   3.1423559  )
        17           O0  tau(  17) = (   0.2509400   0.1980436   3.1404498  )
        18           O0  tau(  18) = (   0.0000000   0.5088561   3.3338397  )
        19           O0  tau(  19) = (   0.0000000   0.0006776   3.4540442  )
        20           Ru1 tau(  20) = (   0.2443800  -0.0035523   3.6675356  )
        21           Ru1 tau(  21) = (   0.0000000   0.5106835   3.6327046  )
        22           O0  tau(  22) = (   0.2457800   0.7066533   3.6567340  )
        23           O0  tau(  23) = (   0.2475000   0.3150731   3.6686331  )
        24           O0  tau(  24) = (   0.0000000  -0.0053797   3.8584418  )
        25           O0  tau(  25) = (   0.5000000   0.5133323   1.9230980  )
        26           Ru1 tau(  26) = (   0.7500000   0.5133323   2.1181631  )
        27           Ru1 tau(  27) = (   0.5000000   0.0000000   2.1181631  )
        28           O0  tau(  28) = (   0.7500000   0.8315984   2.1181631  )
        29           O0  tau(  29) = (   0.7500000   0.1950663   2.1181631  )
        30           O0  tau(  30) = (   0.5000000   0.5133323   2.3132282  )
        31           O0  tau(  31) = (   0.5000000   0.0000000   2.4364363  )
        32           Ru1 tau(  32) = (   0.7500000   0.0000000   2.6315014  )
        33           Ru1 tau(  33) = (   0.5000000   0.5133323   2.6315014  )
        34           O0  tau(  34) = (   0.7500000   0.7083986   2.6315014  )
        35           O0  tau(  35) = (   0.7500000   0.3182660   2.6315014  )
        36           O0  tau(  36) = (   0.5000000   0.0000000   2.8265665  )
        37           O0  tau(  37) = (   0.5000000   0.5136301   2.9435940  )
        38           Ru1 tau(  38) = (   0.7463600   0.5120695   3.1427025  )
        39           Ru1 tau(  39) = (   0.5000000  -0.0007084   3.1448975  )
        40           O0  tau(  40) = (   0.7493600   0.8269578   3.1423559  )
        41           O0  tau(  41) = (   0.7490600   0.1980436   3.1404498  )
        42           O0  tau(  42) = (   0.5000000   0.5100367   3.3480494  )
        43           O0  tau(  43) = (   0.5000000   0.0002977   3.4551994  )
        44           Ru1 tau(  44) = (   0.7556200  -0.0035523   3.6675356  )
        45           Ru1 tau(  45) = (   0.5000000   0.5103858   3.6701927  )
        46           O0  tau(  46) = (   0.7542200   0.7066533   3.6567340  )
        47           O0  tau(  47) = (   0.7525000   0.3150731   3.6686331  )
        48           O0  tau(  48) = (   0.5000000  -0.0088806   3.8269033  )
        49           O0  tau(  49) = (   0.5000000   0.5375205   3.9755848  )
        50           O0  tau(  50) = (   0.5000000   0.3356783   4.0927856  )
        51           H2  tau(  51) = (   0.5000000   0.3925247   4.2404274  )

     number of k points=     9  Methfessel-Paxton smearing, width (Ry)=  0.0100
                       cart. coord. in units 2pi/alat
        k(    1) = (   0.0000000   0.0000000   0.0000000), wk =   0.1250000
        k(    2) = (   0.0000000   0.2435070   0.0000000), wk =   0.2500000
        k(    3) = (   0.0000000  -0.4870139   0.0000000), wk =   0.1250000
        k(    4) = (   0.2500000   0.0000000   0.0000000), wk =   0.2500000
        k(    5) = (   0.2500000   0.2435070   0.0000000), wk =   0.5000000
        k(    6) = (   0.2500000  -0.4870139   0.0000000), wk =   0.2500000
        k(    7) = (  -0.5000000   0.0000000   0.0000000), wk =   0.1250000
        k(    8) = (  -0.5000000   0.2435070   0.0000000), wk =   0.2500000
        k(    9) = (  -0.5000000  -0.4870139   0.0000000), wk =   0.1250000

     Largest allocated arrays     est. size (Mb)     dimensions
     Largest temporary arrays     est. size (Mb)     dimensions

     Check: negative/imaginary core charge=   -0.000004    0.000000

     Initial potential from superposition of free atoms
     Check: negative starting charge=   -1.048334

     starting charge  444.99969, renormalised to  461.00000

     negative rho (up, down):  0.109E+01 0.000E+00
     Starting wfc are  345 randomized atomic wfcs

     Self-consistent Calculation

     iteration #  1     ecut=    40.00 Ry     beta=0.30
     Davidson diagonalization with overlap
     ethr =  1.00E-02,  avg # of iterations =  5.9

     negative rho (up, down):  0.114E+01 0.000E+00

     total energy              =   -4006.86124390 Ry
     Harris-Foulkes estimate   =   -4203.32894264 Ry
     estimated scf accuracy    <     389.44384188 Ry

[...]

     End of self-consistent calculation

          k = 0.0000 0.0000 0.0000 ( 41487 PWs)   bands (ev):

   -72.7088 -72.6978 -72.5254 -72.5152 -72.3534 -72.3429 -72.3291 -72.3240
   -72.3184 -72.3139 -72.3083 -72.2959 -72.2666 -72.2455 -72.0456 -72.0350
   -42.8860 -42.7024 -42.6745 -42.6596 -42.5915 -42.5849 -42.5790 -42.5781
   -42.5533 -42.5444 -42.5413 -42.5345 -42.5256 -42.5210 -42.5197 -42.5182
   -42.5090 -42.5080 -42.5061 -42.4175 -42.4062 -42.3947 -42.3715 -42.3465
   -42.3369 -42.3293 -42.2821 -42.2158 -42.2143 -42.1859 -42.1780 -42.1716
   -42.1693 -42.1607 -42.1554 -42.1528 -42.1500 -42.1250 -42.1146 -42.1038
   -42.0996 -42.0730 -42.0612 -42.0555 -41.9760 -41.9690 -41.8902 -41.8598
   -21.4814 -18.8792 -18.6686 -18.4324 -18.4122 -18.2698 -18.1283 -17.9250
   -17.8708 -17.8227 -17.7963 -17.6607 -17.6306 -17.6117 -17.5797 -17.5765
   -17.5381 -17.5068 -17.4951 -17.4666 -17.4663 -17.4212 -17.3062 -17.2739
   -17.1369 -17.0597 -17.0057 -16.9905 -16.9580 -16.9151 -16.5486 -16.2232
   -16.1563 -15.3341  -7.0639  -7.0418  -7.0212  -6.9979  -6.8837  -6.8025
    -6.7668  -6.1577  -6.0620  -5.9032  -5.8785  -5.8421  -5.8142  -5.7381
    -5.7149  -5.7081  -5.6498  -5.6220  -5.6102  -5.6007  -5.5723  -5.5620
    -5.5551  -5.5018  -5.4851  -5.4766  -5.4382  -5.4292  -5.3712  -5.2608
    -5.2443  -5.2114  -5.1204  -5.1183  -5.1014  -4.9901  -4.9498  -4.8915
    -4.5755  -4.4507  -4.4452  -4.4028  -4.3640  -3.7866  -3.7761  -3.7218
    -3.6210  -3.6115  -3.5556  -3.5298  -3.5291  -3.5063  -3.5009  -3.4806
    -3.3190  -3.3141  -3.2428  -3.1384  -3.0790  -3.0474  -2.9984  -2.9733
    -2.9656  -2.9603  -2.8889  -2.8295  -2.7650  -2.7146  -2.6105  -2.5300
[...]
O0       0.000000000   0.000000000   0.421800000    0   0   0
Ru1      0.250000000   0.000000000   0.455570000    0   0   0
Ru1      0.000000000   0.500000000   0.455570000    0   0   0
O0       0.250000000   0.690000000   0.455570000    0   0   0
O0       0.250000000   0.310000000   0.455570000    0   0   0
O0       0.000000000   0.000000000   0.489340000    0   0   0
O0       0.000000000   0.498329427   0.509835021
Ru1      0.253422603   0.497476014   0.544002198
Ru1      0.000000000  -0.002071046   0.543869388
O0       0.250656287   0.804069176   0.543965614
O0       0.250817479   0.191499458   0.544002116
O0       0.000000000   0.495606469   0.577274896
O0       0.000000000  -0.000621595   0.598069951
Ru1      0.244375092  -0.003094412   0.635021080
Ru1      0.000000000   0.497713263   0.629048342
O0       0.245072191   0.688888196   0.633133835
O0       0.247713711   0.307412519   0.635063635
O0       0.000000000  -0.003284289   0.668066652
O0       0.500000000   0.500000000   0.332930000    0   0   0
Ru1      0.750000000   0.500000000   0.366700000    0   0   0
Ru1      0.500000000   0.000000000   0.366700000    0   0   0
O0       0.750000000   0.810000000   0.366700000    0   0   0
O0       0.750000000   0.190000000   0.366700000    0   0   0
O0       0.500000000   0.500000000   0.400470000    0   0   0
O0       0.500000000   0.000000000   0.421800000    0   0   0
Ru1      0.750000000   0.000000000   0.455570000    0   0   0
Ru1      0.500000000   0.500000000   0.455570000    0   0   0
O0       0.750000000   0.690000000   0.455570000    0   0   0
O0       0.750000000   0.310000000   0.455570000    0   0   0
O0       0.500000000   0.000000000   0.489340000    0   0   0
O0       0.500000000   0.498547346   0.509523013
Ru1      0.746577397   0.497476014   0.544002198
Ru1      0.500000000  -0.002076059   0.544605161
O0       0.749343713   0.804069176   0.543965614
O0       0.749182521   0.191499458   0.544002116
O0       0.500000000   0.496521173   0.579381988
O0       0.500000000  -0.001290449   0.598331117
Ru1      0.755624908  -0.003094412   0.635021080
Ru1      0.500000000   0.498141955   0.635298508
O0       0.754927809   0.688888196   0.633133835
O0       0.752286289   0.307412519   0.635063635
O0       0.500000000  -0.007595154   0.662686811
O0       0.500000000   0.530208877   0.688129996
O0       0.500000000   0.337120386   0.709381076
H2       0.500000000   0.397097960   0.734601799

     Check: negative starting charge=   -1.047300
     NEW-OLD atomic charge density approx. for the potential

     Check: negative/imaginary core charge=   -0.000004    0.000000
     Check: negative starting charge=   -1.047310

[...]

     Self-consistent Calculation

[...]

     total energy              =   -4189.73475923 Ry
     Harris-Foulkes estimate   =   -4189.73475923 Ry
     estimated scf accuracy    <       0.00000003 Ry

     iteration # 26     ecut=    40.00 Ry     beta=0.30
     Davidson diagonalization with overlap
     ethr =  2.28E-12,  avg # of iterations =  1.0

     negative rho (up, down):  0.116E+01 0.000E+00

     End of self-consistent calculation

[...]

          k = 0.2500-0.4870 0.0000 ( 41596 PWs)   bands (ev):

[...]

          k =-0.5000-0.4870 0.0000 ( 41560 PWs)   bands (ev):

   -72.7053 -72.7026 -72.5231 -72.5231 -72.3521 -72.3521 -72.3235 -72.3218
   -72.3209 -72.3083 -72.3047 -72.3017 -72.2679 -72.2542 -72.0430 -72.0420
   -42.8035 -42.7828 -42.6705 -42.6676 -42.5870 -42.5870 -42.5696 -42.5516
   -42.5471 -42.5469 -42.5342 -42.5296 -42.5284 -42.5270 -42.5175 -42.5175
   -42.5073 -42.4966 -42.4957 -42.4948 -42.3762 -42.3609 -42.3608 -42.3096
   -42.3095 -42.2595 -42.2454 -42.2440 -42.2376 -42.2162 -42.2039 -42.2019
   -42.1951 -42.1767 -42.1739 -42.1643 -42.1455 -42.1415 -42.1089 -42.0989
   -42.0859 -42.0708 -42.0695 -42.0670 -42.0658 -41.9646 -41.8793 -41.8768
   -21.4959 -18.4185 -18.1660 -18.1308 -18.1145 -17.9859 -17.9089 -17.8908
   -17.8240 -17.7386 -17.7174 -17.6908 -17.6807 -17.6524 -17.6295 -17.5959
   -17.5902 -17.5633 -17.5296 -17.5127 -17.5058 -17.5037 -17.4702 -17.4563
   -17.4424 -17.3913 -17.3819 -17.3655 -17.2847 -16.9724 -16.7030 -16.2804
   -16.2762 -15.3192  -6.7791  -6.3677  -6.3633  -6.2259  -6.1686  -5.8432
    -5.7738  -5.7338  -5.7192  -5.6455  -5.6231  -5.6218  -5.5973  -5.5880
    -5.5873  -5.5788  -5.5785  -5.5542  -5.5219  -5.5013  -5.4785  -5.3245
    -5.2875  -5.2845  -5.2670  -5.2200  -5.2173  -5.1964  -5.1497  -5.1392
    -5.0640  -4.9345  -4.9116  -4.9080  -4.8915  -4.8742  -4.8586  -4.8555
    -4.8351  -4.8192  -4.7853  -4.7352  -4.4620  -4.3689  -4.3521  -4.2888
    -4.2324  -4.1256  -4.1134  -4.0306  -3.8368  -3.7718  -3.7710  -3.7115
    -3.6477  -3.6302  -3.5908  -3.5027  -3.4431  -3.4405  -3.4298  -3.4244
    -3.4124  -3.4110  -3.3713  -3.3281  -3.3203  -3.2146  -3.1402  -3.1315
    -3.0730  -3.0467  -3.0349  -3.0073  -2.9852  -2.6984  -2.6776  -2.6489
    -2.6208  -2.2352  -2.0981  -2.0197  -2.0110  -1.9470  -1.8927  -1.8602
    -1.7915  -1.7379  -1.6939  -1.6520  -1.5863  -1.5115  -1.4665  -1.4572
    -1.4201  -1.3788  -1.3763  -1.3522  -1.2293  -1.2021  -0.2853  -0.1312
    -0.0454  -0.0063   0.0840   0.1899   0.2259   0.2839   0.3988   0.4946
     0.5361   0.5416   0.5658   0.6254   0.6399   0.7155   0.8527   0.9256
     0.9500   1.0682   1.0688   1.1462   1.1878   1.1899   1.2067   1.2477
     1.2717   1.2733   1.2860   1.3032   1.3474   1.3724   1.3809   1.4074
     1.4276   1.4902   1.5296   1.6350   1.6556   1.6623   1.6679   1.7608
     1.7723   1.7880   1.8322   1.8652   1.8929   1.9296   1.9494   2.6020
     2.6028   3.0780   3.6074   3.6850   3.7491   3.7767   3.7863   3.7872
     3.8449   3.8462   3.8877   4.0253   4.0384   4.1178   4.3885   4.5626
     4.6731   4.7710   4.8430   5.0451   5.0787   5.1064   5.2091   5.5012
     5.5546   5.5941   5.5953   5.7694   5.8233   5.8416   5.9037   5.9155
     6.4090   7.1943   7.1944   7.2596   7.5945   7.6101   7.8215   7.8217
     7.9544   7.9701   8.0543   8.0724   8.2904   8.3225   8.3319   8.3992
     8.7132   8.7355   8.8098   8.9197   9.1988   9.2777   9.3894   9.5494
     9.7351   9.8119   9.8637   9.9377  10.1193  10.1587  10.1644  10.3110
    10.3149  10.3696  10.3730  10.4835  10.8825  10.9316  10.9543  11.0300
    11.1507  11.1802  11.1953  11.2589  11.7052  11.7152  11.7545  11.8279
    12.1551  12.1599  12.1901  12.2885  12.6295  12.8748  12.9042  13.0012
    13.2047  13.2378  13.2398  13.2980  13.4336  13.5375  13.5969  13.6932
    13.9038  13.9373  14.0320  14.0619  14.0869  14.1134  14.1366  14.1574
    14.2168  14.2382  14.3068  14.4004  14.4061  14.4267  14.4494  14.4741
    14.4949  14.5745  14.5815  14.6228  14.7152  14.8185  14.8469  14.8931
    14.9053  14.9577  14.9772  15.0302  15.0382  15.0412  15.0535  15.0915
    15.1065  15.1620  15.1847  15.1998  15.2074  15.2723  15.3500  15.3540
    15.3903  15.4126  15.4290  15.4745  15.5016  15.5126  15.5689  15.5830
    15.6328  15.6468  15.7261  15.7362  15.7480  15.7702  15.7817  15.8934
    15.9056  15.9529  15.9863  16.0072  16.0268  16.0646  16.1260  16.1360
    16.1886  16.2249  16.2471  16.2691  16.2723  16.2848  16.3014  16.3225
    16.3943  16.4079  16.4158  16.4501  16.4734  16.4857  16.5466  16.6265
    16.7560  16.7717  16.8394  16.8955  16.9048  16.9075  16.9271  16.9809
    17.0264  17.0274  17.0817  17.0820  17.2590  17.3038  17.3205  17.3246
    17.4909  17.5205  17.5330  17.6645  17.6762  17.7381  17.7919  17.8153
    17.9276  17.9685  17.9741  18.0517  18.1311  18.1707  18.1725  18.1828
    18.2692  18.3025  18.3871  18.4513  18.4777  18.4897  18.5403  18.5703
    18.5987  18.6550  18.6991  18.7388  18.8328  18.8395  18.8953  19.0375
    19.1292  19.1799  19.2333  19.2558  19.3053  19.3178  19.3688  19.3892
[...]
    23.3325  23.3373  23.3441  23.3690  23.4591  23.4738  23.4909  23.6281
    23.7312  23.7355  23.7743  23.8307  23.8674  23.8818  23.9012  23.9696
    23.9879  23.9959  24.0263  24.0459  24.1006  24.1386  24.1764  24.2299
    24.2417  24.2507  24.2820  24.4093  24.5032  24.5191  24.5545  24.5712
    24.5972  24.6436  24.6468  24.6790  24.7019  24.7042  24.8525  24.8841
    24.8877  24.9938  25.0119  25.0509  25.0785  25.1213  25.1650  25.2529
    25.3436  25.3452  25.4158  25.4212  25.4479  25.5222  25.5267  25.5683
    25.5894  25.6139  25.6471  25.6914  25.7127  25.7553  25.7722  25.8028
    25.8974  25.9017  26.0290  26.0558  26.0581  26.1738  26.2217  26.2579
    26.2880  26.3145  26.3497  26.4857  26.5097  26.5914  26.5972  26.6784
    26.7221  26.7408  26.8055  26.9105  26.9639  27.0158  27.0224  27.0879
    27.1225  27.1514  27.1900  27.1913  27.2349  27.2357  27.3084  27.3189
    27.4103  27.4491  27.5170  27.5363  27.5656  27.5940  27.6061  27.6335
    27.7000  27.7781  27.7907  27.8283  27.8591  27.8872  27.9150  27.9331
    27.9963  28.0546  28.0638

     the Fermi energy is     1.2505 ev

!    total energy              =   -4189.73475922 Ry
     Harris-Foulkes estimate   =   -4189.73475923 Ry
     estimated scf accuracy    <          6.2E-09 Ry

     The total energy is the sum of the following terms:

     one-electron contribution =  -87488.35203375 Ry
     hartree contribution      =   43811.73403660 Ry
     xc contribution           =    -641.64387370 Ry
     ewald contribution        =   40128.52983174 Ry
     smearing contrib. (-TS)   =      -0.00272010 Ry

     convergence has been achieved in  26 iterations

     Forces acting on atoms (Ry/au):

     negative rho (up, down):  0.116E+01 0.000E+00
     atom    1 type  1   force =     0.00000000   -0.00012722    0.05397567
     atom    2 type  2   force =    -0.00126329   -0.00012949   -0.08752996
     atom    3 type  2   force =     0.00000000   -0.00005600    0.08292651
     atom    4 type  1   force =    -0.00010772   -0.00427106   -0.02551668
     atom    5 type  1   force =    -0.00008800    0.00426379   -0.02558866
     atom    6 type  1   force =     0.00000000    0.00019611    0.03960492
     atom    7 type  1   force =     0.00000000   -0.00012524   -0.03086076
     atom    8 type  2   force =     0.00151909    0.00066885   -0.02184059
     atom    9 type  2   force =     0.00000000   -0.00049743   -0.00581516
     atom   10 type  1   force =    -0.00060958    0.02281414   -0.00184933
     atom   11 type  1   force =    -0.00061522   -0.02300098   -0.00275168
     atom   12 type  1   force =     0.00000000   -0.00129630    0.02710317
     atom   13 type  1   force =     0.00000000    0.00023376    0.00044729
     atom   14 type  2   force =     0.00009686    0.00009800    0.00027169
     atom   15 type  2   force =     0.00000000    0.00000755    0.00010502
     atom   16 type  1   force =     0.00006114    0.00007701    0.00048338
     atom   17 type  1   force =     0.00005448   -0.00004080   -0.00031114
     atom   18 type  1   force =     0.00000000   -0.00016892   -0.00053037
     atom   19 type  1   force =     0.00000000    0.00029578    0.00011753
     atom   20 type  2   force =     0.00013678    0.00014432   -0.00011045
     atom   21 type  2   force =     0.00000000    0.00028352   -0.00063435
     atom   22 type  1   force =     0.00013074    0.00022028   -0.00039242
     atom   23 type  1   force =     0.00014006    0.00018080   -0.00016611
     atom   24 type  1   force =     0.00000000   -0.00043173   -0.00052948
     atom   25 type  1   force =     0.00000000    0.00011027    0.05579066
     atom   26 type  2   force =     0.00126329   -0.00012949   -0.08752996
     atom   27 type  2   force =     0.00000000    0.00000348    0.08313996
     atom   28 type  1   force =     0.00010772   -0.00427106   -0.02551668
     atom   29 type  1   force =     0.00008800    0.00426379   -0.02558866
     atom   30 type  1   force =     0.00000000    0.00007168    0.03836141
     atom   31 type  1   force =     0.00000000   -0.00002909   -0.03073339
     atom   32 type  2   force =    -0.00151909    0.00066885   -0.02184059
     atom   33 type  2   force =     0.00000000   -0.00011780   -0.01317316
     atom   34 type  1   force =     0.00060958    0.02281414   -0.00184933
     atom   35 type  1   force =     0.00061522   -0.02300098   -0.00275168
     atom   36 type  1   force =     0.00000000   -0.00150727    0.02948194
     atom   37 type  1   force =     0.00000000    0.00002758    0.00020576
     atom   38 type  2   force =    -0.00009686    0.00009800    0.00027169
     atom   39 type  2   force =     0.00000000    0.00011975   -0.00026945
     atom   40 type  1   force =    -0.00006114    0.00007701    0.00048338
     atom   41 type  1   force =    -0.00005448   -0.00004080   -0.00031114
     atom   42 type  1   force =     0.00000000   -0.00006162    0.00090479
     atom   43 type  1   force =     0.00000000    0.00078286   -0.00025570
     atom   44 type  2   force =    -0.00013678    0.00014432   -0.00011045
     atom   45 type  2   force =     0.00000000    0.00020703   -0.00012734
     atom   46 type  1   force =    -0.00013074    0.00022028   -0.00039242
     atom   47 type  1   force =    -0.00014006    0.00018080   -0.00016611
     atom   48 type  1   force =     0.00000000   -0.00050970    0.00033540
     atom   49 type  1   force =     0.00000000    0.00008099    0.00063799
     atom   50 type  1   force =     0.00000000    0.00017142   -0.00011465
     atom   51 type  3   force =     0.00000000    0.00028684    0.00050973

     Total force =     0.002463     Total SCF correction =     0.000316
     SCF correction compared to forces is large: reduce conv_thr to get better values

     bfgs converged in  17 scf cycles and  16 bfgs steps
     (criteria: energy < 0.10E-03, force < 0.10E-02)

     End of BFGS Geometry Optimization

     Final energy   =   -4189.7347592203 Ry
Begin final coordinates

ATOMIC_POSITIONS (crystal)
O0       0.000000000   0.500000000   0.332930000    0   0   0
Ru1      0.250000000   0.500000000   0.366700000    0   0   0
Ru1      0.000000000   0.000000000   0.366700000    0   0   0
O0       0.250000000   0.810000000   0.366700000    0   0   0
O0       0.250000000   0.190000000   0.366700000    0   0   0
O0       0.000000000   0.500000000   0.400470000    0   0   0
O0       0.000000000   0.000000000   0.421800000    0   0   0
Ru1      0.250000000   0.000000000   0.455570000    0   0   0
Ru1      0.000000000   0.500000000   0.455570000    0   0   0
O0       0.250000000   0.690000000   0.455570000    0   0   0
O0       0.250000000   0.310000000   0.455570000    0   0   0
O0       0.000000000   0.000000000   0.489340000    0   0   0
O0       0.000000000   0.498329427   0.509835021
Ru1      0.253422603   0.497476014   0.544002198
Ru1      0.000000000  -0.002071046   0.543869388
O0       0.250656287   0.804069176   0.543965614
O0       0.250817479   0.191499458   0.544002116
O0       0.000000000   0.495606469   0.577274896
O0       0.000000000  -0.000621595   0.598069951
Ru1      0.244375092  -0.003094412   0.635021080
Ru1      0.000000000   0.497713263   0.629048342
O0       0.245072191   0.688888196   0.633133835
O0       0.247713711   0.307412519   0.635063635
O0       0.000000000  -0.003284289   0.668066652
O0       0.500000000   0.500000000   0.332930000    0   0   0
Ru1      0.750000000   0.500000000   0.366700000    0   0   0
Ru1      0.500000000   0.000000000   0.366700000    0   0   0
O0       0.750000000   0.810000000   0.366700000    0   0   0
O0       0.750000000   0.190000000   0.366700000    0   0   0
O0       0.500000000   0.500000000   0.400470000    0   0   0
O0       0.500000000   0.000000000   0.421800000    0   0   0
Ru1      0.750000000   0.000000000   0.455570000    0   0   0
Ru1      0.500000000   0.500000000   0.455570000    0   0   0
O0       0.750000000   0.690000000   0.455570000    0   0   0
O0       0.750000000   0.310000000   0.455570000    0   0   0
O0       0.500000000   0.000000000   0.489340000    0   0   0
O0       0.500000000   0.498547346   0.509523013
Ru1      0.746577397   0.497476014   0.544002198
Ru1      0.500000000  -0.002076059   0.544605161
O0       0.749343713   0.804069176   0.543965614
O0       0.749182521   0.191499458   0.544002116
O0       0.500000000   0.496521173   0.579381988
O0       0.500000000  -0.001290449   0.598331117
Ru1      0.755624908  -0.003094412   0.635021080
Ru1      0.500000000   0.498141955   0.635298508
O0       0.754927809   0.688888196   0.633133835
O0       0.752286289   0.307412519   0.635063635
O0       0.500000000  -0.007595154   0.662686811
O0       0.500000000   0.530208877   0.688129996
O0       0.500000000   0.337120386   0.709381076
H2       0.500000000   0.397097960   0.734601799
End final coordinates

     General routines

     Parallel routines

   This run was terminated on:   3: 9:58  18Jun2014

   JOB DONE.