     Program PWSCF v.5.0.2 (svn rev. 9656) starts on 24Jan2014 at 15:13:33

     Current dimensions of program PWSCF are:
     Max number of different atomic species (ntypx) = 10
     Max number of k-points (npk) =  40000
     Max angular momentum in pseudopotentials (lmaxx) =  3
     Reading input from ReO2-v-0.90.in

     Subspace diagonalization in iterative solution of the eigenvalue problem:
     a serial algorithm will be used

     bravais-lattice index     =            0
     lattice parameter (alat)  =       8.4762  a.u.
     unit-cell volume          =     392.4514 (a.u.)^3
     number of atoms/cell      =            6
     number of atomic types    =            2
     number of electrons       =        54.00
     number of Kohn-Sham states=           81
     kinetic-energy cutoff     =      40.0000  Ry
     charge density cutoff     =     500.0000  Ry
     convergence threshold     =      1.0E-06
     mixing beta               =       0.3000
     number of iterations used =            8  plain     mixing
     Exchange-correlation      = SLA  PW   PBE  PBE ( 1 4 3 4 0)
     EXX-fraction              =        0.00
     nstep                     =           50

     celldm(1)=   8.476179  celldm(2)=   0.000000  celldm(3)=   0.000000
     celldm(4)=   0.000000  celldm(5)=   0.000000  celldm(6)=   0.000000

     crystal axes: (cart. coord. in units of alat)
               a(1) = (   1.000000   0.000000   0.000000 )
               a(2) = (   0.000000   1.000000   0.000000 )
               a(3) = (   0.000000   0.000000   0.644444 )

     reciprocal axes: (cart. coord. in units 2 pi/alat)
               b(1) = (  1.000000  0.000000  0.000000 )
               b(2) = (  0.000000  1.000000  0.000000 )
               b(3) = (  0.000000  0.000000  1.551724 )

     PseudoPot. # 1 for Re read from file:
     /home/camp/zhonxu/pseudo/re_pbe_v1.uspp.F.UPF
     MD5 check sum: 6f5a5dcaf9c96c20d0ffdde0de57afc6
     Pseudo is Ultrasoft + core correction, Zval = 15.0
     Generated by new atomic code, or converted to UPF format
     Using radial grid of  981 points,  8 beta functions with:
                l(1) =   0
                l(2) =   0
                l(3) =   1
                l(4) =   1
                l(5) =   2
                l(6) =   2
                l(7) =   3
                l(8) =   3
     Q(r) pseudized with  8 coefficients,  rinner =    1.000   1.000   1.000
                                                       1.000   1.000   1.000
                                                       1.000

     PseudoPot. # 2 for O  read from file:
     /home/camp/zhonxu/pseudo/o_pbe_v1.01.uspp.F.UPF
     MD5 check sum: 2bcb18d16ea4b960afae9ec6d52f22d2
     Pseudo is Ultrasoft + core correction, Zval =  6.0
     Generated by new atomic code, or converted to UPF format
     Using radial grid of  737 points,  5 beta functions with:
                l(1) =   0
                l(2) =   0
                l(3) =   1
                l(4) =   1
                l(5) =   2
     Q(r) pseudized with  8 coefficients,  rinner =    0.900   0.900   0.900
                                                       0.900   0.900

     atomic species   valence    mass     pseudopotential
        Re0           15.00   186.20700     Re( 1.00)
        O1             6.00    15.99940     O ( 1.00)

     Starting magnetic structure
     atomic species   magnetization
        Re0          0.000
        O1           0.000

     16 Sym. Ops., with inversion, found ( 8 have fractional translation)

   Cartesian axes

     site n.     atom                  positions (alat units)
         1           Re0 tau(   1) = (   0.0000000   0.0000000   0.0000000  )
         2           Re0 tau(   2) = (   0.5000000   0.5000000   0.3222222  )
         3           O1  tau(   3) = (   0.3050000   0.3050000   0.0000000  )
         4           O1  tau(   4) = (  -0.3050000  -0.3050000   0.0000000  )
         5           O1  tau(   5) = (   0.8050000   0.1950000   0.3222222  )
         6           O1  tau(   6) = (   0.1950000   0.8050000   0.3222222  )

     number of k points=    36  Methfessel-Paxton smearing, width (Ry)=  0.0100
                       cart. coord. in units 2pi/alat
        k(    1) = (   0.0000000   0.0000000   0.0000000), wk =   0.0080000
        k(    2) = (   0.0000000   0.0000000   0.3103448), wk =   0.0160000
        k(    3) = (   0.0000000   0.0000000   0.6206897), wk =   0.0160000
        k(    4) = (   0.0000000   0.2000000   0.0000000), wk =   0.0320000
        k(    5) = (   0.0000000   0.2000000   0.3103448), wk =   0.0640000
        k(    6) = (   0.0000000   0.2000000   0.6206897), wk =   0.0640000
        k(    7) = (   0.0000000   0.4000000   0.0000000), wk =   0.0320000
        k(    8) = (   0.0000000   0.4000000   0.3103448), wk =   0.0640000
        k(    9) = (   0.0000000   0.4000000   0.6206897), wk =   0.0640000
        k(   10) = (   0.2000000   0.2000000   0.0000000), wk =   0.0320000
        k(   11) = (   0.2000000   0.2000000   0.3103448), wk =   0.0640000
        k(   12) = (   0.2000000   0.2000000   0.6206897), wk =   0.0640000
        k(   13) = (   0.2000000   0.4000000   0.0000000), wk =   0.0640000
        k(   14) = (   0.2000000   0.4000000   0.3103448), wk =   0.1280000
        k(   15) = (   0.2000000   0.4000000   0.6206897), wk =   0.1280000
        k(   16) = (   0.4000000   0.4000000   0.0000000), wk =   0.0320000
        k(   17) = (   0.4000000   0.4000000   0.3103448), wk =   0.0640000
        k(   18) = (   0.4000000   0.4000000   0.6206897), wk =   0.0640000
        k(   19) = (   0.0000000   0.0000000   0.0000000), wk =   0.0080000
        k(   20) = (   0.0000000   0.0000000   0.3103448), wk =   0.0160000
        k(   21) = (   0.0000000   0.0000000   0.6206897), wk =   0.0160000
        k(   22) = (   0.0000000   0.2000000   0.0000000), wk =   0.0320000
        k(   23) = (   0.0000000   0.2000000   0.3103448), wk =   0.0640000
        k(   24) = (   0.0000000   0.2000000   0.6206897), wk =   0.0640000
        k(   25) = (   0.0000000   0.4000000   0.0000000), wk =   0.0320000
        k(   26) = (   0.0000000   0.4000000   0.3103448), wk =   0.0640000
        k(   27) = (   0.0000000   0.4000000   0.6206897), wk =   0.0640000
        k(   28) = (   0.2000000   0.2000000   0.0000000), wk =   0.0320000
        k(   29) = (   0.2000000   0.2000000   0.3103448), wk =   0.0640000
        k(   30) = (   0.2000000   0.2000000   0.6206897), wk =   0.0640000
        k(   31) = (   0.2000000   0.4000000   0.0000000), wk =   0.0640000
        k(   32) = (   0.2000000   0.4000000   0.3103448), wk =   0.1280000
        k(   33) = (   0.2000000   0.4000000   0.6206897), wk =   0.1280000
        k(   34) = (   0.4000000   0.4000000   0.0000000), wk =   0.0320000
        k(   35) = (   0.4000000   0.4000000   0.3103448), wk =   0.0640000
        k(   36) = (   0.4000000   0.4000000   0.6206897), wk =   0.0640000

     Largest allocated arrays     est. size (Mb)     dimensions
     Largest temporary arrays     est. size (Mb)     dimensions

     Check: negative/imaginary core charge=   -0.000004    0.000000

     Initial potential from superposition of free atoms
     Check: negative starting charge=(component1):   -0.029426
     Check: negative starting charge=(component2):   -0.029426

     starting charge   52.99990, renormalised to   54.00000

     negative rho (up, down):  0.300E-01 0.300E-01
     Starting wfc are   42 randomized atomic wfcs

     Self-consistent Calculation

     iteration #  1     ecut=    40.00 Ry     beta=0.30
     Davidson diagonalization with overlap
     ethr =  1.00E-02,  avg # of iterations =  5.1

     negative rho (up, down):  0.317E-01 0.317E-01

     total energy              =    -518.15760877 Ry
     Harris-Foulkes estimate   =    -518.62474007 Ry
     estimated scf accuracy    <       1.06565039 Ry

     total magnetization       =     0.00 Bohr mag/cell
     absolute magnetization    =     0.00 Bohr mag/cell

[...]

     End of self-consistent calculation

 ------ SPIN UP ------------

          k = 0.0000 0.0000 0.0000 (  1667 PWs)   bands (ev):

   -63.7337 -63.7270 -25.8219 -25.8219 -25.7336 -25.6857 -25.6409 -25.6409
    -5.4177  -4.2139  -2.5858  -2.5858   6.2246   6.4910   7.7895   8.5671
     8.5671  11.1308  11.1308  11.7629  12.9244  13.1039  13.1039  13.7486
    15.7166  15.7871  16.7227  16.8974  16.8974  20.7990  20.8787  21.7187
    24.3363  24.3363  25.7995  25.7995  26.0873  29.8853  30.6830  31.4620
    33.0425  33.3448  34.3598  34.3598  36.8321  37.3320  37.9431  37.9431
    39.0313  39.0313  40.0588  44.6742  44.8081  44.8081  45.5798  45.6860
    47.3956  48.4097  48.4097  49.1415  49.2226  49.2226  49.6065  50.4973
    50.5493  51.4036  51.6158  51.6158  54.6339  56.6560  56.9295  56.9295
    57.8759  57.8759  58.0184  58.6026  58.6926  58.9299  58.9528  58.9528
    60.3197

[...]

 ------ SPIN DOWN ----------

[...]

     the Fermi energy is    17.7706 ev

!    total energy              =    -518.35258648 Ry
     Harris-Foulkes estimate   =    -518.35257080 Ry
     estimated scf accuracy    <       0.00000026 Ry

     The total energy is the sum of the following terms:

     one-electron contribution =    -101.05383802 Ry
     hartree contribution      =      85.97367306 Ry
     xc contribution           =    -143.40259193 Ry
     ewald contribution        =    -359.86922777 Ry
     smearing contrib. (-TS)   =      -0.00060182 Ry

[...]

     convergence has been achieved in   7 iterations

     Forces acting on atoms (Ry/au):

     negative rho (up, down):  0.294E-01 0.294E-01
     atom    1 type  1   force =     0.00000000    0.00000000    0.00000000
     atom    2 type  1   force =     0.00000000    0.00000000   -0.00000000
     atom    3 type  2   force =    -0.08989988   -0.08989988   -0.00000000
     atom    4 type  2   force =     0.08989988    0.08989988   -0.00000000
     atom    5 type  2   force =    -0.08989988    0.08989988   -0.00000000
     atom    6 type  2   force =     0.08989988   -0.08989988    0.00000000

     Total force =     0.254275     Total SCF correction =     0.000245

     entering subroutine stress ...

     negative rho (up, down):  0.294E-01 0.294E-01
          total   stress  (Ry/bohr**3)                   (kbar)     P=  581.87
   0.00379279   0.00000000   0.00000000        557.94      0.00      0.00
   0.00000000   0.00379279   0.00000000          0.00    557.94      0.00
   0.00000000   0.00000000   0.00428087          0.00      0.00    629.74

     Volume is kept fixed: isostatic pressure set to zero

     BFGS Geometry Optimization

     number of scf cycles    =   1
     number of bfgs steps    =   0

     enthalpy new            =    -518.3525864808 Ry

     new trust radius        =       0.1271376353 bohr
     new conv_thr            =       0.0000010000 Ry

     new unit-cell volume =    392.45142 a.u.^3 (    58.15530 Ang^3 )

CELL_PARAMETERS (alat=  8.47617942)
   0.995949074   0.000000000   0.000000000
   0.000000000   0.995949074   0.000000000
   0.000000000   0.000000000   0.649697536

ATOMIC_POSITIONS (crystal)
Re0      0.000000000   0.000000000   0.000000000    0   0   0
[...]
        k(   27) = (   0.0000000   0.3758011   0.7031991), wk =   0.0640000
        k(   28) = (   0.1879006   0.1879006   0.0000000), wk =   0.0320000
        k(   29) = (   0.1879006   0.1879006   0.3515995), wk =   0.0640000
        k(   30) = (   0.1879006   0.1879006   0.7031991), wk =   0.0640000
        k(   31) = (   0.1879006   0.3758011   0.0000000), wk =   0.0640000
        k(   32) = (   0.1879006   0.3758011   0.3515995), wk =   0.1280000
        k(   33) = (   0.1879006   0.3758011   0.7031991), wk =   0.1280000
        k(   34) = (   0.3758011   0.3758011   0.0000000), wk =   0.0320000
        k(   35) = (   0.3758011   0.3758011   0.3515995), wk =   0.0640000
        k(   36) = (   0.3758011   0.3758011   0.7031991), wk =   0.0640000

[...]

     Threshold (ethr) on eigenvalues was too large:
     Diagonalizing with lowered threshold

     Davidson diagonalization with overlap
     ethr =  1.04E-09,  avg # of iterations =  1.2

[...]

     Total force =     0.000195     Total SCF correction =     0.000025
     SCF correction compared to forces is large: reduce conv_thr to get better values

[...]

     Volume is kept fixed: isostatic pressure set to zero
Begin final coordinates
     new unit-cell volume =    392.45142 a.u.^3 (    58.15530 Ang^3 )

[...]

ATOMIC_POSITIONS (crystal)
Re0      0.000000000   0.000000000   0.000000000    0   0   0
Re0      0.500000000   0.500000000   0.500000000    0   0   0
O1       0.279375943   0.279375943   0.000000000    1   1   0
O1      -0.279375943  -0.279375943   0.000000000    1   1   0
O1       0.779375943   0.220624057   0.500000000    1   1   0
O1       0.220624057   0.779375943   0.500000000    1   1   0
End final coordinates

     lsda relaxation :  a final configuration with zero
                        absolute magnetization has been found

     the program is checking if it is really the minimum energy structure
     by performing a new scf iteration without any "electronic" history

[...]

     negative rho (up, down):  0.294E-01 0.294E-01
     Starting wfc are   42 randomized atomic wfcs
     Check: negative starting charge=(component1):   -0.057773
     NEW-OLD atomic charge density approx. for the potential
     NEW k-points:
        k(    1) = (   0.0000000   0.0000000   0.0000000), wk =   0.0080000
        k(    2) = (   0.0000000   0.0000000   0.3515995), wk =   0.0160000
        k(    3) = (   0.0000000   0.0000000   0.7031991), wk =   0.0160000
        k(    4) = (   0.0000000   0.1879006   0.0000000), wk =   0.0320000
        k(    5) = (   0.0000000   0.1879006   0.3515995), wk =   0.0640000
        k(    6) = (   0.0000000   0.1879006   0.7031991), wk =   0.0640000
        k(    7) = (   0.0000000   0.3758011   0.0000000), wk =   0.0320000
        k(    8) = (   0.0000000   0.3758011   0.3515995), wk =   0.0640000
        k(    9) = (   0.0000000   0.3758011   0.7031991), wk =   0.0640000
        k(   10) = (   0.1879006   0.1879006   0.0000000), wk =   0.0320000
        k(   11) = (   0.1879006   0.1879006   0.3515995), wk =   0.0640000
        k(   12) = (   0.1879006   0.1879006   0.7031991), wk =   0.0640000
        k(   13) = (   0.1879006   0.3758011   0.0000000), wk =   0.0640000
        k(   14) = (   0.1879006   0.3758011   0.3515995), wk =   0.1280000
        k(   15) = (   0.1879006   0.3758011   0.7031991), wk =   0.1280000
        k(   16) = (   0.3758011   0.3758011   0.0000000), wk =   0.0320000
        k(   17) = (   0.3758011   0.3758011   0.3515995), wk =   0.0640000
        k(   18) = (   0.3758011   0.3758011   0.7031991), wk =   0.0640000
        k(   19) = (   0.0000000   0.0000000   0.0000000), wk =   0.0080000
        k(   20) = (   0.0000000   0.0000000   0.3515995), wk =   0.0160000
        k(   21) = (   0.0000000   0.0000000   0.7031991), wk =   0.0160000
        k(   22) = (   0.0000000   0.1879006   0.0000000), wk =   0.0320000
        k(   23) = (   0.0000000   0.1879006   0.3515995), wk =   0.0640000
        k(   24) = (   0.0000000   0.1879006   0.7031991), wk =   0.0640000
        k(   25) = (   0.0000000   0.3758011   0.0000000), wk =   0.0320000
        k(   26) = (   0.0000000   0.3758011   0.3515995), wk =   0.0640000
        k(   27) = (   0.0000000   0.3758011   0.7031991), wk =   0.0640000
        k(   28) = (   0.1879006   0.1879006   0.0000000), wk =   0.0320000
        k(   29) = (   0.1879006   0.1879006   0.3515995), wk =   0.0640000
        k(   30) = (   0.1879006   0.1879006   0.7031991), wk =   0.0640000
        k(   31) = (   0.1879006   0.3758011   0.0000000), wk =   0.0640000
        k(   32) = (   0.1879006   0.3758011   0.3515995), wk =   0.1280000
        k(   33) = (   0.1879006   0.3758011   0.7031991), wk =   0.1280000
        k(   34) = (   0.3758011   0.3758011   0.0000000), wk =   0.0320000
        k(   35) = (   0.3758011   0.3758011   0.3515995), wk =   0.0640000
        k(   36) = (   0.3758011   0.3758011   0.7031991), wk =   0.0640000

     Check: negative/imaginary core charge=   -0.000003    0.000000
     Check: negative starting charge=(component1):   -0.057773

[...]

     Volume is kept fixed: isostatic pressure set to zero

     bfgs converged in   9 scf cycles and   8 bfgs steps
     (criteria: energy < 0.10E-03, force < 0.10E-02, cell < 0.50E+00)

     End of BFGS Geometry Optimization

     Final enthalpy =    -518.4746471597 Ry
Begin final coordinates
     new unit-cell volume =    392.45142 a.u.^3 (    58.15530 Ang^3 )

CELL_PARAMETERS (alat=  8.47617942)
   1.064392699   0.000000000   0.000000000
   0.000000000   1.064392699   0.000000000
   0.000000000   0.000000000   0.568828975

ATOMIC_POSITIONS (crystal)
Re0      0.000000000   0.000000000   0.000000000    0   0   0
Re0      0.500000000   0.500000000   0.500000000    0   0   0
O1       0.279375943   0.279375943   0.000000000    1   1   0
O1      -0.279375943  -0.279375943   0.000000000    1   1   0
O1       0.779375943   0.220624057   0.500000000    1   1   0
O1       0.220624057   0.779375943   0.500000000    1   1   0
End final coordinates

     A final scf calculation at the relaxed structure.
     The G-vectors are recalculated for the final unit cell
     Results may differ from those at the preceding step.

     bravais-lattice index     =            0
     lattice parameter (alat)  =       8.4762  a.u.
     unit-cell volume          =     392.4514 (a.u.)^3
     number of atoms/cell      =            6
     number of atomic types    =            2
     number of electrons       =        54.00
     number of Kohn-Sham states=           81
     kinetic-energy cutoff     =      40.0000  Ry
     charge density cutoff     =     500.0000  Ry
     convergence threshold     =      1.0E-08
     mixing beta               =       0.3000
     number of iterations used =            8  plain     mixing
     Exchange-correlation      = SLA  PW   PBE  PBE ( 1 4 3 4 0)
     EXX-fraction              =        0.00

     celldm(1)=   8.476179  celldm(2)=   0.000000  celldm(3)=   0.000000
     celldm(4)=   0.000000  celldm(5)=   0.000000  celldm(6)=   0.000000

     crystal axes: (cart. coord. in units of alat)
               a(1) = (   1.064393   0.000000   0.000000 )
               a(2) = (   0.000000   1.064393   0.000000 )
               a(3) = (   0.000000   0.000000   0.568829 )

     reciprocal axes: (cart. coord. in units 2 pi/alat)
               b(1) = (  0.939503  0.000000  0.000000 )
               b(2) = (  0.000000  0.939503  0.000000 )
               b(3) = (  0.000000  0.000000  1.757998 )

     PseudoPot. # 1 for Re read from file:
     /home/camp/zhonxu/pseudo/re_pbe_v1.uspp.F.UPF
     MD5 check sum: 6f5a5dcaf9c96c20d0ffdde0de57afc6
     Pseudo is Ultrasoft + core correction, Zval = 15.0
     Generated by new atomic code, or converted to UPF format
     Using radial grid of  981 points,  8 beta functions with:
                l(1) =   0
                l(2) =   0
                l(3) =   1
                l(4) =   1
                l(5) =   2
                l(6) =   2
                l(7) =   3
                l(8) =   3
     Q(r) pseudized with  8 coefficients,  rinner =    1.000   1.000   1.000
                                                       1.000   1.000   1.000
                                                       1.000

     PseudoPot. # 2 for O  read from file:
     /home/camp/zhonxu/pseudo/o_pbe_v1.01.uspp.F.UPF
     MD5 check sum: 2bcb18d16ea4b960afae9ec6d52f22d2
     Pseudo is Ultrasoft + core correction, Zval =  6.0
     Generated by new atomic code, or converted to UPF format
     Using radial grid of  737 points,  5 beta functions with:
                l(1) =   0
                l(2) =   0
                l(3) =   1
                l(4) =   1
                l(5) =   2
     Q(r) pseudized with  8 coefficients,  rinner =    0.900   0.900   0.900
                                                       0.900   0.900

     atomic species   valence    mass     pseudopotential
        Re0           15.00   186.20700     Re( 1.00)
        O1             6.00    15.99940     O ( 1.00)

     Starting magnetic structure
     atomic species   magnetization
        Re0          0.000
        O1           0.000

     16 Sym. Ops., with inversion, found ( 8 have fractional translation)

   Cartesian axes

     site n.     atom                  positions (alat units)
         1           Re0 tau(   1) = (   0.0000000   0.0000000   0.0000000  )
         2           Re0 tau(   2) = (   0.5321963   0.5321963   0.2844145  )
         3           O1  tau(   3) = (   0.2973657   0.2973657   0.0000000  )
         4           O1  tau(   4) = (  -0.2973657  -0.2973657   0.0000000  )
         5           O1  tau(   5) = (   0.8295621   0.2348306   0.2844145  )
         6           O1  tau(   6) = (   0.2348306   0.8295621   0.2844145  )

     number of k points=    36  Methfessel-Paxton smearing, width (Ry)=  0.0100
                       cart. coord. in units 2pi/alat
        k(    1) = (   0.0000000   0.0000000   0.0000000), wk =   0.0080000
        k(    2) = (   0.0000000   0.0000000   0.3515995), wk =   0.0160000
        k(    3) = (   0.0000000   0.0000000   0.7031991), wk =   0.0160000
        k(    4) = (   0.0000000   0.1879006   0.0000000), wk =   0.0320000
        k(    5) = (   0.0000000   0.1879006   0.3515995), wk =   0.0640000
        k(    6) = (   0.0000000   0.1879006   0.7031991), wk =   0.0640000
        k(    7) = (   0.0000000   0.3758011   0.0000000), wk =   0.0320000
        k(    8) = (   0.0000000   0.3758011   0.3515995), wk =   0.0640000
        k(    9) = (   0.0000000   0.3758011   0.7031991), wk =   0.0640000
        k(   10) = (   0.1879006   0.1879006   0.0000000), wk =   0.0320000
        k(   11) = (   0.1879006   0.1879006   0.3515995), wk =   0.0640000
        k(   12) = (   0.1879006   0.1879006   0.7031991), wk =   0.0640000
        k(   13) = (   0.1879006   0.3758011   0.0000000), wk =   0.0640000
        k(   14) = (   0.1879006   0.3758011   0.3515995), wk =   0.1280000
        k(   15) = (   0.1879006   0.3758011   0.7031991), wk =   0.1280000
        k(   16) = (   0.3758011   0.3758011   0.0000000), wk =   0.0320000
        k(   17) = (   0.3758011   0.3758011   0.3515995), wk =   0.0640000
        k(   18) = (   0.3758011   0.3758011   0.7031991), wk =   0.0640000
        k(   19) = (   0.0000000   0.0000000   0.0000000), wk =   0.0080000
        k(   20) = (   0.0000000   0.0000000   0.3515995), wk =   0.0160000
        k(   21) = (   0.0000000   0.0000000   0.7031991), wk =   0.0160000
        k(   22) = (   0.0000000   0.1879006   0.0000000), wk =   0.0320000
        k(   23) = (   0.0000000   0.1879006   0.3515995), wk =   0.0640000
        k(   24) = (   0.0000000   0.1879006   0.7031991), wk =   0.0640000
        k(   25) = (   0.0000000   0.3758011   0.0000000), wk =   0.0320000
        k(   26) = (   0.0000000   0.3758011   0.3515995), wk =   0.0640000
        k(   27) = (   0.0000000   0.3758011   0.7031991), wk =   0.0640000
        k(   28) = (   0.1879006   0.1879006   0.0000000), wk =   0.0320000
        k(   29) = (   0.1879006   0.1879006   0.3515995), wk =   0.0640000
        k(   30) = (   0.1879006   0.1879006   0.7031991), wk =   0.0640000
        k(   31) = (   0.1879006   0.3758011   0.0000000), wk =   0.0640000
        k(   32) = (   0.1879006   0.3758011   0.3515995), wk =   0.1280000
        k(   33) = (   0.1879006   0.3758011   0.7031991), wk =   0.1280000
        k(   34) = (   0.3758011   0.3758011   0.0000000), wk =   0.0320000
        k(   35) = (   0.3758011   0.3758011   0.3515995), wk =   0.0640000
        k(   36) = (   0.3758011   0.3758011   0.7031991), wk =   0.0640000

     Largest allocated arrays     est. size (Mb)     dimensions
     Largest temporary arrays     est. size (Mb)     dimensions

     Check: negative/imaginary core charge=   -0.000004    0.000000

     Initial potential from superposition of free atoms
     Check: negative starting charge=(component1):   -0.029963
     Check: negative starting charge=(component2):   -0.029963

     starting charge   52.99990, renormalised to   54.00000

     negative rho (up, down):  0.305E-01 0.305E-01
     Starting wfc are   42 randomized atomic wfcs

     Self-consistent Calculation

[...]

     total energy              =    -518.47679360 Ry
     Harris-Foulkes estimate   =    -518.47679172 Ry
     estimated scf accuracy    <       0.00000001 Ry

[...]

     iteration # 10     ecut=    40.00 Ry     beta=0.30
     Davidson diagonalization with overlap
     ethr =  2.35E-11,  avg # of iterations =  1.0

     negative rho (up, down):  0.312E-01 0.312E-01

     End of self-consistent calculation

 ------ SPIN UP ------------

[...]

 ------ SPIN DOWN ----------

[...]

          k = 0.3758 0.3758 0.7032 (  1685 PWs)   bands (ev):

   -64.2952 -64.2951 -26.8966 -26.8959 -26.3238 -26.3198 -26.2755 -26.2724
    -3.6883  -3.4037  -3.1517  -2.8181   7.5391   8.0703   8.0808   8.5023
     8.7608   9.4355   9.6247  10.5855  11.5727  11.8067  12.8462  13.0682
    15.9129  16.1734  17.3312  17.7675  19.6207  19.7466  21.8027  22.8924
    23.2757  24.0807  26.3943  26.6860  27.3882  27.4823  31.2137  31.2191
    33.0796  33.2386  33.5690  33.9456  36.0289  36.6916  37.1923  37.8581
    40.6012  40.8692  41.5643  41.8135  44.1737  44.6977  45.6733  46.2853
    46.3102  46.6929  48.2126  48.9062  49.4197  49.8325  50.4472  50.5688
    51.1554  51.9192  52.0565  52.7354  53.7443  54.0544  54.3584  54.5596
    56.1853  57.1393  59.2852  60.2996  60.7514  60.8463  61.8775  62.0338
    63.4000

     the Fermi energy is    17.5653 ev

!    total energy              =    -518.47679540 Ry
     Harris-Foulkes estimate   =    -518.47679361 Ry
     estimated scf accuracy    <          9.2E-10 Ry

     The total energy is the sum of the following terms:

     one-electron contribution =    -106.62855956 Ry
     hartree contribution      =      88.24351808 Ry
     xc contribution           =    -143.30535404 Ry
     ewald contribution        =    -356.78617633 Ry
     smearing contrib. (-TS)   =      -0.00022356 Ry

     total magnetization       =     0.00 Bohr mag/cell
     absolute magnetization    =     0.00 Bohr mag/cell

     convergence has been achieved in  10 iterations

     Forces acting on atoms (Ry/au):

     negative rho (up, down):  0.312E-01 0.312E-01
     atom    1 type  1   force =     0.00000000    0.00000000    0.00000000
     atom    2 type  1   force =     0.00000000    0.00000000    0.00000000
     atom    3 type  2   force =    -0.00029366   -0.00029366    0.00000000
     atom    4 type  2   force =     0.00029366    0.00029366   -0.00000000
     atom    5 type  2   force =    -0.00029366    0.00029366    0.00000000
     atom    6 type  2   force =     0.00029366   -0.00029366    0.00000000

     Total force =     0.000831     Total SCF correction =     0.000003

     entering subroutine stress ...

     negative rho (up, down):  0.312E-01 0.312E-01
          total   stress  (Ry/bohr**3)                   (kbar)     P=  457.58
   0.00313500   0.00000000   0.00000000        461.17      0.00      0.00
   0.00000000   0.00313500   0.00000000          0.00    461.17      0.00
   0.00000000   0.00000000   0.00306164          0.00      0.00    450.38

     General routines

     Parallel routines

   This run was terminated on:  15:51: 5  24Jan2014

   JOB DONE.
Running PBS batch system epilogue script
Job id: 251989.audhumbla.fysik.dtu.dk
Username: zhonxu
Groupname: campgst
Jobname: ReO2/fine-EOS/non-mag/ReO2-v-0.90
Sessionid: 15419
Queuename: verylong
Accounting:
This job has allocated the following 4 nodes:
q083 q083 q083 q083
Finished epilogue job 251989.audhumbla.fysik.dtu.dk for zhonxu