     Program PWSCF v.5.0.2 (svn rev. 9656) starts on 28Apr2014 at  2:49:41

     Current dimensions of program PWSCF are:
     Max number of different atomic species (ntypx) = 10
     Max number of k-points (npk) =  40000
     Max angular momentum in pseudopotentials (lmaxx) =  3
     Reading input from pwscf.in
Warning: card &CELL ignored
Warning: card / ignored

     Subspace diagonalization in iterative solution of the eigenvalue problem:
     a serial algorithm will be used

     bravais-lattice index     =            0
     lattice parameter (alat)  =      12.2076  a.u.
     unit-cell volume          =    7496.5096 (a.u.)^3
     number of atoms/cell      =           31
     number of atomic types    =            3
     number of electrons       =       246.00
     number of Kohn-Sham states=          369
     kinetic-energy cutoff     =      40.0000  Ry
     charge density cutoff     =     500.0000  Ry
     convergence threshold     =      1.0E-06
     mixing beta               =       0.7000
     number of iterations used =            8  plain     mixing
     Exchange-correlation      = SLA  PW   PBE  PBE ( 1 4 3 4 0)
     EXX-fraction              =        0.00
     nstep                     =           50

     celldm(1)=  12.207631  celldm(2)=   0.000000  celldm(3)=   0.000000
     celldm(4)=   0.000000  celldm(5)=   0.000000  celldm(6)=   0.000000

     crystal axes: (cart. coord. in units of alat)
               a(1) = (   1.000000   0.000000   0.000000 )
               a(2) = (   0.000000   1.004836   0.000000 )
               a(3) = (   0.000000   0.000000   4.100811 )

     reciprocal axes: (cart. coord. in units 2 pi/alat)
               b(1) = (  1.000000  0.000000  0.000000 )
               b(2) = (  0.000000  0.995187  0.000000 )
               b(3) = (  0.000000  0.000000  0.243854 )

     PseudoPot. # 1 for O  read from file:
     /home/camp/zhonxu/pseudo/o_pbe_v1.01.uspp.F.UPF
     MD5 check sum: 2bcb18d16ea4b960afae9ec6d52f22d2
     Pseudo is Ultrasoft + core correction, Zval =  6.0
     Generated by new atomic code, or converted to UPF format
     Using radial grid of  737 points,  5 beta functions with:
                l(1) =   0
                l(2) =   0
                l(3) =   1
                l(4) =   1
                l(5) =   2
     Q(r) pseudized with  8 coefficients,  rinner =    0.900   0.900   0.900
                                                       0.900   0.900

     PseudoPot. # 2 for Pt read from file:
     /home/camp/zhonxu/pseudo/pt_pbe_v1.uspp.F.UPF
     MD5 check sum: 4c71d6ad5ef119f1eb26a4d0b7884226
     Pseudo is Ultrasoft + core correction, Zval = 16.0
     Generated by new atomic code, or converted to UPF format
     Using radial grid of  985 points,  6 beta functions with:
                l(1) =   0
                l(2) =   0
                l(3) =   1
                l(4) =   1
                l(5) =   2
                l(6) =   2
     Q(r) pseudized with  8 coefficients,  rinner =    1.300   1.300   1.300
                                                       1.300   1.300

     PseudoPot. # 3 for H  read from file:
     /home/camp/zhonxu/pseudo/h_pbe_v1.uspp.F.UPF
     MD5 check sum: 3408e3ff4ec8b0a4e358431e7e038a48
     Pseudo is Ultrasoft, Zval =  1.0
     Generated by new atomic code, or converted to UPF format
     Using radial grid of  615 points,  2 beta functions with:
                l(1) =   0
                l(2) =   0
     Q(r) pseudized with  8 coefficients,  rinner =    0.700

     atomic species   valence    mass     pseudopotential
        O0             6.00    15.99940     O ( 1.00)
        Pt1           16.00   195.08000     Pt( 1.00)
        H2             1.00     1.00794     H ( 1.00)

     Simplified LDA+U calculation (l_max = 2) with parameters (eV):
     atomic species    L          U    alpha       J0     beta
        Pt1            2     6.0000   0.0000   0.0000   0.0000

     No symmetry found

   Cartesian axes

     site n.     atom                  positions (alat units)
         1           O0  tau(   1) = (   0.0000000   0.0000000   1.5489174  )
         2           O0  tau(   2) = (   0.0000000   0.5024180   1.6470088  )
         3           Pt1 tau(   3) = (   0.2500000   0.5024180   1.8504500  )
         4           Pt1 tau(   4) = (   0.0000000   0.0000000   1.8564782  )
         5           O0  tau(   5) = (   0.2500000   0.8139171   1.8182587  )
         6           O0  tau(   6) = (   0.2500000   0.1909188   1.8867012  )
         7           O0  tau(   7) = (   0.0000000   0.5024180   2.0373240  )
         8           O0  tau(   8) = (   0.0000000   0.0000000   2.1721997  )
         9           Pt1 tau(   9) = (   0.2500000   0.0000000   2.3623543  )
        10           Pt1 tau(  10) = (   0.0000000   0.5024180   2.3594017  )
        11           O0  tau(  11) = (   0.2500000   0.6933368   2.3215512  )
        12           O0  tau(  12) = (   0.2500000   0.3114991   2.4021322  )
        13           O0  tau(  13) = (   0.0000000   0.0000000   2.5481621  )
        14           O0  tau(  14) = (   0.5000000   0.0000000   1.5492455  )
        15           O0  tau(  15) = (   0.5000000   0.5024180   1.6439332  )
        16           Pt1 tau(  16) = (   0.7500000   0.5024180   1.8504910  )
        17           Pt1 tau(  17) = (   0.5000000   0.0000000   1.8565192  )
        18           O0  tau(  18) = (   0.7500000   0.8139171   1.8184227  )
        19           O0  tau(  19) = (   0.7500000   0.1909188   1.8866602  )
        20           O0  tau(  20) = (   0.5000000   0.5024180   2.0431061  )
        21           O0  tau(  21) = (   0.5000000   0.0000000   2.1716256  )
        22           Pt1 tau(  22) = (   0.7500000   0.0000000   2.3623953  )
        23           Pt1 tau(  23) = (   0.5000000   0.5024180   2.3697358  )
        24           O0  tau(  24) = (   0.7500000   0.6933368   2.3215102  )
        25           O0  tau(  25) = (   0.7500000   0.3114991   2.4021732  )
        26           O0  tau(  26) = (   0.5000000   0.0000000   2.5480390  )
        27           H2  tau(  27) = (   0.0001100   0.6425926   1.5814778  )
        28           H2  tau(  28) = (   0.5001800   0.6431151   1.5801656  )
        29           H2  tau(  29) = (   0.1426600   0.0364956   1.5073762  )
        30           H2  tau(  30) = (   0.6419200   0.0388771   1.5073762  )
        31           O0  tau(  31) = (   0.5000900   0.5753691   2.6428088  )

     number of k points=    10  Methfessel-Paxton smearing, width (Ry)=  0.0100
                       cart. coord. in units 2pi/alat
        k(    1) = (   0.0000000   0.0000000   0.0000000), wk =   0.1250000
        k(    2) = (   0.0000000   0.2487968   0.0000000), wk =   0.2500000
        k(    3) = (   0.0000000  -0.4975937   0.0000000), wk =   0.1250000
        k(    4) = (   0.2500000   0.0000000   0.0000000), wk =   0.2500000
        k(    5) = (   0.2500000   0.2487968   0.0000000), wk =   0.2500000
        k(    6) = (   0.2500000  -0.4975937   0.0000000), wk =   0.2500000
        k(    7) = (  -0.5000000   0.0000000   0.0000000), wk =   0.1250000
        k(    8) = (  -0.5000000   0.2487968   0.0000000), wk =   0.2500000
        k(    9) = (  -0.5000000  -0.4975937   0.0000000), wk =   0.1250000
        k(   10) = (  -0.2500000   0.2487968   0.0000000), wk =   0.2500000

     Largest allocated arrays     est. size (Mb)     dimensions
     Largest temporary arrays     est. size (Mb)     dimensions

     Check: negative/imaginary core charge=   -0.000003    0.000000

     Initial potential from superposition of free atoms
     Check: negative starting charge=   -1.533958

     starting charge  241.99985, renormalised to  246.00000

     negative rho (up, down):  0.156E+01 0.000E+00
     Number of +U iterations with fixed ns =  0
     Starting occupations:
 --- enter write_ns ---
 LDA+U parameters:
U( 2)     =  6.00000000
alpha( 2) =  0.00000000
atom    3   Tr[ns(na)] =   8.00000
    eigenvalues:
  0.800  0.800  0.800  0.800  0.800
    eigenvectors:
  1.000  0.000  0.000  0.000  0.000
  0.000  1.000  0.000  0.000  0.000
  0.000  0.000  1.000  0.000  0.000
  0.000  0.000  0.000  1.000  0.000
  0.000  0.000  0.000  0.000  1.000
    occupations:
  0.800  0.000  0.000  0.000  0.000
  0.000  0.800  0.000  0.000  0.000
  0.000  0.000  0.800  0.000  0.000
  0.000  0.000  0.000  0.800  0.000
  0.000  0.000  0.000  0.000  0.800
atom    4   Tr[ns(na)] =   8.00000
    eigenvalues:
  0.800  0.800  0.800  0.800  0.800
    eigenvectors:
  1.000  0.000  0.000  0.000  0.000
  0.000  1.000  0.000  0.000  0.000
  0.000  0.000  1.000  0.000  0.000
  0.000  0.000  0.000  1.000  0.000
  0.000  0.000  0.000  0.000  1.000
    occupations:
  0.800  0.000  0.000  0.000  0.000
  0.000  0.800  0.000  0.000  0.000
  0.000  0.000  0.800  0.000  0.000
  0.000  0.000  0.000  0.800  0.000
  0.000  0.000  0.000  0.000  0.800
atom    9   Tr[ns(na)] =   8.00000
    eigenvalues:
  0.800  0.800  0.800  0.800  0.800
    eigenvectors:
  1.000  0.000  0.000  0.000  0.000
  0.000  1.000  0.000  0.000  0.000
  0.000  0.000  1.000  0.000  0.000
  0.000  0.000  0.000  1.000  0.000
  0.000  0.000  0.000  0.000  1.000
    occupations:
  0.800  0.000  0.000  0.000  0.000
  0.000  0.800  0.000  0.000  0.000
  0.000  0.000  0.800  0.000  0.000
  0.000  0.000  0.000  0.800  0.000
  0.000  0.000  0.000  0.000  0.800
atom   10   Tr[ns(na)] =   8.00000
    eigenvalues:
  0.800  0.800  0.800  0.800  0.800
    eigenvectors:
  1.000  0.000  0.000  0.000  0.000
  0.000  1.000  0.000  0.000  0.000
  0.000  0.000  1.000  0.000  0.000
  0.000  0.000  0.000  1.000  0.000
  0.000  0.000  0.000  0.000  1.000
    occupations:
  0.800  0.000  0.000  0.000  0.000
  0.000  0.800  0.000  0.000  0.000
  0.000  0.000  0.800  0.000  0.000
  0.000  0.000  0.000  0.800  0.000
  0.000  0.000  0.000  0.000  0.800
atom   16   Tr[ns(na)] =   8.00000
    eigenvalues:
  0.800  0.800  0.800  0.800  0.800
    eigenvectors:
  1.000  0.000  0.000  0.000  0.000
  0.000  1.000  0.000  0.000  0.000
  0.000  0.000  1.000  0.000  0.000
  0.000  0.000  0.000  1.000  0.000
  0.000  0.000  0.000  0.000  1.000
    occupations:
  0.800  0.000  0.000  0.000  0.000
  0.000  0.800  0.000  0.000  0.000
  0.000  0.000  0.800  0.000  0.000
  0.000  0.000  0.000  0.800  0.000
  0.000  0.000  0.000  0.000  0.800
atom   17   Tr[ns(na)] =   8.00000
    eigenvalues:
  0.800  0.800  0.800  0.800  0.800
    eigenvectors:
  1.000  0.000  0.000  0.000  0.000
  0.000  1.000  0.000  0.000  0.000
  0.000  0.000  1.000  0.000  0.000
  0.000  0.000  0.000  1.000  0.000
  0.000  0.000  0.000  0.000  1.000
    occupations:
  0.800  0.000  0.000  0.000  0.000
  0.000  0.800  0.000  0.000  0.000
  0.000  0.000  0.800  0.000  0.000
  0.000  0.000  0.000  0.800  0.000
  0.000  0.000  0.000  0.000  0.800
atom   22   Tr[ns(na)] =   8.00000
    eigenvalues:
  0.800  0.800  0.800  0.800  0.800
    eigenvectors:
  1.000  0.000  0.000  0.000  0.000
  0.000  1.000  0.000  0.000  0.000
  0.000  0.000  1.000  0.000  0.000
  0.000  0.000  0.000  1.000  0.000
  0.000  0.000  0.000  0.000  1.000
    occupations:
  0.800  0.000  0.000  0.000  0.000
  0.000  0.800  0.000  0.000  0.000
[...]
    occupations:
  0.954  0.001 -0.010 -0.087  0.001
  0.001  0.721  0.001  0.002 -0.004
 -0.010  0.001  0.971 -0.027  0.001
 -0.087  0.002 -0.027  0.769 -0.000
  0.001 -0.004  0.001 -0.000  0.964
atom   10   Tr[ns(na)] =   8.82506
    eigenvalues:
  0.674  0.775  0.985  0.987  0.991
    eigenvectors:
  0.000  0.977  0.000  0.015  0.007
  0.017  0.000  0.983  0.000  0.000
  0.000  0.001  0.000  0.191  0.809
  0.000  0.022  0.000  0.794  0.184
  0.983  0.000  0.017  0.000  0.000
    occupations:
  0.780  0.000 -0.005  0.031  0.000
  0.000  0.979  0.000 -0.000 -0.041
 -0.005  0.000  0.991 -0.001 -0.000
  0.031 -0.000 -0.001  0.983 -0.000
  0.000 -0.041 -0.000 -0.000  0.679
atom   16   Tr[ns(na)] =   8.77739
    eigenvalues:
  0.705  0.716  0.988  0.989  0.991
    eigenvectors:
  0.042  0.128  0.634  0.195  0.001
  0.763  0.237  0.000  0.000  0.000
  0.001  0.005  0.003  0.062  0.930
  0.194  0.630  0.134  0.032  0.009
  0.000  0.000  0.229  0.711  0.060
    occupations:
  0.941 -0.003  0.009 -0.103  0.000
 -0.003  0.708 -0.002 -0.004 -0.004
  0.009 -0.002  0.990  0.019 -0.001
 -0.103 -0.004  0.019  0.762 -0.000
  0.000 -0.004 -0.001 -0.000  0.989
atom   17   Tr[ns(na)] =   8.76898
    eigenvalues:
  0.701  0.723  0.985  0.988  0.989
    eigenvectors:
  0.000  0.984  0.009  0.003  0.004
  0.013  0.000  0.043  0.883  0.061
  0.000  0.006  0.869  0.014  0.112
  0.000  0.010  0.079  0.089  0.823
  0.987  0.000  0.001  0.012  0.001
    occupations:
  0.727 -0.004 -0.019  0.026 -0.001
 -0.004  0.984  0.000  0.000  0.033
 -0.019  0.000  0.984  0.003  0.000
  0.026  0.000  0.003  0.986  0.000
 -0.001  0.033  0.000  0.000  0.704
atom   22   Tr[ns(na)] =   8.75784
    eigenvalues:
  0.721  0.731  0.964  0.974  0.988
    eigenvectors:
  0.001  0.131  0.001  0.011  0.856
  0.989  0.011  0.000  0.000  0.000
  0.000  0.014  0.008  0.973  0.004
  0.009  0.844  0.000  0.007  0.139
  0.000  0.000  0.990  0.008  0.001
    occupations:
  0.954 -0.000 -0.010 -0.087 -0.001
 -0.000  0.721 -0.001 -0.001 -0.004
 -0.010 -0.001  0.971 -0.027 -0.001
 -0.087 -0.001 -0.027  0.769  0.000
 -0.001 -0.004 -0.001  0.000  0.964
atom   23   Tr[ns(na)] =   8.74313
    eigenvalues:
  0.725  0.749  0.939  0.970  0.989
    eigenvectors:
  0.000  0.880  0.114  0.000  0.007
  0.022  0.000  0.000  0.978  0.000
  0.000  0.104  0.872  0.000  0.024
  0.000  0.016  0.014  0.000  0.969
  0.978  0.000  0.000  0.022  0.000
    occupations:
  0.772  0.000  0.057  0.027 -0.000
  0.000  0.964 -0.000  0.000 -0.036
  0.057 -0.000  0.920 -0.016 -0.000
  0.027  0.000 -0.016  0.985 -0.000
 -0.000 -0.036 -0.000 -0.000  0.730
N of occupied +U levels =  70.1766514
 --- exit write_ns ---

     Threshold (ethr) on eigenvalues was too large:
     Diagonalizing with lowered threshold

     Davidson diagonalization with overlap
     ethr =  3.50E-08,  avg # of iterations =  1.0

[...]

     total energy              =   -2279.16096856 Ry
     Harris-Foulkes estimate   =   -2279.16096856 Ry
     estimated scf accuracy    <       0.00000002 Ry

     iteration # 16     ecut=    40.00 Ry     beta=0.70
     Davidson diagonalization with overlap
     ethr =  6.14E-12,  avg # of iterations =  1.0

     negative rho (up, down):  0.157E+01 0.000E+00

     End of self-consistent calculation
 --- enter write_ns ---
 LDA+U parameters:
U( 2)     =  6.00000000
alpha( 2) =  0.00000000
atom    3   Tr[ns(na)] =   8.77718
    eigenvalues:
  0.705  0.716  0.988  0.989  0.991
    eigenvectors:
  0.041  0.129  0.634  0.195  0.001
  0.764  0.235  0.000  0.000  0.000
  0.001  0.005  0.004  0.062  0.929
  0.193  0.631  0.135  0.032  0.009
  0.000  0.000  0.227  0.711  0.062
    occupations:
  0.941  0.003  0.009 -0.103 -0.000
  0.003  0.708  0.002  0.004 -0.004
  0.009  0.002  0.989  0.019  0.001
 -0.103  0.004  0.019  0.762  0.000
 -0.000 -0.004  0.001  0.000  0.988
atom    4   Tr[ns(na)] =   8.76903
    eigenvalues:
  0.699  0.723  0.987  0.988  0.989
    eigenvectors:
  0.000  0.985  0.011  0.004  0.000
  0.013  0.000  0.115  0.811  0.061
  0.000  0.005  0.586  0.013  0.396
  0.000  0.009  0.287  0.161  0.542
  0.987  0.000  0.002  0.011  0.001
    occupations:
  0.727 -0.004 -0.019  0.026 -0.001
 -0.004  0.984  0.000  0.000  0.033
 -0.019  0.000  0.986  0.003 -0.000
  0.026  0.000  0.003  0.985  0.000
 -0.001  0.033 -0.000  0.000  0.703
atom    9   Tr[ns(na)] =   8.75774
    eigenvalues:
  0.721  0.731  0.964  0.974  0.988
    eigenvectors:
  0.005  0.128  0.001  0.011  0.856
  0.964  0.035  0.000  0.000  0.000
  0.001  0.013  0.005  0.977  0.004
  0.030  0.823  0.000  0.007  0.139
  0.000  0.000  0.993  0.005  0.001
    occupations:
  0.954  0.001 -0.010 -0.087  0.001
  0.001  0.721  0.001  0.002 -0.004
 -0.010  0.001  0.971 -0.027  0.001
 -0.087  0.002 -0.027  0.769 -0.000
  0.001 -0.004  0.001 -0.000  0.964
atom   10   Tr[ns(na)] =   8.82368
    eigenvalues:
  0.674  0.775  0.985  0.987  0.991
    eigenvectors:
  0.000  0.977  0.000  0.015  0.007
  0.017  0.000  0.983  0.000  0.000
  0.000  0.001  0.000  0.191  0.808
  0.000  0.022  0.000  0.793  0.184
  0.983  0.000  0.017  0.000  0.000
    occupations:
  0.780  0.000 -0.005  0.031  0.000
  0.000  0.979  0.000 -0.000 -0.041
 -0.005  0.000  0.991 -0.001 -0.000
  0.031 -0.000 -0.001  0.983 -0.000
  0.000 -0.041 -0.000 -0.000  0.679
atom   16   Tr[ns(na)] =   8.77717
    eigenvalues:
  0.705  0.716  0.988  0.989  0.991
    eigenvectors:
  0.041  0.129  0.636  0.192  0.001
  0.768  0.231  0.000  0.000  0.000
  0.001  0.005  0.003  0.062  0.930
  0.190  0.634  0.135  0.032  0.009
  0.000  0.000  0.226  0.714  0.060
    occupations:
  0.941 -0.003  0.009 -0.103  0.000
 -0.003  0.708 -0.002 -0.004 -0.004
  0.009 -0.002  0.990  0.019 -0.001
 -0.103 -0.004  0.019  0.762 -0.000
  0.000 -0.004 -0.001 -0.000  0.988
atom   17   Tr[ns(na)] =   8.76893
    eigenvalues:
  0.701  0.723  0.984  0.988  0.989
    eigenvectors:
  0.000  0.984  0.009  0.003  0.004
  0.013  0.000  0.042  0.885  0.060
  0.000  0.006  0.873  0.014  0.107
  0.000  0.010  0.075  0.087  0.828
  0.987  0.000  0.001  0.012  0.001
    occupations:
  0.727 -0.004 -0.019  0.026 -0.001
 -0.004  0.984  0.000  0.000  0.033
 -0.019  0.000  0.984  0.003  0.000
  0.026  0.000  0.003  0.986  0.000
 -0.001  0.033  0.000  0.000  0.704
atom   22   Tr[ns(na)] =   8.75776
    eigenvalues:
  0.721  0.731  0.964  0.974  0.988
    eigenvectors:
  0.002  0.131  0.001  0.011  0.856
  0.988  0.011  0.000  0.000  0.000
  0.000  0.014  0.007  0.975  0.004
  0.010  0.844  0.000  0.007  0.139
  0.000  0.000  0.992  0.007  0.001
    occupations:
  0.954 -0.000 -0.010 -0.087 -0.001
 -0.000  0.721 -0.001 -0.001 -0.004
 -0.010 -0.001  0.971 -0.027 -0.001
 -0.087 -0.001 -0.027  0.769  0.000
 -0.001 -0.004 -0.001  0.000  0.964
atom   23   Tr[ns(na)] =   8.74352
    eigenvalues:
  0.725  0.749  0.939  0.970  0.989
    eigenvectors:
  0.000  0.879  0.114  0.000  0.007
  0.022  0.000  0.000  0.978  0.000
  0.000  0.104  0.872  0.000  0.024
  0.000  0.016  0.014  0.000  0.970
  0.978  0.000  0.000  0.022  0.000
    occupations:
  0.772  0.000  0.057  0.027 -0.000
  0.000  0.964 -0.000  0.000 -0.036
  0.057 -0.000  0.920 -0.015 -0.000
  0.027  0.000 -0.015  0.985 -0.000
 -0.000 -0.036 -0.000 -0.000  0.730
N of occupied +U levels =  70.1750116
 --- exit write_ns ---

[...]

          k = 0.2500-0.4976 0.0000 ( 32026 PWs)   bands (ev):

[...]

          k =-0.2500 0.2488 0.0000 ( 32025 PWs)   bands (ev):

   -55.5401 -55.4998 -55.3701 -55.3488 -55.3098 -55.2874 -55.2462 -55.2207
   -55.1810 -55.1769 -55.1741 -55.1135 -55.1106 -55.0232 -54.9896 -54.9857
   -54.9840 -54.8997 -54.8629 -54.8391 -54.8341 -54.5922 -54.3595 -54.0089
   -22.2834 -22.0580 -21.4083 -21.3117 -21.0216 -20.9536 -20.9251 -20.7553
   -20.7052 -20.6354 -20.5087 -20.4201 -20.3994 -20.2323 -20.1592 -20.1463
   -19.5921 -19.2863 -19.1245 -11.2989 -11.1363 -11.0332 -10.9642 -10.5620
   -10.4941 -10.4818 -10.2105 -10.0595  -9.9085  -9.7936  -9.7566  -9.5974
    -9.4606  -9.3937  -9.2969  -9.1628  -9.0377  -8.8727  -8.7398  -8.5988
    -8.5389  -8.4722  -8.3707  -8.2243  -8.1228  -8.0167  -7.8762  -7.8437
    -7.7959  -7.6823  -7.5815  -7.5509  -7.4406  -7.3185  -7.2889  -7.2102
    -7.0991  -7.0569  -6.8789  -6.7180  -6.6914  -6.4234  -6.2077  -6.0481
    -5.8382  -5.8048  -5.7401  -5.6094  -5.4985  -5.4266  -5.3333  -5.1457
    -5.0367  -4.8759  -4.7052  -4.5698  -4.5158  -4.3711  -4.3007  -4.2329
    -4.0792  -4.0414  -3.9625  -3.8245  -3.7058  -3.6884  -3.4224  -3.3697
    -3.2794  -3.0818  -2.9444  -2.8272  -2.7890  -2.6936  -2.6593  -2.5441
    -2.3339  -2.2074  -2.0797  -1.9807  -1.8273  -1.3057  -1.1531  -0.8507
    -0.4943  -0.3492  -0.0189   0.2731   0.5085   0.6383   0.6941   0.8059
     1.0291   1.2014   1.2907   1.6404   3.0752   3.8551   4.5821   5.0110
     5.0352   5.1051   5.2930   5.6566   6.0930   6.1453   6.1781   6.3241
     6.4293   6.5166   6.6723   6.8518   6.9201   6.9722   7.1034   7.2286
     7.3584   7.4798   7.5634   7.5839   7.6989   7.8632   7.9321   8.0432
     8.1739   8.2720   8.3125   8.4604   8.5529   8.6400   8.6628   8.7920
     8.8731   9.0222   9.1323   9.2810   9.3425   9.4731   9.5371   9.6048
     9.6938   9.8724  10.0342  10.0915  10.1816  10.2454  10.3101  10.3851
    10.5219  10.5774  10.6493  10.7589  10.7874  10.9658  11.0504  11.0856
    11.1704  11.1985  11.3764  11.4599  11.4828  11.7177  11.7431  11.7800
    11.8687  11.9473  12.0039  12.0808  12.1428  12.2488  12.2827  12.3315
    12.4128  12.4538  12.5285  12.5810  12.6413  12.7398  12.8113  12.9393
    12.9779  13.0427  13.1716  13.2197  13.2440  13.4544  13.5249  13.5717
    13.6489  13.6950  13.7761  13.8695  13.9402  13.9746  14.0612  14.1294
    14.1888  14.3501  14.4174  14.5335  14.5698  14.6358  14.7723  14.8617
    14.8839  14.9516  15.1383  15.2238  15.2668  15.3314  15.4147  15.4585
    15.5337  15.5913  15.6479  15.6812  15.7555  15.7776  15.8309  15.8970
    15.9966  16.0560  16.0791  16.1571  16.1830  16.2623  16.3776  16.4484
    16.5057  16.5844  16.7284  16.7484  16.8041  16.8549  16.8979  16.9087
    16.9965  17.0790  17.0980  17.1104  17.1261  17.1401  17.1583  17.1975
    17.2165  17.2383  17.2740  17.2906  17.3290  17.3824  17.4714  17.5103
    17.5368  17.5840  17.6246  17.7377  17.7914  17.9020  17.9627  18.0174
    18.0401  18.0860  18.1430  18.2573  18.2724  18.3934  18.4978  18.5267
    18.5946  18.6306  18.6785  18.7288  18.8349  18.8760  18.9007  19.0270
    19.0560  19.1742  19.1962  19.2182  19.3118  19.3681  19.4498  19.4916
    19.6457  19.7781  19.8231  19.8812  19.9537  19.9737  19.9883  20.0761
    20.1303  20.2270  20.2492  20.3160  20.3708  20.4058  20.5004  20.5898
    20.6544  20.7079  20.7528  20.8585  20.9314  20.9572  21.0203  21.0538
    21.0730  21.2333  21.2662  21.3756  21.4007  21.4574  21.5072  21.5559
    21.6055  21.6596  21.7340  21.7872  21.8316  21.8970  22.0058  22.0927
    22.1415

     the Fermi energy is    -2.0300 ev

!    total energy              =   -2279.16096855 Ry
     Harris-Foulkes estimate   =   -2279.16096856 Ry
     estimated scf accuracy    <          8.8E-09 Ry

     The total energy is the sum of the following terms:

     one-electron contribution =  -23665.48910800 Ry
     hartree contribution      =   11875.24532403 Ry
     xc contribution           =    -572.10527369 Ry
     ewald contribution        =   10081.58498587 Ry
     Hubbard energy            =       1.60341037 Ry
     smearing contrib. (-TS)   =      -0.00030712 Ry

     convergence has been achieved in  16 iterations

     Forces acting on atoms (Ry/au):

     negative rho (up, down):  0.157E+01 0.000E+00
     atom    1 type  1   force =    -0.00880945   -0.00392324   -0.00072534
     atom    2 type  1   force =     0.00013870    0.00394612    0.00021236
     atom    3 type  2   force =     0.01634139    0.00507444    0.00003554
     atom    4 type  2   force =     0.01051693    0.00472907   -0.00046558
     atom    5 type  1   force =     0.00123504   -0.00313959    0.00036306
     atom    6 type  1   force =    -0.00011784   -0.00305591   -0.00018056
     atom    7 type  1   force =     0.00006275    0.00123743   -0.00053879
     atom    8 type  1   force =    -0.00418625    0.00232159   -0.00038028
     atom    9 type  2   force =     0.00409833   -0.00476400    0.00036300
     atom   10 type  2   force =    -0.00000617   -0.02070487   -0.00073501
     atom   11 type  1   force =    -0.00186531    0.00211080   -0.00011755
     atom   12 type  1   force =    -0.00852237    0.01501890    0.00024064
     atom   13 type  1   force =    -0.00110373   -0.00862952    0.00033048
     atom   14 type  1   force =    -0.00871361   -0.00272158   -0.00092174
     atom   15 type  1   force =     0.00015992    0.00181781    0.00060163
     atom   16 type  2   force =    -0.01715449    0.00493719    0.00005080
     atom   17 type  2   force =     0.01035742    0.00492574   -0.00043268
     atom   18 type  1   force =     0.00131664   -0.00307377    0.00037266
     atom   19 type  1   force =     0.00032293   -0.00296914   -0.00018535
     atom   20 type  1   force =     0.00007750   -0.00523374    0.00000682
     atom   21 type  1   force =    -0.00404606    0.00217166    0.00004575
     atom   22 type  2   force =    -0.00039429   -0.00465248    0.00037608
     atom   23 type  2   force =    -0.00018098    0.01728082    0.00036976
     atom   24 type  1   force =     0.00198666    0.00216957   -0.00012865
     atom   25 type  1   force =     0.00864704    0.01497024    0.00024872
     atom   26 type  1   force =    -0.00106426   -0.01968770    0.00081185
     atom   27 type  3   force =    -0.00001142   -0.00020287   -0.00006671
     atom   28 type  3   force =    -0.00002481   -0.00037855   -0.00007475
     atom   29 type  3   force =     0.00041301   -0.00011673    0.00042317
     atom   30 type  3   force =     0.00053528   -0.00029789    0.00035472
     atom   31 type  1   force =    -0.00000849    0.00084019   -0.00025405

     Total force =     0.002581     Total SCF correction =     0.000348
     SCF correction compared to forces is large: reduce conv_thr to get better values

     bfgs converged in  14 scf cycles and  13 bfgs steps
     (criteria: energy < 0.10E-03, force < 0.10E-02)

     End of BFGS Geometry Optimization

     Final energy   =   -2279.1609685503 Ry
Begin final coordinates

ATOMIC_POSITIONS (crystal)
O0       0.000000000   0.000000000   0.377698202    0   0   1
O0       0.000000000   0.500000000   0.401755278    0   0   1
Pt1      0.250000000   0.500000000   0.451183788    0   0   1
Pt1      0.000000000   0.000000000   0.452773841    0   0   1
O0       0.250000000   0.810000000   0.442400251    0   0   1
O0       0.250000000   0.190000000   0.461308612    0   0   1
O0       0.000000000   0.500000000   0.496706964    0   0   1
O0       0.000000000   0.000000000   0.529922542    0   0   1
Pt1      0.250000000   0.000000000   0.575974446    0   0   1
Pt1      0.000000000   0.500000000   0.574961638    0   0   1
O0       0.250000000   0.690000000   0.564591230    0   0   1
O0       0.250000000   0.310000000   0.586580565    0   0   1
O0       0.000000000   0.000000000   0.621462928    0   0   1
O0       0.500000000   0.000000000   0.377788242    0   0   1
O0       0.500000000   0.500000000   0.401078298    0   0   1
Pt1      0.750000000   0.500000000   0.451185698    0   0   1
Pt1      0.500000000   0.000000000   0.452776309    0   0   1
O0       0.750000000   0.810000000   0.442425509    0   0   1
O0       0.750000000   0.190000000   0.461311633    0   0   1
O0       0.500000000   0.500000000   0.498052402    0   0   1
O0       0.500000000   0.000000000   0.529754812    0   0   1
Pt1      0.750000000   0.000000000   0.575976732    0   0   1
Pt1      0.500000000   0.500000000   0.577052388    0   0   1
O0       0.750000000   0.690000000   0.564577361    0   0   1
O0       0.750000000   0.310000000   0.586584069    0   0   1
O0       0.500000000   0.000000000   0.621541845    0   0   1
H2       0.000098309   0.640852224   0.386492927
H2       0.500083158   0.641458282   0.386244067
H2       0.143245159   0.035078009   0.367815701
H2       0.642963929   0.036077608   0.367860364
O0       0.500119585   0.580329685   0.643831359
End final coordinates

     General routines

     Parallel routines
     Hubbard U routines

   This run was terminated on:  18:42:28  28Apr2014

   JOB DONE.
Running PBS batch system epilogue script
Job id: 340479.audhumbla.fysik.dtu.dk
Username: zhonxu
Groupname: campgst
Jobname: PtO2/Eads-2-layers/O-U-6.0
Sessionid: 3307
Queuename: verylong
Accounting:
This job has allocated the following 16 nodes:
c061 c061 c061 c061 c061 c061 c061 c061 c010 c010 c010 c010 c010 c010 c010 c010
Finished epilogue job 340479.audhumbla.fysik.dtu.dk for zhonxu