     Program PWSCF v.5.0.2 (svn rev. 9656) starts on 29Apr2014 at  4:32:35

     Current dimensions of program PWSCF are:
     Max number of different atomic species (ntypx) = 10
     Max number of k-points (npk) =  40000
     Max angular momentum in pseudopotentials (lmaxx) =  3
     Reading input from pwscf.in
Warning: card &CELL ignored
Warning: card / ignored

     Subspace diagonalization in iterative solution of the eigenvalue problem:
     a serial algorithm will be used

     bravais-lattice index     =            0
     lattice parameter (alat)  =      12.0187  a.u.
     unit-cell volume          =    7280.5819 (a.u.)^3
     number of atoms/cell      =           31
     number of atomic types    =            3
     number of electrons       =       238.00
     number of Kohn-Sham states=          357
     kinetic-energy cutoff     =      40.0000  Ry
     charge density cutoff     =     500.0000  Ry
     convergence threshold     =      1.0E-06
     mixing beta               =       0.7000
     number of iterations used =            8  plain     mixing
     Exchange-correlation      = SLA  PW   PBE  PBE ( 1 4 3 4 0)
     EXX-fraction              =        0.00
     nstep                     =           50

     celldm(1)=  12.018658  celldm(2)=   0.000000  celldm(3)=   0.000000
     celldm(4)=   0.000000  celldm(5)=   0.000000  celldm(6)=   0.000000

     crystal axes: (cart. coord. in units of alat)
               a(1) = (   1.000000   0.000000   0.000000 )
               a(2) = (   0.000000   1.009517   0.000000 )
               a(3) = (   0.000000   0.000000   4.154171 )

     reciprocal axes: (cart. coord. in units 2 pi/alat)
               b(1) = (  1.000000  0.000000  0.000000 )
               b(2) = (  0.000000  0.990572  0.000000 )
               b(3) = (  0.000000  0.000000  0.240722 )

     PseudoPot. # 1 for O  read from file:
     /home/camp/zhonxu/pseudo/o_pbe_v1.01.uspp.F.UPF
     MD5 check sum: 2bcb18d16ea4b960afae9ec6d52f22d2
     Pseudo is Ultrasoft + core correction, Zval =  6.0
     Generated by new atomic code, or converted to UPF format
     Using radial grid of  737 points,  5 beta functions with:
                l(1) =   0
                l(2) =   0
                l(3) =   1
                l(4) =   1
                l(5) =   2
     Q(r) pseudized with  8 coefficients,  rinner =    0.900   0.900   0.900
                                                       0.900   0.900

     PseudoPot. # 2 for Ir read from file:
     /home/camp/zhonxu/pseudo/ir_pbe_v1.uspp.F.UPF
     MD5 check sum: abf987a9674477536ede83817f8f8b70
     Pseudo is Ultrasoft + core correction, Zval = 15.0
     Generated by new atomic code, or converted to UPF format
     Using radial grid of  983 points,  7 beta functions with:
                l(1) =   0
                l(2) =   0
                l(3) =   1
                l(4) =   1
                l(5) =   1
                l(6) =   2
                l(7) =   2
     Q(r) pseudized with  8 coefficients,  rinner =    1.350   1.350   1.350
                                                       1.350   1.350

     PseudoPot. # 3 for H  read from file:
     /home/camp/zhonxu/pseudo/h_pbe_v1.uspp.F.UPF
     MD5 check sum: 3408e3ff4ec8b0a4e358431e7e038a48
     Pseudo is Ultrasoft, Zval =  1.0
     Generated by new atomic code, or converted to UPF format
     Using radial grid of  615 points,  2 beta functions with:
                l(1) =   0
                l(2) =   0
     Q(r) pseudized with  8 coefficients,  rinner =    0.700

     atomic species   valence    mass     pseudopotential
        O0             6.00    15.99940     O ( 1.00)
        Ir1           15.00   192.22000     Ir( 1.00)
        H2             1.00     1.00794     H ( 1.00)

     Simplified LDA+U calculation (l_max = 2) with parameters (eV):
     atomic species    L          U    alpha       J0     beta
        Ir1            2     6.0000   0.0000   0.0000   0.0000

     No symmetry found

   Cartesian axes

     site n.     atom                  positions (alat units)
         1           O0  tau(   1) = (   0.0000000   0.0000000   1.5706091  )
         2           O0  tau(   2) = (   0.0000000   0.5047586   1.6747957  )
         3           Ir1 tau(   3) = (   0.2500000   0.5047586   1.8830443  )
         4           Ir1 tau(   4) = (   0.0000000   0.0000000   1.8812580  )
         5           O0  tau(   5) = (   0.2500000   0.8177090   1.8812996  )
         6           O0  tau(   6) = (   0.2500000   0.1918083   1.8799287  )
         7           O0  tau(   7) = (   0.0000000   0.5047586   2.0722253  )
         8           O0  tau(   8) = (   0.0000000   0.0000000   2.1948149  )
         9           Ir1 tau(   9) = (   0.2500000   0.0000000   2.3898532  )
        10           Ir1 tau(  10) = (   0.0000000   0.5047586   2.3761029  )
        11           O0  tau(  11) = (   0.2500000   0.6965669   2.3876930  )
        12           O0  tau(  12) = (   0.2500000   0.3129503   2.3878177  )
        13           O0  tau(  13) = (   0.0000000   0.0000000   2.5742569  )
        14           O0  tau(  14) = (   0.5000000   0.0000000   1.5702768  )
        15           O0  tau(  15) = (   0.5000000   0.5047586   1.6724694  )
        16           Ir1 tau(  16) = (   0.7500000   0.5047586   1.8830859  )
        17           Ir1 tau(  17) = (   0.5000000   0.0000000   1.8811334  )
        18           O0  tau(  18) = (   0.7500000   0.8177090   1.8813411  )
        19           O0  tau(  19) = (   0.7500000   0.1918083   1.8799702  )
        20           O0  tau(  20) = (   0.5000000   0.5047586   2.0802013  )
        21           O0  tau(  21) = (   0.5000000   0.0000000   2.1944825  )
        22           Ir1 tau(  22) = (   0.7500000   0.0000000   2.3898532  )
        23           Ir1 tau(  23) = (   0.5000000   0.5047586   2.4038943  )
        24           O0  tau(  24) = (   0.7500000   0.6965669   2.3876515  )
        25           O0  tau(  25) = (   0.7500000   0.3129503   2.3878177  )
        26           O0  tau(  26) = (   0.5000000   0.0000000   2.5734260  )
        27           H2  tau(  27) = (  -0.0000700   0.6394282   1.5957418  )
        28           H2  tau(  28) = (   0.4999700   0.6419823   1.5977358  )
        29           H2  tau(  29) = (   0.1436200   0.0342933   1.5227115  )
        30           H2  tau(  30) = (   0.6432900   0.0353230   1.5222545  )
        31           O0  tau(  31) = (   0.5000100   0.5042640   2.6822238  )

     number of k points=    10  Methfessel-Paxton smearing, width (Ry)=  0.0100
                       cart. coord. in units 2pi/alat
        k(    1) = (   0.0000000   0.0000000   0.0000000), wk =   0.1250000
        k(    2) = (   0.0000000   0.2476431   0.0000000), wk =   0.2500000
        k(    3) = (   0.0000000  -0.4952862   0.0000000), wk =   0.1250000
        k(    4) = (   0.2500000   0.0000000   0.0000000), wk =   0.2500000
        k(    5) = (   0.2500000   0.2476431   0.0000000), wk =   0.2500000
        k(    6) = (   0.2500000  -0.4952862   0.0000000), wk =   0.2500000
        k(    7) = (  -0.5000000   0.0000000   0.0000000), wk =   0.1250000
        k(    8) = (  -0.5000000   0.2476431   0.0000000), wk =   0.2500000
        k(    9) = (  -0.5000000  -0.4952862   0.0000000), wk =   0.1250000
        k(   10) = (  -0.2500000   0.2476431   0.0000000), wk =   0.2500000

     Largest allocated arrays     est. size (Mb)     dimensions
     Largest temporary arrays     est. size (Mb)     dimensions

     Check: negative/imaginary core charge=   -0.000003    0.000000

     Initial potential from superposition of free atoms
     Check: negative starting charge=   -3.336659

     starting charge  233.99968, renormalised to  238.00000

     negative rho (up, down):  0.339E+01 0.000E+00
     Number of +U iterations with fixed ns =  0
     Starting occupations:
 --- enter write_ns ---
 LDA+U parameters:
U( 2)     =  6.00000000
alpha( 2) =  0.00000000
atom    3   Tr[ns(na)] =   7.00000
    eigenvalues:
  0.700  0.700  0.700  0.700  0.700
    eigenvectors:
  1.000  0.000  0.000  0.000  0.000
  0.000  1.000  0.000  0.000  0.000
  0.000  0.000  1.000  0.000  0.000
  0.000  0.000  0.000  1.000  0.000
  0.000  0.000  0.000  0.000  1.000
    occupations:
  0.700  0.000  0.000  0.000  0.000
  0.000  0.700  0.000  0.000  0.000
  0.000  0.000  0.700  0.000  0.000
  0.000  0.000  0.000  0.700  0.000
  0.000  0.000  0.000  0.000  0.700
atom    4   Tr[ns(na)] =   7.00000
    eigenvalues:
  0.700  0.700  0.700  0.700  0.700
    eigenvectors:
  1.000  0.000  0.000  0.000  0.000
  0.000  1.000  0.000  0.000  0.000
  0.000  0.000  1.000  0.000  0.000
  0.000  0.000  0.000  1.000  0.000
  0.000  0.000  0.000  0.000  1.000
    occupations:
  0.700  0.000  0.000  0.000  0.000
  0.000  0.700  0.000  0.000  0.000
  0.000  0.000  0.700  0.000  0.000
  0.000  0.000  0.000  0.700  0.000
  0.000  0.000  0.000  0.000  0.700
atom    9   Tr[ns(na)] =   7.00000
    eigenvalues:
  0.700  0.700  0.700  0.700  0.700
    eigenvectors:
  1.000  0.000  0.000  0.000  0.000
  0.000  1.000  0.000  0.000  0.000
  0.000  0.000  1.000  0.000  0.000
  0.000  0.000  0.000  1.000  0.000
  0.000  0.000  0.000  0.000  1.000
    occupations:
  0.700  0.000  0.000  0.000  0.000
  0.000  0.700  0.000  0.000  0.000
  0.000  0.000  0.700  0.000  0.000
  0.000  0.000  0.000  0.700  0.000
  0.000  0.000  0.000  0.000  0.700
atom   10   Tr[ns(na)] =   7.00000
    eigenvalues:
  0.700  0.700  0.700  0.700  0.700
    eigenvectors:
  1.000  0.000  0.000  0.000  0.000
  0.000  1.000  0.000  0.000  0.000
  0.000  0.000  1.000  0.000  0.000
  0.000  0.000  0.000  1.000  0.000
  0.000  0.000  0.000  0.000  1.000
    occupations:
  0.700  0.000  0.000  0.000  0.000
  0.000  0.700  0.000  0.000  0.000
  0.000  0.000  0.700  0.000  0.000
  0.000  0.000  0.000  0.700  0.000
  0.000  0.000  0.000  0.000  0.700
atom   16   Tr[ns(na)] =   7.00000
    eigenvalues:
  0.700  0.700  0.700  0.700  0.700
    eigenvectors:
  1.000  0.000  0.000  0.000  0.000
  0.000  1.000  0.000  0.000  0.000
  0.000  0.000  1.000  0.000  0.000
  0.000  0.000  0.000  1.000  0.000
  0.000  0.000  0.000  0.000  1.000
    occupations:
  0.700  0.000  0.000  0.000  0.000
  0.000  0.700  0.000  0.000  0.000
  0.000  0.000  0.700  0.000  0.000
  0.000  0.000  0.000  0.700  0.000
  0.000  0.000  0.000  0.000  0.700
atom   17   Tr[ns(na)] =   7.00000
    eigenvalues:
  0.700  0.700  0.700  0.700  0.700
    eigenvectors:
  1.000  0.000  0.000  0.000  0.000
  0.000  1.000  0.000  0.000  0.000
  0.000  0.000  1.000  0.000  0.000
  0.000  0.000  0.000  1.000  0.000
  0.000  0.000  0.000  0.000  1.000
    occupations:
  0.700  0.000  0.000  0.000  0.000
  0.000  0.700  0.000  0.000  0.000
  0.000  0.000  0.700  0.000  0.000
  0.000  0.000  0.000  0.700  0.000
  0.000  0.000  0.000  0.000  0.700
atom   22   Tr[ns(na)] =   7.00000
    eigenvalues:
  0.700  0.700  0.700  0.700  0.700
    eigenvectors:
  1.000  0.000  0.000  0.000  0.000
  0.000  1.000  0.000  0.000  0.000
  0.000  0.000  1.000  0.000  0.000
  0.000  0.000  0.000  1.000  0.000
  0.000  0.000  0.000  0.000  1.000
    occupations:
  0.700  0.000  0.000  0.000  0.000
[...]
  0.000  0.000  0.962  0.038  0.000
  0.001  0.860  0.000  0.000  0.139
  0.000  0.000  0.038  0.962  0.000
    occupations:
  0.941  0.001 -0.000 -0.110 -0.000
  0.001  0.654  0.001  0.000 -0.000
 -0.000  0.001  0.880 -0.000 -0.007
 -0.110  0.000 -0.000  0.712  0.001
 -0.000 -0.000 -0.007  0.001  0.913
atom   10   Tr[ns(na)] =   8.15311
    eigenvalues:
  0.572  0.609  0.952  0.959  0.985
    eigenvectors:
  0.991  0.000  0.000  0.000  0.009
  0.000  0.000  1.000  0.000  0.000
  0.000  0.000  0.000  1.000  0.000
  0.009  0.000  0.000  0.000  0.991
  0.000  1.000  0.000  0.000  0.000
    occupations:
  0.576  0.000  0.001  0.039 -0.000
  0.000  0.952 -0.000  0.000 -0.000
  0.001 -0.000  0.959  0.000  0.000
  0.039  0.000  0.000  0.981 -0.000
 -0.000 -0.000  0.000 -0.000  0.609
atom   16   Tr[ns(na)] =   8.20722
    eigenvalues:
  0.603  0.631  0.913  0.972  0.985
    eigenvectors:
  0.000  0.184  0.003  0.001  0.812
  0.999  0.001  0.000  0.000  0.000
  0.000  0.000  0.990  0.006  0.003
  0.001  0.815  0.000  0.000  0.184
  0.000  0.000  0.006  0.993  0.001
    occupations:
  0.919  0.003  0.003 -0.137  0.001
  0.003  0.603  0.000 -0.000 -0.005
  0.003  0.000  0.913 -0.004 -0.005
 -0.137 -0.000 -0.004  0.696 -0.000
  0.001 -0.005 -0.005 -0.000  0.972
atom   17   Tr[ns(na)] =   8.20244
    eigenvalues:
  0.620  0.671  0.890  0.934  0.986
    eigenvectors:
  0.001  0.989  0.000  0.000  0.011
  0.000  0.000  0.096  0.903  0.000
  0.000  0.000  0.904  0.096  0.000
  0.000  0.011  0.000  0.000  0.989
  0.999  0.001  0.000  0.000  0.000
    occupations:
  0.674 -0.003 -0.001  0.032  0.001
 -0.003  0.929  0.013  0.000 -0.002
 -0.001  0.013  0.894 -0.000  0.000
  0.032  0.000 -0.000  0.983  0.000
  0.001 -0.002  0.000  0.000  0.620
atom   22   Tr[ns(na)] =   8.19779
    eigenvalues:
  0.654  0.667  0.879  0.914  0.985
    eigenvectors:
  0.000  0.139  0.000  0.000  0.861
  1.000  0.000  0.000  0.000  0.000
  0.000  0.000  0.964  0.036  0.000
  0.000  0.861  0.000  0.000  0.139
  0.000  0.000  0.036  0.964  0.000
    occupations:
  0.941 -0.000 -0.000 -0.110 -0.000
 -0.000  0.654  0.001  0.000 -0.000
 -0.000  0.001  0.880 -0.000  0.006
 -0.110  0.000 -0.000  0.712  0.000
 -0.000 -0.000  0.006  0.000  0.913
atom   23   Tr[ns(na)] =   8.17022
    eigenvalues:
  0.658  0.724  0.832  0.884  0.988
    eigenvectors:
  0.000  0.990  0.000  0.000  0.010
  0.000  0.000  0.000  1.000  0.000
  0.000  0.000  1.000  0.000  0.000
  0.000  0.010  0.000  0.000  0.990
  1.000  0.000  0.000  0.000  0.000
    occupations:
  0.726  0.000 -0.000  0.026 -0.000
  0.000  0.884  0.000  0.000 -0.000
 -0.000  0.000  0.832  0.000  0.000
  0.026  0.000  0.000  0.985  0.000
 -0.000 -0.000  0.000  0.000  0.658
N of occupied +U levels =  65.5391900
 --- exit write_ns ---

     Threshold (ethr) on eigenvalues was too large:
     Diagonalizing with lowered threshold

     Davidson diagonalization with overlap
     ethr =  1.29E-08,  avg # of iterations =  2.0

[...]

     total energy              =   -2103.83674564 Ry
     Harris-Foulkes estimate   =   -2103.83674564 Ry
     estimated scf accuracy    <       0.00000009 Ry

     iteration # 14     ecut=    40.00 Ry     beta=0.70
     Davidson diagonalization with overlap
     ethr =  1.30E-11,  avg # of iterations =  1.0

     negative rho (up, down):  0.314E+01 0.000E+00

     End of self-consistent calculation
 --- enter write_ns ---
 LDA+U parameters:
U( 2)     =  6.00000000
alpha( 2) =  0.00000000
atom    3   Tr[ns(na)] =   8.20687
    eigenvalues:
  0.603  0.631  0.913  0.972  0.985
    eigenvectors:
  0.000  0.184  0.003  0.000  0.812
  0.999  0.001  0.000  0.000  0.000
  0.000  0.000  0.988  0.009  0.003
  0.001  0.815  0.000  0.000  0.184
  0.000  0.000  0.009  0.990  0.001
    occupations:
  0.919 -0.003  0.003 -0.137 -0.001
 -0.003  0.603 -0.001  0.000 -0.005
  0.003 -0.001  0.913 -0.004  0.006
 -0.137  0.000 -0.004  0.696 -0.000
 -0.001 -0.005  0.006 -0.000  0.971
atom    4   Tr[ns(na)] =   8.20271
    eigenvalues:
  0.621  0.672  0.885  0.939  0.986
    eigenvectors:
  0.000  0.988  0.000  0.000  0.011
  0.000  0.000  0.052  0.948  0.000
  0.000  0.000  0.948  0.052  0.000
  0.000  0.011  0.000  0.000  0.989
  0.999  0.000  0.000  0.000  0.000
    occupations:
  0.675 -0.003 -0.000  0.033  0.001
 -0.003  0.936  0.012  0.000 -0.002
 -0.000  0.012  0.887 -0.000  0.000
  0.033  0.000 -0.000  0.983  0.000
  0.001 -0.002  0.000  0.000  0.621
atom    9   Tr[ns(na)] =   8.19786
    eigenvalues:
  0.654  0.667  0.879  0.914  0.985
    eigenvectors:
  0.000  0.139  0.000  0.000  0.861
  0.999  0.001  0.000  0.000  0.000
  0.000  0.000  0.962  0.038  0.000
  0.001  0.860  0.000  0.000  0.139
  0.000  0.000  0.038  0.962  0.000
    occupations:
  0.941  0.001 -0.000 -0.110 -0.000
  0.001  0.654  0.001  0.000 -0.000
 -0.000  0.001  0.880 -0.000 -0.007
 -0.110  0.000 -0.000  0.712  0.001
 -0.000 -0.000 -0.007  0.001  0.913
atom   10   Tr[ns(na)] =   8.15352
    eigenvalues:
  0.572  0.609  0.952  0.959  0.985
    eigenvectors:
  0.991  0.000  0.000  0.000  0.009
  0.000  0.000  1.000  0.000  0.000
  0.000  0.000  0.000  1.000  0.000
  0.009  0.000  0.000  0.000  0.991
  0.000  1.000  0.000  0.000  0.000
    occupations:
  0.576  0.000  0.001  0.039 -0.000
  0.000  0.952 -0.000  0.000 -0.000
  0.001 -0.000  0.959  0.000  0.000
  0.039  0.000  0.000  0.981 -0.000
 -0.000 -0.000  0.000 -0.000  0.609
atom   16   Tr[ns(na)] =   8.20683
    eigenvalues:
  0.603  0.631  0.912  0.972  0.985
    eigenvectors:
  0.000  0.184  0.003  0.001  0.812
  0.999  0.001  0.000  0.000  0.000
  0.000  0.000  0.990  0.006  0.003
  0.001  0.815  0.000  0.000  0.184
  0.000  0.000  0.006  0.993  0.001
    occupations:
  0.919  0.003  0.003 -0.137  0.001
  0.003  0.603  0.000 -0.000 -0.005
  0.003  0.000  0.913 -0.004 -0.005
 -0.137 -0.000 -0.004  0.696 -0.000
  0.001 -0.005 -0.005 -0.000  0.972
atom   17   Tr[ns(na)] =   8.20213
    eigenvalues:
  0.620  0.671  0.890  0.934  0.986
    eigenvectors:
  0.001  0.989  0.000  0.000  0.011
  0.000  0.000  0.096  0.904  0.000
  0.000  0.000  0.904  0.096  0.000
  0.000  0.011  0.000  0.000  0.989
  0.999  0.001  0.000  0.000  0.000
    occupations:
  0.674 -0.003 -0.001  0.032  0.001
 -0.003  0.929  0.013  0.000 -0.002
 -0.001  0.013  0.894 -0.000  0.000
  0.032  0.000 -0.000  0.983  0.000
  0.001 -0.002  0.000  0.000  0.620
atom   22   Tr[ns(na)] =   8.19780
    eigenvalues:
  0.654  0.667  0.879  0.914  0.985
    eigenvectors:
  0.000  0.139  0.000  0.000  0.861
  1.000  0.000  0.000  0.000  0.000
  0.000  0.000  0.964  0.036  0.000
  0.000  0.861  0.000  0.000  0.139
  0.000  0.000  0.036  0.964  0.000
    occupations:
  0.941 -0.000 -0.000 -0.110 -0.000
 -0.000  0.654  0.001  0.000 -0.000
 -0.000  0.001  0.880 -0.000  0.006
 -0.110  0.000 -0.000  0.712  0.000
 -0.000 -0.000  0.006  0.000  0.913
atom   23   Tr[ns(na)] =   8.17092
    eigenvalues:
  0.658  0.724  0.833  0.884  0.988
    eigenvectors:
  0.000  0.990  0.000  0.000  0.010
  0.000  0.000  0.000  1.000  0.000
  0.000  0.000  1.000  0.000  0.000
  0.000  0.010  0.000  0.000  0.990
  1.000  0.000  0.000  0.000  0.000
    occupations:
  0.726  0.000 -0.000  0.026 -0.000
  0.000  0.884  0.000  0.000 -0.000
 -0.000  0.000  0.833  0.000  0.000
  0.026  0.000  0.000  0.985  0.000
 -0.000 -0.000  0.000  0.000  0.658
N of occupied +U levels =  65.5386314
 --- exit write_ns ---

[...]

          k = 0.2500-0.4953 0.0000 ( 31088 PWs)   bands (ev):

[...]

          k =-0.2500 0.2476 0.0000 ( 31099 PWs)   bands (ev):

   -51.8561 -51.5581 -51.4354 -50.6160 -50.6111 -50.5952 -50.5319 -50.5230
   -50.5079 -50.5048 -50.4992 -50.4782 -50.4534 -50.3677 -50.3379 -50.2440
   -50.2347 -50.2306 -50.1731 -50.1439 -50.1327 -50.1165 -50.1099 -50.0989
   -21.6604 -21.4974 -21.3494 -21.2650 -21.0309 -20.9106 -20.9049 -20.6978
   -20.6357 -20.6224 -20.4994 -20.4021 -20.2692 -20.1791 -20.1089 -19.9201
   -19.3655 -19.1907 -19.0461 -11.0021 -10.8333 -10.5186 -10.4169 -10.1747
   -10.0724  -9.9202  -9.9101  -9.5916  -9.3463  -9.2324  -9.1481  -9.1019
    -8.8715  -8.7766  -8.6377  -8.4690  -8.4518  -8.2535  -8.0917  -7.8446
    -7.7834  -7.6905  -7.6038  -7.5332  -7.4531  -7.2858  -7.1459  -7.0866
    -6.9736  -6.8087  -6.7223  -6.6294  -6.5341  -6.4647  -6.4330  -6.3256
    -6.2347  -6.0709  -5.9813  -5.8683  -5.7560  -5.5914  -5.3744  -5.2732
    -5.1890  -4.9917  -4.9061  -4.7437  -4.7043  -4.5605  -4.3820  -4.2725
    -4.0972  -4.0087  -3.9419  -3.8896  -3.7145  -3.6629  -3.6101  -3.4830
    -3.3862  -3.3491  -3.2859  -3.2616  -3.1312  -3.0210  -2.9363  -2.8557
    -2.7056  -2.2839  -2.1676  -2.0069  -1.9028  -1.6773  -1.4743  -1.3498
    -1.3045  -1.1235  -1.0357  -0.7941  -0.1208   0.4878   0.8272   1.1896
     1.4406   1.6250   1.9416   2.1694   2.4250   2.5894   2.6388   2.8173
     2.9444   3.1500   3.1928   3.6062   3.7361   4.5746   4.8239   5.3025
     5.4264   5.5294   5.5730   6.1816   6.4382   6.5250   6.6588   6.7559
     6.8334   6.9384   7.1450   7.2895   7.3570   7.4132   7.5659   7.8195
     7.9129   8.0072   8.0770   8.1559   8.3139   8.3371   8.4347   8.4883
     8.5479   8.7868   8.8518   8.9290   9.0278   9.1004   9.1965   9.3316
     9.4087   9.4151   9.4451   9.4615   9.4693   9.4718   9.5449   9.6332
     9.6432   9.6455   9.7109   9.7828   9.9027   9.9891  10.0406  10.1650
    10.2378  10.3434  10.4084  10.4533  10.5046  10.5360  10.6777  10.8413
    10.9006  11.0434  11.0657  11.1232  11.1646  11.3231  11.4408  11.5522
    11.6135  11.6734  11.7794  11.8006  11.8483  12.0351  12.1506  12.2007
    12.2556  12.3127  12.4008  12.4993  12.6151  12.6421  12.7010  12.7250
    12.8178  12.8821  12.9460  13.0072  13.0930  13.1374  13.1922  13.2564
    13.3348  13.4299  13.4873  13.6057  13.6954  13.8669  13.9099  13.9298
    14.0399  14.0881  14.1948  14.2728  14.3169  14.4294  14.4532  14.5943
    14.7071  14.7940  14.8440  14.9475  15.0815  15.1582  15.2300  15.3666
    15.4042  15.4954  15.5689  15.6006  15.6732  15.7713  15.7935  15.8732
    15.9461  16.0067  16.0452  16.1213  16.1823  16.2233  16.3351  16.3646
    16.4081  16.4293  16.5075  16.5605  16.6296  16.7117  16.7432  16.7862
    16.8225  16.9729  17.1558  17.1796  17.2276  17.3236  17.3496  17.4591
    17.4998  17.5427  17.5734  17.6717  17.7439  17.7707  17.8599  17.9237
    17.9675  18.0014  18.0348  18.1789  18.2187  18.2637  18.3514  18.4953
    18.5627  18.6041  18.6410  18.7146  18.8002  18.8900  18.9752  19.0139
    19.0658  19.1323  19.1788  19.2707  19.2848  19.3483  19.3993  19.5744
    19.6193  19.6612  19.6901  19.7802  19.8894  19.9611  20.0221  20.0697
    20.2079  20.2735  20.3531  20.4078  20.4848  20.5566  20.6216  20.7000
    20.7427  20.7928  20.8657  20.8884  20.9156  20.9762  21.0730  21.1793
    21.2782  21.3207  21.3645  21.4143  21.4754  21.5296  21.5661  21.6773
    21.7656  21.8282  21.8615  21.8894  21.9304

     the Fermi energy is    -1.4955 ev

!    total energy              =   -2103.83674563 Ry
     Harris-Foulkes estimate   =   -2103.83674564 Ry
     estimated scf accuracy    <          6.4E-09 Ry

     The total energy is the sum of the following terms:

     one-electron contribution =  -22751.14412662 Ry
     hartree contribution      =   11418.73781624 Ry
     xc contribution           =    -576.39471911 Ry
     ewald contribution        =    9802.75649326 Ry
     Hubbard energy            =       2.20791949 Ry
     smearing contrib. (-TS)   =      -0.00012890 Ry

     convergence has been achieved in  14 iterations

     Forces acting on atoms (Ry/au):

     negative rho (up, down):  0.314E+01 0.000E+00
     atom    1 type  1   force =    -0.00714322   -0.01233823   -0.00000366
     atom    2 type  1   force =    -0.00002987    0.00195423   -0.00002503
     atom    3 type  2   force =     0.03275093    0.00835094    0.00034784
     atom    4 type  2   force =     0.00918635    0.00804483   -0.00005943
     atom    5 type  1   force =    -0.00442224   -0.01433121   -0.00019781
     atom    6 type  1   force =     0.00787831    0.01203483   -0.00003516
     atom    7 type  1   force =    -0.00039722   -0.00238761   -0.00083701
     atom    8 type  1   force =    -0.00349308   -0.00073651   -0.00004803
     atom    9 type  2   force =     0.00637525    0.00061310    0.00007507
     atom   10 type  2   force =    -0.00000471   -0.00089917   -0.00073402
     atom   11 type  1   force =     0.01195933    0.00898732   -0.00001686
     atom   12 type  1   force =     0.01130761   -0.00958866   -0.00005292
     atom   13 type  1   force =    -0.00085628   -0.00003803    0.00005979
     atom   14 type  1   force =    -0.00787480   -0.01307991   -0.00023000
     atom   15 type  1   force =     0.00007687    0.00236243   -0.00043786
     atom   16 type  2   force =    -0.03273281    0.00693901    0.00034934
     atom   17 type  2   force =     0.00916170    0.00826587   -0.00007351
     atom   18 type  1   force =    -0.00589480   -0.01353272   -0.00017997
     atom   19 type  1   force =     0.00548422    0.01288835   -0.00005886
     atom   20 type  1   force =    -0.00022954   -0.00536024    0.00079333
     atom   21 type  1   force =    -0.00326759   -0.00049254   -0.00022454
     atom   22 type  2   force =    -0.00395374    0.00053163    0.00007586
     atom   23 type  2   force =    -0.00006606    0.00048534    0.00044137
     atom   24 type  1   force =    -0.01187865    0.00902571   -0.00002286
     atom   25 type  1   force =    -0.01115717   -0.00955419   -0.00005090
     atom   26 type  1   force =    -0.00075015   -0.00012636   -0.00005221
     atom   27 type  3   force =     0.00000305    0.00043896    0.00050725
     atom   28 type  3   force =     0.00002247    0.00080974    0.00048875
     atom   29 type  3   force =    -0.00002412    0.00016241    0.00012823
     atom   30 type  3   force =    -0.00002296    0.00062115    0.00013201
     atom   31 type  1   force =    -0.00000709   -0.00005046   -0.00005819

     Total force =     0.002124     Total SCF correction =     0.000378
     SCF correction compared to forces is large: reduce conv_thr to get better values

     bfgs converged in   9 scf cycles and   8 bfgs steps
     (criteria: energy < 0.10E-03, force < 0.10E-02)

     End of BFGS Geometry Optimization

     Final energy   =   -2103.8367456342 Ry
Begin final coordinates

ATOMIC_POSITIONS (crystal)
O0       0.000000000   0.000000000   0.378463554    0   0   1
O0       0.000000000   0.500000000   0.403788723    0   0   1
Ir1      0.250000000   0.500000000   0.453530704    0   0   1
Ir1      0.000000000   0.000000000   0.452881071    0   0   1
O0       0.250000000   0.810000000   0.453157040    0   0   1
O0       0.250000000   0.190000000   0.452666089    0   0   1
O0       0.000000000   0.500000000   0.499543970    0   0   1
O0       0.000000000   0.000000000   0.528049190    0   0   1
Ir1      0.250000000   0.000000000   0.574683112    0   0   1
Ir1      0.000000000   0.500000000   0.572142897    0   0   1
O0       0.250000000   0.690000000   0.574253631    0   0   1
O0       0.250000000   0.310000000   0.574271697    0   0   1
O0       0.000000000   0.000000000   0.619085973    0   0   1
O0       0.500000000   0.000000000   0.378373438    0   0   1
O0       0.500000000   0.500000000   0.403236819    0   0   1
Ir1      0.750000000   0.500000000   0.453536118    0   0   1
Ir1      0.500000000   0.000000000   0.452870489    0   0   1
O0       0.750000000   0.810000000   0.453177355    0   0   1
O0       0.750000000   0.190000000   0.452670319    0   0   1
O0       0.500000000   0.500000000   0.501622832    0   0   1
O0       0.500000000   0.000000000   0.528104293    0   0   1
Ir1      0.750000000   0.000000000   0.574688590    0   0   1
Ir1      0.500000000   0.500000000   0.577665542    0   0   1
O0       0.750000000   0.690000000   0.574253007    0   0   1
O0       0.750000000   0.310000000   0.574275734    0   0   1
O0       0.500000000   0.000000000   0.619135148    0   0   1
H2      -0.000203714   0.632673180   0.384650850
H2       0.499851372   0.635385088   0.385261756
H2       0.143363926   0.034403196   0.366787681
H2       0.642733887   0.036285520   0.366653764
O0       0.500007230   0.499350312   0.644578617
End final coordinates

     General routines

     Parallel routines
     Hubbard U routines

   This run was terminated on:  14:14:46  29Apr2014

   JOB DONE.
Running PBS batch system epilogue script
Job id: 340411.audhumbla.fysik.dtu.dk
Username: zhonxu
Groupname: campgst
Jobname: IrO2/Eads-2-layers/O-U-6.0
Sessionid: 21788
Queuename: verylong
Accounting:
This job has allocated the following 16 nodes:
b012 b012 b012 b012 b012 b012 b012 b012 b006 b006 b006 b006 b006 b006 b006 b006
Finished epilogue job 340411.audhumbla.fysik.dtu.dk for zhonxu